newXOutput 1

<Section columns = "stress_xx | stress_yy | stress_xy">
  1 0.00000 0.00000 0.00000
  2 0.00000 0.00000 0.00000
  3 0.00000 0.00000 0.00000
  4 0.00000 0.00000 0.00000
  5 0.00000 0.00000 0.00000
  6 0.00000 0.00000 0.00000
  7 0.00000 0.00000 0.00000
  8 0.00000 0.00000 0.00000
  9 0.00000 0.00000 0.00000
  10 0.00000 0.00000 0.00000
  11 0.00000 0.00000 0.00000
  12 0.00000 0.00000 0.00000
  13 0.00000 0.00000 0.00000
  14 0.00000 0.00000 0.00000
  15 0.00000 0.00000 0.00000
  16 0.00000 0.00000 0.00000
  17 0.00000 0.00000 0.00000
  18 0.00000 0.00000 0.00000
  19 0.00000 0.00000 0.00000
  20 0.00000 0.00000 0.00000
  21 0.00000 0.00000 0.00000
  22 0.00000 0.00000 0.00000
  23 0.00000 0.00000 0.00000
  24 0.00000 0.00000 0.00000
  25 0.00000 0.00000 0.00000
  26 0.00000 0.00000 0.00000
  27 0.00000 0.00000 0.00000
  28 0.00000 0.00000 0.00000
  29 0.00000 0.00000 0.00000
  30 0.00000 0.00000 0.00000
  31 0.00000 0.00000 0.00000
  32 0.00000 0.00000 0.00000
  33 0.00000 0.00000 0.00000
  34 0.00000 0.00000 0.00000
  35 0.00000 0.00000 0.00000
  36 0.00000 0.00000 0.00000
  37 0.00000 0.00000 0.00000
  38 0.00000 0.00000 0.00000
  39 0.00000 0.00000 0.00000
  40 0.00000 0.00000 0.00000
  41 0.00000 0.00000 0.00000
  42 0.00000 0.00000 0.00000
  43 0.00000 0.00000 0.00000
  44 0.00000 0.00000 0.00000
  45 0.00000 0.00000 0.00000
  46 0.00000 0.00000 0.00000
  47 0.00000 0.00000 0.00000
  48 0.00000 0.00000 0.00000
  49 0.00000 0.00000 0.00000
  50 0.00000 0.00000 0.00000
  51 0.00000 0.00000 0.00000
  52 0.00000 0.00000 0.00000
  53 0.00000 0.00000 0.00000
  54 0.00000 0.00000 0.00000
  55 0.00000 0.00000 0.00000
  56 0.00000 0.00000 0.00000
  57 0.00000 0.00000 0.00000
  58 0.00000 0.00000 0.00000
  59 0.00000 0.00000 0.00000
  60 0.00000 0.00000 0.00000
  61 0.00000 0.00000 0.00000
  62 0.00000 0.00000 0.00000
  63 0.00000 0.00000 0.00000
  64 0.00000 0.00000 0.00000
  65 0.00000 0.00000 0.00000
  66 0.00000 0.00000 0.00000
  67 0.00000 0.00000 0.00000
  68 0.00000 0.00000 0.00000
  69 0.00000 0.00000 0.00000
  70 0.00000 0.00000 0.00000
  71 0.00000 0.00000 0.00000
  72 0.00000 0.00000 0.00000
  73 0.00000 0.00000 0.00000
  74 0.00000 0.00000 0.00000
  75 0.00000 0.00000 0.00000
  76 0.00000 0.00000 0.00000
  77 0.00000 0.00000 0.00000
  78 0.00000 0.00000 0.00000
  79 0.00000 0.00000 0.00000
  80 0.00000 0.00000 0.00000
  81 0.00000 0.00000 0.00000
  82 0.00000 0.00000 0.00000
  83 0.00000 0.00000 0.00000
  84 0.00000 0.00000 0.00000
  85 0.00000 0.00000 0.00000
  86 0.00000 0.00000 0.00000
  87 0.00000 0.00000 0.00000
  88 0.00000 0.00000 0.00000
  89 0.00000 0.00000 0.00000
  90 0.00000 0.00000 0.00000
  91 0.00000 0.00000 0.00000
  92 0.00000 0.00000 0.00000
  93 0.00000 0.00000 0.00000
  94 0.00000 0.00000 0.00000
  95 0.00000 0.00000 0.00000
  96 0.00000 0.00000 0.00000
  97 0.00000 0.00000 0.00000
  98 0.00000 0.00000 0.00000
  99 0.00000 0.00000 0.00000
  100 0.00000 0.00000 0.00000
  101 0.00000 0.00000 0.00000
  102 0.00000 0.00000 0.00000
  103 0.00000 0.00000 0.00000
  104 0.00000 0.00000 0.00000
  105 0.00000 0.00000 0.00000
  106 0.00000 0.00000 0.00000
  107 0.00000 0.00000 0.00000
  108 0.00000 0.00000 0.00000
  109 0.00000 0.00000 0.00000
  110 0.00000 0.00000 0.00000
  111 0.00000 0.00000 0.00000
  112 0.00000 0.00000 0.00000
  113 0.00000 0.00000 0.00000
  114 0.00000 0.00000 0.00000
  115 0.00000 0.00000 0.00000
  116 0.00000 0.00000 0.00000
  117 0.00000 0.00000 0.00000
  118 0.00000 0.00000 0.00000
  119 0.00000 0.00000 0.00000
  120 0.00000 0.00000 0.00000
  121 0.00000 0.00000 0.00000
  122 0.00000 0.00000 0.00000
  123 0.00000 0.00000 0.00000
  124 0.00000 0.00000 0.00000
  125 0.00000 0.00000 0.00000
  126 0.00000 0.00000 0.00000
  127 0.00000 0.00000 0.00000
  128 0.00000 0.00000 0.00000
  129 0.00000 0.00000 0.00000
  130 0.00000 0.00000 0.00000
  131 0.00000 0.00000 0.00000
  132 0.00000 0.00000 0.00000
  133 0.00000 0.00000 0.00000
  134 0.00000 0.00000 0.00000
  135 0.00000 0.00000 0.00000
  136 0.00000 0.00000 0.00000
  137 0.00000 0.00000 0.00000
  138 0.00000 0.00000 0.00000
  139 0.00000 0.00000 0.00000
  140 0.00000 0.00000 0.00000
  141 0.00000 0.00000 0.00000
  142 0.00000 0.00000 0.00000
  143 0.00000 0.00000 0.00000
  144 0.00000 0.00000 0.00000
  145 0.00000 0.00000 0.00000
  146 0.00000 0.00000 0.00000
  147 0.00000 0.00000 0.00000
  148 0.00000 0.00000 0.00000
  149 0.00000 0.00000 0.00000
  150 0.00000 0.00000 0.00000
  151 0.00000 0.00000 0.00000
  152 0.00000 0.00000 0.00000
  153 0.00000 0.00000 0.00000
  154 0.00000 0.00000 0.00000
  155 0.00000 0.00000 0.00000
  156 0.00000 0.00000 0.00000
  157 0.00000 0.00000 0.00000
  158 0.00000 0.00000 0.00000
  159 0.00000 0.00000 0.00000
  160 0.00000 0.00000 0.00000
  161 0.00000 0.00000 0.00000
  162 0.00000 0.00000 0.00000
  163 0.00000 0.00000 0.00000
  164 0.00000 0.00000 0.00000
  165 0.00000 0.00000 0.00000
  166 0.00000 0.00000 0.00000
  167 0.00000 0.00000 0.00000
  168 0.00000 0.00000 0.00000
  169 0.00000 0.00000 0.00000
  170 0.00000 0.00000 0.00000
  171 0.00000 0.00000 0.00000
  172 0.00000 0.00000 0.00000
  173 0.00000 0.00000 0.00000
  174 0.00000 0.00000 0.00000
  175 0.00000 0.00000 0.00000
  176 0.00000 0.00000 0.00000
  177 0.00000 0.00000 0.00000
  178 0.00000 0.00000 0.00000
  179 0.00000 0.00000 0.00000
  180 0.00000 0.00000 0.00000
  181 0.00000 0.00000 0.00000
  182 0.00000 0.00000 0.00000
  183 0.00000 0.00000 0.00000
  184 0.00000 0.00000 0.00000
  185 0.00000 0.00000 0.00000
  186 0.00000 0.00000 0.00000
  187 0.00000 0.00000 0.00000
  188 0.00000 0.00000 0.00000
  189 0.00000 0.00000 0.00000
  190 0.00000 0.00000 0.00000
  191 0.00000 0.00000 0.00000
  192 0.00000 0.00000 0.00000
  193 0.00000 0.00000 0.00000
  194 0.00000 0.00000 0.00000
  195 0.00000 0.00000 0.00000
  196 0.00000 0.00000 0.00000
  197 0.00000 0.00000 0.00000
  198 0.00000 0.00000 0.00000
  199 0.00000 0.00000 0.00000
  200 0.00000 0.00000 0.00000
  201 0.00000 0.00000 0.00000
  202 0.00000 0.00000 0.00000
  203 0.00000 0.00000 0.00000
  204 0.00000 0.00000 0.00000
  205 0.00000 0.00000 0.00000
  206 0.00000 0.00000 0.00000
  207 0.00000 0.00000 0.00000
  208 0.00000 0.00000 0.00000
  209 0.00000 0.00000 0.00000
  210 0.00000 0.00000 0.00000
  211 0.00000 0.00000 0.00000
  212 0.00000 0.00000 0.00000
  213 0.00000 0.00000 0.00000
  214 0.00000 0.00000 0.00000
  215 0.00000 0.00000 0.00000
  216 0.00000 0.00000 0.00000
  217 0.00000 0.00000 0.00000
  218 0.00000 0.00000 0.00000
  219 0.00000 0.00000 0.00000
  220 0.00000 0.00000 0.00000
  221 0.00000 0.00000 0.00000
  222 0.00000 0.00000 0.00000
  223 0.00000 0.00000 0.00000
  224 0.00000 0.00000 0.00000
  225 0.00000 0.00000 0.00000
  226 0.00000 0.00000 0.00000
  227 0.00000 0.00000 0.00000
  228 0.00000 0.00000 0.00000
  229 0.00000 0.00000 0.00000
  230 0.00000 0.00000 0.00000
  231 0.00000 0.00000 0.00000
  232 0.00000 0.00000 0.00000
  233 0.00000 0.00000 0.00000
  234 0.00000 0.00000 0.00000
  235 0.00000 0.00000 0.00000
  236 0.00000 0.00000 0.00000
  237 0.00000 0.00000 0.00000
  238 0.00000 0.00000 0.00000
  239 0.00000 0.00000 0.00000
  240 0.00000 0.00000 0.00000
  241 0.00000 0.00000 0.00000
  242 0.00000 0.00000 0.00000
  243 0.00000 0.00000 0.00000
  244 0.00000 0.00000 0.00000
  245 0.00000 0.00000 0.00000
  246 0.00000 0.00000 0.00000
  247 0.00000 0.00000 0.00000
  248 0.00000 0.00000 0.00000
  249 0.00000 0.00000 0.00000
  250 0.00000 0.00000 0.00000
  251 0.00000 0.00000 0.00000
  252 0.00000 0.00000 0.00000
  253 0.00000 0.00000 0.00000
  254 0.00000 0.00000 0.00000
  255 0.00000 0.00000 0.00000
  256 0.00000 0.00000 0.00000
  257 0.00000 0.00000 0.00000
  258 0.00000 0.00000 0.00000
  259 0.00000 0.00000 0.00000
  260 0.00000 0.00000 0.00000
  261 0.00000 0.00000 0.00000
  262 0.00000 0.00000 0.00000
  263 0.00000 0.00000 0.00000
  264 0.00000 0.00000 0.00000
  265 0.00000 0.00000 0.00000
  266 0.00000 0.00000 0.00000
  267 0.00000 0.00000 0.00000
  268 0.00000 0.00000 0.00000
  269 0.00000 0.00000 0.00000
  270 0.00000 0.00000 0.00000
  271 0.00000 0.00000 0.00000
  272 0.00000 0.00000 0.00000
  273 0.00000 0.00000 0.00000
  274 0.00000 0.00000 0.00000
  275 0.00000 0.00000 0.00000
  276 0.00000 0.00000 0.00000
  277 0.00000 0.00000 0.00000
  278 0.00000 0.00000 0.00000
  279 0.00000 0.00000 0.00000
  280 0.00000 0.00000 0.00000
  281 0.00000 0.00000 0.00000
  282 0.00000 0.00000 0.00000
  283 0.00000 0.00000 0.00000
  284 0.00000 0.00000 0.00000
  285 0.00000 0.00000 0.00000
  286 0.00000 0.00000 0.00000
  287 0.00000 0.00000 0.00000
  288 0.00000 0.00000 0.00000
  289 0.00000 0.00000 0.00000
  290 0.00000 0.00000 0.00000
  291 0.00000 0.00000 0.00000
  292 0.00000 0.00000 0.00000
  293 0.00000 0.00000 0.00000
  294 0.00000 0.00000 0.00000
  295 0.00000 0.00000 0.00000
  296 0.00000 0.00000 0.00000
  297 0.00000 0.00000 0.00000
  298 0.00000 0.00000 0.00000
  299 0.00000 0.00000 0.00000
  300 0.00000 0.00000 0.00000
  301 0.00000 0.00000 0.00000
  302 0.00000 0.00000 0.00000
  303 0.00000 0.00000 0.00000
  304 0.00000 0.00000 0.00000
  305 0.00000 0.00000 0.00000
  306 0.00000 0.00000 0.00000
  307 0.00000 0.00000 0.00000
  308 0.00000 0.00000 0.00000
  309 0.00000 0.00000 0.00000
  310 0.00000 0.00000 0.00000
  311 0.00000 0.00000 0.00000
  312 0.00000 0.00000 0.00000
  313 0.00000 0.00000 0.00000
  314 0.00000 0.00000 0.00000
  315 0.00000 0.00000 0.00000
  316 0.00000 0.00000 0.00000
  317 0.00000 0.00000 0.00000
  318 0.00000 0.00000 0.00000
  319 0.00000 0.00000 0.00000
  320 0.00000 0.00000 0.00000
  321 0.00000 0.00000 0.00000
  322 0.00000 0.00000 0.00000
  323 0.00000 0.00000 0.00000
  324 0.00000 0.00000 0.00000
  325 0.00000 0.00000 0.00000
  326 0.00000 0.00000 0.00000
  327 0.00000 0.00000 0.00000
  328 0.00000 0.00000 0.00000
  329 0.00000 0.00000 0.00000
  330 0.00000 0.00000 0.00000
  331 0.00000 0.00000 0.00000
  332 0.00000 0.00000 0.00000
  333 0.00000 0.00000 0.00000
  334 0.00000 0.00000 0.00000
  335 0.00000 0.00000 0.00000
  336 0.00000 0.00000 0.00000
  337 0.00000 0.00000 0.00000
  338 0.00000 0.00000 0.00000
  339 0.00000 0.00000 0.00000
  340 0.00000 0.00000 0.00000
  341 0.00000 0.00000 0.00000
  342 0.00000 0.00000 0.00000
  343 0.00000 0.00000 0.00000
  344 0.00000 0.00000 0.00000
  345 0.00000 0.00000 0.00000
  346 0.00000 0.00000 0.00000
  347 0.00000 0.00000 0.00000
  348 0.00000 0.00000 0.00000
  349 0.00000 0.00000 0.00000
  350 0.00000 0.00000 0.00000
  351 0.00000 0.00000 0.00000
  352 0.00000 0.00000 0.00000
  353 0.00000 0.00000 0.00000
  354 0.00000 0.00000 0.00000
  355 0.00000 0.00000 0.00000
  356 0.00000 0.00000 0.00000
  357 0.00000 0.00000 0.00000
  358 0.00000 0.00000 0.00000
  359 0.00000 0.00000 0.00000
  360 0.00000 0.00000 0.00000
  361 0.00000 0.00000 0.00000
  362 0.00000 0.00000 0.00000
  363 0.00000 0.00000 0.00000
  364 0.00000 0.00000 0.00000
  365 0.00000 0.00000 0.00000
  366 0.00000 0.00000 0.00000
  367 0.00000 0.00000 0.00000
  368 0.00000 0.00000 0.00000
  369 0.00000 0.00000 0.00000
  370 0.00000 0.00000 0.00000
  371 0.00000 0.00000 0.00000
  372 0.00000 0.00000 0.00000
  373 0.00000 0.00000 0.00000
  374 0.00000 0.00000 0.00000
  375 0.00000 0.00000 0.00000
  376 0.00000 0.00000 0.00000
  377 0.00000 0.00000 0.00000
  378 0.00000 0.00000 0.00000
  379 0.00000 0.00000 0.00000
  380 0.00000 0.00000 0.00000
  381 0.00000 0.00000 0.00000
  382 0.00000 0.00000 0.00000
  383 0.00000 0.00000 0.00000
  384 0.00000 0.00000 0.00000
  385 0.00000 0.00000 0.00000
  386 0.00000 0.00000 0.00000
  387 0.00000 0.00000 0.00000
  388 0.00000 0.00000 0.00000
  389 0.00000 0.00000 0.00000
  390 0.00000 0.00000 0.00000
  391 0.00000 0.00000 0.00000
  392 0.00000 0.00000 0.00000
  393 0.00000 0.00000 0.00000
  394 0.00000 0.00000 0.00000
  395 0.00000 0.00000 0.00000
  396 0.00000 0.00000 0.00000
  397 0.00000 0.00000 0.00000
  398 0.00000 0.00000 0.00000
  399 0.00000 0.00000 0.00000
  400 0.00000 0.00000 0.00000
  401 0.00000 0.00000 0.00000
  402 0.00000 0.00000 0.00000
  403 0.00000 0.00000 0.00000
  404 0.00000 0.00000 0.00000
  405 0.00000 0.00000 0.00000
  406 0.00000 0.00000 0.00000
  407 0.00000 0.00000 0.00000
  408 0.00000 0.00000 0.00000
  409 0.00000 0.00000 0.00000
  410 0.00000 0.00000 0.00000
  411 0.00000 0.00000 0.00000
  412 0.00000 0.00000 0.00000
  413 0.00000 0.00000 0.00000
  414 0.00000 0.00000 0.00000
  415 0.00000 0.00000 0.00000
  416 0.00000 0.00000 0.00000
  417 0.00000 0.00000 0.00000
  418 0.00000 0.00000 0.00000
  419 0.00000 0.00000 0.00000
  420 0.00000 0.00000 0.00000
  421 0.00000 0.00000 0.00000
  422 0.00000 0.00000 0.00000
  423 0.00000 0.00000 0.00000
  424 0.00000 0.00000 0.00000
  425 0.00000 0.00000 0.00000
  426 0.00000 0.00000 0.00000
  427 0.00000 0.00000 0.00000
  428 0.00000 0.00000 0.00000
  429 0.00000 0.00000 0.00000
  430 0.00000 0.00000 0.00000
  431 0.00000 0.00000 0.00000
  432 0.00000 0.00000 0.00000
  433 0.00000 0.00000 0.00000
  434 0.00000 0.00000 0.00000
  435 0.00000 0.00000 0.00000
  436 0.00000 0.00000 0.00000
  437 0.00000 0.00000 0.00000
  438 0.00000 0.00000 0.00000
  439 0.00000 0.00000 0.00000
  440 0.00000 0.00000 0.00000
  441 0.00000 0.00000 0.00000
  442 0.00000 0.00000 0.00000
  443 0.00000 0.00000 0.00000
  444 0.00000 0.00000 0.00000
  445 0.00000 0.00000 0.00000
  446 0.00000 0.00000 0.00000
  447 0.00000 0.00000 0.00000
  448 0.00000 0.00000 0.00000
  449 0.00000 0.00000 0.00000
  450 0.00000 0.00000 0.00000
  451 0.00000 0.00000 0.00000
  452 0.00000 0.00000 0.00000
  453 0.00000 0.00000 0.00000
  454 0.00000 0.00000 0.00000
  455 0.00000 0.00000 0.00000
  456 0.00000 0.00000 0.00000
  457 0.00000 0.00000 0.00000
  458 0.00000 0.00000 0.00000
  459 0.00000 0.00000 0.00000
  460 0.00000 0.00000 0.00000
  461 0.00000 0.00000 0.00000
  462 0.00000 0.00000 0.00000
  463 0.00000 0.00000 0.00000
  464 0.00000 0.00000 0.00000
  465 0.00000 0.00000 0.00000
  466 0.00000 0.00000 0.00000
  467 0.00000 0.00000 0.00000
  468 0.00000 0.00000 0.00000
  469 0.00000 0.00000 0.00000
  470 0.00000 0.00000 0.00000
  471 0.00000 0.00000 0.00000
  472 0.00000 0.00000 0.00000
  473 0.00000 0.00000 0.00000
  474 0.00000 0.00000 0.00000
  475 0.00000 0.00000 0.00000
  476 0.00000 0.00000 0.00000
  477 0.00000 0.00000 0.00000
  478 0.00000 0.00000 0.00000
  479 0.00000 0.00000 0.00000
  480 0.00000 0.00000 0.00000
  481 0.00000 0.00000 0.00000
  482 0.00000 0.00000 0.00000
  483 0.00000 0.00000 0.00000
  484 0.00000 0.00000 0.00000
  485 0.00000 0.00000 0.00000
  486 0.00000 0.00000 0.00000
  487 0.00000 0.00000 0.00000
  488 0.00000 0.00000 0.00000
  489 0.00000 0.00000 0.00000
  490 0.00000 0.00000 0.00000
  491 0.00000 0.00000 0.00000
  492 0.00000 0.00000 0.00000
  493 0.00000 0.00000 0.00000
  494 0.00000 0.00000 0.00000
  495 0.00000 0.00000 0.00000
  496 0.00000 0.00000 0.00000
  497 0.00000 0.00000 0.00000
  498 0.00000 0.00000 0.00000
  499 0.00000 0.00000 0.00000
  500 0.00000 0.00000 0.00000
  501 0.00000 0.00000 0.00000
  502 0.00000 0.00000 0.00000
  503 0.00000 0.00000 0.00000
  504 0.00000 0.00000 0.00000
  505 0.00000 0.00000 0.00000
  506 0.00000 0.00000 0.00000
  507 0.00000 0.00000 0.00000
  508 0.00000 0.00000 0.00000
  509 0.00000 0.00000 0.00000
  510 0.00000 0.00000 0.00000
  511 0.00000 0.00000 0.00000
  512 0.00000 0.00000 0.00000
  513 0.00000 0.00000 0.00000
  514 0.00000 0.00000 0.00000
  515 0.00000 0.00000 0.00000
  516 0.00000 0.00000 0.00000
  517 0.00000 0.00000 0.00000
  518 0.00000 0.00000 0.00000
  519 0.00000 0.00000 0.00000
  520 0.00000 0.00000 0.00000
  521 0.00000 0.00000 0.00000
  522 0.00000 0.00000 0.00000
  523 0.00000 0.00000 0.00000
  524 0.00000 0.00000 0.00000
  525 0.00000 0.00000 0.00000
  526 0.00000 0.00000 0.00000
  527 0.00000 0.00000 0.00000
  528 0.00000 0.00000 0.00000
  529 0.00000 0.00000 0.00000
  530 0.00000 0.00000 0.00000
  531 0.00000 0.00000 0.00000
  532 0.00000 0.00000 0.00000
  533 0.00000 0.00000 0.00000
  534 0.00000 0.00000 0.00000
  535 0.00000 0.00000 0.00000
  536 0.00000 0.00000 0.00000
  537 0.00000 0.00000 0.00000
  538 0.00000 0.00000 0.00000
  539 0.00000 0.00000 0.00000
  540 0.00000 0.00000 0.00000
  541 0.00000 0.00000 0.00000
  542 0.00000 0.00000 0.00000
  543 0.00000 0.00000 0.00000
  544 0.00000 0.00000 0.00000
  545 0.00000 0.00000 0.00000
  546 0.00000 0.00000 0.00000
  547 0.00000 0.00000 0.00000
  548 0.00000 0.00000 0.00000
  549 0.00000 0.00000 0.00000
  550 0.00000 0.00000 0.00000
  551 0.00000 0.00000 0.00000
  552 0.00000 0.00000 0.00000
  553 0.00000 0.00000 0.00000
  554 0.00000 0.00000 0.00000
  555 0.00000 0.00000 0.00000
  556 0.00000 0.00000 0.00000
  557 0.00000 0.00000 0.00000
  558 0.00000 0.00000 0.00000
  559 0.00000 0.00000 0.00000
  560 0.00000 0.00000 0.00000
  561 0.00000 0.00000 0.00000
  562 0.00000 0.00000 0.00000
  563 0.00000 0.00000 0.00000
  564 0.00000 0.00000 0.00000
  565 0.00000 0.00000 0.00000
  566 0.00000 0.00000 0.00000
  567 0.00000 0.00000 0.00000
  568 0.00000 0.00000 0.00000
  569 0.00000 0.00000 0.00000
  570 0.00000 0.00000 0.00000
  571 0.00000 0.00000 0.00000
  572 0.00000 0.00000 0.00000
  573 0.00000 0.00000 0.00000
  574 0.00000 0.00000 0.00000
  575 0.00000 0.00000 0.00000
  576 0.00000 0.00000 0.00000
  577 0.00000 0.00000 0.00000
  578 0.00000 0.00000 0.00000
  579 0.00000 0.00000 0.00000
  580 0.00000 0.00000 0.00000
  581 0.00000 0.00000 0.00000
  582 0.00000 0.00000 0.00000
  583 0.00000 0.00000 0.00000
  584 0.00000 0.00000 0.00000
  585 0.00000 0.00000 0.00000
  586 0.00000 0.00000 0.00000
  587 0.00000 0.00000 0.00000
  588 0.00000 0.00000 0.00000
  589 0.00000 0.00000 0.00000
  590 0.00000 0.00000 0.00000
  591 0.00000 0.00000 0.00000
  592 0.00000 0.00000 0.00000
  593 0.00000 0.00000 0.00000
  594 0.00000 0.00000 0.00000
  595 0.00000 0.00000 0.00000
  596 0.00000 0.00000 0.00000
  597 0.00000 0.00000 0.00000
  598 0.00000 0.00000 0.00000
  599 0.00000 0.00000 0.00000
  600 0.00000 0.00000 0.00000
  601 0.00000 0.00000 0.00000
  602 0.00000 0.00000 0.00000
  603 0.00000 0.00000 0.00000
  604 0.00000 0.00000 0.00000
  605 0.00000 0.00000 0.00000
  606 0.00000 0.00000 0.00000
  607 0.00000 0.00000 0.00000
  608 0.00000 0.00000 0.00000
  609 0.00000 0.00000 0.00000
  610 0.00000 0.00000 0.00000
  611 0.00000 0.00000 0.00000
  612 0.00000 0.00000 0.00000
  613 0.00000 0.00000 0.00000
  614 0.00000 0.00000 0.00000
  615 0.00000 0.00000 0.00000
  616 0.00000 0.00000 0.00000
  617 0.00000 0.00000 0.00000
  618 0.00000 0.00000 0.00000
  619 0.00000 0.00000 0.00000
  620 0.00000 0.00000 0.00000
  621 0.00000 0.00000 0.00000
  622 0.00000 0.00000 0.00000
  623 0.00000 0.00000 0.00000
  624 0.00000 0.00000 0.00000
  625 0.00000 0.00000 0.00000
  626 0.00000 0.00000 0.00000
  627 0.00000 0.00000 0.00000
  628 0.00000 0.00000 0.00000
  629 0.00000 0.00000 0.00000
  630 0.00000 0.00000 0.00000
  631 0.00000 0.00000 0.00000
  632 0.00000 0.00000 0.00000
  633 0.00000 0.00000 0.00000
  634 0.00000 0.00000 0.00000
  635 0.00000 0.00000 0.00000
  636 0.00000 0.00000 0.00000
  637 0.00000 0.00000 0.00000
  638 0.00000 0.00000 0.00000
  639 0.00000 0.00000 0.00000
  640 0.00000 0.00000 0.00000
  641 0.00000 0.00000 0.00000
  642 0.00000 0.00000 0.00000
  643 0.00000 0.00000 0.00000
  644 0.00000 0.00000 0.00000
  645 0.00000 0.00000 0.00000
  646 0.00000 0.00000 0.00000
  647 0.00000 0.00000 0.00000
  648 0.00000 0.00000 0.00000
  649 0.00000 0.00000 0.00000
  650 0.00000 0.00000 0.00000
  651 0.00000 0.00000 0.00000
  652 0.00000 0.00000 0.00000
  653 0.00000 0.00000 0.00000
  654 0.00000 0.00000 0.00000
  655 0.00000 0.00000 0.00000
  656 0.00000 0.00000 0.00000
  657 0.00000 0.00000 0.00000
  658 0.00000 0.00000 0.00000
  659 0.00000 0.00000 0.00000
  660 0.00000 0.00000 0.00000
  661 0.00000 0.00000 0.00000
  662 0.00000 0.00000 0.00000
  663 0.00000 0.00000 0.00000
  664 0.00000 0.00000 0.00000
  665 0.00000 0.00000 0.00000
  666 0.00000 0.00000 0.00000
  667 0.00000 0.00000 0.00000
  668 0.00000 0.00000 0.00000
  669 0.00000 0.00000 0.00000
  670 0.00000 0.00000 0.00000
  671 0.00000 0.00000 0.00000
  672 0.00000 0.00000 0.00000
  673 0.00000 0.00000 0.00000
  674 0.00000 0.00000 0.00000
  675 0.00000 0.00000 0.00000
  676 0.00000 0.00000 0.00000
  677 0.00000 0.00000 0.00000
  678 0.00000 0.00000 0.00000
  679 0.00000 0.00000 0.00000
  680 0.00000 0.00000 0.00000
  681 0.00000 0.00000 0.00000
  682 0.00000 0.00000 0.00000
  683 0.00000 0.00000 0.00000
  684 0.00000 0.00000 0.00000
  685 0.00000 0.00000 0.00000
  686 0.00000 0.00000 0.00000
  687 0.00000 0.00000 0.00000
  688 0.00000 0.00000 0.00000
  689 0.00000 0.00000 0.00000
  690 0.00000 0.00000 0.00000
  691 0.00000 0.00000 0.00000
  692 0.00000 0.00000 0.00000
  693 0.00000 0.00000 0.00000
  694 0.00000 0.00000 0.00000
  695 0.00000 0.00000 0.00000
  696 0.00000 0.00000 0.00000
  697 0.00000 0.00000 0.00000
  698 0.00000 0.00000 0.00000
  699 0.00000 0.00000 0.00000
  700 0.00000 0.00000 0.00000
  701 0.00000 0.00000 0.00000
  702 0.00000 0.00000 0.00000
  703 0.00000 0.00000 0.00000
  704 0.00000 0.00000 0.00000
  705 0.00000 0.00000 0.00000
  706 0.00000 0.00000 0.00000
  707 0.00000 0.00000 0.00000
  708 0.00000 0.00000 0.00000
  709 0.00000 0.00000 0.00000
  710 0.00000 0.00000 0.00000
  711 0.00000 0.00000 0.00000
  712 0.00000 0.00000 0.00000
  713 0.00000 0.00000 0.00000
  714 0.00000 0.00000 0.00000
  715 0.00000 0.00000 0.00000
  716 0.00000 0.00000 0.00000
  717 0.00000 0.00000 0.00000
  718 0.00000 0.00000 0.00000
  719 0.00000 0.00000 0.00000
  720 0.00000 0.00000 0.00000
  721 0.00000 0.00000 0.00000
  722 0.00000 0.00000 0.00000
  723 0.00000 0.00000 0.00000
  724 0.00000 0.00000 0.00000
  725 0.00000 0.00000 0.00000
  726 0.00000 0.00000 0.00000
  727 0.00000 0.00000 0.00000
  728 0.00000 0.00000 0.00000
  729 0.00000 0.00000 0.00000
  730 0.00000 0.00000 0.00000
  731 0.00000 0.00000 0.00000
  732 0.00000 0.00000 0.00000
  733 0.00000 0.00000 0.00000
  734 0.00000 0.00000 0.00000
  735 0.00000 0.00000 0.00000
  736 0.00000 0.00000 0.00000
  737 0.00000 0.00000 0.00000
  738 0.00000 0.00000 0.00000
  739 0.00000 0.00000 0.00000
  740 0.00000 0.00000 0.00000
  741 0.00000 0.00000 0.00000
  742 0.00000 0.00000 0.00000
  743 0.00000 0.00000 0.00000
  744 0.00000 0.00000 0.00000
  745 0.00000 0.00000 0.00000
  746 0.00000 0.00000 0.00000
  747 0.00000 0.00000 0.00000
  748 0.00000 0.00000 0.00000
  749 0.00000 0.00000 0.00000
  750 0.00000 0.00000 0.00000
  751 0.00000 0.00000 0.00000
  752 0.00000 0.00000 0.00000
  753 0.00000 0.00000 0.00000
  754 0.00000 0.00000 0.00000
  755 0.00000 0.00000 0.00000
  756 0.00000 0.00000 0.00000
  757 0.00000 0.00000 0.00000
  758 0.00000 0.00000 0.00000
  759 0.00000 0.00000 0.00000
  760 0.00000 0.00000 0.00000
  761 0.00000 0.00000 0.00000
  762 0.00000 0.00000 0.00000
  763 0.00000 0.00000 0.00000
  764 0.00000 0.00000 0.00000
  765 0.00000 0.00000 0.00000
  766 0.00000 0.00000 0.00000
  767 0.00000 0.00000 0.00000
  768 0.00000 0.00000 0.00000
  769 0.00000 0.00000 0.00000
  770 0.00000 0.00000 0.00000
  771 0.00000 0.00000 0.00000
  772 0.00000 0.00000 0.00000
  773 0.00000 0.00000 0.00000
  774 0.00000 0.00000 0.00000
  775 0.00000 0.00000 0.00000
  776 0.00000 0.00000 0.00000
  777 0.00000 0.00000 0.00000
  778 0.00000 0.00000 0.00000
  779 0.00000 0.00000 0.00000
  780 0.00000 0.00000 0.00000
  781 0.00000 0.00000 0.00000
  782 0.00000 0.00000 0.00000
  783 0.00000 0.00000 0.00000
  784 0.00000 0.00000 0.00000
  785 0.00000 0.00000 0.00000
  786 0.00000 0.00000 0.00000
  787 0.00000 0.00000 0.00000
  788 0.00000 0.00000 0.00000
  789 0.00000 0.00000 0.00000
  790 0.00000 0.00000 0.00000
  791 0.00000 0.00000 0.00000
  792 0.00000 0.00000 0.00000
  793 0.00000 0.00000 0.00000
  794 0.00000 0.00000 0.00000
  795 0.00000 0.00000 0.00000
  796 0.00000 0.00000 0.00000
  797 0.00000 0.00000 0.00000
  798 0.00000 0.00000 0.00000
  799 0.00000 0.00000 0.00000
  800 0.00000 0.00000 0.00000
  801 0.00000 0.00000 0.00000
  802 0.00000 0.00000 0.00000
  803 0.00000 0.00000 0.00000
  804 0.00000 0.00000 0.00000
  805 0.00000 0.00000 0.00000
  806 0.00000 0.00000 0.00000
  807 0.00000 0.00000 0.00000
  808 0.00000 0.00000 0.00000
  809 0.00000 0.00000 0.00000
  810 0.00000 0.00000 0.00000
  811 0.00000 0.00000 0.00000
  812 0.00000 0.00000 0.00000
  813 0.00000 0.00000 0.00000
  814 0.00000 0.00000 0.00000
  815 0.00000 0.00000 0.00000
  816 0.00000 0.00000 0.00000
  817 0.00000 0.00000 0.00000
  818 0.00000 0.00000 0.00000
  819 0.00000 0.00000 0.00000
  820 0.00000 0.00000 0.00000
  821 0.00000 0.00000 0.00000
  822 0.00000 0.00000 0.00000
  823 0.00000 0.00000 0.00000
  824 0.00000 0.00000 0.00000
  825 0.00000 0.00000 0.00000
  826 0.00000 0.00000 0.00000
  827 0.00000 0.00000 0.00000
  828 0.00000 0.00000 0.00000
  829 0.00000 0.00000 0.00000
  830 0.00000 0.00000 0.00000
  831 0.00000 0.00000 0.00000
  832 0.00000 0.00000 0.00000
  833 0.00000 0.00000 0.00000
  834 0.00000 0.00000 0.00000
  835 0.00000 0.00000 0.00000
  836 0.00000 0.00000 0.00000
  837 0.00000 0.00000 0.00000
  838 0.00000 0.00000 0.00000
  839 0.00000 0.00000 0.00000
  840 0.00000 0.00000 0.00000
  841 0.00000 0.00000 0.00000
  842 0.00000 0.00000 0.00000
  843 0.00000 0.00000 0.00000
  844 0.00000 0.00000 0.00000
  845 0.00000 0.00000 0.00000
  846 0.00000 0.00000 0.00000
  847 0.00000 0.00000 0.00000
  848 0.00000 0.00000 0.00000
  849 0.00000 0.00000 0.00000
  850 0.00000 0.00000 0.00000
  851 0.00000 0.00000 0.00000
  852 0.00000 0.00000 0.00000
  853 0.00000 0.00000 0.00000
  854 0.00000 0.00000 0.00000
  855 0.00000 0.00000 0.00000
  856 0.00000 0.00000 0.00000
  857 0.00000 0.00000 0.00000
  858 0.00000 0.00000 0.00000
  859 0.00000 0.00000 0.00000
  860 0.00000 0.00000 0.00000
  861 0.00000 0.00000 0.00000
  862 0.00000 0.00000 0.00000
  863 0.00000 0.00000 0.00000
  864 0.00000 0.00000 0.00000
  865 0.00000 0.00000 0.00000
  866 0.00000 0.00000 0.00000
  867 0.00000 0.00000 0.00000
  868 0.00000 0.00000 0.00000
  869 0.00000 0.00000 0.00000
  870 0.00000 0.00000 0.00000
  871 0.00000 0.00000 0.00000
  872 0.00000 0.00000 0.00000
  873 0.00000 0.00000 0.00000
  874 0.00000 0.00000 0.00000
  875 0.00000 0.00000 0.00000
  876 0.00000 0.00000 0.00000
  877 0.00000 0.00000 0.00000
  878 0.00000 0.00000 0.00000
  879 0.00000 0.00000 0.00000
  880 0.00000 0.00000 0.00000
  881 0.00000 0.00000 0.00000
  882 0.00000 0.00000 0.00000
  883 0.00000 0.00000 0.00000
  884 0.00000 0.00000 0.00000
  885 0.00000 0.00000 0.00000
  886 0.00000 0.00000 0.00000
  887 0.00000 0.00000 0.00000
  888 0.00000 0.00000 0.00000
  889 0.00000 0.00000 0.00000
  890 0.00000 0.00000 0.00000
  891 0.00000 0.00000 0.00000
  892 0.00000 0.00000 0.00000
  893 0.00000 0.00000 0.00000
  894 0.00000 0.00000 0.00000
  895 0.00000 0.00000 0.00000
  896 0.00000 0.00000 0.00000
  897 0.00000 0.00000 0.00000
  898 0.00000 0.00000 0.00000
  899 0.00000 0.00000 0.00000
  900 0.00000 0.00000 0.00000
  901 0.00000 0.00000 0.00000
  902 0.00000 0.00000 0.00000
  903 0.00000 0.00000 0.00000
  904 0.00000 0.00000 0.00000
  905 0.00000 0.00000 0.00000
  906 0.00000 0.00000 0.00000
  907 0.00000 0.00000 0.00000
  908 0.00000 0.00000 0.00000
  909 0.00000 0.00000 0.00000
  910 0.00000 0.00000 0.00000
  911 0.00000 0.00000 0.00000
  912 0.00000 0.00000 0.00000
  913 0.00000 0.00000 0.00000
  914 0.00000 0.00000 0.00000
  915 0.00000 0.00000 0.00000
  916 0.00000 0.00000 0.00000
  917 0.00000 0.00000 0.00000
  918 0.00000 0.00000 0.00000
  919 0.00000 0.00000 0.00000
  920 0.00000 0.00000 0.00000
  921 0.00000 0.00000 0.00000
  922 0.00000 0.00000 0.00000
  923 0.00000 0.00000 0.00000
  924 0.00000 0.00000 0.00000
  925 0.00000 0.00000 0.00000
  926 0.00000 0.00000 0.00000
  927 0.00000 0.00000 0.00000
  928 0.00000 0.00000 0.00000
  929 0.00000 0.00000 0.00000
  930 0.00000 0.00000 0.00000
  931 0.00000 0.00000 0.00000
  932 0.00000 0.00000 0.00000
  933 0.00000 0.00000 0.00000
  934 0.00000 0.00000 0.00000
  935 0.00000 0.00000 0.00000
  936 0.00000 0.00000 0.00000
  937 0.00000 0.00000 0.00000
  938 0.00000 0.00000 0.00000
  939 0.00000 0.00000 0.00000
  940 0.00000 0.00000 0.00000
  941 0.00000 0.00000 0.00000
  942 0.00000 0.00000 0.00000
  943 0.00000 0.00000 0.00000
  944 0.00000 0.00000 0.00000
  945 0.00000 0.00000 0.00000
  946 0.00000 0.00000 0.00000
  947 0.00000 0.00000 0.00000
  948 0.00000 0.00000 0.00000
  949 0.00000 0.00000 0.00000
  950 0.00000 0.00000 0.00000
  951 0.00000 0.00000 0.00000
  952 0.00000 0.00000 0.00000
  953 0.00000 0.00000 0.00000
  954 0.00000 0.00000 0.00000
  955 0.00000 0.00000 0.00000
  956 0.00000 0.00000 0.00000
  957 0.00000 0.00000 0.00000
  958 0.00000 0.00000 0.00000
  959 0.00000 0.00000 0.00000
  960 0.00000 0.00000 0.00000
  961 0.00000 0.00000 0.00000
  962 0.00000 0.00000 0.00000
  963 0.00000 0.00000 0.00000
  964 0.00000 0.00000 0.00000
  965 0.00000 0.00000 0.00000
  966 0.00000 0.00000 0.00000
  967 0.00000 0.00000 0.00000
  968 0.00000 0.00000 0.00000
  969 0.00000 0.00000 0.00000
  970 0.00000 0.00000 0.00000
  971 0.00000 0.00000 0.00000
  972 0.00000 0.00000 0.00000
  973 0.00000 0.00000 0.00000
  974 0.00000 0.00000 0.00000
  975 0.00000 0.00000 0.00000
  976 0.00000 0.00000 0.00000
  977 0.00000 0.00000 0.00000
  978 0.00000 0.00000 0.00000
  979 0.00000 0.00000 0.00000
  980 0.00000 0.00000 0.00000
  981 0.00000 0.00000 0.00000
  982 0.00000 0.00000 0.00000
  983 0.00000 0.00000 0.00000
  984 0.00000 0.00000 0.00000
  985 0.00000 0.00000 0.00000
  986 0.00000 0.00000 0.00000
  987 0.00000 0.00000 0.00000
  988 0.00000 0.00000 0.00000
  989 0.00000 0.00000 0.00000
  990 0.00000 0.00000 0.00000
  991 0.00000 0.00000 0.00000
  992 0.00000 0.00000 0.00000
  993 0.00000 0.00000 0.00000
  994 0.00000 0.00000 0.00000
  995 0.00000 0.00000 0.00000
  996 0.00000 0.00000 0.00000
  997 0.00000 0.00000 0.00000
  998 0.00000 0.00000 0.00000
  999 0.00000 0.00000 0.00000
  1000 0.00000 0.00000 0.00000
  1001 0.00000 0.00000 0.00000
  1002 0.00000 0.00000 0.00000
  1003 0.00000 0.00000 0.00000
  1004 0.00000 0.00000 0.00000
  1005 0.00000 0.00000 0.00000
  1006 0.00000 0.00000 0.00000
  1007 0.00000 0.00000 0.00000
  1008 0.00000 0.00000 0.00000
  1009 0.00000 0.00000 0.00000
  1010 0.00000 0.00000 0.00000
  1011 0.00000 0.00000 0.00000
  1012 0.00000 0.00000 0.00000
  1013 0.00000 0.00000 0.00000
  1014 0.00000 0.00000 0.00000
  1015 0.00000 0.00000 0.00000
  1016 0.00000 0.00000 0.00000
  1017 0.00000 0.00000 0.00000
  1018 0.00000 0.00000 0.00000
  1019 0.00000 0.00000 0.00000
  1020 0.00000 0.00000 0.00000
  1021 0.00000 0.00000 0.00000
  1022 0.00000 0.00000 0.00000
  1023 0.00000 0.00000 0.00000
  1024 0.00000 0.00000 0.00000
  1025 0.00000 0.00000 0.00000
  1026 0.00000 0.00000 0.00000
  1027 0.00000 0.00000 0.00000
  1028 0.00000 0.00000 0.00000
  1029 0.00000 0.00000 0.00000
  1030 0.00000 0.00000 0.00000
  1031 0.00000 0.00000 0.00000
  1032 0.00000 0.00000 0.00000
  1033 0.00000 0.00000 0.00000
  1034 0.00000 0.00000 0.00000
  1035 0.00000 0.00000 0.00000
  1036 0.00000 0.00000 0.00000
  1037 0.00000 0.00000 0.00000
  1038 0.00000 0.00000 0.00000
  1039 0.00000 0.00000 0.00000
  1040 0.00000 0.00000 0.00000
  1041 0.00000 0.00000 0.00000
  1042 0.00000 0.00000 0.00000
  1043 0.00000 0.00000 0.00000
  1044 0.00000 0.00000 0.00000
  1045 0.00000 0.00000 0.00000
  1046 0.00000 0.00000 0.00000
  1047 0.00000 0.00000 0.00000
  1048 0.00000 0.00000 0.00000
  1049 0.00000 0.00000 0.00000
  1050 0.00000 0.00000 0.00000
  1051 0.00000 0.00000 0.00000
  1052 0.00000 0.00000 0.00000
  1053 0.00000 0.00000 0.00000
  1054 0.00000 0.00000 0.00000
  1055 0.00000 0.00000 0.00000
  1056 0.00000 0.00000 0.00000
  1057 0.00000 0.00000 0.00000
  1058 0.00000 0.00000 0.00000
  1059 0.00000 0.00000 0.00000
  1060 0.00000 0.00000 0.00000
  1061 0.00000 0.00000 0.00000
  1062 0.00000 0.00000 0.00000
  1063 0.00000 0.00000 0.00000
  1064 0.00000 0.00000 0.00000
  1065 0.00000 0.00000 0.00000
  1066 0.00000 0.00000 0.00000
  1067 0.00000 0.00000 0.00000
  1068 0.00000 0.00000 0.00000
  1069 0.00000 0.00000 0.00000
  1070 0.00000 0.00000 0.00000
  1071 0.00000 0.00000 0.00000
  1072 0.00000 0.00000 0.00000
  1073 0.00000 0.00000 0.00000
  1074 0.00000 0.00000 0.00000
  1075 0.00000 0.00000 0.00000
  1076 0.00000 0.00000 0.00000
  1077 0.00000 0.00000 0.00000
  1078 0.00000 0.00000 0.00000
  1079 0.00000 0.00000 0.00000
  1080 0.00000 0.00000 0.00000
  1081 0.00000 0.00000 0.00000
  1082 0.00000 0.00000 0.00000
  1083 0.00000 0.00000 0.00000
  1084 0.00000 0.00000 0.00000
  1085 0.00000 0.00000 0.00000
  1086 0.00000 0.00000 0.00000
  1087 0.00000 0.00000 0.00000
  1088 0.00000 0.00000 0.00000
  1089 0.00000 0.00000 0.00000
  1090 0.00000 0.00000 0.00000
  1091 0.00000 0.00000 0.00000
  1092 0.00000 0.00000 0.00000
  1093 0.00000 0.00000 0.00000
  1094 0.00000 0.00000 0.00000
  1095 0.00000 0.00000 0.00000
  1096 0.00000 0.00000 0.00000
  1097 0.00000 0.00000 0.00000
  1098 0.00000 0.00000 0.00000
  1099 0.00000 0.00000 0.00000
  1100 0.00000 0.00000 0.00000
  1101 0.00000 0.00000 0.00000
  1102 0.00000 0.00000 0.00000
  1103 0.00000 0.00000 0.00000
  1104 0.00000 0.00000 0.00000
  1105 0.00000 0.00000 0.00000
  1106 0.00000 0.00000 0.00000
  1107 0.00000 0.00000 0.00000
  1108 0.00000 0.00000 0.00000
  1109 0.00000 0.00000 0.00000
  1110 0.00000 0.00000 0.00000
  1111 0.00000 0.00000 0.00000
  1112 0.00000 0.00000 0.00000
  1113 0.00000 0.00000 0.00000
  1114 0.00000 0.00000 0.00000
  1115 0.00000 0.00000 0.00000
  1116 0.00000 0.00000 0.00000
  1117 0.00000 0.00000 0.00000
  1118 0.00000 0.00000 0.00000
  1119 0.00000 0.00000 0.00000
  1120 0.00000 0.00000 0.00000
  1121 0.00000 0.00000 0.00000
  1122 0.00000 0.00000 0.00000
  1123 0.00000 0.00000 0.00000
  1124 0.00000 0.00000 0.00000
  1125 0.00000 0.00000 0.00000
  1126 0.00000 0.00000 0.00000
  1127 0.00000 0.00000 0.00000
  1128 0.00000 0.00000 0.00000
  1129 0.00000 0.00000 0.00000
  1130 0.00000 0.00000 0.00000
  1131 0.00000 0.00000 0.00000
  1132 0.00000 0.00000 0.00000
  1133 0.00000 0.00000 0.00000
  1134 0.00000 0.00000 0.00000
  1135 0.00000 0.00000 0.00000
  1136 0.00000 0.00000 0.00000
  1137 0.00000 0.00000 0.00000
  1138 0.00000 0.00000 0.00000
  1139 0.00000 0.00000 0.00000
  1140 0.00000 0.00000 0.00000
  1141 0.00000 0.00000 0.00000
  1142 0.00000 0.00000 0.00000
  1143 0.00000 0.00000 0.00000
  1144 0.00000 0.00000 0.00000
  1145 0.00000 0.00000 0.00000
  1146 0.00000 0.00000 0.00000
  1147 0.00000 0.00000 0.00000
  1148 0.00000 0.00000 0.00000
  1149 0.00000 0.00000 0.00000
  1150 0.00000 0.00000 0.00000
  1151 0.00000 0.00000 0.00000
  1152 0.00000 0.00000 0.00000
  1153 0.00000 0.00000 0.00000
  1154 0.00000 0.00000 0.00000
  1155 0.00000 0.00000 0.00000
  1156 0.00000 0.00000 0.00000
  1157 0.00000 0.00000 0.00000
  1158 0.00000 0.00000 0.00000
  1159 0.00000 0.00000 0.00000
  1160 0.00000 0.00000 0.00000
  1161 0.00000 0.00000 0.00000
  1162 0.00000 0.00000 0.00000
  1163 0.00000 0.00000 0.00000
  1164 0.00000 0.00000 0.00000
  1165 0.00000 0.00000 0.00000
  1166 0.00000 0.00000 0.00000
  1167 0.00000 0.00000 0.00000
  1168 0.00000 0.00000 0.00000
  1169 0.00000 0.00000 0.00000
  1170 0.00000 0.00000 0.00000
  1171 0.00000 0.00000 0.00000
  1172 0.00000 0.00000 0.00000
  1173 0.00000 0.00000 0.00000
  1174 0.00000 0.00000 0.00000
  1175 0.00000 0.00000 0.00000
  1176 0.00000 0.00000 0.00000
  1177 0.00000 0.00000 0.00000
  1178 0.00000 0.00000 0.00000
  1179 0.00000 0.00000 0.00000
  1180 0.00000 0.00000 0.00000
  1181 0.00000 0.00000 0.00000
  1182 0.00000 0.00000 0.00000
  1183 0.00000 0.00000 0.00000
  1184 0.00000 0.00000 0.00000
  1185 0.00000 0.00000 0.00000
  1186 0.00000 0.00000 0.00000
  1187 0.00000 0.00000 0.00000
  1188 0.00000 0.00000 0.00000
  1189 0.00000 0.00000 0.00000
  1190 0.00000 0.00000 0.00000
  1191 0.00000 0.00000 0.00000
  1192 0.00000 0.00000 0.00000
  1193 0.00000 0.00000 0.00000
  1194 0.00000 0.00000 0.00000
  1195 0.00000 0.00000 0.00000
  1196 0.00000 0.00000 0.00000
  1197 0.00000 0.00000 0.00000
  1198 0.00000 0.00000 0.00000
  1199 0.00000 0.00000 0.00000
  1200 0.00000 0.00000 0.00000
  1201 0.00000 0.00000 0.00000
  1202 0.00000 0.00000 0.00000
  1203 0.00000 0.00000 0.00000
  1204 0.00000 0.00000 0.00000
  1205 0.00000 0.00000 0.00000
  1206 0.00000 0.00000 0.00000
  1207 0.00000 0.00000 0.00000
  1208 0.00000 0.00000 0.00000
  1209 0.00000 0.00000 0.00000
  1210 0.00000 0.00000 0.00000
  1211 0.00000 0.00000 0.00000
  1212 0.00000 0.00000 0.00000
  1213 0.00000 0.00000 0.00000
  1214 0.00000 0.00000 0.00000
  1215 0.00000 0.00000 0.00000
  1216 0.00000 0.00000 0.00000
  1217 0.00000 0.00000 0.00000
  1218 0.00000 0.00000 0.00000
  1219 0.00000 0.00000 0.00000
  1220 0.00000 0.00000 0.00000
  1221 0.00000 0.00000 0.00000
  1222 0.00000 0.00000 0.00000
  1223 0.00000 0.00000 0.00000
  1224 0.00000 0.00000 0.00000
  1225 0.00000 0.00000 0.00000
  1226 0.00000 0.00000 0.00000
  1227 0.00000 0.00000 0.00000
  1228 0.00000 0.00000 0.00000
  1229 0.00000 0.00000 0.00000
  1230 0.00000 0.00000 0.00000
  1231 0.00000 0.00000 0.00000
  1232 0.00000 0.00000 0.00000
  1233 0.00000 0.00000 0.00000
  1234 0.00000 0.00000 0.00000
  1235 0.00000 0.00000 0.00000
  1236 0.00000 0.00000 0.00000
  1237 0.00000 0.00000 0.00000
  1238 0.00000 0.00000 0.00000
  1239 0.00000 0.00000 0.00000
  1240 0.00000 0.00000 0.00000
  1241 0.00000 0.00000 0.00000
  1242 0.00000 0.00000 0.00000
  1243 0.00000 0.00000 0.00000
  1244 0.00000 0.00000 0.00000
  1245 0.00000 0.00000 0.00000
  1246 0.00000 0.00000 0.00000
  1247 0.00000 0.00000 0.00000
  1248 0.00000 0.00000 0.00000
  1249 0.00000 0.00000 0.00000
  1250 0.00000 0.00000 0.00000
  1251 0.00000 0.00000 0.00000
  1252 0.00000 0.00000 0.00000
  1253 0.00000 0.00000 0.00000
  1254 0.00000 0.00000 0.00000
  1255 0.00000 0.00000 0.00000
  1256 0.00000 0.00000 0.00000
  1257 0.00000 0.00000 0.00000
  1258 0.00000 0.00000 0.00000
  1259 0.00000 0.00000 0.00000
  1260 0.00000 0.00000 0.00000
  1261 0.00000 0.00000 0.00000
  1262 0.00000 0.00000 0.00000
  1263 0.00000 0.00000 0.00000
  1264 0.00000 0.00000 0.00000
  1265 0.00000 0.00000 0.00000
  1266 0.00000 0.00000 0.00000
  1267 0.00000 0.00000 0.00000
  1268 0.00000 0.00000 0.00000
  1269 0.00000 0.00000 0.00000
  1270 0.00000 0.00000 0.00000
  1271 0.00000 0.00000 0.00000
  1272 0.00000 0.00000 0.00000
  1273 0.00000 0.00000 0.00000
  1274 0.00000 0.00000 0.00000
  1275 0.00000 0.00000 0.00000
  1276 0.00000 0.00000 0.00000
  1277 0.00000 0.00000 0.00000
  1278 0.00000 0.00000 0.00000
  1279 0.00000 0.00000 0.00000
  1280 0.00000 0.00000 0.00000
  1281 0.00000 0.00000 0.00000
  1282 0.00000 0.00000 0.00000
  1283 0.00000 0.00000 0.00000
  1284 0.00000 0.00000 0.00000
  1285 0.00000 0.00000 0.00000
  1286 0.00000 0.00000 0.00000
  1287 0.00000 0.00000 0.00000
  1288 0.00000 0.00000 0.00000
  1289 0.00000 0.00000 0.00000
  1290 0.00000 0.00000 0.00000
  1291 0.00000 0.00000 0.00000
  1292 0.00000 0.00000 0.00000
  1293 0.00000 0.00000 0.00000
  1294 0.00000 0.00000 0.00000
  1295 0.00000 0.00000 0.00000
  1296 0.00000 0.00000 0.00000
  1297 0.00000 0.00000 0.00000
  1298 0.00000 0.00000 0.00000
  1299 0.00000 0.00000 0.00000
  1300 0.00000 0.00000 0.00000
  1301 0.00000 0.00000 0.00000
  1302 0.00000 0.00000 0.00000
  1303 0.00000 0.00000 0.00000
  1304 0.00000 0.00000 0.00000
  1305 0.00000 0.00000 0.00000
  1306 0.00000 0.00000 0.00000
  1307 0.00000 0.00000 0.00000
  1308 0.00000 0.00000 0.00000
  1309 0.00000 0.00000 0.00000
  1310 0.00000 0.00000 0.00000
  1311 0.00000 0.00000 0.00000
  1312 0.00000 0.00000 0.00000
  1313 0.00000 0.00000 0.00000
  1314 0.00000 0.00000 0.00000
  1315 0.00000 0.00000 0.00000
  1316 0.00000 0.00000 0.00000
  1317 0.00000 0.00000 0.00000
  1318 0.00000 0.00000 0.00000
  1319 0.00000 0.00000 0.00000
  1320 0.00000 0.00000 0.00000
  1321 0.00000 0.00000 0.00000
  1322 0.00000 0.00000 0.00000
  1323 0.00000 0.00000 0.00000
  1324 0.00000 0.00000 0.00000
  1325 0.00000 0.00000 0.00000
  1326 0.00000 0.00000 0.00000
  1327 0.00000 0.00000 0.00000
  1328 0.00000 0.00000 0.00000
  1329 0.00000 0.00000 0.00000
  1330 0.00000 0.00000 0.00000
  1331 0.00000 0.00000 0.00000
  1332 0.00000 0.00000 0.00000
  1333 0.00000 0.00000 0.00000
</Section>

newXOutput 2

<Section columns = "stress_xx | stress_yy | stress_xy">
  1 9.72637 -0.0160655 0.0172842
  2 9.74459 -0.0241940 -0.0224787
  3 -0.186095 0.0100821 -0.0264903
  4 -0.00566507 -0.00929154 -0.00518672
  5 18.5889 6.53446 5.76585
  6 18.8770 7.52538 -5.83299
  7 -0.00559665 -0.00923263 0.00509794
  8 -0.185597 0.0100276 0.0264223
  9 9.79950 -0.0107384 -0.0160894
  10 9.71411 -0.0264453 -0.0219245
  11 9.71354 -0.0190299 0.0262929
  12 9.65044 -0.00440285 0.0161501
  13 9.61919 -0.0245933 0.000730161
  14 9.58401 -0.0227994 0.0483823
  15 9.41005 -0.0127345 0.0510416
  16 9.43067 -0.0651473 0.0694939
  17 9.08452 -0.0516244 0.140702
  18 8.85423 -0.0176184 0.167842
  19 8.54572 -0.0256228 0.178603
  20 8.02525 -0.0223457 0.241993
  21 7.47083 -0.0211518 0.276833
  22 6.79321 0.0327562 0.372844
  23 5.87780 0.0500814 0.334098
  24 5.52068 -0.00834931 0.474156
  25 4.40246 0.0647770 0.334231
  26 3.73628 0.0885678 0.259498
  27 3.56409 0.0350400 0.190490
  28 3.37854 0.127700 0.0131415
  29 3.47897 0.140930 -0.254358
  30 3.68567 0.0372847 -0.320104
  31 4.50591 0.0106081 -0.430960
  32 5.34582 -0.0446687 -0.454221
  33 5.91098 0.0413180 -0.334071
  34 6.80406 0.0376635 -0.373508
  35 7.44907 -0.0256154 -0.296011
  36 8.08524 -0.0280190 -0.229320
  37 8.50537 -0.0167817 -0.181024
  38 8.82543 -0.0182060 -0.155695
  39 9.16370 -0.0286483 -0.0927144
  40 9.30872 -0.0250360 -0.0903504
  41 9.44721 -0.0242510 -0.0782530
  42 9.59104 -0.0288030 -0.0214207
  43 9.65084 -0.0386174 -0.0349328
  44 9.60198 0.0134956 -0.00829618
  45 9.70315 -0.0160121 -0.0288540
  46 9.75934 -0.0426438 0.0238639
  47 9.81389 -0.0225397 -0.00195716
  48 9.26471 0.0237052 -0.0144876
  49 8.65545 -0.00846234 -0.0283572
  50 7.97657 -0.0467896 -0.0443373
  51 7.28312 -0.0264772 -0.0327797
  52 6.68665 -0.0681371 -0.0303916
  53 6.06352 -0.0778124 -0.0286194
  54 5.44072 -0.0646389 -0.0169515
  55 4.79178 -0.0750089 -0.0216550
  56 4.24652 -0.0884836 -0.0271663
  57 3.52632 -0.0889447 -0.0234257
  58 2.78833 -0.0514377 -0.0150037
  59 2.18021 -0.0313798 -0.0125900
  60 1.43153 -0.0195637 -0.00782820
  61 0.887001 -0.0237953 -0.0397143
  62 0.379827 -0.0391368 -0.0145526
  63 -0.130450 0.00517362 0.0210076
  64 -0.257272 0.0365953 0.00540834
  65 -0.287847 0.0153279 0.0201193
  66 -0.257499 0.00722267 0.0182529
  67 -0.346048 0.0213602 0.00342472
  68 -0.372975 0.0274005 0.0404451
  69 -0.367594 0.00943668 0.00839903
  70 -0.521054 0.0196308 0.0101332
  71 -0.584708 0.0144309 0.0373629
  72 -0.593237 0.00574980 0.0382773
  73 -0.752893 0.0190425 0.0262459
  74 -0.803400 0.0276705 0.0583728
  75 -0.851571 0.0168312 0.0133175
  76 -0.922120 0.0119537 0.0265556
  77 -0.932772 0.0130572 0.00442483
  78 -0.993130 0.0294262 -0.0295317
  79 -0.985664 0.0201987 -0.0226515
  80 -0.884373 0.0159280 -0.0362354
  81 -0.751000 0.0194535 -0.0625365
  82 -0.600966 0.00766199 -0.0890657
  83 -0.441208 0.00383213 -0.0906081
  84 -0.262478 -0.0102232 -0.0937803
  85 -0.110743 -0.00785788 -0.0534260
  86 -0.0454219 -0.0193422 -0.0327668
  87 -0.00831323 -0.0465448 -0.0277948
  88 -0.0146358 -0.118917 -0.0512333
  89 -0.0163561 -0.240454 -0.0920375
  90 -0.00442665 -0.454278 -0.101448
  91 0.00445396 -0.636528 -0.129429
  92 0.0118203 -0.919905 -0.106544
  93 0.0364184 -1.10189 -0.127416
  94 0.00441183 -1.21009 -0.111282
  95 -0.00320957 -1.41040 -0.0769701
  96 0.0376332 -1.41540 -0.0417621
  97 0.147788 -1.85358 0.0376178
  98 0.120871 -1.15117 0.173207
  99 0.299164 -0.753565 0.423148
  100 0.936478 0.967545 1.49559
  101 4.27098 4.58442 4.61931
  102 24.3984 2.47865 3.65811
  103 20.0938 0.704266 1.31239
  104 19.0678 0.301379 0.456065
  105 18.4786 0.201918 -0.00190646
  106 18.8446 0.287733 -0.371883
  107 20.3062 0.603425 -1.09386
  108 24.1505 1.99407 -3.43394
  109 2.74669 5.20824 -3.80878
  110 0.655841 0.550498 -1.13469
  111 0.219777 -0.905292 -0.339591
  112 0.109513 -1.24155 -0.141558
  113 0.147384 -1.91857 -0.0220716
  114 0.0362129 -1.44470 0.0530687
  115 -0.00535215 -1.42527 0.0829265
  116 0.00302556 -1.21600 0.114503
  117 0.0356804 -1.10351 0.128799
  118 0.0115343 -0.919662 0.107071
  119 0.00423328 -0.635814 0.129640
  120 -0.00453386 -0.453287 0.101415
  121 -0.0163737 -0.239809 0.0918693
  122 -0.0146668 -0.118344 0.0510682
  123 -0.00830948 -0.0463304 0.0276452
  124 -0.0451623 -0.0193204 0.0326439
  125 -0.110289 -0.00788975 0.0532970
  126 -0.261917 -0.0102965 0.0937143
  127 -0.440585 0.00375480 0.0906419
  128 -0.600675 0.00757917 0.0892263
  129 -0.751276 0.0193982 0.0628297
  130 -0.885216 0.0159272 0.0365421
  131 -0.987220 0.0201882 0.0229440
  132 -0.995256 0.0294349 0.0298291
  133 -0.935520 0.0130950 -0.00417990
  134 -0.925309 0.0119998 -0.0263899
  135 -0.854944 0.0168810 -0.0132004
  136 -0.806958 0.0277272 -0.0583548
  137 -0.756481 0.0190934 -0.0262344
  138 -0.596668 0.00578064 -0.0383269
  139 -0.588050 0.0144830 -0.0374616
  140 -0.524141 0.0197059 -0.0102681
  141 -0.370152 0.00948802 -0.00862266
  142 -0.374959 0.0274463 -0.0407515
  143 -0.347555 0.0213679 -0.00370056
  144 -0.258305 0.00721044 -0.0185121
  145 -0.288107 0.0152975 -0.0203242
  146 -0.257186 0.0365394 -0.00558950
  147 -0.130095 0.00514296 -0.0211087
  148 0.380114 -0.0392801 0.0144378
  149 0.887210 -0.0241802 0.0395807
  150 1.43179 -0.0202564 0.00766302
  151 2.18056 -0.0323871 0.0124986
  152 2.78856 -0.0526155 0.0149798
  153 3.52617 -0.0899793 0.0235665
  154 4.24549 -0.0890410 0.0274802
  155 4.78983 -0.0744769 0.0224225
  156 5.43763 -0.0624511 0.0178625
  157 6.05908 -0.0725156 0.0271811
  158 6.68921 -0.0695501 0.0269425
  159 7.28487 -0.0357597 0.0344866
  160 7.98307 -0.0450586 0.0407635
  161 8.67419 -0.00333597 0.0287242
  162 9.24543 0.0232070 0.0139700
  163 5.11566 -0.455333 -0.320313
  164 5.09336 -0.463451 0.319652
  165 1.44314 0.412191 -0.515632
  166 1.45774 0.413937 0.512778
  167 6.12219 -0.330155 1.47172
  168 6.43497 -0.370785 -1.42949
  169 2.81722 -0.139193 0.137862
  170 2.81743 -0.137690 -0.140926
  171 6.56641 -0.193803 0.100887
  172 6.42388 -0.194386 -0.0992157
  173 8.62553 1.58072 -0.262910
  174 8.91973 0.0173759 -1.33968
  175 8.72236 0.0920677 1.41701
  176 1.91444 -0.0665793 -0.336398
  177 1.91395 -0.0659303 0.335277
  178 7.70473 -0.769295 0.553880
  179 7.69040 -0.590669 -0.708452
  180 0.0649138 0.148220 0.235498
  181 0.0679584 0.149194 -0.233746
  182 10.5165 2.12057 0.515820
  183 1.91398 0.833152 -1.27908
  184 2.06256 0.842446 1.38212
  185 7.46337 -0.323952 0.363261
  186 11.2338 2.30383 -0.366640
  187 4.69391 -0.141120 -0.0122273
  188 4.68548 -0.145744 0.0115816
  189 7.69906 -0.215680 -0.326090
  190 10.3773 -0.174873 0.0687743
  191 1.62772 -0.0459993 0.0472949
  192 1.62783 -0.0465349 -0.0484814
  193 0.666001 0.104537 -0.208855
  194 0.669238 0.103472 0.209251
  195 4.17729 -0.163763 -0.879885
  196 4.16056 -0.173402 0.892001
  197 5.02438 -0.304588 -0.0639757
  198 5.03471 -0.302833 0.0739759
  199 1.11391 -0.0383612 0.169956
  200 1.11262 -0.0377581 -0.170636
  201 10.2753 -0.302324 0.470928
  202 8.28716 -0.845536 -0.331409
  203 7.94780 -0.0466625 -0.0638728
  204 7.75298 -0.0617105 0.0671858
  205 7.59924 0.886354 0.973696
  206 0.289753 0.206319 -0.0218752
  207 0.301549 0.205369 0.0270197
  208 7.69906 -0.317855 1.13930
  209 6.92731 0.521829 -1.09246
  210 5.05149 1.02380 -3.15189
  211 5.31223 0.862070 2.92362
  212 0.0514578 0.162254 0.0355939
  213 0.0542303 0.162148 -0.0343398
  214 7.66543 -0.282566 -1.17279
  215 13.6723 1.94724 -0.111978
  216 6.37690 -0.706358 0.442831
  217 6.42939 -0.701570 -0.412018
  218 6.37574 -0.434297 -0.139787
  219 8.05959 -0.0971093 0.182923
  220 3.69785 -0.243162 -0.276472
  221 3.63441 -0.241977 0.288318
  222 2.16337 0.0528976 -0.531211
  223 2.16606 0.0519440 0.525537
  224 8.21529 -0.899184 0.0646603
  225 6.31909 -0.463703 0.113189
  226 8.03361 -0.0928342 -0.151270
  227 6.14142 -0.119543 0.0344012
  228 6.19973 -0.108369 -0.0219117
  229 7.83897 -0.339650 0.692446
  230 0.497960 0.0110344 -0.180933
  231 0.500296 0.0107310 0.180692
  232 -0.109441 -0.0770827 -0.273996
  233 -0.109947 -0.0776760 0.274243
  234 0.941423 -0.0454731 -0.0941487
  235 0.942306 -0.0455804 0.0929906
  236 3.10843 -0.0761638 0.0586550
  237 3.10965 -0.0780263 -0.0594303
  238 3.69146 0.243191 -1.33345
  239 3.69177 0.200693 1.31732
  240 7.96389 -0.234214 -0.591957
  241 3.58262 -0.203122 -0.496992
  242 3.58521 -0.209573 0.487837
  243 6.81472 0.0931536 1.22669
  244 5.80455 0.506441 0.0734527
  245 6.78607 -0.670567 -0.150232
  246 0.0174116 -0.203408 -0.271267
  247 0.0151708 -0.205099 0.273227
  248 0.393286 0.307887 -0.375891
  249 0.420581 0.292048 0.400620
  250 6.66719 -0.655246 0.103894
  251 12.3250 2.11896 0.118963
  252 0.552227 0.387765 -0.117429
  253 0.559446 0.387389 0.119561
  254 -0.290984 0.0501777 0.202649
  255 -0.289724 0.0504299 -0.201799
  256 12.4195 1.95727 -0.0589464
  257 4.09732 -0.177086 -0.0787256
  258 4.09373 -0.173642 0.0755637
  259 8.33698 -0.584975 1.10411
  260 15.4505 2.50206 1.47582
  261 2.29712 -0.115598 -0.268733
  262 2.29598 -0.116414 0.268139
  263 8.36180 1.24685 -0.957708
  264 14.8493 2.79681 -1.29825
  265 10.2223 0.935657 1.03184
  266 11.3372 0.465000 -1.88453
  267 6.80496 -0.293583 0.189427
  268 7.65694 0.0159713 -1.40283
  269 7.34427 -0.504231 -0.443291
  270 8.25159 -0.131231 0.382758
  271 -0.102159 0.0772940 -0.0392265
  272 -0.0994352 0.0770236 0.0400731
  273 8.19086 -0.360640 -1.86869
  274 0.757371 0.257839 -0.201079
  275 0.761162 0.257262 0.202361
  276 7.82655 -0.186379 -0.728512
  277 1.05686 0.950371 -1.31871
  278 0.641792 -0.00109868 -0.0205602
  279 0.641745 -0.000880463 0.0200758
  280 8.29708 -0.539164 -1.14487
  281 1.35553 0.608265 -0.667889
  282 1.37576 0.604425 0.669621
  283 0.208311 -0.0101070 0.128806
  284 0.205950 -0.00995025 -0.129059
  285 6.79665 -0.275694 -0.183323
  286 1.06317 0.938849 1.35865
  287 11.1552 0.574296 2.24667
  288 2.75689 -0.0985621 -0.0747600
  289 2.75583 -0.0977287 0.0729195
  290 5.35009 -0.191326 0.00932533
  291 5.34721 -0.210358 -0.00406375
  292 4.56293 0.398642 -2.09228
  293 7.48931 -0.829277 -0.263951
  294 8.70360 -0.0299780 0.0839638
  295 4.38838 0.394855 2.01751
  296 5.10773 -0.105751 0.00641079
  297 5.10565 -0.105577 -0.00162744
  298 7.35462 -0.526971 0.452193
  299 8.58464 -0.0713159 -0.192489
  300 -0.192954 0.0331523 -0.0894774
  301 -0.190031 0.0329113 0.0898070
  302 10.5897 2.14050 -0.159381
  303 9.39686 -0.490304 0.693225
  304 8.58483 -0.0171963 -0.0262916
  305 8.74958 -0.0143565 0.0238151
  306 8.44991 -0.796875 0.566805
  307 10.4395 0.998830 -0.984271
  308 8.92021 1.67278 0.577370
  309 3.90235 -0.224608 -0.152614
  310 3.86384 -0.229122 0.157043
  311 8.69916 -0.0274822 -0.0623505
  312 5.51636 -0.432406 -0.972705
  313 5.40807 -0.411230 0.0895669
  314 5.15767 -0.297952 1.12664
  315 8.49513 -0.0827573 0.226106
  316 1.67447 -0.0759044 -0.163021
  317 1.67511 -0.0765033 0.161911
  318 7.78068 -0.337597 1.84837
  319 4.78689 -0.365915 -0.189680
  320 8.96768 1.12174 1.21840
  321 2.73865 0.195908 -0.828220
  322 2.63114 0.204412 0.819795
  323 0.545903 -0.0145652 -0.0376864
  324 0.546384 -0.0144392 0.0369102
  325 7.45955 -0.116560 0.124367
  326 7.14383 -0.0635163 0.0282467
  327 7.10089 -0.0731307 -0.0309813
  328 7.75668 -0.196668 0.769121
  329 0.424388 -0.0210837 0.0915561
  330 0.422585 -0.0208592 -0.0922346
  331 2.02407 -0.0414340 -0.0310125
  332 2.02364 -0.0404840 0.0304918
  333 0.0630905 -0.415802 -0.176935
  334 0.0582455 -0.418506 0.182691
  335 5.76581 0.244844 0.822799
  336 9.49373 -0.476006 -0.603505
  337 6.02020 -0.292662 0.102201
  338 6.88597 -0.101646 -0.0809257
  339 6.95419 0.873836 -0.517480
  340 1.21039 -0.0358043 -0.245460
  341 1.21163 -0.0357979 0.244975
  342 5.84258 -0.273865 -0.0691174
  343 1.51230 0.0632752 -0.359684
  344 1.51494 0.0618530 0.357997
  345 0.253601 0.253178 0.0610093
  346 0.257335 0.253022 -0.0595171
  347 7.18518 -0.795043 0.600049
  348 16.5204 1.10140 0.418703
  349 6.14201 0.0812149 -0.978482
  350 5.25215 -0.472790 0.554728
  351 5.22516 -0.464048 -0.574852
  352 7.81565 -0.150512 1.39683
  353 6.84380 -0.0574993 0.977950
  354 7.08583 -0.768992 -0.624086
  355 4.06703 -0.0784639 -0.0113568
  356 4.06653 -0.0798321 0.0124313
  357 7.84114 -0.513953 0.900987
  358 10.7218 2.16810 0.115673
  359 8.52316 -0.0796715 -0.283628
  360 1.93216 -0.0702212 -0.111254
  361 1.93246 -0.0702433 0.109549
  362 7.97739 -0.801714 -0.768102
  363 8.25273 0.551343 -1.40626
  364 5.23685 0.284548 -0.525027
  365 7.89046 -0.534134 -1.01713
  366 -0.268126 0.00438245 -0.212453
  367 -0.268431 0.00409159 0.212727
  368 6.63203 -0.121362 0.0669215
  369 -0.0945993 -0.0569935 -0.120477
  370 -0.0945070 -0.0570206 0.120258
  371 5.17771 2.29232 -3.87057
  372 0.167516 0.138309 0.184939
  373 0.172490 0.139504 -0.182347
  374 6.78361 -0.0608758 -0.969402
  375 3.66575 -0.138155 0.0580634
  376 3.66890 -0.140442 -0.0593466
  377 -0.0309959 -0.289714 0.240909
  378 -0.0305673 -0.289186 -0.240631
  379 4.16616 2.41634 3.63062
  380 2.97580 -0.151370 -0.376122
  381 2.97769 -0.144077 0.376374
  382 0.922560 0.653441 -0.605048
  383 0.943044 0.650772 0.600593
  384 -0.444253 0.0565266 0.0982494
  385 -0.442557 0.0565934 -0.0973709
  386 7.93314 0.508842 1.39615
  387 6.10600 -0.638174 0.198671
  388 6.11257 -0.547063 0.0135395
  389 7.48379 -0.864266 0.0374243
  390 1.73478 0.229126 -0.517028
  391 1.74043 0.228533 0.515769
  392 0.148316 -0.341136 -0.0449030
  393 0.139379 -0.344671 0.0576218
  394 7.35882 1.06451 0.346241
  395 7.67481 -0.192773 0.274021
  396 4.22839 -0.319956 0.330989
  397 2.53880 -0.0569127 -0.463487
  398 2.53919 -0.0573346 0.458909
  399 5.48318 -0.133386 0.0225256
  400 5.47665 -0.112351 -0.0272390
  401 4.19171 -0.329490 -0.357700
  402 3.23918 -0.0501699 -0.650453
  403 3.23808 -0.0548320 0.656059
  404 7.96457 -0.741224 -0.684681
  405 4.48694 -0.331487 0.180791
  406 7.26052 -0.190874 0.185510
  407 7.25049 -0.170020 -0.161355
  408 5.99394 -0.542449 -0.0364942
  409 8.88190 -0.0181749 -0.0879343
  410 2.82440 1.08665 -2.10183
  411 8.21317 -0.107539 0.452820
  412 8.83908 -0.0276176 0.123057
  413 2.90586 -0.146985 0.208277
  414 2.90783 -0.144817 -0.208085
  415 6.07758 -0.630325 -0.209748
  416 0.777429 0.367724 0.214527
  417 0.773102 0.367582 -0.215016
  418 16.7054 1.10044 -0.863725
  419 7.08586 -0.382476 -0.283722
  420 8.97502 -0.0102897 0.0507720
  421 2.65710 1.00570 1.99168
  422 13.0966 2.22699 0.359828
  423 7.68256 -0.0838754 -0.101404
  424 5.60498 -0.388377 -0.0199309
  425 2.24611 0.435233 -0.943593
  426 2.39952 0.404563 0.937906
  427 6.99208 -0.423885 0.290148
  428 7.32065 -0.0965621 -0.728972
  429 -0.234580 -0.00492233 0.0951251
  430 -0.237512 -0.00484273 -0.0951520
  431 2.56308 0.605272 -1.29889
  432 2.57097 0.607787 1.29456
  433 0.213926 0.144858 -0.0696128
  434 0.216949 0.144489 0.0706666
  435 6.25924 -0.0832092 0.0285919
  436 6.25175 -0.0799443 -0.0262642
  437 7.82338 -0.348275 -0.722229
  438 -0.0385029 -0.0441625 0.308850
  439 -0.0371413 -0.0430260 -0.307819
  440 8.07727 -0.812495 0.620826
  441 7.66947 -0.177000 -0.246408
  442 12.4178 2.39057 -0.256318
  443 0.213056 -0.0199784 0.0403483
  444 0.211727 -0.0199858 -0.0410355
  445 15.2090 4.11616 1.69284
  446 0.272418 -0.0869579 -0.341985
  447 0.757688 0.0481951 -0.234615
  448 0.760244 0.0474928 0.234331
  449 15.1248 4.19581 -1.57537
  450 0.288553 -0.0538667 0.385303
  451 -0.449627 0.0464969 0.0476166
  452 -0.447480 0.0464079 -0.0468084
  453 0.747382 0.508347 -0.321490
  454 0.761136 0.508133 0.323440
  455 9.60535 1.47115 -1.04913
  456 7.75791 -0.285358 -0.487621
  457 8.92148 -0.0140970 -0.0466676
  458 8.08777 -0.117486 -0.525885
  459 -0.119610 0.0446492 0.285365
  460 -0.118238 0.0453621 -0.284419
  461 7.83431 -0.300787 0.556507
  462 4.96531 -0.256336 -0.0462004
  463 4.94892 -0.259392 0.0281283
  464 6.86349 -0.760331 0.00986787
  465 4.82607 -0.0858980 -1.40637
  466 7.40652 -0.116176 0.747172
  467 6.09357 -0.163046 -0.0487413
  468 9.10542 -0.737071 0.0620357
  469 4.66938 0.0186368 1.51469
  470 0.134163 -0.00396162 0.0915295
  471 0.131827 -0.00382447 -0.0918940
  472 9.83156 1.95327 -0.505691
  473 8.03850 -0.0276761 0.0132450
  474 8.00909 -0.0353981 -0.0210840
  475 5.90744 -0.373033 -0.0464808
  476 2.38567 -0.0726220 -0.0577390
  477 2.38496 -0.0715134 0.0565817
  478 1.36651 -0.00938124 -0.292009
  479 1.36775 -0.00965030 0.291015
  480 4.63768 0.182295 0.311625
  481 1.02895 -0.0355295 0.134927
  482 1.02781 -0.0351462 -0.135961
  483 1.21023 0.129829 0.327067
  484 1.20623 0.131738 -0.327019
  485 7.67725 -0.591261 0.683535
  486 4.17025 -0.257486 -0.603642
  487 3.79780 -0.101417 0.0221534
  488 3.79958 -0.104744 -0.0223293
  489 4.21594 -0.265950 0.603011
  490 12.1057 2.80959 -0.0481135
  491 -0.194008 -0.0311750 -0.159555
  492 -0.193942 -0.0313218 0.159496
  493 2.80186 -0.0650107 -0.0224627
  494 2.80139 -0.0636397 0.0222841
  495 0.000216883 -0.543068 -0.211376
  496 -0.00102466 -0.544760 0.213090
  497 7.03820 -0.0687221 0.0518020
  498 4.60195 0.228049 -0.155825
  499 6.44751 0.684209 0.459965
  500 4.15538 -0.0468885 -1.09798
  501 1.88407 -0.0946644 0.207190
  502 1.88444 -0.0938233 -0.207844
  503 -0.642512 0.0188963 -0.0215891
  504 -0.639639 0.0187917 0.0219249
  505 8.26167 -0.180305 -1.40695
  506 0.365252 0.00630654 -0.0292318
  507 0.365459 0.00642094 0.0286795
  508 6.87760 -0.527825 -0.262696
  509 7.34827 -0.618900 -0.441910
  510 1.41649 1.01670 -1.36994
  511 6.16027 0.108921 -2.29189
  512 0.0276638 0.169122 0.169085
  513 0.0304533 0.169414 -0.167590
  514 3.60882 -0.150878 -0.0978162
  515 3.60653 -0.149152 0.0943083
  516 10.7899 0.332584 -0.476719
  517 7.65200 -0.440460 -0.616512
  518 1.37867 0.953683 1.34857
  519 7.58499 -0.878229 0.0793005
  520 7.27627 -0.688890 0.372645
  521 1.29655 -0.0299986 -0.0871214
  522 1.29683 -0.0298197 0.0858618
  523 5.69889 0.0554914 0.755262
  524 4.18884 -0.296316 -0.199077
  525 8.13025 -0.158756 0.356985
  526 -0.0350517 -0.196341 -0.153942
  527 -0.0351371 -0.196232 0.153760
  528 5.57655 -0.502152 0.681203
  529 8.64101 -0.692881 -0.809331
  530 11.4499 0.629155 -0.167776
  531 6.01301 -0.170948 0.0559293
  532 1.54083 -0.0245341 -0.0268492
  533 1.54054 -0.0238415 0.0265086
  534 3.71700 0.0254845 1.05292
  535 10.8005 1.72128 0.809882
  536 11.2680 1.80344 -3.69542
  537 9.86080 -0.0208759 0.815116
  538 7.00748 -0.782969 -0.0495002
  539 17.2662 1.37238 1.14863
  540 12.4652 2.89230 0.123298
  541 1.53618 -0.0612345 0.228460
  542 1.53547 -0.0605574 -0.229163
  543 6.72410 -0.544135 0.220963
  544 0.414467 0.230845 -0.0516503
  545 0.417961 0.230617 0.0529299
  546 8.53152 -0.735781 0.806332
  547 6.73505 0.353139 1.12725
  548 8.66644 -0.0440807 0.196261
  549 6.27715 -0.352481 0.133335
  550 9.01048 -0.0653562 -2.41486
  551 14.5753 3.36045 2.24104
  552 6.87152 -0.0975057 -0.0496518
  553 8.47522 -0.0750954 -0.305551
  554 1.21749 0.518656 -0.480445
  555 1.22651 0.512254 0.477517
  556 4.68176 -0.161859 -0.0241446
  557 4.67932 -0.157109 0.0255417
  558 0.0465659 -0.750257 -0.0164170
  559 8.58132 -0.337195 1.27970
  560 0.274579 0.262416 0.0963065
  561 0.279567 0.263016 -0.0940790
  562 0.0555822 -0.729758 0.0342938
  563 7.76878 -0.358207 -1.01659
  564 8.96489 0.524830 -1.38096
  565 8.92403 0.598663 1.37857
  566 0.388041 0.266298 0.226705
  567 0.366919 0.275317 -0.219801
  568 -0.402673 0.00981419 0.0687444
  569 -0.405772 0.00989959 -0.0686590
  570 8.36498 0.0830546 2.49932
  571 4.38190 -0.223266 0.0818869
  572 4.38677 -0.222425 -0.0854563
  573 10.1514 -0.312669 -1.17476
  574 1.01231 -0.0123020 0.0508932
  575 1.01225 -0.0126162 -0.0517281
  576 0.284229 -0.0148606 -0.0127810
  577 0.284018 -0.0147559 0.0125892
  578 11.0256 1.91129 -0.704123
  579 0.994286 1.18153 -1.53497
  580 5.40752 0.101587 -0.637046
  581 7.91685 1.27834 -0.596707
  582 0.0968093 -0.0524701 0.221548
  583 0.101595 -0.0509295 -0.218359
  584 8.52664 3.35255 4.39527
  585 6.97037 -0.159863 -0.121474
  586 0.122285 0.0723026 -0.103203
  587 0.125194 0.0717796 0.103782
  588 8.04294 -0.658942 0.917221
  589 1.18174 1.13752 1.56266
  590 5.73392 -0.0837293 -0.00349967
  591 5.73535 -0.0826989 0.00347240
  592 -0.00967848 -0.424816 0.212586
  593 -0.00905697 -0.424111 -0.211899
  594 9.79520 1.94355 -0.0156628
  595 6.23240 -0.525464 1.01638
  596 5.93261 -0.222871 0.0601050
  597 6.00887 0.199590 2.42237
  598 -0.517202 0.0231484 0.132034
  599 -0.516673 0.0232703 -0.131567
  600 9.99263 0.0467444 -0.868515
  601 13.6735 1.92059 -1.53354
  602 3.64560 0.350447 -1.56159
  603 1.84197 -0.0725242 -0.283034
  604 1.84331 -0.0724743 0.282859
  605 9.16016 -0.0173243 0.0613848
  606 5.86888 -0.228517 -0.0684640
  607 8.05201 -0.0792415 0.139851
  608 7.77029 -0.356848 0.994177
  609 0.0584966 -0.0115627 0.0430633
  610 0.0566640 -0.0115076 -0.0435839
  611 4.48634 -0.129488 -0.0116443
  612 4.48551 -0.124908 0.0101708
  613 2.73779 0.0661175 -0.673377
  614 2.71868 0.0668657 0.669518
  615 11.5376 0.489784 0.435833
  616 19.3562 1.45758 -2.13070
  617 -0.340313 -0.0102345 0.0617900
  618 -0.343387 -0.0101948 -0.0618465
  619 2.51017 -0.0982850 0.110328
  620 2.51053 -0.0982215 -0.112642
  621 10.6582 0.461665 0.622070
  622 9.08162 -0.0119199 -0.0195648
  623 9.05945 -0.0267511 0.0105715
  624 6.15256 -0.00871768 0.750729
  625 9.37181 -0.631151 -0.657526
  626 4.90108 -0.391309 0.240843
  627 -0.168387 0.105638 -0.149019
  628 -0.170464 0.105517 0.150183
  629 7.95955 0.138552 1.45716
  630 3.00974 -0.164869 -0.289108
  631 3.00602 -0.167856 0.289722
  632 6.51623 -0.351927 -0.158101
  633 8.17629 -0.157139 -0.324562
  634 4.49413 -0.351847 -0.411384
  635 7.38307 0.891212 -0.882953
  636 5.01237 -0.352001 -0.810926
  637 1.61441 -0.0410039 -0.0414630
  638 1.61415 -0.0403689 0.0405956
  639 4.54417 -0.358978 0.411900
  640 10.0503 1.57182 0.974566
  641 7.94802 -0.401550 1.24937
  642 6.50962 -0.259114 0.137711
  643 4.53856 -0.0912380 0.0180568
  644 4.53738 -0.0915902 -0.0171258
  645 3.33182 -0.107258 -0.0736482
  646 3.33010 -0.105743 0.0723236
  647 7.68916 -0.709546 -0.581475
  648 3.72084 -0.194821 0.131970
  649 3.72548 -0.194083 -0.136300
  650 7.48919 1.17400 -0.120099
  651 7.10057 -0.349040 0.282279
  652 9.09200 -0.0293936 -0.0911347
  653 7.44373 -0.151005 -1.27087
  654 0.877768 -0.0413257 0.182627
  655 0.876179 -0.0410085 -0.183015
  656 8.81737 -0.0354316 -0.177012
  657 1.44422 0.731519 -0.939492
  658 1.46973 0.729169 0.944202
  659 8.95447 -0.621971 0.985644
  660 2.92553 0.706601 1.64369
  661 0.550962 0.000656515 0.183606
  662 0.548906 0.000814211 -0.183906
  663 7.56433 -0.544681 1.34112
  664 7.52110 0.866903 -3.35359
  665 7.05363 0.205220 -1.25601
  666 9.46394 1.69974 0.815118
  667 6.38926 -0.252643 -0.108699
  668 11.5858 2.13128 -0.0512784
  669 -0.644058 0.0261465 -0.00425478
  670 -0.641585 0.0260678 0.00475840
  671 5.04445 -0.00828285 -1.66929
  672 0.0559685 -0.00627471 0.0352419
  673 0.0549638 -0.00629570 -0.0357568
  674 6.39307 -0.564871 -1.00219
  675 1.98974 0.284435 -0.643726
  676 1.97245 0.285127 0.643084
  677 -0.0472910 0.103271 0.00298139
  678 -0.0446130 0.103090 -0.00189927
  679 5.36751 -0.452608 -0.151336
  680 7.67361 -0.0746090 -0.493618
  681 3.49783 -0.0891567 -0.0287911
  682 3.49770 -0.0877876 0.0291143
  683 2.46166 -0.119572 -0.175721
  684 2.46324 -0.121401 0.174673
  685 0.441883 0.364569 -0.0578533
  686 0.450008 0.365122 0.0603978
  687 8.04859 -0.0631660 0.0803261
  688 3.34878 -0.202321 0.231566
  689 3.37260 -0.198334 -0.231138
  690 8.85672 -0.757516 -0.277060
  691 7.22400 -0.724834 -0.294902
  692 5.61492 -0.122797 0.0287313
  693 5.59356 -0.111556 -0.0253367
  694 8.00969 -0.883468 0.286337
  695 13.1304 2.62583 0.549805
  696 7.01330 -0.371173 -1.70476
  697 8.05052 -0.212101 0.543487
  698 7.91808 -0.313445 -1.32961
  699 2.24772 -0.0618905 -0.0765110
  700 2.24717 -0.0612460 0.0749724
  701 6.20227 -0.161466 1.92781
  702 18.1741 2.28864 2.10119
  703 1.07747 0.333629 -0.336931
  704 1.07885 0.335761 0.338082
  705 8.03287 -0.0434144 -0.0421989
  706 8.10088 -0.0367220 0.0426770
  707 3.28929 1.51821 -2.74203
  708 8.46707 -0.0346026 0.301543
  709 7.31124 -0.0878081 0.0769285
  710 9.47396 1.90456 -0.311802
  711 0.845455 0.172407 -0.232768
  712 0.849294 0.171268 0.233665
  713 9.28087 -0.00984044 0.0143520
  714 7.32407 -0.252928 -0.265937
  715 9.15690 -0.190797 1.15971
  716 3.57192 -0.243267 -0.391899
  717 3.58098 -0.231967 0.386962
  718 0.611299 -0.0250944 0.138430
  719 0.609547 -0.0247383 -0.139050
  720 8.42222 -0.0274115 -0.0685717
  721 7.21487 1.21876 3.57839
  722 0.0276021 0.0212371 0.275210
  723 0.0301801 0.0226475 -0.273462
  724 8.41168 -0.0649086 -0.160984
  725 8.13754 -0.121916 0.226561
  726 6.11908 -0.00298157 -0.805183
  727 0.0528126 -0.805000 -0.128455
  728 0.0489328 -0.812079 0.135593
  729 2.81140 0.725460 -1.64189
  730 6.37463 -0.656836 -0.686814
  731 3.25341 1.50822 2.77368
  732 9.13433 -0.00713476 0.0402818
  733 8.46992 1.26201 0.965076
  734 5.95670 0.548996 -0.318919
  735 11.2815 2.28258 -0.117722
  736 8.96638 -0.0240990 0.119985
  737 -0.658955 0.0135667 0.0467853
  738 -0.662079 0.0136414 -0.0465944
  739 9.48023 -0.618522 0.0648701
  740 6.00423 -0.136025 0.0352924
  741 2.03672 0.0122296 -0.441800
  742 2.03904 0.0100708 0.438386
  743 8.16551 -0.0651311 -0.105700
  744 14.5378 2.07116 -0.687126
  745 0.695872 -0.0233282 -0.0800019
  746 0.697173 -0.0234815 0.0790785
  747 9.19728 -0.0111132 -0.0586608
  748 1.54163 -0.0691218 -0.112733
  749 1.54217 -0.0693696 0.111383
  750 8.80008 -0.391716 -1.17780
  751 8.09907 -0.0793657 0.405737
  752 7.11457 -0.0617754 1.24721
  753 9.23649 -0.0116815 -0.00671467
  754 8.52857 -0.0382230 0.126610
  755 5.38589 -0.263220 0.0199346
  756 6.87760 -0.143673 0.100085
  757 7.80060 -0.479512 -0.873502
  758 7.62185 -0.468194 0.600794
  759 8.86477 1.04087 -1.22620
  760 7.52350 -0.403974 0.463614
  761 7.91479 -0.478490 1.09590
  762 4.46466 -0.284457 0.125037
  763 0.144412 -0.131759 -0.0781759
  764 0.135762 -0.132058 0.0862910
  765 6.98437 -0.0641718 0.00758345
  766 6.96892 -0.0633560 -0.0102926
  767 8.52039 -0.00974798 -0.00917205
  768 8.55243 -0.00778173 0.0113454
  769 7.94574 -0.214854 0.651819
  770 7.34676 -0.714580 0.932652
  771 5.95384 -0.466877 -0.0131051
  772 5.24879 -0.288016 0.0206826
  773 14.8616 1.91965 0.822425
  774 8.08222 -0.186819 -0.440020
  775 4.64335 0.738693 -2.58826
  776 7.47996 -0.347661 -0.406682
  777 0.134513 0.00924886 -0.123149
  778 0.137258 0.00897775 0.123209
  779 6.40448 0.563154 -0.716708
  780 17.7443 0.542755 -0.236959
  781 8.35005 0.182232 -1.44322
  782 0.309251 -0.109028 -0.551133
  783 8.48750 1.55095 0.250146
  784 6.72095 -0.404206 0.203696
  785 7.48439 -0.200202 1.23618
  786 6.33927 -0.685583 0.691013
  787 10.4452 -0.227316 1.49876
  788 0.333371 -0.0309439 0.594218
  789 4.51073 -0.0423912 1.27444
  790 6.43007 -0.127396 -0.0587883
  791 7.19275 -0.683542 -0.945626
  792 4.27359 -0.322394 -0.265648
  793 3.35713 0.154276 -1.09599
  794 8.29751 -0.158884 1.41599
  795 5.23972 -0.337367 0.0694214
  796 0.747600 -0.0246480 0.0757917
  797 0.746859 -0.0246951 -0.0768003
  798 7.69814 -0.0392934 0.438543
  799 6.85726 0.0213447 -1.20437
  800 -0.644697 0.0266870 0.0876452
  801 -0.643771 0.0267275 -0.0871479
  802 5.09215 -0.127267 0.0175211
  803 5.07601 -0.118189 -0.0190283
  804 3.74503 0.395616 1.58730
  805 3.25610 -0.178940 0.164732
  806 3.26153 -0.174083 -0.167319
  807 9.20011 -0.00437116 -0.0354464
  808 3.00569 0.234325 1.06384
  809 -0.161584 -0.00248439 0.0483884
  810 -0.164075 -0.00241648 -0.0487127
  811 7.60169 -0.239147 0.965879
  812 8.34360 -0.0424844 0.0566733
  813 -0.444345 0.00307319 0.126118
  814 -0.444355 0.00320344 -0.125877
  815 4.94546 -0.320862 0.924052
  816 0.897502 0.700925 -0.772094
  817 0.909061 0.662867 0.758582
  818 4.35169 0.199975 0.129571
  819 -0.313553 -0.00270949 -0.0563664
  820 -0.310555 -0.00275561 0.0562357
  821 5.72648 -0.553818 -0.643976
  822 7.93545 -0.849927 -0.416352
  823 -0.0384119 -0.0366336 -0.0476208
  824 -0.0383082 -0.0365568 0.0474549
  825 0.0942949 0.0153336 -0.00991178
  826 0.0942430 0.0154165 0.00961920
  827 7.01982 -0.615904 0.295984
  828 5.85433 -0.604074 0.412752
  829 6.55815 -0.0705435 0.0418985
  830 5.83682 -0.454530 -0.0109425
  831 1.90947 -0.0230931 -0.00561352
  832 1.90912 -0.0221773 0.00539425
  833 -0.740399 0.0153316 0.0568386
  834 -0.738950 0.0153086 -0.0563594
  835 7.48465 -0.0598045 -0.0565862
  836 6.30942 0.238023 -1.01646
  837 7.55737 -0.116261 -0.148038
  838 4.28211 -0.315406 0.249711
  839 7.30524 -0.134283 -1.00720
  840 7.93771 -0.233992 -0.674067
  841 7.51791 -0.0460275 0.0515380
  842 5.35517 -0.228780 1.31028
  843 5.72454 -0.553164 -0.188305
  844 3.35742 -0.0240729 -0.818459
  845 3.37675 -0.000630473 0.822719
  846 4.82734 -0.344916 -0.135942
  847 8.08778 0.858854 1.23153
  848 7.82442 -0.850223 -0.446197
  849 2.58001 -0.0708801 -0.0349691
  850 2.57928 -0.0694844 0.0343253
  851 5.90293 -0.0961138 -0.0184873
  852 5.90291 -0.0972685 0.0202722
  853 6.92804 -0.0566377 -0.653927
  854 2.16954 -0.0865469 -0.140752
  855 2.17029 -0.0872544 0.138948
  856 0.0253570 -0.780172 -0.165477
  857 0.0238439 -0.783387 0.168472
  858 0.909612 -0.0127742 -0.0109331
  859 0.909813 -0.0131591 0.0106710
  860 7.41737 -0.0799369 -0.0801008
  861 5.49811 -0.522294 0.366660
  862 8.73887 -0.789671 0.452500
  863 4.70103 0.101033 0.497215
  864 7.58134 -0.146546 0.167254
  865 8.23716 -0.760598 -0.753926
  866 1.02807 0.0785109 -0.280664
  867 1.03108 0.0772699 0.280209
  868 6.52292 -0.0786116 -0.0386583
  869 5.15775 -0.148075 0.00359008
  870 5.13828 -0.146318 0.000965120
  871 7.94423 1.24585 0.671124
  872 2.66541 -0.0192592 -0.545944
  873 2.66209 -0.0225242 0.542749
  874 5.55046 -0.490778 0.132670
  875 0.464859 0.326595 -0.0451701
  876 0.469911 0.325798 0.0464508
  877 4.65604 -0.334621 0.733060
  878 5.63661 -0.336398 0.0267052
  879 6.97511 -0.0585406 0.660948
  880 7.00346 -0.799429 0.133912
  881 8.05142 -0.626415 -0.978695
  882 5.48479 -0.526685 -0.373780
  883 4.49946 -0.282959 -0.117837
  884 15.6179 1.30304 -0.233034
  885 7.35004 -0.784036 0.254830
  886 0.154179 0.216428 0.144553
  887 0.157820 0.216756 -0.142731
  888 6.34151 -0.629525 0.0111793
  889 6.99542 -0.804687 -0.333868
  890 0.150462 0.197490 0.0667423
  891 0.153593 0.197464 -0.0653917
  892 2.46597 -0.0802388 0.400149
  893 2.46824 -0.0831407 -0.403351
  894 3.03556 -0.146923 0.441588
  895 3.03502 -0.150877 -0.445676
  896 10.0655 2.02912 0.420030
  897 -0.0167225 -0.312347 -0.151104
  898 -0.0168320 -0.312047 0.151033
  899 2.17920 0.194191 -0.610351
  900 2.16731 0.190049 0.602931
  901 18.3936 0.599627 -0.943748
  902 0.0127162 -0.000114799 0.0182346
  903 0.0122038 -0.000176072 -0.0186368
  904 0.0254927 -0.944253 0.0875641
  905 0.0303678 -0.930314 -0.0757283
  906 -0.334557 -0.00564401 0.125913
  907 -0.334856 -0.00554631 -0.125858
  908 1.73586 0.516937 -0.726909
  909 1.76322 0.499984 0.714869
  910 -0.162692 -0.00276260 -0.274329
  911 -0.163411 -0.00330175 0.274796
  912 0.382477 0.0512514 -0.173099
  913 0.385332 0.0506344 0.173228
  914 1.85407 -0.0130482 0.365020
  915 1.85324 -0.0129934 -0.367597
  916 1.46413 -0.0458878 -0.291370
  917 1.46525 -0.0457374 0.290548
  918 8.83447 -0.0243481 -0.170582
  919 4.15834 0.824671 2.39112
  920 5.78465 -0.564348 0.168275
  921 4.01135 -0.274233 0.189737
  922 7.89112 0.798418 -1.20873
  923 18.0816 0.396066 0.371740
  924 9.57001 0.370498 -1.23532
  925 1.34518 -0.0511850 0.176015
  926 1.34420 -0.0505356 -0.177042
  927 0.0818509 -0.00614348 -0.130708
  928 0.0844246 -0.00622927 0.130571
  929 -0.0178241 -0.171008 -0.303441
  930 -0.0190486 -0.172174 0.304399
  931 4.14859 -0.159999 0.0667686
  932 4.15114 -0.163841 -0.0675105
  933 0.393714 0.138789 -0.139797
  934 0.396884 0.138127 0.140660
  935 2.43771 -0.101598 -0.332420
  936 2.43896 -0.101504 0.331917
  937 5.33389 -0.0343219 -0.588146
  938 2.50563 -0.130067 -0.217622
  939 2.50313 -0.128321 0.218409
  940 6.56451 -0.145644 -0.0730839
  941 7.93392 -0.468181 -1.16906
  942 3.28335 -0.117091 0.0819616
  943 3.28544 -0.118495 -0.0838671
  944 -0.140398 -0.0160866 -0.0855883
  945 -0.140052 -0.0161244 0.0854274
  946 8.17278 -0.694903 -1.18356
  947 7.76283 -0.449019 0.770952
  948 6.78480 -0.453750 -0.242487
  949 6.40410 0.206981 1.07317
  950 2.83062 -0.150797 -0.247611
  951 2.82996 -0.147458 0.248529
  952 7.26255 0.260832 1.31397
  953 6.68954 0.580430 0.862178
  954 14.4587 1.76688 0.291862
  955 7.26606 -0.229116 0.209859
  956 3.63054 -0.0857092 -0.0354751
  957 3.62975 -0.0833398 0.0359766
  958 6.44295 -0.511715 -0.133140
  959 8.86074 1.63827 -0.601985
  960 8.05052 -0.0531656 -0.0801450
  961 5.10629 -0.0885844 0.0106642
  962 5.10404 -0.0876403 -0.00908909
  963 0.594652 0.482029 -0.286968
  964 0.610870 0.480481 0.289691
  965 1.24700 2.61184 -2.67553
  966 7.32590 -0.181953 1.00347
  967 9.32246 -0.235238 -1.05926
  968 -0.227297 0.0859873 0.0878268
  969 -0.225051 0.0859365 -0.0867514
  970 19.8409 4.49390 -3.64710
  971 7.95304 -0.885340 0.242420
  972 8.52120 -0.832716 -0.180179
  973 7.80876 -0.673356 0.730628
  974 9.55580 1.90812 0.274306
  975 0.639095 0.558869 -0.711951
  976 1.74089 2.20835 2.58790
  977 -0.0583958 -0.124736 0.296963
  978 -0.0576351 -0.123880 -0.296458
  979 7.64931 -0.163505 0.202385
  980 12.2874 2.20953 -0.199071
  981 0.658758 0.542035 0.745713
  982 -0.0345702 -0.109600 -0.0951580
  983 -0.0345830 -0.109326 0.0949374
  984 6.50150 -0.110950 0.0428927
  985 4.74157 -0.366766 -0.274198
  986 7.86635 -0.627298 -0.841991
  987 2.10982 0.564640 -0.992174
  988 2.14456 0.574409 0.994862
  989 7.56877 -0.189981 -0.904461
  990 7.74065 -0.218590 0.339038
  991 -0.229818 0.0427793 0.248372
  992 -0.228820 0.0432458 -0.247655
  993 4.52570 -0.299449 -0.683380
  994 7.56200 0.464835 -1.33083
  995 5.65614 -0.176434 -0.0301696
  996 3.95365 -0.0867306 0.000829538
  997 3.95304 -0.0875981 -0.000347247
  998 -0.0910554 -0.102863 -0.203792
  999 -0.0911904 -0.103079 0.203671
  1000 7.84462 -0.256344 -0.404654
  1001 7.50500 -0.0436803 0.0169719
  1002 7.49790 -0.0437097 -0.0136358
  1003 10.3043 1.62302 -0.928165
  1004 1.70067 0.160546 -0.466274
  1005 1.70474 0.157343 0.464708
  1006 0.991870 -0.00380557 -0.236958
  1007 0.993535 -0.00401856 0.236369
  1008 8.39735 0.416342 1.45975
  1009 8.08796 -0.123432 -0.237697
  1010 1.27427 0.217639 -0.364857
  1011 1.27938 0.215911 0.366228
  1012 8.52329 -0.0163881 -0.0464029
  1013 7.81367 -0.321516 -0.588992
  1014 7.62676 -0.885283 -0.182508
  1015 0.248297 0.185063 -0.0772522
  1016 0.240433 0.184221 0.0807276
  1017 -0.406977 0.0559172 0.158646
  1018 -0.405701 0.0560520 -0.157824
  1019 4.17966 0.167673 -0.216708
  1020 13.4032 3.20593 -0.672848
  1021 5.94763 -0.411333 0.0602550
  1022 3.84154 -0.166525 -0.708235
  1023 9.78495 -0.469192 0.279990
  1024 3.85689 -0.166811 0.719158
  1025 6.89461 -0.819900 0.414193
  1026 7.82654 -0.320096 -0.845400
  1027 2.45134 -0.0445455 -0.0112916
  1028 2.45099 -0.0433689 0.0111533
  1029 5.25237 -0.393255 -0.0989830
  1030 3.12462 -0.110123 -0.534565
  1031 3.12270 -0.110943 0.530899
  1032 0.996120 0.641781 -0.569797
  1033 1.01274 0.639193 0.571373
  1034 2.01039 -0.0580877 -0.0418908
  1035 2.00993 -0.0571435 0.0409766
  1036 6.98651 -0.185252 0.134459
  1037 5.84403 -0.0202322 -1.95724
  1038 7.25332 -0.202306 -0.205754
  1039 6.48646 -0.721264 -0.202377
  1040 4.13588 -0.150752 0.0393877
  1041 4.13981 -0.152178 -0.0397537
  1042 8.64136 -0.0265973 0.0583187
  1043 7.62237 -0.147280 -0.190484
  1044 4.45794 0.106898 0.407746
  1045 8.10952 -0.0775177 -0.376609
  1046 3.02962 0.843395 1.87708
  1047 8.39804 -0.0713534 -0.313518
  1048 2.04614 0.351555 -0.726358
  1049 1.98020 0.355977 0.692695
  1050 10.1229 -0.268897 -0.338054
  1051 0.804036 0.437856 -0.260608
  1052 0.811865 0.434456 0.260226
  1053 0.127345 -0.0798168 0.148382
  1054 0.134847 -0.0786507 -0.143475
  1055 1.01142 -0.0277420 0.0537889
  1056 1.01108 -0.0279889 -0.0548435
  1057 3.46951 0.855876 -2.09948
  1058 20.5789 5.02846 3.92010
  1059 7.81342 -0.256684 0.415206
  1060 6.95764 -0.790860 -0.108143
  1061 4.73374 -0.386913 -0.504448
  1062 -0.139294 0.0933302 0.231761
  1063 -0.137522 0.0938347 -0.230595
  1064 5.38020 -0.247507 -0.0247994
  1065 5.98260 -0.185859 -0.0588919
  1066 -0.00435315 -0.444590 0.147587
  1067 -0.00420203 -0.444915 -0.147517
  1068 0.816362 0.516968 -0.322846
  1069 0.826687 0.515697 0.324991
  1070 5.30291 -0.224112 0.0251491
  1071 0.321492 0.189463 0.0628526
  1072 0.318281 0.189797 -0.0616617
  1073 8.23161 -0.348362 1.35101
  1074 5.90222 -0.614870 -0.410621
  1075 4.76307 -0.393283 0.504260
  1076 7.77972 -0.178028 -1.39567
  1077 8.42013 -0.0648370 0.173447
  1078 2.87608 0.435151 1.22536
  1079 2.89733 0.416869 -1.20370
  1080 4.73884 -0.239327 -1.02159
  1081 6.85788 -0.210359 -0.141915
  1082 5.48537 -0.304650 0.00457663
  1083 6.48773 -0.595580 0.0953494
  1084 9.16230 -0.0215799 -0.0957139
  1085 4.71035 -0.189609 0.0236415
  1086 4.70824 -0.202487 -0.0267600
  1087 0.122203 0.153207 0.215412
  1088 0.126043 0.154396 -0.213276
  1089 7.81432 0.265830 -1.43462
  1090 1.62006 0.0947917 -0.406244
  1091 1.62425 0.0928044 0.404571
  1092 1.16492 0.0331619 -0.279832
  1093 1.16728 0.0324434 0.278921
  1094 9.17021 -0.483238 1.51708
  1095 7.82193 -0.355941 0.838286
  1096 3.68844 -0.164312 -0.587909
  1097 9.35493 -0.0280263 -0.0578043
  1098 10.2093 1.90548 -0.713803
  1099 8.41741 -0.0526555 -0.116823
  1100 7.77217 -0.850569 0.407580
  1101 5.66944 -0.446910 0.878637
  1102 9.44846 -0.000274942 0.0156131
  1103 4.44781 0.143387 -0.346376
  1104 6.53455 -0.697701 -0.0278971
  1105 3.69386 -0.172162 0.579783
  1106 6.59943 -0.590352 -0.134250
  1107 8.36766 -0.0989786 0.299581
  1108 5.61184 0.357665 0.546326
  1109 3.97847 -0.285771 -0.451105
  1110 12.8712 1.57281 -0.459889
  1111 9.44219 0.368676 1.28044
  1112 6.75996 0.858643 0.136269
  1113 9.29734 0.0117313 0.0550824
  1114 3.41341 -0.203981 -0.330864
  1115 2.34382 1.36603 -2.09141
  1116 4.25915 0.0945397 -1.49518
  1117 4.88999 -0.360125 0.172046
  1118 4.08955 -0.299228 0.415082
  1119 3.40376 -0.193014 0.335240
  1120 7.40204 0.0461473 1.38299
  1121 5.61448 -0.160736 0.0362068
  1122 9.12259 -0.0582656 0.122908
  1123 -0.0888238 -0.0218039 0.302075
  1124 -0.0877821 -0.0209725 -0.301367
  1125 5.90431 -0.130822 -0.0391869
  1126 -0.0343889 0.0438434 0.288377
  1127 -0.0325264 0.0449034 -0.287078
  1128 3.14318 -0.0821224 0.0548918
  1129 3.14385 -0.0838951 -0.0550144
  1130 8.47907 -0.0399627 0.260675
  1131 6.74712 -0.389011 -0.210603
  1132 6.29826 -0.307790 -0.116920
  1133 7.08031 -0.478892 0.345791
  1134 2.05781 0.982243 -1.52915
  1135 6.95638 -0.230199 0.169860
  1136 0.864606 0.0257457 -0.225749
  1137 0.866807 0.0252488 0.225285
  1138 1.35242 0.846729 -1.04013
  1139 11.2810 1.34239 0.605169
  1140 0.571848 -0.0315160 0.127765
  1141 0.569933 -0.0312313 -0.128190
  1142 1.37715 0.830933 0.999460
  1143 6.31545 -0.513339 0.107249
  1144 3.02563 -0.128292 0.107718
  1145 3.02665 -0.129103 -0.110542
  1146 13.1706 2.75955 -0.588728
  1147 6.99284 -0.698592 0.174616
  1148 2.30187 1.26912 2.08527
  1149 0.179646 -0.183996 -0.105965
  1150 0.194996 -0.181749 0.124500
  1151 7.17365 0.904578 0.699806
  1152 0.464993 0.281061 -0.0553059
  1153 0.469146 0.281034 0.0563686
  1154 7.04258 -0.602553 -0.306464
  1155 -0.00361401 -0.695429 -0.141802
  1156 -0.00393707 -0.695683 0.142438
  1157 7.54730 -0.633738 -0.544069
  1158 -0.363614 0.0104799 0.0438449
  1159 -0.366564 0.0105362 -0.0440227
  1160 1.04586 0.406440 -0.359933
  1161 1.05159 0.408106 0.355564
  1162 -0.566725 0.00161032 -0.0539158
  1163 -0.563403 0.00157966 0.0539232
  1164 7.62857 -0.0453728 -0.0265122
  1165 -0.814110 0.0220124 0.0258650
  1166 -0.812165 0.0219940 -0.0254329
  1167 3.83446 -0.292749 -0.313208
  1168 0.0978429 -1.16028 -0.0476050
  1169 1.75436 -0.0448785 0.0867438
  1170 1.75430 -0.0451261 -0.0882364
  1171 6.39139 -0.0812776 0.00201829
  1172 6.40395 -0.0779341 -0.000698375
  1173 0.104762 -1.11522 0.0698772
  1174 7.61122 -0.379834 -0.513574
  1175 8.79160 -0.0314610 0.198516
  1176 7.71930 -0.487937 -0.720325
  1177 6.52752 0.0418322 1.06571
  1178 0.0266888 -0.321750 0.242185
  1179 0.0299382 -0.319798 -0.238804
  1180 4.81616 -0.332312 0.123215
  1181 -0.357168 0.0267272 0.196360
  1182 -0.356539 0.0269625 -0.195833
  1183 12.9670 2.09942 0.114649
  1184 15.6446 4.39983 -3.08929
  1185 7.90181 -0.778621 0.659990
  1186 3.05292 -0.0730201 -0.00360008
  1187 3.05271 -0.0717708 0.00359817
  1188 16.7620 1.62594 -1.46736
  1189 0.922114 -0.0244258 0.133053
  1190 0.920702 -0.0239839 -0.133882
  1191 7.24737 -0.0238820 -0.430713
  1192 4.61225 -0.365094 0.358166
  1193 7.81891 -0.776186 -0.517828
  1194 7.55555 -0.541762 -0.590534
  1195 4.50351 -0.168798 1.07565
  1196 1.57727 0.306740 -0.530703
  1197 1.57590 0.303953 0.526947
  1198 2.13575 0.776752 -1.28696
  1199 2.13765 0.716628 1.28665
  1200 0.527807 0.182981 -0.145619
  1201 0.531269 0.182366 0.146702
  1202 9.24596 1.59053 -0.888671
  1203 0.425395 0.377579 -0.104570
  1204 0.436310 0.377762 0.107665
  1205 6.69146 -0.494000 0.203513
  1206 12.9482 1.62557 0.540989
  1207 1.34921 -0.0580777 -0.0853354
  1208 1.34968 -0.0580244 0.0839983
  1209 8.59895 5.14679 -4.84492
  1210 6.00583 0.352914 -0.847640
  1211 5.43637 0.428086 0.343134
  1212 0.697801 0.320893 -0.174176
  1213 0.701259 0.320768 0.175366
  1214 -0.131673 -0.000473294 0.0324745
  1215 -0.133240 -0.000471756 -0.0328704
  1216 7.44254 -0.590566 0.510035
  1217 7.34086 -0.266345 0.287086
  1218 4.98093 1.25723 -3.38111
  1219 11.6102 2.51664 0.0528232
  1220 4.87000 -0.162700 -1.19601
  1221 6.40651 -0.160462 0.0697076
  1222 -0.00518819 -0.0329891 -0.00912132
  1223 -0.00560831 -0.0329738 0.00906306
  1224 -0.280685 0.0498723 -0.0562323
  1225 -0.277898 0.0496485 0.0568173
  1226 4.20456 0.0322985 -1.26073
  1227 8.01777 -0.149892 0.295824
  1228 5.09422 0.0574316 1.76818
  1229 6.99537 -0.319178 -0.244075
  1230 3.52972 1.17694 -2.61790
  1231 5.54981 -0.295745 -1.30012
  1232 6.65196 -0.709932 -0.0106171
  1233 8.23978 -0.116097 0.430821
  1234 7.22129 -0.113499 -0.103190
  1235 3.81634 -0.273349 0.315582
  1236 9.07842 -0.557488 -0.854160
  1237 8.47483 0.706389 1.38734
  1238 3.59503 0.0144374 -0.973811
  1239 8.70803 -0.0285120 0.0429034
  1240 6.57312 0.831818 -0.193794
  1241 2.75605 -0.0841542 -0.0854845
  1242 2.75498 -0.0829884 0.0840326
  1243 13.3650 2.82048 0.421677
  1244 18.7803 0.502078 0.885031
  1245 0.0142591 -0.854052 -0.142071
  1246 0.0137547 -0.855156 0.143124
  1247 1.82243 0.918537 1.41835
  1248 4.46821 -0.101460 -0.00185888
  1249 4.46913 -0.100558 0.00366392
  1250 6.25591 -0.623640 -0.0482610
  1251 7.35439 0.590133 1.20195
  1252 7.96590 -0.126782 -0.203167
  1253 9.44814 -0.0144325 -0.00453330
  1254 16.3688 3.56549 -2.18125
  1255 2.24029 -0.0785162 0.0820581
  1256 2.24063 -0.0787816 -0.0838536
  1257 7.55431 -0.701337 0.529742
  1258 13.5980 3.03889 -0.694855
  1259 7.34100 -0.293896 -0.319395
  1260 5.25117 -0.345413 -0.0546789
  1261 6.53110 -0.714492 0.193449
  1262 6.38885 -0.290704 0.130379
  1263 0.209595 -0.116031 -0.205675
  1264 8.83797 -0.573783 0.977395
  1265 7.11229 -0.445857 -0.335901
  1266 0.232527 -0.103992 0.237206
  1267 7.33613 -0.635212 -1.20373
  1268 6.95908 0.332990 -2.76444
  1269 11.5876 1.32757 -0.505062
  1270 9.49189 0.00492650 -0.00391493
  1271 9.47187 -0.00404187 0.00968425
  1272 7.24364 -0.401607 0.351117
  1273 2.65574 0.316994 -0.952793
  1274 8.27325 -0.758093 0.804238
  1275 14.3108 3.21424 1.33572
  1276 3.36622 1.08259 2.54464
  1277 0.0726535 -0.0309689 0.256085
  1278 0.0762143 -0.0293840 -0.253649
  1279 8.75790 -0.763144 -0.562907
  1280 3.30280 -0.166980 -0.131669
  1281 3.30171 -0.167353 0.127914
  1282 8.06478 -0.545497 1.13577
  1283 0.111866 0.00521559 0.144689
  1284 0.109252 0.00537167 -0.144776
  1285 -0.0498078 -0.176214 0.237579
  1286 -0.0495075 -0.175846 -0.237572
  1287 1.18732 -0.0410867 -0.121380
  1288 1.18821 -0.0413539 0.120200
  1289 4.10933 -0.269582 -0.523155
  1290 4.11764 -0.110637 0.0100554
  1291 4.11770 -0.113895 -0.00839626
  1292 9.44030 0.00478210 -0.00547536
  1293 8.17659 -0.113880 -0.481304
  1294 0.495819 0.0355455 -0.174079
  1295 0.498387 0.0350989 0.173953
  1296 4.12600 -0.286024 0.517217
  1297 9.55355 -0.00179931 0.000658361
  1298 8.97229 0.0135775 -0.00948284
  1299 8.97350 0.00834287 0.00688599
  1300 11.6861 2.34938 0.384733
  1301 8.69199 -0.0338527 -0.0928309
  1302 7.65409 -0.0405972 0.0236562
  1303 8.48890 -0.108442 -0.265343
  1304 9.37092 -0.0193986 0.0423177
  1305 9.51312 0.926205 1.27070
  1306 11.0688 2.23458 0.494517
  1307 9.01204 -0.0266482 -0.134416
  1308 -0.0694153 -0.0189306 0.0631451
  1309 -0.0696772 -0.0189145 -0.0633219
  1310 4.79597 -0.280639 0.0671606
  1311 4.79484 -0.266882 -0.0634299
  1312 9.60197 1.03258 -1.22265
  1313 1.88131 0.641115 -1.04387
  1314 1.89337 0.622452 1.03079
  1315 6.23075 -0.00205776 -0.532419
  1316 6.66004 -0.0655143 0.00888697
  1317 6.65192 -0.0645789 -0.0102237
  1318 -0.169151 -0.0334315 0.243390
  1319 -0.168846 -0.0330264 -0.243269
  1320 7.27222 -0.0181566 0.430311
  1321 11.2696 2.25105 0.0969198
  1322 0.523158 -0.0276238 -0.0769130
  1323 0.524346 -0.0276913 0.0760103
  1324 8.34538 -0.828127 0.513546
  1325 -0.0259136 0.116835 0.243521
  1326 -0.0236052 0.117549 -0.242067
  1327 1.25280 -0.0267879 -0.0209488
  1328 1.25263 -0.0262118 0.0203592
  1329 6.23337 -0.0132213 0.540108
  1330 -0.0687326 0.0157753 -0.0104531
  1331 -0.0685721 0.0158358 0.0101597
  1332 8.58848 -0.0785837 0.180367
  1333 11.8309 2.19673 0.0522826
</Section>

newXOutput 3

<Section columns = "stress_xx | stress_yy | stress_xy">
  1 19.4218 -0.0325052 0.0345366
  2 19.4581 -0.0487013 -0.0449153
  3 -0.356378 0.0200788 -0.0528449
  4 -0.0113653 -0.0186064 -0.0104264
  5 37.0862 13.0758 11.5182
  6 37.6608 15.0572 -11.6523
  7 -0.0112283 -0.0184884 0.0102486
  8 -0.355439 0.0199701 0.0527096
  9 19.5676 -0.0217711 -0.0321304
  10 19.3977 -0.0531262 -0.0438428
  11 19.3969 -0.0383196 0.0522879
  12 19.2716 -0.00921380 0.0319425
  13 19.2097 -0.0494153 0.00114996
  14 19.1404 -0.0458567 0.0961604
  15 18.7946 -0.0258023 0.101278
  16 18.8365 -0.130249 0.138162
  17 18.1475 -0.103321 0.280063
  18 17.6896 -0.0355072 0.334139
  19 17.0757 -0.0513971 0.355662
  20 16.0394 -0.0448431 0.482212
  21 14.9350 -0.0423421 0.551818
  22 13.5846 0.0653731 0.743501
  23 11.7598 0.0999708 0.666402
  24 11.0474 -0.0164797 0.945953
  25 8.81710 0.129603 0.666955
  26 7.48781 0.177064 0.517933
  27 7.14415 0.0703592 0.380236
  28 6.77388 0.255373 0.0262657
  29 6.97435 0.281703 -0.507726
  30 7.38675 0.0746366 -0.638936
  31 9.02336 0.0214682 -0.860047
  32 10.6987 -0.0890139 -0.906167
  33 11.8259 0.0824820 -0.666326
  34 13.6062 0.0751514 -0.744800
  35 14.8917 -0.0512539 -0.590077
  36 16.1587 -0.0560883 -0.456916
  37 16.9953 -0.0337555 -0.360496
  38 17.6321 -0.0367199 -0.309887
  39 18.3053 -0.0573952 -0.184431
  40 18.5934 -0.0503619 -0.179665
  41 18.8686 -0.0487522 -0.155656
  42 19.1543 -0.0578387 -0.0423790
  43 19.2729 -0.0774403 -0.0693849
  44 19.1750 0.0264878 -0.0162609
  45 19.3761 -0.0323228 -0.0574122
  46 19.4876 -0.0854603 0.0477246
  47 19.5962 -0.0452698 -0.00387475
  48 18.5021 0.0465438 -0.0289433
  49 17.2881 -0.0181720 -0.0565963
  50 15.9349 -0.0951437 -0.0883328
  51 14.5523 -0.0548636 -0.0652854
  52 13.3626 -0.138171 -0.0605199
  53 12.1195 -0.157509 -0.0569589
  54 10.8769 -0.131098 -0.0336336
  55 9.58179 -0.151703 -0.0430167
  56 8.49348 -0.178365 -0.0540095
  57 7.05578 -0.179035 -0.0465308
  58 5.58242 -0.103827 -0.0298014
  59 4.36826 -0.0634650 -0.0249867
  60 2.87335 -0.0395972 -0.0154551
  61 1.78610 -0.0478188 -0.0791946
  62 0.773491 -0.0782697 -0.0289628
  63 -0.245382 0.0102984 0.0420294
  64 -0.498848 0.0730132 0.0109490
  65 -0.560196 0.0305579 0.0403465
  66 -0.500109 0.0143799 0.0366863
  67 -0.677638 0.0426008 0.00714999
  68 -0.732006 0.0546724 0.0811576
  69 -0.722235 0.0188281 0.0171923
  70 -1.02972 0.0391979 0.0206558
  71 -1.15769 0.0287789 0.0750533
  72 -1.17582 0.0114250 0.0769418
  73 -1.49614 0.0379996 0.0529704
  74 -1.59799 0.0552538 0.117224
  75 -1.69563 0.0336057 0.0271979
  76 -1.83756 0.0238792 0.0536094
  77 -1.86004 0.0260719 0.00935682
  78 -1.98192 0.0588528 -0.0585755
  79 -1.96784 0.0403969 -0.0449078
  80 -1.76625 0.0318269 -0.0720889
  81 -1.50029 0.0389299 -0.124695
  82 -1.20099 0.0153775 -0.177856
  83 -0.882036 0.00771104 -0.181039
  84 -0.524844 -0.0203804 -0.187434
  85 -0.221593 -0.0156777 -0.106842
  86 -0.0909369 -0.0386606 -0.0655551
  87 -0.0166094 -0.0931449 -0.0556344
  88 -0.0292136 -0.237976 -0.102465
  89 -0.0326602 -0.480832 -0.183974
  90 -0.00878915 -0.908228 -0.202690
  91 0.00895132 -1.27221 -0.258504
  92 0.0236778 -1.83838 -0.212756
  93 0.0729148 -2.20160 -0.254355
  94 0.00892233 -2.41670 -0.221883
  95 -0.00634899 -2.81568 -0.153027
  96 0.0751873 -2.82346 -0.0821644
  97 0.295510 -3.69675 0.0768026
  98 0.242206 -2.28890 0.349186
  99 0.598921 -1.48836 0.850482
  100 1.87304 1.96358 2.99601
  101 8.52813 9.19781 9.23419
  102 48.6736 4.95041 7.29660
  103 40.0998 1.40570 2.61753
  104 38.0549 0.601468 0.909390
  105 36.8816 0.402750 -0.00383162
  106 37.6110 0.574182 -0.741650
  107 40.5224 1.20429 -2.18132
  108 48.1784 3.98132 -6.84808
  109 5.48579 10.4493 -7.61507
  110 1.31178 1.12938 -2.27413
  111 0.439986 -1.79201 -0.683174
  112 0.219434 -2.46972 -0.285821
  113 0.294683 -3.82676 -0.0456904
  114 0.0723378 -2.88204 0.104777
  115 -0.0106340 -2.84541 0.164936
  116 0.00615083 -2.42851 0.228321
  117 0.0714387 -2.20483 0.257118
  118 0.0231058 -1.83788 0.213809
  119 0.00851012 -1.27078 0.258925
  120 -0.00900354 -0.906240 0.202623
  121 -0.0326952 -0.479539 0.183636
  122 -0.0292756 -0.236827 0.102134
  123 -0.0166018 -0.0927153 0.0553349
  124 -0.0904168 -0.0386169 0.0653088
  125 -0.220682 -0.0157415 0.106584
  126 -0.523718 -0.0205271 0.187302
  127 -0.880787 0.00755616 0.181106
  128 -1.20041 0.0152115 0.178177
  129 -1.50084 0.0388189 0.125283
  130 -1.76793 0.0318252 0.0727034
  131 -1.97096 0.0403755 0.0454942
  132 -1.98618 0.0588698 0.0591720
  133 -1.86555 0.0261473 -0.00886484
  134 -1.84396 0.0239711 -0.0532757
  135 -1.70240 0.0337051 -0.0269615
  136 -1.60513 0.0553670 -0.117185
  137 -1.50334 0.0381013 -0.0529453
  138 -1.18271 0.0114867 -0.0770392
  139 -1.16442 0.0288831 -0.0752491
  140 -1.03594 0.0393480 -0.0209238
  141 -0.727395 0.0189307 -0.0176377
  142 -0.736023 0.0547644 -0.0817689
  143 -0.680704 0.0426165 -0.00770015
  144 -0.501773 0.0143556 -0.0372036
  145 -0.560772 0.0304975 -0.0407556
  146 -0.498735 0.0729023 -0.0113106
  147 -0.244730 0.0102373 -0.0422314
  148 0.774014 -0.0785561 0.0287339
  149 1.78648 -0.0485870 0.0789286
  150 2.87384 -0.0409795 0.0151257
  151 4.36892 -0.0654749 0.0248046
  152 5.58286 -0.106177 0.0297541
  153 7.05546 -0.181098 0.0468127
  154 8.49142 -0.179475 0.0546368
  155 9.57790 -0.150637 0.0445492
  156 10.8707 -0.126726 0.0354516
  157 12.1107 -0.146930 0.0540914
  158 13.3678 -0.140996 0.0536418
  159 14.5558 -0.0734055 0.0686891
  160 15.9479 -0.0916863 0.0811964
  161 17.3255 -0.00793750 0.0573301
  162 18.4638 0.0455456 0.0279145
  163 10.2282 -0.910688 -0.645223
  164 10.1837 -0.926931 0.643888
  165 2.88957 0.824673 -1.03552
  166 2.91879 0.828153 1.02982
  167 12.2370 -0.658263 2.94684
  168 12.8614 -0.739371 -2.86241
  169 5.63927 -0.279122 0.278294
  170 5.63966 -0.276115 -0.284411
  171 13.1235 -0.389041 0.198589
  172 12.8391 -0.390210 -0.195227
  173 17.2449 3.15902 -0.523565
  174 17.8251 0.0365759 -2.66790
  175 17.4316 0.185575 2.82282
  176 3.83416 -0.133653 -0.676135
  177 3.83320 -0.132359 0.673908
  178 15.3972 -1.53715 1.10001
  179 15.3689 -1.18054 -1.40930
  180 0.131495 0.297538 0.468488
  181 0.137587 0.299493 -0.464978
  182 21.0169 4.23861 1.02242
  183 3.83010 1.66832 -2.56282
  184 4.12704 1.68686 2.76878
  185 14.9144 -0.648509 0.721448
  186 22.4474 4.60580 -0.722610
  187 9.38644 -0.283676 -0.0264694
  188 9.36963 -0.292914 0.0251855
  189 15.3842 -0.432239 -0.647787
  190 20.7301 -0.344621 0.127621
  191 3.26457 -0.0924733 0.0958096
  192 3.26475 -0.0935416 -0.0981765
  193 1.33729 0.208837 -0.420731
  194 1.34378 0.206708 0.421537
  195 8.35378 -0.327326 -1.76382
  196 8.32033 -0.346563 1.78807
  197 10.0461 -0.610064 -0.131803
  198 10.0668 -0.606552 0.151790
  199 2.23613 -0.0770824 0.342089
  200 2.23351 -0.0758754 -0.343438
  201 20.5261 -0.598707 0.950039
  202 16.5596 -1.68837 -0.654764
  203 15.8780 -0.0948582 -0.126392
  204 15.4896 -0.125035 0.132895
  205 15.1950 1.77238 1.94083
  206 0.580927 0.415810 -0.0475236
  207 0.604519 0.413930 0.0578202
  208 15.3888 -0.635030 2.27056
  209 13.8537 1.04378 -2.17847
  210 10.0969 2.05166 -6.30487
  211 10.6180 1.72768 5.84844
  212 0.106498 0.324649 0.0686647
  213 0.112053 0.324441 -0.0661483
  214 15.3220 -0.564439 -2.33748
  215 27.3134 3.88833 -0.224561
  216 12.7462 -1.41139 0.890798
  217 12.8509 -1.40186 -0.829209
  218 12.7437 -0.869073 -0.274618
  219 16.1022 -0.195452 0.363043
  220 7.39724 -0.486948 -0.556724
  221 7.27059 -0.484585 0.580384
  222 4.33038 0.105461 -1.06637
  223 4.33579 0.103557 1.05504
  224 16.4159 -1.79543 0.121951
  225 12.6307 -0.927814 0.221428
  226 16.0501 -0.186969 -0.299956
  227 12.2751 -0.240837 0.0672207
  228 12.3914 -0.218526 -0.0422960
  229 15.6655 -0.679257 1.37848
  230 1.00313 0.0218263 -0.364179
  231 1.00782 0.0212191 0.363707
  232 -0.218251 -0.153574 -0.547194
  233 -0.219263 -0.154762 0.547686
  234 1.89309 -0.0912284 -0.189755
  235 1.89490 -0.0914439 0.187446
  236 6.22136 -0.153342 0.118583
  237 6.22378 -0.157059 -0.120129
  238 7.38276 0.486943 -2.67068
  239 7.38341 0.401951 2.63841
  240 15.9145 -0.468702 -1.17842
  241 7.16656 -0.406612 -0.998031
  242 7.17178 -0.419515 0.979762
  243 13.6277 0.186719 2.44646
  244 11.6150 1.01292 0.146529
  245 13.5631 -1.34054 -0.294448
  246 0.0353743 -0.404842 -0.540790
  247 0.0308933 -0.408227 0.544710
  248 0.788010 0.621667 -0.756392
  249 0.842613 0.590025 0.805838
  250 13.3258 -1.30994 0.201922
  251 24.6198 4.24132 0.224006
  252 1.10709 0.776643 -0.238751
  253 1.12154 0.775899 0.243029
  254 -0.580023 0.100552 0.403996
  255 -0.577501 0.101059 -0.402293
  256 24.8071 3.91896 -0.103703
  257 8.19542 -0.355247 -0.160316
  258 8.18827 -0.348372 0.154008
  259 16.6605 -1.16812 2.19840
  260 30.8578 4.99757 2.95162
  261 4.59955 -0.231769 -0.540569
  262 4.59730 -0.233404 0.539394
  263 16.7167 2.49272 -1.90783
  264 29.6600 5.58737 -2.59880
  265 20.4249 1.87333 2.05078
  266 22.6419 0.939663 -3.77453
  267 13.6000 -0.588117 0.374531
  268 15.3068 0.0327407 -2.79657
  269 14.6772 -1.00839 -0.880340
  270 16.4874 -0.263009 0.761633
  271 -0.199472 0.154509 -0.0805165
  272 -0.194011 0.153969 0.0822177
  273 16.3654 -0.716566 -3.74033
  274 1.51880 0.515712 -0.405647
  275 1.52640 0.514564 0.408225
  276 15.6424 -0.372662 -1.45149
  277 2.11547 1.90919 -2.64278
  278 1.29625 -0.00238733 -0.0415140
  279 1.29620 -0.00195197 0.0405473
  280 16.5812 -1.07652 -2.27985
  281 2.71376 1.21778 -1.34034
  282 2.75423 1.21011 1.34383
  283 0.425920 -0.0203531 0.259122
  284 0.421166 -0.0200394 -0.259622
  285 13.5833 -0.552444 -0.362490
  286 2.12818 1.88611 2.72259
  287 22.2781 1.15937 4.49798
  288 5.51915 -0.197930 -0.151473
  289 5.51705 -0.196269 0.147801
  290 10.6962 -0.384049 0.0158650
  291 10.6904 -0.422063 -0.00530679
  292 9.12285 0.798912 -4.18722
  293 14.9670 -1.65689 -0.520858
  294 17.3852 -0.0610186 0.166519
  295 8.77417 0.791496 4.03789
  296 10.2123 -0.213153 0.0117345
  297 10.2082 -0.212809 -0.00218897
  298 14.6980 -1.05376 0.898008
  299 17.1498 -0.143424 -0.382513
  300 -0.379413 0.0661693 -0.180619
  301 -0.373549 0.0656879 0.181285
  302 21.1650 4.27632 -0.315281
  303 18.7748 -0.977321 1.37613
  304 17.1475 -0.0357057 -0.0519984
  305 17.4759 -0.0298881 0.0470991
  306 16.8836 -1.58984 1.13970
  307 20.8579 1.99982 -1.95525
  308 17.8324 3.34326 1.14904
  309 7.80593 -0.450056 -0.308615
  310 7.72906 -0.459079 0.317472
  311 17.3761 -0.0560826 -0.123444
  312 11.0278 -0.863713 -1.94947
  313 10.8121 -0.822939 0.183645
  314 10.3115 -0.594919 2.25706
  315 16.9717 -0.166280 0.449477
  316 3.35673 -0.152265 -0.328199
  317 3.35804 -0.153464 0.325989
  318 15.5470 -0.671035 3.69957
  319 9.57191 -0.732338 -0.383588
  320 17.9242 2.24326 2.42634
  321 5.47938 0.391794 -1.66058
  322 5.26456 0.408819 1.64377
  323 1.10417 -0.0292819 -0.0760704
  324 1.10517 -0.0290306 0.0745217
  325 14.9049 -0.234619 0.246198
  326 14.2746 -0.128870 0.0555806
  327 14.1889 -0.148086 -0.0610313
  328 15.5033 -0.393217 1.53252
  329 0.859359 -0.0423440 0.184458
  330 0.855715 -0.0418948 -0.185809
  331 4.05637 -0.0834691 -0.0626218
  332 4.05553 -0.0815733 0.0615832
  333 0.126606 -0.828108 -0.351681
  334 0.116918 -0.833523 0.363193
  335 11.5366 0.490028 1.64143
  336 18.9681 -0.948171 -1.19666
  337 12.0339 -0.586394 0.200360
  338 13.7606 -0.205023 -0.159676
  339 13.9088 1.74716 -1.03173
  340 2.42786 -0.0720056 -0.493581
  341 2.43038 -0.0719950 0.492622
  342 11.6793 -0.548852 -0.134349
  343 3.02963 0.126134 -0.722872
  344 3.03494 0.123290 0.719516
  345 0.510060 0.506920 0.118968
  346 0.517539 0.506613 -0.115974
  347 14.3594 -1.58777 1.20527
  348 32.9866 2.19849 0.836337
  349 12.2864 0.162931 -1.95179
  350 10.5006 -0.945170 1.11398
  351 10.4467 -0.927658 -1.15420
  352 15.6226 -0.300124 2.78424
  353 13.6851 -0.114655 1.95018
  354 14.1612 -1.53574 -1.25329
  355 8.13517 -0.158327 -0.0218210
  356 8.13416 -0.161056 0.0239676
  357 15.6704 -1.02709 1.79392
  358 21.4285 4.33141 0.227933
  359 17.0284 -0.159999 -0.564339
  360 3.87196 -0.140985 -0.224387
  361 3.87258 -0.141032 0.220987
  362 15.9405 -1.59996 -1.54157
  363 16.4966 1.10307 -2.80247
  364 10.4818 0.569305 -1.04754
  365 15.7693 -1.06721 -2.02571
  366 -0.535365 0.00897236 -0.424239
  367 -0.535974 0.00838973 0.424785
  368 13.2541 -0.244410 0.131591
  369 -0.189044 -0.113863 -0.240859
  370 -0.188859 -0.113917 0.240419
  371 10.3458 4.59382 -7.74107
  372 0.336499 0.278435 0.366964
  373 0.346447 0.280835 -0.361772
  374 13.5651 -0.121379 -1.93315
  375 7.33388 -0.277398 0.118344
  376 7.34017 -0.281963 -0.120905
  377 -0.0617209 -0.578491 0.481111
  378 -0.0608641 -0.577435 -0.480556
  379 8.32664 4.84166 7.26181
  380 5.95476 -0.303273 -0.755980
  381 5.95857 -0.288706 0.756489
  382 1.84739 1.30983 -1.21492
  383 1.88836 1.30452 1.20604
  384 -0.885466 0.113133 0.195164
  385 -0.882070 0.113268 -0.193403
  386 15.8592 1.01800 2.78289
  387 12.2055 -1.27574 0.402592
  388 12.2186 -1.09407 0.0322913
  389 14.9559 -1.72655 0.0682038
  390 3.47327 0.458108 -1.03808
  391 3.48459 0.456929 1.03558
  392 0.297252 -0.677168 -0.0867977
  393 0.279382 -0.684255 0.112232
  394 14.7166 2.12811 0.690076
  395 15.3355 -0.386562 0.544083
  396 8.45660 -0.640329 0.666163
  397 5.08115 -0.114288 -0.930801
  398 5.08196 -0.115136 0.921669
  399 10.9617 -0.268385 0.0430060
  400 10.9487 -0.226371 -0.0524252
  401 8.38332 -0.659360 -0.719541
  402 6.48010 -0.100617 -1.30499
  403 6.47793 -0.109935 1.31622
  404 15.9162 -1.48079 -1.36101
  405 8.97309 -0.663630 0.365526
  406 14.5086 -0.382990 0.367523
  407 14.4883 -0.341380 -0.319457
  408 11.9817 -1.08487 -0.0781069
  409 17.7410 -0.0373424 -0.174428
  410 5.64925 2.17623 -4.20746
  411 16.4122 -0.215463 0.901743
  412 17.6563 -0.0561167 0.244390
  413 5.81588 -0.294673 0.419663
  414 5.81977 -0.290336 -0.419278
  415 12.1487 -1.26006 -0.424709
  416 1.55824 0.735904 0.432910
  417 1.54957 0.735614 -0.433875
  418 33.3553 2.19658 -1.72482
  419 14.1610 -0.765495 -0.562322
  420 17.9255 -0.0216221 0.100708
  421 5.31513 2.01455 3.98745
  422 26.1655 4.44804 0.722183
  423 15.3495 -0.169278 -0.200659
  424 11.2052 -0.777380 -0.0442863
  425 4.49466 0.870857 -1.89149
  426 4.80136 0.809431 1.88010
  427 13.9740 -0.848153 0.574944
  428 14.6352 -0.192964 -1.45321
  429 -0.460547 -0.00994187 0.191443
  430 -0.466437 -0.00978277 -0.191491
  431 5.12781 1.21150 -2.60201
  432 5.14361 1.21652 2.59335
  433 0.432335 0.289655 -0.141946
  434 0.438394 0.288920 0.144064
  435 12.5101 -0.168309 0.0563353
  436 12.4951 -0.161789 -0.0516932
  437 15.6345 -0.696461 -1.43785
  438 -0.0761453 -0.0872337 0.616159
  439 -0.0734217 -0.0849567 -0.614096
  440 16.1410 -1.62294 1.23324
  441 15.3247 -0.355110 -0.489089
  442 24.8118 4.77572 -0.517880
  443 0.438605 -0.0400643 0.0814703
  444 0.435903 -0.0400789 -0.0828408
  445 30.3760 8.22972 3.39285
  446 0.545611 -0.163802 -0.688084
  447 1.52161 0.0961064 -0.472029
  448 1.52675 0.0947018 0.471474
  449 30.2100 8.38975 -3.16051
  450 0.577955 -0.0976518 0.774724
  451 -0.895290 0.0929215 0.0938215
  452 -0.890988 0.0927444 -0.0922001
  453 1.49719 1.01852 -0.647389
  454 1.52470 1.01812 0.651309
  455 19.1970 2.94169 -2.08720
  456 15.5026 -0.571148 -0.969828
  457 17.8189 -0.0291417 -0.0924993
  458 16.1626 -0.235125 -1.04749
  459 -0.237851 0.0899048 0.569181
  460 -0.235106 0.0913339 -0.567286
  461 15.6555 -0.601846 1.10730
  462 9.92822 -0.513768 -0.0956851
  463 9.89551 -0.519870 0.0596175
  464 13.7177 -1.51949 0.0136841
  465 9.64908 -0.170795 -2.81622
  466 14.8062 -0.232141 1.48938
  467 12.1798 -0.327690 -0.0950310
  468 18.1924 -1.47009 0.115665
  469 9.33609 0.0384039 3.03279
  470 0.278751 -0.00807427 0.184237
  471 0.274046 -0.00779987 -0.184961
  472 19.6511 3.90353 -1.00459
  473 16.0585 -0.0569565 0.0260042
  474 15.9998 -0.0723939 -0.0416381
  475 11.8089 -0.746798 -0.0885186
  476 4.77816 -0.145956 -0.116748
  477 4.77677 -0.143744 0.114440
  478 2.73896 -0.0191979 -0.587106
  479 2.74148 -0.0197378 0.585131
  480 9.28647 0.364824 0.621872
  481 2.06727 -0.0713677 0.271642
  482 2.06495 -0.0706005 -0.273702
  483 2.42519 0.259410 0.657695
  484 2.41716 0.263226 -0.657583
  485 15.3426 -1.18181 1.35961
  486 8.34004 -0.515061 -1.21151
  487 7.59766 -0.204078 0.0458503
  488 7.60119 -0.210719 -0.0461979
  489 8.43135 -0.531973 1.21027
  490 24.1874 5.61668 -0.106605
  491 -0.387615 -0.0621967 -0.318827
  492 -0.387481 -0.0624906 0.318708
  493 5.60936 -0.130946 -0.0455293
  494 5.60844 -0.128211 0.0451736
  495 0.000591222 -1.08401 -0.421660
  496 -0.00189087 -1.08739 0.425088
  497 14.0641 -0.139246 0.102044
  498 9.21526 0.456138 -0.310929
  499 12.8978 1.36818 0.917289
  500 8.30977 -0.0934049 -2.19983
  501 3.77491 -0.189819 0.416964
  502 3.77561 -0.188134 -0.418263
  503 -1.27905 0.0376810 -0.0441075
  504 -1.27329 0.0374719 0.0447831
  505 16.5118 -0.359250 -2.80343
  506 0.743829 0.0124647 -0.0588962
  507 0.744292 0.0126928 0.0577939
  508 13.7457 -1.05565 -0.519640
  509 14.6854 -1.23725 -0.877103
  510 2.83505 2.03809 -2.74504
  511 12.3122 0.220560 -4.58563
  512 0.0577434 0.338760 0.335711
  513 0.0633281 0.339350 -0.332714
  514 7.22011 -0.302748 -0.198164
  515 7.21555 -0.299307 0.191161
  516 21.5547 0.669933 -0.941185
  517 15.2919 -0.880818 -1.22642
  518 2.75949 1.91219 2.70232
  519 15.1578 -1.75417 0.165125
  520 14.5417 -1.37693 0.738540
  521 2.60293 -0.0603618 -0.175494
  522 2.60353 -0.0600059 0.172981
  523 11.4028 0.111294 1.50665
  524 8.37783 -0.593299 -0.401952
  525 16.2447 -0.318301 0.709865
  526 -0.0699514 -0.392362 -0.307660
  527 -0.0701220 -0.392141 0.307294
  528 11.1482 -1.00345 1.36693
  529 17.2666 -1.38311 -1.60901
  530 22.8706 1.26461 -0.346892
  531 12.0191 -0.343447 0.109195
  532 3.09154 -0.0495187 -0.0539967
  533 3.09099 -0.0481366 0.0533171
  534 7.43409 0.0512317 2.10979
  535 21.5802 3.44339 1.60662
  536 22.5004 3.62035 -7.39087
  537 19.7017 -0.0382296 1.61868
  538 14.0051 -1.56465 -0.0927846
  539 34.4731 2.73998 2.29427
  540 24.9024 5.78419 0.258659
  541 3.07935 -0.122936 0.459624
  542 3.07789 -0.121580 -0.461018
  543 13.4393 -1.08823 0.436215
  544 0.832522 0.461856 -0.106455
  545 0.839523 0.461405 0.109025
  546 17.0480 -1.46907 1.60318
  547 13.4699 0.706660 2.24814
  548 17.3140 -0.0886466 0.390359
  549 12.5468 -0.705776 0.262157
  550 18.0001 -0.124048 -4.83177
  551 29.1028 6.72900 4.49169
  552 13.7316 -0.196787 -0.0977000
  553 16.9338 -0.150614 -0.608199
  554 2.43806 1.03806 -0.965236
  555 2.45611 1.02526 0.959401
  556 9.36220 -0.325067 -0.0507225
  557 9.35732 -0.315583 0.0535227
  558 0.0934986 -1.49300 -0.0352933
  559 17.1489 -0.672497 2.54867
  560 0.551312 0.526061 0.189387
  561 0.561292 0.527271 -0.184922
  562 0.111550 -1.45200 0.0710452
  563 15.5272 -0.715804 -2.02547
  564 17.9166 1.05067 -2.75042
  565 17.8354 1.19832 2.74579
  566 0.777501 0.536956 0.457606
  567 0.735257 0.554965 -0.443794
  568 -0.797532 0.0195298 0.138533
  569 -0.803752 0.0197005 -0.138358
  570 16.7120 0.171915 5.00026
  571 8.76352 -0.447544 0.167057
  572 8.77323 -0.445860 -0.174165
  573 20.2778 -0.618540 -2.35553
  574 2.03588 -0.0248965 0.102496
  575 2.03573 -0.0255233 -0.104162
  576 0.582484 -0.0297649 -0.0256900
  577 0.582114 -0.0295557 0.0253070
  578 22.0295 3.82323 -1.39498
  579 1.98946 2.37813 -3.07473
  580 10.8219 0.203580 -1.27096
  581 15.8299 2.55528 -1.18893
  582 0.194534 -0.102548 0.440573
  583 0.204106 -0.0994571 -0.434191
  584 17.0243 6.71984 8.78839
  585 13.9294 -0.321204 -0.239989
  586 0.250128 0.144423 -0.208765
  587 0.255963 0.143378 0.209932
  588 16.0732 -1.31635 1.82555
  589 2.36428 2.28997 3.13024
  590 11.4619 -0.169303 -0.00647255
  591 11.4648 -0.167243 0.00641829
  592 -0.0191732 -0.848282 0.424374
  593 -0.0179307 -0.846873 -0.423001
  594 19.5797 3.88320 -0.0313100
  595 12.4573 -1.04918 2.03688
  596 11.8588 -0.447085 0.116912
  597 12.0097 0.402312 4.84649
  598 -1.03276 0.0463750 0.263377
  599 -1.03170 0.0466196 -0.262442
  600 19.9646 0.0971227 -1.72498
  601 27.3018 3.85178 -3.07703
  602 7.29086 0.701854 -3.12680
  603 3.68982 -0.145550 -0.569149
  604 3.69252 -0.145453 0.568812
  605 18.2956 -0.0352061 0.121814
  606 11.7317 -0.458366 -0.133573
  607 16.0866 -0.159829 0.277362
  608 15.5302 -0.713152 1.98075
  609 0.129307 -0.0231892 0.0868345
  610 0.125600 -0.0230791 -0.0878722
  611 8.97212 -0.260388 -0.0248189
  612 8.97046 -0.251243 0.0218765
  613 5.47810 0.131994 -1.35084
  614 5.43993 0.133491 1.34314
  615 23.0448 0.986965 0.882413
  616 38.6366 2.90950 -4.25265
  617 -0.671057 -0.0205152 0.124418
  618 -0.677236 -0.0204358 -0.124528
  619 5.02632 -0.197246 0.222814
  620 5.02701 -0.197115 -0.227431
  621 21.2928 0.927647 1.23160
  622 18.1374 -0.0247836 -0.0388221
  623 18.0933 -0.0543735 0.0208896
  624 12.3073 -0.0171552 1.49746
  625 18.7230 -1.25733 -1.32166
  626 9.79989 -0.782982 0.486072
  627 -0.334066 0.211474 -0.296107
  628 -0.338227 0.211228 0.298440
  629 15.9106 0.277909 2.90443
  630 6.02287 -0.330357 -0.581769
  631 6.01546 -0.336329 0.583002
  632 13.0240 -0.704645 -0.311622
  633 16.3363 -0.315002 -0.645325
  634 8.98714 -0.703917 -0.827075
  635 14.7638 1.78196 -1.76006
  636 10.0216 -0.703499 -1.62604
  637 3.23824 -0.0824322 -0.0837478
  638 3.23774 -0.0811651 0.0820171
  639 9.08705 -0.718144 0.828182
  640 20.0843 3.14330 1.93744
  641 15.8854 -0.801973 2.48938
  642 13.0104 -0.519418 0.271623
  643 9.07637 -0.184017 0.0366223
  644 9.07402 -0.184717 -0.0347633
  645 6.66723 -0.215561 -0.149073
  646 6.66382 -0.212537 0.146431
  647 15.3663 -1.41785 -1.15524
  648 7.44366 -0.390574 0.266901
  649 7.45292 -0.389092 -0.275541
  650 14.9770 2.34679 -0.239332
  651 14.1903 -0.698727 0.559606
  652 18.1603 -0.0593098 -0.181010
  653 14.8810 -0.301319 -2.53362
  654 1.76372 -0.0829308 0.367454
  655 1.76052 -0.0822956 -0.368221
  656 17.6143 -0.0714010 -0.352101
  657 2.89085 1.46493 -1.88371
  658 2.94189 1.46025 1.89315
  659 17.8901 -1.23911 1.97671
  660 5.85194 1.41449 3.29124
  661 1.10989 0.00105258 0.369363
  662 1.10575 0.00136866 -0.369954
  663 15.1157 -1.08599 2.68616
  664 15.0265 1.74067 -6.70723
  665 14.1046 0.410997 -2.50460
  666 18.9163 3.39780 1.62146
  667 12.7703 -0.506505 -0.213664
  668 23.1527 4.25671 -0.102448
  669 -1.28318 0.0522624 -0.00952395
  670 -1.27823 0.0521056 0.0105352
  671 10.0849 -0.0151666 -3.34165
  672 0.125487 -0.0126178 0.0709378
  673 0.123430 -0.0126596 -0.0719652
  674 12.7781 -1.12788 -2.00857
  675 3.98272 0.568797 -1.29164
  676 3.94817 0.570194 1.29037
  677 -0.0904118 0.206558 0.00370942
  678 -0.0850448 0.206197 -0.00153731
  679 10.7311 -0.905446 -0.307344
  680 15.3385 -0.149185 -0.983802
  681 6.99887 -0.179432 -0.0581190
  682 6.99864 -0.176701 0.0587649
  683 4.92885 -0.239780 -0.354164
  684 4.93205 -0.243438 0.352077
  685 0.885895 0.730860 -0.119543
  686 0.902150 0.731981 0.124646
  687 16.0792 -0.127775 0.158942
  688 6.70034 -0.405357 0.466539
  689 6.74788 -0.397391 -0.465691
  690 17.6962 -1.51156 -0.545542
  691 14.4374 -1.44871 -0.583151
  692 11.2246 -0.247281 0.0558203
  693 11.1819 -0.224835 -0.0490635
  694 16.0053 -1.76384 0.579089
  695 26.2321 5.24687 1.10551
  696 14.0156 -0.739196 -3.41253
  697 16.0872 -0.424442 1.08194
  698 15.8261 -0.625781 -2.64972
  699 4.50252 -0.124452 -0.154589
  700 4.50146 -0.123167 0.151519
  701 12.3963 -0.320282 3.85826
  702 36.2836 4.57113 4.19695
  703 2.15863 0.667425 -0.677809
  704 2.16140 0.671695 0.680126
  705 16.0473 -0.0883947 -0.0834475
  706 16.1830 -0.0749612 0.0844044
  707 6.57702 3.04228 -5.48716
  708 16.9179 -0.0696661 0.600378
  709 14.6089 -0.177279 0.151850
  710 18.9382 3.80575 -0.619821
  711 1.69552 0.344639 -0.468904
  712 1.70321 0.342365 0.470710
  713 18.5347 -0.0202776 0.0283464
  714 14.6359 -0.506844 -0.527529
  715 18.2973 -0.379155 2.30807
  716 7.14540 -0.486987 -0.787784
  717 7.16352 -0.464410 0.777931
  718 1.23228 -0.0503755 0.278519
  719 1.22875 -0.0496632 -0.279753
  720 16.8239 -0.0561739 -0.135866
  721 14.4149 2.44369 7.15593
  722 0.0562735 0.0439777 0.548259
  723 0.0614304 0.0468053 -0.544761
  724 16.8043 -0.130891 -0.319621
  725 16.2581 -0.244881 0.449950
  726 12.2405 -0.00564831 -1.60608
  727 0.105882 -1.60559 -0.255229
  728 0.0981238 -1.61975 0.269503
  729 5.62378 1.45238 -3.28773
  730 12.7415 -1.31213 -1.37834
  731 6.50583 3.02205 5.55020
  732 18.2433 -0.0149996 0.0798151
  733 16.9325 2.52301 1.92237
  734 11.9185 1.09794 -0.636077
  735 22.5444 4.56081 -0.228989
  736 17.9105 -0.0487832 0.238443
  737 -1.31094 0.0270779 0.0943882
  738 -1.31721 0.0272268 -0.0940028
  739 18.9400 -1.23247 0.138113
  740 12.0015 -0.273719 0.0685303
  741 4.07764 0.0240310 -0.887373
  742 4.08230 0.0197140 0.880565
  743 16.3126 -0.131575 -0.209418
  744 29.0382 4.13619 -1.37539
  745 1.40226 -0.0468752 -0.161372
  746 1.40490 -0.0471822 0.159532
  747 18.3691 -0.0228577 -0.116451
  748 3.09176 -0.138667 -0.227328
  749 3.09288 -0.139164 0.224636
  750 17.5850 -0.781163 -2.34478
  751 16.1857 -0.158875 0.808288
  752 14.2252 -0.122940 2.48688
  753 18.4462 -0.0240176 -0.0130936
  754 17.0369 -0.0776143 0.251238
  755 10.7678 -0.527550 0.0361698
  756 13.7442 -0.288915 0.197488
  757 15.5895 -0.958411 -1.73926
  758 15.2317 -0.936199 1.19493
  759 17.7188 2.08164 -2.44211
  760 15.0349 -0.808168 0.921357
  761 15.8183 -0.955970 2.18299
  762 8.92866 -0.569753 0.253768
  763 0.289562 -0.259496 -0.153349
  764 0.272265 -0.260109 0.169582
  765 13.9565 -0.130231 0.0147872
  766 13.9256 -0.128604 -0.0201953
  767 17.0190 -0.0208499 -0.0181179
  768 17.0828 -0.0169340 0.0224505
  769 15.8792 -0.429778 1.29819
  770 14.6817 -1.42634 1.86993
  771 11.9017 -0.934072 -0.0213072
  772 10.4941 -0.577071 0.0449976
  773 29.6835 3.83326 1.64496
  774 16.1496 -0.374162 -0.875476
  775 9.28282 1.47984 -5.17850
  776 14.9476 -0.695801 -0.807986
  777 0.276076 0.0183243 -0.248250
  778 0.281590 0.0177823 0.248378
  779 12.8114 1.12632 -1.42936
  780 35.4220 1.08319 -0.472774
  781 16.6896 0.365462 -2.87590
  782 0.619240 -0.204026 -1.10649
  783 16.9695 3.09965 0.498141
  784 13.4327 -0.808975 0.402442
  785 14.9617 -0.399735 2.46434
  786 12.6709 -1.36953 1.38675
  787 20.8637 -0.446933 3.00246
  788 0.667551 -0.0479463 1.19271
  789 9.01942 -0.0840876 2.55252
  790 12.8511 -0.256497 -0.115466
  791 14.3744 -1.36441 -1.89586
  792 8.54692 -0.645289 -0.535368
  793 6.71497 0.308844 -2.19598
  794 16.5836 -0.316438 2.82154
  795 10.4761 -0.675492 0.143021
  796 1.50649 -0.0495080 0.152603
  797 1.50496 -0.0496014 -0.154615
  798 15.3875 -0.0786860 0.873975
  799 13.7123 0.0431654 -2.40181
  800 -1.28708 0.0533900 0.174598
  801 -1.28523 0.0534717 -0.173602
  802 10.1813 -0.256097 0.0332319
  803 10.1491 -0.237966 -0.0362506
  804 7.48947 0.792171 3.17813
  805 6.51554 -0.358672 0.332482
  806 6.52634 -0.348963 -0.337647
  807 18.3744 -0.00938527 -0.0702397
  808 6.01279 0.468920 2.13179
  809 -0.311266 -0.00499872 0.0974162
  810 -0.316288 -0.00486307 -0.0980619
  811 15.1947 -0.477886 1.92503
  812 16.6671 -0.0862529 0.112212
  813 -0.887722 0.00623985 0.251800
  814 -0.887744 0.00650075 -0.251319
  815 9.88787 -0.641083 1.85217
  816 1.79714 1.40606 -1.54929
  817 1.82027 1.33002 1.52228
  818 8.71589 0.400083 0.258564
  819 -0.616466 -0.00552983 -0.113423
  820 -0.610435 -0.00562220 0.113165
  821 11.4475 -1.10669 -1.29253
  822 15.8576 -1.69774 -0.824885
  823 -0.0768110 -0.0732481 -0.0952584
  824 -0.0766031 -0.0730941 0.0949260
  825 0.203071 0.0305390 -0.0200478
  826 0.203021 0.0307042 0.0194639
  827 14.0297 -1.23138 0.585752
  828 11.7030 -1.20738 0.830444
  829 13.1065 -0.142979 0.0825138
  830 11.6681 -0.909419 -0.0266640
  831 3.82761 -0.0468189 -0.0115090
  832 3.82694 -0.0449915 0.0110717
  833 -1.47764 0.0306137 0.112988
  834 -1.47474 0.0305678 -0.112028
  835 14.9544 -0.121330 -0.111874
  836 12.6207 0.476465 -2.02747
  837 15.1002 -0.233959 -0.293348
  838 8.56399 -0.631375 0.503466
  839 14.6045 -0.268231 -2.00798
  840 15.8631 -0.468032 -1.34248
  841 15.0207 -0.0938075 0.101870
  842 10.7058 -0.456301 2.62415
  843 11.4439 -1.10614 -0.381579
  844 6.71604 -0.0482104 -1.64099
  845 6.75466 -0.00132419 1.64953
  846 9.65273 -0.690521 -0.275873
  847 16.1688 1.71761 2.45421
  848 15.6354 -1.69749 -0.898334
  849 5.16634 -0.142559 -0.0708945
  850 5.16490 -0.139774 0.0696107
  851 11.7992 -0.194045 -0.0358515
  852 11.7992 -0.196350 0.0394024
  853 13.8531 -0.113076 -1.30389
  854 4.34578 -0.173685 -0.283757
  855 4.34730 -0.175102 0.280160
  856 0.0508278 -1.55737 -0.329859
  857 0.0478023 -1.56380 0.335847
  858 1.83121 -0.0258099 -0.0215801
  859 1.83156 -0.0265780 0.0210573
  860 14.8205 -0.161526 -0.158345
  861 10.9918 -1.04427 0.738096
  862 17.4613 -1.57618 0.896074
  863 9.41256 0.202129 0.992157
  864 15.1482 -0.294394 0.331508
  865 16.4605 -1.51904 -1.49889
  866 2.06157 0.156730 -0.564526
  867 2.06759 0.154249 0.563630
  868 13.0361 -0.159104 -0.0761254
  869 10.3123 -0.297651 0.00491850
  870 10.2734 -0.294146 0.00419150
  871 15.8844 2.49049 1.33724
  872 5.33383 -0.0389031 -1.09588
  873 5.32723 -0.0454301 1.08951
  874 11.0964 -0.981695 0.270134
  875 0.932575 0.653931 -0.0938792
  876 0.942690 0.652342 0.0964531
  877 9.31011 -0.668965 1.47034
  878 11.2683 -0.673643 0.0492130
  879 13.9469 -0.116877 1.31789
  880 13.9970 -1.59726 0.273804
  881 16.0902 -1.25133 -1.94834
  882 10.9652 -1.05305 -0.752308
  883 8.99815 -0.566769 -0.239315
  884 31.1895 2.60113 -0.465776
  885 14.6890 -1.56670 0.502814
  886 0.310639 0.433650 0.286271
  887 0.317926 0.434312 -0.282619
  888 12.6756 -1.25862 0.0278787
  889 13.9809 -1.60749 -0.673367
  890 0.304009 0.395278 0.130705
  891 0.310280 0.395231 -0.127996
  892 4.93604 -0.160994 0.803969
  893 4.94056 -0.166789 -0.810356
  894 6.07386 -0.294312 0.887096
  895 6.07275 -0.302206 -0.895249
  896 20.1182 4.05502 0.833635
  897 -0.0333418 -0.624244 -0.301909
  898 -0.0335606 -0.623643 0.301766
  899 4.36166 0.388181 -1.22478
  900 4.33793 0.379908 1.20997
  901 36.7160 1.19668 -1.88321
  902 0.0396813 -0.000320096 0.0367957
  903 0.0386052 -0.000442284 -0.0375982
  904 0.0511533 -1.88269 0.173236
  905 0.0609073 -1.85481 -0.149570
  906 -0.668622 -0.0112132 0.251547
  907 -0.669224 -0.0110176 -0.251437
  908 3.47458 1.03440 -1.45824
  909 3.52934 1.00047 1.43418
  910 -0.324414 -0.00508514 -0.547656
  911 -0.325851 -0.00616522 0.548590
  912 0.771121 0.102264 -0.348713
  913 0.776852 0.101031 0.348981
  914 3.71306 -0.0265590 0.733571
  915 3.71138 -0.0264465 -0.738708
  916 2.93453 -0.0922123 -0.585727
  917 2.93680 -0.0919142 0.584096
  918 17.6495 -0.0490387 -0.339457
  919 8.31440 1.65169 4.78480
  920 11.5639 -1.12848 0.341588
  921 8.02346 -0.549164 0.383238
  922 15.7765 1.59672 -2.40911
  923 36.0935 0.790142 0.742001
  924 19.1227 0.743065 -2.45829
  925 2.69867 -0.102753 0.354171
  926 2.69669 -0.101453 -0.356216
  927 0.172324 -0.0124215 -0.262925
  928 0.177500 -0.0125932 0.262657
  929 -0.0350856 -0.340744 -0.605559
  930 -0.0375344 -0.343079 0.607473
  931 8.29785 -0.321163 0.136011
  932 8.30293 -0.328834 -0.137488
  933 0.792394 0.277428 -0.282449
  934 0.798751 0.276106 0.284186
  935 4.87995 -0.203752 -0.668283
  936 4.88248 -0.203567 0.667290
  937 10.6748 -0.0682069 -1.17345
  938 5.01639 -0.260740 -0.438227
  939 5.01143 -0.257258 0.439808
  940 13.1195 -0.292898 -0.143555
  941 15.8568 -0.935198 -2.32907
  942 6.57037 -0.235141 0.166088
  943 6.57452 -0.237940 -0.169891
  944 -0.280745 -0.0321207 -0.171126
  945 -0.280051 -0.0321961 0.170803
  946 16.3301 -1.38570 -2.37159
  947 15.5137 -0.897670 1.53461
  948 13.5603 -0.907831 -0.479625
  949 12.8095 0.414441 2.14049
  950 5.66538 -0.302247 -0.498468
  951 5.66410 -0.295578 0.500307
  952 14.5214 0.522167 2.62001
  953 13.3800 1.16094 1.71931
  954 28.8807 3.52776 0.583618
  955 14.5199 -0.459318 0.415800
  956 7.26379 -0.172622 -0.0719894
  957 7.26222 -0.167893 0.0729922
  958 12.8780 -1.02356 -0.260934
  959 17.7136 3.27435 -1.19817
  960 16.0831 -0.107788 -0.158623
  961 10.2095 -0.178892 0.0217206
  962 10.2050 -0.177002 -0.0185765
  963 1.19137 0.966756 -0.578385
  964 1.22381 0.963687 0.583847
  965 2.49262 5.24594 -5.35408
  966 14.6456 -0.363409 2.00048
  967 18.6275 -0.467506 -2.10709
  968 -0.451097 0.171991 0.173771
  969 -0.446598 0.171891 -0.171614
  970 39.6029 8.97987 -7.28544
  971 15.8926 -1.76832 0.477350
  972 17.0262 -1.66194 -0.367491
  973 15.6052 -1.34552 1.45319
  974 19.1017 3.81285 0.544972
  975 1.27982 1.12456 -1.42899
  976 3.48117 4.43824 5.18048
  977 -0.116190 -0.248571 0.592892
  978 -0.114669 -0.246857 -0.591882
  979 15.2842 -0.328187 0.401362
  980 24.5519 4.41313 -0.400810
  981 1.31916 1.09093 1.49648
  982 -0.0690438 -0.219164 -0.190260
  983 -0.0690692 -0.218616 0.189818
  984 12.9935 -0.223656 0.0840210
  985 9.48135 -0.733870 -0.552781
  986 15.7205 -1.25344 -1.67567
  987 4.22197 1.13003 -1.98877
  988 4.29145 1.14956 1.99415
  989 15.1292 -0.379693 -1.80267
  990 15.4673 -0.438009 0.673643
  991 -0.458199 0.0859131 0.495533
  992 -0.456202 0.0868482 -0.494098
  993 9.04982 -0.598748 -1.37101
  994 15.1191 0.930021 -2.65311
  995 11.3069 -0.354387 -0.0578940
  996 7.90885 -0.174800 0.00208495
  997 7.90762 -0.176529 -0.00112144
  998 -0.181788 -0.205381 -0.407227
  999 -0.182057 -0.205814 0.406984
  1000 15.6751 -0.513287 -0.804497
  1001 14.9948 -0.0891503 0.0335046
  1002 14.9806 -0.0892125 -0.0268523
  1003 20.5910 3.24585 -1.84409
  1004 3.40539 0.320838 -0.936429
  1005 3.41356 0.314435 0.933314
  1006 1.99060 -0.00795625 -0.476592
  1007 1.99395 -0.00838342 0.475426
  1008 16.7845 0.833447 2.90883
  1009 16.1593 -0.247920 -0.472074
  1010 2.55264 0.435162 -0.733531
  1011 2.56288 0.431711 0.736288
  1012 17.0251 -0.0340850 -0.0918749
  1013 15.6144 -0.643237 -1.17203
  1014 15.2411 -1.76809 -0.371342
  1015 0.498056 0.372679 -0.151073
  1016 0.482327 0.370980 0.158031
  1017 -0.811647 0.111946 0.316057
  1018 -0.809093 0.112217 -0.314410
  1019 8.37258 0.335312 -0.432459
  1020 26.7750 6.40974 -1.35559
  1021 11.8892 -0.823271 0.115901
  1022 7.68336 -0.333132 -1.42061
  1023 19.5486 -0.934130 0.550344
  1024 7.71406 -0.333684 1.44247
  1025 13.7797 -1.63789 0.833818
  1026 15.6417 -0.639922 -1.68391
  1027 4.90954 -0.0899118 -0.0228839
  1028 4.90888 -0.0875641 0.0226083
  1029 10.5013 -0.787050 -0.202338
  1030 6.25149 -0.220642 -1.07314
  1031 6.24769 -0.222287 1.06583
  1032 1.99474 1.28569 -1.14429
  1033 2.02799 1.28054 1.14746
  1034 4.02891 -0.116774 -0.0847685
  1035 4.02801 -0.114889 0.0829447
  1036 13.9617 -0.371885 0.265717
  1037 11.6812 -0.0384553 -3.91689
  1038 14.4943 -0.405807 -0.407754
  1039 12.9649 -1.44148 -0.410241
  1040 8.27252 -0.302707 0.0807688
  1041 8.28036 -0.305553 -0.0814955
  1042 17.2608 -0.0543448 0.115473
  1043 15.2303 -0.295840 -0.377732
  1044 8.92762 0.214097 0.813715
  1045 16.2066 -0.155041 -0.750292
  1046 6.05970 1.68880 3.75795
  1047 16.7809 -0.142871 -0.624387
  1048 4.09513 0.703252 -1.45700
  1049 3.96338 0.712074 1.38969
  1050 20.2232 -0.533115 -0.665563
  1051 1.61112 0.876482 -0.525288
  1052 1.62679 0.869688 0.524543
  1053 0.255619 -0.156483 0.293912
  1054 0.270621 -0.154138 -0.284095
  1055 2.03372 -0.0557905 0.108607
  1056 2.03300 -0.0562826 -0.110711
  1057 6.93849 1.71369 -4.20228
  1058 41.0713 10.0511 7.83109
  1059 15.6130 -0.513943 0.825475
  1060 13.9055 -1.58023 -0.222246
  1061 9.46546 -0.773777 -1.01330
  1062 -0.276646 0.187125 0.461725
  1063 -0.273100 0.188137 -0.459389
  1064 10.7564 -0.496220 -0.0462307
  1065 11.9585 -0.373213 -0.114901
  1066 -0.00863970 -0.888458 0.294802
  1067 -0.00833762 -0.889112 -0.294663
  1068 1.63546 1.03517 -0.649968
  1069 1.65612 1.03264 0.654276
  1070 10.6021 -0.449496 0.0470181
  1071 0.647041 0.378965 0.128657
  1072 0.640606 0.379629 -0.126265
  1073 16.4513 -0.695331 2.69177
  1074 11.7985 -1.22897 -0.826160
  1075 9.52407 -0.786509 1.01293
  1076 15.5510 -0.355012 -2.78187
  1077 16.8213 -0.130763 0.344425
  1078 5.75351 0.870843 2.45479
  1079 5.79599 0.834238 -2.41147
  1080 9.47520 -0.478093 -2.04708
  1081 13.7052 -0.422025 -0.280323
  1082 10.9664 -0.610237 0.0131823
  1083 12.9675 -1.19091 0.185112
  1084 18.3011 -0.0435955 -0.190170
  1085 9.41925 -0.380459 0.0502683
  1086 9.41503 -0.406189 -0.0564813
  1087 0.245992 0.307840 0.428091
  1088 0.253675 0.310227 -0.423813
  1089 15.6214 0.532259 -2.85984
  1090 3.24462 0.189221 -0.816173
  1091 3.25303 0.185248 0.812843
  1092 2.33558 0.0659318 -0.562823
  1093 2.34031 0.0644942 0.561016
  1094 18.3203 -0.960398 3.03849
  1095 15.6323 -0.711582 1.66954
  1096 7.37773 -0.328902 -1.17993
  1097 18.6837 -0.0563807 -0.114825
  1098 20.4034 3.80908 -1.41770
  1099 16.8152 -0.106456 -0.231709
  1100 15.5317 -1.69925 0.807549
  1101 11.3336 -0.892693 1.76152
  1102 18.8689 -0.00106733 0.0308364
  1103 8.90745 0.286868 -0.691220
  1104 13.0610 -1.39461 -0.0615326
  1105 7.38860 -0.344596 1.16372
  1106 13.1905 -1.18047 -0.262813
  1107 16.7183 -0.198685 0.595846
  1108 11.2300 0.715505 1.08991
  1109 7.95733 -0.571888 -0.906321
  1110 25.7050 3.15289 -0.932642
  1111 18.8679 0.739171 2.54874
  1112 13.5216 1.71683 0.271749
  1113 18.5695 0.0229576 0.109271
  1114 6.82899 -0.408546 -0.665556
  1115 4.68859 2.73648 -4.18706
  1116 8.51666 0.189967 -2.99383
  1117 9.77782 -0.720833 0.348263
  1118 8.17918 -0.598795 0.834382
  1119 6.80975 -0.386632 0.674302
  1120 14.7987 0.0929720 2.75744
  1121 11.2238 -0.323025 0.0699897
  1122 18.2225 -0.116811 0.244427
  1123 -0.176723 -0.0428578 0.602866
  1124 -0.174639 -0.0411922 -0.601449
  1125 11.8021 -0.263338 -0.0763328
  1126 -0.0674716 0.0886790 0.574883
  1127 -0.0637451 0.0908038 -0.572284
  1128 6.29082 -0.165263 0.110605
  1129 6.29214 -0.168800 -0.110849
  1130 16.9425 -0.0801107 0.519126
  1131 13.4849 -0.778618 -0.416277
  1132 12.5888 -0.616578 -0.229658
  1133 14.1503 -0.957886 0.685764
  1134 4.11733 1.96724 -3.06286
  1135 13.9019 -0.461604 0.335965
  1136 1.73568 0.0511472 -0.454264
  1137 1.74011 0.0501529 0.453347
  1138 2.70713 1.69612 -2.08514
  1139 22.5368 2.68793 1.19684
  1140 1.15285 -0.0632462 0.257334
  1141 1.14899 -0.0626764 -0.258177
  1142 2.75662 1.66462 2.00386
  1143 12.6235 -1.02681 0.209208
  1144 6.05563 -0.257462 0.217797
  1145 6.05764 -0.259076 -0.223434
  1146 26.3128 5.51439 -1.18367
  1147 13.9759 -1.39633 0.342927
  1148 4.60498 2.54280 4.17486
  1149 0.360168 -0.361575 -0.215462
  1150 0.390878 -0.357057 0.252524
  1151 14.3464 1.80868 1.39511
  1152 0.933257 0.562529 -0.113995
  1153 0.941576 0.562481 0.116131
  1154 14.0751 -1.20474 -0.606704
  1155 -0.00720770 -1.38935 -0.283102
  1156 -0.00785327 -1.38985 0.284371
  1157 15.0829 -1.26669 -1.08092
  1158 -0.715613 0.0208774 0.0882329
  1159 -0.721552 0.0209901 -0.0885861
  1160 2.09507 0.813319 -0.723991
  1161 2.10654 0.816656 0.715270
  1162 -1.12450 0.00318026 -0.108480
  1163 -1.11783 0.00311907 0.108497
  1164 15.2412 -0.0924785 -0.0522209
  1165 -1.62421 0.0439951 0.0510638
  1166 -1.62031 0.0439586 -0.0501972
  1167 7.66991 -0.585991 -0.630405
  1168 0.195877 -2.31096 -0.0975467
  1169 3.51717 -0.0902897 0.175059
  1170 3.51702 -0.0907820 -0.178036
  1171 12.7736 -0.164443 0.00438618
  1172 12.7987 -0.157768 -0.00175176
  1173 0.209752 -2.22084 0.142107
  1174 15.2100 -0.759867 -1.02116
  1175 17.5641 -0.0632824 0.395057
  1176 15.4266 -0.975460 -1.43346
  1177 13.0548 0.0838979 2.12554
  1178 0.0537437 -0.640900 0.482479
  1179 0.0602413 -0.636992 -0.475717
  1180 9.63045 -0.665370 0.250418
  1181 -0.712930 0.0536018 0.391846
  1182 -0.711673 0.0540733 -0.390789
  1183 25.9074 4.19261 0.230219
  1184 31.2334 8.80664 -6.18484
  1185 15.7909 -1.55557 1.31174
  1186 6.11066 -0.147028 -0.00751635
  1187 6.11026 -0.144535 0.00751313
  1188 33.4700 3.24652 -2.93176
  1189 1.85339 -0.0491109 0.267970
  1190 1.85053 -0.0482268 -0.269619
  1191 14.4895 -0.0477410 -0.858655
  1192 9.22309 -0.730459 0.720670
  1193 15.6251 -1.55073 -1.02782
  1194 15.0994 -1.08307 -1.17408
  1195 9.00516 -0.337063 2.15515
  1196 3.15808 0.613504 -1.06553
  1197 3.15537 0.607932 1.05803
  1198 4.27354 1.55492 -2.57836
  1199 4.27739 1.43467 2.57776
  1200 1.06006 0.365887 -0.294372
  1201 1.06700 0.364660 0.296551
  1202 18.4811 3.17961 -1.76843
  1203 0.852685 0.757459 -0.213205
  1204 0.874518 0.757847 0.219407
  1205 13.3740 -0.988220 0.401673
  1206 25.8580 3.25885 1.09526
  1207 2.70778 -0.116517 -0.172223
  1208 2.70876 -0.116412 0.169556
  1209 17.1644 10.3128 -9.68663
  1210 12.0157 0.706128 -1.69083
  1211 10.8802 0.856134 0.684599
  1212 1.39923 0.642035 -0.351975
  1213 1.40616 0.641791 0.354368
  1214 -0.249796 -0.00100639 0.0653311
  1215 -0.252976 -0.00100322 -0.0661210
  1216 14.8737 -1.18060 1.01322
  1217 14.6695 -0.533571 0.569671
  1218 9.95630 2.52007 -6.76336
  1219 23.1998 5.02947 0.0971179
  1220 9.73692 -0.324619 -2.39574
  1221 12.8043 -0.322496 0.136625
  1222 0.00475221 -0.0658959 -0.0182584
  1223 0.00396805 -0.0658650 0.0181420
  1224 -0.555756 0.0996859 -0.114135
  1225 -0.550168 0.0992392 0.115312
  1226 8.40782 0.0652078 -2.52519
  1227 16.0198 -0.300734 0.587880
  1228 10.1842 0.116466 3.53935
  1229 13.9802 -0.639163 -0.483445
  1230 7.05820 2.35717 -5.23866
  1231 11.0943 -0.590056 -2.60386
  1232 13.2954 -1.41900 -0.0153898
  1233 16.4645 -0.232651 0.857693
  1234 14.4296 -0.228619 -0.203936
  1235 7.63377 -0.547230 0.635152
  1236 18.1396 -1.11194 -1.69793
  1237 16.9400 1.41313 2.76436
  1238 7.19052 0.0289866 -1.95162
  1239 17.3933 -0.0581879 0.0850182
  1240 13.1487 1.66317 -0.386495
  1241 5.51765 -0.169149 -0.172497
  1242 5.51554 -0.166824 0.169600
  1243 26.6946 5.64549 0.857977
  1244 37.4861 1.00196 1.76600
  1245 0.0285705 -1.70604 -0.283589
  1246 0.0275617 -1.70824 0.285693
  1247 3.64685 1.84019 2.84151
  1248 8.93596 -0.204413 -0.00477697
  1249 8.93780 -0.202616 0.00838067
  1250 12.5047 -1.24687 -0.101931
  1251 14.7055 1.18044 2.39634
  1252 15.9156 -0.254743 -0.403251
  1253 18.8677 -0.0293287 -0.00921999
  1254 32.6890 7.12366 -4.36168
  1255 4.48753 -0.157646 0.165980
  1256 4.48817 -0.158174 -0.169563
  1257 15.0970 -1.40164 1.05213
  1258 27.1596 6.08260 -1.40350
  1259 14.6700 -0.588580 -0.633933
  1260 10.4989 -0.691576 -0.113535
  1261 13.0541 -1.42791 0.392424
  1262 12.7696 -0.582444 0.256597
  1263 0.420123 -0.224238 -0.415250
  1264 17.6600 -1.14501 1.94440
  1265 14.2140 -0.891984 -0.666189
  1266 0.466024 -0.200158 0.478301
  1267 14.6604 -1.26722 -2.41165
  1268 13.9061 0.669889 -5.52970
  1269 23.1480 2.65872 -0.996296
  1270 18.9548 0.00928141 -0.00777515
  1271 18.9150 -0.00861972 0.0192844
  1272 14.4761 -0.803605 0.696794
  1273 5.31350 0.634199 -1.90979
  1274 16.5326 -1.51401 1.59937
  1275 28.5867 6.42330 2.67634
  1276 6.73216 2.16851 5.09233
  1277 0.146265 -0.0599624 0.509809
  1278 0.153387 -0.0567845 -0.504936
  1279 17.4981 -1.52226 -1.13209
  1280 6.60895 -0.334832 -0.266039
  1281 6.60679 -0.335582 0.258545
  1282 16.1174 -1.08964 2.26215
  1283 0.231682 0.0102704 0.291091
  1284 0.226429 0.0105826 -0.291256
  1285 -0.0992969 -0.351830 0.474620
  1286 -0.0986965 -0.351094 -0.474608
  1287 2.38394 -0.0825343 -0.244465
  1288 2.38575 -0.0830696 0.242112
  1289 8.21853 -0.539392 -1.05049
  1290 8.23618 -0.222613 0.0213365
  1291 8.23629 -0.229116 -0.0180225
  1292 18.8526 0.00901279 -0.0106220
  1293 16.3388 -0.228121 -0.958339
  1294 0.998273 0.0707792 -0.350657
  1295 1.00343 0.0698859 0.350418
  1296 8.25185 -0.572249 1.03866
  1297 19.0777 -0.00397394 0.00144938
  1298 17.9196 0.0260644 -0.0189641
  1299 17.9219 0.0156020 0.0137923
  1300 23.3478 4.69894 0.756421
  1301 17.3622 -0.0688169 -0.184123
  1302 15.2921 -0.0829404 0.0465208
  1303 16.9595 -0.217598 -0.527725
  1304 18.7150 -0.0392505 0.0839540
  1305 19.0110 1.85320 2.52927
  1306 22.1178 4.46799 0.977572
  1307 18.0027 -0.0536571 -0.267371
  1308 -0.138869 -0.0378150 0.126288
  1309 -0.139393 -0.0377829 -0.126642
  1310 9.59017 -0.562253 0.137870
  1311 9.58791 -0.534766 -0.130388
  1312 19.1885 2.06580 -2.43308
  1313 3.76500 1.28341 -2.09228
  1314 3.78916 1.24610 2.06616
  1315 12.4632 -0.00401763 -1.06191
  1316 13.3096 -0.132955 0.0170705
  1317 13.2934 -0.131090 -0.0197444
  1318 -0.337653 -0.0665118 0.486161
  1319 -0.337045 -0.0657008 -0.485919
  1320 14.5391 -0.0363380 0.857838
  1321 22.5209 4.49781 0.187726
  1322 1.05773 -0.0553600 -0.154879
  1323 1.06015 -0.0554951 0.153079
  1324 16.6760 -1.65370 1.01857
  1325 -0.0500374 0.234408 0.484875
  1326 -0.0454175 0.235840 -0.481964
  1327 2.51628 -0.0539579 -0.0424521
  1328 2.51597 -0.0528083 0.0412759
  1329 12.4684 -0.0262831 1.07727
  1330 -0.122651 0.0314320 -0.0211291
  1331 -0.122276 0.0315525 0.0205436
  1332 17.1572 -0.157989 0.358364
  1333 23.6414 4.38756 0.107331
</Section>

newXOutput 4

<Section columns = "stress_xx | stress_yy | stress_xy">
  1 29.0866 -0.0493158 0.0517567
  2 29.1406 -0.0735189 -0.0673094
  3 -0.510891 0.0299913 -0.0790642
  4 -0.0171005 -0.0279446 -0.0157188
  5 55.4923 19.6239 17.2570
  6 56.3520 22.5953 -17.4579
  7 -0.0168948 -0.0277674 0.0154519
  8 -0.509569 0.0298288 0.0788622
  9 29.3043 -0.0330954 -0.0481230
  10 29.0508 -0.0800405 -0.0657545
  11 29.0501 -0.0578666 0.0779869
  12 28.8635 -0.0144297 0.0473803
  13 28.7717 -0.0744638 0.00126224
  14 28.6693 -0.0691700 0.143339
  15 28.1537 -0.0392012 0.150714
  16 28.2176 -0.195304 0.206009
  17 27.1891 -0.155090 0.418091
  18 26.5060 -0.0536647 0.498899
  19 25.5899 -0.0773219 0.531184
  20 24.0425 -0.0674911 0.720666
  21 22.3926 -0.0635705 0.824966
  22 20.3742 0.0978515 1.11198
  23 17.6458 0.149669 0.996916
  24 16.5800 -0.0243902 1.41539
  25 13.2438 0.194481 0.998173
  26 11.2545 0.265491 0.775304
  27 10.7401 0.105960 0.569236
  28 10.1859 0.383022 0.0393726
  29 10.4860 0.422323 -0.760105
  30 11.1031 0.112057 -0.956495
  31 13.5522 0.0325816 -1.28726
  32 16.0584 -0.133035 -1.35584
  33 17.7446 0.123494 -0.996768
  34 20.4064 0.112465 -1.11388
  35 22.3277 -0.0769149 -0.882207
  36 24.2205 -0.0842075 -0.682797
  37 25.4699 -0.0509205 -0.538427
  38 26.4201 -0.0555397 -0.462585
  39 27.4248 -0.0862396 -0.275157
  40 27.8540 -0.0759756 -0.267951
  41 28.2641 -0.0735017 -0.232216
  42 28.6898 -0.0871051 -0.0628786
  43 28.8662 -0.116466 -0.103360
  44 28.7191 0.0389802 -0.0238969
  45 29.0189 -0.0489295 -0.0856766
  46 29.1849 -0.128448 0.0715814
  47 29.3470 -0.0681882 -0.00575304
  48 27.7124 0.0685224 -0.0433668
  49 25.8981 -0.0291188 -0.0847174
  50 23.8750 -0.145049 -0.131988
  51 21.8074 -0.0851440 -0.0975184
  52 20.0279 -0.210085 -0.0903865
  53 18.1680 -0.239073 -0.0850200
  54 16.3084 -0.199363 -0.0500478
  55 14.3700 -0.230069 -0.0640866
  56 12.7408 -0.269631 -0.0805311
  57 10.5883 -0.270258 -0.0693167
  58 8.38223 -0.157158 -0.0443940
  59 6.56410 -0.0962470 -0.0371907
  60 4.32541 -0.0600942 -0.0228815
  61 2.69727 -0.0720660 -0.118442
  62 1.18095 -0.117396 -0.0432312
  63 -0.344837 0.0153753 0.0630656
  64 -0.724770 0.109255 0.0166214
  65 -0.817087 0.0456911 0.0606812
  66 -0.727866 0.0214728 0.0552993
  67 -0.994806 0.0637226 0.0111747
  68 -1.07713 0.0818170 0.122136
  69 -1.06395 0.0281752 0.0263784
  70 -1.52603 0.0587018 0.0315665
  71 -1.71898 0.0430447 0.113070
  72 -1.74776 0.0170263 0.115992
  73 -2.22975 0.0568719 0.0801721
  74 -2.38378 0.0827504 0.176551
  75 -2.53219 0.0503239 0.0416400
  76 -2.74634 0.0357769 0.0811601
  77 -2.78181 0.0390446 0.0147949
  78 -2.96637 0.0882798 -0.0871319
  79 -2.94654 0.0605947 -0.0667693
  80 -2.64563 0.0476969 -0.107561
  81 -2.24788 0.0584290 -0.186477
  82 -1.80009 0.0231463 -0.266371
  83 -1.32248 0.0116366 -0.271292
  84 -0.787095 -0.0304718 -0.280962
  85 -0.332550 -0.0234596 -0.160249
  86 -0.136544 -0.0579553 -0.0983649
  87 -0.0248885 -0.139800 -0.0835188
  88 -0.0437335 -0.357175 -0.153694
  89 -0.0489123 -0.721135 -0.275809
  90 -0.0130876 -1.36185 -0.303727
  91 0.0134920 -1.90706 -0.387225
  92 0.0355725 -2.75541 -0.318637
  93 0.109489 -3.29911 -0.380817
  94 0.0135316 -3.61983 -0.331802
  95 -0.00941789 -4.21584 -0.228170
  96 0.112663 -4.22417 -0.121208
  97 0.443166 -5.52952 0.117553
  98 0.364005 -3.41321 0.527930
  99 0.899267 -2.20441 1.28198
  100 2.80967 2.98801 4.50121
  101 12.7715 13.8399 13.8445
  102 72.8262 7.41532 10.9155
  103 60.0183 2.10432 3.91546
  104 56.9618 0.900276 1.35999
  105 55.2096 0.602506 -0.00577481
  106 56.2996 0.859360 -1.10931
  107 60.6492 1.80262 -3.26242
  108 72.0844 5.96178 -10.2425
  109 8.21728 15.7229 -11.4187
  110 1.96781 1.73656 -3.41827
  111 0.660627 -2.66018 -1.03074
  112 0.329766 -3.68451 -0.432786
  113 0.441897 -5.72455 -0.0708551
  114 0.108375 -4.31203 0.155125
  115 -0.0158452 -4.26042 0.246029
  116 0.00937589 -3.63753 0.341454
  117 0.107275 -3.30394 0.384958
  118 0.0347145 -2.75465 0.320213
  119 0.0128305 -1.90489 0.387855
  120 -0.0134091 -1.35886 0.303625
  121 -0.0489646 -0.719190 0.275301
  122 -0.0438264 -0.355450 0.153197
  123 -0.0248771 -0.139155 0.0830689
  124 -0.135763 -0.0578895 0.0979948
  125 -0.331181 -0.0235552 0.159860
  126 -0.785403 -0.0306919 0.280762
  127 -1.32060 0.0114040 0.271393
  128 -1.79920 0.0228969 0.266852
  129 -2.24870 0.0582619 0.187359
  130 -2.64816 0.0476940 0.108484
  131 -2.95121 0.0605621 0.0676509
  132 -2.97276 0.0883046 0.0880293
  133 -2.79009 0.0391574 -0.0140538
  134 -2.75595 0.0359143 -0.0806562
  135 -2.54237 0.0504727 -0.0412817
  136 -2.39453 0.0829200 -0.176490
  137 -2.24060 0.0570243 -0.0801312
  138 -1.75815 0.0171188 -0.116135
  139 -1.72912 0.0432010 -0.113361
  140 -1.53541 0.0589269 -0.0319660
  141 -1.07176 0.0283290 -0.0270438
  142 -1.08322 0.0819552 -0.123051
  143 -0.999481 0.0637466 -0.0119977
  144 -0.730441 0.0214367 -0.0560737
  145 -0.818034 0.0456009 -0.0612938
  146 -0.724686 0.109090 -0.0171626
  147 -0.343945 0.0152839 -0.0633682
  148 1.18166 -0.117826 0.0428889
  149 2.69776 -0.0732160 0.118045
  150 4.32609 -0.0621630 0.0223889
  151 6.56504 -0.0992549 0.0369188
  152 8.38286 -0.160674 0.0443239
  153 10.5878 -0.273344 0.0697398
  154 12.7377 -0.271287 0.0814714
  155 14.3642 -0.228465 0.0663817
  156 16.2992 -0.192809 0.0527686
  157 18.1549 -0.223228 0.0807323
  158 20.0356 -0.214322 0.0800993
  159 21.8127 -0.112922 0.102609
  160 23.8945 -0.139870 0.121301
  161 25.9540 -0.0137944 0.0858180
  162 27.6553 0.0670227 0.0418334
  163 15.3377 -1.36606 -0.974708
  164 15.2710 -1.39043 0.972683
  165 4.33927 1.23744 -1.55964
  166 4.38315 1.24265 1.55111
  167 18.3443 -0.984326 4.42535
  168 19.2792 -1.10576 -4.29874
  169 8.46611 -0.419778 0.421286
  170 8.46667 -0.415265 -0.430440
  171 19.6713 -0.585701 0.293127
  172 19.2457 -0.587459 -0.288052
  173 25.8582 4.73489 -0.781973
  174 26.7161 0.0576072 -3.98470
  175 26.1276 0.280529 4.21747
  176 5.75912 -0.201216 -1.01920
  177 5.75772 -0.199281 1.01588
  178 23.0776 -2.30357 1.63843
  179 23.0354 -1.76960 -2.10257
  180 0.199741 0.447951 0.698974
  181 0.208883 0.450895 -0.693701
  182 31.5013 6.35414 1.51986
  183 5.74833 2.50549 -3.85121
  184 6.19342 2.53324 4.15996
  185 22.3530 -0.973666 1.07459
  186 33.6409 6.90589 -1.06798
  187 14.0776 -0.427654 -0.0427155
  188 14.0524 -0.441498 0.0408008
  189 23.0554 -0.649670 -0.965118
  190 31.0587 -0.509247 0.176592
  191 4.91052 -0.139415 0.145538
  192 4.91073 -0.141013 -0.149080
  193 2.01384 0.312901 -0.635617
  194 2.02361 0.309710 0.636845
  195 12.5294 -0.490686 -2.65179
  196 12.4793 -0.519483 2.68818
  197 15.0652 -0.916419 -0.203461
  198 15.0962 -0.911149 0.233422
  199 3.36663 -0.116160 0.516389
  200 3.36266 -0.114348 -0.518399
  201 30.7523 -0.889157 1.43729
  202 24.8174 -2.52851 -0.970101
  203 23.7906 -0.144575 -0.187566
  204 23.2099 -0.189959 0.197138
  205 22.7872 2.65808 2.90142
  206 0.873519 0.628465 -0.0769370
  207 0.908907 0.625675 0.0923929
  208 23.0693 -0.951518 3.39381
  209 20.7791 1.56585 -3.25803
  210 15.1363 3.08357 -9.45891
  211 15.9173 2.59681 8.77441
  212 0.165114 0.487185 0.0992180
  213 0.173461 0.486878 -0.0954314
  214 22.9698 -0.845614 -3.49412
  215 40.9233 5.82331 -0.337740
  216 19.1079 -2.11511 1.34387
  217 19.2646 -2.10087 -1.25155
  218 19.1040 -1.30432 -0.404519
  219 24.1278 -0.295019 0.540379
  220 11.0981 -0.731351 -0.840739
  221 10.9085 -0.727817 0.876181
  222 6.50099 0.157693 -1.60546
  223 6.50914 0.154840 1.58850
  224 24.6017 -2.68873 0.171905
  225 18.9347 -1.39233 0.324743
  226 24.0496 -0.282394 -0.446075
  227 18.4010 -0.363869 0.0984680
  228 18.5751 -0.330455 -0.0611623
  229 23.4795 -1.01882 2.05813
  230 1.51548 0.0323776 -0.549730
  231 1.52256 0.0314665 0.549037
  232 -0.326429 -0.229475 -0.819595
  233 -0.327947 -0.231258 0.820330
  234 2.85498 -0.137261 -0.286814
  235 2.85774 -0.137586 0.283360
  236 9.33874 -0.231523 0.179777
  237 9.34233 -0.237087 -0.182089
  238 11.0739 0.731253 -4.01165
  239 11.0749 0.603772 3.96326
  240 23.8518 -0.703459 -1.75941
  241 10.7518 -0.610466 -1.50310
  242 10.7597 -0.629822 1.47575
  243 20.4390 0.280702 3.65933
  244 17.4314 1.51945 0.219231
  245 20.3311 -2.00990 -0.432677
  246 0.0538875 -0.604303 -0.808572
  247 0.0471668 -0.609388 0.814452
  248 1.18417 0.941323 -1.14149
  249 1.26609 0.893912 1.21564
  250 19.9757 -1.96409 0.294113
  251 36.8845 6.36707 0.315221
  252 1.66457 1.16663 -0.363954
  253 1.68626 1.16553 0.370395
  254 -0.867117 0.151124 0.604042
  255 -0.863331 0.151886 -0.601485
  256 37.1631 5.88504 -0.134362
  257 12.2943 -0.534471 -0.244756
  258 12.2836 -0.524179 0.235319
  259 24.9705 -1.74942 3.28291
  260 46.2220 7.48655 4.42738
  261 6.90726 -0.348506 -0.815494
  262 6.90393 -0.350964 0.813750
  263 25.0647 3.73762 -2.85041
  264 44.4320 8.37172 -3.90158
  265 30.6079 2.81303 3.05687
  266 33.9140 1.42397 -5.66997
  267 20.3852 -0.883594 0.555337
  268 22.9495 0.0503149 -4.18126
  269 21.9990 -1.51248 -1.31118
  270 24.7074 -0.395329 1.13665
  271 -0.291948 0.231644 -0.123865
  272 -0.283737 0.230837 0.126428
  273 24.5236 -1.06778 -5.61489
  274 2.28428 0.773620 -0.613695
  275 2.29570 0.771905 0.617581
  276 23.4475 -0.558846 -2.16895
  277 3.17580 2.87642 -3.97217
  278 1.96333 -0.00386255 -0.0628597
  279 1.96333 -0.00321109 0.0614129
  280 24.8523 -1.61206 -3.40497
  281 4.07468 1.82852 -2.01734
  282 4.13541 1.81706 2.02261
  283 0.652801 -0.0307361 0.390941
  284 0.645625 -0.0302656 -0.391682
  285 20.3601 -0.830240 -0.537523
  286 3.19500 2.84176 4.09180
  287 33.3688 1.75521 6.75388
  288 8.28673 -0.298095 -0.230130
  289 8.28362 -0.295611 0.224634
  290 16.0383 -0.578157 0.0196344
  291 16.0297 -0.635102 -0.00374475
  292 13.6797 1.20080 -6.28477
  293 22.4330 -2.48285 -0.770752
  294 26.0449 -0.0931138 0.247676
  295 13.1573 1.18992 6.06112
  296 15.3138 -0.322190 0.0159773
  297 15.3076 -0.321680 -0.00169062
  298 22.0302 -1.58035 1.33748
  299 25.6954 -0.216318 -0.570090
  300 -0.559390 0.0990521 -0.273420
  301 -0.550567 0.0983308 0.274430
  302 31.7259 6.40748 -0.467722
  303 28.1339 -1.46105 2.04877
  304 25.6881 -0.0555176 -0.0771248
  305 26.1789 -0.0465853 0.0698560
  306 25.3011 -2.37890 1.71865
  307 31.2555 3.00296 -2.91301
  308 26.7365 5.01146 1.71504
  309 11.7107 -0.676335 -0.467987
  310 11.5956 -0.689861 0.481269
  311 26.0308 -0.0857926 -0.183289
  312 16.5343 -1.29392 -2.93028
  313 16.2122 -1.23512 0.282212
  314 15.4616 -0.890902 3.39126
  315 25.4298 -0.250562 0.670129
  316 5.04674 -0.229075 -0.495525
  317 5.04875 -0.230875 0.492223
  318 23.2990 -1.00032 5.55356
  319 14.3551 -1.09926 -0.581702
  320 26.8695 3.36457 3.62386
  321 8.22219 0.587657 -2.49707
  322 7.90024 0.613220 2.47192
  323 1.67475 -0.0441470 -0.115149
  324 1.67633 -0.0437711 0.112831
  325 22.3362 -0.354167 0.365507
  326 21.3923 -0.196046 0.0820076
  327 21.2641 -0.224850 -0.0901559
  328 23.2399 -0.589646 2.29023
  329 1.30488 -0.0637780 0.278699
  330 1.29936 -0.0631039 -0.280716
  331 6.09686 -0.126097 -0.0948250
  332 6.09565 -0.123260 0.0932712
  333 0.190546 -1.23692 -0.524243
  334 0.176017 -1.24505 0.541509
  335 17.3124 0.735555 2.45590
  336 28.4231 -1.41649 -1.77950
  337 18.0409 -0.881186 0.294499
  338 20.6240 -0.310119 -0.236264
  339 20.8639 2.61997 -1.54276
  340 3.65239 -0.108600 -0.744352
  341 3.65622 -0.108588 0.742931
  342 17.5102 -0.824951 -0.195717
  343 4.55197 0.188580 -1.08955
  344 4.55997 0.184314 1.08454
  345 0.769373 0.761222 0.173882
  346 0.780604 0.760770 -0.169378
  347 21.5228 -2.37819 1.81565
  348 49.3988 3.29129 1.25290
  349 18.4332 0.245151 -2.91994
  350 15.7454 -1.41714 1.67773
  351 15.6645 -1.39082 -1.73803
  352 23.4208 -0.448831 4.16226
  353 20.5239 -0.171464 2.91670
  354 21.2260 -2.30023 -1.88760
  355 12.2044 -0.239577 -0.0313972
  356 12.2029 -0.243659 0.0346133
  357 23.4879 -1.53942 2.67882
  358 32.1203 6.48996 0.336802
  359 25.5159 -0.240976 -0.842151
  360 5.81936 -0.212285 -0.339391
  361 5.82034 -0.212359 0.334305
  362 23.8893 -2.39473 -2.32036
  363 24.7316 1.65520 -4.18868
  364 15.7348 0.854274 -1.56754
  365 23.6364 -1.59922 -3.02579
  366 -0.801716 0.0137693 -0.635357
  367 -0.802629 0.0128940 0.636177
  368 19.8662 -0.369131 0.194021
  369 -0.283335 -0.170608 -0.361145
  370 -0.283056 -0.170688 0.360483
  371 15.5043 6.90445 -11.6114
  372 0.506945 0.420372 0.546079
  373 0.521870 0.423990 -0.538283
  374 20.3445 -0.181506 -2.89127
  375 11.0044 -0.417716 0.180832
  376 11.0138 -0.424552 -0.184664
  377 -0.0921753 -0.866331 0.720605
  378 -0.0908907 -0.864748 -0.719775
  379 12.4814 7.27589 10.8935
  380 8.93686 -0.455704 -1.13956
  381 8.94261 -0.433879 1.14033
  382 2.77448 1.96916 -1.82961
  383 2.83594 1.96125 1.81631
  384 -1.32364 0.169820 0.290745
  385 -1.31854 0.170024 -0.288098
  386 23.7781 1.52747 4.16025
  387 18.2984 -1.91269 0.611735
  388 18.3180 -1.64102 0.0562289
  389 22.4162 -2.58686 0.0923697
  390 5.21544 0.686946 -1.56315
  391 5.23246 0.685188 1.55943
  392 0.446808 -1.00810 -0.125689
  393 0.420009 -1.01876 0.163835
  394 22.0732 3.19082 1.03151
  395 22.9822 -0.581357 0.810209
  396 12.6846 -0.961111 1.00550
  397 7.62703 -0.172123 -1.40193
  398 7.62829 -0.173401 1.38826
  399 16.4356 -0.404983 0.0614528
  400 16.4161 -0.342046 -0.0755702
  401 12.5748 -0.989603 -1.08550
  402 9.72274 -0.151339 -1.96359
  403 9.71954 -0.165306 1.98045
  404 23.8549 -2.21871 -2.02902
  405 13.4584 -0.996422 0.554185
  406 21.7442 -0.576335 0.546061
  407 21.7136 -0.514068 -0.474325
  408 17.9634 -1.62727 -0.124812
  409 26.5775 -0.0574952 -0.259492
  410 8.47452 3.26871 -6.31687
  411 24.5971 -0.323769 1.34679
  412 26.4518 -0.0854910 0.364012
  413 8.73001 -0.443055 0.634145
  414 8.73580 -0.436549 -0.633564
  415 18.2134 -1.88919 -0.644857
  416 2.34241 1.10454 0.655138
  417 2.32939 1.10410 -0.656565
  418 49.9498 3.28845 -2.58330
  419 21.2253 -1.14905 -0.835827
  420 26.8516 -0.0339892 0.149812
  421 7.97404 3.02653 5.98729
  422 39.2068 6.66318 1.08703
  423 23.0009 -0.256195 -0.297782
  424 16.8007 -1.16700 -0.0730432
  425 6.74561 1.30687 -2.84366
  426 7.20548 1.21460 2.82655
  427 20.9457 -1.27280 0.854418
  428 21.9437 -0.289205 -2.17272
  429 -0.677918 -0.0150573 0.288949
  430 -0.686793 -0.0148189 -0.289014
  431 7.69415 1.81869 -3.90933
  432 7.71788 1.82619 3.89635
  433 0.655215 0.434392 -0.216993
  434 0.664325 0.433293 0.220185
  435 18.7525 -0.255284 0.0832354
  436 18.7300 -0.245519 -0.0762920
  437 23.4334 -1.04455 -2.14689
  438 -0.112929 -0.129215 0.921928
  439 -0.108842 -0.125794 -0.918833
  440 24.1912 -2.43132 1.83727
  441 22.9656 -0.534322 -0.728067
  442 37.1820 7.15546 -0.784637
  443 0.676611 -0.0602554 0.123363
  444 0.672494 -0.0602770 -0.125413
  445 45.5010 12.3406 5.09993
  446 0.819577 -0.230554 -1.03829
  447 2.29174 0.143736 -0.712233
  448 2.29948 0.141629 0.711418
  449 45.2556 12.5818 -4.75530
  450 0.868204 -0.131378 1.16825
  451 -1.33700 0.139274 0.138617
  452 -1.33053 0.139010 -0.136178
  453 2.24941 1.53052 -0.977685
  454 2.29070 1.52994 0.983592
  455 28.7750 4.41162 -3.11425
  456 23.2340 -0.857364 -1.44665
  457 26.6922 -0.0451266 -0.137501
  458 24.2246 -0.352915 -1.56483
  459 -0.354726 0.135766 0.851449
  460 -0.350606 0.137914 -0.848605
  461 23.4635 -0.903173 1.65242
  462 14.8887 -0.772283 -0.148437
  463 14.8397 -0.781423 0.0944498
  464 20.5625 -2.27748 0.0114776
  465 14.4690 -0.254693 -4.22951
  466 22.1992 -0.347894 2.22664
  467 18.2587 -0.493919 -0.138883
  468 27.2610 -2.19907 0.160928
  469 14.0001 0.0592990 4.55427
  470 0.433737 -0.0123360 0.278117
  471 0.426627 -0.0119242 -0.279195
  472 29.4585 5.85078 -1.49672
  473 24.0599 -0.0878285 0.0382811
  474 23.9722 -0.110974 -0.0616663
  475 17.7044 -1.12129 -0.126137
  476 7.17743 -0.219993 -0.177022
  477 7.17540 -0.216682 0.173567
  478 4.11733 -0.0294468 -0.885276
  479 4.12114 -0.0302593 0.882336
  480 13.9463 0.547590 0.930742
  481 3.11493 -0.107511 0.410137
  482 3.11140 -0.106359 -0.413215
  483 3.64486 0.388743 0.991869
  484 3.63279 0.394464 -0.991678
  485 22.9960 -1.77163 2.02827
  486 12.5093 -0.772721 -1.82358
  487 11.3995 -0.307970 0.0710830
  488 11.4048 -0.317912 -0.0715980
  489 12.6462 -0.798065 1.82176
  490 36.2451 8.42128 -0.175396
  491 -0.580821 -0.0930655 -0.477819
  492 -0.580618 -0.0935064 0.477638
  493 8.42246 -0.197797 -0.0691966
  494 8.42112 -0.193703 0.0686656
  495 0.00112301 -1.62282 -0.630854
  496 -0.00259861 -1.62789 0.635994
  497 21.0777 -0.211557 0.150736
  498 13.8399 0.684269 -0.465312
  499 19.3507 2.05193 1.37198
  500 12.4632 -0.139549 -3.30552
  501 5.67249 -0.285458 0.629310
  502 5.67349 -0.282928 -0.631243
  503 -1.90963 0.0563546 -0.0675532
  504 -1.90096 0.0560411 0.0685723
  505 24.7505 -0.536828 -4.18948
  506 1.13569 0.0184770 -0.0889911
  507 1.13646 0.0188182 0.0873413
  508 20.6042 -1.58347 -0.770860
  509 22.0114 -1.85504 -1.30561
  510 4.25566 3.06415 -4.12526
  511 18.4559 0.334914 -6.88118
  512 0.0902342 0.508913 0.499882
  513 0.0986199 0.509806 -0.495377
  514 10.8338 -0.455602 -0.301031
  515 10.8270 -0.450453 0.290546
  516 32.2945 1.01205 -1.39346
  517 22.9196 -1.32107 -1.82976
  518 4.14242 2.87551 4.06123
  519 22.7185 -2.62784 0.257442
  520 21.7964 -2.06412 1.09772
  521 3.91912 -0.0910845 -0.265111
  522 3.92007 -0.0905532 0.261351
  523 17.1118 0.167409 2.25418
  524 12.5669 -0.890941 -0.608606
  525 24.3433 -0.478627 1.05866
  526 -0.104699 -0.588061 -0.461154
  527 -0.104955 -0.587727 0.460604
  528 16.7149 -1.50388 2.05716
  529 25.8767 -2.07067 -2.39907
  530 34.2623 1.90637 -0.537280
  531 18.0183 -0.517481 0.159813
  532 4.65206 -0.0749475 -0.0814411
  533 4.65129 -0.0728788 0.0804240
  534 11.1512 0.0772414 3.17059
  535 32.3391 5.16633 2.39027
  536 33.6971 5.45068 -11.0863
  537 29.5226 -0.0520588 2.41074
  538 20.9928 -2.34504 -0.129883
  539 51.6211 4.10281 3.43692
  540 37.3117 8.67565 0.405993
  541 4.62947 -0.185100 0.693479
  542 4.62723 -0.183064 -0.695554
  543 20.1456 -1.63228 0.645785
  544 1.25416 0.693034 -0.164407
  545 1.26468 0.692363 0.168277
  546 25.5493 -2.19986 2.39057
  547 20.2044 1.06057 3.36268
  548 25.9426 -0.133694 0.582310
  549 18.8090 -1.05988 0.386491
  550 26.9688 -0.176083 -7.25070
  551 43.5828 10.1056 6.75181
  552 20.5802 -0.297831 -0.144155
  553 25.3757 -0.226552 -0.907960
  554 3.66170 1.55822 -1.45436
  555 3.68881 1.53900 1.44563
  556 14.0413 -0.489613 -0.0797206
  557 14.0340 -0.475409 0.0839301
  558 0.140799 -2.22824 -0.0566258
  559 25.7029 -1.00590 3.80698
  560 0.830192 0.790931 0.279247
  561 0.845171 0.792761 -0.272536
  562 0.167903 -2.16674 0.110251
  563 23.2754 -1.07279 -3.02668
  564 26.8553 1.57751 -4.10844
  565 26.7342 1.79897 4.10170
  566 1.16838 0.811959 0.692693
  567 1.10501 0.838929 -0.671967
  568 -1.18459 0.0291478 0.209363
  569 -1.19396 0.0294036 -0.209092
  570 25.0411 0.266572 7.50281
  571 13.1448 -0.672823 0.255493
  572 13.1594 -0.670294 -0.266109
  573 30.3790 -0.917620 -3.54228
  574 3.07067 -0.0377791 0.154805
  575 3.07039 -0.0387167 -0.157298
  576 0.894724 -0.0447106 -0.0387264
  577 0.894246 -0.0443973 0.0381530
  578 33.0117 5.73583 -2.07264
  579 2.98552 3.58974 -4.61923
  580 16.2430 0.305981 -1.90176
  581 23.7390 3.83082 -1.77667
  582 0.293173 -0.150239 0.657077
  583 0.307531 -0.145588 -0.647501
  584 25.4930 10.1018 13.1793
  585 20.8770 -0.484010 -0.355564
  586 0.383518 0.216361 -0.316677
  587 0.392294 0.214795 0.318443
  588 24.0907 -1.97222 2.72503
  589 3.54760 3.45731 4.70268
  590 17.1840 -0.256706 -0.00892178
  591 17.1883 -0.253617 0.00884082
  592 -0.0284844 -1.27040 0.635362
  593 -0.0266213 -1.26829 -0.633305
  594 29.3535 5.81896 -0.0469416
  595 18.6748 -1.57115 3.06149
  596 17.7786 -0.672631 0.170440
  597 18.0023 0.608160 7.27231
  598 -1.54666 0.0696798 0.394027
  599 -1.54508 0.0700477 -0.392624
  600 29.9158 0.151138 -2.56946
  601 40.8851 5.79353 -4.63037
  602 10.9357 1.05422 -4.69560
  603 5.54351 -0.219072 -0.858333
  604 5.54760 -0.218933 0.857844
  605 27.4063 -0.0536413 0.181294
  606 17.5883 -0.689533 -0.195347
  607 24.1037 -0.241752 0.412551
  608 23.2797 -1.06891 2.95975
  609 0.212399 -0.0348780 0.131311
  610 0.206774 -0.0347129 -0.132862
  611 13.4573 -0.392684 -0.0395156
  612 13.4548 -0.378990 0.0351088
  613 8.22090 0.197631 -2.03236
  614 8.16373 0.199877 2.02086
  615 34.5219 1.49153 1.33967
  616 57.8415 4.35580 -6.36585
  617 -0.992254 -0.0308411 0.187882
  618 -1.00157 -0.0307221 -0.188041
  619 7.54840 -0.296874 0.337448
  620 7.54941 -0.296673 -0.344358
  621 31.9037 1.39795 1.82865
  622 27.1676 -0.0385835 -0.0577742
  623 27.1016 -0.0828596 0.0309563
  624 18.4641 -0.0253108 2.24020
  625 28.0537 -1.87854 -1.99236
  626 14.6964 -1.17501 0.735665
  627 -0.497043 0.317505 -0.441268
  628 -0.503291 0.317133 0.444774
  629 23.8532 0.418080 4.34184
  630 9.03935 -0.496457 -0.877966
  631 9.02829 -0.505412 0.879823
  632 19.5232 -1.05814 -0.460587
  633 24.4799 -0.473580 -0.962314
  634 13.4790 -1.05620 -1.24705
  635 22.1422 2.67224 -2.63135
  636 15.0277 -1.05449 -2.44531
  637 4.87144 -0.124279 -0.126850
  638 4.87074 -0.122382 0.124261
  639 13.6286 -1.07749 1.24882
  640 30.1022 4.71446 2.88869
  641 23.8121 -1.20127 3.72006
  642 19.5024 -0.780901 0.401758
  643 13.6134 -0.278323 0.0556935
  644 13.6099 -0.279366 -0.0529095
  645 10.0062 -0.324896 -0.226267
  646 10.0011 -0.320371 0.222313
  647 23.0313 -2.12492 -1.72134
  648 11.1684 -0.587251 0.404777
  649 11.1823 -0.585019 -0.417709
  650 22.4633 3.51838 -0.357700
  651 21.2691 -1.04905 0.832010
  652 27.2051 -0.0897448 -0.269633
  653 22.3117 -0.450939 -3.78830
  654 2.65784 -0.124812 0.554473
  655 2.65298 -0.123858 -0.555608
  656 26.3908 -0.107904 -0.525280
  657 4.33987 2.20021 -2.83262
  658 4.41646 2.19322 2.84682
  659 26.8070 -1.85142 2.97318
  660 8.77922 2.12366 4.94262
  661 1.67676 0.00119072 0.557263
  662 1.67051 0.00166584 -0.558135
  663 22.6540 -1.62394 4.03507
  664 22.5162 2.62128 -10.0609
  665 21.1529 0.617336 -3.74578
  666 28.3569 5.09418 2.41906
  667 19.1430 -0.761575 -0.314918
  668 34.7007 6.37633 -0.153510
  669 -1.91739 0.0783479 -0.0158054
  670 -1.90994 0.0781135 0.0173282
  671 15.1214 -0.0206539 -5.01707
  672 0.208519 -0.0190276 0.107086
  673 0.205362 -0.0190900 -0.108623
  674 19.1550 -1.68902 -3.01913
  675 5.97889 0.853083 -1.94371
  676 5.92714 0.855199 1.94183
  677 -0.129371 0.309861 0.00218933
  678 -0.121304 0.309322 0.00108051
  679 16.0908 -1.35851 -0.468000
  680 22.9945 -0.223727 -1.47057
  681 10.5031 -0.270816 -0.0879806
  682 10.5028 -0.266729 0.0889490
  683 7.40155 -0.360617 -0.535317
  684 7.40638 -0.366105 0.532200
  685 1.33203 1.09886 -0.185060
  686 1.35642 1.10057 0.192733
  687 24.0919 -0.193814 0.235859
  688 10.0546 -0.609099 0.704904
  689 10.1258 -0.597164 -0.703641
  690 26.5186 -2.26213 -0.805486
  691 21.6402 -2.17163 -0.864780
  692 16.8289 -0.373439 0.0812765
  693 16.7651 -0.339824 -0.0711897
  694 23.9868 -2.64112 0.878225
  695 39.3052 7.86312 1.66704
  696 21.0068 -1.10407 -5.12328
  697 24.1101 -0.637018 1.61538
  698 23.7242 -0.937003 -3.96036
  699 6.76438 -0.187677 -0.234227
  700 6.76284 -0.185756 0.229634
  701 18.5822 -0.476451 5.79134
  702 54.3288 6.84750 6.28725
  703 3.24344 1.00139 -1.02262
  704 3.24764 1.00780 1.02612
  705 24.0434 -0.134928 -0.123752
  706 24.2464 -0.114705 0.125189
  707 9.86315 4.57218 -8.23534
  708 25.3526 -0.105187 0.896520
  709 21.8930 -0.268399 0.224778
  710 28.3927 5.70358 -0.924075
  711 2.55016 0.516697 -0.708396
  712 2.56173 0.513291 0.711125
  713 27.7617 -0.0313065 0.0419860
  714 21.9354 -0.761739 -0.784801
  715 27.4212 -0.565068 3.44513
  716 10.7204 -0.731154 -1.18764
  717 10.7476 -0.697322 1.17289
  718 1.86292 -0.0758404 0.420260
  719 1.85757 -0.0747717 -0.422099
  720 25.2050 -0.0862766 -0.201891
  721 21.6000 3.67476 10.7326
  722 0.0860130 0.0682187 0.819150
  723 0.0937494 0.0724705 -0.813899
  724 25.1779 -0.197938 -0.475927
  725 24.3617 -0.368888 0.670185
  726 18.3642 -0.00799819 -2.40270
  727 0.159208 -2.40178 -0.380325
  728 0.147573 -2.42302 0.401731
  729 8.43712 2.18075 -4.93748
  730 19.1005 -1.96588 -2.07456
  731 9.75723 4.54147 8.32954
  732 27.3271 -0.0235888 0.118605
  733 25.3876 3.78299 2.87192
  734 17.8853 1.64685 -0.951476
  735 33.7888 6.83472 -0.333850
  736 26.8325 -0.0740485 0.355383
  737 -1.95597 0.0405338 0.142806
  738 -1.96540 0.0407569 -0.142223
  739 28.3794 -1.84185 0.219685
  740 17.9917 -0.413068 0.0997260
  741 6.12273 0.0354067 -1.33670
  742 6.12976 0.0289325 1.32652
  743 24.4414 -0.199321 -0.311167
  744 43.5013 6.19514 -2.06477
  745 2.11913 -0.0706376 -0.244104
  746 2.12314 -0.0710988 0.241353
  747 27.5155 -0.0352286 -0.173376
  748 4.65036 -0.208629 -0.343777
  749 4.65208 -0.209376 0.339753
  750 26.3548 -1.16834 -3.50099
  751 24.2600 -0.238526 1.20767
  752 21.3318 -0.183489 3.71904
  753 27.6293 -0.0370029 -0.0191395
  754 25.5252 -0.118165 0.373900
  755 16.1456 -0.792979 0.0487252
  756 20.5997 -0.435712 0.292224
  757 23.3668 -1.43669 -2.59732
  758 22.8295 -1.40401 1.78243
  759 26.5621 3.12231 -3.64778
  760 22.5341 -1.21258 1.37326
  761 23.7106 -1.43243 3.26131
  762 13.3920 -0.855879 0.386175
  763 0.435449 -0.383220 -0.225524
  764 0.409508 -0.384162 0.249877
  765 20.9164 -0.198161 0.0216138
  766 20.8702 -0.195729 -0.0297106
  767 25.4958 -0.0332949 -0.0268392
  768 25.5913 -0.0274458 0.0333171
  769 23.8004 -0.644768 1.93915
  770 22.0048 -2.13528 2.81182
  771 17.8434 -1.40158 -0.0246315
  772 15.7359 -0.867156 0.0729256
  773 44.4657 5.74088 2.46758
  774 24.2022 -0.562023 -1.30639
  775 13.9184 2.22343 -7.77070
  776 22.4030 -1.04441 -1.20394
  777 0.424673 0.0272280 -0.375295
  778 0.432976 0.0264151 0.375501
  779 19.2207 1.68950 -2.13797
  780 53.0335 1.62131 -0.707450
  781 25.0185 0.549698 -4.29806
  782 0.929965 -0.285024 -1.66605
  783 25.4459 4.64610 0.743993
  784 20.1352 -1.21430 0.596264
  785 22.4319 -0.598595 3.68450
  786 18.9950 -2.05185 2.08717
  787 31.2554 -0.658860 4.51105
  788 1.00253 -0.0510378 1.79545
  789 13.5260 -0.125090 3.83423
  790 19.2631 -0.387290 -0.170046
  791 21.5450 -2.04261 -2.85069
  792 12.8200 -0.968681 -0.809139
  793 10.0735 0.463701 -3.29994
  794 24.8583 -0.472657 4.21670
  795 15.7090 -1.01437 0.220776
  796 2.27662 -0.0745763 0.230428
  797 2.27428 -0.0747152 -0.233438
  798 23.0680 -0.118177 1.30631
  799 20.5652 0.0654664 -3.59233
  800 -1.92716 0.0801091 0.260859
  801 -1.92438 0.0802323 -0.259362
  802 15.2675 -0.386474 0.0471423
  803 15.2192 -0.359316 -0.0516771
  804 11.2333 1.18966 4.77246
  805 9.77826 -0.539188 0.503235
  806 9.79441 -0.524633 -0.510967
  807 27.5229 -0.0150373 -0.104385
  808 9.02126 0.703783 3.20380
  809 -0.449075 -0.00754200 0.147081
  810 -0.456668 -0.00733880 -0.148045
  811 22.7792 -0.716213 2.87748
  812 24.9705 -0.131295 0.166624
  813 -1.33013 0.00949978 0.377047
  814 -1.33017 0.00989174 -0.376325
  815 14.8272 -0.960661 2.78433
  816 2.69891 2.11540 -2.33156
  817 2.73361 2.00144 2.29107
  818 13.0925 0.600328 0.386978
  819 -0.908762 -0.00845988 -0.171167
  820 -0.899665 -0.00859863 0.170785
  821 17.1632 -1.65863 -1.94565
  822 23.7666 -2.54344 -1.22563
  823 -0.115197 -0.109844 -0.142913
  824 -0.114885 -0.109612 0.142413
  825 0.326288 0.0456179 -0.0304071
  826 0.326291 0.0458649 0.0295332
  827 21.0296 -1.84643 0.869335
  828 17.5459 -1.80991 1.25305
  829 19.6449 -0.217291 0.121854
  830 17.4937 -1.36466 -0.0471400
  831 5.75438 -0.0711694 -0.0176850
  832 5.75342 -0.0684346 0.0170310
  833 -2.21173 0.0458465 0.168449
  834 -2.20737 0.0457780 -0.167006
  835 22.4092 -0.184562 -0.165872
  836 18.9339 0.715329 -3.03304
  837 22.6285 -0.353083 -0.435947
  838 12.8456 -0.947899 0.761245
  839 21.8976 -0.401842 -3.00239
  840 23.7762 -0.702115 -2.00526
  841 22.5083 -0.143326 0.151005
  842 16.0517 -0.682565 3.94159
  843 17.1581 -1.65891 -0.579796
  844 10.0758 -0.0724112 -2.46757
  845 10.1337 -0.00207998 2.48042
  846 14.4762 -1.03681 -0.419772
  847 24.2431 2.57627 3.66808
  848 23.4330 -2.54180 -1.35638
  849 7.75893 -0.215027 -0.107771
  850 7.75682 -0.210858 0.105851
  851 17.6888 -0.293780 -0.0520992
  852 17.6888 -0.297230 0.0573974
  853 20.7750 -0.169313 -1.94991
  854 6.52869 -0.261408 -0.429003
  855 6.53101 -0.263536 0.423623
  856 0.0764127 -2.33160 -0.493148
  857 0.0718754 -2.34123 0.502127
  858 2.76474 -0.0391026 -0.0319422
  859 2.76521 -0.0402523 0.0311601
  860 22.2093 -0.244753 -0.234746
  861 16.4811 -1.56593 1.11428
  862 26.1672 -2.35953 1.33076
  863 14.1345 0.303288 1.48483
  864 22.7007 -0.443533 0.492781
  865 24.6700 -2.27532 -2.23494
  866 3.10046 0.234659 -0.851575
  867 3.10953 0.230939 0.850252
  868 19.5396 -0.241460 -0.112409
  869 15.4635 -0.448714 0.00399780
  870 15.4054 -0.443471 0.00966654
  871 23.8203 3.73393 1.99838
  872 8.00522 -0.0589290 -1.64978
  873 7.99538 -0.0687150 1.64026
  874 16.6378 -1.47274 0.412366
  875 1.40314 0.982003 -0.146118
  876 1.41833 0.979629 0.149997
  877 13.9622 -1.00303 2.21183
  878 16.8950 -1.01173 0.0675452
  879 20.9152 -0.175010 1.97083
  880 20.9806 -2.39350 0.419645
  881 24.1164 -1.87474 -2.90897
  882 16.4411 -1.57908 -1.13556
  883 13.4960 -0.851421 -0.364413
  884 46.7151 3.89432 -0.698222
  885 22.0169 -2.34799 0.743985
  886 0.469375 0.651664 0.425161
  887 0.480314 0.652666 -0.419670
  888 19.0024 -1.88727 0.0500711
  889 20.9563 -2.40840 -1.01847
  890 0.460633 0.593364 0.191895
  891 0.470052 0.593300 -0.187818
  892 7.41019 -0.242260 1.21144
  893 7.41691 -0.250941 -1.22100
  894 9.11487 -0.442162 1.33651
  895 9.11316 -0.453985 -1.34870
  896 30.1581 6.07771 1.24085
  897 -0.0498578 -0.935693 -0.452414
  898 -0.0501858 -0.934786 0.452197
  899 6.54735 0.581970 -1.84327
  900 6.51183 0.569578 1.82109
  901 54.9676 1.79119 -2.81840
  902 0.0808559 -0.000614392 0.0556819
  903 0.0791655 -0.000797144 -0.0568829
  904 0.0769824 -2.81530 0.257017
  905 0.0916192 -2.77349 -0.221528
  906 -1.00220 -0.0167078 0.376902
  907 -1.00310 -0.0164141 -0.376737
  908 5.21616 1.55240 -2.19396
  909 5.29833 1.50145 2.15790
  910 -0.485165 -0.00696843 -0.819980
  911 -0.487320 -0.00859118 0.821381
  912 1.16592 0.153041 -0.526831
  913 1.17454 0.151191 0.527250
  914 5.57696 -0.0405290 1.10564
  915 5.57440 -0.0403562 -1.11332
  916 4.41118 -0.138970 -0.883058
  917 4.41462 -0.138527 0.880632
  918 26.4452 -0.0740694 -0.506636
  919 12.4682 2.48105 7.18099
  920 17.3378 -1.69239 0.519913
  921 12.0363 -0.824786 0.580484
  922 23.6560 2.39492 -3.60118
  923 54.0359 1.18224 1.11079
  924 28.6580 1.11771 -3.66896
  925 4.06043 -0.154698 0.534458
  926 4.05742 -0.152747 -0.537512
  927 0.271398 -0.0188324 -0.396643
  928 0.279203 -0.0190901 0.396252
  929 -0.0517851 -0.509212 -0.906355
  930 -0.0554582 -0.512718 0.909224
  931 12.4477 -0.483480 0.207715
  932 12.4553 -0.494969 -0.209920
  933 1.19603 0.415916 -0.427946
  934 1.20559 0.413936 0.430568
  935 7.32669 -0.306455 -1.00757
  936 7.33052 -0.306185 1.00610
  937 16.0227 -0.101654 -1.75592
  938 7.53225 -0.392013 -0.661799
  939 7.52486 -0.386805 0.664183
  940 19.6650 -0.441749 -0.211430
  941 23.7685 -1.40105 -3.48007
  942 9.86103 -0.354138 0.252368
  943 9.86721 -0.358327 -0.258062
  944 -0.421040 -0.0481023 -0.256612
  945 -0.419997 -0.0482154 0.256126
  946 24.4719 -2.07241 -3.56405
  947 23.2525 -1.34595 2.29101
  948 20.3264 -1.36224 -0.711442
  949 19.2160 0.622383 3.20198
  950 8.50425 -0.454342 -0.752554
  951 8.50239 -0.444355 0.755319
  952 21.7764 0.784011 3.91815
  953 20.0712 1.74152 2.57142
  954 43.2659 5.28267 0.875260
  955 21.7615 -0.690596 0.617845
  956 10.8997 -0.260727 -0.109537
  957 10.8974 -0.253648 0.111041
  958 19.3053 -1.53554 -0.383407
  959 26.5585 4.90825 -1.78858
  960 24.0977 -0.163856 -0.235445
  961 15.3095 -0.270907 0.0331667
  962 15.3028 -0.268071 -0.0284598
  963 1.79015 1.45417 -0.874239
  964 1.83882 1.44961 0.882452
  965 3.73685 7.90218 -8.03558
  966 21.9592 -0.544364 2.99106
  967 27.9152 -0.696798 -3.14355
  968 -0.671407 0.258010 0.257835
  969 -0.664648 0.257863 -0.254591
  970 59.2864 13.4579 -10.9150
  971 23.8187 -2.64893 0.704824
  972 25.5150 -2.48768 -0.561902
  973 23.3894 -2.01650 2.16773
  974 28.6375 5.71420 0.812017
  975 1.92217 1.69706 -2.15111
  976 5.22080 6.68958 7.77766
  977 -0.173384 -0.371508 0.887787
  978 -0.171102 -0.368935 -0.886274
  979 22.9046 -0.494037 0.596954
  980 36.7934 6.61082 -0.605190
  981 1.98121 1.64667 2.25228
  982 -0.103421 -0.328693 -0.285306
  983 -0.103459 -0.327870 0.284641
  984 19.4762 -0.338104 0.123396
  985 14.2193 -1.10131 -0.835726
  986 23.5624 -1.87842 -2.50107
  987 6.33642 1.69618 -2.98976
  988 6.44063 1.72545 2.99785
  989 22.6814 -0.569132 -2.69466
  990 23.1800 -0.658249 1.00384
  991 -0.685144 0.129401 0.741485
  992 -0.682147 0.130806 -0.739330
  993 13.5724 -0.897894 -2.06287
  994 22.6714 1.39557 -3.96686
  995 16.9524 -0.533847 -0.0831870
  996 11.8656 -0.264196 0.00376402
  997 11.8637 -0.266780 -0.00232037
  998 -0.272197 -0.307556 -0.610305
  999 -0.272600 -0.308205 0.609938
  1000 23.4915 -0.770822 -1.19956
  1001 22.4693 -0.136395 0.0496012
  1002 22.4481 -0.136494 -0.0396523
  1003 30.8602 4.86849 -2.74782
  1004 5.11415 0.480878 -1.41045
  1005 5.12642 0.471279 1.40580
  1006 2.99616 -0.0124492 -0.718891
  1007 3.00123 -0.0130917 0.717160
  1008 25.1613 1.25132 4.34730
  1009 24.2142 -0.373458 -0.703151
  1010 3.83510 0.652569 -1.10601
  1011 3.85048 0.647400 1.11017
  1012 25.5054 -0.0530805 -0.136423
  1013 23.4021 -0.965159 -1.74915
  1014 22.8429 -2.64843 -0.566472
  1015 0.749276 0.562843 -0.221470
  1016 0.725681 0.560269 0.231917
  1017 -1.21401 0.168087 0.472235
  1018 -1.21018 0.168495 -0.469761
  1019 12.5787 0.502919 -0.647253
  1020 40.1156 9.61140 -2.04812
  1021 17.8246 -1.23580 0.166961
  1022 11.5254 -0.499817 -2.13710
  1023 29.2910 -1.39481 0.811111
  1024 11.5715 -0.500614 2.16990
  1025 20.6552 -2.45398 1.25885
  1026 23.4455 -0.959476 -2.51558
  1027 7.37458 -0.136089 -0.0347756
  1028 7.37362 -0.132576 0.0343637
  1029 15.7468 -1.18138 -0.310044
  1030 9.38058 -0.331553 -1.61570
  1031 9.37494 -0.334027 1.60478
  1032 2.99585 1.93170 -1.72345
  1033 3.04574 1.92402 1.72825
  1034 6.05550 -0.176050 -0.128629
  1035 6.05421 -0.173230 0.125900
  1036 20.9255 -0.559888 0.393791
  1037 17.5115 -0.0546730 -5.87891
  1038 21.7230 -0.610491 -0.606021
  1039 19.4355 -2.16065 -0.623564
  1040 12.4099 -0.455852 0.124133
  1041 12.4216 -0.460111 -0.125215
  1042 25.8584 -0.0832335 0.171473
  1043 22.8237 -0.445671 -0.561766
  1044 13.4090 0.321600 1.21791
  1045 24.2913 -0.232568 -1.12106
  1046 9.09019 2.53620 5.64259
  1047 25.1486 -0.214550 -0.932621
  1048 6.14693 1.05509 -2.19192
  1049 5.94951 1.06829 2.09097
  1050 30.3011 -0.792653 -0.982580
  1051 2.42124 1.31587 -0.794028
  1052 2.44477 1.30569 0.792937
  1053 0.384820 -0.230004 0.436595
  1054 0.407322 -0.226469 -0.421865
  1055 3.06687 -0.0841406 0.164451
  1056 3.06573 -0.0848763 -0.167599
  1057 10.4069 2.57341 -6.30837
  1058 61.4776 15.0678 11.7329
  1059 23.3988 -0.771769 1.23084
  1060 20.8437 -2.36810 -0.342280
  1061 14.1951 -1.16059 -1.52652
  1062 -0.412060 0.281383 0.689894
  1063 -0.406736 0.282907 -0.686386
  1064 16.1285 -0.746125 -0.0643120
  1065 17.9276 -0.562049 -0.168043
  1066 -0.0128597 -1.33160 0.441645
  1067 -0.0124069 -1.33259 -0.441438
  1068 2.45728 1.55460 -0.981350
  1069 2.48828 1.55082 0.987841
  1070 15.8975 -0.676141 0.0656246
  1071 0.976636 0.568505 0.197406
  1072 0.966965 0.569497 -0.193803
  1073 24.6591 -1.04090 4.02233
  1074 17.6890 -1.84229 -1.24659
  1075 14.2830 -1.17967 1.52598
  1076 23.3137 -0.530945 -4.15861
  1077 25.2034 -0.197770 0.512951
  1078 8.63227 1.30707 3.68828
  1079 8.69596 1.25210 -3.62328
  1080 14.2091 -0.716297 -3.07644
  1081 20.5420 -0.634989 -0.415245
  1082 16.4431 -0.916752 0.0257957
  1083 19.4393 -1.78600 0.269315
  1084 27.4163 -0.0660437 -0.283378
  1085 14.1267 -0.572538 0.0798645
  1086 14.1203 -0.611094 -0.0891483
  1087 0.371365 0.463894 0.638043
  1088 0.382893 0.467488 -0.631617
  1089 23.4214 0.799295 -4.27568
  1090 4.87366 0.283289 -1.22977
  1091 4.88631 0.277333 1.22480
  1092 3.51194 0.0983122 -0.848962
  1093 3.51907 0.0961549 0.846273
  1094 27.4504 -1.43149 4.56418
  1095 23.4310 -1.06692 2.49380
  1096 11.0678 -0.493766 -1.77605
  1097 27.9863 -0.0850607 -0.171069
  1098 30.5824 5.71081 -2.11175
  1099 25.1935 -0.161394 -0.344671
  1100 23.2787 -2.54604 1.19994
  1101 16.9924 -1.33735 2.64862
  1102 28.2615 -0.00237315 0.0456728
  1103 13.3788 0.430445 -1.03453
  1104 19.5794 -2.09072 -0.100879
  1105 11.0842 -0.517299 1.75178
  1106 19.7732 -1.77034 -0.385717
  1107 25.0520 -0.299114 0.888814
  1108 16.8545 1.07352 1.63077
  1109 11.9366 -0.858348 -1.36563
  1110 38.5017 4.74021 -1.41817
  1111 28.2770 1.11149 3.80493
  1112 20.2849 2.57456 0.406443
  1113 27.8166 0.0336824 0.162573
  1114 10.2467 -0.613690 -1.00406
  1115 7.03427 4.11133 -6.28693
  1116 12.7725 0.286280 -4.49592
  1117 14.6634 -1.08212 0.528628
  1118 12.2689 -0.898695 1.25788
  1119 10.2180 -0.580846 1.01717
  1120 22.1900 0.140480 4.12339
  1121 16.8279 -0.486853 0.101363
  1122 27.2998 -0.175634 0.364568
  1123 -0.263698 -0.0631630 0.902374
  1124 -0.260571 -0.0606605 -0.900248
  1125 17.6933 -0.397533 -0.111449
  1126 -0.0992501 0.134505 0.859523
  1127 -0.0936578 0.137699 -0.855621
  1128 9.44288 -0.249410 0.167137
  1129 9.44483 -0.254705 -0.167500
  1130 25.3904 -0.120442 0.775365
  1131 20.2134 -1.16881 -0.617049
  1132 18.8717 -0.926353 -0.338238
  1133 21.2099 -1.43698 1.01995
  1134 6.17854 2.95498 -4.60108
  1135 20.8365 -0.694205 0.498336
  1136 2.61320 0.0762067 -0.685535
  1137 2.61987 0.0747146 0.684178
  1138 4.06411 2.54817 -3.13499
  1139 33.7676 4.03662 1.77510
  1140 1.74297 -0.0951875 0.388701
  1141 1.73714 -0.0943322 -0.389953
  1142 4.13840 2.50104 3.01319
  1143 18.9242 -1.54040 0.305904
  1144 9.08996 -0.387501 0.330227
  1145 9.09294 -0.389912 -0.338666
  1146 39.4265 8.26454 -1.78476
  1147 20.9492 -2.09322 0.504964
  1148 6.90930 3.82102 6.26874
  1149 0.541566 -0.532750 -0.328485
  1150 0.587645 -0.525938 0.384063
  1151 21.5183 2.71230 2.08593
  1152 1.40479 0.844402 -0.176058
  1153 1.41728 0.844338 0.179279
  1154 21.0977 -1.80654 -0.900750
  1155 -0.0107810 -2.08177 -0.423900
  1156 -0.0117486 -2.08252 0.425802
  1157 22.6069 -1.89885 -1.61058
  1158 -1.05602 0.0311933 0.133162
  1159 -1.06499 0.0313624 -0.133688
  1160 3.14760 1.22063 -1.09216
  1161 3.16484 1.22565 1.07910
  1162 -1.67334 0.00471036 -0.163689
  1163 -1.66329 0.00461876 0.163720
  1164 22.8379 -0.141303 -0.0771314
  1165 -2.43030 0.0659482 0.0755972
  1166 -2.42445 0.0658940 -0.0742938
  1167 11.5063 -0.879719 -0.951572
  1168 0.294105 -3.45204 -0.149822
  1169 5.28840 -0.136227 0.264938
  1170 5.28812 -0.136961 -0.269392
  1171 19.1468 -0.249482 0.00710141
  1172 19.1843 -0.239484 -0.00315785
  1173 0.314971 -3.31687 0.216685
  1174 22.7964 -1.14009 -1.52280
  1175 26.3177 -0.0954616 0.589636
  1176 23.1220 -1.46257 -2.13943
  1177 19.5818 0.126201 3.17950
  1178 0.0811649 -0.957454 0.720883
  1179 0.0909092 -0.951586 -0.710741
  1180 14.4428 -0.999164 0.381589
  1181 -1.06729 0.0806234 0.586457
  1182 -1.06540 0.0813323 -0.584871
  1183 38.8212 6.27958 0.346700
  1184 46.7666 13.2203 -9.28652
  1185 23.6672 -2.33085 1.95529
  1186 9.17317 -0.222012 -0.0117473
  1187 9.17261 -0.218282 0.0117433
  1188 50.1240 4.86178 -4.39320
  1189 2.79380 -0.0740518 0.404743
  1190 2.78946 -0.0727249 -0.407205
  1191 21.7264 -0.0715767 -1.28383
  1192 13.8325 -1.09609 1.08749
  1193 23.4186 -2.32363 -1.53002
  1194 22.6314 -1.62391 -1.75067
  1195 13.5049 -0.504793 3.23850
  1196 4.74242 0.920292 -1.60445
  1197 4.73839 0.911936 1.59322
  1198 6.41334 2.33451 -3.87418
  1199 6.41919 2.15411 3.87330
  1200 1.59675 0.548716 -0.446252
  1201 1.60718 0.546881 0.449537
  1202 27.7054 4.76723 -2.63931
  1203 1.28187 1.13963 -0.325894
  1204 1.31462 1.14025 0.335216
  1205 20.0476 -1.48265 0.594505
  1206 38.7298 4.89982 1.66271
  1207 4.07566 -0.175312 -0.260655
  1208 4.07718 -0.175157 0.256666
  1209 25.6966 15.4978 -14.5250
  1210 18.0296 1.05965 -2.52956
  1211 16.3315 1.28415 1.02440
  1212 2.10426 0.963425 -0.533388
  1213 2.11468 0.963066 0.536995
  1214 -0.354403 -0.00159823 0.0985682
  1215 -0.359244 -0.00159335 -0.0997500
  1216 22.2935 -1.77009 1.50958
  1217 21.9859 -0.801668 0.847780
  1218 14.9261 3.78850 -10.1467
  1219 34.7686 7.53851 0.132948
  1220 14.6007 -0.485756 -3.59917
  1221 19.1934 -0.486091 0.200769
  1222 0.0297793 -0.0987195 -0.0274112
  1223 0.0286864 -0.0986728 0.0272369
  1224 -0.825225 0.149441 -0.173705
  1225 -0.816821 0.148773 0.175481
  1226 12.6098 0.0987266 -3.79337
  1227 24.0061 -0.452518 0.876190
  1228 15.2700 0.177099 5.31348
  1229 20.9545 -0.959946 -0.718136
  1230 10.5854 3.54068 -7.86224
  1231 16.6335 -0.882932 -3.91119
  1232 19.9303 -2.12720 -0.0143466
  1233 24.6741 -0.349656 1.28064
  1234 21.6250 -0.345347 -0.302253
  1235 11.4523 -0.821637 0.958690
  1236 27.1835 -1.66334 -2.53136
  1237 25.3956 2.12024 4.13108
  1238 10.7865 0.0436479 -2.93340
  1239 26.0558 -0.0890183 0.126350
  1240 19.7268 2.49407 -0.578103
  1241 8.28477 -0.254976 -0.261030
  1242 8.28164 -0.251496 0.256695
  1243 39.9886 8.47501 1.30879
  1244 56.1175 1.49965 2.64294
  1245 0.0429340 -2.55596 -0.424554
  1246 0.0414209 -2.55925 0.427707
  1247 5.47324 2.76496 4.26944
  1248 13.4032 -0.308847 -0.00874857
  1249 13.4060 -0.306160 0.0141445
  1250 18.7465 -1.86968 -0.160984
  1251 22.0533 1.77093 3.58320
  1252 23.8490 -0.383875 -0.600273
  1253 28.2589 -0.0446848 -0.0140585
  1254 48.9606 10.6745 -6.54122
  1255 6.74168 -0.237382 0.251758
  1256 6.74260 -0.238168 -0.257118
  1257 22.6280 -2.10090 1.56721
  1258 40.6848 9.13110 -2.12582
  1259 21.9870 -0.884044 -0.943642
  1260 15.7432 -1.03848 -0.176547
  1261 19.5689 -2.14026 0.596898
  1262 19.1423 -0.875209 0.378676
  1263 0.631583 -0.324638 -0.628716
  1264 26.4660 -1.71367 2.90106
  1265 21.3050 -1.33838 -0.990896
  1266 0.700489 -0.288513 0.723276
  1267 21.9729 -1.89602 -3.62372
  1268 20.8410 1.01069 -8.29577
  1269 34.6815 3.99344 -1.47378
  1270 28.3888 0.0130693 -0.0115809
  1271 28.3294 -0.0137291 0.0288010
  1272 21.6973 -1.20599 1.03706
  1273 7.97326 0.951613 -2.87098
  1274 24.7782 -2.26775 2.38543
  1275 42.8278 9.62719 4.02175
  1276 10.0978 3.25773 7.64301
  1277 0.220833 -0.0869844 0.761175
  1278 0.231516 -0.0822053 -0.753863
  1279 26.2208 -2.27735 -1.70752
  1280 9.91840 -0.503546 -0.403098
  1281 9.91520 -0.504679 0.391880
  1282 24.1580 -1.63243 3.37918
  1283 0.359429 0.0151662 0.439199
  1284 0.351511 0.0156344 -0.439436
  1285 -0.148468 -0.526847 0.711124
  1286 -0.147567 -0.525745 -0.711108
  1287 3.58982 -0.124338 -0.369247
  1288 3.59258 -0.125142 0.365729
  1289 12.3276 -0.809426 -1.58199
  1290 12.3556 -0.335915 0.0338368
  1291 12.3557 -0.345650 -0.0288724
  1292 28.2370 0.0126963 -0.0154426
  1293 24.4868 -0.342720 -1.43113
  1294 1.50734 0.105703 -0.529728
  1295 1.51512 0.104363 0.529384
  1296 12.3775 -0.858671 1.56432
  1297 28.5725 -0.00652074 0.00237173
  1298 26.8419 0.0374695 -0.0284439
  1299 26.8453 0.0217859 0.0207187
  1300 34.9852 7.04869 1.11515
  1301 26.0107 -0.104884 -0.273888
  1302 22.9140 -0.127016 0.0685993
  1303 25.4119 -0.327462 -0.787164
  1304 28.0323 -0.0595521 0.124914
  1305 28.4937 2.78101 3.77576
  1306 33.1471 6.70023 1.44923
  1307 26.9720 -0.0810243 -0.398874
  1308 -0.208359 -0.0566533 0.189429
  1309 -0.209148 -0.0566053 -0.189961
  1310 14.3826 -0.844832 0.212109
  1311 14.3792 -0.803640 -0.200856
  1312 28.7595 3.09969 -3.63133
  1313 5.65107 1.92688 -3.14523
  1314 5.68733 1.87094 3.10610
  1315 18.6974 -0.00587843 -1.58849
  1316 19.9487 -0.202307 0.0245553
  1317 19.9244 -0.199516 -0.0285665
  1318 -0.505509 -0.0992415 0.728314
  1319 -0.504597 -0.0980238 -0.727952
  1320 21.8006 -0.0545438 1.28259
  1321 33.7540 6.74030 0.272463
  1322 1.60370 -0.0832056 -0.233894
  1323 1.60738 -0.0834085 0.231202
  1324 24.9919 -2.47672 1.51510
  1325 -0.0723743 0.352718 0.724067
  1326 -0.0654397 0.354873 -0.719694
  1327 3.79040 -0.0815043 -0.0645074
  1328 3.79000 -0.0797836 0.0627475
  1329 18.7051 -0.0391843 1.61148
  1330 -0.161795 0.0469715 -0.0320269
  1331 -0.161152 0.0471515 0.0311505
  1332 25.7062 -0.238211 0.534008
  1333 35.4315 6.57253 0.165122
</Section>

newXOutput 5

<Section columns = "stress_xx | stress_yy | stress_xy">
  1 38.7207 -0.0664939 0.0689444
  2 38.7924 -0.0986439 -0.0896605
  3 -0.649674 0.0398208 -0.105149
  4 -0.0228707 -0.0373060 -0.0210640
  5 73.8076 26.1786 22.9822
  6 74.9508 30.1394 -23.2496
  7 -0.0225961 -0.0370693 0.0207077
  8 -0.648028 0.0396050 0.104881
  9 39.0099 -0.0447089 -0.0640673
  10 38.6735 -0.107186 -0.0876592
  11 38.6734 -0.0776688 0.103392
  12 38.4264 -0.0200472 0.0624663
  13 38.3053 -0.0997371 0.00106981
  14 38.1708 -0.0927371 0.189922
  15 37.4875 -0.0529288 0.199358
  16 37.5741 -0.260312 0.273043
  17 36.2092 -0.206929 0.554794
  18 35.3036 -0.0720891 0.662132
  19 34.0884 -0.103396 0.705180
  20 32.0345 -0.0902888 0.957363
  21 29.8435 -0.0848361 1.09628
  22 27.1618 0.130192 1.47828
  23 23.5359 0.199179 1.32565
  24 22.1184 -0.0320796 1.88248
  25 17.6826 0.259410 1.32788
  26 15.0363 0.353850 1.03161
  27 14.3519 0.141843 0.757490
  28 13.6146 0.510648 0.0524622
  29 14.0140 0.562791 -1.01150
  30 14.8348 0.149549 -1.27278
  31 18.0925 0.0439499 -1.71260
  32 21.4251 -0.176731 -1.80325
  33 23.6672 0.164354 -1.32540
  34 27.2045 0.149604 -1.48077
  35 29.7572 -0.102598 -1.17241
  36 32.2705 -0.112376 -0.906973
  37 33.9291 -0.0682756 -0.714825
  38 35.1893 -0.0746636 -0.613800
  39 36.5223 -0.115181 -0.364900
  40 37.0907 -0.101875 -0.355215
  41 37.6341 -0.0984975 -0.307939
  42 38.1977 -0.116600 -0.0829233
  43 38.4310 -0.155694 -0.136861
  44 38.2345 0.0509764 -0.0312071
  45 38.6318 -0.0658298 -0.113649
  46 38.8515 -0.171604 0.0954339
  47 39.0665 -0.0912931 -0.00759233
  48 36.8955 0.0896477 -0.0577580
  49 34.4854 -0.0412927 -0.112721
  50 31.7970 -0.196494 -0.175306
  51 29.0487 -0.117303 -0.129480
  52 26.6825 -0.283863 -0.119993
  53 24.2090 -0.322490 -0.112804
  54 21.7354 -0.269417 -0.0661957
  55 19.1564 -0.310090 -0.0848663
  56 16.9886 -0.362267 -0.106733
  57 14.1239 -0.362602 -0.0917848
  58 11.1877 -0.211419 -0.0587824
  59 8.76768 -0.129717 -0.0492030
  60 5.78767 -0.0810482 -0.0301085
  61 3.62044 -0.0965327 -0.157457
  62 1.60216 -0.156514 -0.0573584
  63 -0.428859 0.0204054 0.0841158
  64 -0.935077 0.145322 0.0224248
  65 -1.05856 0.0607284 0.0811224
  66 -0.940809 0.0285024 0.0740911
  67 -1.29759 0.0847269 0.0154977
  68 -1.40837 0.108835 0.163379
  69 -1.39278 0.0374788 0.0359560
  70 -2.01000 0.0781432 0.0428639
  71 -2.26859 0.0572290 0.151411
  72 -2.30909 0.0225545 0.155426
  73 -2.95374 0.0756598 0.107849
  74 -3.16079 0.110161 0.236353
  75 -3.36126 0.0669863 0.0566423
  76 -3.64846 0.0476469 0.109206
  77 -3.69809 0.0519755 0.0207382
  78 -3.94648 0.117707 -0.115202
  79 -3.92175 0.0807919 -0.0882367
  80 -3.52252 0.0635379 -0.142652
  81 -2.99376 0.0779508 -0.247882
  82 -2.39824 0.0309683 -0.354610
  83 -1.76255 0.0156087 -0.361369
  84 -1.04923 -0.0404973 -0.374363
  85 -0.443612 -0.0312036 -0.213645
  86 -0.182244 -0.0772262 -0.131196
  87 -0.0331506 -0.186510 -0.111448
  88 -0.0581956 -0.476515 -0.204921
  89 -0.0651124 -0.961360 -0.367542
  90 -0.0173221 -1.81514 -0.404558
  91 0.0180759 -2.54106 -0.515593
  92 0.0475042 -3.67101 -0.424185
  93 0.146141 -4.39443 -0.506801
  94 0.0182395 -4.81948 -0.441040
  95 -0.0124159 -5.61089 -0.302401
  96 0.150061 -5.61754 -0.158894
  97 0.590755 -7.35189 0.159866
  98 0.486268 -4.52412 0.709434
  99 1.20020 -2.90175 1.71764
  100 3.74636 4.04073 6.01113
  101 17.0010 18.5106 18.4502
  102 96.8570 9.87337 14.5150
  103 79.8499 2.80015 5.20623
  104 75.7889 1.19782 1.80790
  105 73.4629 0.801199 -0.00773537
  106 74.9107 1.14328 -1.47489
  107 80.6870 2.39844 -4.33721
  108 95.8692 7.93548 -13.6173
  109 10.9411 21.0287 -15.2196
  110 2.62392 2.37196 -4.56709
  111 0.881701 -3.50982 -1.38227
  112 0.440508 -4.88594 -0.582447
  113 0.589025 -7.61195 -0.0975644
  114 0.144327 -5.73465 0.204115
  115 -0.0209852 -5.67029 0.326205
  116 0.0127008 -4.84305 0.453903
  117 0.143188 -4.40084 0.512319
  118 0.0463603 -3.66998 0.426284
  119 0.0171942 -2.53816 0.516430
  120 -0.0177507 -1.81114 0.404420
  121 -0.0651819 -0.958762 0.366864
  122 -0.0583193 -0.474211 0.204258
  123 -0.0331352 -0.185648 0.110847
  124 -0.181201 -0.0771381 0.130702
  125 -0.441784 -0.0313311 0.213125
  126 -1.04697 -0.0407910 0.374095
  127 -1.76004 0.0152981 0.361501
  128 -2.39705 0.0306352 0.355252
  129 -2.99485 0.0777273 0.249059
  130 -3.52589 0.0635336 0.143885
  131 -3.92799 0.0807479 0.0894149
  132 -3.95502 0.117739 0.116402
  133 -3.70915 0.0521253 -0.0197458
  134 -3.66131 0.0478295 -0.108530
  135 -3.37487 0.0671844 -0.0561597
  136 -3.17517 0.110387 -0.236267
  137 -2.96826 0.0758631 -0.107791
  138 -2.32301 0.0226779 -0.155614
  139 -2.28218 0.0574375 -0.151797
  140 -2.02260 0.0784433 -0.0433931
  141 -1.40327 0.0376836 -0.0368395
  142 -1.41659 0.109020 -0.164596
  143 -1.30392 0.0847595 -0.0165920
  144 -0.944348 0.0284545 -0.0751216
  145 -1.05993 0.0606089 -0.0819379
  146 -0.935079 0.145103 -0.0231449
  147 -0.427781 0.0202840 -0.0845190
  148 1.60300 -0.157086 0.0569034
  149 3.62101 -0.0980631 0.156930
  150 5.78850 -0.0838005 0.0294536
  151 8.76887 -0.133719 0.0488421
  152 11.1885 -0.216096 0.0586902
  153 14.1232 -0.366705 0.0923494
  154 16.9844 -0.364466 0.107985
  155 19.1486 -0.307946 0.0879214
  156 21.7232 -0.260685 0.0698151
  157 24.1915 -0.301392 0.107105
  158 26.6929 -0.289512 0.106316
  159 29.0558 -0.154295 0.136248
  160 31.8229 -0.189597 0.161078
  161 34.5597 -0.0208967 0.114188
  162 36.8199 0.0876449 0.0557262
  163 20.4440 -1.82144 -1.30874
  164 20.3553 -1.85396 1.30602
  165 5.79224 1.65049 -2.08798
  166 5.85078 1.65741 2.07664
  167 24.4442 -1.30835 5.90721
  168 25.6884 -1.46995 -5.73847
  169 11.2977 -0.561153 0.566823
  170 11.2984 -0.555132 -0.579002
  171 26.2097 -0.783771 0.384518
  172 25.6437 -0.786120 -0.377710
  173 34.4652 6.30835 -1.03814
  174 35.5927 0.0804766 -5.29012
  175 34.8106 0.376937 5.60100
  176 7.68930 -0.269264 -1.36557
  177 7.68750 -0.266694 1.36117
  178 30.7457 -3.06856 2.16916
  179 30.6901 -2.35786 -2.78831
  180 0.269649 0.599458 0.926960
  181 0.281844 0.603398 -0.919920
  182 41.9697 8.46716 2.00818
  183 7.66866 3.34466 -5.14420
  184 8.26169 3.38156 5.55563
  185 29.7793 -1.29941 1.42271
  186 44.8143 9.20413 -1.40281
  187 18.7673 -0.573042 -0.0609547
  188 18.7338 -0.591482 0.0584167
  189 30.7127 -0.867964 -1.27811
  190 41.3629 -0.668754 0.215738
  191 6.56552 -0.186819 0.196476
  192 6.56573 -0.188944 -0.201186
  193 2.69564 0.416731 -0.853505
  194 2.70870 0.412479 0.855167
  195 16.7042 -0.653842 -3.54376
  196 16.6374 -0.692158 3.59231
  197 20.0817 -1.22364 -0.278930
  198 20.1229 -1.21661 0.318852
  199 4.50538 -0.155589 0.692847
  200 4.50003 -0.153171 -0.695509
  201 40.9540 -1.17368 1.93263
  202 33.0606 -3.36594 -1.27746
  203 31.6858 -0.195800 -0.247404
  204 30.9139 -0.256472 0.259924
  205 30.3758 3.54347 3.85548
  206 1.16753 0.844274 -0.110107
  207 1.21471 0.840594 0.130729
  208 30.7405 -1.26732 4.50909
  209 27.7034 2.08805 -4.33116
  210 20.1695 4.11952 -12.6140
  211 21.2101 3.46945 11.7015
  212 0.227298 0.649861 0.127260
  213 0.238446 0.649459 -0.122195
  214 30.6087 -1.12609 -4.64273
  215 54.5021 7.75221 -0.451506
  216 25.4621 -2.81749 1.80203
  217 25.6704 -2.79861 -1.67901
  218 25.4565 -1.74003 -0.529516
  219 32.1364 -0.395801 0.714948
  220 14.8005 -0.976364 -1.12850
  221 14.5481 -0.971665 1.17569
  222 8.67518 0.209595 -2.14846
  223 8.68610 0.205795 2.12590
  224 32.7729 -3.57909 0.214559
  225 25.2313 -1.85723 0.423159
  226 32.0320 -0.379100 -0.589644
  227 24.5192 -0.488624 0.128153
  228 24.7507 -0.444141 -0.0785199
  229 31.2811 -1.35833 2.73143
  230 2.03500 0.0426905 -0.737576
  231 2.04449 0.0414753 0.736673
  232 -0.433977 -0.304786 -1.09120
  233 -0.436001 -0.307166 1.09218
  234 3.82703 -0.183568 -0.385317
  235 3.83078 -0.184002 0.380727
  236 12.4605 -0.310697 0.242230
  237 12.4653 -0.318100 -0.245303
  238 14.7648 0.976120 -5.35635
  239 14.7661 0.806154 5.29183
  240 31.7758 -0.938483 -2.33497
  241 14.3383 -0.814680 -2.01217
  242 14.3489 -0.840489 1.97579
  243 27.2484 0.375105 4.86532
  244 23.2536 2.02603 0.291557
  245 27.0901 -2.67867 -0.564948
  246 0.0729507 -0.801795 -1.07461
  247 0.0639910 -0.808584 1.08245
  248 1.58176 1.26684 -1.53117
  249 1.69102 1.20369 1.63001
  250 26.6171 -2.61767 0.380495
  251 49.1193 8.49618 0.392696
  252 2.22468 1.55771 -0.493027
  253 2.25361 1.55626 0.501645
  254 -1.15227 0.201892 0.802790
  255 -1.14722 0.202910 -0.799376
  256 49.4873 7.85549 -0.151012
  257 16.3939 -0.714749 -0.332031
  258 16.3796 -0.701052 0.319482
  259 33.2670 -2.32888 4.35768
  260 61.5431 9.96902 5.90304
  261 9.22021 -0.465804 -1.09349
  262 9.21584 -0.469089 1.09119
  263 33.4057 4.98154 -3.78545
  264 59.1655 11.1498 -5.20654
  265 40.7713 3.75475 4.05018
  266 45.1536 1.91790 -7.57079
  267 27.1605 -1.18000 0.731869
  268 30.5850 0.0687003 -5.55691
  269 29.3094 -2.01648 -1.73584
  270 32.9116 -0.528186 1.50782
  271 -0.379598 0.308701 -0.169266
  272 -0.368625 0.307627 0.172700
  273 32.6656 -1.41430 -7.49234
  274 3.05379 1.03156 -0.825211
  275 3.06904 1.02928 0.830417
  276 31.2418 -0.744930 -2.88092
  277 4.23786 3.85203 -5.30686
  278 2.64299 -0.00552096 -0.0845955
  279 2.64308 -0.00465444 0.0826708
  280 33.1104 -2.14578 -4.52027
  281 5.43827 2.44050 -2.69887
  282 5.51927 2.42525 2.70594
  283 0.888930 -0.0412542 0.524259
  284 0.879301 -0.0406266 -0.525233
  285 27.1268 -1.10907 -0.708447
  286 4.26362 3.80576 5.46625
  287 44.4273 2.36179 9.01432
  288 11.0596 -0.399047 -0.310722
  289 11.0555 -0.395746 0.303411
  290 21.3763 -0.773637 0.0206488
  291 21.3649 -0.849463 0.000606806
  292 18.2335 1.60431 -8.38492
  293 29.8875 -3.30715 -1.01367
  294 34.6828 -0.126255 0.327444
  295 17.5378 1.59011 8.08718
  296 20.4122 -0.432848 0.0191452
  297 20.4039 -0.432177 -0.000138427
  298 29.3511 -2.10675 1.77064
  299 34.2217 -0.289992 -0.755234
  300 -0.732900 0.131802 -0.367875
  301 -0.721100 0.130841 0.369236
  302 42.2723 8.53398 -0.616727
  303 37.4741 -1.94148 2.71118
  304 34.2066 -0.0766215 -0.101675
  305 34.8589 -0.0644387 0.0920897
  306 33.7024 -3.16406 2.30363
  307 41.6321 4.00827 -3.85761
  308 35.6324 6.67738 2.27539
  309 15.6167 -0.903435 -0.630712
  310 15.4635 -0.921460 0.648418
  311 34.6635 -0.116604 -0.241895
  312 22.0358 -1.72303 -3.91509
  313 21.6082 -1.64777 0.385244
  314 20.6077 -1.18590 4.52921
  315 33.8695 -0.335598 0.888080
  316 6.74447 -0.306330 -0.664988
  317 6.74721 -0.308733 0.660604
  318 31.0367 -1.32545 7.41033
  319 19.1363 -1.46668 -0.784001
  320 35.8036 4.48568 4.81099
  321 10.9670 0.783495 -3.33765
  322 10.5382 0.817614 3.30420
  323 2.25761 -0.0591574 -0.154919
  324 2.25981 -0.0586576 0.151836
  325 29.7533 -0.475190 0.482312
  326 28.4969 -0.265030 0.107534
  327 28.3264 -0.303409 -0.118361
  328 30.9663 -0.785952 3.04226
  329 1.76092 -0.0853829 0.374275
  330 1.75349 -0.0844838 -0.376953
  331 8.14549 -0.169312 -0.127619
  332 8.14394 -0.165537 0.125553
  333 0.254911 -1.64225 -0.694621
  334 0.235543 -1.65311 0.717643
  335 23.0931 0.981428 3.26621
  336 37.8588 -1.88097 -2.35209
  337 24.0414 -1.17703 0.384639
  338 27.4761 -0.416918 -0.310703
  339 27.8192 3.49227 -2.05058
  340 4.88396 -0.145585 -0.997762
  341 4.88911 -0.145572 0.995889
  342 23.3353 -1.10215 -0.253241
  343 6.07930 0.250613 -1.45971
  344 6.09001 0.244927 1.45306
  345 1.03153 1.01608 0.225760
  346 1.04652 1.01549 -0.219736
  347 28.6752 -3.16630 2.43115
  348 65.7573 4.37983 1.66839
  349 24.5823 0.327879 -3.88295
  350 20.9864 -1.88869 2.24595
  351 20.8786 -1.85355 -2.32631
  352 31.2102 -0.596627 5.53093
  353 27.3601 -0.227924 3.87754
  354 28.2804 -3.06249 -2.52697
  355 16.2746 -0.322200 -0.0400900
  356 16.2726 -0.327628 0.0443730
  357 31.2935 -2.05093 3.55575
  358 42.7969 8.64377 0.442303
  359 33.9855 -0.322599 -1.11708
  360 7.77432 -0.284113 -0.456258
  361 7.77568 -0.284217 0.449494
  362 31.8238 -3.18604 -3.10446
  363 32.9577 2.20773 -5.56491
  364 20.9958 1.13946 -2.08504
  365 31.4920 -2.13016 -4.01741
  366 -1.06718 0.0187729 -0.845809
  367 -1.06840 0.0176041 0.846902
  368 26.4683 -0.495511 0.254227
  369 -0.377471 -0.227230 -0.481335
  370 -0.377097 -0.227336 0.480450
  371 20.6532 9.22416 -15.4816
  372 0.678853 0.564117 0.722289
  373 0.698755 0.568963 -0.711884
  374 27.1218 -0.241256 -3.84378
  375 14.6772 -0.559101 0.245514
  376 14.6897 -0.568199 -0.250612
  377 -0.122359 -1.15323 0.959392
  378 -0.120647 -1.15113 -0.958289
  379 16.6304 9.71899 14.5256
  380 11.9221 -0.608658 -1.52683
  381 11.9298 -0.579593 1.52787
  382 3.70381 2.63141 -2.44909
  383 3.78577 2.62092 2.43140
  384 -1.75879 0.226586 0.384995
  385 -1.75198 0.226860 -0.381459
  386 31.6898 2.03727 5.52825
  387 24.3848 -2.54902 0.826076
  388 24.4109 -2.18791 0.0853264
  389 29.8649 -3.44518 0.109953
  390 6.96127 0.915639 -2.09222
  391 6.98401 0.913310 2.08729
  392 0.596984 -1.33396 -0.161582
  393 0.561259 -1.34819 0.212436
  394 29.4287 4.25263 1.37056
  395 30.6148 -0.777149 1.07242
  396 16.9124 -1.28230 1.34898
  397 10.1764 -0.230414 -1.87684
  398 10.1782 -0.232126 1.85867
  399 21.9048 -0.543167 0.0778777
  400 21.8789 -0.459361 -0.0966856
  401 16.7661 -1.32021 -1.45556
  402 12.9671 -0.202334 -2.62624
  403 12.9629 -0.220943 2.64874
  404 31.7806 -2.95497 -2.68875
  405 17.9429 -1.32986 0.746747
  406 28.9673 -0.770900 0.721146
  407 28.9263 -0.688073 -0.625979
  408 23.9389 -2.16963 -0.176585
  409 35.3913 -0.0786262 -0.343135
  410 11.3002 4.36409 -8.43001
  411 32.7680 -0.432453 1.78798
  412 35.2255 -0.115734 0.481935
  413 11.6482 -0.592126 0.851708
  414 11.6559 -0.583448 -0.850928
  415 24.2716 -2.51773 -0.870165
  416 3.12994 1.47362 0.881197
  417 3.11255 1.47302 -0.883074
  418 66.4893 4.37607 -3.43915
  419 28.2790 -1.53314 -1.10427
  420 35.7533 -0.0473828 0.198093
  421 10.6338 4.04161 7.99117
  422 52.2204 8.87243 1.45434
  423 30.6368 -0.344615 -0.392784
  424 22.3914 -1.55723 -0.106179
  425 8.99895 1.74326 -3.80009
  426 9.61188 1.62007 3.77724
  427 27.9072 -1.69781 1.12860
  428 29.2460 -0.385284 -2.88753
  429 -0.886714 -0.0202675 0.387641
  430 -0.898599 -0.0199497 -0.387716
  431 10.2621 2.42681 -5.22082
  432 10.2938 2.43678 5.20352
  433 0.882556 0.579070 -0.294746
  434 0.894728 0.577608 0.299021
  435 24.9865 -0.344118 0.109297
  436 24.9566 -0.331118 -0.100066
  437 31.2201 -1.39255 -2.84938
  438 -0.148853 -0.170110 1.22616
  439 -0.143404 -0.165540 -1.22203
  440 32.2279 -3.23765 2.43297
  441 30.5922 -0.714627 -0.963363
  442 49.5284 9.52983 -1.05654
  443 0.927039 -0.0805493 0.166023
  444 0.921463 -0.0805775 -0.168748
  445 60.5842 16.4489 6.81398
  446 1.09432 -0.287235 -1.39258
  447 3.06807 0.191084 -0.955215
  448 3.07843 0.188276 0.954153
  449 60.2618 16.7719 -6.35960
  450 1.15930 -0.155066 1.56587
  451 -1.77475 0.185556 0.182007
  452 -1.76612 0.185204 -0.178745
  453 3.00404 2.04433 -1.31236
  454 3.05910 2.04360 1.32028
  455 38.3393 5.88096 -4.13034
  456 30.9523 -1.14400 -1.91811
  457 35.5416 -0.0620443 -0.181680
  458 32.2737 -0.470854 -2.07793
  459 -0.470236 0.182231 1.13217
  460 -0.464740 0.185101 -1.12838
  461 31.2583 -1.20476 2.19188
  462 19.8468 -1.03187 -0.204438
  463 19.7816 -1.04404 0.132608
  464 27.3981 -3.03430 0.00327748
  465 19.2858 -0.337593 -5.64623
  466 29.5852 -0.463433 2.95898
  467 24.3302 -0.661719 -0.180313
  468 36.3112 -2.92400 0.197867
  469 18.6614 0.0813199 6.07909
  470 0.599093 -0.0167448 0.373166
  471 0.589544 -0.0161956 -0.374593
  472 39.2539 7.79504 -1.98213
  473 32.0430 -0.120279 0.0500794
  474 31.9263 -0.151127 -0.0811722
  475 23.5939 -1.49649 -0.159359
  476 9.58346 -0.294724 -0.238553
  477 9.58080 -0.290320 0.233959
  478 5.50159 -0.0401246 -1.18651
  479 5.50673 -0.0412115 1.18262
  480 18.6171 0.730594 1.23824
  481 4.17190 -0.143954 0.550405
  482 4.16712 -0.142417 -0.554493
  483 4.86922 0.517830 1.32958
  484 4.85308 0.525453 -1.32929
  485 30.6376 -2.36073 2.68954
  486 16.6782 -1.03046 -2.43983
  487 15.2034 -0.413081 0.0978435
  488 15.2104 -0.426312 -0.0985218
  489 16.8605 -1.06422 2.43745
  490 48.2789 11.2234 -0.254405
  491 -0.773626 -0.123781 -0.636528
  492 -0.773353 -0.124370 0.636286
  493 11.2411 -0.265552 -0.0934617
  494 11.2394 -0.260105 0.0927569
  495 0.00181225 -2.15951 -0.838958
  496 -0.00314785 -2.16627 0.845810
  497 28.0791 -0.285641 0.197888
  498 18.4757 0.912446 -0.618974
  499 25.8062 2.73544 1.82404
  500 16.6155 -0.185322 -4.41503
  501 7.57677 -0.381575 0.844216
  502 7.57803 -0.378198 -0.846775
  503 -2.53425 0.0749177 -0.0919238
  504 -2.52267 0.0744999 0.0932903
  505 32.9777 -0.713032 -5.56513
  506 1.54080 0.0243461 -0.119514
  507 1.54191 0.0247996 0.117320
  508 27.4531 -2.11128 -1.01639
  509 29.3264 -2.47227 -1.72747
  510 5.67829 4.09486 -5.51057
  511 24.5912 0.451977 -9.17852
  512 0.125132 0.679581 0.661603
  513 0.136324 0.680779 -0.655584
  514 14.4500 -0.609429 -0.406403
  515 14.4409 -0.602582 0.392450
  516 43.0093 1.35892 -1.83362
  517 30.5352 -1.76121 -2.42657
  518 5.52746 3.84360 5.42526
  519 30.2671 -3.49922 0.356221
  520 29.0402 -2.75044 1.45022
  521 5.24508 -0.122161 -0.355967
  522 5.24642 -0.121457 0.350968
  523 22.8256 0.223840 2.99784
  524 16.7562 -1.18923 -0.819021
  525 32.4262 -0.639728 1.40341
  526 -0.139295 -0.783439 -0.614425
  527 -0.139636 -0.782991 0.613688
  528 22.2768 -2.00345 2.75186
  529 34.4715 -2.75557 -3.17956
  530 45.6248 2.55441 -0.738874
  531 24.0106 -0.693039 0.207798
  532 6.22237 -0.100814 -0.109181
  533 6.22142 -0.0980619 0.107828
  534 14.8684 0.103513 4.23531
  535 43.0773 6.89009 3.16092
  536 44.8584 7.29440 -14.7816
  537 39.3237 -0.0623611 3.19136
  538 27.9706 -3.12414 -0.160826
  539 68.7101 5.46091 4.57655
  540 49.6932 11.5667 0.565211
  541 6.18651 -0.247722 0.930014
  542 6.18347 -0.245004 -0.932759
  543 26.8430 -2.17628 0.849701
  544 1.67936 0.924377 -0.225496
  545 1.69341 0.923490 0.230677
  546 34.0357 -2.92815 3.16857
  547 26.9386 1.41487 4.47088
  548 34.5524 -0.179220 0.772126
  549 25.0636 -1.41477 0.506361
  550 35.9167 -0.221471 -9.67162
  551 58.0154 13.4901 9.02128
  552 27.4174 -0.400621 -0.189026
  553 33.8011 -0.302907 -1.20485
  554 4.88840 2.07911 -1.94779
  555 4.92458 2.05349 1.93620
  556 18.7190 -0.655483 -0.111126
  557 18.7093 -0.636573 0.116751
  558 0.188469 -2.95598 -0.0804110
  559 34.2432 -1.33740 5.05465
  560 1.11122 1.05702 0.365895
  561 1.13120 1.05948 -0.356928
  562 0.224643 -2.87399 0.151906
  563 31.0132 -1.42916 -4.02025
  564 35.7807 2.10539 -5.45506
  565 35.6203 2.40063 5.44634
  566 1.56066 1.09130 0.931952
  567 1.47618 1.12720 -0.904311
  568 -1.56387 0.0386689 0.281230
  569 -1.57640 0.0390098 -0.280861
  570 33.3523 0.367017 10.0069
  571 17.5258 -0.899094 0.347179
  572 17.5451 -0.895718 -0.361272
  573 40.4553 -1.20992 -4.73494
  574 4.11665 -0.0509449 0.207817
  575 4.11619 -0.0521918 -0.211133
  576 1.22091 -0.0596958 -0.0518897
  577 1.22037 -0.0592788 0.0511268
  578 43.9723 7.64908 -2.73719
  579 3.98244 4.81630 -6.16845
  580 21.6707 0.408792 -2.52944
  581 31.6443 5.10496 -2.35996
  582 0.392726 -0.195547 0.871065
  583 0.411868 -0.189326 -0.858293
  584 33.9328 13.4982 17.5678
  585 27.8132 -0.648268 -0.468216
  586 0.522439 0.288119 -0.426934
  587 0.534174 0.286033 0.429308
  588 32.0956 -2.62655 3.61570
  589 4.73169 4.63947 6.27995
  590 22.9001 -0.345923 -0.0108505
  591 22.9058 -0.341805 0.0107431
  592 -0.0376121 -1.69116 0.845553
  593 -0.0351290 -1.68835 -0.842813
  594 39.1165 7.75083 -0.0625573
  595 24.8847 -2.09137 4.09017
  596 23.6919 -0.899497 0.220707
  597 23.9869 0.817128 9.69981
  598 -2.05892 0.0930624 0.523988
  599 -2.05681 0.0935544 -0.522114
  600 39.8465 0.208792 -3.40200
  601 54.4235 7.74581 -6.19348
  602 14.5802 1.40753 -6.26796
  603 7.40302 -0.293086 -1.15057
  604 7.40852 -0.292907 1.14994
  605 36.4925 -0.0726257 0.239833
  606 23.4389 -0.922008 -0.253803
  607 32.1034 -0.325000 0.545431
  608 31.0189 -1.42411 3.93122
  609 0.307737 -0.0466274 0.176489
  610 0.300154 -0.0464073 -0.178551
  611 17.9419 -0.526365 -0.0557263
  612 17.9386 -0.508137 0.0498596
  613 10.9662 0.263029 -2.71793
  614 10.8901 0.266026 2.70264
  615 45.9689 2.00348 1.80754
  616 76.9712 5.79648 -8.47033
  617 -1.30392 -0.0412111 0.252179
  618 -1.31640 -0.0410528 -0.252382
  619 10.0764 -0.397163 0.454221
  620 10.0777 -0.396887 -0.463413
  621 42.4911 1.87256 2.41328
  622 36.1721 -0.0533119 -0.0764233
  623 36.0845 -0.112202 0.0407736
  624 24.6230 -0.0331830 2.97896
  625 37.3638 -2.49478 -2.66959
  626 19.5906 -1.56739 0.989599
  627 -0.657321 0.423733 -0.584504
  628 -0.665662 0.423232 0.589190
  629 31.7872 0.559071 5.76944
  630 12.0592 -0.663162 -1.17768
  631 12.0445 -0.675099 1.18017
  632 26.0139 -1.41241 -0.605021
  633 32.6073 -0.632868 -1.27555
  634 17.9697 -1.40870 -1.67129
  635 29.5181 3.56207 -3.49682
  636 20.0305 -1.40498 -3.26872
  637 6.51397 -0.166537 -0.170766
  638 6.51311 -0.164014 0.167322
  639 18.1688 -1.43702 1.67380
  640 40.1040 6.28529 3.82835
  641 31.7281 -1.59942 4.94146
  642 25.9856 -1.04355 0.528137
  643 18.1496 -0.374143 0.0752674
  644 18.1449 -0.375524 -0.0715615
  645 13.3487 -0.435255 -0.305218
  646 13.3420 -0.429234 0.299961
  647 30.6843 -2.83074 -2.27980
  648 14.8951 -0.784841 0.545583
  649 14.9135 -0.781853 -0.562787
  650 29.9482 4.68876 -0.475207
  651 28.3370 -1.40001 1.09952
  652 36.2263 -0.120695 -0.357015
  653 29.7359 -0.599860 -5.03493
  654 3.56008 -0.166966 0.743673
  655 3.55355 -0.165692 -0.745169
  656 35.1469 -0.144938 -0.696561
  657 5.79127 2.93736 -3.78621
  658 5.89341 2.92809 3.80519
  659 35.7052 -2.45890 3.97500
  660 11.7073 2.83410 6.59780
  661 2.25155 0.00107341 0.747298
  662 2.24315 0.00170821 -0.748442
  663 30.1793 -2.15852 5.38783
  664 29.9902 3.50872 -13.4144
  665 28.1984 0.824242 -4.97957
  666 37.7860 6.78889 3.20797
  667 25.5075 -1.01784 -0.412481
  668 46.2297 8.49016 -0.204462
  669 -2.54667 0.104403 -0.0230969
  670 -2.53672 0.104092 0.0251351
  671 20.1538 -0.0247475 -6.69552
  672 0.305026 -0.0255025 0.143684
  673 0.300721 -0.0255855 -0.145729
  674 25.5238 -2.24830 -4.03383
  675 7.97825 1.13729 -2.59994
  676 7.90934 1.14014 2.59745
  677 -0.164178 0.413180 -0.00157364
  678 -0.153401 0.412465 0.00594880
  679 21.4466 -1.81179 -0.633280
  680 30.6418 -0.298234 -1.95393
  681 14.0105 -0.363295 -0.118373
  682 14.0101 -0.357858 0.119664
  683 9.87972 -0.482075 -0.719166
  684 9.88621 -0.489395 0.715029
  685 1.78029 1.46858 -0.254393
  686 1.81282 1.47088 0.264650
  687 32.0868 -0.261274 0.311089
  688 13.4117 -0.813540 0.946643
  689 13.5064 -0.797644 -0.944971
  690 35.3239 -3.00923 -1.05693
  691 28.8324 -2.89358 -1.13982
  692 22.4279 -0.501256 0.105109
  693 22.3430 -0.456506 -0.0917246
  694 31.9543 -3.51531 1.18371
  695 52.3497 10.4746 2.23434
  696 27.9869 -1.46581 -6.83700
  697 32.1192 -0.849827 2.14384
  698 31.6122 -1.24710 -5.26158
  699 9.03324 -0.251557 -0.315418
  700 9.03125 -0.249005 0.309308
  701 24.7598 -0.629979 7.72700
  702 72.3098 9.11774 8.37209
  703 4.33191 1.33552 -1.37135
  704 4.33754 1.34408 1.37604
  705 32.0212 -0.183002 -0.163120
  706 32.2911 -0.155942 0.165037
  707 13.1476 6.10788 -10.9865
  708 33.7711 -0.141163 1.18999
  709 29.1635 -0.361155 0.295726
  710 37.8374 7.59806 -1.22458
  711 3.40938 0.688581 -0.951232
  712 3.42484 0.684045 0.954897
  713 36.9619 -0.0429226 0.0552735
  714 29.2227 -1.01760 -1.03778
  715 36.5287 -0.748531 4.57093
  716 14.2969 -0.975762 -1.59144
  717 14.3332 -0.930700 1.57181
  718 2.50318 -0.101486 0.563646
  719 2.49597 -0.100061 -0.566084
  720 33.5657 -0.117709 -0.266658
  721 28.7703 4.91196 14.3083
  722 0.116819 0.0939571 1.08789
  723 0.127136 0.0996397 -1.08088
  724 33.5325 -0.266044 -0.629917
  725 32.4485 -0.493928 0.887288
  726 24.4901 -0.0100292 -3.19504
  727 0.212791 -3.19358 -0.503743
  728 0.197281 -3.22189 0.532279
  729 11.2514 2.91056 -6.59112
  730 25.4517 -2.61808 -2.77543
  731 13.0076 6.06643 11.1116
  732 36.3857 -0.0328968 0.156658
  733 33.8353 5.04198 3.81375
  734 23.8570 2.19571 -1.26512
  735 45.0145 9.10431 -0.432348
  736 35.7323 -0.0998908 0.470817
  737 -2.59406 0.0539349 0.192038
  738 -2.60666 0.0542319 -0.191253
  739 37.7985 -2.44666 0.309547
  740 23.9749 -0.554056 0.128891
  741 8.17197 0.0463596 -1.78977
  742 8.18140 0.0377290 1.77624
  743 32.5519 -0.268360 -0.410961
  744 57.9270 8.24802 -2.75522
  745 2.84644 -0.0946120 -0.328192
  746 2.85186 -0.0952279 0.324538
  747 36.6367 -0.0482210 -0.229442
  748 6.21739 -0.279002 -0.462072
  749 6.21974 -0.280002 0.456723
  750 35.1094 -1.55323 -4.64646
  751 32.3218 -0.318317 1.60390
  752 28.4343 -0.243418 4.94372
  753 36.7858 -0.0506321 -0.0248553
  754 33.9934 -0.159868 0.494608
  755 21.5194 -1.05950 0.0576203
  756 27.4442 -0.584051 0.384312
  757 31.1324 -1.91435 -3.44771
  758 30.4154 -1.87162 2.36333
  759 35.3946 4.16290 -4.84324
  760 30.0212 -1.61719 1.81935
  761 31.5917 -1.90788 4.33090
  762 17.8546 -1.14282 0.522238
  763 0.582072 -0.502940 -0.294707
  764 0.547490 -0.504225 0.327182
  765 27.8640 -0.267947 0.0280658
  766 27.8025 -0.264715 -0.0388411
  767 33.9510 -0.0470719 -0.0353375
  768 34.0779 -0.0393062 0.0439469
  769 31.7093 -0.859822 2.57472
  770 29.3160 -2.84140 3.75828
  771 23.7792 -1.86939 -0.0231029
  772 20.9742 -1.15826 0.104447
  773 59.2083 7.64252 3.29026
  774 32.2400 -0.750399 -1.73280
  775 18.5499 2.96946 -10.3648
  776 29.8461 -1.39349 -1.59457
  777 0.580285 0.0359614 -0.504280
  778 0.591400 0.0348779 0.504571
  779 25.6323 2.25269 -2.84254
  780 70.5790 2.15715 -0.940993
  781 33.3370 0.734947 -5.70975
  782 1.24142 -0.352048 -2.22981
  783 33.9166 6.19030 0.987710
  784 26.8285 -1.62017 0.785188
  785 29.8951 -0.796778 4.89668
  786 25.3114 -2.73253 2.79227
  787 41.6205 -0.863109 6.02449
  788 1.33832 -0.0402487 2.40244
  789 18.0306 -0.165400 5.11952
  790 25.6661 -0.519760 -0.222541
  791 28.7045 -2.71815 -3.81007
  792 17.0927 -1.29256 -1.08694
  793 13.4327 0.618848 -4.40786
  794 33.1216 -0.627532 5.60150
  795 20.9385 -1.35398 0.302666
  796 3.05797 -0.0998493 0.309264
  797 3.05476 -0.100033 -0.313267
  798 30.7396 -0.157764 1.73556
  799 27.4157 0.0882523 -4.77596
  800 -2.56492 0.106844 0.346430
  801 -2.56121 0.107009 -0.344430
  802 20.3506 -0.518385 0.0592623
  803 20.2864 -0.482226 -0.0653174
  804 14.9765 1.58808 6.37027
  805 13.0442 -0.720478 0.676975
  806 13.0657 -0.701082 -0.687266
  807 36.6457 -0.0213222 -0.137886
  808 12.0311 0.938912 4.27986
  809 -0.575041 -0.0101133 0.197380
  810 -0.585244 -0.00984271 -0.198659
  811 30.3549 -0.954128 3.82326
  812 33.2539 -0.177601 0.219917
  813 -1.77157 0.0128528 0.501860
  814 -1.77163 0.0133762 -0.500897
  815 19.7635 -1.27960 3.72051
  816 3.60279 2.82892 -3.11890
  817 3.64908 2.67712 3.06494
  818 17.4815 0.800711 0.514814
  819 -1.19046 -0.0114985 -0.229597
  820 -1.17827 -0.0116838 0.229093
  821 22.8733 -2.20962 -2.60330
  822 31.6624 -3.38703 -1.61864
  823 -0.153570 -0.146420 -0.190583
  824 -0.153153 -0.146110 0.189916
  825 0.463905 0.0605719 -0.0409887
  826 0.464013 0.0609001 0.0398259
  827 28.0197 -2.46104 1.14676
  828 23.3832 -2.41167 1.68055
  829 26.1735 -0.293465 0.159926
  830 23.3137 -1.82025 -0.0723459
  831 7.68973 -0.0961370 -0.0241404
  832 7.68853 -0.0924989 0.0232708
  833 -2.94266 0.0610301 0.223224
  834 -2.93685 0.0609392 -0.221295
  835 29.8491 -0.249488 -0.218590
  836 25.2489 0.954620 -4.03319
  837 30.1423 -0.473622 -0.575853
  838 17.1270 -1.26497 1.02303
  839 29.1847 -0.535113 -3.99043
  840 31.6770 -0.936239 -2.66245
  841 29.9809 -0.194569 0.198950
  842 21.3931 -0.907571 5.26256
  843 22.8671 -2.21149 -0.782932
  844 13.4367 -0.0966741 -3.29817
  845 13.5139 -0.00289671 3.31536
  846 19.2976 -1.38376 -0.567619
  847 32.3105 3.43484 4.87317
  848 31.2172 -3.38317 -1.82031
  849 10.3578 -0.288275 -0.145595
  850 10.3550 -0.282728 0.143042
  851 23.5717 -0.395301 -0.0672371
  852 23.5717 -0.399893 0.0742639
  853 27.6939 -0.225349 -2.59200
  854 8.71822 -0.349709 -0.576480
  855 8.72136 -0.352549 0.569328
  856 0.102111 -3.10286 -0.655343
  857 0.0960630 -3.11569 0.667311
  858 3.71017 -0.0526480 -0.0420204
  859 3.71071 -0.0541776 0.0409806
  860 29.5839 -0.329605 -0.309314
  861 21.9659 -2.08727 1.49520
  862 34.8567 -3.13971 1.75661
  863 18.8668 0.404513 1.97522
  864 30.2388 -0.593951 0.651091
  865 32.8657 -3.02944 -2.96210
  866 4.14473 0.312299 -1.14180
  867 4.15687 0.307342 1.14006
  868 26.0334 -0.325666 -0.147515
  869 20.6115 -0.601250 0.000840467
  870 20.5342 -0.594279 0.0173777
  871 31.7521 4.97617 2.65455
  872 10.6796 -0.0793342 -2.20763
  873 10.6665 -0.0923761 2.19499
  874 22.1747 -1.96392 0.559344
  875 1.87655 1.31081 -0.201878
  876 1.89682 1.30766 0.207074
  877 18.6123 -1.33682 2.95749
  878 22.5168 -1.35064 0.0817238
  879 27.8801 -0.232937 2.61979
  880 27.9543 -3.18813 0.571408
  881 32.1299 -2.49665 -3.86064
  882 21.9126 -2.10478 -1.52351
  883 17.9931 -1.13691 -0.493115
  884 62.1947 5.18263 -0.930367
  885 29.3337 -3.12791 0.978374
  886 0.630382 0.870466 0.561227
  887 0.644979 0.871815 -0.553891
  888 25.3217 -2.51547 0.0777292
  889 27.9218 -3.20743 -1.36915
  890 0.620327 0.791747 0.250319
  891 0.632904 0.791668 -0.244866
  892 9.88839 -0.324034 1.62256
  893 9.89728 -0.335591 -1.63526
  894 12.1586 -0.590469 1.78980
  895 12.1562 -0.606208 -1.80601
  896 40.1851 8.09720 1.64171
  897 -0.0662708 -1.24669 -0.602620
  898 -0.0667079 -1.24548 0.602328
  899 8.73626 0.775559 -2.46579
  900 8.68898 0.759060 2.43628
  901 73.1487 2.38316 -3.74935
  902 0.136200 -0.000996199 0.0748916
  903 0.133846 -0.00123917 -0.0764894
  904 0.102981 -3.74210 0.338909
  905 0.122504 -3.68635 -0.291603
  906 -1.33528 -0.0221278 0.501977
  907 -1.33649 -0.0217358 -0.501760
  908 6.96058 2.07091 -2.93406
  909 7.07019 2.00292 2.88603
  910 -0.644947 -0.00841330 -1.09130
  911 -0.647822 -0.0105804 1.09317
  912 1.56684 0.203581 -0.707448
  913 1.57838 0.201117 0.708027
  914 7.44573 -0.0549549 1.48121
  915 7.44226 -0.0547191 -1.49141
  916 5.89404 -0.186156 -1.18335
  917 5.89868 -0.185571 1.18014
  918 35.2216 -0.0994378 -0.672130
  919 16.6196 3.31273 9.57968
  920 23.1064 -2.25607 0.703224
  921 16.0498 -1.10109 0.781457
  922 31.5298 3.19302 -4.78496
  923 71.9092 1.57239 1.47811
  924 38.1760 1.49443 -4.86739
  925 5.43043 -0.207017 0.716866
  926 5.42636 -0.204413 -0.720919
  927 0.379051 -0.0253747 -0.531859
  928 0.389512 -0.0257184 0.531351
  929 -0.0679233 -0.676412 -1.20583
  930 -0.0728205 -0.681091 1.20965
  931 16.5982 -0.646941 0.281866
  932 16.6083 -0.662234 -0.284793
  933 1.60460 0.554254 -0.576280
  934 1.61738 0.551618 0.579799
  935 9.77790 -0.409703 -1.35028
  936 9.78305 -0.409353 1.34834
  937 21.3775 -0.134662 -2.33556
  938 10.0532 -0.523880 -0.888326
  939 10.0434 -0.516955 0.891519
  940 26.2009 -0.592184 -0.276723
  941 31.6692 -1.86573 -4.62209
  942 13.1553 -0.474073 0.340792
  943 13.1635 -0.479644 -0.348368
  944 -0.561285 -0.0640315 -0.342046
  945 -0.559891 -0.0641821 0.341397
  946 32.5984 -2.75502 -4.76091
  947 30.9794 -1.79385 3.04018
  948 27.0833 -1.81696 -0.937966
  949 25.6237 0.830811 4.25763
  950 11.3472 -0.607076 -1.00985
  951 11.3448 -0.593781 1.01355
  952 29.0276 1.04637 5.20841
  953 26.7632 2.32219 3.41851
  954 57.6146 7.03164 1.16678
  955 28.9909 -0.922940 0.816019
  956 14.5382 -0.350011 -0.148114
  957 14.5352 -0.340593 0.150119
  958 25.7246 -2.04764 -0.500587
  959 35.3954 6.53997 -2.37323
  960 32.0945 -0.221358 -0.310622
  961 20.4064 -0.364614 0.0450002
  962 20.3975 -0.360831 -0.0387367
  963 2.39098 1.94426 -1.17452
  964 2.45589 1.93824 1.18549
  965 4.97967 10.5805 -10.7200
  966 29.2665 -0.724818 3.97523
  967 37.1855 -0.923111 -4.16868
  968 -0.888233 0.344046 0.340023
  969 -0.879206 0.343852 -0.335687
  970 78.8916 17.9279 -14.5357
  971 31.7313 -3.52718 0.924877
  972 33.9876 -3.30994 -0.763375
  973 31.1614 -2.68627 2.87427
  974 38.1634 7.61218 1.07546
  975 2.56613 2.27634 -2.87828
  976 6.95976 8.96228 10.3794
  977 -0.229979 -0.493547 1.18165
  978 -0.226936 -0.490113 -1.17963
  979 30.5107 -0.661046 0.789180
  980 49.0120 8.80262 -0.812185
  981 2.64488 2.20921 3.01310
  982 -0.137701 -0.438187 -0.380295
  983 -0.137751 -0.437087 0.379407
  984 25.9493 -0.454280 0.161028
  985 18.9555 -1.46907 -1.12301
  986 31.3921 -2.50223 -3.31823
  987 8.45315 2.26306 -3.99513
  988 8.59210 2.30208 4.00594
  989 30.2252 -0.758296 -3.58046
  990 30.8788 -0.879304 1.32965
  991 -0.910656 0.173241 0.986228
  992 -0.906658 0.175120 -0.983352
  993 18.0933 -1.19689 -2.75893
  994 30.2187 1.86148 -5.27211
  995 22.5924 -0.714799 -0.106062
  996 15.8238 -0.354904 0.00586454
  997 15.8213 -0.358338 -0.00394185
  998 -0.362283 -0.409387 -0.813026
  999 -0.362820 -0.410252 0.812533
  1000 31.2937 -1.02894 -1.58986
  1001 29.9287 -0.185401 0.0652646
  1002 29.9004 -0.185539 -0.0520385
  1003 41.1117 6.49095 -3.63944
  1004 6.82692 0.640664 -1.88832
  1005 6.84332 0.627874 1.88216
  1006 4.00853 -0.0172815 -0.963846
  1007 4.01535 -0.0181404 0.961561
  1008 33.5280 1.66998 5.77519
  1009 32.2525 -0.500037 -0.930951
  1010 5.12164 0.869860 -1.48227
  1011 5.14218 0.862978 1.48785
  1012 33.9643 -0.0733642 -0.180053
  1013 31.1770 -1.28728 -2.32037
  1014 30.4324 -3.52629 -0.767866
  1015 1.00195 0.755548 -0.288450
  1016 0.970492 0.752084 0.302393
  1017 -1.61408 0.224339 0.627182
  1018 -1.60896 0.224886 -0.623878
  1019 16.7979 0.670495 -0.861089
  1020 53.4251 12.8109 -2.75035
  1021 23.7540 -1.64893 0.213461
  1022 15.3677 -0.666579 -2.85768
  1023 39.0121 -1.85124 1.06233
  1024 15.4291 -0.667601 2.90145
  1025 27.5211 -3.26815 1.68925
  1026 31.2379 -1.27875 -3.34042
  1027 9.84640 -0.183069 -0.0469652
  1028 9.84518 -0.178395 0.0464178
  1029 20.9888 -1.57623 -0.422077
  1030 12.5119 -0.442853 -2.16223
  1031 12.5044 -0.446161 2.14772
  1032 3.99944 2.57982 -2.30728
  1033 4.06598 2.56964 2.31373
  1034 8.09014 -0.235908 -0.173466
  1035 8.08847 -0.232157 0.169837
  1036 27.8780 -0.749247 0.518703
  1037 23.3349 -0.0688888 -7.84330
  1038 28.9394 -0.816349 -0.800579
  1039 25.8980 -2.87878 -0.842320
  1040 16.5480 -0.610174 0.169469
  1041 16.5635 -0.615843 -0.170902
  1042 34.4342 -0.113255 0.226325
  1043 30.4026 -0.596763 -0.742605
  1044 17.9019 0.429409 1.62032
  1045 32.3635 -0.310099 -1.48894
  1046 12.1211 3.38559 7.53096
  1047 33.5011 -0.286389 -1.23823
  1048 8.20153 1.40706 -2.93108
  1049 7.93859 1.42462 2.79651
  1050 40.3566 -1.04751 -1.28916
  1051 3.23439 1.75603 -1.06682
  1052 3.26579 1.74246 1.06539
  1053 0.514947 -0.300387 0.576434
  1054 0.544948 -0.295650 -0.556790
  1055 4.11082 -0.112787 0.221315
  1056 4.10922 -0.113765 -0.225501
  1057 13.8747 3.43505 -8.41770
  1058 81.7982 20.0787 15.6255
  1059 31.1709 -1.03016 1.63131
  1060 27.7721 -3.15448 -0.468216
  1061 18.9228 -1.54734 -2.04410
  1062 -0.545538 0.376104 0.916272
  1063 -0.538434 0.378142 -0.911587
  1064 21.4965 -0.997212 -0.0790615
  1065 23.8900 -0.752353 -0.218336
  1066 -0.0170133 -1.77402 0.588117
  1067 -0.0164099 -1.77535 -0.587843
  1068 3.28182 2.07526 -1.31698
  1069 3.32318 2.07024 1.32567
  1070 21.1892 -0.904034 0.0809861
  1071 1.31027 0.758084 0.269091
  1072 1.29735 0.759400 -0.264266
  1073 32.8549 -1.38507 5.34271
  1074 23.5734 -2.45484 -1.67189
  1075 19.0397 -1.57278 2.04340
  1076 31.0680 -0.705821 -5.52593
  1077 33.5667 -0.265849 0.679041
  1078 11.5123 1.74383 4.92580
  1079 11.5972 1.67046 -4.83911
  1080 18.9404 -0.953939 -4.10964
  1081 27.3682 -0.849237 -0.546702
  1082 21.9153 -1.22419 0.0423956
  1083 25.9031 -2.38083 0.347988
  1084 36.5082 -0.0889213 -0.375346
  1085 18.8326 -0.765835 0.112415
  1086 18.8241 -0.817191 -0.124745
  1087 0.498318 0.621366 0.845272
  1088 0.513694 0.626176 -0.836693
  1089 31.2141 1.06695 -5.68218
  1090 6.50715 0.376999 -1.64702
  1091 6.52407 0.369061 1.64043
  1092 4.69398 0.130306 -1.13824
  1093 4.70353 0.127428 1.13468
  1094 36.5605 -1.89652 6.09412
  1095 31.2181 -1.42195 3.31110
  1096 14.7587 -0.658899 -2.37625
  1097 37.2630 -0.114063 -0.226540
  1098 40.7463 7.61067 -2.79599
  1099 33.5522 -0.217459 -0.455722
  1100 31.0131 -3.39093 1.58480
  1101 22.6459 -1.78088 3.53992
  1102 37.6263 -0.00418839 0.0601255
  1103 17.8619 0.574120 -1.37631
  1104 26.0897 -2.78603 -0.145907
  1105 14.7806 -0.690267 2.34396
  1106 26.3475 -2.35997 -0.502992
  1107 33.3688 -0.400260 1.17851
  1108 22.4852 1.43172 2.16890
  1109 15.9161 -1.14514 -1.82900
  1110 51.2613 6.33476 -1.91639
  1111 37.6697 1.48564 5.04908
  1112 27.0497 3.43184 0.540352
  1113 37.0387 0.0439088 0.214995
  1114 13.6666 -0.819407 -1.34635
  1115 9.38084 5.49056 -8.39098
  1116 17.0266 0.383475 -6.00142
  1117 19.5469 -1.44397 0.713121
  1118 16.3586 -1.19892 1.68555
  1119 13.6284 -0.775651 1.36382
  1120 29.5758 0.188677 5.48086
  1121 22.4268 -0.652206 0.130339
  1122 36.3546 -0.234733 0.483339
  1123 -0.349750 -0.0827209 1.20060
  1124 -0.345580 -0.0793787 -1.19777
  1125 23.5780 -0.533393 -0.144549
  1126 -0.129726 0.181318 1.14230
  1127 -0.122267 0.185587 -1.13709
  1128 12.5993 -0.334553 0.224481
  1129 12.6019 -0.341599 -0.224962
  1130 33.8227 -0.160956 1.02940
  1131 26.9325 -1.55959 -0.812945
  1132 25.1469 -1.23711 -0.442682
  1133 28.2592 -1.91615 1.34837
  1134 8.24141 3.94545 -6.14379
  1135 27.7603 -0.927991 0.656995
  1136 3.49713 0.100927 -0.919550
  1137 3.50609 0.0989365 0.917766
  1138 5.42335 3.40285 -4.18967
  1139 44.9733 5.38846 2.34000
  1140 2.34219 -0.127337 0.521858
  1141 2.33435 -0.126196 -0.523513
  1142 5.52247 3.34018 4.02741
  1143 25.2175 -2.05411 0.397363
  1144 12.1286 -0.518399 0.444996
  1145 12.1325 -0.521599 -0.456225
  1146 52.5119 11.0100 -2.39192
  1147 27.9127 -2.78925 0.660757
  1148 9.21481 5.10376 8.36686
  1149 0.723839 -0.697534 -0.445026
  1150 0.785296 -0.688405 0.519110
  1151 28.6892 3.61545 2.77228
  1152 1.87957 1.12668 -0.241487
  1153 1.89625 1.12660 0.245803
  1154 28.1102 -2.40797 -1.18863
  1155 -0.0143339 -2.77268 -0.564196
  1156 -0.0156229 -2.77367 0.566728
  1157 30.1191 -2.53022 -2.13309
  1158 -1.38487 0.0414284 0.178629
  1159 -1.39690 0.0416539 -0.179326
  1160 4.20344 1.62838 -1.46442
  1161 4.22647 1.63508 1.44705
  1162 -2.21326 0.00620114 -0.219543
  1163 -2.19982 0.00607927 0.219590
  1164 30.4188 -0.191833 -0.101249
  1165 -3.23239 0.0878719 0.0994667
  1166 -3.22457 0.0878003 -0.0977242
  1167 15.3437 -1.17393 -1.27669
  1168 0.392526 -4.58353 -0.204428
  1169 7.06800 -0.182683 0.356373
  1170 7.06757 -0.183657 -0.362298
  1171 25.5108 -0.336376 0.0101617
  1172 25.5608 -0.323069 -0.00491434
  1173 0.420419 -4.40331 0.293608
  1174 30.3703 -1.52051 -2.01851
  1175 35.0522 -0.127996 0.782266
  1176 30.8053 -1.94925 -2.83829
  1177 26.1085 0.168745 4.22761
  1178 0.108952 -1.27142 0.957400
  1179 0.121942 -1.26358 -0.943878
  1180 19.2533 -1.33368 0.516707
  1181 -1.42024 0.107792 0.780195
  1182 -1.41773 0.108739 -0.778079
  1183 51.7084 8.36038 0.464079
  1184 62.2442 17.6409 -12.3942
  1185 31.5309 -3.10445 2.59067
  1186 12.2404 -0.297961 -0.0162913
  1187 12.2397 -0.293000 0.0162872
  1188 66.7244 6.47175 -5.85164
  1189 3.74330 -0.0992447 0.543363
  1190 3.73745 -0.0974748 -0.546630
  1191 28.9581 -0.0953885 -1.70627
  1192 18.4404 -1.46198 1.45860
  1193 31.1994 -3.09488 -2.02445
  1194 30.1518 -2.16429 -2.32035
  1195 18.0028 -0.671989 4.32566
  1196 6.33027 1.22710 -2.14746
  1197 6.32494 1.21596 2.13252
  1198 8.55514 3.11549 -5.17439
  1199 8.56304 2.87495 5.17325
  1200 2.13786 0.731470 -0.601247
  1201 2.15180 0.729029 0.605652
  1202 36.9188 6.35341 -3.50136
  1203 1.71293 1.52409 -0.442628
  1204 1.75661 1.52495 0.455081
  1205 26.7124 -1.97729 0.782039
  1206 51.5635 6.54845 2.24325
  1207 5.45282 -0.234458 -0.350625
  1208 5.45492 -0.234254 0.345322
  1209 34.1954 20.7016 -19.3599
  1210 24.0475 1.41347 -3.36386
  1211 21.7901 1.71213 1.36253
  1212 2.81290 1.28506 -0.718402
  1213 2.82682 1.28459 0.723236
  1214 -0.445530 -0.00224779 0.132184
  1215 -0.452077 -0.00224111 -0.133756
  1216 29.7020 -2.35904 1.99915
  1217 29.2901 -1.07063 1.12144
  1218 19.8902 5.06250 -13.5311
  1219 46.3169 10.0438 0.160378
  1220 19.4614 -0.646112 -4.80628
  1221 25.5738 -0.651233 0.262156
  1222 0.0698509 -0.131459 -0.0365798
  1223 0.0685040 -0.131396 0.0363476
  1224 -1.08910 0.199139 -0.234937
  1225 -1.07787 0.198249 0.237318
  1226 16.8104 0.132854 -5.06525
  1227 31.9767 -0.605237 1.16078
  1228 20.3514 0.239329 7.09055
  1229 27.9182 -1.28152 -0.948174
  1230 14.1113 4.72745 -10.4886
  1231 22.1674 -1.17438 -5.22209
  1232 26.5567 -2.83453 -0.00751581
  1233 32.8687 -0.467109 1.69968
  1234 28.8075 -0.463671 -0.398157
  1235 15.2718 -1.09656 1.28618
  1236 36.2103 -2.21170 -3.35450
  1237 33.8416 2.82771 5.48756
  1238 14.3828 0.0584215 -3.91913
  1239 34.6957 -0.120994 0.166904
  1240 26.3072 3.32451 -0.768623
  1241 11.0574 -0.341625 -0.351075
  1242 11.0533 -0.336996 0.345309
  1243 53.2473 11.3090 1.77401
  1244 74.6750 1.99517 3.51585
  1245 0.0573495 -3.40382 -0.564966
  1246 0.0553324 -3.40819 0.569166
  1247 7.30157 3.69281 5.70213
  1248 17.8700 -0.414747 -0.0137680
  1249 17.8737 -0.411175 0.0209499
  1250 24.9811 -2.49208 -0.225393
  1251 29.3977 2.36161 4.76256
  1252 31.7663 -0.514169 -0.794251
  1253 37.6218 -0.0604968 -0.0190473
  1254 65.1839 14.2181 -8.71981
  1255 9.00270 -0.317717 0.339383
  1256 9.00387 -0.318758 -0.346512
  1257 30.1473 -2.79913 2.07501
  1258 54.1737 12.1843 -2.86171
  1259 29.2919 -1.18028 -1.24855
  1260 20.9839 -1.38611 -0.243694
  1261 26.0756 -2.85153 0.806844
  1262 25.5068 -1.16899 0.496639
  1263 0.843976 -0.417246 -0.846065
  1264 35.2561 -2.27977 3.84742
  1265 28.3855 -1.78502 -1.31005
  1266 0.935922 -0.369075 0.972121
  1267 29.2735 -2.52162 -4.83991
  1268 27.7639 1.35539 -11.0626
  1269 46.1881 5.33172 -1.93759
  1270 37.7940 0.0162948 -0.0153325
  1271 37.7153 -0.0193655 0.0382345
  1272 28.9073 -1.60875 1.37195
  1273 10.6350 1.26923 -3.83632
  1274 33.0099 -3.01931 3.16245
  1275 57.0341 12.8259 5.37189
  1276 13.4630 4.35026 10.1967
  1277 0.296357 -0.112038 1.01019
  1278 0.310601 -0.105650 -1.00043
  1279 34.9258 -3.02841 -2.28916
  1280 13.2311 -0.673112 -0.542832
  1281 13.2269 -0.674634 0.527904
  1282 32.1864 -2.17385 4.48689
  1283 0.495085 0.0199044 0.589008
  1284 0.484478 0.0205287 -0.589309
  1285 -0.197321 -0.701268 0.947090
  1286 -0.196121 -0.699799 -0.947072
  1287 4.80492 -0.166493 -0.495718
  1288 4.80867 -0.167568 0.491044
  1289 16.4364 -1.07968 -2.11763
  1290 16.4758 -0.450530 0.0475500
  1291 16.4760 -0.463484 -0.0409396
  1292 37.5935 0.0158367 -0.0199399
  1293 32.6204 -0.457674 -1.89970
  1294 2.02301 0.140320 -0.711282
  1295 2.03342 0.138533 0.710845
  1296 16.5030 -1.14529 2.09417
  1297 38.0382 -0.00943662 0.00342410
  1298 35.7395 0.0478012 -0.0379223
  1299 35.7438 0.0269033 0.0276650
  1300 46.5982 9.39862 1.46100
  1301 34.6376 -0.142046 -0.362137
  1302 30.5199 -0.172809 0.0898971
  1303 33.8461 -0.438030 -1.04368
  1304 37.3230 -0.0802996 0.165203
  1305 37.9612 3.70962 5.01021
  1306 44.1567 8.93130 1.90957
  1307 35.9201 -0.108747 -0.528934
  1308 -0.277888 -0.0754455 0.252567
  1309 -0.278941 -0.0753818 -0.253279
  1310 19.1731 -1.12837 0.289860
  1311 19.1687 -1.07349 -0.274815
  1312 38.3151 4.13425 -4.81747
  1313 7.53948 2.57152 -4.20267
  1314 7.58788 2.49696 4.15057
  1315 24.9332 -0.00763899 -2.11215
  1316 26.5774 -0.273555 0.0313458
  1317 26.5450 -0.269842 -0.0366946
  1318 -0.672717 -0.131621 0.969848
  1319 -0.671502 -0.129996 -0.969368
  1320 29.0566 -0.0727734 1.70459
  1321 44.9689 8.97854 0.351175
  1322 2.16100 -0.111158 -0.313954
  1323 2.16600 -0.111429 0.310375
  1324 33.2930 -3.29718 2.00318
  1325 -0.0929271 0.471762 0.961100
  1326 -0.0836750 0.474645 -0.955261
  1327 5.07512 -0.109421 -0.0871122
  1328 5.07466 -0.107132 0.0847714
  1329 24.9434 -0.0519239 2.14276
  1330 -0.186205 0.0623950 -0.0431454
  1331 -0.185241 0.0626341 0.0419793
  1332 34.2354 -0.319241 0.707314
  1333 47.2012 8.75166 0.225633
</Section>

newXOutput 6

<Section columns = "stress_xx | stress_yy | stress_xy">
  1 48.3243 -0.0840363 0.0860993
  2 48.4135 -0.124073 -0.111968
  3 -0.772772 0.0495687 -0.131099
  4 -0.0286758 -0.0466905 -0.0264617
  5 92.0325 32.7396 28.6937
  6 93.4579 37.6893 -29.0273
  7 -0.0283322 -0.0463943 0.0260158
  8 -0.770857 0.0492998 0.130765
  9 48.6845 -0.0566091 -0.0799634
  10 48.2662 -0.134561 -0.109557
  11 48.2669 -0.0977239 0.128505
  12 47.9604 -0.0260633 0.0772033
  13 47.8106 -0.125233 0.000575484
  14 47.6449 -0.116556 0.235913
  15 46.7960 -0.0669829 0.247214
  16 46.9060 -0.325273 0.339268
  17 45.2081 -0.258837 0.690182
  18 44.0825 -0.0907787 0.823848
  19 42.5711 -0.129619 0.877659
  20 40.0153 -0.113235 1.19231
  21 37.2876 -0.106139 1.36578
  22 33.9474 0.162396 1.84242
  23 29.4298 0.248501 1.65259
  24 27.6626 -0.0395469 2.34722
  25 22.1332 0.324393 1.65609
  26 18.8331 0.442144 1.28685
  27 17.9793 0.178012 0.944998
  28 17.0599 0.638255 0.0655347
  29 17.5581 0.703109 -1.26190
  30 18.5815 0.187114 -1.58779
  31 22.6440 0.0555742 -2.13608
  32 26.7985 -0.220101 -2.24840
  33 29.5934 0.205065 -1.65223
  34 34.0006 0.186571 -1.84546
  35 37.1801 -0.128302 -1.46069
  36 40.3088 -0.140594 -1.12945
  37 42.3730 -0.0858198 -0.889698
  38 43.9400 -0.0940898 -0.763540
  39 45.5979 -0.144218 -0.453665
  40 46.3035 -0.128058 -0.441466
  41 46.9784 -0.123738 -0.382829
  42 47.6781 -0.146322 -0.102517
  43 47.9674 -0.195121 -0.169893
  44 47.7213 0.0624800 -0.0381943
  45 48.2148 -0.0830212 -0.141331
  46 48.4873 -0.214927 0.119281
  47 48.7549 -0.114583 -0.00939291
  48 46.0517 0.109926 -0.0721164
  49 43.0502 -0.0546837 -0.140607
  50 39.7009 -0.249464 -0.218288
  51 36.2760 -0.151326 -0.161173
  52 33.3265 -0.359492 -0.149340
  53 30.2425 -0.407743 -0.140313
  54 27.1577 -0.341245 -0.0820785
  55 23.9409 -0.391752 -0.105357
  56 21.2367 -0.456261 -0.132616
  57 17.6626 -0.456055 -0.113937
  58 13.9988 -0.266601 -0.0729676
  59 10.9790 -0.163868 -0.0610244
  60 7.26010 -0.102453 -0.0371368
  61 4.55559 -0.121215 -0.196242
  62 2.03707 -0.195622 -0.0713448
  63 -0.497489 0.0253898 0.105180
  64 -1.12981 0.181216 0.0283585
  65 -1.28465 0.0756708 0.101670
  66 -1.13898 0.0354698 0.0930609
  67 -1.58602 0.105614 0.0201180
  68 -1.72577 0.135728 0.204886
  69 -1.70874 0.0467396 0.0459236
  70 -2.48167 0.0975228 0.0545468
  71 -2.80654 0.0713325 0.190076
  72 -2.85983 0.0280104 0.195244
  73 -3.66813 0.0943642 0.136001
  74 -3.92903 0.137485 0.296628
  75 -4.18284 0.0835933 0.0722034
  76 -4.54392 0.0594896 0.137747
  77 -4.60889 0.0648648 0.0271854
  78 -4.92227 0.147135 -0.142786
  79 -4.89348 0.100989 -0.109311
  80 -4.39692 0.0793499 -0.177363
  81 -3.73794 0.0974950 -0.308911
  82 -2.99546 0.0388434 -0.442575
  83 -2.20224 0.0196272 -0.451268
  84 -1.31126 -0.0504572 -0.467638
  85 -0.554780 -0.0389097 -0.267031
  86 -0.228036 -0.0964733 -0.164048
  87 -0.0413957 -0.233274 -0.139421
  88 -0.0725998 -0.595994 -0.256146
  89 -0.0812607 -1.20151 -0.459174
  90 -0.0214927 -2.26810 -0.505183
  91 0.0227030 -3.17421 -0.643606
  92 0.0594729 -4.58518 -0.529401
  93 0.182871 -5.48756 -0.632308
  94 0.0230463 -6.01565 -0.549596
  95 -0.0153427 -7.00081 -0.375718
  96 0.187382 -7.00357 -0.195224
  97 0.738277 -9.16385 0.203741
  98 0.608995 -5.62162 0.893690
  99 1.50172 -3.58039 2.15742
  100 4.68309 5.12164 7.52572
  101 21.2166 23.2095 23.0512
  102 120.767 12.3246 18.0951
  103 99.5951 3.49319 6.48987
  104 94.5367 1.49410 2.25312
  105 91.6418 0.998838 -0.00971263
  106 93.4448 1.42595 -1.83840
  107 100.636 2.99175 -5.40573
  108 119.534 9.90244 -16.9726
  109 13.6574 26.3665 -19.0176
  110 3.28010 3.03552 -5.72052
  111 1.10321 -4.34094 -1.73776
  112 0.551661 -6.07400 -0.734801
  113 0.736069 -9.48896 -0.125817
  114 0.180192 -7.14992 0.251747
  115 -0.0260537 -7.07502 0.405465
  116 0.0161257 -6.04508 0.565667
  117 0.179179 -5.49555 0.639200
  118 0.0580430 -4.58386 0.532022
  119 0.0216014 -3.17057 0.644649
  120 -0.0220285 -2.26309 0.505008
  121 -0.0813471 -1.19825 0.458323
  122 -0.0727543 -0.593110 0.255315
  123 -0.0413763 -0.232195 0.138669
  124 -0.226730 -0.0963628 0.163429
  125 -0.552491 -0.0390691 0.266380
  126 -1.30842 -0.0508245 0.467301
  127 -2.19909 0.0192384 0.451433
  128 -2.99396 0.0384263 0.443377
  129 -3.73929 0.0972148 0.310384
  130 -4.40113 0.0793442 0.178907
  131 -4.90129 0.100933 0.110787
  132 -4.93295 0.147174 0.144290
  133 -4.62274 0.0650515 -0.0259398
  134 -4.56002 0.0597171 -0.136897
  135 -4.19990 0.0838404 -0.0715942
  136 -3.94706 0.137768 -0.296515
  137 -3.68636 0.0946182 -0.135922
  138 -2.87731 0.0281646 -0.195474
  139 -2.82363 0.0715931 -0.190554
  140 -2.49751 0.0978977 -0.0552041
  141 -1.72196 0.0469955 -0.0470235
  142 -1.73617 0.135959 -0.206404
  143 -1.59406 0.105656 -0.0214821
  144 -1.14353 0.0354103 -0.0943464
  145 -1.28651 0.0755223 -0.102687
  146 -1.12995 0.180944 -0.0292568
  147 -0.496281 0.0252386 -0.105684
  148 2.03801 -0.196336 0.0707779
  149 4.55620 -0.123124 0.195585
  150 7.26104 -0.105886 0.0363207
  151 10.9804 -0.168858 0.0605752
  152 13.9998 -0.272432 0.0728538
  153 17.6617 -0.461170 0.114643
  154 21.2315 -0.458997 0.134180
  155 23.9313 -0.389065 0.109170
  156 27.1425 -0.330338 0.0865925
  157 30.2208 -0.381408 0.133212
  158 33.3395 -0.366551 0.132294
  159 36.2849 -0.197508 0.169608
  160 39.7332 -0.240854 0.200530
  161 43.1427 -0.0292343 0.142440
  162 45.9578 0.107419 0.0695927
  163 25.5472 -2.27683 -1.64731
  164 25.4366 -2.31749 1.64386
  165 7.24844 2.06383 -2.62052
  166 7.32167 2.07245 2.60637
  167 30.5366 -1.63032 7.39240
  168 32.0890 -1.83195 -7.18155
  169 14.1341 -0.703238 0.714895
  170 14.1348 -0.695709 -0.730084
  171 32.7389 -0.983239 0.472781
  172 32.0331 -0.986182 -0.464219
  173 43.0660 7.87941 -1.29209
  174 44.4550 0.105191 -6.58422
  175 43.4804 0.474807 6.97346
  176 9.62467 -0.337795 -1.71524
  177 9.62249 -0.334592 1.70978
  178 38.4016 -3.83209 2.69226
  179 38.3329 -2.94531 -3.46654
  180 0.341215 0.752054 1.15245
  181 0.356467 0.756997 -1.14364
  182 52.4220 10.5777 2.48744
  183 9.59107 4.18580 -6.44177
  184 10.3318 4.23182 6.95576
  185 37.1933 -1.62575 1.76584
  186 55.9675 11.5005 -1.72717
  187 23.4556 -0.719825 -0.0811761
  188 23.4138 -0.742853 0.0780221
  189 38.3561 -1.08712 -1.58678
  190 51.6429 -0.823145 0.245112
  191 8.22953 -0.234678 0.248616
  192 8.22971 -0.237327 -0.254489
  193 3.38268 0.520327 -1.07438
  194 3.39905 0.515017 1.07649
  195 20.8781 -0.816793 -4.43971
  196 20.7947 -0.864590 4.50044
  197 25.0954 -1.53173 -0.358192
  198 25.1469 -1.52294 0.408059
  199 5.65235 -0.195365 0.871454
  200 5.64559 -0.192341 -0.874759
  201 51.1313 -1.45228 2.43601
  202 41.2891 -4.20067 -1.57687
  203 39.5634 -0.248522 -0.305917
  204 38.6017 -0.324560 0.321263
  205 37.9608 4.42854 4.80304
  206 1.46295 1.06323 -0.147026
  207 1.52193 1.05868 0.172820
  208 38.4024 -1.58243 5.61643
  209 34.6267 2.61038 -5.39788
  210 25.1965 5.15949 -15.7700
  211 26.4963 4.34560 14.6297
  212 0.293041 0.812677 0.152796
  213 0.306999 0.812182 -0.146445
  214 38.2387 -1.40586 -5.78335
  215 68.0497 9.67505 -0.565853
  216 31.8086 -3.51855 2.26525
  217 32.0684 -3.49505 -2.11156
  218 31.8012 -2.17620 -0.649634
  219 40.1282 -0.497788 0.886770
  220 18.5043 -1.22198 -1.41998
  221 18.1894 -1.21612 1.47889
  222 10.8529 0.261168 -2.69536
  223 10.8666 0.256425 2.66721
  224 40.9295 -4.46650 0.249945
  225 31.5203 -2.32252 0.516702
  226 39.9975 -0.477076 -0.730679
  227 30.6297 -0.615085 0.156284
  228 30.9183 -0.559570 -0.0943779
  229 39.0703 -1.69779 3.39841
  230 2.56165 0.0527672 -0.927711
  231 2.57358 0.0512475 0.926607
  232 -0.540896 -0.379509 -1.36201
  233 -0.543425 -0.382486 1.36323
  234 4.80923 -0.230143 -0.485259
  235 4.81401 -0.230688 0.479539
  236 15.5867 -0.390854 0.305936
  237 15.5926 -0.400088 -0.309766
  238 18.4555 1.22154 -6.70474
  239 18.4572 1.00909 6.62411
  240 39.6866 -1.17377 -2.90512
  241 17.9261 -1.01925 -2.52523
  242 17.9393 -1.05151 2.47986
  243 34.0560 0.469936 6.06445
  244 29.0815 2.53265 0.363509
  245 33.8400 -3.34682 -0.691291
  246 0.0925633 -0.997322 -1.33892
  247 0.0813652 -1.00582 1.34872
  248 1.98078 1.59819 -1.92542
  249 2.11738 1.51935 2.04893
  250 33.2498 -3.27070 0.461097
  251 61.3241 10.6286 0.456521
  252 2.78740 1.94990 -0.625960
  253 2.82358 1.94811 0.636771
  254 -1.43549 0.252855 1.00024
  255 -1.42917 0.254132 -0.995968
  256 61.7801 9.83032 -0.153745
  257 20.4941 -0.896069 -0.422126
  258 20.4764 -0.878981 0.406481
  259 41.5501 -2.90650 5.42275
  260 76.8213 12.4450 7.37856
  261 11.5384 -0.583657 -1.37455
  262 11.5330 -0.587773 1.37171
  263 41.7398 6.22451 -4.71300
  264 73.8605 13.9218 -6.51361
  265 50.9151 4.69851 5.03076
  266 56.3609 2.42144 -9.47692
  267 33.9258 -1.47734 0.904150
  268 38.2134 0.0879032 -6.92356
  269 36.6086 -2.52039 -2.15436
  270 41.1001 -0.661577 1.87518
  271 -0.462431 0.385680 -0.216716
  272 -0.448684 0.384341 0.221027
  273 40.7912 -1.75612 -9.37266
  274 3.82731 1.28953 -1.04018
  275 3.84642 1.28670 1.04672
  276 39.0255 -0.930912 -3.58743
  277 5.30162 4.83599 -6.64680
  278 3.33520 -0.00735921 -0.106720
  279 3.33542 -0.00627865 0.104319
  280 41.3556 -2.67768 -5.62580
  281 6.80451 3.05370 -3.38491
  282 6.90580 3.03468 3.39380
  283 1.13428 -0.0519053 0.659070
  284 1.12217 -0.0511207 -0.660271
  285 33.8836 -1.38893 -0.875285
  286 5.33402 4.77808 6.84590
  287 55.4537 2.97908 11.2792
  288 13.8377 -0.500778 -0.393238
  289 13.8327 -0.496665 0.384120
  290 26.7103 -0.970477 0.0189235
  291 26.6960 -1.06513 0.00773236
  292 22.7842 2.00942 -10.4876
  293 37.3303 -4.12977 -1.24963
  294 43.2989 -0.160435 0.405833
  295 21.9156 1.99207 10.1160
  296 25.5073 -0.545113 0.0212443
  297 25.4970 -0.544285 0.00246161
  298 36.6609 -2.63296 2.19751
  299 42.7285 -0.364441 -0.937963
  300 -0.899954 0.164419 -0.463980
  301 -0.885160 0.163219 0.465699
  302 52.8041 10.6559 -0.762317
  303 46.7956 -2.41862 3.36341
  304 42.7032 -0.0990071 -0.125653
  305 43.5158 -0.0834392 0.113804
  306 42.0875 -3.94532 2.89461
  307 51.9879 5.01574 -4.78911
  308 44.5203 8.34103 2.83012
  309 19.5238 -1.13135 -0.796774
  310 19.3326 -1.15387 0.818901
  311 43.2741 -0.148507 -0.299272
  312 27.5323 -2.15104 -4.90390
  313 27.0001 -2.06087 0.492717
  314 25.7500 -1.47991 5.67088
  315 42.2907 -0.421382 1.10335
  316 8.44988 -0.384024 -0.836579
  317 8.45337 -0.387031 0.831121
  318 38.7601 -1.64644 9.26984
  319 23.9156 -1.83458 -0.990464
  320 44.7266 5.60660 5.98779
  321 13.7139 0.979310 -4.18232
  322 13.1783 1.02200 4.14060
  323 2.85272 -0.0743103 -0.195377
  324 2.85557 -0.0736871 0.191533
  325 37.1564 -0.597677 0.596628
  326 35.5885 -0.335806 0.132165
  327 35.3759 -0.383747 -0.145653
  328 38.6827 -0.982133 3.78865
  329 2.22745 -0.107156 0.471180
  330 2.21807 -0.106032 -0.474512
  331 10.2022 -0.213104 -0.161002
  332 10.2004 -0.208395 0.158425
  333 0.319700 -2.04410 -0.862820
  334 0.295495 -2.05768 0.891595
  335 28.8785 1.22765 4.07237
  336 47.2752 -2.34160 -2.91446
  337 30.0354 -1.47391 0.470803
  338 34.3168 -0.525408 -0.383007
  339 34.7748 4.36407 -2.55519
  340 6.12252 -0.182955 -1.25380
  341 6.12903 -0.182944 1.25149
  342 29.1545 -1.38044 -0.306942
  343 7.61158 0.312238 -1.83332
  344 7.62504 0.305131 1.82506
  345 1.29653 1.27150 0.274608
  346 1.31529 1.27077 -0.267056
  347 35.8166 -3.95210 3.05174
  348 82.0622 5.46414 2.08280
  349 30.7336 0.411117 -4.84081
  350 26.2236 -2.35982 2.81862
  351 26.0890 -2.31582 -2.91901
  352 38.9909 -0.743505 6.89028
  353 34.1937 -0.284033 4.83270
  354 35.3243 -3.82249 -3.17138
  355 20.3459 -0.406183 -0.0479038
  356 20.3433 -0.412950 0.0532512
  357 39.0873 -2.56161 4.42472
  358 53.4585 10.7928 0.544458
  359 42.4374 -0.404864 -1.38915
  360 9.73681 -0.356465 -0.574978
  361 9.73858 -0.356601 0.566545
  362 39.7440 -3.97388 -3.89383
  363 41.1749 2.76067 -6.93120
  364 26.2646 1.42486 -2.60003
  365 39.3359 -2.66002 -5.00059
  366 -1.33176 0.0239827 -1.05560
  367 -1.33328 0.0225195 1.05696
  368 33.0605 -0.623536 0.312222
  369 -0.471453 -0.283727 -0.601428
  370 -0.470984 -0.283859 0.600320
  371 25.7924 11.5529 -19.3515
  372 0.852219 0.709666 0.895600
  373 0.877100 0.715750 -0.882580
  374 33.8968 -0.300625 -4.79068
  375 18.3523 -0.701539 0.312380
  376 18.3678 -0.712892 -0.318738
  377 -0.152274 -1.43920 1.19747
  378 -0.150134 -1.43657 -1.19610
  379 20.7736 12.1709 18.1582
  380 14.9104 -0.762130 -1.91779
  381 14.9201 -0.725843 1.91910
  382 4.63539 3.29657 -3.07334
  383 4.73784 3.28354 3.05128
  384 -2.19091 0.283431 0.477918
  385 -2.18239 0.283777 -0.473487
  386 39.5944 2.54740 6.88694
  387 30.4646 -3.18473 1.04559
  388 30.4972 -2.73472 0.119557
  389 37.3018 -4.30152 0.120986
  390 8.71075 1.14419 -2.62526
  391 8.73922 1.14130 2.61914
  392 0.747779 -1.65473 -0.194481
  393 0.703133 -1.67256 0.258038
  394 36.7829 5.31355 1.70722
  395 38.2333 -0.973931 1.33075
  396 21.1399 -1.60388 1.69658
  397 12.7293 -0.289157 -2.35553
  398 12.7315 -0.291307 2.33288
  399 27.3694 -0.682923 0.0922919
  400 27.3371 -0.578302 -0.115783
  401 20.9572 -1.65119 -1.82970
  402 16.2131 -0.253598 -3.29290
  403 16.2079 -0.276844 3.32107
  404 39.6935 -3.68956 -3.34024
  405 22.4266 -1.66392 0.943193
  406 36.1780 -0.966675 0.892797
  407 36.1263 -0.863385 -0.774438
  408 29.9082 -2.71195 -0.233399
  409 44.1826 -0.100728 -0.425369
  410 14.1262 5.46234 -10.5469
  411 40.9247 -0.541513 2.22534
  412 43.9776 -0.146839 0.598171
  413 14.5705 -0.741876 1.07234
  414 14.5800 -0.731028 -1.07136
  415 30.3233 -3.14566 -1.10061
  416 3.92082 1.84316 1.11108
  417 3.89903 1.84239 -1.11339
  418 82.9738 5.45948 -4.29237
  419 35.3219 -1.91775 -1.36767
  420 44.6307 -0.0617949 0.245555
  421 13.2944 5.05978 9.99903
  422 65.2065 11.0758 1.82408
  423 38.2571 -0.434526 -0.485681
  424 27.9773 -1.94807 -0.143670
  425 11.2547 2.18004 -4.76076
  426 12.0205 2.02583 4.73214
  427 34.8586 -2.12319 1.39751
  428 36.5421 -0.481198 -3.59766
  429 -1.08695 -0.0255710 0.487512
  430 -1.10187 -0.0251741 -0.487593
  431 12.8316 3.03588 -6.53646
  432 12.8712 3.04830 6.51484
  433 1.11435 0.723687 -0.375198
  434 1.12959 0.721866 0.380566
  435 31.2121 -0.434796 0.134526
  436 31.1747 -0.418570 -0.123019
  437 38.9945 -1.74044 -3.54536
  438 -0.183921 -0.209918 1.52885
  439 -0.177109 -0.204197 -1.52369
  440 40.2511 -4.04191 3.02036
  441 38.2047 -0.896015 -1.19500
  442 61.8509 11.8988 -1.33353
  443 1.18985 -0.100944 0.209446
  444 1.18278 -0.100978 -0.212844
  445 75.6257 20.5545 8.53488
  446 1.36983 -0.333865 -1.75096
  447 3.85057 0.238155 -1.20097
  448 3.86358 0.234646 1.19967
  449 75.2285 20.9600 -7.97328
  450 1.45124 -0.168741 1.96757
  451 -2.20856 0.231766 0.223992
  452 -2.19775 0.231329 -0.219904
  453 3.76108 2.55994 -1.65141
  454 3.82991 2.55908 1.66134
  455 47.8899 7.34972 -5.13552
  456 38.6574 -1.43105 -2.38425
  457 44.3672 -0.0798873 -0.225041
  458 40.3099 -0.588940 -2.58682
  459 -0.584383 0.229298 1.41135
  460 -0.577509 0.232895 -1.40661
  461 39.0401 -1.50661 2.72572
  462 24.8023 -1.29252 -0.263671
  463 24.7210 -1.30771 0.174073
  464 34.2243 -3.78994 -0.0108874
  465 24.0995 -0.419496 -7.06635
  466 36.9644 -0.578757 3.68642
  467 30.3944 -0.831075 -0.219334
  468 45.3431 -3.64489 0.226520
  469 23.3199 0.104464 7.60724
  470 0.774790 -0.0212987 0.469379
  471 0.762769 -0.0206120 -0.471149
  472 49.0371 9.73632 -2.46084
  473 40.0076 -0.154296 0.0614024
  474 39.8621 -0.192838 -0.100160
  475 29.4774 -1.87240 -0.188208
  476 11.9962 -0.370142 -0.301336
  477 11.9929 -0.364650 0.295608
  478 6.89172 -0.0512282 -1.49079
  479 6.89820 -0.0525911 1.48596
  480 23.2987 0.913841 1.54435
  481 5.23813 -0.180693 0.692438
  482 5.23208 -0.178770 -0.697528
  483 6.09824 0.646672 1.67081
  484 6.07802 0.656194 -1.67041
  485 38.2673 -2.94910 3.34346
  486 20.8464 -1.28828 -3.06024
  487 19.0092 -0.519399 0.126124
  488 19.0179 -0.535905 -0.126961
  489 21.0741 -1.33045 3.05732
  490 60.2887 14.0230 -0.343554
  491 -0.966030 -0.154345 -0.794956
  492 -0.965686 -0.155080 0.794650
  493 14.0653 -0.334202 -0.118322
  494 14.0632 -0.327408 0.117445
  495 0.00265893 -2.69407 -1.04597
  496 -0.00353859 -2.70252 1.05453
  497 35.0682 -0.361484 0.243510
  498 23.1226 1.14067 -0.771916
  499 32.2643 3.41873 2.27347
  500 20.7668 -0.230723 -5.52834
  501 9.48771 -0.478166 1.06167
  502 9.48922 -0.473940 -1.06484
  503 -3.15292 0.0933709 -0.117217
  504 -3.13842 0.0928490 0.118935
  505 41.1935 -0.887855 -6.93042
  506 1.95911 0.0300744 -0.150464
  507 1.96062 0.0306396 0.147727
  508 34.2926 -2.63907 -1.25625
  509 36.6302 -3.08893 -2.14270
  510 7.10295 5.13020 -6.90094
  511 30.7182 0.571744 -11.4776
  512 0.162431 0.850760 0.820878
  513 0.176436 0.852270 -0.813340
  514 18.0685 -0.764218 -0.514269
  515 18.0572 -0.755682 0.496860
  516 53.6991 1.71056 -2.26171
  517 38.1387 -2.20123 -3.01687
  518 6.91458 4.81645 6.79439
  519 37.8035 -4.36832 0.461430
  520 36.2733 -3.43591 1.79606
  521 6.58076 -0.153588 -0.448057
  522 6.58252 -0.152711 0.441823
  523 28.5443 0.280588 3.73766
  524 20.9454 -1.48817 -1.03318
  525 40.4933 -0.801598 1.74412
  526 -0.173740 -0.978497 -0.767472
  527 -0.174165 -0.977932 0.766547
  528 27.8336 -2.50216 3.45101
  529 43.0509 -3.43781 -3.95053
  530 56.9585 3.20873 -0.951606
  531 29.9959 -0.870106 0.253166
  532 7.80242 -0.127112 -0.137215
  533 7.80132 -0.123679 0.135527
  534 18.5855 0.130047 5.30390
  535 53.7948 8.61469 3.91863
  536 55.9843 9.15147 -18.4768
  537 49.1049 -0.0691343 3.96058
  538 34.9386 -3.90194 -0.185641
  539 85.7406 6.81429 5.71318
  540 62.0469 14.4572 0.736221
  541 7.75044 -0.310797 1.16922
  542 7.74657 -0.307396 -1.17262
  543 33.5316 -2.72022 1.04799
  544 2.10813 1.15588 -0.289716
  545 2.12572 1.15479 0.296216
  546 42.5071 -3.65394 3.93719
  547 33.6724 1.76957 5.57277
  548 43.1434 -0.225221 0.959822
  549 31.3108 -1.77046 0.621790
  550 44.8438 -0.260219 -12.0945
  551 72.4006 16.8826 11.3000
  552 34.2432 -0.505143 -0.232325
  553 42.2099 -0.379675 -1.49889
  554 6.11814 2.60074 -2.44553
  555 6.16340 2.56871 2.43108
  556 23.3953 -0.822665 -0.144926
  557 23.3832 -0.799064 0.151971
  558 0.236508 -3.67623 -0.106646
  559 42.7699 -1.66698 6.29173
  560 1.39438 1.32433 0.449338
  561 1.41937 1.32743 -0.438106
  562 0.281771 -3.57374 0.196008
  563 38.7406 -1.78490 -5.00621
  564 44.6931 2.63429 -6.79032
  565 44.4938 3.00330 6.77976
  566 1.95436 1.37496 1.17537
  567 1.84876 1.41976 -1.14081
  568 -1.93538 0.0480940 0.354132
  569 -1.95109 0.0485198 -0.353659
  570 41.6455 0.473241 12.5126
  571 21.9064 -1.12635 0.442097
  572 21.9305 -1.12212 -0.459637
  573 50.5067 -1.49544 -5.93350
  574 5.17377 -0.0643896 0.261528
  575 5.17309 -0.0659441 -0.265664
  576 1.56099 -0.0747185 -0.0651795
  577 1.56045 -0.0741979 0.0642277
  578 54.9113 9.56298 -3.38869
  579 4.98021 6.05777 -7.72233
  580 27.1051 0.512016 -3.15400
  581 39.5456 6.37772 -2.93880
  582 0.493191 -0.238477 1.08254
  583 0.517117 -0.230677 -1.06657
  584 42.3438 16.9090 21.9539
  585 34.7381 -0.813968 -0.577963
  586 0.666879 0.359698 -0.539529
  587 0.681588 0.357093 0.542520
  588 40.0877 -3.27933 4.49759
  589 5.91652 5.83640 7.86199
  590 28.6102 -0.436936 -0.0122619
  591 28.6174 -0.431792 0.0121284
  592 -0.0465565 -2.11058 1.05495
  593 -0.0434540 -2.10707 -1.05152
  594 48.8687 9.67883 -0.0781571
  595 31.0872 -2.60985 5.12290
  596 29.5988 -1.12767 0.267732
  597 29.9633 1.02921 12.1290
  598 -2.56953 0.116523 0.653258
  599 -2.56690 0.117139 -0.650914
  600 49.7565 0.270088 -4.22266
  601 67.9172 9.70857 -7.76626
  602 18.2243 1.76179 -7.84386
  603 9.26830 -0.367588 -1.44585
  604 9.27525 -0.367373 1.44509
  605 45.5542 -0.0921550 0.297436
  606 29.2833 -1.15578 -0.308960
  607 40.0858 -0.409563 0.676020
  608 38.7477 -1.77876 4.89518
  609 0.415289 -0.0584358 0.222366
  610 0.405708 -0.0581608 -0.224935
  611 22.4258 -0.661417 -0.0734428
  612 22.4217 -0.638670 0.0661205
  613 13.7139 0.328191 -3.40752
  614 13.6189 0.331939 3.38847
  615 57.3858 2.52278 2.28595
  616 96.0260 7.23158 -10.5661
  617 -1.60609 -0.0516244 0.317305
  618 -1.62175 -0.0514267 -0.317550
  619 12.6102 -0.498104 0.573120
  620 12.6118 -0.497749 -0.584584
  621 53.0549 2.35149 2.98557
  622 45.1511 -0.0689610 -0.0947716
  623 45.0420 -0.142394 0.0503434
  624 30.7838 -0.0407702 3.71375
  625 46.6535 -3.10606 -3.35332
  626 24.4825 -1.96012 1.24785
  627 -0.814905 0.530156 -0.725821
  628 -0.825344 0.529523 0.731690
  629 39.7128 0.700891 7.18725
  630 15.0823 -0.830468 -1.48090
  631 15.0640 -0.845385 1.48402
  632 32.4961 -1.76745 -0.744950
  633 40.7185 -0.792861 -1.58506
  634 22.4592 -1.76141 -2.09977
  635 36.8916 4.45145 -4.35650
  636 25.0302 -1.75496 -4.09624
  637 8.16579 -0.209201 -0.215493
  638 8.16481 -0.206054 0.211198
  639 22.7077 -1.79671 2.10310
  640 50.0896 7.85581 4.75650
  641 39.6336 -1.99644 6.15361
  642 32.4599 -1.30736 0.650781
  643 22.6850 -0.471460 0.0953413
  644 22.6792 -0.473175 -0.0907164
  645 16.6947 -0.546626 -0.385920
  646 16.6863 -0.539116 0.379366
  647 38.3253 -3.53532 -2.83065
  648 18.6237 -0.983335 0.689305
  649 18.6467 -0.979586 -0.710762
  650 37.4315 5.85795 -0.591854
  651 35.3941 -1.75158 1.36215
  652 45.2241 -0.152155 -0.443164
  653 37.1536 -0.748076 -6.27353
  654 4.47043 -0.209390 0.935046
  655 4.46220 -0.207795 -0.936894
  656 43.8827 -0.182498 -0.865957
  657 7.24503 3.67637 -4.74446
  658 7.37274 3.66483 4.76824
  659 44.5846 -3.06156 4.98215
  660 14.6362 3.54580 8.25675
  661 2.83422 0.000703121 0.939460
  662 2.82367 0.00149823 -0.940866
  663 37.6917 -2.68974 6.74442
  664 37.4486 4.40297 -16.7679
  665 35.2411 1.03172 -6.20599
  666 47.2033 8.48195 3.98822
  667 31.8637 -1.27530 -0.506374
  668 57.7397 10.5982 -0.255305
  669 -3.17104 0.130429 -0.0313963
  670 -3.15858 0.130041 0.0339537
  671 25.1822 -0.0274500 -8.37698
  672 0.414970 -0.0320410 0.180730
  673 0.409473 -0.0321442 -0.183280
  674 31.8845 -2.80573 -5.05266
  675 9.98078 1.42143 -3.26029
  676 9.89475 1.42502 3.25721
  677 -0.194840 0.516515 -0.00757422
  678 -0.181343 0.515626 0.0130622
  679 26.7985 -2.26528 -0.803161
  680 38.2802 -0.372705 -2.43390
  681 17.5210 -0.456858 -0.149294
  682 17.5205 -0.450079 0.150906
  683 12.3633 -0.604149 -0.905700
  684 12.3715 -0.613301 0.900552
  685 2.23065 1.84000 -0.327534
  686 2.27133 1.84292 0.340388
  687 40.0638 -0.330142 0.384643
  688 16.7713 -1.01867 1.19174
  689 16.8895 -0.998825 -1.18967
  690 44.1120 -3.75285 -1.29992
  691 36.0139 -3.61457 -1.40830
  692 28.0216 -0.630717 0.127328
  693 27.9157 -0.574868 -0.110677
  694 39.9078 -4.38640 1.49552
  695 65.3656 13.0813 2.80734
  696 34.9561 -1.82440 -8.55364
  697 40.1144 -1.06287 2.66734
  698 39.4902 -1.55608 -6.55341
  699 11.3091 -0.316085 -0.398153
  700 11.3067 -0.312904 0.390534
  701 30.9292 -0.780867 9.66523
  702 90.2269 11.3819 10.4514
  703 5.42402 1.66981 -1.72399
  704 5.43110 1.68052 1.72988
  705 39.9807 -0.232604 -0.201557
  706 40.3172 -0.198660 0.203955
  707 16.4305 7.64934 -13.7407
  708 42.1734 -0.177590 1.48079
  709 36.4205 -0.455535 0.364705
  710 47.2723 9.48920 -1.52136
  711 4.27316 0.860291 -1.19740
  712 4.29253 0.854629 1.20202
  713 46.1354 -0.0551210 0.0682116
  714 36.4977 -1.27443 -1.28649
  715 45.6197 -0.929539 5.68553
  716 17.8749 -1.22081 -1.99916
  717 17.9202 -1.16454 1.97469
  718 3.15304 -0.127309 0.708671
  719 3.14394 -0.125528 -0.711700
  720 41.9060 -0.150461 -0.330173
  721 35.9257 6.15525 17.8831
  722 0.148690 0.121190 1.35447
  723 0.161587 0.128310 -1.34571
  724 41.8681 -0.335198 -0.781606
  725 40.5183 -0.619993 1.10128
  726 30.6182 -0.0117392 -3.98314
  727 0.266631 -3.98097 -0.625486
  728 0.247247 -4.01637 0.661147
  729 14.0666 3.64181 -8.24862
  730 31.7951 -3.26874 -3.48095
  731 16.2568 7.59692 13.8964
  732 45.4193 -0.0429179 0.193979
  733 42.2755 6.29997 4.74789
  734 29.8336 2.74453 -1.57701
  735 56.2217 11.3696 -0.524531
  736 44.6102 -0.126306 0.584755
  737 -3.22521 0.0672817 0.242080
  738 -3.24100 0.0676523 -0.241090
  739 47.1972 -3.04691 0.407655
  740 29.9511 -0.696671 0.156038
  741 10.2253 0.0568922 -2.24656
  742 10.2372 0.0461062 2.22970
  743 40.6442 -0.338680 -0.508812
  744 72.3155 10.2949 -3.44672
  745 3.58416 -0.118795 -0.413632
  746 3.59103 -0.119566 0.409079
  747 45.7327 -0.0618303 -0.284656
  748 7.79281 -0.349782 -0.582204
  749 7.79583 -0.351035 0.575540
  750 43.8490 -1.93584 -5.78125
  751 40.3712 -0.398247 1.99699
  752 35.5328 -0.302723 6.16093
  753 45.9158 -0.0649000 -0.0302435
  754 42.4415 -0.202713 0.613375
  755 26.8891 -1.32709 0.0628748
  756 34.2777 -0.733920 0.473766
  757 38.8863 -2.39139 -4.29047
  758 37.9892 -2.33903 2.93768
  759 44.2163 5.20341 -6.02854
  760 37.4961 -2.02202 2.25966
  761 39.4615 -2.38230 5.39179
  762 22.3166 -1.43058 0.661939
  763 0.729431 -0.618662 -0.360903
  764 0.686211 -0.620304 0.401501
  765 34.7994 -0.339573 0.0341455
  766 34.7227 -0.335546 -0.0475891
  767 42.3845 -0.0621704 -0.0436145
  768 42.5427 -0.0525046 0.0543416
  769 39.6060 -1.07494 3.20493
  770 36.6155 -3.54470 4.70929
  771 29.7089 -2.33750 -0.0167466
  772 26.2090 -1.45037 0.139543
  773 73.9114 9.53821 4.11298
  774 40.2631 -0.939284 -2.15472
  775 23.1776 3.71791 -12.9608
  776 37.2770 -1.74303 -1.97992
  777 0.742895 0.0445261 -0.635197
  778 0.756842 0.0431721 0.635582
  779 32.0461 2.81591 -3.54309
  780 88.0588 2.69072 -1.17341
  781 41.6448 0.921217 -7.11100
  782 1.55361 -0.405128 -2.79774
  783 42.3818 7.73226 1.22930
  784 33.5125 -2.02659 0.969241
  785 37.3510 -0.994279 6.10093
  786 31.6201 -3.41158 3.50201
  787 51.9590 -1.05969 7.54274
  788 1.67490 -0.0156101 3.01363
  789 22.5330 -0.205018 6.40839
  790 32.0600 -0.653893 -0.272964
  791 35.8530 -3.39102 -4.77399
  792 21.3652 -1.61692 -1.36876
  793 16.7925 0.774282 -5.51971
  794 41.3735 -0.781057 6.97598
  795 26.1645 -1.69433 0.388669
  796 3.85048 -0.125323 0.389104
  797 3.84638 -0.125551 -0.394095
  798 38.4024 -0.197447 2.16175
  799 34.2640 0.111527 -5.95271
  800 -3.20038 0.133595 0.431311
  801 -3.19575 0.133803 -0.428808
  802 25.4306 -0.651817 0.0696016
  803 25.3506 -0.606682 -0.0771816
  804 18.7190 1.98742 7.97153
  805 16.3135 -0.902535 0.853689
  806 16.3402 -0.878304 -0.866529
  807 45.7430 -0.0282351 -0.170750
  808 15.0422 1.17431 5.35995
  809 -0.689194 -0.0127116 0.248310
  810 -0.702044 -0.0123739 -0.249902
  811 37.9220 -1.19163 4.76240
  812 41.5174 -0.225160 0.272099
  813 -2.21205 0.0162987 0.626238
  814 -2.21212 0.0169540 -0.625035
  815 24.6966 -1.59789 4.66069
  816 4.50879 3.54660 -3.91127
  817 4.56666 3.35703 3.84386
  818 21.8828 1.00123 0.642071
  819 -1.46160 -0.0146446 -0.288709
  820 -1.44627 -0.0148765 0.288087
  821 28.5780 -2.75966 -3.26547
  822 39.5450 -4.22850 -2.00393
  823 -0.191930 -0.182977 -0.238271
  824 -0.191407 -0.182589 0.237435
  825 0.615880 0.0754029 -0.0517914
  826 0.616145 0.0758117 0.0503411
  827 34.9997 -3.07522 1.41807
  828 29.2147 -3.01265 2.11291
  829 32.6923 -0.371484 0.196739
  830 29.1281 -2.27617 -0.102258
  831 9.63363 -0.121714 -0.0308738
  832 9.63221 -0.117177 0.0297899
  833 -3.67044 0.0761647 0.277312
  834 -3.66317 0.0760516 -0.274896
  835 37.2742 -0.316093 -0.270034
  836 31.5656 1.19434 -5.02792
  837 37.6417 -0.595564 -0.713081
  838 21.4080 -1.58259 1.28879
  839 36.4657 -0.668042 -4.97213
  840 39.5655 -1.17040 -3.31407
  841 37.4385 -0.247523 0.245713
  842 26.7297 -1.13132 6.58705
  843 28.5708 -2.76386 -0.990963
  844 16.7987 -0.120998 -4.13279
  845 16.8951 -0.00377326 4.15433
  846 24.1170 -1.73138 -0.719393
  847 40.3711 4.29334 6.06951
  848 38.9879 -4.22158 -2.29009
  849 12.9628 -0.362295 -0.184361
  850 12.9594 -0.355375 0.181180
  851 29.4479 -0.498593 -0.0812717
  852 29.4479 -0.504323 0.0900087
  853 34.6096 -0.281182 -3.23017
  854 10.9143 -0.438580 -0.726178
  855 10.9183 -0.442135 0.717263
  856 0.127924 -3.87115 -0.816447
  857 0.120365 -3.88718 0.831402
  858 4.66746 -0.0664415 -0.0518160
  859 4.66802 -0.0683494 0.0505199
  860 36.9443 -0.416070 -0.382063
  861 27.4463 -2.60828 1.88081
  862 43.5299 -3.91673 2.17365
  863 23.6093 0.505805 2.46335
  864 37.7625 -0.745640 0.806458
  865 41.0477 -3.78140 -3.68042
  866 5.19435 0.389653 -1.43518
  867 5.20959 0.383458 1.43305
  868 32.5175 -0.411706 -0.181453
  869 25.7562 -0.755247 -0.00454107
  870 25.6597 -0.746558 0.0273124
  871 39.6796 6.21722 3.30576
  872 13.3568 -0.100116 -2.76942
  873 13.3406 -0.116411 2.75366
  874 27.7069 -2.45521 0.711043
  875 2.35279 1.64035 -0.261148
  876 2.37815 1.63642 0.267673
  877 23.2603 -1.67032 3.70731
  878 28.1336 -1.69037 0.0917707
  879 34.8415 -0.290657 3.26477
  880 34.9181 -3.98117 0.729064
  881 40.1309 -3.11704 -4.80336
  882 27.3797 -2.63015 -1.91614
  883 22.4893 -1.42322 -0.625401
  884 77.6285 6.46609 -1.16221
  885 36.6395 -3.90644 1.20601
  886 0.793656 1.09005 0.694476
  887 0.811916 1.09176 -0.685287
  888 31.6336 -3.14324 0.110826
  889 34.8772 -4.00458 -1.72537
  890 0.783085 0.990425 0.305981
  891 0.798827 0.990336 -0.299146
  892 12.3706 -0.406311 2.03729
  893 12.3816 -0.420737 -2.05312
  894 15.2049 -0.739229 2.24695
  895 15.2019 -0.758871 -2.26716
  896 50.1993 10.1135 2.03625
  897 -0.0825809 -1.55724 -0.752527
  898 -0.0831268 -1.55572 0.752159
  899 10.9284 0.968949 -3.09234
  900 10.8694 0.948353 3.05552
  901 91.2596 2.97262 -4.67606
  902 0.205675 -0.00146404 0.0944234
  903 0.202607 -0.00176690 -0.0964162
  904 0.129150 -4.66310 0.418913
  905 0.153562 -4.59342 -0.359798
  906 -1.66787 -0.0274735 0.626774
  907 -1.66939 -0.0269829 -0.626504
  908 8.70781 2.58994 -3.67852
  909 8.84488 2.50488 3.61853
  910 -0.803761 -0.00942058 -1.36163
  911 -0.807355 -0.0121338 1.36396
  912 1.97388 0.253888 -0.890554
  913 1.98836 0.250809 0.891305
  914 9.31935 -0.0698334 1.86026
  915 9.31493 -0.0695320 -1.87297
  916 7.38309 -0.233768 -1.48659
  917 7.38896 -0.233043 1.48261
  918 43.9787 -0.125142 -0.835949
  919 20.7686 4.14673 11.9808
  920 28.8695 -2.81952 0.891498
  921 20.0640 -1.37807 0.986137
  922 39.3976 3.99103 -5.96047
  923 89.7136 1.96059 1.84397
  924 47.6768 1.87325 -6.05363
  925 6.80865 -0.259704 0.901386
  926 6.80347 -0.256447 -0.906430
  927 0.495261 -0.0320466 -0.668566
  928 0.508404 -0.0324764 0.667947
  929 -0.0835009 -0.842346 -1.50398
  930 -0.0896219 -0.848200 1.50876
  931 20.7493 -0.811533 0.358453
  932 20.7619 -0.830618 -0.362094
  933 2.01809 0.692443 -0.727444
  934 2.03411 0.689154 0.731870
  935 12.2336 -0.513490 -1.69637
  936 12.2400 -0.513065 1.69398
  937 26.7390 -0.167229 -2.91237
  938 12.5791 -0.656334 -1.11779
  939 12.5670 -0.647703 1.12180
  940 32.7274 -0.744188 -0.339451
  941 39.5588 -2.32923 -5.75518
  942 16.4531 -0.594936 0.431348
  943 16.4633 -0.601882 -0.440798
  944 -0.701477 -0.0799084 -0.427429
  945 -0.699731 -0.0800965 0.426615
  946 40.7094 -3.43354 -5.96214
  947 38.6943 -2.24138 3.78217
  948 33.8308 -2.27199 -1.15922
  949 32.0325 1.03973 5.30748
  950 14.1942 -0.760443 -1.27035
  951 14.1913 -0.743849 1.27498
  952 36.2750 1.30925 6.49081
  953 33.4560 2.90295 4.26058
  954 71.9266 8.77470 1.45817
  955 36.2080 -1.15634 1.01034
  956 18.1794 -0.440464 -0.187713
  957 18.1756 -0.428716 0.190218
  958 32.1361 -2.55986 -0.612502
  959 44.2244 8.16952 -2.95216
  960 40.0734 -0.280283 -0.384167
  961 25.5002 -0.459999 0.0572188
  962 25.4891 -0.455268 -0.0494047
  963 2.99386 2.43702 -1.47920
  964 3.07501 2.42956 1.49296
  965 6.22106 13.2807 -13.4071
  966 36.5676 -0.904767 4.95301
  967 46.4385 -1.14644 -5.18253
  968 -1.10158 0.430097 0.420340
  969 -1.09028 0.429860 -0.414906
  970 98.4188 22.3900 -18.1475
  971 39.6305 -4.40306 1.13754
  972 42.4440 -4.12870 -0.971877
  973 38.9211 -3.35485 3.57286
  974 47.6793 9.50681 1.33532
  975 3.21171 2.86238 -3.61048
  976 8.69800 11.2562 12.9856
  977 -0.285974 -0.614690 1.47448
  978 -0.282170 -0.610393 -1.47196
  979 38.1024 -0.829203 0.978062
  980 61.2077 10.9886 -1.02177
  981 3.31018 2.77856 3.77890
  982 -0.171886 -0.547645 -0.475228
  983 -0.171947 -0.546266 0.474115
  984 32.4131 -0.572168 0.196928
  985 23.6897 -1.83715 -1.41461
  986 39.2096 -3.12488 -4.12719
  987 10.5721 2.83068 -5.00485
  988 10.7458 2.87943 5.01838
  989 37.7607 -0.947182 -4.46008
  990 38.5636 -1.10116 1.65111
  991 -1.13474 0.217433 1.22976
  992 -1.12974 0.219787 -1.22617
  993 22.6125 -1.49572 -3.45917
  994 37.7610 2.32776 -6.56889
  995 28.2271 -0.897231 -0.126534
  996 19.7834 -0.446913 0.00838432
  997 19.7803 -0.451191 -0.00598368
  998 -0.452047 -0.510875 -1.01539
  999 -0.452718 -0.511955 1.01477
  1000 39.0819 -1.28765 -1.97544
  1001 37.3729 -0.236153 0.0804976
  1002 37.3375 -0.236335 -0.0640139
  1003 51.3456 8.11323 -4.51900
  1004 8.54367 0.800200 -2.37002
  1005 8.56423 0.784221 2.36236
  1006 5.02768 -0.0224504 -1.21144
  1007 5.03627 -0.0235268 1.20862
  1008 41.8843 2.08942 7.19253
  1009 40.2743 -0.627649 -1.15549
  1010 6.41222 1.08704 -1.86231
  1011 6.43794 1.07844 1.86932
  1012 42.4019 -0.0949261 -0.222773
  1013 38.9389 -1.60959 -2.88573
  1014 38.0094 -4.40168 -0.975495
  1015 1.25608 0.950786 -0.352020
  1016 1.21676 0.946416 0.369465
  1017 -2.01185 0.280701 0.780900
  1018 -2.00545 0.281388 -0.776763
  1019 21.0300 0.838044 -1.07397
  1020 66.7033 16.0082 -3.46218
  1021 29.6773 -2.06263 0.255422
  1022 19.2102 -0.833414 -3.58234
  1023 48.7121 -2.30341 1.30406
  1024 19.2869 -0.834641 3.63708
  1025 34.3775 -4.08042 2.12501
  1026 39.0189 -1.59775 -4.15847
  1027 12.3250 -0.230842 -0.0594511
  1028 12.3235 -0.225012 0.0587694
  1029 26.2273 -1.97161 -0.538416
  1030 15.6453 -0.554538 -2.71271
  1031 15.6361 -0.558685 2.69463
  1032 5.00549 3.23003 -2.89574
  1033 5.08869 3.21738 2.90386
  1034 10.1328 -0.296341 -0.219277
  1035 10.1308 -0.291662 0.214752
  1036 34.8192 -0.939953 0.640470
  1037 29.1514 -0.0811063 -9.81001
  1038 36.1436 -1.02337 -0.991449
  1039 32.3525 -3.59585 -1.06648
  1040 20.6867 -0.765663 0.216767
  1041 20.7061 -0.772735 -0.218545
  1042 42.9883 -0.144399 0.280038
  1043 37.9672 -0.749104 -0.920270
  1044 22.4063 0.537525 2.02096
  1045 40.4233 -0.387633 -1.85393
  1046 15.1523 4.23696 9.42304
  1047 41.8384 -0.358387 -1.54124
  1048 10.2589 1.75916 -3.67447
  1049 9.93058 1.78107 3.50629
  1050 50.3897 -1.29769 -1.58535
  1051 4.05056 2.19694 -1.34364
  1052 4.08984 2.18000 1.34190
  1053 0.646000 -0.367638 0.713435
  1054 0.683499 -0.361687 -0.688874
  1055 5.16553 -0.141726 0.279194
  1056 5.16344 -0.142945 -0.284415
  1057 17.3420 4.29859 -10.5303
  1058 102.033 25.0835 19.5089
  1059 38.9291 -1.28910 2.02694
  1060 34.6908 -3.93937 -0.600027
  1061 23.6483 -1.93403 -2.56601
  1062 -0.677083 0.471286 1.14086
  1063 -0.668196 0.473841 -1.13500
  1064 26.8604 -1.24947 -0.0904972
  1065 29.8457 -0.944112 -0.265795
  1066 -0.0211006 -2.21572 0.734217
  1067 -0.0203467 -2.21739 -0.733878
  1068 4.10906 2.59713 -1.65684
  1069 4.16078 2.59089 1.66775
  1070 26.4771 -1.13316 0.0931200
  1071 1.64792 0.947700 0.343705
  1072 1.63174 0.949338 -0.337648
  1073 41.0389 -1.72782 6.65296
  1074 29.4520 -3.06661 -2.10203
  1075 23.7944 -1.96581 2.56516
  1076 38.8138 -0.879635 -6.88387
  1077 41.9111 -0.334994 0.842711
  1078 14.3937 2.18112 6.16732
  1079 14.4997 2.08931 -6.05892
  1080 23.6692 -1.19102 -5.14667
  1081 34.1839 -1.06476 -0.674714
  1082 27.3832 -1.53253 0.0629607
  1083 32.3589 -2.97540 0.421157
  1084 45.5768 -0.112225 -0.466083
  1085 23.5369 -0.960339 0.147903
  1086 23.5264 -1.02447 -0.163257
  1087 0.626849 0.780252 1.04978
  1088 0.646074 0.786287 -1.03905
  1089 38.9995 1.33522 -7.07936
  1090 8.14509 0.470350 -2.06791
  1091 8.16629 0.460433 2.05971
  1092 5.88168 0.161915 -1.43063
  1093 5.89368 0.158316 1.42622
  1094 45.6505 -2.35549 7.62829
  1095 38.9936 -1.77668 4.12147
  1096 18.4504 -0.824300 -2.98050
  1097 46.5137 -0.143386 -0.281245
  1098 50.8950 9.50868 -3.47049
  1099 41.8915 -0.274644 -0.564876
  1100 38.7349 -4.23393 1.96214
  1101 28.2940 -2.22327 4.43538
  1102 46.9634 -0.00650909 0.0741975
  1103 22.3565 0.717896 -1.71656
  1104 32.5918 -3.48054 -0.196591
  1105 18.4778 -0.863496 2.94023
  1106 32.9134 -2.94935 -0.614665
  1107 41.6686 -0.502118 1.46494
  1108 28.1220 1.79011 2.70430
  1109 19.8960 -1.43227 -2.29642
  1110 63.9840 7.93651 -2.42721
  1111 47.0459 1.86163 6.28123
  1112 33.8161 4.28867 0.673478
  1113 46.2358 0.0536403 0.266544
  1114 17.0885 -1.02569 -1.69242
  1115 11.7283 6.87413 -10.4992
  1116 21.2791 0.481550 -7.51031
  1117 24.4280 -1.80639 0.901721
  1118 20.4484 -1.49947 2.11737
  1119 17.0409 -0.971041 1.71424
  1120 36.9562 0.237568 6.82987
  1121 28.0205 -0.819072 0.156932
  1122 45.3870 -0.294104 0.600750
  1123 -0.434880 -0.101533 1.49754
  1124 -0.429667 -0.0973482 -1.49400
  1125 29.4560 -0.670904 -0.175642
  1126 -0.158902 0.229118 1.42321
  1127 -0.149574 0.234466 -1.41670
  1128 15.7601 -0.420682 0.282634
  1129 15.7632 -0.429470 -0.283230
  1130 42.2395 -0.201651 1.28126
  1131 33.6423 -1.95093 -1.00399
  1132 31.4143 -1.54883 -0.543012
  1133 35.2981 -2.39542 1.67107
  1134 10.3059 4.93862 -7.69096
  1135 34.6732 -1.16295 0.811964
  1136 4.38747 0.125310 -1.15630
  1137 4.39873 0.122821 1.15410
  1138 6.78483 4.26015 -5.24915
  1139 56.1541 6.74343 2.89164
  1140 2.95048 -0.159692 0.656798
  1141 2.94060 -0.158265 -0.658848
  1142 6.90882 4.18203 5.04650
  1143 31.5035 -2.56794 0.483613
  1144 15.1715 -0.650147 0.562092
  1145 15.1763 -0.654130 -0.576100
  1146 65.5689 13.7508 -3.00509
  1147 34.8664 -3.48441 0.810336
  1148 11.5215 6.39098 10.4692
  1149 0.906987 -0.855940 -0.565078
  1150 0.983829 -0.844472 0.657658
  1151 35.8591 4.51814 3.45416
  1152 2.35759 1.40936 -0.310272
  1153 2.37848 1.40928 0.315693
  1154 35.1127 -3.00902 -1.47039
  1155 -0.0178664 -3.46209 -0.703991
  1156 -0.0194762 -3.46331 0.707152
  1157 37.6197 -3.16079 -2.64849
  1158 -1.70218 0.0515835 0.224634
  1159 -1.71731 0.0518654 -0.225498
  1160 5.26258 2.03656 -1.84077
  1161 5.29142 2.04494 1.81909
  1162 -2.74428 0.00765313 -0.276038
  1163 -2.72741 0.00750112 0.276104
  1164 37.9837 -0.244053 -0.124580
  1165 -4.03047 0.109766 0.122673
  1166 -4.02069 0.109678 -0.120489
  1167 19.1820 -1.46861 -1.60574
  1168 0.491142 -5.70543 -0.261362
  1169 8.85595 -0.229652 0.449358
  1170 8.85532 -0.230862 -0.456745
  1171 31.8656 -0.425112 0.0135648
  1172 31.9281 -0.408505 -0.00701897
  1173 0.526097 -5.48017 0.372872
  1174 37.9319 -1.90111 -2.50833
  1175 43.7678 -0.160884 0.972959
  1176 38.4767 -2.43551 -3.53006
  1177 32.6348 0.211534 5.26988
  1178 0.137106 -1.58279 1.19203
  1179 0.153339 -1.57298 -1.17513
  1180 24.0618 -1.66893 0.655753
  1181 -1.77179 0.135106 0.973061
  1182 -1.76865 0.136293 -0.970415
  1183 64.5689 10.4350 0.582346
  1184 77.6666 22.0681 -15.5077
  1185 39.3818 -3.87638 3.21793
  1186 15.3124 -0.374866 -0.0211469
  1187 15.3115 -0.368679 0.0211433
  1188 83.2711 8.07644 -7.30709
  1189 4.70187 -0.124686 0.683825
  1190 4.69448 -0.122473 -0.687888
  1191 36.1844 -0.119176 -2.12596
  1192 23.0469 -1.82813 1.83398
  1193 38.9675 -3.86449 -2.51116
  1194 37.6605 -2.70421 -2.88314
  1195 22.4987 -0.838651 5.41661
  1196 7.92160 1.53393 -2.69454
  1197 7.91500 1.52001 2.67590
  1198 10.6989 3.89786 -6.47896
  1199 10.7089 3.59718 6.47759
  1200 2.68338 0.914147 -0.759350
  1201 2.70084 0.911105 0.764884
  1202 46.1214 7.93815 -4.35461
  1203 2.14588 1.91082 -0.563396
  1204 2.20048 1.91196 0.578990
  1205 33.3682 -2.47213 0.964302
  1206 64.3594 8.20473 2.83680
  1207 6.83922 -0.293950 -0.442126
  1208 6.84193 -0.293699 0.435516
  1209 42.6612 25.9241 -24.1912
  1210 30.0692 1.76761 -4.19373
  1211 27.2560 2.14009 1.69900
  1212 3.52513 1.60694 -0.907008
  1213 3.54256 1.60637 0.913080
  1214 -0.523212 -0.00295405 0.166177
  1215 -0.531511 -0.00294549 -0.168137
  1216 37.0992 -2.94744 2.48197
  1217 36.5822 -1.34044 1.39067
  1218 24.8486 6.34204 -16.9164
  1219 57.8444 12.5452 0.179470
  1220 24.3190 -0.805688 -6.01705
  1221 31.9455 -0.817909 0.320802
  1222 0.124925 -0.164114 -0.0457640
  1223 0.123378 -0.164034 0.0454741
  1224 -1.34740 0.248780 -0.297828
  1225 -1.33332 0.247670 0.300821
  1226 21.0096 0.167588 -6.34079
  1227 39.9317 -0.758884 1.44167
  1228 25.4286 0.303151 8.87052
  1229 34.8714 -1.60387 -1.17359
  1230 17.6358 5.91746 -13.1177
  1231 27.6959 -1.46439 -6.53654
  1232 33.1745 -3.54098 0.00507426
  1233 41.0483 -0.585008 2.11484
  1234 35.9771 -0.583577 -0.491664
  1235 19.0923 -1.37200 1.61759
  1236 45.2198 -2.75701 -4.16738
  1237 42.2779 3.53556 6.83381
  1238 17.9795 0.0733075 -4.90879
  1239 43.3131 -0.154106 0.206687
  1240 32.8899 4.15449 -0.958056
  1241 13.8354 -0.429088 -0.442625
  1242 13.8303 -0.423315 0.435434
  1243 66.4708 14.1475 2.25353
  1244 93.1590 2.48855 4.38475
  1245 0.0718171 -4.24961 -0.704825
  1246 0.0692961 -4.25506 0.710071
  1247 9.13184 4.62372 7.13954
  1248 22.3361 -0.522100 -0.0198297
  1249 22.3408 -0.517649 0.0287911
  1250 31.2086 -3.11405 -0.295131
  1251 36.7388 2.95249 5.93442
  1252 39.6674 -0.645615 -0.985206
  1253 46.9565 -0.0767609 -0.0241849
  1254 81.3588 17.7543 -10.8974
  1255 11.2706 -0.398643 0.428845
  1256 11.2719 -0.399935 -0.437735
  1257 37.6550 -3.49631 2.57556
  1258 67.6265 15.2423 -3.61106
  1259 36.5849 -1.47728 -1.54868
  1260 26.2212 -1.73447 -0.314953
  1261 32.5742 -3.56172 1.02223
  1262 31.8632 -1.46378 0.610510
  1263 1.05730 -0.502079 -1.06729
  1264 44.0304 -2.84330 4.78352
  1265 35.4554 -2.23192 -1.62368
  1266 1.17232 -0.441862 1.22483
  1267 36.5624 -3.14403 -6.06021
  1268 34.6747 1.70397 -13.8302
  1269 57.6677 6.67357 -2.38782
  1270 47.1706 0.0189624 -0.0190301
  1271 47.0727 -0.0255245 0.0475852
  1272 36.1061 -2.01188 1.70149
  1273 13.2987 1.58706 -4.80581
  1274 41.2277 -3.76869 3.93049
  1275 71.2057 16.0194 6.72667
  1276 16.8279 5.44605 12.7532
  1277 0.372835 -0.135129 1.25685
  1278 0.390640 -0.127123 -1.24465
  1279 43.6133 -3.77546 -2.87697
  1280 16.5471 -0.843522 -0.685228
  1281 16.5419 -0.845438 0.666604
  1282 40.2027 -2.71391 5.58534
  1283 0.638631 0.0244868 0.740512
  1284 0.625310 0.0252671 -0.740869
  1285 -0.245856 -0.875092 1.18252
  1286 -0.244357 -0.873256 -1.18250
  1287 6.02921 -0.208995 -0.623871
  1288 6.03398 -0.210340 0.618048
  1289 20.5451 -1.35015 -2.65739
  1290 20.5968 -0.566445 0.0624696
  1291 20.5970 -0.582604 -0.0542176
  1292 46.9225 0.0184382 -0.0241167
  1293 40.7398 -0.572979 -2.36407
  1294 2.54525 0.174631 -0.895310
  1295 2.55832 0.172397 0.894792
  1296 20.6283 -1.43209 2.62818
  1297 47.4749 -0.0127185 0.00460519
  1298 44.6123 0.0570680 -0.0473991
  1299 44.6176 0.0309626 0.0346312
  1300 58.1870 11.7487 1.79405
  1301 43.2428 -0.180294 -0.448879
  1302 38.1098 -0.220306 0.110420
  1303 42.2622 -0.549294 -1.29729
  1304 46.5872 -0.101489 0.204826
  1305 47.4135 4.63904 6.23269
  1306 55.1466 11.1612 2.35865
  1307 44.8470 -0.136824 -0.657562
  1308 -0.347453 -0.0941917 0.315703
  1309 -0.348772 -0.0941123 -0.316594
  1310 23.9619 -1.41284 0.371104
  1311 23.9563 -1.34432 -0.352247
  1312 47.8553 5.16949 -5.99154
  1313 9.43022 3.21731 -5.26460
  1314 9.49079 3.12415 5.19956
  1315 31.1705 -0.00929817 -2.63291
  1316 33.1956 -0.346682 0.0374465
  1317 33.1551 -0.342053 -0.0441332
  1318 -0.839279 -0.163652 1.21076
  1319 -0.837762 -0.161618 -1.21017
  1320 36.3072 -0.0910261 2.12383
  1321 56.1655 11.2125 0.423905
  1322 2.72962 -0.139214 -0.395053
  1323 2.73596 -0.139553 0.390592
  1324 41.5795 -4.11509 2.48284
  1325 -0.111699 0.591539 1.19598
  1326 -0.100126 0.595155 -1.18867
  1327 6.37039 -0.137703 -0.110264
  1328 6.36992 -0.134848 0.107345
  1329 31.1831 -0.0645010 2.67112
  1330 -0.195920 0.0777039 -0.0544835
  1331 -0.194583 0.0780015 0.0530290
  1332 42.7451 -0.401074 0.878298
  1333 58.9505 10.9250 0.288839
</Section>

newXOutput 7

<Section columns = "stress_xx | stress_yy | stress_xy">
  1 57.8975 -0.101940 0.103221
  2 58.0040 -0.149805 -0.134232
  3 -0.880227 0.0592361 -0.156915
  4 -0.0345157 -0.0560981 -0.0319118
  5 110.168 39.3069 34.3913
  6 111.874 45.2447 -34.7910
  7 -0.0341029 -0.0557421 0.0313763
  8 -0.878098 0.0589145 0.156516
  9 58.3282 -0.0687936 -0.0958114
  10 57.8287 -0.162163 -0.131446
  11 57.8306 -0.118030 0.153328
  12 57.4655 -0.0324748 0.0915941
  13 57.2876 -0.150950 -0.000217984
  14 57.0919 -0.140625 0.281318
  15 56.0793 -0.0813611 0.294290
  16 56.2134 -0.390187 0.404690
  17 54.1856 -0.310814 0.824263
  18 52.8425 -0.109732 0.984057
  19 51.0382 -0.155989 1.04863
  20 47.9851 -0.136329 1.42553
  21 44.7250 -0.127477 1.63346
  22 40.7311 0.194464 2.20440
  23 35.3277 0.297636 1.97777
  24 33.2125 -0.0467911 2.80962
  25 26.5957 0.389430 1.98279
  26 22.6448 0.530372 1.54102
  27 21.6225 0.214469 1.13176
  28 20.5216 0.765845 0.0785900
  29 21.1182 0.843281 -1.51131
  30 22.3433 0.224754 -1.90153
  31 27.2068 0.0674561 -2.55768
  32 32.1786 -0.263144 -2.69128
  33 35.5233 0.245627 -1.97727
  34 40.7946 0.223366 -2.20796
  35 44.5964 -0.154027 -1.74706
  36 48.3353 -0.168860 -1.35024
  37 50.8015 -0.103552 -1.06306
  38 52.6720 -0.113816 -0.911816
  39 54.6515 -0.173350 -0.541461
  40 55.4926 -0.154522 -0.526709
  41 56.2972 -0.149220 -0.456894
  42 57.1311 -0.176270 -0.121663
  43 57.4753 -0.234745 -0.202457
  44 57.1795 0.0734947 -0.0448611
  45 57.7681 -0.100501 -0.168725
  46 58.0927 -0.258415 0.143124
  47 58.4122 -0.138055 -0.0111551
  48 55.1811 0.129365 -0.0864420
  49 51.5924 -0.0692819 -0.168376
  50 47.5868 -0.303947 -0.260935
  51 43.4894 -0.187197 -0.192597
  52 39.9598 -0.436953 -0.178429
  53 36.2685 -0.494816 -0.167547
  54 32.5754 -0.414832 -0.0976979
  55 28.7236 -0.475040 -0.125561
  56 25.4851 -0.551600 -0.158182
  57 21.2042 -0.550606 -0.135773
  58 16.8156 -0.322694 -0.0869506
  59 13.1979 -0.198690 -0.0726558
  60 8.74264 -0.124302 -0.0439674
  61 5.50267 -0.146107 -0.234796
  62 2.48565 -0.234716 -0.0851911
  63 -0.550769 0.0303295 0.126258
  64 -1.30901 0.216937 0.0344218
  65 -1.49541 0.0905193 0.122322
  66 -1.32240 0.0423758 0.112208
  67 -1.86013 0.126387 0.0250343
  68 -2.02936 0.162496 0.246655
  69 -2.01187 0.0559587 0.0562799
  70 -2.94106 0.116841 0.0666137
  71 -3.33287 0.0853558 0.229062
  72 -3.39999 0.0333947 0.235442
  73 -4.37294 0.112985 0.164625
  74 -4.68851 0.164725 0.357375
  75 -4.99697 0.100145 0.0883218
  76 -5.43275 0.0713051 0.166782
  77 -5.51421 0.0777128 0.0341357
  78 -5.89372 0.176564 -0.169886
  79 -5.86174 0.121185 -0.129992
  80 -5.26883 0.0951330 -0.211694
  81 -4.48042 0.117062 -0.369564
  82 -3.59174 0.0467714 -0.530265
  83 -2.64155 0.0236921 -0.540990
  84 -1.57316 -0.0603516 -0.560787
  85 -0.666053 -0.0465780 -0.320407
  86 -0.273920 -0.115697 -0.196921
  87 -0.0496238 -0.280093 -0.167439
  88 -0.0869463 -0.715613 -0.307369
  89 -0.0973571 -1.44158 -0.550704
  90 -0.0255996 -2.72073 -0.605603
  91 0.0273732 -3.80652 -0.771266
  92 0.0714784 -5.49790 -0.634286
  93 0.219678 -6.57850 -0.757338
  94 0.0279520 -7.20834 -0.657471
  95 -0.0181978 -8.38562 -0.448124
  96 0.224627 -8.38227 -0.230198
  97 0.885733 -10.9654 0.249175
  98 0.732185 -6.70573 1.08069
  99 1.80382 -4.24036 2.60133
  100 5.61985 6.23064 9.04493
  101 25.4185 27.9365 27.6472
  102 144.556 14.7690 21.6558
  103 119.254 4.18347 7.76643
  104 113.206 1.78913 2.69567
  105 109.747 1.19543 -0.0117060
  106 111.902 1.70738 -2.19985
  107 120.498 3.58257 -6.46801
  108 143.078 11.8627 -20.3084
  109 16.3659 31.7359 -22.8125
  110 3.93636 3.72715 -6.87854
  111 1.32515 -5.15357 -2.09718
  112 0.663225 -7.24871 -0.889841
  113 0.883028 -11.3556 -0.155612
  114 0.215973 -8.55783 0.298022
  115 -0.0310502 -8.47462 0.483808
  116 0.0196506 -7.24361 0.676747
  117 0.215247 -6.58804 0.765601
  118 0.0697627 -5.49629 0.637426
  119 0.0260518 -3.80213 0.772514
  120 -0.0262424 -2.71470 0.605390
  121 -0.0974604 -1.43766 0.549681
  122 -0.0871316 -0.712147 0.306370
  123 -0.0496003 -0.278796 0.166535
  124 -0.272351 -0.115563 0.196177
  125 -0.663301 -0.0467692 0.319624
  126 -1.56975 -0.0607925 0.560380
  127 -2.63775 0.0232249 0.541187
  128 -3.58993 0.0462700 0.531228
  129 -4.48203 0.116724 0.371334
  130 -5.27387 0.0951257 0.213550
  131 -5.87111 0.121117 0.131767
  132 -5.90656 0.176609 0.171696
  133 -5.53085 0.0779361 -0.0326348
  134 -5.45211 0.0715773 -0.165754
  135 -5.01749 0.100441 -0.0875836
  136 -4.71023 0.165063 -0.357233
  137 -4.39489 0.113290 -0.164524
  138 -3.42106 0.0335797 -0.235713
  139 -3.35349 0.0856687 -0.229632
  140 -2.96018 0.117291 -0.0673974
  141 -2.02786 0.0562654 -0.0575944
  142 -2.04197 0.162775 -0.248472
  143 -1.86993 0.126437 -0.0266668
  144 -1.32802 0.0423049 -0.113747
  145 -1.49780 0.0903421 -0.123541
  146 -1.30935 0.216612 -0.0354976
  147 -0.549485 0.0301486 -0.126862
  148 2.48663 -0.235573 0.0845130
  149 5.50327 -0.148394 0.234012
  150 8.74366 -0.128412 0.0429910
  151 13.1995 -0.204665 0.0721189
  152 16.8166 -0.329674 0.0868157
  153 21.2031 -0.556727 0.136621
  154 25.4788 -0.554867 0.160057
  155 28.7120 -0.471809 0.130129
  156 32.5572 -0.401754 0.103102
  157 36.2425 -0.463260 0.159053
  158 39.9754 -0.445423 0.158033
  159 43.5002 -0.242547 0.202689
  160 47.6255 -0.293629 0.239659
  161 51.7032 -0.0387972 0.170575
  162 55.0690 0.126351 0.0834326
  163 30.6472 -2.73223 -1.99038
  164 30.5147 -2.78104 1.98620
  165 8.70787 2.47744 -3.15725
  166 8.79581 2.48776 3.14031
  167 36.6215 -1.95026 8.88090
  168 38.4809 -2.19176 -8.62797
  169 16.9751 -0.846026 0.865487
  170 16.9760 -0.836986 -0.883675
  171 39.2587 -1.18409 0.557935
  172 38.4138 -1.18763 -0.547598
  173 51.6605 9.44807 -1.54381
  174 53.3030 0.131757 -7.86704
  175 52.1372 0.574146 8.33489
  176 11.5652 -0.406803 -2.06819
  177 11.5627 -0.402971 2.06168
  178 46.0454 -4.59419 3.20775
  179 45.9638 -3.53194 -4.13731
  180 0.414439 0.905738 1.37545
  181 0.432748 0.911690 -1.36486
  182 62.8584 12.6857 2.95770
  183 11.5155 5.02891 -7.74391
  184 12.4038 5.08400 8.36032
  185 44.5949 -1.95266 2.10401
  186 67.1006 13.7950 -2.04114
  187 28.1424 -0.867991 -0.103369
  188 28.0924 -0.895598 0.0996063
  189 45.9857 -1.30711 -1.89117
  190 61.8987 -0.972422 0.264764
  191 9.90252 -0.282986 0.301954
  192 9.90263 -0.286156 -0.308983
  193 4.07493 0.623691 -1.29824
  194 4.09463 0.617323 1.30081
  195 25.0511 -0.979539 -5.33963
  196 24.9511 -1.03677 5.41255
  197 30.1064 -1.84067 -0.441224
  198 30.1681 -1.83011 0.501025
  199 6.80750 -0.235486 1.05220
  200 6.79930 -0.231854 -1.05614
  201 61.2843 -1.72496 2.94738
  202 49.5030 -5.03270 -1.86837
  203 47.4237 -0.302728 -0.363112
  204 46.2733 -0.394210 0.381165
  205 45.5421 5.31331 5.74412
  206 1.75978 1.28532 -0.187684
  207 1.83055 1.27992 0.218658
  208 46.0550 -1.89684 6.71585
  209 41.5488 3.13286 -6.45821
  210 30.2174 6.20347 -18.9269
  211 31.7760 5.22523 17.5589
  212 0.362337 0.975633 0.175832
  213 0.379114 0.975047 -0.168188
  214 45.8599 -1.68492 -6.91600
  215 81.5662 11.5919 -0.680770
  216 38.1474 -4.21829 2.73350
  217 38.4584 -4.19022 -2.54918
  218 38.1381 -2.61282 -0.764901
  219 48.1031 -0.600971 1.05586
  220 22.2095 -1.46819 -1.71517
  221 21.8323 -1.46118 1.78577
  222 13.0342 0.312414 -3.24614
  223 13.0507 0.306731 3.21242
  224 49.0714 -5.35098 0.278098
  225 37.8018 -2.78819 0.605398
  226 47.9460 -0.576312 -0.869198
  227 36.7324 -0.743240 0.182871
  228 37.0778 -0.676727 -0.108746
  229 46.8470 -2.03719 4.05911
  230 3.09543 0.0626096 -1.12012
  231 3.10981 0.0607853 1.11883
  232 -0.647186 -0.453643 -1.63202
  233 -0.650221 -0.457220 1.63348
  234 5.80152 -0.276983 -0.586633
  235 5.80737 -0.277640 0.579790
  236 18.7172 -0.471983 0.370889
  237 18.7242 -0.483040 -0.375471
  238 22.1459 1.46751 -8.05681
  239 22.1479 1.21259 7.96007
  240 47.5841 -1.40931 -3.46989
  241 21.5151 -1.22417 -3.04226
  242 21.5310 -1.26289 2.98793
  243 40.8617 0.565197 7.25674
  244 34.9151 3.03933 0.435088
  245 40.5809 -4.01436 -0.811735
  246 0.112725 -1.19089 -1.60149
  247 0.0992891 -1.20109 1.61325
  248 2.38123 1.93537 -2.32422
  249 2.54518 1.84086 2.47239
  250 39.8739 -3.92316 0.535947
  251 73.4990 12.7645 0.506785
  252 3.35272 2.34318 -0.762742
  253 3.39617 2.34106 0.775759
  254 -1.71677 0.304014 1.19640
  255 -1.70918 0.305551 -1.19126
  256 74.0413 11.8095 -0.142649
  257 24.5950 -1.07842 -0.515027
  258 24.5739 -1.05796 0.496302
  259 49.8198 -3.48226 6.47817
  260 92.0567 14.9145 8.85389
  261 13.8617 -0.702060 -1.65866
  262 13.8554 -0.707011 1.65528
  263 50.0669 7.46652 -5.63307
  264 88.5171 16.6875 -7.82273
  265 61.0393 5.64429 5.99869
  266 67.5359 2.93457 -11.3883
  267 40.6813 -1.77559 1.07221
  268 45.8346 0.107930 -8.28124
  269 43.8965 -3.02422 -2.56677
  270 49.2730 -0.795496 2.23875
  271 -0.540458 0.462581 -0.266208
  272 -0.523925 0.460978 0.271404
  273 48.9006 -2.09324 -11.2558
  274 4.60484 1.54754 -1.25860
  275 4.62782 1.54415 1.26649
  276 46.7983 -1.11679 -4.28851
  277 6.36707 5.82827 -7.99198
  278 4.03990 -0.00937399 -0.129231
  279 4.04030 -0.00808040 0.126356
  280 49.5878 -3.20775 -6.72160
  281 8.17340 3.66812 -4.07544
  282 8.29498 3.64535 4.08617
  283 1.38883 -0.0626875 0.795367
  284 1.37421 -0.0617457 -0.796789
  285 40.6304 -1.66981 -1.03806
  286 6.40619 5.75868 8.23072
  287 66.4481 3.60707 13.5485
  288 16.6210 -0.603279 -0.477670
  289 16.6151 -0.598359 0.466754
  290 32.0402 -1.16866 0.0144738
  291 32.0232 -1.28210 0.0176165
  292 27.3318 2.41614 -12.5929
  293 44.7615 -4.95074 -1.47869
  294 51.8934 -0.195645 0.482853
  295 26.2907 2.39579 12.1476
  296 30.5992 -0.658970 0.0222807
  297 30.5869 -0.657989 0.00610351
  298 43.9595 -3.15896 2.61814
  299 51.2161 -0.439658 -1.11829
  300 -1.06057 0.196904 -0.561730
  301 -1.04276 0.195466 0.563813
  302 63.3215 12.7731 -0.904513
  303 56.0982 -2.89246 4.00551
  304 51.1780 -0.122664 -0.149064
  305 52.1497 -0.103577 0.135004
  306 50.4565 -4.72268 3.49154
  307 62.3228 6.02539 -5.70759
  308 53.3999 10.0024 3.37924
  309 23.4320 -1.36007 -0.966156
  310 23.2030 -1.38707 0.992702
  311 51.8628 -0.181495 -0.355427
  312 33.0238 -2.57795 -5.89667
  313 32.3880 -2.47443 0.604610
  314 30.8884 -1.77294 6.81624
  315 50.6936 -0.507909 1.31595
  316 10.1629 -0.462151 -1.01029
  317 10.1672 -0.465763 1.00377
  318 46.4692 -1.96329 11.1321
  319 28.6930 -2.20297 -1.20107
  320 53.6383 6.72733 7.15429
  321 16.4628 1.17510 -5.03104
  322 15.8206 1.22638 4.98111
  323 3.46003 -0.0896026 -0.236520
  324 3.46358 -0.0888567 0.231919
  325 44.5454 -0.721616 0.708471
  326 42.6671 -0.408361 0.155907
  327 42.4126 -0.465850 -0.172038
  328 46.3890 -1.17819 4.52943
  329 2.70443 -0.129094 0.569408
  330 2.69307 -0.127744 -0.573388
  331 12.2670 -0.257466 -0.194969
  332 12.2649 -0.251829 0.191886
  333 0.384914 -2.44248 -1.02884
  334 0.355874 -2.45879 1.06337
  335 34.6687 1.47423 4.87439
  336 56.6724 -2.79838 -3.46667
  337 36.0227 -1.77182 0.553011
  338 41.1464 -0.635574 -0.453189
  339 41.7307 5.23538 -3.05661
  340 7.36806 -0.220709 -1.51246
  341 7.37595 -0.220702 1.50971
  342 34.9678 -1.65980 -0.356842
  343 9.14881 0.373456 -2.21039
  344 9.16502 0.364929 2.20052
  345 1.56436 1.52747 0.320433
  346 1.58690 1.52662 -0.311344
  347 42.9472 -4.73560 3.67740
  348 98.3137 6.54425 2.49614
  349 36.8871 0.494868 -5.79354
  350 31.4571 -2.83054 3.39572
  351 31.2956 -2.77765 -3.51612
  352 46.7628 -0.889460 8.24034
  353 41.0247 -0.339788 5.78222
  354 42.3576 -4.58026 -3.82081
  355 24.4182 -0.491512 -0.0548432
  356 24.4151 -0.499611 0.0612523
  357 46.8692 -3.07147 5.28578
  358 64.1049 12.9372 0.643290
  359 50.8716 -0.487765 -1.65836
  360 11.7068 -0.429332 -0.695542
  361 11.7090 -0.429503 0.685450
  362 47.6500 -4.75827 -4.68844
  363 49.3832 3.31403 -8.28760
  364 31.5413 1.71049 -3.11252
  365 47.1682 -3.18882 -5.97537
  366 -1.59546 0.0293983 -1.26472
  367 -1.59727 0.0276399 1.26635
  368 39.6428 -0.753192 0.368019
  369 -0.565281 -0.340101 -0.721425
  370 -0.564715 -0.340258 0.720091
  371 30.9219 13.8906 -23.2211
  372 1.02704 0.857012 1.06602
  373 1.05690 0.864347 -1.05038
  374 40.6696 -0.359612 -5.73200
  375 22.0297 -0.845021 0.381418
  376 22.0482 -0.858620 -0.389031
  377 -0.181918 -1.72423 1.43485
  378 -0.179352 -1.72108 -1.43320
  379 24.9110 14.6316 21.7910
  380 17.9017 -0.916115 -2.31241
  381 17.9134 -0.872622 2.31401
  382 5.56919 3.96462 -3.70235
  383 5.69215 3.94909 3.67594
  384 -2.62001 0.340356 0.569513
  385 -2.60977 0.340775 -0.564186
  386 47.4918 3.05788 8.23633
  387 36.5379 -3.81982 1.27024
  388 36.5769 -3.28146 0.158896
  389 44.7271 -5.15588 0.125498
  390 10.4638 1.37259 -3.16227
  391 10.4981 1.36914 3.15498
  392 0.899193 -1.97043 -0.224392
  393 0.845630 -1.99188 0.300648
  394 44.1358 6.37359 2.04151
  395 45.8379 -1.17169 1.58521
  396 25.3672 -1.92586 2.04828
  397 15.2856 -0.348349 -2.83798
  398 15.2884 -0.350941 2.81087
  399 32.8292 -0.824236 0.104707
  400 32.7906 -0.698855 -0.132874
  401 25.1481 -1.98251 -2.20789
  402 19.4607 -0.305131 -3.96357
  403 19.4546 -0.333005 3.99741
  404 47.5934 -4.42249 -3.98352
  405 26.9093 -1.99861 1.14350
  406 43.3763 -1.16365 1.06104
  407 43.3138 -1.03999 -0.919723
  408 35.8714 -3.25422 -0.295229
  409 52.9514 -0.123795 -0.506203
  410 16.9526 6.56345 -12.6674
  411 49.0673 -0.650944 2.65889
  412 52.7081 -0.178801 0.712731
  413 17.4968 -0.892300 1.29601
  414 17.5081 -0.879279 -1.29483
  415 36.3685 -3.77299 -1.33616
  416 4.71503 2.21313 1.34476
  417 4.68884 2.21220 -1.34750
  418 99.4036 6.53870 -5.14298
  419 42.3541 -2.30287 -1.62605
  420 53.4839 -0.0772175 0.292204
  421 15.9558 6.08103 12.0109
  422 78.1650 13.2734 2.19622
  423 45.8620 -0.525916 -0.576486
  424 33.5584 -2.33950 -0.185494
  425 13.5127 2.61718 -5.72564
  426 14.4314 2.43188 5.69124
  427 41.7998 -2.54892 1.66119
  428 43.8320 -0.576948 -4.30313
  429 -1.27866 -0.0309666 0.588561
  430 -1.29663 -0.0304907 -0.588642
  431 15.4026 3.64587 -7.85622
  432 15.4503 3.66074 7.83030
  433 1.35057 0.868244 -0.458341
  434 1.36891 0.866067 0.464812
  435 37.4293 -0.527302 0.158926
  436 37.3844 -0.507859 -0.145157
  437 46.7567 -2.08823 -4.23486
  438 -0.218133 -0.248643 1.83001
  439 -0.209957 -0.241766 -1.82382
  440 48.2609 -4.84412 3.59948
  441 45.8029 -1.07848 -1.42300
  442 74.1497 14.2625 -1.61557
  443 1.46501 -0.121436 0.253631
  444 1.45640 -0.121477 -0.257696
  445 90.6254 24.6573 10.2625
  446 1.64612 -0.370467 -2.11340
  447 4.63922 0.284949 -1.44948
  448 4.65490 0.280739 1.44796
  449 90.1559 25.1461 -9.59622
  450 1.74402 -0.172423 2.37334
  451 -2.63843 0.277905 0.264577
  452 -2.62543 0.277383 -0.259658
  453 4.52050 3.07736 -1.99481
  454 4.60312 3.07638 2.00678
  455 57.4269 8.81789 -6.12984
  456 46.3493 -1.71851 -2.84509
  457 53.1690 -0.0986482 -0.267590
  458 48.3332 -0.707170 -3.09151
  459 -0.697168 0.276967 1.68899
  460 -0.688916 0.281293 -1.68329
  461 46.8087 -1.80871 3.25398
  462 29.7554 -1.55423 -0.326118
  463 29.6580 -1.57242 0.218829
  464 41.0413 -4.54441 -0.0309882
  465 28.9100 -0.500405 -8.48984
  466 44.3367 -0.693865 4.40897
  467 36.4512 -1.00198 -0.255960
  468 54.3566 -4.36174 0.246928
  469 27.9756 0.128730 9.13870
  470 0.960800 -0.0259959 0.566751
  471 0.946275 -0.0251716 -0.568860
  472 58.8082 11.6746 -2.93291
  473 47.9540 -0.189865 0.0722536
  474 47.7798 -0.236095 -0.118632
  475 35.3549 -2.24901 -0.212708
  476 14.4156 -0.446238 -0.365365
  477 14.4118 -0.439661 0.358508
  478 8.28768 -0.0627544 -1.79811
  479 8.29555 -0.0643948 1.79236
  480 27.9911 1.09733 1.84909
  481 6.31361 -0.217725 0.836228
  482 6.30624 -0.215415 -0.842312
  483 7.33191 0.775269 2.01554
  484 7.30759 0.786689 -2.01502
  485 45.8851 -3.53674 3.99007
  486 25.0141 -1.54618 -3.68479
  487 22.8169 -0.626912 0.155916
  488 22.8272 -0.646681 -0.156909
  489 25.2871 -1.59673 3.68135
  490 72.2746 16.8201 -0.442765
  491 -1.15803 -0.184756 -0.953102
  492 -1.15762 -0.185638 0.952732
  493 16.8950 -0.403736 -0.143773
  494 16.8925 -0.395602 0.142726
  495 0.00366303 -3.22652 -1.25190
  496 -0.00377080 -3.23664 1.26217
  497 42.0451 -0.439072 0.287612
  498 27.7806 1.36894 -0.924138
  499 38.7249 4.10180 2.72029
  500 24.9171 -0.275752 -6.64542
  501 11.4053 -0.575225 1.28166
  502 11.4070 -0.570147 -1.28544
  503 -3.76566 0.111715 -0.143431
  504 -3.74822 0.111089 0.145504
  505 49.3977 -1.06129 -8.28541
  506 2.39058 0.0356644 -0.181839
  507 2.39254 0.0363407 0.178561
  508 41.1225 -3.16684 -1.49047
  509 43.9229 -3.70503 -2.55135
  510 8.52960 6.17014 -8.29635
  511 36.8367 0.694210 -13.7785
  512 0.202129 1.02245 0.977713
  513 0.218950 1.02428 -0.968649
  514 21.6893 -0.919960 -0.624616
  515 21.6759 -0.909744 0.603763
  516 64.3642 2.06696 -2.67780
  517 45.7302 -2.64114 -3.60070
  518 8.30377 5.79404 8.16858
  519 45.3278 -5.23513 0.573039
  520 43.4956 -4.12052 2.13528
  521 7.92612 -0.185358 -0.541375
  522 7.92834 -0.184311 0.533913
  523 34.2678 0.337657 4.47363
  524 25.1348 -1.78774 -1.25106
  525 48.5448 -0.964230 2.08082
  526 -0.208033 -1.17323 -0.920294
  527 -0.208543 -1.17255 0.919181
  528 33.3855 -3.00001 4.15460
  529 51.6149 -4.11737 -4.71200
  530 68.2632 3.86932 -1.17541
  531 35.9743 -1.04867 0.295931
  532 9.39217 -0.153835 -0.165541
  533 9.39095 -0.149725 0.163520
  534 22.3027 0.156843 6.37636
  535 64.4916 10.3401 4.66348
  536 67.0748 11.0218 -22.1717
  537 58.8664 -0.0723765 4.71846
  538 41.8967 -4.67845 -0.204360
  539 102.713 8.16299 6.84679
  540 74.3729 17.3473 0.918935
  541 9.32124 -0.374320 1.41108
  542 9.31650 -0.370234 -1.41513
  543 40.2112 -3.26411 1.24069
  544 2.54044 1.38755 -0.357056
  545 2.56159 1.38625 0.364886
  546 50.9634 -4.37722 4.69650
  547 40.4058 2.12466 6.66835
  548 51.7157 -0.271694 1.14541
  549 37.5504 -2.12692 0.732803
  550 53.7501 -0.292337 -14.5193
  551 86.7387 20.2829 13.5878
  552 41.0576 -0.611383 -0.274060
  553 50.6022 -0.456854 -1.79010
  554 7.35090 3.12311 -2.94754
  555 7.40527 3.08465 2.93026
  556 28.0702 -0.991146 -0.181107
  557 28.0557 -0.962870 0.189579
  558 0.284917 -4.38900 -0.135327
  559 51.2830 -1.99465 7.51826
  560 1.67968 1.59286 0.529583
  561 1.70968 1.59660 -0.516077
  562 0.339285 -4.26603 0.242552
  563 46.4577 -2.14003 -5.98460
  564 53.5924 3.16422 -8.11428
  565 53.3547 3.60699 8.10200
  566 2.34946 1.66292 1.42295
  567 2.22275 1.71660 -1.38146
  568 -2.29913 0.0574239 0.428066
  569 -2.31806 0.0579345 -0.427484
  570 49.9209 0.585235 15.0198
  571 26.2866 -1.35457 0.540231
  572 26.3155 -1.34950 -0.561187
  573 60.5332 -1.77420 -7.13790
  574 6.24199 -0.0781085 0.315935
  575 6.24106 -0.0799691 -0.320887
  576 1.91493 -0.0897767 -0.0785953
  577 1.91443 -0.0891528 0.0774553
  578 65.8286 11.4775 -4.02722
  579 5.97881 7.31410 -9.28083
  580 32.5460 0.615654 -3.77545
  581 47.4428 7.64910 -3.51322
  582 0.594567 -0.279033 1.29151
  583 0.623277 -0.269645 -1.27234
  584 50.7261 20.3342 26.3375
  585 41.6517 -0.981096 -0.684822
  586 0.816824 0.431097 -0.654455
  587 0.834522 0.427975 0.658072
  588 48.0673 -3.93057 5.37075
  589 7.10208 7.04806 9.44878
  590 34.3143 -0.529732 -0.0131590
  591 34.3230 -0.523561 0.0129996
  592 -0.0553178 -2.52865 1.26354
  593 -0.0515963 -2.52445 -1.25944
  594 58.6101 11.6030 -0.0937408
  595 37.2821 -3.12658 6.15966
  596 35.4993 -1.35714 0.311532
  597 35.9315 1.24440 14.5598
  598 -3.07850 0.140061 0.781840
  599 -3.07534 0.140803 -0.779024
  600 59.6461 0.335028 -5.03149
  601 81.3663 11.6818 -9.34864
  602 21.8679 2.11699 -9.42328
  603 11.1393 -0.442573 -1.74416
  604 11.1478 -0.442325 1.74328
  605 54.5916 -0.112225 0.354112
  606 35.1216 -1.39083 -0.360836
  607 48.0508 -0.495431 0.804330
  608 46.4660 -2.13285 5.85167
  609 0.535022 -0.0703016 0.268940
  610 0.523402 -0.0699716 -0.272012
  611 26.9090 -0.797827 -0.0926570
  612 26.9042 -0.770576 0.0838835
  613 16.4640 0.393117 -4.10111
  614 16.3502 0.397617 4.07832
  615 68.7728 3.04945 2.77484
  616 115.006 8.66111 -12.6532
  617 -1.89876 -0.0620800 0.383258
  618 -1.91765 -0.0618431 -0.383542
  619 15.1499 -0.599689 0.694137
  620 15.1517 -0.599253 -0.707862
  621 63.5953 2.83473 3.54556
  622 54.1047 -0.0855234 -0.112821
  623 53.9743 -0.173428 0.0596678
  624 36.9466 -0.0480709 4.44458
  625 55.9227 -3.71238 -4.04351
  626 29.3719 -2.35318 1.51040
  627 -0.969800 0.636773 -0.865221
  628 -0.982342 0.636007 0.872278
  629 47.6298 0.843545 8.59530
  630 18.1086 -0.998368 -1.78760
  631 18.0868 -1.01626 1.79136
  632 38.9698 -2.12324 -0.880398
  633 48.8135 -0.953552 -1.89086
  634 26.9475 -2.11432 -2.53248
  635 44.2626 5.34038 -5.21041
  636 30.0266 -2.10443 -4.92786
  637 9.82686 -0.252264 -0.261025
  638 9.82578 -0.248496 0.255883
  639 27.2452 -2.15658 2.53668
  640 60.0590 9.42602 5.67319
  641 47.5283 -2.39230 7.35655
  642 38.9255 -1.57232 0.769711
  643 27.2196 -0.570263 0.115912
  644 27.2125 -0.572307 -0.110371
  645 20.0441 -0.658999 -0.468362
  646 20.0341 -0.650005 0.460517
  647 45.9543 -4.23864 -3.37395
  648 22.3542 -1.18272 0.835927
  649 22.3816 -1.17821 -0.861618
  650 44.9131 7.02595 -0.707646
  651 42.4404 -2.10378 1.61995
  652 54.1985 -0.184123 -0.528089
  653 44.5647 -0.895584 -7.50414
  654 5.38886 -0.252079 1.12858
  655 5.37888 -0.250164 -1.13077
  656 52.5982 -0.220580 -1.03348
  657 8.70114 4.41722 -5.70735
  658 8.85442 4.40343 5.73594
  659 53.4454 -3.65941 5.99459
  660 17.5659 4.25876 9.91945
  661 3.42477 8.23228e-05 1.13374
  662 3.41202 0.00103834 -1.13540
  663 45.1910 -3.21761 8.10481
  664 44.8912 5.30402 -20.1213
  665 42.2810 1.23978 -7.42507
  666 56.6090 10.1733 4.75985
  667 38.2116 -1.53392 -0.596618
  668 69.2307 12.7005 -0.306038
  669 -3.79051 0.156424 -0.0407015
  670 -3.77553 0.155960 0.0437819
  671 30.2064 -0.0287644 -10.0614
  672 0.538314 -0.0386413 0.218222
  673 0.531578 -0.0387648 -0.221275
  674 38.2371 -3.36129 -6.07559
  675 11.9864 1.70548 -3.92475
  676 11.8833 1.70984 3.92110
  677 -0.221367 0.619865 -0.0158072
  678 -0.205140 0.618805 0.0224152
  679 32.1464 -2.71898 -0.977621
  680 45.9098 -0.447140 -2.91050
  681 21.0346 -0.551493 -0.180739
  682 21.0341 -0.543378 0.182673
  683 14.8523 -0.726831 -1.09490
  684 14.8622 -0.737815 1.08875
  685 2.68313 2.21311 -0.404472
  686 2.73195 2.21666 0.419934
  687 48.0230 -0.400407 0.456534
  688 20.1337 -1.22449 1.44018
  689 20.2752 -1.20070 -1.43771
  690 52.8831 -4.49300 -1.53449
  691 43.1849 -4.33459 -1.67026
  692 33.6100 -0.761807 0.147941
  693 33.4832 -0.694894 -0.128057
  694 47.8473 -5.25440 1.81362
  695 78.3529 15.6833 3.38599
  696 41.9141 -2.17986 -10.2732
  697 48.0959 -1.27613 3.18592
  698 47.3582 -1.86393 -7.83587
  699 13.5919 -0.381252 -0.482426
  700 13.5890 -0.377447 0.473305
  701 37.0904 -0.929120 11.6060
  702 108.080 13.6399 12.5253
  703 6.51974 2.00426 -2.08052
  704 6.52830 2.01713 2.08763
  705 47.9219 -0.283722 -0.239070
  706 48.3247 -0.242847 0.241950
  707 19.7116 9.19654 -16.4977
  708 50.5596 -0.214466 1.76895
  709 43.6639 -0.551524 0.431729
  710 56.6973 11.3770 -1.81444
  711 5.14148 1.03183 -1.44689
  712 5.16477 1.02504 1.45247
  713 55.2823 -0.0678971 0.0808031
  714 43.7606 -1.53221 -1.53095
  715 54.6943 -1.10809 6.78896
  716 21.4544 -1.46628 -2.41080
  717 21.5087 -1.39883 2.38149
  718 3.81245 -0.153308 0.855327
  719 3.80144 -0.151169 -0.858941
  720 50.2259 -0.184521 -0.392447
  721 43.0662 7.40464 21.4568
  722 0.181625 0.149914 1.61891
  723 0.197103 0.158478 -1.60838
  724 50.1849 -0.405395 -0.931011
  725 48.5713 -0.747075 1.31218
  726 36.7483 -0.0131264 -4.76698
  727 0.320728 -4.76398 -0.745555
  728 0.297472 -4.80645 0.788338
  729 16.8826 4.37448 -9.90994
  730 38.1307 -3.91786 -4.19108
  731 19.5049 9.13290 16.6839
  732 54.4279 -0.0536467 0.230574
  733 50.7082 7.55698 5.67436
  734 35.8150 3.29332 -1.88715
  735 67.4103 13.6306 -0.610445
  736 53.4660 -0.153290 0.697207
  737 -3.84943 0.0805746 0.292931
  738 -3.86843 0.0810185 -0.291732
  739 56.5756 -3.64259 0.513967
  740 35.9203 -0.840898 0.181179
  741 12.2828 0.0670073 -2.70706
  742 12.2971 0.0540670 2.68689
  743 48.7183 -0.410273 -0.604734
  744 86.6669 12.3357 -4.13924
  745 4.33226 -0.143183 -0.500415
  746 4.34062 -0.144110 0.494972
  747 54.8035 -0.0760516 -0.339024
  748 9.37659 -0.420962 -0.704165
  749 9.38031 -0.422470 0.696193
  750 52.5735 -2.31616 -6.90539
  751 48.4083 -0.478314 2.38696
  752 42.6271 -0.361400 7.37069
  753 55.0195 -0.0798014 -0.0353070
  754 50.8697 -0.246692 0.730216
  755 32.2547 -1.59575 0.0645081
  756 41.1001 -0.885306 0.560603
  757 46.6287 -2.86779 -5.12563
  758 45.5511 -2.80624 3.50549
  759 53.0272 6.24385 -7.20372
  760 44.9590 -2.42704 2.69423
  761 47.3201 -2.85570 6.44403
  762 26.7777 -1.71914 0.805259
  763 0.877524 -0.730395 -0.424117
  764 0.825671 -0.732408 0.472839
  765 41.7227 -0.413025 0.0398554
  766 41.6308 -0.408208 -0.0559573
  767 50.7966 -0.0785794 -0.0516717
  768 50.9858 -0.0670301 0.0645029
  769 47.4904 -1.29011 3.82980
  770 43.9030 -4.24519 5.66483
  771 35.6325 -2.80590 -0.00558754
  772 31.4402 -1.74348 0.178195
  773 88.5750 11.4280 4.93570
  774 48.2714 -1.12867 -2.57218
  775 27.8011 4.46878 -15.5587
  776 44.6956 -2.09302 -2.36000
  777 0.912485 0.0529236 -0.768041
  778 0.929285 0.0512994 0.768528
  779 38.4622 3.37916 -4.23961
  780 105.473 3.22203 -1.40470
  781 49.9422 1.10852 -8.50185
  782 1.86653 -0.444292 -3.36983
  783 50.8412 9.27199 1.46877
  784 40.1874 -2.43353 1.14845
  785 44.7999 -1.19109 7.29726
  786 37.9212 -4.08899 4.21636
  787 62.2709 -1.24861 9.06578
  788 2.01227 0.0228474 3.62903
  789 27.0333 -0.243946 7.70080
  790 38.4449 -0.789675 -0.321327
  791 42.9903 -4.06122 -5.74241
  792 25.6372 -1.94176 -1.65456
  793 20.1529 0.930002 -6.63547
  794 49.6140 -0.933226 8.34018
  795 31.3871 -2.03540 0.478764
  796 4.65414 -0.150995 0.469946
  797 4.64909 -0.151266 -0.475919
  798 46.0563 -0.237225 2.58488
  799 41.1098 0.135295 -7.12260
  800 -3.83353 0.160362 0.515503
  801 -3.82797 0.160613 -0.512494
  802 30.5076 -0.786755 0.0781702
  803 30.4118 -0.732669 -0.0872795
  804 22.4608 2.38769 9.57622
  805 19.5859 -1.08535 1.03336
  806 19.6178 -1.05629 -1.04874
  807 54.8148 -0.0357709 -0.202979
  808 18.0547 1.40996 6.44405
  809 -0.791561 -0.0153360 0.299870
  810 -0.807096 -0.0149313 -0.301771
  811 45.4804 -1.42871 5.69491
  812 49.7610 -0.273963 0.323179
  813 -2.65155 0.0198373 0.750183
  814 -2.65165 0.0206248 -0.748739
  815 29.6266 -1.91553 5.60484
  816 5.41688 4.26842 -4.70866
  817 5.48635 4.04116 4.62781
  818 26.2963 1.20190 0.768751
  819 -1.72218 -0.0178970 -0.348501
  820 -1.70369 -0.0181756 0.347763
  821 34.2772 -3.30876 -3.93211
  822 47.4143 -5.06785 -2.38154
  823 -0.230277 -0.219514 -0.285974
  824 -0.229648 -0.219048 0.284969
  825 0.782172 0.0901124 -0.0628144
  826 0.782644 0.0906012 0.0610777
  827 41.9699 -3.68895 1.68328
  828 35.0405 -3.61285 2.55010
  829 39.2012 -0.451334 0.232300
  830 34.9369 -2.73243 -0.136850
  831 11.5860 -0.147893 -0.0378838
  832 11.5844 -0.142460 0.0365868
  833 -4.39508 0.0912505 0.330715
  834 -4.38635 0.0911153 -0.327810
  835 44.6844 -0.384363 -0.320215
  836 37.8840 1.43450 -6.01724
  837 45.1267 -0.718898 -0.847651
  838 25.6887 -1.90074 1.55852
  839 43.7406 -0.800626 -5.94751
  840 47.4418 -1.40460 -3.96015
  841 44.8810 -0.302174 0.291303
  842 32.0617 -1.35382 7.91504
  843 34.2694 -3.31602 -1.20386
  844 20.1618 -0.145382 -4.97138
  845 20.2774 -0.00470852 4.99730
  846 28.9345 -2.07966 -0.875075
  847 48.4249 5.15176 7.25713
  848 46.7453 -5.05704 -2.76568
  849 15.5739 -0.437075 -0.224064
  850 15.5700 -0.428790 0.220258
  851 35.3174 -0.603642 -0.0942098
  852 35.3175 -0.610505 0.104638
  853 41.5221 -0.336812 -3.86443
  854 13.1170 -0.528015 -0.878086
  855 13.1219 -0.532286 0.867418
  856 0.153851 -4.63647 -0.976459
  857 0.144782 -4.65570 0.994398
  858 5.63655 -0.0804789 -0.0613302
  859 5.63711 -0.0827635 0.0597791
  860 44.2906 -0.504133 -0.453003
  861 32.9222 -3.12896 2.27111
  862 52.1866 -4.69058 2.58192
  863 28.3620 0.607168 2.94921
  864 45.2718 -0.898587 0.958900
  865 49.2159 -4.53119 -4.38993
  866 6.24932 0.466721 -1.73172
  867 6.26766 0.459290 1.72920
  868 38.9919 -0.499565 -0.214229
  869 30.8976 -0.910691 -0.0121344
  870 30.7821 -0.900294 0.0394583
  871 47.6029 7.45709 3.95204
  872 16.0370 -0.121272 -3.33512
  873 16.0176 -0.140816 3.31628
  874 33.2346 -2.94662 0.867438
  875 2.83186 1.97061 -0.323921
  876 2.86232 1.96592 0.331786
  877 27.9063 -2.00353 4.46125
  878 33.7454 -2.03091 0.0977077
  879 41.7994 -0.348171 3.90581
  880 41.8720 -4.77261 0.892584
  881 48.1192 -3.73592 -5.73719
  882 32.8423 -3.15517 -2.31342
  883 26.9847 -1.71034 -0.761253
  884 93.0165 7.74473 -1.39375
  885 43.9342 -4.68360 1.42694
  886 0.959192 1.31043 0.824914
  887 0.981121 1.31249 -0.813865
  888 37.9382 -3.77055 0.149334
  889 41.8227 -4.79983 -2.08712
  890 0.948899 1.18940 0.358890
  891 0.967815 1.18930 -0.350664
  892 14.8568 -0.489087 2.45563
  893 14.8699 -0.506374 -2.47457
  894 18.2539 -0.888436 2.70795
  895 18.2502 -0.911971 -2.73213
  896 60.2005 12.1266 2.42451
  897 -0.0987882 -1.86734 -0.902134
  898 -0.0994428 -1.86550 0.901689
  899 13.1236 1.16214 -3.72289
  900 13.0529 1.13746 3.67879
  901 109.301 3.55958 -5.59856
  902 0.289240 -0.00201646 0.114276
  903 0.285410 -0.00237888 -0.116662
  904 0.155489 -5.57829 0.497032
  905 0.184795 -5.49468 -0.426114
  906 -1.99996 -0.0327449 0.751292
  907 -2.00180 -0.0321556 -0.750969
  908 10.4578 3.10948 -4.42732
  909 10.6224 3.00732 4.35540
  910 -0.961609 -0.00999111 -1.63095
  911 -0.965922 -0.0132520 1.63375
  912 2.38702 0.303963 -1.07614
  913 2.40446 0.300270 1.07707
  914 11.1978 -0.0851612 2.24279
  915 11.1924 -0.0847917 -2.25799
  916 8.87831 -0.281802 -1.79277
  917 8.88543 -0.280940 1.78804
  918 52.7166 -0.151179 -0.998105
  919 24.9153 4.98304 14.3844
  920 34.6271 -3.38274 1.08471
  921 24.0788 -1.65572 1.19451
  922 47.2596 4.78895 -7.12776
  923 107.450 2.34687 2.20838
  924 57.1604 2.25416 -7.22773
  925 8.19504 -0.312756 1.08801
  926 8.18873 -0.308844 -1.09403
  927 0.620006 -0.0388465 -0.806759
  928 0.635858 -0.0393625 0.806037
  929 -0.0985186 -1.00702 -1.80082
  930 -0.105863 -1.01405 1.80655
  931 24.9009 -0.977245 0.437461
  932 24.9159 -1.00011 -0.441811
  933 2.43650 0.830483 -0.881427
  934 2.45576 0.826542 0.886771
  935 14.6936 -0.617813 -2.04585
  936 14.7015 -0.617317 2.04301
  937 32.1073 -0.199355 -3.48636
  938 15.1101 -0.789368 -1.35019
  939 15.0956 -0.779040 1.35502
  940 39.2443 -0.897749 -0.399629
  941 47.4373 -2.79155 -6.87936
  942 19.7544 -0.716718 0.524025
  943 19.7666 -0.725031 -0.535343
  944 -0.841617 -0.0957330 -0.512760
  945 -0.839517 -0.0959585 0.511781
  946 48.8049 -4.10798 -7.16772
  947 46.3973 -2.68852 4.51700
  948 40.5690 -2.72733 -1.37525
  949 38.4423 1.24914 6.35152
  950 17.0452 -0.914436 -1.53404
  951 17.0418 -0.894554 1.53960
  952 43.5185 1.57266 7.76537
  953 40.1494 3.48379 5.09767
  954 86.2022 10.5119 1.74943
  955 43.4130 -1.39079 1.20084
  956 21.8230 -0.532072 -0.228329
  957 21.8186 -0.518004 0.231335
  958 38.5396 -3.07219 -0.719178
  959 53.0453 9.79691 -3.52539
  960 48.0346 -0.340618 -0.456089
  961 30.5907 -0.557046 0.0698200
  962 30.5775 -0.551367 -0.0604616
  963 3.59879 2.93244 -1.78829
  964 3.69618 2.92357 1.80483
  965 7.46101 16.0028 -16.0970
  966 43.8623 -1.08421 5.92444
  967 55.6742 -1.36678 -6.18516
  968 -1.31146 0.516165 0.498788
  969 -1.29787 0.515885 -0.492250
  970 117.868 26.8440 -21.7504
  971 47.5163 -5.27657 1.34285
  972 50.8844 -4.94399 -1.18737
  973 46.6685 -4.02223 4.26352
  974 57.1850 11.3981 1.59161
  975 3.85889 3.45515 -4.34769
  976 10.4355 13.5713 15.5961
  977 -0.341371 -0.734938 1.76628
  978 -0.336806 -0.729777 -1.76326
  979 45.6797 -0.998500 1.16362
  980 73.3804 13.1687 -1.23391
  981 3.97710 3.35466 4.54968
  982 -0.205974 -0.657066 -0.570104
  983 -0.206047 -0.655409 0.568765
  984 38.8674 -0.691755 0.231107
  985 28.4221 -2.20554 -1.71051
  986 47.0150 -3.74635 -4.92798
  987 12.6934 3.39903 -6.01890
  988 12.9018 3.45750 6.03517
  989 45.2877 -1.13579 -5.33356
  990 46.2346 -1.32383 1.96824
  991 -1.35739 0.261977 1.47209
  992 -1.35138 0.264808 -1.46777
  993 27.1301 -1.79439 -4.16357
  994 45.2984 2.79442 -7.85722
  995 33.8564 -1.08113 -0.144616
  996 23.7445 -0.540208 0.0113212
  997 23.7407 -0.545324 -0.00844367
  998 -0.541489 -0.612020 -1.21740
  999 -0.542292 -0.613316 1.21665
  1000 46.8561 -1.54692 -2.35631
  1001 44.8019 -0.288637 0.0953032
  1002 44.7596 -0.288865 -0.0755812
  1003 61.5620 9.73534 -5.38657
  1004 10.2644 0.959484 -2.85554
  1005 10.2891 0.940321 2.84640
  1006 6.05359 -0.0279530 -1.46168
  1007 6.06398 -0.0292480 1.45832
  1008 50.2305 2.50965 8.59938
  1009 48.2797 -0.756286 -1.37680
  1010 7.70684 1.30409 -2.24611
  1011 7.73776 1.29380 2.25456
  1012 50.8183 -0.117756 -0.264589
  1013 46.6879 -1.93208 -3.44527
  1014 45.5740 -5.27459 -1.18933
  1015 1.51167 1.14855 -0.412188
  1016 1.46447 1.14326 0.433141
  1017 -2.40732 0.337175 0.933390
  1018 -2.39963 0.338003 -0.928418
  1019 25.2752 1.00557 -1.28588
  1020 79.9505 19.2034 -4.18352
  1021 35.5944 -2.47690 0.292871
  1022 23.0529 -1.00032 -4.31105
  1023 58.3910 -2.75134 1.53634
  1024 23.1449 -1.00173 4.37677
  1025 41.2243 -4.89078 2.56609
  1026 46.7885 -1.91646 -4.96977
  1027 14.8102 -0.279397 -0.0722321
  1028 14.8086 -0.272418 0.0714168
  1029 31.4622 -2.36749 -0.659038
  1030 18.7809 -0.666605 -3.26712
  1031 18.7700 -0.671595 3.24549
  1032 6.01399 3.88233 -3.48883
  1033 6.11386 3.86723 3.49865
  1034 12.1834 -0.357342 -0.266056
  1035 12.1811 -0.351739 0.260639
  1036 41.7491 -1.13199 0.759112
  1037 34.9610 -0.0913291 -11.7790
  1038 43.3355 -1.23155 -1.17865
  1039 38.7991 -4.31187 -1.29602
  1040 24.8261 -0.922307 0.266016
  1041 24.8493 -0.930776 -0.268135
  1042 51.5208 -0.176658 0.332620
  1043 45.5173 -0.902686 -1.09478
  1044 26.9221 0.645951 2.41983
  1045 48.4707 -0.465168 -2.21606
  1046 18.1839 5.09028 11.3188
  1047 50.1606 -0.430543 -1.84166
  1048 12.3190 2.11140 -4.42207
  1049 11.9255 2.13763 4.22029
  1050 60.4005 -1.54320 -1.87121
  1051 4.86973 2.63860 -1.62448
  1052 4.91691 2.61829 1.62245
  1053 0.777978 -0.431763 0.847601
  1054 0.822972 -0.424587 -0.818122
  1055 6.23096 -0.170952 0.338085
  1056 6.22834 -0.172410 -0.344334
  1057 20.8085 5.16401 -12.6460
  1058 122.184 30.0823 23.3830
  1059 46.6736 -1.54860 2.41774
  1060 41.5997 -4.72275 -0.737683
  1061 28.3718 -2.32066 -3.09223
  1062 -0.806699 0.566927 1.36366
  1063 -0.796025 0.570004 -1.35662
  1064 32.2202 -1.50288 -0.0986371
  1065 35.7946 -1.13731 -0.310437
  1066 -0.0251216 -2.65670 0.879946
  1067 -0.0242174 -2.65870 -0.879543
  1068 4.93900 3.12021 -2.00092
  1069 5.00109 3.11276 2.01407
  1070 31.7612 -1.36352 0.102044
  1071 1.98959 1.13735 0.421238
  1072 1.97014 1.13931 -0.413940
  1073 49.2109 -2.06915 7.95312
  1074 35.3246 -3.67760 -2.53699
  1075 28.5468 -2.35877 3.09123
  1076 46.5510 -1.05238 -8.23246
  1077 50.2367 -0.405195 1.00398
  1078 17.2763 2.61893 7.41282
  1079 17.4035 2.50864 -7.28271
  1080 28.3954 -1.42753 -6.18751
  1081 40.9891 -1.28155 -0.799301
  1082 32.8467 -1.84177 0.0874700
  1083 38.8068 -3.56971 0.488849
  1084 54.6222 -0.135953 -0.555598
  1085 28.2397 -1.15604 0.186314
  1086 28.2271 -1.23291 -0.204669
  1087 0.756956 0.940550 1.25158
  1088 0.780032 0.947818 -1.23868
  1089 46.7777 1.60412 -8.46726
  1090 9.78743 0.563346 -2.49242
  1091 9.81293 0.551452 2.48264
  1092 7.07502 0.193142 -1.72614
  1093 7.08949 0.188822 1.72089
  1094 54.7205 -2.80841 9.16665
  1095 46.7575 -2.13109 4.92494
  1096 22.1428 -0.989965 -3.58878
  1097 55.7386 -0.173026 -0.335190
  1098 61.0286 11.4048 -4.13529
  1099 50.2114 -0.332939 -0.672146
  1100 46.4442 -5.07503 2.33202
  1101 33.9367 -2.66454 5.33500
  1102 56.2730 -0.00933129 0.0878917
  1103 26.8626 0.861775 -2.05528
  1104 39.0859 -4.17424 -0.252901
  1105 22.1758 -1.03698 3.54056
  1106 39.4710 -3.53847 -0.720765
  1107 49.9517 -0.604682 1.74814
  1108 33.7650 2.14868 3.23698
  1109 23.8761 -1.71973 -2.76787
  1110 76.6698 9.54544 -2.95055
  1111 56.4056 2.23946 7.50143
  1112 40.5839 5.14505 0.805823
  1113 55.4082 0.0628802 0.317226
  1114 20.5125 -1.23253 -2.04224
  1115 14.0765 8.26201 -12.6114
  1116 25.5297 0.580503 -9.02256
  1117 29.3069 -2.16936 1.09441
  1118 24.5381 -1.80034 2.55333
  1119 20.4556 -1.16701 2.06840
  1120 44.3311 0.287160 8.17045
  1121 33.6089 -0.987436 0.181156
  1122 54.3969 -0.353746 0.716809
  1123 -0.519090 -0.119600 1.79321
  1124 -0.512834 -0.114570 -1.78896
  1125 35.3276 -0.810051 -0.204743
  1126 -0.186778 0.277901 1.70226
  1127 -0.175581 0.284333 -1.69444
  1128 18.9252 -0.507785 0.341590
  1129 18.9289 -0.518308 -0.342301
  1130 50.6408 -0.242524 1.53094
  1131 40.3428 -2.34284 -1.19021
  1132 37.6741 -1.86151 -0.639253
  1133 42.3268 -2.87476 1.98806
  1134 12.3721 5.93448 -9.24256
  1135 41.5752 -1.39907 0.963265
  1136 5.28419 0.149358 -1.39578
  1137 5.29776 0.146370 1.39317
  1138 8.14854 5.12006 -6.31340
  1139 67.3100 8.10153 3.43007
  1140 3.56781 -0.192249 0.793515
  1141 3.55585 -0.190535 -0.795952
  1142 8.29742 5.02657 6.07045
  1143 37.7820 -3.08187 0.564679
  1144 18.2186 -0.782736 0.681504
  1145 18.2243 -0.787495 -0.698279
  1146 78.5976 16.4869 -3.62421
  1147 41.8104 -4.17872 0.953731
  1148 13.8292 7.68266 12.5757
  1149 1.09101 -1.00798 -0.688634
  1150 1.18324 -0.994150 0.799699
  1151 43.0279 5.42036 4.13159
  1152 2.83886 1.69244 -0.382404
  1153 2.86395 1.69235 0.388940
  1154 42.1052 -3.60968 -1.74604
  1155 -0.0213783 -4.15000 -0.843284
  1156 -0.0233085 -4.15144 0.847073
  1157 45.1087 -3.79056 -3.15680
  1158 -2.00799 0.0616594 0.271172
  1159 -2.02625 0.0619978 -0.272203
  1160 6.32501 2.44517 -2.22119
  1161 6.35967 2.45524 2.19521
  1162 -3.26642 0.00906684 -0.333172
  1163 -3.24610 0.00888483 0.333261
  1164 45.5329 -0.297951 -0.147129
  1165 -4.82456 0.131631 0.145218
  1166 -4.81282 0.131526 -0.142590
  1167 23.0212 -1.76376 -1.93870
  1168 0.589955 -6.81775 -0.320620
  1169 10.6522 -0.277127 0.543885
  1170 10.6513 -0.278571 -0.552726
  1171 38.2113 -0.515672 0.0173085
  1172 38.2862 -0.495777 -0.00946946
  1173 0.632005 -6.54746 0.454473
  1174 45.4810 -2.28189 -2.99230
  1175 52.4645 -0.194123 1.16173
  1176 46.1362 -2.92135 -4.21477
  1177 39.1606 0.254571 6.30633
  1178 0.165625 -1.89157 1.42478
  1179 0.185101 -1.87980 -1.40450
  1180 28.8684 -2.00488 0.798706
  1181 -2.12194 0.162567 1.16506
  1182 -2.11817 0.163994 -1.16188
  1183 77.4029 12.5035 0.701489
  1184 93.0339 26.5020 -18.6270
  1185 47.2200 -4.64663 3.83709
  1186 18.3890 -0.452715 -0.0263126
  1187 18.3881 -0.445309 0.0263099
  1188 99.7645 9.67588 -8.75951
  1189 5.66947 -0.150373 0.826118
  1190 5.66051 -0.147715 -0.830970
  1191 43.4053 -0.142939 -2.54292
  1192 27.6519 -2.19452 2.21361
  1193 46.7230 -4.63244 -2.99017
  1194 45.1574 -3.24365 -3.43908
  1195 26.9927 -1.00478 6.51132
  1196 9.51641 1.84078 -3.24567
  1197 9.50856 1.82408 3.22334
  1198 12.8446 4.68161 -7.78788
  1199 12.8568 4.32078 7.78628
  1200 3.23329 1.09675 -0.920551
  1201 3.25429 1.09311 0.927226
  1202 55.3131 9.52146 -5.19910
  1203 2.58071 2.29983 -0.688188
  1204 2.64624 2.30125 0.706934
  1205 40.0150 -2.96716 1.14132
  1206 77.1175 9.86863 3.44325
  1207 8.23483 -0.353781 -0.535151
  1208 8.23817 -0.353485 0.527241
  1209 51.0938 31.1649 -29.0188
  1210 36.0947 2.12206 -5.01917
  1211 32.7291 2.56802 2.03380
  1212 4.24093 1.92906 -1.09919
  1213 4.26189 1.92839 1.10651
  1214 -0.587483 -0.00371597 0.200546
  1215 -0.597579 -0.00370547 -0.202891
  1216 44.4850 -3.53529 2.95806
  1217 43.8621 -1.61110 1.65551
  1218 29.8013 7.62711 -20.3027
  1219 69.3514 15.0429 0.190289
  1220 29.1734 -0.964483 -7.23145
  1221 38.3085 -0.986106 0.376724
  1222 0.194959 -0.196683 -0.0549638
  1223 0.193265 -0.196586 0.0546164
  1224 -1.60013 0.298363 -0.362372
  1225 -1.58319 0.297035 0.365983
  1226 25.2075 0.202927 -7.61997
  1227 47.8710 -0.913451 1.71888
  1228 30.5014 0.368562 10.6534
  1229 41.8141 -1.92700 -1.39440
  1230 21.1589 7.11070 -15.7495
  1231 33.2190 -1.75297 -7.85450
  1232 39.7839 -4.24656 0.0233954
  1233 49.2129 -0.703347 2.52615
  1234 43.1338 -0.705052 -0.582789
  1235 22.9138 -1.64795 1.95291
  1236 54.2123 -3.29927 -4.97006
  1237 50.7045 4.24379 8.16990
  1238 21.5766 0.0883063 -5.90236
  1239 51.9080 -0.188344 0.245704
  1240 39.4749 4.98403 -1.14641
  1241 16.6189 -0.517354 -0.535673
  1242 16.6128 -0.510443 0.527064
  1243 79.6590 16.9903 2.74724
  1244 111.570 2.97978 5.24966
  1245 0.0863366 -5.09334 -0.844132
  1246 0.0833119 -5.09985 0.850421
  1247 10.9640 5.55770 8.58164
  1248 26.8018 -0.630893 -0.0269280
  1249 26.8073 -0.625567 0.0376624
  1250 37.4290 -3.73560 -0.370171
  1251 44.0764 3.54356 7.09882
  1252 47.5524 -0.778204 -1.17316
  1253 56.2631 -0.0934732 -0.0294697
  1254 97.4855 21.2833 -13.0739
  1255 13.5452 -0.480152 0.520137
  1256 13.5468 -0.481692 -0.530779
  1257 45.1511 -4.19244 3.06890
  1258 81.0432 18.3048 -4.37376
  1259 43.8659 -1.77504 -1.84406
  1260 31.4549 -2.08354 -0.390304
  1261 39.0646 -4.27084 1.24304
  1262 38.2115 -1.75956 0.720310
  1263 1.27156 -0.579153 -1.29237
  1264 52.7887 -3.40426 5.70940
  1265 42.5147 -2.67907 -1.93181
  1266 1.40968 -0.506889 1.48138
  1267 43.8393 -3.76323 -7.28459
  1268 41.5733 2.05644 -16.5985
  1269 69.1205 8.01897 -2.82453
  1270 56.5187 0.0210765 -0.0226742
  1271 56.4019 -0.0322019 0.0568538
  1272 43.2938 -2.41537 2.02570
  1273 15.9643 1.90509 -5.77941
  1274 49.4318 -4.51589 4.68957
  1275 85.3425 19.2078 8.08601
  1276 20.1924 6.54511 15.3127
  1277 0.450266 -0.156258 1.50117
  1278 0.471632 -0.146629 -1.48652
  1279 52.2832 -4.51848 -3.47092
  1280 19.8663 -1.01477 -0.830272
  1281 19.8601 -1.01708 0.807966
  1282 48.2069 -3.25260 6.67455
  1283 0.790045 0.0289149 0.893705
  1284 0.773988 0.0298512 -0.894111
  1285 -0.294075 -1.04832 1.41741
  1286 -0.292276 -1.04612 -1.41739
  1287 7.26265 -0.251839 -0.753698
  1288 7.26847 -0.253456 0.746734
  1289 24.6535 -1.62083 -3.20125
  1290 24.7186 -0.683647 0.0785894
  1291 24.7188 -0.703000 -0.0687002
  1292 56.2238 0.0205049 -0.0279757
  1293 48.8448 -0.688633 -2.82427
  1294 3.07405 0.208639 -1.08180
  1295 3.08979 0.205958 1.08121
  1296 24.7533 -1.71908 3.16634
  1297 56.8826 -0.0163633 0.00591372
  1298 53.4604 0.0652782 -0.0568745
  1299 53.4665 0.0339722 0.0416171
  1300 69.7515 14.0990 2.11438
  1301 51.8266 -0.219620 -0.534126
  1302 45.6837 -0.269494 0.130172
  1303 50.6601 -0.661250 -1.54801
  1304 55.8249 -0.123118 0.243788
  1305 56.8506 5.56929 7.44324
  1306 66.1168 13.3900 2.79655
  1307 53.7528 -0.165251 -0.784766
  1308 -0.417056 -0.112892 0.378836
  1309 -0.418641 -0.112797 -0.379908
  1310 28.7487 -1.69826 0.455823
  1311 28.7420 -1.61610 -0.433134
  1312 57.3801 6.20541 -7.15361
  1313 11.3233 3.86426 -6.33099
  1314 11.3960 3.75251 6.25304
  1315 37.4093 -0.0108548 -3.15078
  1316 39.8033 -0.421673 0.0428619
  1317 39.7548 -0.416133 -0.0508867
  1318 -1.00520 -0.195333 1.45106
  1319 -1.00338 -0.192890 -1.45035
  1320 43.5522 -0.109301 2.54033
  1321 67.3439 13.4423 0.490698
  1322 3.30952 -0.167371 -0.477187
  1323 3.31724 -0.167778 0.471850
  1324 49.8512 -4.93044 2.95414
  1325 -0.128692 0.712047 1.42870
  1326 -0.114796 0.716400 -1.41992
  1327 7.67618 -0.166344 -0.133960
  1328 7.67573 -0.162926 0.130466
  1329 37.4243 -0.0769147 3.19655
  1330 -0.190980 0.0928994 -0.0660401
  1331 -0.189219 0.0932551 0.0642984
  1332 51.2352 -0.483705 1.04698
  1333 70.6793 13.0925 0.354718
</Section>

newXOutput 8

<Section columns = "stress_xx | stress_yy | stress_xy">
  1 67.4406 -0.120201 0.120310
  2 67.5641 -0.175835 -0.156452
  3 -0.972080 0.0688241 -0.182597
  4 -0.0403903 -0.0655287 -0.0374143
  5 128.213 45.8803 40.0751
  6 130.198 52.8056 -40.5406
  7 -0.0399082 -0.0651127 0.0367889
  8 -0.969794 0.0684503 0.182134
  9 67.9412 -0.0812597 -0.111611
  10 67.3614 -0.189989 -0.153328
  11 67.3648 -0.138584 0.177863
  12 66.9419 -0.0392786 0.105642
  13 66.7366 -0.176887 -0.00130785
  14 66.5118 -0.164942 0.326140
  15 65.3376 -0.0960611 0.340591
  16 65.4964 -0.455052 0.469316
  17 63.1419 -0.362859 0.957045
  18 61.5839 -0.128947 1.14277
  19 59.4896 -0.182506 1.21810
  20 55.9437 -0.159569 1.65701
  21 52.1556 -0.148851 1.89933
  22 47.5126 0.226396 2.56424
  23 41.2293 0.346587 2.30117
  24 38.7680 -0.0538111 3.26968
  25 31.0700 0.454524 2.30798
  26 26.4714 0.618539 1.79413
  27 25.2811 0.251214 1.31777
  28 23.9996 0.893419 0.0916282
  29 24.6943 0.983309 -1.75973
  30 26.1201 0.262470 -2.21399
  31 31.7806 0.0795968 -2.97742
  32 37.5654 -0.305859 -3.13191
  33 41.4567 0.286042 -2.30051
  34 47.5863 0.259991 -2.56829
  35 52.0060 -0.179772 -2.03153
  36 56.3501 -0.197174 -1.56936
  37 59.2146 -0.121471 -1.23491
  38 61.3855 -0.133841 -1.05864
  39 63.6834 -0.202576 -0.628292
  40 64.6579 -0.181266 -0.610952
  41 65.5906 -0.174943 -0.530139
  42 66.5568 -0.206440 -0.140365
  43 66.9551 -0.274565 -0.234559
  44 66.6093 0.0840238 -0.0512103
  45 67.2919 -0.118267 -0.195833
  46 67.6676 -0.302066 0.166960
  47 68.0386 -0.161708 -0.0128790
  48 64.2837 0.147969 -0.100734
  49 60.1123 -0.0850774 -0.196029
  50 55.4547 -0.359931 -0.303250
  51 50.6890 -0.224901 -0.223754
  52 46.5825 -0.516233 -0.207263
  53 42.2869 -0.583695 -0.194509
  54 37.9884 -0.490163 -0.113055
  55 33.5044 -0.559940 -0.145479
  56 29.7337 -0.648270 -0.183432
  57 24.7488 -0.646243 -0.157297
  58 19.6379 -0.379687 -0.100732
  59 15.4245 -0.234176 -0.0840979
  60 10.2353 -0.146589 -0.0506013
  61 6.46163 -0.171206 -0.273122
  62 2.94785 -0.273795 -0.0988977
  63 -0.588741 0.0352255 0.147351
  64 -1.47273 0.252486 0.0406141
  65 -1.69086 0.105275 0.143079
  66 -1.49113 0.0492216 0.131531
  67 -2.11996 0.147044 0.0302456
  68 -2.31917 0.189141 0.288686
  69 -2.30220 0.0651367 0.0670235
  70 -3.38819 0.136099 0.0790635
  71 -3.84760 0.0992997 0.268370
  72 -3.92960 0.0387081 0.276021
  73 -5.06818 0.131524 0.193720
  74 -5.43926 0.191880 0.418592
  75 -5.80363 0.116643 0.104996
  76 -6.31494 0.0830938 0.196308
  77 -6.41406 0.0905198 0.0415880
  78 -6.86086 0.205993 -0.196501
  79 -6.82653 0.141381 -0.150280
  80 -6.13825 0.110887 -0.245645
  81 -5.22119 0.136651 -0.429842
  82 -4.18708 0.0547522 -0.617680
  83 -3.08047 0.0278031 -0.630536
  84 -1.83496 -0.0701805 -0.653809
  85 -0.777430 -0.0542086 -0.373773
  86 -0.319895 -0.134896 -0.229815
  87 -0.0578348 -0.326966 -0.195500
  88 -0.101235 -0.835370 -0.358589
  89 -0.113402 -1.68157 -0.642133
  90 -0.0296429 -3.17303 -0.705817
  91 0.0320864 -4.43798 -0.898573
  92 0.0835208 -6.40919 -0.738839
  93 0.256562 -7.66724 -0.881890
  94 0.0329566 -8.39755 -0.764664
  95 -0.0209810 -9.76531 -0.519617
  96 0.261796 -9.75362 -0.263818
  97 1.03312 -12.7566 0.296167
  98 0.855839 -7.77647 1.27043
  99 2.10650 -4.88170 3.04933
  100 6.55661 7.36764 10.5687
  101 29.6066 32.6913 32.2383
  102 168.225 17.2067 25.1973
  103 138.828 4.87101 9.03595
  104 131.796 2.08292 3.13558
  105 127.778 1.39099 -0.0137147
  106 130.284 1.98759 -2.55926
  107 140.272 4.17094 -7.52410
  108 166.503 13.8163 -23.6249
  109 19.0668 37.1366 -26.6043
  110 4.59268 4.44676 -8.04109
  111 1.54752 -5.94771 -2.46054
  112 0.775202 -8.41009 -1.04756
  113 1.02990 -13.2118 -0.186947
  114 0.251670 -9.95839 0.342940
  115 -0.0359743 -9.86908 0.561235
  116 0.0232756 -8.43866 0.787141
  117 0.251392 -7.67833 0.891523
  118 0.0815193 -6.40727 0.742498
  119 0.0305454 -4.43284 0.900023
  120 -0.0303927 -3.16598 0.705565
  121 -0.113522 -1.67699 0.640936
  122 -0.101451 -0.831320 0.357421
  123 -0.0578072 -0.325450 0.194444
  124 -0.318062 -0.134740 0.228946
  125 -0.774215 -0.0544317 0.372857
  126 -1.83097 -0.0706951 0.653331
  127 -3.07603 0.0272573 0.630763
  128 -4.18496 0.0541662 0.618803
  129 -5.22306 0.136256 0.431909
  130 -6.14413 0.110878 0.247815
  131 -6.83747 0.141300 0.152356
  132 -6.87585 0.206044 0.198618
  133 -6.43351 0.0907795 -0.0398298
  134 -6.33758 0.0834104 -0.195102
  135 -5.82764 0.116987 -0.104127
  136 -5.46467 0.192274 -0.418418
  137 -5.09389 0.131880 -0.193596
  138 -3.95430 0.0389240 -0.276331
  139 -3.87177 0.0996648 -0.269030
  140 -3.41064 0.136623 -0.0799719
  141 -2.32100 0.0654942 -0.0685508
  142 -2.33405 0.189467 -0.290800
  143 -2.13156 0.147105 -0.0321451
  144 -1.49787 0.0491395 -0.133324
  145 -1.69384 0.105069 -0.144499
  146 -1.47331 0.252110 -0.0418667
  147 -0.587436 0.0350151 -0.148054
  148 2.94882 -0.274794 0.0981090
  149 6.46218 -0.173869 0.272210
  150 10.2363 -0.151374 0.0494655
  151 15.4263 -0.241131 0.0834743
  152 19.6390 -0.387811 0.100577
  153 24.7474 -0.653364 0.158287
  154 29.7265 -0.652064 0.185619
  155 33.4909 -0.556161 0.150799
  156 37.9673 -0.474916 0.119346
  157 42.2567 -0.546932 0.184631
  158 46.6008 -0.526113 0.183536
  159 50.7017 -0.289397 0.235495
  160 55.4997 -0.347909 0.278467
  161 60.2412 -0.0495756 0.198593
  162 64.1538 0.144448 0.0972456
  163 35.7440 -3.18762 -2.33793
  164 35.5898 -3.24459 2.33300
  165 10.1705 2.89133 -3.69814
  166 10.2732 2.90333 3.67842
  167 42.6989 -2.26817 10.3727
  168 44.8643 -2.54938 -10.0777
  169 19.8208 -0.989508 1.01859
  170 19.8217 -0.978957 -1.03976
  171 45.7693 -1.38632 0.639998
  172 44.7859 -1.39046 -0.627864
  173 60.2486 11.0143 -1.79332
  174 62.1367 0.160182 -9.13862
  175 60.7808 0.674960 9.68533
  176 13.5109 -0.476285 -2.42441
  177 13.5080 -0.471829 2.41686
  178 53.6770 -5.35483 3.71566
  179 53.5829 -4.11776 -4.80065
  180 0.489315 1.06051 1.59597
  181 0.510685 1.06747 -1.58359
  182 73.2786 14.7912 3.41901
  183 13.4420 5.87397 -9.05057
  184 14.4776 5.93809 9.76929
  185 51.9842 -2.28014 2.43725
  186 78.2137 16.0877 -2.34477
  187 32.8277 -1.01753 -0.127523
  188 32.7696 -1.04970 0.123159
  189 53.6015 -1.52796 -2.19129
  190 72.1304 -1.11659 0.274746
  191 11.5844 -0.331736 0.356484
  192 11.5845 -0.335424 -0.364664
  193 4.77238 0.726824 -1.52507
  194 4.79543 0.719400 1.52811
  195 29.2232 -1.14208 -6.24348
  196 29.1066 -1.20871 6.32861
  197 35.1147 -2.15044 -0.528009
  198 35.1866 -2.13812 0.597729
  199 7.97082 -0.275946 1.23508
  200 7.96114 -0.271706 -1.23964
  201 71.4129 -1.99173 3.46671
  202 57.7023 -5.86203 -2.15200
  203 55.2665 -0.358407 -0.418999
  204 53.9287 -0.465410 0.439640
  205 53.1197 6.19777 6.67873
  206 2.05802 1.51055 -0.232074
  207 2.14058 1.50431 0.268233
  208 53.6983 -2.21055 7.80740
  209 48.4698 3.65548 -7.51216
  210 35.2321 7.25144 -22.0848
  211 37.0491 6.10835 20.4892
  212 0.435177 1.13873 0.196373
  213 0.454781 1.13805 -0.187429
  214 53.4722 -1.96327 -8.04072
  215 95.0517 13.5027 -0.796250
  216 44.4787 -4.91669 3.20676
  217 44.8406 -4.88410 -2.99185
  218 44.4673 -3.04987 -0.875340
  219 56.0612 -0.705340 1.22224
  220 25.9162 -1.71499 -2.01405
  221 25.4768 -1.70684 2.09630
  222 15.2190 0.363335 -3.80078
  223 15.2384 0.356714 3.76151
  224 57.1987 -6.23252 0.299053
  225 44.0757 -3.25424 0.689271
  226 55.8777 -0.676800 -1.00522
  227 42.8273 -0.873072 0.207923
  228 43.2293 -0.795596 -0.121632
  229 54.6114 -2.37653 4.71356
  230 3.63631 0.0722198 -1.31481
  231 3.65317 0.0700909 1.31334
  232 -0.752848 -0.527191 -1.90123
  233 -0.756388 -0.531367 1.90293
  234 6.80389 -0.324083 -0.689434
  235 6.81083 -0.324852 0.681474
  236 21.8520 -0.554073 0.437081
  237 21.8601 -0.566945 -0.442411
  238 25.8361 1.71403 -9.41254
  239 25.8384 1.41664 9.29968
  240 55.4685 -1.64511 -4.02931
  241 25.1053 -1.42944 -3.56323
  242 25.1239 -1.47461 3.49999
  243 47.6655 0.660893 8.44220
  244 40.7542 3.54607 0.506293
  245 47.3127 -4.68129 -0.926308
  246 0.133434 -1.38249 -1.86233
  247 0.117762 -1.39441 1.87604
  248 2.78310 2.27836 -2.72757
  249 2.97441 2.16822 2.90038
  250 46.4894 -4.57505 0.605074
  251 85.6441 14.9036 0.543577
  252 3.92063 2.73754 -0.903363
  253 3.97135 2.73511 0.918600
  254 -1.99611 0.355367 1.39126
  255 -1.98725 0.357167 -1.38526
  256 86.2711 13.7930 -0.117815
  257 28.6966 -1.26180 -0.610720
  258 28.6720 -1.23796 0.588930
  259 58.0761 -4.05617 7.52396
  260 107.249 17.3775 10.3290
  261 16.1903 -0.821006 -1.94579
  262 16.1829 -0.826795 1.94190
  263 58.3869 8.70759 -6.54571
  264 103.135 19.4471 -9.13385
  265 71.1441 6.59211 6.95402
  266 78.6788 3.45727 -13.3049
  267 47.4269 -2.07474 1.23606
  268 53.4486 0.128787 -9.62997
  269 51.1732 -3.52795 -2.97309
  270 57.4301 -0.929940 2.59855
  271 -0.613689 0.539404 -0.317738
  272 -0.594359 0.537538 0.323827
  273 56.9938 -2.42568 -13.1418
  274 5.38637 1.80558 -1.48046
  275 5.41322 1.80164 1.48970
  276 54.5605 -1.30256 -4.98418
  277 7.43420 6.82882 -9.34236
  278 4.75706 -0.0115620 -0.152126
  279 4.75767 -0.0100564 0.148781
  280 57.8072 -3.73598 -7.80770
  281 9.54491 4.28375 -4.77044
  282 9.68680 4.25725 4.78304
  283 1.65255 -0.0735987 0.933145
  284 1.63538 -0.0724998 -0.934781
  285 47.3673 -1.95169 -1.19680
  286 7.48011 6.74753 9.62068
  287 77.4105 4.24572 15.8222
  288 19.4096 -0.706541 -0.564008
  289 19.4027 -0.700819 0.551301
  290 37.3661 -1.36819 0.00731476
  291 37.3462 -1.50035 0.0302437
  292 31.8761 2.82445 -14.7006
  293 52.1812 -5.77004 -1.70086
  294 60.4661 -0.231877 0.558514
  295 30.6631 2.80126 14.1820
  296 35.6880 -0.774405 0.0222602
  297 35.6736 -0.773274 0.0107813
  298 51.2468 -3.68475 3.03255
  299 59.6844 -0.515638 -1.29624
  300 -1.21475 0.229260 -0.661120
  301 -1.19392 0.227584 0.663575
  302 73.8243 14.8857 -1.04334
  303 65.3822 -3.36300 4.63752
  304 59.6309 -0.147582 -0.171912
  305 60.7607 -0.124844 0.155692
  306 58.8094 -5.49615 4.09441
  307 72.6370 7.03720 -6.61310
  308 62.2714 11.6615 3.92280
  309 27.3413 -1.58958 -1.13884
  310 27.0746 -1.62107 1.16980
  311 60.4296 -0.215558 -0.410371
  312 38.5103 -3.00377 -6.89339
  313 37.7718 -2.88842 0.720900
  314 36.0229 -2.06499 7.96529
  315 59.0781 -0.595173 1.52590
  316 11.8836 -0.540707 -1.18610
  317 11.8887 -0.544925 1.17853
  318 54.1639 -2.27601 12.9970
  319 33.4683 -2.57183 -1.41580
  320 62.5388 7.84788 8.31054
  321 19.2136 1.37086 -5.88380
  322 18.4650 1.43075 5.82569
  323 4.07951 -0.105031 -0.278346
  324 4.08379 -0.104163 0.272991
  325 51.9204 -0.846996 0.817856
  326 49.7328 -0.482678 0.178767
  327 49.4366 -0.549703 -0.197521
  328 54.0852 -1.37411 5.26461
  329 3.19184 -0.151195 0.668954
  330 3.17847 -0.149620 -0.673577
  331 14.3398 -0.302392 -0.229519
  332 14.3375 -0.295829 0.225931
  333 0.450552 -2.83738 -1.19269
  334 0.416680 -2.85643 1.23297
  335 40.4636 1.72116 5.67227
  336 66.0504 -3.25132 -4.00877
  337 42.0034 -2.07075 0.631286
  338 47.9647 -0.747402 -0.521263
  339 48.6867 6.10618 -3.55485
  340 8.62054 -0.258841 -1.77372
  341 8.62985 -0.258840 1.77055
  342 40.7752 -1.94024 -0.402960
  343 10.6909 0.434269 -2.59088
  344 10.7099 0.424322 2.57943
  345 1.83502 1.78400 0.363243
  346 1.86134 1.78302 -0.352609
  347 50.0668 -5.51678 4.30810
  348 114.512 7.62019 2.90839
  349 43.0428 0.579136 -6.74116
  350 36.6868 -3.30082 3.97722
  351 36.4985 -3.23902 -4.11761
  352 54.5260 -1.03449 9.58114
  353 47.8530 -0.395187 6.72610
  354 49.3805 -5.33577 -4.47523
  355 28.4914 -0.578176 -0.0609127
  356 28.4877 -0.587599 0.0683809
  357 54.6394 -3.58049 6.13896
  358 74.7362 15.0768 0.738820
  359 59.2880 -0.571297 -1.92476
  360 13.6842 -0.502708 -0.817942
  361 13.6869 -0.502916 0.806199
  362 55.5418 -5.53919 -5.48826
  363 57.5825 3.86782 -9.63412
  364 36.8257 1.99633 -3.62250
  365 54.9889 -3.71653 -6.94180
  366 -1.85827 0.0350193 -1.47317
  367 -1.86038 0.0329648 1.47508
  368 46.2150 -0.884466 0.421631
  369 -0.658955 -0.396351 -0.841325
  370 -0.658292 -0.396534 0.839765
  371 36.0417 16.2373 -27.0903
  372 1.20332 1.00615 1.23354
  373 1.23816 1.01475 -1.21528
  374 47.4400 -0.418213 -6.66776
  375 25.7092 -0.989536 0.452618
  376 25.7308 -1.00537 -0.461480
  377 -0.211293 -2.00833 1.67152
  378 -0.208301 -2.00465 -1.66960
  379 29.0426 17.1010 25.4241
  380 20.8961 -1.07061 -2.71068
  381 20.9098 -1.01993 2.71256
  382 6.50521 4.63556 -4.33609
  383 6.64867 4.61755 4.30535
  384 -3.04609 0.397359 0.659785
  385 -3.03413 0.397853 -0.653557
  386 55.3820 3.56871 9.57647
  387 42.6045 -4.45428 1.50002
  388 42.6500 -3.82812 0.203316
  389 52.1407 -6.00826 0.123521
  390 12.2205 1.60085 -3.70322
  391 12.2605 1.59685 3.69477
  392 1.05122 -2.28107 -0.251320
  393 0.988750 -2.30615 0.340269
  394 51.4874 7.43274 2.37342
  395 53.4284 -1.37043 1.83583
  396 29.5941 -2.24823 2.40406
  397 17.8453 -0.407987 -3.32417
  398 17.8486 -0.411025 3.29262
  399 38.2844 -0.967093 0.115135
  400 38.2394 -0.821006 -0.147970
  401 29.3388 -2.31420 -2.59013
  402 22.7099 -0.356928 -4.63822
  403 22.7029 -0.389425 4.67774
  404 55.4805 -5.15376 -4.61863
  405 31.3911 -2.33392 1.34766
  406 50.5622 -1.36181 1.22588
  407 50.4888 -1.21788 -1.06185
  408 41.8283 -3.79644 -0.362050
  409 61.6977 -0.147818 -0.585648
  410 19.7793 7.66739 -14.7915
  411 57.1959 -0.760745 3.08864
  412 61.4171 -0.211612 0.825627
  413 20.4271 -1.04339 1.52273
  414 20.4401 -1.02820 -1.52134
  415 42.4072 -4.39970 -1.57680
  416 5.51255 2.58356 1.58224
  417 5.48195 2.58245 -1.58539
  418 115.779 7.61376 -5.99097
  419 49.3755 -2.68850 -1.87946
  420 62.3131 -0.0936427 0.338047
  421 18.6180 7.10534 14.0266
  422 91.0959 15.4651 2.57073
  423 53.4514 -0.618773 -0.665213
  424 39.1346 -2.73151 -0.231628
  425 15.7731 3.05470 -6.69472
  426 16.8444 2.83823 6.65452
  427 48.7308 -2.97500 1.91965
  428 51.1157 -0.672532 -5.00394
  429 -1.46184 -0.0364532 0.690782
  430 -1.48290 -0.0358984 -0.690859
  431 17.9752 4.25679 -9.18008
  432 18.0309 4.27408 9.14985
  433 1.59123 1.01274 -0.544168
  434 1.61267 1.01021 0.551752
  435 43.6380 -0.621621 0.182503
  436 43.5857 -0.598970 -0.166485
  437 54.5067 -2.43591 -4.91791
  438 -0.251490 -0.286285 2.12964
  439 -0.241951 -0.278250 -2.12241
  440 56.2572 -5.64426 4.17038
  441 53.3870 -1.26201 -1.64739
  442 86.4246 16.6208 -1.90260
  443 1.75249 -0.142024 0.298573
  444 1.74229 -0.142071 -0.303302
  445 105.584 28.7574 11.9968
  446 1.92318 -0.397063 -2.47990
  447 5.43400 0.331468 -1.70074
  448 5.45237 0.326557 1.69901
  449 105.044 29.3301 -11.2283
  450 2.03765 -0.166135 2.78316
  451 -3.06436 0.323973 0.303764
  452 -3.04918 0.323367 -0.298009
  453 5.28230 3.59656 -2.34254
  454 5.37872 3.59549 2.35658
  455 66.9501 10.2855 -7.11335
  456 54.0280 -2.00637 -3.30066
  457 61.9472 -0.118320 -0.309333
  458 56.3436 -0.825543 -3.59203
  459 -0.808594 0.325237 1.96509
  460 -0.798963 0.330294 -1.95843
  461 54.5643 -2.11106 3.77667
  462 34.7060 -1.81697 -0.391763
  463 34.5926 -1.83816 0.266857
  464 47.8489 -5.29770 -0.0569961
  465 33.7173 -0.580320 -9.91668
  466 51.7021 -0.808755 5.12666
  467 42.5006 -1.17441 -0.290206
  468 63.3519 -5.07454 0.259131
  469 32.6285 0.154115 10.6734
  470 1.15710 -0.0308343 0.665277
  471 1.14003 -0.0298724 -0.667720
  472 68.5672 13.6100 -3.39835
  473 55.8820 -0.226976 0.0826365
  474 55.6793 -0.280886 -0.136593
  475 41.2263 -2.62630 -0.232881
  476 16.8416 -0.523003 -0.430633
  477 16.8373 -0.515347 0.422653
  478 9.68946 -0.0747000 -2.10846
  479 9.69873 -0.0766196 2.10179
  480 32.6942 1.28107 2.15246
  481 7.39828 -0.255044 0.981767
  482 7.38957 -0.252347 -0.988837
  483 8.57021 0.903622 2.36377
  484 8.54176 0.916938 -2.36312
  485 53.4910 -4.12365 4.62939
  486 29.1813 -1.80415 -4.31345
  487 26.6265 -0.735608 0.187213
  488 26.6385 -0.758627 -0.188356
  489 29.4994 -1.86307 4.30952
  490 84.2366 19.6146 -0.551959
  491 -1.34964 -0.215015 -1.11097
  492 -1.34915 -0.216045 1.11053
  493 19.7301 -0.474144 -0.169814
  494 19.7273 -0.464676 0.168597
  495 0.00482455 -3.75684 -1.45674
  496 -0.00384449 -3.76865 1.46872
  497 49.0097 -0.518389 0.330203
  498 32.4495 1.59727 -1.07564
  499 45.1879 4.78465 3.16449
  500 29.0662 -0.320410 -7.76626
  501 13.3295 -0.672746 1.50418
  502 13.3314 -0.666815 -1.50856
  503 -4.37247 0.129950 -0.170564
  504 -4.35207 0.129220 0.172994
  505 57.5905 -1.23333 -9.63012
  506 2.83518 0.0411186 -0.213636
  507 2.83762 0.0419054 0.209820
  508 47.9429 -3.69458 -1.71909
  509 51.2045 -4.32055 -2.95345
  510 9.95823 7.21466 -9.69675
  511 42.9469 0.819370 -16.0810
  512 0.244219 1.19465 1.13211
  513 0.263862 1.19679 -1.12152
  514 25.3124 -1.07664 -0.737430
  515 25.2969 -1.06476 0.713146
  516 75.0044 2.42812 -3.08196
  517 53.3095 -3.08092 -4.17810
  518 9.69500 6.77634 9.54779
  519 52.8399 -6.09967 0.691017
  520 50.7071 -4.80426 2.46791
  521 9.28113 -0.217467 -0.635914
  522 9.28385 -0.216251 0.627230
  523 39.9960 0.395047 5.20576
  524 29.3241 -2.08795 -1.47264
  525 56.5805 -1.12762 2.41354
  526 -0.242176 -1.36765 -1.07289
  527 -0.242769 -1.36685 1.07159
  528 38.9324 -3.49699 4.86258
  529 60.1636 -4.79427 -5.46403
  530 79.5392 4.53617 -1.41022
  531 41.9458 -1.22872 0.336109
  532 10.9916 -0.180978 -0.194157
  533 10.9903 -0.176193 0.191805
  534 26.0197 0.183900 7.45266
  535 75.1678 12.0664 5.39553
  536 78.1300 12.9054 -25.8664
  537 68.6081 -0.0720856 5.46506
  538 48.8449 -5.45366 -0.217011
  539 119.626 9.50703 7.97737
  540 86.6712 20.2369 1.11326
  541 10.8989 -0.438287 1.65558
  542 10.8932 -0.433515 -1.66027
  543 46.8819 -3.80792 1.42781
  544 2.97630 1.61939 -0.427509
  545 3.00101 1.61788 0.436678
  546 59.4048 -5.09799 5.44652
  547 47.1388 2.48017 7.75765
  548 60.2692 -0.318635 1.32891
  549 43.7825 -2.48415 0.839423
  550 62.6356 -0.317833 -16.9460
  551 101.030 23.6910 15.8846
  552 47.8606 -0.719327 -0.314242
  553 58.9779 -0.534440 -2.07848
  554 8.58668 3.64620 -3.45382
  555 8.65016 3.60133 3.43373
  556 32.7436 -1.16092 -0.219656
  557 32.7268 -1.12798 0.229560
  558 0.333698 -5.09430 -0.166450
  559 59.7824 -2.32040 8.73428
  560 1.96710 1.86259 0.606636
  561 2.00212 1.86699 -0.590848
  562 0.397188 -4.95084 0.291535
  563 54.1645 -2.49453 -6.95544
  564 62.4785 3.69521 -9.42697
  565 62.2030 4.21171 9.41311
  566 2.74596 1.95519 1.67466
  567 2.59814 2.01771 -1.62625
  568 -2.65515 0.0666596 0.503028
  569 -2.67730 0.0672548 -0.502333
  570 58.1783 0.702991 17.5284
  571 30.6664 -1.58375 0.641564
  572 30.7000 -1.57783 -0.665906
  573 70.5348 -2.04620 -8.34811
  574 7.32127 -0.0920971 0.371035
  575 7.32005 -0.0942623 -0.376800
  576 2.28269 -0.104868 -0.0921365
  577 2.28227 -0.104141 0.0908092
  578 76.7244 13.3927 -4.65286
  579 6.97823 8.58521 -10.8439
  580 37.9934 0.719709 -4.39380
  581 55.3361 8.91910 -4.08323
  582 0.696853 -0.317220 1.49797
  583 0.730346 -0.306235 -1.47560
  584 59.0797 23.7735 30.7185
  585 48.5540 -1.14964 -0.788813
  586 0.972261 0.502319 -0.771706
  587 0.992963 0.498680 0.775958
  588 56.0342 -4.58026 6.23521
  589 8.28834 8.27439 11.0403
  590 40.0125 -0.624295 -0.0135450
  591 40.0226 -0.617098 0.0133600
  592 -0.0638961 -2.94538 1.47134
  593 -0.0595563 -2.94048 -1.46656
  594 68.3406 13.5233 -0.109308
  595 43.4695 -3.64157 7.20042
  596 41.3933 -1.58789 0.352127
  597 41.8916 1.46269 16.9921
  598 -3.58583 0.163676 0.909733
  599 -3.58214 0.164544 -0.906444
  600 69.5151 0.403615 -5.82856
  601 94.7710 13.6654 -10.9405
  602 25.5111 2.47313 -11.0062
  603 13.0161 -0.518037 -2.04549
  604 13.0260 -0.517759 2.04450
  605 63.6046 -0.132832 0.409865
  606 40.9537 -1.62715 -0.409451
  607 55.9986 -0.582592 0.930379
  608 54.1740 -2.48639 6.80072
  609 0.666901 -0.0822232 0.316207
  610 0.653203 -0.0818383 -0.319779
  611 31.3915 -0.935581 -0.113361
  612 31.3859 -0.903841 0.103140
  613 19.2166 0.457808 -4.79869
  614 19.0839 0.463062 4.77219
  615 80.1299 3.58345 3.27414
  616 133.912 10.0851 -14.7317
  617 -2.18197 -0.0725769 0.450035
  618 -2.20411 -0.0723010 -0.450353
  619 17.6954 -0.701910 0.817260
  620 17.6973 -0.701389 -0.833236
  621 74.1122 3.32228 4.09333
  622 63.0331 -0.102991 -0.130575
  623 62.8815 -0.205297 0.0687487
  624 43.1112 -0.0550834 5.17145
  625 65.1716 -4.31375 -4.74012
  626 34.2591 -2.74658 1.77723
  627 -1.12201 0.743585 -1.00271
  628 -1.13666 0.742682 1.01096
  629 55.5382 0.987042 9.99364
  630 21.1382 -1.16685 -2.09777
  631 21.1129 -1.18773 2.10217
  632 45.4349 -2.47978 -1.01139
  633 56.8923 -1.11493 -2.19298
  634 31.4345 -2.46743 -2.96938
  635 51.6311 6.22887 -6.05855
  636 35.0197 -2.45338 -5.76354
  637 11.4971 -0.295720 -0.307359
  638 11.4960 -0.291334 0.301375
  639 31.7813 -2.51661 2.97454
  640 70.0123 10.9959 6.57847
  641 55.4124 -2.78702 8.55031
  642 45.3822 -1.83841 0.884950
  643 31.7533 -0.670537 0.136977
  644 31.7450 -0.672906 -0.130523
  645 23.3969 -0.772363 -0.552536
  646 23.3854 -0.761892 0.543407
  647 53.5713 -4.94072 -3.90971
  648 26.0865 -1.38300 0.985434
  649 26.1184 -1.37771 -1.01534
  650 52.3932 8.19276 -0.822584
  651 49.4758 -2.45658 1.87293
  652 63.1496 -0.216594 -0.611798
  653 51.9692 -1.04238 -8.72678
  654 6.31532 -0.295032 1.32428
  655 6.30359 -0.292794 -1.32680
  656 61.2936 -0.259181 -1.19914
  657 10.1596 5.15991 -6.67484
  658 10.3384 5.14389 6.70827
  659 62.2875 -4.25244 7.01230
  660 20.4963 4.97296 11.5859
  661 4.02316 -0.000786548 1.33013
  662 4.00819 0.000330963 -1.33203
  663 52.6774 -3.74212 9.46898
  664 52.3180 6.21184 -23.4745
  665 49.3181 1.44841 -8.63683
  666 66.0030 11.8631 5.52292
  667 44.5512 -1.79372 -0.683235
  668 80.7027 14.7971 -0.356661
  669 -4.40508 0.182391 -0.0510103
  670 -4.38757 0.181851 0.0546173
  671 35.2266 -0.0286932 -11.7488
  672 0.675019 -0.0453021 0.256158
  673 0.667000 -0.0454455 -0.259712
  674 44.5816 -3.91499 -7.10259
  675 13.9952 1.98946 -4.59330
  676 13.8751 1.99459 4.58909
  677 -0.243768 0.723231 -0.0262672
  678 -0.224801 0.722001 0.0340025
  679 37.4904 -3.17288 -1.15663
  680 53.5306 -0.521537 -3.38374
  681 24.5512 -0.647190 -0.212707
  682 24.5506 -0.637746 0.214961
  683 17.3467 -0.850114 -1.28677
  684 17.3583 -0.862931 1.27962
  685 3.13771 2.58792 -0.485197
  686 3.19467 2.59211 0.503280
  687 55.9645 -0.472059 0.526771
  688 23.4986 -1.43098 1.69194
  689 23.6634 -1.40326 -1.68908
  690 61.6372 -5.22968 -1.76068
  691 50.3453 -5.05364 -1.92573
  692 39.1930 -0.894513 0.166960
  693 39.0454 -0.816570 -0.143873
  694 55.7727 -6.11932 2.13798
  695 91.3117 18.2805 3.97021
  696 48.8611 -2.53219 -11.9956
  697 56.0637 -1.48961 3.69959
  698 55.2162 -2.17063 -9.10902
  699 15.8815 -0.447051 -0.568229
  700 15.8783 -0.442627 0.557613
  701 43.2432 -1.07474 13.5493
  702 125.870 15.8919 14.5936
  703 7.61907 2.33887 -2.44093
  704 7.62912 2.35391 2.44927
  705 55.8450 -0.336343 -0.275666
  706 56.3137 -0.288491 0.279028
  707 22.9910 10.7494 -19.2576
  708 58.9298 -0.251788 2.05448
  709 50.8939 -0.649111 0.496810
  710 66.1124 13.2615 -2.10382
  711 6.01432 1.20319 -1.69970
  712 6.04155 1.19529 1.70625
  713 64.4027 -0.0812461 0.0930506
  714 51.0112 -1.79093 -1.77120
  715 63.7525 -1.28417 7.88128
  716 25.0352 -1.71218 -2.82632
  717 25.0987 -1.63356 2.79220
  718 4.48139 -0.179478 1.00361
  719 4.46844 -0.176983 -1.00780
  720 58.5256 -0.219881 -0.453488
  721 50.1918 8.66009 25.0295
  722 0.215621 0.180126 1.88120
  723 0.233681 0.190141 -1.86891
  724 58.4829 -0.476625 -1.07815
  725 56.6076 -0.875166 1.52000
  726 42.8805 -0.0141888 -5.54658
  727 0.375081 -5.54260 -0.863951
  728 0.347956 -5.59214 0.913853
  729 19.6995 5.10856 -11.5751
  730 44.4585 -4.56543 -4.90579
  731 22.7519 10.6744 19.4740
  732 63.4116 -0.0650777 0.266448
  733 59.1334 8.81301 6.59321
  734 41.8011 3.84207 -2.19555
  735 78.5803 15.8873 -0.690133
  736 62.3000 -0.180838 0.808183
  737 -4.46675 0.0938139 0.344589
  738 -4.48898 0.0943309 -0.343178
  739 65.9338 -4.23371 0.628444
  740 41.8824 -0.986723 0.204326
  741 14.3443 0.0767074 -3.17125
  742 14.3611 0.0616139 3.14779
  743 56.7742 -0.483128 -0.698741
  744 100.981 14.3705 -4.83275
  745 5.09070 -0.167774 -0.588539
  746 5.10058 -0.168856 0.582209
  747 63.8494 -0.0908802 -0.392552
  748 10.9687 -0.492537 -0.827946
  749 10.9731 -0.494301 0.818676
  750 61.2829 -2.69419 -8.01893
  751 56.4329 -0.558516 2.77382
  752 49.7173 -0.419445 8.57304
  753 64.0969 -0.0953310 -0.0400484
  754 59.2780 -0.291797 0.845143
  755 37.6162 -1.86547 0.0625396
  756 47.9116 -1.03820 0.644840
  757 54.3593 -3.34357 -5.95323
  758 53.1010 -3.27324 4.06681
  759 61.8274 7.28422 -8.36882
  760 52.4098 -2.83225 3.12308
  761 55.1674 -3.32807 7.48764
  762 31.2381 -2.00850 0.952180
  763 1.02635 -0.838147 -0.484354
  764 0.965868 -0.840545 0.541202
  765 48.6338 -0.488287 0.0451980
  766 48.5267 -0.482685 -0.0639480
  767 59.1871 -0.0962884 -0.0595108
  768 59.4072 -0.0828720 0.0744323
  769 55.3626 -1.50534 4.44936
  770 51.1788 -4.94286 6.62486
  771 41.5500 -3.27458 0.0103495
  772 36.6678 -2.03758 0.220383
  773 103.199 13.3119 5.75841
  774 56.2651 -1.31856 -2.98521
  775 32.4207 5.22204 -18.1583
  776 52.1020 -2.44346 -2.73485
  777 1.08904 0.0611554 -0.902805
  778 1.10871 0.0592612 0.903401
  779 44.8804 3.94243 -4.93212
  780 122.823 3.75112 -1.63488
  781 58.2289 1.29685 -9.88234
  782 2.18018 -0.469570 -3.94605
  783 59.2948 10.8095 1.70614
  784 46.8530 -2.84101 1.32284
  785 52.2415 -1.38722 8.48570
  786 44.2146 -4.76477 4.93531
  787 72.5564 -1.42989 10.5935
  788 2.35044 0.0750924 4.24861
  789 31.5313 -0.282183 8.99674
  790 44.8208 -0.927092 -0.367643
  791 50.1166 -4.72876 -6.71531
  792 29.9089 -2.26707 -1.94433
  793 23.5140 1.08601 -7.75511
  794 57.8432 -1.08403 9.69414
  795 36.6062 -2.37718 0.572928
  796 5.46888 -0.176860 0.551783
  797 5.46286 -0.177173 -0.558734
  798 53.7012 -0.277096 3.00497
  799 47.9533 0.159561 -8.28566
  800 -4.46438 0.187144 0.599007
  801 -4.45790 0.187439 -0.595492
  802 35.5814 -0.923185 0.0849779
  803 35.4700 -0.860173 -0.0956208
  804 26.2019 2.78887 11.1843
  805 22.8614 -1.26891 1.21598
  806 22.8985 -1.23503 -1.23389
  807 63.8612 -0.0439249 -0.234580
  808 21.0684 1.64588 7.53212
  809 -0.882174 -0.0179856 0.352056
  810 -0.900431 -0.0175141 -0.354264
  811 53.0302 -1.66536 6.62084
  812 57.9847 -0.323998 0.373163
  813 -3.09010 0.0234684 0.873694
  814 -3.09021 0.0243885 -0.872010
  815 34.5534 -2.23253 6.55295
  816 6.32705 4.99438 -5.51105
  817 6.40813 4.72949 5.41678
  818 30.7218 1.40271 0.894853
  819 -1.97225 -0.0212546 -0.408970
  820 -1.95056 -0.0215801 0.408120
  821 39.9709 -3.85690 -4.60322
  822 55.2706 -5.90508 -2.75151
  823 -0.268610 -0.256033 -0.333693
  824 -0.267875 -0.255487 0.332519
  825 0.962741 0.104702 -0.0740565
  826 0.963469 0.105271 0.0720348
  827 48.9301 -4.30224 1.94242
  828 40.8606 -4.21227 2.99212
  829 45.7003 -0.533000 0.266617
  830 40.7400 -3.18901 -0.176101
  831 13.5469 -0.174666 -0.0451692
  832 13.5451 -0.168342 0.0436604
  833 -5.11658 0.106288 0.383435
  834 -5.10638 0.106131 -0.380038
  835 52.0799 -0.454285 -0.369139
  836 44.2039 1.67509 -7.00117
  837 52.5972 -0.843612 -0.979578
  838 29.9691 -2.21941 1.83220
  839 51.0093 -0.932862 -6.91660
  840 55.3058 -1.63883 -4.60071
  841 52.3085 -0.358508 0.335726
  842 37.3890 -1.57506 9.24649
  843 39.9626 -3.86796 -1.42161
  844 23.5260 -0.169824 -5.81395
  845 23.6607 -0.00570141 5.84426
  846 33.7498 -2.42858 -1.03464
  847 56.4717 6.01012 8.43606
  848 54.4894 -5.88955 -3.24707
  849 18.1912 -0.512609 -0.264700
  850 18.1867 -0.502962 0.260272
  851 41.1802 -0.710432 -0.106058
  852 41.1804 -0.718425 0.118160
  853 48.4313 -0.392237 -4.49479
  854 15.3262 -0.618007 -1.03219
  855 15.3320 -0.622996 1.01978
  856 0.179891 -5.39883 -1.13538
  857 0.169314 -5.42125 1.15630
  858 6.61741 -0.0947557 -0.0705641
  859 6.61791 -0.0974154 0.0687595
  860 51.6227 -0.593782 -0.522146
  861 38.3936 -3.64931 2.66606
  862 60.8270 -5.46127 2.98147
  863 33.1248 0.708602 3.43281
  864 52.7668 -1.05278 1.10843
  865 57.3703 -5.27881 -5.09068
  866 7.30960 0.543505 -2.03140
  867 7.33107 0.534840 2.02851
  868 45.4565 -0.589227 -0.245849
  869 36.0356 -1.06757 -0.0219272
  870 35.9011 -1.05547 0.0538029
  871 55.5218 8.69577 4.59340
  872 18.7200 -0.142800 -3.90471
  873 18.6976 -0.165590 3.88281
  874 38.7578 -3.43814 1.02851
  875 3.31374 2.30160 -0.390186
  876 3.34932 2.29615 0.399402
  877 32.5502 -2.33646 5.21931
  878 39.3522 -2.37226 0.0995565
  879 48.7537 -0.405477 4.54290
  880 48.8160 -5.56244 1.06194
  881 56.0950 -4.35328 -6.66217
  882 38.3004 -3.67986 -2.71533
  883 31.4791 -1.99827 -0.900652
  884 108.359 9.01858 -1.62497
  885 51.2179 -5.45938 1.64117
  886 1.12699 1.53158 0.952546
  887 1.15259 1.53401 -0.939629
  888 44.2353 -4.39740 0.193227
  889 48.7582 -5.59320 -2.45435
  890 1.11776 1.38866 0.409051
  891 1.13986 1.38857 -0.399426
  892 17.3470 -0.572358 2.87755
  893 17.3622 -0.592497 -2.89960
  894 21.3055 -1.03809 3.17277
  895 21.3011 -1.06550 -3.20091
  896 70.1889 14.1365 2.80652
  897 -0.114893 -2.17699 -1.05144
  898 -0.115656 -2.17484 1.05092
  899 15.3220 1.35513 -4.35743
  900 15.2397 1.32638 4.30608
  901 127.272 4.14406 -6.51687
  902 0.386856 -0.00265201 0.134447
  903 0.382216 -0.00307365 -0.137225
  904 0.182001 -6.48768 0.573268
  905 0.216202 -6.39014 -0.490555
  906 -2.33157 -0.0379422 0.875532
  907 -2.33372 -0.0372540 -0.875157
  908 12.2106 3.62953 -5.18044
  909 12.4027 3.51024 5.09660
  910 -1.11849 -0.0101257 -1.89928
  911 -1.12352 -0.0139359 1.90254
  912 2.80625 0.353806 -1.26420
  913 2.82665 0.349500 1.26533
  914 13.0810 -0.100935 2.62877
  915 13.0746 -0.100495 -2.64644
  916 10.3797 -0.330255 -2.10188
  917 10.3881 -0.329257 2.09639
  918 61.4352 -0.177547 -1.15861
  919 29.0595 5.82163 16.7904
  920 40.3794 -3.94572 1.28283
  921 28.0943 -1.93402 1.40655
  922 55.1157 5.58680 -8.28684
  923 125.117 2.73124 2.57133
  924 66.6267 2.63717 -8.38975
  925 9.58956 -0.366166 1.27672
  926 9.58210 -0.361599 -1.28372
  927 0.753265 -0.0457729 -0.946433
  928 0.771851 -0.0463752 0.945613
  929 -0.112977 -1.17042 -2.09634
  930 -0.121545 -1.17864 2.10302
  931 29.0530 -1.14407 0.518880
  932 29.0705 -1.17070 -0.523931
  933 2.85980 0.968374 -1.03822
  934 2.88233 0.963784 1.04449
  935 17.1580 -0.722665 -2.39869
  936 17.1673 -0.722103 2.39542
  937 37.4823 -0.231038 -4.05753
  938 17.6460 -0.922976 -1.58549
  939 17.6293 -0.910962 1.59116
  940 45.7518 -1.05285 -0.457273
  941 55.3047 -3.25269 -7.99468
  942 23.0593 -0.839407 0.618813
  943 23.0734 -0.849082 -0.631991
  944 -0.981704 -0.111505 -0.598040
  945 -0.979249 -0.111768 0.596895
  946 56.8851 -4.77833 -8.37763
  947 54.0883 -3.13528 5.24471
  948 47.2980 -3.18297 -1.58606
  949 44.8531 1.45905 7.38978
  950 19.9002 -1.06905 -1.80089
  951 19.8963 -1.04589 1.80740
  952 50.7581 1.83659 9.03212
  953 46.8434 4.06474 5.92977
  954 100.441 12.2432 2.04054
  955 50.6058 -1.62628 1.38754
  956 25.4693 -0.624825 -0.269958
  957 25.4641 -0.608446 0.273464
  958 44.9353 -3.58463 -0.820643
  959 61.8581 11.4221 -4.09294
  960 55.9780 -0.402354 -0.526402
  961 35.6781 -0.655741 0.0828016
  962 35.6626 -0.649112 -0.0719049
  963 4.20575 3.43050 -2.10175
  964 4.31939 3.42025 2.12110
  965 8.69950 18.7466 -18.7896
  966 51.1508 -1.26314 6.88952
  967 64.8926 -1.58413 -7.17660
  968 -1.51786 0.602248 0.575371
  969 -1.50199 0.601927 -0.567725
  970 137.240 31.2900 -25.3443
  971 55.3887 -6.14772 1.54085
  972 59.3086 -5.75579 -1.40983
  973 54.4037 -4.68841 4.94631
  974 66.6807 13.2860 1.84435
  975 4.50767 4.05463 -5.08990
  976 12.1722 15.9075 18.2110
  977 -0.396170 -0.854292 2.05705
  978 -0.390845 -0.848266 -2.05353
  979 53.2427 -1.16893 1.34588
  980 85.5302 15.3430 -1.44859
  981 4.64563 3.93752 5.32542
  982 -0.239965 -0.766452 -0.664923
  983 -0.240050 -0.764513 0.663357
  984 45.3122 -0.813026 0.263576
  985 33.1526 -2.57424 -2.01069
  986 54.8082 -4.36665 -5.72065
  987 14.8168 3.96810 -7.03726
  988 15.0600 4.03628 7.05627
  989 52.8064 -1.32411 -6.20091
  990 53.8916 -1.54728 2.28106
  991 -1.57861 0.306872 1.71322
  992 -1.57160 0.310181 -1.70818
  993 31.6461 -2.09290 -4.87211
  994 52.8307 3.26147 -9.13712
  995 39.4803 -1.26648 -0.160321
  996 27.7070 -0.634778 0.0146729
  997 27.7025 -0.640727 -0.0113196
  998 -0.630610 -0.712823 -1.41904
  999 -0.631545 -0.714334 1.41817
  1000 54.6162 -1.80677 -2.73251
  1001 52.2159 -0.342839 0.109684
  1002 52.1666 -0.343117 -0.0867431
  1003 71.7609 11.3573 -6.24220
  1004 11.9891 1.11852 -3.34486
  1005 12.0180 1.09618 3.33426
  1006 7.08624 -0.0337866 -1.71454
  1007 7.09845 -0.0353012 1.71066
  1008 58.5663 2.93069 9.99575
  1009 56.2687 -0.885941 -1.59489
  1010 9.00547 1.52104 -2.63366
  1011 9.04160 1.50904 2.64356
  1012 59.2134 -0.141844 -0.305507
  1013 54.4240 -2.25476 -3.99901
  1014 53.1263 -6.14504 -1.40934
  1015 1.76870 1.34884 -0.468961
  1016 1.71364 1.34261 0.493427
  1017 -2.80050 0.393758 1.08465
  1018 -2.79153 0.394729 -1.07884
  1019 29.5331 1.17307 -1.49684
  1020 93.1666 22.3964 -4.91427
  1021 41.5054 -2.89174 0.325829
  1022 26.8957 -1.16730 -5.04378
  1023 68.0488 -3.19500 1.75922
  1024 27.0030 -1.16887 5.12050
  1025 48.0615 -5.69923 3.01246
  1026 54.5468 -2.23489 -5.77435
  1027 17.3022 -0.328728 -0.0853066
  1028 17.3003 -0.320604 0.0843588
  1029 36.6937 -2.76388 -0.783922
  1030 21.9187 -0.779051 -3.82544
  1031 21.9060 -0.784888 3.80030
  1032 7.02495 4.53669 -4.08652
  1033 7.14148 4.51917 4.09806
  1034 14.2419 -0.418901 -0.313798
  1035 14.2393 -0.412380 0.307495
  1036 48.6678 -1.32536 0.874648
  1037 40.7636 -0.0995608 -13.7503
  1038 50.5151 -1.44087 -1.36221
  1039 45.2376 -5.02683 -1.53091
  1040 28.9661 -1.08009 0.317207
  1041 28.9931 -1.08995 -0.319661
  1042 60.0317 -0.210022 0.384080
  1043 53.0531 -1.05750 -1.26616
  1044 31.4493 0.754688 2.81691
  1045 56.5056 -0.542705 -2.57534
  1046 21.2157 5.94556 13.2182
  1047 58.4678 -0.502854 -2.13950
  1048 14.3819 2.46377 -5.17386
  1049 13.9232 2.49430 4.93850
  1050 70.3890 -1.78403 -2.14678
  1051 5.69190 3.08102 -1.90933
  1052 5.74698 3.05734 1.90702
  1053 0.910880 -0.492768 0.978939
  1054 0.963368 -0.484355 -0.944540
  1055 7.30708 -0.200461 0.397982
  1056 7.30388 -0.202156 -0.405254
  1057 24.2744 6.03130 -14.7649
  1058 142.249 35.0751 27.2478
  1059 54.4044 -1.80864 2.80374
  1060 48.4988 -5.50464 -0.881156
  1061 33.0931 -2.70722 -3.62274
  1062 -0.934388 0.663028 1.58468
  1063 -0.921926 0.666629 -1.57645
  1064 37.5759 -1.75745 -0.103499
  1065 41.7367 -1.33195 -0.352277
  1066 -0.0290764 -3.09695 1.02530
  1067 -0.0280222 -3.09931 -1.02484
  1068 5.77163 3.64450 -2.34921
  1069 5.84409 3.63584 2.36462
  1070 37.0414 -1.59509 0.107775
  1071 2.33526 1.32705 0.501683
  1072 2.31253 1.32932 -0.493135
  1073 57.3711 -2.40906 9.24322
  1074 41.1912 -4.28781 -2.97674
  1075 33.2971 -2.75166 3.62160
  1076 54.2797 -1.22405 -9.57173
  1077 58.5435 -0.476445 1.16286
  1078 20.1601 3.05726 8.66228
  1079 20.3084 2.92845 -8.51044
  1080 33.1190 -1.66349 -7.23212
  1081 47.7837 -1.49959 -0.920485
  1082 38.3058 -2.15190 0.115902
  1083 45.2466 -4.16375 0.551094
  1084 63.6443 -0.160101 -0.643899
  1085 32.9410 -1.35292 0.227632
  1086 32.9263 -1.44252 -0.248964
  1087 0.888636 1.10225 1.45067
  1088 0.915564 1.11077 -1.43560
  1089 54.5486 1.87366 -9.84590
  1090 11.4342 0.655988 -2.92054
  1091 11.4640 0.642119 2.90919
  1092 8.27398 0.223989 -2.02475
  1093 8.29094 0.218949 2.01867
  1094 63.7707 -3.25529 10.7092
  1095 54.5099 -2.48518 5.72154
  1096 25.8359 -1.15589 -4.20107
  1097 64.9379 -0.202980 -0.388379
  1098 71.1470 13.2991 -4.79045
  1099 58.5119 -0.392336 -0.777543
  1100 54.1410 -5.91424 2.69445
  1101 39.5741 -3.10468 6.23874
  1102 65.5551 -0.0126511 0.101211
  1103 31.3802 1.00576 -2.39246
  1104 45.5719 -4.86713 -0.314811
  1105 25.8745 -1.21073 4.14494
  1106 46.0202 -4.12733 -0.821320
  1107 58.2178 -0.707946 2.02813
  1108 39.4139 2.50744 3.76694
  1109 27.8565 -2.00750 -3.24333
  1110 89.3188 11.1615 -3.48632
  1111 65.7490 2.61915 8.70975
  1112 47.3531 6.00099 0.937388
  1113 64.5558 0.0716316 0.367048
  1114 23.9385 -1.43993 -2.39580
  1115 16.4256 9.65419 -14.7278
  1116 29.7786 0.680331 -10.5382
  1117 34.1836 -2.53287 1.29115
  1118 28.6278 -2.10153 2.99339
  1119 23.8723 -1.36355 2.42630
  1120 51.7004 0.337457 9.50263
  1121 39.1921 -1.15728 0.203024
  1122 63.3845 -0.413657 0.831527
  1123 -0.602381 -0.136923 2.08760
  1124 -0.595081 -0.131047 -2.08264
  1125 41.1925 -0.950820 -0.231861
  1126 -0.213358 0.327667 1.97946
  1127 -0.200290 0.335187 -1.97033
  1128 22.0946 -0.595852 0.401347
  1129 22.0988 -0.608103 -0.402171
  1130 59.0265 -0.283575 1.77846
  1131 47.0340 -2.73531 -1.37164
  1132 43.9261 -2.17514 -0.731426
  1133 49.3451 -3.35418 2.29938
  1134 14.4398 6.93301 -10.7986
  1135 48.4664 -1.63635 1.11092
  1136 6.18726 0.173075 -1.63797
  1137 6.20318 0.169587 1.63497
  1138 9.51446 5.98256 -7.38241
  1139 78.4411 9.46277 3.95538
  1140 4.19414 -0.225006 0.932000
  1141 4.18009 -0.223005 -0.934817
  1142 9.68827 5.87378 7.09921
  1143 44.0531 -3.59590 0.640588
  1144 21.2699 -0.916156 0.803219
  1145 21.2765 -0.921684 -0.822751
  1146 91.5980 19.2183 -4.24920
  1147 48.7446 -4.87215 1.09097
  1148 16.1381 8.97878 14.6863
  1149 1.27590 -1.15366 -0.815688
  1150 1.38354 -1.13745 0.945225
  1151 50.1956 6.32212 4.80458
  1152 3.32334 1.97591 -0.457874
  1153 3.35266 1.97583 0.465536
  1154 49.0876 -4.20995 -2.01562
  1155 -0.0248698 -4.83640 -0.982076
  1156 -0.0271197 -4.83806 0.986491
  1157 52.5861 -4.41953 -3.65807
  1158 -2.30230 0.0716570 0.318244
  1159 -2.32373 0.0720518 -0.319437
  1160 7.39071 2.85420 -2.60565
  1161 7.43121 2.86597 2.57540
  1162 -3.77969 0.0104428 -0.390944
  1163 -3.75589 0.0102309 0.391058
  1164 53.0664 -0.353512 -0.168902
  1165 -5.61467 0.153467 0.167102
  1166 -5.60094 0.153345 -0.164029
  1167 26.8612 -2.05938 -2.27555
  1168 0.688964 -7.92049 -0.382200
  1169 12.4567 -0.325102 0.639946
  1170 12.4556 -0.326777 -0.650235
  1171 44.5479 -0.608043 0.0213905
  1172 44.6351 -0.584871 -0.0122635
  1173 0.738144 -7.60518 0.538407
  1174 53.0178 -2.66284 -3.47043
  1175 61.1424 -0.227710 1.34858
  1176 53.7837 -3.40675 -4.89246
  1177 45.6860 0.297861 7.33698
  1178 0.194511 -2.19778 1.65565
  1179 0.217228 -2.18402 -1.63199
  1180 33.6729 -2.34153 0.945545
  1181 -2.47070 0.190173 1.35618
  1182 -2.46630 0.191841 -1.35247
  1183 90.2103 14.5660 0.821497
  1184 108.346 30.9424 -21.7518
  1185 55.0456 -5.41519 4.44820
  1186 21.4702 -0.531498 -0.0317869
  1187 21.4692 -0.522878 0.0317857
  1188 116.205 11.2701 -10.2089
  1189 6.64607 -0.176301 0.970236
  1190 6.63551 -0.173199 -0.975868
  1191 50.6209 -0.166678 -2.95717
  1192 32.2553 -2.56116 2.59747
  1193 54.4658 -5.39874 -3.46153
  1194 52.6427 -3.78262 -3.98820
  1195 31.4847 -1.17037 7.60979
  1196 11.1147 2.14764 -3.80084
  1197 11.1056 2.12818 3.77483
  1198 14.9922 5.46672 -9.10111
  1199 15.0066 5.04575 9.09930
  1200 3.78759 1.27928 -1.08484
  1201 3.81214 1.27504 1.09267
  1202 64.4939 11.1033 -6.03488
  1203 3.01741 2.69110 -0.816992
  1204 3.09386 2.69283 0.838902
  1205 46.6530 -3.46238 1.31312
  1206 89.8379 11.5401 4.06252
  1207 9.63960 -0.413948 -0.629693
  1208 9.64362 -0.413607 0.620491
  1209 59.4935 36.4241 -33.8425
  1210 42.1240 2.47683 -5.84019
  1211 38.2093 2.99593 2.36695
  1212 4.96030 2.25142 -1.29495
  1213 4.98480 2.25066 1.30353
  1214 -0.638381 -0.00453256 0.235288
  1215 -0.650317 -0.00452003 -0.238017
  1216 51.8595 -4.12258 3.42747
  1217 51.1298 -1.88261 1.91597
  1218 34.7482 8.91768 -23.6899
  1219 80.8376 17.5369 0.192896
  1220 34.0246 -1.12250 -8.44945
  1221 44.6628 -1.15581 0.429938
  1222 0.279911 -0.229165 -0.0641792
  1223 0.278123 -0.229051 0.0637745
  1224 -1.84729 0.347891 -0.428566
  1225 -1.82749 0.346344 0.432802
  1226 29.4039 0.238872 -8.90278
  1227 55.7947 -1.06893 1.99244
  1228 35.5699 0.435560 12.4391
  1229 48.7462 -2.25090 -1.61063
  1230 24.6807 8.30714 -18.3839
  1231 38.7368 -2.04012 -9.17597
  1232 46.3846 -4.95126 0.0474194
  1233 57.3625 -0.822125 2.93361
  1234 50.2776 -0.828084 -0.671546
  1235 26.7362 -1.92440 2.29213
  1236 63.1876 -3.83848 -5.76257
  1237 59.1214 4.95242 9.49584
  1238 25.1740 0.103418 -6.89980
  1239 60.4804 -0.223700 0.283960
  1240 46.0621 5.81311 -1.33367
  1241 19.4077 -0.606415 -0.630209
  1242 19.4007 -0.598371 0.620190
  1243 92.8122 19.8376 3.25502
  1244 129.907 3.46889 6.11060
  1245 0.100908 -5.93501 -0.982886
  1246 0.0973797 -5.94258 0.990217
  1247 12.7981 6.49471 10.0284
  1248 31.2668 -0.741110 -0.0350572
  1249 31.2733 -0.734916 0.0475584
  1250 43.6422 -4.35672 -0.450488
  1251 51.4105 4.13484 8.25577
  1252 55.4214 -0.911927 -1.35812
  1253 65.5418 -0.110630 -0.0349003
  1254 113.564 24.8049 -15.2493
  1255 15.8266 -0.562237 0.613249
  1256 15.8284 -0.564023 -0.625635
  1257 52.6356 -4.88753 3.55506
  1258 94.4239 21.3720 -5.14969
  1259 51.1350 -2.07354 -2.13472
  1260 36.6851 -2.43332 -0.469725
  1261 45.5468 -4.97887 1.46924
  1262 44.5517 -2.05633 0.826064
  1263 1.48675 -0.648485 -1.52132
  1264 61.5312 -3.96264 6.62512
  1265 49.5635 -3.12646 -2.23448
  1266 1.64801 -0.564175 1.74178
  1267 51.1045 -4.37925 -8.51301
  1268 48.4599 2.41278 -19.3675
  1269 80.5466 9.36792 -3.24780
  1270 65.8384 0.0226417 -0.0262648
  1271 65.7028 -0.0393932 0.0660406
  1272 50.4702 -2.81923 2.34462
  1273 18.6319 2.22331 -6.75711
  1274 57.6221 -5.26089 5.43974
  1275 99.4447 22.3909 9.44983
  1276 23.5563 7.64740 17.8750
  1277 0.528649 -0.175431 1.74314
  1278 0.553575 -0.164170 -1.72605
  1279 60.9356 -5.25749 -4.07099
  1280 23.1886 -1.18684 -0.977951
  1281 23.1815 -1.18955 0.951978
  1282 56.1991 -3.78991 7.75456
  1283 0.949307 0.0331903 1.04858
  1284 0.930489 0.0342826 -1.04903
  1285 -0.341976 -1.22095 1.65177
  1286 -0.339879 -1.21838 -1.65175
  1287 8.50520 -0.295020 -0.885192
  1288 8.51212 -0.296910 0.877094
  1289 28.7616 -1.89172 -3.74918
  1290 28.8411 -0.802123 0.0959029
  1291 28.8414 -0.824657 -0.0843810
  1292 65.4977 0.0220408 -0.0315194
  1293 56.9357 -0.804632 -3.28031
  1294 3.60938 0.242346 -1.27076
  1295 3.62783 0.239218 1.27011
  1296 28.8781 -2.00625 3.70862
  1297 66.2616 -0.0203680 0.00734840
  1298 62.2841 0.0724401 -0.0663486
  1299 62.2909 0.0359405 0.0486225
  1300 81.2918 16.4494 2.42208
  1301 60.3890 -0.260016 -0.617888
  1302 53.2417 -0.320358 0.149161
  1303 59.0400 -0.773893 -1.79587
  1304 65.0363 -0.145181 0.282094
  1305 66.2726 6.50037 8.64191
  1306 77.0674 15.6175 3.22333
  1307 62.6374 -0.194027 -0.910557
  1308 -0.486695 -0.131546 0.441966
  1309 -0.488548 -0.131436 -0.443219
  1310 33.5337 -1.98460 0.543998
  1311 33.5259 -1.88884 -0.517458
  1312 66.8894 7.24202 -8.30373
  1313 13.2186 4.51234 -7.40182
  1314 13.3036 4.38203 7.31099
  1315 43.6495 -0.0123079 -3.66575
  1316 46.4007 -0.498513 0.0475965
  1317 46.3441 -0.492066 -0.0569595
  1318 -1.17047 -0.226666 1.69074
  1319 -1.16835 -0.223813 -1.68992
  1320 50.7917 -0.127599 2.95411
  1321 78.5040 15.6679 0.551596
  1322 3.90066 -0.195627 -0.560352
  1323 3.90980 -0.196102 0.554143
  1324 58.1083 -5.74323 3.41709
  1325 -0.143910 0.833284 1.65928
  1326 -0.127688 0.838380 -1.64902
  1327 8.99244 -0.195339 -0.158198
  1328 8.99204 -0.191359 0.154131
  1329 43.6669 -0.0891639 3.71907
  1330 -0.171427 0.107983 -0.0778141
  1331 -0.169191 0.108396 0.0757865
  1332 59.7058 -0.567125 1.21336
  1333 82.3877 15.2542 0.423247
</Section>

newXOutput 9

<Section columns = "stress_xx | stress_yy | stress_xy">
  1 76.9535 -0.138817 0.137365
  2 77.0940 -0.202161 -0.178627
  3 -1.04838 0.0783341 -0.208147
  4 -0.0462995 -0.0749822 -0.0429691
  5 146.170 52.4596 45.7450
  6 148.433 60.3715 -46.2759
  7 -0.0457480 -0.0745061 0.0422536
  8 -1.04599 0.0779083 0.207620
  9 77.5235 -0.0940053 -0.127363
  10 76.8643 -0.218039 -0.175200
  11 76.8696 -0.159385 0.202112
  12 76.3897 -0.0464716 0.119348
  13 76.1576 -0.203040 -0.00269138
  14 75.9047 -0.189504 0.370384
  15 74.5708 -0.111081 0.386123
  16 74.7551 -0.519870 0.533151
  17 72.0770 -0.414970 1.08854
  18 70.3066 -0.148421 1.29999
  19 67.9253 -0.209169 1.38608
  20 63.8911 -0.182955 1.88677
  21 59.5794 -0.170261 2.16340
  22 54.2920 0.258194 2.92193
  23 47.1346 0.395354 2.62280
  24 44.3290 -0.0606059 3.72741
  25 35.5559 0.519675 2.63167
  26 30.3127 0.706644 2.04617
  27 28.9552 0.288250 1.50303
  28 27.4940 1.02098 0.104649
  29 28.2863 1.12319 -2.00716
  30 29.9118 0.300264 -2.52518
  31 36.3654 0.0919976 -3.39528
  32 42.9587 -0.348247 -3.57029
  33 47.3936 0.326312 -2.62196
  34 54.3758 0.296446 -2.92645
  35 59.4088 -0.205536 -2.31410
  36 64.3530 -0.225536 -1.78680
  37 67.6125 -0.139576 -1.40527
  38 70.0805 -0.154163 -1.20401
  39 72.6935 -0.231895 -0.714167
  40 73.7996 -0.208288 -0.694202
  41 74.8588 -0.200905 -0.602570
  42 75.9553 -0.236831 -0.158627
  43 76.4068 -0.314578 -0.266201
  44 76.0109 0.0940709 -0.0572447
  45 76.7861 -0.136317 -0.222657
  46 77.2123 -0.345878 0.190789
  47 77.6342 -0.185540 -0.0145652
  48 73.3596 0.165747 -0.114993
  49 68.6099 -0.102060 -0.223564
  50 63.3046 -0.417402 -0.345235
  51 57.8748 -0.264425 -0.254647
  52 53.1946 -0.597316 -0.235841
  53 48.2977 -0.674364 -0.221200
  54 43.3968 -0.567222 -0.128152
  55 38.2833 -0.646437 -0.165112
  56 33.9827 -0.746258 -0.208369
  57 28.2963 -0.742954 -0.178508
  58 22.4657 -0.437569 -0.114313
  59 17.6587 -0.270317 -0.0953516
  60 11.7379 -0.169308 -0.0570392
  61 7.43244 -0.196508 -0.311219
  62 3.42363 -0.312857 -0.112465
  63 -0.611449 0.0400788 0.168456
  64 -1.62099 0.287866 0.0469348
  65 -1.87106 0.119938 0.163940
  66 -1.64520 0.0560082 0.151030
  67 -2.36555 0.167588 0.0357508
  68 -2.59524 0.215664 0.330976
  69 -2.57976 0.0742745 0.0781530
  70 -3.82309 0.155297 0.0918947
  71 -4.35074 0.113165 0.307997
  72 -4.44868 0.0439514 0.316978
  73 -5.75388 0.149981 0.223285
  74 -6.18127 0.218950 0.480277
  75 -6.60285 0.133086 0.122225
  76 -7.19051 0.0948558 0.226325
  77 -7.30844 0.103286 0.0495411
  78 -7.82368 0.235422 -0.222633
  79 -7.78785 0.161576 -0.170177
  80 -7.00518 0.126613 -0.279218
  81 -5.96025 0.156262 -0.489744
  82 -4.78149 0.0627855 -0.704821
  83 -3.51901 0.0319601 -0.719904
  84 -2.09663 -0.0799441 -0.746705
  85 -0.888911 -0.0618015 -0.427128
  86 -0.365961 -0.154072 -0.262730
  87 -0.0660289 -0.373892 -0.223606
  88 -0.115467 -0.955265 -0.409807
  89 -0.129395 -1.92148 -0.733460
  90 -0.0336226 -3.62499 -0.805826
  91 0.0368425 -5.06860 -1.02553
  92 0.0955999 -7.31904 -0.843060
  93 0.293523 -8.75380 -1.00596
  94 0.0380602 -9.58328 -0.871177
  95 -0.0236918 -11.1399 -0.590198
  96 0.298890 -11.1176 -0.296086
  97 1.18044 -14.5373 0.344714
  98 0.979956 -8.83384 1.46291
  99 2.40975 -5.50441 3.50141
  100 7.49338 8.53252 12.0970
  101 33.7809 37.4737 36.8243
  102 191.775 19.6375 28.7197
  103 158.317 5.55582 10.2985
  104 150.308 2.37549 3.57287
  105 145.737 1.58553 -0.0157382
  106 148.589 2.26659 -2.91664
  107 159.959 4.75686 -8.57403
  108 189.810 15.7633 -26.9222
  109 21.7600 42.5684 -30.3928
  110 5.24906 5.19429 -9.20815
  111 1.77033 -6.72340 -2.82781
  112 0.887592 -9.55812 -1.20796
  113 1.17669 -15.0575 -0.219821
  114 0.287283 -11.3516 0.386503
  115 -0.0408257 -11.2584 0.637747
  116 0.0270008 -9.63021 0.896852
  117 0.287614 -8.76642 1.01696
  118 0.0933126 -7.31680 0.847236
  119 0.0350822 -5.06270 1.02718
  120 -0.0344793 -3.61692 0.805534
  121 -0.129531 -1.91624 0.732088
  122 -0.115713 -0.950630 0.408469
  123 -0.0659971 -0.372157 0.222397
  124 -0.363863 -0.153893 0.261734
  125 -0.885230 -0.0620564 0.426078
  126 -2.09206 -0.0805325 0.746156
  127 -3.51392 0.0313356 0.720162
  128 -4.77905 0.0621148 0.706104
  129 -5.96238 0.155809 0.492109
  130 -7.01189 0.126602 0.281702
  131 -7.80035 0.161482 0.172554
  132 -7.84083 0.235479 0.225059
  133 -7.33071 0.103582 -0.0475237
  134 -7.21644 0.0952166 -0.224938
  135 -6.63036 0.133479 -0.121222
  136 -6.21041 0.219400 -0.480070
  137 -5.78336 0.150387 -0.223135
  138 -4.47703 0.0441981 -0.317326
  139 -4.37851 0.113582 -0.308745
  140 -3.84891 0.155896 -0.0929263
  141 -2.60141 0.0746828 -0.0798913
  142 -2.61243 0.216037 -0.333386
  143 -2.37900 0.167658 -0.0379157
  144 -1.65310 0.0559150 -0.153074
  145 -1.87467 0.119705 -0.165560
  146 -1.62188 0.287439 -0.0483633
  147 -0.610175 0.0398391 -0.169260
  148 3.42454 -0.313998 0.111567
  149 7.43290 -0.199545 0.310182
  150 11.7390 -0.174764 0.0557450
  151 17.6606 -0.278248 0.0946419
  152 22.4669 -0.446832 0.114138
  153 28.2947 -0.751070 0.179640
  154 33.9743 -0.750574 0.210865
  155 38.2679 -0.642109 0.171183
  156 43.3728 -0.549811 0.135325
  157 48.2635 -0.632408 0.209946
  158 53.2155 -0.608606 0.208804
  159 57.8893 -0.338043 0.268025
  160 63.3560 -0.403682 0.316956
  161 68.7567 -0.0615597 0.226494
  162 73.2121 0.161716 0.111031
  163 40.8375 -3.64300 -2.68994
  164 40.6617 -3.70814 2.68425
  165 11.6363 3.30549 -4.24319
  166 11.7537 3.31917 4.22070
  167 48.7688 -2.58403 11.8677
  168 51.2389 -2.90482 -11.5307
  169 22.6710 -1.13368 1.17419
  170 22.6720 -1.12161 -1.19833
  171 52.2705 -1.58991 0.718988
  172 51.1494 -1.59465 -0.705037
  173 68.8304 12.5782 -2.04063
  174 70.9561 0.190471 -10.3990
  175 69.4113 0.777256 11.0248
  176 15.4616 -0.546236 -2.78388
  177 15.4585 -0.541159 2.77531
  178 61.2965 -6.11403 4.21603
  179 61.1901 -4.70276 -5.45660
  180 0.565843 1.21636 1.81400
  181 0.590274 1.22435 -1.79984
  182 83.6829 16.8943 3.87141
  183 15.3705 6.72098 -10.3617
  184 16.5531 6.79407 11.1826
  185 59.3613 -2.60819 2.76558
  186 89.3066 18.3785 -2.63814
  187 37.5115 -1.16842 -0.153627
  188 37.4452 -1.20516 0.148668
  189 61.2035 -1.74963 -2.48717
  190 82.3381 -1.25565 0.275109
  191 13.2752 -0.380922 0.412200
  192 13.2751 -0.385126 -0.421526
  193 5.47502 0.829726 -1.75486
  194 5.50143 0.821249 1.75838
  195 33.3943 -1.30441 -7.15125
  196 33.2611 -1.38040 7.24860
  197 40.1202 -2.46105 -0.618526
  198 40.2024 -2.44697 0.698152
  199 9.14225 -0.316741 1.42007
  200 9.13108 -0.311893 -1.42525
  201 81.5173 -2.25259 3.99395
  202 65.8871 -6.68865 -2.42780
  203 63.0921 -0.415546 -0.473587
  204 61.5679 -0.538147 0.496696
  205 60.6936 7.08193 7.60690
  206 2.35766 1.73889 -0.280188
  207 2.45202 1.73184 0.321536
  208 61.3323 -2.52356 8.89110
  209 55.3895 4.17824 -8.55974
  210 40.2405 8.30339 -25.2435
  211 42.3156 6.99493 23.4204
  212 0.511553 1.30196 0.214427
  213 0.533993 1.30120 -0.204175
  214 61.0756 -2.24090 -9.15753
  215 108.506 15.4076 -0.912285
  216 50.8023 -5.61377 3.68499
  217 51.2148 -5.57670 -3.43953
  218 50.7887 -3.48737 -0.980978
  219 64.0025 -0.810887 1.38593
  220 29.6241 -1.96238 -2.31660
  221 29.1229 -1.95309 2.41047
  222 17.4073 0.413933 -4.35926
  223 17.4295 0.406377 4.31446
  224 65.3113 -7.11111 0.312843
  225 50.3421 -3.72065 0.768349
  226 63.7925 -0.778529 -1.13875
  227 48.9145 -1.00457 0.231450
  228 49.3727 -0.916164 -0.133047
  229 62.3633 -2.71580 5.36178
  230 4.18427 0.0815999 -1.51176
  231 4.20363 0.0791661 1.51011
  232 -0.857883 -0.600153 -2.16965
  233 -0.861927 -0.604930 2.17159
  234 7.81628 -0.371440 -0.793654
  235 7.82435 -0.372322 0.784585
  236 24.9911 -0.637114 0.504507
  237 25.0002 -0.651795 -0.510580
  238 29.5259 1.96109 -10.7719
  239 29.5286 1.62124 10.6429
  240 63.3395 -1.88116 -4.58340
  241 28.6966 -1.63506 -4.08813
  242 28.7180 -1.68668 4.01602
  243 54.4673 0.757030 9.62085
  244 46.5989 4.05286 0.577126
  245 54.0356 -5.34760 -1.03504
  246 0.154692 -1.57214 -2.12143
  247 0.136784 -1.58578 2.13711
  248 3.18639 2.62714 -3.13545
  249 3.40507 2.50140 3.33288
  250 53.0963 -5.22637 0.668507
  251 97.7596 17.0460 0.566985
  252 4.49114 3.13300 -1.04781
  253 4.54913 3.13025 1.06528
  254 -2.27353 0.406915 1.58483
  255 -2.26340 0.408978 -1.57797
  256 98.4697 15.7808 -0.0793314
  257 32.7988 -1.44618 -0.709189
  258 32.7707 -1.41900 0.684351
  259 66.3189 -4.62821 8.56018
  260 122.399 19.8341 11.8038
  261 18.5239 -0.940491 -2.23594
  262 18.5157 -0.947122 2.23154
  263 66.6999 9.94771 -7.45092
  264 117.715 22.2005 -10.4469
  265 81.2294 7.54196 7.89681
  266 89.7895 3.98952 -15.2267
  267 54.1627 -2.37479 1.39573
  268 61.0554 0.150480 -10.9698
  269 58.4387 -4.03158 -3.37336
  270 65.5716 -1.06490 2.95460
  271 -0.682134 0.616150 -0.371301
  272 -0.659995 0.614023 0.378289
  273 65.0707 -2.75343 -15.0305
  274 6.17187 2.06364 -1.70574
  275 6.20262 2.05916 1.71634
  276 62.3118 -1.48822 -5.67447
  277 8.50300 7.83762 -10.6979
  278 5.48663 -0.0139200 -0.175405
  279 5.48751 -0.0122033 0.171590
  280 66.0136 -4.26238 -8.88414
  281 10.9190 4.90057 -5.46989
  282 11.0812 4.87036 5.48438
  283 1.92541 -0.0846372 1.07240
  284 1.90568 -0.0833810 -1.07424
  285 54.0943 -2.23457 -1.35152
  286 8.55577 7.74460 11.0157
  287 88.3412 4.89501 18.1002
  288 22.2032 -0.810556 -0.652243
  289 22.1955 -0.804037 0.637754
  290 42.6878 -1.56903 -0.00253847
  291 42.6651 -1.71988 0.0455988
  292 36.4173 3.23436 -16.8109
  293 59.5893 -6.58766 -1.91618
  294 69.0174 -0.269123 0.632824
  295 35.0327 3.20849 16.2190
  296 40.7735 -0.891403 0.0211890
  297 40.7570 -0.890127 0.0164891
  298 58.5230 -4.21033 3.44077
  299 68.1334 -0.592375 -1.47181
  300 -1.36253 0.261485 -0.762146
  301 -1.33865 0.259572 0.764979
  302 84.3125 16.9938 -1.17881
  303 74.6474 -3.83024 5.25949
  304 68.0621 -0.173750 -0.194201
  305 69.3490 -0.147231 0.175873
  306 67.1462 -6.26572 4.70318
  307 82.9304 8.05119 -7.50571
  308 71.1346 13.3184 4.46080
  309 31.2517 -1.81989 -1.31481
  310 30.9475 -1.85585 1.35019
  311 68.9746 -0.250688 -0.464111
  312 43.9917 -3.42848 -7.89402
  313 43.1514 -3.30286 0.841562
  314 41.1535 -2.35605 9.11798
  315 67.4444 -0.683170 1.73322
  316 13.6118 -0.619685 -1.36402
  317 13.6178 -0.624510 1.35539
  318 61.8443 -2.58460 14.8646
  319 38.2417 -2.94115 -1.63462
  320 71.4281 8.96826 9.45657
  321 21.9663 1.56660 -6.74058
  322 21.1116 1.63511 6.67433
  323 4.71110 -0.120594 -0.320851
  324 4.71617 -0.119604 0.314745
  325 59.2813 -0.973803 0.924800
  326 56.7854 -0.558745 0.200748
  327 56.4478 -0.635291 -0.222109
  328 61.7713 -1.56990 5.99423
  329 3.68964 -0.173456 0.769812
  330 3.67422 -0.171655 -0.775072
  331 16.4207 -0.347873 -0.264648
  332 16.4181 -0.340389 0.260558
  333 0.516614 -3.22882 -1.35436
  334 0.477913 -3.25060 1.40039
  335 46.2632 1.96845 6.46603
  336 75.4092 -3.70040 -4.54079
  337 47.9775 -2.37068 0.705650
  338 54.7717 -0.860879 -0.587241
  339 55.6428 6.97650 -4.04990
  340 9.87994 -0.297348 -2.03757
  341 9.89069 -0.297355 2.03400
  342 46.5767 -2.22173 -0.445318
  343 12.2380 0.494679 -2.97480
  344 12.2598 0.483314 2.96178
  345 2.10849 2.04107 0.403044
  346 2.13861 2.03997 -0.390857
  347 57.1756 -6.29565 4.94382
  348 130.657 8.69198 3.31957
  349 49.2005 0.663924 -7.68367
  350 41.9127 -3.77069 4.56310
  351 41.6976 -3.69994 -4.72346
  352 62.2803 -1.17858 10.9127
  353 54.6785 -0.450228 7.66436
  354 56.3929 -6.08905 -5.13461
  355 32.5655 -0.666160 -0.0661168
  356 32.5613 -0.676902 0.0746415
  357 62.3977 -4.08869 6.98431
  358 85.3523 17.2118 0.831072
  359 67.6869 -0.655456 -2.18833
  360 15.6690 -0.576586 -0.942169
  361 15.6722 -0.576835 0.928784
  362 63.4193 -6.31666 -6.29327
  363 65.7729 4.42205 -10.9708
  364 42.1178 2.28241 -4.12999
  365 62.7979 -4.24316 -7.89990
  366 -2.12019 0.0408453 -1.68097
  367 -2.12261 0.0384939 1.68314
  368 52.7774 -1.01734 0.473073
  369 -0.752474 -0.452478 -0.961129
  370 -0.751714 -0.452685 0.959341
  371 41.1517 18.5928 -30.9590
  372 1.38104 1.15708 1.39819
  373 1.42087 1.16695 -1.37730
  374 54.2081 -0.476427 -7.59796
  375 29.3910 -1.13507 0.525967
  376 29.4155 -1.15314 -0.536073
  377 -0.240399 -2.29150 1.90748
  378 -0.236981 -2.28730 -1.90530
  379 33.1683 19.5791 29.0574
  380 23.8934 -1.22560 -3.11257
  381 23.9093 -1.16775 3.11475
  382 7.44344 5.30938 -4.97455
  383 7.60740 5.28892 4.93951
  384 -3.46916 0.454441 0.748735
  385 -3.45548 0.455010 -0.741604
  386 63.2649 4.07989 10.9074
  387 48.6646 -5.08811 1.73489
  388 48.7165 -4.37469 0.252792
  389 59.5426 -6.85865 0.115085
  390 13.9808 1.82896 -4.24810
  391 14.0266 1.82443 4.23851
  392 1.20387 -2.58666 -0.275269
  393 1.13249 -2.61538 0.376905
  394 58.8377 8.49101 2.70297
  395 61.0051 -1.57013 2.08263
  396 33.8208 -2.57097 2.76390
  397 20.4084 -0.468067 -3.81408
  398 20.4123 -0.471553 3.77811
  399 43.7348 -1.11148 0.123586
  400 43.6835 -0.944742 -0.161082
  401 33.5291 -2.64622 -2.97637
  402 25.9608 -0.408989 -5.31683
  403 25.9529 -0.446102 5.36205
  404 63.3547 -5.88336 -5.24562
  405 35.8720 -2.66984 1.55564
  406 57.7357 -1.56115 1.38736
  407 57.6513 -1.39705 -1.20085
  408 47.7791 -4.33860 -0.433836
  409 70.4218 -0.172792 -0.663712
  410 22.6063 8.77416 -16.9192
  411 65.3105 -0.870911 3.51462
  412 70.1046 -0.245266 0.936870
  413 23.3613 -1.19514 1.75246
  414 23.3760 -1.17777 -1.75087
  415 48.4394 -5.02580 -1.82249
  416 6.31339 2.95442 1.82351
  417 6.27836 2.95313 -1.82706
  418 132.100 8.68468 -6.83634
  419 56.3863 -3.07464 -2.12791
  420 71.1183 -0.111063 0.383089
  421 21.2809 8.13268 16.0462
  422 103.999 17.6511 2.94757
  423 61.0254 -0.713085 -0.751876
  424 44.7060 -3.12411 -0.282050
  425 18.0357 3.49259 -7.66797
  426 19.2596 3.24486 7.62194
  427 55.6517 -3.40143 2.17293
  428 58.3932 -0.767949 -5.70013
  429 -1.63652 -0.0420294 0.794172
  430 -1.66069 -0.0413958 -0.794238
  431 20.5492 4.86863 -10.5080
  432 20.6130 4.88833 10.4735
  433 1.83630 1.15718 -0.632673
  434 1.86085 1.15430 0.641377
  435 49.8384 -0.717736 0.205262
  436 49.7786 -0.691889 -0.187007
  437 62.2445 -2.78349 -5.59455
  438 -0.283993 -0.322848 2.42773
  439 -0.273090 -0.313651 -2.41948
  440 64.2400 -6.44233 4.73308
  441 60.9569 -1.44659 -1.86819
  442 98.6757 18.9738 -2.19458
  443 2.05224 -0.162705 0.344270
  444 2.04042 -0.162758 -0.349659
  445 120.500 32.8547 13.7377
  446 2.20101 -0.413673 -2.85044
  447 6.23489 0.377714 -1.95474
  448 6.25596 0.372103 1.95281
  449 119.893 33.5120 -12.8694
  450 2.33212 -0.149901 3.19703
  451 -3.48637 0.369972 0.341556
  452 -3.46899 0.369281 -0.334960
  453 6.04648 4.11754 -2.69461
  454 6.15670 4.11641 2.71072
  455 76.4597 11.7525 -8.08610
  456 61.6936 -2.29464 -3.75100
  457 70.7017 -0.138895 -0.350277
  458 64.3411 -0.944056 -4.08840
  459 -0.918663 0.374105 2.23965
  460 -0.907651 0.379897 -2.23204
  461 62.3067 -2.41365 4.29383
  462 39.6541 -2.08075 -0.460588
  463 39.5247 -2.10493 0.318140
  464 54.6472 -6.04980 -0.0888826
  465 38.5214 -0.659244 -11.3468
  466 59.0605 -0.923427 5.83951
  467 48.5427 -1.34835 -0.322086
  468 72.3289 -5.78330 0.263170
  469 37.2786 0.180616 12.2114
  470 1.36365 -0.0358122 0.764953
  471 1.34402 -0.0347126 -0.767724
  472 78.3140 15.5423 -3.85721
  473 63.7918 -0.265614 0.0925545
  474 63.5608 -0.327198 -0.154047
  475 47.0917 -3.00428 -0.248751
  476 19.2742 -0.600428 -0.497134
  477 19.2694 -0.591699 0.488037
  478 11.0970 -0.0870619 -2.42182
  479 11.1077 -0.0892621 2.41425
  480 37.4080 1.46505 2.45445
  481 8.49212 -0.292648 1.12905
  482 8.48204 -0.289563 -1.13710
  483 9.81312 1.03173 2.71548
  484 9.78053 1.04694 -2.71467
  485 61.0852 -4.70982 5.26147
  486 33.3478 -2.06219 -4.94621
  487 30.4379 -0.845475 0.220006
  488 30.4516 -0.871732 -0.221296
  489 33.7111 -2.12946 4.94181
  490 96.1747 22.4067 -0.671059
  491 -1.54084 -0.245121 -1.26855
  492 -1.54027 -0.246299 1.26805
  493 22.5707 -0.545417 -0.196440
  494 22.5675 -0.534621 0.195055
  495 0.00614347 -4.28504 -1.66050
  496 -0.00375963 -4.29853 1.67418
  497 55.9622 -0.599424 0.371294
  498 37.1294 1.82565 -1.22643
  499 51.6533 5.46728 3.60609
  500 33.2141 -0.364697 -8.89081
  501 15.2602 -0.770724 1.72921
  502 15.2623 -0.763938 -1.73417
  503 -4.97336 0.148076 -0.198612
  504 -4.95000 0.147243 0.201405
  505 65.7718 -1.40397 -10.9646
  506 3.29286 0.0464394 -0.245853
  507 3.29584 0.0473361 0.241501
  508 54.7537 -4.22229 -1.94213
  509 58.4751 -4.93550 -3.34902
  510 11.3888 8.26373 -11.1021
  511 49.0487 0.947220 -18.3853
  512 0.288698 1.36736 1.28408
  513 0.311168 1.36982 -1.27195
  514 28.9378 -1.23426 -0.852699
  515 28.9201 -1.22071 0.824998
  516 85.6199 2.79403 -3.47425
  517 60.8768 -3.52057 -4.74909
  518 11.0883 7.76333 10.9320
  519 60.3400 -6.96192 0.815333
  520 57.9079 -5.48714 2.79399
  521 10.6457 -0.249910 -0.731669
  522 10.6490 -0.248527 0.721770
  523 45.7288 0.452762 5.93407
  524 33.5134 -2.38877 -1.69790
  525 64.6006 -1.29176 2.74230
  526 -0.276167 -1.56174 -1.22527
  527 -0.276845 -1.56082 1.22377
  528 44.4744 -3.99311 5.57494
  529 68.6971 -5.46849 -6.20665
  530 90.7864 5.20926 -1.65597
  531 47.9103 -1.41023 0.373714
  532 12.6006 -0.208533 -0.223064
  533 12.5993 -0.203076 0.220382
  534 29.7367 0.211218 8.53277
  535 85.8234 13.7935 6.11486
  536 89.1501 14.8023 -29.5607
  537 78.3300 -0.0682598 6.20042
  538 55.7832 -6.22757 -0.223625
  539 136.482 10.8464 9.10492
  540 98.9418 23.1260 1.31912
  541 12.4833 -0.502694 1.90272
  542 12.4767 -0.497234 -1.90804
  543 53.5438 -4.35167 1.60940
  544 3.41569 1.85138 -0.501066
  545 3.44397 1.84968 0.511584
  546 67.8313 -5.81626 6.18729
  547 53.8712 2.83608 8.84067
  548 68.8041 -0.366041 1.51032
  549 50.0071 -2.84214 0.941673
  550 71.5004 -0.336715 -19.3745
  551 115.274 27.1069 18.1902
  552 54.6522 -0.828961 -0.352881
  553 67.3372 -0.612430 -2.36407
  554 9.82545 4.17001 -3.96435
  555 9.89807 4.11872 3.94146
  556 37.4156 -1.33196 -0.260561
  557 37.3964 -1.29437 0.271903
  558 0.382851 -5.79213 -0.200013
  559 68.2682 -2.64422 9.93985
  560 2.25665 2.13353 0.680506
  561 2.29669 2.13860 -0.662427
  562 0.455479 -5.62819 0.342952
  563 61.8610 -2.84840 -7.91877
  564 71.3516 4.22724 -10.7284
  565 71.0387 4.81746 10.7131
  566 3.14386 2.25173 1.93050
  567 2.97493 2.32307 -1.87516
  568 -3.00345 0.0758018 0.579015
  569 -3.02885 0.0764815 -0.578203
  570 66.4179 0.826499 20.0385
  571 35.0458 -1.81389 0.746080
  572 35.0841 -1.80711 -0.773777
  573 80.5117 -2.31145 -9.56409
  574 8.41157 -0.106351 0.426825
  575 8.41001 -0.108819 -0.433398
  576 2.66422 -0.119991 -0.105803
  577 2.66394 -0.119162 0.104289
  578 87.5988 15.3086 -5.26567
  579 7.97846 9.87107 -12.4116
  580 43.4471 0.824183 -5.00904
  581 63.2252 10.1877 -4.64884
  582 0.800048 -0.353044 1.70193
  583 0.838322 -0.340451 -1.67636
  584 67.4048 27.2270 35.0969
  585 55.4449 -1.31959 -0.889952
  586 1.13318 0.573365 -0.891273
  587 1.15690 0.569210 0.896170
  588 63.9884 -5.22839 7.09101
  589 9.47529 9.51533 12.6364
  590 45.7047 -0.720609 -0.0134230
  591 45.7163 -0.712388 0.0132125
  592 -0.0722915 -3.36076 1.67835
  593 -0.0673340 -3.35517 -1.67289
  594 78.0602 15.4397 -0.124859
  595 49.6493 -4.15481 8.24515
  596 47.2808 -1.81992 0.389533
  597 47.8435 1.68408 19.4261
  598 -4.09151 0.187368 1.03694
  599 -4.08731 0.188363 -1.03318
  600 79.3637 0.475851 -6.61392
  601 108.131 15.6593 -12.5418
  602 29.1537 2.83020 -12.5925
  603 14.8986 -0.593974 -2.34981
  604 14.9100 -0.593670 2.34873
  605 72.5933 -0.153972 0.464704
  606 46.7797 -1.86474 -0.454822
  607 63.9292 -0.671037 1.05418
  608 61.8716 -2.83936 7.74236
  609 0.810893 -0.0941990 0.364164
  610 0.795078 -0.0937593 -0.368234
  611 35.8734 -1.07467 -0.135546
  612 35.8670 -1.03845 0.123883
  613 21.9714 0.522266 -5.50023
  614 21.8201 0.528275 5.47004
  615 91.4573 4.12478 3.78379
  616 152.744 11.5036 -16.8015
  617 -2.45574 -0.0831142 0.517633
  618 -2.48115 -0.0827993 -0.517982
  619 20.2466 -0.804761 0.942480
  620 20.2487 -0.804151 -0.960697
  621 84.6058 3.81414 4.62893
  622 71.9362 -0.121358 -0.148034
  623 71.7636 -0.237994 0.0775880
  624 49.2776 -0.0618064 5.89439
  625 74.4000 -4.91017 -5.44311
  626 39.1438 -3.14030 2.04830
  627 -1.27154 0.850590 -1.13829
  628 -1.28830 0.849549 1.14773
  629 63.4381 1.13139 11.3823
  630 24.1710 -1.33592 -2.41139
  631 24.1422 -1.35977 2.41644
  632 51.8916 -2.83705 -1.13795
  633 64.9549 -1.27700 -2.49144
  634 35.9203 -2.82073 -3.41045
  635 58.9969 7.11692 -6.90096
  636 40.0096 -2.80183 -6.60327
  637 13.1766 -0.339564 -0.354492
  638 13.1754 -0.334562 0.347669
  639 36.3159 -2.87679 3.41665
  640 79.9496 12.5655 7.47241
  641 63.2859 -3.18058 9.73493
  642 51.8301 -2.10563 0.996517
  643 36.2860 -0.772268 0.158533
  644 36.2766 -0.774958 -0.151169
  645 26.7531 -0.886708 -0.638432
  646 26.7400 -0.874766 0.628026
  647 61.1763 -5.64154 -4.43798
  648 29.8205 -1.58415 1.13781
  649 29.8569 -1.57808 -1.17192
  650 59.8715 9.35838 -0.936672
  651 56.5004 -2.80999 2.12111
  652 72.0775 -0.249564 -0.694300
  653 59.3671 -1.18846 -9.94147
  654 7.24981 -0.338244 1.52211
  655 7.23628 -0.335684 -1.52496
  656 69.9687 -0.298297 -1.36296
  657 11.6203 5.90442 -7.64692
  658 11.8248 5.88619 7.68522
  659 71.1110 -4.84067 8.03523
  660 23.4275 5.68840 13.2560
  661 4.62936 -0.00190107 1.52862
  662 4.61216 -0.000621498 -1.53076
  663 60.1508 -4.26328 10.8369
  664 59.7292 7.12643 -26.8276
  665 56.3523 1.65764 -9.84128
  666 75.3852 13.5512 6.27744
  667 50.8826 -2.05466 -0.766244
  668 92.1557 16.8880 -0.407174
  669 -5.01477 0.208328 -0.0623205
  670 -4.99472 0.207713 0.0664578
  671 40.2426 -0.0272392 -13.4391
  672 0.825047 -0.0520216 0.294537
  673 0.815701 -0.0521850 -0.298588
  674 50.9179 -4.46683 -8.13363
  675 16.0071 2.27336 -5.26593
  676 15.8700 2.27927 5.26116
  677 -0.262050 0.826613 -0.0389490
  678 -0.240334 0.825215 0.0478187
  679 42.8303 -3.62697 -1.34018
  680 61.1425 -0.595895 -3.85364
  681 28.0708 -0.743936 -0.245194
  682 28.0703 -0.733169 0.247769
  683 19.8464 -0.973992 -1.48128
  684 19.8597 -0.988642 1.47315
  685 3.59438 2.96441 -0.569700
  686 3.65950 2.96926 0.590415
  687 63.8883 -0.545086 0.595367
  688 26.8662 -1.63815 1.94701
  689 27.0541 -1.60650 -1.94377
  690 70.3742 -5.96288 -1.97852
  691 57.4951 -5.77172 -2.17473
  692 44.7706 -1.02882 0.184391
  693 44.6023 -0.939882 -0.158134
  694 63.6842 -6.98115 2.46856
  695 104.242 20.8730 4.55995
  696 55.7970 -2.88138 -13.7209
  697 64.0177 -1.70332 4.20839
  698 63.0641 -2.47620 -10.3729
  699 18.1781 -0.513474 -0.655554
  700 18.1745 -0.508434 0.643450
  701 49.3878 -1.21774 15.4951
  702 143.597 18.1377 16.6564
  703 8.72199 2.67363 -2.80521
  704 8.73355 2.69084 2.81478
  705 63.7500 -0.390455 -0.311350
  706 64.2842 -0.335580 0.315196
  707 26.2687 12.3080 -22.0204
  708 67.2838 -0.289552 2.33739
  709 58.1104 -0.748282 0.559962
  710 75.5177 15.1427 -2.38953
  711 6.89167 1.37439 -1.95580
  712 6.92286 1.36536 1.96334
  713 73.4968 -0.0951634 0.104957
  714 58.2496 -2.05058 -2.00725
  715 72.7944 -1.45778 8.96254
  716 28.6175 -1.95850 -3.24572
  717 28.6900 -1.86875 3.20680
  718 5.15984 -0.205818 1.15350
  719 5.14491 -0.202966 -1.15827
  720 66.8051 -0.256528 -0.513305
  721 57.3024 9.92158 28.6011
  722 0.250679 0.211824 2.14135
  723 0.271320 0.223295 -2.12730
  724 66.7621 -0.548881 -1.22303
  725 64.6270 -1.00426 1.72477
  726 49.0146 -0.0149244 -6.32196
  727 0.429691 -6.31683 -0.980678
  728 0.398699 -6.37345 1.03769
  729 22.5172 5.84404 -13.2440
  730 50.7784 -5.21145 -5.62506
  731 25.9976 12.2212 22.2666
  732 72.3706 -0.0772052 0.301606
  733 67.5510 10.0681 7.50445
  734 47.7919 4.39080 -2.50220
  735 89.7317 18.1398 -0.763642
  736 71.1121 -0.208947 0.917695
  737 -5.07716 0.107000 0.397051
  738 -5.10263 0.107590 -0.395424
  739 75.2719 -4.82026 0.751042
  740 47.8375 -1.13413 0.225489
  741 16.4099 0.0859952 -3.63912
  742 16.4292 0.0687498 3.61238
  743 64.8121 -0.557234 -0.790845
  744 115.258 16.3994 -5.52721
  745 5.85946 -0.192563 -0.677995
  746 5.87088 -0.193802 0.670787
  747 72.8704 -0.106311 -0.445246
  748 12.5691 -0.564501 -0.953539
  749 12.5743 -0.566522 0.942978
  750 69.9773 -3.06991 -9.12193
  751 64.4451 -0.638852 3.15760
  752 56.8033 -0.476853 9.76799
  753 73.1481 -0.111484 -0.0444704
  754 67.6664 -0.338019 0.958170
  755 42.9736 -2.13623 0.0569887
  756 54.7121 -1.19258 0.726491
  757 62.0784 -3.81871 -6.77330
  758 60.6390 -3.74002 4.62166
  759 70.6167 8.32455 -9.52387
  760 59.8485 -3.23765 3.54624
  761 63.0035 -3.79940 8.52267
  762 35.6977 -2.29863 1.10268
  763 1.17591 -0.941926 -0.541620
  764 1.10680 -0.944722 0.606594
  765 55.5327 -0.565343 0.0501758
  766 55.4106 -0.558961 -0.0715638
  767 67.5563 -0.115287 -0.0671332
  768 67.8070 -0.100020 0.0841317
  769 63.2225 -1.72062 5.06364
  770 58.4428 -5.63773 7.58936
  771 47.4615 -3.74354 0.0310396
  772 41.8919 -2.33265 0.266088
  773 117.784 15.1899 6.58107
  774 64.2440 -1.50895 -3.39382
  775 37.0362 5.97771 -20.7598
  776 59.4961 -2.79434 -3.10449
  777 1.27253 0.0692230 -1.03948
  778 1.29510 0.0670590 1.04020
  779 51.3006 4.50574 -5.62063
  780 140.107 4.27799 -1.86394
  781 66.5052 1.48623 -11.2525
  782 2.49455 -0.480990 -4.52641
  783 67.7427 12.3448 1.94140
  784 53.5095 -3.24900 1.49243
  785 59.6760 -1.58265 9.66628
  786 50.5004 -5.43891 5.65883
  787 82.8155 -1.60354 12.1260
  788 2.68939 0.141094 4.87235
  789 36.0272 -0.319732 10.2962
  790 51.1876 -1.06613 -0.411924
  791 57.2318 -5.39364 -7.69267
  792 34.1802 -2.59284 -2.23806
  793 26.8755 1.24230 -8.87862
  794 66.0609 -1.23347 11.0379
  795 41.8218 -2.71967 0.671141
  796 6.29468 -0.202915 0.634612
  797 6.28764 -0.203271 -0.642535
  798 61.3373 -0.317059 3.42203
  799 54.7944 0.184328 -9.44189
  800 -5.09293 0.213942 0.681825
  801 -5.08552 0.214281 -0.677801
  802 40.6522 -1.06109 0.0900344
  803 40.5251 -0.989181 -0.102215
  804 29.9422 3.19096 12.7958
  805 26.1401 -1.45322 1.40152
  806 26.1824 -1.41452 -1.42195
  807 72.8823 -0.0526921 -0.265556
  808 24.0833 1.88206 8.62415
  809 -0.961062 -0.0206593 0.404866
  810 -0.982077 -0.0201213 -0.407379
  811 60.5712 -1.90160 7.54020
  812 66.1887 -0.375256 0.422059
  813 -3.52767 0.0271918 0.996772
  814 -3.52782 0.0282448 -0.994847
  815 39.4771 -2.54888 7.50497
  816 7.23931 5.72444 -6.31841
  817 7.33199 5.42200 6.21073
  818 35.1594 1.60367 1.02038
  819 -2.21181 -0.0247163 -0.470115
  820 -2.18690 -0.0250888 0.469155
  821 45.6591 -4.40410 -5.27877
  822 63.1136 -6.74019 -3.11387
  823 -0.306930 -0.292531 -0.381428
  824 -0.306088 -0.291906 0.380084
  825 1.15754 0.119174 -0.0855168
  826 1.15858 0.119821 0.0832113
  827 55.8804 -4.91507 2.19553
  828 46.6749 -4.81090 3.43892
  829 52.1896 -0.616467 0.299698
  830 46.5375 -3.64592 -0.219984
  831 15.5162 -0.202025 -0.0527287
  832 15.5143 -0.194815 0.0510092
  833 -5.83493 0.121276 0.435471
  834 -5.82327 0.121098 -0.431581
  835 59.4606 -0.525846 -0.416817
  836 50.5255 1.91612 -7.97972
  837 60.0534 -0.969695 -1.10888
  838 34.2491 -2.53861 2.10979
  839 58.2718 -1.06475 -7.87943
  840 63.1574 -1.87308 -5.23579
  841 59.7211 -0.416513 0.378991
  842 42.7116 -1.79505 10.5814
  843 45.6507 -4.41969 -1.64417
  844 26.8912 -0.194324 -6.66045
  845 27.0450 -0.00675086 6.69519
  846 38.5631 -2.77814 -1.19808
  847 64.5117 6.86841 9.60633
  848 62.2200 -6.71911 -3.73422
  849 20.8146 -0.588885 -0.306265
  850 20.8095 -0.577884 0.301219
  851 47.0363 -0.818949 -0.116823
  852 47.0365 -0.828067 0.130579
  853 55.3373 -0.447458 -5.12128
  854 17.5419 -0.708550 -1.18849
  855 17.5486 -0.714258 1.17435
  856 0.206046 -6.15823 -1.29321
  857 0.193960 -6.18383 1.31711
  858 7.61000 -0.109268 -0.0795187
  859 7.61040 -0.112301 0.0774621
  860 58.9406 -0.685004 -0.589506
  861 43.8604 -4.16932 3.06564
  862 69.4511 -6.22878 3.37233
  863 37.8976 0.810110 3.91414
  864 60.2475 -1.20822 1.25508
  865 65.5110 -6.02426 -5.78270
  866 8.37518 0.620006 -2.33420
  867 8.39980 0.610109 2.33095
  868 51.9115 -0.680677 -0.276322
  869 41.1703 -1.22587 -0.0339071
  870 41.0170 -1.21209 0.0703339
  871 63.4364 9.93327 5.22986
  872 21.4059 -0.164696 -4.47818
  873 21.3804 -0.190729 4.45324
  874 44.2762 -3.92977 1.19422
  875 3.79844 2.63331 -0.459935
  876 3.83913 2.62710 0.470513
  877 37.1920 -2.66910 5.98146
  878 44.9540 -2.71439 0.0973389
  879 55.7043 -0.462574 5.17606
  880 55.7501 -6.35067 1.23710
  881 64.0582 -4.96912 -7.57833
  882 43.7540 -4.20420 -3.12184
  883 35.9727 -2.28700 -1.04358
  884 123.656 10.2877 -1.85588
  885 58.4905 -6.23377 1.84876
  886 1.29703 1.75351 1.07738
  887 1.32631 1.75631 -1.06259
  888 50.5250 -5.02380 0.242477
  889 55.6838 -6.38469 -2.82705
  890 1.28967 1.58822 0.456470
  891 1.31496 1.58812 -0.445440
  892 19.8411 -0.656119 3.30305
  893 19.8583 -0.679103 -3.32817
  894 24.3597 -1.18818 3.64141
  895 24.3545 -1.21946 -3.67347
  896 80.1642 16.1433 3.18232
  897 -0.130895 -2.48619 -1.20045
  898 -0.131766 -2.48372 1.19985
  899 17.5235 1.54792 -4.99593
  900 17.4296 1.51511 4.93736
  901 145.174 4.72608 -7.43100
  902 0.498483 -0.00336924 0.154936
  903 0.492985 -0.00384980 -0.158104
  904 0.208684 -7.39127 0.647621
  905 0.247785 -7.27981 -0.553120
  906 -2.66268 -0.0430655 0.999493
  907 -2.66515 -0.0422782 -0.999067
  908 13.9662 4.15008 -5.93786
  909 14.1858 4.01364 5.84212
  910 -1.27441 -0.00982523 -2.16661
  911 -1.28016 -0.0141862 2.17034
  912 3.23153 0.403420 -1.45473
  913 3.25492 0.398501 1.45605
  914 14.9690 -0.117152 3.01820
  915 14.9616 -0.116639 -3.03832
  916 11.8871 -0.379122 -2.41389
  917 11.8968 -0.377992 2.40768
  918 70.1348 -0.204244 -1.31747
  919 33.2013 6.66251 19.1987
  920 46.1262 -4.50845 1.48584
  921 32.1103 -2.21298 1.62224
  922 62.9659 6.38457 -9.43773
  923 142.717 3.11372 2.93285
  924 76.0759 3.02228 -9.53975
  925 10.9922 -0.419932 1.46752
  926 10.9836 -0.414709 -1.47548
  927 0.895015 -0.0528242 -1.08758
  928 0.916360 -0.0535127 1.08667
  929 -0.126877 -1.33257 -2.39054
  930 -0.136668 -1.34196 2.39818
  931 33.2056 -1.31199 0.602695
  932 33.2255 -1.34237 -0.608441
  933 3.28799 1.10612 -1.19782
  934 3.31379 1.10088 1.20503
  935 19.6268 -0.828043 -2.75489
  936 19.6375 -0.827420 2.75119
  937 42.8638 -0.262277 -4.62588
  938 20.1869 -1.05715 -1.82370
  939 20.1679 -1.04346 1.83020
  940 52.2497 -1.20949 -0.512398
  941 63.1611 -3.71264 -9.10117
  942 26.3676 -0.962996 0.715701
  943 26.3836 -0.974024 -0.730731
  944 -1.12174 -0.127225 -0.683268
  945 -1.11893 -0.127526 0.681955
  946 64.9499 -5.44460 -9.59182
  947 61.7673 -3.58165 5.96533
  948 54.0176 -3.63889 -1.79169
  949 51.2649 1.66946 8.42226
  950 22.7591 -1.22427 -2.07089
  951 22.7548 -1.19785 2.07835
  952 57.9937 2.10107 10.2911
  953 53.5379 4.64578 6.75689
  954 114.644 13.9688 2.33149
  955 57.7865 -1.86279 1.57045
  956 29.1180 -0.718710 -0.312593
  957 29.1121 -0.700030 0.316599
  958 51.3231 -4.09716 -0.916923
  959 70.6629 13.0452 -4.65484
  960 63.9037 -0.465479 -0.595114
  961 40.7622 -0.756068 0.0961613
  962 40.7446 -0.748490 -0.0837324
  963 4.81473 3.93121 -2.41959
  964 4.94463 3.91960 2.44176
  965 9.93650 21.5120 -21.4847
  966 58.4330 -1.44157 7.84830
  967 74.0938 -1.79848 -8.15692
  968 -1.72081 0.688348 0.650094
  969 -1.70265 0.687987 -0.641334
  970 156.536 35.7279 -28.9293
  971 63.2477 -7.01650 1.73155
  972 67.7167 -6.56411 -1.63920
  973 62.1268 -5.35338 5.62125
  974 76.1662 15.1707 2.09357
  975 5.15804 4.66080 -5.83708
  976 13.9081 18.2646 20.8301
  977 -0.450373 -0.972753 2.34678
  978 -0.444287 -0.965861 -2.34277
  979 60.7914 -1.34047 1.52485
  980 97.6571 17.5115 -1.66578
  981 5.31576 4.52710 6.10608
  982 -0.273861 -0.875801 -0.759685
  983 -0.273957 -0.873580 0.757892
  984 51.7477 -0.935967 0.294344
  985 37.8812 -2.94325 -2.31512
  986 62.5892 -4.98577 -6.50522
  987 16.9425 4.53790 -8.05990
  988 17.2203 4.61577 8.08166
  989 60.3167 -1.51216 -7.06217
  990 61.5348 -1.77152 2.58960
  991 -1.79840 0.352116 1.95315
  992 -1.79039 0.355906 -1.94738
  993 36.1603 -2.39125 -5.58476
  994 60.3579 3.72891 -10.4086
  995 45.0987 -1.45327 -0.173664
  996 31.6708 -0.730609 0.0184372
  997 31.6656 -0.737385 -0.0146094
  998 -0.719409 -0.813284 -1.62034
  999 -0.720475 -0.815009 1.61933
  1000 62.3622 -2.06718 -3.10407
  1001 59.6149 -0.398745 0.123644
  1002 59.5586 -0.399075 -0.0975024
  1003 81.9423 12.9791 -7.08595
  1004 13.7176 1.27730 -3.83796
  1005 13.7508 1.25178 3.82592
  1006 8.12559 -0.0399484 -1.97001
  1007 8.13965 -0.0416836 1.96562
  1008 66.8920 3.35254 11.3817
  1009 64.2412 -1.01660 -1.80978
  1010 10.3081 1.73786 -3.02494
  1011 10.3495 1.72417 3.03631
  1012 67.5875 -0.167179 -0.345534
  1013 62.1473 -2.57761 -4.54697
  1014 60.6661 -7.01301 -1.63549
  1015 2.02717 1.55164 -0.522346
  1016 1.96425 1.54445 0.550332
  1017 -3.19140 0.450452 1.23469
  1018 -3.18113 0.451567 -1.22805
  1019 33.8038 1.34055 -1.70684
  1020 106.352 25.5871 -5.65434
  1021 47.4103 -3.30714 0.354320
  1022 30.7386 -1.33434 -5.78053
  1023 77.6855 -3.63442 1.97274
  1024 30.8613 -1.33606 5.86825
  1025 54.8892 -6.50577 3.46410
  1026 62.2937 -2.55304 -6.57223
  1027 19.8007 -0.378823 -0.0986731
  1028 19.7987 -0.369560 0.0975937
  1029 41.9216 -3.16076 -0.913044
  1030 25.0585 -0.891872 -4.38765
  1031 25.0441 -0.898560 4.35901
  1032 8.03833 5.19312 -4.68881
  1033 8.17154 5.17321 4.70208
  1034 16.3082 -0.481013 -0.362500
  1035 16.3054 -0.473576 0.355315
  1036 55.5751 -1.52003 0.987097
  1037 46.5592 -0.105805 -15.7239
  1038 57.6825 -1.65132 -1.54215
  1039 51.6681 -5.74073 -1.77113
  1040 33.1067 -1.23901 0.370328
  1041 33.1375 -1.25026 -0.373113
  1042 68.5211 -0.244484 0.434426
  1043 60.5746 -1.21353 -1.43442
  1044 35.9877 0.863739 3.21223
  1045 64.5281 -0.620241 -2.93178
  1046 24.2479 6.80277 15.1211
  1047 66.7598 -0.575319 -2.43479
  1048 16.4475 2.81627 -5.92982
  1049 15.9238 2.85108 5.66089
  1050 80.3552 -2.02018 -2.41213
  1051 6.51705 3.52418 -2.19818
  1052 6.58005 3.49714 2.19560
  1053 1.04470 -0.550659 1.10745
  1054 1.10468 -0.540999 -1.06813
  1055 8.39384 -0.230248 0.458882
  1056 8.39004 -0.232179 -0.467172
  1057 27.7396 6.90045 -16.8869
  1058 162.230 40.0618 31.1031
  1059 62.1215 -2.06922 3.18497
  1060 55.3883 -6.28503 -1.03042
  1061 37.8122 -3.09370 -4.15751
  1062 -1.06015 0.759587 1.80392
  1063 -1.04590 0.763715 -1.79450
  1064 42.9274 -2.01315 -0.105101
  1065 47.6721 -1.52800 -0.391333
  1066 -0.0329651 -3.53648 1.17029
  1067 -0.0317611 -3.53919 -1.16976
  1068 6.60693 4.16999 -2.70168
  1069 6.68977 4.16014 2.71937
  1070 42.3178 -1.82786 0.110330
  1071 2.68493 1.51677 0.585032
  1072 2.65890 1.51936 -0.575224
  1073 65.5194 -2.74754 10.5233
  1074 47.0518 -4.89722 -3.42125
  1075 38.0451 -3.14446 4.15624
  1076 61.9999 -1.39464 -10.9017
  1077 66.8316 -0.548736 1.31936
  1078 23.0452 3.49611 9.91567
  1079 23.2145 3.34874 -9.74210
  1080 37.8400 -1.89888 -8.28049
  1081 54.5679 -1.71887 -1.03829
  1082 43.7604 -2.46290 0.148237
  1083 51.6785 -4.75751 0.607917
  1084 72.6434 -0.184666 -0.730996
  1085 37.6406 -1.55097 0.271841
  1086 37.6238 -1.65327 -0.296127
  1087 1.02189 1.26536 1.64705
  1088 1.05267 1.27512 -1.62981
  1089 62.3122 2.14384 -11.2153
  1090 13.0853 0.748277 -3.35226
  1091 13.1194 0.732436 3.33935
  1092 9.47852 0.254460 -2.32645
  1093 9.49800 0.248698 2.31956
  1094 72.8008 -3.69614 12.2558
  1095 62.2506 -2.83895 6.51132
  1096 29.5297 -1.32207 -4.81735
  1097 74.1115 -0.233246 -0.440818
  1098 81.2503 15.1916 -5.43602
  1099 66.7932 -0.452827 -0.881082
  1100 61.8252 -6.75155 3.04949
  1101 45.2060 -3.54370 7.14658
  1102 74.8098 -0.0164646 0.114159
  1103 35.9090 1.14985 -2.72812
  1104 52.0497 -5.55922 -0.382293
  1105 29.5739 -1.38472 4.75335
  1106 52.5609 -4.71593 -0.916357
  1107 66.4672 -0.811907 2.30491
  1108 45.0687 2.86640 4.29418
  1109 31.8371 -2.29560 -3.72277
  1110 101.931 12.7848 -4.03443
  1111 75.0759 3.00069 9.90622
  1112 54.1236 6.85649 1.06818
  1113 73.6787 0.0798979 0.416016
  1114 27.3665 -1.64788 -2.75307
  1115 18.7754 11.0506 -16.8481
  1116 34.0257 0.781033 -12.0571
  1117 39.0579 -2.89693 1.49195
  1118 32.7175 -2.40302 3.43755
  1119 27.2911 -1.56066 2.78791
  1120 59.0643 0.388466 10.8264
  1121 44.7701 -1.32861 0.222549
  1122 72.3499 -0.473833 0.944911
  1123 -0.684754 -0.153505 2.38071
  1124 -0.676409 -0.146778 -2.37504
  1125 47.0508 -1.09320 -0.257009
  1126 -0.238644 0.378412 2.25480
  1127 -0.223703 0.387025 -2.24435
  1128 25.2682 -0.684872 0.461898
  1129 25.2729 -0.698844 -0.462833
  1130 67.3967 -0.324802 2.02383
  1131 53.7159 -3.12832 -1.54830
  1132 50.1704 -2.48971 -0.819554
  1133 56.3530 -3.83367 2.60507
  1134 16.5091 7.93420 -12.3589
  1135 55.3468 -1.87477 1.25495
  1136 7.09666 0.196461 -1.88286
  1137 7.11495 0.192474 1.87948
  1138 10.8826 6.84764 -8.45615
  1139 89.5473 10.8271 4.46764
  1140 4.82946 -0.257959 1.07225
  1141 4.81328 -0.255672 -1.07544
  1142 11.0814 6.72367 8.13278
  1143 50.3168 -4.11003 0.711367
  1144 24.3253 -1.05040 0.927227
  1145 24.3328 -1.05669 -0.949505
  1146 104.570 21.9451 -4.87999
  1147 55.6690 -5.56472 1.22209
  1148 18.4481 10.2793 16.8010
  1149 1.46167 -1.29301 -0.946231
  1150 1.58471 -1.27440 1.09423
  1151 57.3621 7.22343 5.47314
  1152 3.81105 2.25978 -0.536673
  1153 3.84460 2.25971 0.545470
  1154 56.0601 -4.80982 -2.27916
  1155 -0.0283406 -5.52130 -1.12037
  1156 -0.0309098 -5.52317 1.12541
  1157 60.0518 -5.04770 -4.15232
  1158 -2.58516 0.0815769 0.365845
  1159 -2.60980 0.0820282 -0.367200
  1160 8.45967 3.26365 -2.99416
  1161 8.50603 3.27712 2.95965
  1162 -4.28410 0.0117815 -0.449351
  1163 -4.25680 0.0115399 0.449492
  1164 60.5840 -0.410723 -0.189904
  1165 -6.40078 0.175274 0.188327
  1166 -6.38508 0.175136 -0.184806
  1167 30.7020 -2.35545 -2.61627
  1168 0.788172 -9.01367 -0.446097
  1169 14.2694 -0.373569 0.737535
  1170 14.2680 -0.375473 -0.749264
  1171 50.8754 -0.702207 0.0258087
  1172 50.9749 -0.675770 -0.0153990
  1173 0.844514 -8.65335 0.624670
  1174 60.5423 -3.04397 -3.94277
  1175 69.8014 -0.261643 1.53353
  1176 61.4193 -3.89171 -5.56317
  1177 52.2108 0.341406 8.36183
  1178 0.223763 -2.50140 1.88463
  1179 0.249719 -2.48567 -1.85760
  1180 38.4754 -2.67888 1.09625
  1181 -2.81805 0.217925 1.54644
  1182 -2.81303 0.219835 -1.54219
  1183 102.991 16.6223 0.942359
  1184 123.604 35.3893 -24.8821
  1185 62.8585 -6.18207 5.05129
  1186 24.5560 -0.611204 -0.0375682
  1187 24.5550 -0.601377 0.0375691
  1188 132.591 12.8591 -11.6552
  1189 7.63164 -0.202467 1.11617
  1190 7.61944 -0.198921 -1.12258
  1191 57.8310 -0.190391 -3.36871
  1192 36.8572 -2.92804 2.98553
  1193 62.1960 -6.16339 -3.92527
  1194 60.1163 -4.32111 -4.53054
  1195 35.9747 -1.33543 8.71197
  1196 12.7163 2.45453 -4.36003
  1197 12.7061 2.43229 4.33035
  1198 17.1418 6.25320 -10.4186
  1199 17.1584 5.77207 10.4166
  1200 4.34625 1.46173 -1.25221
  1201 4.37436 1.45689 1.26120
  1202 73.6637 12.6838 -6.86199
  1203 3.45597 3.08462 -0.949799
  1204 3.54336 3.08669 0.974882
  1205 53.2820 -3.95778 1.47974
  1206 102.521 13.2192 4.69452
  1207 11.0535 -0.474444 -0.725745
  1208 11.0582 -0.474060 0.715258
  1209 67.8604 41.7012 -38.6623
  1210 48.1570 2.83192 -6.65681
  1211 43.6966 3.42382 2.69844
  1212 5.68322 2.57402 -1.49426
  1213 5.71128 2.57318 1.50411
  1214 -0.675940 -0.00540281 0.270402
  1215 -0.689760 -0.00538819 -0.273514
  1216 59.2227 -4.70932 3.89022
  1217 58.3854 -2.15494 2.17208
  1218 39.6893 10.2137 -27.0779
  1219 92.3033 20.0271 0.187354
  1220 38.8725 -1.27974 -9.67103
  1221 51.0084 -1.32701 0.480460
  1222 0.379737 -0.261560 -0.0734102
  1223 0.377907 -0.261429 0.0729482
  1224 -2.08891 0.397362 -0.496405
  1225 -2.06622 0.395598 0.501273
  1226 33.5988 0.275419 -10.1892
  1227 63.7028 -1.22531 2.26237
  1228 40.6340 0.504141 14.2276
  1229 55.6679 -2.57555 -1.82232
  1230 28.2010 9.50676 -21.0209
  1231 44.2491 -2.32585 -10.5009
  1232 52.9769 -5.65508 0.0771183
  1233 65.4972 -0.941336 3.33726
  1234 57.4086 -0.952660 -0.757950
  1235 30.5596 -2.20134 2.63521
  1236 72.1459 -4.37462 -6.54497
  1237 67.5287 5.66144 10.8117
  1238 28.7718 0.118643 -7.90111
  1239 69.0306 -0.260164 0.321461
  1240 52.6514 6.64176 -1.51986
  1241 22.2018 -0.696261 -0.726227
  1242 22.1940 -0.687090 0.714803
  1243 105.930 22.6893 3.77678
  1244 148.173 3.95590 6.96759
  1245 0.115531 -6.77461 -1.12109
  1246 0.111500 -6.78323 1.12946
  1247 14.6340 7.43474 11.4798
  1248 35.7312 -0.852740 -0.0442118
  1249 35.7386 -0.845682 0.0584733
  1250 49.8483 -4.97740 -0.536055
  1251 58.7412 4.72633 9.40530
  1252 63.2743 -1.04677 -1.54012
  1253 74.7926 -0.128227 -0.0404751
  1254 129.595 28.3193 -17.4235
  1255 18.1147 -0.644891 0.708173
  1256 18.1166 -0.646918 -0.722294
  1257 60.1085 -5.58156 4.03407
  1258 107.769 24.4438 -5.93875
  1259 58.3921 -2.37279 -2.42069
  1260 41.9117 -2.78380 -0.553195
  1261 52.0209 -5.68582 1.70080
  1262 50.8838 -2.35408 0.927792
  1263 1.70286 -0.710092 -1.75411
  1264 70.2579 -4.51843 7.53071
  1265 56.6016 -3.57408 -2.53172
  1266 1.88730 -0.613737 2.00601
  1267 58.3578 -4.99208 -9.74545
  1268 55.3343 2.77299 -22.1371
  1269 91.9460 10.7204 -3.65772
  1270 75.1298 0.0236623 -0.0298023
  1271 74.9757 -0.0470941 0.0751460
  1272 57.6355 -3.22344 2.65828
  1273 21.3013 2.54174 -7.73888
  1274 65.7986 -6.00371 6.18104
  1275 113.512 25.5689 10.8181
  1276 26.9198 8.75293 20.4401
  1277 0.607982 -0.192652 1.98277
  1278 0.636468 -0.179751 -1.96323
  1279 69.5705 -5.99249 -4.67713
  1280 26.5141 -1.35972 -1.12825
  1281 26.5061 -1.36285 1.09863
  1282 64.1792 -4.32585 8.82541
  1283 1.11640 0.0373147 1.20513
  1284 1.09480 0.0385628 -1.20561
  1285 -0.389562 -1.39299 1.88558
  1286 -0.387166 -1.39006 -1.88557
  1287 9.75684 -0.338535 -1.01834
  1288 9.76487 -0.340699 1.00912
  1289 32.8695 -2.16281 -4.30117
  1290 32.9644 -0.921862 0.114404
  1291 32.9646 -0.947563 -0.101254
  1292 74.7442 0.0230501 -0.0347506
  1293 65.0123 -0.920973 -3.73223
  1294 4.15123 0.275753 -1.46216
  1295 4.17240 0.272178 1.46146
  1296 33.0025 -2.29360 4.25501
  1297 75.6119 -0.0247296 0.00890798
  1298 71.0832 0.0785621 -0.0758212
  1299 71.0907 0.0368759 0.0556472
  1300 92.8080 18.8000 2.71723
  1301 68.9299 -0.301474 -0.700175
  1302 60.7838 -0.372886 0.167390
  1303 67.4019 -0.887216 -2.04087
  1304 74.2215 -0.167676 0.319749
  1305 75.6794 7.43228 9.82877
  1306 87.9983 17.8440 3.63906
  1307 71.5011 -0.223150 -1.03494
  1308 -0.556370 -0.150154 0.505093
  1309 -0.558492 -0.150029 -0.506528
  1310 38.3167 -2.27185 0.635611
  1311 38.3079 -2.16252 -0.605200
  1312 76.3834 8.27932 -9.44194
  1313 15.1162 5.16156 -8.47705
  1314 15.2134 5.01270 8.37339
  1315 49.8911 -0.0136561 -4.17785
  1316 52.9876 -0.577186 0.0516547
  1317 52.9229 -0.569837 -0.0623562
  1318 -1.33510 -0.257651 1.92981
  1319 -1.33267 -0.254388 -1.92887
  1320 58.0256 -0.145918 3.36517
  1321 89.6458 17.8892 0.606644
  1322 4.50300 -0.223978 -0.644542
  1323 4.51360 -0.224522 0.637468
  1324 66.3508 -6.55345 3.87175
  1325 -0.157355 0.955248 1.88771
  1326 -0.138806 0.961091 -1.87597
  1327 10.3191 -0.224682 -0.182976
  1328 10.3188 -0.220143 0.178339
  1329 49.9108 -0.101248 4.23869
  1330 -0.137300 0.122955 -0.0898044
  1331 -0.134540 0.123426 0.0874920
  1332 68.1568 -0.651330 1.37747
  1333 94.0757 17.4102 0.494404
</Section>

newXOutput 10

<Section columns = "stress_xx | stress_yy | stress_xy">
  1 86.4365 -0.157784 0.154386
  2 86.5937 -0.228780 -0.200757
  3 -1.10916 0.0877672 -0.233563
  4 -0.0522433 -0.0844585 -0.0485759
  5 164.038 59.0447 51.4009
  6 166.577 67.9424 -51.9969
  7 -0.0516223 -0.0839223 0.0477702
  8 -1.10672 0.0872898 0.232973
  9 87.0754 -0.107028 -0.143067
  10 86.3375 -0.246308 -0.197064
  11 86.3450 -0.180429 0.226077
  12 85.8090 -0.0540507 0.132718
  13 85.5508 -0.229409 -0.00436589
  14 85.2707 -0.214311 0.414053
  15 83.7792 -0.126418 0.430893
  16 83.9895 -0.584639 0.596202
  17 80.9911 -0.467147 1.21875
  18 79.0106 -0.168155 1.45573
  19 76.3454 -0.235976 1.55258
  20 71.8274 -0.206486 2.11482
  21 66.9963 -0.191704 2.42569
  22 61.0693 0.289858 3.27748
  23 53.0435 0.443939 2.94267
  24 49.8955 -0.0671746 4.18281
  25 40.0533 0.584885 2.95385
  26 34.1686 0.794690 2.29714
  27 32.6448 0.325578 1.68755
  28 31.0046 1.14853 0.117654
  29 31.8942 1.26294 -2.25360
  30 33.7182 0.338139 -2.83509
  31 40.9612 0.104660 -3.81129
  32 48.3584 -0.390305 -4.00642
  33 53.3339 0.366437 -2.94162
  34 61.1630 0.332732 -3.28245
  35 66.8050 -0.231319 -2.59479
  36 72.3442 -0.253946 -2.00258
  37 75.9950 -0.157866 -1.57414
  38 78.7570 -0.174780 -1.34795
  39 81.6819 -0.261307 -0.799092
  40 82.9178 -0.235585 -0.776466
  41 84.1017 -0.227103 -0.674193
  42 85.3268 -0.267442 -0.176452
  43 85.8305 -0.354782 -0.297386
  44 85.3843 0.103640 -0.0629669
  45 86.2511 -0.154649 -0.249198
  46 86.7269 -0.389850 0.214611
  47 87.1992 -0.209549 -0.0162137
  48 82.4090 0.182703 -0.129219
  49 77.0852 -0.120221 -0.250984
  50 71.1366 -0.476348 -0.386891
  51 65.0467 -0.305752 -0.285275
  52 59.7960 -0.680187 -0.264166
  53 54.3011 -0.766807 -0.247621
  54 48.8005 -0.645994 -0.142989
  55 43.0602 -0.734516 -0.184463
  56 38.2318 -0.845551 -0.232993
  57 31.8467 -0.840728 -0.199409
  58 25.2990 -0.496333 -0.127695
  59 19.9004 -0.307105 -0.106418
  60 13.2505 -0.192452 -0.0632822
  61 8.41504 -0.222008 -0.349089
  62 3.91294 -0.351900 -0.125894
  63 -0.618935 0.0448904 0.189576
  64 -1.75384 0.323077 0.0533830
  65 -2.03604 0.134511 0.184904
  66 -1.78465 0.0627365 0.170703
  67 -2.59693 0.188020 0.0415486
  68 -2.85760 0.242066 0.373524
  69 -2.84457 0.0833730 0.0896670
  70 -4.24580 0.174435 0.105106
  71 -4.84233 0.126952 0.347943
  72 -4.95725 0.0491253 0.358313
  73 -6.43004 0.168357 0.253318
  74 -6.91458 0.245936 0.542430
  75 -7.39463 0.149476 0.140007
  76 -8.05947 0.106592 0.256832
  77 -8.19737 0.116012 0.0579942
  78 -8.78218 0.264852 -0.248282
  79 -8.74569 0.181770 -0.189683
  80 -7.86963 0.142309 -0.312413
  81 -6.69762 0.175895 -0.549273
  82 -5.37495 0.0708714 -0.791688
  83 -3.95717 0.0361631 -0.809096
  84 -2.35819 -0.0896425 -0.839474
  85 -1.00050 -0.0693567 -0.480472
  86 -0.412119 -0.173224 -0.295666
  87 -0.0742060 -0.420873 -0.251755
  88 -0.129640 -1.07530 -0.461021
  89 -0.145336 -2.16132 -0.824685
  90 -0.0375390 -4.07662 -0.905629
  91 0.0416415 -5.69837 -1.15213
  92 0.107716 -8.22746 -0.946949
  93 0.330560 -9.83815 -1.12956
  94 0.0432628 -10.7655 -0.977009
  95 -0.0263299 -12.5093 -0.659868
  96 0.335910 -12.4743 -0.327002
  97 1.32770 -16.3076 0.394815
  98 1.10454 -9.87786 1.65811
  99 2.71358 -6.10854 3.95755
  100 8.43012 9.72519 13.6297
  101 37.9414 42.2834 41.4050
  102 215.207 22.0616 32.2229
  103 177.721 6.23792 11.5540
  104 168.743 2.66683 4.00755
  105 163.622 1.77906 -0.0177759
  106 166.819 2.54438 -3.27200
  107 179.559 5.34035 -9.61785
  108 212.999 17.7036 -30.2003
  109 24.4455 48.0310 -34.1778
  110 5.90550 5.96964 -10.3797
  111 1.99358 -7.48065 -3.19898
  112 1.00040 -10.6928 -1.37103
  113 1.32339 -16.8929 -0.254232
  114 0.322814 -12.7374 0.428712
  115 -0.0456038 -12.6426 0.713342
  116 0.0308262 -10.8183 1.00588
  117 0.323913 -9.85230 1.14193
  118 0.105143 -8.22489 0.951641
  119 0.0396620 -5.69170 1.15398
  120 -0.0385025 -4.06752 0.905296
  121 -0.145489 -2.15541 0.823137
  122 -0.129917 -1.07008 0.459514
  123 -0.0741699 -0.418918 0.250394
  124 -0.409755 -0.173022 0.294544
  125 -0.996348 -0.0696434 0.479289
  126 -2.35304 -0.0903047 0.838853
  127 -3.95142 0.0354597 0.809383
  128 -5.37219 0.0701155 0.793131
  129 -6.70000 0.175384 0.551936
  130 -7.87718 0.142296 0.315211
  131 -8.75977 0.181664 0.192363
  132 -8.80150 0.264914 0.251019
  133 -8.22246 0.116344 -0.0557156
  134 -8.08870 0.106996 -0.255262
  135 -7.42566 0.149917 -0.138868
  136 -6.94746 0.246442 -0.542186
  137 -6.46332 0.168814 -0.253140
  138 -4.98928 0.0494028 -0.358697
  139 -4.87373 0.127421 -0.348777
  140 -4.27501 0.175109 -0.106259
  141 -2.86912 0.0838318 -0.0916146
  142 -2.87714 0.242486 -0.376229
  143 -2.61228 0.188100 -0.0439776
  144 -1.79376 0.0626323 -0.172999
  145 -2.04034 0.134250 -0.186724
  146 -1.75509 0.322600 -0.0549868
  147 -0.617745 0.0446216 -0.190479
  148 3.91375 -0.353183 0.124887
  149 8.41537 -0.225418 0.347928
  150 13.2516 -0.198577 0.0618305
  151 19.9024 -0.316007 0.105623
  152 25.3003 -0.506728 0.127500
  153 31.8448 -0.849833 0.200683
  154 38.2224 -0.850384 0.235799
  155 43.0429 -0.729637 0.191281
  156 48.7736 -0.626422 0.151040
  157 54.2627 -0.719674 0.235001
  158 59.8196 -0.692886 0.233837
  159 65.0632 -0.388471 0.300282
  160 71.1944 -0.460934 0.355126
  161 77.2499 -0.0747396 0.254278
  162 82.2441 0.178162 0.124790
  163 45.9279 -4.09838 -3.04638
  164 45.7305 -4.17168 3.03992
  165 13.1053 3.71992 -4.79238
  166 13.2375 3.73527 4.76713
  167 54.8312 -2.89787 13.3660
  168 57.6050 -3.25807 -12.9870
  169 25.5259 -1.27852 1.33227
  170 25.5269 -1.26495 -1.35937
  171 58.7624 -1.79485 0.794923
  172 57.5042 -1.80019 -0.779135
  173 77.4058 14.1397 -2.28575
  174 79.7612 0.222632 -11.6483
  175 78.0288 0.881042 12.3534
  176 17.4175 -0.616652 -3.14659
  177 17.4141 -0.610959 3.13700
  178 68.9038 -6.87178 4.70890
  179 68.7854 -5.28694 -6.10519
  180 0.644018 1.37329 2.02955
  181 0.671514 1.38231 -2.01360
  182 94.0711 18.9948 4.31497
  183 17.3010 7.56991 -11.6774
  184 18.6305 7.65194 12.6003
  185 66.7260 -2.93680 3.08902
  186 100.379 20.6675 -2.92130
  187 42.1937 -1.32066 -0.181670
  188 42.1193 -1.36195 0.176124
  189 68.7916 -1.97213 -2.77884
  190 92.5218 -1.38960 0.265903
  191 14.9749 -0.430538 0.469097
  192 14.9746 -0.435255 -0.479562
  193 6.18282 0.932399 -1.98761
  194 6.21261 0.922869 1.99162
  195 37.5644 -1.46653 -8.06292
  196 37.4146 -1.55184 8.17249
  197 45.1229 -2.77249 -0.712755
  198 45.2153 -2.75663 0.802273
  199 10.3218 -0.357868 1.60718
  200 10.3091 -0.352411 -1.61297
  201 91.5975 -2.50755 4.52904
  202 74.0573 -7.51257 -2.69579
  203 70.9003 -0.474135 -0.526885
  204 69.1911 -0.612408 0.552344
  205 68.2637 7.96581 8.52865
  206 2.65871 1.97035 -0.332016
  207 2.76486 1.96250 0.378560
  208 68.9569 -2.83586 9.96698
  209 62.3080 4.70117 -9.60098
  210 45.2426 9.35930 -28.4030
  211 47.5754 7.88496 26.3526
  212 0.591458 1.46533 0.229997
  213 0.616742 1.46449 -0.218431
  214 68.6701 -2.51782 -10.2665
  215 121.929 17.3065 -1.02887
  216 57.1183 -6.30951 4.16818
  217 57.5812 -6.26800 -3.89221
  218 57.1023 -3.92529 -1.08184
  219 71.9270 -0.917602 1.54693
  220 33.3334 -2.21034 -2.62279
  221 32.7706 -2.19992 2.72826
  222 19.5990 0.464210 -4.92157
  223 19.6241 0.455722 4.87127
  224 73.4094 -7.98677 0.319502
  225 56.6009 -4.18742 0.842655
  226 71.6904 -0.881490 -1.26982
  227 54.9939 -1.13771 0.253461
  228 55.5081 -1.03842 -0.142999
  229 70.1028 -3.05501 6.00381
  230 4.73928 0.0907519 -1.71096
  231 4.76117 0.0880132 1.70916
  232 -0.962292 -0.672529 -2.43728
  233 -0.966840 -0.677908 2.43945
  234 8.83866 -0.419048 -0.899287
  235 8.84790 -0.420044 0.889116
  236 28.1345 -0.721097 0.573160
  237 28.1446 -0.737578 -0.579972
  238 33.2153 2.20869 -12.1348
  239 33.2184 1.82639 11.9898
  240 71.1974 -2.11745 -5.13220
  241 32.2891 -1.84101 -4.61694
  242 32.3133 -1.89908 4.53599
  243 61.2671 0.853611 10.7927
  244 52.4491 4.55971 0.647588
  245 60.7493 -6.01328 -1.13796
  246 0.176496 -1.75983 -2.37881
  247 0.156353 -1.77520 2.39644
  248 3.59110 2.98169 -3.54784
  249 3.83716 2.84038 3.76988
  250 59.6945 -5.87711 0.726272
  251 109.845 19.1917 0.577097
  252 5.06422 3.52953 -1.19607
  253 5.12950 3.52648 1.21580
  254 -2.54901 0.458657 1.77711
  255 -2.53761 0.460985 -1.76938
  256 110.637 17.7730 -0.0272868
  257 36.9015 -1.63157 -0.810420
  258 36.8700 -1.60105 0.782550
  259 74.5484 -5.19840 9.58685
  260 137.506 22.2843 13.2783
  261 20.8626 -1.06051 -2.52910
  262 20.8535 -1.06799 2.52420
  263 75.0057 11.1869 -8.34875
  264 132.257 24.9477 -11.7618
  265 91.2952 8.49385 8.82712
  266 100.868 4.53131 -17.1536
  267 60.8885 -2.67573 1.55125
  268 68.6549 0.173015 -12.3007
  269 65.6929 -4.53511 -3.76761
  270 73.6975 -1.20038 3.30692
  271 -0.745803 0.692820 -0.426891
  272 -0.720845 0.690433 0.434786
  273 73.1313 -3.07652 -16.9220
  274 6.96133 2.32174 -1.93443
  275 6.99599 2.31672 1.94641
  276 70.0525 -1.67377 -6.35939
  277 9.57344 8.85463 -12.0586
  278 6.22857 -0.0164447 -0.199065
  279 6.22976 -0.0145179 0.194783
  280 74.2070 -4.78694 -9.95097
  281 12.2957 5.51859 -6.17378
  282 12.4783 5.48468 6.19017
  283 2.20740 -0.0958008 1.21312
  284 2.18507 -0.0943875 -1.21517
  285 60.8113 -2.51845 -1.50224
  286 9.63315 8.74985 12.4159
  287 99.2400 5.55492 20.3825
  288 25.0020 -0.915314 -0.742365
  289 24.9934 -0.908004 0.726102
  290 48.0054 -1.77119 -0.0150708
  291 47.9800 -1.94066 0.0636664
  292 40.9553 3.64585 -18.9236
  293 66.9858 -7.40362 -2.12469
  294 77.5471 -0.307376 0.705794
  295 39.3995 3.61745 18.2587
  296 45.8557 -1.00995 0.0190730
  297 45.8373 -1.00853 0.0232209
  298 65.7880 -4.73569 3.84284
  299 76.5633 -0.669863 -1.64503
  300 -1.50390 0.293583 -0.864802
  301 -1.47696 0.291432 0.868020
  302 94.7861 19.0973 -1.31096
  303 83.8940 -4.29417 5.87147
  304 76.4716 -0.201159 -0.215934
  305 77.9144 -0.170727 0.195551
  306 75.4669 -7.03141 5.31781
  307 93.2031 9.06735 -8.38549
  308 79.9895 14.9731 4.99328
  309 35.1631 -2.05097 -1.49405
  310 34.8214 -2.09140 1.53384
  311 77.4979 -0.286877 -0.516656
  312 49.4681 -3.85209 -8.89855
  313 48.5270 -3.71772 0.966576
  314 46.2801 -2.64613 10.2743
  315 75.7924 -0.771892 1.93792
  316 15.3476 -0.699080 -1.54402
  317 15.3544 -0.704513 1.53436
  318 69.5104 -2.88906 16.7348
  319 43.0131 -3.31093 -1.85753
  320 80.3061 10.0885 10.5924
  321 24.7210 1.76232 -7.60135
  322 23.7603 1.83946 7.52700
  323 5.35478 -0.136286 -0.364031
  324 5.36068 -0.135176 0.357179
  325 66.6283 -1.10203 1.02932
  326 63.8252 -0.636545 0.221859
  327 63.4462 -0.722600 -0.245807
  328 69.4473 -1.76556 6.71830
  329 4.19780 -0.195874 0.871977
  330 4.18029 -0.193847 -0.877867
  331 18.5094 -0.393902 -0.300354
  332 18.5066 -0.385501 0.295764
  333 0.583099 -3.61679 -1.51387
  334 0.539571 -3.64132 1.56565
  335 52.0672 2.21611 7.25566
  336 84.7489 -4.14564 -5.06280
  337 53.9450 -2.67162 0.776122
  338 61.5675 -0.975992 -0.651137
  339 62.5990 7.84632 -4.54178
  340 11.1462 -0.336228 -2.30401
  341 11.1584 -0.336244 2.30004
  342 52.3723 -2.50427 -0.483937
  343 13.7899 0.554690 -3.36212
  344 13.8145 0.541907 3.34754
  345 2.38478 2.29869 0.439844
  346 2.41870 2.29748 -0.426095
  347 64.2734 -7.07222 5.58452
  348 146.749 9.75965 3.72966
  349 55.3602 0.749234 -8.62109
  350 47.1347 -4.24012 5.15334
  351 46.8929 -4.16040 -5.33365
  352 70.0259 -1.32173 12.2351
  353 61.5012 -0.504907 8.59702
  354 63.3948 -6.84008 -5.79892
  355 36.6405 -0.755453 -0.0704598
  356 36.6358 -0.767505 0.0800384
  357 70.1443 -4.59605 7.82184
  358 95.9532 19.3421 0.920067
  359 76.0681 -0.740238 -2.44912
  360 17.6612 -0.650961 -1.06821
  361 17.6650 -0.651251 1.05320
  362 71.2826 -7.09068 -7.10344
  363 73.9544 4.97672 -12.2977
  364 47.4174 2.56871 -4.63499
  365 70.5954 -4.76871 -8.84972
  366 -2.38124 0.0468758 -1.88810
  367 -2.38395 0.0442267 1.89054
  368 59.3298 -1.15181 0.522358
  369 -0.845840 -0.508481 -1.08084
  370 -0.844980 -0.508712 1.07882
  371 46.2520 20.9571 -34.8272
  372 1.56022 1.30980 1.55996
  373 1.60502 1.32095 -1.53643
  374 60.9739 -0.534251 -8.52264
  375 33.0749 -1.28162 0.601456
  376 33.1024 -1.30191 -0.612800
  377 -0.269236 -2.57373 2.14274
  378 -0.265392 -2.56901 -2.14030
  379 37.2881 22.0658 32.6909
  380 26.8937 -1.38110 -3.51808
  381 26.9117 -1.31609 3.52055
  382 8.38387 5.98605 -5.61772
  383 8.56832 5.96318 5.57838
  384 -3.88922 0.511602 0.836366
  385 -3.87381 0.512248 -0.828327
  386 71.1406 4.59143 12.2291
  387 54.7181 -5.72130 1.97482
  388 54.7764 -4.92117 0.307298
  389 66.9328 -7.70706 0.100222
  390 15.7446 2.05693 -4.79689
  391 15.7963 2.05186 4.78618
  392 1.35714 -2.88721 -0.296245
  393 1.27686 -2.91958 0.410563
  394 66.1865 9.54841 3.03017
  395 68.5677 -1.77078 2.32564
  396 38.0470 -2.89410 3.12777
  397 22.9748 -0.528586 -4.30769
  398 22.9794 -0.532525 4.26734
  399 49.1804 -1.25738 0.130072
  400 49.1229 -1.07005 -0.172222
  401 37.7192 -2.97859 -3.36662
  402 29.2131 -0.461310 -5.99939
  403 29.2044 -0.503032 6.05031
  404 71.2160 -6.61128 -5.86450
  405 40.3519 -3.00636 1.76742
  406 64.8969 -1.76166 1.54548
  407 64.8012 -1.57747 -1.33673
  408 53.7236 -4.88070 -0.510563
  409 79.1236 -0.198708 -0.740407
  410 25.4335 9.88374 -19.0505
  411 73.4109 -0.981441 3.93686
  412 78.7707 -0.279759 1.04647
  413 26.2994 -1.34754 1.98520
  414 26.3159 -1.32800 -1.98341
  415 54.4651 -5.65129 -2.07321
  416 7.11752 3.32572 2.06854
  417 7.07805 3.32424 -2.07248
  418 148.366 9.75150 -7.67909
  419 63.3864 -3.46127 -2.37143
  420 79.8995 -0.129469 0.427335
  421 23.9445 9.16305 18.0697
  422 116.875 19.8312 3.32673
  423 68.5841 -0.808841 -0.836488
  424 50.2726 -3.51727 -0.336737
  425 20.3007 3.93084 -8.64536
  426 21.6770 3.65177 8.59350
  427 62.5624 -3.82819 2.42106
  428 65.6643 -0.863197 -6.39172
  429 -1.80273 -0.0476940 0.898726
  430 -1.83003 -0.0469819 -0.898778
  431 23.1247 5.48137 -11.8400
  432 23.1965 5.50347 11.8012
  433 2.08578 1.30156 -0.723847
  434 2.11345 1.29832 0.733682
  435 56.0303 -0.815634 0.227207
  436 55.9631 -0.786598 -0.206729
  437 69.9702 -3.13094 -6.26480
  438 -0.315644 -0.358333 2.72430
  439 -0.303376 -0.347970 -2.71501
  440 72.2094 -7.23833 5.28763
  441 68.5127 -1.63222 -2.08541
  442 110.903 21.3216 -2.49146
  443 2.36423 -0.183477 0.390717
  444 2.35075 -0.183536 -0.396764
  445 135.376 36.9492 15.4850
  446 2.47961 -0.420319 -3.22502
  447 7.04186 0.423689 -2.21146
  448 7.06567 0.417378 2.20935
  449 134.703 37.6918 -14.5193
  450 2.62742 -0.123742 3.61492
  451 -3.90445 0.415900 0.377954
  452 -3.88487 0.415127 -0.370515
  453 6.81303 4.64030 -3.05099
  454 6.93704 4.63912 3.06918
  455 85.9556 13.2190 -9.04814
  456 69.3461 -2.58329 -4.19612
  457 79.4327 -0.160365 -0.390428
  458 72.3258 -1.06271 -4.58064
  459 -1.02738 0.423571 2.51268
  460 -1.01498 0.430100 -2.50411
  461 70.0362 -2.71649 4.80550
  462 44.5995 -2.34554 -0.532577
  463 44.4543 -2.37271 0.372661
  464 61.4362 -6.80072 -0.126619
  465 43.3222 -0.737177 -12.7803
  466 66.4120 -1.03788 6.54753
  467 54.5774 -1.52380 -0.351613
  468 81.2878 -6.48802 0.259085
  469 41.9258 0.208232 13.7526
  470 1.58043 -0.0409276 0.865773
  471 1.55820 -0.0396902 -0.868868
  472 88.0486 17.4718 -4.30952
  473 71.6834 -0.305768 0.102011
  474 71.4242 -0.375018 -0.170997
  475 52.9511 -3.38293 -0.260341
  476 21.7134 -0.678507 -0.564862
  477 21.7081 -0.668709 0.554654
  478 12.5104 -0.0998369 -2.73817
  479 12.5225 -0.102319 2.72972
  480 42.1323 1.64928 2.75506
  481 9.59509 -0.330531 1.27806
  482 9.58360 -0.327059 -1.28708
  483 11.0606 1.15960 3.07066
  484 11.0239 1.17670 -3.06969
  485 68.6674 -5.29525 5.88633
  486 37.5137 -2.32029 -5.58304
  487 34.2512 -0.956502 0.254287
  488 34.2665 -0.985984 -0.255721
  489 37.9220 -2.39590 5.57819
  490 108.089 25.1963 -0.799987
  491 -1.73165 -0.275076 -1.42585
  492 -1.73100 -0.276402 1.42528
  493 25.4166 -0.617545 -0.223648
  494 25.4132 -0.605426 0.222098
  495 0.00761978 -4.81113 -1.86317
  496 -0.00351622 -4.82630 1.87855
  497 62.9024 -0.682160 0.410894
  498 41.8200 2.05409 -1.37649
  499 58.1209 6.14970 4.04508
  500 37.3610 -0.408613 -10.0191
  501 17.1975 -0.869153 1.95674
  502 17.1997 -0.861510 -1.96228
  503 -5.56834 0.166096 -0.227575
  504 -5.54201 0.165159 0.230733
  505 73.9417 -1.57321 -12.2889
  506 3.76358 0.0516294 -0.278489
  507 3.76713 0.0526353 0.273604
  508 61.5550 -4.74997 -2.15962
  509 65.7346 -5.54987 -3.73810
  510 12.8214 9.31734 -12.5125
  511 55.1420 1.07775 -20.6911
  512 0.335561 1.54057 1.43362
  513 0.360862 1.54337 -1.41995
  514 32.5655 -1.39280 -0.970410
  515 32.5457 -1.37760 0.939304
  516 96.2107 3.16470 -3.85472
  517 68.4320 -3.96009 -5.31371
  518 12.4836 8.75499 12.3212
  519 67.8280 -7.82188 0.945957
  520 65.0979 -6.16914 3.11354
  521 12.0199 -0.282682 -0.828634
  522 12.0237 -0.281133 0.817526
  523 51.4662 0.510802 6.65855
  524 37.7027 -2.69020 -1.92684
  525 72.6051 -1.45664 3.06713
  526 -0.310008 -1.75552 -1.37742
  527 -0.310769 -1.75447 1.37573
  528 50.0113 -4.48836 6.29166
  529 77.2152 -6.14004 -6.93991
  530 102.005 5.88860 -1.91259
  531 53.8679 -1.59321 0.408762
  532 14.2192 -0.236495 -0.252258
  533 14.2178 -0.230369 0.249247
  534 33.4536 0.238797 9.61668
  535 96.4584 15.5214 6.82152
  536 100.135 16.7122 -33.2546
  537 88.0323 -0.0608973 6.92459
  538 62.7117 -7.00018 -0.224229
  539 153.280 12.1812 10.2294
  540 111.185 26.0147 1.53641
  541 14.0745 -0.567535 2.15247
  542 14.0670 -0.561386 -2.15841
  543 60.1967 -4.89534 1.78548
  544 3.85859 2.08354 -0.577719
  545 3.89046 2.08164 0.589595
  546 76.2428 -6.53201 6.91886
  547 60.6030 3.19241 9.91743
  548 77.3204 -0.413908 1.68967
  549 56.2242 -3.20089 1.03958
  550 80.3445 -0.348994 -21.8049
  551 129.471 30.5303 20.5046
  552 61.4324 -0.940269 -0.389987
  553 75.6800 -0.690822 -2.64687
  554 11.0672 4.69453 -4.47911
  555 11.1490 4.63682 4.45344
  556 42.0861 -1.50427 -0.303809
  557 42.0646 -1.46205 0.316594
  558 0.432377 -6.48251 -0.236012
  559 76.7405 -2.96611 11.1350
  560 2.54832 2.40568 0.751198
  561 2.59339 2.41142 -0.730821
  562 0.514159 -6.29810 0.396801
  563 69.5471 -3.20164 -8.87463
  564 80.2115 4.76034 -12.0187
  565 79.8617 5.42425 12.0021
  566 3.54315 2.55255 2.19045
  567 3.35312 2.63268 -2.12819
  568 -3.34404 0.0848514 0.656023
  569 -3.37271 0.0856154 -0.655090
  570 74.6396 0.955750 22.5501
  571 39.4247 -2.04497 0.853760
  572 39.4676 -2.03733 -0.884784
  573 90.4639 -2.56996 -10.7858
  574 9.51284 -0.120866 0.483301
  575 9.51091 -0.123636 -0.490679
  576 3.05948 -0.135144 -0.119593
  577 3.05939 -0.134212 0.117893
  578 98.4516 17.2251 -5.86572
  579 8.97947 11.1716 -13.9837
  580 48.9072 0.929077 -5.62119
  581 71.1103 11.4550 -5.21007
  582 0.904150 -0.386507 1.90339
  583 0.947206 -0.372300 -1.87462
  584 75.7014 30.6944 39.4724
  585 62.3245 -1.49093 -0.988256
  586 1.29955 0.644234 -1.01315
  587 1.32631 0.639565 1.01870
  588 71.9300 -5.87496 7.93818
  589 10.6629 10.7708 14.2371
  590 51.3909 -0.818659 -0.0127959
  591 51.4039 -0.809415 0.0125603
  592 -0.0805043 -3.77479 1.88456
  593 -0.0749296 -3.76851 -1.87842
  594 87.7689 17.3524 -0.140394
  595 55.8216 -4.66631 9.29384
  596 53.1619 -2.05321 0.423770
  597 53.7871 1.90856 21.8616
  598 -4.59556 0.211137 1.16346
  599 -4.59083 0.212259 -1.15922
  600 89.1919 0.551737 -7.38763
  601 121.448 17.6636 -14.1525
  602 32.7958 3.18820 -14.1823
  603 16.7867 -0.670382 -2.65712
  604 16.7997 -0.670054 2.65595
  605 81.5580 -0.175640 0.518635
  606 52.5995 -2.10357 -0.496967
  607 71.8426 -0.760756 1.17575
  608 69.5589 -3.19176 8.67662
  609 0.966965 -0.106228 0.412809
  610 0.948994 -0.105733 -0.417372
  611 40.3544 -1.21507 -0.159205
  612 40.3473 -1.17440 0.146104
  613 24.7287 0.586493 -6.20572
  614 24.5587 0.593257 6.17186
  615 102.755 4.67343 4.30370
  616 171.503 12.9166 -18.8627
  617 -2.72008 -0.0936909 0.586049
  618 -2.74879 -0.0933372 -0.586425
  619 22.8035 -0.908232 1.06979
  620 22.8058 -0.907531 -1.09023
  621 95.0761 4.31031 5.15243
  622 80.8141 -0.140614 -0.165201
  623 80.6207 -0.271512 0.0861878
  624 55.4457 -0.0682382 6.61338
  625 83.6082 -5.50165 -6.15246
  626 44.0260 -3.53434 2.32361
  627 -1.41840 0.957788 -1.27196
  628 -1.43728 0.956606 1.28260
  629 71.3295 1.27659 12.7613
  630 27.2070 -1.50557 -2.72845
  631 27.1748 -1.53239 2.73415
  632 58.3397 -3.19506 -1.26010
  633 73.0015 -1.43975 -2.78625
  634 40.4047 -3.17422 -3.85568
  635 66.3601 8.00454 -7.73764
  636 44.9962 -3.14976 -7.44702
  637 14.8652 -0.383788 -0.402418
  638 14.8640 -0.378174 0.394762
  639 40.8491 -3.23713 3.86298
  640 89.8707 14.1348 8.35505
  641 71.1487 -3.57298 10.9104
  642 58.2691 -2.37396 1.10443
  643 40.8178 -0.875442 0.180577
  644 40.8072 -0.878449 -0.172307
  645 30.1127 -1.00202 -0.726041
  646 30.0981 -0.988617 0.714365
  647 68.7693 -6.34110 -4.95878
  648 33.5564 -1.78616 1.29305
  649 33.5972 -1.77931 -1.33133
  650 67.3480 10.5228 -1.04991
  651 63.5141 -3.16399 2.36454
  652 80.9823 -0.283030 -0.775604
  653 66.7584 -1.33381 -11.1483
  654 8.19228 -0.381713 1.72209
  655 8.17694 -0.378829 -1.72526
  656 78.6238 -0.337924 -1.52493
  657 13.0834 6.65074 -8.62358
  658 13.3134 6.63033 8.66675
  659 79.9158 -5.42409 9.06337
  660 26.3593 6.40507 14.9297
  661 5.24336 -0.00325882 1.72921
  662 5.22389 -0.00181665 -1.73157
  663 67.6112 -4.78109 12.2085
  664 67.1247 8.04777 -30.1804
  665 63.3835 1.86746 -11.0384
  666 84.7557 15.2377 7.02348
  667 57.2057 -2.31675 -0.845667
  668 103.590 18.9732 -0.457576
  669 -5.61957 0.234236 -0.0746300
  670 -5.59697 0.233547 0.0793011
  671 45.2545 -0.0244053 -15.1323
  672 0.988361 -0.0587984 0.333355
  673 0.977643 -0.0589815 -0.337902
  674 57.2461 -5.01682 -9.16870
  675 18.0220 2.55718 -5.94261
  676 17.8680 2.56389 5.93730
  677 -0.276224 0.930010 -0.0538472
  678 -0.251750 0.928446 0.0638584
  679 48.1662 -4.08125 -1.52823
  680 68.7454 -0.670213 -4.32021
  681 31.5934 -0.841721 -0.278197
  682 31.5929 -0.829637 0.281092
  683 22.3514 -1.09846 -1.67842
  684 22.3665 -1.11494 1.66932
  685 4.05314 3.34258 -0.657971
  686 4.12642 3.34811 0.681329
  687 71.7945 -0.619477 0.662334
  688 30.2363 -1.84597 2.20537
  689 30.4473 -1.81041 -2.20176
  690 79.0942 -6.69261 -2.18807
  691 64.6344 -6.48882 -2.41730
  692 50.3429 -1.16471 0.200246
  693 50.1539 -1.06481 -0.170850
  694 71.5817 -7.83989 2.80534
  695 117.144 23.4607 5.15514
  696 62.7218 -3.22745 -15.4490
  697 71.9580 -1.91724 4.71234
  698 70.9021 -2.78063 -11.6275
  699 20.4814 -0.580513 -0.744394
  700 20.4776 -0.574861 0.730810
  701 55.5240 -1.35811 17.4433
  702 161.261 20.3775 18.7137
  703 9.82849 3.00856 -3.17333
  704 9.84158 3.02794 3.18416
  705 71.6369 -0.446046 -0.346130
  706 72.2363 -0.384103 0.350460
  707 29.5445 13.8722 -24.7858
  708 75.6218 -0.327756 2.61770
  709 65.3135 -0.849024 0.621196
  710 84.9129 17.0206 -2.67159
  711 7.77351 1.54541 -2.21519
  712 7.80867 1.53527 2.22373
  713 82.5646 -0.109644 0.116525
  714 65.4759 -2.31116 -2.23912
  715 81.8199 -1.62892 10.0328
  716 32.2011 -2.20524 -3.66896
  717 32.2827 -2.10437 3.62527
  718 5.84775 -0.232324 1.30501
  719 5.83081 -0.229115 -1.31034
  720 75.0645 -0.294454 -0.571906
  721 64.3982 11.1891 32.1716
  722 0.286795 0.245004 2.39936
  723 0.310018 0.257938 -2.38354
  724 75.0225 -0.622156 -1.36567
  725 72.6298 -1.13434 1.92651
  726 55.1507 -0.0153314 -7.09312
  727 0.484558 -7.08669 -1.09574
  728 0.449700 -7.15037 1.15986
  729 25.3357 6.58092 -14.9166
  730 57.0904 -5.85593 -6.34888
  731 29.2421 13.7735 25.0618
  732 81.3049 -0.0900241 0.336054
  733 75.9611 11.3221 8.40813
  734 53.7873 4.93950 -2.80711
  735 100.864 20.3881 -0.831017
  736 79.9024 -0.237613 1.02575
  737 -5.68069 0.120134 0.450315
  738 -5.70941 0.120796 -0.448469
  739 84.5897 -5.40227 0.881720
  740 53.7856 -1.28311 0.244682
  741 18.4795 0.0948733 -4.11064
  742 18.5013 0.0754772 4.08066
  743 72.8319 -0.632583 -0.881060
  744 129.498 18.4224 -6.22261
  745 6.63848 -0.217548 -0.768779
  746 6.65149 -0.218943 0.760698
  747 81.8665 -0.122340 -0.497111
  748 14.1777 -0.636849 -1.08094
  749 14.1837 -0.639129 1.06909
  750 78.6567 -3.44333 -10.2144
  751 72.4448 -0.719320 3.53830
  752 63.8851 -0.533621 10.9556
  753 82.1734 -0.128254 -0.0485756
  754 76.0350 -0.385351 1.06931
  755 48.3268 -2.40803 0.0478745
  756 61.5016 -1.34844 0.805573
  757 69.7858 -4.29321 -7.58588
  758 68.1650 -4.20658 5.17008
  759 79.3952 9.36482 -10.6689
  760 67.2751 -3.64324 3.96375
  761 70.8284 -4.26969 9.54914
  762 40.1564 -2.58955 1.25675
  763 1.32621 -1.04174 -0.595920
  764 1.24848 -1.04495 0.669021
  765 62.4194 -0.644180 0.0547911
  766 62.2823 -0.637023 -0.0788071
  767 75.9042 -0.135564 -0.0745406
  768 76.1854 -0.118463 0.0936025
  769 71.0702 -1.93595 5.67267
  770 65.6949 -6.32978 8.55831
  771 53.3668 -4.21278 0.0564581
  772 47.1123 -2.62869 0.315291
  773 132.330 17.0620 7.40367
  774 72.2082 -1.69982 -3.79805
  775 41.6475 6.73575 -23.3630
  776 66.8781 -3.14566 -3.46896
  777 1.46296 0.0771280 -1.17807
  778 1.48843 0.0746945 1.17891
  779 57.7229 5.06908 -6.30514
  780 157.327 4.80265 -2.09190
  781 74.7708 1.67666 -12.6124
  782 2.80965 -0.478582 -5.11087
  783 76.1847 13.8779 2.17458
  784 60.1567 -3.65750 1.65726
  785 67.1033 -1.77739 10.8390
  786 56.7785 -6.11143 6.38689
  787 93.0482 -1.76956 13.6632
  788 3.02912 0.220820 5.50023
  789 40.5209 -0.356593 11.5991
  790 57.5454 -1.20677 -0.454183
  791 64.3359 -6.05587 -8.67445
  792 38.4511 -2.91907 -2.53571
  793 30.2376 1.39887 -10.0060
  794 74.2672 -1.38153 12.3715
  795 47.0339 -3.06286 0.773382
  796 7.13150 -0.229158 0.718428
  797 7.12341 -0.229555 -0.727318
  798 68.9644 -0.357114 3.83608
  799 61.6329 0.209601 -10.5913
  800 -5.71919 0.240756 0.763956
  801 -5.71085 0.241139 -0.759423
  802 45.7198 -1.20047 0.0933494
  803 45.5771 -1.11968 -0.107073
  804 33.6818 3.59395 14.4105
  805 29.4219 -1.63826 1.58998
  806 29.4693 -1.59474 -1.61292
  807 81.8783 -0.0620677 -0.295913
  808 27.0995 2.11849 9.72012
  809 -1.02825 -0.0233564 0.458298
  810 -1.05206 -0.0227520 -0.461112
  811 68.1035 -2.13741 8.45303
  812 74.3730 -0.427727 0.469876
  813 -3.96428 0.0310074 1.11942
  814 -3.96445 0.0321937 -1.11725
  815 44.3976 -2.86459 8.46091
  816 8.15363 6.45860 -7.13073
  817 8.25792 6.11868 7.00965
  818 39.6090 1.80479 1.14532
  819 -2.44091 -0.0282810 -0.531931
  820 -2.41273 -0.0287006 0.530865
  821 51.3417 -4.95035 -5.95873
  822 70.9436 -7.57318 -3.46866
  823 -0.345237 -0.329011 -0.429179
  824 -0.344287 -0.328305 0.427664
  825 1.36654 0.133529 -0.0971942
  826 1.36793 0.134255 0.0946061
  827 62.8207 -5.52745 2.44264
  828 52.4834 -5.40875 3.89049
  829 58.6690 -0.701719 0.331550
  830 52.3293 -4.10313 -0.268475
  831 17.4938 -0.229964 -0.0605610
  832 17.4919 -0.221870 0.0586320
  833 -6.55015 0.136216 0.486826
  834 -6.53702 0.136016 -0.482441
  835 66.8266 -0.599032 -0.463255
  836 56.8486 2.15760 -8.95289
  837 67.4952 -1.09714 -1.23557
  838 38.5286 -2.85832 2.39129
  839 65.5281 -1.19628 -8.83601
  840 70.9969 -2.10737 -5.86541
  841 67.1187 -0.476173 0.421106
  842 48.0294 -2.01379 11.9197
  843 51.3334 -4.97120 -1.87153
  844 30.2573 -0.218880 -7.51087
  845 30.4303 -0.00785582 7.55006
  846 43.3742 -3.12834 -1.36536
  847 72.5447 7.72666 10.7680
  848 69.9373 -7.54573 -4.22709
  849 23.4440 -0.665897 -0.348752
  850 23.4384 -0.653546 0.343092
  851 52.8857 -0.929177 -0.126510
  852 52.8860 -0.939416 0.141904
  853 62.2399 -0.502472 -5.74390
  854 19.7640 -0.799636 -1.34696
  855 19.7717 -0.806065 1.33110
  856 0.232314 -6.91467 -1.44996
  857 0.218722 -6.94345 1.47684
  858 8.61427 -0.124011 -0.0881954
  859 8.61453 -0.127416 0.0858880
  860 66.2445 -0.777787 -0.655092
  861 49.3228 -4.68899 3.46982
  862 78.0590 -6.99313 3.75455
  863 42.6803 0.911694 4.39321
  864 67.7140 -1.36488 1.39886
  865 73.6380 -6.76753 -6.46604
  866 9.44603 0.696227 -2.64013
  867 9.47382 0.685097 2.63653
  868 58.3568 -0.773901 -0.305655
  869 46.3017 -1.38558 -0.0480619
  870 46.1295 -1.37011 0.0890388
  871 71.3465 11.1696 5.86144
  872 24.0946 -0.186959 -5.05551
  873 24.0661 -0.216231 5.02754
  874 49.7901 -4.42149 1.36457
  875 4.28594 2.96574 -0.533157
  876 4.33176 2.95879 0.545108
  877 41.8317 -3.00144 6.74767
  878 50.5507 -3.05732 0.0910763
  879 62.6514 -0.519462 5.80531
  880 62.6742 -7.13730 1.41804
  881 72.0089 -5.58344 -8.48570
  882 49.2030 -4.72819 -3.53294
  883 40.4652 -2.57652 -1.19002
  884 138.907 11.5521 -2.08648
  885 65.7521 -7.00677 2.04972
  886 1.46933 1.97622 1.19942
  887 1.50229 1.97940 -1.18275
  888 56.8073 -5.64973 0.297058
  889 62.5993 -7.17428 -3.20519
  890 1.46461 1.78807 0.501154
  891 1.49310 1.78798 -0.488711
  892 22.3391 -0.740367 3.73210
  893 22.3583 -0.766188 -3.76028
  894 27.4164 -1.33870 4.11383
  895 27.4104 -1.37384 -4.14979
  896 90.1267 18.1470 3.55194
  897 -0.146795 -2.79494 -1.34916
  898 -0.147774 -2.79215 1.34848
  899 19.7281 1.74051 -5.63838
  900 19.6227 1.70365 5.57261
  901 163.007 5.30566 -8.34097
  902 0.624079 -0.00416674 0.175742
  903 0.617678 -0.00470590 -0.179297
  904 0.235541 -8.28907 0.720094
  905 0.279543 -8.16370 -0.613814
  906 -2.99330 -0.0481150 1.12318
  907 -2.99609 -0.0472284 -1.12270
  908 15.7245 4.67112 -6.69956
  909 15.9717 4.51751 6.59195
  910 -1.42937 -0.00909049 -2.43294
  911 -1.43584 -0.0140039 2.43714
  912 3.66286 0.452806 -1.64771
  913 3.68926 0.447275 1.64925
  914 16.8618 -0.133808 3.41105
  915 16.8533 -0.133220 -3.43361
  916 13.4007 -0.428399 -2.72881
  917 13.4117 -0.427140 2.72187
  918 78.8152 -0.231267 -1.47470
  919 37.3405 7.50566 21.6093
  920 51.8675 -5.07094 1.69372
  921 36.1268 -2.49258 1.84157
  922 70.8101 7.18227 -10.5805
  923 160.250 3.49432 3.29292
  924 85.5079 3.40951 -10.6778
  925 12.4029 -0.474047 1.66039
  926 12.3930 -0.468168 -1.66931
  927 1.04523 -0.0599987 -1.23020
  928 1.06936 -0.0607736 1.22921
  929 -0.140219 -1.49346 -2.68343
  930 -0.151232 -1.50404 2.69202
  931 37.3587 -1.48099 0.688894
  932 37.3810 -1.51512 -0.695328
  933 3.72105 1.24371 -1.36021
  934 3.75014 1.23783 1.36837
  935 22.0999 -0.933941 -3.11441
  936 22.1121 -0.933261 3.11031
  937 48.2518 -0.293072 -5.19143
  938 22.7327 -1.19189 -2.06479
  939 22.7114 -1.17653 2.07213
  940 58.7382 -1.36765 -0.565019
  941 71.0064 -4.17140 -10.1989
  942 29.6793 -1.08747 0.814678
  943 29.6972 -1.09985 -0.831553
  944 -1.26172 -0.142894 -0.768443
  945 -1.25855 -0.143231 0.766963
  946 72.9993 -6.10680 -10.8103
  947 69.4345 -4.02762 6.67890
  948 60.7278 -4.09511 -1.99216
  949 57.6775 1.88037 9.44898
  950 25.6220 -1.38010 -2.34403
  951 25.6173 -1.35042 2.35244
  952 65.2254 2.36608 11.5423
  953 60.2330 5.22692 7.57906
  954 128.810 15.6885 2.62229
  955 64.9550 -2.10033 1.74961
  956 32.7691 -0.813717 -0.356229
  957 32.7627 -0.792745 0.360735
  958 57.7030 -4.60978 -1.00805
  959 79.4595 14.6662 -5.21111
  960 71.8117 -0.529982 -0.662238
  961 45.8431 -0.858014 0.109897
  962 45.8234 -0.849485 -0.0959417
  963 5.42574 4.43454 -2.74178
  964 5.57190 4.42160 2.76678
  965 11.1720 24.2989 -24.1823
  966 65.7088 -1.61948 8.80078
  967 83.2778 -2.00984 -9.12615
  968 -1.92031 0.774464 0.722959
  969 -1.89984 0.774065 -0.713080
  970 175.754 40.1577 -32.5053
  971 71.0933 -7.88292 1.91501
  972 76.1088 -7.36895 -1.87547
  973 69.8376 -6.01713 6.28837
  974 85.6415 17.0520 2.33927
  975 5.80999 5.27363 -6.58922
  976 15.6432 20.6426 23.4534
  977 -0.503979 -1.09032 2.63549
  978 -0.497133 -1.08256 -2.63098
  979 68.3259 -1.51313 1.70056
  980 109.761 19.6742 -1.88545
  981 5.98749 5.12337 6.89166
  982 -0.307661 -0.985113 -0.854390
  983 -0.307768 -0.982609 0.852368
  984 58.1737 -1.06056 0.323423
  985 42.6078 -3.31255 -2.62377
  986 70.3581 -5.60372 -7.28174
  987 19.0703 5.10840 -9.08681
  988 19.3829 5.19597 9.11133
  989 67.8186 -1.69991 -7.91737
  990 69.1642 -1.99653 2.89389
  991 -2.01677 0.397710 2.19187
  992 -2.00776 0.401982 -2.18538
  993 40.6727 -2.68943 -6.30150
  994 67.8801 4.19675 -11.6718
  995 50.7117 -1.64149 -0.184658
  996 35.6359 -0.827689 0.0226121
  997 35.6301 -0.835287 -0.0183108
  998 -0.807886 -0.913403 -1.82127
  999 -0.809084 -0.915343 1.82013
  1000 70.0943 -2.32814 -3.47100
  1001 66.9988 -0.456340 0.137184
  1002 66.9355 -0.456727 -0.107862
  1003 92.1061 14.6007 -7.91790
  1004 15.4501 1.43584 -4.33484
  1005 15.4875 1.40715 4.32136
  1006 9.17163 -0.0464356 -2.22808
  1007 9.18756 -0.0483923 2.22320
  1008 75.2073 3.77520 12.7573
  1009 72.1975 -1.14827 -2.02150
  1010 11.6147 1.95457 -3.41993
  1011 11.6613 1.93919 3.43280
  1012 75.9405 -0.193753 -0.384677
  1013 69.8577 -2.90064 -5.08921
  1014 68.1936 -7.87851 -1.86775
  1015 2.28709 1.75694 -0.572351
  1016 2.21630 1.74879 0.603861
  1017 -3.58000 0.507255 1.38351
  1018 -3.56844 0.508516 -1.37602
  1019 38.0872 1.50801 -1.91588
  1020 119.506 28.7757 -6.40364
  1021 53.3090 -3.72308 0.378369
  1022 34.5816 -1.50145 -6.52126
  1023 87.3013 -4.06958 2.17695
  1024 34.7196 -1.50329 6.62000
  1025 61.7072 -7.31041 3.92099
  1026 70.0293 -2.87089 -7.36345
  1027 22.3059 -0.429675 -0.112330
  1028 22.3038 -0.419278 0.111120
  1029 47.1459 -3.55813 -1.04638
  1030 28.2003 -1.00506 -4.95373
  1031 28.1844 -1.01261 4.92162
  1032 9.05414 5.85160 -5.29566
  1033 9.20403 5.82932 5.31069
  1034 18.3825 -0.543669 -0.412156
  1035 18.3794 -0.535321 0.404093
  1036 62.4712 -1.71601 1.09648
  1037 52.3479 -0.110065 -17.6997
  1038 64.8377 -1.86290 -1.71849
  1039 58.0906 -6.45358 -2.01665
  1040 37.2479 -1.39905 0.425369
  1041 37.2824 -1.41168 -0.428480
  1042 76.9891 -0.280034 0.483665
  1043 68.0817 -1.37077 -1.59958
  1044 40.5373 0.973105 3.60577
  1045 72.5382 -0.697777 -3.28540
  1046 27.2802 7.66191 17.0277
  1047 75.0367 -0.647936 -2.72752
  1048 18.5158 3.16889 -6.68993
  1049 17.9273 3.20797 6.38744
  1050 90.2993 -2.25166 -2.66729
  1051 7.34518 3.96808 -2.49100
  1052 7.41611 3.93769 2.48818
  1053 1.17945 -0.605442 1.23314
  1054 1.24692 -0.594525 -1.18890
  1055 9.49120 -0.260308 0.520778
  1056 9.48676 -0.262474 -0.530082
  1057 31.2040 7.77146 -19.0120
  1058 182.127 45.0423 34.9491
  1059 69.8249 -2.33033 3.56146
  1060 62.2679 -7.06392 -1.18544
  1061 42.5292 -3.48012 -4.69652
  1062 -1.18400 0.856602 2.02138
  1063 -1.16795 0.861260 -2.01077
  1064 48.2748 -2.26997 -0.103460
  1065 53.6007 -1.72545 -0.427620
  1066 -0.0367879 -3.97528 1.31491
  1067 -0.0354343 -3.97835 -1.31432
  1068 7.44489 4.69667 -3.05834
  1069 7.53812 4.68564 3.07831
  1070 47.5904 -2.06182 0.109728
  1071 3.03857 1.70654 0.671277
  1072 3.00924 1.70943 -0.660200
  1073 73.6558 -3.08459 11.7934
  1074 52.9065 -5.50586 -3.87052
  1075 42.7910 -3.53718 4.69514
  1076 69.7115 -1.56415 -12.2225
  1077 75.1010 -0.622060 1.47352
  1078 25.9314 3.93547 11.1730
  1079 26.1218 3.76950 -10.9776
  1080 42.5583 -2.13370 -9.33259
  1081 61.3415 -1.93938 -1.15272
  1082 49.2106 -2.77478 0.184453
  1083 58.1023 -5.35100 0.659347
  1084 81.6194 -0.209646 -0.816897
  1085 42.3386 -1.75018 0.318927
  1086 42.3198 -1.86515 -0.346144
  1087 1.15670 1.42987 1.84074
  1088 1.19134 1.44089 -1.82132
  1089 70.0685 2.41467 -12.5756
  1090 14.7407 0.840216 -3.78755
  1091 14.7792 0.822404 3.77310
  1092 10.6886 0.284556 -2.63122
  1093 10.7107 0.278072 2.62353
  1094 81.8111 -4.13096 13.8066
  1095 69.9798 -3.19241 7.29429
  1096 33.2242 -1.48851 -5.43760
  1097 83.2596 -0.263821 -0.492513
  1098 91.3385 17.0823 -6.07204
  1099 75.0552 -0.514403 -0.982775
  1100 69.4969 -7.58695 3.39715
  1101 50.8325 -3.98158 8.05849
  1102 84.0374 -0.0207679 0.126738
  1103 40.4491 1.29405 -3.06224
  1104 58.5194 -6.25049 -0.455319
  1105 33.2740 -1.55896 5.36576
  1106 59.0933 -5.30426 -1.00590
  1107 74.6998 -0.916557 2.57852
  1108 50.7294 3.22555 4.81872
  1109 35.8179 -2.58401 -4.20618
  1110 114.507 14.4151 -4.59480
  1111 84.3865 3.38409 11.0909
  1112 60.8953 7.71155 1.19819
  1113 82.7771 0.0876823 0.464138
  1114 30.7965 -1.85637 -3.11404
  1115 21.1260 12.4513 -18.9724
  1116 38.2709 0.882604 -13.5793
  1117 43.9299 -3.26151 1.69676
  1118 36.8070 -2.70481 3.88578
  1119 30.7120 -1.75833 3.15320
  1120 66.4226 0.440191 12.1419
  1121 50.3428 -1.50139 0.239744
  1122 81.2930 -0.534273 1.05697
  1123 -0.766210 -0.169346 2.67255
  1124 -0.756821 -0.161767 -2.66617
  1125 52.9026 -1.23717 -0.280198
  1126 -0.262636 0.430136 2.52829
  1127 -0.245823 0.439845 -2.51653
  1128 28.4460 -0.774835 0.523241
  1129 28.4512 -0.790520 -0.524285
  1130 75.7515 -0.366204 2.26706
  1131 60.3884 -3.52188 -1.72021
  1132 56.4070 -2.80521 -0.903659
  1133 63.3507 -4.31321 2.90514
  1134 18.5800 8.93804 -13.9236
  1135 62.2163 -2.11433 1.39537
  1136 8.01238 0.219520 -2.13045
  1137 8.03305 0.215033 2.12670
  1138 12.2529 7.71529 -9.53460
  1139 100.629 12.1946 4.96691
  1140 5.47373 -0.291107 1.21425
  1141 5.45539 -0.288532 -1.21780
  1142 12.4766 7.57620 9.17113
  1143 56.5731 -4.62424 0.777041
  1144 27.3849 -1.18546 1.05352
  1145 27.3931 -1.19250 -1.07853
  1146 117.514 24.6672 -5.51653
  1147 62.5837 -6.25641 1.34712
  1148 20.7591 11.5842 18.9197
  1149 1.64831 -1.42603 -1.08026
  1150 1.78677 -1.40499 1.24670
  1151 64.5274 8.12429 6.13730
  1152 4.30197 2.54405 -0.618791
  1153 4.33975 2.54399 0.628733
  1154 63.0226 -5.40930 -2.53669
  1155 -0.0317908 -6.20469 -1.25816
  1156 -0.0346786 -6.20677 1.26382
  1157 67.5059 -5.67505 -4.63959
  1158 -2.85659 0.0914201 0.413974
  1159 -2.88447 0.0919278 -0.415488
  1160 9.53187 3.67352 -3.38669
  1161 9.58410 3.68870 3.34793
  1162 -4.77968 0.0130835 -0.508392
  1163 -4.74886 0.0128123 0.508563
  1164 68.0860 -0.469570 -0.210140
  1165 -7.18291 0.197052 0.208893
  1166 -7.16523 0.196898 -0.204922
  1167 34.5437 -2.65197 -2.96085
  1168 0.887579 -10.0973 -0.512309
  1169 16.0903 -0.422523 0.836644
  1170 16.0886 -0.424654 -0.849806
  1171 57.1938 -0.798151 0.0305608
  1172 57.3056 -0.768458 -0.0188736
  1173 0.951117 -9.69196 0.713258
  1174 68.0544 -3.42525 -4.40934
  1175 78.4417 -0.295920 1.71660
  1176 69.0430 -4.37624 -6.22693
  1177 58.7350 0.385211 9.38091
  1178 0.253381 -2.80246 2.11174
  1179 0.282574 -2.78474 -2.08134
  1180 43.2759 -3.01691 1.25080
  1181 -3.16401 0.245821 1.73582
  1182 -3.15836 0.247975 -1.73105
  1183 115.745 18.6726 1.06407
  1184 138.807 39.8427 -28.0177
  1185 70.6588 -6.94726 5.64639
  1186 27.6464 -0.691824 -0.0436550
  1187 27.6453 -0.680794 0.0436585
  1188 148.926 14.4430 -13.0985
  1189 8.62614 -0.228867 1.26391
  1190 8.61228 -0.224876 -1.27108
  1191 65.0356 -0.214078 -3.77756
  1192 41.4574 -3.29515 3.37778
  1193 69.9135 -6.92638 -4.38142
  1194 67.5783 -4.85911 -5.06613
  1195 40.4626 -1.49995 9.81785
  1196 14.3214 2.76142 -4.92321
  1197 14.3100 2.73641 4.88989
  1198 19.2932 7.04103 -11.7404
  1199 19.3121 6.49974 11.7382
  1200 4.90927 1.64410 -1.42264
  1201 4.94096 1.63868 1.43281
  1202 82.8226 14.2629 -7.68045
  1203 3.89640 3.48039 -1.08660
  1204 3.99472 3.48281 1.11486
  1205 59.9022 -4.45336 1.64119
  1206 115.166 14.9058 5.33915
  1207 12.4765 -0.535264 -0.823300
  1208 12.4819 -0.534840 0.811536
  1209 76.1945 46.9963 -43.4779
  1210 54.1936 3.18733 -7.46902
  1211 49.1908 3.85169 3.02827
  1212 6.40968 2.89686 -1.69712
  1213 6.44131 2.89593 1.70826
  1214 -0.700196 -0.00632572 0.305887
  1215 -0.715943 -0.00630895 -0.309379
  1216 66.5746 -5.29550 4.34635
  1217 65.6288 -2.42809 2.42387
  1218 44.6246 11.5152 -30.4668
  1219 103.748 22.5135 0.173726
  1220 43.7173 -1.43619 -10.8962
  1221 57.3453 -1.49970 0.528306
  1222 0.494396 -0.293866 -0.0826566
  1223 0.492575 -0.293717 0.0821376
  1224 -2.32499 0.446778 -0.565885
  1225 -2.29941 0.444798 0.571390
  1226 37.7923 0.312568 -11.4791
  1227 71.5954 -1.38260 2.52868
  1228 45.6937 0.574301 16.0190
  1229 62.5790 -2.90095 -2.02948
  1230 31.7198 10.7096 -23.6605
  1231 49.7560 -2.61014 -11.8293
  1232 59.5606 -6.35802 0.112464
  1233 73.6169 -1.06098 3.73711
  1234 64.5268 -1.07877 -0.842018
  1235 34.3838 -2.47878 2.98215
  1236 81.0872 -4.90770 -7.31730
  1237 75.9263 6.37087 12.1174
  1238 32.3698 0.133980 -8.90626
  1239 77.5584 -0.297728 0.358213
  1240 59.2427 7.46996 -1.70498
  1241 25.0012 -0.786884 -0.823720
  1242 24.9925 -0.776591 0.810898
  1243 119.014 25.5452 4.31241
  1244 166.366 4.44081 7.82063
  1245 0.130206 -7.61215 -1.25874
  1246 0.125671 -7.62181 1.26815
  1247 16.4717 8.37777 12.9358
  1248 40.1949 -0.965768 -0.0543862
  1249 40.2033 -0.957852 0.0704016
  1250 56.0473 -5.59764 -0.626845
  1251 66.0683 5.31803 10.5474
  1252 71.1111 -1.18274 -1.71917
  1253 84.0157 -0.146261 -0.0461927
  1254 145.578 31.8263 -19.5964
  1255 20.4095 -0.728107 0.804901
  1256 20.4115 -0.730372 -0.820748
  1257 67.5698 -6.27454 4.50598
  1258 121.078 27.5201 -6.74084
  1259 65.6373 -2.67277 -2.70199
  1260 47.1348 -3.13496 -0.640693
  1261 58.4868 -6.39168 1.93770
  1262 57.2078 -2.65279 1.02552
  1263 1.91991 -0.763989 -1.99073
  1264 78.9688 -5.07164 8.42622
  1265 63.6292 -4.02193 -2.82355
  1266 2.12755 -0.655591 2.27406
  1267 65.5993 -5.60172 -10.9819
  1268 62.1965 3.13705 -24.9074
  1269 103.319 12.0765 -4.05435
  1270 84.3931 0.0241428 -0.0332870
  1271 84.2206 -0.0553003 0.0841706
  1272 64.7897 -3.62799 2.96669
  1273 23.9725 2.86036 -8.72470
  1274 73.9614 -6.74433 6.91349
  1275 127.545 28.7416 12.1906
  1276 30.2828 9.86166 23.0079
  1277 0.688265 -0.207923 2.22006
  1278 0.720311 -0.193375 -2.19807
  1279 78.1880 -6.72348 -5.28932
  1280 29.8427 -1.53342 -1.28116
  1281 29.8338 -1.53696 1.24790
  1282 72.1472 -4.86040 9.88715
  1283 1.29129 0.0412895 1.36336
  1284 1.26689 0.0426934 -1.36386
  1285 -0.436831 -1.56443 2.11887
  1286 -0.434137 -1.56113 -2.11886
  1287 11.0175 -0.382378 -1.15315
  1288 11.0267 -0.384816 1.14281
  1289 36.9770 -2.43410 -4.85720
  1290 37.0883 -1.04285 0.134086
  1291 37.0885 -1.07171 -0.119312
  1292 83.9636 0.0235367 -0.0376719
  1293 73.0746 -1.03765 -4.18003
  1294 4.69958 0.308863 -1.65600
  1295 4.72349 0.304841 1.65526
  1296 37.1267 -2.58112 4.80547
  1297 84.9336 -0.0294451 0.0105912
  1298 79.8580 0.0836525 -0.0852925
  1299 79.8661 0.0367866 0.0626912
  1300 104.300 21.1508 2.99990
  1301 77.4496 -0.343985 -0.780999
  1302 68.3101 -0.427063 0.184865
  1303 75.7458 -1.00121 -2.28304
  1304 83.3805 -0.190599 0.356757
  1305 85.0711 8.36504 11.0039
  1306 98.9095 20.0692 4.04381
  1307 80.3437 -0.252616 -1.15794
  1308 -0.626082 -0.168717 0.568216
  1309 -0.628473 -0.168576 -0.569834
  1310 43.0978 -2.56001 0.730644
  1311 43.0879 -2.43713 -0.696343
  1312 85.8620 9.31734 -10.5683
  1313 17.0161 5.81191 -9.55668
  1314 17.1255 5.64451 9.44020
  1315 56.1340 -0.0148986 -4.68708
  1316 59.5641 -0.657678 0.0550410
  1317 59.4914 -0.649431 -0.0670811
  1318 -1.49908 -0.288289 2.16825
  1319 -1.49636 -0.284614 -2.16720
  1320 65.2539 -0.164258 3.77352
  1321 100.769 20.1064 0.655883
  1322 5.11651 -0.252422 -0.729755
  1323 5.12861 -0.253034 0.721818
  1324 74.5787 -7.36112 4.31814
  1325 -0.169030 1.07794 2.11400
  1326 -0.148151 1.08453 -2.10078
  1327 11.6562 -0.254368 -0.208290
  1328 11.6560 -0.249273 0.203086
  1329 56.1559 -0.113165 4.75542
  1330 -0.0886397 0.137818 -0.102010
  1331 -0.0853058 0.138345 0.0994139
  1332 76.5885 -0.736313 1.53932
  1333 105.743 19.5605 0.568164
</Section>

newXOutput 11

<Section columns = "stress_xx | stress_yy | stress_xy">
  1 95.8897 -0.177100 0.171373
  2 96.0634 -0.255690 -0.222842
  3 -1.15447 0.0971246 -0.258847
  4 -0.0582215 -0.0939576 -0.0542346
  5 181.818 65.6354 57.0426
  6 184.632 75.5180 -57.7035
  7 -0.0575308 -0.0933610 0.0533386
  8 -1.15203 0.0965958 0.258195
  9 96.5969 -0.120325 -0.158723
  10 95.7812 -0.274797 -0.218919
  11 95.7912 -0.201716 0.249760
  12 95.2000 -0.0620128 0.145751
  13 94.9162 -0.255992 -0.00632870
  14 94.6099 -0.239359 0.457152
  15 92.9628 -0.142070 0.474906
  16 93.1997 -0.649359 0.658472
  17 89.8840 -0.519388 1.34768
  18 87.6961 -0.188144 1.61000
  19 84.7498 -0.262926 1.71761
  20 79.7525 -0.230160 2.34116
  21 74.4063 -0.213182 2.68619
  22 67.8442 0.321390 3.63091
  23 58.9560 0.492343 3.26078
  24 55.4673 -0.0735161 4.63588
  25 44.5623 0.650154 3.27453
  26 38.0391 0.882679 2.54704
  27 36.3496 0.363202 1.87132
  28 34.5313 1.27607 0.130641
  29 35.5177 1.40255 -2.49904
  30 37.5394 0.376096 -3.14373
  31 45.5678 0.117585 -4.22542
  32 53.7646 -0.432033 -4.44031
  33 59.2775 0.406419 -3.25951
  34 67.9479 0.368850 -3.63630
  35 74.1944 -0.257121 -2.87360
  36 80.3237 -0.282402 -2.21671
  37 84.3623 -0.176340 -1.74153
  38 87.4150 -0.195690 -1.49046
  39 90.6487 -0.290810 -0.883073
  40 92.0125 -0.263155 -0.857751
  41 93.3194 -0.253536 -0.745013
  42 94.6713 -0.298270 -0.193844
  43 95.2262 -0.395176 -0.328118
  44 94.7297 0.112733 -0.0683796
  45 95.6868 -0.173259 -0.275458
  46 96.2115 -0.433980 0.238426
  47 96.7338 -0.233734 -0.0178249
  48 91.4320 0.198845 -0.143410
  49 85.5383 -0.139550 -0.278287
  50 78.9508 -0.536758 -0.428221
  51 72.2049 -0.348869 -0.315641
  52 66.3869 -0.764830 -0.292239
  53 60.2969 -0.861008 -0.273774
  54 54.1995 -0.726465 -0.157569
  55 47.8352 -0.824164 -0.203532
  56 42.4812 -0.946136 -0.257306
  57 35.3999 -0.939553 -0.220000
  58 28.1377 -0.555966 -0.140878
  59 22.1496 -0.344532 -0.117297
  60 14.7731 -0.216016 -0.0693311
  61 9.40940 -0.247702 -0.386734
  62 4.41574 -0.390921 -0.139185
  63 -0.611242 0.0496612 0.210709
  64 -1.87133 0.358120 0.0599582
  65 -2.18584 0.148993 0.205971
  66 -1.90951 0.0694076 0.190551
  67 -2.81414 0.208340 0.0476381
  68 -3.10628 0.268347 0.416329
  69 -3.09668 0.0924329 0.101564
  70 -4.65633 0.193515 0.118696
  71 -5.32239 0.140661 0.388205
  72 -5.45533 0.0542305 0.400024
  73 -7.09668 0.186652 0.283817
  74 -7.63919 0.272840 0.605047
  75 -8.17899 0.165813 0.158340
  76 -8.92182 0.118301 0.287828
  77 -9.08084 0.128697 0.0669460
  78 -9.73637 0.294283 -0.273450
  79 -9.70008 0.201964 -0.208798
  80 -8.73159 0.157977 -0.345229
  81 -7.43329 0.195550 -0.608427
  82 -5.96748 0.0790096 -0.878281
  83 -4.39495 0.0404119 -0.898110
  84 -2.61964 -0.0992758 -0.932117
  85 -1.11218 -0.0768743 -0.533805
  86 -0.458366 -0.192352 -0.328622
  87 -0.0823662 -0.467906 -0.279948
  88 -0.143757 -1.19547 -0.512233
  89 -0.161226 -2.40107 -0.915809
  90 -0.0413920 -4.52792 -1.00523
  91 0.0464833 -6.32730 -1.27837
  92 0.119868 -9.13443 -1.05051
  93 0.367675 -10.9203 -1.25268
  94 0.0485645 -11.9443 -1.08216
  95 -0.0288949 -13.8737 -0.728626
  96 0.372857 -13.8237 -0.356567
  97 1.47488 -18.0675 0.446467
  98 1.22958 -10.9085 1.85604
  99 3.01798 -6.69411 4.41774
  100 9.36683 10.9455 15.1668
  101 42.0882 47.1203 45.9805
  102 238.521 24.4790 35.7071
  103 197.041 6.91732 12.8027
  104 187.101 2.95697 4.43964
  105 181.436 1.97158 -0.0198272
  106 184.974 2.82099 -3.62537
  107 199.074 5.92143 -10.6556
  108 236.071 19.6374 -33.4593
  109 27.1232 53.5240 -37.9593
  110 6.56197 6.77275 -11.5556
  111 2.21725 -8.21948 -3.57404
  112 1.11361 -11.8142 -1.53677
  113 1.47001 -18.7179 -0.290180
  114 0.358263 -14.1160 0.469568
  115 -0.0503084 -14.0216 0.788022
  116 0.0347520 -12.0028 1.11422
  117 0.360288 -10.9360 1.26641
  118 0.117009 -9.13152 1.05571
  119 0.0442849 -6.31985 1.28043
  120 -0.0424624 -4.51778 1.00485
  121 -0.161395 -2.39449 0.914084
  122 -0.144064 -1.18966 0.510555
  123 -0.0823257 -0.465731 0.278433
  124 -0.455736 -0.192126 0.327373
  125 -1.10757 -0.0771929 0.532488
  126 -2.61390 -0.100012 0.931423
  127 -4.38854 0.0396294 0.898428
  128 -5.96439 0.0781683 0.879884
  129 -7.43591 0.194981 0.611390
  130 -8.73997 0.157962 0.348344
  131 -9.71572 0.201844 0.211782
  132 -9.75786 0.294349 0.276499
  133 -9.10877 0.129065 -0.0644045
  134 -8.95437 0.118749 -0.286072
  135 -8.21355 0.166302 -0.157064
  136 -7.67584 0.273401 -0.604766
  137 -7.13380 0.187159 -0.283609
  138 -5.49107 0.0545388 -0.400441
  139 -5.35746 0.141183 -0.389125
  140 -4.68897 0.194263 -0.119969
  141 -3.12415 0.0929422 -0.103719
  142 -3.12821 0.268816 -0.419328
  143 -2.83142 0.208431 -0.0503296
  144 -1.91989 0.0692926 -0.193096
  145 -2.19089 0.148705 -0.207989
  146 -1.87299 0.357593 -0.0617366
  147 -0.610187 0.0493635 -0.211711
  148 4.41640 -0.392345 0.138069
  149 9.40955 -0.251483 0.385449
  150 14.7741 -0.222807 0.0677229
  151 22.1517 -0.354401 0.116418
  152 28.1390 -0.567488 0.140665
  153 35.3978 -0.949642 0.221417
  154 42.4707 -0.951482 0.260421
  155 47.8160 -0.818731 0.211095
  156 54.1698 -0.704735 0.166494
  157 60.2545 -0.808714 0.259796
  158 66.4131 -0.778939 0.258638
  159 72.2232 -0.440666 0.332267
  160 79.0148 -0.519654 0.392981
  161 85.7207 -0.0891058 0.281946
  162 91.2500 0.193792 0.138520
  163 51.0150 -4.55373 -3.40724
  164 50.7961 -4.63522 3.39998
  165 14.5775 4.13462 -5.34568
  166 14.7245 4.15162 5.31768
  167 60.8860 -3.20967 14.8675
  168 63.9623 -3.60914 -14.4465
  169 28.3854 -1.42404 1.49282
  170 28.3863 -1.40895 -1.52287
  171 65.2450 -2.00113 0.867822
  172 63.8504 -2.00708 -0.850174
  173 85.9747 15.6989 -2.52869
  174 88.5521 0.256671 -12.8864
  175 86.6332 0.986324 13.6712
  176 19.3784 -0.687531 -3.51252
  177 19.3748 -0.681225 3.50194
  178 76.4990 -7.62807 5.19430
  179 76.3689 -5.87029 -6.74645
  180 0.723839 1.53129 2.24263
  181 0.754401 1.54135 -2.22489
  182 104.443 21.0930 4.74973
  183 19.2335 8.42076 -12.9975
  184 20.7095 8.51169 14.0224
  185 74.0785 -3.26596 3.40762
  186 111.432 22.9546 -3.19433
  187 46.8744 -1.47423 -0.211642
  188 46.7920 -1.52006 0.205516
  189 76.3660 -2.19545 -3.06632
  190 102.682 -1.51846 0.247179
  191 16.6834 -0.480577 0.527170
  192 16.6829 -0.485804 -0.538768
  193 6.89576 1.03484 -2.22329
  194 6.92896 1.02426 2.22781
  195 41.7334 -1.62843 -8.97845
  196 41.5672 -1.72303 9.10028
  197 50.1229 -3.08474 -0.810678
  198 50.2254 -3.06711 0.910074
  199 11.5094 -0.399323 1.79639
  200 11.4951 -0.393255 -1.80278
  201 101.654 -2.75663 5.07194
  202 82.2130 -8.33378 -2.95602
  203 78.6913 -0.534160 -0.578901
  204 76.7982 -0.688182 0.606594
  205 75.8300 8.84939 9.44400
  206 2.96116 2.20491 -0.387550
  207 3.07909 2.19628 0.439295
  208 76.5722 -3.14745 11.0351
  209 69.2251 5.22425 -10.6359
  210 50.2384 10.4192 -31.5633
  211 52.8285 8.77845 29.2856
  212 0.674884 1.62883 0.243091
  213 0.703019 1.62792 -0.230203
  214 76.2557 -2.79401 -11.3676
  215 135.322 19.1995 -1.14599
  216 63.4266 -7.00393 4.65629
  217 63.9397 -6.95802 -4.34985
  218 63.4081 -4.36363 -1.17795
  219 79.8348 -1.02548 1.70528
  220 37.0440 -2.45887 -2.93263
  221 36.4198 -2.44733 3.04965
  222 21.7941 0.514166 -5.48768
  223 21.8222 0.504750 5.43190
  224 81.4929 -8.85948 0.319063
  225 62.8522 -4.65454 0.912214
  226 79.5716 -0.985672 -1.39844
  227 61.0655 -1.27249 0.273965
  228 61.6354 -1.16234 -0.151497
  229 77.8300 -3.39414 6.63968
  230 5.30133 0.0996779 -1.91242
  231 5.32576 0.0966340 1.91046
  232 -1.06607 -0.744321 -2.70411
  233 -1.07113 -0.750303 2.70652
  234 9.87100 -0.466904 -1.00633
  235 9.88144 -0.468015 0.995060
  236 31.2820 -0.806010 0.643033
  237 31.2931 -0.824284 -0.650579
  238 36.9045 2.45684 -13.5013
  239 36.9079 2.03209 13.3402
  240 79.0421 -2.35399 -5.67574
  241 35.8826 -2.04730 -5.14963
  242 35.9096 -2.11182 5.05988
  243 68.0649 0.950642 11.9578
  244 58.3046 5.06663 0.717678
  245 67.4541 -6.67834 -1.23510
  246 0.198847 -1.94557 -2.63446
  247 0.176470 -1.96267 2.65405
  248 3.99723 3.34199 -3.96474
  249 4.27066 3.18515 4.21136
  250 66.2841 -6.52728 0.778399
  251 121.902 21.3407 0.574001
  252 5.63988 3.92714 -1.34814
  253 5.71245 3.92379 1.37013
  254 -2.82258 0.510592 1.96811
  255 -2.80990 0.513186 -1.95951
  256 122.773 19.7694 0.0382301
  257 41.0048 -1.81795 -0.914400
  258 40.9699 -1.78410 0.883513
  259 82.7645 -5.76672 10.6040
  260 152.571 24.7281 14.7525
  261 23.2064 -1.18105 -2.82524
  262 23.1964 -1.18938 2.81986
  263 83.3045 12.4251 -9.23923
  264 146.761 27.6888 -13.0786
  265 101.342 9.44779 9.74501
  266 111.915 5.08260 -19.0856
  267 67.6045 -2.97755 1.70264
  268 76.2472 0.196399 -13.6228
  269 72.9360 -5.03852 -4.15587
  270 81.8078 -1.33637 3.65553
  271 -0.804706 0.769413 -0.484504
  272 -0.776919 0.766768 0.493312
  273 81.1758 -3.39493 -18.8162
  274 7.75474 2.57986 -2.16652
  275 7.79332 2.57431 2.17990
  276 77.7823 -1.85921 -7.03899
  277 10.6455 9.87983 -13.4244
  278 6.98285 -0.0191330 -0.223105
  279 6.98439 -0.0169970 0.218357
  280 82.3877 -5.30965 -11.0082
  281 13.6750 6.13780 -6.88209
  282 13.8779 6.10021 6.90040
  283 2.49847 -0.107088 1.35531
  284 2.47353 -0.105517 -1.35755
  285 67.5184 -2.80329 -1.64900
  286 10.7122 9.76325 13.8210
  287 110.107 6.22543 22.6689
  288 27.8058 -1.02081 -0.834366
  289 27.7964 -1.01271 0.816336
  290 53.3189 -1.97464 -0.0302673
  291 53.2907 -2.16270 0.0844312
  292 45.4900 4.05891 -21.0387
  293 74.3707 -8.21791 -2.32641
  294 86.0554 -0.346627 0.777433
  295 43.7634 4.02815 20.3011
  296 50.9347 -1.13003 0.0159182
  297 50.9142 -1.12848 0.0309709
  298 73.0419 -5.26083 4.23878
  299 84.9741 -0.748097 -1.81592
  300 -1.63889 0.325552 -0.969084
  301 -1.60887 0.323165 0.972694
  302 105.245 21.1962 -1.43980
  303 93.1220 -4.75480 6.47350
  304 84.8596 -0.229799 -0.237117
  305 86.4573 -0.195326 0.214729
  306 83.7716 -7.79321 5.93828
  307 103.455 10.0857 -9.25250
  308 88.8361 16.6255 5.52025
  309 39.0755 -2.28282 -1.67654
  310 38.6965 -2.32771 1.72075
  311 85.9995 -0.324117 -0.568016
  312 54.9394 -4.27461 -9.90695
  313 53.8984 -4.13300 1.09592
  314 51.4027 -2.93523 11.4342
  315 84.1222 -0.861335 2.14002
  316 17.0909 -0.778887 -1.72610
  317 17.0986 -0.784929 1.71541
  318 77.1623 -3.18941 18.6076
  319 47.7824 -3.68116 -2.08449
  320 89.1729 11.2085 11.7182
  321 27.4776 1.95800 -8.46610
  322 26.4111 2.04381 8.38369
  323 6.01051 -0.152107 -0.407885
  324 6.01727 -0.150876 0.400289
  325 73.9613 -1.23166 1.13143
  326 70.8520 -0.716065 0.242103
  327 70.4320 -0.811616 -0.268621
  328 77.1131 -1.96108 7.43686
  329 4.71628 -0.218446 0.975443
  330 4.69666 -0.216193 -0.981958
  331 20.6060 -0.440473 -0.336634
  332 20.6031 -0.431157 0.331547
  333 0.650009 -4.00131 -1.67121
  334 0.601657 -4.02859 1.72874
  335 57.8758 2.46413 8.04117
  336 94.0696 -4.58702 -5.57482
  337 59.9059 -2.97354 0.842726
  338 68.3521 -1.09273 -0.712964
  339 69.5552 8.71566 -5.03050
  340 12.4194 -0.375475 -2.57302
  341 12.4331 -0.375503 2.56866
  342 58.1620 -2.78785 -0.518837
  343 15.3466 0.614302 -3.75284
  344 15.3741 0.600102 3.73672
  345 2.66387 2.55686 0.473649
  346 2.70160 2.55554 -0.458332
  347 71.3602 -7.84649 6.23019
  348 162.789 10.8232 4.13866
  349 61.5218 0.835069 -9.55342
  350 52.3529 -4.70912 5.74791
  351 52.0844 -4.62040 -5.94814
  352 77.7627 -1.46393 13.5484
  353 68.3212 -0.559224 9.52410
  354 70.3862 -7.58888 -6.46814
  355 40.7164 -0.846042 -0.0739464
  356 40.7111 -0.859398 0.0845762
  357 77.8791 -5.10257 8.65161
  358 106.539 21.4678 1.00583
  359 84.4317 -0.825637 -2.70712
  360 19.6608 -0.725826 -1.19607
  361 19.6651 -0.726160 1.17943
  362 79.1316 -7.86124 -7.91873
  363 82.1269 5.53184 -13.6148
  364 52.7246 2.85525 -5.13749
  365 78.3813 -5.29317 -9.79129
  366 -2.64140 0.0531105 -2.09456
  367 -2.64441 0.0501630 2.09728
  368 65.8723 -1.28786 0.569499
  369 -0.939051 -0.564361 -1.20044
  370 -0.938092 -0.564615 1.19820
  371 51.3425 23.3303 -38.6949
  372 1.74084 1.46430 1.71885
  373 1.79063 1.47674 -1.69269
  374 67.7372 -0.591683 -9.44180
  375 36.7610 -1.42917 0.679073
  376 36.7914 -1.45168 -0.691650
  377 -0.297805 -2.85503 2.37730
  378 -0.293536 -2.84979 -2.37459
  379 41.4019 24.5611 36.3245
  380 29.8969 -1.53709 -3.92718
  381 29.9170 -1.46494 3.92995
  382 9.32649 6.66556 -6.26556
  383 9.53144 6.64031 6.22196
  384 -4.30627 0.568841 0.922679
  385 -4.28913 0.569564 -0.913730
  386 79.0091 5.10335 13.5416
  387 60.7650 -6.35386 2.21980
  388 60.8296 -5.46756 0.366808
  389 74.3114 -8.55348 0.0789619
  390 17.5120 2.28475 -5.34958
  391 17.5695 2.27916 5.33776
  392 1.51103 -3.18272 -0.314253
  393 1.42185 -3.21876 0.441246
  394 73.5338 10.6049 3.35501
  395 76.1165 -1.97239 2.56488
  396 42.2729 -3.21759 3.49567
  397 25.5446 -0.589540 -4.80499
  398 25.5499 -0.593935 4.76027
  399 54.6214 -1.40479 0.134605
  400 54.5576 -1.19691 -0.181402
  401 41.9090 -3.31129 -3.76084
  402 32.4671 -0.513890 -6.68586
  403 32.4575 -0.560214 6.74251
  404 79.0645 -7.33754 -6.47533
  405 44.8308 -3.34348 1.98299
  406 72.0457 -1.96332 1.70028
  407 71.9386 -1.75915 -1.46951
  408 59.6619 -5.42274 -0.592204
  409 87.8032 -0.225562 -0.815742
  410 28.2609 10.9961 -21.1853
  411 81.4974 -1.09233 4.35536
  412 87.4155 -0.315082 1.15445
  413 29.2415 -1.50058 2.22093
  414 29.2596 -1.47887 -2.21893
  415 60.4843 -6.27616 -2.32895
  416 7.92494 3.69745 2.31734
  417 7.88101 3.69578 -2.32165
  418 164.579 10.8142 -8.51923
  419 70.3757 -3.84839 -2.61005
  420 88.6569 -0.148855 0.470792
  421 26.6088 10.1964 20.0970
  422 129.723 22.0057 3.70815
  423 76.1274 -0.906028 -0.919064
  424 55.8343 -3.91100 -0.395667
  425 22.5678 4.36946 -9.62688
  426 24.0965 4.05896 9.56916
  427 69.4630 -4.25528 2.66406
  428 72.9292 -0.958275 -7.07871
  429 -1.96047 -0.0534459 1.00444
  430 -1.99093 -0.0526552 -1.00447
  431 25.7017 6.09502 -13.1760
  432 25.7816 6.11951 13.1329
  433 2.33965 1.44588 -0.817683
  434 2.37045 1.44229 0.828657
  435 62.2138 -0.915299 0.248345
  436 62.1391 -0.883083 -0.225656
  437 77.6837 -3.47828 -6.92870
  438 -0.346442 -0.392741 3.01934
  439 -0.332811 -0.381209 -3.00901
  440 80.1654 -8.03227 5.83406
  441 76.0543 -1.81889 -2.29909
  442 123.107 23.6640 -2.79319
  443 2.68843 -0.204339 0.437912
  444 2.67325 -0.204403 -0.444612
  445 150.210 41.0409 17.2386
  446 2.75898 -0.417024 -3.60362
  447 7.85491 0.469394 -2.47091
  448 7.88147 0.462385 2.46862
  449 149.473 41.8694 -16.1781
  450 2.92356 -0.0876827 4.03682
  451 -4.31863 0.461758 0.412964
  452 -4.29684 0.460903 -0.404676
  453 7.58193 5.16483 -3.41166
  454 7.71975 5.16361 3.43196
  455 95.4378 14.6849 -9.99952
  456 76.9855 -2.87233 -4.63606
  457 88.1403 -0.182725 -0.429790
  458 80.2977 -1.18150 -5.06878
  459 -1.13474 0.473634 2.78417
  460 -1.12096 0.480904 -2.77465
  461 77.7525 -3.01956 5.31169
  462 49.5425 -2.61135 -0.607711
  463 49.3813 -2.64148 0.430402
  464 68.2159 -7.55046 -0.170177
  465 48.1198 -0.814122 -14.2171
  466 73.7564 -1.15211 7.25074
  467 60.6047 -1.70074 -0.378802
  468 90.2284 -7.18870 0.246914
  469 46.5701 0.236961 15.2970
  470 1.80741 -0.0461786 0.967734
  471 1.78255 -0.0448034 -0.971148
  472 97.7710 19.3983 -4.75532
  473 79.5569 -0.347425 0.111009
  474 79.2696 -0.424334 -0.187447
  475 58.8044 -3.76224 -0.267673
  476 24.1591 -0.757230 -0.633811
  477 24.1533 -0.746367 0.622497
  478 13.9294 -0.113022 -3.05752
  479 13.9431 -0.115788 3.04819
  480 46.8670 1.83377 3.05430
  481 10.7072 -0.368691 1.42880
  482 10.6942 -0.364829 -1.43878
  483 12.3127 1.28723 3.42929
  484 12.2718 1.30622 -3.42814
  485 76.2379 -5.87994 6.50402
  486 41.6789 -2.57846 -6.22391
  487 38.0662 -1.06868 0.290049
  488 38.0831 -1.10137 -0.291622
  489 42.1322 -2.66239 6.21865
  490 119.979 27.9833 -0.938667
  491 -1.92205 -0.304880 -1.58287
  492 -1.92133 -0.306353 1.58223
  493 28.2678 -0.690518 -0.251437
  494 28.2641 -0.677082 0.249722
  495 0.00925346 -5.33510 -2.06476
  496 -0.00311425 -5.35195 2.08183
  497 69.8305 -0.766586 0.449012
  498 46.5214 2.28259 -1.52584
  499 64.5908 6.83192 4.48148
  500 41.5066 -0.452158 -11.1510
  501 19.1413 -0.968028 2.18676
  502 19.1435 -0.959527 -2.19287
  503 -6.15743 0.184008 -0.257449
  504 -6.12810 0.182968 0.260976
  505 82.1001 -1.74103 -13.6030
  506 4.24730 0.0566908 -0.311541
  507 4.25147 0.0578054 0.306125
  508 68.3468 -5.27760 -2.37160
  509 72.9830 -6.16366 -4.12073
  510 14.2558 10.3755 -13.9277
  511 61.2269 1.21097 -22.9987
  512 0.384804 1.71429 1.58074
  513 0.412940 1.71742 -1.56552
  514 36.1953 -1.55226 -1.09055
  515 36.1734 -1.53541 1.05605
  516 106.777 3.54012 -4.22346
  517 75.9751 -4.39947 -5.87200
  518 13.8808 9.75129 13.7153
  519 75.3039 -8.67957 1.08286
  520 72.2771 -6.85027 3.42660
  521 13.4036 -0.315778 -0.926803
  522 13.4080 -0.314065 0.914492
  523 57.2082 0.569172 7.37921
  524 41.8919 -2.99224 -2.15942
  525 80.5940 -1.62226 3.38804
  526 -0.343698 -1.94897 -1.52935
  527 -0.344543 -1.94780 1.52746
  528 55.5431 -4.98273 7.01271
  529 85.7181 -6.80891 -7.66385
  530 113.195 6.57416 -2.18002
  531 59.8185 -1.77763 0.441268
  532 15.8473 -0.264857 -0.281738
  533 15.8460 -0.258065 0.278401
  534 37.1703 0.266636 10.7044
  535 107.073 17.2502 7.51560
  536 111.085 18.6353 -36.9480
  537 97.7150 -0.0499964 7.63763
  538 69.6303 -7.77149 -0.218854
  539 170.021 13.5114 11.3509
  540 123.400 28.9027 1.76505
  541 15.6724 -0.632807 2.40484
  542 15.6639 -0.625968 -2.41139
  543 66.8407 -5.43893 1.95607
  544 4.30501 2.31585 -0.657459
  545 4.34047 2.31376 0.670703
  546 84.6395 -7.24524 7.64127
  547 67.3342 3.54915 10.9880
  548 85.8181 -0.462235 1.86696
  549 62.4337 -3.56038 1.13316
  550 89.1679 -0.354677 -24.2371
  551 143.622 33.9614 22.8276
  552 68.2013 -1.05324 -0.425569
  553 84.0064 -0.769611 -2.92690
  554 12.3119 5.21977 -4.99808
  555 12.4029 5.15564 4.96966
  556 46.7550 -1.67783 -0.349387
  557 46.7312 -1.63099 0.363620
  558 0.482277 -7.16545 -0.274443
  559 85.1992 -3.28605 12.3198
  560 2.84210 2.67902 0.818721
  561 2.89220 2.68545 -0.796038
  562 0.573229 -6.96056 0.453076
  563 77.2228 -3.55424 -9.82305
  564 89.0584 5.29450 -13.2979
  565 88.6722 6.03209 13.2801
  566 3.94384 2.85763 2.45451
  567 3.73271 2.94652 -2.38532
  568 -3.67695 0.0938091 0.734050
  569 -3.70890 0.0946574 -0.732991
  570 82.8435 1.09073 25.0630
  571 43.8030 -2.27698 0.964590
  572 43.8507 -2.26849 -0.998910
  573 100.391 -2.82174 -12.0132
  574 10.6251 -0.135637 0.540459
  575 10.6227 -0.138707 -0.548638
  576 3.46843 -0.150324 -0.133508
  577 3.46857 -0.149290 0.131623
  578 109.283 19.1422 -6.45310
  579 9.98126 12.4868 -15.5603
  580 54.3735 1.03439 -6.23024
  581 78.9911 12.7209 -5.76693
  582 1.00916 -0.417615 2.10236
  583 1.05699 -0.401785 -2.07038
  584 83.9696 34.1757 43.8451
  585 69.1929 -1.66366 -1.08374
  586 1.47138 0.714929 -1.13733
  587 1.50119 0.709746 1.14355
  588 79.8590 -6.51998 8.77677
  589 11.8512 12.0409 15.8424
  590 57.0710 -0.918431 -0.0116670
  591 57.0855 -0.908164 0.0114065
  592 -0.0885345 -4.18748 2.08997
  593 -0.0823433 -4.18051 -2.08316
  594 97.4666 19.2612 -0.155913
  595 61.9863 -5.17607 10.3465
  596 59.0365 -2.28774 0.454856
  597 59.7224 2.13612 24.2986
  598 -5.09796 0.234983 1.28929
  599 -5.09272 0.236233 -1.28458
  600 98.9997 0.631275 -8.14973
  601 134.720 19.6782 -15.7723
  602 36.4374 3.54712 -15.7755
  603 18.6805 -0.747254 -2.96741
  604 18.6950 -0.746906 2.96616
  605 90.4985 -0.197833 0.571664
  606 58.4132 -2.34364 -0.535906
  607 79.7388 -0.851738 1.29510
  608 77.2357 -3.54359 9.60354
  609 1.13508 -0.118307 0.462139
  610 1.11492 -0.117758 -0.467193
  611 44.8347 -1.35678 -0.184329
  612 44.8268 -1.31167 0.169794
  613 27.4882 0.650488 -6.91513
  614 27.2996 0.658009 6.87763
  615 114.023 5.22939 4.83383
  616 190.188 14.3241 -20.9153
  617 -2.97503 -0.104306 0.655280
  618 -3.00705 -0.103914 -0.655681
  619 25.3661 -1.01232 1.19917
  620 25.3685 -1.01152 -1.22184
  621 105.523 4.81078 5.66389
  622 89.6671 -0.160755 -0.182079
  623 89.4531 -0.305843 0.0945497
  624 61.6155 -0.0743775 7.32846
  625 92.7960 -6.08819 -6.86811
  626 48.9059 -3.92869 2.60313
  627 -1.56259 1.06518 -1.40373
  628 -1.58358 1.06385 1.41558
  629 79.2122 1.42265 14.1307
  630 30.2461 -1.67578 -3.04892
  631 30.2105 -1.70557 3.05528
  632 64.7793 -3.55378 -1.37787
  633 81.0319 -1.60317 -3.07746
  634 44.8879 -3.52790 -4.30505
  635 73.7207 8.89174 -8.56862
  636 49.9794 -3.49718 -8.29477
  637 16.5628 -0.428388 -0.451136
  638 16.5617 -0.422163 0.442648
  639 45.3808 -3.59762 4.31352
  640 99.7757 15.7039 9.22646
  641 79.0009 -3.96422 12.0769
  642 64.6994 -2.64339 1.20872
  643 45.3487 -0.980046 0.203107
  644 45.3369 -0.983366 -0.193932
  645 33.4756 -1.11830 -0.815355
  646 33.4594 -1.10343 0.802415
  647 76.3504 -7.03940 -5.47216
  648 37.2939 -1.98903 1.45112
  649 37.3391 -1.98140 -1.49356
  650 74.8227 11.6861 -1.16231
  651 70.5170 -3.51857 2.60323
  652 89.8641 -0.316988 -0.855718
  653 74.1430 -1.47844 -12.3472
  654 9.14271 -0.425435 1.92419
  655 9.12553 -0.422227 -1.92767
  656 87.2589 -0.378059 -1.68508
  657 14.5487 7.39886 -9.60477
  658 14.8044 7.37629 9.65284
  659 88.7021 -6.00272 10.0967
  660 29.2918 7.12296 16.6071
  661 5.86513 -0.00485742 1.93188
  662 5.84337 -0.00325212 -1.93446
  663 75.0586 -5.29556 13.5838
  664 74.5044 8.97584 -33.5329
  665 70.4118 2.07787 -12.2283
  666 94.1145 16.9225 7.76106
  667 63.5205 -2.57998 -0.921524
  668 115.004 21.0528 -0.507868
  669 -6.21949 0.260115 -0.0879365
  670 -6.19435 0.259353 0.0931450
  671 50.2622 -0.0201941 -16.8284
  672 1.16492 -0.0656309 0.372611
  673 1.15279 -0.0658337 -0.377652
  674 63.5661 -5.56494 -10.2078
  675 20.0400 2.84091 -6.62333
  676 19.8691 2.84844 6.61749
  677 -0.286298 1.03342 -0.0709568
  678 -0.259056 1.03170 0.0821161
  679 53.4981 -4.53571 -1.72077
  680 76.3395 -0.744492 -4.78347
  681 35.1190 -0.940534 -0.311715
  682 35.1184 -0.927138 0.314929
  683 24.8616 -1.22350 -1.87818
  684 24.8785 -1.24182 1.86811
  685 4.51399 3.72243 -0.750000
  686 4.59542 3.72864 0.776012
  687 79.6831 -0.695221 0.727681
  688 33.6089 -2.05445 2.46701
  689 33.8429 -2.01498 -2.46302
  690 87.7974 -7.41886 -2.38936
  691 71.7630 -7.20494 -2.65347
  692 55.9098 -1.30218 0.214532
  693 55.7002 -1.19135 -0.182028
  694 79.4652 -8.69555 3.14829
  695 130.017 26.0438 5.75573
  696 69.6355 -3.57040 -17.1800
  697 79.8846 -2.13137 5.21146
  698 78.7299 -3.08390 -12.8729
  699 22.7915 -0.648162 -0.834742
  700 22.7874 -0.641901 0.819685
  701 61.6519 -1.49586 19.3940
  702 178.862 22.6112 20.7654
  703 10.9385 3.34363 -3.54529
  704 10.9532 3.36520 3.55739
  705 79.5058 -0.503104 -0.380012
  706 80.1701 -0.434048 0.384826
  707 32.8185 15.4421 -27.5541
  708 83.9438 -0.366397 2.89543
  709 72.5031 -0.951326 0.680524
  710 94.2982 18.8952 -2.95002
  711 8.65983 1.71626 -2.47786
  712 8.69897 1.70501 2.48741
  713 91.6062 -0.124684 0.127756
  714 72.6899 -2.57266 -2.46686
  715 90.8292 -1.79757 11.0920
  716 35.7860 -2.45239 -4.09604
  717 35.8767 -2.34042 4.04760
  718 6.54510 -0.258993 1.45813
  719 6.52612 -0.255427 -1.46401
  720 83.3037 -0.333647 -0.629301
  721 71.4790 12.4626 35.7410
  722 0.323970 0.279663 2.65523
  723 0.349774 0.294066 -2.63765
  724 83.2643 -0.696441 -1.50609
  725 80.6159 -1.26542 2.12523
  726 61.2886 -0.0154079 -7.86007
  727 0.539683 -7.85217 -1.20913
  728 0.500961 -7.92292 1.28036
  729 28.1550 7.31919 -16.5930
  730 63.3946 -6.49887 -7.07720
  731 32.4854 15.3312 27.8595
  732 90.2146 -0.103529 0.369798
  733 84.3636 12.5753 9.30425
  734 59.7872 5.48817 -3.11028
  735 111.979 22.6321 -0.892301
  736 88.6710 -0.266831 1.13236
  737 -6.27734 0.133215 0.504378
  738 -6.30934 0.133950 -0.502310
  739 93.8875 -5.97971 1.02044
  740 59.7265 -1.43365 0.261916
  741 20.5531 0.103344 -4.58581
  742 20.5775 0.0817987 4.55259
  743 80.8337 -0.709164 -0.969398
  744 143.702 20.4395 -6.91890
  745 7.42774 -0.242725 -0.860884
  746 7.44236 -0.244277 0.851937
  747 90.8379 -0.138963 -0.548155
  748 15.7945 -0.709576 -1.21013
  749 15.8014 -0.712116 1.19701
  750 87.3211 -3.81444 -11.2964
  751 80.4322 -0.799918 3.91595
  752 70.9627 -0.589744 12.1358
  753 91.1726 -0.145638 -0.0523668
  754 84.3839 -0.433783 1.17858
  755 53.6759 -2.68085 0.0352164
  756 68.2802 -1.50577 0.882102
  757 77.4816 -4.76708 -8.39100
  758 75.6791 -4.67293 5.71210
  759 88.1630 10.4050 -11.8040
  760 74.6897 -4.04900 4.37562
  761 78.6421 -4.73894 10.5671
  762 44.6143 -2.88123 1.41436
  763 1.47723 -1.13760 -0.647260
  764 1.39088 -1.14123 0.728487
  765 69.2941 -0.724783 0.0590463
  766 69.1420 -0.716855 -0.0856803
  767 84.2308 -0.157110 -0.0817345
  768 84.5422 -0.138191 0.102847
  769 78.9056 -2.15132 6.27646
  770 72.9352 -7.01903 9.53167
  771 59.2661 -4.68228 0.0865805
  772 52.3291 -2.92570 0.367974
  773 146.837 18.9284 8.22617
  774 80.1578 -1.89118 -4.19792
  775 46.2548 7.49617 -25.9679
  776 74.2479 -3.49740 -3.82828
  777 1.66029 0.0848719 -1.31856
  778 1.68870 0.0821691 1.31953
  779 64.1472 5.63246 -6.98567
  780 174.483 5.32514 -2.31876
  781 83.0259 1.86815 -13.9621
  782 3.12546 -0.462375 -5.69942
  783 84.6209 15.4087 2.40567
  784 66.7946 -4.06651 1.81735
  785 74.5233 -1.97142 12.0040
  786 63.0488 -6.78230 7.11947
  787 103.255 -1.92797 15.2049
  788 3.36963 0.314240 6.13223
  789 45.0123 -0.392767 12.9055
  790 63.8942 -1.34901 -0.494431
  791 71.4289 -6.71543 -9.66063
  792 42.7215 -3.24575 -2.83728
  793 33.6002 1.55572 -11.1371
  794 82.4622 -1.52821 13.6950
  795 52.2424 -3.40674 0.879628
  796 7.97930 -0.255584 0.803226
  797 7.97013 -0.256021 -0.813079
  798 76.5825 -0.397259 4.24714
  799 68.4690 0.235384 -11.7340
  800 -6.34314 0.267585 0.845403
  801 -6.33388 0.268014 -0.840358
  802 50.7843 -1.34130 0.0949327
  803 50.6261 -1.25165 -0.110203
  804 37.4205 3.99785 16.0287
  805 32.7067 -1.82402 1.78134
  806 32.7592 -1.77570 -1.80678
  807 90.8491 -0.0720470 -0.325655
  808 30.1168 2.35518 10.8200
  809 -1.08378 -0.0260759 0.512349
  810 -1.11042 -0.0254052 -0.515461
  811 75.6270 -2.37279 9.35935
  812 82.5377 -0.481400 0.516620
  813 -4.39993 0.0349148 1.24163
  814 -4.40013 0.0362348 -1.23923
  815 49.3148 -3.17964 9.42072
  816 9.07001 7.19683 -7.94798
  817 9.18592 6.81951 7.81352
  818 44.0704 2.00605 1.26969
  819 -2.65955 -0.0319477 -0.594417
  820 -2.62808 -0.0324144 0.593247
  821 57.0188 -5.49564 -6.64308
  822 78.7604 -8.40405 -3.81592
  823 -0.383530 -0.365470 -0.476945
  824 -0.382473 -0.364685 0.475259
  825 1.58969 0.147769 -0.109088
  826 1.59148 0.148573 0.106218
  827 69.7512 -6.13938 2.68378
  828 58.2861 -6.00581 4.34680
  829 65.1386 -0.788742 0.362182
  830 58.1154 -4.56065 -0.321552
  831 19.4798 -0.258475 -0.0686648
  832 19.4778 -0.249502 0.0665274
  833 -7.26224 0.151108 0.537500
  834 -7.24764 0.150887 -0.532619
  835 74.1779 -0.673828 -0.508462
  836 63.1731 2.39953 -9.92071
  837 74.9226 -1.22592 -1.35967
  838 42.8078 -3.17854 2.67667
  839 72.7782 -1.32746 -9.78636
  840 78.8241 -2.34167 -6.48960
  841 74.5015 -0.537477 0.462079
  842 53.3425 -2.23128 13.2614
  843 57.0109 -5.52247 -2.10367
  844 33.6245 -0.243492 -8.36520
  845 33.8165 -0.00901525 8.40885
  846 48.1833 -3.47915 -1.53647
  847 80.5708 8.58485 11.9210
  848 77.6413 -8.36941 -4.72567
  849 26.0794 -0.743634 -0.392159
  850 26.0733 -0.729939 0.385888
  851 58.7283 -1.04110 -0.135127
  852 58.7287 -1.05246 0.152139
  853 69.1392 -0.557280 -6.36267
  854 21.9925 -0.891260 -1.50761
  855 22.0012 -0.898411 1.49003
  856 0.258696 -7.66815 -1.60561
  857 0.243598 -7.70011 1.63547
  858 9.63017 -0.138980 -0.0965953
  859 9.63026 -0.142756 0.0940386
  860 73.5343 -0.872117 -0.718917
  861 54.7806 -5.20832 3.87859
  862 86.6505 -7.75431 4.12815
  863 47.4728 1.01335 4.87002
  864 75.1662 -1.52276 1.53978
  865 81.7513 -7.50863 -7.14072
  866 10.5221 0.772168 -2.94915
  867 10.5531 0.759808 2.94522
  868 64.7925 -0.868883 -0.333854
  869 51.4296 -1.54668 -0.0643794
  870 51.2387 -1.52955 0.109906
  871 79.2522 12.4048 6.48815
  872 26.7861 -0.209585 -5.63668
  873 26.7546 -0.242093 5.60571
  874 55.2993 -4.91330 1.53951
  875 4.77623 3.29888 -0.609844
  876 4.82719 3.29119 0.623178
  877 46.4692 -3.33349 7.51792
  878 56.1424 -3.40101 0.0807903
  879 69.5947 -0.576139 6.43066
  880 69.5885 -7.92233 1.60473
  881 79.9471 -6.19623 -9.38434
  882 54.6476 -5.25183 -3.94858
  883 44.9568 -2.86682 -1.33995
  884 154.114 12.8117 -2.31675
  885 73.0027 -7.77840 2.24409
  886 1.64386 2.19971 1.31867
  887 1.68052 2.20327 -1.30011
  888 63.0821 -6.27520 0.356943
  889 69.5048 -7.96199 -3.58874
  890 1.64259 1.98821 0.543109
  891 1.67427 1.98812 -0.529246
  892 24.8410 -0.825097 4.16469
  893 24.8621 -0.853747 -4.19591
  894 30.4756 -1.48966 4.59002
  895 30.4688 -1.52864 -4.62987
  896 100.076 20.1474 3.91541
  897 -0.162592 -3.10324 -1.49757
  898 -0.163680 -3.10012 1.49681
  899 21.9358 1.93290 -6.28476
  900 21.8189 1.89200 6.21182
  901 180.772 5.88281 -9.24681
  902 0.763607 -0.00504308 0.196861
  903 0.756255 -0.00564055 -0.200803
  904 0.262571 -9.18108 0.790689
  905 0.311478 -9.04180 -0.672638
  906 -3.32343 -0.0530907 1.24658
  907 -3.32654 -0.0521047 -1.24605
  908 17.4855 5.19266 -7.46552
  909 17.7603 5.02184 7.34605
  910 -1.58336 -0.00792232 -2.69828
  911 -1.59055 -0.0133896 2.70294
  912 4.10022 0.501965 -1.84314
  913 4.12965 0.495823 1.84490
  914 18.7592 -0.150901 3.80731
  915 18.7497 -0.150235 -3.83229
  916 14.9202 -0.478085 -3.04661
  917 14.9326 -0.476697 3.03896
  918 87.4766 -0.258614 -1.63031
  919 41.4772 8.35107 24.0222
  920 57.6033 -5.63317 1.90643
  921 40.1439 -2.77282 2.06451
  922 78.6482 7.97991 -11.7151
  923 177.715 3.87306 3.65156
  924 94.9227 3.79886 -11.8039
  925 13.8216 -0.528509 1.85533
  926 13.8105 -0.521971 -1.86519
  927 1.20390 -0.0672950 -1.37428
  928 1.23084 -0.0681563 1.37321
  929 -0.153004 -1.65309 -2.97501
  930 -0.165239 -1.66485 2.98454
  931 41.5122 -1.65108 0.777463
  932 41.5368 -1.68894 -0.784580
  933 4.15896 1.38116 -1.52539
  934 4.19136 1.37464 1.53451
  935 24.5773 -1.04035 -3.47725
  936 24.5909 -1.03962 3.47275
  937 53.6463 -0.323422 -5.75416
  938 25.2833 -1.32718 -2.30875
  939 25.2599 -1.31017 2.31694
  940 65.2171 -1.52731 -0.615152
  941 78.8407 -4.62896 -11.2878
  942 32.9944 -1.21283 0.915733
  943 33.0142 -1.22655 -0.934445
  944 -1.40165 -0.158510 -0.853566
  945 -1.39812 -0.158884 0.851917
  946 81.0334 -6.76493 -12.0330
  947 77.0897 -4.47320 7.38546
  948 67.4288 -4.55160 -2.18751
  949 64.0909 2.09180 10.4699
  950 28.4887 -1.53654 -2.62029
  951 28.4837 -1.50360 2.62965
  952 72.4530 2.63165 12.7857
  953 66.9285 5.80817 8.39628
  954 142.940 17.4025 2.91292
  955 72.1114 -2.33887 1.92503
  956 36.4227 -0.909833 -0.400861
  957 36.4156 -0.886579 0.405866
  958 64.0750 -5.12250 -1.09404
  959 88.2479 16.2850 -5.76177
  960 79.7022 -0.595851 -0.727784
  961 50.9207 -0.961563 0.124005
  962 50.8988 -0.952083 -0.108530
  963 6.03877 4.94048 -3.06832
  964 6.20118 4.92625 3.09615
  965 12.4060 27.1072 -26.8823
  966 72.9783 -1.79687 9.74700
  967 92.4447 -2.21818 -10.0844
  968 -2.11636 0.860596 0.793971
  969 -2.09359 0.860161 -0.782968
  970 194.896 44.5795 -36.0723
  971 78.9256 -8.74696 2.09124
  972 84.4848 -8.17032 -2.11860
  973 77.5362 -6.67968 6.94772
  974 95.1066 18.9300 2.58148
  975 6.46353 5.89311 -7.34629
  976 17.3774 23.0413 26.0808
  977 -0.556990 -1.20700 2.92318
  978 -0.549384 -1.19837 -2.91817
  979 75.8460 -1.68689 1.87303
  980 121.842 21.8312 -2.10758
  981 6.66080 5.72632 7.68213
  982 -0.341365 -1.09439 -0.949037
  983 -0.341482 -1.09160 0.946786
  984 64.5903 -1.18680 0.350824
  985 47.3325 -3.68214 -2.93664
  986 78.1148 -6.22048 -8.05024
  987 21.2002 5.67961 -10.1180
  988 21.5476 5.77687 10.1452
  989 75.3121 -1.88738 -8.76652
  990 76.7797 -2.22232 3.19395
  991 -2.23372 0.443652 2.42939
  992 -2.22370 0.448409 -2.42218
  993 45.1834 -2.98743 -7.02232
  994 75.3972 4.66499 -12.9266
  995 56.3193 -1.83112 -0.193316
  996 39.6023 -0.926006 0.0271954
  997 39.5958 -0.934420 -0.0224217
  998 -0.896044 -1.01318 -2.02185
  999 -0.897372 -1.01533 2.02057
  1000 77.8124 -2.58965 -3.83334
  1001 74.3677 -0.515611 0.150308
  1002 74.2975 -0.516057 -0.117824
  1003 102.253 16.2222 -8.73809
  1004 17.1865 1.59412 -4.83547
  1005 17.2281 1.56227 4.82058
  1006 10.2243 -0.0532454 -2.48874
  1007 10.2421 -0.0554247 2.48338
  1008 83.5123 4.19869 14.1225
  1009 80.1374 -1.28093 -2.23006
  1010 12.9253 2.17116 -3.81863
  1011 12.9772 2.15410 3.83299
  1012 84.2725 -0.221555 -0.422941
  1013 77.5552 -3.22384 -5.62573
  1014 75.7086 -8.74153 -2.10610
  1015 2.54845 1.96475 -0.618983
  1016 2.46980 1.95562 0.654021
  1017 -3.96632 0.564168 1.53111
  1018 -3.95347 0.565575 -1.52278
  1019 42.3831 1.67545 -2.12396
  1020 132.629 31.9620 -7.16207
  1021 59.2016 -4.13957 0.397998
  1022 38.4247 -1.66862 -7.26596
  1023 96.8961 -4.50049 2.37190
  1024 38.5780 -1.67056 7.37573
  1025 68.5158 -8.11313 4.38309
  1026 77.7535 -3.18844 -8.14804
  1027 24.8176 -0.481274 -0.126277
  1028 24.8153 -0.469747 0.124937
  1029 52.3666 -3.95599 -1.18392
  1030 31.3442 -1.11863 -5.52367
  1031 31.3267 -1.12703 5.48811
  1032 10.0724 6.51212 -5.90706
  1033 10.2389 6.48750 5.92388
  1034 20.4645 -0.606862 -0.462762
  1035 20.4613 -0.597607 0.453825
  1036 69.3560 -1.91328 1.20281
  1037 58.1295 -0.112345 -19.6777
  1038 71.9807 -2.07559 -1.89125
  1039 64.5051 -7.16536 -2.26744
  1040 41.3895 -1.56019 0.482321
  1041 41.4277 -1.57420 -0.485753
  1042 85.4357 -0.316663 0.531807
  1043 75.5745 -1.52921 -1.76167
  1044 45.0980 1.08279 3.99754
  1045 80.5359 -0.775311 -3.63621
  1046 30.3128 8.52296 18.9378
  1047 83.2986 -0.720704 -3.01772
  1048 20.5867 3.52164 -7.45416
  1049 19.9335 3.56496 7.11814
  1050 100.221 -2.47847 -2.91233
  1051 8.17627 4.41272 -2.78780
  1052 8.25513 4.37898 2.78474
  1053 1.31512 -0.657124 1.35602
  1054 1.39007 -0.644939 -1.30686
  1055 10.5991 -0.290637 0.583668
  1056 10.5940 -0.293036 -0.593979
  1057 34.6676 8.64430 -21.1401
  1058 201.941 50.0166 38.7856
  1059 77.5146 -2.59198 3.93323
  1060 69.1379 -7.84130 -1.34619
  1061 47.2440 -3.86645 -5.23975
  1062 -1.30592 0.954073 2.23706
  1063 -1.28808 0.959264 -2.22526
  1064 53.6180 -2.52791 -0.0985953
  1065 59.5225 -1.92430 -0.461154
  1066 -0.0405447 -4.41336 1.45915
  1067 -0.0390417 -4.41679 -1.45850
  1068 8.28551 5.22453 -3.41915
  1069 8.38914 5.21234 3.44144
  1070 52.8591 -2.29697 0.105984
  1071 3.39619 1.89634 0.760410
  1072 3.36354 1.89953 -0.748055
  1073 81.7803 -3.42019 13.0536
  1074 58.7551 -6.11370 -4.32450
  1075 47.5345 -3.92982 5.23825
  1076 77.4146 -1.73257 -13.5340
  1077 83.3518 -0.696410 1.62533
  1078 28.8187 4.37533 12.4341
  1079 29.0302 4.19073 -12.2171
  1080 47.2739 -2.36796 -10.3884
  1081 68.1046 -2.16111 -1.26382
  1082 54.6562 -3.08752 0.224529
  1083 64.5182 -5.94421 0.705410
  1084 90.5725 -0.235037 -0.901610
  1085 47.0350 -1.95055 0.368873
  1086 47.0140 -2.07816 -0.398999
  1087 1.29308 1.59578 2.03173
  1088 1.33158 1.60806 -2.01013
  1089 77.8174 2.68616 -13.9266
  1090 16.4005 0.931804 -4.22641
  1091 16.4434 0.912025 4.21044
  1092 11.9043 0.314280 -2.93905
  1093 11.9289 0.307074 2.93058
  1094 90.8016 -4.55977 15.3614
  1095 77.6974 -3.54554 8.07049
  1096 36.9193 -1.65519 -6.06180
  1097 92.3822 -0.294703 -0.543469
  1098 101.411 18.9711 -6.69859
  1099 83.2981 -0.577056 -1.08263
  1100 77.1561 -8.42046 3.73747
  1101 56.4535 -4.41833 8.97446
  1102 93.2378 -0.0255572 0.138951
  1103 45.0004 1.43836 -3.39484
  1104 64.9811 -6.94094 -0.533862
  1105 36.9747 -1.73345 5.98216
  1106 65.6173 -5.89232 -1.08999
  1107 82.9157 -1.02189 2.84898
  1108 56.3959 3.58491 5.34054
  1109 39.7989 -2.87273 -4.69353
  1110 127.047 16.0525 -5.16735
  1111 93.6808 3.76937 12.2638
  1112 67.6683 8.56617 1.32743
  1113 91.8510 0.0949881 0.511419
  1114 34.2284 -2.06539 -3.47870
  1115 23.4773 13.8562 -21.1007
  1116 42.5143 0.985044 -15.1047
  1117 48.7995 -3.62663 1.90557
  1118 40.8964 -3.00690 4.33805
  1119 34.1348 -1.95655 3.52218
  1120 73.7753 0.492638 13.4490
  1121 55.9102 -1.67561 0.254624
  1122 90.2141 -0.594975 1.16772
  1123 -0.846750 -0.184447 2.96311
  1124 -0.836317 -0.176014 -2.95603
  1125 58.7477 -1.38272 -0.301440
  1126 -0.285338 0.482835 2.79993
  1127 -0.266650 0.493646 -2.78685
  1128 31.6279 -0.865730 0.585369
  1129 31.6337 -0.883121 -0.586522
  1130 84.0908 -0.407779 2.50817
  1131 67.0517 -3.91598 -1.88740
  1132 62.6359 -3.12163 -0.983764
  1133 70.3381 -4.79282 3.19963
  1134 20.6523 9.94449 -15.4927
  1135 69.0751 -2.35501 1.53222
  1136 8.93438 0.242254 -2.38072
  1137 8.95746 0.237267 2.37662
  1138 13.6253 8.58548 -10.6177
  1139 111.686 13.5652 5.45328
  1140 6.12692 -0.324445 1.35800
  1141 6.10640 -0.321583 -1.36191
  1142 13.8741 8.43137 10.2142
  1143 62.8220 -5.13854 0.837638
  1144 30.4486 -1.32132 1.18207
  1145 30.4576 -1.32911 -1.20981
  1146 130.430 27.3847 -6.15875
  1147 69.4886 -6.94723 1.46608
  1148 23.0710 12.8935 21.0425
  1149 1.83582 -1.55273 -1.21776
  1150 1.98970 -1.52925 1.40264
  1151 71.6914 9.02470 6.79705
  1152 4.79608 2.82871 -0.704221
  1153 4.83812 2.82867 0.715317
  1154 69.9750 -6.00836 -2.78824
  1155 -0.0352204 -6.88659 -1.39545
  1156 -0.0384263 -6.88886 1.40173
  1157 74.9484 -6.30159 -5.11991
  1158 -3.11662 0.101187 0.462629
  1159 -3.14776 0.101751 -0.464300
  1160 10.6073 4.08380 -3.78323
  1161 10.6654 4.10070 3.74024
  1162 -5.26644 0.0143492 -0.568063
  1163 -5.23208 0.0140486 0.568268
  1164 75.5723 -0.530040 -0.229617
  1165 -7.96107 0.218801 0.228802
  1166 -7.94140 0.218632 -0.224379
  1167 38.3861 -2.94893 -3.30926
  1168 0.987186 -11.1713 -0.580832
  1169 17.9194 -0.471958 0.937266
  1170 17.9173 -0.474312 -0.951854
  1171 63.5030 -0.895858 0.0356446
  1172 63.6270 -0.862922 -0.0226850
  1173 1.05795 -10.7210 0.804167
  1174 75.5542 -3.80670 -4.87018
  1175 87.0632 -0.330538 1.89779
  1176 76.6547 -4.86033 -6.88378
  1177 65.2586 0.429278 10.3942
  1178 0.283365 -3.10093 2.33698
  1179 0.315793 -3.08123 -2.30320
  1180 48.0744 -3.35562 1.40918
  1181 -3.50857 0.273862 1.92434
  1182 -3.50229 0.276260 -1.91904
  1183 128.473 20.7169 1.18660
  1184 153.956 44.3023 -31.1586
  1185 78.4464 -7.71077 6.23355
  1186 30.7413 -0.773346 -0.0500458
  1187 30.7402 -0.761119 0.0500524
  1188 165.207 16.0217 -14.5387
  1189 9.62955 -0.255499 1.41346
  1190 9.61400 -0.251063 -1.42138
  1191 72.2348 -0.237739 -4.18372
  1192 46.0561 -3.66249 3.77419
  1193 77.6185 -7.68771 -4.83003
  1194 75.0285 -5.39664 -5.59500
  1195 44.9485 -1.66394 10.9274
  1196 15.9299 3.06833 -5.49039
  1197 15.9173 3.04055 5.45343
  1198 21.4464 7.83020 -13.0664
  1199 21.4677 7.22875 13.0641
  1200 5.47663 1.82640 -1.59614
  1201 5.51191 1.82039 1.60749
  1202 91.9706 15.8405 -8.49031
  1203 4.33869 3.87840 -1.22738
  1204 4.44793 3.88120 1.25884
  1205 66.5134 -4.94911 1.79751
  1206 127.774 16.6000 5.99632
  1207 13.9085 -0.596405 -0.922351
  1208 13.9148 -0.595940 0.909316
  1209 84.4959 52.3090 -48.2893
  1210 60.2337 3.54307 -8.27685
  1211 54.6920 4.27956 3.35644
  1212 7.13968 3.21993 -1.90351
  1213 7.17488 3.21893 1.91594
  1214 -0.711184 -0.00730031 0.341740
  1215 -0.728900 -0.00728132 -0.345610
  1216 73.9152 -5.88111 4.79589
  1217 72.8601 -2.70206 2.67136
  1218 49.5540 12.8222 -33.8564
  1219 115.173 24.9962 0.152073
  1220 48.5587 -1.59187 -12.1249
  1221 63.6735 -1.67385 0.573492
  1222 0.623845 -0.326083 -0.0919186
  1223 0.622083 -0.325916 0.0913426
  1224 -2.55554 0.496139 -0.637002
  1225 -2.52706 0.493944 0.643151
  1226 41.9843 0.350317 -12.7727
  1227 79.4725 -1.54077 2.79142
  1228 50.7490 0.646038 17.8131
  1229 69.4796 -3.22709 -2.23214
  1230 35.2371 11.9155 -26.3027
  1231 55.2574 -2.89302 -13.1611
  1232 66.1357 -7.06007 0.153429
  1233 81.7217 -1.18105 4.13319
  1234 71.6321 -1.20639 -0.923763
  1235 38.2089 -2.75669 3.33291
  1236 90.0114 -5.43772 -8.07960
  1237 84.3142 7.08071 13.4132
  1238 35.9680 0.149432 -9.91523
  1239 86.0641 -0.336383 0.394220
  1240 65.8360 8.29772 -1.88902
  1241 27.8059 -0.878275 -0.922678
  1242 27.7964 -0.866864 0.908465
  1243 132.062 28.4055 4.86180
  1244 184.487 4.92365 8.66976
  1245 0.144933 -8.44763 -1.39584
  1246 0.139895 -8.45833 1.40628
  1247 18.3113 9.32379 14.3964
  1248 44.6580 -1.08018 -0.0655748
  1249 44.6673 -1.07141 0.0833377
  1250 62.2391 -6.21744 -0.722832
  1251 73.3918 5.90996 11.6822
  1252 78.9320 -1.31981 -1.89530
  1253 93.2112 -0.164728 -0.0520516
  1254 161.513 35.3260 -21.7680
  1255 22.7110 -0.811876 0.903423
  1256 22.7131 -0.814377 -0.920989
  1257 75.0195 -6.96647 4.97081
  1258 134.351 30.6009 -7.55583
  1259 72.8705 -2.97347 -2.97865
  1260 52.3542 -3.48681 -0.732198
  1261 64.9445 -7.09645 2.17990
  1262 63.5236 -2.95246 1.11927
  1263 2.13790 -0.810194 -2.23119
  1264 87.6640 -5.62227 9.31169
  1265 70.6462 -4.47000 -3.11000
  1266 2.36877 -0.689756 2.54592
  1267 72.8290 -6.20818 -12.2223
  1268 69.0466 3.50498 -27.6782
  1269 114.665 13.4360 -4.43779
  1270 93.6283 0.0240875 -0.0367191
  1271 93.4377 -0.0640076 0.0931148
  1272 71.9327 -4.03289 3.26991
  1273 26.6456 3.17918 -9.71455
  1274 82.1104 -7.48276 7.63715
  1275 141.544 31.9092 13.5674
  1276 33.6451 10.9736 25.5785
  1277 0.769495 -0.221249 2.45502
  1278 0.805100 -0.205048 -2.43058
  1279 86.7880 -7.45047 -5.90752
  1280 33.1744 -1.70791 -1.43666
  1281 33.1646 -1.71187 1.39978
  1282 80.1031 -5.39356 10.9398
  1283 1.47397 0.0451163 1.52324
  1284 1.44674 0.0466760 -1.52377
  1285 -0.483785 -1.73528 2.35161
  1286 -0.480792 -1.73162 -2.35162
  1287 12.2872 -0.426545 -1.28960
  1288 12.2976 -0.429259 1.27814
  1289 41.0842 -2.70559 -5.41723
  1290 41.2129 -1.16507 0.154943
  1291 41.2130 -1.19707 -0.138550
  1292 93.1557 0.0235047 -0.0402859
  1293 81.1228 -1.15467 -4.62376
  1294 5.25441 0.341678 -1.85228
  1295 5.28108 0.337209 1.85150
  1296 41.2504 -2.86881 5.36000
  1297 94.2269 -0.0345115 0.0123968
  1298 88.6085 0.0877192 -0.0947625
  1299 88.6171 0.0356809 0.0697543
  1300 115.768 23.5017 3.27018
  1301 85.9480 -0.387542 -0.860369
  1302 75.8205 -0.482877 0.201591
  1303 84.0717 -1.11588 -2.52240
  1304 92.5135 -0.213946 0.393125
  1305 94.4477 9.29865 12.1672
  1306 109.801 22.2933 4.43764
  1307 89.1655 -0.282423 -1.27954
  1308 -0.695829 -0.187233 0.631337
  1309 -0.698490 -0.187077 -0.633138
  1310 47.8769 -2.84906 0.829080
  1311 47.8660 -2.71265 -0.790868
  1312 95.3253 10.3561 -11.6829
  1313 18.9182 6.46338 -10.6407
  1314 19.0399 6.27746 10.5114
  1315 62.3781 -0.0160341 -5.19345
  1316 66.1302 -0.739972 0.0577597
  1317 66.0494 -0.730832 -0.0711386
  1318 -1.66242 -0.318581 2.40609
  1319 -1.65940 -0.314494 -2.40492
  1320 72.4765 -0.182618 4.17918
  1321 111.875 22.3194 0.699356
  1322 5.74115 -0.280956 -0.815984
  1323 5.75479 -0.281637 0.807191
  1324 82.7919 -8.16621 4.75630
  1325 -0.178939 1.20135 2.33815
  1326 -0.155727 1.20870 -2.32344
  1327 13.0036 -0.284391 -0.234138
  1328 13.0036 -0.278741 0.228370
  1329 62.4021 -0.124916 5.26925
  1330 -0.0254871 0.152572 -0.114429
  1331 -0.0215307 0.153156 0.111551
  1332 85.0008 -0.822068 1.69892
  1333 117.390 21.7051 0.644507
</Section>

newXOutput 12

<Section columns = "stress_xx | stress_yy | stress_xy">
  1 105.313 -0.196761 0.188325
  2 105.503 -0.282888 -0.244882
  3 -1.18434 0.106407 -0.284000
  4 -0.0642341 -0.103479 -0.0599453
  5 199.510 72.2315 62.6703
  6 202.598 83.0981 -63.3956
  7 -0.0634736 -0.102822 0.0589587
  8 -1.18196 0.105828 0.283285
  9 106.088 -0.133894 -0.174332
  10 105.196 -0.303502 -0.240764
  11 105.208 -0.223242 0.273162
  12 104.563 -0.0703549 0.158453
  13 104.254 -0.282787 -0.00857716
  14 103.922 -0.264647 0.499685
  15 102.122 -0.158035 0.518169
  16 102.386 -0.714030 0.719969
  17 98.7560 -0.571694 1.47535
  18 96.3630 -0.208389 1.76281
  19 93.1387 -0.290020 1.88118
  20 87.6664 -0.253977 2.56582
  21 81.8094 -0.234693 2.94491
  22 74.6169 0.352789 3.98221
  23 64.8720 0.540568 3.57713
  24 61.0445 -0.0796295 5.08663
  25 49.0826 0.715485 3.59370
  26 41.9240 0.970612 2.79588
  27 40.0696 0.401121 2.05433
  28 38.0741 1.40361 0.143611
  29 39.1569 1.54202 -2.74350
  30 41.3751 0.414137 -3.45109
  31 50.1852 0.130773 -4.63770
  32 59.1770 -0.473431 -4.87195
  33 65.2243 0.446260 -3.57562
  34 74.7303 0.404802 -3.98799
  35 81.5769 -0.282940 -3.15053
  36 88.2913 -0.310904 -2.42919
  37 92.7143 -0.194997 -1.90745
  38 96.0546 -0.216891 -1.63155
  39 99.5939 -0.320404 -0.966117
  40 101.084 -0.290997 -0.938064
  41 102.512 -0.280202 -0.815037
  42 103.989 -0.329314 -0.210806
  43 104.594 -0.435758 -0.358401
  44 104.047 0.121356 -0.0734855
  45 105.094 -0.192146 -0.301440
  46 105.666 -0.478265 0.262233
  47 106.238 -0.258092 -0.0193990
  48 100.429 0.214179 -0.157568
  49 93.9694 -0.160038 -0.305474
  50 86.7472 -0.598618 -0.469225
  51 79.3493 -0.393761 -0.345747
  52 72.9671 -0.851231 -0.320061
  53 66.2852 -0.956954 -0.299660
  54 59.5938 -0.808619 -0.171892
  55 52.6082 -0.915366 -0.222322
  56 46.7307 -1.04800 -0.281310
  57 38.9560 -1.03942 -0.240283
  58 30.9819 -0.616460 -0.153864
  59 24.4062 -0.382591 -0.127991
  60 16.3056 -0.239993 -0.0751868
  61 10.4155 -0.273586 -0.424153
  62 4.93199 -0.429918 -0.152339
  63 -0.588412 0.0543924 0.231856
  64 -1.97350 0.392996 0.0666597
  65 -2.32050 0.163386 0.227139
  66 -2.01983 0.0760225 0.210571
  67 -3.01721 0.228549 0.0540181
  68 -3.34132 0.294509 0.459391
  69 -3.33611 0.101455 0.113843
  70 -5.05471 0.212537 0.132664
  71 -5.79094 0.154294 0.428783
  72 -5.94294 0.0592679 0.442109
  73 -7.75382 0.204867 0.314782
  74 -8.35511 0.299660 0.668129
  75 -8.95593 0.182096 0.177224
  76 -9.77757 0.129985 0.319310
  77 -9.95887 0.141343 0.0763956
  78 -10.6863 0.323715 -0.298136
  79 -10.6510 0.222157 -0.227523
  80 -9.59107 0.173616 -0.377669
  81 -8.16725 0.215227 -0.667208
  82 -6.55908 0.0871999 -0.964600
  83 -4.83234 0.0447065 -0.986948
  84 -2.88096 -0.108844 -1.02463
  85 -1.22397 -0.0843545 -0.587128
  86 -0.504704 -0.211456 -0.361598
  87 -0.0905094 -0.514993 -0.308184
  88 -0.157816 -1.31577 -0.563442
  89 -0.177064 -2.64075 -1.00683
  90 -0.0451818 -4.97888 -1.10462
  91 0.0513678 -6.95538 -1.40427
  92 0.132056 -10.0400 -1.15373
  93 0.404865 -12.0003 -1.37533
  94 0.0539652 -13.1196 -1.18663
  95 -0.0313866 -15.2329 -0.796474
  96 0.409730 -15.1657 -0.384784
  97 1.62200 -19.8170 0.499669
  98 1.35508 -11.9259 2.05667
  99 3.32294 -7.26115 4.88195
  100 10.3035 12.1935 16.7083
  101 46.2212 51.9841 50.5505
  102 261.717 26.8896 39.1723
  103 216.277 7.59404 14.0445
  104 205.382 3.24591 4.86916
  105 199.177 2.16311 -0.0218914
  106 203.055 3.09642 -3.97675
  107 218.502 6.50012 -11.6873
  108 259.027 21.5646 -36.6994
  109 29.7932 59.0473 -41.7372
  110 7.21849 7.60352 -12.7359
  111 2.44137 -8.93992 -3.95297
  112 1.22724 -12.9223 -1.70517
  113 1.61654 -20.5324 -0.327663
  114 0.393632 -15.4871 0.509072
  115 -0.0549389 -15.3955 0.861786
  116 0.0387781 -13.1839 1.22188
  117 0.396739 -12.0174 1.39041
  118 0.128912 -10.0367 1.15945
  119 0.0489506 -6.94714 1.40652
  120 -0.0463589 -4.96770 1.10420
  121 -0.177249 -2.63349 1.00493
  122 -0.158154 -1.30937 0.561592
  123 -0.0904645 -0.512596 0.306516
  124 -0.501807 -0.211207 0.360222
  125 -1.21889 -0.0847049 0.585675
  126 -2.87463 -0.109654 1.02387
  127 -4.82527 0.0438446 0.987295
  128 -6.55565 0.0862731 0.966364
  129 -8.17012 0.214599 0.670470
  130 -9.60028 0.173598 0.381101
  131 -10.6682 0.222024 0.230813
  132 -10.7099 0.323784 0.301499
  133 -9.98964 0.141746 -0.0735892
  134 -9.81345 0.130476 -0.317368
  135 -8.99404 0.182633 -0.175807
  136 -8.39555 0.300276 -0.667807
  137 -7.79479 0.205424 -0.314542
  138 -5.98243 0.0596069 -0.442559
  139 -5.82970 0.154868 -0.429787
  140 -5.09083 0.213359 -0.134055
  141 -3.36655 0.102015 -0.116204
  142 -3.36569 0.295025 -0.462682
  143 -3.03648 0.228651 -0.0569708
  144 -2.03152 0.0758967 -0.213365
  145 -2.32634 0.163071 -0.229356
  146 -1.97561 0.392420 -0.0686120
  147 -0.587543 0.0540659 -0.232957
  148 4.93246 -0.431484 0.151115
  149 10.4154 -0.277738 0.422745
  150 16.3065 -0.247448 0.0734230
  151 24.4084 -0.393423 0.127027
  152 30.9832 -0.629104 0.153632
  153 38.9535 -1.05049 0.241842
  154 46.7192 -1.05386 0.284733
  155 52.5871 -0.909378 0.230627
  156 59.5612 -0.784736 0.181688
  157 66.2387 -0.899512 0.284332
  158 72.9960 -0.866748 0.283207
  159 79.3695 -0.494614 0.363982
  160 86.8175 -0.579830 0.430522
  161 94.1694 -0.104649 0.309498
  162 100.230 0.208613 0.152222
  163 56.0988 -5.00907 -3.77249
  164 55.8585 -5.09874 3.76443
  165 16.0528 4.54958 -5.90309
  166 16.2146 4.56823 5.87235
  167 66.9333 -3.51945 16.3721
  168 70.3110 -3.95803 -15.9093
  169 31.2493 -1.57022 1.65584
  170 31.2502 -1.55361 -1.68882
  171 71.7183 -2.20873 0.937703
  172 70.1880 -2.21529 -0.918175
  173 94.5371 17.2557 -2.76945
  174 97.3287 0.292593 -14.1135
  175 95.2246 1.09311 14.9781
  176 21.3443 -0.758867 -3.88166
  177 21.3405 -0.751952 3.87010
  178 84.0821 -8.38290 5.67227
  179 83.9406 -6.45281 -7.38043
  180 0.805302 1.69037 2.45324
  181 0.838931 1.70147 -2.43371
  182 114.799 23.1886 5.17574
  183 21.1679 9.27352 -14.3220
  184 22.7904 9.37329 15.4487
  185 81.4187 -3.59566 3.72139
  186 122.465 25.2399 -3.45729
  187 51.5535 -1.62912 -0.243532
  188 51.4630 -1.67948 0.236832
  189 83.9267 -2.41958 -3.34964
  190 112.817 -1.64221 0.218988
  191 18.4006 -0.531034 0.586412
  192 18.3999 -0.536769 -0.599138
  193 7.61384 1.13706 -2.46190
  194 7.65045 1.12543 2.46694
  195 45.9015 -1.79013 -9.89784
  196 45.7188 -1.89397 10.0319
  197 55.1200 -3.39779 -0.912274
  198 55.2327 -3.37839 1.02153
  199 12.7050 -0.441101 1.98770
  200 12.6892 -0.434423 -1.99468
  201 111.686 -2.99981 5.62262
  202 90.3541 -9.15229 -3.20853
  203 86.4651 -0.595611 -0.629646
  204 84.3893 -0.765457 0.659454
  205 83.3924 9.73269 10.3530
  206 3.26500 2.44256 -0.446783
  207 3.39472 2.43318 0.503732
  208 84.1781 -3.45833 12.0954
  209 76.1409 5.74749 -11.6645
  210 55.2279 11.4829 -34.7244
  211 58.0749 9.67536 32.2196
  212 0.761823 1.79247 0.253714
  213 0.792818 1.79148 -0.239498
  214 83.8324 -3.06947 -12.4609
  215 148.683 21.0867 -1.26364
  216 69.7273 -7.69701 5.14931
  217 70.2902 -7.64675 -4.81243
  218 69.7062 -4.80238 -1.26934
  219 87.7260 -1.13450 1.86099
  220 40.7559 -2.70796 -3.24607
  221 40.0704 -2.69531 3.37462
  222 23.9927 0.563804 -6.05759
  223 24.0237 0.553463 5.99634
  224 89.5619 -9.72926 0.311562
  225 69.0960 -5.12200 0.977054
  226 87.4360 -1.09107 -1.52463
  227 67.1294 -1.40889 0.292970
  228 67.7547 -1.28791 -0.158550
  229 85.5447 -3.73320 7.26942
  230 5.87039 0.108380 -2.11611
  231 5.89739 0.105031 2.11400
  232 -1.16923 -0.815530 -2.97015
  233 -1.17479 -0.822115 2.97280
  234 10.9133 -0.515004 -1.11477
  235 10.9249 -0.516230 1.10241
  236 34.4337 -0.891844 0.714120
  237 34.4458 -0.911904 -0.722396
  238 40.5932 2.70552 -14.8714
  239 40.5970 2.23833 14.6942
  240 86.8736 -2.59077 -6.21404
  241 39.4773 -2.25392 -5.68620
  242 39.5071 -2.32490 5.58769
  243 74.8605 1.04813 13.1162
  244 64.1654 5.57361 0.787398
  245 74.1498 -7.34276 -1.32648
  246 0.221744 -2.12937 -2.88839
  247 0.197134 -2.14820 2.90993
  248 4.40476 3.70804 -4.38612
  249 4.70558 3.53569 4.65731
  250 72.8650 -7.17686 0.824915
  251 133.928 23.4930 0.557784
  252 6.21810 4.32582 -1.50401
  253 6.29796 4.32219 1.52827
  254 -3.09421 0.562720 2.15781
  255 -3.08026 0.565582 -2.14835
  256 134.878 21.7701 0.117131
  257 45.1086 -2.00531 -1.02111
  258 45.0703 -1.96815 0.987224
  259 90.9673 -6.33316 11.6118
  260 167.594 27.1655 16.2262
  261 25.5552 -1.30212 -3.12436
  262 25.5444 -1.31130 3.11851
  263 91.5961 13.6625 -10.1224
  264 161.226 30.4238 -14.3971
  265 111.369 10.4038 10.6506
  266 122.930 5.64339 -21.0225
  267 74.3107 -3.28024 1.84992
  268 83.8322 0.220637 -14.9361
  269 80.1678 -5.54182 -4.53817
  270 89.9025 -1.47287 4.00046
  271 -0.858854 0.845931 -0.544133
  272 -0.828227 0.843028 0.553862
  273 89.2040 -3.70867 -20.7132
  274 8.55210 2.83802 -2.40200
  275 8.59460 2.83194 2.41678
  276 85.5014 -2.04453 -7.71328
  277 11.7192 10.9132 -14.7952
  278 7.74941 -0.0219816 -0.247523
  279 7.75134 -0.0196373 0.242312
  280 90.5554 -5.83051 -12.0559
  281 15.0569 6.75819 -7.59478
  282 15.2802 6.71694 7.61505
  283 2.79862 -0.118496 1.49895
  284 2.77102 -0.116768 -1.50138
  285 74.2155 -3.08911 -1.79181
  286 11.7930 10.7848 15.2312
  287 120.943 6.90651 24.9595
  288 30.6146 -1.12703 -0.928235
  289 30.6044 -1.11815 0.908447
  290 58.6282 -2.17938 -0.0481130
  291 58.5973 -2.38597 0.107878
  292 50.0215 4.47355 -23.1562
  293 81.7441 -9.03052 -2.52137
  294 94.5423 -0.386868 0.847751
  295 48.1245 4.44059 22.3461
  296 56.0104 -1.25164 0.0117305
  297 55.9879 -1.24995 0.0397332
  298 80.2846 -5.78575 4.62863
  299 93.3658 -0.827071 -1.98448
  300 -1.76750 0.357395 -1.07499
  301 -1.73440 0.354772 1.07899
  302 115.690 23.2906 -1.56536
  303 102.331 -5.21211 7.06564
  304 93.2260 -0.259660 -0.257754
  305 94.9775 -0.221017 0.233412
  306 92.0602 -8.55112 6.56455
  307 113.687 11.1062 -10.1068
  308 97.6744 18.2757 6.04175
  309 42.9888 -2.51543 -1.86227
  310 42.5727 -2.56479 1.91088
  311 94.4795 -0.362399 -0.618199
  312 60.4056 -4.69602 -10.9192
  313 59.2656 -4.54871 1.22956
  314 56.5213 -3.22334 12.5977
  315 92.4339 -0.951494 2.33954
  316 18.8416 -0.859100 -1.91025
  317 18.8503 -0.865753 1.89854
  318 84.7998 -3.48564 20.4831
  319 52.5497 -4.05184 -2.31549
  320 98.0285 12.3285 12.8338
  321 30.2360 2.15366 -9.33480
  322 29.0640 2.24814 9.24438
  323 6.67824 -0.168052 -0.452409
  324 6.68590 -0.166702 0.444073
  325 81.2804 -1.36268 1.23114
  326 77.8659 -0.797291 0.261488
  327 77.4050 -0.902324 -0.290558
  328 84.7688 -2.15647 8.14993
  329 5.24506 -0.241170 1.08020
  330 5.22330 -0.238691 -1.08734
  331 22.7105 -0.487576 -0.373484
  332 22.7075 -0.477351 0.367902
  333 0.717342 -4.38238 -1.82639
  334 0.664168 -4.41241 1.88966
  335 63.6887 2.71252 8.82257
  336 103.371 -5.02455 -6.07692
  337 65.8601 -3.27644 0.905482
  338 75.1254 -1.21107 -0.772734
  339 76.5113 9.58452 -5.51607
  340 13.6994 -0.415088 -2.84460
  341 13.7146 -0.415130 2.83986
  342 63.9457 -3.07245 -0.550037
  343 16.9082 0.673519 -4.14693
  344 16.9385 0.657903 4.12929
  345 2.94577 2.81558 0.504468
  346 2.98731 2.81415 -0.487573
  347 78.4362 -8.61845 6.88079
  348 178.776 11.8827 4.54658
  349 67.6853 0.921432 -10.4807
  350 57.5672 -5.17768 6.34679
  351 57.2720 -5.07994 -6.56693
  352 85.4907 -1.60518 14.8525
  353 75.1382 -0.613174 10.4456
  354 77.3672 -8.33543 -7.14225
  355 44.7931 -0.937913 -0.0765810
  356 44.7872 -0.952566 0.0882593
  357 85.6021 -5.60825 9.47364
  358 117.109 23.5888 1.08837
  359 92.7778 -0.911649 -2.96237
  360 21.6676 -0.801174 -1.32573
  361 21.6725 -0.801555 1.30746
  362 86.9665 -8.62836 -8.73912
  363 90.2904 6.08742 -14.9222
  364 58.0392 3.14202 -5.63751
  365 86.1556 -5.81654 -10.7246
  366 -2.90069 0.0595488 -2.30037
  367 -2.90399 0.0563021 2.30335
  368 72.4049 -1.42547 0.614509
  369 -1.03211 -0.620117 -1.31996
  370 -1.03105 -0.620395 1.31748
  371 56.4231 25.7121 -42.5619
  372 1.92290 1.62057 1.87488
  373 1.97767 1.63431 -1.84608
  374 74.4980 -0.648721 -10.3555
  375 40.4492 -1.57771 0.758806
  376 40.4825 -1.60242 -0.772611
  377 -0.326105 -3.13540 2.61115
  378 -0.321412 -3.12965 -2.60818
  379 45.5098 27.0649 39.9580
  380 32.9031 -1.69356 -4.33986
  381 32.9253 -1.61429 4.34293
  382 10.2713 7.34792 -6.91807
  383 10.4967 7.32031 6.87022
  384 -4.72031 0.626158 1.00768
  385 -4.70144 0.626960 -0.997815
  386 86.8702 5.61564 14.8451
  387 66.8052 -6.98578 2.46979
  388 66.8762 -6.01384 0.431297
  389 81.6783 -9.39792 0.0513356
  390 19.2829 2.51243 -5.90615
  391 19.3462 2.50632 5.89324
  392 1.66553 -3.47321 -0.329299
  393 1.56745 -3.51293 0.468960
  394 80.8795 11.6606 3.67752
  395 83.6513 -2.17493 2.80036
  396 46.4983 -3.54144 3.86756
  397 28.1178 -0.650926 -5.30596
  398 28.1237 -0.655780 5.25689
  399 60.0575 -1.55369 0.137195
  400 59.9876 -1.32532 -0.188632
  401 46.0984 -3.64432 -4.15901
  402 35.7225 -0.566726 -7.37624
  403 35.7121 -0.617646 7.43861
  404 86.9002 -8.06212 -7.07814
  405 49.3087 -3.68118 2.20233
  406 79.1821 -2.16614 1.85177
  407 79.0636 -1.94207 -1.59921
  408 65.5940 -5.96470 -0.678735
  409 96.4607 -0.253344 -0.889726
  410 31.0885 12.1112 -23.3236
  411 89.5699 -1.20357 4.77015
  412 96.0391 -0.351231 1.26080
  413 32.1873 -1.65427 2.45964
  414 32.2071 -1.63037 -2.45743
  415 66.4969 -6.90041 -2.58966
  416 8.73563 4.06962 2.56988
  417 8.68723 4.06775 -2.57456
  418 180.738 11.8729 -9.35676
  419 77.3544 -4.23599 -2.84379
  420 97.3905 -0.169213 0.513466
  421 29.2737 11.2328 22.1281
  422 142.544 24.1744 4.09183
  423 83.6554 -1.00464 -0.999616
  424 61.3911 -4.30528 -0.458816
  425 24.8373 4.80843 -10.6125
  426 26.5181 4.46643 10.5489
  427 76.3535 -4.68270 2.90197
  428 80.1876 -1.05318 -7.76113
  429 -2.10978 -0.0592837 1.11131
  430 -2.14341 -0.0584148 -1.11132
  431 28.2801 6.70957 -14.5160
  432 28.3681 6.73643 14.4686
  433 2.59790 1.59014 -0.914175
  434 2.63185 1.58621 0.926296
  435 68.3889 -1.01672 0.268678
  436 68.3068 -0.981330 -0.243791
  437 85.3849 -3.82549 -7.58629
  438 -0.376391 -0.426075 3.31285
  439 -0.361396 -0.413372 -3.30150
  440 88.1081 -8.82414 6.37240
  441 83.5819 -2.00660 -2.50925
  442 135.286 26.0012 -3.09971
  443 3.02479 -0.225286 0.485852
  444 3.00787 -0.225356 -0.493202
  445 165.002 45.1297 18.9985
  446 3.03913 -0.403809 -3.98623
  447 8.67400 0.514832 -2.73307
  448 8.70333 0.507124 2.73061
  449 164.205 46.0448 -17.8454
  450 3.22053 -0.0417446 4.46272
  451 -4.72889 0.507547 0.446586
  452 -4.70489 0.506611 -0.437446
  453 8.35318 5.69111 -3.77662
  454 8.50481 5.68989 3.79904
  455 104.906 16.1503 -10.9403
  456 84.6118 -3.16175 -5.07085
  457 96.8245 -0.205967 -0.468370
  458 88.2566 -1.30042 -5.55283
  459 -1.24074 0.524292 3.05413
  460 -1.22559 0.532305 -3.04365
  461 85.4558 -3.32285 5.81244
  462 54.4828 -2.87816 -0.685973
  463 54.3059 -2.91125 0.491345
  464 74.9862 -8.29901 -0.219527
  465 52.9141 -0.890080 -15.6571
  466 81.0938 -1.26612 7.94917
  467 66.6246 -1.87916 -0.403667
  468 99.1509 -7.88534 0.226698
  469 51.2116 0.266799 16.8446
  470 2.04456 -0.0515634 1.07083
  471 2.01704 -0.0500504 -1.07456
  472 107.481 21.3219 -5.19464
  473 87.4123 -0.390574 0.119553
  474 87.0971 -0.475134 -0.203400
  475 64.6517 -4.14221 -0.270771
  476 26.6112 -0.836590 -0.703974
  477 26.6050 -0.824667 0.691560
  478 15.3542 -0.126614 -3.37984
  479 15.3694 -0.129665 3.36965
  480 51.6121 2.01851 3.35217
  481 11.8283 -0.407122 1.58125
  482 11.8139 -0.402872 -1.59219
  483 13.5693 1.41462 3.79136
  484 13.5242 1.43549 -3.79001
  485 83.7965 -6.46388 7.11456
  486 45.8435 -2.83668 -6.86882
  487 41.8830 -1.18199 0.327284
  488 41.9015 -1.21788 -0.328993
  489 46.3416 -2.92892 6.86315
  490 131.846 30.7679 -1.08702
  491 -2.11205 -0.334532 -1.73961
  492 -2.11125 -0.336153 1.73890
  493 31.1243 -0.764326 -0.279802
  494 31.1204 -0.749580 0.277924
  495 0.0110445 -5.85697 -2.26526
  496 -0.00255373 -5.87548 2.28404
  497 76.7465 -0.852686 0.485659
  498 51.2334 2.51114 -1.67447
  499 71.0629 7.51393 4.91529
  500 45.6510 -0.495333 -12.2866
  501 21.0915 -1.06734 2.41926
  502 21.0938 -1.05798 -2.42593
  503 -6.74062 0.201813 -0.288232
  504 -6.70830 0.200670 0.292132
  505 90.2471 -1.90743 -14.9070
  506 4.74397 0.0616261 -0.345007
  507 4.74881 0.0628488 0.339063
  508 75.1291 -5.80518 -2.57808
  509 80.2204 -6.77686 -4.49693
  510 15.6922 11.4381 -15.3478
  511 67.3033 1.34685 -25.3078
  512 0.436421 1.88851 1.72544
  513 0.467397 1.89197 -1.70867
  514 39.8274 -1.71261 -1.21311
  515 39.8034 -1.69413 1.17523
  516 117.319 3.92029 -4.58050
  517 83.5062 -4.83871 -6.42398
  518 15.2801 10.7522 15.1144
  519 82.7677 -9.53497 1.22600
  520 79.4456 -7.53052 3.73320
  521 14.7969 -0.349193 -1.02617
  522 14.8019 -0.347318 1.01266
  523 62.9545 0.627871 8.09607
  524 46.0811 -3.29488 -2.39562
  525 88.5673 -1.78861 3.70507
  526 -0.377238 -2.14210 -1.68105
  527 -0.378166 -2.14081 1.67897
  528 61.0699 -5.47624 7.73807
  529 94.2058 -7.47509 -8.37850
  530 124.356 7.26594 -2.45819
  531 65.7622 -1.96348 0.471246
  532 17.4849 -0.293615 -0.311504
  533 17.4836 -0.286159 0.307841
  534 40.8869 0.294736 11.7958
  535 117.667 18.9798 8.19717
  536 122.000 20.5715 -40.6409
  537 107.378 -0.0355558 8.33960
  538 76.5390 -8.54149 -0.207528
  539 186.704 14.8371 12.4694
  540 135.588 31.7903 2.00496
  541 17.2770 -0.698504 2.65980
  542 17.2676 -0.690974 -2.66695
  543 73.4759 -5.98243 2.12120
  544 4.75493 2.54832 -0.740279
  545 4.79400 2.54605 0.754898
  546 93.0212 -7.95596 8.35456
  547 74.0647 3.90632 12.0522
  548 94.2972 -0.511016 2.04221
  549 68.6357 -3.92060 1.22245
  550 97.9706 -0.353774 -26.6710
  551 157.727 37.4000 25.1591
  552 74.9589 -1.16786 -0.459637
  553 92.3164 -0.848795 -3.20418
  554 13.5596 5.74572 -5.52126
  555 13.6597 5.67516 5.49009
  556 51.4224 -1.85263 -0.397282
  557 51.3963 -1.80118 0.412969
  558 0.532552 -7.84094 -0.315303
  559 93.6444 -3.60406 13.4942
  560 3.13800 2.95355 0.883081
  561 3.19313 2.96068 -0.858084
  562 0.632689 -7.61560 0.511773
  563 84.8882 -3.90621 -10.7641
  564 97.8922 5.82974 -14.5660
  565 97.4701 6.64098 14.5471
  566 4.34590 3.16695 2.72267
  567 4.11369 3.26457 -2.64654
  568 -4.00218 0.102676 0.813093
  569 -4.03743 0.103608 -0.811903
  570 91.0295 1.23144 27.5773
  571 48.1809 -2.50991 1.07855
  572 48.2332 -2.50056 -1.11614
  573 110.294 -3.06680 -13.2462
  574 11.7482 -0.150661 0.598297
  575 11.7454 -0.154029 -0.607274
  576 3.89103 -0.165530 -0.147546
  577 3.89144 -0.164394 0.145476
  578 120.093 21.0600 -7.02787
  579 10.9838 13.8166 -17.1413
  580 59.8459 1.14013 -6.83620
  581 86.8677 13.9855 -6.31944
  582 1.11507 -0.446373 2.29884
  583 1.16769 -0.428911 -2.26366
  584 92.2094 37.6708 48.2149
  585 76.0499 -1.83775 -1.17643
  586 1.64865 0.785449 -1.26381
  587 1.68151 0.779754 1.27069
  588 87.7755 -7.16343 9.60682
  589 13.0401 13.3253 17.4523
  590 62.7452 -1.01991 -0.0100391
  591 62.7612 -1.00862 0.00975400
  592 -0.0963824 -4.59883 2.29459
  593 -0.0895753 -4.59118 -2.28711
  594 107.153 21.1662 -0.171414
  595 68.1435 -5.68409 11.4030
  596 64.9046 -2.52352 0.482807
  597 65.6496 2.36676 26.7371
  598 -5.59873 0.258905 1.41444
  599 -5.59297 0.260283 -1.40926
  600 108.787 0.714468 -8.90029
  601 147.949 21.7030 -17.4014
  602 40.0783 3.90696 -17.3721
  603 20.5799 -0.824588 -3.28065
  604 20.5960 -0.824222 3.27934
  605 99.4151 -0.220546 0.623798
  606 64.2206 -2.58493 -0.571654
  607 87.6180 -0.943974 1.41225
  608 84.9021 -3.89485 10.5232
  609 1.31521 -0.130436 0.512151
  610 1.29282 -0.129832 -0.517691
  611 49.3141 -1.49979 -0.210911
  612 49.3056 -1.45024 0.194946
  613 30.2500 0.714254 -7.62845
  614 30.0428 0.722534 7.58733
  615 125.261 5.79264 5.37410
  616 208.800 15.7262 -22.9593
  617 -3.22058 -0.114959 0.725323
  618 -3.25596 -0.114528 -0.725744
  619 27.9344 -1.11701 1.33062
  620 27.9369 -1.11611 -1.35549
  621 115.947 5.31556 6.16337
  622 98.4951 -0.181771 -0.198668
  623 98.2606 -0.340981 0.102676
  624 67.7869 -0.0802229 8.03962
  625 101.964 -6.66978 -7.59004
  626 53.7832 -4.32336 2.88683
  627 -1.70411 1.17276 -1.53360
  628 -1.72723 1.17129 1.54666
  629 87.0864 1.56959 15.4905
  630 33.2883 -1.84656 -3.37280
  631 33.2493 -1.87932 3.37982
  632 71.2104 -3.91322 -1.49127
  633 89.0464 -1.76726 -3.36506
  634 49.3697 -3.88175 -4.75853
  635 81.0785 9.77852 -9.39390
  636 54.9593 -3.84408 -9.14649
  637 18.2695 -0.473356 -0.500639
  638 18.2685 -0.466524 0.491326
  639 49.9110 -3.95826 4.76825
  640 109.665 17.2726 10.0867
  641 86.8424 -4.35428 13.2343
  642 71.1208 -2.91392 1.30940
  643 49.8785 -1.08607 0.226119
  644 49.8656 -1.08969 -0.216044
  645 36.8417 -1.23552 -0.906364
  646 36.8241 -1.21921 0.892167
  647 83.9194 -7.73644 -5.97815
  648 41.0332 -2.19276 1.61202
  649 41.0828 -2.18432 -1.65860
  650 82.2956 12.8482 -1.27386
  651 77.5091 -3.87374 2.83721
  652 98.7228 -0.351434 -0.934651
  653 81.5210 -1.62234 -13.5382
  654 10.1011 -0.469407 2.12842
  655 10.0820 -0.465874 -2.13219
  656 95.8739 -0.418698 -1.84342
  657 16.0163 8.14878 -10.5905
  658 16.2976 8.12406 10.6435
  659 97.4698 -6.57656 11.1351
  660 32.2250 7.84206 18.2881
  661 6.49464 -0.00669449 2.13662
  662 6.47056 -0.00492555 -2.13942
  663 82.4931 -5.80670 14.9628
  664 81.8683 9.91062 -36.8851
  665 77.4371 2.28889 -13.4110
  666 103.462 18.6058 8.49023
  667 69.8270 -2.84432 -0.993836
  668 126.400 23.1267 -0.558049
  669 -6.81455 0.285966 -0.102238
  670 -6.78684 0.285130 0.107987
  671 55.2657 -0.0146084 -18.5274
  672 1.35469 -0.0725176 0.412303
  673 1.34110 -0.0727399 -0.417835
  674 69.8780 -6.11122 -11.2508
  675 22.0611 3.12457 -7.30806
  676 21.8733 3.13293 7.30171
  677 -0.292280 1.13685 -0.0902722
  678 -0.262263 1.13496 0.102586
  679 58.8260 -4.99035 -1.91777
  680 83.9246 -0.818729 -5.24343
  681 38.6474 -1.04036 -0.345742
  682 38.6469 -1.02566 0.349276
  683 27.3771 -1.34912 -2.08055
  684 27.3958 -1.36928 2.06952
  685 4.97691 4.10394 -0.845777
  686 5.06651 4.11086 0.874454
  687 87.5541 -0.772308 0.791421
  688 36.9840 -2.26358 2.73190
  689 37.2409 -2.22021 -2.72756
  690 96.4835 -8.14165 -2.58242
  691 78.8811 -7.92008 -2.88328
  692 61.4713 -1.44120 0.227260
  693 61.2412 -1.31949 -0.191679
  694 87.3348 -9.54812 3.49737
  695 142.862 28.6221 6.36164
  696 76.5382 -3.91024 -18.9137
  697 87.7975 -2.34571 5.70579
  698 86.5478 -3.38601 -14.1091
  699 25.1084 -0.716411 -0.926590
  700 25.1040 -0.709547 0.910066
  701 67.7715 -1.63099 21.3471
  702 196.401 24.8389 22.8116
  703 12.0521 3.67886 -3.92108
  704 12.0683 3.70261 3.93445
  705 87.3567 -0.561616 -0.413001
  706 88.0855 -0.485403 0.418300
  707 36.0907 17.0175 -30.3249
  708 92.2497 -0.405471 3.17059
  709 79.6794 -1.05517 0.737960
  710 103.674 20.7665 -3.22482
  711 9.55060 1.88694 -2.74380
  712 9.59375 1.87458 2.75437
  713 100.622 -0.140279 0.138655
  714 79.8919 -2.83507 -2.69047
  715 99.8222 -1.96374 12.1404
  716 39.3723 -2.69994 -4.52693
  717 39.4720 -2.57690 4.47375
  718 7.25185 -0.285823 1.61283
  719 7.23081 -0.281900 -1.61927
  720 91.5230 -0.374099 -0.685498
  721 78.5449 13.7422 39.3091
  722 0.362200 0.315799 2.90897
  723 0.390587 0.331676 -2.88962
  724 91.4874 -0.771728 -1.64429
  725 88.5853 -1.39746 2.32096
  726 67.4283 -0.0151521 -8.62282
  727 0.595063 -8.61327 -1.32085
  728 0.552480 -8.69109 1.39918
  729 30.9751 8.05883 -18.2730
  730 69.6909 -7.14026 -7.81001
  731 35.7273 16.8943 30.6596
  732 99.0997 -0.117714 0.402842
  733 92.7584 13.8274 10.1929
  734 65.7916 6.03682 -3.41172
  735 123.074 24.8718 -0.947540
  736 97.4180 -0.296598 1.23754
  737 -6.86712 0.146244 0.559240
  738 -6.90241 0.147051 -0.556946
  739 103.165 -6.55261 1.16715
  740 65.6605 -1.58573 0.277203
  741 22.6307 0.111410 -5.06460
  742 22.6576 0.0877172 5.02817
  743 88.8175 -0.786968 -1.05587
  744 157.868 22.4506 -7.61607
  745 8.22721 -0.268091 -0.954306
  746 8.24348 -0.269801 0.944497
  747 99.7846 -0.156174 -0.598382
  748 17.4195 -0.782676 -1.34111
  749 17.4272 -0.785476 1.32672
  750 95.9706 -4.18324 -12.3680
  751 88.4072 -0.880645 4.29056
  752 78.0360 -0.645218 13.3087
  753 100.146 -0.163630 -0.0558464
  754 92.7131 -0.483309 1.28598
  755 59.0208 -2.95468 0.0190334
  756 75.0478 -1.66455 0.956093
  757 85.1658 -5.24029 -9.18870
  758 83.1813 -5.13905 6.24776
  759 96.9198 11.4452 -12.9292
  760 82.0922 -4.45493 4.78191
  761 86.4446 -5.20715 11.5766
  762 49.0714 -3.17367 1.57550
  763 1.62899 -1.22951 -0.695645
  764 1.53403 -1.23357 0.784998
  765 76.1566 -0.807135 0.0629438
  766 75.9896 -0.798441 -0.0921859
  767 92.5362 -0.179914 -0.0887163
  768 92.8777 -0.159194 0.111865
  769 86.7288 -2.36674 6.87506
  770 80.1637 -7.70548 10.5094
  771 65.1592 -5.15203 0.121382
  772 57.5423 -3.22364 0.424117
  773 161.304 20.7890 9.04857
  774 88.0928 -2.08302 -4.59346
  775 50.8578 8.25896 -28.5745
  776 81.6054 -3.84957 -4.18249
  777 1.86451 0.0924561 -1.46094
  778 1.89587 0.0894842 1.46205
  779 70.5733 6.19588 -7.66221
  780 191.575 5.84546 -2.54453
  781 91.2704 2.06071 -15.3015
  782 3.44199 -0.432399 -6.29204
  783 93.0511 16.9374 2.63468
  784 73.4234 -4.47601 1.97273
  785 81.9361 -2.16475 13.1612
  786 69.3115 -7.45155 7.85655
  787 113.435 -2.07878 16.7513
  788 3.71091 0.421322 6.76834
  789 49.5015 -0.428256 14.2152
  790 70.2340 -1.49283 -0.532683
  791 78.5108 -7.37235 -10.6512
  792 46.9914 -3.57287 -3.14274
  793 36.9633 1.71286 -12.2721
  794 90.6458 -1.67350 15.0083
  795 57.4474 -3.75131 0.989859
  796 8.83804 -0.282189 0.889001
  797 8.82775 -0.282667 -0.899811
  798 84.1916 -0.437493 4.65521
  799 75.3024 0.261681 -12.8699
  800 -6.96480 0.294430 0.926165
  801 -6.95461 0.294904 -0.920609
  802 55.8455 -1.48356 0.0947939
  803 55.6720 -1.38509 -0.111616
  804 41.1584 4.40265 17.6501
  805 35.9946 -2.01051 1.97558
  806 36.0521 -1.95738 -2.00352
  807 99.7949 -0.0826250 -0.354786
  808 33.1354 2.59213 11.9238
  809 -1.12767 -0.0288169 0.567016
  810 -1.15718 -0.0280802 -0.570423
  811 83.1418 -2.60774 10.2592
  812 90.6827 -0.536267 0.562300
  813 -4.83461 0.0389140 1.36341
  814 -4.83485 0.0403680 -1.36077
  815 54.2288 -3.49405 10.3844
  816 9.98844 7.93913 -8.77014
  817 10.1160 7.52447 8.62231
  818 48.5435 2.20747 1.39349
  819 -2.86776 -0.0357151 -0.657569
  820 -2.83298 -0.0362291 0.656299
  821 62.6903 -6.03998 -7.33179
  822 86.5641 -9.23279 -4.15567
  823 -0.421809 -0.401910 -0.524727
  824 -0.420644 -0.401044 0.522869
  825 1.82694 0.161897 -0.121196
  826 1.82918 0.162778 0.118047
  827 76.6717 -6.75084 2.91897
  828 64.0830 -6.60208 4.80782
  829 71.5985 -0.877522 0.391600
  830 63.8959 -5.01847 -0.379190
  831 21.4741 -0.287550 -0.0770387
  832 21.4721 -0.277701 0.0746942
  833 -7.97119 0.165952 0.587494
  834 -7.95513 0.165710 -0.582114
  835 81.5145 -0.750224 -0.552447
  836 69.4990 2.64191 -10.8832
  837 82.3358 -1.35605 -1.48120
  838 47.0864 -3.49926 2.96592
  839 80.0220 -1.45828 -10.7305
  840 86.6390 -2.57600 -7.10838
  841 81.8694 -0.600410 0.501916
  842 58.6508 -2.44752 14.6065
  843 62.6830 -6.07352 -2.34055
  844 36.9926 -0.268157 -9.22340
  845 37.2036 -0.0102281 9.27153
  846 52.9902 -3.83059 -1.71139
  847 88.5899 9.44301 13.0655
  848 85.3319 -9.19014 -5.22992
  849 28.7207 -0.822087 -0.436479
  850 28.7141 -0.807055 0.429601
  851 64.5642 -1.15471 -0.142681
  852 64.5647 -1.16718 0.161293
  853 76.0350 -0.611880 -6.97761
  854 24.2274 -0.983414 -1.67041
  855 24.2371 -0.991289 1.65112
  856 0.285193 -8.41867 -1.76018
  857 0.268588 -8.45380 1.79301
  858 10.6577 -0.154172 -0.104720
  859 10.6576 -0.158317 0.101915
  860 80.8100 -0.967981 -0.780992
  861 60.2338 -5.72730 4.29191
  862 95.2258 -8.51232 4.49320
  863 52.2752 1.11509 5.34457
  864 82.6042 -1.68184 1.67787
  865 89.8509 -8.24755 -7.80679
  866 11.6035 0.847832 -3.26127
  867 11.6377 0.834243 3.25702
  868 71.2184 -0.965608 -0.360927
  869 56.5541 -1.70917 -0.0828474
  870 56.3446 -1.69037 0.132922
  871 87.1535 13.6388 7.11001
  872 29.4803 -0.232573 -6.22166
  873 29.4459 -0.268313 6.18772
  874 60.8039 -5.40520 1.71903
  875 5.26931 3.63274 -0.689986
  876 5.32541 3.62431 0.704714
  877 51.1046 -3.66525 8.29218
  878 61.7290 -3.74547 0.0665023
  879 76.5342 -0.632606 7.05212
  880 76.4928 -8.70575 1.79714
  881 87.8727 -6.80749 -10.2743
  882 60.0875 -5.77511 -4.36877
  883 49.4474 -3.15788 -1.49336
  884 169.275 14.0667 -2.54670
  885 80.2423 -8.54863 2.43190
  886 1.82064 2.42397 1.43513
  887 1.86098 2.42791 -1.41468
  888 69.3495 -6.90019 0.422106
  889 76.4004 -8.74782 -3.97767
  890 1.82358 2.18863 0.582342
  891 1.85848 2.18856 -0.567052
  892 27.3467 -0.910306 4.60079
  893 27.3698 -0.941777 -4.63504
  894 33.5373 -1.64104 5.06996
  895 33.5297 -1.68386 -5.11367
  896 110.013 22.1448 4.27278
  897 -0.178288 -3.41109 -1.64569
  898 -0.179483 -3.40765 1.64483
  899 24.1466 2.12510 -6.93505
  900 24.0181 2.08017 6.85497
  901 198.468 6.45756 -10.1485
  902 0.917024 -0.00599687 0.218295
  903 0.908677 -0.00665234 -0.222621
  904 0.289776 -10.0673 0.859407
  905 0.343590 -9.91412 -0.729594
  906 -3.65307 -0.0579929 1.36971
  907 -3.65650 -0.0569073 -1.36913
  908 19.2492 5.71469 -8.23572
  909 19.5516 5.52664 8.10442
  910 -1.73639 -0.00632157 -2.96263
  911 -1.74430 -0.0123441 2.96775
  912 4.54359 0.550899 -2.04101
  913 4.57606 0.544147 2.04300
  914 20.6614 -0.168427 4.20697
  915 20.6507 -0.167682 -4.23435
  916 16.4459 -0.528174 -3.36729
  917 16.4596 -0.526661 3.35894
  918 96.1189 -0.286284 -1.78431
  919 45.6114 9.19874 26.4374
  920 63.3337 -6.19515 2.12395
  921 44.1615 -3.05369 2.29105
  922 86.4804 8.77750 -12.8416
  923 195.113 4.24996 4.00878
  924 104.321 4.19033 -12.9181
  925 15.2484 -0.583312 2.05232
  926 15.2360 -0.576116 -2.06312
  927 1.37099 -0.0747115 -1.51983
  928 1.40076 -0.0756591 1.51868
  929 -0.165233 -1.81147 -3.26528
  930 -0.178689 -1.82442 3.27575
  931 45.6661 -1.82222 0.868392
  932 45.6931 -1.86380 -0.876184
  933 4.60171 1.51847 -1.69335
  934 4.63743 1.51130 1.70344
  935 27.0590 -1.14728 -3.84339
  936 27.0741 -1.14650 3.83850
  937 59.0471 -0.353324 -6.31410
  938 27.8388 -1.46302 -2.55557
  939 27.8132 -1.44436 2.56462
  940 71.6866 -1.68846 -0.662812
  941 86.6639 -5.08533 -12.3680
  942 36.3129 -1.33906 1.01886
  943 36.3345 -1.35411 -1.03940
  944 -1.54152 -0.174074 -0.938637
  945 -1.53763 -0.174486 0.936818
  946 89.0521 -7.41899 -13.2599
  947 84.7330 -4.91837 8.08503
  948 74.1205 -5.00836 -2.37775
  949 70.5051 2.30373 11.4852
  950 31.3593 -1.69356 -2.89966
  951 31.3539 -1.65739 2.90998
  952 79.6766 2.89776 14.0214
  953 73.6244 6.38953 9.20856
  954 157.034 19.1108 3.20338
  955 79.2556 -2.57842 2.09674
  956 40.0787 -1.00705 -0.446483
  957 40.0710 -0.981520 0.451987
  958 70.4391 -5.63529 -1.17492
  959 97.0282 17.9017 -6.30685
  960 87.5751 -0.663077 -0.791764
  961 55.9950 -1.06670 0.138485
  962 55.9711 -1.05627 -0.121496
  963 6.65380 5.44904 -3.39918
  964 6.83247 5.43353 3.42987
  965 13.6385 29.9369 -29.5847
  966 80.2413 -1.97375 10.6870
  967 101.594 -2.42353 -11.0316
  968 -2.30896 0.946743 0.863133
  969 -2.28388 0.946274 -0.851002
  970 213.961 48.9931 -39.6302
  971 86.7445 -9.60864 2.26030
  972 92.8449 -8.96820 -2.36854
  973 85.2226 -7.34101 7.59934
  974 104.562 20.8047 2.82022
  975 7.11864 6.51920 -8.10828
  976 19.1107 25.4607 28.7121
  977 -0.609407 -1.32279 3.20983
  978 -0.601041 -1.31329 -3.20433
  979 83.3520 -1.86175 2.04228
  980 133.900 23.9825 -2.33214
  981 7.33569 6.33592 8.47746
  982 -0.374973 -1.20363 -1.04363
  983 -0.375100 -1.20055 1.04114
  984 70.9974 -1.31467 0.376556
  985 52.0551 -4.05202 -3.25369
  986 85.8595 -6.83605 -8.81076
  987 23.3323 6.25152 -11.1533
  988 23.7144 6.35845 11.1834
  989 82.7971 -2.07455 -9.60965
  990 84.3814 -2.44887 3.48980
  991 -2.44925 0.489941 2.66572
  992 -2.43823 0.495185 -2.65778
  993 49.6923 -3.28527 -7.74718
  994 82.9091 5.13364 -14.1731
  995 61.9214 -2.02216 -0.199652
  996 43.5700 -1.02555 0.0321848
  997 43.5628 -1.03477 -0.0269399
  998 -0.983881 -1.11262 -2.22207
  999 -0.985339 -1.11499 2.22066
  1000 85.5166 -2.85171 -4.19111
  1001 81.7217 -0.576545 0.163020
  1002 81.6445 -0.577053 -0.127392
  1003 112.381 17.8435 -9.54660
  1004 18.9267 1.75216 -5.33984
  1005 18.9726 1.71715 5.32354
  1006 11.2837 -0.0603753 -2.75199
  1007 11.3034 -0.0627779 2.74615
  1008 91.8071 4.62301 15.4774
  1009 88.0611 -1.41457 -2.43549
  1010 14.2398 2.38764 -4.22102
  1011 14.2969 2.36890 4.23690
  1012 92.5837 -0.250575 -0.460334
  1013 85.2400 -3.54720 -6.15658
  1014 83.2114 -9.60209 -2.35051
  1015 2.81124 2.17504 -0.662249
  1016 2.72473 2.16492 0.700821
  1017 -4.35036 0.621190 1.67749
  1018 -4.33622 0.622745 -1.66831
  1019 46.6916 1.84288 -2.33108
  1020 145.722 35.1460 -7.92954
  1021 65.0880 -4.55659 0.413232
  1022 42.2678 -1.83584 -8.01460
  1023 106.470 -4.92715 2.55762
  1024 42.4364 -1.83788 8.13541
  1025 75.3147 -8.91395 4.85037
  1026 85.4663 -3.50570 -8.92604
  1027 27.3358 -0.533612 -0.140511
  1028 27.3335 -0.520961 0.139042
  1029 57.5837 -4.35432 -1.32563
  1030 34.4901 -1.23255 -6.09744
  1031 34.4710 -1.24182 6.05845
  1032 11.0930 7.17467 -6.52300
  1033 11.2762 7.14775 6.54162
  1034 22.5543 -0.670585 -0.514313
  1035 22.5509 -0.660426 0.504508
  1036 76.2296 -2.11182 1.30611
  1037 63.9041 -0.112649 -21.6578
  1038 79.1116 -2.28939 -2.06046
  1039 70.9116 -7.87608 -2.52347
  1040 45.5317 -1.72243 0.541172
  1041 45.5736 -1.73781 -0.544920
  1042 93.8610 -0.354363 0.578857
  1043 83.0531 -1.68884 -1.92070
  1044 49.6697 1.19279 4.38753
  1045 88.5211 -0.852842 -3.98423
  1046 33.3456 9.38592 20.8514
  1047 91.5454 -0.793622 -3.30540
  1048 22.6603 3.87451 -8.22251
  1049 21.9425 3.92206 7.85297
  1050 110.121 -2.70061 -3.14730
  1051 9.01031 4.85809 -3.08855
  1052 9.09713 4.82100 3.08528
  1053 1.45170 -0.705712 1.47609
  1054 1.53414 -0.692247 -1.42200
  1055 11.7176 -0.321229 0.647546
  1056 11.7117 -0.323861 -0.658860
  1057 38.1304 9.51897 -23.2713
  1058 221.671 54.9848 42.6127
  1059 85.1906 -2.85414 4.30031
  1060 75.9981 -8.61718 -1.51265
  1061 51.9565 -4.25270 -5.78718
  1062 -1.42593 1.05200 2.45098
  1063 -1.40630 1.05773 -2.43798
  1064 58.9570 -2.78696 -0.0905234
  1065 65.4375 -2.12453 -0.491951
  1066 -0.0442357 -4.85072 1.60303
  1067 -0.0425835 -4.85451 -1.60232
  1068 9.12877 5.75358 -3.78412
  1069 9.24281 5.74023 3.80873
  1070 58.1239 -2.53328 0.0991162
  1071 3.75777 2.08618 0.852422
  1072 3.72179 2.08967 -0.838780
  1073 89.8930 -3.75435 14.3039
  1074 64.5978 -6.72074 -4.78317
  1075 52.2758 -4.32237 5.78558
  1076 85.1091 -1.89989 -14.8363
  1077 91.5840 -0.771777 1.77482
  1078 31.7072 4.81570 13.6992
  1079 31.9397 4.61242 -13.4603
  1080 51.9869 -2.60165 -11.4479
  1081 74.8572 -2.38405 -1.37158
  1082 60.0974 -3.40112 0.268444
  1083 70.9260 -6.53713 0.746135
  1084 99.5028 -0.260837 -0.985144
  1085 51.7296 -2.15205 0.421665
  1086 51.7066 -2.29228 -0.454678
  1087 1.43103 1.76308 2.22004
  1088 1.47338 1.77664 -2.19625
  1089 85.5590 2.95831 -15.2686
  1090 18.0646 1.02305 -4.66882
  1091 18.1119 1.00130 4.65133
  1092 13.1255 0.343635 -3.24994
  1093 13.1527 0.335706 3.24069
  1094 99.7722 -4.98256 16.9202
  1095 85.4035 -3.89834 8.83996
  1096 40.6150 -1.82213 -6.68993
  1097 101.480 -0.325889 -0.593692
  1098 111.469 20.8581 -7.31569
  1099 91.5218 -0.640777 -1.18067
  1100 84.8029 -9.25206 4.07050
  1101 62.0691 -4.85395 9.89445
  1102 102.411 -0.0308287 0.150801
  1103 49.5627 1.58279 -3.72590
  1104 71.4345 -7.63057 -0.617894
  1105 40.6761 -1.90818 6.60252
  1106 72.1329 -6.48010 -1.16864
  1107 91.1148 -1.12791 3.11629
  1108 62.0681 3.94446 5.85966
  1109 43.7800 -3.16175 -5.18481
  1110 139.550 17.6970 -5.75198
  1111 102.959 4.15651 13.4251
  1112 74.4425 9.42036 1.45589
  1113 100.901 0.101818 0.557867
  1114 37.6623 -2.27495 -3.84701
  1115 25.8294 15.2653 -23.2328
  1116 46.7558 1.08835 -16.6334
  1117 53.6667 -3.99225 2.11837
  1118 44.9857 -3.30929 4.79436
  1119 37.5596 -2.15532 3.89480
  1120 81.1224 0.545812 14.7478
  1121 61.4722 -1.85127 0.267201
  1122 99.1130 -0.655936 1.27716
  1123 -0.926376 -0.198810 3.25240
  1124 -0.914899 -0.189520 -3.24461
  1125 64.5862 -1.52984 -0.320746
  1126 -0.306750 0.536507 3.06972
  1127 -0.286188 0.548424 -3.05533
  1128 34.8140 -0.957547 0.648280
  1129 34.8202 -0.976638 -0.649539
  1130 92.4147 -0.449525 2.74717
  1131 73.7056 -4.31060 -2.04990
  1132 68.8570 -3.43896 -1.05989
  1133 77.3152 -5.27248 3.48857
  1134 22.7262 10.9536 -17.0660
  1135 75.9230 -2.59680 1.66550
  1136 9.86265 0.264665 -2.63367
  1137 9.88816 0.259177 2.62922
  1138 15.0000 9.45821 -11.7055
  1139 122.718 14.9389 5.92682
  1140 6.78900 -0.357971 1.50349
  1141 6.76628 -0.354821 -1.50775
  1142 15.2738 9.28915 11.2621
  1143 69.0635 -5.65292 0.893182
  1144 33.5163 -1.45797 1.31289
  1145 33.5261 -1.46651 -1.34334
  1146 143.317 30.0975 -6.80658
  1147 76.3837 -7.63717 1.57900
  1148 25.3840 14.2071 23.1692
  1149 2.02420 -1.67312 -1.35873
  1150 2.19350 -1.64719 1.56203
  1151 78.8541 9.92466 7.45241
  1152 5.29339 3.11375 -0.792952
  1153 5.33968 3.11374 0.805211
  1154 76.9175 -6.60703 -3.03384
  1155 -0.0386293 -7.56698 -1.53224
  1156 -0.0421526 -7.56944 1.53914
  1157 82.3792 -6.92732 -5.59332
  1158 -3.36527 0.110879 0.511808
  1159 -3.39972 0.111500 -0.513633
  1160 11.6860 4.49450 -4.18377
  1161 11.7500 4.51311 4.13656
  1162 -5.74440 0.0155792 -0.628364
  1163 -5.70647 0.0152493 0.628604
  1164 83.0430 -0.592120 -0.248338
  1165 -8.73525 0.240521 0.248055
  1166 -8.71359 0.240337 -0.243178
  1167 42.2293 -3.24633 -3.66148
  1168 1.08699 -12.2359 -0.651664
  1169 19.7565 -0.521866 1.03939
  1170 19.7541 -0.524441 -1.05540
  1171 69.8032 -0.995314 0.0410579
  1172 69.9394 -0.959146 -0.0268312
  1173 1.16502 -11.7406 0.897393
  1174 83.0416 -4.18830 -5.32531
  1175 95.6660 -0.365495 2.07711
  1176 84.2546 -5.34397 -7.53374
  1177 71.7816 0.473611 11.4018
  1178 0.313715 -3.39685 2.56034
  1179 0.349377 -3.37515 -2.52320
  1180 52.8707 -3.69500 1.57136
  1181 -3.85174 0.302048 2.11200
  1182 -3.84484 0.304691 -2.10616
  1183 141.174 22.7552 1.30996
  1184 169.050 48.7681 -34.3045
  1185 86.2214 -8.47259 6.81279
  1186 33.8407 -0.855760 -0.0567390
  1187 33.8395 -0.842342 0.0567493
  1188 181.435 17.5953 -15.9758
  1189 10.6418 -0.282358 1.56479
  1190 10.6246 -0.277477 -1.57347
  1191 79.4283 -0.261374 -4.58721
  1192 50.6532 -4.03005 4.17473
  1193 85.3108 -8.44739 -5.27111
  1194 82.4672 -5.93367 -6.11719
  1195 49.4323 -1.82739 12.0406
  1196 17.5418 3.37526 -6.06153
  1197 17.5280 3.34471 6.02094
  1198 23.6015 8.62069 -14.3967
  1199 23.6252 7.95909 14.3942
  1200 6.04832 2.00862 -1.77269
  1201 6.08720 2.00203 1.78523
  1202 101.108 17.4168 -9.29162
  1203 4.78282 4.27864 -1.37213
  1204 4.90300 4.28183 1.40679
  1205 73.1157 -5.44502 1.94872
  1206 140.345 18.3016 6.66595
  1207 15.3496 -0.657859 -1.02289
  1208 15.3566 -0.657356 1.00859
  1209 92.7649 57.6391 -53.0964
  1210 66.2774 3.89914 -9.08028
  1211 60.1999 4.70741 3.68297
  1212 7.87319 3.54323 -2.11344
  1213 7.91199 3.54216 2.12717
  1214 -0.708941 -0.00832560 0.377961
  1215 -0.728668 -0.00830434 -0.382207
  1216 81.2445 -6.46615 5.23887
  1217 80.0794 -2.97683 2.91458
  1218 54.4774 14.1345 -37.2466
  1219 126.577 27.4752 0.122456
  1220 53.3969 -1.74678 -13.3570
  1221 69.9930 -1.84947 0.616035
  1222 0.768041 -0.358211 -0.101196
  1223 0.766388 -0.358025 0.100563
  1224 -2.78058 0.545446 -0.709751
  1225 -2.74918 0.543036 0.716550
  1226 46.1748 0.388666 -14.0697
  1227 87.3341 -1.69983 3.05058
  1228 55.7998 0.719347 19.6099
  1229 76.3698 -3.55396 -2.43034
  1230 38.7528 13.1246 -28.9473
  1231 60.7533 -3.17446 -14.4963
  1232 72.7023 -7.76123 0.199985
  1233 89.8116 -1.30154 4.52551
  1234 78.7247 -1.33553 -1.00320
  1235 42.0349 -3.03508 3.68749
  1236 98.9186 -5.96467 -8.83192
  1237 92.6923 7.79097 14.6989
  1238 39.5665 0.164996 -10.9280
  1239 94.5477 -0.376119 0.429489
  1240 72.4313 9.12505 -2.07198
  1241 30.6158 -0.970425 -1.02310
  1242 30.6055 -0.957902 1.00750
  1243 145.076 31.2700 5.42484
  1244 202.537 5.40443 9.51498
  1245 0.159711 -9.28105 -1.53238
  1246 0.154171 -9.29277 1.54386
  1247 20.1527 10.2728 15.8615
  1248 49.1203 -1.19597 -0.0777721
  1249 49.1306 -1.18635 0.0972761
  1250 68.4238 -6.83679 -0.823990
  1251 80.7117 6.50211 12.8096
  1252 86.7370 -1.45798 -2.06851
  1253 102.379 -0.183625 -0.0580504
  1254 177.400 38.8185 -23.9383
  1255 25.0191 -0.896193 1.00373
  1256 25.0212 -0.898926 -1.02301
  1257 82.4577 -7.65733 5.42859
  1258 147.588 33.6862 -8.38363
  1259 80.0919 -3.27490 -3.25070
  1260 57.5701 -3.83933 -0.827688
  1261 71.3941 -7.80014 2.42739
  1262 69.8313 -3.25309 1.20905
  1263 2.35681 -0.848724 -2.47546
  1264 96.3433 -6.17030 10.1872
  1265 77.6527 -4.91828 -3.39109
  1266 2.61094 -0.716248 2.82158
  1267 80.0468 -6.81145 -13.4667
  1268 75.8846 3.87674 -30.4496
  1269 125.985 14.7992 -4.80809
  1270 102.836 0.0235008 -0.0400989
  1271 102.627 -0.0732118 0.101979
  1272 79.0645 -4.43812 3.56794
  1273 29.3205 3.49818 -10.7084
  1274 90.2457 -8.21899 8.35205
  1275 155.508 35.0715 14.9483
  1276 37.0069 12.0887 28.1518
  1277 0.851673 -0.232634 2.68765
  1278 0.890835 -0.214772 -2.66076
  1279 95.3707 -8.17345 -6.53169
  1280 36.5091 -1.88319 -1.59475
  1281 36.4985 -1.88757 1.55425
  1282 88.0471 -5.92534 11.9834
  1283 1.66442 0.0487968 1.68479
  1284 1.63434 0.0505121 -1.68533
  1285 -0.530424 -1.90553 2.58382
  1286 -0.527133 -1.90151 -2.58384
  1287 13.5659 -0.471032 -1.42768
  1288 13.5775 -0.474022 1.41512
  1289 45.1910 -2.97727 -5.98126
  1290 45.3380 -1.28852 0.176969
  1291 45.3382 -1.32365 -0.158961
  1292 102.321 0.0229579 -0.0425952
  1293 89.1568 -1.27202 -5.06342
  1294 5.81569 0.374199 -2.05097
  1295 5.84514 0.369284 2.05018
  1296 45.3738 -3.15667 5.91856
  1297 103.492 -0.0399258 0.0143236
  1298 97.3348 0.0907705 -0.104231
  1299 97.3439 0.0335668 0.0768363
  1300 127.212 25.8527 3.52815
  1301 94.4253 -0.432136 -0.938296
  1302 83.3152 -0.540314 0.217574
  1303 92.3798 -1.23122 -2.75896
  1304 101.621 -0.237714 0.428855
  1305 103.809 10.2331 13.3189
  1306 120.673 24.5163 4.82063
  1307 97.9664 -0.312570 -1.39977
  1308 -0.765612 -0.205704 0.694453
  1309 -0.768545 -0.205533 -0.696439
  1310 52.6541 -3.13901 0.930898
  1311 52.6421 -2.98910 -0.888758
  1312 104.773 11.3955 -12.7857
  1313 20.8225 7.11595 -11.7290
  1314 20.9565 6.91154 11.5870
  1315 68.6233 -0.0170616 -5.69695
  1316 72.6859 -0.824055 0.0598153
  1317 72.5971 -0.814026 -0.0745329
  1318 -1.82512 -0.348526 2.64330
  1319 -1.82180 -0.344027 -2.64203
  1320 79.6935 -0.200998 4.58216
  1321 122.961 24.5282 0.737107
  1322 6.37689 -0.309578 -0.903225
  1323 6.39209 -0.310328 0.893581
  1324 90.9906 -8.96875 5.18628
  1325 -0.187084 1.32549 2.56017
  1326 -0.161537 1.33360 -2.54397
  1327 14.3614 -0.314746 -0.260518
  1328 14.3616 -0.308544 0.254189
  1329 68.6495 -0.136498 5.78021
  1330 0.0521173 0.167220 -0.127062
  1331 0.0567440 0.167859 0.123903
  1332 93.3938 -0.908589 1.85630
  1333 129.017 23.8440 0.723409
</Section>

newXOutput 13

<Section columns = "stress_xx | stress_yy | stress_xy">
  1 114.707 -0.216764 0.205243
  2 114.913 -0.310370 -0.266875
  3 -1.19884 0.115617 -0.309020
  4 -0.0702810 -0.113024 -0.0657077
  5 217.115 78.8330 68.2837
  6 220.474 90.6824 -69.0731
  7 -0.0694505 -0.112306 0.0646304
  8 -1.19656 0.114986 0.308244
  9 115.550 -0.147732 -0.189892
  10 114.581 -0.332421 -0.262599
  11 114.597 -0.245006 0.296287
  12 113.897 -0.0790740 0.170825
  13 113.564 -0.309791 -0.0111087
  14 113.208 -0.290174 0.541657
  15 111.256 -0.174310 0.560687
  16 111.548 -0.778652 0.780698
  17 107.607 -0.624062 1.60176
  18 105.011 -0.228887 1.91417
  19 101.512 -0.317255 2.04329
  20 95.5692 -0.277935 2.78878
  21 89.2055 -0.256236 3.20187
  22 81.3873 0.384057 4.33141
  23 70.7913 0.588615 3.89174
  24 66.6269 -0.0855139 5.53506
  25 53.6143 0.780878 3.91137
  26 45.8234 1.05849 3.04364
  27 43.8047 0.439339 2.23660
  28 41.6328 1.53114 0.156565
  29 42.8116 1.68136 -2.98697
  30 45.2254 0.452263 -3.75717
  31 54.8133 0.144227 -5.04811
  32 64.5957 -0.514497 -5.30136
  33 71.1744 0.485960 -3.88996
  34 81.5104 0.440588 -4.33755
  35 88.9526 -0.308777 -3.42561
  36 96.2471 -0.339453 -2.64004
  37 101.051 -0.213836 -2.07191
  38 104.676 -0.238381 -1.77123
  39 108.518 -0.350088 -1.04823
  40 110.132 -0.319108 -1.01741
  41 111.680 -0.307099 -0.884269
  42 113.280 -0.360572 -0.227342
  43 113.935 -0.476525 -0.388238
  44 113.337 0.129510 -0.0782871
  45 114.471 -0.211307 -0.327144
  46 115.091 -0.522704 0.286031
  47 115.712 -0.282622 -0.0209364
  48 109.399 0.228710 -0.171691
  49 102.378 -0.181674 -0.332546
  50 94.5258 -0.661916 -0.509907
  51 86.4799 -0.440413 -0.375592
  52 79.5367 -0.939375 -0.347634
  53 72.2659 -1.05463 -0.325280
  54 64.9833 -0.892443 -0.185961
  55 57.3791 -1.00811 -0.240833
  56 50.9804 -1.15113 -0.305005
  57 42.5148 -1.14031 -0.260260
  58 33.8314 -0.677804 -0.166652
  59 26.6703 -0.421272 -0.138499
  60 17.8479 -0.264378 -0.0808502
  61 11.4332 -0.299655 -0.461349
  62 5.46164 -0.468889 -0.165355
  63 -0.550489 0.0590847 0.253016
  64 -2.06038 0.427707 0.0734869
  65 -2.44007 0.177691 0.248409
  66 -2.11565 0.0825820 0.230764
  67 -3.20618 0.248649 0.0606874
  68 -3.56275 0.320553 0.502707
  69 -3.56289 0.110440 0.126502
  70 -5.44098 0.231501 0.147008
  71 -6.24801 0.167851 0.469675
  72 -6.42011 0.0642380 0.484566
  73 -8.40148 0.223002 0.346210
  74 -9.06237 0.326398 0.731672
  75 -9.72548 0.198327 0.196656
  76 -10.6267 0.141643 0.351279
  77 -10.8315 0.153949 0.0863419
  78 -11.6318 0.353147 -0.322343
  79 -11.5985 0.242350 -0.245859
  80 -10.4481 0.189227 -0.409732
  81 -8.89952 0.234926 -0.725616
  82 -7.14973 0.0954424 -1.05065
  83 -5.26934 0.0490466 -1.07561
  84 -3.14217 -0.118348 -1.11702
  85 -1.33586 -0.0917971 -0.640440
  86 -0.551132 -0.230537 -0.394595
  87 -0.0986357 -0.562132 -0.336464
  88 -0.171818 -1.43621 -0.614647
  89 -0.192850 -2.88034 -1.09775
  90 -0.0489085 -5.42951 -1.20381
  91 0.0562950 -7.58261 -1.52981
  92 0.144281 -10.9440 -1.25663
  93 0.442132 -13.0781 -1.49749
  94 0.0594651 -14.2914 -1.29042
  95 -0.0338045 -16.5870 -0.863411
  96 0.446531 -16.5005 -0.411653
  97 1.76905 -21.5561 0.554418
  98 1.48105 -12.9299 2.26002
  99 3.62847 -7.80968 5.35017
  100 11.2401 13.4689 18.2540
  101 50.3405 56.8745 55.1150
  102 284.797 29.2936 42.6187
  103 235.430 8.26810 15.2794
  104 223.586 3.53367 5.29613
  105 216.846 2.35366 -0.0239680
  106 221.061 3.37067 -4.32616
  107 237.846 7.07643 -12.7130
  108 281.867 23.4853 -39.9206
  109 32.4555 64.6004 -45.5112
  110 7.87503 8.46188 -13.9205
  111 2.66592 -9.64198 -4.33576
  112 1.34129 -14.0171 -1.87622
  113 1.76299 -22.3366 -0.366678
  114 0.428920 -16.8509 0.547224
  115 -0.0594950 -16.7643 0.934635
  116 0.0429047 -14.3615 1.32885
  117 0.433266 -13.0967 1.51394
  118 0.140852 -10.9404 1.26286
  119 0.0536593 -7.57359 1.53225
  120 -0.0501922 -5.41728 1.20335
  121 -0.193052 -2.87241 1.09567
  122 -0.172186 -1.42922 0.612626
  123 -0.0985863 -0.559514 0.334641
  124 -0.547967 -0.230264 0.393091
  125 -1.33031 -0.0921793 0.638851
  126 -3.13525 -0.119231 1.11618
  127 -5.26161 0.0481052 1.07598
  128 -7.14597 0.0944296 1.05257
  129 -8.90263 0.234239 0.729178
  130 -10.4581 0.189206 0.413481
  131 -11.6172 0.242202 0.249455
  132 -11.6577 0.353220 0.326020
  133 -10.8651 0.154387 -0.0832687
  134 -10.6660 0.142177 -0.349147
  135 -9.76715 0.198912 -0.195097
  136 -9.10662 0.327070 -0.731308
  137 -8.44633 0.223610 -0.345937
  138 -6.46337 0.0646077 -0.485047
  139 -6.29050 0.168477 -0.470761
  140 -5.48060 0.232398 -0.148515
  141 -3.59633 0.111050 -0.129067
  142 -3.58960 0.321117 -0.506289
  143 -3.22748 0.248762 -0.0638998
  144 -2.12868 0.0824457 -0.233806
  145 -2.44675 0.177349 -0.250823
  146 -2.06300 0.427083 -0.0756122
  147 -0.549856 0.0587296 -0.254216
  148 5.46187 -0.470597 0.164024
  149 11.4329 -0.304176 0.459819
  150 17.8487 -0.272493 0.0789317
  151 26.6725 -0.433063 0.137453
  152 33.8327 -0.691565 0.166403
  153 42.5121 -1.15235 0.261962
  154 50.9678 -1.15749 0.308736
  155 57.3562 -1.00156 0.249879
  156 64.9480 -0.866409 0.196622
  157 72.2155 -0.992054 0.308612
  158 79.5683 -0.956301 0.307545
  159 86.5022 -0.550300 0.395428
  160 94.6023 -0.641449 0.467751
  161 102.596 -0.121358 0.336933
  162 109.183 0.222630 0.165897
  163 61.1793 -5.46438 -4.14210
  164 60.9177 -5.56224 4.13322
  165 17.5312 4.96481 -6.46458
  166 17.7078 4.98510 6.43111
  167 72.9730 -3.82720 17.8799
  168 76.6509 -4.30475 -17.3752
  169 34.1177 -1.71706 1.82130
  170 34.1186 -1.69893 -1.85720
  171 78.1823 -2.41765 1.00458
  172 76.5169 -2.42482 -0.983153
  173 103.093 18.8101 -3.00805
  174 106.091 0.330405 -15.3296
  175 103.803 1.20140 16.2742
  176 23.3152 -0.830657 -4.25399
  177 23.3112 -0.823136 4.24146
  178 91.6531 -9.13628 6.14283
  179 91.5005 -7.03451 -8.00715
  180 0.888404 1.85052 2.66139
  181 0.925102 1.86267 -2.64005
  182 125.139 25.2818 5.59306
  183 23.1043 10.1282 -15.6509
  184 24.8729 10.2367 16.8793
  185 88.7467 -3.92591 4.03036
  186 133.478 27.5233 -3.71025
  187 56.2310 -1.78531 -0.277330
  188 56.1325 -1.84020 0.270064
  189 91.4736 -2.64452 -3.62881
  190 122.929 -1.76088 0.181380
  191 20.1266 -0.581902 0.646818
  192 20.1256 -0.588142 -0.660666
  193 8.33704 1.23905 -2.70344
  194 8.37707 1.22638 2.70900
  195 50.0685 -1.95161 -10.8210
  196 49.8693 -2.06465 10.9674
  197 60.1143 -3.71164 -1.01752
  198 60.2371 -3.69047 1.13663
  199 13.9086 -0.483200 2.18109
  200 13.8912 -0.475909 -2.18865
  201 121.694 -3.23712 6.18101
  202 98.4808 -9.96809 -3.45334
  203 94.2217 -0.658476 -0.679126
  204 91.9643 -0.844219 0.710934
  205 90.9509 10.6157 11.2556
  206 3.57024 2.68330 -0.509705
  207 3.71174 2.67318 0.571863
  208 91.7747 -3.76849 13.1481
  209 83.0553 6.27091 -12.6868
  210 60.2110 12.5507 -37.8861
  211 63.3146 10.5757 35.1544
  212 0.852268 1.95625 0.261872
  213 0.886128 1.95519 -0.246321
  214 91.4002 -3.34421 -13.5464
  215 162.014 22.9679 -1.38181
  216 76.0203 -8.38876 5.64720
  217 76.6328 -8.33419 -5.27992
  218 75.9964 -5.24154 -1.35602
  219 95.6005 -1.24466 2.01407
  220 44.4690 -2.95761 -3.56311
  221 43.7226 -2.94385 3.70316
  222 26.1947 0.613126 -6.63127
  223 26.2286 0.601862 6.56458
  224 97.6163 -10.5961 0.297030
  225 75.3321 -5.58981 1.03720
  226 95.2838 -1.19767 -1.64839
  227 73.1855 -1.54690 0.310487
  228 73.8659 -1.41513 -0.164167
  229 93.2472 -4.07218 7.89307
  230 6.44644 0.116860 -2.32203
  231 6.47603 0.113205 2.31979
  232 -1.27177 -0.886157 -3.23540
  233 -1.27782 -0.893345 3.23828
  234 11.9654 -0.563343 -1.22460
  235 11.9783 -0.564685 1.21116
  236 37.5895 -0.978589 0.786414
  237 37.6025 -1.00043 -0.795415
  238 44.2814 2.95473 -16.2450
  239 44.2857 2.44511 16.0517
  240 94.6920 -2.82777 -6.74713
  241 43.0730 -2.46087 -6.22660
  242 43.1057 -2.53829 6.11937
  243 81.6540 1.14607 14.2678
  244 70.0315 6.08066 0.856748
  245 80.8365 -8.00656 -1.41214
  246 0.245186 -2.31122 -3.14059
  247 0.218345 -2.33178 3.16409
  248 4.81370 4.07980 -4.81197
  249 5.14191 3.89199 5.10772
  250 79.4374 -7.82586 0.865849
  251 145.926 25.6485 0.528532
  252 6.79887 4.72556 -1.66366
  253 6.88604 4.72166 1.69020
  254 -3.36393 0.615041 2.34624
  255 -3.34870 0.618172 -2.33590
  256 146.952 23.7751 0.209329
  257 49.2129 -2.19364 -1.13054
  258 49.1713 -2.15317 1.09367
  259 99.1567 -6.89773 12.6101
  260 182.574 29.5965 17.6995
  261 27.9090 -1.42370 -3.42644
  262 27.8974 -1.43374 3.42013
  263 99.8805 14.8989 -10.9982
  264 175.654 33.1527 -15.7173
  265 121.376 11.3618 11.5438
  266 133.913 6.21366 -22.9645
  267 81.0069 -3.58379 1.99312
  268 91.4100 0.245735 -16.2406
  269 87.3884 -6.04500 -4.91455
  270 97.9816 -1.60986 4.34173
  271 -0.908257 0.922372 -0.605774
  272 -0.874780 0.919214 0.616430
  273 97.2160 -4.01776 -22.6128
  274 9.35337 3.09620 -2.64087
  275 9.39982 3.08959 2.65706
  276 93.2098 -2.22973 -8.38228
  277 12.7946 11.9546 -16.1711
  278 8.52822 -0.0249875 -0.272317
  279 8.53058 -0.0224358 0.266645
  280 98.7102 -6.34952 -13.0942
  281 16.4413 7.37974 -8.31186
  282 16.6849 7.33485 8.33410
  283 3.10781 -0.130024 1.64405
  284 3.07754 -0.128139 -1.64666
  285 80.9027 -3.37589 -1.93069
  286 12.8755 11.8144 16.6464
  287 131.747 7.59814 27.2542
  288 33.4285 -1.23396 -1.02396
  289 33.4175 -1.22431 1.00243
  290 63.9334 -2.38540 -0.0685930
  291 63.8997 -2.61047 0.133992
  292 54.5496 4.88976 -25.2760
  293 89.1059 -9.84147 -2.70962
  294 103.008 -0.428093 0.916756
  295 52.4827 4.85474 24.3937
  296 61.0827 -1.37475 0.00651569
  297 61.0582 -1.37293 0.0495020
  298 87.5161 -6.31044 5.01243
  299 101.738 -0.906779 -2.15074
  300 -1.88976 0.389111 -1.18251
  301 -1.85355 0.386254 1.18692
  302 126.119 25.3805 -1.68765
  303 111.522 -5.66612 7.64791
  304 101.571 -0.290730 -0.277847
  305 103.475 -0.247791 0.251602
  306 100.333 -9.30516 7.19660
  307 123.897 12.1289 -10.9485
  308 106.504 19.9236 6.55780
  309 46.9031 -2.74880 -2.05122
  310 46.4500 -2.80261 2.10424
  311 102.938 -0.401715 -0.667213
  312 65.8667 -5.11633 -11.9353
  313 64.6287 -4.96481 1.36749
  314 61.6358 -3.51047 13.7648
  315 100.727 -1.04236 2.53649
  316 20.5998 -0.939715 -2.09646
  317 20.6094 -0.946978 2.08373
  318 92.4230 -3.77776 22.3611
  319 57.3148 -4.42296 -2.55051
  320 106.873 13.4482 13.9394
  321 32.9963 2.34929 -10.2074
  322 31.7189 2.45246 10.1090
  323 7.35794 -0.184120 -0.497599
  324 7.36654 -0.182650 0.488528
  325 88.5855 -1.49508 1.32847
  326 84.8669 -0.880208 0.280018
  327 84.3654 -0.994710 -0.311622
  328 92.4144 -2.35171 8.85754
  329 5.78410 -0.264043 1.18626
  330 5.76016 -0.261338 -1.19400
  331 24.8229 -0.535206 -0.410902
  332 24.8197 -0.524075 0.404829
  333 0.785098 -4.76000 -1.97941
  334 0.727106 -4.79279 2.04842
  335 69.5061 2.96129 9.59987
  336 112.654 -5.45823 -6.56914
  337 71.8077 -3.58031 0.964411
  338 81.8876 -1.33101 -0.830462
  339 83.4674 10.4529 -5.99849
  340 14.9862 -0.455062 -3.11872
  341 15.0029 -0.455119 3.11361
  342 69.7235 -3.35807 -0.577560
  343 18.4745 0.732342 -4.54438
  344 18.5078 0.715310 4.52523
  345 3.23045 3.07483 0.532306
  346 3.27581 3.07331 -0.513828
  347 85.5013 -9.38811 7.53629
  348 194.711 12.9382 4.95340
  349 73.8507 1.00833 -11.4029
  350 62.7776 -5.64581 6.94996
  351 62.4558 -5.53901 -7.18997
  352 93.2098 -1.74548 16.1475
  353 81.9524 -0.666757 11.3616
  354 84.3376 -9.07975 -7.82121
  355 48.8706 -1.03106 -0.0783679
  356 48.8641 -1.04700 0.0910921
  357 93.3133 -6.11308 10.2880
  358 127.665 25.7052 1.16773
  359 101.106 -0.998269 -3.21488
  360 23.6817 -0.876999 -1.45717
  361 23.6872 -0.877428 1.43730
  362 94.7872 -9.39203 -9.56458
  363 98.4449 6.64346 -16.2200
  364 63.3612 3.42903 -6.13504
  365 93.9183 -6.33882 -11.6498
  366 -3.15909 0.0661905 -2.50551
  367 -3.16269 0.0626439 2.50876
  368 78.9275 -1.56463 0.657401
  369 -1.12501 -0.675750 -1.43937
  370 -1.12385 -0.676051 1.43666
  371 61.4940 28.1026 -46.4282
  372 2.10641 1.77862 2.02804
  373 2.16616 1.79367 -1.99660
  374 81.2563 -0.705362 -11.2637
  375 44.1394 -1.72723 0.840645
  376 44.1755 -1.75414 -0.855672
  377 -0.354138 -3.41484 2.84429
  378 -0.349021 -3.40857 -2.84106
  379 49.6117 29.5772 43.5916
  380 35.9121 -1.85052 -4.75610
  381 35.9365 -1.76415 4.75948
  382 11.2182 8.03309 -7.57523
  383 11.4642 8.00316 7.52315
  384 -5.13137 0.683553 1.09136
  385 -5.11076 0.684436 -1.08058
  386 94.7240 6.12832 16.1394
  387 72.8388 -7.61706 2.72478
  388 72.9162 -6.56002 0.500738
  389 89.0336 -10.2404 0.0173736
  390 21.0572 2.73995 -6.46658
  391 21.1264 2.73334 6.45259
  392 1.82064 -3.75868 -0.341386
  393 1.71369 -3.80209 0.493709
  394 88.2237 12.7154 3.99769
  395 91.1723 -2.37840 3.03212
  396 50.7234 -3.86566 4.24343
  397 30.6941 -0.712741 -5.81058
  398 30.7008 -0.718058 5.75719
  399 65.4888 -1.70406 0.137854
  400 65.4127 -1.45525 -0.193923
  401 50.2874 -3.97767 -4.56112
  402 38.9793 -0.619816 -8.07049
  403 38.9682 -0.675325 8.13861
  404 94.7231 -8.78502 -7.67296
  405 53.7856 -4.01946 2.42541
  406 86.3062 -2.37009 1.99996
  407 86.1761 -2.12622 -1.72585
  408 71.5198 -6.50659 -0.770131
  409 105.096 -0.282050 -0.962369
  410 33.9163 13.2291 -25.4653
  411 97.6283 -1.31517 5.18125
  412 104.641 -0.388198 1.36555
  413 35.1371 -1.80858 2.70131
  414 35.1584 -1.78251 -2.69888
  415 72.5029 -7.52403 -2.85533
  416 9.54958 4.44221 2.82616
  417 9.49670 4.44015 -2.83118
  418 196.843 12.9276 -10.1917
  419 84.3224 -4.62407 -3.07269
  420 106.101 -0.190534 0.555361
  421 31.9393 12.2721 24.1629
  422 155.337 26.3374 4.47772
  423 91.1681 -1.10465 -1.07816
  424 66.9431 -4.70011 -0.526164
  425 27.1089 5.24775 -11.6022
  426 28.9418 4.87417 11.5327
  427 83.2338 -5.11043 3.13480
  428 87.4397 -1.14792 -8.43899
  429 -2.25066 -0.0652063 1.21934
  430 -2.28749 -0.0642592 -1.21931
  431 30.8599 7.32500 -15.8600
  432 30.9560 7.35422 15.8083
  433 2.86052 1.73434 -1.01331
  434 2.89763 1.73007 1.02659
  435 74.5555 -1.11987 0.288214
  436 74.4660 -1.08132 -0.261141
  437 93.0741 -4.17258 -8.23758
  438 -0.405490 -0.458337 3.60484
  439 -0.389131 -0.444458 -3.59245
  440 96.0373 -9.61393 6.90270
  441 91.0954 -2.19532 -2.71589
  442 147.442 28.3332 -3.41099
  443 3.37329 -0.246319 0.534534
  444 3.35459 -0.246393 -0.542529
  445 179.754 49.2155 20.7646
  446 3.32005 -0.380696 -4.37283
  447 9.49912 0.560004 -2.99792
  448 9.53124 0.551597 2.99531
  449 178.898 50.2180 -19.5213
  450 3.51834 0.0140489 4.89262
  451 -5.13525 0.553268 0.478824
  452 -5.10903 0.552251 -0.468827
  453 9.12678 6.21915 -4.14584
  454 9.29221 6.21793 4.17041
  455 114.361 17.6151 -11.8705
  456 92.2250 -3.45155 -5.50052
  457 105.485 -0.230083 -0.506173
  458 96.2028 -1.41947 -6.03282
  459 -1.34540 0.575544 3.32257
  460 -1.32886 0.584303 -3.31112
  461 93.1461 -3.62638 6.30778
  462 59.4205 -3.14595 -0.767348
  463 59.2279 -3.18200 0.555475
  464 81.7473 -9.04638 -0.274642
  465 57.7051 -0.965052 -17.1003
  466 88.4242 -1.37991 8.64284
  467 72.6371 -2.05905 -0.426221
  468 108.055 -8.57795 0.198477
  469 55.8500 0.297744 18.3954
  470 2.29185 -0.0570801 1.17506
  471 2.26164 -0.0554292 -1.17909
  472 117.179 23.2425 -5.62751
  473 95.2496 -0.435201 0.127645
  474 94.9067 -0.527405 -0.218860
  475 70.4929 -4.52283 -0.269657
  476 29.0698 -0.916578 -0.775347
  477 29.0632 -0.903600 0.761837
  478 16.7847 -0.140610 -3.70512
  479 16.8014 -0.143947 3.69409
  480 56.3676 2.20351 3.64866
  481 12.9584 -0.445822 1.73542
  482 12.9426 -0.441181 -1.74731
  483 14.8304 1.54177 4.15685
  484 14.7811 1.56452 -4.15531
  485 91.3434 -7.04707 7.71799
  486 50.0073 -3.09497 -7.51774
  487 45.7016 -1.29642 0.365985
  488 45.7216 -1.33551 -0.367825
  489 50.5502 -3.19549 7.51169
  490 143.689 33.5499 -1.24498
  491 -2.30166 -0.364033 -1.89607
  492 -2.30078 -0.365802 1.89529
  493 33.9861 -0.838960 -0.308741
  494 33.9820 -0.822908 0.306702
  495 0.0129928 -6.37672 -2.46468
  496 -0.00183464 -6.39690 2.48515
  497 83.6503 -0.940448 0.520844
  498 55.9560 2.73976 -1.82238
  499 77.5372 8.19573 5.34651
  500 49.7942 -0.538137 -13.4259
  501 23.0482 -1.16710 2.65423
  502 23.0505 -1.15687 -2.66145
  503 -7.31793 0.219512 -0.319923
  504 -7.28260 0.218267 0.324199
  505 98.3826 -2.07241 -16.2009
  506 5.25357 0.0664377 -0.378887
  507 5.25912 0.0677679 0.372416
  508 81.9019 -6.33271 -2.77910
  509 87.4468 -7.38948 -4.86674
  510 17.1305 12.5051 -16.7728
  511 73.3713 1.48541 -27.6185
  512 0.490408 2.06323 1.86773
  513 0.524228 2.06704 -1.84940
  514 43.4615 -1.87387 -1.33807
  515 43.4355 -1.85375 1.29682
  516 127.836 4.30520 -4.92593
  517 91.0253 -5.27781 -6.96968
  518 16.6813 11.7577 16.5183
  519 90.2195 -10.3881 1.37537
  520 86.6033 -8.20989 4.03336
  521 16.1995 -0.382923 -1.12673
  522 16.2052 -0.380886 1.11203
  523 68.7052 0.686904 8.80912
  524 50.2701 -3.59811 -2.63544
  525 96.5250 -1.95568 4.01823
  526 -0.410627 -2.33491 -1.83253
  527 -0.411638 -2.33349 1.83025
  528 66.5917 -5.96888 8.46771
  529 102.678 -8.13860 -9.08391
  530 135.489 7.96393 -2.74704
  531 71.6988 -2.15075 0.498712
  532 19.1319 -0.322761 -0.341552
  533 19.1308 -0.314644 0.337565
  534 44.6033 0.323095 12.8909
  535 128.240 20.7102 8.86628
  536 132.881 22.5207 -44.3332
  537 117.021 -0.0175738 9.03053
  538 83.4379 -9.31019 -0.190281
  539 203.329 16.1582 13.5847
  540 147.749 34.6773 2.25604
  541 18.8883 -0.764623 2.91735
  542 18.8779 -0.756400 -2.92509
  543 80.1021 -6.52583 2.28091
  544 5.20835 2.78095 -0.826168
  545 5.25102 2.77849 0.842172
  546 101.388 -8.66416 9.05876
  547 80.7945 4.26391 13.1103
  548 102.758 -0.560250 2.21544
  549 74.8301 -4.28155 1.30746
  550 106.753 -0.346293 -29.1067
  551 171.785 40.8460 27.4990
  552 81.7051 -1.28411 -0.492201
  553 100.610 -0.928371 -3.47872
  554 14.8102 6.27236 -6.04862
  555 14.9195 6.19538 6.01473
  556 56.0882 -2.02865 -0.447481
  557 56.0598 -1.97262 0.464627
  558 0.583202 -8.50901 -0.358587
  559 102.076 -3.92011 14.6583
  560 3.43600 3.22928 0.944285
  561 3.49617 3.23711 -0.916967
  562 0.692538 -8.26321 0.572890
  563 92.5433 -4.25754 -11.6977
  564 106.713 6.36606 -15.8230
  565 106.255 7.25093 15.8032
  566 4.74936 3.48050 2.99490
  567 4.49605 3.58683 -2.91184
  568 -4.31975 0.111453 0.893147
  569 -4.35832 0.112469 -0.891823
  570 99.1977 1.37787 30.0929
  571 52.5582 -2.74375 1.19563
  572 52.6151 -2.73355 -1.23645
  573 120.173 -3.30515 -14.4848
  574 12.8821 -0.165932 0.656811
  575 12.8788 -0.169597 -0.666582
  576 4.32722 -0.180760 -0.161706
  577 4.32795 -0.179523 0.159453
  578 130.882 22.9785 -7.59011
  579 11.9871 15.1608 -18.7267
  580 65.3245 1.24630 -7.43907
  581 94.7401 15.2487 -6.86762
  582 1.22189 -0.472785 2.49283
  583 1.27928 -0.453684 -2.45444
  584 100.421 41.1795 52.5817
  585 82.8957 -2.01320 -1.26634
  586 1.83134 0.855797 -1.39258
  587 1.86728 0.849591 1.40014
  588 95.6793 -7.80531 10.4284
  589 14.2296 14.6242 19.0666
  590 68.4133 -1.12308 -0.00791544
  591 68.4307 -1.11077 0.00760591
  592 -0.104048 -5.00884 2.49842
  593 -0.0966258 -5.00050 -2.49027
  594 116.829 23.0675 -0.186899
  595 74.2930 -6.19037 12.4634
  596 70.7662 -2.76052 0.507642
  597 71.5684 2.60048 29.1771
  598 -6.09787 0.282904 1.53891
  599 -6.09159 0.284411 -1.53325
  600 118.554 0.801317 -9.63935
  601 161.134 23.7380 -19.0395
  602 43.7186 4.26772 -18.9720
  603 22.4848 -0.902378 -3.59685
  604 22.5026 -0.901998 3.59548
  605 108.308 -0.243776 0.675044
  606 70.0218 -2.82744 -0.604232
  607 95.4800 -1.03745 1.52721
  608 92.5581 -4.24554 11.4355
  609 1.50731 -0.142614 0.562841
  610 1.48266 -0.141955 -0.568866
  611 53.7928 -1.64408 -0.238942
  612 53.7835 -1.59011 0.221551
  613 33.0141 0.777791 -8.34565
  614 32.7884 0.786832 8.30093
  615 136.470 6.36318 5.92445
  616 227.339 17.1228 -24.9948
  617 -3.45678 -0.125648 0.796175
  618 -3.49554 -0.125179 -0.796614
  619 30.5083 -1.22230 1.46412
  620 30.5108 -1.22130 -1.49120
  621 126.348 5.82464 6.65093
  622 107.298 -0.203656 -0.214972
  623 107.043 -0.376919 0.110568
  624 73.9599 -0.0857728 8.74688
  625 111.111 -7.24645 -8.31821
  626 58.6581 -4.71832 3.17470
  627 -1.84297 1.28053 -1.66157
  628 -1.86822 1.27892 1.67585
  629 94.9519 1.71740 16.8407
  630 36.3336 -2.01789 -3.70005
  631 36.2913 -2.05362 3.70775
  632 77.6329 -4.27337 -1.60035
  633 97.0448 -1.93201 -3.64910
  634 53.8502 -4.23578 -5.21609
  635 88.4336 10.6649 -10.2135
  636 59.9359 -4.19046 -10.0022
  637 19.9852 -0.518688 -0.550925
  638 19.9843 -0.511250 0.540790
  639 54.4396 -4.31903 5.22713
  640 119.537 18.8411 10.9358
  641 94.6733 -4.74318 14.3827
  642 77.5334 -3.18554 1.40650
  643 54.4074 -1.19349 0.249611
  644 54.3933 -1.19742 -0.238638
  645 40.2111 -1.35369 -0.999060
  646 40.1920 -1.33592 0.983611
  647 91.4766 -8.43222 -6.47678
  648 44.7742 -2.39731 1.77573
  649 44.8280 -2.38808 -1.82644
  650 89.7665 14.0091 -1.38457
  651 84.4904 -4.22948 3.06650
  652 107.559 -0.386364 -1.01241
  653 88.8922 -1.76551 -14.7214
  654 11.0673 -0.513626 2.33475
  655 11.0464 -0.509768 -2.33882
  656 104.469 -0.459837 -1.99996
  657 17.4861 8.90047 -11.5807
  658 17.7931 8.87363 11.6386
  659 106.219 -7.14561 12.1786
  660 35.1587 8.56236 19.9727
  661 7.13188 -0.00876766 2.34344
  662 7.10546 -0.00683459 -2.34644
  663 89.9146 -6.31449 16.3455
  664 89.2166 10.8521 -40.2369
  665 84.4593 2.50051 -14.5864
  666 112.797 20.2874 9.21102
  667 76.1252 -3.10978 -1.06262
  668 137.777 25.1951 -0.608118
  669 -7.40474 0.311788 -0.117532
  670 -7.37447 0.310880 0.123825
  671 60.2650 -0.00765102 -20.2291
  672 1.55763 -0.0794570 0.452429
  673 1.54255 -0.0796987 -0.458449
  674 76.1817 -6.65564 -12.2978
  675 24.0851 3.40814 -7.99679
  676 23.8805 3.41734 7.98994
  677 -0.294180 1.24030 -0.111788
  678 -0.261379 1.23825 0.125264
  679 64.1498 -5.44516 -2.11921
  680 91.5008 -0.892923 -5.70011
  681 42.1788 -1.14120 -0.380278
  682 42.1783 -1.12520 0.384130
  683 29.8978 -1.47531 -2.28552
  684 29.9184 -1.49730 2.27354
  685 5.44191 4.48712 -0.945291
  686 5.53967 4.49475 0.976645
  687 95.4076 -0.850727 0.853564
  688 40.3615 -2.47335 3.00004
  689 40.6413 -2.42609 -2.99534
  690 105.153 -8.86095 -2.76729
  691 85.9887 -8.63424 -3.10675
  692 67.0274 -1.58177 0.238438
  693 66.7769 -1.44920 -0.199811
  694 95.1904 -10.3976 3.85255
  695 155.679 31.1958 6.97282
  696 83.4297 -4.24696 -20.6501
  697 95.6967 -2.56025 6.19535
  698 94.3556 -3.68697 -15.3362
  699 27.4320 -0.785255 -1.01993
  700 27.4274 -0.777790 1.00195
  701 73.8827 -1.76351 23.3025
  702 213.877 27.0606 24.8521
  703 13.1693 4.01424 -4.30067
  704 13.1870 4.04018 4.31534
  705 95.1897 -0.621571 -0.445105
  706 95.9827 -0.538156 0.450890
  707 39.3610 18.5984 -33.0984
  708 100.540 -0.444976 3.44320
  709 86.8422 -1.16055 0.793516
  710 113.039 22.6345 -3.49603
  711 10.4458 2.05744 -3.01299
  712 10.4930 2.04399 3.02459
  713 109.611 -0.156424 0.149222
  714 87.0817 -3.09838 -2.90998
  715 108.799 -2.12743 13.1778
  716 42.9598 -2.94790 -4.96161
  717 43.0686 -2.81380 4.90372
  718 7.96798 -0.312811 1.76913
  719 7.94484 -0.308531 -1.77611
  720 99.7222 -0.415798 -0.740505
  721 85.5958 15.0276 42.8760
  722 0.401485 0.353407 3.16058
  723 0.432453 0.370765 -3.13946
  724 99.6920 -0.848011 -1.78031
  725 96.5381 -1.53048 2.51371
  726 73.5697 -0.0145621 -9.38139
  727 0.650701 -9.37001 -1.43091
  728 0.604259 -9.45489 1.51634
  729 33.7958 8.79984 -19.9567
  730 75.9793 -7.78010 -8.54728
  731 38.9679 18.4626 33.4620
  732 107.960 -0.132574 0.435191
  733 101.146 15.0787 11.0740
  734 71.8003 6.58546 -3.71143
  735 134.151 27.1074 -0.996777
  736 106.143 -0.326910 1.34129
  737 -7.45006 0.159222 0.614896
  738 -7.48864 0.160101 -0.612374
  739 112.423 -7.12095 1.32183
  740 71.5874 -1.73933 0.290553
  741 24.7122 0.119075 -5.54700
  742 24.7417 0.0932350 5.50738
  743 96.7835 -0.865984 -1.14049
  744 171.998 24.4560 -8.31408
  745 9.03684 -0.293644 -1.04904
  746 9.05480 -0.295511 1.03837
  747 108.707 -0.173969 -0.647799
  748 19.0527 -0.856143 -1.47386
  749 19.0612 -0.859206 1.45822
  750 104.605 -4.54972 -13.4292
  751 96.3698 -0.961500 4.66214
  752 85.1050 -0.700041 14.4743
  753 109.094 -0.182224 -0.0590170
  754 101.023 -0.533918 1.39153
  755 64.3615 -3.22953 -0.000655337
  756 81.8044 -1.82477 1.02756
  757 92.8383 -5.71286 -9.97901
  758 90.6716 -5.60493 6.77708
  759 105.666 12.4854 -14.0445
  760 89.4827 -4.86103 5.18262
  761 94.2359 -5.67431 12.5776
  762 53.5275 -3.46687 1.74014
  763 1.78147 -1.31748 -0.741080
  764 1.67791 -1.32199 0.838559
  765 83.0070 -0.891224 0.0664860
  766 82.8252 -0.881769 -0.0983262
  767 100.821 -0.203965 -0.0954878
  768 101.192 -0.181461 0.120660
  769 94.5398 -2.58220 7.46848
  770 87.3804 -8.38912 11.4915
  771 71.0462 -5.62204 0.160838
  772 62.7518 -3.52253 0.483702
  773 175.733 22.6438 9.87082
  774 96.0132 -2.27534 -4.98469
  775 55.4567 9.02409 -31.1827
  776 88.9509 -4.20215 -4.53160
  777 2.07560 0.0998821 -1.60521
  778 2.10993 0.0966415 1.60648
  779 77.0013 6.75935 -8.33479
  780 208.603 6.36364 -2.76920
  781 99.5044 2.25434 -16.6308
  782 3.75924 -0.388683 -6.88872
  783 101.475 18.4639 2.86163
  784 80.0430 -4.88601 2.12341
  785 89.3417 -2.35737 14.3106
  786 75.5664 -8.11915 8.59809
  787 123.589 -2.22201 18.3022
  788 4.05296 0.542033 7.40853
  789 53.9883 -0.463060 15.5284
  790 76.5647 -1.63821 -0.568948
  791 85.5817 -8.02661 -11.6461
  792 51.2608 -3.90043 -3.45206
  793 40.3268 1.87027 -13.4108
  794 98.8180 -1.81740 16.3117
  795 62.6487 -4.09654 1.10405
  796 9.70769 -0.308971 0.975750
  797 9.69623 -0.309488 -0.987512
  798 91.7917 -0.477815 5.06031
  799 82.1333 0.288495 -13.9990
  800 -7.58417 0.321290 1.00624
  801 -7.57306 0.321810 -1.00017
  802 60.9036 -1.62725 0.0929427
  803 60.7147 -1.51998 -0.111320
  804 44.8954 4.80834 19.2748
  805 39.2855 -2.19770 2.17269
  806 39.3480 -2.13978 -2.20312
  807 108.716 -0.0937971 -0.383313
  808 36.1550 2.82932 13.0314
  809 -1.15996 -0.0315784 0.622296
  810 -1.19236 -0.0307759 -0.625997
  811 90.6479 -2.84226 11.1526
  812 98.8082 -0.592318 0.606922
  813 -5.26833 0.0430047 1.48476
  814 -5.26860 0.0445930 -1.48188
  815 59.1395 -3.80781 11.3519
  816 10.9089 8.68546 -9.59720
  817 11.0481 8.23354 9.43601
  818 53.0284 2.40904 1.51670
  819 -3.06557 -0.0395823 -0.721387
  820 -3.02744 -0.0401437 0.720018
  821 68.3562 -6.58337 -8.02484
  822 94.3547 -10.0594 -4.48795
  823 -0.460075 -0.438331 -0.572524
  824 -0.458801 -0.437383 0.570493
  825 2.07827 0.175912 -0.133519
  826 2.08100 0.176871 0.130091
  827 83.5823 -7.36183 3.14825
  828 69.8741 -7.19756 5.27354
  829 78.0485 -0.968043 0.419812
  830 69.6706 -5.47658 -0.441365
  831 23.4767 -0.317183 -0.0856814
  832 23.4746 -0.306462 0.0831310
  833 -8.67702 0.180749 0.636810
  834 -8.65949 0.180485 -0.630930
  835 88.8365 -0.828204 -0.595217
  836 75.8262 2.88474 -11.8403
  837 89.7347 -1.48750 -1.60016
  838 51.3646 -3.82048 3.25901
  839 87.2596 -1.58873 -11.6685
  840 94.4417 -2.81034 -7.72180
  841 89.2224 -0.664959 0.540626
  842 63.9542 -2.66251 15.9549
  843 68.3499 -6.62433 -2.58215
  844 40.3616 -0.292876 -10.0855
  845 40.5916 -0.0114935 10.1381
  846 57.7949 -4.18263 -1.89009
  847 96.6020 10.3011 14.2014
  848 93.0093 -10.0079 -5.73981
  849 31.3680 -0.901249 -0.481709
  850 31.3610 -0.884884 0.474227
  851 70.3934 -1.26998 -0.149176
  852 70.3940 -1.28356 0.169371
  853 82.9274 -0.666272 -7.58871
  854 26.4686 -1.07609 -1.83535
  855 26.4793 -1.08469 1.81437
  856 0.311803 -9.16624 -1.91366
  857 0.293694 -9.20454 1.94946
  858 11.6967 -0.169582 -0.112569
  859 11.6963 -0.174095 0.109518
  860 88.0718 -1.06537 -0.841330
  861 65.6825 -6.24593 4.70977
  862 103.785 -9.26716 4.84971
  863 57.0872 1.21691 5.81686
  864 90.0279 -1.84213 1.81315
  865 97.9369 -8.98429 -8.46428
  866 12.6900 0.923219 -3.57647
  867 12.7275 0.908402 3.57191
  868 77.6347 -1.06406 -0.386881
  869 61.6752 -1.87302 -0.103454
  870 61.4472 -1.85258 0.158075
  871 95.0501 14.8716 7.72704
  872 32.1773 -0.255920 -6.81045
  873 32.1399 -0.294888 6.77355
  874 66.3038 -5.89718 1.90311
  875 5.76517 3.96731 -0.773574
  876 5.82642 3.95815 0.789706
  877 55.7377 -3.99671 9.07045
  878 67.3106 -4.09069 0.0482338
  879 83.4700 -0.688862 7.66971
  880 83.3872 -9.48756 1.99524
  881 95.7858 -7.41722 -11.1555
  882 65.5229 -6.29804 -4.79346
  883 53.9370 -3.44971 -1.65022
  884 184.391 15.3171 -2.77633
  885 87.4709 -9.31747 2.61318
  886 1.99965 2.64899 1.54883
  887 2.04369 2.65333 -1.52648
  888 75.6094 -7.52472 0.492519
  889 83.2859 -9.53175 -4.37195
  890 2.00759 2.38935 0.618858
  891 2.04570 2.38929 -0.602135
  892 29.8563 -0.995989 5.04040
  893 29.8812 -1.03027 -5.07766
  894 36.6014 -1.79285 5.55363
  895 36.5930 -1.83949 -5.60118
  896 119.936 24.1390 4.62407
  897 -0.193881 -3.71849 -1.79350
  898 -0.195184 -3.71472 1.79256
  899 26.3603 2.31709 -7.58924
  900 26.2205 2.26815 7.50204
  901 216.096 7.02991 -11.0461
  902 1.08429 -0.00702671 0.240039
  903 1.07490 -0.00773990 -0.244748
  904 0.317156 -10.9478 0.926251
  905 0.375879 -10.7807 -0.784684
  906 -3.98221 -0.0628216 1.49255
  907 -3.98597 -0.0616363 -1.49193
  908 21.0156 6.23721 -9.01014
  909 21.3456 6.03190 8.86703
  910 -1.88847 -0.00428906 -3.22598
  911 -1.89709 -0.0108684 3.23156
  912 4.99295 0.599609 -2.24131
  913 5.02848 0.592248 2.24355
  914 22.5682 -0.186383 4.61000
  915 22.5564 -0.185556 -4.63978
  916 17.9775 -0.578664 -3.69083
  917 17.9927 -0.577028 3.68180
  918 104.742 -0.314273 -1.93670
  919 49.7429 10.0486 28.8549
  920 69.0585 -6.75687 2.34626
  921 48.1796 -3.33518 2.52117
  922 94.3065 9.57504 -13.9601
  923 212.445 4.62502 4.36458
  924 113.701 4.58392 -14.0205
  925 16.6831 -0.638451 2.25136
  926 16.6694 -0.630596 -2.26309
  927 1.54649 -0.0822465 -1.66682
  928 1.57911 -0.0832805 1.66561
  929 -0.176906 -1.96860 -3.55423
  930 -0.191583 -1.98273 3.56566
  931 49.8203 -1.99443 0.961666
  932 49.8497 -2.03971 -0.970128
  933 5.04929 1.65562 -1.86408
  934 5.08834 1.64782 1.87514
  935 29.5449 -1.25471 -4.21282
  936 29.5614 -1.25388 4.20756
  937 64.4542 -0.382779 -6.87123
  938 30.3990 -1.59941 -2.80523
  939 30.3713 -1.57911 2.81515
  940 78.1465 -1.85109 -0.708014
  941 94.4761 -5.54049 -13.4396
  942 39.6347 -1.46614 1.12404
  943 39.6581 -1.48252 -1.14640
  944 -1.68134 -0.189586 -1.02366
  945 -1.67709 -0.190035 1.02167
  946 97.0554 -8.06900 -14.4909
  947 92.3644 -5.36315 8.77765
  948 80.8029 -5.46539 -2.56293
  949 76.9200 2.51618 12.4947
  950 34.2337 -1.85117 -3.18212
  951 34.2280 -1.81177 3.19340
  952 86.8962 3.16444 15.2494
  953 80.3207 6.97100 10.0159
  954 171.091 20.8134 3.49365
  955 86.3878 -2.81896 2.26475
  956 43.7371 -1.10535 -0.493090
  957 43.7287 -1.07756 0.499093
  958 76.7953 -6.14817 -1.25073
  959 105.800 19.5163 -6.84638
  960 95.4305 -0.731647 -0.854188
  961 61.0660 -1.17341 0.153334
  962 61.0400 -1.16203 -0.134837
  963 7.27084 5.96019 -3.73437
  964 7.46577 5.94344 3.76791
  965 14.8694 32.7877 -32.2894
  966 87.4979 -2.15011 11.6207
  967 110.727 -2.62586 -11.9678
  968 -2.49814 1.03291 0.930449
  969 -2.47073 1.03240 -0.917184
  970 232.951 53.3987 -43.1790
  971 94.5501 -10.4679 2.42220
  972 101.189 -9.76261 -2.62527
  973 92.8968 -8.00112 8.24325
  974 114.006 22.6761 3.05550
  975 7.77531 7.15189 -8.87516
  976 20.8430 27.9007 31.3475
  977 -0.661229 -1.43770 3.49546
  978 -0.652104 -1.42733 -3.48947
  979 90.8438 -2.03768 2.20833
  980 145.935 26.1281 -2.55911
  981 8.01215 6.95215 9.27765
  982 -0.408485 -1.31283 -1.13816
  983 -0.408623 -1.30947 1.13545
  984 77.3952 -1.44415 0.400630
  985 56.7757 -4.42217 -3.57491
  986 93.5920 -7.45044 -9.56333
  987 25.4665 6.82413 -12.1929
  988 25.8833 6.94072 12.2257
  989 90.2737 -2.26143 -10.4468
  990 91.9694 -2.67617 3.78148
  991 -2.66335 0.536577 2.90085
  992 -2.65133 0.542309 -2.89218
  993 54.1994 -3.58293 -8.47606
  994 90.4159 5.60271 -15.4112
  995 67.5180 -2.21458 -0.203679
  996 47.5389 -1.12630 0.0375782
  997 47.5311 -1.13633 -0.0318633
  998 -1.07140 -1.21171 -2.42194
  999 -1.07298 -1.21429 2.42038
  1000 93.2068 -3.11431 -4.54435
  1001 89.0607 -0.639127 0.175320
  1002 88.9766 -0.639699 -0.136568
  1003 122.493 19.4647 -10.3435
  1004 20.6708 1.90995 -5.84793
  1005 20.7210 1.87178 5.83025
  1006 12.3496 -0.0678224 -3.01781
  1007 12.3713 -0.0704493 3.01151
  1008 100.092 5.04816 16.8220
  1009 95.9685 -1.54919 -2.63780
  1010 15.5583 2.60400 -4.62709
  1011 15.6207 2.58358 4.64449
  1012 100.874 -0.280804 -0.496861
  1013 92.9118 -3.87071 -6.68179
  1014 90.7017 -10.4602 -2.60093
  1015 3.07547 2.38783 -0.702157
  1016 2.98110 2.37669 0.744267
  1017 -4.73213 0.678321 1.82265
  1018 -4.71669 0.680025 -1.81262
  1019 51.0124 2.01029 -2.53723
  1020 158.783 38.3278 -8.70596
  1021 70.9682 -4.97413 0.424092
  1022 46.1110 -2.00313 -8.76717
  1023 116.023 -5.34956 2.73418
  1024 46.2948 -2.00523 8.89902
  1025 82.1041 -9.71286 5.32282
  1026 93.1678 -3.82266 -9.69747
  1027 29.8605 -0.586679 -0.155031
  1028 29.8581 -0.572908 0.153435
  1029 62.7972 -4.75311 -1.47149
  1030 37.6380 -1.34684 -6.67502
  1031 37.6173 -1.35697 6.63263
  1032 12.1160 7.83924 -7.14346
  1033 12.3160 7.81003 7.16391
  1034 24.6518 -0.734830 -0.566805
  1035 24.6482 -0.723771 0.556135
  1036 83.0919 -2.31163 1.40639
  1037 69.6716 -0.110979 -23.6402
  1038 86.2302 -2.50428 -2.22613
  1039 77.3100 -8.58574 -2.78473
  1040 49.6743 -1.88576 0.601912
  1041 49.7199 -1.90250 -0.605973
  1042 102.265 -0.393127 0.624826
  1043 90.5174 -1.84966 -2.07670
  1044 54.2523 1.30311 4.77576
  1045 96.4939 -0.930370 -4.32947
  1046 36.3785 10.2508 22.7685
  1047 99.7773 -0.866687 -3.59058
  1048 24.7365 4.22750 -8.99495
  1049 23.9543 4.27926 8.59190
  1050 119.999 -2.91808 -3.37224
  1051 9.84730 5.30419 -3.39325
  1052 9.94207 5.26377 3.38977
  1053 1.58921 -0.751210 1.59335
  1054 1.67913 -0.736457 -1.53434
  1055 12.8465 -0.352082 0.712407
  1056 12.8399 -0.354944 -0.724720
  1057 41.5925 10.3954 -25.4055
  1058 241.318 59.9466 46.4302
  1059 92.8530 -3.11682 4.66273
  1060 82.8485 -9.39156 -1.68479
  1061 56.6668 -4.63886 -6.33878
  1062 -1.54403 1.15038 2.66312
  1063 -1.52260 1.15664 -2.64892
  1064 64.2918 -3.04709 -0.0792621
  1065 71.3458 -2.32612 -0.520027
  1066 -0.0478610 -5.28735 1.74653
  1067 -0.0460598 -5.29151 -1.74577
  1068 9.97467 6.28380 -4.15322
  1069 10.0991 6.26931 4.18017
  1070 63.3848 -2.77075 0.0891417
  1071 4.12329 2.27605 0.947306
  1072 4.08398 2.27984 -0.932369
  1073 97.9938 -4.08705 15.5443
  1074 70.4344 -7.32700 -5.24651
  1075 57.0147 -4.71482 6.33708
  1076 92.7951 -2.06611 -16.1295
  1077 99.7977 -0.848155 1.92200
  1078 34.5968 5.25657 14.9681
  1079 34.8503 5.03458 -14.7074
  1080 56.6972 -2.83478 -12.5111
  1081 81.5994 -2.60819 -1.47605
  1082 65.5341 -3.71555 0.316179
  1083 77.3259 -7.12977 0.781547
  1084 108.410 -0.287042 -1.06751
  1085 56.4226 -2.35468 0.477287
  1086 56.3975 -2.50750 -0.513163
  1087 1.57053 1.93177 2.40566
  1088 1.61674 1.94661 -2.37968
  1089 93.2933 3.23114 -16.6014
  1090 19.7329 1.11394 -5.11476
  1091 19.7846 1.09023 5.09578
  1092 14.3522 0.372622 -3.56386
  1093 14.3819 0.363971 3.55385
  1094 108.723 -5.39936 18.4830
  1095 93.0979 -4.25081 9.60273
  1096 44.3112 -1.98931 -7.32197
  1097 110.552 -0.357376 -0.643186
  1098 121.512 22.7433 -7.92341
  1099 99.7264 -0.705558 -1.27690
  1100 92.4371 -10.0818 4.39625
  1101 67.6792 -5.28844 10.8185
  1102 111.558 -0.0365785 0.162291
  1103 54.1361 1.72733 -4.05544
  1104 77.8799 -8.31938 -0.707389
  1105 44.3781 -2.08315 7.22682
  1106 78.6401 -7.06760 -1.24189
  1107 99.2973 -1.23460 3.38049
  1108 67.7460 4.30422 6.37609
  1109 47.7612 -3.45107 -5.67999
  1110 152.017 19.3486 -6.34862
  1111 112.220 4.54554 14.5747
  1112 81.2177 10.2741 1.58359
  1113 109.926 0.108176 0.603486
  1114 41.0980 -2.48503 -4.21897
  1115 28.1821 16.6786 -25.3688
  1116 50.9954 1.19252 -18.1653
  1117 58.5316 -4.35839 2.33512
  1118 49.0748 -3.61196 5.25467
  1119 40.9864 -2.35464 4.27107
  1120 88.4638 0.599719 16.0384
  1121 67.0290 -2.02835 0.277488
  1122 107.990 -0.717154 1.38530
  1123 -1.00509 -0.212437 3.54042
  1124 -0.992567 -0.202288 -3.53192
  1125 70.4181 -1.67851 -0.338128
  1126 -0.326875 0.591152 3.33767
  1127 -0.304438 0.604178 -3.32196
  1128 38.0042 -1.05027 0.711968
  1129 38.0108 -1.07106 -0.713332
  1130 100.723 -0.491442 2.98407
  1131 80.3502 -4.70574 -2.20773
  1132 75.0704 -3.75719 -1.13206
  1133 84.2819 -5.75219 3.77198
  1134 24.8016 11.9652 -18.6435
  1135 82.7601 -2.83970 1.79524
  1136 10.7972 0.286755 -2.88928
  1137 10.8251 0.280767 2.88450
  1138 16.3767 10.3335 -12.7979
  1139 133.726 16.3157 6.38759
  1140 7.45996 -0.391683 1.65071
  1141 7.43499 -0.388245 -1.65532
  1142 16.6756 10.1495 12.3146
  1143 75.2975 -6.16736 0.943700
  1144 36.5880 -1.59542 1.44595
  1145 36.5985 -1.60469 -1.47911
  1146 156.177 32.8057 -7.45996
  1147 83.2691 -8.32623 1.68593
  1148 27.6979 15.5251 25.2999
  1149 2.21344 -1.78723 -1.50316
  1150 2.39818 -1.75882 1.72487
  1151 86.0154 10.8242 8.10339
  1152 5.79387 3.39919 -0.884976
  1153 5.84444 3.39920 0.898408
  1154 83.8500 -7.20528 -3.27352
  1155 -0.0420174 -8.24586 -1.66853
  1156 -0.0458576 -8.24852 1.67605
  1157 89.7986 -7.55223 -6.05985
  1158 -3.60256 0.120496 0.561509
  1159 -3.64035 0.121174 -0.563485
  1160 12.7678 4.90560 -4.58828
  1161 12.8378 4.92594 4.53688
  1162 -6.21358 0.0167740 -0.689291
  1163 -6.17205 0.0164149 0.689570
  1164 90.4981 -0.655795 -0.266309
  1165 -9.50546 0.262213 0.266653
  1166 -9.48180 0.262014 -0.261320
  1167 46.0732 -3.54417 -4.01750
  1168 1.18700 -13.2908 -0.724799
  1169 21.6017 -0.572242 1.14302
  1170 21.5989 -0.575036 -1.16044
  1171 76.0942 -1.09650 0.0467986
  1172 76.2426 -1.05711 -0.0313098
  1173 1.27232 -12.7506 0.992932
  1174 90.5168 -4.57005 -5.77477
  1175 104.250 -0.400789 2.25458
  1176 91.8425 -5.82716 -8.17685
  1177 78.3038 0.518215 12.4036
  1178 0.344431 -3.69019 2.78183
  1179 0.383324 -3.66650 -2.74132
  1180 57.6650 -4.03503 1.73733
  1181 -4.19351 0.330377 2.29878
  1182 -4.18599 0.333266 -2.29241
  1183 153.849 24.7876 1.43414
  1184 184.090 53.2401 -37.4553
  1185 93.9839 -9.23271 7.38416
  1186 36.9444 -0.939057 -0.0637333
  1187 36.9433 -0.924453 0.0637477
  1188 197.612 19.1638 -17.4097
  1189 11.6629 -0.309441 1.71792
  1190 11.6439 -0.304114 -1.72734
  1191 86.6163 -0.284982 -4.98804
  1192 55.2486 -4.39783 4.57940
  1193 92.9906 -9.20539 -5.70471
  1194 89.8942 -6.47021 -6.63273
  1195 53.9140 -1.99031 13.1575
  1196 19.1570 3.68219 -6.63662
  1197 19.1421 3.64888 6.59243
  1198 25.7585 9.41251 -15.7311
  1199 25.7846 8.69075 15.7285
  1200 6.62433 2.19077 -1.95228
  1201 6.66682 2.18360 1.96603
  1202 110.234 18.9917 -10.0844
  1203 5.22881 4.68111 -1.52084
  1204 5.35992 4.68471 1.55871
  1205 79.7090 -5.94109 2.09485
  1206 152.879 20.0108 7.34794
  1207 16.7996 -0.719623 -1.12491
  1208 16.8075 -0.719083 1.10936
  1209 101.001 62.9866 -57.8990
  1210 72.3244 4.25555 -9.87934
  1211 65.7146 5.13526 4.00784
  1212 8.61021 3.86677 -2.32687
  1213 8.65261 3.86564 2.34192
  1214 -0.693503 -0.00940063 0.414546
  1215 -0.715281 -0.00937704 -0.419167
  1216 88.5625 -7.05062 5.67533
  1217 87.2865 -3.25240 3.15354
  1218 59.3948 15.4523 -40.6376
  1219 137.960 29.9505 0.0849366
  1220 58.2318 -1.90090 -14.5927
  1221 76.3038 -2.02653 0.655950
  1222 0.926940 -0.390247 -0.110489
  1223 0.925445 -0.390043 0.109799
  1224 -3.00012 0.594698 -0.784129
  1225 -2.96578 0.592075 0.791584
  1226 50.3637 0.427612 -15.3702
  1227 95.1803 -1.85976 3.30621
  1228 60.8462 0.794227 21.4095
  1229 83.2494 -3.88156 -2.62408
  1230 42.2670 14.3368 -31.5944
  1231 66.2438 -3.45449 -15.8349
  1232 79.2603 -8.46150 0.252104
  1233 97.8866 -1.42245 4.91411
  1234 85.8045 -1.46615 -1.08034
  1235 45.8616 -3.31394 4.04586
  1236 107.809 -6.48856 -9.57430
  1237 101.061 8.50166 15.9747
  1238 43.1652 0.180674 -11.9445
  1239 103.009 -0.416927 0.464024
  1240 79.0285 9.95195 -2.25388
  1241 33.4309 -1.06332 -1.12496
  1242 33.4198 -1.04970 1.10799
  1243 158.055 34.1388 6.00143
  1244 220.515 5.88316 10.3563
  1245 0.174541 -10.1124 -1.66838
  1246 0.168498 -10.1251 1.68089
  1247 21.9958 11.2247 17.3311
  1248 53.5819 -1.31311 -0.0909726
  1249 53.5931 -1.30265 0.112211
  1250 74.6013 -7.45570 -0.930294
  1251 88.0280 7.09449 13.9296
  1252 94.5260 -1.59724 -2.23884
  1253 111.520 -0.202947 -0.0641876
  1254 193.240 42.3036 -26.1072
  1255 27.3337 -0.981049 1.10582
  1256 27.3358 -0.984012 -1.12679
  1257 89.8842 -8.34713 5.87937
  1258 160.790 36.7759 -9.22413
  1259 87.3013 -3.57703 -3.51816
  1260 62.7823 -4.19251 -0.927143
  1261 77.8354 -8.50273 2.68014
  1262 76.1309 -3.55464 1.29491
  1263 2.57665 -0.879595 -2.72355
  1264 105.007 -6.71573 11.0527
  1265 84.6487 -5.36678 -3.66687
  1266 2.85406 -0.735086 3.10103
  1267 87.2528 -7.41155 -14.7149
  1268 82.7103 4.25235 -33.2216
  1269 137.278 16.1658 -5.16535
  1270 112.015 0.0223869 -0.0434267
  1271 111.789 -0.0829086 0.110764
  1272 86.1852 -4.84368 3.86081
  1273 31.9972 3.81738 -11.7063
  1274 98.3673 -8.95302 9.05823
  1275 169.438 38.2287 16.3334
  1276 40.3680 13.2069 30.7277
  1277 0.934795 -0.242081 2.91796
  1278 0.977515 -0.222552 -2.88862
  1279 103.936 -8.89243 -7.16181
  1280 39.8469 -2.05925 -1.75540
  1281 39.8354 -2.06406 1.71131
  1282 95.9790 -6.45571 13.0180
  1283 1.86261 0.0523324 1.84799
  1284 1.82966 0.0542032 -1.84854
  1285 -0.576748 -2.07519 2.81549
  1286 -0.573160 -2.07081 -2.81552
  1287 14.8535 -0.515834 -1.56739
  1288 14.8663 -0.519100 1.55374
  1289 49.2975 -3.24914 -6.54926
  1290 49.4638 -1.41318 0.200156
  1291 49.4639 -1.45143 -0.180538
  1292 111.459 0.0219004 -0.0446023
  1293 97.1766 -1.38970 -5.49905
  1294 6.38341 0.406429 -2.25209
  1295 6.41566 0.401067 2.25128
  1296 49.4968 -3.44468 6.48114
  1297 112.729 -0.0456852 0.0163704
  1298 106.037 0.0928145 -0.113699
  1299 106.046 0.0304525 0.0839371
  1300 138.632 28.2039 3.77389
  1301 102.881 -0.477759 -1.01479
  1302 90.7941 -0.599360 0.232819
  1303 100.670 -1.34721 -2.99274
  1304 110.702 -0.261899 0.463954
  1305 113.156 11.1684 14.4590
  1306 131.526 26.7381 5.19283
  1307 106.747 -0.343053 -1.51863
  1308 -0.835431 -0.224129 0.757566
  1309 -0.838635 -0.223943 -0.759736
  1310 57.4292 -3.42983 1.03608
  1311 57.4162 -3.26644 -0.989994
  1312 114.206 12.4357 -13.8769
  1313 22.7290 7.76963 -12.8217
  1314 22.8753 7.54673 12.6670
  1315 74.8696 -0.0179801 -6.19762
  1316 79.2312 -0.909911 0.0612120
  1317 79.1344 -0.898997 -0.0772686
  1318 -1.98717 -0.378126 2.87990
  1319 -1.98356 -0.373213 -2.87852
  1320 86.9047 -0.219398 4.98247
  1321 134.030 26.7329 0.769176
  1322 7.02370 -0.338285 -0.991474
  1323 7.04050 -0.339103 0.980984
  1324 99.1747 -9.76872 5.60810
  1325 -0.193467 1.45034 2.78006
  1326 -0.165585 1.45922 -2.76236
  1327 15.7294 -0.345427 -0.287428
  1328 15.7298 -0.338675 0.280540
  1329 74.8980 -0.147912 6.28830
  1330 0.144133 0.181761 -0.139906
  1331 0.149477 0.182456 0.136467
  1332 101.768 -0.995870 2.01145
  1333 140.623 25.9772 0.804849
</Section>

newXOutput 14

<Section columns = "stress_xx | stress_yy | stress_xy">
  1 124.072 -0.237106 0.222127
  2 124.294 -0.338135 -0.288822
  3 -1.19799 0.124754 -0.333910
  4 -0.0763621 -0.122591 -0.0715217
  5 234.633 85.4395 73.8828
  6 238.263 98.2709 -74.7359
  7 -0.0754616 -0.121812 0.0703536
  8 -1.19587 0.124073 0.333073
  9 124.981 -0.161839 -0.205406
  10 123.936 -0.361553 -0.284424
  11 123.956 -0.267006 0.319134
  12 123.204 -0.0881670 0.182870
  13 122.847 -0.337004 -0.0139206
  14 122.468 -0.315936 0.583070
  15 120.365 -0.190894 0.602466
  16 120.686 -0.843223 0.840665
  17 116.437 -0.676492 1.72692
  18 113.641 -0.249636 2.06409
  19 109.870 -0.344631 2.20395
  20 103.461 -0.302035 3.01007
  21 96.5946 -0.277812 3.45707
  22 88.1552 0.415194 4.67850
  23 76.7140 0.636486 4.20460
  24 72.2145 -0.0911683 5.98118
  25 58.1571 0.846334 4.22754
  26 49.7370 1.14632 3.29034
  27 47.5549 0.477856 2.41811
  28 45.2074 1.65867 0.169502
  29 46.4818 1.82056 -3.22945
  30 49.0902 0.490476 -4.06198
  31 59.4520 0.157948 -5.45666
  32 70.0206 -0.555232 -5.72854
  33 77.1275 0.525521 -4.20253
  34 88.2879 0.476209 -4.68498
  35 96.3215 -0.334630 -3.69883
  36 104.191 -0.368047 -2.84926
  37 109.373 -0.232856 -2.23492
  38 113.279 -0.260159 -1.90951
  39 117.420 -0.379862 -1.12942
  40 119.157 -0.347486 -1.09580
  41 120.823 -0.334225 -0.952715
  42 122.544 -0.392041 -0.243456
  43 123.247 -0.517477 -0.417631
  44 122.599 0.137199 -0.0827871
  45 123.820 -0.230740 -0.352574
  46 124.487 -0.567296 0.309820
  47 125.156 -0.307322 -0.0224372
  48 118.343 0.242446 -0.185780
  49 110.765 -0.204450 -0.359503
  50 102.287 -0.726640 -0.550267
  51 93.5969 -0.488811 -0.405180
  52 86.0958 -1.02925 -0.374959
  53 78.2390 -1.15402 -0.350636
  54 70.3681 -0.977920 -0.199776
  55 62.1481 -1.10238 -0.259067
  56 55.2302 -1.25552 -0.328394
  57 46.0764 -1.24222 -0.279932
  58 36.6863 -0.739989 -0.179245
  59 28.9418 -0.460569 -0.148824
  60 19.4001 -0.289164 -0.0863223
  61 12.4626 -0.325907 -0.498321
  62 6.00464 -0.507833 -0.178236
  63 -0.497516 0.0637393 0.274190
  64 -2.13202 0.462254 0.0804389
  65 -2.54458 0.191909 0.269779
  66 -2.19700 0.0890872 0.251127
  67 -3.38108 0.268641 0.0676449
  68 -3.77061 0.346479 0.546277
  69 -3.77705 0.119389 0.139539
  70 -5.81515 0.250408 0.161726
  71 -6.69362 0.181332 0.510879
  72 -6.88685 0.0691416 0.527396
  73 -9.03968 0.241058 0.378100
  74 -9.76098 0.353054 0.795676
  75 -10.4876 0.214507 0.216636
  76 -11.4693 0.153276 0.383732
  77 -11.6986 0.166516 0.0967839
  78 -12.5731 0.382579 -0.346069
  79 -12.5425 0.262542 -0.263807
  80 -11.3026 0.204808 -0.441419
  81 -9.63008 0.254646 -0.783651
  82 -7.73945 0.103737 -1.13642
  83 -5.70597 0.0534321 -1.16409
  84 -3.40326 -0.127786 -1.20929
  85 -1.44786 -0.0992024 -0.693740
  86 -0.597649 -0.249593 -0.427611
  87 -0.106745 -0.609325 -0.364787
  88 -0.185762 -1.55679 -0.665850
  89 -0.208586 -3.11985 -1.18857
  90 -0.0525722 -5.87980 -1.30279
  91 0.0612647 -8.20899 -1.65500
  92 0.156542 -11.8467 -1.35919
  93 0.479475 -14.1536 -1.61918
  94 0.0650642 -15.4597 -1.39353
  95 -0.0361482 -17.9360 -0.929438
  96 0.483260 -17.8278 -0.437176
  97 1.91603 -23.2848 0.610711
  98 1.60748 -13.9206 2.46606
  99 3.93457 -8.33974 5.82238
  100 12.1766 14.7717 19.8040
  101 54.4460 61.7914 59.6739
  102 307.761 31.6909 46.0463
  103 254.500 8.93952 16.5076
  104 241.714 3.82024 5.72057
  105 234.445 2.54323 -0.0260563
  106 238.993 3.64378 -4.67362
  107 257.105 7.65038 -13.7328
  108 304.591 25.3995 -43.1231
  109 35.1101 70.1831 -49.2813
  110 8.53161 9.34773 -15.1094
  111 2.89090 -10.3257 -4.72240
  112 1.45575 -15.0986 -2.04993
  113 1.90935 -24.1303 -0.407225
  114 0.464128 -18.2074 0.584026
  115 -0.0639764 -18.1279 1.00657
  116 0.0471318 -15.5355 1.43514
  117 0.469870 -14.1737 1.63698
  118 0.152827 -11.8427 1.36593
  119 0.0584107 -8.19917 1.65764
  120 -0.0539625 -5.86652 1.30228
  121 -0.208803 -3.11124 1.18631
  122 -0.186161 -1.54920 0.663656
  123 -0.106691 -0.606484 0.362809
  124 -0.594216 -0.249297 0.425979
  125 -1.44183 -0.0996164 0.692016
  126 -3.39574 -0.128744 1.20837
  127 -5.69756 0.0524111 1.16450
  128 -7.73535 0.102638 1.13850
  129 -9.63344 0.253900 0.787514
  130 -11.3135 0.204785 0.445487
  131 -12.5628 0.262380 0.267710
  132 -12.6011 0.382656 0.350064
  133 -11.7351 0.166989 -0.0934421
  134 -11.5119 0.153853 -0.381409
  135 -10.5329 0.215139 -0.214932
  136 -9.80905 0.353781 -0.795268
  137 -9.08843 0.241717 -0.377792
  138 -6.93391 0.0695420 -0.527906
  139 -6.73987 0.182010 -0.512048
  140 -5.85831 0.251379 -0.163349
  141 -3.81354 0.120049 -0.142307
  142 -3.79998 0.347092 -0.550148
  143 -3.40445 0.268764 -0.0711156
  144 -2.21143 0.0889404 -0.254417
  145 -2.55216 0.191540 -0.272390
  146 -2.13520 0.461582 -0.0827367
  147 -0.497169 0.0633557 -0.275489
  148 6.00460 -0.509682 0.176798
  149 12.4620 -0.330796 0.496671
  150 19.4007 -0.297937 0.0842499
  151 28.9440 -0.473314 0.147694
  152 36.6875 -0.754862 0.178979
  153 46.0733 -1.25523 0.281776
  154 55.2165 -1.26237 0.332433
  155 62.1233 -1.09527 0.268850
  156 70.3300 -0.949740 0.211299
  157 78.1847 -1.08633 0.332637
  158 86.1301 -1.04758 0.331655
  159 93.6211 -0.607709 0.426607
  160 102.369 -0.704498 0.504669
  161 111.000 -0.139226 0.364253
  162 118.111 0.235850 0.179542
  163 66.2565 -5.91967 -4.51606
  164 65.9737 -6.02572 4.50635
  165 19.0127 5.38029 -7.03014
  166 19.2041 5.40221 6.99395
  167 79.0051 -4.13293 19.3909
  168 82.9822 -4.64929 -18.8443
  169 36.9906 -1.86454 1.98919
  170 36.9914 -1.84490 -2.02800
  171 84.6370 -2.62787 1.06848
  172 82.8372 -2.63565 -1.04513
  173 111.642 20.3622 -3.24449
  174 114.839 0.370113 -16.5348
  175 112.368 1.31121 17.5597
  176 25.2911 -0.902897 -4.62951
  177 25.2870 -0.894774 4.61602
  178 99.2120 -9.88820 6.60603
  179 99.0486 -7.61537 -8.62664
  180 0.973143 2.01174 2.86708
  181 1.01291 2.02494 -2.84393
  182 135.463 27.3726 6.00174
  183 25.0426 10.9847 -16.9842
  184 26.9570 11.1020 18.3141
  185 96.0625 -4.25668 4.33457
  186 144.471 29.8049 -3.95326
  187 60.9068 -1.94280 -0.313025
  188 60.8004 -2.00220 0.305199
  189 99.0068 -2.87025 -3.90387
  190 133.018 -1.87445 0.134406
  191 21.8612 -0.633176 0.708382
  192 21.8600 -0.639918 -0.723348
  193 9.06533 1.34082 -2.94789
  194 9.10881 1.32710 2.95399
  195 54.2343 -2.11288 -11.7481
  196 54.0187 -2.23508 11.9067
  197 65.1057 -4.02628 -1.12641
  198 65.2387 -4.00333 1.25535
  199 15.1202 -0.525614 2.37655
  200 15.1011 -0.517711 -2.38469
  201 131.678 -3.46855 6.74708
  202 106.593 -10.7812 -3.69050
  203 101.961 -0.722743 -0.727352
  204 99.5235 -0.924456 0.761044
  205 98.5055 11.4985 12.1518
  206 3.87687 2.92712 -0.576308
  207 4.03015 2.91628 0.643679
  208 99.3620 -4.07793 14.1930
  209 89.9683 6.79450 -13.7028
  210 65.1877 13.6223 -41.0485
  211 68.5475 11.4794 38.0900
  212 0.946210 2.12016 0.267571
  213 0.982944 2.11903 -0.250678
  214 98.9590 -3.61821 -14.6242
  215 175.313 24.8434 -1.50050
  216 82.3056 -9.07917 6.14995
  217 82.9675 -9.02034 -5.75230
  218 82.2789 -5.68110 -1.43803
  219 103.458 -1.35596 2.16454
  220 48.1833 -3.20782 -3.88373
  221 47.3761 -3.19294 4.03525
  222 28.4000 0.662133 -7.20871
  223 28.4369 0.649950 7.13659
  224 105.656 -11.4600 0.275503
  225 81.5607 -6.05795 1.09267
  226 103.115 -1.30546 -1.76976
  227 79.2338 -1.68650 0.326524
  228 79.9691 -1.54398 -0.168357
  229 100.937 -4.41108 8.51065
  230 7.02946 0.125119 -2.53017
  231 7.06166 0.121160 2.52781
  232 -1.37368 -0.956202 -3.49986
  233 -1.38024 -0.963995 3.50297
  234 13.0274 -0.611918 -1.33582
  235 13.0416 -0.613376 1.32131
  236 40.7493 -1.06623 0.859908
  237 40.7634 -1.08984 -0.869631
  238 47.9693 3.20448 -17.6221
  239 47.9739 2.65243 17.4128
  240 102.497 -3.06502 -7.27504
  241 46.6697 -2.66814 -6.77084
  242 46.7053 -2.75202 6.65493
  243 88.4454 1.24447 15.4126
  244 75.9028 6.58778 0.925729
  245 87.5141 -8.66972 -1.49210
  246 0.269173 -2.49113 -3.39108
  247 0.240101 -2.51343 3.41652
  248 5.22404 4.45727 -5.24229
  249 5.57965 4.25401 5.56257
  250 86.0011 -8.47426 0.901229
  251 157.894 27.8072 0.486333
  252 7.38220 5.12637 -1.82708
  253 7.47668 5.12220 1.85592
  254 -3.63173 0.667554 2.53338
  255 -3.61522 0.670956 -2.52217
  256 158.995 25.7843 0.314736
  257 53.3176 -2.38293 -1.24268
  258 53.2727 -2.33918 1.20284
  259 107.333 -7.46042 13.5990
  260 197.511 32.0212 19.1724
  261 30.2677 -1.54579 -3.73147
  262 30.2554 -1.55669 3.72470
  263 108.158 16.1344 -11.8668
  264 190.043 35.8754 -17.0392
  265 131.365 12.3219 12.4248
  266 144.864 6.79337 -24.9113
  267 87.6933 -3.88820 2.13225
  268 98.9804 0.271698 -17.5363
  269 94.5978 -6.54806 -5.28504
  270 106.045 -1.74736 4.67936
  271 -0.952925 0.998739 -0.669422
  272 -0.916589 0.995326 0.681012
  273 105.212 -4.32219 -24.5150
  274 10.1586 3.35441 -2.88310
  275 10.2090 3.34728 2.90072
  276 100.907 -2.41482 -9.04603
  277 13.8715 13.0042 -17.5520
  278 9.31923 -0.0281474 -0.297485
  279 9.32206 -0.0253893 0.291354
  280 106.852 -6.86667 -14.1229
  281 17.8283 8.00246 -9.03330
  282 18.0923 7.95395 9.05752
  283 3.42602 -0.141670 1.79059
  284 3.39305 -0.139627 -1.79338
  285 87.5800 -3.66362 -2.06568
  286 13.9596 12.8521 18.0665
  287 142.520 8.30028 29.5529
  288 36.2473 -1.34161 -1.12154
  289 36.2355 -1.33118 1.09826
  290 69.2343 -2.59268 -0.0916925
  291 69.1980 -2.83618 0.162758
  292 59.0745 5.30752 -27.3982
  293 96.4562 -10.6507 -2.89117
  294 111.452 -0.470293 0.984459
  295 56.8380 5.27062 26.4438
  296 66.1518 -1.49935 0.000279796
  297 66.1253 -1.49740 0.0602713
  298 94.7366 -6.83489 5.39019
  299 110.092 -0.987216 -2.31471
  300 -2.00567 0.420703 -1.29164
  301 -1.96634 0.417611 1.29646
  302 136.534 27.4658 -1.80669
  303 120.695 -6.11682 8.22038
  304 109.895 -0.323002 -0.297403
  305 111.951 -0.275641 0.269305
  306 108.589 -10.0553 7.83438
  307 134.088 13.1538 -11.7776
  308 115.326 21.5694 7.06842
  309 50.8183 -2.98292 -2.24337
  310 50.3283 -3.04117 2.30079
  311 111.375 -0.442057 -0.715067
  312 71.3226 -5.53555 -12.9551
  313 69.9876 -5.38132 1.50968
  314 66.7463 -3.79662 14.9354
  315 109.003 -1.13394 2.73090
  316 22.3654 -1.02073 -2.28472
  317 22.3760 -1.02860 2.27098
  318 100.032 -4.06578 24.2416
  319 62.0779 -4.79451 -2.78952
  320 115.706 14.5678 15.0351
  321 35.7584 2.54489 -11.0840
  322 34.3757 2.65677 10.9776
  323 8.04956 -0.200307 -0.543453
  324 8.05914 -0.198719 0.533649
  325 95.8768 -1.62886 1.42344
  326 91.8551 -0.964803 0.297700
  327 91.3131 -1.08876 -0.331819
  328 100.050 -2.54681 9.55970
  329 6.33338 -0.287062 1.29359
  330 6.30723 -0.284132 -1.30195
  331 26.9430 -0.583355 -0.448884
  332 26.9397 -0.571322 0.442322
  333 0.853278 -5.13418 -2.13027
  334 0.790470 -5.16972 2.20502
  335 75.3277 3.21042 10.3731
  336 121.917 -5.88806 -7.05152
  337 77.7486 -3.88514 1.01953
  338 88.6386 -1.45253 -0.886159
  339 90.4232 11.3208 -6.47777
  340 16.2798 -0.495395 -3.39539
  341 16.2981 -0.495468 3.38992
  342 75.4954 -3.64470 -0.601424
  343 20.0457 0.790773 -4.94518
  344 20.0818 0.772328 4.92454
  345 3.51792 3.33463 0.557172
  346 3.56711 3.33301 -0.537102
  347 92.5554 -10.1555 8.19668
  348 210.593 13.9897 5.35914
  349 80.0178 1.09575 -12.3200
  350 67.9841 -6.11350 7.55739
  351 67.6357 -5.99762 -7.81726
  352 100.920 -1.88481 17.4335
  353 88.7636 -0.719971 12.2720
  354 91.2975 -9.82182 -8.50499
  355 52.9489 -1.12546 -0.0793117
  356 52.9418 -1.14268 0.0930790
  357 101.013 -6.61707 11.0946
  358 138.205 27.8170 1.24392
  359 109.417 -1.08549 -3.46465
  360 25.7031 -0.953294 -1.59040
  361 25.7092 -0.953775 1.56894
  362 102.594 -10.1523 -10.3951
  363 106.590 7.19998 -17.5080
  364 68.6904 3.71628 -6.63009
  365 101.669 -6.85999 -12.5669
  366 -3.41662 0.0730350 -2.70999
  367 -3.42051 0.0691878 2.71351
  368 85.4403 -1.70533 0.698189
  369 -1.21776 -0.731260 -1.55869
  370 -1.21650 -0.731584 1.55574
  371 66.5550 30.5018 -50.2938
  372 2.29135 1.93843 2.17835
  373 2.35609 1.95480 -2.14426
  374 88.0120 -0.761604 -12.1664
  375 47.8316 -1.87772 0.924579
  376 47.8706 -1.90682 -0.940823
  377 -0.381902 -3.69335 3.07674
  378 -0.376362 -3.68657 -3.07325
  379 53.7076 32.0979 47.2251
  380 38.9239 -2.00796 -5.17587
  381 38.9505 -1.91450 5.17957
  382 12.1674 8.72107 -8.23702
  383 12.4338 8.68885 8.18072
  384 -5.53943 0.741026 1.17374
  385 -5.51708 0.741989 -1.16204
  386 102.571 6.64138 17.4246
  387 78.8658 -8.24770 2.98473
  388 78.9495 -7.10609 0.575107
  389 96.3772 -11.0808 -0.0228936
  390 22.8351 2.96734 -7.03086
  391 22.9102 2.96022 7.01581
  392 1.97638 -4.03914 -0.350521
  393 1.86054 -4.08626 0.515498
  394 95.5662 13.7693 4.31553
  395 98.6794 -2.58280 3.26018
  396 54.9479 -4.19023 4.62325
  397 33.2738 -0.774982 -6.31884
  398 33.2812 -0.780764 6.26114
  399 70.9154 -1.85590 0.136593
  400 70.8332 -1.58670 -0.197288
  401 54.4761 -4.31135 -4.96715
  402 42.2377 -0.673158 -8.76861
  403 42.2258 -0.733248 8.84249
  404 102.533 -9.50625 -8.25984
  405 58.2614 -4.35831 2.65221
  406 93.4181 -2.57516 2.14489
  407 93.2761 -2.31159 -1.84946
  408 77.4394 -7.04839 -0.866366
  409 113.710 -0.311671 -1.03368
  410 36.7443 14.3497 -27.6105
  411 105.673 -1.42712 5.58868
  412 113.223 -0.425979 1.46870
  413 38.0905 -1.96352 2.94592
  414 38.1135 -1.93527 -2.94329
  415 78.5024 -8.14702 -3.12593
  416 10.3668 4.81524 3.08615
  417 10.3094 4.81296 -3.09152
  418 212.895 13.9782 -11.0240
  419 91.2798 -5.01261 -3.29676
  420 114.787 -0.212811 0.596485
  421 34.6054 13.3144 26.2015
  422 168.103 28.4947 4.86579
  423 98.6656 -1.20607 -1.15470
  424 72.4901 -5.09548 -0.597687
  425 29.3827 5.68742 -12.5960
  426 31.3675 5.28218 12.5206
  427 90.1039 -5.53847 3.36258
  428 94.6854 -1.24248 -9.11232
  429 -2.38314 -0.0712124 1.32851
  430 -2.42319 -0.0701874 -1.32845
  431 33.4410 7.94132 -17.2079
  432 33.5452 7.97288 17.1519
  433 3.12750 1.87848 -1.11509
  434 3.16778 1.87387 1.12954
  435 80.7138 -1.22474 0.306955
  436 80.6168 -1.18304 -0.277709
  437 100.751 -4.51954 -8.88261
  438 -0.433741 -0.489528 3.89530
  439 -0.416019 -0.474472 -3.88189
  440 103.953 -10.4016 7.42499
  441 98.5949 -2.38505 -2.91906
  442 159.575 30.6599 -3.72698
  443 3.73388 -0.267433 0.583953
  444 3.71337 -0.267512 -0.592590
  445 194.465 53.2985 22.5367
  446 3.60173 -0.347707 -4.76342
  447 10.3302 0.604911 -3.26547
  448 10.3652 0.595807 3.26271
  449 193.552 54.3889 -21.2056
  450 3.81698 0.0796747 5.32649
  451 -5.53771 0.598919 0.509680
  452 -5.50927 0.597822 -0.498824
  453 9.90270 6.74893 -4.51933
  454 10.0819 6.74774 4.54604
  455 123.802 19.0794 -12.7902
  456 99.8251 -3.74173 -5.92509
  457 114.123 -0.255067 -0.543206
  458 104.136 -1.53865 -6.50877
  459 -1.44871 0.627389 3.58947
  460 -1.43079 0.636896 -3.57707
  461 100.823 -3.93012 6.79774
  462 64.3556 -3.41473 -0.851818
  463 64.1473 -3.45371 0.622772
  464 88.4990 -9.79255 -0.335494
  465 62.4928 -1.03904 -18.5467
  466 95.7475 -1.49347 9.33176
  467 78.6422 -2.24038 -0.446478
  468 116.942 -9.26652 0.162290
  469 60.4855 0.329795 19.9493
  470 2.54926 -0.0627269 1.28041
  471 2.51633 -0.0609381 -1.28475
  472 126.865 25.1603 -6.05398
  473 103.069 -0.481295 0.135289
  474 102.698 -0.581135 -0.233830
  475 76.3279 -4.90409 -0.264354
  476 31.5348 -0.997186 -0.847921
  477 31.5278 -0.983158 0.833322
  478 18.2208 -0.155007 -4.03336
  479 18.2390 -0.158632 4.02149
  480 61.1332 2.38877 3.94378
  481 14.0976 -0.484785 1.89128
  482 14.0802 -0.479755 -1.90411
  483 16.0961 1.66868 4.52577
  484 16.0425 1.69331 -4.52400
  485 98.8784 -7.62951 8.31435
  486 54.1704 -3.35330 -8.17064
  487 49.5218 -1.41197 0.406143
  488 49.5434 -1.45423 -0.408111
  489 54.7580 -3.46210 8.16423
  490 155.508 36.3294 -1.41245
  491 -2.49087 -0.393384 -2.05224
  492 -2.48990 -0.395299 2.05139
  493 36.8531 -0.914410 -0.338250
  494 36.8488 -0.897058 0.336051
  495 0.0150985 -6.89436 -2.66302
  496 -0.000956989 -6.91621 2.68518
  497 90.5420 -1.02986 0.554576
  498 60.6890 2.96845 -1.96958
  499 84.0134 8.87734 5.77515
  500 53.9361 -0.580572 -14.5687
  501 25.0113 -1.26728 2.89165
  502 25.0136 -1.25619 -2.89941
  503 -7.88937 0.237107 -0.352519
  504 -7.85102 0.235758 0.357174
  505 106.507 -2.23595 -17.4848
  506 5.77604 0.0711278 -0.413176
  507 5.78234 0.0725650 0.406181
  508 88.6651 -6.86019 -2.97468
  509 94.6621 -8.00150 -5.23019
  510 18.5706 13.5766 -18.2025
  511 79.4307 1.62663 -29.9307
  512 0.546760 2.23845 2.00762
  513 0.583429 2.24260 -1.98773
  514 47.0978 -2.03600 -1.46543
  515 47.0698 -2.01427 1.42082
  516 138.328 4.69486 -5.25979
  517 98.5324 -5.71676 -7.50914
  518 18.0845 12.7678 17.9271
  519 97.6592 -11.2389 1.53091
  520 93.7503 -8.88838 4.32713
  521 17.6116 -0.416961 -1.22848
  522 17.6180 -0.414765 1.21259
  523 74.4603 0.746270 9.51838
  524 54.4589 -3.90193 -2.87885
  525 104.467 -2.12347 4.32755
  526 -0.443867 -2.52740 -1.98378
  527 -0.444960 -2.52585 1.98130
  528 72.1084 -6.46064 9.20161
  529 111.135 -8.79942 -9.78012
  530 146.594 8.66812 -3.04650
  531 77.6285 -2.33943 0.523679
  532 20.7884 -0.352289 -0.371883
  533 20.7873 -0.343514 0.367573
  534 48.3194 0.351714 13.9898
  535 138.794 22.4414 9.52301
  536 143.726 24.4829 -48.0249
  537 126.645 0.00395071 9.71050
  538 90.3269 -10.0776 -0.167142
  539 219.898 17.4748 14.6971
  540 159.882 37.5638 2.51821
  541 20.5063 -0.831159 3.17748
  542 20.4948 -0.822242 -3.18579
  543 86.7194 -7.06915 2.43522
  544 5.66524 3.01374 -0.915120
  545 5.71154 3.01110 0.932516
  546 109.740 -9.36984 9.75392
  547 87.5235 4.62194 14.1622
  548 111.200 -0.609933 2.38665
  549 81.0170 -4.64322 1.38821
  550 115.514 -0.332245 -31.5440
  551 185.797 44.2995 29.8472
  552 88.4400 -1.40198 -0.523271
  553 108.887 -1.00834 -3.75055
  554 16.0638 6.79971 -6.58014
  555 16.1823 6.71630 6.54354
  556 60.7524 -2.20589 -0.499973
  557 60.7218 -2.14528 0.518583
  558 0.634228 -9.16966 -0.404294
  559 110.494 -4.23421 15.8122
  560 3.73609 3.50620 1.00234
  561 3.80130 3.51473 -0.972695
  562 0.752779 -8.90341 0.636420
  563 100.188 -4.60822 -12.6240
  564 115.521 6.90347 -17.0691
  565 115.028 7.86195 17.0485
  566 5.15419 3.79827 3.27121
  567 4.87980 3.91328 -3.18121
  568 -4.62967 0.120140 0.974211
  569 -4.67159 0.121240 -0.972748
  570 107.348 1.53000 32.6098
  571 56.9350 -2.97850 1.31581
  572 56.9964 -2.96744 -1.35984
  573 130.026 -3.53678 -15.7291
  574 14.0269 -0.181447 0.715998
  575 14.0231 -0.185408 -0.726559
  576 4.77698 -0.196012 -0.175990
  577 4.77808 -0.194673 0.173554
  578 141.649 24.8976 -8.13988
  579 12.9911 16.5196 -20.3164
  580 70.8091 1.35290 -8.03887
  581 102.608 16.5105 -7.41148
  582 1.32962 -0.496857 2.68434
  583 1.39178 -0.476108 -2.64275
  584 108.604 44.7018 56.9454
  585 89.7302 -2.19000 -1.35348
  586 2.01944 0.925972 -1.52364
  587 2.05847 0.919257 1.53188
  588 103.571 -8.44563 11.2414
  589 15.4197 15.9375 20.6853
  590 74.0753 -1.22792 -0.00529895
  591 74.0943 -1.21460 0.00496524
  592 -0.111532 -5.41751 2.70145
  593 -0.103495 -5.40849 -2.69264
  594 126.494 24.9650 -0.202367
  595 80.4349 -6.69491 13.5276
  596 76.6213 -2.99874 0.529380
  597 77.4789 2.83726 31.6185
  598 -6.59537 0.306979 1.66269
  599 -6.58857 0.308615 -1.65655
  600 128.301 0.891823 -10.3670
  601 174.275 25.7832 -20.6866
  602 47.3583 4.62939 -20.5753
  603 24.3953 -0.980620 -3.91598
  604 24.4147 -0.980229 3.91456
  605 117.177 -0.267518 0.725407
  606 75.8169 -3.07115 -0.633657
  607 103.325 -1.13217 1.64000
  608 100.204 -4.59564 12.3406
  609 1.71136 -0.154837 0.614207
  610 1.68440 -0.154124 -0.620713
  611 58.2705 -1.78963 -0.268415
  612 58.2605 -1.73126 0.249602
  613 35.7805 0.841102 -9.06672
  614 35.5363 0.850904 9.01843
  615 147.650 6.94098 6.48482
  616 245.806 18.5141 -27.0218
  617 -3.68364 -0.136374 0.867834
  618 -3.72579 -0.135866 -0.868287
  619 33.0877 -1.32818 1.59967
  620 33.0903 -1.32708 -1.62894
  621 136.725 6.33802 7.12663
  622 116.077 -0.226402 -0.230993
  623 115.802 -0.413650 0.118228
  624 80.1343 -0.0910259 9.45024
  625 120.238 -7.81819 -9.05258
  626 63.5304 -5.11358 3.46671
  627 -1.97918 1.38850 -1.78766
  628 -2.00656 1.38673 1.80315
  629 102.809 1.86610 18.1814
  630 39.3819 -2.18978 -4.03068
  631 39.3363 -2.22847 4.03904
  632 84.0469 -4.63421 -1.70511
  633 105.027 -2.09742 -3.92958
  634 58.3292 -4.58997 -5.67773
  635 95.7858 11.5508 -11.0275
  636 64.9090 -4.53633 -10.8618
  637 21.7099 -0.564377 -0.601990
  638 21.7090 -0.556337 0.591036
  639 58.9667 -4.67994 5.69016
  640 129.394 20.4093 11.7738
  641 102.493 -5.13089 15.5222
  642 83.9372 -3.45822 1.50002
  643 58.9352 -1.30230 0.273580
  644 58.9200 -1.30654 -0.261712
  645 43.5837 -1.47279 -1.09343
  646 43.5632 -1.45358 1.07674
  647 99.0218 -9.12673 -6.96809
  648 48.5168 -2.60270 1.94224
  649 48.5749 -2.59267 -1.99705
  650 97.2355 15.1689 -1.49444
  651 91.4610 -4.58578 3.29114
  652 116.372 -0.421775 -1.08901
  653 96.2568 -1.90793 -15.8968
  654 12.0415 -0.558088 2.54319
  655 12.0186 -0.553905 -2.54754
  656 113.044 -0.501472 -2.15471
  657 18.9582 9.65394 -12.5754
  658 19.2908 9.62499 12.6383
  659 114.950 -7.70987 13.2272
  660 38.0931 9.28385 21.6608
  661 7.77680 -0.0110746 2.55232
  662 7.74802 -0.00897692 -2.55551
  663 97.3231 -6.81895 17.7317
  664 96.5491 11.8003 -43.5884
  665 91.4784 2.71274 -15.7546
  666 122.120 21.9674 9.92348
  667 82.4152 -3.37634 -1.12791
  668 149.134 27.2578 -0.658076
  669 -7.99008 0.337583 -0.133816
  670 -7.95723 0.336602 0.140657
  671 65.2600 0.000675231 -21.9337
  672 1.77370 -0.0864477 0.492987
  673 1.75708 -0.0867086 -0.499494
  674 82.4772 -7.19820 -13.3487
  675 26.1121 3.69163 -8.68950
  676 25.8908 3.70168 8.68216
  677 -0.292006 1.34376 -0.135499
  678 -0.256413 1.34155 0.150143
  679 69.4696 -5.90013 -2.32506
  680 99.0680 -0.967075 -6.15352
  681 45.7129 -1.24302 -0.415318
  682 45.7125 -1.22573 0.419489
  683 32.4236 -1.60206 -2.49306
  684 32.4461 -1.62588 2.48014
  685 5.90898 4.87195 -1.04853
  686 6.01490 4.88032 1.08257
  687 103.244 -0.930466 0.914121
  688 43.7415 -2.68376 3.27140
  689 44.0440 -2.63261 -3.26635
  690 113.805 -9.57679 -2.94403
  691 93.0857 -9.34741 -3.32391
  692 72.5780 -1.72387 0.248074
  693 72.3073 -1.58047 -0.206434
  694 103.032 -11.2440 4.21380
  695 168.467 33.7647 7.58922
  696 90.3102 -4.58056 -22.3893
  697 103.582 -2.77500 6.68017
  698 102.153 -3.98676 -16.5542
  699 29.7622 -0.854685 -1.11476
  700 29.7574 -0.846623 1.09532
  701 79.9856 -1.89343 25.2604
  702 231.291 29.2762 26.8871
  703 14.2899 4.34977 -4.68406
  704 14.3093 4.37791 4.70003
  705 103.005 -0.682957 -0.476330
  706 103.862 -0.592298 0.482600
  707 42.6293 20.1849 -35.8745
  708 108.814 -0.484909 3.71327
  709 93.9917 -1.26746 0.847204
  710 122.394 24.4993 -3.76367
  711 11.3455 2.22778 -3.28542
  712 11.3967 2.21322 3.29807
  713 118.575 -0.173114 0.159462
  714 94.2593 -3.36258 -3.12542
  715 117.759 -2.28862 14.2045
  716 46.5486 -3.19625 -5.40006
  717 46.6664 -3.05112 5.33748
  718 8.69346 -0.339954 1.92701
  719 8.66819 -0.335317 -1.93453
  720 107.902 -0.458736 -0.794330
  721 92.6318 16.3191 46.4416
  722 0.441823 0.392485 3.41006
  723 0.475372 0.411329 -3.38718
  724 107.878 -0.925282 -1.91414
  725 104.474 -1.66447 2.70351
  726 79.7128 -0.0136363 -10.1358
  727 0.706595 -10.1224 -1.53931
  728 0.656297 -10.2143 1.63183
  729 36.6172 9.54220 -21.6441
  730 82.2599 -8.41841 -9.28899
  731 42.2071 20.0363 36.2669
  732 116.797 -0.148104 0.466851
  733 109.525 16.3289 11.9477
  734 77.8134 7.13407 -4.00941
  735 145.209 29.3388 -1.04006
  736 114.847 -0.357763 1.44363
  737 -8.02615 0.172149 0.671346
  738 -8.06804 0.173099 -0.668592
  739 121.660 -7.68475 1.48442
  740 77.5072 -1.89446 0.301980
  741 26.7977 0.126339 -6.03300
  742 26.8298 0.0983548 5.99020
  743 104.732 -0.946203 -1.22328
  744 186.090 26.4554 -9.01290
  745 9.85661 -0.319379 -1.14507
  746 9.87628 -0.321404 1.13356
  747 117.605 -0.192343 -0.696412
  748 20.6939 -0.929973 -1.60839
  749 20.7034 -0.933300 1.59150
  750 113.225 -4.91387 -14.4801
  751 104.320 -1.04248 5.03071
  752 92.1697 -0.754206 15.6326
  753 118.016 -0.201416 -0.0618813
  754 109.313 -0.585605 1.49525
  755 69.6980 -3.50536 -0.0238308
  756 88.5502 -1.98643 1.09653
  757 100.499 -6.18478 -10.7620
  758 98.1500 -6.07059 7.30009
  759 114.401 13.5256 -15.1499
  760 96.8612 -5.26729 5.57781
  761 102.016 -6.14042 13.5703
  762 57.9827 -3.76080 1.90828
  763 1.93469 -1.40151 -0.783571
  764 1.82252 -1.40649 0.889175
  765 89.8454 -0.977033 0.0696753
  766 89.6487 -0.966821 -0.104104
  767 109.084 -0.229255 -0.102050
  768 109.485 -0.204981 0.129234
  769 102.339 -2.79770 8.05675
  770 94.5853 -9.06997 12.4780
  771 76.9271 -6.09230 0.204925
  772 67.9576 -3.82235 0.546710
  773 190.122 24.4929 10.6929
  774 103.919 -2.46813 -5.37163
  775 60.0514 9.79157 -33.7926
  776 96.2841 -4.55514 -4.87566
  777 2.29355 0.107151 -1.75136
  778 2.33087 0.103642 1.75279
  779 83.4311 7.32287 -9.00341
  780 225.568 6.87968 -2.99279
  781 107.728 2.44905 -17.9499
  782 4.07720 -0.331258 -7.48944
  783 109.894 19.9882 3.08652
  784 86.6533 -5.29648 2.26944
  785 96.7400 -2.54928 15.4523
  786 81.8137 -8.78513 9.34408
  787 133.717 -2.35765 19.8576
  788 4.39578 0.676342 8.05279
  789 58.4728 -0.497181 16.8450
  790 82.8864 -1.78515 -0.603241
  791 92.6414 -8.67822 -12.6453
  792 55.5296 -4.22842 -3.76524
  793 43.6908 2.02796 -14.5533
  794 106.979 -1.95990 17.6050
  795 67.8465 -4.44244 1.22219
  796 10.5882 -0.335927 1.06347
  797 10.5755 -0.336482 -1.07618
  798 99.3828 -0.518224 5.46246
  799 88.9615 0.315831 -15.1215
  800 -8.20125 0.348166 1.08564
  801 -8.18921 0.348732 -1.07906
  802 65.9585 -1.77235 0.0893886
  803 65.7543 -1.65630 -0.109327
  804 48.6315 5.21491 20.9027
  805 42.5793 -2.38559 2.37266
  806 42.6468 -2.32288 -2.40556
  807 117.612 -0.105559 -0.411238
  808 39.1758 3.06677 14.1429
  809 -1.18067 -0.0343597 0.678188
  810 -1.21600 -0.0334916 -0.682179
  811 98.1452 -3.07635 12.0395
  812 106.914 -0.649541 0.650495
  813 -5.70108 0.0471868 1.60568
  814 -5.70139 0.0489098 -1.60255
  815 64.0469 -4.12091 12.3232
  816 11.8314 9.43582 -10.4291
  817 11.9822 8.94672 10.2546
  818 57.5249 2.61077 1.63934
  819 -3.25300 -0.0435482 -0.785865
  820 -3.21150 -0.0441570 0.784401
  821 74.0166 -7.12580 -8.72222
  822 102.132 -10.8839 -4.81280
  823 -0.498327 -0.474731 -0.620335
  824 -0.496945 -0.473702 0.618132
  825 2.34362 0.189818 -0.146055
  826 2.34689 0.190853 0.142349
  827 90.4831 -7.97236 3.37164
  828 75.6594 -7.79224 5.74392
  829 84.4887 -1.06029 0.446826
  830 75.4396 -5.93498 -0.508053
  831 25.4875 -0.347365 -0.0945917
  832 25.4854 -0.335776 0.0918365
  833 -9.37972 0.195497 0.685447
  834 -9.36072 0.195213 -0.679066
  835 96.1439 -0.907756 -0.636781
  836 82.1548 3.12803 -12.7921
  837 97.1193 -1.62026 -1.71658
  838 55.6422 -4.14218 3.55592
  839 94.4909 -1.71883 -12.6003
  840 102.232 -3.04469 -8.32986
  841 96.5607 -0.731112 0.578217
  842 69.2529 -2.87625 17.3067
  843 74.0114 -7.17490 -2.82845
  844 43.7315 -0.317647 -10.9514
  845 43.9805 -0.0128103 11.0085
  846 62.5975 -4.53527 -2.07256
  847 104.607 11.1592 15.3288
  848 100.673 -10.8228 -6.25532
  849 34.0211 -0.981110 -0.527844
  850 34.0137 -0.963417 0.519762
  851 76.2158 -1.38691 -0.154621
  852 76.2166 -1.40159 0.176380
  853 89.8163 -0.720454 -8.19601
  854 28.7162 -1.16929 -2.00243
  855 28.7279 -1.17861 1.97977
  856 0.338527 -9.91086 -2.06606
  857 0.318915 -9.95232 2.10482
  858 12.7473 -0.185207 -0.120146
  859 12.7466 -0.190086 0.116849
  860 95.3195 -1.16426 -0.899940
  861 71.1265 -6.76420 5.13215
  862 112.328 -10.0188 5.19774
  863 61.9088 1.31882 6.28690
  864 97.4375 -2.00360 1.94563
  865 106.009 -9.71885 -9.11324
  866 13.7818 0.998332 -3.89474
  867 13.8225 0.982288 3.88989
  868 84.0413 -1.16423 -0.411722
  869 66.7929 -2.03824 -0.126186
  870 66.5464 -2.01615 0.185354
  871 102.942 16.1033 8.33925
  872 34.8770 -0.279623 -7.40303
  873 34.8368 -0.321815 7.36319
  874 71.7989 -6.38924 2.09171
  875 6.26380 4.30258 -0.860599
  876 6.33021 4.29270 0.878144
  877 60.3687 -4.32786 9.85269
  878 72.8871 -4.43666 0.0260059
  879 90.4019 -0.744905 8.28344
  880 90.2718 -10.2678 2.19901
  881 103.686 -8.02541 -12.0282
  882 70.9537 -6.82060 -5.22263
  883 58.4255 -3.74230 -1.81053
  884 199.462 16.5628 -3.00562
  885 94.6884 -10.0849 2.78796
  886 2.18089 2.87478 1.65975
  887 2.22863 2.87953 -1.63549
  888 81.8619 -8.14876 0.568156
  889 90.1615 -10.3138 -4.77157
  890 2.19461 2.59035 0.652665
  891 2.23595 2.59032 -0.634501
  892 32.3696 -1.08214 5.48350
  893 32.3964 -1.11923 -5.52375
  894 39.6680 -1.94507 6.04102
  895 39.6587 -1.99552 -6.09239
  896 129.846 26.1301 4.96932
  897 -0.209373 -4.02544 -1.94102
  898 -0.210783 -4.02133 1.93999
  899 28.5771 2.50889 -8.24730
  900 28.4258 2.45595 8.15302
  901 233.657 7.59989 -11.9397
  902 1.26537 -0.00813124 0.262094
  903 1.25490 -0.00890186 -0.267184
  904 0.344712 -11.8224 0.991222
  905 0.408347 -11.6415 -0.837910
  906 -4.31086 -0.0675770 1.61513
  907 -4.31496 -0.0662919 -1.61445
  908 22.7847 6.76020 -9.78877
  909 23.1423 6.53761 9.63386
  910 -2.03958 -0.00182564 -3.48834
  911 -2.04893 -0.00896313 3.49439
  912 5.44829 0.648096 -2.44404
  913 5.48690 0.640126 2.44652
  914 24.4796 -0.204766 5.01641
  915 24.4667 -0.203856 -5.04855
  916 19.5150 -0.629550 -4.01721
  917 19.5317 -0.627794 4.00751
  918 113.347 -0.342579 -2.08751
  919 53.8719 10.9008 31.2745
  920 74.7779 -7.31832 2.57334
  921 52.1981 -3.61728 2.75484
  922 102.127 10.3725 -15.0705
  923 229.710 4.99827 4.71897
  924 123.065 4.97965 -15.1112
  925 18.1258 -0.693924 2.45243
  926 18.1108 -0.685409 -2.46508
  927 1.73037 -0.0898987 -1.81527
  928 1.76587 -0.0910191 1.81399
  929 -0.188023 -2.12447 -3.84188
  930 -0.203922 -2.13979 3.85424
  931 53.9749 -2.16767 1.05727
  932 54.0066 -2.21665 -1.06640
  933 5.50169 1.79263 -2.03757
  934 5.54408 1.78419 2.04962
  935 32.0349 -1.36264 -4.58552
  936 32.0531 -1.36178 4.57989
  937 69.8675 -0.411785 -7.42557
  938 32.9641 -1.73633 -3.05772
  939 32.9343 -1.71440 3.06851
  940 84.5970 -2.01519 -0.750773
  941 102.277 -5.99444 -14.5025
  942 42.9597 -1.59408 1.23126
  943 42.9849 -1.61178 -1.25544
  944 -1.82111 -0.205047 -1.10862
  945 -1.81649 -0.205532 1.10646
  946 105.043 -8.71494 -15.7261
  947 99.9840 -5.80751 9.46335
  948 87.4759 -5.92267 -2.74305
  949 83.3356 2.72914 13.4985
  950 37.1119 -2.00937 -3.46765
  951 37.1060 -1.96675 3.47990
  952 94.1116 3.43168 16.4698
  953 87.0172 7.55259 10.8184
  954 185.113 22.5103 3.78374
  955 93.5078 -3.06049 2.42910
  956 47.3978 -1.20473 -0.540677
  957 47.3888 -1.17468 0.547178
  958 83.1436 -6.66111 -1.32149
  959 114.564 21.1287 -7.38038
  960 103.268 -0.801552 -0.915066
  961 66.1337 -1.28169 0.168549
  962 66.1056 -1.26935 -0.148551
  963 7.88987 6.47393 -4.07385
  964 8.10107 6.45596 4.11027
  965 16.0987 35.6596 -34.9963
  966 94.7481 -2.32595 12.5483
  967 119.842 -2.82518 -12.8932
  968 -2.68388 1.11909 0.995922
  969 -2.65415 1.11855 -0.981520
  970 251.865 57.7960 -46.7188
  971 102.342 -11.3249 2.57698
  972 109.517 -10.5536 -2.88876
  973 100.559 -8.66002 8.87949
  974 123.440 24.5442 3.28735
  975 8.43354 7.79115 -9.64692
  976 22.5744 30.3611 33.9867
  977 -0.712459 -1.55171 3.78006
  978 -0.702574 -1.54047 -3.77358
  979 98.3213 -2.21470 2.37120
  980 157.947 28.2680 -2.78847
  981 8.69018 7.57499 10.0827
  982 -0.441902 -1.42199 -1.23263
  983 -0.442049 -1.41834 1.22969
  984 83.7835 -1.57523 0.423057
  985 61.4943 -4.79261 -3.90028
  986 101.312 -8.06364 -10.3080
  987 27.6028 7.39743 -13.2366
  988 28.0543 7.52367 13.2722
  989 97.7418 -2.44802 -11.2780
  990 99.5436 -2.90423 4.06899
  991 -2.87604 0.583560 3.13478
  992 -2.86301 0.589781 -3.12538
  993 58.7047 -3.88041 -9.20895
  994 97.9175 6.07220 -16.6412
  995 73.1092 -2.40838 -0.205411
  996 51.5091 -1.22825 0.0433735
  997 51.5005 -1.23908 -0.0371896
  998 -1.15859 -1.31047 -2.62144
  999 -1.16031 -1.31326 2.61975
  1000 100.883 -3.37744 -4.89307
  1001 96.3848 -0.703343 0.187214
  1002 96.2939 -0.703984 -0.145355
  1003 132.587 21.0857 -11.1288
  1004 22.4187 2.06750 -6.35972
  1005 22.4732 2.02617 6.34068
  1006 13.4221 -0.0755841 -3.28619
  1007 13.4458 -0.0784361 3.27943
  1008 108.366 5.47417 18.1564
  1009 103.860 -1.68479 -2.83701
  1010 16.8806 2.82024 -5.03681
  1011 16.9483 2.79815 5.05575
  1012 109.143 -0.312232 -0.532529
  1013 100.571 -4.19439 -7.20137
  1014 98.1798 -11.3158 -2.85736
  1015 3.34113 2.60309 -0.738715
  1016 3.23890 2.59093 0.784367
  1017 -5.11162 0.735561 1.96660
  1018 -5.09488 0.737415 -1.95572
  1019 55.3457 2.17769 -2.74243
  1020 171.814 41.5073 -9.49125
  1021 76.8422 -5.39219 0.430603
  1022 49.9541 -2.17047 -9.52363
  1023 125.555 -5.76773 2.90160
  1024 50.1532 -2.17261 9.66655
  1025 88.8838 -10.5099 5.80041
  1026 100.858 -4.13932 -10.4624
  1027 32.3916 -0.640467 -0.169837
  1028 32.3891 -0.625582 0.168113
  1029 68.0070 -5.15237 -1.62148
  1030 40.7878 -1.46149 -7.25639
  1031 40.7656 -1.47249 7.21063
  1032 13.1413 8.50582 -7.76842
  1033 13.3580 8.47436 7.79071
  1034 26.7569 -0.799591 -0.620232
  1035 26.7533 -0.787636 0.608702
  1036 89.9430 -2.51270 1.50368
  1037 75.4321 -0.107341 -25.6246
  1038 93.3367 -2.72025 -2.38828
  1039 83.7004 -9.29433 -3.05117
  1040 53.8174 -2.05016 0.664532
  1041 53.8666 -2.06826 -0.668900
  1042 110.648 -0.432944 0.669720
  1043 97.9675 -2.01164 -2.22967
  1044 58.8458 1.41375 5.16221
  1045 104.454 -1.00789 -4.67195
  1046 39.4115 11.1175 24.6891
  1047 107.994 -0.939899 -3.87327
  1048 26.8154 4.58061 -9.77147
  1049 25.9689 4.63655 9.33492
  1050 129.855 -3.13088 -3.58721
  1051 10.6872 5.75101 -3.70188
  1052 10.7900 5.70726 3.69821
  1053 1.72763 -0.793626 1.70781
  1054 1.82503 -0.777575 -1.64387
  1055 13.9859 -0.383190 0.778248
  1056 13.9785 -0.386281 -0.791553
  1057 45.0536 11.2737 -27.5426
  1058 260.882 64.9021 50.2382
  1059 100.502 -3.38001 5.02051
  1060 89.6892 -10.1644 -1.86257
  1061 61.3749 -5.02493 -6.89454
  1062 -1.66022 1.24921 2.87349
  1063 -1.63699 1.25602 -2.85810
  1064 69.6224 -3.30831 -0.0648291
  1065 77.2472 -2.52907 -0.545398
  1066 -0.0514206 -5.72326 1.88966
  1067 -0.0494707 -5.72780 -1.88885
  1068 10.8232 6.81519 -4.52644
  1069 10.9580 6.79957 4.55576
  1070 68.6417 -3.00936 0.0760772
  1071 4.49276 2.46596 1.04505
  1072 4.45009 2.47004 -1.02881
  1073 106.083 -4.41830 16.7750
  1074 76.2649 -7.93246 -5.71450
  1075 61.7513 -5.10717 6.89275
  1076 100.472 -2.23123 -17.4136
  1077 107.993 -0.925535 2.06688
  1078 37.4874 5.69793 16.2407
  1079 37.7619 5.45719 -15.9583
  1080 61.4047 -3.06734 -13.5779
  1081 88.3310 -2.83352 -1.57723
  1082 70.9663 -4.03082 0.367712
  1083 83.7177 -7.72210 0.811674
  1084 117.295 -0.313650 -1.14871
  1085 61.1139 -2.55842 0.535723
  1086 61.0867 -2.72382 -0.574442
  1087 1.71159 2.10184 2.58860
  1088 1.76165 2.11798 -2.56043
  1089 101.020 3.50464 -17.9252
  1090 21.4055 1.20449 -5.56422
  1091 21.4617 1.17882 5.54377
  1092 15.5844 0.401244 -3.88081
  1093 15.6167 0.391871 3.87005
  1094 117.654 -5.81015 20.0498
  1095 100.781 -4.60294 10.3588
  1096 48.0081 -2.15673 -7.95789
  1097 119.599 -0.389161 -0.691957
  1098 131.540 24.6267 -8.52180
  1099 107.912 -0.771390 -1.37134
  1100 100.059 -10.9096 4.71477
  1101 73.2838 -5.72180 11.7464
  1102 120.677 -0.0428030 0.173424
  1103 58.7203 1.87199 -4.38344
  1104 84.3171 -9.00737 -0.802319
  1105 48.0806 -2.25835 7.85504
  1106 85.1390 -7.65481 -1.30976
  1107 107.463 -1.34196 3.64159
  1108 73.4294 4.66419 6.88981
  1109 51.7426 -3.74068 -6.17906
  1110 164.448 21.0072 -6.95717
  1111 121.466 4.93645 15.7127
  1112 87.9939 11.1275 1.71052
  1113 118.927 0.114065 0.648285
  1114 44.5355 -2.69564 -4.59456
  1115 30.5354 18.0960 -27.5087
  1116 55.2331 1.29754 -19.7004
  1117 63.3941 -4.72503 2.55581
  1118 53.1637 -3.91492 5.71897
  1119 44.4151 -2.55449 4.65095
  1120 95.7996 0.654363 17.3207
  1121 72.5805 -2.20684 0.285499
  1122 116.845 -0.778627 1.49215
  1123 -1.08289 -0.225328 3.82717
  1124 -1.06932 -0.214318 -3.81797
  1125 76.2434 -1.82872 -0.353598
  1126 -0.345715 0.646766 3.60378
  1127 -0.321402 0.660906 -3.58675
  1128 41.1984 -1.14390 0.776429
  1129 41.2054 -1.16637 -0.777897
  1130 109.016 -0.533527 3.21888
  1131 86.9855 -5.10140 -2.36092
  1132 81.2761 -4.07632 -1.20030
  1133 91.2384 -6.23194 4.04990
  1134 26.8785 12.9795 -20.2253
  1135 89.5865 -3.08369 1.92147
  1136 11.7379 0.308527 -3.14755
  1137 11.7683 0.302039 3.14244
  1138 17.7556 11.2112 -13.8950
  1139 144.709 17.6956 6.83568
  1140 8.13974 -0.425578 1.79966
  1141 8.11251 -0.421852 -1.80460
  1142 18.0796 11.0125 13.3718
  1143 81.5241 -6.68188 0.989219
  1144 39.6637 -1.73364 1.58125
  1145 39.6749 -1.74365 -1.61710
  1146 169.008 35.5093 -8.11882
  1147 90.1447 -9.01440 1.78687
  1148 30.0128 16.8473 27.4344
  1149 2.40356 -1.89507 -1.65105
  1150 2.60373 -1.86416 1.89114
  1151 93.1754 11.7233 8.75002
  1152 6.29753 3.68501 -0.980284
  1153 6.35238 3.68506 0.994896
  1154 90.7725 -7.80311 -3.50730
  1155 -0.0453847 -8.92325 -1.80432
  1156 -0.0495413 -8.92608 1.81246
  1157 97.2063 -8.17631 -6.51954
  1158 -3.82854 0.130040 0.611729
  1159 -3.86969 0.130774 -0.613855
  1160 13.8528 5.31711 -4.99677
  1161 13.9288 5.33918 4.94117
  1162 -6.67398 0.0179341 -0.750843
  1163 -6.62885 0.0175460 0.751163
  1164 97.9376 -0.721054 -0.283536
  1165 -10.2717 0.283876 0.284598
  1166 -10.2461 0.283662 -0.278807
  1167 49.9177 -3.84243 -4.37730
  1168 1.28722 -14.3363 -0.800236
  1169 23.4550 -0.623080 1.24814
  1170 23.4518 -0.626090 -1.26696
  1171 82.3761 -1.19941 0.0528645
  1172 82.5366 -1.15681 -0.0361188
  1173 1.37986 -13.7511 1.09078
  1174 97.9796 -4.95194 -6.21859
  1175 112.816 -0.436418 2.43020
  1176 99.4186 -6.30990 -8.81315
  1177 84.8252 0.563091 13.3998
  1178 0.375513 -3.98098 3.00145
  1179 0.417635 -3.95529 -2.95758
  1180 62.4571 -4.37573 1.90707
  1181 -4.53390 0.358850 2.48471
  1182 -4.52575 0.361986 -2.47780
  1183 166.497 26.8140 1.55911
  1184 199.077 57.7182 -40.6110
  1185 101.734 -9.99114 7.94769
  1186 40.0526 -1.02323 -0.0710270
  1187 40.0515 -1.00744 0.0710461
  1188 213.735 20.7272 -18.8406
  1189 12.6929 -0.336746 1.87281
  1190 12.6721 -0.330973 -1.88297
  1191 93.7987 -0.308563 -5.38622
  1192 59.8423 -4.76583 4.98816
  1193 100.658 -9.96174 -6.13087
  1194 97.3095 -7.00625 -7.14165
  1195 58.3936 -2.15269 14.2779
  1196 20.7755 3.98913 -7.21565
  1197 20.7596 3.95306 7.16785
  1198 27.9172 10.2056 -17.0697
  1199 27.9458 9.42373 17.0669
  1200 7.20464 2.37284 -2.13490
  1201 7.25076 2.36509 2.14986
  1202 119.349 20.5652 -10.8687
  1203 5.67664 5.08579 -1.67350
  1204 5.81868 5.08983 1.71459
  1205 86.2935 -6.43731 2.23593
  1206 165.376 21.7274 8.04221
  1207 18.2586 -0.781691 -1.22841
  1208 18.2673 -0.781116 1.21161
  1209 109.205 68.3511 -62.6970
  1210 78.3749 4.61229 -10.6740
  1211 71.2360 5.56310 4.33107
  1212 9.35072 4.19054 -2.54381
  1213 9.39673 4.18934 2.56018
  1214 -0.664905 -0.0105244 0.451496
  1215 -0.688775 -0.0104985 -0.456489
  1216 95.8693 -7.63452 6.10529
  1217 94.4815 -3.52877 3.38829
  1218 64.3063 16.7754 -44.0291
  1219 149.322 32.4220 0.0395753
  1220 63.0633 -2.05425 -15.8319
  1221 82.6058 -2.20502 0.693253
  1222 1.10050 -0.422192 -0.119797
  1223 1.09921 -0.421969 0.119051
  1224 -3.21415 0.643897 -0.860130
  1225 -3.17688 0.641061 0.868247
  1226 54.5510 0.467155 -16.6743
  1227 103.011 -2.02056 3.55831
  1228 65.8880 0.870672 23.2118
  1229 90.1186 -4.20987 -2.81340
  1230 45.7796 15.5520 -34.2440
  1231 71.7287 -3.73309 -17.1769
  1232 85.8098 -9.16087 0.309759
  1233 105.947 -1.54378 5.29900
  1234 92.8716 -1.59826 -1.15521
  1235 49.6891 -3.59327 4.40800
  1236 116.682 -7.00937 -10.3068
  1237 109.419 9.21278 17.2406
  1238 46.7641 0.196466 -12.9648
  1239 111.449 -0.458800 0.497831
  1240 85.6274 10.7784 -2.43472
  1241 36.2511 -1.15697 -1.22827
  1242 36.2392 -1.14223 1.20993
  1243 171.000 37.0118 6.59147
  1244 238.423 6.35986 11.1938
  1245 0.189422 -10.9417 -1.80382
  1246 0.182877 -10.9554 1.81736
  1247 23.8408 12.1796 18.8053
  1248 58.0428 -1.43160 -0.105171
  1249 58.0549 -1.42030 0.128138
  1250 80.7716 -8.07415 -1.04172
  1251 95.3406 7.68710 15.0424
  1252 102.299 -1.73758 -2.40629
  1253 120.633 -0.222691 -0.0704619
  1254 209.032 45.7814 -28.2746
  1255 29.6548 -1.06644 1.20967
  1256 29.6570 -1.06963 -1.23234
  1257 97.2993 -9.03587 6.32317
  1258 173.957 39.8699 -10.0772
  1259 94.4989 -3.87987 -3.78105
  1260 67.9908 -4.54635 -1.03054
  1261 84.2686 -9.20423 2.93812
  1262 82.4223 -3.85713 1.37685
  1263 2.79742 -0.902824 -2.97543
  1264 113.655 -7.25856 11.9083
  1265 91.6341 -5.81548 -3.93736
  1266 3.09815 -0.746286 3.38427
  1267 94.4469 -8.00848 -15.9671
  1268 89.5239 4.63179 -35.9941
  1269 148.545 17.5360 -5.50964
  1270 121.167 0.0207502 -0.0467026
  1271 120.923 -0.0930940 0.119469
  1272 93.2948 -5.24956 4.14857
  1273 34.6756 4.13676 -12.7081
  1274 106.475 -9.68486 9.75572
  1275 183.334 41.3806 17.7224
  1276 43.7284 14.3283 33.3062
  1277 1.01886 -0.249594 3.14594
  1278 1.06514 -0.228392 -3.11414
  1279 112.484 -9.60742 -7.79784
  1280 43.1876 -2.23609 -1.91861
  1281 43.1753 -2.24133 1.87094
  1282 103.899 -6.98469 14.0436
  1283 2.06853 0.0557247 2.01284
  1284 2.03269 0.0577509 -2.01338
  1285 -0.622757 -2.24426 3.04663
  1286 -0.618873 -2.23952 -3.04667
  1287 16.1500 -0.560946 -1.70872
  1288 16.1641 -0.564491 1.69399
  1289 53.4035 -3.52120 -7.12121
  1290 53.5901 -1.53905 0.224500
  1291 53.5901 -1.58040 -0.203276
  1292 120.571 0.0203361 -0.0463098
  1293 105.182 -1.50770 -5.93066
  1294 6.95756 0.438370 -2.45561
  1295 6.99262 0.432562 2.45480
  1296 53.6194 -3.73286 7.04772
  1297 121.937 -0.0517866 0.0185359
  1298 114.715 0.0938590 -0.123165
  1299 114.725 0.0263461 0.0910565
  1300 150.028 30.5552 4.00747
  1301 111.317 -0.524404 -1.08986
  1302 98.2573 -0.660002 0.247331
  1303 108.942 -1.46385 -3.22375
  1304 119.757 -0.286499 0.498426
  1305 122.487 12.1046 15.5875
  1306 142.359 28.9587 5.55433
  1307 115.506 -0.373871 -1.63614
  1308 -0.905284 -0.242508 0.820675
  1309 -0.908761 -0.242308 -0.823031
  1310 62.2023 -3.72151 1.14462
  1311 62.1883 -3.54467 -1.09456
  1312 123.623 13.4766 -14.9564
  1313 24.6377 8.42441 -13.9186
  1314 24.7963 8.18305 13.7512
  1315 81.1170 -0.0187885 -6.69544
  1316 85.7661 -0.997525 0.0619543
  1317 85.6613 -0.985731 -0.0793498
  1318 -2.14859 -0.407381 3.11589
  1319 -2.14468 -0.402054 -3.11440
  1320 94.1101 -0.237816 5.38011
  1321 145.080 28.9334 0.795607
  1322 7.68153 -0.367075 -1.08073
  1323 7.69996 -0.367961 1.06940
  1324 107.344 -10.5661 6.02181
  1325 -0.198093 1.57592 2.99782
  1326 -0.167873 1.58556 -2.97863
  1327 17.1076 -0.376429 -0.314864
  1328 17.1083 -0.369130 0.307420
  1329 81.1474 -0.159156 6.79352
  1330 0.250518 0.196197 -0.152962
  1331 0.256626 0.196947 0.149244
  1332 110.122 -1.08391 2.16441
  1333 152.208 28.1048 0.888803
</Section>

newXOutput 15

<Section columns = "stress_xx | stress_yy | stress_xy">
  1 133.407 -0.257784 0.238975
  2 133.645 -0.366179 -0.310722
  3 -1.18184 0.133820 -0.358669
  4 -0.0824774 -0.132180 -0.0773872
  5 252.065 92.0511 79.4676
  6 255.964 105.863 -80.3840
  7 -0.0815067 -0.131341 0.0761281
  8 -1.17993 0.133089 0.357772
  9 134.382 -0.176210 -0.220871
  10 133.263 -0.390895 -0.306238
  11 133.287 -0.289239 0.341707
  12 132.483 -0.0976311 0.194590
  13 132.103 -0.364424 -0.0170103
  14 131.701 -0.341933 0.623930
  15 129.451 -0.207784 0.643511
  16 129.800 -0.907744 0.899874
  17 125.247 -0.728983 1.85084
  18 122.253 -0.270636 2.21257
  19 118.212 -0.372147 2.36318
  20 111.341 -0.326274 3.22969
  21 103.977 -0.299419 3.71052
  22 94.9207 0.446202 5.02349
  23 82.6399 0.684181 4.51572
  24 77.8071 -0.0965918 6.42500
  25 62.7111 0.911856 4.54221
  26 53.6649 1.23409 3.53596
  27 51.3200 0.516675 2.59887
  28 48.7978 1.78620 0.182421
  29 50.1674 1.95964 -3.47094
  30 52.9693 0.528779 -4.36551
  31 64.1012 0.171935 -5.86335
  32 75.4515 -0.595634 -6.15350
  33 83.0837 0.564945 -4.51334
  34 95.0628 0.511666 -5.03029
  35 103.683 -0.360499 -3.97020
  36 112.123 -0.396686 -3.05687
  37 117.679 -0.252055 -2.39648
  38 121.863 -0.282223 -2.04640
  39 126.301 -0.409723 -1.20969
  40 128.158 -0.376130 -1.17324
  41 129.941 -0.361578 -1.02038
  42 131.782 -0.423721 -0.259150
  43 132.533 -0.558610 -0.446584
  44 131.833 0.144427 -0.0869880
  45 133.140 -0.250442 -0.377730
  46 133.853 -0.612038 0.333599
  47 134.570 -0.332190 -0.0239018
  48 127.262 0.255393 -0.199833
  49 119.131 -0.228356 -0.386345
  50 110.030 -0.792778 -0.590308
  51 100.700 -0.538940 -0.434511
  52 92.6443 -1.12083 -0.402036
  53 84.2046 -1.25510 -0.375730
  54 75.7482 -1.06504 -0.213339
  55 66.9150 -1.19816 -0.277026
  56 59.4800 -1.36115 -0.351478
  57 49.6407 -1.34514 -0.299300
  58 39.5464 -0.803006 -0.191644
  59 31.2206 -0.500473 -0.158964
  60 20.9620 -0.314346 -0.0916039
  61 13.5035 -0.352337 -0.535071
  62 6.56097 -0.546747 -0.190980
  63 -0.429537 0.0683570 0.295377
  64 -2.18846 0.496638 0.0875152
  65 -2.63408 0.206040 0.291249
  66 -2.26392 0.0955390 0.271662
  67 -3.54195 0.288525 0.0748894
  68 -3.96493 0.372289 0.590098
  69 -3.97863 0.128302 0.152955
  70 -6.17726 0.269259 0.176818
  71 -7.12780 0.194738 0.552396
  72 -7.34320 0.0739795 0.570595
  73 -9.66843 0.259036 0.410451
  74 -10.4509 0.379629 0.860139
  75 -11.2424 0.230634 0.237161
  76 -12.3053 0.164884 0.416669
  77 -12.5604 0.179043 0.107720
  78 -13.5101 0.412013 -0.369318
  79 -13.4830 0.282733 -0.281366
  80 -12.1546 0.220362 -0.472730
  81 -10.3590 0.274388 -0.841314
  82 -8.32823 0.112083 -1.22192
  83 -6.14220 0.0578630 -1.25240
  84 -3.66423 -0.137160 -1.30142
  85 -1.55995 -0.106570 -0.747029
  86 -0.644255 -0.268626 -0.460648
  87 -0.114837 -0.656569 -0.393152
  88 -0.199650 -1.67750 -0.717048
  89 -0.224270 -3.35928 -1.27928
  90 -0.0561730 -6.32975 -1.40157
  91 0.0662768 -8.83452 -1.77983
  92 0.168840 -12.7479 -1.46142
  93 0.516893 -15.2270 -1.74039
  94 0.0707626 -16.6246 -1.49596
  95 -0.0384176 -19.2798 -0.994556
  96 0.519919 -19.1479 -0.461353
  97 2.06294 -25.0031 0.668548
  98 1.73437 -14.8981 2.67479
  99 4.24122 -8.85134 6.29857
  100 13.1131 16.1017 21.3582
  101 58.5379 66.7345 64.2271
  102 330.610 34.0815 49.4551
  103 273.488 9.60830 17.7289
  104 259.767 4.10564 6.14249
  105 251.972 2.73184 -0.0281559
  106 256.852 3.91574 -5.01913
  107 276.280 8.22199 -14.7467
  108 327.202 27.3072 -46.3068
  109 37.7568 75.7952 -53.0474
  110 9.18820 10.2610 -16.3025
  111 3.11633 -10.9911 -5.11286
  112 1.57063 -16.1668 -2.22628
  113 2.05562 -25.9136 -0.449301
  114 0.499258 -19.5565 0.619479
  115 -0.0683825 -19.4864 1.07759
  116 0.0514595 -16.7061 1.54074
  117 0.506549 -15.2485 1.75954
  118 0.164840 -12.7435 1.46867
  119 0.0632049 -8.82391 1.78267
  120 -0.0576698 -6.31541 1.40101
  121 -0.224502 -3.34999 1.27684
  122 -0.200078 -1.66932 0.714682
  123 -0.114779 -0.653505 0.391020
  124 -0.640553 -0.268305 0.458887
  125 -1.55345 -0.107016 0.745168
  126 -3.65611 -0.138192 1.30043
  127 -6.13312 0.0567622 1.25283
  128 -8.32379 0.110897 1.22416
  129 -10.3625 0.273582 0.845478
  130 -12.1663 0.220335 0.477117
  131 -13.5049 0.282557 0.285577
  132 -13.5403 0.412092 0.373630
  133 -12.5997 0.179551 -0.104108
  134 -12.3513 0.165503 -0.414153
  135 -11.2913 0.231314 -0.235311
  136 -10.5029 0.380410 -0.859684
  137 -9.72110 0.259745 -0.410105
  138 -7.39407 0.0744106 -0.571133
  139 -7.17784 0.195469 -0.553644
  140 -6.22399 0.270304 -0.178554
  141 -4.01819 0.129013 -0.155923
  142 -3.99686 0.372950 -0.594257
  143 -3.56744 0.288660 -0.0786171
  144 -2.27980 0.0953819 -0.275197
  145 -2.64259 0.205645 -0.294056
  146 -2.19225 0.495918 -0.0899847
  147 -0.429524 0.0679451 -0.296774
  148 6.56060 -0.548737 0.189437
  149 13.5026 -0.357591 0.533302
  150 20.9624 -0.323773 0.0893786
  151 31.2227 -0.514168 0.157754
  152 39.5476 -0.818985 0.191360
  153 49.6373 -1.35911 0.301287
  154 59.4653 -1.36850 0.355823
  155 66.8884 -1.19049 0.287544
  156 75.7073 -1.03471 0.225720
  157 84.1465 -1.18231 0.356407
  158 92.6813 -1.14057 0.355536
  159 100.726 -0.666829 0.457519
  160 110.119 -0.768966 0.541279
  161 119.383 -0.158241 0.391457
  162 127.013 0.248280 0.193159
  163 71.3304 -6.37491 -4.89434
  164 71.0264 -6.48917 4.88378
  165 20.4973 5.79603 -7.59975
  166 20.7036 5.81957 7.56086
  167 85.0296 -4.43664 20.9049
  168 89.3048 -4.99166 -20.3166
  169 39.8679 -2.01266 2.15951
  170 39.8685 -1.99150 -2.20122
  171 91.0825 -2.83939 1.12942
  172 89.1489 -2.84778 -1.10412
  173 120.185 21.9119 -3.47878
  174 123.573 0.411723 -17.7290
  175 120.920 1.42254 18.8344
  176 27.2719 -0.975582 -5.00819
  177 27.2677 -0.966862 4.99376
  178 106.759 -10.6387 7.06190
  179 106.585 -8.19539 -9.23896
  180 1.05951 2.17402 3.07031
  181 1.10236 2.18828 -3.04536
  182 145.771 29.4609 6.40184
  183 26.9827 11.8431 -18.3219
  184 29.0429 11.9691 19.7532
  185 103.366 -4.58799 4.63403
  186 155.444 32.0847 -4.18641
  187 65.5810 -2.10157 -0.350607
  188 65.4667 -2.16548 0.342227
  189 106.526 -3.09677 -4.17485
  190 143.082 -1.98293 0.0781149
  191 23.6046 -0.684848 0.771100
  192 23.6030 -0.692090 -0.787176
  193 9.79870 1.44236 -3.19523
  194 9.84564 1.42760 3.20188
  195 58.3991 -2.27394 -12.6789
  196 58.1671 -2.40526 12.8498
  197 70.0943 -4.34170 -1.23891
  198 70.2373 -4.31697 1.37768
  199 16.3397 -0.568340 2.57408
  200 16.3190 -0.559825 -2.58278
  201 141.638 -3.69411 7.32079
  202 114.691 -11.5916 -3.92003
  203 109.684 -0.788401 -0.774331
  204 107.067 -1.00616 0.809792
  205 106.056 12.3809 13.0418
  206 4.18489 3.17401 -0.646583
  207 4.34995 3.16246 0.719171
  208 106.940 -4.38664 15.2303
  209 96.8797 7.31826 -14.7126
  210 70.1580 14.6978 -44.2115
  211 73.7736 12.3866 41.0264
  212 1.04364 2.28421 0.270817
  213 1.08326 2.28301 -0.252575
  214 106.509 -3.89147 -15.6942
  215 188.582 26.7131 -1.61970
  216 88.5832 -9.76825 6.65752
  217 89.2942 -9.70520 -6.22954
  218 88.5535 -6.12105 -1.51540
  219 111.300 -1.46838 2.31242
  220 51.8989 -3.45856 -4.20791
  221 51.0311 -3.44259 4.37086
  222 30.6086 0.710826 -7.78989
  223 30.6486 0.697728 7.71237
  224 113.682 -12.3210 0.247012
  225 87.7817 -6.52641 1.14350
  226 110.929 -1.41443 -1.88874
  227 85.2744 -1.82767 0.341090
  228 86.0642 -1.67443 -0.171130
  229 108.615 -4.74989 9.12219
  230 7.61944 0.133161 -2.74053
  231 7.65426 0.128896 2.73805
  232 -1.47496 -1.02567 -3.76352
  233 -1.48202 -1.03406 3.76686
  234 14.0992 -0.660724 -1.44843
  235 14.1148 -0.662300 1.43284
  236 43.9133 -1.15477 0.934597
  237 43.9282 -1.18014 -0.945037
  238 51.6566 3.45475 -19.0027
  239 51.6616 2.86028 18.7773
  240 110.289 -3.30248 -7.79779
  241 50.2674 -2.87573 -7.31888
  242 50.3059 -2.96606 7.19433
  243 95.2345 1.34334 16.5508
  244 81.7792 7.09498 0.994341
  245 94.1827 -9.33224 -1.56639
  246 0.293704 -2.66910 -3.63984
  247 0.262403 -2.69314 3.66724
  248 5.63579 4.84042 -5.67706
  249 6.01879 4.62176 6.02184
  250 92.5561 -9.12208 0.931081
  251 169.832 29.9691 0.431272
  252 7.96807 5.52823 -1.99426
  253 8.06986 5.52381 2.02542
  254 -3.89762 0.720258 2.71924
  255 -3.87983 0.723932 -2.70716
  256 171.008 27.7977 0.433265
  257 57.4228 -2.57318 -1.35751
  258 57.3745 -2.52615 1.31471
  259 115.496 -8.02123 14.5786
  260 212.407 34.4396 20.6447
  261 32.6314 -1.66839 -4.03943
  262 32.6183 -1.68016 4.03222
  263 116.428 17.3690 -12.7281
  264 204.395 38.5921 -18.3627
  265 141.334 13.2840 13.2936
  266 155.784 7.38253 -26.8630
  267 94.3699 -4.19345 2.26735
  268 106.544 0.298533 -18.8233
  269 101.796 -7.05099 -5.64965
  270 114.093 -1.88535 5.01336
  271 -0.992869 1.07503 -0.735071
  272 -0.953663 1.07136 0.747601
  273 113.192 -4.62198 -26.4198
  274 10.9676 3.61264 -3.12870
  275 11.0220 3.60500 3.14774
  276 108.594 -2.59978 -9.70455
  277 14.9500 14.0617 -18.9379
  278 10.1224 -0.0314583 -0.323026
  279 10.1257 -0.0284946 0.316438
  280 114.981 -7.38196 -15.1423
  281 19.2177 8.62634 -9.75908
  282 19.5021 8.57422 9.78530
  283 3.75322 -0.153431 1.93857
  284 3.71752 -0.151232 -1.94154
  285 94.2474 -3.95230 -2.19678
  286 15.0454 13.8977 19.4915
  287 153.261 9.01293 31.8556
  288 39.0710 -1.44996 -1.22096
  289 39.0585 -1.43876 1.19595
  290 74.5311 -2.80121 -0.117397
  291 74.4921 -3.06310 0.194161
  292 63.5959 5.72684 -29.5228
  293 103.795 -11.4583 -3.06607
  294 119.876 -0.513460 1.05087
  295 61.1903 5.68821 28.4965
  296 71.2175 -1.62544 -0.00697137
  297 71.1890 -1.62336 0.0720355
  298 101.946 -7.35911 5.76196
  299 118.427 -1.06838 -2.47640
  300 -2.11525 0.452171 -1.40238
  301 -2.07278 0.448845 1.40761
  302 146.934 29.5467 -1.92252
  303 129.848 -6.56420 8.78308
  304 118.197 -0.356465 -0.316423
  305 120.404 -0.304556 0.286523
  306 116.830 -10.8016 8.47788
  307 144.258 14.1809 -12.5941
  308 124.139 23.2130 7.57364
  309 54.7344 -3.21777 -2.43870
  310 54.2077 -3.28046 2.50053
  311 119.791 -0.483417 -0.761770
  312 76.7734 -5.95366 -13.9788
  313 75.3422 -5.79823 1.65611
  314 71.8528 -4.08179 16.1096
  315 117.260 -1.22621 2.92277
  316 24.1383 -1.10213 -2.47501
  317 24.1500 -1.11062 2.46028
  318 107.627 -4.34971 26.1246
  319 66.8388 -5.16649 -3.03250
  320 124.528 15.6874 16.1207
  321 38.5223 2.74047 -11.9644
  322 37.0346 2.86107 11.8502
  323 8.75307 -0.216610 -0.589968
  324 8.76366 -0.214904 0.579435
  325 103.154 -1.76400 1.51606
  326 98.8304 -1.05106 0.314539
  327 98.2482 -1.18446 -0.351156
  328 107.675 -2.74177 10.2565
  329 6.89285 -0.310226 1.40221
  330 6.86446 -0.307069 -1.41117
  331 29.0708 -0.632016 -0.487429
  332 29.0675 -0.619084 0.480380
  333 0.921880 -5.50493 -2.27898
  334 0.854260 -5.54323 2.35946
  335 81.1535 3.45994 11.1422
  336 131.162 -6.31403 -7.52411
  337 83.6829 -4.19092 1.07087
  338 95.3784 -1.57562 -0.939839
  339 97.3789 12.1882 -6.95392
  340 17.5801 -0.536081 -3.67458
  341 17.6000 -0.536174 3.66876
  342 81.2613 -3.93232 -0.621651
  343 21.6216 0.848816 -5.34932
  344 21.6607 0.828957 5.32720
  345 3.80817 3.59496 0.579071
  346 3.86119 3.59325 -0.557403
  347 99.5987 -10.9205 8.86192
  348 226.423 15.0372 5.76378
  349 86.1867 1.18372 -13.2321
  350 73.1867 -6.58075 8.16906
  351 72.8117 -6.45575 -8.44877
  352 108.622 -2.02318 18.7104
  353 95.5718 -0.772812 13.1769
  354 98.2470 -10.5617 -9.19359
  355 57.0279 -1.22110 -0.0794166
  356 57.0203 -1.23961 0.0942245
  357 108.700 -7.12021 11.8937
  358 148.729 29.9242 1.31696
  359 117.711 -1.17332 -3.71172
  360 27.7316 -1.03005 -1.72541
  361 27.7384 -1.03059 1.70235
  362 110.386 -10.9090 -11.2306
  363 114.727 7.75698 -18.7865
  364 74.0269 4.00377 -7.12266
  365 109.409 -7.38007 -13.4758
  366 -3.67326 0.0800820 -2.91381
  367 -3.67744 0.0759334 2.91760
  368 91.9431 -1.84756 0.736885
  369 -1.31035 -0.786647 -1.67791
  370 -1.30899 -0.786993 1.67473
  371 71.6061 32.9095 -54.1585
  372 2.47773 2.10000 2.32581
  373 2.54745 2.11771 -2.28907
  374 94.7652 -0.817446 -13.0636
  375 51.5259 -2.02916 1.01060
  376 51.5677 -2.06046 -1.02805
  377 -0.409400 -3.97093 3.30848
  378 -0.403437 -3.96363 -3.30474
  379 57.7975 34.6270 50.8584
  380 41.9386 -2.16587 -5.59917
  381 41.9674 -2.06534 5.60319
  382 13.1186 9.41184 -8.90342
  383 13.4056 9.37737 8.84292
  384 -5.94450 0.798576 1.25481
  385 -5.92041 0.799622 -1.24218
  386 110.410 7.15485 18.7008
  387 84.8862 -8.87768 3.24962
  388 84.9761 -7.65205 0.654378
  389 103.709 -11.9193 -0.0694355
  390 24.6164 3.19457 -7.59896
  391 24.6974 3.18696 7.58287
  392 2.13272 -4.31460 -0.356709
  393 2.00801 -4.36544 0.534332
  394 102.907 14.8224 4.63105
  395 106.173 -2.78811 3.48455
  396 59.1720 -4.51514 5.00701
  397 35.8567 -0.837645 -6.83071
  398 35.8649 -0.843896 6.76874
  399 76.3371 -2.00919 0.133423
  400 76.2488 -1.71966 -0.198736
  401 58.6643 -4.64533 -5.37707
  402 45.4974 -0.726749 -9.47056
  403 45.4848 -0.791414 9.55021
  404 110.330 -10.2258 -8.83880
  405 62.7361 -4.69773 2.88273
  406 100.518 -2.78136 2.28656
  407 100.364 -2.49817 -1.97004
  408 83.3527 -7.59011 -0.967417
  409 122.301 -0.342202 -1.10367
  410 39.5723 15.4731 -29.7590
  411 113.703 -1.53942 5.99247
  412 121.783 -0.464566 1.57027
  413 41.0478 -2.11907 3.19347
  414 41.0722 -2.08865 -3.19062
  415 84.4953 -8.76938 -3.40144
  416 11.1872 5.18868 3.34986
  417 11.1253 5.18620 -3.35556
  418 228.893 15.0249 -11.8537
  419 98.2264 -5.40162 -3.51605
  420 123.450 -0.236036 0.636841
  421 37.2722 14.3596 28.2437
  422 180.841 30.6464 5.25603
  423 106.148 -1.30887 -1.22927
  424 78.0322 -5.49138 -0.673363
  425 31.6586 6.12744 -13.5938
  426 33.7953 5.69046 13.5124
  427 96.9640 -5.96682 3.58535
  428 101.925 -1.33687 -9.78114
  429 -2.50724 -0.0773010 1.43882
  430 -2.55052 -0.0761981 -1.43873
  431 36.0235 8.55851 -18.5597
  432 36.1359 8.59241 18.4995
  433 3.39883 2.02256 -1.21950
  434 3.44228 2.01761 1.23512
  435 86.8636 -1.33133 0.324908
  436 86.7593 -1.28648 -0.293501
  437 108.416 -4.86637 -9.52143
  438 -0.461145 -0.519651 4.18425
  439 -0.442059 -0.503413 -4.16980
  440 111.856 -11.1873 7.93930
  441 106.080 -2.57579 -3.11876
  442 171.683 32.9814 -4.04763
  443 4.10652 -0.288627 0.634107
  444 4.08416 -0.288711 -0.643383
  445 209.134 57.3785 24.3147
  446 3.88419 -0.304865 -5.15799
  447 11.1673 0.649556 -3.53569
  448 11.2051 0.639755 3.53281
  449 208.167 58.5574 -22.8981
  450 4.11645 0.155110 5.76431
  451 -5.93628 0.644502 0.539158
  452 -5.90561 0.643326 -0.527438
  453 10.6809 7.28045 -4.89705
  454 10.8740 7.27931 4.92593
  455 133.230 20.5432 -13.6994
  456 107.412 -4.03226 -6.34459
  457 122.738 -0.280911 -0.579474
  458 112.057 -1.65797 -6.98070
  459 -1.55068 0.679825 3.85485
  460 -1.53137 0.690084 -3.84149
  461 108.488 -4.23408 7.28234
  462 69.2880 -3.68447 -0.939365
  463 69.0641 -3.72639 0.693221
  464 95.2415 -10.5375 -0.402053
  465 67.2771 -1.11205 -19.9963
  466 103.064 -1.60681 10.0160
  467 84.6400 -2.42315 -0.464452
  468 125.810 -9.95106 0.118176
  469 65.1181 0.362949 21.5063
  470 2.81676 -0.0685020 1.38688
  471 2.78108 -0.0665753 -1.39153
  472 136.538 27.0752 -6.47407
  473 110.870 -0.528843 0.142488
  474 110.472 -0.636312 -0.248315
  475 82.1569 -5.28598 -0.254885
  476 34.0062 -1.07841 -0.921692
  477 33.9988 -1.06333 0.906009
  478 19.6626 -0.169802 -4.36453
  479 19.6824 -0.173715 4.35184
  480 65.9090 2.57429 4.23753
  481 15.2457 -0.524010 2.04884
  482 15.2268 -0.518589 -2.06261
  483 17.3662 1.79536 4.89808
  484 17.3084 1.82187 -4.89608
  485 106.402 -8.21119 8.90367
  486 58.3327 -3.61169 -8.82751
  487 53.3437 -1.52862 0.447750
  488 53.3668 -1.57405 -0.449843
  489 58.9650 -3.72875 8.82076
  490 167.304 39.1063 -1.58938
  491 -2.67967 -0.422583 -2.20814
  492 -2.67862 -0.424647 2.20721
  493 39.7253 -0.990666 -0.368328
  494 39.7208 -0.972021 0.365970
  495 0.0173615 -7.40989 -2.86028
  496 7.92259e-05 -7.43341 2.88414
  497 97.4216 -1.12090 0.586866
  498 65.4325 3.19720 -2.11606
  499 90.4917 9.55875 6.20122
  500 58.0767 -0.622637 -15.7151
  501 26.9807 -1.36788 3.13151
  502 26.9830 -1.35593 -3.13981
  503 -8.45495 0.254596 -0.386018
  504 -8.41356 0.253145 0.391055
  505 114.619 -2.39806 -18.7587
  506 6.31135 0.0756989 -0.447874
  507 6.31843 0.0772425 0.440357
  508 95.4188 -7.38760 -3.16486
  509 101.866 -8.61293 -5.58731
  510 20.0126 14.6526 -19.6371
  511 85.4816 1.77051 -32.2445
  512 0.605474 2.41418 2.14510
  513 0.644994 2.41867 -2.12364
  514 50.7362 -2.19901 -1.59516
  515 50.7062 -2.17567 1.54721
  516 148.797 5.08927 -5.58216
  517 106.027 -6.15555 -8.04240
  518 19.4895 13.7825 19.3407
  519 105.087 -12.0875 1.69261
  520 100.887 -9.56599 4.61452
  521 19.0330 -0.451305 -1.33140
  522 19.0401 -0.448951 1.31434
  523 80.2195 0.805974 10.2239
  524 58.6476 -4.20632 -3.12583
  525 112.394 -2.29198 4.63305
  526 -0.476957 -2.71957 -2.13481
  527 -0.478133 -2.71789 2.13213
  528 77.6199 -6.95153 9.93975
  529 119.578 -9.45755 -10.4672
  530 157.670 9.37849 -3.35650
  531 83.5512 -2.52950 0.546163
  532 22.4542 -0.382195 -0.402494
  533 22.4533 -0.372765 0.397863
  534 52.0354 0.380592 15.0923
  535 149.326 24.1735 10.1674
  536 154.537 26.4580 -51.7158
  537 136.250 0.0290191 10.3795
  538 97.2061 -10.8437 -0.138139
  539 236.410 18.7869 15.8064
  540 171.988 40.4497 2.79139
  541 22.1309 -0.898108 3.44016
  542 22.1183 -0.888495 -3.44904
  543 93.3279 -7.61236 2.58416
  544 6.12561 3.24668 -1.00713
  545 6.17554 3.24387 1.02592
  546 118.077 -10.0730 10.4401
  547 94.2518 4.98040 15.2079
  548 119.624 -0.660061 2.55586
  549 87.1963 -5.00560 1.46474
  550 124.255 -0.311637 -33.9831
  551 199.763 47.7602 32.2035
  552 95.1636 -1.52145 -0.552857
  553 117.148 -1.08869 -4.01967
  554 17.3202 7.32774 -7.11582
  555 17.4480 7.23790 7.07653
  556 65.4150 -2.38434 -0.554743
  557 65.3821 -2.31916 0.574822
  558 0.685632 -9.82290 -0.452419
  559 118.899 -4.54635 16.9559
  560 4.03829 3.78429 1.05726
  561 4.10854 3.79355 -1.02527
  562 0.813410 -9.53622 0.702362
  563 107.822 -4.95825 -13.5429
  564 124.315 7.44197 -18.3042
  565 123.788 8.47403 18.2829
  566 5.56039 4.12025 3.55157
  567 5.26493 4.24392 -3.45464
  568 -4.93198 0.128739 1.05628
  569 -4.97725 0.129922 -1.05467
  570 115.481 1.68783 35.1280
  571 61.3111 -3.21414 1.43907
  572 61.3771 -3.20222 -1.48628
  573 139.856 -3.76173 -16.9788
  574 15.1824 -0.197201 0.775854
  575 15.1781 -0.201456 -0.787202
  576 5.24026 -0.211284 -0.190395
  577 5.24176 -0.209844 0.187777
  578 152.395 26.8173 -8.67726
  579 13.9959 17.8928 -21.9105
  580 76.2996 1.45992 -8.63558
  581 110.472 17.7711 -7.95103
  582 1.43824 -0.518592 2.87337
  583 1.50518 -0.496187 -2.82858
  584 116.760 48.2375 61.3059
  585 96.5535 -2.36813 -1.43787
  586 2.21294 0.995976 -1.65697
  587 2.25507 0.988752 1.66591
  588 111.449 -9.08438 12.0460
  589 16.6104 17.2650 22.3085
  590 79.7313 -1.33443 -0.00219266
  591 79.7518 -1.32009 0.00183498
  592 -0.118833 -5.82484 2.90369
  593 -0.110183 -5.81514 -2.89421
  594 136.147 26.8587 -0.217818
  595 86.5693 -7.19771 14.5957
  596 82.4698 -3.23816 0.548037
  597 83.3811 3.07710 34.0613
  598 -7.09123 0.331129 1.78579
  599 -7.08393 0.332896 -1.77917
  600 138.028 0.985988 -11.0832
  601 187.374 27.8385 -22.3426
  602 50.9973 4.99196 -22.1819
  603 26.3114 -1.05931 -4.23803
  604 26.3324 -1.05891 4.23658
  605 126.022 -0.291769 0.774895
  606 81.6057 -3.31605 -0.659946
  607 111.153 -1.22810 1.75063
  608 107.839 -4.94517 13.2384
  609 1.92732 -0.167106 0.666247
  610 1.89802 -0.166339 -0.673230
  611 62.7474 -1.93644 -0.299322
  612 62.7367 -1.87369 0.279090
  613 38.5490 0.904186 -9.79163
  614 38.2864 0.914752 9.73979
  615 158.800 7.52604 7.05513
  616 264.201 19.9000 -29.0403
  617 -3.90118 -0.147134 0.940296
  618 -3.94676 -0.146588 -0.940760
  619 35.6726 -1.43465 1.73725
  620 35.6753 -1.43344 -1.76870
  621 147.080 6.85569 7.59055
  622 124.831 -0.250002 -0.246732
  623 124.536 -0.451167 0.125658
  624 86.3102 -0.0959807 10.1497
  625 129.345 -8.38501 -9.79311
  626 68.4002 -5.50913 3.76285
  627 -2.11273 1.49665 -1.91186
  628 -2.14225 1.49473 1.92857
  629 110.657 2.01568 19.5127
  630 42.4333 -2.36221 -4.36466
  631 42.3844 -2.40387 4.37370
  632 90.4524 -4.99574 -1.80558
  633 112.994 -2.26348 -4.20654
  634 62.8068 -4.94434 -6.14342
  635 103.135 12.4364 -11.8358
  636 69.8788 -4.88167 -11.7253
  637 23.4434 -0.610418 -0.653830
  638 23.4428 -0.601777 0.642061
  639 63.4922 -5.04098 6.15730
  640 139.235 21.9772 12.6009
  641 110.303 -5.51742 16.6527
  642 90.3321 -3.73197 1.59000
  643 63.4620 -1.41249 0.298022
  644 63.4456 -1.41702 -0.285262
  645 46.9595 -1.59280 -1.18947
  646 46.9375 -1.57216 1.17154
  647 106.555 -9.81997 -7.45212
  648 52.2610 -2.80891 2.11153
  649 52.3234 -2.79807 -2.17043
  650 104.702 16.3274 -1.60348
  651 98.4207 -4.94265 3.51114
  652 125.162 -0.457662 -1.16445
  653 103.615 -2.04962 -17.0644
  654 13.0235 -0.602792 2.75372
  655 12.9986 -0.598281 -2.75834
  656 121.600 -0.543600 -2.30768
  657 20.4325 10.4092 -13.5746
  658 20.7907 10.3781 13.6424
  659 123.662 -8.26936 14.2809
  660 41.0280 10.0065 23.3525
  661 8.42940 -0.0136130 2.76325
  662 8.39823 -0.0113502 -2.76662
  663 104.719 -7.32009 19.1216
  664 103.866 12.7551 -46.9394
  665 98.4944 2.92559 -16.9157
  666 131.432 23.6458 10.6277
  667 88.6969 -3.64399 -1.18970
  668 160.473 29.3150 -0.707923
  669 -8.57057 0.363349 -0.151089
  670 -8.53515 0.362296 0.158481
  671 70.2507 0.0103676 -23.6411
  672 2.00287 -0.0934880 0.533975
  673 1.98467 -0.0937681 -0.540966
  674 88.7645 -7.73892 -14.4036
  675 28.1421 3.97503 -9.38618
  676 27.9040 3.98596 9.37835
  677 -0.285767 1.44723 -0.161401
  678 -0.247374 1.44487 0.177218
  679 74.7852 -6.35527 -2.53531
  680 106.626 -1.04118 -6.60368
  681 49.2499 -1.34583 -0.450861
  682 49.2495 -1.32726 0.455350
  683 34.9546 -1.72936 -2.70318
  684 34.9789 -1.75502 2.68933
  685 6.37811 5.25843 -1.15550
  686 6.49220 5.26754 1.19223
  687 111.062 -1.01152 0.973103
  688 47.1239 -2.89479 3.54597
  689 47.4491 -2.83977 -3.54058
  690 122.441 -10.2892 -3.11265
  691 100.172 -10.0596 -3.53479
  692 78.1232 -1.86749 0.256179
  693 77.8323 -1.71330 -0.211555
  694 110.860 -12.0874 4.58110
  695 181.227 36.3290 8.21077
  696 97.1795 -4.91106 -24.1313
  697 111.454 -2.98994 7.16027
  698 109.941 -4.28538 -17.7631
  699 32.0990 -0.924694 -1.21106
  700 32.0941 -0.916038 1.19018
  701 86.0800 -2.02074 27.2205
  702 248.643 31.4857 28.9165
  703 15.4141 4.68545 -5.07124
  704 15.4350 4.71578 5.08851
  705 110.802 -0.745762 -0.506681
  706 111.722 -0.647815 0.513438
  707 45.8957 21.7769 -38.6531
  708 117.072 -0.525268 3.98081
  709 101.128 -1.37587 0.899035
  710 131.739 26.3608 -4.02774
  711 12.2495 2.39795 -3.56109
  712 12.3048 2.38229 3.57480
  713 127.513 -0.190345 0.169375
  714 101.425 -3.62767 -3.33681
  715 126.704 -2.44731 15.2203
  716 50.1386 -3.44499 -5.84227
  717 50.2655 -3.28886 5.77501
  718 9.42824 -0.367250 2.08647
  719 9.40082 -0.362256 -2.09451
  720 116.061 -0.502901 -0.846983
  721 99.6528 17.6165 50.0059
  722 0.483213 0.433031 3.65743
  723 0.519343 0.453366 -3.63277
  724 116.045 -1.00353 -2.04581
  725 112.394 -1.79940 2.89037
  726 85.8575 -0.0123728 -10.8860
  727 0.762747 -10.8704 -1.64606
  728 0.708594 -10.9694 1.74566
  729 39.4394 10.2859 -23.3350
  730 88.5325 -9.05516 -10.0351
  731 45.4449 21.6152 39.0740
  732 125.609 -0.164298 0.497828
  733 117.897 17.5783 12.8139
  734 83.8308 7.68268 -4.30566
  735 156.249 31.5660 -1.07742
  736 123.530 -0.389152 1.54456
  737 -8.59540 0.185026 0.728587
  738 -8.64063 0.186047 -0.725597
  739 130.878 -8.24401 1.65488
  740 83.4199 -2.05108 0.311494
  741 28.8870 0.133206 -6.52257
  742 28.9218 0.103079 6.47662
  743 112.662 -1.02762 -1.30424
  744 200.147 28.4491 -9.71251
  745 10.6865 -0.345294 -1.24241
  746 10.7079 -0.347477 1.23005
  747 126.478 -0.211293 -0.744226
  748 22.3433 -1.00416 -1.74468
  749 22.3536 -1.00775 1.72655
  750 121.829 -5.27570 -15.5207
  751 112.258 -1.12359 5.39629
  752 99.2299 -0.807712 16.7836
  753 126.912 -0.221201 -0.0644417
  754 117.583 -0.638359 1.59715
  755 75.0303 -3.78218 -0.0504740
  756 95.2849 -2.14950 1.16300
  757 108.149 -6.65604 -11.5376
  758 105.616 -6.53601 7.81684
  759 123.125 14.5657 -16.2456
  760 104.228 -5.67371 5.96748
  761 109.785 -6.60547 14.5545
  762 62.4369 -4.05547 2.07988
  763 2.08864 -1.48163 -0.823124
  764 1.96787 -1.48707 0.936851
  765 96.6717 -1.06455 0.0725140
  766 96.4603 -1.05359 -0.109521
  767 117.326 -0.255771 -0.108405
  768 117.757 -0.229746 0.137586
  769 110.125 -3.01324 8.63990
  770 101.778 -9.74802 13.4688
  771 82.8018 -6.56280 0.253617
  772 73.1598 -4.12308 0.613123
  773 204.473 26.3363 11.5148
  774 111.810 -2.66138 -5.75432
  775 64.6418 10.5614 -36.4041
  776 103.605 -4.90854 -5.21468
  777 2.51834 0.114265 -1.89939
  778 2.55866 0.110488 1.90098
  779 89.8625 7.88644 -9.66808
  780 242.469 7.39361 -3.21531
  781 115.941 2.64484 -19.2590
  782 4.39587 -0.260154 -8.09418
  783 118.306 21.5103 3.30936
  784 93.2545 -5.70743 2.41082
  785 104.131 -2.74047 16.5864
  786 88.0532 -9.44947 10.0945
  787 143.818 -2.48573 21.4175
  788 4.73937 0.824217 8.70109
  789 62.9550 -0.530619 18.1649
  790 89.1991 -1.93362 -0.635572
  791 99.6901 -9.32718 -13.6488
  792 59.7979 -4.55684 -4.08225
  793 47.0551 2.18593 -15.6994
  794 115.128 -2.10099 18.8884
  795 73.0407 -4.78900 1.34425
  796 11.4795 -0.363052 1.15215
  797 11.4657 -0.363645 -1.16580
  798 106.965 -0.558719 5.86166
  799 95.7871 0.343693 -16.2372
  800 -8.81604 0.375057 1.16436
  801 -8.80308 0.375670 -1.15726
  802 71.0101 -1.91886 0.0841412
  803 70.7907 -1.79405 -0.105644
  804 52.3667 5.62237 22.5338
  805 45.8761 -2.57417 2.57547
  806 45.9485 -2.50668 -2.61083
  807 126.483 -0.117905 -0.438566
  808 42.1977 3.30446 15.2582
  809 -1.18983 -0.0371597 0.734689
  810 -1.22813 -0.0362263 -0.738967
  811 105.634 -3.31000 12.9201
  812 115.001 -0.707929 0.693026
  813 -6.13287 0.0514600 1.72617
  814 -6.13323 0.0533179 -1.72280
  815 68.9510 -4.43337 13.2983
  816 12.7559 10.1902 -11.2659
  817 12.9183 9.66397 11.0780
  818 62.0330 2.81267 1.76141
  819 -3.43008 -0.0476116 -0.851003
  820 -3.38517 -0.0482679 0.849447
  821 79.6713 -7.66727 -9.42388
  822 109.897 -11.7063 -5.13024
  823 -0.536565 -0.511112 -0.668162
  824 -0.535073 -0.510001 0.665785
  825 2.62296 0.203615 -0.158803
  826 2.62682 0.204726 0.154820
  827 97.3739 -8.58241 3.58918
  828 81.4388 -8.38613 6.21894
  829 90.9191 -1.15425 0.472650
  830 81.2028 -6.39366 -0.579230
  831 27.5064 -0.378090 -0.103768
  832 27.5044 -0.365637 0.100809
  833 -10.0793 0.210198 0.733409
  834 -10.0588 0.209894 -0.726524
  835 103.437 -0.988867 -0.677147
  836 88.4846 3.37179 -13.7386
  837 104.490 -1.75433 -1.83048
  838 59.9193 -4.46436 3.85663
  839 101.716 -1.84856 -13.5260
  840 110.010 -3.27906 -8.93261
  841 103.884 -0.798855 0.614695
  842 74.5467 -3.08875 18.6618
  843 79.6676 -7.72523 -3.07942
  844 47.1023 -0.342470 -11.8211
  845 47.3702 -0.0141777 11.8828
  846 67.3978 -4.88850 -2.25878
  847 112.605 12.0173 16.4477
  848 108.324 -11.6347 -6.77640
  849 36.6801 -1.06166 -0.574880
  850 36.6723 -1.04265 0.566200
  851 82.0314 -1.50547 -0.159020
  852 82.0324 -1.52126 0.182326
  853 96.7016 -0.774427 -8.79950
  854 30.9700 -1.26300 -2.17164
  855 30.9828 -1.27305 2.14730
  856 0.365365 -10.6525 -2.21737
  857 0.344250 -10.6971 2.25910
  858 13.8093 -0.201042 -0.127450
  859 13.8083 -0.206285 0.123909
  860 102.553 -1.26466 -0.956835
  861 76.5660 -7.28212 5.55900
  862 120.855 -10.7673 5.53731
  863 66.7399 1.42081 6.75468
  864 104.833 -2.16624 2.07532
  865 114.068 -10.4512 -9.75370
  866 14.8787 1.07317 -4.21606
  867 14.9226 1.05590 4.21093
  868 90.4383 -1.26610 -0.435458
  869 71.9071 -2.20480 -0.151033
  870 71.6422 -2.18108 0.214745
  871 110.830 17.3339 8.94666
  872 37.5794 -0.303680 -7.99936
  873 37.5363 -0.349093 7.95661
  874 77.2894 -6.88137 2.28483
  875 6.76520 4.63856 -0.951050
  876 6.83677 4.62796 0.970019
  877 64.9974 -4.65872 10.6389
  878 78.4585 -4.78337 -0.000159932
  879 97.3300 -0.800735 8.89332
  880 97.1464 -11.0464 2.40842
  881 111.575 -8.63207 -12.8922
  882 76.3799 -7.34279 -5.65627
  883 62.9130 -4.03563 -1.97425
  884 214.488 17.8040 -3.23458
  885 101.895 -10.8510 2.95628
  886 2.36436 3.10134 1.76790
  887 2.41580 3.10649 -1.74174
  888 88.1069 -8.77233 0.648991
  889 97.0271 -11.0940 -5.17648
  890 2.38463 2.79163 0.683768
  891 2.42920 2.79163 -0.664158
  892 34.8867 -1.16876 5.93007
  893 34.9153 -1.20865 -5.97330
  894 42.7370 -2.09771 6.53211
  895 42.7267 -2.15196 -6.58727
  896 139.744 28.1181 5.30857
  897 -0.224763 -4.33194 -2.08823
  898 -0.226280 -4.32750 2.08712
  899 30.7968 2.70049 -8.90922
  900 30.6342 2.64356 8.80787
  901 251.150 8.16751 -12.8291
  902 1.46021 -0.00930908 0.284458
  903 1.44861 -0.0101368 -0.289927
  904 0.372445 -12.6913 1.05432
  905 0.440993 -12.4965 -0.889276
  906 -4.63902 -0.0722593 1.73742
  907 -4.64345 -0.0708741 -1.73670
  908 24.5564 7.28367 -10.5716
  909 24.9417 7.04377 10.4049
  910 -2.18974 0.00106786 -3.74971
  911 -2.19980 -0.00662915 3.75622
  912 5.90959 0.696362 -2.64918
  913 5.95129 0.687785 2.65193
  914 26.3957 -0.223573 5.42616
  915 26.3816 -0.222577 -5.46067
  916 21.0586 -0.680831 -4.34644
  917 21.0767 -0.678956 4.33608
  918 121.932 -0.371201 -2.23674
  919 57.9981 11.7551 33.6963
  920 80.4917 -7.87950 2.80516
  921 56.2170 -3.89999 2.99206
  922 109.940 11.1700 -16.1729
  923 246.909 5.36972 5.07194
  924 132.412 5.37752 -16.1901
  925 19.5763 -0.749724 2.65553
  926 19.5600 -0.740548 -2.66909
  927 1.92260 -0.0976664 -1.96515
  928 1.96101 -0.0988732 1.96382
  929 -0.198587 -2.27910 -4.12821
  930 -0.215705 -2.29561 4.14153
  931 58.1298 -2.34195 1.15520
  932 58.1638 -2.39462 -1.16498
  933 5.95888 1.92950 -2.21381
  934 6.00463 1.92042 2.22686
  935 34.5292 -1.47107 -4.96148
  936 34.5489 -1.47017 4.95549
  937 75.2869 -0.440342 -7.97713
  938 35.5338 -1.87378 -3.31303
  939 35.5020 -1.85023 3.32469
  940 91.0380 -2.18075 -0.791104
  941 110.067 -6.44718 -15.5568
  942 46.2881 -1.72286 1.34052
  943 46.3150 -1.74187 -1.36651
  944 -1.96082 -0.220455 -1.19353
  945 -1.95584 -0.220978 1.19120
  946 113.016 -9.35683 -16.9655
  947 107.592 -6.25147 10.1422
  948 94.1397 -6.38022 -2.91816
  949 89.7518 2.94263 14.4966
  950 39.9938 -2.16813 -3.75625
  951 39.9877 -2.12230 3.76946
  952 101.323 3.69948 17.6824
  953 93.7139 8.13430 11.6159
  954 199.098 24.2016 4.07363
  955 100.616 -3.30298 2.58980
  956 51.0607 -1.30517 -0.589239
  957 51.0512 -1.27288 0.596237
  958 89.4840 -7.17412 -1.38722
  959 123.320 22.7391 -7.90887
  960 111.089 -0.872780 -0.974411
  961 71.1981 -1.39151 0.184129
  962 71.1679 -1.37822 -0.162634
  963 8.51089 6.99025 -4.41763
  964 8.73836 6.97108 4.45693
  965 17.3265 38.5525 -37.7053
  966 101.992 -2.50127 13.4697
  967 128.941 -3.02148 -13.8078
  968 -2.86620 1.20528 1.05956
  969 -2.83415 1.20472 -1.04401
  970 270.704 62.1853 -50.2494
  971 110.121 -12.1795 2.72468
  972 117.829 -11.3410 -3.15896
  973 108.209 -9.31769 9.50809
  974 132.864 26.4091 3.51577
  975 9.09333 8.43696 -10.4235
  976 24.3048 32.8419 36.6296
  977 -0.763096 -1.66485 4.06364
  978 -0.752453 -1.65273 -4.05667
  979 105.785 -2.39278 2.53091
  980 169.936 30.4023 -3.02018
  981 9.36976 8.20441 10.8925
  982 -0.475223 -1.53111 -1.32705
  983 -0.475380 -1.52718 1.32387
  984 90.1625 -1.70790 0.443846
  985 66.2109 -5.16330 -4.22976
  986 109.021 -8.67564 -11.0448
  987 29.7412 7.97141 -14.2845
  988 30.2274 8.10730 14.3229
  989 105.201 -2.63431 -12.1032
  990 107.104 -3.13303 4.35238
  991 -3.08732 0.630887 3.36752
  992 -3.07328 0.637601 -3.35740
  993 63.2081 -4.17772 -9.94582
  994 105.414 6.54212 -17.8629
  995 78.6948 -2.60354 -0.204862
  996 55.4803 -1.33139 0.0495684
  997 55.4711 -1.34302 -0.0429169
  998 -1.24547 -1.40889 -2.82060
  999 -1.24732 -1.41189 2.81876
  1000 108.546 -3.64110 -5.23730
  1001 103.694 -0.769181 0.198702
  1002 103.596 -0.769892 -0.153756
  1003 142.664 22.7067 -11.9026
  1004 24.1703 2.22480 -6.87521
  1005 24.2291 2.18032 6.85481
  1006 14.5012 -0.0836577 -3.55712
  1007 14.5268 -0.0867356 3.54992
  1008 116.630 5.90102 19.4806
  1009 111.735 -1.82134 -3.03315
  1010 18.2068 3.03636 -5.45019
  1011 18.2799 3.01261 5.47068
  1012 117.392 -0.344850 -0.567344
  1013 108.217 -4.51821 -7.71538
  1014 105.645 -12.1690 -3.11974
  1015 3.60822 2.82083 -0.771929
  1016 3.49813 2.80763 0.821127
  1017 -5.48884 0.792909 2.10933
  1018 -5.47081 0.794914 -2.09760
  1019 59.6911 2.34509 -2.94666
  1020 184.814 44.6845 -10.2853
  1021 82.7100 -5.81077 0.432788
  1022 53.7972 -2.33787 -10.2840
  1023 135.067 -6.18164 3.05995
  1024 54.0115 -2.34003 10.4380
  1025 95.6540 -11.3050 6.28310
  1026 108.537 -4.45567 -11.2208
  1027 34.9291 -0.694967 -0.184925
  1028 34.9266 -0.678972 0.183075
  1029 73.2132 -5.55208 -1.77557
  1030 43.9396 -1.57649 -7.84155
  1031 43.9159 -1.58837 7.79243
  1032 14.1691 9.17440 -8.39786
  1033 14.4025 9.14071 8.42202
  1034 28.8697 -0.864859 -0.674592
  1035 28.8660 -0.852011 0.662205
  1036 96.7829 -2.71502 1.59800
  1037 81.1855 -0.101736 -27.6112
  1038 100.431 -2.93731 -2.54694
  1039 90.0828 -10.0018 -3.32279
  1040 57.9609 -2.21562 0.729021
  1041 58.0137 -2.23508 -0.733691
  1042 119.010 -0.473807 0.713547
  1043 105.403 -2.17478 -2.37965
  1044 63.4501 1.52472 5.54689
  1045 112.402 -1.08541 -5.01168
  1046 42.4447 11.9861 26.6130
  1047 116.196 -1.01325 -4.15349
  1048 28.8968 4.93383 -10.5520
  1049 27.9861 4.99395 10.0820
  1050 139.689 -3.33901 -3.79225
  1051 11.5300 6.19856 -4.01442
  1052 11.6408 6.15149 4.01058
  1053 1.86697 -0.832966 1.81947
  1054 1.97185 -0.815607 -1.75061
  1055 15.1357 -0.414548 0.845062
  1056 15.1275 -0.417867 -0.859356
  1057 48.5138 12.1538 -29.6827
  1058 280.365 69.8513 54.0365
  1059 108.137 -3.64371 5.37368
  1060 96.5202 -10.9358 -2.04597
  1061 66.0806 -5.41091 -7.45442
  1062 -1.77451 1.34849 3.08211
  1063 -1.74947 1.35584 -3.06551
  1064 74.9487 -3.57059 -0.0472418
  1065 83.1418 -2.73337 -0.568080
  1066 -0.0549147 -6.15845 2.03243
  1067 -0.0528163 -6.16336 -2.03156
  1068 11.6743 7.34774 -4.90377
  1069 11.8196 7.33100 4.93546
  1070 73.8947 -3.24911 0.0599399
  1071 4.86615 2.65590 1.14566
  1072 4.82013 2.66028 -1.12810
  1073 114.160 -4.74808 17.9958
  1074 82.0894 -8.53711 -6.18711
  1075 66.4856 -5.49943 7.45255
  1076 108.141 -2.39523 -18.6886
  1077 116.170 -1.00391 2.20949
  1078 40.3791 6.13978 17.5172
  1079 40.6746 5.88025 -17.2130
  1080 66.1094 -3.29934 -14.6483
  1081 95.0522 -3.06002 -1.67515
  1082 76.3940 -4.34692 0.423022
  1083 90.1015 -8.31414 0.836543
  1084 126.157 -0.340657 -1.22876
  1085 65.8034 -2.76327 0.596960
  1086 65.7742 -2.94121 -0.638498
  1087 1.85420 2.27330 2.76887
  1088 1.90813 2.29073 -2.73850
  1089 108.740 3.77883 -19.2399
  1090 23.0823 1.29470 -6.01719
  1091 23.1430 1.26707 5.99527
  1092 16.8220 0.429505 -4.20077
  1093 16.8570 0.419408 4.18929
  1094 126.565 -6.21496 21.6206
  1095 108.452 -4.95474 11.1083
  1096 51.7054 -2.32438 -8.59769
  1097 128.621 -0.421242 -0.740011
  1098 141.552 26.5083 -9.11090
  1099 116.079 -0.838267 -1.46399
  1100 107.668 -11.7355 5.02609
  1101 78.8829 -6.15403 12.6784
  1102 129.771 -0.0494983 0.184202
  1103 63.3154 2.01677 -4.70992
  1104 90.7462 -9.69453 -0.902657
  1105 51.7837 -2.43379 8.48717
  1106 91.6294 -8.24174 -1.37227
  1107 115.612 -1.44998 3.89961
  1108 79.1184 5.02436 7.40084
  1109 55.7240 -4.03059 -6.68199
  1110 176.844 22.6727 -7.57756
  1111 130.695 5.32926 16.8392
  1112 94.7711 11.9804 1.83668
  1113 127.904 0.119488 0.692268
  1114 47.9749 -2.90675 -4.97375
  1115 32.8894 19.5175 -29.6523
  1116 59.4688 1.40343 -21.2387
  1117 68.2541 -5.09217 2.78042
  1118 57.2524 -4.21816 6.18723
  1119 47.8456 -2.75487 5.03444
  1120 103.130 0.709749 18.5948
  1121 78.1266 -2.38672 0.291247
  1122 125.678 -0.840352 1.59772
  1123 -1.15978 -0.237485 4.11265
  1124 -1.14517 -0.225611 -4.10274
  1125 82.0620 -1.98045 -0.367166
  1126 -0.363272 0.703347 3.86805
  1127 -0.337083 0.718605 -3.84970
  1128 44.3966 -1.23843 0.841658
  1129 44.4041 -1.26257 -0.843229
  1130 117.294 -0.575779 3.45162
  1131 93.6115 -5.49756 -2.50950
  1132 87.4740 -4.39633 -1.26463
  1133 98.1846 -6.71172 4.32235
  1134 28.9567 13.9963 -21.8113
  1135 96.4020 -3.32876 2.04419
  1136 12.6848 0.329984 -3.40846
  1137 12.7177 0.322995 3.40303
  1138 19.1366 12.0915 -14.9966
  1139 155.667 19.0786 7.27114
  1140 8.82834 -0.459653 1.95032
  1141 8.79882 -0.455638 -1.95560
  1142 19.4857 11.8781 14.4337
  1143 87.7432 -7.19645 1.02976
  1144 42.7433 -1.87263 1.71877
  1145 42.7553 -1.88336 -1.75730
  1146 181.811 38.2082 -8.78310
  1147 97.0106 -9.70169 1.88188
  1148 32.3285 18.1738 29.5728
  1149 2.59454 -1.99663 -1.80238
  1150 2.81015 -1.96321 2.06085
  1151 100.334 12.6219 9.39228
  1152 6.80435 3.97122 -1.07887
  1153 6.86349 3.97130 1.09467
  1154 97.6850 -8.40053 -3.73523
  1155 -0.0487312 -9.59914 -1.93961
  1156 -0.0532035 -9.60214 1.94836
  1157 104.602 -8.79957 -6.97241
  1158 -4.04321 0.139511 0.662466
  1159 -4.08777 0.140301 -0.664740
  1160 14.9411 5.72902 -5.40920
  1161 15.0229 5.75282 5.34944
  1162 -7.12564 0.0190600 -0.813017
  1163 -7.07687 0.0186429 0.813381
  1164 105.362 -0.787882 -0.300023
  1165 -11.0340 0.305511 0.301890
  1166 -11.0063 0.305283 -0.295639
  1167 53.7630 -4.14111 -4.74085
  1168 1.38763 -15.3722 -0.877971
  1169 25.3162 -0.674372 1.35474
  1170 25.3125 -0.677596 -1.37495
  1171 88.6489 -1.30402 0.0592535
  1172 88.8215 -1.25823 -0.0412559
  1173 1.48763 -14.7421 1.19093
  1174 105.430 -5.33397 -6.65679
  1175 121.363 -0.472379 2.60400
  1176 106.983 -6.79218 -9.44267
  1177 91.3458 0.608244 14.3902
  1178 0.406961 -4.26921 3.21921
  1179 0.452311 -4.24152 -3.17197
  1180 67.2470 -4.71706 2.08055
  1181 -4.87289 0.387467 2.66977
  1182 -4.86413 0.390850 -2.66233
  1183 179.118 28.8345 1.68487
  1184 214.010 62.2022 -43.7714
  1185 109.471 -10.7479 8.50342
  1186 43.1652 -1.10826 -0.0786187
  1187 43.1642 -1.09130 0.0786429
  1188 229.807 22.2856 -20.2683
  1189 13.7315 -0.364268 2.02948
  1190 13.7089 -0.358049 -2.04036
  1191 100.975 -0.332116 -5.78176
  1192 64.4344 -5.13403 5.40100
  1193 108.312 -10.7164 -6.54962
  1194 104.713 -7.54179 -7.64399
  1195 62.8710 -2.31454 15.4019
  1196 22.3974 4.29608 -7.79860
  1197 22.3804 4.25726 7.74721
  1198 30.0776 11.0001 -18.4124
  1199 30.1088 10.1580 18.4096
  1200 7.78924 2.55483 -2.32055
  1201 7.83899 2.54651 2.33673
  1202 128.453 22.1373 -11.6446
  1203 6.12631 5.49268 -1.83010
  1204 6.27928 5.49717 1.87442
  1205 92.8690 -6.93368 2.37198
  1206 177.837 23.4514 8.74867
  1207 19.7264 -0.844059 -1.33338
  1208 19.7361 -0.843449 1.31533
  1209 117.377 73.7326 -67.4903
  1210 84.4286 4.96937 -11.4644
  1211 76.7640 5.99095 4.65265
  1212 10.0947 4.51453 -2.76424
  1213 10.1444 4.51329 2.78194
  1214 -0.623185 -0.0116960 0.488807
  1215 -0.649185 -0.0116676 -0.494171
  1216 103.165 -8.21784 6.52879
  1217 101.665 -3.80591 3.61883
  1218 69.2117 18.1039 -47.4212
  1219 160.664 34.8899 -0.0135676
  1220 67.8915 -2.20683 -17.0745
  1221 88.8992 -2.38493 0.727960
  1222 1.28868 -0.454044 -0.129120
  1223 1.28764 -0.453802 0.128318
  1224 -3.42271 0.693043 -0.937751
  1225 -3.38248 0.689995 0.946535
  1226 58.7367 0.507293 -17.9817
  1227 110.826 -2.18223 3.80691
  1228 70.9253 0.948680 25.0168
  1229 96.9773 -4.53889 -2.99833
  1230 49.2905 16.7704 -36.8958
  1231 77.2082 -4.01028 -18.5221
  1232 92.3507 -9.85935 0.372922
  1233 113.992 -1.66552 5.68019
  1234 99.9259 -1.73184 -1.22781
  1235 53.5174 -3.87305 4.77390
  1236 125.539 -7.52710 -11.0294
  1237 117.768 9.92434 18.4966
  1238 50.3631 0.212372 -13.9888
  1239 119.867 -0.501728 0.530915
  1240 92.2282 11.6044 -2.61449
  1241 39.0764 -1.25134 -1.33302
  1242 39.0638 -1.23551 1.31331
  1243 183.910 39.8890 7.19484
  1244 256.260 6.83454 12.0274
  1245 0.204355 -11.7689 -1.93872
  1246 0.197308 -11.7837 1.95328
  1247 25.6874 13.1374 20.2838
  1248 62.5028 -1.55143 -0.120361
  1249 62.5159 -1.53929 0.145050
  1250 86.9348 -8.69215 -1.15823
  1251 102.649 8.27996 16.1478
  1252 110.057 -1.87900 -2.57089
  1253 129.719 -0.242853 -0.0768718
  1254 224.777 49.2520 -30.4405
  1255 31.9825 -1.15235 1.31528
  1256 31.9846 -1.15576 -1.33964
  1257 104.703 -9.72354 6.76002
  1258 187.088 42.9683 -10.9428
  1259 101.685 -4.18340 -4.03941
  1260 73.1957 -4.90084 -1.13786
  1261 90.6936 -9.90464 3.20130
  1262 88.7056 -4.16054 1.45490
  1263 3.01911 -0.918429 -3.23111
  1264 122.287 -7.79880 12.7540
  1265 98.6089 -6.26438 -4.20258
  1266 3.34319 -0.749866 3.67127
  1267 101.629 -8.60223 -17.2231
  1268 96.3253 5.01505 -38.7670
  1269 159.785 18.9096 -5.84103
  1270 130.291 0.0185949 -0.0499270
  1271 130.030 -0.103764 0.128096
  1272 100.393 -5.65576 4.43123
  1273 37.3558 4.45632 -13.7138
  1274 114.569 -10.4145 10.4446
  1275 197.195 44.5273 19.1154
  1276 47.0881 15.4528 35.8873
  1277 1.10387 -0.255178 3.37160
  1278 1.15370 -0.232295 -3.33735
  1279 121.014 -10.3184 -8.43975
  1280 46.5312 -2.41369 -2.08437
  1281 46.5181 -2.41937 2.03312
  1282 111.807 -7.51227 15.0604
  1283 2.28215 0.0589752 2.17932
  1284 2.24339 0.0611567 -2.17986
  1285 -0.668453 -2.41274 3.27723
  1286 -0.664272 -2.40763 -3.27729
  1287 17.4554 -0.606366 -1.85167
  1288 17.4708 -0.610188 1.83585
  1289 57.5091 -3.79343 -7.69709
  1290 57.7170 -1.66610 0.249994
  1291 57.7169 -1.71055 -0.227169
  1292 129.655 0.0182689 -0.0477202
  1293 113.174 -1.62603 -6.35827
  1294 7.53809 0.470023 -2.66152
  1295 7.57599 0.463769 2.66072
  1296 57.7414 -4.02119 7.61827
  1297 131.118 -0.0582273 0.0208190
  1298 123.370 0.0939122 -0.132630
  1299 123.379 0.0212555 0.0981945
  1300 161.400 32.9067 4.22897
  1301 119.731 -0.572063 -1.16352
  1302 105.705 -0.722229 0.261115
  1303 117.197 -1.58115 -3.45203
  1304 128.787 -0.311508 0.532276
  1305 131.803 13.0417 16.7045
  1306 153.172 31.1782 5.90518
  1307 124.245 -0.405021 -1.75229
  1308 -0.975173 -0.260842 0.883780
  1309 -0.978923 -0.260627 -0.886322
  1310 66.9734 -4.01406 1.25648
  1311 66.9583 -3.82379 -1.20244
  1312 133.025 14.5182 -16.0243
  1313 26.5485 9.08027 -15.0198
  1314 26.7194 8.82047 14.8398
  1315 87.3654 -0.0194858 -7.19043
  1316 92.2906 -1.08688 0.0620463
  1317 92.1779 -1.07421 -0.0807808
  1318 -2.30936 -0.436291 3.35126
  1319 -2.30516 -0.430550 -3.34966
  1320 101.310 -0.256252 5.77511
  1321 156.112 31.1298 0.816441
  1322 8.35034 -0.395944 -1.17098
  1323 8.37045 -0.396899 1.15881
  1324 115.499 -11.3610 6.42744
  1325 -0.200964 1.70220 3.21346
  1326 -0.168404 1.71262 -3.19277
  1327 18.4960 -0.407746 -0.342824
  1328 18.4970 -0.399903 0.334826
  1329 87.3978 -0.170229 7.29588
  1330 0.371232 0.210530 -0.166227
  1331 0.378151 0.211335 0.162231
  1332 118.457 -1.17269 2.31518
  1333 163.773 30.2268 0.975251
</Section>

newXOutput 16

<Section columns = "stress_xx | stress_yy | stress_xy">
  1 142.713 -0.278794 0.255787
  2 142.967 -0.394500 -0.332575
  3 -1.15044 0.142816 -0.383298
  4 -0.0886266 -0.141792 -0.0833040
  5 269.410 98.6674 85.0380
  6 273.577 113.459 -86.0173
  7 -0.0875856 -0.140891 0.0819539
  8 -1.14879 0.142036 0.382341
  9 143.754 -0.190844 -0.236290
  10 142.561 -0.420445 -0.328040
  11 142.589 -0.311703 0.364008
  12 141.734 -0.107463 0.205989
  13 141.331 -0.392048 -0.0203754
  14 140.908 -0.368162 0.664239
  15 138.511 -0.224979 0.683830
  16 138.891 -0.972215 0.958332
  17 134.035 -0.781534 1.97353
  18 130.846 -0.291884 2.35963
  19 126.538 -0.399801 2.52097
  20 119.210 -0.350651 3.44765
  21 111.352 -0.321058 3.96222
  22 101.684 0.477080 5.36639
  23 88.5691 0.731703 4.82510
  24 83.4048 -0.101783 6.86651
  25 67.2762 0.977443 4.85537
  26 57.6069 1.32182 3.78052
  27 55.1000 0.555797 2.77888
  28 52.4039 1.91374 0.195325
  29 53.8683 2.09859 -3.71144
  30 56.8627 0.567172 -4.66777
  31 68.7608 0.186192 -6.26818
  32 80.8884 -0.635703 -6.57622
  33 89.0428 0.604232 -4.82240
  34 101.835 0.546960 -5.37348
  35 111.038 -0.386384 -4.23974
  36 120.044 -0.425370 -3.26286
  37 125.970 -0.271433 -2.55661
  38 130.430 -0.304572 -2.18191
  39 135.160 -0.439672 -1.28905
  40 137.137 -0.405037 -1.24973
  41 139.034 -0.389157 -1.08727
  42 140.993 -0.455609 -0.274429
  43 141.791 -0.599923 -0.475101
  44 141.040 0.151197 -0.0908925
  45 142.432 -0.270412 -0.402614
  46 143.189 -0.656928 0.357368
  47 143.954 -0.357224 -0.0253304
  48 136.154 0.267556 -0.213852
  49 127.474 -0.253383 -0.413072
  50 117.756 -0.860318 -0.630031
  51 107.790 -0.590787 -0.463587
  52 99.1822 -1.21411 -0.428869
  53 90.1627 -1.35787 -0.400563
  54 81.1235 -1.15378 -0.226651
  55 71.6798 -1.29543 -0.294710
  56 63.7299 -1.46800 -0.374259
  57 53.2077 -1.44905 -0.318366
  58 42.4118 -0.866844 -0.203848
  59 33.5066 -0.540977 -0.168923
  60 22.5337 -0.339918 -0.0966959
  61 14.5560 -0.378940 -0.571600
  62 7.13056 -0.585629 -0.203589
  63 -0.346593 0.0729388 0.316577
  64 -2.22975 0.530859 0.0947151
  65 -2.70861 0.220086 0.312817
  66 -2.31645 0.101938 0.292366
  67 -3.68884 0.308302 0.0824199
  68 -4.14574 0.397984 0.634171
  69 -4.16765 0.137181 0.166746
  70 -6.52733 0.288054 0.192282
  71 -7.55057 0.208070 0.594222
  72 -7.78916 0.0787523 0.614164
  73 -10.2877 0.276936 0.443261
  74 -11.1323 0.406122 0.925059
  75 -11.9898 0.246711 0.258231
  76 -13.1348 0.176467 0.450088
  77 -13.4167 0.191532 0.119150
  78 -14.4428 0.441447 -0.392088
  79 -14.4201 0.302924 -0.298538
  80 -13.0042 0.235886 -0.503666
  81 -11.0861 0.294151 -0.898606
  82 -8.91607 0.120480 -1.30715
  83 -6.57805 0.0623392 -1.34053
  84 -3.92508 -0.146470 -1.39343
  85 -1.67215 -0.113901 -0.800307
  86 -0.690951 -0.287635 -0.493704
  87 -0.122913 -0.703866 -0.421561
  88 -0.213480 -1.79834 -0.768243
  89 -0.239902 -3.59863 -1.36990
  90 -0.0597110 -6.77937 -1.50014
  91 0.0713314 -9.45921 -1.90432
  92 0.181173 -13.6477 -1.56332
  93 0.554387 -16.2982 -1.86113
  94 0.0765602 -17.7860 -1.59771
  95 -0.0406121 -20.6186 -1.05876
  96 0.556507 -20.4607 -0.484187
  97 2.20978 -26.7109 0.727925
  98 1.86172 -15.8623 2.88622
  99 4.54843 -9.34454 6.77870
  100 14.0494 17.4589 22.9165
  101 62.6160 71.7036 68.7745
  102 353.344 36.4655 52.8453
  103 292.395 10.2745 18.9436
  104 277.745 4.38989 6.56191
  105 269.429 2.91950 -0.0302660
  106 274.638 4.18656 -5.36272
  107 295.372 8.79128 -15.7547
  108 349.698 29.2085 -49.4720
  109 40.3958 81.4363 -56.8093
  110 9.84480 11.2016 -17.4999
  111 3.34218 -11.6381 -5.50715
  112 1.68592 -17.2218 -2.40527
  113 2.20181 -27.6865 -0.492906
  114 0.534311 -20.8983 0.653584
  115 -0.0727130 -20.8398 1.14769
  116 0.0558879 -17.8732 1.64566
  117 0.543304 -16.3212 1.88163
  118 0.176888 -13.6429 1.57108
  119 0.0680417 -9.44778 1.90734
  120 -0.0613143 -6.76397 1.49954
  121 -0.240150 -3.58866 1.36727
  122 -0.213939 -1.78957 0.765703
  123 -0.122850 -0.700578 0.419273
  124 -0.686979 -0.287290 0.491815
  125 -1.66517 -0.114378 0.798308
  126 -3.91636 -0.147575 1.39236
  127 -6.56829 0.0611584 1.34099
  128 -8.91128 0.119209 1.30955
  129 -11.0899 0.293285 0.903071
  130 -13.0167 0.235857 0.508374
  131 -14.4436 0.302732 0.303058
  132 -14.4752 0.441528 0.396720
  133 -13.4589 0.192074 -0.115266
  134 -13.1841 0.177128 -0.447377
  135 -12.0423 0.247437 -0.256232
  136 -11.1881 0.406959 -0.924556
  137 -10.3444 0.277696 -0.442876
  138 -7.84389 0.0792140 -0.614728
  139 -7.60443 0.208853 -0.595549
  140 -6.57767 0.289174 -0.194130
  141 -4.21032 0.137941 -0.169914
  142 -4.18028 0.398694 -0.638616
  143 -3.71649 0.308449 -0.0864031
  144 -2.33382 0.101771 -0.296146
  145 -2.71810 0.219664 -0.315820
  146 -2.23419 0.530093 -0.0973556
  147 -0.346964 0.0724987 -0.318072
  148 7.12982 -0.587760 0.201941
  149 14.5547 -0.384560 0.569713
  150 22.5339 -0.349997 0.0943186
  151 33.5088 -0.555618 0.167631
  152 42.4129 -0.883924 0.203548
  153 53.2039 -1.46398 0.320496
  154 63.7142 -1.47584 0.378909
  155 71.6513 -1.28720 0.305961
  156 81.0799 -1.12132 0.239886
  157 90.1007 -1.27999 0.379925
  158 99.2220 -1.23526 0.379191
  159 107.818 -0.727644 0.488167
  160 117.851 -0.834842 0.577581
  161 127.744 -0.178395 0.418547
  162 135.890 0.259925 0.206746
  163 76.4010 -6.83013 -5.27692
  164 76.0759 -6.95259 5.26550
  165 21.9850 6.21203 -8.17340
  166 22.2062 6.23718 8.13181
  167 91.0464 -4.73832 22.4221
  168 95.6186 -5.33186 -21.7919
  169 42.7496 -2.16141 2.33224
  170 42.7501 -2.13874 -2.37683
  171 97.5186 -3.05218 1.18740
  172 95.4519 -3.06120 -1.16014
  173 128.721 23.4593 -3.71093
  174 132.293 0.455240 -18.9123
  175 129.460 1.53540 20.0985
  176 29.2576 -1.04871 -5.39003
  177 29.2533 -1.03940 5.37466
  178 114.294 -11.3876 7.51047
  179 114.109 -8.77458 -9.84412
  180 1.14752 2.33737 3.27109
  181 1.19343 2.35270 -3.24432
  182 156.063 31.5468 6.79339
  183 28.9247 12.7033 -19.6638
  184 31.1304 12.8381 21.1964
  185 110.657 -4.91981 4.92877
  186 166.396 34.3627 -4.40974
  187 70.2534 -2.26161 -0.390064
  188 70.1313 -2.33002 0.381139
  189 114.032 -3.32407 -4.44175
  190 153.123 -2.08633 0.0125572
  191 25.3565 -0.736914 0.834965
  192 25.3546 -0.744653 -0.852147
  193 10.5371 1.54368 -3.44547
  194 10.5875 1.52788 3.45268
  195 62.5628 -2.43478 -13.6134
  196 62.3143 -2.57518 13.7967
  197 75.0799 -4.65789 -1.35501
  198 75.2330 -4.63137 1.50358
  199 17.5672 -0.611374 2.77367
  200 17.5447 -0.602246 -2.78293
  201 151.574 -3.91381 7.90208
  202 122.774 -12.3993 -4.14198
  203 117.389 -0.855438 -0.820073
  204 114.594 -1.08931 0.857188
  205 113.603 13.2631 13.9254
  206 4.49429 3.42396 -0.720522
  207 4.67113 3.41172 0.798330
  208 114.508 -4.69463 16.2599
  209 103.790 7.84221 -15.7161
  210 75.1219 15.7772 -47.3751
  211 78.9930 13.2971 43.9636
  212 1.14455 2.44839 0.271615
  213 1.18706 2.44713 -0.252019
  214 114.050 -4.16400 -16.7566
  215 201.820 28.5770 -1.73939
  216 94.8532 -10.4560 7.16989
  217 95.6130 -10.3888 -6.71163
  218 94.8204 -6.56139 -1.58813
  219 119.125 -1.58192 2.45773
  220 55.6155 -3.70984 -4.53563
  221 54.6874 -3.69279 4.70998
  222 32.8206 0.759208 -8.37479
  223 32.8636 0.745197 8.29189
  224 121.693 -13.1790 0.211593
  225 93.9952 -6.99519 1.18970
  226 118.727 -1.52458 -2.00535
  227 91.3072 -1.97041 0.354195
  228 92.1512 -1.80649 -0.172492
  229 116.280 -5.08862 9.72774
  230 8.21633 0.140987 -2.95309
  231 8.25381 0.136417 2.95051
  232 -1.57563 -1.09455 -4.02640
  233 -1.58319 -1.10355 4.02997
  234 15.1808 -0.709757 -1.56241
  235 15.1977 -0.711451 1.54576
  236 47.0812 -1.24419 1.01047
  237 47.0971 -1.27132 -1.02163
  238 55.3435 3.70555 -20.3868
  239 55.3489 3.06868 20.1453
  240 118.068 -3.54017 -8.31542
  241 53.8661 -3.08364 -7.87071
  242 53.9075 -3.18041 7.73755
  243 102.021 1.44268 17.6824
  244 87.6606 7.60225 1.06259
  245 100.842 -9.99411 -1.63505
  246 0.318779 -2.84514 -3.88689
  247 0.285250 -2.87092 3.91624
  248 6.04893 5.22924 -6.11626
  249 6.45934 4.99521 6.48552
  250 99.1025 -9.76930 0.955434
  251 181.742 32.1343 0.363435
  252 8.55647 5.93115 -2.16520
  253 8.66558 5.92648 2.19868
  254 -4.16159 0.773154 2.90382
  255 -4.14253 0.777102 -2.89086
  256 182.990 29.8154 0.564829
  257 61.5284 -2.76437 -1.47501
  258 61.4768 -2.71407 1.42927
  259 123.645 -8.58015 15.5488
  260 227.261 36.8516 22.1164
  261 35.0000 -1.79149 -4.35031
  262 34.9862 -1.80412 4.34267
  263 124.690 18.6027 -13.5822
  264 218.708 41.3027 -19.6877
  265 151.284 14.2482 14.1503
  266 166.673 7.98109 -28.8195
  267 101.037 -4.49953 2.39843
  268 114.099 0.326245 -20.1015
  269 108.983 -7.55379 -6.00843
  270 122.126 -2.02383 5.34378
  271 -1.02810 1.15125 -0.802717
  272 -0.986015 1.14733 0.816194
  273 121.155 -4.91713 -28.3273
  274 11.7806 3.87090 -3.37764
  275 11.8389 3.86275 3.39813
  276 116.270 -2.78462 -10.3579
  277 16.0300 15.1273 -20.3287
  278 10.9377 -0.0349172 -0.348938
  279 10.9416 -0.0317488 0.341895
  280 123.098 -7.89538 -16.1523
  281 20.6097 9.25137 -10.4892
  282 20.9145 9.19566 10.5174
  283 4.08939 -0.165307 2.08799
  284 4.05094 -0.162950 -2.09112
  285 100.905 -4.24190 -2.32403
  286 16.1328 14.9514 20.9214
  287 163.971 9.73604 34.1622
  288 41.8996 -1.55900 -1.32221
  289 41.8864 -1.54704 1.29547
  290 79.8237 -3.01098 -0.145691
  291 79.7819 -3.29120 0.228186
  292 68.1140 6.14771 -31.6496
  293 111.122 -12.2642 -3.23435
  294 128.278 -0.557587 1.11599
  295 65.5397 6.10750 30.5517
  296 76.2798 -1.75299 -0.0152320
  297 76.2493 -1.75079 0.0847887
  298 109.144 -7.88309 6.12775
  299 126.743 -1.15025 -2.63582
  300 -2.21851 0.483516 -1.51472
  301 -2.17290 0.479956 1.52038
  302 157.320 31.6231 -2.03514
  303 138.984 -7.00827 9.33606
  304 126.478 -0.391108 -0.334914
  305 128.834 -0.334529 0.303260
  306 125.055 -11.5440 9.12705
  307 154.407 15.2102 -13.3982
  308 132.944 24.8543 8.07348
  309 58.6514 -3.45335 -2.63721
  310 58.0880 -3.52048 2.70344
  311 128.185 -0.525788 -0.807330
  312 82.2191 -6.37067 -15.0062
  313 80.6927 -6.21552 1.80676
  314 76.9551 -4.36598 17.2872
  315 125.500 -1.31918 3.11212
  316 25.9186 -1.18391 -2.66734
  317 25.9313 -1.19302 2.65162
  318 115.207 -4.62954 28.0101
  319 71.5976 -5.53889 -3.27944
  320 133.338 16.8067 17.1964
  321 41.2880 2.93601 -12.8487
  322 39.6954 3.06536 12.7267
  323 9.46842 -0.233027 -0.637140
  324 9.48007 -0.231203 0.625881
  325 110.418 -1.90048 1.60634
  326 105.793 -1.13897 0.330540
  327 105.171 -1.28179 -0.369637
  328 115.290 -2.93658 10.9478
  329 7.46249 -0.333531 1.51209
  330 7.43183 -0.330148 -1.52165
  331 31.2063 -0.681182 -0.526533
  332 31.2030 -0.667355 0.519000
  333 0.990905 -5.87224 -2.42553
  334 0.918476 -5.91330 2.51175
  335 86.9835 3.70984 11.9072
  336 140.388 -6.73615 -7.98696
  337 89.6105 -4.49763 1.11845
  338 102.107 -1.70027 -0.991514
  339 104.334 13.0552 -7.42696
  340 18.8871 -0.577120 -3.95629
  341 18.9087 -0.577233 3.95013
  342 87.0212 -4.22093 -0.638260
  343 23.2022 0.906470 -5.75678
  344 23.2442 0.885199 5.73320
  345 4.10119 3.85583 0.598013
  346 4.15805 3.85404 -0.574739
  347 106.631 -11.6833 9.53199
  348 242.202 16.0807 6.16733
  349 92.3572 1.27222 -14.1392
  350 78.3854 -7.04755 8.78495
  351 77.9838 -6.91342 -9.08448
  352 116.314 -2.16057 19.9784
  353 102.377 -0.825278 14.0764
  354 105.186 -11.2993 -9.88695
  355 61.1076 -1.31798 -0.0786873
  356 61.0994 -1.33776 0.0945329
  357 116.376 -7.62249 12.6851
  358 159.239 32.0268 1.38687
  359 125.987 -1.26174 -3.95610
  360 29.7673 -1.10727 -1.86218
  361 29.7748 -1.10786 1.83754
  362 118.164 -11.6624 -12.0711
  363 122.854 8.31447 -20.0553
  364 79.3705 4.29151 -7.61275
  365 117.137 -7.89905 -14.3767
  366 -3.92903 0.0873310 -3.11697
  367 -3.93350 0.0828804 3.12103
  368 98.4360 -1.99130 0.773503
  369 -1.40280 -0.841911 -1.79703
  370 -1.40133 -0.842279 1.79362
  371 76.6473 35.3258 -58.0224
  372 2.66554 2.26334 2.47042
  373 2.74024 2.28238 -2.43103
  374 101.516 -0.872884 -13.9555
  375 55.2221 -2.18156 1.09869
  376 55.2667 -2.21503 -1.11735
  377 -0.436631 -4.24758 3.53952
  378 -0.430245 -4.23977 -3.53552
  379 61.8813 37.1644 54.4916
  380 44.9560 -2.32425 -6.02598
  381 44.9871 -2.21666 6.03032
  382 14.0720 10.1054 -9.57441
  383 14.3794 10.0687 9.50974
  384 -6.34658 0.856203 1.33457
  385 -6.32075 0.857333 -1.32102
  386 118.241 7.66872 19.9680
  387 90.8998 -9.50702 3.51942
  388 90.9961 -8.19788 0.738526
  389 111.030 -12.7558 -0.122222
  390 26.4011 3.42166 -8.17088
  391 26.4881 3.41356 8.15376
  392 2.28968 -4.58508 -0.359955
  393 2.15611 -4.63963 0.550217
  394 110.246 15.8746 4.94426
  395 113.652 -2.99433 3.70526
  396 63.3955 -4.84040 5.39468
  397 38.4427 -0.900728 -7.34618
  398 38.4517 -0.907450 7.27995
  399 81.7541 -2.16392 0.128355
  400 81.6597 -1.85410 -0.198280
  401 62.8520 -4.97963 -5.79086
  402 48.7586 -0.780588 -10.1763
  403 48.7453 -0.849821 10.2618
  404 118.115 -10.9437 -9.40988
  405 67.2096 -5.03771 3.11693
  406 107.605 -2.98867 2.42501
  407 107.439 -2.68595 -2.08762
  408 89.2597 -8.13174 -1.07326
  409 130.871 -0.373635 -1.17235
  410 42.4004 16.5991 -31.9109
  411 121.720 -1.65206 6.39262
  412 130.322 -0.503955 1.67027
  413 44.0088 -2.27524 3.44393
  414 44.0347 -2.24264 -3.44087
  415 90.4816 -9.39111 -3.68182
  416 12.0109 5.56255 3.61727
  417 11.9445 5.55985 -3.62329
  418 244.838 16.0676 -12.6808
  419 105.162 -5.79108 -3.73056
  420 132.089 -0.260202 0.676436
  421 39.9394 15.4078 30.2896
  422 193.552 32.7924 5.64839
  423 113.615 -1.41304 -1.30186
  424 83.5693 -5.88781 -0.753170
  425 33.9367 6.56780 -14.5957
  426 36.2250 6.09900 14.5083
  427 103.814 -6.39547 3.80313
  428 109.158 -1.43108 -10.4454
  429 -2.62298 -0.0834707 1.55028
  430 -2.66952 -0.0822902 -1.55014
  431 38.6073 9.17657 -19.9155
  432 38.7279 9.21279 19.8510
  433 3.67450 2.16659 -1.32654
  434 3.72114 2.16130 1.34334
  435 93.0050 -1.43960 0.342077
  436 92.8933 -1.39162 -0.308521
  437 116.069 -5.21306 -10.1540
  438 -0.487703 -0.548707 4.47168
  439 -0.467255 -0.531286 -4.45620
  440 119.745 -11.9709 8.44568
  441 113.552 -2.76753 -3.31503
  442 183.768 35.2978 -4.37289
  443 4.49119 -0.309899 0.684993
  444 4.46695 -0.309988 -0.694903
  445 223.763 61.4555 26.0986
  446 4.16741 -0.252192 -5.55651
  447 12.0104 0.693940 -3.80859
  448 12.0510 0.683443 3.80558
  449 222.743 62.7236 -24.5988
  450 4.41674 0.240331 6.20609
  451 -6.33097 0.690016 0.567260
  452 -6.29806 0.688763 -0.554672
  453 11.4615 7.81370 -5.27900
  454 11.6684 7.81262 5.31006
  455 142.644 22.0065 -14.5983
  456 114.986 -4.32316 -6.75906
  457 131.330 -0.307609 -0.614982
  458 119.964 -1.77740 -7.44862
  459 -1.65130 0.732851 4.11871
  460 -1.63060 0.743864 -4.10438
  461 116.139 -4.53825 7.76162
  462 74.2177 -3.95518 -1.02997
  463 73.9783 -4.00001 0.766803
  464 101.975 -11.2813 -0.474292
  465 72.0580 -1.18407 -21.4491
  466 110.373 -1.71993 10.6954
  467 90.6303 -2.60735 -0.480157
  468 134.660 -10.6316 0.0661750
  469 69.7476 0.397203 23.0663
  470 3.09431 -0.0744035 1.49447
  471 3.05586 -0.0723389 -1.49941
  472 146.199 28.9871 -6.88782
  473 118.654 -0.577835 0.149246
  474 118.229 -0.692924 -0.262316
  475 87.9798 -5.66849 -0.241272
  476 36.4838 -1.16023 -0.996653
  477 36.4762 -1.14412 0.979891
  478 21.1100 -0.184991 -4.69863
  479 21.1314 -0.189195 4.68513
  480 70.6949 2.76007 4.52991
  481 16.4028 -0.563490 2.20809
  482 16.3822 -0.557678 -2.22278
  483 18.6408 1.92180 5.27378
  484 18.5788 1.95018 -5.27153
  485 113.913 -8.79212 9.48598
  486 62.4943 -3.87013 -9.48832
  487 57.1672 -1.64636 0.490800
  488 57.1918 -1.69494 -0.493013
  489 63.1711 -3.99543 9.48125
  490 179.075 41.8807 -1.77568
  491 -2.86808 -0.451633 -2.36375
  492 -2.86694 -0.453844 2.36275
  493 42.6026 -1.06772 -0.398970
  494 42.5980 -1.04779 0.396455
  495 0.0197817 -7.92332 -3.05646
  496 0.00127400 -7.94850 3.08200
  497 104.289 -1.21357 0.617721
  498 70.1863 3.42602 -2.26183
  499 96.9719 10.2400 6.62472
  500 62.2160 -0.664333 -16.8651
  501 28.9565 -1.46891 3.37381
  502 28.9588 -1.45609 -3.38262
  503 -9.01467 0.271981 -0.420417
  504 -8.97025 0.270427 0.425840
  505 122.721 -2.55872 -20.0226
  506 6.85946 0.0801532 -0.482978
  507 6.86737 0.0818027 0.474942
  508 102.163 -7.91494 -3.34966
  509 109.060 -9.22376 -5.93813
  510 21.4565 15.7329 -21.0765
  511 91.5240 1.91704 -34.5598
  512 0.666544 2.59039 2.28018
  513 0.708919 2.59524 -2.25715
  514 54.3766 -2.36289 -1.72726
  515 54.3446 -2.33794 1.67598
  516 159.241 5.48841 -5.89309
  517 113.511 -6.59419 -8.56947
  518 20.8965 14.8017 20.7591
  519 112.502 -12.9338 1.86044
  520 108.012 -10.2427 4.89558
  521 20.4638 -0.485948 -1.43551
  522 20.4716 -0.483437 1.41727
  523 85.9830 0.866015 10.9256
  524 62.8361 -4.51128 -3.37637
  525 120.305 -2.46119 4.93476
  526 -0.509897 -2.91142 -2.28562
  527 -0.511155 -2.90961 2.28274
  528 83.1264 -7.44154 10.6821
  529 128.005 -10.1130 -11.1451
  530 168.719 10.0950 -3.67699
  531 89.4669 -2.72096 0.566178
  532 24.1293 -0.412472 -0.433383
  533 24.1286 -0.402389 0.428433
  534 55.7510 0.409728 16.1985
  535 159.838 25.9065 10.7996
  536 165.313 28.4460 -55.4060
  537 145.835 0.0576324 11.0377
  538 104.075 -11.6084 -0.103302
  539 252.865 20.0945 16.9126
  540 184.067 43.3350 3.07549
  541 23.7620 -0.965465 3.70540
  542 23.7483 -0.955156 -3.71484
  543 99.9274 -8.15546 2.72776
  544 6.58944 3.47978 -1.10218
  545 6.64301 3.47680 1.12238
  546 126.400 -10.7736 11.1173
  547 100.979 5.33930 16.2474
  548 128.029 -0.710631 2.72308
  549 93.3681 -5.36868 1.53707
  550 132.976 -0.284481 -36.4238
  551 213.683 51.2283 34.5679
  552 101.876 -1.64252 -0.580967
  553 125.393 -1.16942 -4.28611
  554 18.5796 7.85646 -7.65563
  555 18.7165 7.76020 7.61367
  556 70.0760 -2.56398 -0.611780
  557 70.0408 -2.49425 0.633334
  558 0.737413 -10.4687 -0.502957
  559 127.290 -4.85652 18.0894
  560 4.34257 4.06357 1.10904
  561 4.41787 4.07355 -1.07471
  562 0.874433 -10.1616 0.770709
  563 115.446 -5.30764 -14.4546
  564 133.097 7.98158 -19.5284
  565 132.536 9.08720 19.5065
  566 5.96797 4.44643 3.83598
  567 5.65145 4.57871 -3.73212
  568 -5.22667 0.137250 1.13935
  569 -5.27532 0.138516 -1.13760
  570 123.596 1.85134 37.6474
  571 65.6866 -3.45066 1.56539
  572 65.7572 -3.43788 -1.61576
  573 149.661 -3.97999 -18.2340
  574 16.3486 -0.213190 0.836376
  575 16.3437 -0.217739 -0.848507
  576 5.71700 -0.226574 -0.204921
  577 5.71896 -0.225033 0.202122
  578 163.120 28.7377 -9.20231
  579 15.0013 19.2803 -23.5088
  580 81.7961 1.56738 -9.22923
  581 118.331 19.0302 -8.48629
  582 1.54777 -0.537995 3.05993
  583 1.61947 -0.513928 -3.01193
  584 124.887 51.7866 65.6631
  585 103.366 -2.54759 -1.51953
  586 2.41182 1.06581 -1.79257
  587 2.45706 1.05808 1.80221
  588 119.315 -9.72155 12.8423
  589 17.8016 18.6068 23.9360
  590 85.3813 -1.44258 0.00140045
  591 85.4032 -1.42722 -0.00178187
  592 -0.125953 -6.23083 3.10514
  593 -0.116690 -6.22045 -3.09500
  594 145.789 28.7486 -0.233252
  595 92.6960 -7.69877 15.6676
  596 88.3119 -3.47878 0.563631
  597 89.2750 3.32000 36.5054
  598 -7.58546 0.355356 1.90821
  599 -7.57765 0.357253 -1.90111
  600 147.735 1.08381 -11.7882
  601 200.429 29.9039 -24.0074
  602 54.6357 5.35543 -23.7917
  603 28.2329 -1.13844 -4.56298
  604 28.2556 -1.13804 4.56151
  605 134.843 -0.316525 0.823513
  606 87.3883 -3.56213 -0.683117
  607 118.964 -1.32525 1.85912
  608 115.464 -5.29411 14.1291
  609 2.15516 -0.179419 0.718956
  610 2.12349 -0.178597 -0.726414
  611 67.2234 -2.08449 -0.331654
  612 67.2120 -2.01737 0.310009
  613 41.3197 0.967045 -10.5204
  614 41.0388 0.978377 10.4650
  615 169.921 8.11835 7.63532
  616 282.525 21.2805 -31.0503
  617 -4.10942 -0.157928 1.01356
  618 -4.15845 -0.157344 -1.01403
  619 38.2631 -1.54169 1.87686
  620 38.2657 -1.54037 -1.91048
  621 157.411 7.37767 8.04272
  622 133.560 -0.274450 -0.262191
  623 133.245 -0.489463 0.132859
  624 92.4874 -0.100636 10.8453
  625 138.432 -8.94691 -10.5398
  626 73.2675 -5.90497 4.06308
  627 -2.24364 1.60499 -2.03417
  628 -2.27529 1.60292 2.05211
  629 118.497 2.16616 20.8345
  630 45.4876 -2.53518 -4.70197
  631 45.4356 -2.57980 4.71169
  632 96.8494 -5.35795 -1.90179
  633 120.944 -2.43018 -4.47999
  634 67.2831 -5.29886 -6.61313
  635 110.482 13.3215 -12.6385
  636 74.8451 -5.22649 -12.5927
  637 25.1859 -0.656804 -0.706440
  638 25.1854 -0.647566 0.693861
  639 68.0162 -5.40215 6.62854
  640 149.060 23.5448 13.4170
  641 118.102 -5.90277 17.7744
  642 96.7183 -4.00677 1.67646
  643 67.9876 -1.52404 0.322936
  644 67.9701 -1.52887 -0.309288
  645 50.3384 -1.71373 -1.28718
  646 50.3150 -1.69166 1.26801
  647 114.076 -10.5119 -7.92889
  648 56.0067 -3.01594 2.28359
  649 56.0735 -3.00428 -2.34656
  650 112.167 17.4849 -1.71169
  651 105.370 -5.30007 3.72654
  652 133.930 -0.494023 -1.23874
  653 110.966 -2.19056 -18.2243
  654 14.0133 -0.647733 2.96633
  655 13.9865 -0.642895 -2.97122
  656 130.135 -0.586217 -2.45889
  657 21.9090 11.1661 -14.5782
  658 22.2929 11.1330 14.6510
  659 132.356 -8.82408 15.3395
  660 43.9634 10.7304 25.0476
  661 9.08964 -0.0163804 2.97622
  662 9.05607 -0.0139522 -2.97977
  663 112.101 -7.81789 20.5150
  664 111.167 13.7166 -50.2900
  665 105.507 3.13906 -18.0696
  666 140.732 25.3227 11.3236
  667 94.9702 -3.91272 -1.24804
  668 171.792 31.3666 -0.757657
  669 -9.14623 0.389088 -0.169348
  670 -9.10821 0.387964 0.177294
  671 75.2371 0.0214232 -25.3512
  672 2.24509 -0.100577 0.575390
  673 2.22527 -0.100876 -0.582863
  674 95.0436 -8.27778 -15.4623
  675 30.1751 4.25834 -10.0868
  676 29.9203 4.27016 10.0785
  677 -0.275473 1.55072 -0.189487
  678 -0.234272 1.54820 0.206485
  679 80.0967 -6.81056 -2.74993
  680 114.175 -1.11525 -7.05060
  681 52.7896 -1.44962 -0.486903
  682 52.7893 -1.42976 0.491709
  683 37.4906 -1.85721 -2.91585
  684 37.5169 -1.88471 2.90107
  685 6.84929 5.64656 -1.26617
  686 6.97155 5.65643 1.30561
  687 118.863 -1.09387 1.03052
  688 50.5087 -3.10644 3.82374
  689 50.8564 -3.04756 -3.81800
  690 131.060 -10.9981 -3.27321
  691 107.248 -10.7708 -3.73943
  692 83.6630 -2.01261 0.262761
  693 83.3519 -1.84766 -0.215184
  694 118.674 -12.9276 4.95441
  695 193.959 38.8887 8.83740
  696 104.038 -5.23846 -25.8758
  697 119.312 -3.20508 7.63567
  698 117.719 -4.58282 -18.9630
  699 34.4425 -0.995275 -1.30884
  700 34.4374 -0.986030 1.28652
  701 92.1661 -2.14545 29.1830
  702 265.934 33.6893 30.9403
  703 16.5417 5.02127 -5.46218
  704 16.5643 5.05381 5.48078
  705 118.582 -0.809975 -0.536165
  706 119.565 -0.704698 0.543409
  707 49.1601 23.3743 -41.4341
  708 125.314 -0.566048 4.24584
  709 108.251 -1.48577 0.949023
  710 141.074 28.2191 -4.28826
  711 13.1580 2.56795 -3.83998
  712 13.2173 2.55120 3.85475
  713 136.425 -0.208112 0.178966
  714 108.578 -3.89363 -3.54417
  715 135.632 -2.60350 16.2254
  716 53.7298 -3.69411 -6.28821
  717 53.8658 -3.52700 6.21629
  718 10.1723 -0.394695 2.24750
  719 10.1427 -0.389344 -2.25606
  720 124.201 -0.548285 -0.898472
  721 106.659 18.9197 53.5689
  722 0.525653 0.475040 3.90267
  723 0.564363 0.496872 -3.87624
  724 124.195 -1.08276 -2.17533
  725 120.297 -1.93529 3.07431
  726 92.0037 -0.0107698 -11.6321
  727 0.819155 -11.6141 -1.75114
  728 0.761150 -11.7201 1.85782
  729 42.2621 11.0310 -25.0296
  730 94.7973 -9.69037 -10.7856
  731 48.6812 23.1994 41.8834
  732 134.397 -0.181152 0.528125
  733 126.261 18.8267 13.6728
  734 89.8524 8.23127 -4.60019
  735 167.270 33.7890 -1.10892
  736 132.191 -0.421075 1.64410
  737 -9.15785 0.197852 0.786616
  738 -9.20641 0.198944 -0.783388
  739 140.076 -8.79872 1.83318
  740 89.3255 -2.20920 0.319107
  741 30.9803 0.139679 -7.01570
  742 31.0176 0.107411 6.96662
  743 120.574 -1.11021 -1.38338
  744 214.166 30.4371 -10.4129
  745 11.5264 -0.371385 -1.34103
  746 11.5496 -0.373727 1.32784
  747 135.327 -0.230813 -0.791247
  748 24.0006 -1.07870 -1.88272
  749 24.0119 -1.08256 1.86335
  750 130.419 -5.63519 -16.5511
  751 120.183 -1.20481 5.75889
  752 106.286 -0.860554 17.9274
  753 135.783 -0.241575 -0.0667009
  754 125.834 -0.692174 1.69724
  755 80.3584 -4.05997 -0.0805662
  756 102.009 -2.31398 1.22700
  757 115.787 -7.12665 -12.3060
  758 113.071 -7.00119 8.32735
  759 131.839 15.6058 -17.3315
  760 111.582 -6.08028 6.35168
  761 117.542 -7.06946 15.5305
  762 66.8902 -4.35086 2.25494
  763 2.24331 -1.55782 -0.859743
  764 2.11395 -1.56375 0.981592
  765 103.486 -1.15376 0.0750044
  766 103.260 -1.14205 -0.114580
  767 125.548 -0.283505 -0.114554
  768 126.007 -0.255744 0.145720
  769 117.900 -3.22881 9.21796
  770 108.960 -10.4233 14.4638
  771 88.6704 -7.03353 0.306892
  772 78.3582 -4.42472 0.682921
  773 218.785 28.1740 12.3365
  774 119.687 -2.85510 -6.13277
  775 69.2280 11.3335 -39.0171
  776 110.914 -5.26234 -5.54869
  777 2.74994 0.121226 -2.04930
  778 2.79329 0.117181 2.05105
  779 96.2957 8.45006 -10.3288
  780 259.308 7.90544 -3.43675
  781 124.143 2.84173 -20.5579
  782 4.71525 -0.175401 -8.70293
  783 126.712 23.0302 3.53016
  784 99.8464 -6.11886 2.54759
  785 111.515 -2.93095 17.7127
  786 94.2849 -10.1122 10.8493
  787 153.894 -2.60626 22.9818
  788 5.08371 0.985626 9.35343
  789 67.4348 -0.563376 19.4882
  790 95.5028 -2.08363 -0.665954
  791 106.728 -9.97350 -14.6566
  792 64.0656 -4.88568 -4.40307
  793 50.4198 2.34417 -16.8493
  794 123.266 -2.24067 20.1618
  795 78.2313 -5.13621 1.47021
  796 12.3817 -0.390343 1.24178
  797 12.3665 -0.390974 -1.25637
  798 114.538 -0.599298 6.25794
  799 102.610 0.372083 -17.3462
  800 -9.42855 0.401963 1.24239
  801 -9.41467 0.402623 -1.23478
  802 76.0585 -2.06674 0.0772101
  803 75.8240 -1.93321 -0.100282
  804 56.1010 6.03071 24.1681
  805 49.1757 -2.76344 2.78110
  806 49.2530 -2.69118 -2.81893
  807 135.330 -0.130831 -0.465303
  808 45.2206 3.54241 16.3773
  809 -1.18748 -0.0399777 0.791796
  810 -1.22877 -0.0389791 -0.796358
  811 113.113 -3.54320 13.7943
  812 123.068 -0.767471 0.734521
  813 -6.56370 0.0558242 1.84622
  814 -6.56410 0.0578174 -1.84262
  815 73.8518 -4.74517 14.2772
  816 13.6824 10.9485 -12.1075
  817 13.8564 10.3853 11.9063
  818 66.5525 3.01473 1.88289
  819 -3.59682 -0.0517716 -0.916798
  820 -3.54849 -0.0524755 0.915151
  821 85.3204 -8.20779 -10.1298
  822 117.648 -12.5265 -5.44033
  823 -0.574789 -0.547473 -0.716003
  824 -0.573188 -0.546280 0.713452
  825 2.91623 0.217305 -0.171762
  826 2.92072 0.218492 0.167503
  827 104.255 -9.19199 3.80090
  828 87.2124 -8.97922 6.69858
  829 97.3398 -1.24991 0.497290
  830 86.9604 -6.85261 -0.654874
  831 29.5335 -0.409351 -0.113210
  832 29.5315 -0.396037 0.110048
  833 -10.7758 0.224851 0.780694
  834 -10.7538 0.224527 -0.773305
  835 110.715 -1.07152 -0.716322
  836 94.8155 3.61601 -14.6798
  837 111.846 -1.88968 -1.94187
  838 64.1959 -4.78702 4.16113
  839 108.934 -1.97792 -14.4456
  840 117.776 -3.51344 -9.53006
  841 111.193 -0.868175 0.650068
  842 79.8356 -3.30000 20.0201
  843 85.3184 -8.27530 -3.33505
  844 50.4740 -0.367342 -12.6946
  845 50.7608 -0.0155946 12.7609
  846 72.1959 -5.24232 -2.44872
  847 120.596 12.8753 17.5582
  848 115.961 -12.4437 -7.30304
  849 39.3449 -1.14289 -0.622810
  850 39.3367 -1.12256 0.613538
  851 87.8403 -1.62566 -0.162381
  852 87.8414 -1.64255 0.187217
  853 103.583 -0.828188 -9.39922
  854 33.2300 -1.35721 -2.34296
  855 33.2439 -1.36799 2.31696
  856 0.392316 -11.3913 -2.36760
  857 0.369700 -11.4390 2.41228
  858 14.8828 -0.217082 -0.134483
  859 14.8814 -0.222689 0.130700
  860 109.773 -1.36654 -1.01203
  861 82.0008 -7.79968 5.99033
  862 129.365 -11.5126 5.86848
  863 71.5805 1.52288 7.22022
  864 112.214 -2.33006 2.20226
  865 122.113 -11.1814 -10.3857
  866 15.9808 1.14774 -4.54043
  867 16.0280 1.12925 4.53504
  868 96.8256 -1.36965 -0.458096
  869 77.0178 -2.37269 -0.177982
  870 76.7346 -2.34735 0.246238
  871 118.713 18.5633 9.54929
  872 40.2844 -0.328088 -8.59945
  873 40.2385 -0.376718 8.55380
  874 82.7752 -7.37356 2.48242
  875 7.26935 4.97524 -1.04492
  876 7.34609 4.96393 1.06532
  877 69.6238 -4.98927 11.4290
  878 84.0247 -5.13081 -0.0302427
  879 104.254 -0.856351 9.49937
  880 104.011 -11.8234 2.62343
  881 119.450 -9.23718 -13.7477
  882 81.8014 -7.86462 -6.09435
  883 67.3994 -4.32970 -2.14137
  884 229.470 19.0406 -3.46321
  885 109.091 -11.6156 3.11817
  886 2.55004 3.32866 1.87330
  887 2.60519 3.33422 -1.84522
  888 94.3445 -9.39541 0.734998
  889 103.883 -11.8722 -5.58667
  890 2.57765 2.99320 0.712174
  891 2.62545 2.99322 -0.691111
  892 37.4075 -1.25584 6.38009
  893 37.4379 -1.29852 -6.42628
  894 45.8083 -2.25076 7.02687
  895 45.7971 -2.30880 -7.08581
  896 149.628 30.1030 5.64184
  897 -0.240052 -4.63799 -2.23515
  898 -0.241675 -4.63321 2.23395
  899 33.0195 2.89189 -9.57498
  900 32.8456 2.83099 9.46660
  901 268.576 8.73280 -13.7146
  902 1.66879 -0.0105589 0.307128
  903 1.65602 -0.0114435 -0.312976
  904 0.400354 -13.5545 1.11555
  905 0.473818 -13.3457 -0.938782
  906 -4.96668 -0.0768685 1.85943
  907 -4.97145 -0.0753831 -1.85867
  908 26.3308 7.80762 -11.3586
  909 26.7437 7.55038 11.1801
  910 -2.33895 0.00439061 -4.01009
  911 -2.34972 -0.00386725 4.01706
  912 6.37683 0.744409 -2.85673
  913 6.42164 0.735225 2.85975
  914 28.3164 -0.242800 5.83926
  915 28.3011 -0.241717 -5.87610
  916 22.6080 -0.732501 -4.67849
  917 22.6276 -0.730509 4.66748
  918 130.499 -0.400136 -2.38440
  919 62.1217 12.6117 36.1202
  920 86.1999 -8.44041 3.04169
  921 60.2363 -4.18330 3.23281
  922 117.748 11.9674 -17.2673
  923 264.042 5.73938 5.42352
  924 141.741 5.77754 -17.2574
  925 21.0348 -0.805849 2.86064
  926 21.0170 -0.796011 -2.87511
  927 2.12317 -0.105548 -2.11647
  928 2.16450 -0.106841 2.11510
  929 -0.208597 -2.43247 -4.41325
  930 -0.226934 -2.45018 4.42750
  931 62.2850 -2.51726 1.25544
  932 62.3213 -2.57359 -1.26587
  933 6.42086 2.06622 -2.39279
  934 6.46998 2.05651 2.40685
  935 37.0276 -1.57999 -5.34067
  936 37.0488 -1.57906 5.33433
  937 80.7124 -0.468448 -8.52590
  938 38.1083 -2.01176 -3.57114
  939 38.0745 -1.98660 3.58368
  940 97.4696 -2.34774 -0.829022
  941 117.846 -6.89871 -16.6025
  942 49.6196 -1.85247 1.45181
  943 49.6483 -1.87279 -1.47960
  944 -2.10048 -0.235812 -1.27839
  945 -2.09513 -0.236372 1.27589
  946 120.974 -9.99467 -18.2089
  947 115.187 -6.69501 10.8142
  948 100.794 -6.83800 -3.08828
  949 96.1685 3.15664 15.4890
  950 42.8795 -2.32747 -4.04789
  951 42.8732 -2.27844 4.06207
  952 108.530 3.96786 18.8875
  953 100.411 8.71614 12.4086
  954 213.048 25.8873 4.36332
  955 107.712 -3.54645 2.74688
  956 54.7259 -1.40666 -0.638769
  957 54.7159 -1.37213 0.646264
  958 95.8164 -7.68719 -1.44796
  959 132.067 24.3474 -8.43187
  960 118.892 -0.945320 -1.03223
  961 76.2591 -1.50286 0.200070
  962 76.2268 -1.48861 -0.177086
  963 9.13390 7.50914 -4.76568
  964 9.37763 7.48880 4.80787
  965 18.5526 41.4663 -40.4164
  966 109.229 -2.67606 14.3849
  967 138.022 -3.21475 -14.7116
  968 -3.04510 1.29149 1.12136
  969 -3.01072 1.29090 -1.10467
  970 289.468 66.5663 -53.7708
  971 117.887 -13.0317 2.86533
  972 126.125 -12.1250 -3.43585
  973 115.847 -9.97413 10.1291
  974 142.278 28.2707 3.74079
  975 9.75466 9.08929 -11.2050
  976 26.0342 35.3430 39.2764
  977 -0.813142 -1.77709 4.34620
  978 -0.801740 -1.76410 -4.33874
  979 113.234 -2.57191 2.68748
  980 181.903 32.5309 -3.25422
  981 10.0509 8.84039 11.7071
  982 -0.508449 -1.64020 -1.42141
  983 -0.508615 -1.63597 1.41799
  984 96.5320 -1.84213 0.463009
  985 70.9253 -5.53427 -4.56335
  986 116.717 -9.28645 -11.7737
  987 31.8816 8.54607 -15.3365
  988 32.4025 8.69160 15.3778
  989 112.652 -2.82030 -12.9225
  990 114.651 -3.36256 4.63166
  991 -3.29718 0.678559 3.59907
  992 -3.28214 0.685766 -3.58822
  993 67.7096 -4.47484 -10.6866
  994 112.905 7.01247 -19.0763
  995 84.2750 -2.80005 -0.202043
  996 59.4528 -1.43570 0.0561610
  997 59.4428 -1.44812 -0.0490429
  998 -1.33203 -1.50696 -3.01939
  999 -1.33400 -1.51018 3.01741
  1000 116.194 -3.90527 -5.57707
  1001 110.988 -0.836626 0.209788
  1002 110.884 -0.837411 -0.161773
  1003 152.723 24.3275 -12.6649
  1004 25.9258 2.38185 -7.39437
  1005 25.9889 2.33423 7.37264
  1006 15.5868 -0.0920406 -3.83059
  1007 15.6145 -0.0953452 3.82296
  1008 124.883 6.32874 20.7946
  1009 119.594 -1.95885 -3.22624
  1010 19.5369 3.25237 -5.86720
  1011 19.6153 3.22696 5.88925
  1012 125.620 -0.378647 -0.601312
  1013 115.851 -4.84218 -8.22383
  1014 113.099 -13.0196 -3.38807
  1015 3.87673 3.04103 -0.801806
  1016 3.75879 3.02678 0.854554
  1017 -5.86378 0.850364 2.25086
  1018 -5.84446 0.852522 -2.23827
  1019 64.0487 2.51248 -3.14993
  1020 197.784 47.8595 -11.0880
  1021 88.5717 -6.22984 0.430669
  1022 57.6402 -2.50531 -11.0482
  1023 144.558 -6.59131 3.20926
  1024 57.8698 -2.50748 11.2132
  1025 102.415 -12.0982 6.77087
  1026 116.204 -4.77171 -11.9727
  1027 37.4729 -0.750171 -0.200296
  1028 37.4705 -0.733071 0.198321
  1029 78.4157 -5.95223 -1.93376
  1030 47.0932 -1.69185 -8.43045
  1031 47.0681 -1.70460 8.37800
  1032 15.1992 9.84497 -9.03176
  1033 15.4493 9.80908 9.05781
  1034 30.9901 -0.930627 -0.729877
  1035 30.9864 -0.916892 0.716639
  1036 103.612 -2.91857 1.68936
  1037 86.9318 -0.0941702 -29.5998
  1038 107.513 -3.15543 -2.70213
  1039 96.4571 -10.7083 -3.59954
  1040 62.1047 -2.38213 0.795368
  1041 62.1611 -2.40294 -0.800337
  1042 127.351 -0.515707 0.756315
  1043 112.825 -2.33908 -2.52665
  1044 68.0650 1.63602 5.92980
  1045 120.338 -1.16293 -5.34868
  1046 45.4779 12.8565 28.5404
  1047 124.383 -1.08675 -4.43124
  1048 30.9808 5.28717 -11.3366
  1049 30.0061 5.35143 10.8331
  1050 149.501 -3.54249 -3.98743
  1051 12.3758 6.64682 -4.33087
  1052 12.4945 6.59643 4.32686
  1053 2.00722 -0.869235 1.92834
  1054 2.11957 -0.850560 -1.85456
  1055 16.2958 -0.446153 0.912847
  1056 16.2868 -0.449698 -0.928124
  1057 51.9732 13.0357 -31.8256
  1058 299.765 74.7941 57.8253
  1059 115.759 -3.90791 5.72227
  1060 103.341 -11.7057 -2.23497
  1061 70.7841 -5.79680 -8.01842
  1062 -1.88689 1.44822 3.28896
  1063 -1.86005 1.45612 -3.27115
  1064 80.2708 -3.83394 -0.0265176
  1065 89.0296 -2.93899 -0.588089
  1066 -0.0583434 -6.59291 2.17482
  1067 -0.0560967 -6.59821 -2.17390
  1068 12.5281 7.88145 -5.28519
  1069 12.6838 7.86360 5.31927
  1070 79.1438 -3.48999 0.0407465
  1071 5.24346 2.84588 1.24911
  1072 5.19407 2.85054 -1.23023
  1073 122.225 -5.07639 19.2069
  1074 87.9079 -9.14097 -6.66431
  1075 71.2175 -5.89158 8.01647
  1076 115.801 -2.55812 -19.9545
  1077 124.328 -1.08327 2.34984
  1078 43.2719 6.58213 18.7975
  1079 43.5883 6.30376 -18.4715
  1080 70.8114 -3.53077 -15.7223
  1081 101.763 -3.28770 -1.76983
  1082 81.8171 -4.66383 0.482090
  1083 96.4773 -8.90588 0.856180
  1084 134.996 -0.368061 -1.30766
  1085 70.4911 -2.96922 0.660980
  1086 70.4599 -3.15968 -0.705316
  1087 1.99836 2.44614 2.94647
  1088 2.05615 2.46488 -2.91390
  1089 116.452 4.05371 -20.5456
  1090 24.7634 1.38456 -6.47364
  1091 24.8285 1.35498 6.45028
  1092 18.0651 0.457405 -4.52374
  1093 18.1027 0.446585 4.51153
  1094 135.457 -6.61380 23.1952
  1095 116.112 -5.30620 11.8511
  1096 55.4032 -2.49228 -9.24133
  1097 137.617 -0.453617 -0.787352
  1098 151.549 28.3882 -9.69077
  1099 124.226 -0.906179 -1.55487
  1100 115.265 -12.5594 5.33024
  1101 84.4765 -6.58513 13.6142
  1102 138.837 -0.0566608 0.194629
  1103 67.9213 2.16167 -5.03487
  1104 97.1671 -10.3809 -1.00838
  1105 55.4873 -2.60945 9.12317
  1106 98.1114 -8.82836 -1.42946
  1107 123.745 -1.55866 4.15457
  1108 84.8128 5.38475 7.90919
  1109 59.7054 -4.32078 -7.18877
  1110 189.203 24.3453 -8.20970
  1111 139.908 5.72396 17.9543
  1112 101.549 12.8328 1.96207
  1113 136.856 0.124448 0.735443
  1114 51.4161 -3.11837 -5.35653
  1115 35.2439 20.9431 -31.7997
  1116 63.7025 1.51017 -22.7801
  1117 73.1116 -5.45980 3.00892
  1118 61.3408 -4.52167 6.65944
  1119 51.2780 -2.95578 5.42150
  1120 110.454 0.765883 19.8607
  1121 83.6674 -2.56798 0.294744
  1122 134.490 -0.902328 1.70202
  1123 -1.23576 -0.248909 4.39687
  1124 -1.22011 -0.236170 -4.38625
  1125 87.8740 -2.13370 -0.378845
  1126 -0.379548 0.760894 4.13048
  1127 -0.351482 0.777274 -4.11082
  1128 47.5988 -1.33383 0.907652
  1129 47.6067 -1.35965 -0.909324
  1130 125.556 -0.618197 3.68230
  1131 100.228 -5.89422 -2.65348
  1132 93.6641 -4.71722 -1.32507
  1133 105.121 -7.19154 4.58936
  1134 31.0365 15.0156 -23.4014
  1135 103.207 -3.57490 2.16344
  1136 13.6379 0.351126 -3.67200
  1137 13.6734 0.343636 3.66627
  1138 20.5197 12.9742 -16.1028
  1139 166.602 20.4647 7.69406
  1140 9.52572 -0.493905 2.10270
  1141 9.49388 -0.489601 -2.10830
  1142 20.8939 12.7462 15.5002
  1143 93.9549 -7.71108 1.06536
  1144 45.8268 -2.01238 1.85851
  1145 45.8395 -2.02383 -1.89970
  1146 194.586 40.9026 -9.45274
  1147 103.867 -10.3881 1.97096
  1148 34.6451 19.5045 31.7150
  1149 2.78639 -2.09195 -1.95715
  1150 3.01745 -2.05600 2.23398
  1151 107.491 13.5201 10.0302
  1152 7.31433 4.25781 -1.18071
  1153 7.37776 4.25794 1.19771
  1154 104.588 -8.99752 -3.95733
  1155 -0.0520568 -10.2735 -2.07440
  1156 -0.0568443 -10.2767 2.08377
  1157 111.987 -9.42201 -7.41850
  1158 -4.24662 0.148909 0.713719
  1159 -4.29460 0.149756 -0.716138
  1160 16.0324 6.14133 -5.82558
  1161 16.1203 6.16687 5.76165
  1162 -7.56856 0.0201521 -0.875811
  1163 -7.51614 0.0197063 0.876222
  1164 112.770 -0.856268 -0.315776
  1165 -11.7923 0.327117 0.318531
  1166 -11.7627 0.326875 -0.311818
  1167 57.6089 -4.44021 -5.10814
  1168 1.48826 -16.3986 -0.957999
  1169 27.1854 -0.726114 1.46281
  1170 27.1812 -0.729550 -1.48442
  1171 94.9126 -1.41033 0.0659634
  1172 95.0973 -1.36134 -0.0467189
  1173 1.59563 -15.7236 1.29338
  1174 112.869 -5.71614 -7.08940
  1175 129.891 -0.508670 2.77598
  1176 114.535 -7.27400 -10.0654
  1177 97.8655 0.653677 15.3749
  1178 0.438774 -4.55489 3.43510
  1179 0.487349 -4.52520 -3.38450
  1180 72.0348 -5.05904 2.25776
  1181 -5.21050 0.416226 2.85397
  1182 -5.20111 0.419857 -2.84599
  1183 191.714 30.8492 1.81142
  1184 228.890 66.6922 -46.9363
  1185 117.196 -11.5029 9.05138
  1186 46.2821 -1.19414 -0.0865068
  1187 46.2811 -1.17601 0.0865367
  1188 245.827 23.8389 -21.6929
  1189 14.7790 -0.392004 2.18791
  1190 14.7545 -0.385339 -2.19951
  1191 108.146 -0.355642 -6.17467
  1192 69.0247 -5.50244 5.81790
  1193 115.955 -11.4694 -6.96098
  1194 112.105 -8.07683 -8.13978
  1195 67.3462 -2.47585 16.5295
  1196 24.0225 4.60304 -8.38545
  1197 24.0045 4.56146 8.33049
  1198 32.2398 11.7958 -19.7592
  1199 32.2736 10.8936 19.7563
  1200 8.37811 2.73675 -2.50921
  1201 8.43151 2.72786 2.52663
  1202 137.546 23.7081 -12.4120
  1203 6.57781 5.90177 -1.99063
  1204 6.74171 5.90674 2.03819
  1205 99.4356 -7.43020 2.50303
  1206 190.260 25.1828 9.46722
  1207 21.2032 -0.906721 -1.43980
  1208 21.2137 -0.906078 1.42052
  1209 125.517 79.1308 -72.2788
  1210 90.4856 5.32680 -12.2503
  1211 82.2986 6.41880 4.97259
  1212 10.8422 4.83875 -2.98815
  1213 10.8955 4.83746 3.00720
  1214 -0.568377 -0.0129145 0.526478
  1215 -0.596547 -0.0128837 -0.532211
  1216 110.449 -8.80058 6.94586
  1217 108.835 -4.08383 3.84520
  1218 74.1110 19.4377 -50.8139
  1219 171.986 37.3540 -0.0744319
  1220 72.7163 -2.35862 -18.3205
  1221 95.1839 -2.56626 0.760086
  1222 1.49143 -0.485804 -0.138459
  1223 1.49070 -0.485541 0.137600
  1224 -3.62580 0.742135 -1.01699
  1225 -3.58261 0.738877 1.02645
  1226 62.9208 0.548025 -19.2926
  1227 118.626 -2.34475 4.05204
  1228 75.9581 1.02825 26.8245
  1229 103.826 -4.86862 -3.17888
  1230 52.7998 17.9918 -39.5501
  1231 82.6820 -4.28604 -19.8707
  1232 98.8831 -10.5569 0.441565
  1233 122.023 -1.78767 6.05772
  1234 106.967 -1.86688 -1.29817
  1235 57.3463 -4.15329 5.14353
  1236 134.378 -8.04176 -11.7423
  1237 126.108 10.6364 19.7428
  1238 53.9622 0.228392 -15.0165
  1239 128.263 -0.545702 0.563281
  1240 98.8306 12.4301 -2.79320
  1241 41.9068 -1.34644 -1.43920
  1242 41.8935 -1.32952 1.41813
  1243 196.786 42.7704 7.81145
  1244 274.027 7.30721 12.8571
  1245 0.219339 -12.5941 -2.07306
  1246 0.211790 -12.6098 2.08865
  1247 27.5357 14.0981 21.7669
  1248 66.9621 -1.67257 -0.136538
  1249 66.9761 -1.65961 0.162942
  1250 93.0907 -9.30968 -1.27981
  1251 109.955 8.87306 17.2460
  1252 117.798 -2.02147 -2.73265
  1253 138.779 -0.263430 -0.0834159
  1254 240.475 52.7152 -32.6048
  1255 34.3166 -1.23879 1.42265
  1256 34.3186 -1.24242 -1.44868
  1257 112.095 -10.4101 7.18997
  1258 200.184 46.0709 -11.8208
  1259 108.858 -4.48762 -4.29326
  1260 78.3969 -5.25597 -1.24909
  1261 97.1104 -10.6040 3.46965
  1262 94.9808 -4.46486 1.52908
  1263 3.24174 -0.926425 -3.49056
  1264 130.904 -8.33642 13.5900
  1265 105.573 -6.71348 -4.46257
  1266 3.58918 -0.745844 3.96204
  1267 108.800 -9.19282 -18.4830
  1268 103.115 5.40213 -41.5405
  1269 171.000 20.2868 -6.15960
  1270 139.388 0.0159253 -0.0531001
  1271 139.109 -0.114914 0.136645
  1272 107.481 -6.06227 4.70882
  1273 40.0377 4.77607 -14.7235
  1274 122.650 -11.1419 11.1248
  1275 211.022 47.6689 20.5123
  1276 50.4471 16.5805 38.4710
  1277 1.18982 -0.258835 3.59495
  1278 1.24321 -0.234266 -3.55825
  1279 129.528 -11.0254 -9.08751
  1280 49.8778 -2.59204 -2.25265
  1281 49.8639 -2.59816 2.19785
  1282 119.703 -8.03844 16.0682
  1283 2.50345 0.0620855 2.34745
  1284 2.46177 0.0644220 -2.34797
  1285 -0.713835 -2.58063 3.50730
  1286 -0.709358 -2.57516 -3.50738
  1287 18.7696 -0.652087 -1.99622
  1288 18.7863 -0.656189 1.97933
  1289 61.6142 -4.06584 -8.27687
  1290 61.8443 -1.79432 0.276632
  1291 61.8442 -1.84185 -0.252210
  1292 138.714 0.0157027 -0.0488360
  1293 121.151 -1.74468 -6.78192
  1294 8.12501 0.501391 -2.86983
  1295 8.16577 0.494691 2.86905
  1296 61.8631 -4.30967 8.19277
  1297 140.271 -0.0650044 0.0232185
  1298 132.000 0.0929818 -0.142093
  1299 132.010 0.0151887 0.105351
  1300 172.749 35.2582 4.43848
  1301 128.124 -0.620727 -1.23577
  1302 113.137 -0.786025 0.274175
  1303 125.434 -1.69909 -3.67757
  1304 137.792 -0.336925 0.565508
  1305 141.104 13.9797 17.8101
  1306 163.966 33.3965 6.24544
  1307 132.963 -0.436501 -1.86711
  1308 -1.04510 -0.279130 0.946880
  1309 -1.04912 -0.278900 -0.949609
  1310 71.7424 -4.30745 1.37165
  1311 71.7263 -4.10379 -1.31360
  1312 142.412 15.5606 -17.0807
  1313 28.4614 9.73721 -16.1253
  1314 28.6447 9.45898 15.9327
  1315 93.6147 -0.0200709 -7.68260
  1316 98.8048 -1.17797 0.0614925
  1317 98.6841 -1.16443 -0.0815660
  1318 -2.46950 -0.464858 3.58602
  1319 -2.46500 -0.458702 -3.58432
  1320 108.504 -0.274707 6.16746
  1321 167.126 33.3221 0.831719
  1322 9.03011 -0.424890 -1.26222
  1323 9.05192 -0.425914 1.24922
  1324 123.640 -12.1532 6.82504
  1325 -0.202083 1.82921 3.42697
  1326 -0.167182 1.84040 -3.40478
  1327 19.8945 -0.439375 -0.371305
  1328 19.8958 -0.430988 0.362757
  1329 93.6490 -0.181130 7.79540
  1330 0.506234 0.224761 -0.179700
  1331 0.514008 0.225619 0.175428
  1332 126.774 -1.26221 2.46378
  1333 175.318 32.3432 1.06417
</Section>

newXOutput 17

<Section columns = "stress_xx | stress_yy | stress_xy">
  1 151.990 -0.300135 0.272565
  2 152.259 -0.423095 -0.354380
  3 -1.10383 0.151743 -0.407796
  4 -0.0948099 -0.151426 -0.0892722
  5 286.671 105.288 90.5939
  6 291.104 121.059 -91.6357
  7 -0.0936985 -0.150464 0.0878308
  8 -1.10248 0.150913 0.406780
  9 153.097 -0.205738 -0.251661
  10 151.830 -0.450201 -0.349832
  11 151.862 -0.334396 0.386037
  12 150.957 -0.117660 0.217069
  13 150.532 -0.419875 -0.0240131
  14 150.088 -0.394622 0.704003
  15 147.548 -0.242475 0.723427
  16 147.958 -1.03663 1.01604
  17 142.803 -0.834144 2.09499
  18 139.420 -0.313378 2.50528
  19 134.849 -0.427594 2.67735
  20 127.068 -0.375167 3.66395
  21 118.720 -0.342727 4.21219
  22 108.444 0.507831 5.70721
  23 94.5013 0.779052 5.13276
  24 89.0074 -0.106743 7.30573
  25 71.8523 1.04310 5.16704
  26 61.5630 1.40950 4.02400
  27 58.8948 0.595224 2.95814
  28 56.0256 2.04127 0.208211
  29 57.5844 2.23742 -3.95094
  30 60.7702 0.605657 -4.96875
  31 73.4307 0.200718 -6.67115
  32 86.3312 -0.675437 -6.99673
  33 95.0049 0.643384 -5.12970
  34 108.605 0.582093 -5.71457
  35 118.386 -0.412283 -4.50744
  36 127.952 -0.454098 -3.46726
  37 134.246 -0.290989 -2.71531
  38 138.978 -0.327202 -2.31605
  39 143.998 -0.469707 -1.36751
  40 146.092 -0.434206 -1.32528
  41 148.103 -0.416959 -1.15340
  42 150.178 -0.487704 -0.289295
  43 151.022 -0.641415 -0.503185
  44 150.219 0.157513 -0.0945030
  45 151.695 -0.290647 -0.427228
  46 152.497 -0.701965 0.381127
  47 153.309 -0.382423 -0.0267232
  48 145.021 0.278942 -0.227836
  49 135.796 -0.279521 -0.439684
  50 125.464 -0.929248 -0.669438
  51 114.866 -0.644338 -0.492409
  52 105.710 -1.30908 -0.455457
  53 96.1131 -1.46231 -0.425135
  54 86.4940 -1.24413 -0.239714
  55 76.4425 -1.39420 -0.312122
  56 67.9799 -1.57608 -0.396737
  57 56.7773 -1.55395 -0.337131
  58 45.2824 -0.931494 -0.215859
  59 35.8000 -0.582072 -0.178699
  60 24.1151 -0.365873 -0.101599
  61 15.6200 -0.405713 -0.607909
  62 7.71337 -0.624477 -0.216064
  63 -0.248730 0.0774855 0.337789
  64 -2.25592 0.564920 0.102038
  65 -2.76820 0.234046 0.334485
  66 -2.35464 0.108286 0.313239
  67 -3.82177 0.327974 0.0902352
  68 -4.31309 0.423564 0.678493
  69 -4.34414 0.146026 0.180912
  70 -6.86539 0.306794 0.208116
  71 -7.96196 0.221328 0.636358
  72 -8.22476 0.0834607 0.658099
  73 -10.8977 0.294759 0.476528
  74 -11.8050 0.432535 0.990435
  75 -12.7299 0.262737 0.279844
  76 -13.9577 0.188025 0.483988
  77 -14.2676 0.203981 0.131073
  78 -15.3712 0.470882 -0.414382
  79 -15.3538 0.323113 -0.315322
  80 -13.8513 0.251382 -0.534228
  81 -11.8116 0.313936 -0.955526
  82 -9.50298 0.128929 -1.39210
  83 -7.01352 0.0668604 -1.42849
  84 -4.18580 -0.155715 -1.48532
  85 -1.78444 -0.121194 -0.853573
  86 -0.737735 -0.306620 -0.526780
  87 -0.130972 -0.751215 -0.450012
  88 -0.227254 -1.91932 -0.819435
  89 -0.255483 -3.83789 -1.46041
  90 -0.0631863 -7.22865 -1.59851
  91 0.0764283 -10.0830 -2.02845
  92 0.193543 -14.5460 -1.66489
  93 0.591957 -17.3672 -1.98138
  94 0.0824571 -18.9439 -1.69878
  95 -0.0427315 -21.9522 -1.12206
  96 0.593025 -21.7661 -0.505679
  97 2.35655 -28.4084 0.788841
  98 1.98953 -16.8132 3.10032
  99 4.85619 -9.81934 7.26278
  100 14.9856 18.8432 24.4789
  101 66.6805 76.6985 73.3159
  102 375.964 38.8429 56.2169
  103 311.219 10.9380 20.1516
  104 295.648 4.67298 6.97885
  105 286.816 3.10621 -0.0323862
  106 292.351 4.45626 -5.70438
  107 314.380 9.35826 -16.7568
  108 372.081 31.1034 -52.6186
  109 43.0270 87.1061 -60.5670
  110 10.5014 12.1695 -18.7014
  111 3.56848 -12.2669 -5.90524
  112 1.80163 -18.2635 -2.58690
  113 2.34791 -29.4489 -0.538037
  114 0.569286 -22.2327 0.686342
  115 -0.0769676 -22.1880 1.21689
  116 0.0604170 -19.0368 1.74990
  117 0.580134 -17.3916 2.00323
  118 0.188972 -14.5408 1.67315
  119 0.0729211 -10.0708 2.03167
  120 -0.0648960 -7.21218 1.59786
  121 -0.255747 -3.82723 1.45760
  122 -0.227742 -1.90994 0.816721
  123 -0.130904 -0.747703 0.447569
  124 -0.733493 -0.306251 0.524762
  125 -1.77698 -0.121703 0.851437
  126 -4.17649 -0.156895 1.48417
  127 -7.00307 0.0655995 1.42897
  128 -9.49783 0.127571 1.39466
  129 -11.8156 0.313009 0.960293
  130 -13.8646 0.251349 0.539257
  131 -15.3788 0.322907 0.320154
  132 -15.4058 0.470965 0.419334
  133 -14.3126 0.204558 -0.126915
  134 -14.0104 0.188728 -0.481080
  135 -12.7859 0.263510 -0.277694
  136 -11.8647 0.433426 -0.989881
  137 -10.9582 0.295569 -0.476102
  138 -8.28337 0.0839531 -0.658688
  139 -8.01967 0.222164 -0.637762
  140 -6.91936 0.307988 -0.210076
  141 -4.38997 0.146836 -0.184277
  142 -4.35026 0.424323 -0.683224
  143 -3.85161 0.328132 -0.0944726
  144 -2.37354 0.108109 -0.317263
  145 -2.77873 0.233600 -0.337682
  146 -2.26107 0.564108 -0.104849
  147 -0.249531 0.0770175 -0.339383
  148 7.71223 -0.626749 0.214311
  149 15.6183 -0.411697 0.605904
  150 24.1150 -0.376602 0.0990709
  151 35.8020 -0.597656 0.177327
  152 45.2834 -0.949671 0.215543
  153 56.7732 -1.56983 0.339404
  154 67.9630 -1.58440 0.401693
  155 76.4122 -1.38540 0.324103
  156 86.4477 -1.20954 0.253798
  157 96.0474 -1.37936 0.403192
  158 105.752 -1.33164 0.402621
  159 114.896 -0.790141 0.518552
  160 125.565 -0.902112 0.613579
  161 136.082 -0.199679 0.445521
  162 144.740 0.270792 0.220305
  163 81.4681 -7.28529 -5.66378
  164 81.1221 -7.41597 5.65148
  165 23.4757 6.62827 -8.75106
  166 23.7118 6.65502 8.70679
  167 97.0557 -5.03799 23.9423
  168 101.924 -5.66989 -23.2704
  169 45.6356 -2.31079 2.50736
  170 45.6359 -2.28659 -2.55483
  171 103.945 -3.26625 1.24246
  172 101.746 -3.27588 -1.21321
  173 137.250 25.0044 -3.94095
  174 140.999 0.500670 -20.0849
  175 137.986 1.64980 21.3520
  176 31.2482 -1.12228 -5.77500
  177 31.2438 -1.11237 5.75872
  178 121.816 -12.1352 7.95178
  179 121.622 -9.35292 -10.4422
  180 1.23715 2.50177 3.46942
  181 1.28614 2.51818 -3.44084
  182 166.339 33.6302 7.17645
  183 30.8686 13.5654 -21.0101
  184 33.2195 13.7088 22.6438
  185 117.937 -5.25215 5.21882
  186 177.329 36.6388 -4.62333
  187 74.9242 -2.42291 -0.431388
  188 74.7942 -2.49580 0.421922
  189 121.524 -3.55215 -4.70461
  190 163.140 -2.18465 -0.0622174
  191 27.1170 -0.789366 0.899973
  192 27.1147 -0.797601 -0.918254
  193 11.2806 1.64478 -3.69859
  194 11.3345 1.62793 3.70637
  195 66.7252 -2.59540 -14.5517
  196 66.4604 -2.74484 14.7473
  197 80.0626 -4.97484 -1.47468
  198 80.2258 -4.94654 1.63304
  199 18.8025 -0.654713 2.97530
  200 18.7783 -0.644971 -2.98511
  201 161.486 -4.12766 8.49091
  202 130.843 -13.2042 -4.35638
  203 125.077 -0.923844 -0.864586
  204 122.105 -1.17390 0.903242
  205 121.145 14.1451 14.8027
  206 4.80508 3.67696 -0.798117
  207 4.99369 3.66405 0.881147
  208 122.068 -5.00189 17.2820
  209 110.698 8.36635 -16.7134
  210 80.0793 16.8604 -50.5393
  211 84.2054 14.2110 46.9015
  212 1.24894 2.61270 0.269971
  213 1.29434 2.61138 -0.249015
  214 121.582 -4.43578 -17.8113
  215 215.027 30.4352 -1.85958
  216 101.115 -11.1424 7.68704
  217 101.924 -11.0710 -7.19852
  218 101.079 -7.00210 -1.65627
  219 126.933 -1.69655 2.60048
  220 59.3333 -3.96166 -4.86688
  221 58.3451 -3.94352 5.05260
  222 35.0359 0.807279 -8.96340
  223 35.0819 0.792361 8.87513
  224 129.689 -14.0341 0.169278
  225 100.201 -7.46429 1.23131
  226 126.508 -1.63590 -2.11960
  227 97.3321 -2.11470 0.365847
  228 98.2302 -1.94013 -0.172455
  229 123.933 -5.42725 10.3273
  230 8.82014 0.148598 -3.16785
  231 8.86028 0.143723 3.16517
  232 -1.67567 -1.16286 -4.28849
  233 -1.68374 -1.17247 4.29228
  234 16.2721 -0.759013 -1.67775
  235 16.2904 -0.760826 1.66005
  236 50.2532 -1.33448 1.08753
  237 50.2699 -1.36336 -1.09939
  238 59.0298 3.95687 -21.7742
  239 59.0356 3.27760 21.5167
  240 125.834 -3.77808 -8.82795
  241 57.4657 -3.29186 -8.42631
  242 57.5101 -3.39508 8.28459
  243 108.806 1.54249 18.8072
  244 93.5469 8.10959 1.13046
  245 107.493 -10.6553 -1.69809
  246 0.344396 -3.01925 -4.13222
  247 0.308641 -3.04677 4.16352
  248 6.46346 5.62371 -6.55987
  249 6.90127 5.37434 6.95361
  250 105.640 -10.4159 0.974316
  251 193.622 34.3026 0.282908
  252 9.14739 6.33512 -2.33987
  253 9.26383 6.33021 2.37569
  254 -4.42365 0.826240 3.08713
  255 -4.40331 0.830463 -3.07329
  256 194.941 31.8372 0.709342
  257 65.6343 -2.95648 -1.59517
  258 65.5795 -2.90293 1.54651
  259 131.781 -9.13718 16.5099
  260 242.072 39.2574 23.5875
  261 37.3734 -1.91509 -4.66409
  262 37.3589 -1.92859 4.65604
  263 132.946 19.8355 -14.4291
  264 232.984 44.0072 -21.0142
  265 161.215 15.2144 14.9950
  266 177.530 8.58905 -30.7807
  267 107.693 -4.80644 2.52552
  268 121.648 0.354840 -21.3711
  269 116.159 -8.05645 -6.36141
  270 130.143 -2.16279 5.67061
  271 -1.05862 1.22739 -0.872353
  272 -1.01365 1.22322 0.886783
  273 129.102 -5.20764 -30.2373
  274 12.5974 4.12918 -3.62991
  275 12.6598 4.12052 3.65186
  276 123.935 -2.96934 -11.0060
  277 17.1117 16.2009 -21.7244
  278 11.7651 -0.0385209 -0.375219
  279 11.7695 -0.0351486 0.367723
  280 131.201 -8.40694 -17.1529
  281 22.0042 9.87754 -11.2236
  282 22.3294 9.81827 11.2539
  283 4.43450 -0.177294 2.23884
  284 4.39327 -0.174780 -2.24213
  285 107.552 -4.53243 -2.44744
  286 17.2218 16.0130 22.3561
  287 174.650 10.4696 36.4727
  288 44.7331 -1.66872 -1.42528
  289 44.7192 -1.65601 1.39682
  290 85.1120 -3.22197 -0.176560
  291 85.0676 -3.52049 0.264817
  292 72.6286 6.57012 -33.7786
  293 118.438 -13.0685 -3.39602
  294 136.659 -0.602667 1.17984
  295 69.8861 6.52849 32.6094
  296 81.3387 -1.88199 -0.0244962
  297 81.3063 -1.87968 0.0985253
  298 116.331 -8.40682 6.48761
  299 135.040 -1.23284 -2.79301
  300 -2.31547 0.514738 -1.62865
  301 -2.26669 0.510946 1.63474
  302 167.691 33.6950 -2.14458
  303 148.101 -7.44902 9.87936
  304 134.738 -0.426924 -0.352878
  305 137.243 -0.365551 0.319521
  306 133.264 -12.2826 9.78188
  307 164.536 16.2417 -14.1900
  308 141.740 26.4935 8.56796
  309 62.5691 -3.68965 -2.83886
  310 61.9693 -3.76121 2.90949
  311 136.558 -0.569160 -0.851755
  312 87.6595 -6.78659 -16.0373
  313 86.0389 -6.63320 1.96159
  314 82.0534 -4.64919 18.4682
  315 133.722 -1.41283 3.29898
  316 27.7062 -1.26608 -2.86168
  317 27.7199 -1.27580 2.84498
  318 122.773 -4.90528 29.8981
  319 76.3542 -5.91169 -3.53032
  320 142.137 17.9260 18.2623
  321 44.0554 3.13152 -13.7369
  322 42.3582 3.26963 13.6070
  323 10.1956 -0.249555 -0.684966
  324 10.2083 -0.247614 0.672986
  325 117.667 -2.03830 1.69431
  326 112.743 -1.22851 0.345709
  327 112.080 -1.38075 -0.387269
  328 122.895 -3.13124 11.6338
  329 8.04226 -0.356974 1.62325
  330 8.00931 -0.353365 -1.63340
  331 33.3495 -0.730845 -0.566194
  332 33.3462 -0.716128 0.558178
  333 1.06035 -6.23613 -2.56994
  334 0.983117 -6.27996 2.66189
  335 92.8176 3.96011 12.6682
  336 149.595 -7.15441 -8.44011
  337 95.5314 -4.80528 1.16228
  338 108.825 -1.82646 -1.04120
  339 111.289 13.9217 -7.89688
  340 20.2009 -0.618506 -4.24051
  341 20.2240 -0.618641 4.23402
  342 92.7751 -4.51052 -0.651272
  343 24.7875 0.963740 -6.16754
  344 24.8325 0.941058 6.14251
  345 4.39698 4.11723 0.614002
  346 4.45768 4.11536 -0.589117
  347 113.652 -12.4437 10.2069
  348 257.929 17.1202 6.56979
  349 98.5294 1.36127 -15.0413
  350 83.5800 -7.51391 9.40504
  351 83.1520 -7.37061 -9.72435
  352 123.998 -2.29699 21.2374
  353 109.179 -0.877368 14.9703
  354 112.114 -12.0346 -10.5851
  355 65.1880 -1.41608 -0.0771280
  356 65.1792 -1.43712 0.0940086
  357 124.041 -8.12392 13.4690
  358 169.733 34.1248 1.45367
  359 134.246 -1.35074 -4.19780
  360 31.8101 -1.18494 -2.00071
  361 31.8183 -1.18559 1.97449
  362 125.928 -12.4123 -12.9165
  363 130.973 8.87246 -21.3146
  364 84.7212 4.57950 -8.10037
  365 124.854 -8.41692 -15.2695
  366 -4.18392 0.0947816 -3.31948
  367 -4.18868 0.0900284 3.32380
  368 104.919 -2.13654 0.808055
  369 -1.49508 -0.897052 -1.91605
  370 -1.49351 -0.897441 1.91240
  371 81.6786 37.7505 -61.8853
  372 2.85478 2.42843 2.61220
  373 2.93446 2.44882 -2.57014
  374 108.264 -0.927917 -14.8419
  375 58.9202 -2.33490 1.18884
  376 58.9677 -2.37054 -1.20870
  377 -0.463595 -4.52331 3.76986
  378 -0.456788 -4.51499 -3.76561
  379 65.9590 39.7101 58.1245
  380 47.9762 -2.48309 -6.45628
  381 48.0095 -2.36847 6.46095
  382 15.0276 10.8017 -10.2500
  383 15.3555 10.7628 10.1811
  384 -6.74569 0.913907 1.41302
  385 -6.71811 0.915122 -1.39855
  386 126.066 8.18300 21.2262
  387 96.9068 -10.1357 3.79412
  388 97.0094 -8.74359 0.827525
  389 118.338 -13.5903 -0.181223
  390 28.1892 3.64860 -8.74660
  391 28.2821 3.64003 8.72846
  392 2.44726 -4.85057 -0.360265
  393 2.30482 -4.90886 0.563155
  394 117.583 16.9260 5.25516
  395 121.118 -3.20145 3.92234
  396 67.6186 -5.16600 5.78625
  397 41.0320 -0.964226 -7.86524
  398 41.0418 -0.971423 7.79477
  399 87.1661 -2.32007 0.121400
  400 87.0657 -1.99002 -0.195930
  401 67.0393 -5.31423 -6.20850
  402 52.0211 -0.834671 -10.8859
  403 52.0072 -0.908466 10.9771
  404 125.887 -11.6598 -9.97312
  405 71.6821 -5.37824 3.35480
  406 114.680 -3.19707 2.56025
  407 114.502 -2.87491 -2.20222
  408 95.1605 -8.67327 -1.18386
  409 139.419 -0.405965 -1.23973
  410 45.2286 17.7279 -34.0661
  411 129.722 -1.76505 6.78916
  412 138.840 -0.544138 1.76870
  413 46.9734 -2.43201 3.69730
  414 47.0009 -2.39723 -3.69402
  415 96.4613 -10.0122 -3.96706
  416 12.8377 5.93684 3.88836
  417 12.7668 5.93391 -3.89469
  418 260.731 17.1064 -13.5053
  419 112.088 -6.18100 -3.94034
  420 140.705 -0.285302 0.715276
  421 42.6072 16.4588 32.3391
  422 206.236 34.9329 6.04285
  423 121.067 -1.51858 -1.37250
  424 89.1015 -6.28475 -0.837086
  425 36.2170 7.00850 -15.6015
  426 38.6568 6.50781 15.5082
  427 110.654 -6.82441 4.01595
  428 116.384 -1.52512 -11.1053
  429 -2.73037 -0.0897205 1.66287
  430 -2.78019 -0.0884625 -1.66268
  431 41.1924 9.79549 -21.2751
  432 41.3212 9.83403 21.2063
  433 3.95449 2.31055 -1.43620
  434 4.00433 2.30493 1.45418
  435 99.1380 -1.54956 0.358466
  436 99.0189 -1.49845 -0.322774
  437 123.709 -5.55961 -10.7805
  438 -0.513416 -0.576698 4.75759
  439 -0.491605 -0.558091 -4.74108
  440 127.621 -12.7523 8.94415
  441 121.009 -2.96025 -3.50787
  442 195.829 37.6090 -4.70272
  443 4.88785 -0.331246 0.736607
  444 4.86168 -0.331339 -0.747149
  445 238.351 65.5295 27.8882
  446 4.45140 -0.189710 -5.95898
  447 12.8594 0.738065 -4.08414
  448 12.9029 0.726872 4.08102
  449 237.281 66.8874 -26.3075
  450 4.71787 0.335314 6.65180
  451 -6.72178 0.735463 0.593989
  452 -6.68663 0.734132 -0.580530
  453 12.2444 8.34866 -5.66517
  454 12.4651 8.34768 5.69842
  455 152.044 23.4692 -15.4867
  456 122.547 -4.61442 -7.16851
  457 139.898 -0.335154 -0.649736
  458 127.859 -1.89696 -7.91258
  459 -1.75057 0.786467 4.38105
  460 -1.72849 0.798236 -4.36576
  461 123.777 -4.84263 8.23560
  462 79.1447 -4.22684 -1.12363
  463 78.8899 -4.27458 0.843503
  464 108.698 -12.0239 -0.552183
  465 76.8355 -1.25512 -22.9050
  466 117.675 -1.83281 11.3702
  467 96.6132 -2.79296 -0.493605
  468 143.492 -11.3081 0.00632591
  469 74.3740 0.432555 24.6294
  470 3.38189 -0.0804296 1.60318
  471 3.34063 -0.0782271 -1.60840
  472 155.848 30.8962 -7.29527
  473 126.420 -0.628257 0.155565
  474 125.967 -0.750959 -0.275839
  475 93.7966 -6.05162 -0.223538
  476 38.9678 -1.24265 -1.07280
  477 38.9598 -1.22550 1.05496
  478 22.5630 -0.200573 -5.03564
  479 22.5860 -0.205067 5.02134
  480 75.4907 2.94611 4.82092
  481 17.5687 -0.603224 2.36901
  482 17.5466 -0.597020 -2.38462
  483 19.9199 2.04800 5.65285
  484 19.8536 2.07825 -5.65035
  485 121.413 -9.37228 10.0613
  486 66.6550 -4.12861 -10.1530
  487 60.9923 -1.76518 0.535284
  488 61.0184 -1.81690 -0.537614
  489 67.3762 -4.26214 10.1457
  490 190.823 44.6526 -1.97128
  491 -3.05609 -0.480532 -2.51909
  492 -3.05487 -0.482890 2.51801
  493 45.4851 -1.14556 -0.430174
  494 45.4803 -1.12434 0.427503
  495 0.0223592 -8.43465 -3.25156
  496 0.00262733 -8.46148 3.27879
  497 111.145 -1.30784 0.647152
  498 74.9504 3.65492 -2.40688
  499 103.454 10.9210 7.04566
  500 66.3540 -0.705660 -18.0187
  501 30.9386 -1.57035 3.61853
  502 30.9408 -1.55666 -3.62786
  503 -9.56855 0.289262 -0.455714
  504 -9.52108 0.287606 0.461526
  505 130.810 -2.71794 -21.2766
  506 7.42031 0.0844929 -0.518487
  507 7.42909 0.0862479 0.509934
  508 108.898 -8.44222 -3.52911
  509 116.242 -9.83398 -6.28268
  510 22.9022 16.8176 -22.5205
  511 97.5578 2.06622 -36.8766
  512 0.729965 2.76711 2.41287
  513 0.775198 2.77231 -2.38827
  514 58.0190 -2.52763 -1.86172
  515 57.9851 -2.50108 1.80712
  516 169.661 5.89228 -6.19265
  517 120.982 -7.03267 -9.09040
  518 22.3054 15.8254 22.1823
  519 119.906 -13.7778 2.03436
  520 115.127 -10.9185 5.17034
  521 21.9039 -0.520886 -1.54078
  522 21.9125 -0.518220 1.52138
  523 91.7505 0.926397 11.6235
  524 67.0244 -4.81681 -3.63044
  525 128.201 -2.63111 5.23269
  526 -0.542688 -3.10295 -2.43620
  527 -0.544028 -3.10100 2.43312
  528 88.6277 -7.93068 11.4286
  529 136.416 -10.7657 -11.8140
  530 179.739 10.8178 -4.00790
  531 95.3757 -2.91378 0.583739
  532 25.8138 -0.443114 -0.464551
  533 25.8133 -0.432380 0.459282
  534 59.4664 0.439123 17.3083
  535 170.330 27.6402 11.4196
  536 176.055 30.4469 -59.0953
  537 155.400 0.0897916 11.6850
  538 110.935 -12.3719 -0.0626584
  539 269.264 21.3977 18.0157
  540 196.118 46.2197 3.37042
  541 25.3997 -1.03323 3.97317
  542 25.3849 -1.02222 -3.98316
  543 106.518 -8.69845 2.86604
  544 7.05672 3.71303 -1.20026
  545 7.11394 3.70989 1.22189
  546 134.708 -11.4717 11.7855
  547 107.706 5.69864 17.2808
  548 136.416 -0.761641 2.88833
  549 99.5323 -5.73246 1.60521
  550 141.676 -0.250784 -38.8660
  551 227.557 54.7035 36.9401
  552 108.577 -1.76517 -0.607612
  553 133.621 -1.25053 -4.54988
  554 19.8418 8.38587 -8.19956
  555 19.9880 8.28317 8.15494
  556 74.7353 -2.74479 -0.671072
  557 74.6979 -2.67054 0.694104
  558 0.789572 -11.1072 -0.555906
  559 135.667 -5.16473 19.2127
  560 4.64894 4.34402 1.15769
  561 4.72929 4.35475 -1.12102
  562 0.935848 -10.7797 0.841459
  563 123.060 -5.65638 -15.3590
  564 141.865 8.52230 -20.7418
  565 141.271 9.70145 20.7194
  566 6.37692 4.77678 4.12442
  567 6.03933 4.91767 -4.01363
  568 -5.51376 0.145674 1.22342
  569 -5.56581 0.147024 -1.22152
  570 131.693 2.02053 40.1681
  571 70.0615 -3.68806 1.69477
  572 70.1366 -3.67442 -1.74826
  573 159.441 -4.19157 -19.4947
  574 17.5256 -0.229410 0.897561
  575 17.5201 -0.234250 -0.910472
  576 6.20718 -0.241881 -0.219569
  577 6.20963 -0.240239 0.216588
  578 173.823 30.6587 -9.71512
  579 16.0074 20.6821 -25.1113
  580 87.2983 1.67527 -9.81981
  581 126.186 20.2881 -9.01728
  582 1.65819 -0.555072 3.24402
  583 1.73467 -0.529334 -3.19281
  584 132.986 55.3489 70.0171
  585 110.166 -2.72835 -1.59848
  586 2.61607 1.13547 -1.93043
  587 2.66443 1.12724 1.94079
  588 127.169 -10.3571 13.6301
  589 18.9934 19.9628 25.5678
  590 91.0252 -1.55237 0.00547739
  591 91.0486 -1.53600 -0.00588233
  592 -0.132892 -6.63548 3.30580
  593 -0.123016 -6.62443 -3.29499
  594 155.421 30.6349 -0.248669
  595 98.8151 -8.19810 16.7433
  596 94.1474 -3.72057 0.576180
  597 95.1605 3.56595 38.9510
  598 -8.07807 0.379657 2.02995
  599 -8.06974 0.381686 -2.02237
  600 157.421 1.18530 -12.4818
  601 213.441 31.9793 -25.6810
  602 58.2732 5.71980 -25.4048
  603 30.1599 -1.21802 -4.89083
  604 30.1843 -1.21761 4.88934
  605 143.641 -0.341781 0.871269
  606 93.1647 -3.80938 -0.703189
  607 126.759 -1.42361 1.96547
  608 123.078 -5.64247 15.0127
  609 2.39483 -0.191773 0.772333
  610 2.36075 -0.190897 -0.780262
  611 71.6984 -2.23378 -0.365404
  612 71.6864 -2.16229 0.342349
  613 44.0926 1.02968 -11.2529
  614 43.7934 1.04178 11.1941
  615 181.013 8.71789 8.22533
  616 300.776 22.6557 -33.0518
  617 -4.30839 -0.168755 1.08762
  618 -4.36088 -0.168133 -1.08809
  619 40.8590 -1.64930 2.01848
  620 40.8616 -1.64787 -2.05426
  621 167.720 7.90393 8.48323
  622 142.265 -0.299738 -0.277374
  623 141.930 -0.528533 0.139834
  624 98.6660 -0.104991 11.5371
  625 147.499 -9.50389 -11.2925
  626 78.1322 -6.30108 4.36739
  627 -2.37191 1.71353 -2.15460
  628 -2.40570 1.71130 2.17377
  629 126.328 2.31754 22.1469
  630 48.5449 -2.70869 -5.04260
  631 48.4897 -2.75627 5.05300
  632 103.238 -5.72083 -1.99376
  633 128.879 -2.59753 -4.74995
  634 71.7578 -5.65355 -7.08684
  635 117.825 14.2062 -13.4356
  636 79.8079 -5.57079 -13.4640
  637 26.9372 -0.703531 -0.759818
  638 26.9370 -0.693697 0.746432
  639 72.5385 -5.76344 7.10385
  640 158.868 25.1122 14.2221
  641 125.890 -6.28692 18.8872
  642 103.096 -4.28261 1.75941
  643 72.5122 -1.63695 0.348318
  644 72.4935 -1.64206 -0.333784
  645 53.7204 -1.83555 -1.38653
  646 53.6956 -1.81206 1.36614
  647 121.586 -11.2026 -8.39844
  648 59.7541 -3.22376 2.45840
  649 59.8250 -3.21129 -2.52542
  650 119.630 18.6412 -1.81907
  651 112.308 -5.65803 3.93736
  652 142.675 -0.530853 -1.31189
  653 118.310 -2.33074 -19.3765
  654 15.0108 -0.692909 3.18102
  655 14.9821 -0.687743 -3.18617
  656 138.651 -0.629320 -2.60834
  657 23.3876 11.9248 -15.5862
  658 23.7972 11.8897 15.6641
  659 141.031 -9.37404 16.4031
  660 46.8993 11.4554 26.7463
  661 9.75750 -0.0193747 3.19123
  662 9.72150 -0.0167806 -3.19495
  663 119.471 -8.31238 21.9119
  664 118.452 14.6847 -53.6401
  665 112.517 3.35315 -19.2163
  666 150.020 26.9979 12.0113
  667 101.235 -4.18252 -1.30293
  668 183.092 33.4128 -0.807279
  669 -9.71705 0.414799 -0.188590
  670 -9.67644 0.413604 0.197094
  671 80.2192 0.0338393 -27.0640
  672 2.50032 -0.107712 0.617232
  673 2.47884 -0.108030 -0.625184
  674 101.315 -8.81480 -16.5248
  675 32.2109 4.54157 -10.7913
  676 31.9395 4.55428 10.7826
  677 -0.261131 1.65423 -0.219752
  678 -0.217116 1.65156 0.237936
  679 85.4042 -7.26600 -2.96889
  680 121.716 -1.18926 -7.49430
  681 56.3321 -1.55436 -0.523442
  682 56.3319 -1.53323 0.528564
  683 40.0318 -1.98560 -3.13107
  684 40.0599 -2.01493 3.11537
  685 7.32253 6.03633 -1.38053
  686 7.45295 6.04697 1.42269
  687 126.647 -1.17750 1.08639
  688 53.8958 -3.31870 4.10468
  689 54.2659 -3.25597 -4.09861
  690 139.662 -11.7035 -3.42573
  691 114.313 -11.4810 -3.93786
  692 89.1973 -2.15922 0.267830
  693 88.8662 -1.98355 -0.217329
  694 126.474 -13.7648 5.33369
  695 206.662 41.4436 9.46908
  696 110.885 -5.56276 -27.6231
  697 127.157 -3.42042 8.10641
  698 125.487 -4.87909 -20.1538
  699 36.7925 -1.06642 -1.40807
  700 36.7872 -1.05659 1.38432
  701 98.2438 -2.26756 31.1478
  702 283.163 35.8869 32.9584
  703 17.6728 5.35723 -5.85688
  704 17.6970 5.39199 5.87680
  705 126.343 -0.875583 -0.564788
  706 127.390 -0.762934 0.572520
  707 52.4225 24.9772 -44.2177
  708 133.540 -0.607248 4.50838
  709 115.360 -1.59717 0.997179
  710 150.399 30.0742 -4.54526
  711 14.0708 2.73778 -4.12208
  712 14.1342 2.71994 4.13793
  713 145.312 -0.226412 0.188236
  714 115.720 -4.16046 -3.74753
  715 144.544 -2.75718 17.2199
  716 57.3221 -3.94362 -6.73787
  717 57.4672 -3.76554 6.66132
  718 10.9256 -0.422287 2.41009
  719 10.8938 -0.416579 -2.41917
  720 132.321 -0.594878 -0.948804
  721 113.650 20.2289 57.1305
  722 0.569141 0.518510 4.14579
  723 0.610431 0.541845 -4.11759
  724 132.325 -1.16294 -2.30271
  725 128.184 -2.07211 3.25535
  726 98.1514 -0.00882582 -12.3740
  727 0.875819 -12.3534 -1.85457
  728 0.813966 -12.4665 1.96832
  729 45.0855 11.7774 -26.7277
  730 101.054 -10.3240 -11.5405
  731 51.9161 24.7888 44.6950
  732 143.161 -0.198660 0.557749
  733 134.617 20.0742 14.5243
  734 95.8781 8.77986 -4.89300
  735 178.272 36.0079 -1.13459
  736 140.830 -0.453526 1.74225
  737 -9.71348 0.210628 0.845431
  738 -9.76540 0.211791 -0.841962
  739 149.254 -9.34890 2.01928
  740 95.2241 -2.36879 0.324830
  741 33.0773 0.145760 -7.51238
  742 33.1174 0.111352 7.46018
  743 128.469 -1.19398 -1.46073
  744 228.149 32.4192 -11.1140
  745 12.3764 -0.397650 -1.44095
  746 12.4014 -0.400151 1.42693
  747 144.152 -0.250899 -0.837481
  748 25.6659 -1.15359 -2.02251
  749 25.6783 -1.15771 2.00191
  750 138.994 -5.99235 -17.5712
  751 128.096 -1.28616 6.11853
  752 113.337 -0.912729 19.0640
  753 144.629 -0.262531 -0.0686612
  754 134.066 -0.747042 1.79553
  755 85.6822 -4.33873 -0.114088
  756 108.722 -2.47985 1.28853
  757 123.413 -7.59660 -13.0671
  758 120.514 -7.46613 8.83165
  759 140.542 16.6459 -18.4077
  760 118.925 -6.48700 6.73043
  761 125.289 -7.53239 16.4981
  762 71.3424 -4.64697 2.43343
  763 2.39871 -1.63011 -0.893435
  764 2.26077 -1.63654 1.02340
  765 110.288 -1.24464 0.0771489
  766 110.047 -1.23219 -0.119283
  767 133.748 -0.312446 -0.120499
  768 134.237 -0.282966 0.153637
  769 125.662 -3.44441 9.79094
  770 116.129 -11.0957 15.4631
  771 94.5328 -7.50449 0.364724
  772 83.5528 -4.72726 0.756087
  773 233.058 30.0061 13.1580
  774 127.549 -3.04928 -6.50701
  775 73.8098 12.1080 -41.6317
  776 118.211 -5.61652 -5.87773
  777 2.98835 0.128033 -2.20106
  778 3.03473 0.123721 2.20300
  779 102.730 9.01374 -10.9856
  780 276.084 8.41519 -3.65712
  781 132.335 3.03973 -21.8469
  782 5.03533 -0.0770301 -9.31566
  783 135.112 24.5480 3.74893
  784 106.429 -6.53074 2.67977
  785 118.891 -3.12070 18.8315
  786 100.509 -10.7733 11.6085
  787 163.944 -2.71925 24.5505
  788 5.42880 1.16053 10.0098
  789 71.9122 -0.595454 20.8148
  790 101.798 -2.23514 -0.694400
  791 113.754 -10.6172 -15.6686
  792 68.3327 -5.21493 -4.72768
  793 53.7849 2.50268 -18.0029
  794 131.393 -2.37894 21.4253
  795 83.4182 -5.48407 1.60005
  796 13.2945 -0.417797 1.33238
  797 13.2781 -0.418465 -1.34790
  798 122.102 -0.639961 6.65131
  799 109.430 0.401007 -18.4486
  800 -10.0388 0.428884 1.31975
  801 -10.0240 0.429592 -1.31161
  802 81.1036 -2.21600 0.0686047
  803 80.8540 -2.07376 -0.0932501
  804 59.8342 6.43993 25.8056
  805 52.4783 -2.95339 2.98955
  806 52.5604 -2.87635 -3.02982
  807 144.152 -0.144333 -0.491452
  808 48.2446 3.78059 17.5001
  809 -1.17365 -0.0428128 0.849506
  810 -1.21797 -0.0417491 -0.854350
  811 120.584 -3.77597 14.6621
  812 131.116 -0.828158 0.774989
  813 -6.99356 0.0602792 1.96585
  814 -6.99401 0.0624079 -1.96201
  815 78.7492 -5.05633 15.2598
  816 14.6109 11.7109 -12.9539
  817 14.7966 11.1106 12.7394
  818 71.0834 3.21695 2.00381
  819 -3.75326 -0.0560271 -0.983246
  820 -3.70147 -0.0567787 0.981512
  821 90.9639 -8.74734 -10.8400
  822 125.387 -13.3446 -5.74308
  823 -0.612999 -0.583814 -0.763859
  824 -0.611288 -0.582538 0.761133
  825 3.22341 0.230890 -0.184931
  826 3.22857 0.232152 0.180398
  827 111.126 -9.80109 4.00682
  828 92.9801 -9.57150 7.18282
  829 103.751 -1.34725 0.520755
  830 92.7121 -7.31183 -0.734960
  831 31.5686 -0.441140 -0.122915
  832 31.5668 -0.426970 0.119552
  833 -11.4691 0.239458 0.827306
  834 -11.4457 0.239113 -0.819410
  835 117.979 -1.15571 -0.754315
  836 101.148 3.86070 -15.6157
  837 119.188 -2.02632 -2.05076
  838 68.4719 -5.11015 4.46939
  839 116.147 -2.10691 -15.3591
  840 125.530 -3.74782 -10.1223
  841 118.487 -0.939060 0.684344
  842 85.1197 -3.51001 21.3817
  843 90.9638 -8.82513 -3.59530
  844 53.8464 -0.392263 -13.5719
  845 54.1521 -0.0170602 13.6427
  846 76.9918 -5.59672 -2.64237
  847 128.580 13.7334 18.6603
  848 123.586 -13.2497 -7.83521
  849 42.0155 -1.22480 -0.671632
  850 42.0069 -1.20316 0.661769
  851 93.6424 -1.74745 -0.164710
  852 93.6437 -1.76544 0.191057
  853 110.461 -0.881739 -9.99516
  854 35.4962 -1.45192 -2.51639
  855 35.5113 -1.46343 2.48873
  856 0.419382 -12.1270 -2.51675
  857 0.395265 -12.1779 2.56439
  858 15.9676 -0.233325 -0.141246
  859 15.9658 -0.239293 0.137222
  860 116.979 -1.46989 -1.06552
  861 87.4309 -8.31687 6.42609
  862 137.860 -12.2548 6.19127
  863 76.4305 1.62504 7.68350
  864 119.582 -2.49503 2.32644
  865 130.145 -11.9094 -11.0093
  866 17.0880 1.22203 -4.86784
  867 17.1385 1.20232 4.86219
  868 103.203 -1.47488 -0.479642
  869 82.1250 -2.54190 -0.207021
  870 81.8236 -2.51494 0.279820
  871 126.591 19.7915 10.1472
  872 42.9921 -0.352846 -9.20326
  873 42.9434 -0.404688 9.15473
  874 88.2562 -7.86581 2.68448
  875 7.77624 5.31261 -1.14220
  876 7.85817 5.30060 1.16404
  877 74.2479 -5.31951 12.2230
  878 89.5859 -5.47897 -0.0642212
  879 111.174 -0.911753 10.1016
  880 110.866 -12.5988 2.84402
  881 127.313 -9.84074 -14.5947
  882 87.2184 -8.38607 -6.53684
  883 71.8846 -4.62449 -2.31188
  884 244.407 20.2727 -3.69150
  885 116.275 -12.3789 3.27365
  886 2.73795 3.55674 1.97595
  887 2.79680 3.56272 -1.94594
  888 100.575 -10.0180 0.826150
  889 110.728 -12.6486 -6.00211
  890 2.77365 3.19505 0.737889
  891 2.82469 3.19511 -0.715368
  892 39.9321 -1.34338 6.83355
  893 39.9642 -1.38885 -6.88268
  894 48.8820 -2.40422 7.52529
  895 48.8698 -2.46603 -7.58799
  896 159.499 32.0849 5.96917
  897 -0.255239 -4.94359 -2.38177
  898 -0.256968 -4.93847 2.38048
  899 35.2451 3.08309 -10.2446
  900 35.0600 3.01822 10.1292
  901 285.935 9.29576 -14.5960
  902 1.89105 -0.0118793 0.330105
  903 1.87707 -0.0128205 -0.336328
  904 0.428442 -14.4119 1.17492
  905 0.506823 -14.1893 -0.986431
  906 -5.29386 -0.0814048 1.98117
  907 -5.29896 -0.0798192 -1.98036
  908 28.1077 8.33202 -12.1497
  909 28.5484 8.05743 11.9595
  910 -2.48720 0.00814175 -4.26948
  911 -2.49869 -0.000678241 4.27691
  912 6.84999 0.792238 -3.06668
  913 6.89793 0.782447 3.06998
  914 30.2416 -0.262446 6.25567
  915 30.2250 -0.261274 -6.29483
  916 24.1633 -0.784557 -5.01335
  917 24.1844 -0.782452 5.00170
  918 139.047 -0.429382 -2.53050
  919 66.2426 13.4704 38.5462
  920 91.9026 -9.00104 3.28291
  921 64.2559 -4.46721 3.47706
  922 125.550 12.7649 -18.3537
  923 281.110 6.10727 5.77370
  924 151.054 6.17970 -18.3130
  925 22.5010 -0.862293 3.06776
  926 22.4819 -0.851793 -3.08313
  927 2.33206 -0.113542 -2.26923
  928 2.37633 -0.114922 2.26781
  929 -0.218054 -2.58460 -4.69697
  930 -0.237610 -2.60350 4.71216
  931 66.4405 -2.69357 1.35797
  932 66.4790 -2.75357 -1.36905
  933 6.88761 2.20279 -2.57451
  934 6.94011 2.19246 2.58958
  935 39.5301 -1.68939 -5.72309
  936 39.5529 -1.68844 5.71642
  937 86.1438 -0.496103 -9.07189
  938 40.6875 -2.15026 -3.83204
  939 40.6516 -2.12349 3.84547
  940 103.892 -2.51617 -0.864543
  941 125.614 -7.34902 -17.6396
  942 52.9543 -1.98291 1.56511
  943 52.9848 -2.00453 -1.59470
  944 -2.24008 -0.251118 -1.36320
  945 -2.23436 -0.251714 1.36052
  946 128.916 -10.6285 -19.4564
  947 122.771 -7.13814 11.4793
  948 107.439 -7.29603 -3.25343
  949 102.586 3.37118 16.4758
  950 45.7689 -2.48737 -4.34257
  951 45.7624 -2.43515 4.35772
  952 115.733 4.23682 20.0849
  953 107.108 9.29810 13.1963
  954 226.961 27.5674 4.65280
  955 114.796 -3.79087 2.90035
  956 58.3934 -1.50920 -0.689263
  957 58.3828 -1.47244 0.697255
  958 102.141 -8.20031 -1.50372
  959 140.806 25.9535 -8.94942
  960 126.678 -1.01916 -1.08854
  961 81.3167 -1.61573 0.216371
  962 81.2824 -1.60053 -0.191903
  963 9.75888 8.03058 -5.11799
  964 10.0189 8.00911 5.16308
  965 19.7772 44.4008 -43.1294
  966 116.460 -2.85033 15.2940
  967 147.087 -3.40501 -15.6046
  968 -3.22060 1.37772 1.18133
  969 -3.18387 1.37710 -1.16348
  970 308.157 70.9391 -57.2830
  971 125.639 -13.8815 2.99896
  972 134.406 -12.9056 -3.71940
  973 123.472 -10.6294 10.7426
  974 151.681 30.1290 3.96243
  975 10.4175 9.74813 -11.9912
  976 27.7624 37.8642 41.9267
  977 -0.862597 -1.88846 4.62773
  978 -0.850437 -1.87459 -4.61979
  979 120.669 -2.75210 2.84092
  980 193.846 34.6540 -3.49057
  981 10.7336 9.48290 12.5265
  982 -0.541579 -1.74925 -1.51571
  983 -0.541755 -1.74473 1.51206
  984 102.892 -1.97793 0.480555
  985 75.6377 -5.90549 -4.90102
  986 124.401 -9.89606 -12.4949
  987 34.0241 9.12140 -16.3927
  988 34.5796 9.27656 16.4367
  989 120.095 -3.00598 -13.7359
  990 122.184 -3.59282 4.90686
  991 -3.50562 0.726575 3.82943
  992 -3.48958 0.734278 -3.81785
  993 72.2092 -4.77177 -11.4314
  994 120.391 7.48326 -20.2816
  995 89.8496 -2.99790 -0.196969
  996 63.4263 -1.54118 0.0631489
  997 63.4156 -1.55438 -0.0555654
  998 -1.41827 -1.60470 -3.21783
  999 -1.42037 -1.60813 3.21571
  1000 123.829 -4.16997 -5.91240
  1001 118.268 -0.905666 0.220475
  1002 118.157 -0.906528 -0.169409
  1003 162.765 25.9481 -13.4159
  1004 27.6850 2.53866 -7.91720
  1005 27.7525 2.48790 7.89414
  1006 16.6789 -0.100730 -4.10660
  1007 16.7086 -0.104262 4.09854
  1008 133.127 6.75732 22.0985
  1009 127.436 -2.09731 -3.41629
  1010 20.8709 3.46825 -6.28782
  1011 20.9546 3.44119 6.31145
  1012 133.828 -0.413615 -0.634440
  1013 123.471 -5.16629 -8.72675
  1014 120.540 -13.8679 -3.66230
  1015 4.14667 3.26369 -0.828356
  1016 4.02087 3.24837 0.884656
  1017 -6.23647 0.907928 2.39117
  1018 -6.21584 0.910239 -2.37773
  1019 68.4184 2.67986 -3.35224
  1020 210.723 51.0321 -11.8994
  1021 94.4271 -6.64941 0.424270
  1022 61.4831 -2.67281 -11.8162
  1023 154.028 -6.99674 3.34957
  1024 61.7279 -2.67496 11.9924
  1025 109.166 -12.8894 7.26370
  1026 123.860 -5.08744 -12.7182
  1027 40.0230 -0.806070 -0.215947
  1028 40.0206 -0.787870 0.213848
  1029 83.6145 -6.35283 -2.09600
  1030 50.2487 -1.80755 -9.02310
  1031 50.2222 -1.82119 8.96734
  1032 16.2316 10.5175 -9.67011
  1033 16.4984 10.4795 9.69806
  1034 33.1181 -0.996889 -0.786085
  1035 33.1143 -0.982269 0.771999
  1036 110.429 -3.12335 1.77778
  1037 92.6709 -0.0846457 -31.5906
  1038 114.583 -3.37460 -2.85387
  1039 102.823 -11.4137 -3.88141
  1040 66.2489 -2.54969 0.863564
  1041 66.3089 -2.57184 -0.868827
  1042 135.670 -0.558636 0.798031
  1043 120.233 -2.50452 -2.67068
  1044 72.6906 1.74764 6.31095
  1045 128.261 -1.24043 -5.68296
  1046 48.5111 13.7288 30.4711
  1047 132.555 -1.16039 -4.70654
  1048 33.0673 5.64062 -12.1252
  1049 32.0288 5.70902 11.5883
  1050 159.291 -3.74130 -4.17279
  1051 13.2244 7.09579 -4.65121
  1052 13.3511 7.04210 4.64706
  1053 2.14839 -0.902441 2.03442
  1054 2.26821 -0.882440 -1.95572
  1055 17.4663 -0.478000 0.981596
  1056 17.4564 -0.481770 -0.997852
  1057 55.4316 13.9193 -33.9714
  1058 319.084 79.7305 61.6044
  1059 123.367 -4.17260 6.06631
  1060 110.153 -12.4740 -2.42953
  1061 75.4852 -6.18258 -8.58650
  1062 -1.99737 1.54840 3.49405
  1063 -1.96872 1.55685 -3.47504
  1064 85.5885 -4.09834 -0.00267387
  1065 94.9105 -3.14593 -0.605439
  1066 -0.0617066 -7.02665 2.31685
  1067 -0.0593119 -7.03233 -2.31588
  1068 13.3844 8.41631 -5.67069
  1069 13.5505 8.39737 5.70718
  1070 84.3889 -3.73198 0.0185138
  1071 5.62467 3.03589 1.35540
  1072 5.57191 3.04084 -1.33519
  1073 130.279 -5.40322 20.4083
  1074 93.7202 -9.74403 -7.14609
  1075 75.9470 -6.28362 8.58449
  1076 123.453 -2.71988 -21.2115
  1077 132.468 -1.16361 2.48794
  1078 46.1656 7.02495 20.0814
  1079 46.5029 6.72772 -19.7336
  1080 75.5105 -3.76163 -16.7999
  1081 108.463 -3.51652 -1.86127
  1082 87.2356 -4.98155 0.544895
  1083 102.845 -9.49731 0.870613
  1084 143.813 -0.395860 -1.38542
  1085 75.1771 -3.17625 0.727771
  1086 75.1438 -3.37920 -0.774882
  1087 2.14407 2.62035 3.12140
  1088 2.20572 2.64040 -3.08663
  1089 124.156 4.32929 -21.8423
  1090 26.4486 1.47409 -6.93357
  1091 26.5182 1.44256 6.90878
  1092 19.3135 0.484947 -4.84970
  1093 19.3539 0.473405 4.83678
  1094 144.329 -7.00666 24.7737
  1095 123.760 -5.65732 12.5874
  1096 59.1016 -2.66040 -9.88879
  1097 146.590 -0.486283 -0.833985
  1098 161.531 30.2662 -10.2615
  1099 132.355 -0.975118 -1.64399
  1100 122.850 -13.3815 5.62725
  1101 90.0645 -7.01510 14.5540
  1102 147.877 -0.0642867 0.204707
  1103 72.5378 2.30669 -5.35830
  1104 103.580 -11.0664 -1.11945
  1105 59.1914 -2.78534 9.76304
  1106 104.585 -9.41469 -1.48136
  1107 131.861 -1.66800 4.40649
  1108 90.5125 5.74536 8.41485
  1109 63.6868 -4.61125 -7.69937
  1110 201.527 26.0248 -8.85351
  1111 149.104 6.12057 19.0578
  1112 108.328 13.6849 2.08671
  1113 145.785 0.128948 0.777815
  1114 54.8591 -3.33050 -5.74288
  1115 37.5990 22.3727 -33.9507
  1116 67.9342 1.61777 -24.3247
  1117 77.9667 -5.82791 3.24130
  1118 65.4290 -4.82545 7.13557
  1119 54.7123 -3.15721 5.81213
  1120 117.773 0.822769 21.1184
  1121 89.2028 -2.75061 0.296004
  1122 143.279 -0.964552 1.80506
  1123 -1.31083 -0.259602 4.67982
  1124 -1.29413 -0.245995 -4.66850
  1125 93.6793 -2.28844 -0.388644
  1126 -0.394544 0.819405 4.39108
  1127 -0.364602 0.836910 -4.37010
  1128 50.8049 -1.43010 0.974406
  1129 50.8132 -1.45758 -0.976177
  1130 133.803 -0.660780 3.91092
  1131 106.836 -6.29137 -2.79290
  1132 99.8465 -5.03897 -1.38164
  1133 112.046 -7.67139 4.85096
  1134 33.1176 16.0375 -24.9957
  1135 110.001 -3.82212 2.27923
  1136 14.5972 0.371957 -3.93816
  1137 14.6352 0.363967 3.93214
  1138 21.9048 13.8594 -17.2135
  1139 177.511 21.8539 8.10450
  1140 10.2318 -0.528331 2.25678
  1141 10.1977 -0.523739 -2.26270
  1142 22.3043 13.6169 16.5713
  1143 100.159 -8.22576 1.09603
  1144 48.9143 -2.15288 2.00044
  1145 48.9276 -2.16504 -2.04430
  1146 207.333 43.5923 -10.1277
  1147 110.713 -11.0736 2.05416
  1148 36.9626 20.8394 33.8610
  1149 2.97911 -2.18103 -2.11535
  1150 3.22561 -2.14254 2.41053
  1151 114.646 14.4179 10.6638
  1152 7.82745 4.54478 -1.28582
  1153 7.89518 4.54496 1.30402
  1154 111.480 -9.59409 -4.17363
  1155 -0.0553616 -10.9464 -2.20870
  1156 -0.0604636 -10.9497 2.21867
  1157 119.360 -10.0436 -7.85785
  1158 -4.43878 0.158237 0.765484
  1159 -4.49023 0.159140 -0.768046
  1160 17.1270 6.55404 -6.24588
  1161 17.2208 6.58133 6.17780
  1162 -8.00276 0.0212109 -0.939224
  1163 -7.94667 0.0207366 0.939684
  1164 120.163 -0.926197 -0.330800
  1165 -12.5467 0.348695 0.334521
  1166 -12.5150 0.348439 -0.327346
  1167 61.4554 -4.73971 -5.47915
  1168 1.58909 -17.4154 -1.04032
  1169 29.0625 -0.778298 1.57236
  1170 29.0578 -0.781944 -1.59535
  1171 101.167 -1.51830 0.0729920
  1172 101.364 -1.46614 -0.0525057
  1173 1.70387 -16.6956 1.39813
  1174 120.295 -6.09844 -7.51647
  1175 138.401 -0.545289 2.94615
  1176 122.076 -7.75537 -10.6815
  1177 104.384 0.699393 16.3540
  1178 0.470953 -4.83802 3.64913
  1179 0.522751 -4.80632 -3.59517
  1180 76.8204 -5.40164 2.43868
  1181 -5.54672 0.445128 3.03730
  1182 -5.53671 0.449009 -3.02879
  1183 204.282 32.8580 1.93873
  1184 243.716 71.1880 -50.1057
  1185 124.908 -12.2562 9.59161
  1186 49.4033 -1.28086 -0.0946899
  1187 49.4024 -1.26157 0.0947259
  1188 261.795 25.3873 -23.1143
  1189 15.8351 -0.419951 2.34809
  1190 15.8088 -0.412839 -2.36041
  1191 115.312 -0.379140 -6.56496
  1192 73.6132 -5.87105 6.23882
  1193 123.584 -12.2208 -7.36501
  1194 119.486 -8.61137 -8.62905
  1195 71.8192 -2.63663 17.6606
  1196 25.6510 4.91000 -8.97618
  1197 25.6319 4.86567 8.91766
  1198 34.4038 12.5928 -21.1101
  1199 34.4401 11.6304 21.1072
  1200 8.97125 2.91859 -2.70087
  1201 9.02831 2.90913 2.71953
  1202 146.628 25.2775 -13.1711
  1203 7.03115 6.31306 -2.15508
  1204 7.20597 6.31852 2.20588
  1205 105.993 -7.92684 2.62910
  1206 202.647 26.9217 10.1978
  1207 22.6887 -0.969673 -1.54769
  1208 22.7002 -0.968998 1.52717
  1209 133.625 84.5455 -77.0624
  1210 96.5458 5.68457 -13.0320
  1211 87.8396 6.84665 5.29088
  1212 11.5931 5.16320 -3.21553
  1213 11.6500 5.16186 3.23593
  1214 -0.500518 -0.0141789 0.564508
  1215 -0.530897 -0.0141455 -0.570608
  1216 117.722 -9.38273 7.35653
  1217 115.994 -4.36252 4.06742
  1218 79.0042 20.7768 -54.2070
  1219 183.287 39.8144 -0.142958
  1220 77.5377 -2.50965 -19.5699
  1221 101.460 -2.74898 0.789647
  1222 1.70871 -0.517469 -0.147812
  1223 1.70833 -0.517187 0.146898
  1224 -3.82342 0.791176 -1.09784
  1225 -3.77726 0.787708 1.10797
  1226 67.1032 0.589348 -20.6069
  1227 126.411 -2.50811 4.29370
  1228 80.9863 1.10937 28.6347
  1229 110.663 -5.19904 -3.35508
  1230 56.3073 19.2163 -42.2066
  1231 88.1503 -4.56039 -21.2226
  1232 105.407 -11.2536 0.515662
  1233 130.038 -1.91023 6.43160
  1234 113.996 -2.00336 -1.36629
  1235 61.1760 -4.43398 5.51688
  1236 143.201 -8.55334 -12.4453
  1237 134.437 11.3488 20.9791
  1238 57.5614 0.244525 -16.0479
  1239 136.637 -0.590715 0.594935
  1240 105.435 13.2552 -2.97085
  1241 44.7422 -1.44225 -1.54679
  1242 44.7282 -1.42424 1.52437
  1243 209.627 45.6559 8.44118
  1244 291.724 7.77790 13.6831
  1245 0.234375 -13.4172 -2.20685
  1246 0.226324 -13.4339 2.22347
  1247 29.3858 15.0617 23.2543
  1248 71.4205 -1.79502 -0.153696
  1249 71.4355 -1.78124 0.181810
  1250 99.2395 -9.92675 -1.40644
  1251 117.256 9.46642 18.3369
  1252 125.524 -2.16501 -2.89160
  1253 147.811 -0.284418 -0.0900929
  1254 256.126 56.1712 -34.7674
  1255 36.6571 -1.32573 1.53176
  1256 36.6591 -1.32958 -1.55946
  1257 119.475 -11.0957 7.61304
  1258 213.245 49.1778 -12.7110
  1259 116.020 -4.79253 -4.54263
  1260 83.5943 -5.61173 -1.36419
  1261 103.519 -11.3022 3.74316
  1262 101.248 -4.77009 1.59941
  1263 3.46529 -0.926831 -3.75380
  1264 139.505 -8.87144 14.4161
  1265 112.527 -7.16276 -4.71735
  1266 3.83612 -0.734238 4.25655
  1267 115.958 -9.78024 -19.7467
  1268 109.891 5.79303 -44.3143
  1269 182.188 21.6675 -6.46542
  1270 148.457 0.0127454 -0.0562223
  1271 148.162 -0.126540 0.145116
  1272 114.557 -6.46909 4.98137
  1273 42.7212 5.09600 -15.7371
  1274 130.717 -11.8671 11.7965
  1275 224.815 50.8052 21.9129
  1276 53.8053 17.7112 41.0571
  1277 1.27671 -0.260570 3.81598
  1278 1.33365 -0.234308 -3.77682
  1279 138.024 -11.7284 -9.74109
  1280 53.2272 -2.77114 -2.42344
  1281 53.2126 -2.77771 2.36510
  1282 127.586 -8.56320 17.0671
  1283 2.73241 0.0650569 2.51720
  1284 2.68778 0.0675485 -2.51770
  1285 -0.758904 -2.74792 3.73683
  1286 -0.754131 -2.74210 -3.73693
  1287 20.0926 -0.698107 -2.14237
  1288 20.1106 -0.702488 2.12441
  1289 65.7188 -4.33843 -8.86055
  1290 65.9722 -1.92371 0.304407
  1291 65.9719 -1.97431 -0.278393
  1292 147.745 0.0126412 -0.0496596
  1293 129.114 -1.86365 -7.20161
  1294 8.71829 0.532475 -3.08052
  1295 8.76191 0.525330 3.07976
  1296 65.9842 -4.59829 8.77121
  1297 149.397 -0.0721149 0.0257332
  1298 140.607 0.0910758 -0.151556
  1299 140.617 0.00815349 0.112525
  1300 184.073 37.6099 4.63606
  1301 136.496 -0.670390 -1.30664
  1302 120.553 -0.851380 0.286519
  1303 133.653 -1.81767 -3.90041
  1304 146.770 -0.362745 0.598128
  1305 150.390 14.9185 18.9042
  1306 174.740 35.6137 6.57520
  1307 141.660 -0.468308 -1.98059
  1308 -1.11505 -0.297372 1.00998
  1309 -1.11935 -0.297128 -1.01289
  1310 76.5093 -4.60168 1.49012
  1311 76.4922 -4.38464 -1.42805
  1312 151.783 16.6037 -18.1256
  1313 30.3765 10.3952 -17.2350
  1314 30.5722 10.0986 17.0298
  1315 99.8648 -0.0205429 -8.17195
  1316 105.309 -1.27077 0.0602970
  1317 105.180 -1.25636 -0.0817095
  1318 -2.62899 -0.493081 3.82016
  1319 -2.62420 -0.486510 -3.81836
  1320 115.691 -0.293178 6.55719
  1321 178.121 35.5103 0.841484
  1322 9.72080 -0.453911 -1.35446
  1323 9.74434 -0.455004 1.34063
  1324 131.766 -12.9429 7.21462
  1325 -0.201452 1.95693 3.63838
  1326 -0.164209 1.96890 -3.61468
  1327 21.3031 -0.471308 -0.400306
  1328 21.3048 -0.462381 0.391210
  1329 99.9011 -0.191860 8.29208
  1330 0.655483 0.238890 -0.193381
  1331 0.664156 0.239802 0.188834
  1332 135.071 -1.35247 2.61022
  1333 186.842 34.4541 1.15554
</Section>

newXOutput 18

<Section columns = "stress_xx | stress_yy | stress_xy">
  1 161.238 -0.321802 0.289306
  2 161.523 -0.451962 -0.376138
  3 -1.04205 0.160602 -0.432166
  4 -0.101027 -0.161083 -0.0952915
  5 303.846 111.914 96.1352
  6 308.544 128.661 -97.2391
  7 -0.0998451 -0.160059 0.0937588
  8 -1.04105 0.159723 0.431091
  9 162.410 -0.220891 -0.266984
  10 161.071 -0.480162 -0.371612
  11 161.108 -0.357317 0.407797
  12 160.153 -0.128220 0.227832
  13 159.707 -0.447903 -0.0279212
  14 159.243 -0.421310 0.743225
  15 156.560 -0.260271 0.762307
  16 157.001 -1.10100 1.07302
  17 151.550 -0.886812 2.21523
  18 147.977 -0.335117 2.64952
  19 143.145 -0.455523 2.83232
  20 134.915 -0.399819 3.87862
  21 126.080 -0.364426 4.46044
  22 115.202 0.538454 6.04595
  23 100.437 0.826231 5.43868
  24 94.6148 -0.111468 7.74265
  25 76.4392 1.10882 5.47720
  26 65.5330 1.49713 4.26641
  27 62.7043 0.634957 3.13665
  28 59.6628 2.16882 0.221081
  29 61.3156 2.37612 -4.18946
  30 64.6919 0.644236 -5.26845
  31 78.1109 0.215515 -7.07227
  32 91.7799 -0.714837 -7.41503
  33 100.970 0.682402 -5.43526
  34 115.372 0.617064 -6.05355
  35 125.728 -0.438197 -4.77333
  36 135.849 -0.482870 -3.67006
  37 142.507 -0.310722 -2.87260
  38 147.508 -0.350114 -2.44882
  39 152.815 -0.499828 -1.44506
  40 155.024 -0.463634 -1.39990
  41 157.147 -0.444984 -1.21876
  42 159.336 -0.520004 -0.303752
  43 160.225 -0.683082 -0.530839
  44 159.372 0.163377 -0.0978220
  45 160.930 -0.311144 -0.451575
  46 161.775 -0.747148 0.404875
  47 162.634 -0.407786 -0.0280806
  48 153.862 0.289556 -0.241784
  49 144.096 -0.306762 -0.466183
  50 133.154 -0.999557 -0.708531
  51 121.928 -0.699578 -0.520979
  52 112.226 -1.40572 -0.481803
  53 102.056 -1.56841 -0.449450
  54 91.8598 -1.33608 -0.252528
  55 81.2031 -1.49443 -0.329263
  56 72.2298 -1.68535 -0.418915
  57 60.3495 -1.65982 -0.355596
  58 48.1582 -0.996947 -0.227678
  59 38.1005 -0.623752 -0.188295
  60 25.7061 -0.392206 -0.106315
  61 16.6954 -0.432653 -0.643999
  62 8.30938 -0.663290 -0.228404
  63 -0.135991 0.0819983 0.359015
  64 -2.26702 0.598821 0.109483
  65 -2.81291 0.247924 0.356249
  66 -2.37851 0.114584 0.334280
  67 -3.94078 0.347541 0.0983341
  68 -4.46700 0.449030 0.723063
  69 -4.50815 0.154838 0.195451
  70 -7.19147 0.325480 0.224320
  71 -8.36199 0.234514 0.678801
  72 -8.65003 0.0881055 0.702401
  73 -11.4982 0.312505 0.510252
  74 -12.4692 0.458868 1.05627
  75 -13.4626 0.278712 0.301998
  76 -14.7741 0.199559 0.518368
  77 -15.1131 0.216393 0.143487
  78 -16.2954 0.500318 -0.436200
  79 -16.2840 0.343302 -0.331721
  80 -14.6959 0.266849 -0.564415
  81 -12.5354 0.333741 -1.01208
  82 -10.0889 0.137430 -1.47678
  83 -7.44860 0.0714266 -1.51627
  84 -4.44641 -0.164895 -1.57707
  85 -1.89683 -0.128451 -0.906827
  86 -0.784608 -0.325581 -0.559876
  87 -0.139014 -0.798615 -0.478505
  88 -0.240970 -2.04043 -0.870622
  89 -0.271014 -4.07707 -1.55081
  90 -0.0665991 -7.67759 -1.69667
  91 0.0815675 -10.7060 -2.15223
  92 0.205948 -15.4429 -1.76613
  93 0.629602 -18.4339 -2.10116
  94 0.0884533 -20.0983 -1.79917
  95 -0.0447754 -23.2807 -1.18445
  96 0.629474 -23.0642 -0.525830
  97 2.50325 -30.0954 0.851293
  98 2.11780 -17.7508 3.31709
  99 5.16450 -10.2758 7.75076
  100 15.9217 20.2544 26.0453
  101 70.7313 81.7189 77.8513
  102 398.470 41.2136 59.5701
  103 329.963 11.5990 21.3530
  104 313.477 4.95494 7.39333
  105 304.133 3.29198 -0.0345160
  106 309.992 4.72484 -6.04415
  107 333.305 9.92295 -17.7531
  108 394.352 32.9919 -55.7469
  109 45.6504 92.8044 -64.3202
  110 11.1580 13.1645 -19.9070
  111 3.79521 -12.8774 -6.30712
  112 1.91776 -19.2920 -2.77116
  113 2.49393 -31.2009 -0.584693
  114 0.604184 -23.5598 0.717755
  115 -0.0811458 -23.5311 1.28516
  116 0.0650468 -20.1969 1.85346
  117 0.617040 -18.4598 2.12436
  118 0.201093 -15.4373 1.77489
  119 0.0778430 -10.6930 2.15564
  120 -0.0684150 -7.66005 1.69597
  121 -0.271292 -4.06572 1.54783
  122 -0.241489 -2.03045 0.867734
  123 -0.138941 -0.794878 0.475906
  124 -0.780095 -0.325187 0.557728
  125 -1.88890 -0.128991 0.904553
  126 -4.43649 -0.166149 1.57585
  127 -7.43746 0.0700854 1.51678
  128 -10.0834 0.135984 1.47950
  129 -12.5397 0.332754 1.01715
  130 -14.7101 0.266813 0.569766
  131 -16.3106 0.343080 0.336864
  132 -16.3321 0.500402 0.441473
  133 -15.1610 0.217003 -0.139053
  134 -14.8301 0.200304 -0.515261
  135 -13.5223 0.279532 -0.299696
  136 -12.5327 0.459814 -1.05566
  137 -11.5627 0.313365 -0.509783
  138 -8.71253 0.0886284 -0.703012
  139 -8.42358 0.235401 -0.680280
  140 -7.24911 0.326747 -0.226389
  141 -4.55716 0.155698 -0.199012
  142 -4.50685 0.449838 -0.728078
  143 -3.97287 0.347711 -0.102824
  144 -2.39900 0.114396 -0.338547
  145 -2.82451 0.247451 -0.359641
  146 -2.27292 0.597964 -0.112463
  147 -0.137268 0.0815024 -0.360707
  148 8.30778 -0.665702 0.226548
  149 16.6933 -0.438999 0.641878
  150 25.7057 -0.403582 0.103636
  151 38.1025 -0.640274 0.186843
  152 48.1591 -1.01621 0.227347
  153 60.3451 -1.67664 0.358012
  154 72.2119 -1.69416 0.424175
  155 81.1710 -1.48507 0.341971
  156 91.8107 -1.29936 0.267459
  157 101.987 -1.48040 0.426208
  158 112.272 -1.42968 0.425826
  159 121.960 -0.854305 0.548676
  160 133.262 -0.970766 0.649273
  161 144.399 -0.222083 0.472380
  162 153.566 0.280886 0.233833
  163 86.5319 -7.74042 -6.05489
  164 86.1650 -7.87932 6.04171
  165 24.9695 7.04477 -9.33273
  166 25.2205 7.07311 9.28578
  167 103.057 -5.33565 25.4655
  168 108.220 -6.00576 -24.7519
  169 48.5259 -2.46078 2.68487
  170 48.5260 -2.43507 -2.73520
  171 110.363 -3.48157 1.29461
  172 108.032 -3.49183 -1.26334
  173 145.773 26.5471 -4.16886
  174 149.690 0.548019 -21.2466
  175 146.499 1.76573 22.5949
  176 33.2437 -1.19628 -6.16310
  177 33.2393 -1.18578 6.14590
  178 129.327 -12.8812 8.38585
  179 129.123 -9.93042 -11.0331
  180 1.32840 2.66724 3.66531
  181 1.38047 2.68472 -3.63491
  182 176.599 35.7113 7.55108
  183 32.8143 14.4294 -22.3606
  184 35.3102 14.5813 24.0953
  185 125.204 -5.58499 5.50421
  186 188.242 38.9131 -4.82724
  187 79.5933 -2.58545 -0.474566
  188 79.4555 -2.66282 0.464568
  189 129.003 -3.78100 -4.96346
  190 173.134 -2.27790 -0.146159
  191 28.8860 -0.842201 0.966116
  192 28.8833 -0.850927 -0.985493
  193 12.0291 1.74565 -3.95459
  194 12.0865 1.72777 3.96295
  195 70.8865 -2.75580 -15.4937
  196 70.6053 -2.91425 15.7017
  197 85.0424 -5.29254 -1.59791
  198 85.2157 -5.26246 1.76605
  199 20.0456 -0.698353 3.17897
  200 20.0197 -0.687996 -3.18932
  201 171.375 -4.33567 9.08724
  202 138.897 -14.0065 -4.56327
  203 132.749 -0.993607 -0.907878
  204 129.601 -1.25992 0.947961
  205 128.684 15.0268 15.6738
  206 5.11725 3.93301 -0.879358
  207 5.31763 3.91944 0.967613
  208 129.617 -5.30842 18.2964
  209 117.605 8.89068 -17.7045
  210 85.0302 17.9475 -53.7040
  211 89.4111 15.1283 49.8400
  212 1.35679 2.77715 0.265892
  213 1.40509 2.77577 -0.243570
  214 129.105 -4.70682 -18.8584
  215 228.203 32.2877 -1.98025
  216 107.370 -11.8275 8.20894
  217 108.227 -11.7520 -7.69020
  218 107.331 -7.44319 -1.71983
  219 134.725 -1.81229 2.74069
  220 63.0522 -4.21400 -5.20162
  221 62.0042 -4.19478 5.39869
  222 37.2544 0.855042 -9.55569
  223 37.3034 0.839219 9.46208
  224 137.671 -14.8862 0.120100
  225 106.399 -7.93369 1.26835
  226 134.273 -1.74837 -2.23152
  227 103.349 -2.26053 0.376054
  228 104.301 -2.07534 -0.171025
  229 131.574 -5.76578 10.9209
  230 9.43083 0.155997 -3.38480
  231 9.47366 0.150817 3.38204
  232 -1.77510 -1.23058 -4.54978
  233 -1.78366 -1.24080 4.55380
  234 17.3731 -0.808489 -1.79446
  235 17.3928 -0.810421 1.77570
  236 53.4290 -1.42563 1.16577
  237 53.4466 -1.45625 -1.17833
  238 62.7155 4.20871 -23.1651
  239 62.7217 3.48705 22.8915
  240 133.587 -4.01621 -9.33541
  241 61.0663 -3.50039 -8.98566
  242 61.1136 -3.61005 8.83540
  243 115.588 1.64279 19.9254
  244 99.4382 8.61701 1.19797
  245 114.134 -11.3159 -1.75554
  246 0.370556 -3.19142 -4.37585
  247 0.332575 -3.22069 4.40910
  248 6.87939 6.02382 -7.00790
  249 7.34460 5.75913 7.42607
  250 112.169 -11.0619 0.987755
  251 205.473 36.4741 0.189776
  252 9.74084 6.74013 -2.51828
  253 9.86461 6.73500 2.55645
  254 -4.68381 0.879517 3.26916
  255 -4.66219 0.884016 -3.25444
  256 206.861 33.8633 0.866718
  257 69.7406 -3.14953 -1.71798
  258 69.6826 -3.09273 1.66641
  259 139.904 -9.69232 17.4617
  260 256.842 41.6568 25.0580
  261 39.7517 -2.03917 -4.98076
  262 39.7366 -2.05355 4.97230
  263 141.194 21.0674 -15.2688
  264 247.223 46.7057 -22.3422
  265 171.126 16.1827 15.8276
  266 188.355 9.20639 -32.7466
  267 114.340 -5.11418 2.64864
  268 129.189 0.384323 -22.6321
  269 123.324 -8.55896 -6.70862
  270 138.145 -2.30224 5.99389
  271 -1.08446 1.30346 -0.943975
  272 -1.03659 1.29904 0.959365
  273 137.034 -5.49352 -32.1498
  274 13.4181 4.38749 -3.88551
  275 13.4845 4.37833 3.90892
  276 131.590 -3.15393 -11.6490
  277 18.1948 17.2824 -23.1250
  278 12.6045 -0.0422665 -0.401867
  279 12.6096 -0.0386912 0.393920
  280 139.292 -8.91662 -18.1442
  281 23.4011 10.5048 -11.9623
  282 23.7467 10.4420 11.9946
  283 4.78852 -0.189392 2.39111
  284 4.74450 -0.186721 -2.39455
  285 114.190 -4.82388 -2.56704
  286 18.3124 17.0826 23.7956
  287 185.298 11.2136 38.7870
  288 47.5714 -1.77912 -1.53017
  289 47.5569 -1.76565 1.50000
  290 90.3961 -3.43419 -0.209990
  291 90.3490 -3.75094 0.304041
  292 77.1399 6.99406 -35.9099
  293 125.742 -13.8710 -3.55114
  294 145.019 -0.648692 1.24242
  295 74.2295 6.95118 34.6695
  296 86.3943 -2.01243 -0.0347582
  297 86.3599 -2.01001 0.113239
  298 123.507 -8.93030 6.84157
  299 143.318 -1.31614 -2.94796
  300 -2.40614 0.545839 -1.74418
  301 -2.35419 0.541815 1.75071
  302 178.047 35.7625 -2.25087
  303 157.199 -7.88645 10.4130
  304 142.977 -0.463901 -0.370319
  305 145.629 -0.397613 0.335308
  306 141.457 -13.0173 10.4423
  307 174.644 17.2753 -14.9694
  308 150.527 28.1305 9.05711
  309 66.4877 -3.92666 -3.04366
  310 65.8515 -4.00265 3.11868
  311 144.910 -0.613526 -0.895053
  312 93.0948 -7.20140 -17.0722
  313 91.3808 -7.05125 2.12060
  314 87.1475 -4.93142 19.6528
  315 141.925 -1.50717 3.48334
  316 29.5010 -1.34862 -3.05803
  317 29.5158 -1.35896 3.04036
  318 130.325 -5.17695 31.7885
  319 81.1086 -6.28491 -3.78510
  320 150.925 19.0451 19.3183
  321 46.8245 3.32701 -14.6289
  322 45.0229 3.47389 14.4912
  323 10.9345 -0.266191 -0.733444
  324 10.9484 -0.264134 0.720745
  325 124.903 -2.17745 1.77997
  326 119.680 -1.31967 0.360052
  327 118.978 -1.48132 -0.404057
  328 130.490 -3.32575 12.3145
  329 8.63213 -0.380554 1.73567
  330 8.59686 -0.376718 -1.74640
  331 35.5003 -0.781000 -0.606407
  332 35.4970 -0.765395 0.597913
  333 1.13022 -6.59659 -2.71220
  334 1.04818 -6.64319 2.80988
  335 98.6557 4.21078 13.4251
  336 158.783 -7.56882 -8.88361
  337 101.446 -5.11384 1.20239
  338 115.531 -1.95418 -1.08890
  339 118.244 14.7877 -8.36370
  340 21.5213 -0.660236 -4.52722
  341 21.5461 -0.660395 4.52041
  342 98.5230 -4.80107 -0.660706
  343 26.3775 1.02063 -6.58160
  344 26.4255 0.996535 6.55514
  345 4.69552 4.37916 0.627048
  346 4.76008 4.37722 -0.600544
  347 120.663 -13.2019 10.8865
  348 273.604 18.1559 6.97114
  349 104.703 1.45085 -15.9383
  350 88.7707 -7.97981 10.0293
  351 88.3162 -7.82733 -10.3684
  352 131.673 -2.43242 22.4875
  353 115.978 -0.929080 15.8588
  354 119.032 -12.7678 -11.2879
  355 69.2691 -1.51539 -0.0747430
  356 69.2596 -1.53769 0.0926559
  357 131.693 -8.62449 14.2454
  358 180.211 36.2184 1.51739
  359 142.488 -1.44034 -4.43684
  360 33.8600 -1.26306 -2.14099
  361 33.8689 -1.26376 2.11320
  362 133.678 -13.1588 -13.7669
  363 139.082 9.43094 -22.5644
  364 90.0790 4.86773 -8.58552
  365 132.559 -8.93368 -16.1543
  366 -4.43794 0.102434 -3.52132
  367 -4.44299 0.0973769 3.52590
  368 111.392 -2.28326 0.840554
  369 -1.58722 -0.952070 -2.03498
  370 -1.58554 -0.952480 2.03109
  371 86.6999 40.1837 -65.7472
  372 3.04544 2.59526 2.75113
  373 3.13011 2.61701 -2.70642
  374 115.009 -0.982543 -15.7230
  375 62.6202 -2.48916 1.28104
  376 62.6705 -2.52696 -1.30210
  377 -0.490292 -4.79810 3.99950
  378 -0.483064 -4.78928 -3.99500
  379 70.0306 42.2641 61.7570
  380 50.9992 -2.64240 -6.89004
  381 51.0348 -2.52075 6.89504
  382 15.9852 11.5008 -10.9301
  383 16.3336 11.4597 10.8571
  384 -7.14182 0.971688 1.49018
  385 -7.11249 0.972989 -1.47478
  386 133.883 8.69769 22.4755
  387 102.907 -10.7637 4.07368
  388 103.016 -9.28918 0.921350
  389 125.636 -14.4229 -0.246407
  390 29.9808 3.87539 -9.32609
  391 30.0796 3.86635 9.30695
  392 2.60545 -5.11109 -0.357643
  393 2.45416 -5.17313 0.573154
  394 124.919 17.9765 5.56376
  395 128.570 -3.40946 4.13580
  396 71.8410 -5.49192 6.18169
  397 43.6244 -1.02814 -8.38786
  398 43.6350 -1.03581 8.31318
  399 92.5734 -2.47763 0.112569
  400 92.4670 -2.12741 -0.191697
  401 71.2261 -5.64912 -6.62998
  402 55.2849 -0.888998 -11.5993
  403 55.2704 -0.967347 11.6963
  404 133.646 -12.3743 -10.5286
  405 76.1534 -5.71931 3.59632
  406 121.743 -3.40656 2.69229
  407 121.552 -3.06506 -2.31385
  408 101.055 -9.21470 -1.29921
  409 147.945 -0.439184 -1.30581
  410 48.0568 18.8593 -36.2246
  411 137.711 -1.87837 7.18212
  412 147.337 -0.585111 1.86558
  413 49.9417 -2.58937 3.95355
  414 49.9706 -2.55242 -3.95006
  415 102.434 -10.6327 -4.25714
  416 13.6678 6.31154 4.16312
  417 13.5924 6.30838 -4.16975
  418 276.570 18.1413 -14.3272
  419 119.003 -6.57135 -4.14539
  420 149.298 -0.311328 0.753365
  421 45.2755 17.5128 34.3922
  422 218.892 37.0677 6.43939
  423 128.504 -1.62547 -1.44119
  424 94.6288 -6.68221 -0.925090
  425 38.4993 7.44953 -16.6113
  426 41.0905 6.91687 16.5120
  427 117.483 -7.25364 4.22383
  428 123.604 -1.61898 -11.7607
  429 -2.82944 -0.0960491 1.77660
  430 -2.88256 -0.0947138 -1.77636
  431 43.7788 10.4153 -22.6386
  432 43.9158 10.4561 22.5655
  433 4.23880 2.45446 -1.54847
  434 4.29184 2.44850 1.56765
  435 105.263 -1.66117 0.374081
  436 105.136 -1.60695 -0.336265
  437 131.338 -5.90602 -11.4008
  438 -0.538286 -0.603627 5.04198
  439 -0.515113 -0.583830 -5.02445
  440 135.484 -13.5318 9.43476
  441 128.453 -3.15396 -3.69732
  442 207.866 39.9150 -5.03706
  443 5.29645 -0.352667 0.788946
  444 5.26832 -0.352765 -0.800116
  445 252.898 69.6004 29.6835
  446 4.73616 -0.117442 -6.36539
  447 13.7144 0.781932 -4.36234
  448 13.7607 0.770044 4.35912
  449 251.780 71.0487 -28.0242
  450 5.01981 0.440037 7.10143
  451 -7.10872 0.780843 0.619348
  452 -7.07133 0.779435 -0.605014
  453 13.0295 8.88534 -6.05553
  454 13.2641 8.88446 6.09100
  455 161.430 24.9315 -16.3649
  456 130.095 -4.90602 -7.57298
  457 148.444 -0.363539 -0.683742
  458 135.741 -2.01665 -8.37257
  459 -1.84851 0.840670 4.64187
  460 -1.82505 0.853199 -4.62562
  461 131.403 -5.14722 8.70432
  462 84.0691 -4.49943 -1.22031
  463 83.7988 -4.55007 0.923303
  464 115.413 -12.7653 -0.635698
  465 81.6096 -1.32519 -24.3641
  466 124.970 -1.94547 12.0404
  467 102.589 -2.97997 -0.504811
  468 152.307 -11.9805 -0.0613322
  469 78.9974 0.469003 26.1956
  470 3.67947 -0.0865787 1.71299
  471 3.63538 -0.0842382 -1.71850
  472 165.484 32.8024 -7.69644
  473 134.167 -0.680098 0.161449
  474 133.688 -0.810405 -0.288886
  475 99.6073 -6.43536 -0.201704
  476 41.4580 -1.32567 -1.15012
  477 41.4497 -1.30748 1.13122
  478 24.0216 -0.216543 -5.37555
  479 24.0462 -0.221330 5.36047
  480 80.2965 3.13242 5.11055
  481 18.7435 -0.643206 2.53161
  482 18.7197 -0.636610 -2.54813
  483 21.2033 2.17397 6.03529
  484 21.1328 2.20609 -6.03251
  485 128.901 -9.95168 10.6297
  486 70.8149 -4.38713 -10.8217
  487 64.8189 -1.88507 0.581194
  488 64.8465 -1.93992 -0.583638
  489 71.5805 -4.52887 10.8140
  490 202.548 47.4220 -2.17610
  491 -3.24370 -0.509281 -2.67414
  492 -3.24239 -0.511787 2.67299
  493 48.3726 -1.22418 -0.461936
  494 48.3677 -1.20169 0.459111
  495 0.0250938 -8.94387 -3.44559
  496 0.00413921 -8.97236 3.47450
  497 117.988 -1.40370 0.675168
  498 79.7246 3.88389 -2.55122
  499 109.938 11.6018 7.46405
  500 70.4906 -0.746618 -19.1758
  501 32.9269 -1.67220 3.86565
  502 32.9290 -1.65764 -3.87549
  503 -10.1166 0.306439 -0.491908
  504 -10.0661 0.304682 0.498111
  505 138.889 -2.87570 -22.5207
  506 7.99388 0.0887205 -0.554398
  507 8.00357 0.0905803 0.545330
  508 115.623 -8.96941 -3.70323
  509 123.413 -10.4436 -6.62100
  510 24.3497 17.9066 -23.9693
  511 103.583 2.21805 -39.1948
  512 0.795733 2.94431 2.54318
  513 0.843828 2.94988 -2.51699
  514 61.6635 -2.69321 -1.99852
  515 61.6276 -2.66507 1.94061
  516 180.056 6.30089 -6.48089
  517 128.441 -7.47098 -9.60522
  518 23.7161 16.8535 23.6102
  519 127.298 -14.6195 2.21435
  520 122.231 -11.5935 5.43882
  521 23.3532 -0.556115 -1.64721
  522 23.3626 -0.553295 1.62665
  523 97.5221 0.987121 12.3176
  524 71.2124 -5.12288 -3.88803
  525 136.082 -2.80171 5.52688
  526 -0.575330 -3.29416 -2.58656
  527 -0.576751 -3.29208 2.58327
  528 94.1239 -8.41894 12.1793
  529 144.813 -11.4158 -12.4738
  530 190.731 11.5466 -4.34915
  531 101.277 -3.10796 0.598860
  532 27.5074 -0.474115 -0.495994
  533 27.5072 -0.462734 0.490408
  534 63.1814 0.468775 18.4217
  535 180.802 29.3748 12.0275
  536 186.763 32.4605 -62.7838
  537 164.947 0.125498 12.3216
  538 117.784 -13.1340 -0.0162382
  539 285.607 22.6965 19.1158
  540 208.142 49.1038 3.67610
  541 27.0439 -1.10139 4.24348
  542 27.0280 -1.08968 -4.25401
  543 113.100 -9.24133 2.99903
  544 7.52744 3.94644 -1.30138
  545 7.58832 3.94313 1.32443
  546 143.001 -12.1673 12.4449
  547 114.431 6.05842 18.3081
  548 144.785 -0.813088 3.05161
  549 105.689 -6.09692 1.66919
  550 150.355 -0.210557 -41.3099
  551 241.386 58.1859 39.3202
  552 115.267 -1.88938 -0.632800
  553 141.834 -1.33202 -4.81099
  554 21.1069 8.91595 -8.74759
  555 21.2624 8.80682 8.70033
  556 79.3929 -2.92678 -0.732605
  557 79.3533 -2.84800 0.757120
  558 0.842111 -11.7382 -0.611262
  559 144.032 -5.47096 20.3260
  560 4.95739 4.62565 1.20323
  561 5.04278 4.63712 -1.16420
  562 0.997655 -11.3903 0.914607
  563 130.663 -6.00446 -16.2562
  564 150.621 9.06413 -21.9443
  565 149.993 10.3168 21.9216
  566 6.78723 5.11131 4.41689
  567 6.42859 5.26077 -4.29917
  568 -5.79328 0.154012 1.30849
  569 -5.84873 0.155445 -1.30643
  570 139.772 2.19539 42.6899
  571 74.4356 -3.92632 1.82718
  572 74.5153 -3.91182 -1.88376
  573 169.198 -4.39648 -20.7608
  574 18.7132 -0.245857 0.959405
  575 18.7070 -0.250987 -0.973092
  576 6.71075 -0.257203 -0.234337
  577 6.71373 -0.255460 0.231176
  578 184.505 32.5803 -10.2157
  579 17.0142 22.0982 -26.7180
  580 92.8063 1.78359 -10.4073
  581 134.037 21.5447 -9.54401
  582 1.76951 -0.569826 3.42564
  583 1.85076 -0.542410 -3.37123
  584 141.058 58.9243 74.3676
  585 116.956 -2.91042 -1.67473
  586 2.82567 1.20497 -2.07055
  587 2.87717 1.19623 2.08163
  588 135.010 -10.9912 14.4097
  589 20.1857 21.3329 27.2039
  590 96.6630 -1.66377 0.0100352
  591 96.6879 -1.64639 -0.0104634
  592 -0.139649 -7.03879 3.50567
  593 -0.129161 -7.02708 -3.49420
  594 165.041 32.5174 -0.264069
  595 104.926 -8.69569 17.8227
  596 99.9764 -3.96354 0.585701
  597 101.038 3.81493 41.3978
  598 -8.56904 0.404034 2.15100
  599 -8.56021 0.406195 -2.14295
  600 167.088 1.29045 -13.1643
  601 226.410 34.0647 -27.3632
  602 61.9101 6.08507 -27.0212
  603 32.0923 -1.29803 -5.22157
  604 32.1185 -1.29762 5.22007
  605 152.416 -0.367535 0.918167
  606 98.9348 -4.05778 -0.720179
  607 134.536 -1.52316 2.06971
  608 130.682 -5.99024 15.8891
  609 2.64631 -0.204168 0.826373
  610 2.60980 -0.203238 -0.834771
  611 76.1725 -2.38428 -0.400564
  612 76.1598 -2.30845 0.376103
  613 46.8677 1.09209 -11.9893
  614 46.5502 1.10496 11.9269
  615 192.076 9.32465 8.82509
  616 318.957 24.0256 -35.0449
  617 -4.49810 -0.179614 1.16247
  618 -4.55409 -0.178955 -1.16295
  619 43.4604 -1.75748 2.16211
  620 43.4629 -1.75593 -2.20004
  621 178.005 8.43448 8.91213
  622 150.945 -0.325858 -0.292281
  623 150.591 -0.568368 0.146584
  624 104.846 -0.109043 12.2249
  625 156.546 -10.0560 -12.0514
  626 82.9943 -6.69747 4.67576
  627 -2.49754 1.82225 -2.27316
  628 -2.53348 1.81986 2.29356
  629 134.150 2.46983 23.4498
  630 51.6052 -2.88273 -5.38653
  631 51.5468 -2.93326 5.39761
  632 109.618 -6.08438 -2.08151
  633 136.798 -2.76550 -5.01645
  634 76.2310 -6.00838 -7.56454
  635 125.166 15.0906 -14.2271
  636 84.7673 -5.91456 -14.3391
  637 28.6973 -0.750591 -0.813959
  638 28.6973 -0.740165 0.799770
  639 77.0591 -6.12485 7.58322
  640 168.661 26.6794 15.0165
  641 133.668 -6.66988 19.9912
  642 109.464 -4.55949 1.83887
  643 77.0356 -1.75119 0.374166
  644 77.0157 -1.75658 -0.358749
  645 57.1055 -1.95827 -1.48752
  646 57.0794 -1.93336 1.46591
  647 129.083 -11.8921 -8.86081
  648 63.5029 -3.43238 2.63595
  649 63.5781 -3.41909 -2.70700
  650 127.091 19.7963 -1.92563
  651 119.235 -6.01653 4.14362
  652 151.397 -0.568150 -1.38391
  653 125.647 -2.47018 -20.5209
  654 16.0162 -0.738316 3.39777
  655 15.9854 -0.732821 -3.40317
  656 147.147 -0.672906 -2.75605
  657 24.8685 12.6853 -16.5986
  658 25.3037 12.6481 16.6815
  659 149.688 -9.91923 17.4717
  660 49.8357 12.1816 28.4483
  661 10.4330 -0.0225936 3.40827
  662 10.3945 -0.0198331 -3.41215
  663 126.828 -8.80355 23.3124
  664 125.722 15.6594 -56.9897
  665 119.523 3.56787 -20.3559
  666 159.296 28.6716 12.6908
  667 107.492 -4.45338 -1.35440
  668 194.373 35.4534 -0.856789
  669 -10.2830 0.440483 -0.208815
  670 -10.2398 0.439218 0.217878
  671 85.1970 0.0476131 -28.7796
  672 2.76854 -0.114893 0.659497
  673 2.74536 -0.115230 -0.667927
  674 107.577 -9.34996 -17.5912
  675 34.2497 4.82472 -11.4998
  676 33.9616 4.83834 11.4906
  677 -0.242752 1.75775 -0.252191
  678 -0.195915 1.75493 0.271568
  679 90.7074 -7.72158 -3.19218
  680 129.247 -1.26324 -7.93479
  681 59.8772 -1.66006 -0.560474
  682 59.8772 -1.63766 0.565913
  683 42.5779 -2.11453 -3.34882
  684 42.6080 -2.14570 3.33222
  685 7.79780 6.42773 -1.49859
  686 7.93640 6.43915 1.54347
  687 134.414 -1.26242 1.14071
  688 57.2852 -3.53157 4.38878
  689 57.6777 -3.46499 -4.38239
  690 148.247 -12.4054 -3.57027
  691 121.368 -12.1902 -4.13011
  692 94.7261 -2.30731 0.271393
  693 94.3751 -2.12094 -0.218000
  694 134.260 -14.5989 5.71893
  695 219.337 43.9940 10.1057
  696 117.721 -5.88397 -29.3730
  697 134.988 -3.63594 8.57250
  698 133.244 -5.17417 -21.3357
  699 39.1490 -1.13812 -1.50877
  700 39.1436 -1.12771 1.48359
  701 104.313 -2.38708 33.1148
  702 300.331 38.0785 34.9709
  703 18.8073 5.69334 -6.25531
  704 18.8333 5.73031 6.27658
  705 134.087 -0.942576 -0.592556
  706 135.196 -0.822513 0.600776
  707 55.6828 26.5854 -47.0036
  708 141.751 -0.648864 4.76844
  709 122.457 -1.71003 1.04351
  710 159.713 31.9260 -4.79876
  711 14.9880 2.90744 -4.40738
  712 15.0554 2.88851 4.42432
  713 154.173 -0.245240 0.197188
  714 122.849 -4.42815 -3.94692
  715 153.440 -2.90835 18.2036
  716 60.9156 -4.19350 -7.19123
  717 61.0698 -4.00448 7.11005
  718 11.6882 -0.450024 2.57423
  719 11.6541 -0.443959 -2.58382
  720 140.421 -0.642669 -0.997989
  721 120.626 21.5440 60.6906
  722 0.613676 0.563437 4.38680
  723 0.657546 0.588280 -4.35683
  724 140.438 -1.24409 -2.42797
  725 136.054 -2.20987 3.43351
  726 104.301 -0.00653904 -13.1118
  727 0.932741 -13.0883 -1.95634
  728 0.867041 -13.2085 2.07717
  729 47.9094 12.5251 -28.4293
  730 107.303 -10.9562 -12.2997
  731 55.1494 26.3833 47.5088
  732 151.901 -0.216817 0.586705
  733 142.966 21.3207 15.3684
  734 101.908 9.32844 -5.18410
  735 189.256 38.2227 -1.15447
  736 149.449 -0.486503 1.83902
  737 -10.2623 0.223354 0.905031
  738 -10.3176 0.224588 -0.901318
  739 158.412 -9.89454 2.21313
  740 101.116 -2.52985 0.328675
  741 35.1782 0.151451 -8.01259
  742 35.2210 0.114905 7.95729
  743 136.346 -1.27892 -1.53628
  744 242.096 34.3957 -11.8158
  745 13.2363 -0.424085 -1.54214
  746 13.2632 -0.426746 1.52730
  747 152.953 -0.271546 -0.882933
  748 27.3392 -1.22881 -2.16403
  749 27.3526 -1.23320 2.14222
  750 147.554 -6.34717 -18.5812
  751 135.997 -1.36763 6.47522
  752 120.384 -0.964232 20.1934
  753 153.450 -0.284066 -0.0703252
  754 142.278 -0.802954 1.89203
  755 91.0017 -4.61844 -0.151022
  756 115.424 -2.64710 1.34763
  757 131.028 -8.06588 -13.8210
  758 127.945 -7.93081 9.32978
  759 149.233 17.6861 -19.4742
  760 126.255 -6.89386 7.10376
  761 133.024 -7.99426 17.4575
  762 75.7936 -4.94379 2.61534
  763 2.55484 -1.69851 -0.924205
  764 2.40831 -1.70543 1.06229
  765 117.078 -1.33719 0.0789498
  766 116.823 -1.32400 -0.123632
  767 141.928 -0.342585 -0.126241
  768 142.446 -0.311402 0.161337
  769 133.412 -3.66004 10.3589
  770 123.287 -11.7654 16.4667
  771 100.389 -7.97567 0.427089
  772 88.7438 -5.03070 0.832601
  773 247.293 31.8325 13.9792
  774 135.397 -3.24391 -6.87706
  775 78.3873 12.8847 -44.2477
  776 125.496 -5.97110 -6.20181
  777 3.23354 0.134690 -2.35468
  778 3.28297 0.130111 2.35681
  779 109.167 9.57749 -11.6384
  780 292.798 8.92287 -3.87643
  781 140.516 3.23882 -23.1259
  782 5.35611 0.0349291 -9.93236
  783 143.506 26.0636 3.96567
  784 113.003 -6.94308 2.80739
  785 126.260 -3.30972 19.9426
  786 106.725 -11.4327 12.3720
  787 173.968 -2.82471 26.1236
  788 5.77464 1.34891 10.6701
  789 76.3872 -0.626852 22.1447
  790 108.083 -2.38815 -0.720920
  791 120.770 -11.2582 -16.6849
  792 72.5992 -5.54459 -5.05606
  793 57.1503 2.66147 -19.1601
  794 139.508 -2.51578 22.6790
  795 88.6014 -5.83255 1.73375
  796 14.2181 -0.445411 1.42392
  797 14.2004 -0.446116 -1.44037
  798 129.657 -0.680707 7.04177
  799 116.247 0.430467 -19.5444
  800 -10.6467 0.455820 1.39643
  801 -10.6310 0.456577 -1.38777
  802 86.1454 -2.36662 0.0583344
  803 85.8809 -2.21570 -0.0845578
  804 63.5665 6.85001 27.4463
  805 55.7836 -3.14401 3.20079
  806 55.8706 -3.06221 -3.24351
  807 152.950 -0.158405 -0.517018
  808 51.2696 4.01903 18.6268
  809 -1.14835 -0.0456640 0.907817
  810 -1.19573 -0.0445356 -0.912940
  811 128.047 -4.00830 15.5236
  812 139.145 -0.889980 0.814437
  813 -7.42247 0.0648247 2.08505
  814 -7.42297 0.0670893 -2.08097
  815 83.6432 -5.36683 16.2461
  816 15.5414 12.4772 -13.8051
  817 15.7387 11.8400 13.5773
  818 75.6256 3.41934 2.12414
  819 -3.89942 -0.0603770 -1.05035
  820 -3.84415 -0.0611763 1.04853
  821 96.6017 -9.28594 -11.5544
  822 133.112 -14.1606 -6.03853
  823 -0.651195 -0.620135 -0.811729
  824 -0.649373 -0.618776 0.808828
  825 3.54445 0.244371 -0.198309
  826 3.55033 0.245707 0.193503
  827 117.987 -10.4097 4.20697
  828 98.7420 -10.1630 7.67162
  829 110.152 -1.44627 0.543052
  830 98.4581 -7.77131 -0.819465
  831 33.6118 -0.473451 -0.132882
  832 33.6102 -0.458427 0.129320
  833 -12.1594 0.254017 0.873244
  834 -12.1345 0.253652 -0.864840
  835 125.228 -1.24142 -0.791134
  836 107.481 4.10586 -16.5463
  837 126.516 -2.16424 -2.15717
  838 72.7472 -5.43374 4.78140
  839 123.352 -2.23553 -16.2665
  840 133.272 -3.98220 -10.7092
  841 125.766 -1.01150 0.717530
  842 90.3988 -3.71878 22.7465
  843 96.6039 -9.37470 -3.86015
  844 57.2196 -0.417233 -14.4529
  845 57.5442 -0.0185735 14.5284
  846 81.7853 -5.95168 -2.83971
  847 136.557 14.5914 19.7540
  848 131.197 -14.0529 -8.37287
  849 44.6918 -1.30737 -0.721340
  850 44.6829 -1.28442 0.710891
  851 99.4378 -1.87084 -0.166013
  852 99.4392 -1.88992 0.193854
  853 117.336 -0.935077 -10.5873
  854 37.7686 -1.54712 -2.69191
  855 37.7848 -1.55937 2.66261
  856 0.446561 -12.8599 -2.66481
  857 0.420945 -12.9139 2.71541
  858 17.0638 -0.249766 -0.147741
  859 17.0616 -0.256095 0.143477
  860 124.171 -1.57470 -1.11734
  861 92.8564 -8.83370 6.86627
  862 146.338 -12.9938 6.50573
  863 81.2897 1.72729 8.14454
  864 126.935 -2.66115 2.44790
  865 138.162 -12.6352 -11.6245
  866 18.2004 1.29606 -5.19827
  867 18.2542 1.27513 5.19237
  868 109.571 -1.58176 -0.500103
  869 87.2287 -2.71242 -0.238139
  870 86.9092 -2.68386 0.315478
  871 134.464 21.0187 10.7403
  872 45.7024 -0.377950 -9.81079
  873 45.6510 -0.433001 9.75940
  874 93.7325 -8.35812 2.89097
  875 8.28588 5.65068 -1.24287
  876 8.37299 5.63797 1.26617
  877 78.8697 -5.64945 13.0209
  878 95.1419 -5.82784 -0.102075
  879 118.091 -0.966941 10.7000
  880 117.711 -13.3725 3.07017
  881 135.164 -10.4428 -15.4332
  882 92.6306 -8.90715 -6.98372
  883 76.3687 -4.92001 -2.48576
  884 259.300 21.5003 -3.91945
  885 123.449 -13.1408 3.42275
  886 2.92806 3.78558 2.07585
  887 2.99063 3.79198 -2.04391
  888 106.797 -10.6401 0.922421
  889 117.564 -13.4231 -6.42276
  890 2.97263 3.39719 0.760920
  891 3.02692 3.39728 -0.736934
  892 42.4603 -1.43138 7.29043
  893 42.4941 -1.47962 -7.34248
  894 51.9580 -2.55807 8.02735
  895 51.9449 -2.62366 -8.09378
  896 169.357 34.0636 6.29060
  897 -0.270325 -5.24874 -2.52809
  898 -0.272160 -5.24327 2.52671
  899 37.4736 3.27410 -10.9179
  900 37.2773 3.20528 10.7956
  901 303.228 9.85641 -15.4733
  902 2.12695 -0.0132690 0.353385
  903 2.11172 -0.0142666 -0.359983
  904 0.456708 -15.2635 1.23242
  905 0.540007 -15.0270 -1.03223
  906 -5.62054 -0.0858683 2.10263
  907 -5.62599 -0.0841823 -2.10178
  908 29.8873 8.85689 -12.9449
  909 30.3557 8.56492 12.7430
  910 -2.63449 0.0123205 -4.52789
  911 -2.64670 0.00293707 4.53578
  912 7.32906 0.839849 -3.27902
  913 7.38014 0.829454 3.28260
  914 32.1713 -0.282506 6.67539
  915 32.1535 -0.281243 -6.71686
  916 25.7245 -0.836997 -5.35102
  917 25.7471 -0.834780 5.33874
  918 147.576 -0.458937 -2.67505
  919 70.3607 14.3314 40.9743
  920 97.5998 -9.56139 3.52880
  921 68.2759 -4.75169 3.72479
  922 133.345 13.5622 -19.4322
  923 298.113 6.47341 6.12248
  924 160.350 6.58401 -19.3571
  925 23.9751 -0.919052 3.27688
  926 23.9545 -0.907890 -3.29313
  927 2.54924 -0.121648 -2.42341
  928 2.59648 -0.123114 2.42195
  929 -0.226959 -2.73549 -4.97940
  930 -0.247733 -2.75558 4.99553
  931 70.5961 -2.87089 1.46278
  932 70.6369 -2.93454 -1.47450
  933 7.35912 2.33923 -2.75895
  934 7.41501 2.32827 2.77505
  935 42.0367 -1.79928 -6.10872
  936 42.0611 -1.79831 6.10172
  937 91.5812 -0.523306 -9.61510
  938 43.2712 -2.28926 -4.09571
  939 43.2334 -2.26091 4.11004
  940 110.304 -2.68602 -0.897679
  941 133.371 -7.79811 -18.6683
  942 56.2922 -2.11416 1.68042
  943 56.3244 -2.13707 -1.71179
  944 -2.37963 -0.266372 -1.44795
  945 -2.37354 -0.267005 1.44510
  946 136.843 -11.2582 -20.7080
  947 130.343 -7.58084 12.1377
  948 114.075 -7.75430 -3.41364
  949 109.003 3.58625 17.4568
  950 48.6619 -2.64782 -4.64026
  951 48.6553 -2.59243 4.65638
  952 122.931 4.50635 21.2748
  953 113.805 9.88019 13.9793
  954 240.839 29.2420 4.94207
  955 121.867 -4.03624 3.05024
  956 62.0630 -1.61277 -0.740715
  957 62.0519 -1.57379 0.749204
  958 108.458 -8.71348 -1.55454
  959 149.536 27.5576 -9.46154
  960 134.446 -1.09430 -1.14334
  961 86.3710 -1.73010 0.233030
  962 86.3346 -1.71395 -0.207084
  963 10.3858 8.55458 -5.47456
  964 10.6621 8.53198 5.52256
  965 21.0001 47.3560 -45.8444
  966 123.684 -3.02407 16.1970
  967 156.134 -3.59224 -16.4869
  968 -3.39269 1.46397 1.23947
  969 -3.35362 1.46332 -1.22047
  970 326.772 75.3038 -60.7860
  971 133.379 -14.7290 3.12560
  972 142.670 -13.6826 -4.00955
  973 131.086 -11.2833 11.3485
  974 161.074 31.9842 4.18071
  975 11.0819 10.4134 -12.7823
  976 29.4896 40.4055 44.5807
  977 -0.911462 -1.99894 4.90825
  978 -0.898544 -1.98420 -4.89982
  979 128.090 -2.93332 2.99126
  980 205.766 36.7714 -3.72920
  981 11.4178 10.1319 13.3506
  982 -0.574615 -1.85826 -1.60995
  983 -0.574799 -1.85345 1.60606
  984 109.243 -2.11528 0.496494
  985 80.3479 -6.27696 -5.24275
  986 132.073 -10.5045 -13.2083
  987 36.1685 9.69739 -17.4529
  988 36.7587 9.86217 17.4997
  989 127.529 -3.19137 -14.5435
  990 129.703 -3.82381 5.17800
  991 -3.71266 0.774934 4.05860
  992 -3.69561 0.783133 -4.04629
  993 76.7069 -5.06853 -12.1801
  994 127.871 7.95450 -21.4787
  995 95.4187 -3.19708 -0.189652
  996 67.4009 -1.64781 0.0705302
  997 67.3894 -1.66179 -0.0624825
  998 -1.50419 -1.70210 -3.41591
  999 -1.50642 -1.70574 3.41364
  1000 131.450 -4.43517 -6.24333
  1001 125.533 -0.976287 0.230765
  1002 125.415 -0.977227 -0.176666
  1003 172.789 27.5687 -14.1555
  1004 29.4479 2.69523 -8.44366
  1005 29.5198 2.64134 8.41930
  1006 17.7776 -0.109724 -4.38512
  1007 17.8093 -0.113484 4.37665
  1008 141.360 7.18677 23.3923
  1009 135.263 -2.23671 -3.60332
  1010 22.2087 3.68402 -6.71206
  1011 22.2978 3.65531 6.73727
  1012 142.015 -0.449744 -0.666734
  1013 131.079 -5.49054 -9.22417
  1014 127.969 -14.7136 -3.94240
  1015 4.41802 3.48880 -0.851584
  1016 4.28437 3.47240 0.911441
  1017 -6.60689 0.965599 2.53028
  1018 -6.58496 0.968065 -2.51598
  1019 72.8002 2.84724 -3.55359
  1020 223.631 54.2024 -12.7192
  1021 100.276 -7.06947 0.413613
  1022 65.3259 -2.84035 -12.5881
  1023 163.477 -7.39792 3.48094
  1024 65.5860 -2.84247 12.7753
  1025 115.907 -13.6788 7.76156
  1026 131.505 -5.40286 -13.4572
  1027 42.5795 -0.862655 -0.231878
  1028 42.5771 -0.843359 0.229655
  1029 88.8096 -6.75386 -2.26230
  1030 53.4061 -1.92360 -9.61946
  1031 53.3782 -1.93813 9.56041
  1032 17.2664 11.1920 -10.3129
  1033 17.5499 11.1518 10.3428
  1034 35.2536 -1.06364 -0.843211
  1035 35.2498 -1.04814 0.828282
  1036 117.236 -3.32934 1.86327
  1037 98.4029 -0.0731668 -33.5833
  1038 121.641 -3.59482 -3.00218
  1039 109.182 -12.1180 -4.16837
  1040 70.3935 -2.71827 0.933599
  1041 70.4570 -2.74177 -0.939152
  1042 143.969 -0.602586 0.838704
  1043 127.626 -2.67109 -2.81178
  1044 77.3266 1.85959 6.69033
  1045 136.172 -1.31793 -6.01454
  1046 51.5444 14.6029 32.4052
  1047 140.712 -1.23418 -4.97941
  1048 35.1564 5.99418 -12.9179
  1049 34.0541 6.06669 12.3475
  1050 169.060 -3.93545 -4.34837
  1051 14.0760 7.54548 -4.97543
  1052 14.2107 7.48847 4.97114
  1053 2.29047 -0.932590 2.13772
  1054 2.41776 -0.911254 -2.05410
  1055 18.6470 -0.510084 1.05131
  1056 18.6362 -0.514079 -1.06854
  1057 58.8890 14.8047 -36.1201
  1058 338.321 84.6605 65.3738
  1059 130.961 -4.43778 6.40581
  1060 116.955 -13.2409 -2.62962
  1061 80.1840 -6.56826 -9.15865
  1062 -2.10596 1.64903 3.69739
  1063 -2.07550 1.65803 -3.67717
  1064 90.9021 -4.36377 0.0242721
  1065 100.785 -3.35419 -0.620146
  1066 -0.0650046 -7.45967 2.45850
  1067 -0.0624621 -7.46574 -2.45748
  1068 14.2433 8.95232 -6.06026
  1069 14.4199 8.93229 6.09917
  1070 89.6300 -3.97507 -0.00674124
  1071 6.00978 3.22593 1.46452
  1072 5.95364 3.23116 -1.44298
  1073 138.321 -5.72858 21.6000
  1074 99.5265 -10.3463 -7.63242
  1075 80.6741 -6.67556 9.15657
  1076 131.096 -2.88052 -22.4594
  1077 140.590 -1.24493 2.62381
  1078 49.0603 7.46825 21.3691
  1079 49.4185 7.15211 -20.9995
  1080 80.2068 -3.99192 -17.8810
  1081 115.153 -3.74650 -1.94952
  1082 92.6496 -5.30006 0.611416
  1083 109.205 -10.0884 0.879868
  1084 152.608 -0.424049 -1.46206
  1085 79.8612 -3.38435 0.797315
  1086 79.8258 -3.59977 -0.847181
  1087 2.29132 2.79593 3.29368
  1088 2.35683 2.81731 -3.25670
  1089 131.853 4.60557 -23.1301
  1090 28.1380 1.56328 -7.39696
  1091 28.2121 1.52980 7.37075
  1092 20.5674 0.512134 -5.17864
  1093 20.6105 0.499870 5.16502
  1094 153.181 -7.39356 26.3561
  1095 131.397 -6.00809 13.3171
  1096 62.8003 -2.82876 -10.5401
  1097 155.537 -0.519237 -0.879917
  1098 171.498 32.1425 -10.8230
  1099 140.465 -1.04508 -1.73137
  1100 130.422 -14.2017 5.91717
  1101 95.6470 -7.44394 15.4977
  1102 156.891 -0.0723725 0.214438
  1103 77.1649 2.45184 -5.68020
  1104 109.984 -11.7510 -1.23585
  1105 62.8960 -2.96145 10.4067
  1106 111.050 -10.0007 -1.52799
  1107 139.961 -1.77799 4.65539
  1108 96.2176 6.10618 8.91783
  1109 67.6682 -4.90200 -8.21377
  1110 213.815 27.7113 -9.50891
  1111 158.285 6.51908 20.1500
  1112 115.108 14.5365 2.21058
  1113 154.690 0.132991 0.819391
  1114 58.3038 -3.54312 -6.13278
  1115 39.9547 23.8064 -36.1055
  1116 72.1638 1.72621 -25.8723
  1117 82.8193 -6.19650 3.47754
  1118 69.5168 -5.12950 7.61561
  1119 58.1483 -3.35916 6.20631
  1120 125.086 0.880413 22.3680
  1121 94.7329 -2.93460 0.295039
  1122 152.047 -1.02702 1.90685
  1123 -1.38499 -0.269565 4.96151
  1124 -1.36725 -0.255089 -4.94948
  1125 99.4780 -2.44467 -0.396576
  1126 -0.408263 0.878877 4.64985
  1127 -0.376443 0.897511 -4.62754
  1128 54.0150 -1.52723 1.04192
  1129 54.0236 -1.55637 -1.04378
  1130 142.035 -0.703525 4.13751
  1131 113.434 -6.68901 -2.92777
  1132 106.021 -5.36157 -1.43436
  1133 118.962 -8.15125 5.10719
  1134 35.2000 17.0619 -26.5940
  1135 116.784 -4.07038 2.39159
  1136 15.5626 0.392479 -4.20694
  1137 15.6031 0.383988 4.20064
  1138 23.2920 14.7471 -18.3288
  1139 188.397 23.2462 8.50253
  1140 10.9467 -0.562930 2.41256
  1141 10.9102 -0.558048 -2.41879
  1142 23.7167 14.4901 17.6471
  1143 106.356 -8.74048 1.12181
  1144 52.0055 -2.29413 2.14456
  1145 52.0195 -2.30700 -2.19107
  1146 220.052 46.2775 -10.8078
  1147 117.550 -11.7582 2.13151
  1148 39.2808 22.1786 36.0108
  1149 3.17269 -2.26389 -2.27697
  1150 3.43464 -2.22283 2.59048
  1151 121.800 15.3153 11.2931
  1152 8.34370 4.83213 -1.39417
  1153 8.41574 4.83236 1.41359
  1154 118.363 -10.1902 -4.38415
  1155 -0.0586453 -11.6178 -2.34249
  1156 -0.0640613 -11.6213 2.35307
  1157 126.722 -10.6644 -8.29048
  1158 -4.61972 0.167493 0.817760
  1159 -4.67466 0.168453 -0.820463
  1160 18.2246 6.96714 -6.67009
  1161 18.3245 6.99618 6.59787
  1162 -8.42826 0.0222370 -1.00325
  1163 -8.36848 0.0217343 1.00376
  1164 127.541 -0.997657 -0.345100
  1165 -13.2971 0.370245 0.349863
  1166 -13.2635 0.369976 -0.342222
  1167 65.3024 -5.03962 -5.85386
  1168 1.69012 -18.4228 -1.12492
  1169 30.9475 -0.830920 1.68337
  1170 30.9422 -0.834772 -1.70774
  1171 107.413 -1.62794 0.0803374
  1172 107.621 -1.57261 -0.0586142
  1173 1.81235 -17.6581 1.50517
  1174 127.708 -6.48087 -7.93801
  1175 146.893 -0.582233 3.11452
  1176 129.604 -8.23626 -11.2909
  1177 110.902 0.745395 17.3274
  1178 0.503498 -5.11860 3.86129
  1179 0.558517 -5.08489 -3.80399
  1180 81.6038 -5.74486 2.62328
  1181 -5.88156 0.474172 3.21978
  1182 -5.87093 0.478303 -3.21073
  1183 216.824 34.8609 2.06680
  1184 258.489 75.6895 -53.2795
  1185 132.607 -13.0079 10.1241
  1186 52.5287 -1.36842 -0.103166
  1187 52.5279 -1.34797 0.103209
  1188 277.711 26.9307 -24.5325
  1189 16.8999 -0.448106 2.51002
  1190 16.8718 -0.440548 -2.52304
  1191 122.471 -0.402609 -6.95265
  1192 78.2001 -6.23985 6.66376
  1193 131.201 -12.9705 -7.76172
  1194 126.855 -9.14540 -9.11184
  1195 76.2900 -2.79688 18.7953
  1196 27.2827 5.21697 -9.57079
  1197 27.2626 5.16989 9.50871
  1198 36.5694 13.3911 -22.4651
  1199 36.6085 12.3685 22.4621
  1200 9.56863 3.10036 -2.89553
  1201 9.62937 3.09033 2.91544
  1202 155.698 26.8456 -13.9219
  1203 7.48630 6.72653 -2.32343
  1204 7.67205 6.73251 2.37748
  1205 112.542 -8.42362 2.75023
  1206 214.998 28.6679 10.9403
  1207 24.1831 -1.03291 -1.65701
  1208 24.1956 -1.03220 1.63528
  1209 141.701 89.9766 -81.8409
  1210 102.609 6.04269 -13.8093
  1211 93.3870 7.27451 5.60754
  1212 12.3475 5.48787 -3.44637
  1213 12.4081 5.48650 3.46813
  1214 -0.419645 -0.0154883 0.602895
  1215 -0.452270 -0.0154524 -0.609360
  1216 124.984 -9.96429 7.76083
  1217 123.141 -4.64197 4.28551
  1218 83.8912 22.1212 -57.6005
  1219 194.567 42.2712 -0.219087
  1220 82.3556 -2.65990 -20.8226
  1221 107.727 -2.93308 0.816659
  1222 1.94048 -0.549040 -0.157181
  1223 1.94049 -0.548737 0.156211
  1224 -4.01559 0.840164 -1.18029
  1225 -3.96645 0.836488 1.19111
  1226 71.2840 0.631263 -21.9246
  1227 134.180 -2.67232 4.53194
  1228 86.0099 1.19205 30.4476
  1229 117.491 -5.53014 -3.52696
  1230 59.8132 20.4438 -44.8654
  1231 93.6131 -4.83332 -22.5777
  1232 111.922 -11.9494 0.595185
  1233 138.039 -2.03319 6.80186
  1234 121.013 -2.14127 -1.43218
  1235 65.0064 -4.71510 5.89393
  1236 152.007 -9.06184 -13.1387
  1237 142.757 12.0617 22.2057
  1238 61.1607 0.260773 -17.0830
  1239 144.989 -0.636757 0.625882
  1240 112.040 14.0800 -3.14745
  1241 47.5826 -1.53877 -1.65580
  1242 47.5679 -1.51968 1.63203
  1243 222.435 48.5455 9.08395
  1244 309.351 8.24661 14.5052
  1245 0.249461 -14.2383 -2.34009
  1246 0.240910 -14.2560 2.35773
  1247 31.2375 16.0281 24.7461
  1248 75.8781 -1.91877 -0.171830
  1249 75.8940 -1.90416 0.201646
  1250 105.381 -10.5434 -1.53807
  1251 124.553 10.0600 19.4206
  1252 133.234 -2.30959 -3.04775
  1253 156.816 -0.305813 -0.0969014
  1254 271.729 59.6199 -36.9284
  1255 39.0040 -1.41318 1.64260
  1256 39.0059 -1.41725 -1.67196
  1257 126.844 -11.7801 8.02927
  1258 226.270 52.2890 -13.6134
  1259 123.171 -5.09811 -4.78753
  1260 88.7881 -5.96812 -1.48316
  1261 109.919 -11.9993 4.02179
  1262 107.507 -5.07620 1.66592
  1263 3.68977 -0.919662 -4.02079
  1264 148.090 -9.40384 15.2325
  1265 119.470 -7.61223 -4.96695
  1266 4.08401 -0.715065 4.55481
  1267 123.105 -10.3645 -21.0141
  1268 116.656 6.18772 -47.0886
  1269 193.350 23.0517 -6.75857
  1270 157.499 0.00905950 -0.0592936
  1271 157.187 -0.138638 0.153509
  1272 121.622 -6.87621 5.24891
  1273 45.4064 5.41610 -16.7545
  1274 138.770 -12.5901 12.4596
  1275 238.573 53.9363 23.3173
  1276 57.1626 18.8450 43.6457
  1277 1.36454 -0.260386 4.03471
  1278 1.42503 -0.232426 -3.99310
  1279 146.502 -12.4275 -10.4004
  1280 56.5795 -2.95098 -2.59674
  1281 56.5642 -2.95800 2.53487
  1282 135.458 -9.08655 18.0573
  1283 2.96902 0.0678911 2.68857
  1284 2.92141 0.0705375 -2.68904
  1285 -0.803660 -2.91463 3.96583
  1286 -0.798592 -2.90844 -3.96595
  1287 21.4244 -0.744420 -2.29011
  1288 21.4438 -0.749081 2.27109
  1289 69.8228 -4.61118 -9.44809
  1290 70.1004 -2.05425 0.333313
  1291 70.1001 -2.10791 -0.305712
  1292 156.751 0.00908833 -0.0501936
  1293 137.064 -1.98293 -7.61738
  1294 9.31791 0.563278 -3.29358
  1295 9.36442 0.555687 3.29286
  1296 70.1047 -4.88706 9.35356
  1297 158.494 -0.0795561 0.0283619
  1298 149.190 0.0882018 -0.161017
  1299 149.200 0.000157795 0.119718
  1300 195.374 39.9617 4.82181
  1301 144.848 -0.721043 -1.37612
  1302 127.954 -0.918279 0.298149
  1303 141.854 -1.93688 -4.12055
  1304 155.724 -0.388965 0.630139
  1305 159.661 15.8583 19.9870
  1306 185.495 37.8297 6.89450
  1307 150.337 -0.500440 -2.09275
  1308 -1.18504 -0.315569 1.07307
  1309 -1.18962 -0.315311 -1.07617
  1310 81.2740 -4.89675 1.61186
  1311 81.2560 -4.66635 -1.54575
  1312 161.139 17.6476 -19.1591
  1313 32.2937 11.0543 -18.3490
  1314 32.5017 10.7393 18.1312
  1315 106.116 -0.0209008 -8.65850
  1316 111.802 -1.36527 0.0584641
  1317 111.665 -1.35000 -0.0812155
  1318 -2.78785 -0.520962 4.05369
  1319 -2.78276 -0.513975 -4.05178
  1320 122.873 -0.311667 6.94430
  1321 189.098 37.6945 0.845775
  1322 10.4224 -0.483004 -1.44768
  1323 10.4477 -0.484166 1.43303
  1324 139.878 -13.7301 7.59624
  1325 -0.199076 2.08536 3.84766
  1326 -0.159489 2.09812 -3.82246
  1327 22.7218 -0.503542 -0.429823
  1328 22.7239 -0.494076 0.420182
  1329 106.154 -0.202416 8.78593
  1330 0.818936 0.252919 -0.207269
  1331 0.828554 0.253885 0.202448
  1332 143.349 -1.44347 2.75452
  1333 198.345 36.5594 1.24934
</Section>

newXOutput 19

<Section columns = "stress_xx | stress_yy | stress_xy">
  1 170.457 -0.343793 0.306012
  2 170.757 -0.481098 -0.397847
  3 -0.965149 0.169395 -0.456406
  4 -0.107278 -0.170761 -0.101362
  5 320.936 118.544 101.662
  6 325.898 136.267 -102.827
  7 -0.106025 -0.169677 0.0997376
  8 -0.964551 0.168467 0.455273
  9 171.693 -0.236299 -0.282261
  10 170.283 -0.510325 -0.393379
  11 170.325 -0.380463 0.429291
  12 169.321 -0.139138 0.238281
  13 168.854 -0.476131 -0.0320969
  14 168.372 -0.448225 0.781909
  15 165.548 -0.278365 0.800478
  16 166.021 -1.16532 1.12925
  17 160.277 -0.939538 2.33427
  18 156.515 -0.357100 2.79236
  19 151.425 -0.483589 2.98589
  20 142.750 -0.424607 4.09165
  21 133.434 -0.386154 4.70696
  22 121.957 0.568950 6.38263
  23 106.375 0.873239 5.74288
  24 100.227 -0.115959 8.17728
  25 81.0369 1.17461 5.78587
  26 69.5169 1.58471 4.50775
  27 66.5284 0.674998 3.31440
  28 63.3155 2.29637 0.233934
  29 65.0618 2.51471 -4.42699
  30 68.6276 0.682911 -5.56688
  31 82.8013 0.230584 -7.47154
  32 97.2343 -0.753902 -7.83111
  33 106.937 0.721287 -5.73908
  34 122.136 0.651875 -6.39045
  35 133.062 -0.464125 -5.03740
  36 143.734 -0.511686 -3.87128
  37 150.752 -0.330631 -3.02848
  38 156.020 -0.373304 -2.58023
  39 161.611 -0.530034 -1.52173
  40 163.934 -0.493321 -1.47360
  41 166.167 -0.473228 -1.28336
  42 168.469 -0.552506 -0.317804
  43 169.402 -0.724925 -0.558065
  44 168.497 0.168794 -0.100852
  45 170.137 -0.331902 -0.475655
  46 171.024 -0.792474 0.428611
  47 171.929 -0.433309 -0.0294027
  48 162.677 0.299405 -0.255697
  49 152.374 -0.335095 -0.492567
  50 140.827 -1.07123 -0.747311
  51 128.977 -0.756493 -0.549297
  52 118.733 -1.50401 -0.507907
  53 107.991 -1.67614 -0.473507
  54 97.2207 -1.42961 -0.265097
  55 85.9615 -1.59612 -0.346134
  56 76.4797 -1.79582 -0.440793
  57 63.9243 -1.76665 -0.373763
  58 51.0391 -1.06319 -0.239306
  59 40.4083 -0.666009 -0.197710
  60 27.3067 -0.418911 -0.110843
  61 17.7822 -0.459754 -0.679871
  62 8.91851 -0.702064 -0.240611
  63 -0.00841839 0.0864778 0.380254
  64 -2.26309 0.632563 0.117050
  65 -2.84276 0.261718 0.378111
  66 -2.38812 0.120831 0.355488
  67 -4.04591 0.367004 0.106716
  68 -4.60750 0.474385 0.767880
  69 -4.65969 0.163618 0.210362
  70 -7.50559 0.344112 0.240892
  71 -8.75069 0.247627 0.721550
  72 -9.06498 0.0926873 0.747067
  73 -12.0893 0.330175 0.544429
  74 -13.1247 0.485121 1.12255
  75 -14.1879 0.294638 0.324693
  76 -15.5839 0.211069 0.553226
  77 -15.9532 0.228767 0.156391
  78 -17.2152 0.529755 -0.457542
  79 -17.2107 0.363491 -0.347734
  80 -15.5381 0.282288 -0.594229
  81 -13.2575 0.353568 -1.06826
  82 -10.6740 0.145981 -1.56119
  83 -7.88329 0.0760376 -1.60387
  84 -4.70690 -0.174012 -1.66870
  85 -2.00932 -0.135670 -0.960070
  86 -0.831569 -0.344519 -0.592991
  87 -0.147039 -0.846067 -0.507041
  88 -0.254630 -2.16167 -0.921806
  89 -0.286493 -4.31617 -1.64112
  90 -0.0699495 -8.12619 -1.79463
  91 0.0867488 -11.3282 -2.27566
  92 0.218389 -16.3383 -1.86704
  93 0.667321 -19.4985 -2.22047
  94 0.0945490 -21.2492 -1.89888
  95 -0.0467435 -24.6041 -1.24594
  96 0.665855 -24.3550 -0.544642
  97 2.64989 -31.7720 0.915278
  98 2.24653 -18.6753 3.53653
  99 5.47335 -10.7139 8.24265
  100 16.8576 21.6924 27.6157
  101 74.7685 86.7646 82.3805
  102 420.864 43.5778 62.9048
  103 348.626 12.2575 22.5478
  104 331.232 5.23576 7.80536
  105 321.380 3.47682 -0.0366546
  106 327.561 4.99232 -6.38203
  107 352.148 10.4854 -18.7437
  108 416.511 34.8741 -58.8568
  109 48.2661 98.5308 -68.0689
  110 11.8146 14.1866 -21.1167
  111 4.02237 -13.4697 -6.71278
  112 2.03431 -20.3072 -2.95804
  113 2.63986 -32.9425 -0.632872
  114 0.639007 -24.8795 0.747823
  115 -0.0852472 -24.8691 1.35253
  116 0.0697775 -21.3535 1.95633
  117 0.654020 -19.5257 2.24500
  118 0.213249 -16.3323 1.87630
  119 0.0828073 -11.3143 2.27925
  120 -0.0718714 -8.10757 1.79388
  121 -0.286786 -4.30413 1.63795
  122 -0.255178 -2.15110 0.918742
  123 -0.146961 -0.842105 0.504285
  124 -0.826784 -0.344100 0.590713
  125 -2.00091 -0.136242 0.957657
  126 -4.69638 -0.175340 1.66740
  127 -7.87146 0.0746161 1.60441
  128 -10.6681 0.144448 1.56407
  129 -13.2620 0.352520 1.07363
  130 -15.5530 0.282249 0.599903
  131 -17.2389 0.363253 0.353190
  132 -17.2542 0.529839 0.463139
  133 -16.0040 0.229411 -0.151680
  134 -15.6434 0.211855 -0.549919
  135 -14.2513 0.295504 -0.322235
  136 -13.1922 0.486121 -1.12189
  137 -12.1579 0.331085 -0.543916
  138 -9.13141 0.0932408 -0.747700
  139 -8.81619 0.248567 -0.723104
  140 -7.56694 0.345453 -0.243068
  141 -4.71192 0.164527 -0.214117
  142 -4.65007 0.475242 -0.773178
  143 -4.08027 0.367187 -0.111457
  144 -2.41022 0.120634 -0.359997
  145 -2.85549 0.261221 -0.381697
  146 -2.26979 0.631661 -0.120199
  147 -0.0102196 0.0859542 -0.382043
  148 8.91643 -0.704617 0.238651
  149 17.7796 -0.466461 0.677634
  150 27.3060 -0.430931 0.108016
  151 40.4101 -0.683465 0.196179
  152 51.0399 -1.08355 0.238960
  153 63.9195 -1.78442 0.376323
  154 76.4607 -1.80511 0.446358
  155 85.9276 -1.58619 0.359567
  156 97.1690 -1.39076 0.280869
  157 107.918 -1.58309 0.448976
  158 118.781 -1.52938 0.448808
  159 129.011 -0.920124 0.578539
  160 140.941 -1.04079 0.684665
  161 152.695 -0.245598 0.499125
  162 162.366 0.290215 0.247332
  163 91.5923 -8.19549 -6.45023
  164 91.2046 -8.34261 6.43615
  165 26.4662 7.46151 -9.91838
  166 26.7322 7.49143 9.86876
  167 109.051 -5.63130 26.9918
  168 114.508 -6.33947 -26.2365
  169 51.4205 -2.61139 2.86476
  170 51.4204 -2.58415 -2.91793
  171 116.771 -3.69814 1.34386
  172 114.309 -3.70902 -1.31057
  173 154.289 28.0876 -4.39465
  174 158.368 0.597292 -22.3976
  175 154.999 1.88321 23.8273
  176 35.2440 -1.27071 -6.55430
  177 35.2396 -1.25963 6.53622
  178 136.826 -13.6258 8.81274
  179 136.612 -10.5071 -11.6170
  180 1.42128 2.83375 3.85876
  181 1.47642 2.85232 -3.82655
  182 186.842 37.7899 7.91732
  183 34.7619 15.2951 -23.7154
  184 37.4024 15.4556 25.5510
  185 132.458 -5.91834 5.78496
  186 199.135 41.1855 -5.02153
  187 84.2605 -2.74922 -0.519590
  188 84.1150 -2.83106 0.509065
  189 136.468 -4.01061 -5.21831
  190 183.104 -2.36608 -0.239219
  191 30.6635 -0.895410 1.03339
  192 30.6604 -0.904627 -1.05386
  193 12.7827 1.84631 -4.21344
  194 12.8436 1.82739 4.22239
  195 75.0466 -2.91598 -16.4394
  196 74.7491 -3.08339 16.6597
  197 90.0193 -5.61099 -1.72468
  198 90.2025 -5.57912 1.90259
  199 21.2966 -0.742290 3.38467
  200 21.2689 -0.731318 -3.39556
  201 181.240 -4.53783 9.69102
  202 146.938 -14.8061 -4.76268
  203 140.403 -1.06472 -0.949958
  204 137.081 -1.34736 0.991355
  205 136.218 15.9082 16.5387
  206 5.43080 4.19209 -0.964237
  207 5.64293 4.17789 1.05772
  208 137.158 -5.61421 19.3034
  209 124.510 9.41521 -18.6893
  210 89.9745 19.0384 -56.8691
  211 94.6098 16.0490 52.7792
  212 1.46810 2.94173 0.259382
  213 1.51931 2.94030 -0.235689
  214 136.619 -4.97710 -19.8979
  215 241.349 34.1344 -2.10140
  216 113.617 -12.5112 8.73556
  217 114.522 -12.4317 -8.18664
  218 113.574 -7.88464 -1.77884
  219 142.500 -1.92912 2.87837
  220 66.7722 -4.46686 -5.53986
  221 65.6645 -4.44657 5.74823
  222 39.4761 0.902498 -10.1517
  223 39.5283 0.885774 10.0527
  224 145.639 -15.7355 0.0640919
  225 112.590 -8.40340 1.30084
  226 142.022 -1.86199 -2.34111
  227 109.359 -2.40788 0.384827
  228 110.364 -2.21211 -0.168213
  229 139.203 -6.10422 11.5086
  230 10.0484 0.163186 -3.60394
  231 10.0939 0.157700 3.60109
  232 -1.87390 -1.29773 -4.81029
  233 -1.88296 -1.30856 4.81453
  234 18.4838 -0.858180 -1.91252
  235 18.5050 -0.860232 1.89272
  236 56.6088 -1.51763 1.24517
  237 56.6273 -1.54999 -1.25843
  238 66.4007 4.46107 -24.5594
  239 66.4073 3.69704 24.2697
  240 141.326 -4.25455 -9.83783
  241 64.6677 -3.70922 -9.54874
  242 64.7180 -3.82533 9.38999
  243 122.368 1.74356 21.0370
  244 105.334 9.12452 1.26512
  245 120.767 -11.9759 -1.80745
  246 0.397257 -3.36167 -4.61776
  247 0.357053 -3.39269 4.65295
  248 7.29670 6.42954 -7.46031
  249 7.78931 6.14957 7.90290
  250 118.690 -11.7074 0.995776
  251 217.296 38.6487 0.0841235
  252 10.3368 7.14618 -2.70041
  253 10.4679 7.14083 2.74093
  254 -4.94206 0.932983 3.44991
  255 -4.91916 0.937760 -3.43432
  256 218.751 35.8935 1.03687
  257 73.8472 -3.34348 -1.84343
  258 73.7859 -3.28346 1.78896
  259 148.014 -10.2456 18.4043
  260 271.570 44.0501 26.5278
  261 42.1348 -2.16374 -5.30030
  262 42.1190 -2.17899 5.29145
  263 149.435 22.2985 -16.1014
  264 261.423 49.3981 -23.6715
  265 181.019 17.1531 16.6484
  266 199.149 9.83307 -34.7172
  267 120.978 -5.42272 2.76782
  268 136.722 0.414699 -23.8844
  269 130.478 -9.06134 -7.05008
  270 146.132 -2.44216 6.31363
  271 -1.10561 1.37946 -1.01758
  272 -1.05484 1.37479 1.03393
  273 144.949 -5.77478 -34.0649
  274 14.2426 4.64581 -4.14443
  275 14.3130 4.63616 4.16931
  276 139.234 -3.33839 -12.2868
  277 19.2795 18.3719 -24.5305
  278 13.4559 -0.0461510 -0.428881
  279 13.4616 -0.0423735 0.420485
  280 147.370 -9.42443 -19.1263
  281 24.8005 11.1333 -12.7052
  282 25.1665 11.0669 12.7397
  283 5.15143 -0.201598 2.54480
  284 5.10458 -0.198770 -2.54839
  285 120.818 -5.11623 -2.68284
  286 19.4046 18.1600 25.2400
  287 195.915 11.9680 41.1051
  288 50.4145 -1.89019 -1.63686
  289 50.3993 -1.87597 1.60498
  290 95.6759 -3.64760 -0.245966
  291 95.6262 -3.98255 0.345843
  292 81.6476 7.41954 -38.0434
  293 133.035 -14.6719 -3.69973
  294 153.359 -0.695654 1.30375
  295 78.5698 7.37556 36.7321
  296 91.4464 -2.14430 -0.0460123
  297 91.4100 -2.14177 0.128925
  298 130.672 -9.45353 7.18964
  299 151.578 -1.40014 -3.10069
  300 -2.49053 0.576820 -1.86130
  301 -2.43540 0.572564 1.86826
  302 188.388 37.8255 -2.35401
  303 166.280 -8.32057 10.9371
  304 151.195 -0.502030 -0.387242
  305 153.994 -0.430707 0.350625
  306 149.634 -13.7481 11.1083
  307 184.733 18.3112 -15.7365
  308 159.307 29.7653 9.54096
  309 70.4071 -4.16438 -3.25157
  310 69.7346 -4.24479 3.33099
  311 153.241 -0.658879 -0.937233
  312 98.5248 -7.61512 -18.1107
  313 96.7185 -7.46967 2.28376
  314 92.2375 -5.21267 20.8407
  315 150.111 -1.60219 3.66524
  316 31.3031 -1.43154 -3.25639
  317 31.3190 -1.44248 3.23775
  318 137.863 -5.44453 33.6814
  319 85.8608 -6.65852 -4.04378
  320 159.702 20.1642 20.3645
  321 49.5954 3.52246 -15.5247
  322 47.6895 3.67813 15.3793
  323 11.6852 -0.282933 -0.782570
  324 11.7002 -0.280759 0.769155
  325 132.126 -2.31791 1.86334
  326 126.604 -1.41245 0.373575
  327 125.862 -1.58348 -0.420007
  328 138.075 -3.52011 12.9898
  329 9.23207 -0.404267 1.84934
  330 9.19445 -0.400205 -1.86066
  331 37.6587 -0.831639 -0.647172
  332 37.6555 -0.815150 0.638200
  333 1.20052 -6.95364 -2.85232
  334 1.11368 -7.00301 2.95572
  335 104.498 4.46184 14.1779
  336 167.953 -7.97938 -9.31751
  337 107.353 -5.42332 1.23880
  338 122.226 -2.08342 -1.13464
  339 125.198 15.6533 -8.82743
  340 22.8484 -0.702308 -4.81642
  341 22.8749 -0.702493 4.80930
  342 104.265 -5.09258 -0.666582
  343 27.9722 1.07713 -6.99893
  344 28.0232 1.05163 6.97106
  345 4.99681 4.64163 0.637157
  346 5.06523 4.63962 -0.609027
  347 127.663 -13.9578 11.5709
  348 289.228 19.1877 7.37141
  349 110.878 1.54099 -16.8304
  350 93.9574 -8.44527 10.6577
  351 93.4764 -8.28356 -11.0165
  352 139.339 -2.56686 23.7287
  353 122.774 -0.980411 16.7418
  354 125.940 -13.4987 -11.9955
  355 73.3507 -1.61590 -0.0715369
  356 73.3407 -1.63944 0.0904793
  357 139.334 -9.12420 15.0142
  358 190.675 38.3074 1.57805
  359 150.712 -1.53052 -4.67324
  360 35.9169 -1.34161 -2.28301
  361 35.9266 -1.34238 2.25366
  362 141.414 -13.9019 -14.6221
  363 147.183 9.98994 -23.8047
  364 95.4436 5.15622 -9.06820
  365 140.252 -9.44933 -17.0312
  366 -4.69108 0.110286 -3.72251
  367 -4.69642 0.104926 3.72735
  368 117.856 -2.43146 0.871014
  369 -1.67920 -1.00697 -2.15380
  370 -1.67741 -1.00740 2.14968
  371 91.7113 42.6252 -69.6081
  372 3.23754 2.76385 2.88724
  373 3.32718 2.78696 -2.83987
  374 121.751 -1.03676 -16.5986
  375 66.3222 -2.64434 1.37528
  376 66.3751 -2.68430 -1.39753
  377 -0.516724 -5.07198 4.22843
  378 -0.509075 -5.06265 -4.22369
  379 74.0960 44.8263 65.3893
  380 54.0248 -2.80216 -7.32726
  381 54.0627 -2.67350 7.33260
  382 16.9450 12.2026 -11.6147
  383 17.3138 12.1594 11.5376
  384 -7.53498 1.02955 1.56604
  385 -7.50390 1.03093 -1.54970
  386 141.692 9.21282 23.7158
  387 108.901 -11.3911 4.35808
  388 109.016 -9.83462 1.01998
  389 132.921 -15.2534 -0.317746
  390 31.7757 4.10204 -9.90935
  391 31.8805 4.09253 9.88923
  392 2.76425 -5.36664 -0.352095
  393 2.60411 -5.43244 0.580218
  394 132.252 19.0261 5.87007
  395 136.008 -3.61835 4.34567
  396 76.0629 -5.81818 6.58099
  397 46.2199 -1.09246 -8.91403
  398 46.2314 -1.10061 8.83516
  399 97.9757 -2.63659 0.101872
  400 97.8634 -2.26624 -0.185593
  401 75.4124 -5.98431 -7.05528
  402 58.5501 -0.943566 -12.3164
  403 58.5350 -1.02646 12.4192
  404 141.392 -13.0871 -11.0762
  405 80.6234 -6.06092 3.84147
  406 128.793 -3.61713 2.82117
  407 128.590 -3.25637 -2.42253
  408 106.943 -9.75602 -1.41927
  409 156.450 -0.473286 -1.37061
  410 50.8850 19.9933 -38.3863
  411 145.686 -1.99203 7.57151
  412 155.814 -0.626867 1.96092
  413 52.9137 -2.74733 4.21268
  414 52.9440 -2.70820 -4.20897
  415 108.401 -11.2525 -4.55201
  416 14.5011 6.68666 4.44155
  417 14.4211 6.68327 -4.44846
  418 292.357 19.1724 -15.1466
  419 125.907 -6.96215 -4.34577
  420 157.868 -0.338273 0.790710
  421 47.9442 18.5696 36.4488
  422 231.521 39.1970 6.83796
  423 135.925 -1.73370 -1.50795
  424 100.151 -7.08016 -1.01716
  425 40.7837 7.89089 -17.6251
  426 43.5261 7.32619 17.5197
  427 124.303 -7.68315 4.42680
  428 130.817 -1.71266 -12.4116
  429 -2.92021 -0.102455 1.89145
  430 -2.97665 -0.101043 -1.89115
  431 46.3665 11.0359 -24.0059
  432 46.5117 11.0790 23.9285
  433 4.52742 2.59830 -1.66334
  434 4.58367 2.59202 1.68372
  435 111.379 -1.77444 0.388927
  436 111.245 -1.71711 -0.348999
  437 138.954 -6.25229 -12.0151
  438 -0.562314 -0.629495 5.32487
  439 -0.537779 -0.608506 -5.30630
  440 143.333 -14.3091 9.91754
  441 135.883 -3.34863 -3.88339
  442 219.880 42.2159 -5.37589
  443 5.71696 -0.374159 0.842006
  444 5.68685 -0.374261 -0.853801
  445 267.405 73.6683 31.4843
  446 5.02168 -0.0354098 -6.77573
  447 14.5752 0.825544 -4.64318
  448 14.6244 0.812962 4.63988
  449 266.241 75.2076 -29.7486
  450 5.32258 0.554475 7.55497
  451 -7.49179 0.826155 0.643339
  452 -7.45216 0.824671 -0.628127
  453 13.8170 9.42373 -6.45008
  454 14.0653 9.42298 6.48777
  455 170.803 26.3932 -17.2327
  456 137.631 -5.19798 -7.97250
  457 156.967 -0.392756 -0.717005
  458 143.610 -2.13645 -8.82863
  459 -1.94511 0.895460 4.90117
  460 -1.92026 0.908750 -4.88395
  461 139.015 -5.45200 9.16779
  462 88.9906 -4.77296 -1.32000
  463 88.7050 -4.82649 1.00618
  464 122.118 -13.5055 -0.724808
  465 86.3802 -1.39428 -25.8262
  466 132.257 -2.05790 12.7059
  467 108.557 -3.16837 -0.513789
  468 161.103 -12.6489 -0.136760
  469 83.6178 0.506544 27.7648
  470 3.98703 -0.0928488 1.82390
  471 3.94008 -0.0903705 -1.82969
  472 175.108 34.7058 -8.09138
  473 141.898 -0.733347 0.166902
  474 141.391 -0.871251 -0.301460
  475 105.412 -6.81970 -0.175794
  476 43.9544 -1.40926 -1.22862
  477 43.9459 -1.39004 1.20865
  478 25.4856 -0.232899 -5.71835
  479 25.5119 -0.237980 5.70250
  480 85.1120 3.31900 5.39882
  481 19.9271 -0.683433 2.69586
  482 19.9017 -0.676446 -2.71329
  483 22.4912 2.29970 6.42107
  484 22.4163 2.33369 -6.41801
  485 136.377 -10.5303 11.1912
  486 74.9740 -4.64569 -11.4942
  487 68.6471 -2.00602 0.628524
  488 68.6762 -2.06398 -0.631078
  489 75.7838 -4.79563 11.4863
  490 214.249 50.1888 -2.39008
  491 -3.43092 -0.537880 -2.82891
  492 -3.42951 -0.540533 2.82768
  493 51.2651 -1.30357 -0.494255
  494 51.2601 -1.27980 0.491277
  495 0.0279857 -9.45100 -3.63853
  496 0.00580962 -9.48114 3.66913
  497 124.819 -1.50115 0.701778
  498 84.5089 4.11293 -2.69485
  499 116.424 12.2825 7.87988
  500 74.6258 -0.787208 -20.3363
  501 34.9215 -1.77446 4.11517
  502 34.9235 -1.75903 -4.12550
  503 -10.6588 0.323515 -0.528995
  504 -10.6052 0.321655 0.535593
  505 146.956 -3.03200 -23.7550
  506 8.58012 0.0928380 -0.590709
  507 8.59075 0.0948022 0.581128
  508 122.339 -9.49653 -3.87207
  509 130.573 -11.0526 -6.95312
  510 25.7989 19.0000 -25.4227
  511 109.600 2.37251 -41.5144
  512 0.863843 3.12201 2.67110
  513 0.914803 3.12795 -2.64333
  514 65.3098 -2.85962 -2.13764
  515 65.2720 -2.82991 2.07644
  516 190.428 6.71423 -6.75788
  517 135.888 -7.90913 -10.1140
  518 25.1287 17.8862 25.0428
  519 134.677 -15.4589 2.40037
  520 129.325 -12.2675 5.70105
  521 24.8117 -0.591630 -1.75481
  522 24.8220 -0.588657 1.73309
  523 103.298 1.04819 13.0080
  524 75.4002 -5.42951 -4.14912
  525 143.947 -2.97301 5.81734
  526 -0.607823 -3.48505 -2.73669
  527 -0.609325 -3.48283 2.73320
  528 99.6149 -8.90632 12.9342
  529 153.195 -12.0632 -13.1246
  530 201.695 12.2817 -4.70070
  531 107.172 -3.30348 0.611556
  532 29.2103 -0.505471 -0.527711
  533 29.2103 -0.493445 0.521810
  534 66.8961 0.498685 19.5388
  535 191.253 31.1102 12.6233
  536 197.436 34.4869 -66.4713
  537 174.473 0.164751 12.9475
  538 124.624 -13.8949 0.0359306
  539 301.894 23.9908 20.2128
  540 220.140 51.9873 3.99244
  541 28.6947 -1.16994 4.51630
  542 28.6775 -1.15754 -4.52736
  543 119.673 -9.78408 3.12676
  544 8.00160 4.17999 -1.40551
  545 8.06614 4.17653 1.42999
  546 151.279 -12.8603 13.0955
  547 121.156 6.41866 19.3292
  548 153.136 -0.864967 3.21294
  549 111.838 -6.46205 1.72903
  550 159.014 -0.163809 -43.7553
  551 255.169 61.6754 41.7079
  552 121.945 -2.01515 -0.656542
  553 150.030 -1.41389 -5.06947
  554 22.3748 9.44670 -9.29971
  555 22.5396 9.33114 9.24982
  556 84.0488 -3.10993 -0.796367
  557 84.0070 -3.02664 0.822371
  558 0.895029 -12.3619 -0.669021
  559 152.382 -5.77521 21.4292
  560 5.26791 4.90844 1.24565
  561 5.35836 4.92066 -1.20426
  562 1.05985 -11.9936 0.990148
  563 138.256 -6.35188 -17.1463
  564 159.363 9.60708 -23.1361
  565 158.703 10.9332 23.1132
  566 7.19890 5.44999 4.71336
  567 6.81922 5.60799 -4.58872
  568 -6.06523 0.162265 1.39455
  569 -6.12411 0.163780 -1.39233
  570 147.834 2.37591 45.2129
  571 78.8091 -4.16544 1.96260
  572 78.8932 -4.15007 -2.02225
  573 178.930 -4.59474 -22.0322
  574 19.9113 -0.262527 1.02191
  575 19.9045 -0.267946 -1.03636
  576 7.22766 -0.272537 -0.249224
  577 7.23122 -0.270694 0.245884
  578 195.167 34.5026 -10.7043
  579 18.0217 23.5285 -28.3288
  580 98.3200 1.89236 -10.9918
  581 141.883 22.7999 -10.0665
  582 1.88173 -0.582263 3.60480
  583 1.96774 -0.553162 -3.54719
  584 149.101 62.5128 78.7146
  585 123.734 -3.09378 -1.74830
  586 3.04061 1.27430 -2.21292
  587 3.09526 1.26505 2.22472
  588 142.839 -11.6236 15.1809
  589 21.3784 22.7171 28.8442
  590 102.295 -1.77678 0.0150709
  591 102.321 -1.75838 -0.0155223
  592 -0.146225 -7.44078 3.70474
  593 -0.135126 -7.42839 -3.69262
  594 174.649 34.3961 -0.279452
  595 111.030 -9.19155 18.9059
  596 105.799 -4.20767 0.592212
  597 106.906 4.06696 43.8460
  598 -9.05839 0.428486 2.27138
  599 -9.04905 0.430780 -2.26285
  600 176.734 1.39926 -13.8355
  601 239.336 36.1601 -29.0541
  602 65.5462 6.45122 -28.6407
  603 34.0301 -1.37847 -5.55516
  604 34.0580 -1.37806 5.55367
  605 161.167 -0.393782 0.964216
  606 104.699 -4.30734 -0.734104
  607 142.297 -1.62389 2.17185
  608 138.276 -6.33741 16.7584
  609 2.90956 -0.216603 0.881075
  610 2.87058 -0.215618 -0.889938
  611 80.6456 -2.53599 -0.437127
  612 80.6323 -2.45583 0.411263
  613 49.6448 1.15429 -12.7294
  614 49.3091 1.16793 12.6636
  615 203.109 9.93861 9.43454
  616 337.067 25.3902 -37.0296
  617 -4.67858 -0.190504 1.23812
  618 -4.73808 -0.189807 -1.23859
  619 46.0671 -1.86621 2.30773
  620 46.0696 -1.86453 -2.34780
  621 188.268 8.96932 9.32947
  622 159.601 -0.352805 -0.306914
  623 159.228 -0.608962 0.153111
  624 111.027 -0.112791 12.9090
  625 165.573 -10.6031 -12.8162
  626 87.8537 -7.09413 4.98817
  627 -2.62054 1.93115 -2.38984
  628 -2.65862 1.92860 2.41147
  629 141.964 2.62304 24.7435
  630 54.6683 -3.05728 -5.73374
  631 54.6068 -3.11077 5.74552
  632 115.989 -6.44858 -2.16507
  633 144.701 -2.93410 -5.27950
  634 80.7028 -6.36337 -8.04620
  635 132.504 15.9745 -15.0130
  636 89.7233 -6.25781 -15.2180
  637 30.4661 -0.797981 -0.868859
  638 30.4665 -0.786964 0.853871
  639 81.5781 -6.48637 8.06662
  640 178.438 28.2463 15.8000
  641 141.435 -7.05164 21.0864
  642 115.824 -4.83739 1.91487
  643 81.5579 -1.86675 0.400476
  644 81.5368 -1.87243 -0.384180
  645 60.4936 -2.08187 -1.59015
  646 60.4661 -2.05554 1.56733
  647 136.569 -12.5802 -9.31603
  648 67.2532 -3.64179 2.81623
  649 67.3326 -3.62766 -2.89129
  650 134.549 20.9503 -2.03136
  651 126.152 -6.37556 4.34536
  652 160.097 -0.605909 -1.45481
  653 132.978 -2.60885 -21.6577
  654 17.0293 -0.783951 3.61658
  655 16.9964 -0.778128 -3.62223
  656 155.624 -0.716969 -2.90203
  657 26.3515 13.4474 -17.6154
  658 26.8123 13.4083 17.7033
  659 158.327 -10.4597 18.5451
  660 52.7726 12.9090 30.1538
  661 11.1160 -0.0260347 3.62732
  662 11.0751 -0.0231074 -3.63136
  663 134.172 -9.29140 24.7163
  664 132.975 16.6407 -60.3387
  665 126.527 3.78322 -21.4884
  666 168.560 30.3437 13.3622
  667 113.741 -4.72529 -1.40246
  668 205.635 37.4886 -0.906187
  669 -10.8442 0.466140 -0.230018
  670 -10.7984 0.464806 0.239646
  671 90.1704 0.0627416 -30.4978
  672 3.04969 -0.122118 0.702183
  673 3.02478 -0.122474 -0.711089
  674 113.832 -9.88328 -18.6614
  675 36.2913 5.10777 -12.2121
  676 35.9867 5.12231 12.2025
  677 -0.220344 1.86128 -0.286799
  678 -0.170677 1.85831 0.307374
  679 96.0065 -8.17729 -3.41977
  680 136.769 -1.33716 -8.37208
  681 63.4251 -1.76669 -0.597997
  682 63.4251 -1.74303 0.603752
  683 45.1290 -2.24398 -3.56909
  684 45.1611 -2.27699 3.55158
  685 8.27512 6.82075 -1.62032
  686 8.42189 6.83298 1.66794
  687 142.163 -1.34861 1.19350
  688 60.6769 -3.74504 4.67602
  689 61.0917 -3.67462 -4.66932
  690 156.815 -13.1039 -3.70685
  691 128.413 -12.8984 -4.31620
  692 100.249 -2.45686 0.273459
  693 99.8786 -2.25984 -0.217205
  694 142.033 -15.4300 6.11008
  695 231.984 46.5396 10.7473
  696 124.546 -6.20208 -31.1255
  697 142.806 -3.85164 9.03398
  698 140.992 -5.46806 -22.5087
  699 41.5120 -1.21037 -1.61091
  700 41.5065 -1.19938 1.58431
  701 110.374 -2.50401 35.0841
  702 317.438 40.2641 36.9778
  703 19.9453 6.02959 -6.65748
  704 19.9729 6.06878 6.68010
  705 141.814 -1.01094 -0.619476
  706 142.985 -0.883423 0.628183
  707 58.9411 28.1991 -49.7918
  708 149.945 -0.690894 5.02603
  709 129.540 -1.82435 1.08804
  710 169.017 33.7747 -5.04877
  711 15.9095 3.07693 -4.69586
  712 15.9811 3.05692 4.71391
  713 163.009 -0.264591 0.205825
  714 129.966 -4.69669 -4.14235
  715 162.319 -3.05701 19.1768
  716 64.5102 -4.44376 -7.64826
  717 64.6734 -4.24382 7.56249
  718 12.4599 -0.477903 2.73992
  719 12.4236 -0.471480 -2.75002
  720 148.502 -0.691650 -1.04603
  721 127.587 22.8649 64.2493
  722 0.659257 0.609819 4.62570
  723 0.705705 0.636176 -4.59396
  724 148.532 -1.32619 -2.55112
  725 143.908 -2.34855 3.60880
  726 110.451 -0.00390783 -13.8454
  727 0.989919 -13.8190 -2.05646
  728 0.920375 -13.9461 2.18435
  729 50.7339 13.2741 -30.1344
  730 113.544 -11.5867 -13.0632
  731 58.3813 27.9831 50.3247
  732 160.617 -0.235618 0.614996
  733 151.307 22.5664 16.2052
  734 107.942 9.87702 -5.47348
  735 200.221 40.4333 -1.16862
  736 158.046 -0.520002 1.93443
  737 -10.8044 0.236032 0.965412
  738 -10.8630 0.237335 -0.961452
  739 167.550 -10.4356 2.41469
  740 107.000 -2.69235 0.330653
  741 37.2829 0.156754 -8.51631
  742 37.3284 0.118073 8.45793
  743 144.206 -1.36501 -1.61006
  744 256.006 36.3664 -12.5183
  745 14.1063 -0.450688 -1.64461
  746 14.1350 -0.453508 1.62895
  747 161.729 -0.292751 -0.927610
  748 29.0204 -1.30438 -2.30728
  749 29.0348 -1.30904 2.28426
  750 156.100 -6.69964 -19.5811
  751 143.885 -1.44922 6.82899
  752 127.427 -1.01506 21.3157
  753 162.245 -0.306174 -0.0716953
  754 150.471 -0.859903 1.98676
  755 96.3170 -4.89910 -0.191348
  756 122.115 -2.81573 1.40429
  757 138.631 -8.53450 -14.5677
  758 135.364 -8.39525 9.82177
  759 157.914 18.7262 -20.5310
  760 133.574 -7.30086 7.47171
  761 140.748 -8.45505 18.4087
  762 80.2438 -5.24131 2.80065
  763 2.71169 -1.76301 -0.952058
  764 2.55659 -1.77045 1.09826
  765 123.857 -1.43139 0.0804093
  766 123.587 -1.41747 -0.127631
  767 150.087 -0.373911 -0.131781
  768 150.634 -0.341041 0.168824
  769 141.150 -3.87569 10.9218
  770 130.433 -12.4323 17.4745
  771 106.239 -8.44707 0.493964
  772 93.9309 -5.33501 0.912446
  773 261.489 33.6533 14.8002
  774 143.230 -3.43898 -7.24295
  775 82.9605 13.6638 -46.8652
  776 132.769 -6.32606 -6.52097
  777 3.48549 0.141198 -2.51016
  778 3.53800 0.136351 2.51248
  779 115.605 10.1413 -12.2874
  780 309.450 9.42850 -4.09469
  781 148.686 3.43903 -24.3950
  782 5.67759 0.160445 -10.5530
  783 151.894 27.5770 4.18040
  784 119.567 -7.35587 2.93048
  785 133.622 -3.49801 21.0461
  786 112.934 -12.0905 13.1398
  787 183.966 -2.92265 27.7011
  788 6.12123 1.55073 11.3344
  789 80.8597 -0.657573 23.4778
  790 114.360 -2.54265 -0.745527
  791 127.774 -11.8966 -17.7053
  792 76.8650 -5.87465 -5.38819
  793 60.5160 2.82053 -20.3210
  794 147.612 -2.65119 23.9228
  795 93.7809 -6.18166 1.87129
  796 15.1524 -0.473182 1.51641
  797 15.1332 -0.473923 -1.53378
  798 137.202 -0.721535 7.42935
  799 123.062 0.460468 -20.6335
  800 -11.2524 0.482772 1.47243
  801 -11.2357 0.483577 -1.46325
  802 91.1839 -2.51859 0.0464089
  803 90.9044 -2.35900 -0.0742146
  804 67.2977 7.26096 29.0900
  805 59.0918 -3.33529 3.41482
  806 59.1835 -3.24873 -3.45997
  807 161.724 -0.173044 -0.542005
  808 54.2956 4.25770 19.7571
  809 -1.11164 -0.0485307 0.966726
  810 -1.16211 -0.0473377 -0.972126
  811 135.500 -4.24018 16.3789
  812 147.154 -0.952927 0.852871
  813 -7.85041 0.0694606 2.20382
  814 -7.85096 0.0718613 -2.19950
  815 88.5339 -5.67667 17.2362
  816 16.4739 13.2474 -14.6611
  817 16.6828 12.5734 14.4200
  818 80.1790 3.62190 2.24391
  819 -4.03532 -0.0648203 -1.11809
  820 -3.97654 -0.0656674 1.11619
  821 102.234 -9.82357 -12.2730
  822 140.824 -14.9745 -6.32673
  823 -0.689377 -0.656435 -0.859613
  824 -0.687444 -0.654993 0.856537
  825 3.87929 0.257750 -0.211895
  826 3.88594 0.259160 0.206817
  827 124.838 -11.0178 4.40139
  828 104.498 -10.7537 8.16497
  829 116.543 -1.54694 0.564187
  830 104.198 -8.23105 -0.908366
  831 35.6631 -0.506276 -0.143111
  832 35.6615 -0.490403 0.139349
  833 -12.8465 0.268529 0.918509
  834 -12.8201 0.268145 -0.909596
  835 132.463 -1.32864 -0.826786
  836 113.815 4.35150 -17.4716
  837 133.830 -2.30341 -2.26113
  838 77.0219 -5.75779 5.09714
  839 130.552 -2.36378 -17.1680
  840 141.001 -4.21658 -11.2909
  841 133.031 -1.08547 0.749634
  842 95.6730 -3.92631 24.1145
  843 102.239 -9.92402 -4.12959
  844 60.5936 -0.442249 -15.3377
  845 60.9370 -0.0201336 15.4178
  846 86.5766 -6.30721 -3.04072
  847 144.526 15.4494 20.8393
  848 138.794 -14.8530 -8.91600
  849 47.3737 -1.39060 -0.771930
  850 47.3645 -1.36635 0.760898
  851 105.226 -1.99582 -0.166296
  852 105.228 -2.01599 0.195613
  853 124.207 -0.988202 -11.1758
  854 40.0471 -1.64281 -2.86952
  855 40.0645 -1.65579 2.83858
  856 0.473855 -13.5898 -2.81179
  857 0.446740 -13.6469 2.86534
  858 18.1712 -0.266400 -0.153968
  859 18.1685 -0.273088 0.149465
  860 131.349 -1.68096 -1.16749
  861 98.2773 -9.35015 7.31084
  862 154.801 -13.7296 6.81190
  863 86.1582 1.82964 8.60334
  864 134.274 -2.82841 2.56665
  865 146.167 -13.3589 -12.2313
  866 19.3178 1.36982 -5.53171
  867 19.3749 1.34767 5.52558
  868 115.930 -1.69028 -0.519486
  869 92.3288 -2.88424 -0.271323
  870 91.9913 -2.85408 0.353202
  871 142.333 22.2447 11.3287
  872 48.4152 -0.403398 -10.4220
  873 48.3611 -0.461654 10.3678
  874 99.2040 -8.85048 3.10188
  875 8.79824 5.98944 -1.34694
  876 8.89054 5.97604 1.37169
  877 83.4892 -5.97908 13.8227
  878 100.693 -6.17743 -0.143782
  879 125.003 -1.02191 11.2947
  880 124.546 -14.1447 3.30184
  881 143.003 -11.0432 -16.2632
  882 98.0382 -9.42786 -7.43497
  883 80.8516 -5.21624 -2.66298
  884 274.148 22.7234 -4.14705
  885 130.611 -13.9012 3.56552
  886 3.12037 4.01517 2.17301
  887 3.18666 4.02200 -2.13914
  888 113.012 -11.2617 1.02378
  889 124.390 -14.1958 -6.84861
  890 3.17459 3.59960 0.781273
  891 3.23213 3.59973 -0.755817
  892 44.9921 -1.51983 7.75071
  893 45.0276 -1.57084 -7.80568
  894 55.0363 -2.71233 8.53304
  895 55.0221 -2.78167 -8.60318
  896 179.202 36.0393 6.60616
  897 -0.285309 -5.55344 -2.67412
  898 -0.287251 -5.54762 2.67264
  899 39.7050 3.46491 -11.5951
  900 39.4975 3.39215 11.4658
  901 320.454 10.4148 -16.3467
  902 2.37647 -0.0147267 0.376969
  903 2.35994 -0.0157804 -0.383939
  904 0.485153 -16.1093 1.28806
  905 0.573373 -15.8590 -1.07617
  906 -5.94673 -0.0902593 2.22382
  907 -5.95252 -0.0884727 -2.22292
  908 31.6694 9.38222 -13.7443
  909 32.1655 9.07284 13.5307
  910 -2.78084 0.0169259 -4.78531
  911 -2.79376 0.00697787 4.79365
  912 7.81402 0.887245 -3.49374
  913 7.86825 0.876246 3.49762
  914 34.1056 -0.302978 7.09840
  915 34.0865 -0.301622 -7.14216
  916 27.2916 -0.889817 -5.69147
  917 27.3157 -0.887490 5.67857
  918 156.087 -0.488799 -2.81806
  919 74.4760 15.1945 43.4044
  920 103.291 -10.1215 3.77933
  921 72.2962 -5.03676 3.97600
  922 141.135 14.3596 -20.5028
  923 315.052 6.83780 6.46989
  924 169.629 6.99048 -20.3898
  925 25.4569 -0.976122 3.48799
  926 25.4349 -0.964297 -3.50512
  927 2.77469 -0.129863 -2.57901
  928 2.82492 -0.131415 2.57752
  929 -0.235313 -2.88513 -5.26052
  930 -0.257303 -2.90642 5.27758
  931 74.7520 -3.04920 1.56987
  932 74.7951 -3.11648 -1.58222
  933 7.83537 2.47551 -2.94612
  934 7.89466 2.46393 2.96325
  935 44.5473 -1.90965 -6.49754
  936 44.5734 -1.90866 6.49022
  937 97.0244 -0.550055 -10.1555
  938 45.8596 -2.42878 -4.36214
  939 45.8199 -2.39884 4.37737
  940 116.707 -2.85727 -0.928447
  941 141.117 -8.24598 -19.6885
  942 59.6332 -2.24621 1.79772
  943 59.6670 -2.27041 -1.83087
  944 -2.51912 -0.281574 -1.53265
  945 -2.51266 -0.282243 1.52962
  946 144.755 -11.8839 -21.9635
  947 137.904 -8.02313 12.7893
  948 120.702 -8.21279 -3.56894
  949 115.422 3.80186 18.4323
  950 51.5586 -2.80883 -4.94095
  951 51.5518 -2.75026 4.95805
  952 130.126 4.77648 22.4570
  953 120.502 10.4624 14.7573
  954 254.680 30.9111 5.23111
  955 128.927 -4.28255 3.19657
  956 65.7349 -1.71736 -0.793121
  957 65.7232 -1.67617 0.802105
  958 114.766 -9.22669 -1.60043
  959 158.258 29.1596 -9.96824
  960 142.197 -1.17071 -1.19665
  961 91.4218 -1.84596 0.250044
  962 91.3834 -1.82886 -0.222626
  963 11.0148 9.08111 -5.83536
  964 11.3073 9.05743 5.88627
  965 22.2213 50.3318 -48.5613
  966 130.901 -3.19728 17.0939
  967 165.165 -3.77644 -17.3586
  968 -3.56138 1.55022 1.29579
  969 -3.51997 1.54956 -1.27563
  970 345.313 79.6602 -64.2798
  971 141.105 -15.5740 3.24530
  972 150.919 -14.4562 -4.30630
  973 138.688 -11.9361 11.9469
  974 170.456 33.8361 4.39563
  975 11.7479 11.0852 -13.5781
  976 31.2157 42.9668 47.2382
  977 -0.959737 -2.10855 5.18774
  978 -0.946063 -2.09293 -5.17883
  979 135.497 -3.11558 3.13853
  980 217.664 38.8833 -3.97010
  981 12.1035 10.7874 14.1795
  982 -0.607555 -1.96723 -1.70413
  983 -0.607747 -1.96212 1.70001
  984 115.584 -2.25416 0.510836
  985 85.0560 -6.64868 -5.58851
  986 139.734 -11.1117 -13.9139
  987 38.3150 10.2740 -18.5172
  988 38.9398 10.4484 18.5668
  989 134.955 -3.37645 -15.3452
  990 137.209 -4.05551 5.44511
  991 -3.91829 0.823635 4.28658
  992 -3.90024 0.832333 -4.27354
  993 81.2026 -5.36509 -12.9327
  994 135.346 8.42619 -22.6677
  995 100.982 -3.39757 -0.180106
  996 71.3765 -1.75558 0.0783026
  997 71.3643 -1.77033 -0.0697919
  998 -1.58980 -1.79916 -3.61364
  999 -1.59215 -1.80301 3.61122
  1000 139.057 -4.70088 -6.56986
  1001 132.783 -1.04848 0.240661
  1002 132.658 -1.04950 -0.183547
  1003 182.796 29.1892 -14.8839
  1004 31.2145 2.85155 -8.97375
  1005 31.2908 2.79453 8.94810
  1006 18.8826 -0.119018 -4.66615
  1007 18.9164 -0.123008 4.65728
  1008 149.582 7.61710 24.6761
  1009 143.074 -2.37705 -3.78735
  1010 23.5503 3.89967 -7.13988
  1011 23.6448 3.86932 7.16670
  1012 150.181 -0.487024 -0.698199
  1013 138.675 -5.81492 -9.71613
  1014 135.385 -15.5569 -4.22836
  1015 4.69079 3.71636 -0.871499
  1016 4.54929 3.69887 0.934914
  1017 -6.97505 1.02338 2.66818
  1018 -6.95183 1.02600 -2.65302
  1019 77.1938 3.01462 -3.75398
  1020 236.509 57.3703 -13.5474
  1021 106.119 -7.49002 0.398722
  1022 69.1686 -3.00793 -13.3637
  1023 172.906 -7.79487 3.60340
  1024 69.4438 -3.01000 13.5621
  1025 122.639 -14.4663 8.26442
  1026 139.139 -5.71796 -14.1899
  1027 45.1421 -0.919918 -0.248086
  1028 45.1398 -0.899532 0.245740
  1029 94.0009 -7.15531 -2.43261
  1030 56.5653 -2.04000 -10.2195
  1031 56.5360 -2.05541 10.1572
  1032 18.3035 11.8685 -10.9601
  1033 18.6037 11.8262 10.9919
  1034 37.3965 -1.13087 -0.901249
  1035 37.3928 -1.11449 0.885481
  1036 124.031 -3.53653 1.94586
  1037 104.128 -0.0597370 -35.5781
  1038 128.687 -3.81609 -3.14708
  1039 115.532 -12.8212 -4.46039
  1040 74.5383 -2.88788 1.00546
  1041 74.6053 -2.91271 -1.01130
  1042 152.248 -0.647549 0.878341
  1043 135.006 -2.83878 -2.94995
  1044 81.9732 1.97186 7.06794
  1045 144.070 -1.39542 -6.34342
  1046 54.5776 15.4789 34.3425
  1047 148.854 -1.30810 -5.24986
  1048 37.2479 6.34785 -13.7144
  1049 36.0820 6.42445 13.1107
  1050 178.807 -4.12494 -4.51424
  1051 14.9304 7.99586 -5.30351
  1052 15.0731 7.93556 5.29911
  1053 2.43347 -0.959688 2.23825
  1054 2.56821 -0.937008 -2.14970
  1055 19.8380 -0.542402 1.12197
  1056 19.8262 -0.546619 -1.14017
  1057 62.3453 15.6918 -38.2715
  1058 357.478 89.5839 69.1335
  1059 138.542 -4.70345 6.74081
  1060 123.747 -14.0062 -2.83523
  1061 84.8804 -6.95384 -9.73484
  1062 -2.21265 1.75010 3.89897
  1063 -2.18039 1.75966 -3.87755
  1064 96.2113 -4.63024 0.0543031
  1065 106.652 -3.56373 -0.632227
  1066 -0.0682374 -7.89196 2.59979
  1067 -0.0655474 -7.89842 -2.59872
  1068 15.1048 9.48947 -6.45388
  1069 15.2918 9.46836 6.49522
  1070 94.8671 -4.21925 -0.0350021
  1071 6.39877 3.41601 1.57646
  1072 6.33924 3.42152 -1.55358
  1073 146.350 -6.05245 22.7821
  1074 105.327 -10.9477 -8.12327
  1075 85.3988 -7.06738 9.73270
  1076 138.730 -3.04003 -23.6984
  1077 148.693 -1.32721 2.75747
  1078 51.9559 7.91203 22.6605
  1079 52.3351 7.57695 -22.2691
  1080 84.9003 -4.22165 -18.9657
  1081 121.832 -3.97761 -2.03457
  1082 98.0589 -5.61937 0.681633
  1083 115.557 -10.6792 0.883972
  1084 161.380 -0.452627 -1.53757
  1085 84.5436 -3.59351 0.869599
  1086 84.5061 -3.82138 -0.922198
  1087 2.44012 2.97288 3.46330
  1088 2.50949 2.99559 -3.42411
  1089 139.543 4.88256 -24.4090
  1090 29.8316 1.65213 -7.86379
  1091 29.9102 1.61670 7.83618
  1092 21.8266 0.538968 -5.51054
  1093 21.8724 0.525981 5.49624
  1094 162.013 -7.77451 27.9422
  1095 139.023 -6.35852 14.0403
  1096 66.4995 -2.99734 -11.1951
  1097 164.459 -0.552478 -0.925151
  1098 181.450 34.0170 -11.3755
  1099 148.556 -1.11605 -1.81701
  1100 137.982 -15.0199 6.20002
  1101 101.224 -7.87165 16.4452
  1102 165.878 -0.0809144 0.223827
  1103 81.8025 2.59711 -6.00057
  1104 116.381 -12.4348 -1.35755
  1105 66.6010 -3.13779 11.0543
  1106 117.507 -10.5864 -1.56937
  1107 148.044 -1.88862 4.90128
  1108 101.928 6.46723 9.41814
  1109 71.6496 -5.19303 -8.73195
  1110 226.067 29.4046 -10.1758
  1111 167.449 6.91950 21.2309
  1112 121.889 15.3878 2.33369
  1113 163.571 0.136581 0.860176
  1114 61.7502 -3.75624 -6.52622
  1115 42.3109 25.2441 -38.2638
  1116 76.3914 1.83550 -27.4230
  1117 87.6693 -6.56555 3.71761
  1118 73.6043 -5.43381 8.09953
  1119 61.5861 -3.56161 6.60401
  1120 132.393 0.938818 23.6095
  1121 100.258 -3.11993 0.291863
  1122 160.794 -1.08974 2.00738
  1123 -1.45825 -0.278799 5.24193
  1124 -1.43947 -0.263451 -5.22921
  1125 105.270 -2.60237 -0.402652
  1126 -0.420707 0.939308 4.90679
  1127 -0.387010 0.959075 -4.88316
  1128 57.2289 -1.62522 1.11018
  1129 57.2378 -1.65601 -1.11214
  1130 150.251 -0.746432 4.36207
  1131 120.022 -7.08712 -3.05813
  1132 112.188 -5.68503 -1.48327
  1133 125.867 -8.63114 5.35806
  1134 37.2839 18.0887 -28.1965
  1135 123.557 -4.31969 2.50053
  1136 16.5341 0.412694 -4.47832
  1137 16.5772 0.403702 4.47174
  1138 24.6813 15.6372 -19.4485
  1139 199.258 24.6415 8.88823
  1140 11.6702 -0.597697 2.57003
  1141 11.6313 -0.592526 -2.57656
  1142 25.1311 15.3659 18.7273
  1143 112.545 -9.25525 1.14271
  1144 55.1006 -2.43611 2.29086
  1145 55.1152 -2.44968 -2.34001
  1146 232.743 48.9580 -11.4932
  1147 124.377 -12.4419 2.20302
  1148 41.5999 23.5219 38.1642
  1149 3.36714 -2.34053 -2.44201
  1150 3.64453 -2.29690 2.77383
  1151 128.952 16.2122 11.9181
  1152 8.86308 5.11985 -1.50576
  1153 8.93944 5.12014 1.52640
  1154 125.235 -10.7859 -4.58894
  1155 -0.0619081 -12.2877 -2.47579
  1156 -0.0676375 -12.2913 2.48698
  1157 134.072 -11.2843 -8.71643
  1158 -4.78948 0.176680 0.870545
  1159 -4.84794 0.177696 -0.873387
  1160 19.3254 7.38063 -7.09819
  1161 19.4313 7.41143 7.02186
  1162 -8.84508 0.0232309 -1.06790
  1163 -8.78159 0.0226998 1.06846
  1164 134.903 -1.07064 -0.358681
  1165 -14.0436 0.391767 0.364557
  1166 -14.0080 0.391485 -0.356449
  1167 69.1501 -5.33993 -6.23225
  1168 1.79136 -19.4207 -1.21181
  1169 32.8403 -0.883972 1.79583
  1170 32.8345 -0.888029 -1.82157
  1171 113.649 -1.73922 0.0879973
  1172 113.870 -1.68074 -0.0650422
  1173 1.92106 -18.6111 1.61450
  1174 135.110 -6.86342 -8.35406
  1175 155.366 -0.619500 3.28112
  1176 137.121 -8.71669 -11.8936
  1177 117.419 0.791687 18.2952
  1178 0.536408 -5.39664 4.07161
  1179 0.594646 -5.36092 -4.01094
  1180 86.3849 -6.08870 2.81155
  1181 -6.21501 0.503358 3.40140
  1182 -6.20377 0.507740 -3.39182
  1183 229.340 36.8581 2.19563
  1184 273.209 80.1966 -56.4574
  1185 140.294 -13.7578 10.6490
  1186 55.6584 -1.45680 -0.111935
  1187 55.6577 -1.43520 0.111985
  1188 293.576 28.4691 -25.9476
  1189 17.9734 -0.476466 2.67368
  1190 17.9433 -0.468460 -2.68740
  1191 129.625 -0.426049 -7.33774
  1192 82.7851 -6.60884 7.09269
  1193 138.806 -13.7185 -8.15116
  1194 134.212 -9.67891 -9.58817
  1195 80.7585 -2.95658 19.9334
  1196 28.9176 5.52394 -10.1692
  1197 28.8965 5.47411 10.1036
  1198 38.7368 14.1906 -23.8241
  1199 38.7785 13.1079 23.8211
  1200 10.1703 3.28205 -3.09317
  1201 10.2347 3.27146 3.11435
  1202 164.758 28.4123 -14.6643
  1203 7.94328 7.14219 -2.49568
  1204 8.13994 7.14869 2.55299
  1205 119.082 -8.92052 2.86644
  1206 227.312 30.4214 11.6946
  1207 25.6862 -1.09643 -1.76778
  1208 25.6997 -1.09569 1.74484
  1209 149.745 95.4239 -86.6143
  1210 108.675 6.40115 -14.5822
  1211 98.9407 7.70238 5.92255
  1212 13.1053 5.81276 -3.68066
  1213 13.1695 5.81136 3.70379
  1214 -0.325794 -0.0168418 0.641637
  1215 -0.360702 -0.0168033 -0.648466
  1216 132.234 -10.5453 8.15880
  1217 130.276 -4.92217 4.49950
  1218 88.7720 23.4709 -60.9944
  1219 205.827 44.7243 -0.302759
  1220 87.1702 -2.80938 -22.0788
  1221 113.986 -3.11856 0.841136
  1222 2.18669 -0.580516 -0.166565
  1223 2.18714 -0.580192 0.165540
  1224 -4.20233 0.889101 -1.26435
  1225 -4.15019 0.885217 1.27586
  1226 75.4630 0.673768 -23.2457
  1227 141.934 -2.83736 4.76676
  1228 91.0289 1.27628 32.2630
  1229 124.308 -5.86193 -3.69455
  1230 63.3172 21.6743 -47.5264
  1231 99.0702 -5.10483 -23.9361
  1232 118.429 -12.6443 0.680106
  1233 146.026 -2.15655 7.16851
  1234 128.016 -2.28061 -1.49588
  1235 68.8373 -4.99666 6.27465
  1236 160.797 -9.56726 -13.8224
  1237 151.067 12.7751 23.4226
  1238 64.7601 0.277134 -18.1217
  1239 153.320 -0.683819 0.656127
  1240 118.647 14.9044 -3.32299
  1241 50.4280 -1.63599 -1.76622
  1242 50.4126 -1.61582 1.74111
  1243 235.208 51.4391 9.73964
  1244 326.909 8.71336 15.3236
  1245 0.264599 -15.0573 -2.47278
  1246 0.255547 -15.0759 2.49144
  1247 33.0909 16.9975 26.2422
  1248 80.3347 -2.04380 -0.190934
  1249 80.3516 -2.02838 0.222447
  1250 111.515 -11.1595 -1.67470
  1251 131.847 10.6539 20.4971
  1252 140.928 -2.45520 -3.20112
  1253 165.795 -0.327613 -0.103840
  1254 287.286 63.0612 -39.0877
  1255 41.3572 -1.50113 1.75517
  1256 41.3590 -1.50540 -1.78619
  1257 134.201 -12.4635 8.43869
  1258 239.260 55.4042 -14.5279
  1259 130.309 -5.40435 -5.02801
  1260 93.9781 -6.32512 -1.60596
  1261 116.312 -12.6953 4.30553
  1262 113.757 -5.38320 1.72862
  1263 3.91518 -0.904938 -4.29154
  1264 156.660 -9.93363 16.0392
  1265 126.403 -8.06187 -5.21140
  1266 4.33286 -0.688344 4.85680
  1267 130.240 -10.9456 -22.2854
  1268 123.409 6.58622 -49.8632
  1269 204.486 24.4394 -7.03913
  1270 166.514 0.00487169 -0.0623145
  1271 166.186 -0.151204 0.161826
  1272 128.676 -7.28362 5.51147
  1273 48.0933 5.73638 -17.7758
  1274 146.810 -13.3109 13.1143
  1275 252.298 57.0621 24.7253
  1276 60.5191 19.9819 46.2367
  1277 1.45331 -0.258289 4.25113
  1278 1.51735 -0.228624 -4.20706
  1279 154.964 -13.1225 -11.0656
  1280 59.9346 -3.13154 -2.77253
  1281 59.9186 -3.13902 2.70715
  1282 143.318 -9.60848 19.0386
  1283 3.21324 0.0705895 2.86156
  1284 3.16265 0.0733906 -2.86200
  1285 -0.848103 -3.08074 4.19430
  1286 -0.842741 -3.07420 -4.19444
  1287 22.7649 -0.791022 -2.43943
  1288 22.7857 -0.795965 2.41936
  1289 73.9264 -4.88411 -10.0395
  1290 74.2291 -2.18593 0.363345
  1291 74.2287 -2.24264 -0.334160
  1292 165.730 0.00504788 -0.0504404
  1293 144.999 -2.10252 -8.02924
  1294 9.92384 0.593802 -3.50900
  1295 9.97326 0.585765 3.50833
  1296 74.2248 -5.17597 9.93980
  1297 167.564 -0.0873252 0.0311036
  1298 157.749 0.0843677 -0.170478
  1299 157.759 -0.00879064 0.126929
  1300 206.651 42.3136 4.99579
  1301 153.179 -0.772678 -1.44422
  1302 135.339 -0.986710 0.309072
  1303 150.038 -2.05671 -4.33802
  1304 164.652 -0.415582 0.661546
  1305 168.918 16.7989 21.0585
  1306 196.230 40.0445 7.20342
  1307 158.994 -0.532896 -2.20360
  1308 -1.25507 -0.333720 1.13615
  1309 -1.25992 -0.333448 -1.13945
  1310 86.0366 -5.19263 1.73686
  1311 86.0176 -4.94891 -1.66670
  1312 170.480 18.6922 -20.1813
  1313 34.2129 11.7144 -19.4671
  1314 34.4334 11.3811 19.2368
  1315 112.367 -0.0211435 -9.14224
  1316 118.285 -1.46146 0.0559979
  1317 118.141 -1.44532 -0.0800883
  1318 -2.94607 -0.548501 4.28661
  1319 -2.94069 -0.541097 -4.28460
  1320 130.050 -0.330171 7.32880
  1321 200.057 39.8745 0.844634
  1322 11.1348 -0.512167 -1.54188
  1323 11.1619 -0.513398 1.52641
  1324 147.975 -14.5146 7.96993
  1325 -0.194956 2.21449 4.05484
  1326 -0.153024 2.22805 -4.02813
  1327 24.1505 -0.536071 -0.459854
  1328 24.1530 -0.526068 0.449670
  1329 112.407 -0.212798 9.27695
  1330 0.996554 0.266849 -0.221361
  1331 1.00716 0.267868 0.216267
  1332 151.608 -1.53518 2.89669
  1333 209.828 38.6591 1.34554
</Section>

newXOutput 20

<Section columns = "stress_xx | stress_yy | stress_xy">
  1 179.648 -0.366106 0.322681
  2 179.963 -0.510501 -0.419509
  3 -0.873167 0.178122 -0.480518
  4 -0.113562 -0.180462 -0.107483
  5 337.942 125.178 107.174
  6 343.166 143.875 -108.401
  7 -0.112239 -0.179316 0.105767
  8 -0.873017 0.177146 0.479328
  9 180.948 -0.251962 -0.297491
  10 179.467 -0.540689 -0.415135
  11 179.514 -0.403832 0.450518
  12 178.462 -0.150413 0.248418
  13 177.975 -0.504556 -0.0365380
  14 177.474 -0.475364 0.820058
  15 174.512 -0.296754 0.837943
  16 175.017 -1.22958 1.18476
  17 168.983 -0.992320 2.45210
  18 165.034 -0.379324 2.93381
  19 159.690 -0.511790 3.13806
  20 150.574 -0.449530 4.30305
  21 140.781 -0.407911 4.95177
  22 128.709 0.599320 6.71724
  23 112.316 0.920079 6.04537
  24 105.844 -0.120215 8.60963
  25 85.6453 1.24048 6.09304
  26 73.5145 1.67226 4.74802
  27 70.3671 0.715348 3.49140
  28 66.9836 2.42393 0.246770
  29 68.8231 2.65317 -4.66353
  30 72.5772 0.721684 -5.86403
  31 87.5018 0.245926 -7.86896
  32 102.694 -0.792631 -8.24499
  33 112.908 0.760041 -6.04116
  34 128.897 0.686527 -6.72526
  35 140.388 -0.490065 -5.29966
  36 151.607 -0.540544 -4.07092
  37 158.983 -0.350715 -3.18295
  38 164.513 -0.396771 -2.71030
  39 170.386 -0.560325 -1.59750
  40 172.821 -0.523262 -1.54638
  41 175.163 -0.501690 -1.34721
  42 177.575 -0.585210 -0.331453
  43 178.552 -0.766940 -0.584868
  44 177.595 0.173766 -0.103596
  45 179.315 -0.352917 -0.499470
  46 180.245 -0.837941 0.452335
  47 181.195 -0.458992 -0.0306899
  48 171.467 0.308496 -0.269574
  49 160.631 -0.364513 -0.518838
  50 148.483 -1.14426 -0.785781
  51 136.012 -0.815070 -0.577366
  52 125.229 -1.60394 -0.533771
  53 113.919 -1.78550 -0.497308
  54 102.577 -1.52471 -0.277420
  55 90.7178 -1.69925 -0.362736
  56 80.7296 -1.90748 -0.462374
  57 67.5017 -1.87443 -0.391634
  58 53.9251 -1.13022 -0.250743
  59 42.7231 -0.708835 -0.206947
  60 28.9169 -0.445983 -0.115186
  61 18.8804 -0.487015 -0.715525
  62 9.54075 -0.740799 -0.252685
  63 0.133943 0.0909252 0.401506
  64 -2.24418 0.666148 0.124737
  65 -2.85781 0.275431 0.400069
  66 -2.38350 0.127030 0.376862
  67 -4.13719 0.386365 0.115378
  68 -4.73464 0.499627 0.812943
  69 -4.79881 0.172366 0.225643
  70 -7.80779 0.362690 0.257831
  71 -9.12808 0.260669 0.764604
  72 -9.46964 0.0972068 0.792096
  73 -12.6711 0.347769 0.579060
  74 -13.7717 0.511296 1.18928
  75 -14.9060 0.310514 0.347925
  76 -16.3872 0.222555 0.588562
  77 -16.7879 0.241102 0.169784
  78 -18.1308 0.559193 -0.478409
  79 -18.1341 0.383678 -0.363362
  80 -16.3778 0.297699 -0.623671
  81 -13.9779 0.373416 -1.12406
  82 -11.2581 0.154584 -1.64533
  83 -8.31759 0.0806935 -1.69130
  84 -4.96727 -0.183064 -1.76021
  85 -2.12192 -0.142852 -1.01330
  86 -0.878617 -0.363432 -0.626126
  87 -0.155047 -0.893570 -0.535619
  88 -0.268233 -2.28305 -0.972986
  89 -0.301921 -4.55518 -1.73132
  90 -0.0732374 -8.57445 -1.89238
  91 0.0919723 -11.9495 -2.39873
  92 0.230866 -17.2323 -1.96761
  93 0.705116 -20.5609 -2.33929
  94 0.100744 -22.3967 -1.99791
  95 -0.0486354 -25.9224 -1.30651
  96 0.702168 -25.6386 -0.562115
  97 2.79645 -33.4382 0.980795
  98 2.37572 -19.5865 3.75863
  99 5.78275 -11.1337 8.73841
  100 17.7934 23.1572 29.1899
  101 78.7921 91.8354 86.9036
  102 443.146 45.9355 66.2211
  103 367.210 12.9133 23.7360
  104 348.913 5.51546 8.21496
  105 338.559 3.66075 -0.0388017
  106 345.059 5.25871 -6.71803
  107 370.909 11.0455 -19.7286
  108 438.559 36.7500 -61.9485
  109 50.8739 104.285 -71.8131
  110 12.4712 15.2356 -22.3304
  111 4.24997 -14.0438 -7.12219
  112 2.15127 -21.3092 -3.14753
  113 2.78570 -34.6737 -0.682572
  114 0.673755 -26.1920 0.776547
  115 -0.0892715 -26.2019 1.41898
  116 0.0746091 -22.5067 2.05851
  117 0.691076 -20.5895 2.36517
  118 0.225441 -17.2259 1.97738
  119 0.0878140 -11.9347 2.40251
  120 -0.0752654 -8.55475 1.89158
  121 -0.302229 -4.54245 1.72797
  122 -0.268811 -2.27187 0.969746
  123 -0.154964 -0.889382 0.532706
  124 -0.873560 -0.362989 0.623717
  125 -2.11302 -0.143456 1.01075
  126 -4.95613 -0.184466 1.75882
  127 -8.30507 0.0791913 1.69186
  128 -11.2518 0.152964 1.64837
  129 -13.9826 0.372307 1.12974
  130 -16.3935 0.297656 0.629668
  131 -18.1638 0.383424 0.369131
  132 -18.1719 0.559277 0.484331
  133 -16.8416 0.241780 -0.164795
  134 -16.4501 0.223382 -0.585053
  135 -14.9730 0.311426 -0.345311
  136 -13.8432 0.512350 -1.18856
  137 -12.7437 0.348730 -0.578500
  138 -9.54002 0.0977908 -0.792748
  139 -9.19752 0.261661 -0.766231
  140 -7.87287 0.364105 -0.260113
  141 -4.85428 0.173324 -0.229591
  142 -4.77997 0.500534 -0.818522
  143 -4.17388 0.386560 -0.120370
  144 -2.40726 0.126823 -0.381613
  145 -2.87171 0.274908 -0.403848
  146 -2.25172 0.665202 -0.128055
  147 0.131572 0.0903739 -0.403392
  148 9.53813 -0.743493 0.250622
  149 18.8773 -0.494082 0.713174
  150 28.9158 -0.458645 0.112210
  151 42.7248 -0.727221 0.205337
  152 53.9258 -1.15166 0.250383
  153 67.4965 -1.89314 0.394336
  154 80.7095 -1.91723 0.468242
  155 90.6821 -1.68875 0.376893
  156 102.522 -1.48374 0.294030
  157 113.842 -1.68742 0.471497
  158 125.279 -1.63072 0.471569
  159 136.048 -0.987582 0.608144
  160 148.603 -1.11218 0.719758
  161 160.968 -0.270215 0.525756
  162 171.140 0.298783 0.260801
  163 96.6492 -8.65051 -6.84978
  164 96.2409 -8.80586 6.83478
  165 27.9660 7.87849 -10.5080
  166 28.2469 7.90999 10.4557
  167 115.038 -5.92493 28.5210
  168 120.787 -6.67102 -27.7241
  169 54.3193 -2.76259 3.04701
  170 54.3190 -2.73383 -3.10301
  171 123.170 -3.91595 1.39023
  172 120.578 -3.92745 -1.35489
  173 162.798 29.6257 -4.61833
  174 167.031 0.648494 -23.5379
  175 163.487 2.00225 25.0492
  176 37.2491 -1.34557 -6.94860
  177 37.2447 -1.33391 6.92963
  178 144.312 -14.3690 9.23246
  179 144.090 -11.0829 -12.1939
  180 1.51578 3.00132 4.04978
  181 1.57399 3.02098 -4.01574
  182 197.070 39.8662 8.27522
  183 36.7112 16.1627 -25.0744
  184 39.4962 16.3316 27.0107
  185 139.701 -6.25218 6.06110
  186 210.008 43.4562 -5.20627
  187 88.9260 -2.91422 -0.566448
  188 88.7728 -3.00052 0.555403
  189 143.919 -4.24097 -5.46919
  190 193.051 -2.44918 -0.341347
  191 32.4495 -0.948990 1.10179
  192 32.4459 -0.958694 -1.12334
  193 13.5412 1.94674 -4.47514
  194 13.6056 1.92680 4.48470
  195 79.2054 -3.07595 -17.3888
  196 78.8916 -3.25227 17.6215
  197 94.9931 -5.93017 -1.85497
  198 95.1864 -5.89652 2.04262
  199 22.5553 -0.786520 3.59239
  200 22.5259 -0.774932 -3.60380
  201 191.081 -4.73416 10.3022
  202 154.963 -15.6030 -4.95465
  203 148.041 -1.13716 -0.990835
  204 144.545 -1.43620 1.03343
  205 143.748 16.7894 17.3973
  206 5.74572 4.45420 -1.05275
  207 5.96961 4.43938 1.15146
  208 144.689 -5.91926 20.3028
  209 131.413 9.93993 -19.6681
  210 94.9123 20.1331 -60.0347
  211 99.8016 16.9729 55.7190
  212 1.58287 3.10644 0.250449
  213 1.63698 3.10495 -0.225378
  214 144.124 -5.24663 -20.9298
  215 254.463 35.9756 -2.22302
  216 119.856 -13.1936 9.26688
  217 120.809 -13.1101 -8.68782
  218 119.810 -8.32645 -1.83332
  219 150.259 -2.04702 3.01355
  220 70.4932 -4.72023 -5.88157
  221 69.3260 -4.69888 6.10122
  222 41.7011 0.949649 -10.7513
  223 41.7564 0.932027 10.6470
  224 153.592 -16.5818 0.00128778
  225 118.773 -8.87339 1.32880
  226 149.753 -1.97675 -2.44840
  227 115.360 -2.55674 0.392173
  228 116.419 -2.35042 -0.164026
  229 146.819 -6.44255 12.0905
  230 10.6728 0.170166 -3.82524
  231 10.7210 0.164375 3.82232
  232 -1.97209 -1.36431 -5.07001
  233 -1.98165 -1.37574 5.07447
  234 19.6041 -0.908083 -2.03194
  235 19.6267 -0.910255 2.01110
  236 59.7925 -1.61047 1.32573
  237 59.8117 -1.64456 -1.33970
  238 70.0853 4.71395 -25.9570
  239 70.0923 3.90754 25.6513
  240 149.053 -4.49310 -10.3352
  241 68.2700 -3.91836 -10.1155
  242 68.3233 -4.04091 9.94832
  243 129.145 1.84482 22.1420
  244 111.235 9.63211 1.33190
  245 127.390 -12.6351 -1.85382
  246 0.424499 -3.53000 -4.85797
  247 0.382073 -3.56278 4.89511
  248 7.71540 6.84086 -7.91710
  249 8.23541 6.54564 8.38409
  250 125.202 -12.3522 0.998409
  251 229.089 40.8265 -0.0339649
  252 10.9352 7.55327 -2.88624
  253 11.0737 7.54770 2.92913
  254 -5.19841 0.986639 3.62940
  255 -5.17423 0.991694 -3.61293
  256 230.610 37.9278 1.21972
  257 77.9542 -3.53834 -1.97149
  258 77.8896 -3.47510 1.91415
  259 156.110 -10.7969 19.3377
  260 286.257 46.4370 27.9969
  261 44.5227 -2.28879 -5.62271
  262 44.5063 -2.30492 5.61348
  263 157.668 23.5286 -16.9269
  264 275.586 52.0845 -25.0022
  265 190.892 18.1255 17.4572
  266 209.913 10.4691 -36.6924
  267 127.605 -5.73206 2.88307
  268 144.249 0.445974 -25.1282
  269 137.620 -9.56356 -7.38583
  270 154.103 -2.58255 6.62986
  271 -1.12208 1.45538 -1.09316
  272 -1.06840 1.45047 1.11048
  273 152.848 -6.05142 -35.9824
  274 15.0710 4.90416 -4.40665
  275 15.1454 4.89402 4.43301
  276 146.867 -3.52273 -12.9195
  277 20.3658 19.4692 -25.9408
  278 14.3192 -0.0501714 -0.456258
  279 14.3257 -0.0461926 0.447415
  280 155.435 -9.93035 -20.0992
  281 26.2024 11.7628 -13.4524
  282 26.5888 11.6930 13.4890
  283 5.52321 -0.213911 2.69989
  284 5.47351 -0.210926 -2.70363
  285 127.436 -5.40948 -2.79488
  286 20.4983 19.2453 26.6890
  287 206.501 12.7327 43.4268
  288 53.2623 -2.00192 -1.74534
  289 53.2465 -1.98696 1.71177
  290 100.951 -3.86221 -0.284474
  291 100.899 -4.21530 0.390207
  292 86.1519 7.84654 -40.1791
  293 140.316 -15.4711 -3.84181
  294 161.677 -0.743546 1.36382
  295 82.9071 7.80162 38.7971
  296 96.4950 -2.27758 -0.0582526
  297 96.4568 -2.27494 0.145577
  298 137.826 -9.97651 7.53188
  299 159.819 -1.48483 -3.25123
  300 -2.56866 0.607681 -1.98000
  301 -2.51033 0.603194 1.98741
  302 198.714 39.8841 -2.45404
  303 175.342 -8.75136 11.4517
  304 159.392 -0.541302 -0.403650
  305 162.336 -0.464824 0.365476
  306 157.795 -14.4751 11.7799
  307 194.801 19.3492 -16.4915
  308 168.077 31.3979 10.0195
  309 74.3271 -4.40280 -3.46259
  310 73.6185 -4.48762 3.54640
  311 161.551 -0.705211 -0.978303
  312 103.950 -8.02774 -19.1529
  313 102.052 -7.88845 2.45104
  314 97.3232 -5.49295 22.0321
  315 158.279 -1.69788 3.84469
  316 33.1123 -1.51481 -3.45673
  317 33.1294 -1.52638 3.43714
  318 145.386 -5.70805 35.5766
  319 90.6107 -7.03253 -4.30633
  320 168.468 21.2831 21.4010
  321 52.3679 3.71788 -16.4243
  322 50.3579 3.88236 16.2712
  323 12.4475 -0.299777 -0.832341
  324 12.4637 -0.297489 0.818215
  325 139.334 -2.45967 1.94444
  326 133.515 -1.50681 0.386282
  327 132.735 -1.68722 -0.435124
  328 145.649 -3.71431 13.6599
  329 9.84205 -0.428112 1.96427
  330 9.80205 -0.423823 -1.97616
  331 39.8246 -0.882754 -0.688484
  332 39.8215 -0.865385 0.679037
  333 1.27123 -7.30728 -2.99030
  334 1.17960 -7.35942 3.09942
  335 110.344 4.71328 14.9267
  336 177.103 -8.38608 -9.74185
  337 113.254 -5.73370 1.27153
  338 128.910 -2.21416 -1.17842
  339 132.152 16.5184 -9.28807
  340 24.1820 -0.744718 -5.10809
  341 24.2102 -0.744930 5.10067
  342 110.001 -5.38504 -0.668921
  343 29.5715 1.13326 -7.41953
  344 29.6255 1.10635 7.39025
  345 5.30085 4.90462 0.644335
  346 5.37313 4.90254 -0.614574
  347 134.651 -14.7113 12.2600
  348 304.801 20.2156 7.77057
  349 117.055 1.63168 -17.7175
  350 99.1401 -8.91027 11.2902
  351 98.6327 -8.73932 -11.6688
  352 146.996 -2.70031 24.9610
  353 129.567 -1.03136 17.6194
  354 132.837 -14.2274 -12.7077
  355 77.4330 -1.71759 -0.0675139
  356 77.4223 -1.74238 0.0874831
  357 146.963 -9.62304 15.7757
  358 201.123 40.3918 1.63567
  359 158.920 -1.62127 -4.90701
  360 37.9808 -1.42060 -2.42675
  361 37.9913 -1.42143 2.39586
  362 149.136 -14.6415 -15.4823
  363 155.274 10.5495 -25.0356
  364 100.815 5.44496 -9.54843
  365 147.934 -9.96387 -17.9001
  366 -4.94335 0.118339 -3.92303
  367 -4.94897 0.112674 3.92815
  368 124.309 -2.58112 0.899446
  369 -1.77102 -1.06174 -2.27253
  370 -1.76913 -1.06219 2.26816
  371 96.7128 45.0751 -73.4679
  372 3.43105 2.93417 3.02053
  373 3.52567 2.95866 -2.97049
  374 128.490 -1.09057 -17.4689
  375 70.0259 -2.80043 1.47155
  376 70.0816 -2.84254 -1.49499
  377 -0.542890 -5.34492 4.45667
  378 -0.534822 -5.33509 -4.45168
  379 78.1553 47.3966 69.0211
  380 57.0531 -2.96237 -7.76792
  381 57.0933 -2.82672 7.77360
  382 17.9068 12.9072 -12.3039
  383 18.2961 12.8619 12.2227
  384 -7.92517 1.08748 1.64060
  385 -7.89235 1.08896 -1.62333
  386 149.495 9.72837 24.9472
  387 114.888 -12.0178 4.64729
  388 115.009 -10.3799 1.12338
  389 140.195 -16.0819 -0.395208
  390 33.5739 4.32853 -10.4964
  391 33.6848 4.31858 10.4753
  392 2.92366 -5.61725 -0.343627
  393 2.75469 -5.68681 0.584352
  394 139.584 20.0750 6.17409
  395 143.432 -3.82812 4.55197
  396 80.2841 -6.14475 6.98412
  397 48.8185 -1.15719 -9.44373
  398 48.8310 -1.16582 9.36068
  399 103.373 -2.79694 0.0893223
  400 103.255 -2.40651 -0.177628
  401 79.5981 -6.31979 -7.48436
  402 61.8166 -0.998373 -13.0372
  403 61.8008 -1.08581 13.1459
  404 149.126 -13.7982 -11.6162
  405 85.0923 -6.40305 4.09023
  406 135.831 -3.82877 2.94689
  407 135.616 -3.44884 -2.52829
  408 112.825 -10.2972 -1.54403
  409 164.933 -0.508264 -1.43413
  410 53.7132 21.1300 -40.5512
  411 153.647 -2.10602 7.95734
  412 164.270 -0.669401 2.05473
  413 55.8892 -2.90587 4.47467
  414 55.9209 -2.86456 -4.47073
  415 114.361 -11.8716 -4.85167
  416 15.3375 7.06219 4.72362
  417 15.2530 7.05855 -4.73082
  418 308.092 20.1995 -15.9633
  419 132.800 -7.35337 -4.54148
  420 166.415 -0.366129 0.827315
  421 50.6133 19.6293 38.5089
  422 244.122 41.3208 7.23855
  423 143.332 -1.84327 -1.57279
  424 105.668 -7.47861 -1.11327
  425 43.0701 8.33258 -18.6428
  426 45.9637 7.73576 18.5314
  427 131.112 -8.11293 4.62489
  428 138.024 -1.80616 -13.0581
  429 -3.00269 -0.108938 2.00743
  430 -3.06247 -0.107449 -2.00707
  431 48.9554 11.6574 -25.3770
  432 49.1088 11.7028 25.2953
  433 4.82032 2.74209 -1.78080
  434 4.87980 2.73549 1.80240
  435 117.486 -1.88934 0.403007
  436 117.345 -1.82891 -0.360980
  437 146.559 -6.59840 -12.6232
  438 -0.585500 -0.654304 5.60624
  439 -0.559604 -0.632121 -5.58665
  440 151.169 -15.0843 10.3925
  441 143.298 -3.54426 -4.06610
  442 231.870 44.5117 -5.71914
  443 6.14935 -0.395720 0.895786
  444 6.11721 -0.395826 -0.908201
  445 281.871 77.7331 33.2907
  446 5.30797 0.0563634 -7.18997
  447 15.4419 0.868901 -4.92665
  448 15.4941 0.855626 4.92327
  449 280.663 79.3640 -31.4807
  450 5.62617 0.678606 8.01240
  451 -7.87100 0.871400 0.665966
  452 -7.82912 0.869841 -0.649872
  453 14.6067 9.96381 -6.84880
  454 14.8689 9.96321 6.88872
  455 180.162 27.8545 -18.0904
  456 145.153 -5.49027 -8.36709
  457 165.468 -0.422801 -0.749531
  458 151.467 -2.25637 -9.28078
  459 -2.04038 0.950835 5.15896
  460 -2.01414 0.964889 -5.14078
  461 146.615 -5.75698 9.62606
  462 93.9095 -5.04740 -1.42268
  463 93.6086 -5.10381 1.09213
  464 128.814 -14.2445 -0.819487
  465 91.1473 -1.46240 -27.2913
  466 139.538 -2.17010 13.3667
  467 114.517 -3.35814 -0.520551
  468 169.882 -13.3133 -0.219919
  469 88.2350 0.545177 29.3369
  470 4.30452 -0.0992383 1.93591
  471 4.25469 -0.0966220 -1.94198
  472 184.719 36.6063 -8.48011
  473 149.610 -0.787992 0.171925
  474 149.077 -0.933484 -0.313566
  475 111.210 -7.20463 -0.145829
  476 46.4569 -1.49342 -1.30828
  477 46.4482 -1.47318 1.28725
  478 26.9552 -0.249639 -6.06403
  479 26.9832 -0.255014 6.04742
  480 89.9374 3.50585 5.68572
  481 21.1195 -0.723902 2.86177
  482 21.0924 -0.716522 -2.88010
  483 23.7835 2.42521 6.81019
  484 23.7043 2.46105 -6.80684
  485 143.842 -11.1082 11.7458
  486 79.1321 -4.90429 -12.1706
  487 72.4768 -2.12801 0.677266
  488 72.5073 -2.18908 -0.679926
  489 79.9862 -5.06240 12.1624
  490 225.926 52.9531 -2.61313
  491 -3.61773 -0.566329 -2.98340
  492 -3.61624 -0.569130 2.98209
  493 54.1626 -1.38372 -0.527126
  494 54.1576 -1.35869 0.523997
  495 0.0310347 -9.95602 -3.83041
  496 0.00763857 -9.98781 3.86268
  497 131.639 -1.60017 0.726991
  498 89.3032 4.34205 -2.83776
  499 122.911 12.9629 8.29317
  500 78.7596 -0.827430 -21.5004
  501 36.9222 -1.87711 4.36708
  502 36.9241 -1.86081 -4.37790
  503 -11.1952 0.340488 -0.566973
  504 -11.1385 0.338527 0.573970
  505 155.011 -3.18684 -24.9794
  506 9.17899 0.0968478 -0.627419
  507 9.19060 0.0989159 0.617327
  508 129.045 -10.0236 -4.03564
  509 137.723 -11.6610 -7.27906
  510 27.2500 20.0977 -26.8808
  511 115.608 2.52961 -43.8355
  512 0.934291 3.30020 2.79664
  513 0.988118 3.30651 -2.76729
  514 68.9581 -3.02687 -2.27909
  515 68.9184 -2.99558 2.21460
  516 200.775 7.13230 -7.02368
  517 143.323 -8.34710 -10.6166
  518 26.5431 18.9233 26.4801
  519 142.045 -16.2961 2.59240
  520 136.407 -12.9407 5.95707
  521 26.2795 -0.627425 -1.86355
  522 26.2906 -0.624301 1.84068
  523 109.077 1.10960 13.6947
  524 79.5876 -5.73668 -4.41369
  525 151.797 -3.14499 6.10410
  526 -0.640167 -3.67562 -2.88660
  527 -0.641750 -3.67325 2.88290
  528 105.101 -9.39282 13.6931
  529 161.562 -12.7078 -13.7664
  530 212.631 13.0228 -5.06247
  531 113.060 -3.50034 0.621840
  532 30.9223 -0.537174 -0.559701
  533 30.9226 -0.524506 0.553486
  534 70.6104 0.528852 20.6594
  535 201.685 32.8465 13.2072
  536 208.075 36.5260 -70.1578
  537 183.981 0.207553 13.5627
  538 131.454 -14.6544 0.0938194
  539 318.124 25.2809 21.3068
  540 232.110 54.8701 4.31937
  541 30.3518 -1.23889 4.79162
  542 30.3335 -1.22579 -4.80320
  543 126.237 -10.3267 3.24925
  544 8.47918 4.41370 -1.51266
  545 8.54739 4.41008 1.53858
  546 159.542 -13.5508 13.7372
  547 127.879 6.77935 20.3442
  548 161.468 -0.917276 3.37234
  549 117.980 -6.82786 1.78476
  550 167.652 -0.110550 -46.2023
  551 268.907 65.1719 44.1033
  552 128.613 -2.14245 -0.678846
  553 158.209 -1.49613 -5.32532
  554 23.6456 9.97812 -9.85590
  555 23.8196 9.85613 9.80340
  556 88.7030 -3.29422 -0.862346
  557 88.6590 -3.20644 0.889842
  558 0.948328 -12.9783 -0.729179
  559 160.720 -6.07748 22.5225
  560 5.58051 5.19240 1.28497
  561 5.67601 5.20538 -1.24121
  562 1.12245 -12.5896 1.06808
  563 145.839 -6.69865 -18.0291
  564 168.092 10.1512 -24.3171
  565 167.400 11.5508 24.2941
  566 7.61192 5.79282 5.01384
  567 7.21121 5.95934 -4.88227
  568 -6.32964 0.170433 1.48160
  569 -6.39196 0.172031 -1.47922
  570 155.878 2.56208 47.7370
  571 83.1819 -4.40541 2.10103
  572 83.2705 -4.38918 -2.16372
  573 188.638 -4.78634 -23.3090
  574 21.1201 -0.279415 1.08506
  575 21.1125 -0.285122 -1.10029
  576 7.75787 -0.287883 -0.264231
  577 7.76205 -0.285940 0.260712
  578 205.807 36.4255 -11.1807
  579 19.0298 24.9730 -29.9438
  580 103.839 2.00156 -11.5732
  581 149.724 24.0538 -10.5848
  582 1.99485 -0.592387 3.78149
  583 2.08562 -0.561595 -3.72068
  584 157.117 66.1142 83.0581
  585 130.502 -3.27842 -1.81921
  586 3.26089 1.34346 -2.35753
  587 3.31870 1.33371 2.37007
  588 150.655 -12.2545 15.9439
  589 22.5717 24.1153 30.4887
  590 107.920 -1.89138 0.0205816
  591 107.948 -1.87197 -0.0210558
  592 -0.152619 -7.84142 3.90303
  593 -0.140910 -7.82837 -3.89025
  594 184.247 36.2712 -0.294817
  595 117.126 -9.68567 19.9928
  596 111.615 -4.45295 0.595730
  597 112.767 4.32201 46.2955
  598 -9.54611 0.453013 2.39108
  599 -9.53627 0.455440 -2.38207
  600 186.361 1.51174 -14.4957
  601 252.220 38.2654 -30.7533
  602 69.1814 6.81825 -30.2634
  603 35.9733 -1.45933 -5.89162
  604 36.0030 -1.45894 5.89014
  605 169.895 -0.420518 1.00942
  606 110.456 -4.55802 -0.744982
  607 150.040 -1.72580 2.27190
  608 145.859 -6.68399 17.6207
  609 3.18456 -0.229075 0.936436
  610 3.14306 -0.228036 -0.945761
  611 85.1177 -2.68890 -0.475084
  612 85.1037 -2.60442 0.447821
  613 52.4240 1.21626 -13.4732
  614 52.0702 1.23067 13.4040
  615 214.114 10.5598 10.0536
  616 355.106 26.7495 -39.0060
  617 -4.84985 -0.201425 1.31455
  618 -4.91288 -0.200691 -1.31502
  619 48.6792 -1.97548 2.45533
  620 48.6816 -1.97369 -2.49754
  621 198.508 9.50845 9.73532
  622 168.233 -0.380570 -0.321277
  623 167.840 -0.650310 0.159417
  624 117.209 -0.116235 13.5892
  625 174.580 -11.1454 -13.5870
  626 92.7106 -7.49104 5.30459
  627 -2.74092 2.04025 -2.50466
  628 -2.78115 2.03754 2.52753
  629 149.769 2.77717 26.0278
  630 57.7343 -3.23236 -6.08422
  631 57.6697 -3.28880 6.09670
  632 122.352 -6.81343 -2.24446
  633 152.588 -3.10333 -5.53914
  634 85.1730 -6.71849 -8.53181
  635 139.838 16.8581 -15.7934
  636 94.6757 -6.60054 -16.1007
  637 32.2437 -0.845693 -0.924514
  638 32.2443 -0.834088 0.908731
  639 86.0954 -6.84800 8.55403
  640 188.198 29.8129 16.5728
  641 149.192 -7.43219 22.1728
  642 122.175 -5.11630 1.98742
  643 86.0789 -1.98362 0.427247
  644 86.0567 -1.98958 -0.410074
  645 63.8848 -2.20633 -1.69440
  646 63.8560 -2.17860 1.67037
  647 144.043 -13.2671 -9.76413
  648 71.0050 -3.85197 2.99921
  649 71.0885 -3.83701 -3.07827
  650 142.005 22.1031 -2.13627
  651 133.058 -6.73512 4.54259
  652 168.775 -0.644126 -1.52459
  653 140.302 -2.74676 -22.7869
  654 18.0500 -0.829813 3.83744
  655 18.0151 -0.823659 -3.84332
  656 164.081 -0.761508 -3.04629
  657 27.8366 14.2113 -18.6365
  658 28.3231 14.1702 18.7295
  659 166.948 -10.9954 19.6235
  660 55.7098 13.6375 31.8626
  661 11.8066 -0.0296958 3.84839
  662 11.7631 -0.0266015 -3.85257
  663 141.503 -9.77594 26.1237
  664 140.213 17.6286 -63.6870
  665 133.527 3.99921 -22.6139
  666 177.813 32.0142 14.0255
  667 119.981 -4.99824 -1.44714
  668 216.878 39.5183 -0.955472
  669 -11.4006 0.491770 -0.252199
  670 -11.3522 0.490367 0.262393
  671 95.1394 0.0792221 -32.2187
  672 3.34374 -0.129385 0.745290
  673 3.31706 -0.129760 -0.754668
  674 120.078 -10.4148 -19.7354
  675 38.3358 5.39073 -12.9283
  676 38.0147 5.40622 12.9183
  677 -0.193915 1.96484 -0.323570
  678 -0.141413 1.96172 0.345349
  679 101.301 -8.63314 -3.65164
  680 144.282 -1.41104 -8.80620
  681 66.9755 -1.87426 -0.636008
  682 66.9757 -1.84934 0.642078
  683 47.6851 -2.37396 -3.79187
  684 47.7191 -2.40880 3.77347
  685 8.75447 7.21540 -1.74573
  686 8.90941 7.22844 1.79608
  687 149.896 -1.43605 1.24477
  688 64.0708 -3.95910 4.96640
  689 64.5078 -3.88486 -4.95938
  690 165.367 -13.7989 -3.83552
  691 135.446 -13.6056 -4.49617
  692 105.767 -2.60786 0.274039
  693 105.377 -2.40021 -0.214953
  694 149.791 -16.2579 6.50713
  695 244.603 49.0807 11.3937
  696 131.360 -6.51711 -32.8806
  697 150.609 -4.06753 9.49087
  698 148.729 -5.76077 -23.6728
  699 43.8814 -1.28317 -1.71449
  700 43.8759 -1.27160 1.68648
  701 116.426 -2.61836 37.0555
  702 334.484 42.4437 38.9790
  703 21.0868 6.36597 -7.06336
  704 21.1160 6.40739 7.08734
  705 149.523 -1.08067 -0.645552
  706 150.756 -0.945654 0.654749
  707 62.1972 29.8180 -52.5823
  708 158.124 -0.733334 5.28117
  709 136.610 -1.94012 1.13077
  710 178.312 35.6201 -5.29530
  711 16.8354 3.24626 -4.98752
  712 16.9110 3.22516 5.00668
  713 171.820 -0.284462 0.214148
  714 137.072 -4.96607 -4.33384
  715 171.183 -3.20315 20.1394
  716 68.1059 -4.69438 -8.10896
  717 68.2782 -4.48354 8.01860
  718 13.2408 -0.505920 2.90716
  719 13.2022 -0.499141 -2.91775
  720 156.563 -0.741810 -1.09295
  721 134.533 24.1916 67.8066
  722 0.705881 0.657653 4.86250
  723 0.754907 0.685527 -4.82898
  724 156.607 -1.40923 -2.67218
  725 151.746 -2.48814 3.78125
  726 116.603 -0.000930586 -14.5750
  727 1.04735 -14.5452 -2.15493
  728 0.973969 -14.6794 2.28988
  729 53.5590 14.0244 -31.8429
  730 119.777 -12.2158 -13.8311
  731 61.6115 29.5879 53.1427
  732 169.309 -0.255057 0.642630
  733 159.639 23.8111 17.0348
  734 113.979 10.4256 -5.76116
  735 211.168 42.6398 -1.17706
  736 166.622 -0.554018 2.02848
  737 -11.3397 0.248661 1.02657
  738 -11.4017 0.250034 -1.02236
  739 176.669 -10.9722 2.62393
  740 112.877 -2.85629 0.330775
  741 39.3914 0.161673 -9.02353
  742 39.4396 0.120858 8.96209
  743 152.047 -1.45225 -1.68208
  744 269.880 38.3314 -13.2215
  745 14.9861 -0.477456 -1.74835
  746 15.0167 -0.480435 1.73187
  747 170.482 -0.314509 -0.971516
  748 30.7095 -1.38027 -2.45225
  749 30.7250 -1.38520 2.42802
  750 164.630 -7.04976 -20.5709
  751 151.761 -1.53092 7.17983
  752 134.465 -1.06521 22.4308
  753 171.015 -0.328851 -0.0727741
  754 158.644 -0.917880 2.07973
  755 101.628 -5.18069 -0.235048
  756 128.795 -2.98571 1.45854
  757 146.222 -9.00246 -15.3072
  758 142.771 -8.85944 10.3076
  759 166.584 19.7664 -21.5783
  760 140.880 -7.70798 7.83429
  761 148.461 -8.91478 19.3516
  762 84.6929 -5.53952 2.98934
  763 2.86926 -1.82362 -0.977000
  764 2.70560 -1.83159 1.13132
  765 130.623 -1.52723 0.0815298
  766 130.339 -1.51257 -0.131281
  767 158.225 -0.406415 -0.137121
  768 158.801 -0.371874 0.176098
  769 148.875 -4.09137 11.4797
  770 137.567 -13.0964 18.4864
  771 112.083 -8.91868 0.565325
  772 99.1143 -5.64019 0.995603
  773 275.647 35.4686 15.6208
  774 151.049 -3.63451 -7.60470
  775 87.5292 14.4451 -49.4842
  776 140.029 -6.68139 -6.83524
  777 3.74419 0.147557 -2.66748
  778 3.79978 0.142444 2.67000
  779 122.044 10.7052 -12.9324
  780 326.040 9.93210 -4.31189
  781 156.846 3.64037 -25.6541
  782 5.99977 0.299487 -11.1776
  783 160.275 29.0883 4.39312
  784 126.122 -7.76909 3.04905
  785 140.976 -3.68557 22.1422
  786 119.134 -12.7467 13.9119
  787 193.938 -3.01309 29.2828
  788 6.46857 1.76594 12.0026
  789 85.3298 -0.687617 24.8142
  790 120.628 -2.69862 -0.768232
  791 134.767 -12.5324 -18.7299
  792 81.1301 -6.20510 -5.72406
  793 63.8820 2.97986 -21.4855
  794 155.705 -2.78517 25.1569
  795 98.9568 -6.53139 2.01264
  796 16.0972 -0.501106 1.60984
  797 16.0767 -0.501882 -1.62813
  798 144.739 -0.762443 7.81405
  799 129.873 0.491012 -21.7160
  800 -11.8557 0.509738 1.54775
  801 -11.8382 0.510593 -1.53806
  802 96.2191 -2.67190 0.0328373
  803 95.9248 -2.50367 -0.0622299
  804 71.0279 7.67277 30.7369
  805 62.4028 -3.52722 3.63161
  806 62.4992 -3.43591 -3.67918
  807 170.473 -0.188244 -0.566418
  808 57.3225 4.49661 20.8912
  809 -1.06353 -0.0514118 1.02623
  810 -1.11712 -0.0501545 -1.03191
  811 142.944 -4.47161 17.2278
  812 155.145 -1.01699 0.890300
  813 -8.27739 0.0741867 2.32216
  814 -8.27800 0.0767238 -2.31760
  815 93.4211 -5.98586 18.2299
  816 17.4084 14.0215 -15.5218
  817 17.6289 13.3108 15.2675
  818 84.7435 3.82463 2.36309
  819 -4.16098 -0.0693559 -1.18649
  820 -4.09867 -0.0702510 1.18451
  821 107.860 -10.3602 -12.9958
  822 148.524 -15.7862 -6.60769
  823 -0.727544 -0.692716 -0.907512
  824 -0.725501 -0.691190 0.904259
  825 4.22792 0.271028 -0.225687
  826 4.23536 0.272512 0.220339
  827 131.680 -11.6255 4.59010
  828 110.248 -11.3435 8.66284
  829 122.925 -1.64925 0.584169
  830 109.933 -8.69104 -1.00164
  831 37.7223 -0.539610 -0.153599
  832 37.7209 -0.522890 0.149639
  833 -13.5305 0.282995 0.963104
  834 -13.5027 0.282591 -0.953680
  835 139.683 -1.41735 -0.861280
  836 120.150 4.59761 -18.3917
  837 141.129 -2.44383 -2.36263
  838 81.2959 -6.08229 5.41657
  839 137.745 -2.49165 -18.0633
  840 148.718 -4.45096 -11.8675
  841 140.281 -1.16097 0.780662
  842 100.942 -4.13260 25.4858
  843 107.868 -10.4731 -4.40357
  844 63.9684 -0.467312 -16.2261
  845 64.3305 -0.0217398 16.3109
  846 91.3656 -6.66330 -3.24537
  847 152.489 16.3075 21.9163
  848 146.379 -15.6503 -9.46456
  849 50.0614 -1.47448 -0.823397
  850 50.0519 -1.44893 0.811785
  851 111.008 -2.12236 -0.165566
  852 111.010 -2.14361 0.196342
  853 131.074 -1.04111 -11.7605
  854 42.3317 -1.73898 -3.04920
  855 42.3503 -1.75269 3.01663
  856 0.501262 -14.3167 -2.95770
  857 0.472650 -14.3770 3.01419
  858 19.2899 -0.283225 -0.159928
  859 19.2867 -0.290271 0.155188
  860 138.513 -1.78865 -1.21597
  861 103.693 -9.86624 7.75978
  862 163.247 -14.4622 7.10981
  863 91.0358 1.93207 9.05990
  864 141.599 -2.99679 2.68271
  865 154.158 -14.0803 -12.8299
  866 20.4403 1.44331 -5.86815
  867 20.5007 1.41995 5.86179
  868 122.278 -1.80044 -0.537799
  869 97.4254 -3.05734 -0.306561
  870 97.0699 -3.02559 0.392979
  871 150.197 23.4695 11.9123
  872 51.1307 -0.429189 -11.0369
  873 51.0739 -0.490645 10.9799
  874 104.671 -9.34288 3.31718
  875 9.31333 6.32889 -1.45439
  876 9.41083 6.31480 1.48061
  877 88.1063 -6.30839 14.6283
  878 106.238 -6.52771 -0.189322
  879 131.911 -1.07667 11.8855
  880 131.371 -14.9153 3.53901
  881 150.829 -11.6422 -17.0849
  882 103.441 -9.94818 -7.89057
  883 85.3333 -5.51317 -2.84354
  884 288.952 23.9421 -4.37430
  885 137.763 -14.6603 3.70197
  886 3.31489 4.24552 2.26743
  887 3.38490 4.25278 -2.23163
  888 119.220 -11.8828 1.13021
  889 131.205 -14.9665 -7.27963
  890 3.37951 3.80229 0.798954
  891 3.44031 3.80247 -0.772022
  892 47.5276 -1.60872 8.21438
  893 47.5648 -1.66249 -8.27224
  894 58.1169 -2.86698 9.04232
  895 58.1016 -2.94006 -9.11615
  896 189.034 38.0119 6.91588
  897 -0.300193 -5.85769 -2.81985
  898 -0.302241 -5.85152 2.81827
  899 41.9393 3.65552 -12.2760
  900 41.7206 3.57883 12.1398
  901 337.615 10.9709 -17.2161
  902 2.63955 -0.0162510 0.400853
  903 2.62168 -0.0173605 -0.408195
  904 0.513778 -16.9495 1.34183
  905 0.606919 -16.6853 -1.11826
  906 -6.27242 -0.0945777 2.34473
  907 -6.27856 -0.0926905 -2.34379
  908 33.4540 9.90800 -14.5477
  909 33.9779 9.58120 14.3224
  910 -2.92623 0.0219572 -5.04174
  911 -2.93987 0.0114434 5.05054
  912 8.30485 0.934427 -3.71084
  913 8.36225 0.922824 3.71503
  914 36.0443 -0.323859 7.52469
  915 36.0239 -0.322408 -7.57073
  916 28.8644 -0.943013 -6.03470
  917 28.8901 -0.940578 6.02119
  918 164.578 -0.518965 -2.95954
  919 78.5886 16.0598 45.8365
  920 108.977 -10.6812 4.03448
  921 76.3168 -5.32239 4.23066
  922 148.918 15.1570 -21.5656
  923 331.925 7.20047 6.81591
  924 178.890 7.39912 -21.4109
  925 26.9465 -1.03350 3.70108
  926 26.9230 -1.02101 -3.71908
  927 3.00839 -0.138186 -2.73602
  928 3.06162 -0.139824 2.73451
  929 -0.243116 -3.03354 -5.54034
  930 -0.266322 -3.05602 5.55834
  931 78.9081 -3.22849 1.67921
  932 78.9533 -3.29940 -1.69219
  933 8.31635 2.61166 -3.13599
  934 8.37906 2.59945 3.15416
  935 47.0620 -2.02049 -6.88953
  936 47.0897 -2.01948 6.88191
  937 102.473 -0.576351 -10.6932
  938 48.4526 -2.56880 -4.63133
  939 48.4110 -2.53728 4.64746
  940 123.101 -3.02992 -0.956861
  941 148.852 -8.69262 -20.7003
  942 62.9773 -2.37906 1.91700
  943 63.0128 -2.40455 -1.95193
  944 -2.65856 -0.296725 -1.61730
  945 -2.65172 -0.297431 1.61409
  946 152.651 -12.5056 -23.2231
  947 145.452 -8.46498 13.4342
  948 127.319 -8.67151 -3.71935
  949 121.840 4.01800 19.4021
  950 54.4589 -2.97038 -5.24462
  951 54.4520 -2.90865 5.26270
  952 137.316 5.04720 23.6318
  953 127.199 11.0448 15.5305
  954 268.486 32.5747 5.51993
  955 135.975 -4.52979 3.33937
  956 69.4088 -1.82296 -0.846474
  957 69.3966 -1.77957 0.855954
  958 121.067 -9.73995 -1.64143
  959 166.972 30.7596 -10.4696
  960 149.932 -1.24840 -1.24848
  961 96.4692 -1.96330 0.267411
  962 96.4288 -1.94524 -0.238528
  963 11.6456 9.61017 -6.20038
  964 11.9544 9.58542 6.25422
  965 23.4409 53.3280 -51.2799
  966 138.112 -3.36996 17.9848
  967 174.178 -3.95761 -18.2197
  968 -3.72668 1.63650 1.35029
  969 -3.68292 1.63581 -1.32897
  970 363.779 84.0084 -67.7644
  971 148.817 -16.4168 3.35807
  972 159.151 -15.2264 -4.60959
  973 146.277 -12.5876 12.5379
  974 179.828 35.6847 4.60723
  975 12.4153 11.7634 -14.3787
  976 32.9406 45.5480 49.8991
  977 -1.00742 -2.21727 5.46621
  978 -0.992994 -2.20078 -5.45682
  979 142.890 -3.29885 3.28272
  980 229.538 40.9896 -4.21323
  981 12.7907 11.4494 15.0130
  982 -0.640400 -2.07616 -1.79825
  983 -0.640601 -2.07076 1.79389
  984 121.916 -2.39455 0.523592
  985 89.7619 -7.02064 -5.93829
  986 147.382 -11.7177 -14.6119
  987 40.4634 10.8514 -19.5855
  988 41.1229 11.0354 19.6380
  989 142.372 -3.56122 -16.1411
  990 144.701 -4.28792 5.70821
  991 -4.12251 0.872678 4.51337
  992 -4.10346 0.881876 -4.49961
  993 85.6964 -5.66146 -13.6891
  994 142.816 8.89834 -23.8486
  995 106.540 -3.59936 -0.168344
  996 75.3532 -1.86447 0.0864641
  997 75.3403 -1.88000 -0.0774916
  998 -1.67508 -1.89588 -3.81101
  999 -1.67756 -1.89994 3.80844
  1000 146.650 -4.96709 -6.89204
  1001 140.018 -1.12222 0.250165
  1002 139.886 -1.12333 -0.190055
  1003 192.786 30.8095 -15.6010
  1004 32.9848 3.00763 -9.50746
  1005 33.0655 2.94748 9.48053
  1006 19.9941 -0.128612 -4.94968
  1007 20.0300 -0.132831 4.94041
  1008 157.795 8.04832 25.9499
  1009 150.869 -2.51830 -3.96840
  1010 24.8957 4.11520 -7.57129
  1011 24.9956 4.08321 7.59971
  1012 158.328 -0.525447 -0.728841
  1013 146.257 -6.13944 -10.2027
  1014 142.789 -16.3977 -4.52013
  1015 4.96497 3.94636 -0.888108
  1016 4.81563 3.92776 0.955084
  1017 -7.34095 1.08126 2.80488
  1018 -7.31643 1.08404 -2.78886
  1019 81.5993 3.18200 -3.95340
  1020 249.357 60.5359 -14.3840
  1021 111.956 -7.91103 0.379619
  1022 73.0111 -3.17556 -14.1432
  1023 182.314 -8.18757 3.71701
  1024 73.3015 -3.17756 14.3526
  1025 129.361 -15.2519 8.77225
  1026 146.761 -6.03275 -14.9163
  1027 47.7109 -0.977850 -0.264571
  1028 47.7088 -0.956378 0.262103
  1029 99.1885 -7.55719 -2.60693
  1030 59.7262 -2.15673 -10.8233
  1031 59.6957 -2.17303 10.7577
  1032 19.3429 12.5470 -11.6117
  1033 19.6599 12.5025 11.6455
  1034 39.5469 -1.19857 -0.960196
  1035 39.5433 -1.18131 0.943593
  1036 130.815 -3.74492 2.02557
  1037 109.845 -0.0443601 -37.5748
  1038 135.721 -4.03838 -3.28860
  1039 121.874 -13.5234 -4.75744
  1040 78.6834 -3.05849 1.07914
  1041 78.7539 -3.08465 -1.08526
  1042 160.505 -0.693516 0.916949
  1043 142.371 -3.00759 -3.08521
  1044 86.6301 2.08447 7.44379
  1045 151.956 -1.47290 -6.66963
  1046 57.6108 16.3566 36.2832
  1047 156.981 -1.38215 -5.51791
  1048 39.3420 6.70163 -14.5150
  1049 38.1126 6.78230 13.8778
  1050 188.532 -4.30978 -4.67044
  1051 15.7877 8.44695 -5.63544
  1052 15.9384 8.38336 5.63094
  1053 2.57737 -0.983742 2.33600
  1054 2.71958 -0.959709 -2.24254
  1055 21.0392 -0.574949 1.19359
  1056 21.0265 -0.579388 -1.21275
  1057 65.8007 16.5807 -40.4257
  1058 376.554 94.5008 72.8834
  1059 146.110 -4.96960 7.07133
  1060 130.529 -14.7701 -3.04632
  1061 89.5744 -7.33931 -10.3150
  1062 -2.31745 1.85162 4.09881
  1063 -2.28338 1.86174 -4.07617
  1064 101.516 -4.89772 0.0874019
  1065 112.512 -3.77456 -0.641696
  1066 -0.0714051 -8.32353 2.74071
  1067 -0.0685679 -8.33039 -2.73959
  1068 15.9689 10.0277 -6.85154
  1069 16.1663 10.0056 6.89533
  1070 100.100 -4.46451 -0.0662520
  1071 6.79163 3.60612 1.69122
  1072 6.72870 3.61190 -1.66698
  1073 154.368 -6.37483 23.9547
  1074 111.121 -11.5484 -8.61862
  1075 90.1210 -7.45908 10.3129
  1076 146.356 -3.19840 -24.9285
  1077 156.779 -1.41044 2.88892
  1078 54.8525 8.35628 23.9556
  1079 55.2525 8.00222 -23.5423
  1080 89.5909 -4.45081 -20.0539
  1081 128.501 -4.20985 -2.11646
  1082 103.464 -5.93945 0.755525
  1083 121.900 -11.2697 0.882952
  1084 170.130 -0.481590 -1.61197
  1085 89.2240 -3.80373 0.944606
  1086 89.1845 -4.04402 -0.999918
  1087 2.59045 3.15120 3.63027
  1088 2.66368 3.17524 -3.58887
  1089 147.225 5.16027 -25.6790
  1090 31.5292 1.74064 -8.33406
  1091 31.6124 1.70327 8.30506
  1092 23.0912 0.565451 -5.84540
  1093 23.1397 0.551742 5.83043
  1094 170.826 -8.14951 29.5322
  1095 146.636 -6.70859 14.7571
  1096 70.1991 -3.16614 -11.8539
  1097 173.357 -0.586001 -0.969693
  1098 191.386 35.8898 -11.9189
  1099 156.629 -1.18802 -1.90092
  1100 145.529 -15.8363 6.47583
  1101 106.795 -8.29823 17.3966
  1102 174.839 -0.0899088 0.232875
  1103 86.4505 2.74252 -6.31942
  1104 122.769 -13.1178 -1.48452
  1105 70.3065 -3.31433 11.7056
  1106 123.955 -11.1719 -1.60554
  1107 156.111 -1.99989 5.14418
  1108 107.643 6.82849 9.91577
  1109 75.6309 -5.48432 -9.25390
  1110 238.284 31.1049 -10.8541
  1111 176.597 7.32184 22.3004
  1112 128.670 16.2386 2.45605
  1113 172.429 0.139720 0.900178
  1114 65.1983 -3.96984 -6.92318
  1115 44.6675 26.6858 -40.4258
  1116 80.6169 1.94564 -28.9768
  1117 92.5168 -6.93506 3.96149
  1118 77.6915 -5.73838 8.58732
  1119 65.0257 -3.76457 7.00522
  1120 139.694 0.997991 24.8429
  1121 105.777 -3.30659 0.286488
  1122 169.518 -1.15269 2.10668
  1123 -1.53060 -0.287306 5.52110
  1124 -1.51078 -0.271085 -5.50767
  1125 111.055 -2.76153 -0.406883
  1126 -0.431878 1.00070 5.16191
  1127 -0.396303 1.02160 -5.13696
  1128 60.4467 -1.72404 1.17918
  1129 60.4559 -1.75648 -1.18125
  1130 158.452 -0.789499 4.58461
  1131 126.602 -7.48571 -3.18400
  1132 118.347 -6.00933 -1.52836
  1133 132.762 -9.11104 5.60360
  1134 39.3690 19.1181 -29.8030
  1135 130.318 -4.57004 2.60607
  1136 17.5116 0.432604 -4.75229
  1137 17.5573 0.423112 4.74546
  1138 26.0726 16.5297 -20.5728
  1139 210.096 26.0399 9.26166
  1140 12.4024 -0.632632 2.72918
  1141 12.3611 -0.627171 -2.73601
  1142 26.5477 16.2441 19.8122
  1143 118.727 -9.77004 1.15877
  1144 58.1995 -2.57881 2.43933
  1145 58.2146 -2.59308 -2.49111
  1146 245.406 51.6340 -12.1836
  1147 131.194 -13.1248 2.26874
  1148 43.9196 24.8693 40.3213
  1149 3.56245 -2.41098 -2.61046
  1150 3.85529 -2.36475 2.96057
  1151 136.102 17.1088 12.5388
  1152 9.38558 5.40795 -1.62057
  1153 9.46627 5.40830 1.64245
  1154 132.098 -11.3812 -4.78801
  1155 -0.0651499 -12.9561 -2.60859
  1156 -0.0711920 -12.9598 2.62038
  1157 141.410 -11.9034 -9.13574
  1158 -4.94808 0.185797 0.923836
  1159 -5.01008 0.186869 -0.926815
  1160 20.4293 7.79451 -7.53018
  1161 20.5412 7.82707 7.44973
  1162 -9.25324 0.0241929 -1.13315
  1163 -9.18602 0.0236337 1.13377
  1164 142.250 -1.14512 -0.371548
  1165 -14.7862 0.413260 0.378604
  1166 -14.7485 0.412966 -0.370028
  1167 72.9982 -5.64063 -6.61431
  1168 1.89281 -20.4091 -1.30098
  1169 34.7409 -0.937449 1.90974
  1170 34.7345 -0.941709 -1.93684
  1171 119.876 -1.85213 0.0959697
  1172 120.109 -1.79050 -0.0717876
  1173 2.03001 -19.5547 1.72610
  1174 142.499 -7.24609 -8.76464
  1175 163.821 -0.657089 3.44593
  1176 144.626 -9.19665 -12.4897
  1177 123.935 0.838272 19.2574
  1178 0.569684 -5.67214 4.28006
  1179 0.631138 -5.63441 -4.21605
  1180 91.1638 -6.43314 3.00347
  1181 -6.54708 0.532685 3.58216
  1182 -6.53522 0.537319 -3.57204
  1183 241.829 38.8494 2.32519
  1184 287.877 84.7094 -59.6394
  1185 147.969 -14.5060 11.1662
  1186 58.7922 -1.54599 -0.120994
  1187 58.7917 -1.52324 0.121051
  1188 309.389 30.0026 -27.3594
  1189 19.0555 -0.505026 2.83908
  1190 19.0234 -0.496574 -2.85349
  1191 136.773 -0.449460 -7.72024
  1192 87.3683 -6.97802 7.52558
  1193 146.398 -14.4648 -8.53337
  1194 141.558 -10.2119 -10.0581
  1195 85.2248 -3.11576 21.0750
  1196 30.5558 5.83091 -10.7715
  1197 30.5337 5.77833 10.7024
  1198 40.9058 14.9914 -25.1872
  1199 40.9502 13.8486 25.1841
  1200 10.7761 3.46366 -3.29379
  1201 10.8442 3.45252 3.31624
  1202 173.807 29.9777 -15.3986
  1203 8.40206 7.56001 -2.67182
  1204 8.60965 7.56706 2.73239
  1205 125.613 -9.41754 2.97775
  1206 239.590 32.1822 12.4606
  1207 27.1980 -1.16022 -1.87998
  1208 27.2125 -1.15945 1.85583
  1209 157.757 100.887 -91.3824
  1210 114.745 6.75998 -15.3509
  1211 104.501 8.13026 6.23594
  1212 13.8665 6.13787 -3.91839
  1213 13.9344 6.13644 3.94290
  1214 -0.219001 -0.0182384 0.680733
  1215 -0.256230 -0.0181973 -0.687922
  1216 139.474 -11.1256 8.55047
  1217 137.399 -5.20311 4.70941
  1218 93.6466 24.8258 -64.3887
  1219 217.066 47.1737 -0.393915
  1220 91.9812 -2.95808 -23.3382
  1221 120.236 -3.30540 0.863096
  1222 2.44730 -0.611895 -0.175965
  1223 2.44824 -0.611551 0.174883
  1224 -4.38364 0.937987 -1.35000
  1225 -4.32850 0.933896 1.36221
  1226 79.6403 0.716861 -24.5701
  1227 149.673 -3.00323 4.99819
  1228 96.0433 1.36205 34.0810
  1229 131.114 -6.19438 -3.85785
  1230 66.8195 22.9078 -50.1896
  1231 104.522 -5.37493 -25.2977
  1232 124.927 -13.3382 0.770398
  1233 153.997 -2.28030 7.53158
  1234 135.007 -2.42135 -1.55738
  1235 72.6689 -5.27866 6.65903
  1236 169.569 -10.0696 -14.4964
  1237 159.367 13.4890 24.6297
  1238 68.3595 0.293610 -19.1640
  1239 161.630 -0.731894 0.685675
  1240 125.256 15.7283 -3.49749
  1241 53.2783 -1.73389 -1.87803
  1242 53.2623 -1.71266 1.85158
  1243 247.947 54.3368 10.4082
  1244 344.398 9.17817 16.1382
  1245 0.279788 -15.8742 -2.60493
  1246 0.270235 -15.8938 2.62460
  1247 34.9459 17.9696 27.7427
  1248 84.7905 -2.17009 -0.211004
  1249 84.8083 -2.15386 0.244206
  1250 117.643 -11.7752 -1.81629
  1251 139.137 11.2480 21.5664
  1252 148.607 -2.60185 -3.35172
  1253 174.747 -0.349813 -0.110907
  1254 302.796 66.4953 -41.2452
  1255 43.7168 -1.58957 1.86945
  1256 43.7184 -1.59405 -1.90212
  1257 141.547 -13.1458 8.84133
  1258 252.216 58.5237 -15.4543
  1259 137.435 -5.71126 -5.26408
  1260 99.1644 -6.68273 -1.73259
  1261 122.696 -13.3902 4.59433
  1262 120.000 -5.69108 1.78755
  1263 4.14151 -0.882674 -4.56603
  1264 165.215 -10.4608 16.8363
  1265 133.326 -8.51168 -5.45073
  1266 4.58264 -0.654091 5.16250
  1267 137.364 -11.5235 -23.5603
  1268 130.149 6.98850 -52.6382
  1269 215.596 25.8306 -7.30717
  1270 175.502 0.000186088 -0.0652850
  1271 175.157 -0.164235 0.170065
  1272 135.719 -7.69132 5.76906
  1273 50.7818 6.05684 -18.8010
  1274 154.836 -14.0295 13.7605
  1275 265.989 60.1828 26.1369
  1276 63.8748 21.1218 48.8301
  1277 1.54301 -0.254280 4.46524
  1278 1.61060 -0.222905 -4.41873
  1279 163.408 -13.8136 -11.7364
  1280 63.2925 -3.31283 -2.95080
  1281 63.2758 -3.32077 2.88191
  1282 151.166 -10.1290 20.0113
  1283 3.46506 0.0731536 3.03616
  1284 3.41146 0.0761092 -3.03656
  1285 -0.892235 -3.24627 4.42223
  1286 -0.886578 -3.23937 -4.42239
  1287 24.1140 -0.837910 -2.59033
  1288 24.1363 -0.843134 2.56922
  1289 78.0294 -5.15719 -10.6347
  1290 78.3582 -2.31874 0.394495
  1291 78.3577 -2.37849 -0.363733
  1292 174.683 0.000523603 -0.0504025
  1293 152.920 -2.22242 -8.43722
  1294 10.5361 0.624047 -3.72678
  1295 10.5884 0.615566 3.72616
  1296 78.3442 -5.46502 10.5299
  1297 176.607 -0.0954194 0.0339570
  1298 166.285 0.0795812 -0.179937
  1299 166.295 -0.0186841 0.134157
  1300 217.904 44.6656 5.15808
  1301 161.489 -0.825289 -1.51096
  1302 142.709 -1.05666 0.319291
  1303 158.205 -2.17717 -4.55283
  1304 173.555 -0.442593 0.692354
  1305 178.159 17.7404 22.1187
  1306 206.946 42.2582 7.50202
  1307 167.630 -0.565672 -2.31314
  1308 -1.32513 -0.351826 1.19924
  1309 -1.33026 -0.351540 -1.20272
  1310 90.7971 -5.48933 1.86511
  1311 90.7771 -5.23231 -1.79086
  1312 179.806 19.7376 -21.1921
  1313 36.1342 12.3756 -20.5893
  1314 36.3671 12.0239 20.3466
  1315 118.620 -0.0212702 -9.62320
  1316 124.758 -1.55932 0.0529028
  1317 124.606 -1.54233 -0.0783320
  1318 -3.10365 -0.575698 4.51891
  1319 -3.09798 -0.567877 -4.51681
  1320 137.220 -0.348691 7.71071
  1321 210.997 42.0505 0.838102
  1322 11.8580 -0.541397 -1.63705
  1323 11.8869 -0.542697 1.62077
  1324 156.058 -15.2966 8.33573
  1325 -0.189096 2.34434 4.25992
  1326 -0.144819 2.35868 -4.23170
  1327 25.5891 -0.568889 -0.490397
  1328 25.5921 -0.558353 0.479672
  1329 118.662 -0.223006 9.76516
  1330 1.18829 0.280682 -0.235658
  1331 1.19993 0.281754 0.230293
  1332 159.848 -1.62762 3.03675
  1333 221.290 40.7534 1.44413
</Section>

newXOutput 21

<Section columns = "stress_xx | stress_yy | stress_xy">
  1 188.810 -0.388736 0.339314
  2 189.139 -0.540167 -0.441121
  3 -0.766151 0.186785 -0.504502
  4 -0.119881 -0.190185 -0.113655
  5 354.864 131.816 112.672
  6 360.350 151.487 -113.959
  7 -0.118487 -0.188977 0.111848
  8 -0.766494 0.185760 0.503254
  9 190.173 -0.267875 -0.312673
  10 188.622 -0.571251 -0.436878
  11 188.675 -0.427422 0.471483
  12 187.576 -0.162042 0.258247
  13 187.069 -0.533178 -0.0412418
  14 186.551 -0.502727 0.857678
  15 183.452 -0.315437 0.874709
  16 183.990 -1.29380 1.23954
  17 177.668 -1.04516 2.56874
  18 173.536 -0.401789 3.07388
  19 167.939 -0.540125 3.28884
  20 158.387 -0.474587 4.51283
  21 148.120 -0.429697 5.19487
  22 135.459 0.629564 7.04980
  23 118.260 0.966753 6.34614
  24 111.466 -0.124235 9.03970
  25 90.2644 1.30641 6.39871
  26 77.5259 1.75976 4.98722
  27 74.2202 0.756010 3.66765
  28 70.6669 2.55150 0.259590
  29 72.5992 2.79152 -4.89908
  30 76.5407 0.760555 -6.15990
  31 92.2123 0.261543 -8.26452
  32 108.160 -0.831024 -8.65667
  33 118.880 0.798664 -6.34150
  34 135.656 0.721021 -7.05799
  35 147.708 -0.516019 -5.56013
  36 159.469 -0.569445 -4.26900
  37 167.198 -0.370973 -3.33603
  38 172.989 -0.420513 -2.83903
  39 179.140 -0.590698 -1.67240
  40 181.685 -0.553458 -1.61824
  41 184.134 -0.530369 -1.41031
  42 186.656 -0.618114 -0.344703
  43 187.675 -0.809126 -0.611250
  44 186.666 0.178296 -0.106055
  45 188.466 -0.374189 -0.523023
  46 189.437 -0.883548 0.476047
  47 190.432 -0.484833 -0.0319424
  48 180.231 0.316832 -0.283415
  49 168.867 -0.395006 -0.544995
  50 156.121 -1.21863 -0.823943
  51 143.034 -0.875295 -0.605186
  52 131.714 -1.70550 -0.559396
  53 119.839 -1.89647 -0.520855
  54 107.928 -1.62137 -0.289499
  55 95.4719 -1.80381 -0.379072
  56 84.9793 -2.02029 -0.483659
  57 71.0816 -1.98315 -0.409209
  58 56.8162 -1.19803 -0.261992
  59 45.0451 -0.752222 -0.216005
  60 30.5366 -0.473416 -0.119344
  61 19.9899 -0.514429 -0.750963
  62 10.1760 -0.779493 -0.264626
  63 0.291049 0.0953411 0.422770
  64 -2.21032 0.699576 0.132545
  65 -2.85810 0.289062 0.422123
  66 -2.36469 0.133182 0.398402
  67 -4.21467 0.405623 0.124321
  68 -4.84845 0.524760 0.858251
  69 -4.92552 0.181083 0.241293
  70 -8.09809 0.381215 0.275135
  71 -9.49419 0.273639 0.807961
  72 -9.86403 0.101665 0.837486
  73 -13.2435 0.365289 0.614142
  74 -14.4102 0.537391 1.25646
  75 -15.6167 0.326341 0.371695
  76 -17.1840 0.234017 0.624373
  77 -17.6172 0.253400 0.183666
  78 -19.0421 0.588631 -0.498803
  79 -19.0539 0.403865 -0.378605
  80 -17.2150 0.313081 -0.652740
  81 -14.6966 0.393285 -1.17951
  82 -11.8412 0.163238 -1.72920
  83 -8.75150 0.0853939 -1.77855
  84 -5.22751 -0.192053 -1.85158
  85 -2.23460 -0.149997 -1.06652
  86 -0.925753 -0.382322 -0.659279
  87 -0.163038 -0.941124 -0.564238
  88 -0.281780 -2.40455 -1.02416
  89 -0.317298 -4.79411 -1.82143
  90 -0.0764632 -9.02237 -1.98993
  91 0.0972377 -12.5699 -2.52146
  92 0.243378 -18.1248 -2.06786
  93 0.742985 -21.6211 -2.45764
  94 0.107039 -23.5407 -2.09626
  95 -0.0504509 -27.2356 -1.36618
  96 0.738414 -26.9148 -0.578253
  97 2.94294 -35.0941 1.04784
  98 2.50536 -20.4845 3.98337
  99 6.09269 -11.5353 9.23804
  100 18.7290 24.6486 30.7681
  101 82.8020 96.9310 91.4204
  102 465.316 48.2866 69.5192
  103 385.713 13.5667 24.9177
  104 366.521 5.79404 8.62216
  105 355.668 3.84377 -0.0409567
  106 362.485 5.52401 -7.05217
  107 389.588 11.6034 -20.7077
  108 460.496 38.6196 -65.0221
  109 53.4739 110.067 -75.5524
  110 13.1278 16.3116 -23.5481
  111 4.47801 -14.5996 -7.53535
  112 2.26865 -22.2980 -3.33964
  113 2.93146 -36.3944 -0.733791
  114 0.708429 -27.4971 0.803930
  115 -0.0932183 -27.5295 1.48452
  116 0.0795417 -23.6563 2.16002
  117 0.728206 -21.6511 2.48486
  118 0.237669 -18.1180 2.07812
  119 0.0928629 -12.5543 2.52542
  120 -0.0785970 -9.00159 1.98908
  121 -0.317620 -4.78068 1.81788
  122 -0.282387 -2.39277 1.02074
  123 -0.162950 -0.936710 0.561169
  124 -0.920424 -0.381853 0.656740
  125 -2.22523 -0.150632 1.06383
  126 -5.21576 -0.193529 1.85012
  127 -8.73828 0.0838110 1.77913
  128 -11.8346 0.161529 1.73239
  129 -14.7015 0.392114 1.18548
  130 -17.2315 0.313034 0.659061
  131 -19.0853 0.403594 0.384689
  132 -19.0855 0.588715 0.505050
  133 -17.6739 0.254111 -0.178396
  134 -17.2503 0.234885 -0.620660
  135 -15.6874 0.327299 -0.368923
  136 -14.4856 0.538499 -1.25569
  137 -13.3202 0.366299 -0.613534
  138 -9.93838 0.102279 -0.838157
  139 -9.56759 0.274683 -0.809661
  140 -8.16693 0.382704 -0.277521
  141 -4.98428 0.182090 -0.245432
  142 -4.89657 0.525715 -0.864109
  143 -4.25371 0.405832 -0.129562
  144 -2.39016 0.132965 -0.403393
  145 -2.87320 0.288515 -0.426094
  146 -2.21875 0.698586 -0.136030
  147 0.288065 0.0947624 -0.424753
  148 10.1728 -0.782326 0.262461
  149 19.9863 -0.521855 0.748499
  150 30.5352 -0.486717 0.116220
  151 45.0466 -0.771534 0.214318
  152 56.8167 -1.22054 0.261618
  153 71.0760 -2.00280 0.412055
  154 84.9582 -2.03052 0.489830
  155 95.4344 -1.79274 0.393948
  156 107.871 -1.57827 0.306944
  157 119.759 -1.79338 0.493771
  158 131.767 -1.73369 0.494109
  159 143.072 -1.05667 0.637491
  160 156.247 -1.18491 0.754552
  161 169.221 -0.295924 0.552273
  162 179.890 0.306596 0.274239
  163 101.703 -9.10546 -7.25352
  164 101.274 -9.26906 7.23759
  165 29.4688 8.29571 -11.1016
  166 29.7646 8.32877 11.0466
  167 121.016 -6.21656 30.0532
  168 127.057 -7.00042 -29.2146
  169 57.2223 -2.91439 3.23160
  170 57.2218 -2.88411 -3.29043
  171 129.560 -4.13497 1.43375
  172 126.838 -4.14711 -1.39633
  173 171.300 31.1615 -4.83992
  174 175.680 0.701631 -24.6676
  175 171.961 2.12284 26.2607
  176 39.2589 -1.42085 -7.34598
  177 39.2546 -1.40862 7.32614
  178 151.787 -15.1106 9.64505
  179 151.556 -11.6578 -12.7639
  180 1.61189 3.16994 4.23837
  181 1.67318 3.19069 -4.20251
  182 207.281 41.9400 8.62484
  183 38.6622 17.0320 -26.4375
  184 41.5915 17.2094 28.4745
  185 146.932 -6.58651 6.33265
  186 220.862 45.7250 -5.38152
  187 93.5897 -3.08042 -0.615130
  188 93.4288 -3.17117 0.603572
  189 151.357 -4.47209 -5.71612
  190 202.975 -2.52723 -0.452495
  191 34.2438 -1.00293 1.17131
  192 34.2398 -1.01312 -1.19394
  193 14.3047 2.04696 -4.73969
  194 14.3727 2.02598 4.74985
  195 83.3630 -3.23569 -18.3419
  196 83.0329 -3.42090 18.5869
  197 99.9640 -6.25009 -1.98876
  198 100.167 -6.21464 2.18615
  199 23.8218 -0.831039 3.80212
  200 23.7905 -0.818836 -3.81405
  201 200.899 -4.92466 10.9208
  202 162.975 -16.3971 -5.13920
  203 155.662 -1.21093 -1.03052
  204 151.994 -1.52643 1.07421
  205 151.274 17.6704 18.2497
  206 6.06202 4.71932 -1.14488
  207 6.29766 4.70390 1.24882
  208 152.210 -6.22358 21.2948
  209 138.315 10.4649 -20.6406
  210 99.8435 21.2317 -63.2007
  211 104.987 17.9003 58.6594
  212 1.70107 3.27128 0.239098
  213 1.75810 3.26974 -0.212643
  214 151.620 -5.51541 -21.9542
  215 267.548 37.8111 -2.34510
  216 126.087 -13.8747 9.80287
  217 127.088 -13.7872 -9.19371
  218 126.037 -8.76861 -1.88330
  219 158.002 -2.16599 3.14624
  220 74.2153 -4.97411 -6.22672
  221 72.9888 -4.95170 6.45762
  222 43.9293 0.996496 -11.3545
  223 43.9877 0.977980 11.2450
  224 161.531 -17.4251 -0.0682799
  225 124.949 -9.34368 1.35227
  226 157.469 -2.09264 -2.55339
  227 121.354 -2.70710 0.398102
  228 122.465 -2.49026 -0.158473
  229 154.423 -6.78078 12.6665
  230 11.3040 0.176939 -4.04871
  231 11.3550 0.170844 4.04573
  232 -2.06966 -1.43031 -5.32895
  233 -2.07971 -1.44235 5.33363
  234 20.7340 -0.958193 -2.15269
  235 20.7581 -0.960486 2.13082
  236 62.9800 -1.70415 1.40745
  237 63.0000 -1.73996 -1.42211
  238 73.7692 4.96733 -27.3580
  239 73.7767 4.11857 27.0363
  240 156.767 -4.73185 -10.8276
  241 71.8732 -4.12779 -10.6860
  242 71.9294 -4.25678 10.5104
  243 135.920 1.94658 23.2404
  244 117.141 10.1398 1.39831
  245 134.005 -13.2937 -1.89470
  246 0.452282 -3.69641 -5.09647
  247 0.407635 -3.73094 5.13555
  248 8.13547 7.25776 -8.37826
  249 8.68288 6.94732 8.86962
  250 131.705 -12.9964 0.995680
  251 240.853 43.0073 -0.164405
  252 11.5362 7.96139 -3.07577
  253 11.6820 7.95562 3.12104
  254 -5.45286 1.04048 3.80762
  255 -5.42740 1.04582 -3.79027
  256 242.440 39.9663 1.41517
  257 82.0613 -3.73409 -2.10216
  258 81.9936 -3.66764 2.04195
  259 164.194 -11.3463 20.2621
  260 300.901 48.8178 29.4653
  261 46.9153 -2.41431 -5.94797
  262 46.8984 -2.43133 5.93836
  263 165.894 24.7579 -17.7453
  264 289.712 54.7649 -26.3341
  265 200.746 19.0999 18.2542
  266 220.645 11.1144 -38.6722
  267 134.223 -6.04220 2.99442
  268 151.768 0.478153 -26.3634
  269 144.751 -10.0656 -7.71589
  270 162.058 -2.72341 6.94259
  271 -1.13390 1.53123 -1.17070
  272 -1.07729 1.52607 1.18901
  273 160.731 -6.32345 -37.9024
  274 15.9031 5.16254 -4.67216
  275 15.9816 5.15191 4.70001
  276 154.489 -3.70693 -13.5472
  277 21.4535 20.5744 -27.3559
  278 15.1945 -0.0543248 -0.483998
  279 15.2017 -0.0501454 0.474710
  280 163.488 -10.4344 -21.0629
  281 27.6067 12.3935 -14.2039
  282 28.0135 12.3201 14.2425
  283 5.90382 -0.226329 2.85640
  284 5.85126 -0.223187 -2.86027
  285 134.044 -5.70361 -2.90318
  286 21.5937 20.3384 28.1428
  287 217.056 13.5078 45.7523
  288 56.1148 -2.11430 -1.85561
  289 56.0984 -2.09860 1.82035
  290 106.223 -4.07801 -0.325499
  291 106.168 -4.44919 0.437119
  292 90.6527 8.27506 -42.3169
  293 147.586 -16.2686 -3.97743
  294 169.975 -0.792361 1.42266
  295 87.2412 8.22935 40.8645
  296 101.540 -2.41225 -0.0714735
  297 101.500 -2.40951 0.163190
  298 144.968 -10.4992 7.86830
  299 168.041 -1.57022 -3.39957
  300 -2.64055 0.638423 -2.10028
  301 -2.57900 0.633706 2.10814
  302 209.026 41.9383 -2.55096
  303 184.386 -9.17884 11.9567
  304 167.568 -0.581708 -0.419547
  305 170.657 -0.499956 0.379865
  306 165.940 -15.1982 12.4570
  307 204.848 20.3895 -17.2343
  308 176.839 33.0284 10.4928
  309 78.2479 -4.64191 -3.67669
  310 77.5034 -4.73113 3.76490
  311 169.839 -0.752513 -1.01827
  312 109.369 -8.43925 -20.1988
  313 107.381 -8.30759 2.62243
  314 102.405 -5.77224 23.2268
  315 166.429 -1.79424 4.02170
  316 34.9287 -1.59845 -3.65905
  317 34.9470 -1.61064 3.63851
  318 152.895 -5.96750 37.4741
  319 95.3584 -7.40693 -4.57273
  320 177.222 22.4020 22.4278
  321 55.1420 3.91327 -17.3277
  322 53.0282 4.08658 17.1669
  323 13.2215 -0.316722 -0.882754
  324 13.2389 -0.314318 0.867920
  325 146.529 -2.60273 2.02328
  326 140.414 -1.60276 0.398179
  327 139.594 -1.79253 -0.449414
  328 153.214 -3.90836 14.3247
  329 10.4620 -0.452085 2.08044
  330 10.4196 -0.447570 -2.09290
  331 41.9980 -0.934341 -0.730340
  332 41.9950 -0.916095 0.720422
  333 1.34236 -7.65751 -3.12614
  334 1.24594 -7.71242 3.24098
  335 116.194 4.96513 15.6714
  336 186.235 -8.78893 -10.1567
  337 119.148 -6.04497 1.30060
  338 135.583 -2.34639 -1.22026
  339 139.105 17.3831 -9.74563
  340 25.5223 -0.787462 -5.40223
  341 25.5522 -0.787703 5.39452
  342 115.731 -5.67844 -0.667742
  343 31.1754 1.18901 -7.84338
  344 31.2325 1.16070 7.81271
  345 5.60763 5.16813 0.648591
  346 5.68377 5.16600 -0.617193
  347 141.629 -15.4626 12.9538
  348 320.323 21.2397 8.16863
  349 123.233 1.72291 -18.5996
  350 104.319 -9.37481 11.9269
  351 103.785 -9.19460 -12.3251
  352 154.645 -2.83276 26.1845
  353 136.356 -1.08192 18.4916
  354 139.723 -14.9538 -13.4245
  355 81.5158 -1.82045 -0.0626784
  356 81.5045 -1.84648 0.0836715
  357 154.581 -10.1210 16.5297
  358 211.555 42.4718 1.69026
  359 167.109 -1.71259 -5.13817
  360 40.0517 -1.50002 -2.57223
  361 40.0630 -1.50092 2.53979
  362 156.844 -15.3777 -16.3473
  363 163.356 11.1095 -26.2570
  364 106.193 5.73396 -10.0262
  365 155.604 -10.4773 -18.7612
  366 -5.19475 0.126592 -4.12291
  367 -5.20065 0.120622 4.12828
  368 130.752 -2.73223 0.925864
  369 -1.86269 -1.11639 -2.39116
  370 -1.86069 -1.11686 2.38655
  371 101.704 47.5332 -77.3265
  372 3.62598 3.10623 3.15099
  373 3.72558 3.13211 -3.09829
  374 135.227 -1.14396 -18.3339
  375 73.7315 -2.95742 1.56984
  376 73.7899 -3.00167 -1.59446
  377 -0.568791 -5.61695 4.68421
  378 -0.560303 -5.60661 -4.67897
  379 82.2084 49.9750 72.6524
  380 60.0840 -3.12303 -8.21200
  381 60.1266 -2.98041 8.21802
  382 18.8708 13.6145 -12.9976
  383 19.2805 13.5671 12.9123
  384 -8.31240 1.14549 1.71387
  385 -8.27782 1.14706 -1.69565
  386 157.289 10.2444 26.1698
  387 120.868 -12.6438 4.94129
  388 120.996 -10.9251 1.23153
  389 147.458 -16.9085 -0.478765
  390 35.3755 4.55488 -11.0871
  391 35.4924 4.54448 11.0650
  392 3.08368 -5.86290 -0.332243
  393 2.90588 -5.93624 0.585561
  394 146.914 21.1230 6.47584
  395 150.843 -4.03876 4.75472
  396 84.5047 -6.47164 7.39106
  397 51.4202 -1.22232 -9.97694
  398 51.4336 -1.23144 9.88975
  399 108.766 -2.95866 0.0749289
  400 108.642 -2.54821 -0.167813
  401 83.7832 -6.65556 -7.91722
  402 65.0843 -1.05342 -13.7618
  403 65.0680 -1.14539 13.8763
  404 156.847 -14.5077 -12.1484
  405 89.5600 -6.74571 4.34259
  406 142.858 -4.04147 3.06948
  407 142.629 -3.64246 -2.63113
  408 118.700 -10.8383 -1.67345
  409 173.395 -0.544112 -1.49639
  410 56.5413 22.2693 -42.7194
  411 161.594 -2.22034 8.33965
  412 172.705 -0.712707 2.14702
  413 58.8683 -3.06499 4.73950
  414 58.9014 -3.02149 -4.73534
  415 120.314 -12.4902 -5.15609
  416 16.1771 7.43813 5.00933
  417 16.0880 7.43424 -5.01680
  418 323.775 21.2229 -16.7774
  419 139.683 -7.74502 -4.73255
  420 174.939 -0.394889 0.863186
  421 53.2828 20.6918 40.5725
  422 256.696 43.4390 7.64113
  423 150.724 -1.95415 -1.63573
  424 111.181 -7.87756 -1.21340
  425 45.3586 8.77459 -19.6644
  426 48.4031 8.14558 19.5469
  427 137.912 -8.54298 4.81812
  428 145.224 -1.89948 -13.7002
  429 -3.07691 -0.115496 2.12452
  430 -3.14004 -0.113930 -2.12410
  431 51.5455 12.2797 -26.7518
  432 51.7071 12.3273 26.6659
  433 5.11750 2.88582 -1.90086
  434 5.18021 2.87889 1.92368
  435 123.586 -2.00586 0.416327
  436 123.437 -1.94234 -0.372212
  437 154.151 -6.94437 -13.2253
  438 -0.607846 -0.678057 5.88610
  439 -0.580589 -0.654676 -5.86548
  440 158.992 -15.8575 10.8597
  441 150.700 -3.74085 -4.24548
  442 243.836 46.8024 -6.06678
  443 6.59357 -0.417348 0.950280
  444 6.55938 -0.417459 -0.963313
  445 296.297 81.7947 35.1024
  446 5.59503 0.157855 -7.60811
  447 16.3145 0.912006 -5.21274
  448 16.3696 0.898038 5.20929
  449 295.047 83.5179 -33.2204
  450 5.93057 0.812405 8.47371
  451 -8.24637 0.916578 0.687231
  452 -8.20223 0.914945 -0.670252
  453 15.3987 10.5056 -7.25168
  454 15.6747 10.5051 7.29385
  455 189.507 29.3153 -18.9379
  456 152.662 -5.78290 -8.75678
  457 173.946 -0.453664 -0.781325
  458 159.311 -2.37641 -9.72903
  459 -2.13430 1.00679 5.41523
  460 -2.10668 1.02161 -5.39609
  461 154.202 -6.06215 10.0791
  462 98.8255 -5.32276 -1.52835
  463 98.5094 -5.38204 1.18113
  464 135.500 -14.9823 -0.919706
  465 95.9110 -1.52955 -28.7596
  466 146.811 -2.28207 14.0230
  467 120.471 -3.54927 -0.525110
  468 178.642 -13.9737 -0.310771
  469 92.8490 0.584898 30.9120
  470 4.63193 -0.105745 2.04901
  471 4.57919 -0.102991 -2.05535
  472 194.319 38.5040 -8.86268
  473 157.305 -0.844020 0.176523
  474 156.745 -0.997093 -0.325206
  475 117.002 -7.59015 -0.111832
  476 48.9656 -1.57815 -1.38910
  477 48.9567 -1.55689 1.36702
  478 28.4303 -0.266758 -6.41257
  479 28.4600 -0.272429 6.39521
  480 94.7723 3.69298 5.97125
  481 22.3207 -0.764609 3.02933
  482 22.2918 -0.756835 -3.04854
  483 25.0802 2.55048 7.20263
  484 24.9966 2.58818 -7.19897
  485 151.294 -11.6853 12.2936
  486 83.2894 -5.16292 -12.8508
  487 76.3080 -2.25103 0.727411
  488 76.3399 -2.31520 -0.730175
  489 84.1876 -5.32920 12.8424
  490 237.580 55.7149 -2.84519
  491 -3.80415 -0.594630 -3.13761
  492 -3.80256 -0.597578 3.13622
  493 57.0651 -1.46462 -0.560548
  494 57.0600 -1.43833 0.557268
  495 0.0342408 -10.4590 -4.02120
  496 0.00962604 -10.4924 4.05515
  497 138.446 -1.70074 0.750817
  498 94.1075 4.57125 -2.97996
  499 129.400 13.6432 8.70392
  500 82.8919 -0.867284 -22.6679
  501 38.9292 -1.98016 4.62135
  502 38.9309 -1.96299 -4.63266
  503 -11.7258 0.357359 -0.605841
  504 -11.6661 0.355297 0.613239
  505 163.055 -3.34021 -26.1941
  506 9.79044 0.100752 -0.664525
  507 9.80308 0.102924 0.653925
  508 135.741 -10.5505 -4.19396
  509 144.861 -12.2688 -7.59887
  510 28.7028 21.1997 -28.3435
  511 121.607 2.68933 -46.1579
  512 1.00707 3.47888 2.91981
  513 1.06377 3.48556 -2.88886
  514 72.6083 -3.19494 -2.42284
  515 72.5667 -3.16208 2.35508
  516 211.098 7.55509 -7.27834
  517 150.746 -8.78490 -11.1133
  518 27.9594 19.9648 27.9220
  519 149.400 -17.1310 2.79040
  520 143.479 -13.6129 6.20690
  521 27.7563 -0.663498 -1.97344
  522 27.7684 -0.660223 1.94943
  523 114.860 1.17137 14.3776
  524 83.7747 -6.04438 -4.68172
  525 159.631 -3.31765 6.38717
  526 -0.672362 -3.86586 -3.03628
  527 -0.674026 -3.86336 3.03237
  528 110.581 -9.87845 14.4562
  529 169.913 -13.3498 -14.3994
  530 223.539 13.7701 -5.43441
  531 118.940 -3.69852 0.629727
  532 32.6434 -0.569220 -0.591963
  533 32.6440 -0.555912 0.585435
  534 74.3244 0.559276 21.7835
  535 212.096 34.5836 13.7791
  536 218.680 38.5778 -73.8432
  537 193.469 0.253905 14.1673
  538 138.274 -15.4126 0.157400
  539 334.299 26.5665 22.3976
  540 244.053 57.7523 4.65680
  541 32.0155 -1.30823 5.06943
  542 31.9959 -1.29442 -5.08153
  543 132.792 -10.8692 3.36654
  544 8.96017 4.64756 -1.62281
  545 9.03207 4.64379 1.65018
  546 167.791 -14.2388 14.3702
  547 134.602 7.14049 21.3532
  548 169.783 -0.970012 3.52980
  549 124.113 -7.19433 1.83640
  550 176.271 -0.0507891 -48.6507
  551 282.600 68.6754 46.5060
  552 135.269 -2.27128 -0.699722
  553 166.373 -1.57873 -5.57857
  554 24.9192 10.5102 -10.4161
  555 25.1025 10.3818 10.3610
  556 93.3554 -3.47965 -0.930529
  557 93.3092 -3.38738 0.959523
  558 1.00201 -13.5872 -0.791733
  559 169.043 -6.37776 23.6058
  560 5.89517 5.47752 1.32119
  561 5.99573 5.49127 -1.27506
  562 1.18543 -13.1782 1.14839
  563 153.411 -7.04475 -18.9049
  564 176.809 10.6964 -25.4875
  565 176.085 12.1694 25.4645
  566 8.02630 6.13977 5.31830
  567 7.60456 6.31479 -5.17981
  568 -6.58652 0.178517 1.56963
  569 -6.65229 0.180198 -1.56709
  570 163.904 2.75388 50.2623
  571 87.5539 -4.64621 2.24245
  572 87.6469 -4.62912 -2.30814
  573 198.322 -4.97131 -24.5911
  574 22.3394 -0.296518 1.14886
  575 22.3310 -0.302511 -1.16485
  576 8.30134 -0.303238 -0.279357
  577 8.30618 -0.301195 0.275660
  578 216.426 38.3490 -11.6453
  579 20.0385 26.4315 -31.5627
  580 109.364 2.11120 -12.1515
  581 157.561 25.3064 -11.0988
  582 2.10886 -0.600203 3.95574
  583 2.20439 -0.567712 -3.89173
  584 165.106 69.7284 87.3979
  585 137.258 -3.46433 -1.88747
  586 3.48647 1.41246 -2.50438
  587 3.54745 1.40221 2.51766
  588 158.459 -12.8837 16.6987
  589 23.7654 25.5276 32.1373
  590 113.540 -2.00755 0.0265643
  591 113.569 -1.98714 -0.0270612
  592 -0.158833 -8.24074 4.10053
  593 -0.146515 -8.22703 -4.08709
  594 193.833 38.1426 -0.310164
  595 123.215 -10.1781 21.0834
  596 117.424 -4.69937 0.596272
  597 118.619 4.58009 48.7462
  598 -10.0322 0.477615 2.51011
  599 -10.0219 0.480175 -2.50062
  600 195.967 1.62788 -15.1448
  601 265.062 40.3805 -32.4610
  602 72.8159 7.18617 -31.8893
  603 37.9218 -1.54062 -6.23091
  604 37.9533 -1.54024 6.22945
  605 178.599 -0.447739 1.05379
  606 116.208 -4.80984 -0.752830
  607 157.767 -1.82888 2.36988
  608 153.432 -7.02998 18.4760
  609 3.47125 -0.241583 0.992452
  610 3.42722 -0.240490 -1.00224
  611 89.5888 -2.84298 -0.514427
  612 89.5741 -2.75420 0.485769
  613 55.2053 1.27801 -14.2208
  614 54.8334 1.29320 14.1482
  615 225.090 11.1881 10.6822
  616 373.075 28.1036 -40.9739
  617 -5.01192 -0.212376 1.39178
  618 -5.07851 -0.211604 -1.39224
  619 51.2966 -2.08530 2.60491
  620 51.2988 -2.08338 -2.64924
  621 208.725 10.0519 10.1297
  622 176.841 -0.409148 -0.335370
  623 176.429 -0.692404 0.165504
  624 123.392 -0.119373 14.2655
  625 183.567 -11.6828 -14.3638
  626 97.5647 -7.88822 5.62500
  627 -2.85867 2.14953 -2.61761
  628 -2.90105 2.14665 2.64171
  629 157.565 2.93222 27.3029
  630 60.8031 -3.40795 -6.43796
  631 60.7355 -3.46734 6.45113
  632 128.706 -7.17893 -2.31971
  633 160.459 -3.27317 -5.79537
  634 89.6417 -7.07376 -9.02133
  635 147.170 17.7413 -16.5683
  636 99.6245 -6.94273 -16.9872
  637 34.0300 -0.893723 -0.980921
  638 34.0309 -0.881533 0.964347
  639 90.6109 -7.20974 9.04543
  640 197.943 31.3793 17.3349
  641 156.937 -7.81154 23.2506
  642 128.517 -5.39621 2.05655
  643 90.5988 -2.10180 0.454474
  644 90.5754 -2.10803 -0.436428
  645 67.2789 -2.33166 -1.80027
  646 67.2488 -2.30253 1.77503
  647 151.505 -13.9527 -10.2051
  648 74.7583 -4.06292 3.18489
  649 74.8459 -4.04713 -3.26792
  650 149.459 23.2548 -2.24036
  651 139.953 -7.09520 4.73534
  652 177.430 -0.682799 -1.59326
  653 147.619 -2.88391 -23.9084
  654 19.0785 -0.875896 4.06033
  655 19.0415 -0.869413 -4.06645
  656 172.519 -0.806518 -3.18884
  657 29.3239 14.9769 -19.6620
  658 29.8361 14.9338 19.7600
  659 175.550 -11.5263 20.7066
  660 58.6475 14.3671 33.5748
  661 12.5046 -0.0335747 4.07146
  662 12.4587 -0.0303129 -4.07578
  663 148.820 -10.2572 27.5345
  664 147.436 18.6230 -67.0348
  665 140.523 4.21584 -23.7323
  666 187.054 33.6831 14.6807
  667 126.213 -5.27223 -1.48845
  668 228.101 41.5426 -1.00464
  669 -11.9522 0.517374 -0.275355
  670 -11.9011 0.515902 0.286118
  671 100.104 0.0970518 -33.9422
  672 3.65065 -0.136693 0.788814
  673 3.62216 -0.137087 -0.798663
  674 126.316 -10.9444 -20.8131
  675 40.3832 5.67361 -13.6484
  676 40.0456 5.69004 13.6379
  677 -0.163476 2.06840 -0.362498
  678 -0.108132 2.06514 0.385487
  679 106.592 -9.08912 -3.88777
  680 151.786 -1.48486 -9.23716
  681 70.5286 -1.98275 -0.674504
  682 70.5289 -1.95657 0.680889
  683 50.2462 -2.50445 -4.01714
  684 50.2822 -2.54113 3.99785
  685 9.23585 7.61166 -1.87479
  686 9.39895 7.62553 1.92789
  687 157.611 -1.52475 1.29453
  688 67.4670 -4.17374 5.25988
  689 67.9261 -4.09569 -5.25256
  690 173.902 -14.4905 -3.95631
  691 142.470 -14.3118 -4.67005
  692 111.280 -2.76030 0.273139
  693 110.869 -2.54205 -0.211252
  694 157.536 -17.0828 6.91003
  695 257.194 51.6171 12.0449
  696 138.162 -6.82905 -34.6382
  697 158.400 -4.28360 9.94320
  698 156.457 -6.05227 -24.8280
  699 46.2572 -1.35650 -1.81951
  700 46.2517 -1.34436 1.79010
  701 122.470 -2.73013 39.0292
  702 351.470 44.6174 40.9746
  703 22.2316 6.70249 -7.47294
  704 22.2626 6.74614 7.49829
  705 157.214 -1.15174 -0.670792
  706 158.508 -1.00919 0.680477
  707 65.4513 31.4423 -55.3751
  708 166.287 -0.776183 5.53388
  709 143.666 -2.05733 1.17172
  710 187.595 37.4623 -5.53838
  711 17.7656 3.41541 -5.28235
  712 17.8453 3.39324 5.30263
  713 180.605 -0.304847 0.222161
  714 144.165 -5.23629 -4.52143
  715 180.031 -3.34677 21.0916
  716 71.7027 -4.94536 -8.57329
  717 71.8840 -4.72364 8.47837
  718 14.0308 -0.534074 3.07593
  719 13.9899 -0.526938 -3.08701
  720 164.605 -0.793141 -1.13874
  721 141.465 25.5242 71.3622
  722 0.753548 0.706935 5.09719
  723 0.805151 0.736333 -5.06189
  724 164.665 -1.49320 -2.79116
  725 159.567 -2.62865 3.95088
  726 122.756 0.00239430 -15.3004
  727 1.10504 -15.2672 -2.25175
  728 1.02782 -15.4084 2.39375
  729 56.3846 14.7761 -33.5549
  730 126.002 -12.8433 -14.6032
  731 64.8401 31.1979 55.9627
  732 177.978 -0.275131 0.669609
  733 167.964 25.0550 17.8571
  734 120.021 10.9742 -6.04713
  735 222.095 44.8422 -1.17985
  736 175.178 -0.588548 2.12119
  737 -11.8682 0.261242 1.08851
  738 -11.9336 0.262685 -1.08405
  739 185.768 -11.5043 2.84079
  740 118.747 -3.02166 0.329052
  741 41.5036 0.166209 -9.53422
  742 41.5545 0.123262 9.46974
  743 159.872 -1.54063 -1.75234
  744 283.717 40.2908 -13.9252
  745 15.8759 -0.504385 -1.85336
  746 15.9084 -0.507524 1.83607
  747 179.211 -0.336814 -1.01466
  748 32.4065 -1.45650 -2.59894
  749 32.4230 -1.46170 2.57351
  750 173.146 -7.39753 -21.5507
  751 159.624 -1.61274 7.52778
  752 141.498 -1.11468 23.5387
  753 179.761 -0.352092 -0.0735638
  754 166.799 -0.976879 2.17095
  755 106.935 -5.46321 -0.282104
  756 135.465 -3.15704 1.51039
  757 153.802 -9.46973 -16.0397
  758 150.166 -9.32336 10.7874
  759 175.243 20.8066 -22.6160
  760 148.175 -8.11524 8.19155
  761 156.163 -9.37343 20.2864
  762 89.1409 -5.83842 3.18140
  763 3.02756 -1.88037 -0.999037
  764 2.85534 -1.88887 1.16146
  765 137.377 -1.62469 0.0823135
  766 137.078 -1.60930 -0.134584
  767 166.343 -0.440086 -0.142262
  768 166.947 -0.403891 0.183161
  769 156.589 -4.30707 12.0327
  770 144.689 -13.7577 19.5025
  771 117.921 -9.39049 0.641147
  772 104.294 -5.94624 1.08205
  773 289.766 37.2783 16.4412
  774 158.853 -3.83047 -7.96234
  775 92.0936 15.2287 -52.1045
  776 147.278 -7.03709 -7.14464
  777 4.00962 0.153769 -2.82664
  778 4.06831 0.148391 2.82936
  779 128.485 11.2691 -13.5736
  780 342.569 10.4337 -4.52804
  781 164.995 3.84283 -26.9034
  782 6.32265 0.452025 -11.8061
  783 168.650 30.5975 4.60384
  784 132.668 -8.18276 3.16314
  785 148.323 -3.87239 23.2306
  786 125.327 -13.4012 14.6884
  787 203.885 -3.09604 30.8688
  788 6.81664 1.99453 12.6748
  789 89.7974 -0.716985 26.1538
  790 126.886 -2.85605 -0.789048
  791 141.749 -13.1655 -19.7587
  792 85.3945 -6.53595 -6.06364
  793 67.2482 3.13946 -22.6536
  794 163.786 -2.91771 26.3812
  795 104.129 -6.88174 2.15779
  796 17.0527 -0.529180 1.70420
  797 17.0308 -0.529991 -1.72341
  798 152.266 -0.803431 8.19590
  799 136.682 0.522104 -22.7919
  800 -12.4569 0.536719 1.62240
  801 -12.4384 0.537623 -1.61218
  802 101.251 -2.82652 0.0176291
  803 100.942 -2.64968 -0.0486129
  804 74.7570 8.08543 32.3868
  805 65.7165 -3.71981 3.85116
  806 65.8176 -3.62374 -3.90115
  807 179.198 -0.204002 -0.590261
  808 60.3504 4.73576 22.0289
  809 -1.00406 -0.0543066 1.08633
  810 -1.06079 -0.0529852 -1.09227
  811 150.380 -4.70259 18.0706
  812 163.116 -1.08216 0.926729
  813 -8.70341 0.0790027 2.44007
  814 -8.70408 0.0816766 -2.43528
  815 98.3049 -6.29440 19.2272
  816 18.3448 14.7996 -16.3872
  817 18.5769 14.0522 16.1196
  818 89.3191 4.02753 2.48171
  819 -4.27644 -0.0739829 -1.25552
  820 -4.21057 -0.0749259 1.25347
  821 113.481 -10.8960 -13.7227
  822 156.210 -16.5958 -6.88146
  823 -0.765698 -0.728977 -0.955424
  824 -0.763543 -0.727366 0.951994
  825 4.59027 0.284207 -0.239686
  826 4.59856 0.285764 0.234068
  827 138.511 -12.2326 4.77313
  828 115.992 -11.9326 9.16520
  829 129.296 -1.75319 0.603004
  830 115.662 -9.15127 -1.09926
  831 39.7894 -0.573444 -0.164346
  832 39.7882 -0.555882 0.160189
  833 -14.2114 0.297414 1.00703
  834 -14.1821 0.296991 -0.997092
  835 146.889 -1.50755 -0.894622
  836 126.486 4.84421 -19.3065
  837 148.415 -2.58549 -2.46171
  838 85.5693 -6.40723 5.73970
  839 144.931 -2.61914 -18.9527
  840 156.423 -4.68534 -12.4389
  841 147.516 -1.23799 0.810623
  842 106.207 -4.33765 26.8601
  843 113.492 -11.0218 -4.68209
  844 67.3439 -0.492420 -17.1183
  845 67.7247 -0.0233910 17.2077
  846 96.1522 -7.01993 -3.45366
  847 160.444 17.1655 22.9849
  848 153.950 -16.4446 -10.0185
  849 52.7546 -1.55899 -0.875737
  850 52.7449 -1.53216 0.863548
  851 116.783 -2.25045 -0.163829
  852 116.785 -2.27279 0.196046
  853 137.937 -1.09381 -12.3415
  854 44.6224 -1.83562 -3.23094
  855 44.6422 -1.85007 3.19675
  856 0.528783 -15.0407 -3.10252
  857 0.498675 -15.1041 3.16196
  858 20.4198 -0.300237 -0.165624
  859 20.4161 -0.307639 0.160648
  860 145.664 -1.89777 -1.26281
  861 109.105 -10.3819 8.21307
  862 171.677 -15.1917 7.39951
  863 95.9224 2.03460 9.51421
  864 148.910 -3.16629 2.79609
  865 162.135 -14.7995 -13.4201
  866 21.5678 1.51654 -6.20757
  867 21.6317 1.49196 6.20101
  868 128.618 -1.91220 -0.555047
  869 102.518 -3.23172 -0.343843
  870 102.145 -3.19838 0.434797
  871 158.056 24.6933 12.4913
  872 53.8486 -0.455319 -11.6554
  873 53.7892 -0.519971 11.5956
  874 110.133 -9.83532 3.53684
  875 9.83114 6.66903 -1.56520
  876 9.93384 6.65426 1.59290
  877 92.7211 -6.63739 15.4378
  878 111.779 -6.87868 -0.238674
  879 138.815 -1.13121 12.4726
  880 138.186 -15.6842 3.78165
  881 158.642 -12.2395 -17.8982
  882 108.839 -10.4681 -8.35049
  883 89.8138 -5.81080 -3.02740
  884 303.712 25.1564 -4.60121
  885 144.904 -15.4180 3.83215
  886 3.51161 4.47661 2.35912
  887 3.58533 4.48432 -2.32138
  888 125.420 -12.5034 1.24169
  889 138.011 -15.7353 -7.71578
  890 3.58740 4.00527 0.813971
  891 3.65145 4.00549 -0.785557
  892 50.0667 -1.69805 8.68142
  893 50.1054 -1.75458 -8.74216
  894 61.1997 -3.02202 9.55520
  895 61.1834 -3.09884 -9.63270
  896 198.852 39.9815 7.21980
  897 -0.314976 -6.16149 -2.96527
  898 -0.317129 -6.15497 2.96360
  899 44.1764 3.84593 -12.9607
  900 43.9466 3.76533 12.8176
  901 354.710 11.5247 -18.0816
  902 2.91615 -0.0178407 0.425037
  903 2.89691 -0.0190058 -0.432749
  904 0.542584 -17.7839 1.39375
  905 0.640648 -17.5059 -1.15851
  906 -6.59763 -0.0988238 2.46536
  907 -6.60412 -0.0968358 -2.46437
  908 35.2412 10.4342 -15.3552
  909 35.7929 10.0900 15.1183
  910 -3.07067 0.0274136 -5.29719
  911 -3.08502 0.0163327 5.30645
  912 8.80154 0.981396 -3.93030
  913 8.86211 0.969191 3.93481
  914 37.9875 -0.345146 7.95424
  915 37.9658 -0.343599 -8.00254
  916 30.4430 -0.996583 -6.38069
  917 30.4703 -0.994041 6.36659
  918 173.052 -0.549433 -3.09950
  919 82.6983 16.9272 48.2706
  920 114.658 -11.2407 4.29422
  921 80.3376 -5.60859 4.48875
  922 156.694 15.9544 -22.6204
  923 348.734 7.56142 7.16056
  924 188.136 7.80992 -22.4207
  925 28.4438 -1.09118 3.91613
  926 28.4188 -1.07803 -3.93499
  927 3.25032 -0.146615 -2.89445
  928 3.30657 -0.148340 2.89292
  929 -0.250370 -3.18071 -5.81886
  930 -0.274791 -3.20439 5.83779
  931 83.0643 -3.40875 1.79080
  932 83.1117 -3.48327 -1.80440
  933 8.80205 2.74766 -3.32856
  934 8.86818 2.73484 3.34779
  935 49.5806 -2.13180 -7.28469
  936 49.6100 -2.13078 7.27677
  937 107.928 -0.602193 -11.2281
  938 51.0501 -2.70931 -4.90324
  939 51.0066 -2.67623 4.92029
  940 129.485 -3.20394 -0.982936
  941 156.576 -9.13803 -21.7037
  942 66.3244 -2.51270 2.03825
  943 66.3616 -2.53946 -2.07495
  944 -2.79794 -0.311825 -1.70190
  945 -2.79073 -0.312567 1.69851
  946 160.532 -13.1233 -24.4866
  947 152.989 -8.90641 14.0725
  948 133.927 -9.13044 -3.86491
  949 128.259 4.23468 20.3663
  950 57.3627 -3.13246 -5.55126
  951 57.3558 -3.06758 5.57033
  952 144.502 5.31851 24.7990
  953 133.897 11.6273 16.2989
  954 282.257 34.2328 5.80851
  955 143.011 -4.77796 3.47864
  956 73.0848 -1.92955 -0.900770
  957 73.0722 -1.88397 0.910745
  958 127.360 -10.2532 -1.67756
  959 175.677 32.3575 -10.9655
  960 157.648 -1.32735 -1.29884
  961 101.513 -2.08210 0.285129
  962 101.471 -2.06309 -0.254786
  963 12.2784 10.1417 -6.56961
  964 12.6035 10.1160 6.62639
  965 24.6589 56.3446 -54.0002
  966 145.317 -3.54210 18.8696
  967 183.175 -4.13574 -19.0702
  968 -3.88860 1.72279 1.40297
  969 -3.84248 1.72208 -1.38048
  970 382.173 88.3483 -71.2396
  971 156.517 -17.2571 3.46396
  972 167.368 -15.9930 -4.91940
  973 153.854 -13.2379 13.1214
  974 189.190 37.5302 4.81551
  975 13.0843 12.4480 -15.1841
  976 34.6644 48.1489 52.5634
  977 -1.05452 -2.32512 5.74366
  978 -1.03934 -2.30775 -5.73379
  979 150.270 -3.48315 3.42388
  980 241.390 43.0905 -4.45857
  981 13.4795 12.1178 15.8513
  982 -0.673150 -2.18505 -1.89232
  983 -0.673359 -2.17936 1.88772
  984 128.239 -2.53646 0.534772
  985 94.4656 -7.39284 -6.29206
  986 155.018 -12.3225 -15.3022
  987 42.6137 11.4293 -20.6578
  988 43.3078 11.6229 20.7131
  989 149.780 -3.74568 -16.9312
  990 152.179 -4.52103 5.96732
  991 -4.32533 0.922061 4.73899
  992 -4.30527 0.931761 -4.72449
  993 90.1882 -5.95764 -14.4494
  994 150.280 9.37095 -25.0214
  995 112.093 -3.80244 -0.154379
  996 79.3309 -1.97448 0.0950126
  997 79.3172 -1.99077 -0.0855794
  998 -1.76005 -1.99227 -4.00802
  999 -1.76265 -1.99654 4.00530
  1000 154.229 -5.23379 -7.20989
  1001 147.239 -1.19750 0.259281
  1002 147.100 -1.19870 -0.196192
  1003 202.759 32.4297 -16.3070
  1004 34.7588 3.16347 -10.0448
  1005 34.8439 3.10020 10.0166
  1006 21.1121 -0.138502 -5.23569
  1007 21.1500 -0.142951 5.22605
  1008 165.997 8.48042 27.2137
  1009 158.647 -2.66048 -4.14650
  1010 26.2449 4.33062 -8.00625
  1011 26.3501 4.29699 8.03630
  1012 166.454 -0.565003 -0.758668
  1013 153.827 -6.46407 -10.6838
  1014 150.181 -17.2361 -4.81769
  1015 5.24056 4.17879 -0.901418
  1016 5.08338 4.15907 0.971958
  1017 -7.70460 1.13925 2.94037
  1018 -7.67878 1.14219 -2.92349
  1019 86.0165 3.34938 -4.15186
  1020 262.174 63.6992 -15.2288
  1021 117.786 -8.33251 0.356327
  1022 76.8534 -3.34323 -14.9264
  1023 191.702 -8.57604 3.82181
  1024 77.1591 -3.34513 15.1470
  1025 136.074 -16.0356 9.28504
  1026 154.372 -6.34721 -15.6363
  1027 50.2859 -1.03644 -0.281330
  1028 50.2839 -1.01389 0.278741
  1029 104.372 -7.95947 -2.78522
  1030 62.8889 -2.27380 -11.4307
  1031 62.8571 -2.29100 11.3619
  1032 20.3846 13.2273 -12.2677
  1033 20.7183 13.1808 12.3034
  1034 41.7047 -1.26673 -1.02005
  1035 41.7011 -1.24861 1.00261
  1036 137.588 -3.95449 2.10241
  1037 115.556 -0.0270399 -39.5736
  1038 142.743 -4.26169 -3.42674
  1039 128.208 -14.2244 -5.05951
  1040 82.8287 -3.23009 1.15463
  1041 82.9027 -3.25758 -1.16103
  1042 168.742 -0.740480 0.954536
  1043 149.722 -3.17750 -3.21759
  1044 91.2973 2.19742 7.81787
  1045 159.829 -1.55037 -6.99317
  1046 60.6440 17.2362 38.2270
  1047 165.093 -1.45635 -5.78356
  1048 41.4385 7.05550 -15.3195
  1049 40.1458 7.14024 14.6489
  1050 198.235 -4.48997 -4.81702
  1051 16.6478 8.89874 -5.97122
  1052 16.8065 8.83186 5.96662
  1053 2.72218 -1.00476 2.43098
  1054 2.87185 -0.979364 -2.33260
  1055 22.2505 -0.607721 1.26615
  1056 22.2368 -0.612380 -1.28628
  1057 69.2550 17.4713 -42.5827
  1058 395.550 99.4111 76.6235
  1059 153.664 -5.23621 7.39740
  1060 137.302 -15.5324 -3.26286
  1061 94.2660 -7.72466 -10.8993
  1062 -2.42037 1.95358 4.29690
  1063 -2.38449 1.96427 -4.27304
  1064 106.817 -5.16621 0.123551
  1065 118.366 -3.98666 -0.648570
  1066 -0.0745078 -8.75437 2.88125
  1067 -0.0715236 -8.76164 -2.88009
  1068 16.8355 10.5672 -7.25322
  1069 17.0433 10.5439 7.29947
  1070 105.329 -4.71085 -0.100474
  1071 7.18836 3.79626 1.80879
  1072 7.12202 3.80232 -1.78319
  1073 162.375 -6.69572 25.1177
  1074 116.909 -12.1482 -9.11844
  1075 94.8407 -7.85066 10.8970
  1076 153.973 -3.35564 -26.1497
  1077 164.846 -1.49463 3.01818
  1078 57.7500 8.80099 25.2543
  1079 58.1708 8.42791 -24.8191
  1080 94.2786 -4.67941 -21.1456
  1081 135.160 -4.44320 -2.19521
  1082 108.864 -6.26031 0.833074
  1083 128.236 -11.8599 0.876832
  1084 178.858 -0.510936 -1.68527
  1085 93.9026 -4.01499 1.02232
  1086 93.8610 -4.26768 -1.08033
  1087 2.74232 3.33088 3.79460
  1088 2.81942 3.35626 -3.75098
  1089 154.900 5.43870 -26.9401
  1090 33.2310 1.82882 -8.80774
  1091 33.3187 1.78951 8.77737
  1092 24.3611 0.591585 -6.18321
  1093 24.4124 0.577155 6.16757
  1094 179.620 -8.51857 31.1259
  1095 154.239 -7.05831 15.4674
  1096 73.8990 -3.33516 -12.5165
  1097 182.231 -0.619805 -1.01355
  1098 201.308 37.7608 -12.4534
  1099 164.683 -1.26099 -1.98313
  1100 153.064 -16.6507 6.74464
  1101 112.361 -8.72368 18.3518
  1102 183.774 -0.0993522 0.241585
  1103 91.1089 2.88805 -6.63674
  1104 129.149 -13.8000 -1.61674
  1105 74.0123 -3.49110 12.3607
  1106 130.395 -11.7569 -1.63652
  1107 164.161 -2.11179 5.38412
  1108 113.364 7.18998 10.4107
  1109 79.6122 -5.77587 -9.77959
  1110 250.466 32.8120 -11.5438
  1111 185.729 7.72610 23.3587
  1112 135.452 17.0890 2.57765
  1113 181.262 0.142412 0.939401
  1114 68.6480 -4.18392 -7.32364
  1115 47.0246 28.1315 -42.5913
  1116 84.8403 2.05662 -30.5335
  1117 97.3618 -7.30504 4.20917
  1118 81.7783 -6.04319 9.07894
  1119 68.4669 -3.96803 7.40992
  1120 146.990 1.05793 26.0682
  1121 111.291 -3.49458 0.278927
  1122 178.222 -1.21589 2.20476
  1123 -1.60205 -0.295087 5.79900
  1124 -1.58119 -0.277990 -5.78487
  1125 116.834 -2.92214 -0.409279
  1126 -0.441777 1.06304 5.41520
  1127 -0.404325 1.08508 -5.38893
  1128 63.6682 -1.82370 1.24894
  1129 63.6777 -1.85778 -1.25109
  1130 166.638 -0.832724 4.80515
  1131 133.172 -7.88476 -3.30541
  1132 124.499 -6.33445 -1.56968
  1133 139.646 -9.59094 5.84385
  1134 41.4555 20.1499 -31.4135
  1135 137.069 -4.82141 2.70824
  1136 18.4953 0.452212 -5.02885
  1137 18.5436 0.442219 5.02176
  1138 27.4659 17.4246 -21.7014
  1139 220.909 27.4413 9.62290
  1140 13.1433 -0.667730 2.89001
  1141 13.0995 -0.661980 -2.89713
  1142 27.9662 17.1249 20.9015
  1143 124.902 -10.2849 1.17001
  1144 61.3020 -2.72224 2.58996
  1145 61.3178 -2.73720 -2.64436
  1146 258.041 54.3054 -12.8791
  1147 138.001 -13.8067 2.32869
  1148 46.2402 26.2209 42.4820
  1149 3.75862 -2.47524 -2.78231
  1150 4.06692 -2.42641 3.15070
  1151 143.251 18.0049 13.1552
  1152 9.91119 5.69643 -1.73861
  1153 9.99621 5.69685 1.76172
  1154 138.951 -11.9760 -4.98139
  1155 -0.0683706 -13.6229 -2.74089
  1156 -0.0747248 -13.6268 2.75328
  1157 148.737 -12.5217 -9.54842
  1158 -5.09554 0.194846 0.977631
  1159 -5.16112 0.195974 -0.980745
  1160 21.5363 8.20878 -7.96603
  1161 21.6542 8.24310 7.88149
  1162 -9.65274 0.0251236 -1.19901
  1163 -9.58178 0.0245365 1.19970
  1164 149.582 -1.22110 -0.383706
  1165 -15.5248 0.434726 0.392006
  1166 -15.4851 0.434419 -0.382959
  1167 76.8469 -5.94171 -7.00000
  1168 1.99448 -21.3880 -1.39242
  1169 36.6492 -0.991346 2.02510
  1170 36.6422 -0.995806 -2.05355
  1171 126.095 -1.96666 0.104253
  1172 126.339 -1.90190 -0.0788484
  1173 2.13920 -20.4888 1.83999
  1174 149.877 -7.62887 -9.16979
  1175 172.257 -0.694996 3.60899
  1176 152.120 -9.67614 -13.0792
  1177 130.449 0.885153 20.2139
  1178 0.603325 -5.94510 4.48666
  1179 0.667992 -5.90537 -4.41931
  1180 95.9404 -6.77818 3.19901
  1181 -6.87777 0.562154 3.76206
  1182 -6.86530 0.567041 -3.75141
  1183 254.292 40.8351 2.45548
  1184 302.492 89.2276 -62.8254
  1185 155.631 -15.2526 11.6759
  1186 61.9302 -1.63599 -0.130342
  1187 61.9298 -1.61209 0.130407
  1188 325.152 31.5311 -28.7681
  1189 20.1461 -0.533785 3.00619
  1190 20.1121 -0.524886 -3.02129
  1191 143.915 -0.472842 -8.10018
  1192 91.9496 -7.34737 7.96243
  1193 153.978 -15.2095 -8.90836
  1194 148.893 -10.7444 -10.5216
  1195 89.6888 -3.27440 22.2201
  1196 32.1971 6.13788 -11.3777
  1197 32.1741 6.08256 11.3050
  1198 43.0764 15.7934 -26.5542
  1199 43.1237 14.5905 26.5511
  1200 11.3862 3.64520 -3.49738
  1201 11.4580 3.63350 3.52110
  1202 182.845 31.5417 -16.1246
  1203 8.86266 7.97999 -2.85183
  1204 9.08117 7.98762 2.91567
  1205 132.135 -9.91468 3.08420
  1206 251.831 33.9504 13.2383
  1207 28.7185 -1.22428 -1.99361
  1208 28.7341 -1.22349 1.96826
  1209 165.738 106.366 -96.1451
  1210 120.817 7.11916 -16.1152
  1211 110.067 8.55816 6.54768
  1212 14.6311 6.46319 -4.15954
  1213 14.7028 6.46175 4.18544
  1214 -0.0993039 -0.0196773 0.720180
  1215 -0.138888 -0.0196336 -0.727729
  1216 146.702 -11.7054 8.93587
  1217 144.510 -5.48480 4.91526
  1218 98.5149 26.1859 -67.7833
  1219 228.284 49.6195 -0.492498
  1220 96.7888 -3.10601 -24.6010
  1221 126.477 -3.49359 0.882551
  1222 2.72227 -0.643177 -0.185379
  1223 2.72373 -0.642812 0.184242
  1224 -4.55953 0.986822 -1.43725
  1225 -4.50138 0.982526 1.45015
  1226 83.8159 0.760540 -25.8978
  1227 157.396 -3.16992 5.22625
  1228 101.053 1.44936 35.9015
  1229 137.910 -6.52750 -4.01691
  1230 70.3200 24.1443 -52.8549
  1231 109.968 -5.64363 -26.6624
  1232 131.417 -14.0313 0.866035
  1233 161.954 -2.40445 7.89108
  1234 141.986 -2.56350 -1.61670
  1235 76.5011 -5.56107 7.04705
  1236 178.325 -10.5688 -15.1609
  1237 167.657 14.2033 25.8272
  1238 71.9588 0.310200 -20.2099
  1239 169.917 -0.780974 0.714531
  1240 131.866 16.5518 -3.67093
  1241 56.1335 -1.83248 -1.99123
  1242 56.1169 -1.81018 1.96346
  1243 260.652 57.2385 11.0894
  1244 361.819 9.64104 16.9490
  1245 0.295028 -16.6891 -2.73652
  1246 0.284975 -16.7097 2.75720
  1247 36.8025 18.9446 29.2474
  1248 89.2453 -2.29765 -0.232032
  1249 89.2641 -2.28061 0.266919
  1250 123.762 -12.3903 -1.96282
  1251 146.422 11.8424 22.6285
  1252 156.270 -2.74952 -3.49959
  1253 183.672 -0.372409 -0.118102
  1254 318.260 69.9222 -43.4008
  1255 46.0826 -1.67849 1.98544
  1256 46.0840 -1.68318 -2.01975
  1257 148.882 -13.8270 9.23722
  1258 265.137 61.6472 -16.3926
  1259 144.550 -6.01881 -5.49576
  1260 104.347 -7.04094 -1.86301
  1261 129.071 -14.0840 4.88818
  1262 126.234 -5.99982 1.84271
  1263 4.36876 -0.852888 -4.84426
  1264 173.753 -10.9854 17.6238
  1265 140.237 -8.96167 -5.68496
  1266 4.83338 -0.612324 5.47192
  1267 144.475 -12.0983 -24.8390
  1268 136.877 7.39456 -55.4135
  1269 226.680 27.2252 -7.56276
  1270 184.463 -0.00499325 -0.0682056
  1271 184.102 -0.177725 0.178229
  1272 142.751 -8.09931 6.02173
  1273 53.4718 6.37746 -19.8300
  1274 162.849 -14.7459 14.3983
  1275 279.645 63.2982 27.5519
  1276 67.2294 22.2647 51.4259
  1277 1.63365 -0.248365 4.67706
  1278 1.70478 -0.215274 -4.62809
  1279 171.835 -14.5007 -12.4129
  1280 66.6531 -3.49483 -3.13153
  1281 66.6358 -3.50323 3.05916
  1282 159.002 -10.6481 20.9752
  1283 3.72446 0.0755848 3.21237
  1284 3.66784 0.0786948 -3.21272
  1285 -0.936055 -3.41121 4.64962
  1286 -0.930105 -3.40396 -4.64981
  1287 25.4719 -0.885079 -2.74280
  1288 25.4956 -0.890585 2.72065
  1289 82.1317 -5.43044 -11.2337
  1290 82.4876 -2.45267 0.426759
  1291 82.4870 -2.51544 -0.394423
  1292 183.610 -0.00448075 -0.0500821
  1293 160.827 -2.34263 -8.84134
  1294 11.1546 0.654017 -3.94691
  1295 11.2099 0.645091 3.94635
  1296 82.4630 -5.75419 11.1239
  1297 185.623 -0.103836 0.0369210
  1298 174.798 0.0738498 -0.189395
  1299 174.808 -0.0295149 0.141403
  1300 229.134 47.0176 5.30877
  1301 169.779 -0.878867 -1.57635
  1302 150.063 -1.12812 0.328813
  1303 166.353 -2.29825 -4.76500
  1304 182.434 -0.469994 0.722568
  1305 187.385 18.6829 23.1677
  1306 217.642 44.4708 7.79037
  1307 176.246 -0.598767 -2.42139
  1308 -1.39522 -0.369886 1.26231
  1309 -1.40063 -0.369586 -1.26599
  1310 95.5554 -5.78684 1.99657
  1311 95.5344 -5.51653 -1.91823
  1312 189.116 20.7838 -22.1917
  1313 38.0575 13.0379 -21.7157
  1314 38.3028 12.6678 21.4605
  1315 124.873 -0.0212799 -10.1014
  1316 131.221 -1.65883 0.0491829
  1317 131.060 -1.64099 -0.0759508
  1318 -3.26060 -0.602554 4.75060
  1319 -3.25464 -0.594316 -4.74840
  1320 144.384 -0.367227 8.09004
  1321 221.919 44.2224 0.826218
  1322 12.5920 -0.570692 -1.73320
  1323 12.6228 -0.572061 1.71611
  1324 164.126 -16.0760 8.69366
  1325 -0.181499 2.47489 4.46289
  1326 -0.134875 2.49003 -4.43316
  1327 27.0377 -0.601993 -0.521449
  1328 27.0412 -0.590924 0.510186
  1329 124.916 -0.233038 10.2506
  1330 1.39411 0.294417 -0.250158
  1331 1.40682 0.295542 0.244522
  1332 168.070 -1.72076 3.17471
  1333 232.732 42.8422 1.54508
</Section>

newXOutput 22

<Section columns = "stress_xx | stress_yy | stress_xy">
  1 197.944 -0.411681 0.355910
  2 198.288 -0.570094 -0.462685
  3 -0.644144 0.195384 -0.528357
  4 -0.126232 -0.199930 -0.119878
  5 371.703 138.459 118.154
  6 377.448 159.100 -119.502
  7 -0.124767 -0.198660 0.117978
  8 -0.645027 0.194311 0.527053
  9 199.370 -0.284038 -0.327809
  10 197.749 -0.602009 -0.458607
  11 197.808 -0.451231 0.492185
  12 196.663 -0.174021 0.267769
  13 196.137 -0.561994 -0.0462061
  14 195.602 -0.530311 0.894771
  15 192.368 -0.334411 0.910782
  16 192.939 -1.35796 1.29360
  17 186.333 -1.09805 2.68419
  18 182.019 -0.424491 3.21258
  19 176.173 -0.568594 3.43825
  20 166.189 -0.499777 4.72101
  21 155.452 -0.451510 5.43628
  22 142.206 0.659685 7.38032
  23 124.207 1.01326 6.64520
  24 117.092 -0.128018 9.46750
  25 94.8940 1.37242 6.70288
  26 81.5509 1.84722 5.22534
  27 78.0876 0.796984 3.84314
  28 74.3655 2.67909 0.272393
  29 76.3900 2.92975 -5.13364
  30 80.5179 0.799526 -6.45450
  31 96.9327 0.277434 -8.65823
  32 113.632 -0.869080 -9.06615
  33 124.856 0.837159 -6.64012
  34 142.412 0.755357 -7.38866
  35 155.021 -0.541985 -5.81880
  36 167.318 -0.598389 -4.46551
  37 175.398 -0.391403 -3.48773
  38 181.447 -0.444530 -2.96643
  39 187.872 -0.621155 -1.74643
  40 190.526 -0.583906 -1.68920
  41 193.081 -0.559262 -1.47267
  42 195.711 -0.651215 -0.357557
  43 196.772 -0.851482 -0.637214
  44 195.710 0.182388 -0.108234
  45 197.588 -0.395715 -0.546314
  46 198.600 -0.929294 0.499746
  47 199.641 -0.510830 -0.0331603
  48 188.971 0.324422 -0.297220
  49 177.081 -0.426564 -0.571040
  50 163.742 -1.29434 -0.861797
  51 150.042 -0.937155 -0.632759
  52 138.189 -1.80867 -0.584783
  53 125.752 -2.00904 -0.544149
  54 113.275 -1.71956 -0.301336
  55 100.224 -1.90979 -0.395142
  56 89.2290 -2.13427 -0.504648
  57 74.6639 -2.09281 -0.426490
  58 59.7124 -1.26660 -0.273051
  59 47.3741 -0.796163 -0.224885
  60 32.1658 -0.501204 -0.123317
  61 21.1107 -0.541995 -0.786186
  62 10.8243 -0.818143 -0.276435
  63 0.462856 0.0997266 0.444046
  64 -2.16156 0.732849 0.140473
  65 -2.84365 0.302613 0.444272
  66 -2.33173 0.139286 0.420107
  67 -4.27837 0.424781 0.133543
  68 -4.94897 0.549782 0.903802
  69 -5.03988 0.189769 0.257310
  70 -8.37652 0.399688 0.292803
  71 -9.84904 0.286540 0.851621
  72 -10.2482 0.106062 0.883237
  73 -13.8066 0.382734 0.649674
  74 -15.0401 0.563408 1.32409
  75 -16.3202 0.342119 0.396001
  76 -17.9743 0.245456 0.660660
  77 -18.4412 0.265661 0.198035
  78 -19.9492 0.618070 -0.518724
  79 -19.9704 0.424051 -0.393465
  80 -18.0497 0.328435 -0.681437
  81 -15.4136 0.413174 -1.23458
  82 -12.4234 0.171942 -1.81279
  83 -9.18503 0.0901388 -1.86563
  84 -5.48763 -0.200978 -1.94283
  85 -2.34739 -0.157105 -1.11973
  86 -0.972976 -0.401188 -0.692452
  87 -0.171013 -0.988729 -0.592900
  88 -0.295270 -2.52619 -1.07533
  89 -0.332624 -5.03295 -1.91142
  90 -0.0796268 -9.46995 -2.08727
  91 0.102545 -13.1895 -2.64383
  92 0.255926 -19.0159 -2.16777
  93 0.780929 -22.6791 -2.57552
  94 0.113433 -24.6812 -2.19393
  95 -0.0521895 -28.5436 -1.42494
  96 0.774594 -28.1837 -0.593055
  97 3.08936 -36.7395 1.11641
  98 2.63547 -21.3693 4.21076
  99 6.40317 -11.9186 9.74150
  100 19.6644 26.1666 32.3500
  101 86.7984 102.051 95.9307
  102 487.375 50.6311 72.7991
  103 404.137 14.2175 26.0929
  104 384.057 6.07152 9.02696
  105 372.710 4.02588 -0.0431191
  106 379.840 5.78824 -7.38446
  107 408.187 12.1591 -21.6813
  108 482.324 40.4829 -68.0776
  109 56.0660 115.876 -79.2870
  110 13.7843 17.4144 -24.7697
  111 4.70648 -15.1373 -7.95225
  112 2.38645 -23.2736 -3.53436
  113 3.07713 -38.1047 -0.786528
  114 0.743029 -28.7948 0.829971
  115 -0.0970872 -28.8521 1.54914
  116 0.0845753 -24.8024 2.26084
  117 0.765411 -22.7104 2.60407
  118 0.249932 -19.0086 2.17853
  119 0.0979541 -13.1730 2.64798
  120 -0.0818664 -9.44807 2.08637
  121 -0.332961 -5.01882 1.90769
  122 -0.295906 -2.51380 1.07174
  123 -0.170920 -0.984088 0.589673
  124 -0.967373 -0.400694 0.689782
  125 -2.33753 -0.157772 1.11689
  126 -5.47527 -0.202528 1.94129
  127 -9.17111 0.0884751 1.86623
  128 -12.4165 0.170146 1.81614
  129 -15.4187 0.411942 1.24086
  130 -18.0671 0.328384 0.688083
  131 -20.0033 0.423763 0.399865
  132 -19.9947 0.618154 0.525298
  133 -18.5007 0.266405 -0.192482
  134 -18.0440 0.246364 -0.656741
  135 -16.3946 0.343123 -0.393067
  136 -15.1194 0.564570 -1.32326
  137 -13.8873 0.383794 -0.649016
  138 -10.3265 0.106707 -0.883925
  139 -9.92643 0.287636 -0.853391
  140 -8.44915 0.401250 -0.295292
  141 -5.10195 0.190826 -0.261639
  142 -4.99991 0.550787 -0.909939
  143 -4.31982 0.425003 -0.139031
  144 -2.35894 0.139059 -0.425337
  145 -2.86001 0.302042 -0.448434
  146 -2.17092 0.731816 -0.144125
  147 0.459213 0.0991206 -0.446127
  148 10.8205 -0.821117 0.274169
  149 21.1065 -0.549778 0.783610
  150 32.1639 -0.515141 0.120046
  151 47.3754 -0.816398 0.223121
  152 59.7126 -1.29018 0.272664
  153 74.6579 -2.11338 0.429479
  154 89.2068 -2.14496 0.511121
  155 100.184 -1.89815 0.410736
  156 113.215 -1.67435 0.319611
  157 125.668 -1.90095 0.515801
  158 138.245 -1.83827 0.516430
  159 150.082 -1.12737 0.666583
  160 163.874 -1.25898 0.789049
  161 177.451 -0.322718 0.578676
  162 188.614 0.313662 0.287647
  163 106.753 -9.56036 -7.66143
  164 106.303 -9.73219 7.64456
  165 30.9746 8.71317 -11.6991
  166 31.2853 8.74779 11.6415
  167 126.987 -6.50619 31.5884
  168 133.318 -7.32766 -30.7082
  169 60.1295 -3.06678 3.41854
  170 60.1288 -3.03498 -3.48018
  171 135.940 -4.35522 1.47442
  172 133.089 -4.36798 -1.43491
  173 179.795 32.6951 -5.05943
  174 184.315 0.756708 -25.7867
  175 180.422 2.24499 27.4618
  176 41.2736 -1.49656 -7.74643
  177 41.2692 -1.48375 7.72573
  178 159.250 -15.8508 10.0505
  179 159.010 -12.2319 -13.3268
  180 1.70962 3.33960 4.42453
  181 1.77398 3.36145 -4.38685
  182 217.477 44.0114 8.96622
  183 40.6151 17.9031 -27.8049
  184 43.6884 18.0890 29.9423
  185 154.150 -6.92132 6.59965
  186 231.695 47.9921 -5.54733
  187 98.2516 -3.24782 -0.665626
  188 98.0831 -3.34301 0.653561
  189 158.782 -4.70394 -5.95913
  190 212.875 -2.60021 -0.572613
  191 36.0466 -1.05723 1.24194
  192 36.0420 -1.06791 -1.26565
  193 15.0731 2.14696 -5.00707
  194 15.1447 2.12495 5.01785
  195 87.5193 -3.39521 -19.2985
  196 87.1729 -3.58926 19.5560
  197 104.932 -6.57072 -2.12603
  198 105.145 -6.53348 2.33314
  199 25.0960 -0.875845 4.01385
  200 25.0629 -0.863024 -4.02629
  201 210.693 -5.10935 11.5466
  202 170.972 -17.1886 -5.31639
  203 163.266 -1.28601 -1.06901
  204 159.426 -1.61805 1.11368
  205 158.796 18.5511 19.0960
  206 6.37968 4.98746 -1.24062
  207 6.62707 4.97144 1.34979
  208 159.723 -6.52714 22.2793
  209 145.214 10.9900 -21.6070
  210 104.768 22.3340 -66.3670
  211 110.164 18.8309 61.6004
  212 1.82270 3.43625 0.225335
  213 1.88266 3.43467 -0.197491
  214 159.107 -5.78343 -22.9711
  215 280.601 39.6410 -2.46764
  216 132.311 -14.5544 10.3435
  217 133.359 -14.4630 -9.70429
  218 132.257 -9.21112 -1.92881
  219 165.729 -2.28603 3.27646
  220 77.9383 -5.22849 -6.57531
  221 76.6528 -5.20503 6.81743
  222 46.1606 1.04304 -11.9614
  223 46.2222 1.02364 11.8466
  224 169.456 -18.2656 -0.144578
  225 131.116 -9.81424 1.37126
  226 165.168 -2.20965 -2.65611
  227 127.340 -2.85893 0.402621
  228 128.504 -2.63162 -0.151563
  229 162.014 -7.11890 13.2366
  230 11.9420 0.183508 -4.27434
  231 11.9958 0.177108 4.27130
  232 -2.16661 -1.49573 -5.58709
  233 -2.17716 -1.50838 5.59199
  234 21.8735 -1.00851 -2.27478
  235 21.8991 -1.01092 2.25189
  236 66.1712 -1.79865 1.49032
  237 66.1921 -1.83618 -1.50567
  238 77.4525 5.22123 -28.7622
  239 77.4604 4.33012 28.4246
  240 164.467 -4.97080 -11.3151
  241 75.4771 -4.33752 -11.2601
  242 75.5364 -4.47295 11.0761
  243 142.693 2.04882 24.3322
  244 123.051 10.6475 1.46436
  245 140.610 -13.9517 -1.93010
  246 0.480604 -3.86091 -5.33327
  247 0.433738 -3.89719 5.37429
  248 8.55692 7.68022 -8.84377
  249 9.13173 7.35459 9.35947
  250 138.200 -13.6400 0.987617
  251 252.589 45.1913 -0.307114
  252 12.1396 8.37053 -3.26898
  253 12.2928 8.36457 3.31665
  254 -5.70542 1.09452 3.98457
  255 -5.67867 1.10013 -3.96633
  256 254.239 42.0090 1.62314
  257 86.1688 -3.93072 -2.23542
  258 86.0979 -3.86108 2.17236
  259 172.264 -11.8939 21.1774
  260 315.505 51.1923 30.9329
  261 49.3126 -2.54030 -6.27606
  262 49.2951 -2.55821 6.26609
  263 174.113 25.9864 -18.5566
  264 303.800 57.4393 -27.6673
  265 210.581 20.0765 19.0395
  266 231.346 11.7691 -40.6564
  267 140.830 -6.35312 3.10190
  268 159.279 0.511241 -27.5900
  269 151.872 -10.5675 -8.04030
  270 169.999 -2.86474 7.25186
  271 -1.14106 1.60701 -1.25022
  272 -1.08153 1.60161 1.26950
  273 168.598 -6.59088 -39.8248
  274 16.7391 5.42093 -4.94095
  275 16.8216 5.40982 4.97031
  276 162.100 -3.89099 -14.1698
  277 22.5427 21.6874 -28.7757
  278 16.0816 -0.0586083 -0.512098
  279 16.0896 -0.0542292 0.502367
  280 171.527 -10.9366 -22.0174
  281 29.0134 13.0253 -14.9595
  282 29.4406 12.9484 15.0003
  283 6.29324 -0.238850 3.01430
  284 6.23779 -0.235551 -3.01831
  285 140.642 -5.99863 -3.00775
  286 22.6905 21.4393 29.6013
  287 227.580 14.2932 48.0814
  288 58.9720 -2.22732 -1.96766
  289 58.9551 -2.21089 1.93072
  290 111.490 -4.29497 -0.369026
  291 111.432 -4.68421 0.486565
  292 95.1499 8.70509 -44.4568
  293 154.845 -17.0645 -4.10661
  294 178.252 -0.842091 1.48027
  295 91.5723 8.65876 42.9342
  296 106.582 -2.54832 -0.0856693
  297 106.540 -2.54548 0.181757
  298 152.100 -11.0217 8.19893
  299 176.245 -1.65629 -3.54575
  300 -2.70620 0.669048 -2.22213
  301 -2.64143 0.664101 2.23045
  302 219.323 43.9881 -2.64481
  303 193.411 -9.60299 12.4524
  304 175.723 -0.623237 -0.434937
  305 178.955 -0.536095 0.393795
  306 174.070 -15.9174 13.1396
  307 214.876 21.4319 -17.9650
  308 185.592 34.6567 10.9609
  309 82.1694 -4.88170 -3.89387
  310 81.3890 -4.97532 3.98646
  311 178.107 -0.800778 -1.05715
  312 114.783 -8.84967 -21.2482
  313 112.706 -8.72707 2.79790
  314 107.482 -6.05056 24.4249
  315 174.562 -1.89127 4.19628
  316 36.7523 -1.68245 -3.86334
  317 36.7717 -1.69525 3.84186
  318 160.390 -6.22290 39.3740
  319 100.104 -7.78170 -4.84296
  320 185.964 23.5208 23.4449
  321 57.9178 4.10862 -18.2348
  322 55.7003 4.29077 18.0664
  323 14.0071 -0.333765 -0.933806
  324 14.0258 -0.331247 0.918267
  325 153.710 -2.74707 2.09987
  326 147.300 -1.70028 0.409272
  327 146.442 -1.89939 -0.462882
  328 160.768 -4.10224 14.9842
  329 11.0920 -0.476184 2.19785
  330 11.0471 -0.471443 -2.21088
  331 44.1789 -0.986390 -0.772739
  332 44.1760 -0.967271 0.762351
  333 1.41392 -8.00434 -3.25985
  334 1.31271 -8.06203 3.38041
  335 122.047 5.21736 16.4121
  336 195.349 -9.18792 -10.5620
  337 125.036 -6.35712 1.32603
  338 142.245 -2.48011 -1.26017
  339 146.058 18.2473 -10.2001
  340 26.8691 -0.830538 -5.69881
  341 26.9008 -0.830809 5.69082
  342 121.455 -5.97276 -0.663064
  343 32.7839 1.24439 -8.27047
  344 32.8440 1.21467 8.23843
  345 5.91714 5.43217 0.649932
  346 5.99715 5.42999 -0.616891
  347 148.596 -16.2116 13.6523
  348 335.794 22.2600 8.56559
  349 129.412 1.81470 -19.4767
  350 109.493 -9.83889 12.5676
  351 108.933 -9.64939 -12.9855
  352 162.284 -2.96421 27.3993
  353 143.143 -1.13210 19.3585
  354 146.599 -15.6780 -14.1460
  355 85.5992 -1.92448 -0.0570347
  356 85.5873 -1.95174 0.0790490
  357 162.186 -10.6181 17.2763
  358 221.972 44.5473 1.74186
  359 175.282 -1.80449 -5.36673
  360 42.1295 -1.57986 -2.71941
  361 42.1416 -1.58082 2.68544
  362 164.537 -16.1105 -17.2170
  363 171.429 11.6701 -27.4691
  364 111.578 6.02322 -10.5015
  365 163.263 -10.9896 -19.6144
  366 -5.44527 0.135045 -4.32212
  367 -5.45145 0.128769 4.32776
  368 137.186 -2.88477 0.950280
  369 -1.95421 -1.17092 -2.50969
  370 -1.95210 -1.17141 2.50484
  371 106.686 49.9996 -81.1839
  372 3.82233 3.28002 3.27865
  373 3.92691 3.30729 -3.22328
  374 141.961 -1.19694 -19.1935
  375 77.4388 -3.11530 1.67014
  376 77.4999 -3.16169 -1.69593
  377 -0.594426 -5.88805 4.91105
  378 -0.585520 -5.87721 -4.90557
  379 86.2552 52.5614 76.2832
  380 63.1176 -3.28413 -8.65948
  381 63.1625 -3.13455 8.66585
  382 19.8368 14.3245 -13.6958
  383 20.2670 14.2750 13.6064
  384 -8.69667 1.20358 1.78584
  385 -8.66034 1.20523 -1.76669
  386 165.076 10.7608 27.3836
  387 126.842 -13.2692 5.24006
  388 126.975 -11.4701 1.34441
  389 154.709 -17.7331 -0.568385
  390 37.1804 4.78108 -11.6816
  391 37.3033 4.77024 11.6586
  392 3.24432 -6.10362 -0.317950
  393 3.05769 -6.18074 0.583850
  394 154.241 22.1701 6.77531
  395 158.240 -4.25026 4.95394
  396 88.7247 -6.79884 7.80180
  397 54.0249 -1.28785 -10.5136
  398 54.0392 -1.29746 10.4223
  399 114.153 -3.12174 0.0587029
  400 114.023 -2.69131 -0.156159
  401 87.9677 -6.99160 -8.35384
  402 68.3533 -1.10870 -14.4901
  403 68.3365 -1.20519 14.6104
  404 164.555 -15.2154 -12.6730
  405 94.0263 -7.08889 4.59851
  406 149.871 -4.25522 3.18896
  407 149.631 -3.83722 -2.73108
  408 124.570 -11.3793 -1.80751
  409 181.835 -0.580824 -1.55739
  410 59.3694 23.4113 -44.8906
  411 169.527 -2.33499 8.71844
  412 181.119 -0.756778 2.23780
  413 61.8510 -3.22468 5.00716
  414 61.8854 -3.17900 -5.00278
  415 126.261 -13.1080 -5.46523
  416 17.0199 7.81447 5.29867
  417 16.9262 7.81034 -5.30639
  418 339.405 22.2424 -17.5890
  419 146.555 -8.13708 -4.91902
  420 183.439 -0.424545 0.898328
  421 55.9527 21.7571 42.6396
  422 269.243 45.5517 8.04566
  423 158.100 -2.06634 -1.69677
  424 116.688 -8.27698 -1.31754
  425 47.6491 9.21693 -20.6899
  426 50.8445 8.55564 20.5663
  427 144.701 -8.97330 5.00653
  428 152.417 -1.99262 -14.3379
  429 -3.14288 -0.122129 2.24274
  430 -3.20939 -0.120486 -2.24224
  431 54.1367 12.9028 -28.1304
  432 54.3066 12.9527 28.0403
  433 5.41896 3.02949 -2.02350
  434 5.48491 3.02224 2.04754
  435 129.677 -2.12399 0.428892
  436 129.521 -2.05738 -0.382701
  437 161.731 -7.29018 -13.8214
  438 -0.629353 -0.700754 6.16445
  439 -0.600737 -0.676174 -6.14281
  440 166.802 -16.6286 11.3192
  441 158.088 -3.93839 -4.42155
  442 255.778 49.0879 -6.41876
  443 7.04960 -0.439042 1.00549
  444 7.01331 -0.439156 -1.01913
  445 310.683 85.8532 36.9194
  446 5.88285 0.269042 -8.03014
  447 17.1929 0.954860 -5.50144
  448 17.2509 0.940200 5.49793
  449 309.392 87.6692 -34.9676
  450 6.23579 0.955850 8.93889
  451 -8.61788 0.961690 0.707138
  452 -8.57149 0.959984 -0.689270
  453 16.1930 11.0490 -7.65870
  454 16.4828 11.0488 7.70313
  455 198.839 30.7755 -19.7753
  456 160.158 -6.07586 -9.14159
  457 182.401 -0.485341 -0.812392
  458 167.141 -2.49656 -10.1734
  459 -2.22690 1.06334 5.66999
  460 -2.19789 1.07892 -5.64989
  461 161.775 -6.36750 10.5271
  462 103.739 -5.59902 -1.63697
  463 103.407 -5.66115 1.27316
  464 142.178 -15.7189 -1.02544
  465 100.671 -1.59573 -30.2308
  466 154.077 -2.39381 14.6746
  467 126.416 -3.74176 -0.527481
  468 187.385 -14.6301 -0.409276
  469 97.4599 0.625705 32.4901
  470 4.96923 -0.112368 2.16320
  471 4.91355 -0.109476 -2.16981
  472 203.905 40.3988 -9.23911
  473 164.982 -0.901421 0.180698
  474 164.396 -1.06207 -0.336384
  475 122.788 -7.97625 -0.0738246
  476 51.4804 -1.66344 -1.47107
  477 51.4713 -1.64117 1.44795
  478 29.9109 -0.284255 -6.76397
  479 29.9423 -0.290222 6.74586
  480 99.6169 3.88037 6.25541
  481 23.5305 -0.805549 3.19852
  482 23.5000 -0.797383 -3.21862
  483 26.3812 2.67551 7.59838
  484 26.2933 2.71508 -7.59440
  485 158.735 -12.2616 12.8346
  486 87.4457 -5.42158 -13.5348
  487 80.1406 -2.37509 0.778952
  488 80.1740 -2.44233 -0.781816
  489 88.3879 -5.59601 13.5263
  490 249.210 58.4741 -3.08619
  491 -3.99017 -0.622781 -3.29154
  492 -3.98849 -0.625876 3.29007
  493 59.9725 -1.54626 -0.594516
  494 59.9674 -1.51871 0.591088
  495 0.0376040 -10.9598 -4.21093
  496 0.0117720 -10.9949 4.24655
  497 145.241 -1.80285 0.773265
  498 98.9216 4.80053 -3.12146
  499 135.891 14.3233 9.11214
  500 87.0228 -0.906771 -23.8388
  501 40.9423 -2.08360 4.87799
  502 40.9437 -2.06555 -4.88977
  503 -12.2506 0.374130 -0.645596
  504 -12.1878 0.371966 0.653398
  505 171.088 -3.49210 -27.3991
  506 10.4144 0.104553 -0.702025
  507 10.4281 0.106827 0.690919
  508 142.429 -11.0773 -4.34708
  509 151.988 -12.8760 -7.91256
  510 30.1574 22.3059 -29.8108
  511 127.598 2.85168 -48.4817
  512 1.08218 3.65805 3.04061
  513 1.14175 3.66510 -3.00807
  514 76.2604 -3.36381 -2.56888
  515 76.2169 -3.32940 2.49786
  516 221.398 7.98259 -7.52193
  517 158.158 -9.22252 -11.6040
  518 29.3774 21.0107 29.3685
  519 156.744 -17.9636 2.99434
  520 150.541 -14.2843 6.45059
  521 29.2423 -0.699842 -2.08447
  522 29.2553 -0.696419 2.05932
  523 120.647 1.23348 15.0568
  524 87.9615 -6.35261 -4.95320
  525 167.450 -3.49098 6.66659
  526 -0.704409 -4.05579 -3.18574
  527 -0.706153 -4.05315 3.18162
  528 116.057 -10.3632 15.2233
  529 178.250 -13.9891 -15.0234
  530 234.419 14.5235 -5.81644
  531 124.814 -3.89800 0.635232
  532 34.3735 -0.601603 -0.624495
  533 34.3746 -0.587658 0.617655
  534 78.0379 0.589956 22.9112
  535 222.486 36.3215 14.3392
  536 229.251 40.6422 -77.5276
  537 202.938 0.303805 14.7613
  538 145.085 -16.1695 0.226643
  539 350.419 27.8478 23.4854
  540 255.969 60.6339 5.00464
  541 33.6855 -1.37795 5.34973
  542 33.6647 -1.36343 -5.36233
  543 139.338 -11.4116 3.47865
  544 9.44457 4.88156 -1.73595
  545 9.52015 4.87765 1.76477
  546 176.026 -14.9242 14.9944
  547 141.323 7.50210 22.3560
  548 178.079 -1.02317 3.68536
  549 130.240 -7.56145 1.88397
  550 184.868 0.0154632 -51.1006
  551 296.247 72.1857 48.9162
  552 141.913 -2.40163 -0.719180
  553 174.521 -1.66170 -5.82922
  554 26.1956 11.0429 -10.9804
  555 26.3883 10.9081 10.9227
  556 98.0060 -3.66620 -1.00090
  557 97.9577 -3.56947 1.03140
  558 1.05607 -14.1889 -0.856677
  559 177.354 -6.67605 24.6791
  560 6.21189 5.76379 1.35431
  561 6.31750 5.77832 -1.30581
  562 1.24881 -13.7595 1.23109
  563 160.973 -7.39019 -19.7736
  564 185.512 11.2428 -26.6472
  565 184.757 12.7891 26.6244
  566 8.44203 6.49084 5.62674
  567 7.99927 6.67433 -5.48133
  568 -6.83588 0.186519 1.65865
  569 -6.90512 0.188281 -1.65594
  570 171.912 2.95132 52.7886
  571 91.9251 -4.88785 2.38683
  572 92.0226 -4.86989 -2.45550
  573 207.981 -5.14965 -25.8784
  574 23.5691 -0.313832 1.21331
  575 23.5600 -0.320110 -1.23006
  576 8.85802 -0.318600 -0.294601
  577 8.86356 -0.316458 0.290727
  578 227.024 40.2732 -12.0979
  579 21.0478 27.9040 -33.1858
  580 114.894 2.22128 -12.7268
  581 165.393 26.5577 -11.6086
  582 2.22376 -0.605716 4.12753
  583 2.32405 -0.571520 -4.06032
  584 173.066 73.3553 91.7341
  585 144.003 -3.65149 -1.95309
  586 3.71736 1.48129 -2.65346
  587 3.78152 1.47054 2.66748
  588 166.250 -13.5114 17.4454
  589 24.9596 26.9537 33.7900
  590 119.153 -2.12528 0.0330161
  591 119.184 -2.10386 -0.0335356
  592 -0.164867 -8.63872 4.29724
  593 -0.151940 -8.62435 -4.28315
  594 203.408 40.0103 -0.325495
  595 129.296 -10.6687 22.1776
  596 123.227 -4.94692 0.593856
  597 124.462 4.84119 51.1981
  598 -10.5167 0.502291 2.62845
  599 -10.5058 0.504986 -2.61848
  600 205.554 1.74769 -15.7829
  601 277.861 42.5055 -34.1771
  602 76.4494 7.55496 -33.5183
  603 39.8757 -1.62233 -6.57303
  604 39.9090 -1.62196 6.57160
  605 187.281 -0.475443 1.09732
  606 121.953 -5.06277 -0.757666
  607 165.478 -1.93311 2.46580
  608 160.995 -7.37536 19.3242
  609 3.76962 -0.254127 1.04912
  610 3.72302 -0.252980 -1.05936
  611 94.0588 -2.99824 -0.555149
  612 94.0435 -2.90517 0.525100
  613 57.9886 1.33954 -14.9721
  614 57.5986 1.35551 14.8961
  615 236.037 11.8236 11.3204
  616 390.974 29.4525 -42.9336
  617 -5.16483 -0.223355 1.46978
  618 -5.23500 -0.222546 -1.47023
  619 53.9193 -2.19565 2.75645
  620 53.9214 -2.19361 -2.80290
  621 218.920 10.5995 10.5128
  622 185.425 -0.438531 -0.349196
  623 184.994 -0.735237 0.171372
  624 129.576 -0.122204 14.9381
  625 192.534 -12.2153 -15.1465
  626 102.416 -8.28564 5.94938
  627 -2.97381 2.25900 -2.72869
  628 -3.01834 2.25595 2.75405
  629 165.353 3.08821 28.5686
  630 63.8748 -3.58404 -6.79493
  631 63.8041 -3.64639 6.80880
  632 135.052 -7.54505 -2.39083
  633 168.315 -3.44362 -6.04822
  634 94.1088 -7.42916 -9.51476
  635 154.498 18.6241 -17.3376
  636 104.570 -7.28440 -17.8774
  637 35.8249 -0.942066 -1.03808
  638 35.8262 -0.929291 1.02071
  639 95.1248 -7.57158 9.54080
  640 207.672 32.9455 18.0864
  641 164.673 -8.18968 24.3196
  642 134.850 -5.67712 2.12228
  643 95.1174 -2.22126 0.482156
  644 95.0929 -2.22776 -0.463239
  645 70.6759 -2.45784 -1.90774
  646 70.6445 -2.42731 1.88131
  647 158.955 -14.6370 -10.6391
  648 78.5129 -4.27463 3.37325
  649 78.6046 -4.25800 -3.46024
  650 156.910 24.4054 -2.34363
  651 146.837 -7.45579 4.92365
  652 186.063 -0.721924 -1.66084
  653 154.929 -3.02029 -25.0224
  654 20.1146 -0.922200 4.28526
  655 20.0755 -0.915386 -4.29160
  656 180.937 -0.851997 -3.32969
  657 30.8133 15.7441 -20.6918
  658 31.3511 15.6991 20.7949
  659 184.134 -12.0525 21.7946
  660 61.5856 15.0978 35.2904
  661 13.2102 -0.0376691 4.29653
  662 13.1618 -0.0342396 -4.30097
  663 156.126 -10.7351 28.9488
  664 154.642 19.6240 -70.3819
  665 147.516 4.43312 -24.8436
  666 196.282 35.3506 15.3279
  667 132.436 -5.54723 -1.52642
  668 239.305 43.5615 -1.05370
  669 -12.4989 0.542951 -0.299484
  670 -12.4453 0.541411 0.310819
  671 105.064 0.116228 -35.6684
  672 3.97039 -0.144042 0.832754
  673 3.94005 -0.144453 -0.843071
  674 132.546 -11.4722 -21.8946
  675 42.4333 5.95639 -14.3723
  676 42.0793 5.97379 14.3614
  677 -0.129034 2.17198 -0.403580
  678 -0.0708420 2.16858 0.427783
  679 111.879 -9.54522 -4.12813
  680 159.281 -1.55864 -9.66496
  681 74.0842 -2.09214 -0.713483
  682 74.0847 -2.06472 0.720182
  683 52.8121 -2.63545 -4.24489
  684 52.8501 -2.67397 4.22472
  685 9.71925 8.00953 -2.00750
  686 9.89052 8.02424 2.06336
  687 165.309 -1.61468 1.34279
  688 70.8653 -4.38897 5.55646
  689 71.3465 -4.30710 -5.54885
  690 182.421 -15.1786 -4.06926
  691 149.483 -15.0170 -4.83787
  692 116.787 -2.91416 0.270770
  693 116.357 -2.68535 -0.206111
  694 165.267 -17.9047 7.31876
  695 269.757 54.1490 12.7009
  696 144.954 -7.13791 -36.3984
  697 166.177 -4.49985 10.3910
  698 164.174 -6.34258 -25.9744
  699 48.6394 -1.43036 -1.92595
  700 48.6339 -1.41765 1.89514
  701 128.506 -2.83932 41.0050
  702 368.395 46.7851 42.9645
  703 23.3798 7.03915 -7.88620
  704 23.4125 7.08503 7.91294
  705 164.888 -1.22416 -0.695200
  706 166.243 -1.07403 0.705375
  707 68.7031 33.0719 -58.1701
  708 174.435 -0.819436 5.78416
  709 150.710 -2.17596 1.21090
  710 196.869 39.3014 -5.77803
  711 18.7001 3.58440 -5.58034
  712 18.7840 3.56116 5.60174
  713 189.366 -0.325742 0.229865
  714 151.246 -5.50733 -4.70513
  715 188.863 -3.48786 22.0332
  716 75.3005 -5.19671 -9.04125
  717 75.4909 -4.96413 8.94178
  718 14.8299 -0.562362 3.24622
  719 14.7866 -0.554869 -3.25779
  720 172.627 -0.845632 -1.18341
  721 148.381 26.8625 74.9164
  722 0.802255 0.757663 5.32978
  723 0.856434 0.788588 -5.29271
  724 172.704 -1.57811 -2.90807
  725 167.372 -2.77006 4.11770
  726 128.910 0.00606840 -16.0218
  727 1.16299 -15.9848 -2.34693
  728 1.08194 -16.1330 2.49597
  729 59.2106 15.5290 -35.2704
  730 132.219 -13.4692 -15.3795
  731 68.0671 32.8130 58.7847
  732 186.623 -0.295833 0.695940
  733 176.282 26.2979 18.6722
  734 126.066 11.5228 -6.33140
  735 233.004 47.0405 -1.17703
  736 183.712 -0.623588 2.21256
  737 -12.3900 0.273775 1.15122
  738 -12.4588 0.275287 -1.14650
  739 194.847 -12.0318 3.06526
  740 124.610 -3.18843 0.325496
  741 43.6195 0.170365 -10.0484
  742 43.6733 0.125289 9.98088
  743 167.679 -1.63013 -1.82087
  744 297.519 42.2446 -14.6296
  745 16.7755 -0.531472 -1.95962
  746 16.8099 -0.534771 1.94153
  747 187.916 -0.359665 -1.05704
  748 34.1112 -1.53304 -2.74732
  749 34.1289 -1.53851 2.72071
  750 181.647 -7.74295 -22.5204
  751 167.475 -1.69467 7.87284
  752 148.527 -1.16346 24.6396
  753 188.481 -0.375892 -0.0740669
  754 174.934 -1.03689 2.26044
  755 112.237 -5.74664 -0.332497
  756 142.123 -3.32970 1.55985
  757 161.371 -9.93634 -16.7651
  758 157.550 -9.78703 11.2612
  759 183.891 21.8468 -23.6441
  760 155.458 -8.52262 8.54350
  761 163.854 -9.83101 21.2131
  762 93.5878 -6.13800 3.37679
  763 3.18659 -1.93324 -1.01817
  764 3.00580 -1.94229 1.18871
  765 144.119 -1.72375 0.0827627
  766 143.806 -1.70764 -0.137544
  767 174.441 -0.474916 -0.147207
  768 175.072 -0.437083 0.190014
  769 164.290 -4.52279 12.5807
  770 151.800 -14.4162 20.5227
  771 123.752 -9.86250 0.721408
  772 109.470 -6.25313 1.17178
  773 303.847 39.0825 17.2612
  774 166.643 -4.02687 -8.31589
  775 96.6535 16.0146 -54.7262
  776 154.515 -7.39316 -7.44920
  777 4.28176 0.159837 -2.98763
  778 4.34357 0.154192 2.99057
  779 134.927 11.8331 -14.2108
  780 359.036 10.9333 -4.74316
  781 173.134 4.04642 -28.1429
  782 6.64621 0.618025 -12.4385
  783 177.019 32.1045 4.81257
  784 139.205 -8.59685 3.27276
  785 155.662 -4.05848 24.3116
  786 131.513 -14.0542 15.4690
  787 213.806 -3.17150 32.4590
  788 7.16544 2.23645 13.3509
  789 94.2624 -0.745680 27.4966
  790 133.136 -3.01493 -0.807986
  791 148.721 -13.7960 -20.7916
  792 89.6582 -6.86718 -6.40691
  793 70.6146 3.29932 -23.8252
  794 171.856 -3.04880 27.5958
  795 109.297 -7.23268 2.30672
  796 18.0188 -0.557401 1.79949
  797 17.9954 -0.558246 -1.81961
  798 159.785 -0.844498 8.57490
  799 143.488 0.553747 -23.8613
  800 -13.0557 0.563715 1.69638
  801 -13.0363 0.564670 -1.68564
  802 106.279 -2.98246 0.000793563
  803 105.956 -2.79702 -0.0333730
  804 78.4850 8.49895 34.0397
  805 69.0328 -3.91303 4.07345
  806 69.1387 -3.81222 -4.12584
  807 187.899 -0.220313 -0.613538
  808 63.3792 4.97515 23.1704
  809 -0.933250 -0.0572143 1.14702
  810 -0.993167 -0.0558289 -1.15323
  811 157.807 -4.93312 18.9071
  812 171.068 -1.14843 0.962167
  813 -9.12848 0.0839086 2.55756
  814 -9.12921 0.0867194 -2.55253
  815 103.185 -6.60229 20.2282
  816 19.2831 15.5815 -17.2574
  817 19.5268 14.7976 16.9765
  818 93.9057 4.23061 2.59975
  819 -4.38172 -0.0787002 -1.32520
  820 -4.31226 -0.0796911 1.32307
  821 119.096 -11.4307 -14.4538
  822 163.884 -17.4033 -7.14807
  823 -0.803836 -0.765217 -1.00335
  824 -0.801569 -0.763522 0.999743
  825 4.96631 0.297288 -0.253890
  826 4.97548 0.298918 0.248004
  827 145.333 -12.8393 4.95051
  828 121.730 -12.5209 9.67204
  829 135.658 -1.85874 0.620700
  830 121.384 -9.61173 -1.20121
  831 41.8644 -0.607772 -0.175350
  832 41.8635 -0.589371 0.170997
  833 -14.8893 0.311786 1.05028
  834 -14.8585 0.311344 -1.03983
  835 154.080 -1.59921 -0.926821
  836 132.823 5.09129 -20.2161
  837 155.687 -2.72838 -2.55837
  838 89.8419 -6.73260 6.06649
  839 152.111 -2.74625 -19.8362
  840 164.116 -4.91971 -13.0051
  841 154.737 -1.31650 0.839523
  842 111.466 -4.54147 28.2377
  843 119.110 -11.5704 -4.96512
  844 70.7200 -0.517573 -18.0141
  845 71.1196 -0.0250865 18.1083
  846 100.936 -7.37710 -3.66555
  847 168.392 18.0236 24.0454
  848 161.508 -17.2360 -10.5779
  849 55.4534 -1.64414 -0.928945
  850 55.4435 -1.61602 0.916182
  851 122.551 -2.38008 -0.161091
  852 122.554 -2.40350 0.194733
  853 144.796 -1.14629 -12.9188
  854 46.9190 -1.93273 -3.41474
  855 46.9401 -1.94791 3.37893
  856 0.556417 -15.7618 -3.24627
  857 0.524815 -15.8283 3.30865
  858 21.5609 -0.317430 -0.171055
  859 21.5566 -0.325188 0.165844
  860 152.801 -2.00831 -1.30801
  861 114.512 -10.8973 8.67068
  862 180.092 -15.9180 7.68103
  863 100.818 2.13723 9.96629
  864 156.207 -3.33691 2.90682
  865 170.099 -15.5166 -14.0022
  866 22.7004 1.58951 -6.54997
  867 22.7676 1.56371 6.54321
  868 134.947 -2.02557 -0.571237
  869 107.608 -3.40735 -0.383155
  870 107.217 -3.37245 0.478644
  871 165.910 25.9159 13.0656
  872 56.5691 -0.481786 -12.2776
  873 56.5070 -0.549631 12.2150
  874 115.590 -10.3278 3.76085
  875 10.3516 7.00985 -1.67938
  876 10.4596 6.99440 1.70857
  877 97.3334 -6.96608 16.2510
  878 117.314 -7.23033 -0.291818
  879 145.715 -1.18553 13.0560
  880 144.992 -16.4516 4.02973
  881 166.443 -12.8353 -18.7031
  882 114.233 -10.9877 -8.81471
  883 94.2931 -6.10911 -3.21457
  884 318.428 26.3662 -4.82777
  885 152.034 -16.1743 3.95607
  886 3.71051 4.70845 2.44810
  887 3.78796 4.71661 -2.40840
  888 131.613 -13.1235 1.35817
  889 144.807 -16.5023 -8.15705
  890 3.79823 4.20852 0.826328
  891 3.86555 4.20879 -0.796427
  892 52.6093 -1.78783 9.15181
  893 52.6497 -1.84711 -9.21542
  894 64.2847 -3.17745 10.0716
  895 64.2673 -3.25799 -10.1528
  896 208.658 41.9480 7.51794
  897 -0.329658 -6.46483 -3.11040
  898 -0.331916 -6.45796 3.10863
  899 46.4164 4.03615 -13.6491
  900 46.1755 3.95164 13.4991
  901 371.739 12.0763 -18.9431
  902 3.20623 -0.0194945 0.449520
  903 3.18558 -0.0207150 -0.457599
  904 0.571570 -18.6125 1.44381
  905 0.674558 -18.3207 -1.19691
  906 -6.92234 -0.102998 2.58571
  907 -6.92918 -0.100909 -2.58469
  908 37.0310 10.9609 -16.1668
  909 37.6104 10.5992 15.9182
  910 -3.21417 0.0332942 -5.55165
  911 -3.22923 0.0216452 5.56137
  912 9.30406 1.02815 -4.15213
  913 9.36783 1.01535 4.15695
  914 39.9351 -0.366835 8.38704
  915 39.9121 -0.365191 -8.43758
  916 32.0274 -1.05052 -6.72943
  917 32.0563 -1.04788 6.71475
  918 181.506 -0.580202 -3.23796
  919 86.8051 17.7968 50.7067
  920 120.332 -11.7999 4.55854
  921 84.3587 -5.89535 4.75026
  922 164.465 16.7517 -23.6675
  923 365.480 7.92067 7.50385
  924 197.364 8.22289 -23.4191
  925 29.9487 -1.14916 4.13315
  926 29.9222 -1.13534 -4.15287
  927 3.50044 -0.155150 -3.05428
  928 3.55975 -0.156961 3.05273
  929 -0.257074 -3.32664 -6.09609
  930 -0.282709 -3.35151 6.11595
  931 87.2206 -3.58997 1.90462
  932 87.2702 -3.66810 -1.91884
  933 9.29245 2.88352 -3.52383
  934 9.36202 2.87008 3.54411
  935 52.1033 -2.24358 -7.68300
  936 52.1343 -2.24255 7.67479
  937 113.388 -0.627578 -11.7603
  938 53.6521 -2.85031 -5.17788
  939 53.6068 -2.81567 5.19584
  940 135.860 -3.37934 -1.00669
  941 164.289 -9.58220 -22.6987
  942 69.6746 -2.64711 2.16147
  943 69.7133 -2.67514 -2.19992
  944 -2.93726 -0.326873 -1.78643
  945 -2.92967 -0.327651 1.78287
  946 168.398 -13.7369 -25.7540
  947 160.513 -9.34741 14.7040
  948 140.526 -9.58959 -4.00563
  949 134.678 4.45191 21.3249
  950 60.2701 -3.29508 -5.86086
  951 60.2632 -3.22706 5.88092
  952 151.683 5.59043 25.9587
  953 140.594 12.2099 17.0625
  954 295.991 35.8855 6.09685
  955 150.035 -5.02704 3.61442
  956 76.7629 -2.03714 -0.956003
  957 76.7498 -1.98937 0.966472
  958 133.645 -10.7665 -1.70885
  959 184.374 33.9533 -11.4561
  960 165.348 -1.40754 -1.34774
  961 106.554 -2.20235 0.303196
  962 106.509 -2.18239 -0.271398
  963 12.9132 10.6758 -6.94304
  964 13.2545 10.6490 7.00276
  965 25.8751 59.3814 -56.7222
  966 152.515 -3.71371 19.7484
  967 192.155 -4.31083 -19.9102
  968 -4.04713 1.80910 1.45384
  969 -3.99866 1.80837 -1.43018
  970 400.493 92.6800 -74.7056
  971 164.203 -18.0951 3.56300
  972 175.570 -16.7563 -5.23569
  973 161.420 -13.8870 13.6976
  974 198.540 39.3724 5.02050
  975 13.7547 13.1391 -15.9941
  976 36.3869 50.7694 55.2309
  977 -1.10104 -2.43209 6.02010
  978 -1.08510 -2.41384 -6.00975
  979 157.635 -3.66844 3.56201
  980 253.218 45.1858 -4.70610
  981 14.1697 12.7927 16.6942
  982 -0.705806 -2.29391 -1.98633
  983 -0.706022 -2.28791 1.98148
  984 134.552 -2.67985 0.544385
  985 99.1671 -7.76527 -6.64981
  986 162.642 -12.9261 -15.9849
  987 44.7660 12.0079 -21.7342
  988 45.4947 12.2111 21.7923
  989 157.180 -3.92983 -17.7155
  990 159.644 -4.75484 6.22247
  991 -4.52675 0.971784 4.96341
  992 -4.50568 0.981987 -4.94819
  993 94.6779 -6.25363 -15.2135
  994 157.739 9.84403 -26.1862
  995 117.640 -4.00680 -0.138223
  996 83.3095 -2.08560 0.103946
  997 83.2950 -2.10265 -0.0940532
  998 -1.84470 -2.08832 -4.20467
  999 -1.84742 -2.09280 4.20181
  1000 161.795 -5.50098 -7.52343
  1001 154.445 -1.27432 0.268011
  1002 154.300 -1.27560 -0.201960
  1003 212.714 34.0499 -17.0019
  1004 36.5364 3.31906 -10.5856
  1005 36.6259 3.25268 10.5562
  1006 22.2364 -0.148686 -5.52419
  1007 22.2765 -0.153366 5.51417
  1008 174.189 8.91343 28.4675
  1009 166.410 -2.80357 -4.32165
  1010 27.5979 4.54591 -8.44477
  1011 27.7085 4.51065 8.47645
  1012 174.559 -0.605683 -0.787684
  1013 161.384 -6.78883 -11.1595
  1014 157.561 -18.0720 -5.12101
  1015 5.51756 4.41364 -0.911438
  1016 5.35254 4.39279 0.985543
  1017 -8.06600 1.19735 3.07467
  1018 -8.03888 1.20045 -3.05692
  1019 90.4454 3.51677 -4.34936
  1020 274.961 66.8601 -16.0818
  1021 123.610 -8.75446 0.328868
  1022 80.6955 -3.51094 -15.7133
  1023 201.070 -8.96026 3.91784
  1024 81.0163 -3.51273 15.9450
  1025 142.777 -16.8173 9.80275
  1026 161.971 -6.66135 -16.3500
  1027 52.8670 -1.09569 -0.298363
  1028 52.8652 -1.07206 0.295654
  1029 109.552 -8.36216 -2.96747
  1030 66.0534 -2.39121 -12.0417
  1031 66.0203 -2.40930 11.9697
  1032 21.4286 13.9096 -12.9280
  1033 21.7790 13.8611 12.9657
  1034 43.8699 -1.33536 -1.08080
  1035 43.8664 -1.31637 1.06254
  1036 144.349 -4.16523 2.17640
  1037 121.259 -0.00778006 -41.5742
  1038 149.753 -4.48601 -3.56154
  1039 134.534 -14.9244 -5.36656
  1040 86.9743 -3.40269 1.23192
  1041 87.0517 -3.43150 -1.23859
  1042 176.958 -0.788432 0.991110
  1043 157.059 -3.34851 -3.34710
  1044 95.9747 2.31070 8.19019
  1045 167.691 -1.62783 -7.31407
  1046 63.6770 18.1175 40.1741
  1047 173.190 -1.53067 -6.04684
  1048 43.5374 7.40948 -16.1278
  1049 42.1815 7.49826 15.4239
  1050 207.917 -4.66551 -4.95403
  1051 17.5108 9.35122 -6.31082
  1052 17.6775 9.28106 6.30614
  1053 2.86791 -1.02274 2.52321
  1054 3.02502 -0.995979 -2.41991
  1055 23.4720 -0.640713 1.33966
  1056 23.4572 -0.645591 -1.36074
  1057 72.7082 18.3636 -44.7424
  1058 414.466 104.315 80.3539
  1059 161.204 -5.50330 7.71904
  1060 144.064 -16.2932 -3.48483
  1061 98.9551 -8.10990 -11.4874
  1062 -2.52140 2.05599 4.49324
  1063 -2.48371 2.06724 -4.46817
  1064 112.113 -5.43570 0.162735
  1065 124.213 -4.20002 -0.652862
  1066 -0.0775456 -9.18450 3.02143
  1067 -0.0744146 -9.19216 -3.02023
  1068 17.7046 11.1077 -7.65891
  1069 17.9229 11.0834 7.70764
  1070 110.554 -4.95824 -0.137653
  1071 7.58894 3.98643 1.92915
  1072 7.51918 3.99276 -1.90219
  1073 170.369 -7.01511 26.2711
  1074 122.690 -12.7472 -9.62272
  1075 99.5579 -8.24212 11.4852
  1076 161.581 -3.51172 -27.3620
  1077 172.895 -1.57976 3.14527
  1078 60.6483 9.24617 26.5566
  1079 61.0900 8.85403 -26.0996
  1080 98.9634 -4.90743 -22.2407
  1081 141.808 -4.67766 -2.27082
  1082 114.259 -6.58193 0.914258
  1083 134.563 -12.4497 0.865641
  1084 187.563 -0.540662 -1.75746
  1085 98.5793 -4.22728 1.10274
  1086 98.5357 -4.49234 -1.16341
  1087 2.89573 3.51191 3.95629
  1088 2.97668 3.53865 -3.91046
  1089 162.567 5.71786 -28.1924
  1090 34.9368 1.91667 -9.28482
  1091 35.0291 1.87543 9.25309
  1092 25.6363 0.617374 -6.52394
  1093 25.6903 0.602221 6.50766
  1094 188.394 -8.88171 32.7233
  1095 161.829 -7.40768 16.1712
  1096 77.5993 -3.50440 -13.1828
  1097 191.080 -0.653888 -1.05672
  1098 211.214 39.6300 -12.9789
  1099 172.718 -1.33495 -2.06363
  1100 160.586 -17.4633 7.00648
  1101 117.921 -9.14800 19.3108
  1102 192.683 -0.109241 0.249959
  1103 95.7776 3.03372 -6.95254
  1104 135.521 -14.4813 -1.75419
  1105 77.7185 -3.66807 13.0196
  1106 136.827 -12.3417 -1.66234
  1107 172.195 -2.22432 5.62111
  1108 119.090 7.55170 10.9030
  1109 83.5933 -6.06769 -10.3090
  1110 262.613 34.5260 -12.2447
  1111 194.845 8.13229 24.4059
  1112 142.234 17.9390 2.69850
  1113 190.073 0.144659 0.977851
  1114 72.0994 -4.39848 -7.72757
  1115 49.3822 29.5811 -44.7604
  1116 89.0616 2.16845 -32.0933
  1117 102.204 -7.67545 4.46062
  1118 85.8646 -6.34826 9.57440
  1119 71.9099 -4.17198 7.81810
  1120 154.279 1.11865 27.2855
  1121 116.799 -3.68387 0.269192
  1122 186.904 -1.27932 2.30161
  1123 -1.67260 -0.302143 6.07565
  1124 -1.65070 -0.284170 -6.06082
  1125 122.606 -3.08418 -0.409852
  1126 -0.450407 1.12634 5.66668
  1127 -0.411078 1.14952 -5.63908
  1128 66.8935 -1.92418 1.31942
  1129 66.9033 -1.95989 -1.32167
  1130 174.808 -0.876107 5.02370
  1131 139.733 -8.28427 -3.42237
  1132 130.642 -6.66040 -1.60724
  1133 146.521 -10.0708 6.07884
  1134 43.5433 21.1842 -33.0281
  1135 143.810 -5.07380 2.80706
  1136 19.4850 0.471519 -5.30797
  1137 19.5359 0.461025 5.30065
  1138 28.8612 18.3219 -22.8345
  1139 231.697 28.8459 9.97202
  1140 13.8927 -0.702990 3.05251
  1141 13.8465 -0.696950 -3.05991
  1142 29.3868 18.0081 21.9953
  1143 131.068 -10.7997 1.17645
  1144 64.4083 -2.86637 2.74272
  1145 64.4246 -2.88202 -2.79973
  1146 270.648 56.9722 -13.5796
  1147 144.799 -14.4877 2.38289
  1148 48.5614 27.5765 44.6463
  1149 3.95565 -2.53333 -2.95756
  1150 4.27940 -2.48188 3.34420
  1151 150.398 18.9006 13.7674
  1152 10.4399 5.98527 -1.85986
  1153 10.5293 5.98576 1.88421
  1154 145.794 -12.5704 -5.16912
  1155 -0.0715701 -14.2883 -2.87269
  1156 -0.0782359 -14.2924 2.88569
  1157 156.053 -13.1391 -9.95453
  1158 -5.23189 0.203827 1.03193
  1159 -5.30107 0.205012 -1.03517
  1160 22.6464 8.62342 -8.40573
  1161 22.7703 8.65952 8.31711
  1162 -10.0436 0.0260235 -1.26549
  1163 -9.96888 0.0254085 1.26623
  1164 156.898 -1.29855 -0.395160
  1165 -16.2595 0.456164 0.404764
  1166 -16.2178 0.455846 -0.395245
  1167 80.6960 -6.24318 -7.38932
  1168 2.09635 -22.3574 -1.48614
  1169 38.5653 -1.04565 2.14188
  1170 38.5577 -1.05031 -2.17168
  1171 132.304 -2.08279 0.112844
  1172 132.560 -2.01491 -0.0862223
  1173 2.24863 -21.4135 1.95615
  1174 157.242 -8.01175 -9.56953
  1175 180.676 -0.733221 3.77030
  1176 159.601 -10.1551 -13.6622
  1177 136.963 0.932332 21.1649
  1178 0.637331 -6.21554 4.69141
  1179 0.705210 -6.17379 -4.62071
  1180 100.715 -7.12381 3.39817
  1181 -7.20708 0.591764 3.94111
  1182 -7.19399 0.596904 -3.92992
  1183 266.728 42.8150 2.58649
  1184 317.054 93.7512 -66.0152
  1185 163.281 -15.9974 12.1780
  1186 65.0723 -1.72678 -0.139978
  1187 65.0720 -1.70174 0.140051
  1188 340.863 33.0548 -30.1735
  1189 21.2453 -0.562739 3.17502
  1190 21.2093 -0.553392 -3.19080
  1191 151.051 -0.496194 -8.47754
  1192 96.5292 -7.71690 8.40320
  1193 161.545 -15.9524 -9.27618
  1194 156.215 -11.2764 -10.9788
  1195 94.1504 -3.43250 23.3686
  1196 33.8416 6.44485 -11.9876
  1197 33.8178 6.38679 11.9114
  1198 45.2486 16.5967 -27.9251
  1199 45.2988 15.3336 27.9221
  1200 12.0004 3.82666 -3.70392
  1201 12.0759 3.81441 3.72894
  1202 191.871 33.1044 -16.8424
  1203 9.32506 8.40214 -3.03571
  1204 9.55448 8.41035 3.10283
  1205 138.648 -10.4119 3.18580
  1206 264.037 35.7258 14.0276
  1207 30.2477 -1.28861 -2.10866
  1208 30.2643 -1.28779 2.08211
  1209 173.687 111.861 -100.902
  1210 126.892 7.47870 -16.8753
  1211 115.639 8.98608 6.85780
  1212 15.3992 6.78874 -4.40411
  1213 15.4745 6.78728 4.43140
  1214 0.0332614 -0.0211576 0.759977
  1215 -0.00871413 -0.0211112 -0.767884
  1216 153.919 -12.2846 9.31503
  1217 151.609 -5.76721 5.11708
  1218 103.377 27.5513 -71.1781
  1219 239.483 52.0616 -0.598450
  1220 101.593 -3.25318 -25.8670
  1221 132.709 -3.68312 0.899519
  1222 3.01155 -0.674362 -0.194808
  1223 3.01359 -0.673975 0.193616
  1224 -4.73001 1.03561 -1.52609
  1225 -4.66885 1.03111 1.53970
  1226 87.9897 0.804805 -27.2288
  1227 165.105 -3.33743 5.45095
  1228 106.058 1.53822 37.7246
  1229 144.696 -6.86127 -4.17175
  1230 73.8186 25.3837 -55.5224
  1231 115.408 -5.91091 -28.0304
  1232 137.898 -14.7234 0.966988
  1233 169.896 -2.52899 8.24704
  1234 148.951 -2.70703 -1.67386
  1235 80.3338 -5.84391 7.43870
  1236 187.064 -11.0650 -15.8158
  1237 175.938 14.9181 27.0151
  1238 75.5581 0.326904 -21.2594
  1239 178.184 -0.831048 0.742700
  1240 138.477 17.3750 -3.84334
  1241 58.9935 -1.93175 -2.10582
  1242 58.9763 -1.90838 2.07672
  1243 273.324 60.1442 11.7832
  1244 379.172 10.1020 17.7561
  1245 0.310319 -17.5019 -2.86756
  1246 0.299766 -17.5234 2.88926
  1247 38.6606 19.9224 30.7564
  1248 93.6992 -2.42645 -0.254015
  1249 93.7189 -2.40861 0.290579
  1250 129.875 -13.0050 -2.11427
  1251 153.704 12.4371 23.6835
  1252 163.917 -2.89820 -3.64472
  1253 192.572 -0.395400 -0.125423
  1254 333.676 73.3417 -45.5546
  1255 48.4546 -1.76789 2.10313
  1256 48.4558 -1.77279 -2.13907
  1257 156.205 -14.5072 9.62641
  1258 278.022 64.7747 -17.3426
  1259 151.653 -6.32702 -5.72309
  1260 109.526 -7.39975 -1.99721
  1261 135.439 -14.7767 5.18705
  1262 132.461 -6.30942 1.89413
  1263 4.59694 -0.815597 -5.12621
  1264 182.277 -11.5073 18.4017
  1265 147.139 -9.41181 -5.91412
  1266 5.08506 -0.563063 5.78504
  1267 151.575 -12.6700 -26.1214
  1268 143.593 7.80440 -58.1891
  1269 237.739 28.6234 -7.80598
  1270 193.398 -0.0106623 -0.0710765
  1271 193.021 -0.191672 0.186317
  1272 149.772 -8.50757 6.26950
  1273 56.1634 6.69825 -20.8627
  1274 170.848 -15.4600 15.0276
  1275 293.268 66.4084 28.9705
  1276 70.5832 23.4107 54.0240
  1277 1.72522 -0.240546 4.88659
  1278 1.79990 -0.205734 -4.83517
  1279 180.245 -15.1839 -13.0951
  1280 70.0165 -3.67754 -3.31471
  1281 69.9985 -3.68640 3.23886
  1282 166.826 -11.1657 21.9304
  1283 3.99142 0.0778847 3.39017
  1284 3.93175 0.0811488 -3.39047
  1285 -0.979564 -3.57556 4.87648
  1286 -0.973320 -3.56795 -4.87670
  1287 26.8383 -0.932525 -2.89683
  1288 26.8635 -0.938314 2.87364
  1289 86.2335 -5.70384 -11.8365
  1290 86.6173 -2.58770 0.460129
  1291 86.6166 -2.65348 -0.426224
  1292 192.511 -0.00996146 -0.0494817
  1293 168.720 -2.46314 -9.24161
  1294 11.7794 0.683713 -4.16938
  1295 11.8376 0.674343 4.16889
  1296 86.5812 -6.04350 11.7217
  1297 194.611 -0.112572 0.0399946
  1298 183.287 0.0671811 -0.198852
  1299 183.297 -0.0412755 0.148667
  1300 240.340 49.3698 5.44791
  1301 178.048 -0.933405 -1.64040
  1302 157.402 -1.20107 0.337642
  1303 174.485 -2.41994 -4.97454
  1304 191.287 -0.497782 0.752191
  1305 196.596 19.6262 24.2056
  1306 228.319 46.6822 8.06853
  1307 184.841 -0.632178 -2.52835
  1308 -1.46535 -0.387901 1.32538
  1309 -1.47103 -0.387588 -1.32925
  1310 100.311 -6.08513 2.13125
  1311 100.290 -5.80157 -2.04879
  1312 198.412 21.8308 -23.1800
  1313 39.9829 13.7011 -22.8463
  1314 40.2406 13.3128 22.5786
  1315 131.126 -0.0211716 -10.5768
  1316 137.673 -1.75999 0.0448422
  1317 137.504 -1.74130 -0.0729488
  1318 -3.41690 -0.629070 4.98168
  1319 -3.41066 -0.620414 -4.97939
  1320 151.542 -0.385777 8.46679
  1321 232.822 46.3904 0.809024
  1322 13.3367 -0.600049 -1.83031
  1323 13.3694 -0.601487 1.81242
  1324 172.180 -16.8529 9.04377
  1325 -0.172168 2.60614 4.66377
  1326 -0.123197 2.62209 -4.63252
  1327 28.4962 -0.635376 -0.553007
  1328 28.5002 -0.623777 0.541209
  1329 131.171 -0.242893 10.7332
  1330 1.61397 0.308058 -0.264861
  1331 1.62779 0.309234 0.258955
  1332 176.272 -1.81462 3.31058
  1333 244.153 44.9256 1.64838
</Section>

newXOutput 23

<Section columns = "stress_xx | stress_yy | stress_xy">
  1 207.049 -0.434939 0.372469
  2 207.408 -0.600280 -0.484199
  3 -0.507192 0.203921 -0.552086
  4 -0.132618 -0.209696 -0.126151
  5 388.459 145.105 123.622
  6 394.462 166.716 -125.029
  7 -0.131082 -0.208365 0.124160
  8 -0.508658 0.202800 0.550726
  9 208.538 -0.300447 -0.342898
  10 206.849 -0.632962 -0.480324
  11 206.914 -0.475257 0.512627
  12 205.723 -0.186348 0.276987
  13 205.178 -0.591002 -0.0514283
  14 204.628 -0.558114 0.931341
  15 201.261 -0.353674 0.946166
  16 201.866 -1.42206 1.34695
  17 194.978 -1.15100 2.79846
  18 190.485 -0.447431 3.34992
  19 184.391 -0.597194 3.58629
  20 173.979 -0.525099 4.92758
  21 162.777 -0.473351 5.67600
  22 148.950 0.689681 7.70880
  23 130.156 1.05960 6.94256
  24 122.723 -0.131563 9.89303
  25 99.5340 1.43850 7.00556
  26 85.5894 1.93465 5.46240
  27 81.9693 0.838272 4.01788
  28 78.0792 2.80670 0.285180
  29 80.1956 3.06787 -5.36721
  30 84.5088 0.838600 -6.74783
  31 101.663 0.293602 -9.05010
  32 119.108 -0.906798 -9.47343
  33 130.834 0.875526 -6.93702
  34 149.164 0.789537 -7.71726
  35 162.327 -0.567962 -6.07570
  36 175.156 -0.627374 -4.66048
  37 183.583 -0.412006 -3.63806
  38 189.886 -0.468818 -3.09251
  39 196.584 -0.651693 -1.81958
  40 199.345 -0.614603 -1.75926
  41 202.004 -0.588369 -1.53429
  42 204.739 -0.684513 -0.370018
  43 205.842 -0.894005 -0.662764
  44 204.728 0.186045 -0.110132
  45 206.683 -0.417492 -0.569346
  46 207.735 -0.975176 0.523432
  47 208.820 -0.536982 -0.0343441
  48 197.685 0.331270 -0.310989
  49 185.273 -0.459180 -0.596971
  50 171.346 -1.37136 -0.899345
  51 157.037 -1.00063 -0.660087
  52 144.653 -1.91344 -0.609935
  53 131.657 -2.12320 -0.567192
  54 118.616 -1.81929 -0.312932
  55 104.973 -2.01717 -0.410948
  56 93.4785 -2.24939 -0.525345
  57 78.2487 -2.20338 -0.443478
  58 62.6135 -1.33593 -0.283923
  59 49.7101 -0.840651 -0.233588
  60 33.8044 -0.529342 -0.127107
  61 22.2427 -0.569708 -0.821195
  62 11.4856 -0.856748 -0.288112
  63 0.649319 0.104083 0.465335
  64 -2.09795 0.765968 0.148519
  65 -2.81453 0.316085 0.466515
  66 -2.28466 0.145344 0.441976
  67 -4.32835 0.443839 0.143043
  68 -5.03622 0.574696 0.949594
  69 -5.14189 0.198427 0.273693
  70 -8.64311 0.418110 0.310833
  71 -10.1927 0.299370 0.895581
  72 -10.6221 0.110399 0.929346
  73 -14.3604 0.400105 0.685654
  74 -15.6615 0.589348 1.39217
  75 -17.0163 0.357849 0.420840
  76 -18.7581 0.256871 0.697420
  77 -19.2597 0.277885 0.212889
  78 -20.8520 0.647511 -0.538173
  79 -20.8834 0.444236 -0.407942
  80 -18.8820 0.343760 -0.709763
  81 -16.1289 0.433084 -1.28928
  82 -13.0047 0.180697 -1.89612
  83 -9.61816 0.0949282 -1.95253
  84 -5.74763 -0.209839 -2.03396
  85 -2.46027 -0.164176 -1.17292
  86 -1.02029 -0.420030 -0.725644
  87 -0.178970 -1.03638 -0.621603
  88 -0.308703 -2.64795 -1.12650
  89 -0.347899 -5.27171 -2.00132
  90 -0.0827283 -9.91719 -2.18441
  91 0.107894 -13.8082 -2.76586
  92 0.268509 -19.9056 -2.26736
  93 0.818947 -23.7348 -2.69291
  94 0.119926 -25.8183 -2.29093
  95 -0.0538510 -29.8466 -1.48279
  96 0.810708 -29.4453 -0.606524
  97 3.23571 -38.3744 1.18651
  98 2.76603 -22.2409 4.44079
  99 6.71418 -12.2837 10.2488
  100 20.5996 27.7109 33.9357
  101 90.7812 107.196 100.435
  102 509.324 52.9692 76.0609
  103 422.482 14.8658 27.2617
  104 401.520 6.34791 9.42938
  105 389.683 4.20711 -0.0452883
  106 397.125 6.05141 -7.71492
  107 426.705 12.7126 -22.6492
  108 504.041 42.3400 -71.1152
  109 58.6504 121.713 -83.0166
  110 14.4408 18.5439 -25.9953
  111 4.93539 -15.6569 -8.37286
  112 2.50466 -24.2360 -3.73167
  113 3.22272 -39.8046 -0.840780
  114 0.777557 -30.0853 0.854673
  115 -0.100878 -30.1695 1.61286
  116 0.0897099 -25.9451 2.36098
  117 0.802690 -23.7675 2.72279
  118 0.262231 -19.8978 2.27861
  119 0.103087 -13.7909 2.77019
  120 -0.0850737 -9.89421 2.18345
  121 -0.348250 -5.25688 1.99740
  122 -0.309369 -2.63495 1.12273
  123 -0.178872 -1.03152 0.618219
  124 -1.01441 -0.419510 0.722842
  125 -2.44993 -0.164874 1.16995
  126 -5.73465 -0.211463 2.03233
  127 -9.60353 0.0931835 1.95316
  128 -12.9974 0.178812 1.89963
  129 -16.1342 0.431790 1.29587
  130 -18.9002 0.343705 0.716734
  131 -20.9179 0.443931 0.414658
  132 -20.8997 0.647593 0.545075
  133 -19.3222 0.278661 -0.207053
  134 -18.8313 0.257820 -0.693294
  135 -17.0944 0.358898 -0.417744
  136 -15.7448 0.590563 -1.39127
  137 -14.4452 0.401215 -0.684944
  138 -10.7045 0.111074 -0.930050
  139 -10.2741 0.300518 -0.897421
  140 -8.71956 0.419745 -0.313424
  141 -5.20731 0.199533 -0.278210
  142 -5.09002 0.575750 -0.956008
  143 -4.37223 0.444074 -0.148777
  144 -2.31366 0.145108 -0.447444
  145 -2.83219 0.315489 -0.470868
  146 -2.10828 0.764892 -0.152337
  147 0.644975 0.103449 -0.467512
  148 11.4811 -0.859861 0.285746
  149 22.2379 -0.577847 0.818507
  150 33.8021 -0.543913 0.123690
  151 49.7112 -0.861805 0.231748
  152 62.6135 -1.36058 0.283523
  153 78.2423 -2.22487 0.446611
  154 93.4552 -2.26054 0.532119
  155 104.932 -2.00495 0.427258
  156 118.554 -1.77196 0.332032
  157 131.569 -2.01012 0.537588
  158 144.712 -1.94445 0.538532
  159 157.079 -1.19966 0.695420
  160 171.484 -1.33437 0.823252
  161 185.661 -0.350586 0.604965
  162 197.313 0.319985 0.301024
  163 111.799 -10.0152 -8.07348
  164 111.329 -10.1953 8.05565
  165 32.4833 9.13087 -12.3005
  166 32.8090 9.16703 12.2403
  167 132.950 -6.79381 33.1264
  168 139.570 -7.65275 -32.2047
  169 63.0409 -3.21974 3.60780
  170 63.0398 -3.18642 -3.67224
  171 142.312 -4.57666 1.51227
  172 139.331 -4.59006 -1.47064
  173 188.284 34.2263 -5.27686
  174 192.936 0.813730 -26.8952
  175 188.871 2.36872 28.6526
  176 43.2929 -1.57268 -8.14993
  177 43.2887 -1.55930 8.12838
  178 166.700 -16.5895 10.4490
  179 166.452 -12.8052 -13.8829
  180 1.80896 3.51031 4.60828
  181 1.87640 3.53327 -4.56876
  182 227.656 46.0805 9.29941
  183 42.5696 18.7761 -29.1764
  184 45.7867 18.9703 31.4141
  185 161.356 -7.25661 6.86211
  186 242.508 50.2573 -5.70378
  187 102.912 -3.41641 -0.717926
  188 102.736 -3.51603 0.705360
  189 166.192 -4.93652 -6.19825
  190 222.752 -2.66815 -0.701652
  191 37.8577 -1.11189 1.31369
  192 37.8526 -1.12304 -1.33846
  193 15.8465 2.24675 -5.27726
  194 15.9216 2.22371 5.28868
  195 91.6742 -3.55451 -20.2588
  196 91.3116 -3.75736 20.5287
  197 109.897 -6.89206 -2.26676
  198 110.120 -6.85302 2.48357
  199 26.3779 -0.920932 4.22757
  200 26.3429 -0.907495 -4.24052
  201 220.464 -5.28822 12.1798
  202 178.955 -17.9773 -5.48623
  203 170.854 -1.36239 -1.10633
  204 166.844 -1.71103 1.15186
  205 166.314 19.4316 19.9361
  206 6.69871 5.25859 -1.33996
  207 6.95784 5.24200 1.45437
  208 167.225 -6.82996 23.2564
  209 152.112 11.5154 -22.5673
  210 109.686 23.4401 -69.5337
  211 115.335 19.7648 64.5418
  212 1.94777 3.60135 0.209165
  213 2.01065 3.59973 -0.179928
  214 166.585 -6.05069 -23.9805
  215 293.624 41.4653 -2.59062
  216 138.527 -15.2328 10.8888
  217 139.622 -15.1375 -10.2195
  218 138.470 -9.65397 -1.96986
  219 173.439 -2.40712 3.40421
  220 81.6623 -5.48336 -6.92732
  221 80.3180 -5.45886 7.18062
  222 48.3951 1.08928 -12.5719
  223 48.4598 1.06899 12.4518
  224 177.366 -19.1031 -0.227574
  225 137.277 -10.2851 1.38581
  226 172.851 -2.32777 -2.75657
  227 133.318 -3.01224 0.405741
  228 134.535 -2.77448 -0.143305
  229 169.594 -7.45691 13.8010
  230 12.5868 0.189875 -4.50212
  231 12.6433 0.183170 4.49903
  232 -2.26294 -1.56058 -5.84445
  233 -2.27399 -1.57385 5.84957
  234 23.0224 -1.05902 -2.39821
  235 23.0497 -1.06156 2.37429
  236 69.3663 -1.89397 1.57434
  237 69.3879 -1.93320 -1.59036
  238 81.1351 5.47563 -30.1698
  239 81.1434 4.54218 29.8161
  240 172.155 -5.20995 -11.7976
  241 79.0819 -4.54754 -11.8379
  242 79.1442 -4.68940 11.6456
  243 149.463 2.15157 25.4175
  244 128.966 11.1554 1.53005
  245 147.206 -14.6090 -1.96007
  246 0.509466 -4.02349 -5.56837
  247 0.460383 -4.06153 5.61132
  248 8.97975 8.10823 -9.31361
  249 9.58194 7.76744 9.85363
  250 144.686 -14.2829 0.974246
  251 264.296 47.3784 -0.462007
  252 12.7455 8.78070 -3.46588
  253 12.9060 8.77455 3.51594
  254 -5.95608 1.14874 4.16025
  255 -5.92805 1.15464 -4.14113
  256 266.007 44.0557 1.84355
  257 90.2764 -4.12823 -2.37126
  258 90.2024 -4.05541 2.30536
  259 180.321 -12.4395 22.0837
  260 330.066 53.5606 32.3996
  261 51.7146 -2.66676 -6.60697
  262 51.6966 -2.68556 6.59665
  263 182.324 27.2139 -19.3609
  264 317.851 60.1077 -29.0016
  265 220.398 21.0551 19.8130
  266 242.016 12.4329 -42.6451
  267 147.428 -6.66482 3.20551
  268 166.783 0.545244 -28.8082
  269 158.981 -11.0693 -8.35909
  270 177.924 -3.00653 7.55767
  271 -1.14358 1.68271 -1.33169
  272 -1.08111 1.67707 1.35197
  273 176.449 -6.85370 -41.7496
  274 17.5789 5.67934 -5.21301
  275 17.6654 5.66775 5.24388
  276 169.701 -4.07492 -14.7874
  277 23.6334 22.8081 -30.2003
  278 16.9806 -0.0630191 -0.540556
  279 16.9893 -0.0584409 0.530385
  280 179.554 -11.4368 -22.9628
  281 30.4225 13.6582 -15.7193
  282 30.8702 13.5779 15.7623
  283 6.69145 -0.251473 3.17360
  284 6.63309 -0.248017 -3.17774
  285 147.230 -6.29451 -3.10861
  286 23.7889 22.5480 31.0644
  287 238.074 15.0889 50.4140
  288 61.8338 -2.34098 -2.08147
  289 61.8163 -2.32382 2.04285
  290 116.752 -4.51309 -0.415042
  291 116.692 -4.92033 0.538529
  292 99.6435 9.13664 -46.5989
  293 162.092 -17.8586 -4.22939
  294 186.508 -0.892729 1.53665
  295 95.9001 9.08983 45.0062
  296 111.620 -2.68575 -0.100834
  297 111.576 -2.68282 0.201273
  298 159.221 -11.5439 8.52381
  299 184.430 -1.74304 -3.68976
  300 -2.76563 0.699555 -2.34554
  301 -2.69763 0.694379 2.35433
  302 229.605 46.0335 -2.73561
  303 202.418 -10.0238 12.9386
  304 183.857 -0.665882 -0.449824
  305 187.232 -0.573231 0.407269
  306 182.183 -16.6329 13.8277
  307 224.883 22.4765 -18.6837
  308 194.337 36.2829 11.4238
  309 86.0916 -5.12216 -4.11410
  310 85.2754 -5.22018 4.21108
  311 186.354 -0.849998 -1.09493
  312 120.192 -9.25899 -22.3013
  313 118.026 -9.14690 2.97743
  314 112.555 -6.32790 25.6263
  315 182.677 -1.98895 4.36846
  316 38.5829 -1.76679 -4.06960
  317 38.6035 -1.78021 4.04718
  318 167.870 -6.47424 41.2762
  319 104.847 -8.15685 -5.11699
  320 194.696 24.6395 24.4523
  321 60.6952 4.30394 -19.1457
  322 58.3741 4.49496 18.9697
  323 14.8042 -0.350903 -0.985494
  324 14.8242 -0.348270 0.969253
  325 160.877 -2.89268 2.17423
  326 154.173 -1.79934 0.419566
  327 153.276 -2.00779 -0.475533
  328 168.312 -4.29597 15.6386
  329 11.7319 -0.500407 2.31649
  330 11.6846 -0.495439 -2.33008
  331 46.3671 -1.03890 -0.815677
  332 46.3644 -1.01891 0.804821
  333 1.48590 -8.34778 -3.39143
  334 1.37990 -8.40824 3.51770
  335 127.905 5.47000 17.1488
  336 204.443 -9.58306 -10.9580
  337 130.917 -6.67015 1.34784
  338 148.896 -2.61529 -1.29816
  339 153.010 19.1111 -10.6516
  340 28.2224 -0.873943 -5.99784
  341 28.2559 -0.874246 5.98957
  342 127.172 -6.26800 -0.654908
  343 34.3969 1.29939 -8.70078
  344 34.4602 1.26827 8.66738
  345 6.22937 5.69673 0.648364
  346 6.31325 5.69450 -0.613674
  347 155.552 -16.9583 14.3554
  348 351.214 23.2765 8.96145
  349 135.593 1.90705 -20.3489
  350 114.664 -10.3025 13.2123
  351 114.077 -10.1037 -13.6500
  352 169.914 -3.09465 28.6052
  353 149.925 -1.18189 20.2199
  354 153.465 -16.4000 -14.8721
  355 89.6831 -2.02965 -0.0505871
  356 89.6705 -2.05814 0.0736198
  357 169.780 -11.1144 18.0155
  358 232.374 46.6183 1.79047
  359 183.438 -1.89695 -5.59272
  360 44.2142 -1.66011 -2.86830
  361 44.2272 -1.66115 2.83280
  362 172.217 -16.8399 -18.0916
  363 179.493 12.2312 -28.6718
  364 116.970 6.31274 -10.9743
  365 170.911 -11.5008 -20.4598
  366 -5.69492 0.143696 -4.52068
  367 -5.70138 0.137114 4.52658
  368 143.610 -3.03874 0.972706
  369 -2.04558 -1.22532 -2.62812
  370 -2.04336 -1.22583 2.62303
  371 111.657 52.4742 -85.0400
  372 4.02009 3.45553 3.40349
  373 4.12964 3.48421 -3.34545
  374 148.692 -1.24950 -20.0479
  375 81.1479 -3.27406 1.77243
  376 81.2116 -3.32257 -1.79940
  377 -0.619797 -6.15823 5.13719
  378 -0.610473 -6.14689 -5.13147
  379 90.2959 55.1559 79.9134
  380 66.1537 -3.44566 -9.11034
  381 66.2010 -3.28914 9.11706
  382 20.8049 15.0371 -14.3984
  383 21.2555 14.9857 14.3050
  384 -9.07799 1.26174 1.85653
  385 -9.03990 1.26348 -1.83643
  386 172.856 11.2777 28.5886
  387 132.808 -13.8939 5.54356
  388 132.948 -12.0150 1.46199
  389 161.948 -18.5557 -0.664040
  390 38.9886 5.00713 -12.2797
  391 39.1175 4.99586 12.2558
  392 3.40556 -6.33942 -0.300753
  393 3.21012 -6.42033 0.579224
  394 161.567 23.2164 7.07252
  395 165.624 -4.46261 5.14966
  396 92.9439 -7.12635 8.21631
  397 56.6327 -1.35378 -11.0538
  398 56.6479 -1.36388 10.9584
  399 119.536 -3.28616 0.0406552
  400 119.400 -2.83582 -0.142677
  401 92.1516 -7.32791 -8.79419
  402 71.6234 -1.16421 -15.2220
  403 71.6061 -1.26522 15.3482
  404 172.251 -15.9214 -13.1899
  405 98.4914 -7.43257 4.85799
  406 156.873 -4.47001 3.30534
  407 156.619 -4.03311 -2.82816
  408 130.433 -11.9202 -1.94619
  409 190.254 -0.618393 -1.61714
  410 62.1973 24.5558 -47.0650
  411 177.446 -2.44996 9.09374
  412 189.513 -0.801610 2.32709
  413 64.8371 -3.38493 5.27763
  414 64.8728 -3.33708 -5.27304
  415 132.201 -13.7253 -5.77908
  416 17.8658 8.19122 5.59162
  417 17.7675 8.18682 -5.59959
  418 354.984 23.2582 -18.3980
  419 153.417 -8.52956 -5.10090
  420 191.917 -0.455092 0.932747
  421 58.6229 22.8252 44.7101
  422 281.762 47.6590 8.45213
  423 165.462 -2.17983 -1.75594
  424 122.190 -8.67687 -1.42565
  425 49.9415 9.65958 -21.7193
  426 53.2877 8.96595 21.5896
  427 151.480 -9.40387 5.19013
  428 159.604 -2.08558 -14.9712
  429 -3.20063 -0.128834 2.36206
  430 -3.27053 -0.127116 -2.36149
  431 56.7291 13.5267 -29.5128
  432 56.9073 13.5789 29.4184
  433 5.72467 3.17310 -2.14871
  434 5.79386 3.16553 2.17399
  435 135.759 -2.24371 0.440705
  436 135.596 -2.17402 -0.392451
  437 169.299 -7.63583 -14.4116
  438 -0.650023 -0.722398 6.44130
  439 -0.620047 -0.696616 -6.41864
  440 174.598 -17.3976 11.7711
  441 165.462 -4.13686 -4.59432
  442 267.697 51.3685 -6.77503
  443 7.51738 -0.460798 1.06140
  444 7.47898 -0.460916 -1.07566
  445 325.028 89.9086 38.7415
  446 6.17143 0.389902 -8.45605
  447 18.0772 0.997465 -5.79274
  448 18.1381 0.982114 5.78918
  449 323.699 91.8179 -36.7221
  450 6.54182 1.10892 9.40791
  451 -8.98556 1.00674 0.725688
  452 -8.93690 1.00496 -0.706929
  453 16.9895 11.5942 -8.06985
  454 17.2931 11.5941 8.11655
  455 208.157 32.2354 -20.6026
  456 167.642 -6.36914 -9.52156
  457 190.834 -0.517824 -0.842738
  458 174.960 -2.61683 -10.6139
  459 -2.31817 1.12046 5.92325
  460 -2.28777 1.13682 -5.90218
  461 169.336 -6.67304 10.9699
  462 108.649 -5.87617 -1.74854
  463 108.303 -5.94115 1.36821
  464 148.846 -16.4543 -1.13665
  465 105.428 -1.66094 -31.7050
  466 161.335 -2.50531 15.3217
  467 132.355 -3.93559 -0.527676
  468 196.110 -15.2824 -0.515396
  469 102.068 0.667596 34.0711
  470 5.31638 -0.119105 2.27847
  471 5.25774 -0.116076 -2.28535
  472 213.480 42.2908 -9.60943
  473 172.642 -0.960184 0.184454
  474 172.029 -1.12839 -0.347103
  475 128.568 -8.36291 -0.0318289
  476 54.0012 -1.74928 -1.55419
  477 53.9919 -1.72600 1.53003
  478 31.3969 -0.302127 -7.11820
  479 31.4300 -0.308391 7.09937
  480 104.471 4.06804 6.53821
  481 24.7491 -0.846720 3.36935
  482 24.7168 -0.838160 -3.39032
  483 27.6865 2.80032 7.99743
  484 27.5943 2.84174 -7.99311
  485 166.165 -12.8371 13.3688
  486 91.6011 -5.68027 -14.2226
  487 83.9747 -2.50015 0.831882
  488 84.0094 -2.57046 -0.834843
  489 92.5872 -5.86283 14.2139
  490 260.816 61.2307 -3.33605
  491 -4.17579 -0.650783 -3.44519
  492 -4.17402 -0.654026 3.44364
  493 62.8848 -1.62864 -0.629029
  494 62.8796 -1.59984 0.625453
  495 0.0411242 -11.4585 -4.39958
  496 0.0140765 -11.4953 4.43687
  497 152.025 -1.90649 0.794343
  498 103.746 5.02989 -3.26224
  499 142.383 15.0033 9.51783
  500 91.1523 -0.945891 -25.0132
  501 42.9614 -2.18743 5.13699
  502 42.9627 -2.16849 -5.14923
  503 -12.7696 0.390799 -0.686235
  504 -12.7037 0.388536 0.694444
  505 179.110 -3.64251 -28.5943
  506 11.0509 0.108253 -0.739917
  507 11.0657 0.110629 0.728307
  508 149.106 -11.6041 -4.49502
  509 159.105 -13.4826 -8.22018
  510 31.6136 23.4164 -31.2826
  511 133.580 3.01665 -50.8068
  512 1.15961 3.83770 3.15905
  513 1.22206 3.84513 -3.12491
  514 79.9143 -3.53349 -2.71720
  515 79.8690 -3.49753 2.64293
  516 231.673 8.41481 -7.75452
  517 165.557 -9.65995 -12.0887
  518 30.7972 22.0610 30.8196
  519 164.075 -18.7939 3.20420
  520 157.592 -14.9547 6.68815
  521 30.7373 -0.736454 -2.19664
  522 30.7513 -0.732883 2.17035
  523 126.438 1.29594 15.7322
  524 92.1479 -6.66137 -5.22810
  525 175.254 -3.66497 6.94237
  526 -0.736308 -4.24540 -3.33498
  527 -0.738131 -4.24261 3.33065
  528 121.527 -10.8470 15.9945
  529 186.572 -14.6256 -15.6386
  530 245.272 15.2830 -6.20851
  531 130.681 -4.09878 0.638369
  532 36.1127 -0.634318 -0.657295
  533 36.1141 -0.619738 0.650146
  534 81.7509 0.620891 24.0423
  535 232.857 38.0602 14.8876
  536 239.788 42.7191 -81.2107
  537 212.388 0.357255 15.3448
  538 151.885 -16.9251 0.301522
  539 366.484 29.1249 24.5701
  540 267.858 63.5147 5.36281
  541 35.3619 -1.44804 5.63249
  542 35.3398 -1.43283 -5.64559
  543 145.875 -11.9538 3.58560
  544 9.93236 5.11572 -1.85208
  545 10.0116 5.11167 1.88236
  546 184.245 -15.6071 15.6100
  547 148.043 7.86418 23.3528
  548 186.357 -1.07675 3.83901
  549 136.359 -7.92922 1.92749
  550 193.446 0.0881974 -53.5519
  551 309.850 75.7029 51.3335
  552 148.547 -2.53347 -0.737228
  553 182.652 -1.74503 -6.07730
  554 27.4749 11.5763 -11.5487
  555 27.6768 11.4350 11.4885
  556 102.655 -3.85387 -1.07346
  557 102.604 -3.75268 1.10546
  558 1.11051 -14.7832 -0.924010
  559 185.651 -6.97234 25.7426
  560 6.53066 6.05122 1.38436
  561 6.64134 6.06654 -1.33347
  562 1.31258 -14.3334 1.31616
  563 168.525 -7.73496 -20.6352
  564 194.203 11.7903 -27.7964
  565 193.416 13.4100 27.7737
  566 8.85910 6.84602 5.93915
  567 8.39534 7.03795 -5.78682
  568 -7.07775 0.194438 1.74865
  569 -7.15047 0.196282 -1.74576
  570 179.903 3.15437 55.3160
  571 96.2955 -5.13030 2.53416
  572 96.3974 -5.11147 -2.60579
  573 217.617 -5.32137 -27.1710
  574 24.8093 -0.331352 1.27840
  575 24.7993 -0.337914 -1.29591
  576 9.42788 -0.333969 -0.309962
  577 9.43416 -0.331727 0.305912
  578 237.600 42.1980 -12.5386
  579 22.0577 29.3905 -34.8127
  580 120.430 2.33180 -13.2991
  581 173.221 27.8077 -12.1143
  582 2.33956 -0.608931 4.29688
  583 2.44460 -0.573023 -4.22647
  584 181.000 76.9949 96.0664
  585 150.736 -3.83990 -2.01611
  586 3.95353 1.54995 -2.80476
  587 4.02088 1.53871 2.81954
  588 174.029 -14.1375 18.1838
  589 26.1542 28.3937 35.4468
  590 124.760 -2.24456 0.0399342
  591 124.793 -2.22214 -0.0404759
  592 -0.170719 -9.03537 4.49317
  593 -0.157184 -9.02034 -4.47843
  594 212.972 41.8743 -0.340807
  595 135.369 -11.1577 23.2755
  596 129.023 -5.19558 0.588498
  597 130.297 5.10530 53.6512
  598 -10.9995 0.527042 2.74613
  599 -10.9882 0.529871 -2.73568
  600 215.121 1.87116 -16.4101
  601 290.618 44.6403 -35.9014
  602 80.0821 7.92462 -35.1504
  603 41.8348 -1.70446 -6.91797
  604 41.8700 -1.70410 6.91658
  605 195.939 -0.503624 1.14003
  606 127.692 -5.31680 -0.759508
  607 173.172 -2.03850 2.55967
  608 168.547 -7.72015 20.1655
  609 4.07961 -0.266704 1.10644
  610 4.03042 -0.265503 -1.11713
  611 98.5277 -3.15466 -0.597243
  612 98.5118 -3.05731 0.565806
  613 60.7740 1.40086 -15.7271
  614 60.3660 1.41761 15.6477
  615 246.956 12.4663 11.9679
  616 408.803 30.7962 -44.8849
  617 -5.30859 -0.234362 1.54856
  618 -5.38235 -0.233516 -1.54900
  619 56.5472 -2.30653 2.90995
  620 56.5492 -2.30435 -2.95850
  621 229.092 11.1515 10.8845
  622 193.985 -0.468713 -0.362757
  623 193.535 -0.778804 0.177025
  624 135.761 -0.124726 15.6068
  625 201.482 -12.7429 -15.9351
  626 107.265 -8.68331 6.27771
  627 -3.08633 2.36865 -2.83792
  628 -3.13302 2.36544 2.86452
  629 173.132 3.24513 29.8252
  630 66.9492 -3.76064 -7.15511
  631 66.8755 -3.82593 7.16969
  632 141.390 -7.91180 -2.45785
  633 176.155 -3.61468 -6.29772
  634 98.5743 -7.78470 -10.0121
  635 161.823 19.5065 -18.1014
  636 109.512 -7.62554 -18.7714
  637 37.6283 -0.990714 -1.09597
  638 37.6300 -0.977359 1.07783
  639 99.6368 -7.93351 10.0401
  640 217.384 34.5114 18.8273
  641 172.397 -8.56660 25.3801
  642 141.175 -5.95901 2.18462
  643 99.6348 -2.34199 0.510290
  644 99.6091 -2.34876 -0.490505
  645 74.0759 -2.58487 -2.01681
  646 74.0432 -2.55295 1.98919
  647 166.393 -15.3200 -11.0661
  648 82.2689 -4.48709 3.56427
  649 82.3647 -4.46961 -3.65521
  650 164.359 25.5548 -2.44610
  651 153.711 -7.81689 5.10752
  652 194.674 -0.761497 -1.72732
  653 162.232 -3.15589 -26.1288
  654 21.1583 -0.968719 4.51221
  655 21.1171 -0.961574 -4.51876
  656 189.335 -0.897939 -3.46885
  657 32.3047 16.5130 -21.7258
  658 32.8682 16.4661 21.8340
  659 192.699 -12.5740 22.8874
  660 64.5239 15.8297 37.0092
  661 13.9233 -0.0419769 4.52358
  662 13.8723 -0.0383792 -4.52815
  663 163.418 -11.2097 30.3664
  664 161.833 20.6316 -73.7282
  665 154.506 4.65104 -25.9479
  666 205.499 37.0164 15.9672
  667 138.652 -5.82325 -1.56106
  668 250.490 45.5749 -1.10265
  669 -13.0409 0.568502 -0.324583
  670 -12.9846 0.566895 0.336493
  671 110.020 0.136747 -37.3971
  672 4.30290 -0.151428 0.877107
  673 4.27069 -0.151859 -0.887891
  674 138.767 -11.9981 -22.9798
  675 44.4863 6.23908 -15.1000
  676 44.1158 6.25746 15.0887
  677 -0.0905997 2.27558 -0.446809
  678 -0.0295532 2.27204 0.472233
  679 117.161 -10.0014 -4.37271
  680 166.767 -1.63237 -10.0896
  681 77.6424 -2.20243 -0.752941
  682 77.6431 -2.17377 0.759954
  683 55.3829 -2.76696 -4.47511
  684 55.4229 -2.80731 4.45408
  685 10.2047 8.40900 -2.14385
  686 10.3841 8.42457 2.20247
  687 172.989 -1.70583 1.38956
  688 74.2658 -4.60477 5.85612
  689 74.7689 -4.51910 -5.84822
  690 190.923 -15.8632 -4.17441
  691 156.485 -15.7212 -4.99966
  692 122.288 -3.06942 0.266940
  693 121.838 -2.83009 -0.199538
  694 172.984 -18.7235 7.73329
  695 282.291 56.6762 13.3616
  696 151.734 -7.44370 -38.1611
  697 173.940 -4.71627 10.8342
  698 171.882 -6.63168 -27.1120
  699 51.0279 -1.50474 -2.03382
  700 51.0224 -1.49147 2.00161
  701 134.532 -2.94594 42.9830
  702 385.260 48.9469 44.9487
  703 24.5314 7.37593 -8.30314
  704 24.5658 7.42406 8.33127
  705 172.544 -1.29790 -0.718784
  706 173.961 -1.14016 0.729448
  707 71.9527 34.7067 -60.9673
  708 182.566 -0.863092 6.03203
  709 157.740 -2.29601 1.24831
  710 206.132 41.1372 -6.01426
  711 19.6388 3.75322 -5.88146
  712 19.7269 3.72891 5.90401
  713 198.101 -0.347144 0.237264
  714 158.315 -5.77920 -4.88498
  715 197.678 -3.62642 22.9644
  716 78.8993 -5.44840 -9.51281
  717 79.0987 -5.20499 9.40881
  718 15.6380 -0.590781 3.41804
  719 15.5925 -0.582931 -3.43008
  720 180.630 -0.899275 -1.22698
  721 155.282 28.2067 78.4689
  722 0.852001 0.809832 5.56027
  723 0.908755 0.842290 -5.52143
  724 180.726 -1.66394 -3.02293
  725 175.161 -2.91237 4.28173
  726 135.066 0.0100933 -16.7390
  727 1.22120 -16.6981 -2.44046
  728 1.13631 -16.8533 2.59654
  729 62.0372 16.2832 -36.9892
  730 138.428 -14.0936 -16.1600
  731 71.2924 34.4331 61.6087
  732 195.244 -0.317158 0.721626
  733 184.591 27.5400 19.4800
  734 132.115 12.0714 -6.61396
  735 243.895 49.2347 -1.16863
  736 192.225 -0.659135 2.30260
  737 -12.9050 0.286260 1.21471
  738 -12.9773 0.287841 -1.20973
  739 203.907 -12.5548 3.29727
  740 130.466 -3.35661 0.320118
  741 45.7392 0.174143 -10.5660
  742 45.7957 0.126940 10.4955
  743 175.468 -1.72075 -1.88767
  744 311.284 44.1928 -15.3346
  745 17.6849 -0.558715 -2.06713
  746 17.7213 -0.562175 2.04824
  747 196.598 -0.383054 -1.09867
  748 35.8238 -1.60990 -2.89740
  749 35.8426 -1.61564 2.86961
  750 190.133 -8.08600 -23.4803
  751 175.314 -1.77671 8.21503
  752 155.551 -1.21156 25.7334
  753 197.177 -0.400246 -0.0742859
  754 183.051 -1.09791 2.34820
  755 117.535 -6.03098 -0.386208
  756 148.771 -3.50369 1.60695
  757 168.928 -10.4023 -17.4834
  758 164.922 -10.2504 11.7289
  759 192.529 22.8870 -24.6628
  760 162.729 -8.93012 8.89018
  761 171.533 -10.2875 22.1317
  762 98.0335 -6.43824 3.57552
  763 3.34633 -1.98226 -1.03442
  764 3.15700 -1.99187 1.21306
  765 150.850 -1.82441 0.0828795
  766 150.522 -1.80758 -0.140161
  767 182.518 -0.510894 -0.151955
  768 183.177 -0.471439 0.196659
  769 171.979 -4.73852 13.1238
  770 158.899 -15.0720 21.5471
  771 129.577 -10.3347 0.806083
  772 114.642 -6.56088 1.26476
  773 317.890 40.8812 18.0808
  774 174.419 -4.22371 -8.66537
  775 101.209 16.8028 -57.3493
  776 161.739 -7.74959 -7.74895
  777 4.56059 0.165760 -3.15044
  778 4.62553 0.159851 3.15361
  779 141.370 12.3972 -14.8442
  780 375.443 11.4308 -4.95724
  781 181.262 4.25115 -29.3725
  782 6.97047 0.797459 -13.0748
  783 185.381 33.6094 5.01932
  784 145.732 -9.01137 3.37794
  785 162.994 -4.24382 25.3852
  786 137.690 -14.7054 16.2539
  787 223.702 -3.23950 34.0533
  788 7.51498 2.49168 14.0309
  789 98.7249 -0.773701 28.8425
  790 139.377 -3.17525 -0.825058
  791 155.681 -14.4238 -21.8285
  792 93.9211 -7.19879 -6.75385
  793 73.9813 3.45946 -25.0004
  794 179.915 -3.17845 28.8008
  795 114.462 -7.58422 2.45940
  796 18.9953 -0.585766 1.89572
  797 18.9705 -0.586645 -1.91673
  798 167.294 -0.885642 8.95107
  799 150.291 0.585944 -24.9241
  800 -13.6523 0.590726 1.76968
  801 -13.6320 0.591731 -1.75841
  802 111.305 -3.13969 -0.0176600
  803 110.966 -2.94569 -0.0165195
  804 82.2119 8.91332 35.6957
  805 72.3519 -4.10688 4.29846
  806 72.4624 -4.00134 -4.35325
  807 196.576 -0.237172 -0.636253
  808 66.4089 5.21477 24.3154
  809 -0.851141 -0.0601341 1.20829
  810 -0.914265 -0.0586849 -1.21478
  811 165.225 -5.16320 19.7374
  812 179.001 -1.21579 0.996620
  813 -9.55258 0.0889041 2.67461
  814 -9.55338 0.0918520 -2.66935
  815 108.062 -6.90951 21.2329
  816 20.2234 16.3674 -18.1322
  817 20.4787 15.5468 17.8381
  818 98.5032 4.43386 2.71721
  819 -4.47683 -0.0835067 -1.39552
  820 -4.40377 -0.0845457 1.39332
  821 124.706 -11.9645 -15.1890
  822 171.545 -18.2087 -7.40755
  823 -0.841961 -0.801437 -1.05129
  824 -0.839581 -0.799657 1.04750
  825 5.35600 0.310273 -0.268297
  826 5.36609 0.311976 0.262144
  827 152.144 -13.4454 5.12226
  828 127.462 -13.1083 10.1833
  829 142.011 -1.96589 0.637265
  830 127.101 -10.0724 -1.30746
  831 43.9472 -0.642587 -0.186610
  832 43.9466 -0.623350 0.182063
  833 -15.5640 0.326112 1.09287
  834 -15.5318 0.325652 -1.08191
  835 161.258 -1.69233 -0.957885
  836 139.161 5.33886 -21.1205
  837 162.944 -2.87249 -2.65263
  838 94.1138 -7.05841 6.39693
  839 159.285 -2.87297 -20.7136
  840 171.797 -5.15406 -13.5663
  841 161.944 -1.39651 0.867369
  842 116.720 -4.74405 29.6183
  843 124.723 -12.1186 -5.25263
  844 74.0968 -0.542769 -18.9136
  845 74.5151 -0.0268254 19.0124
  846 105.718 -7.73481 -3.88104
  847 176.333 18.8817 25.0975
  848 169.053 -18.0245 -11.1426
  849 58.1578 -1.72991 -0.983016
  850 58.1476 -1.70051 0.969683
  851 128.313 -2.51124 -0.157358
  852 128.315 -2.53574 0.192406
  853 151.651 -1.19856 -13.4924
  854 49.2217 -2.03030 -3.60057
  855 49.2440 -2.04622 3.56317
  856 0.584166 -16.4800 -3.38894
  857 0.551069 -16.5496 3.45426
  858 22.7131 -0.334803 -0.176224
  859 22.7082 -0.342914 0.170780
  860 159.924 -2.12024 -1.35159
  861 119.914 -11.4122 9.13259
  862 188.490 -16.6411 7.95440
  863 105.723 2.23996 10.4161
  864 163.490 -3.50862 3.01490
  865 178.049 -16.2314 -14.5760
  866 23.8380 1.66221 -6.89534
  867 23.9086 1.63520 6.88839
  868 141.267 -2.14052 -0.586376
  869 112.694 -3.58423 -0.424487
  870 112.285 -3.54777 0.524510
  871 173.760 27.1375 13.6352
  872 59.2920 -0.508589 -12.9034
  873 59.2274 -0.579620 12.8380
  874 121.042 -10.8203 3.98919
  875 10.8749 7.35135 -1.79691
  876 10.9880 7.33523 1.82759
  877 101.943 -7.29445 17.0680
  878 122.844 -7.58265 -0.348732
  879 152.611 -1.23963 13.6356
  880 151.787 -17.2173 4.28322
  881 174.232 -13.4296 -19.4998
  882 119.622 -11.5068 -9.28320
  883 98.7711 -6.40811 -3.40501
  884 333.100 27.5717 -5.05396
  885 159.153 -16.9291 4.07377
  886 3.91161 4.94104 2.53435
  887 3.99278 4.94965 -2.49271
  888 137.798 -13.7431 1.47965
  889 151.593 -17.2674 -8.60340
  890 4.01201 4.41204 0.836034
  891 4.08261 4.41237 -0.804640
  892 55.1555 -1.87804 9.62555
  893 55.1974 -1.94006 -9.69200
  894 67.3718 -3.33326 10.5916
  895 67.3533 -3.41751 -10.6764
  896 218.450 43.9115 7.81035
  897 -0.344240 -6.76773 -3.25524
  898 -0.346603 -6.76050 3.25337
  899 48.6591 4.22616 -14.3413
  900 48.4072 4.13777 14.1844
  901 388.704 12.6256 -19.8007
  902 3.50976 -0.0212111 0.474299
  903 3.48766 -0.0224867 -0.482744
  904 0.600738 -19.4354 1.49202
  905 0.708651 -19.1298 -1.23346
  906 -7.24656 -0.107099 2.70579
  907 -7.25375 -0.104910 -2.70472
  908 38.8232 11.4880 -16.9823
  909 39.4304 11.1088 16.7221
  910 -3.35672 0.0395981 -5.80514
  911 -3.37249 0.0273799 5.81531
  912 9.81240 1.07470 -4.37630
  913 9.87938 1.06129 4.38146
  914 41.8871 -0.388925 8.82307
  915 41.8627 -0.387181 -8.87584
  916 33.6175 -1.10483 -7.08091
  917 33.6480 -1.10208 7.06565
  918 189.942 -0.611269 -3.37491
  919 90.9091 18.6685 53.1447
  920 126.002 -12.3588 4.82740
  921 88.3799 -6.18265 5.01517
  922 172.229 17.5491 -24.7067
  923 382.162 8.27824 7.84577
  924 206.575 8.63804 -24.4062
  925 31.4613 -1.20743 4.35211
  926 31.4332 -1.19295 -4.37268
  927 3.75875 -0.163788 -3.21550
  928 3.82112 -0.165685 3.21395
  929 -0.263229 -3.47133 -6.37202
  930 -0.290078 -3.49741 6.39280
  931 91.3770 -3.77215 2.02066
  932 91.4288 -3.85387 -2.03549
  933 9.78753 3.01924 -3.72178
  934 9.86055 3.00518 3.74313
  935 54.6298 -2.35581 -8.08443
  936 54.6626 -2.35479 8.07595
  937 118.854 -0.652508 -12.2897
  938 56.2586 -2.99179 -5.45522
  939 56.2115 -2.95561 5.47411
  940 142.225 -3.55610 -1.02812
  941 171.991 -10.0251 -23.6853
  942 73.0278 -2.78229 2.28663
  943 73.0681 -2.81159 -2.32684
  944 -3.07653 -0.341870 -1.87092
  945 -3.06856 -0.342685 1.86718
  946 176.249 -14.3465 -27.0254
  947 168.026 -9.78797 15.3290
  948 147.115 -10.0489 -4.14154
  949 141.097 4.66968 22.2779
  950 63.1810 -3.45823 -6.17340
  951 63.1740 -3.38707 6.19444
  952 158.860 5.86295 27.1110
  953 147.290 12.7927 17.8213
  954 309.690 37.5328 6.38494
  955 157.047 -5.27702 3.74673
  956 80.4431 -2.14570 -1.01217
  957 80.4295 -2.09576 1.02313
  958 139.922 -11.2799 -1.73532
  959 193.062 35.5471 -11.9414
  960 173.031 -1.48898 -1.39518
  961 111.591 -2.32404 0.321608
  962 111.544 -2.30312 -0.288363
  963 13.5499 11.2124 -7.32065
  964 13.9075 11.1846 7.38332
  965 27.0896 62.4383 -59.4457
  966 159.706 -3.88479 20.6212
  967 201.118 -4.48289 -20.7398
  968 -4.20230 1.89542 1.50290
  969 -4.15147 1.89467 -1.47807
  970 418.740 97.0034 -78.1623
  971 171.876 -18.9307 3.65521
  972 183.755 -17.5160 -5.55843
  973 168.973 -14.5348 14.2664
  974 207.881 41.2115 5.22221
  975 14.4267 13.8364 -16.8088
  976 38.1082 53.4096 57.9018
  977 -1.14696 -2.53819 6.29551
  978 -1.13027 -2.51906 -6.28470
  979 164.986 -3.85473 3.69714
  980 265.024 47.2757 -4.95579
  981 14.8615 13.4739 17.5417
  982 -0.738366 -2.40272 -2.08027
  983 -0.738590 -2.39643 2.07519
  984 140.856 -2.82473 0.552442
  985 103.866 -8.13793 -7.01151
  986 170.254 -13.5284 -16.6600
  987 46.9202 12.5872 -22.8145
  988 47.6835 12.7999 22.8755
  989 164.571 -4.11367 -18.4941
  990 167.096 -4.98934 6.47368
  991 -4.72676 1.02185 5.18666
  992 -4.70470 1.03255 -5.17071
  993 99.1656 -6.54942 -15.9814
  994 165.193 10.3176 -27.3429
  995 123.181 -4.21242 -0.119890
  996 87.2890 -2.19781 0.113262
  997 87.2738 -2.21561 -0.102911
  998 -1.92904 -2.18403 -4.40098
  999 -1.93188 -2.18871 4.39795
  1000 169.347 -5.76865 -7.83269
  1001 161.637 -1.35265 0.276358
  1002 161.484 -1.35402 -0.207363
  1003 222.652 35.6699 -17.6858
  1004 38.3177 3.47442 -11.1301
  1005 38.4116 3.40493 11.0994
  1006 23.3670 -0.159161 -5.81515
  1007 23.4093 -0.164072 5.80477
  1008 182.370 9.34734 29.7115
  1009 174.157 -2.94756 -4.49388
  1010 28.9546 4.76109 -8.88682
  1011 29.0706 4.72421 8.92015
  1012 182.645 -0.647478 -0.815895
  1013 168.929 -7.11371 -11.6299
  1014 164.928 -18.9055 -5.43006
  1015 5.79596 4.65091 -0.918174
  1016 5.62310 4.62891 0.995847
  1017 -8.42515 1.25555 3.20776
  1018 -8.39673 1.25881 -3.18916
  1019 94.8859 3.68416 -4.54590
  1020 287.717 70.0185 -16.9429
  1021 129.428 -9.17685 0.297265
  1022 84.5374 -3.67868 -16.5039
  1023 210.416 -9.34026 4.00514
  1024 84.8734 -3.68034 16.7468
  1025 149.471 -17.5972 10.3254
  1026 169.560 -6.97517 -17.0575
  1027 55.4542 -1.15558 -0.315668
  1028 55.4525 -1.13088 0.312839
  1029 114.729 -8.76526 -3.15366
  1030 69.2196 -2.50895 -12.6564
  1031 69.1853 -2.52794 12.5812
  1032 22.4749 14.5938 -13.5927
  1033 22.8420 14.5433 13.6324
  1034 46.0423 -1.40444 -1.14244
  1035 46.0390 -1.38458 1.12336
  1036 151.100 -4.37713 2.24755
  1037 126.955 0.0134156 -43.5768
  1038 156.751 -4.71133 -3.69301
  1039 140.852 -15.6234 -5.67857
  1040 91.1200 -3.57626 1.31100
  1041 91.2009 -3.60638 -1.31794
  1042 185.153 -0.837364 1.02668
  1043 164.383 -3.52060 -3.47376
  1044 100.662 2.42431 8.56075
  1045 175.539 -1.70528 -7.63233
  1046 66.7099 19.0007 42.1243
  1047 181.273 -1.60513 -6.30774
  1048 45.6388 7.76356 -16.9401
  1049 44.2199 7.85636 16.2029
  1050 217.578 -4.83640 -5.08152
  1051 18.3766 9.80438 -6.65424
  1052 18.5514 9.73095 6.64949
  1053 3.01454 -1.03770 2.61267
  1054 3.17909 -1.00956 -2.50446
  1055 24.7036 -0.673922 1.41411
  1056 24.6877 -0.679018 -1.43613
  1057 76.1603 19.2576 -46.9047
  1058 433.302 109.212 84.0744
  1059 168.732 -5.77085 8.03628
  1060 150.818 -17.0525 -3.71220
  1061 103.642 -8.49502 -12.0796
  1062 -2.62055 2.15884 4.68785
  1063 -2.58104 2.17065 -4.66156
  1064 117.405 -5.70617 0.204935
  1065 130.053 -4.41463 -0.654588
  1066 -0.0805186 -9.61389 3.16124
  1067 -0.0772411 -9.62197 -3.16000
  1068 18.5763 11.6493 -8.06859
  1069 18.8051 11.6240 8.11982
  1070 115.775 -5.20669 -0.177771
  1071 7.99335 4.17664 2.05231
  1072 7.92018 4.18323 -2.02397
  1073 178.352 -7.33299 27.4151
  1074 128.466 -13.3454 -10.1314
  1075 104.273 -8.63345 12.0773
  1076 169.181 -3.66666 -28.5655
  1077 180.926 -1.66583 3.27021
  1078 63.5475 9.69181 27.8625
  1079 64.0100 9.28058 -27.3837
  1080 103.645 -5.13489 -23.3393
  1081 148.446 -4.91322 -2.34332
  1082 119.650 -6.90431 0.999058
  1083 140.883 -13.0392 0.849405
  1084 196.247 -0.570765 -1.82857
  1085 103.254 -4.44059 1.18583
  1086 103.208 -4.71799 -1.24915
  1087 3.05066 3.69430 4.11535
  1088 3.13548 3.72239 -4.06729
  1089 170.227 5.99775 -29.4359
  1090 36.6467 2.00419 -9.76529
  1091 36.7436 1.96101 9.73222
  1092 26.9168 0.642818 -6.86759
  1093 26.9736 0.626944 6.85067
  1094 197.148 -9.23892 34.3244
  1095 169.409 -7.75669 16.8687
  1096 81.2999 -3.67386 -13.8528
  1097 199.905 -0.688247 -1.09922
  1098 221.105 41.4976 -13.4956
  1099 180.735 -1.40988 -2.14245
  1100 168.097 -18.2739 7.26139
  1101 123.475 -9.57118 20.2735
  1102 201.567 -0.119572 0.258001
  1103 100.456 3.17953 -7.26682
  1104 141.885 -15.1617 -1.89682
  1105 81.4251 -3.84525 13.6822
  1106 143.250 -12.9262 -1.68303
  1107 180.213 -2.33748 5.85517
  1108 124.820 7.91365 11.3927
  1109 87.5743 -6.35976 -10.8421
  1110 274.725 36.2468 -12.9568
  1111 203.945 8.54041 25.4419
  1112 149.017 18.7885 2.81860
  1113 198.859 0.146465 1.01554
  1114 75.5524 -4.61350 -8.13497
  1115 51.7402 31.0346 -46.9329
  1116 93.2806 2.28111 -33.6561
  1117 107.044 -8.04632 4.71583
  1118 89.9506 -6.65357 10.0736
  1119 75.3545 -4.37642 8.22973
  1120 161.563 1.18015 28.4948
  1121 122.302 -3.87445 0.257297
  1122 195.564 -1.34299 2.39725
  1123 -1.74225 -0.308475 6.35104
  1124 -1.71930 -0.289624 -6.33551
  1125 128.371 -3.24764 -0.408613
  1126 -0.457770 1.19058 5.91633
  1127 -0.416564 1.21492 -5.88741
  1128 70.1226 -2.02547 1.39065
  1129 70.1326 -2.06281 -1.39298
  1130 182.964 -0.919645 5.24027
  1131 146.285 -8.68423 -3.53492
  1132 136.778 -6.98716 -1.64106
  1133 153.385 -10.5508 6.30858
  1134 45.6323 22.2209 -34.6465
  1135 150.539 -5.32720 2.90254
  1136 20.4807 0.490528 -5.58966
  1137 20.5343 0.479534 5.58210
  1138 30.2585 19.2216 -23.9720
  1139 242.462 30.2534 10.3091
  1140 14.6508 -0.738408 3.21666
  1141 14.6020 -0.732079 -3.22434
  1142 30.8094 18.8938 23.0936
  1143 137.228 -11.3146 1.17813
  1144 67.5183 -3.01121 2.89762
  1145 67.5351 -3.02753 -2.95723
  1146 283.227 59.6345 -14.2850
  1147 151.587 -15.1678 2.43138
  1148 50.8833 28.9363 46.8142
  1149 4.15354 -2.58526 -3.13619
  1150 4.49275 -2.53118 3.54107
  1151 157.543 19.7959 14.3753
  1152 10.9717 6.27449 -1.98431
  1153 11.0654 6.27506 2.00991
  1154 152.626 -13.1643 -5.35123
  1155 -0.0747486 -14.9522 -3.00400
  1156 -0.0817252 -14.9564 3.01760
  1157 163.357 -13.7557 -10.3541
  1158 -5.35717 0.212741 1.08673
  1159 -5.42998 0.213982 -1.09010
  1160 23.7595 9.03844 -8.84928
  1161 23.8896 9.07632 8.75658
  1162 -10.4259 0.0268930 -1.33256
  1163 -10.3474 0.0262504 1.33337
  1164 164.199 -1.37748 -0.405914
  1165 -16.9902 0.477575 0.416879
  1166 -16.9465 0.477244 -0.406886
  1167 84.5456 -6.54503 -7.78225
  1168 2.19843 -23.3173 -1.58212
  1169 40.4890 -1.10037 2.26009
  1170 40.4807 -1.10523 -2.29124
  1171 138.504 -2.20051 0.121741
  1172 138.772 -2.12952 -0.0939073
  1173 2.35829 -22.3287 2.07458
  1174 164.594 -8.39474 -9.96390
  1175 189.076 -0.771759 3.92986
  1176 167.071 -10.6337 -14.2387
  1177 143.475 0.979814 22.1102
  1178 0.671703 -6.48344 4.89432
  1179 0.742790 -6.43968 -4.82028
  1180 105.487 -7.47002 3.60091
  1181 -7.53501 0.621514 4.11930
  1182 -7.52131 0.626908 -4.10758
  1183 279.138 44.7892 2.71821
  1184 331.565 98.2802 -69.2088
  1185 170.918 -16.7405 12.6726
  1186 68.2184 -1.81835 -0.149899
  1187 68.2184 -1.79218 0.149981
  1188 356.523 34.5737 -31.5757
  1189 22.3530 -0.591885 3.34556
  1190 22.3150 -0.582090 -3.36201
  1191 158.181 -0.519515 -8.85236
  1192 101.107 -8.08660 8.84787
  1193 169.100 -16.6937 -9.63687
  1194 163.527 -11.8078 -11.4296
  1195 98.6097 -3.59007 24.5205
  1196 35.4894 6.75182 -12.6013
  1197 35.4645 6.69102 12.5216
  1198 47.4225 17.4011 -29.3000
  1199 47.4755 16.0780 29.2970
  1200 12.6188 4.00805 -3.91342
  1201 12.6981 3.99525 3.93972
  1202 200.887 34.6658 -17.5521
  1203 9.78926 8.82643 -3.22344
  1204 10.0296 8.83525 3.29384
  1205 145.152 -10.9093 3.28259
  1206 276.207 37.5084 14.8284
  1207 31.7854 -1.35320 -2.22512
  1208 31.8032 -1.35236 2.19738
  1209 181.605 117.371 -105.654
  1210 132.970 7.83860 -17.6310
  1211 121.217 9.41402 7.16629
  1212 16.1706 7.11449 -4.65208
  1213 16.2496 7.11303 4.68078
  1214 0.178658 -0.0226783 0.800123
  1215 0.134257 -0.0226292 -0.808386
  1216 161.125 -12.8632 9.68798
  1217 158.696 -6.05034 5.31490
  1218 108.233 28.9218 -74.5731
  1219 250.660 54.5001 -0.711712
  1220 106.393 -3.39957 -27.1363
  1221 138.933 -3.87397 0.914014
  1222 3.31510 -0.705449 -0.204252
  1223 3.31775 -0.705040 0.203004
  1224 -4.89511 1.08434 -1.61651
  1225 -4.83091 1.07964 1.63083
  1226 92.1617 0.849654 -28.5630
  1227 172.798 -3.50574 5.67233
  1228 111.058 1.62861 39.5501
  1229 151.471 -7.19569 -4.32238
  1230 77.3153 26.6261 -58.1919
  1231 120.842 -6.17678 -29.4015
  1232 144.370 -15.4147 1.07323
  1233 177.824 -2.65391 8.59947
  1234 155.905 -2.85193 -1.72886
  1235 84.1671 -6.12716 7.83394
  1236 195.787 -11.5581 -16.4612
  1237 184.208 15.6335 28.1934
  1238 79.1574 0.343722 -22.3125
  1239 186.429 -0.882111 0.770187
  1240 145.090 18.1977 -4.01470
  1241 61.8583 -2.03167 -2.22178
  1242 61.8406 -2.00725 2.19137
  1243 285.962 63.0538 12.4896
  1244 396.456 10.5610 18.5595
  1245 0.325661 -18.3127 -2.99806
  1246 0.314609 -18.3351 3.02076
  1247 40.5204 20.9029 32.2696
  1248 98.1520 -2.55648 -0.276947
  1249 98.1727 -2.53784 0.315181
  1250 135.981 -13.6193 -2.27060
  1251 160.982 13.0321 24.7314
  1252 171.549 -3.04789 -3.78715
  1253 201.444 -0.418780 -0.132869
  1254 349.047 76.7540 -47.7064
  1255 50.8328 -1.85776 2.22252
  1256 50.8339 -1.86286 -2.26008
  1257 163.516 -15.1863 10.0089
  1258 290.874 67.9063 -18.3043
  1259 158.744 -6.63586 -5.94609
  1260 114.700 -7.75914 -2.13517
  1261 141.798 -15.4683 5.49091
  1262 138.679 -6.61986 1.94183
  1263 4.82604 -0.770819 -5.41188
  1264 190.785 -12.0266 19.1700
  1265 154.030 -9.86211 -6.13825
  1266 5.33768 -0.506323 6.10184
  1267 158.662 -13.2385 -27.4074
  1268 150.297 8.21801 -60.9649
  1269 248.771 30.0249 -8.03690
  1270 202.305 -0.0168169 -0.0738979
  1271 201.912 -0.206071 0.194330
  1272 156.782 -8.91611 6.51238
  1273 58.8566 7.01922 -21.8992
  1274 178.834 -16.1720 15.6487
  1275 306.857 69.5133 30.3923
  1276 73.9359 24.5596 56.6243
  1277 1.81773 -0.230829 5.09382
  1278 1.89595 -0.194290 -5.03995
  1279 188.638 -15.8630 -13.7829
  1280 73.3825 -3.86094 -3.50033
  1281 73.3639 -3.87028 3.42102
  1282 174.638 -11.6820 22.8771
  1283 4.26591 0.0800546 3.56957
  1284 4.20319 0.0834727 -3.56980
  1285 -1.02276 -3.73932 5.10281
  1286 -1.01623 -3.73136 -5.10306
  1287 28.2134 -0.980243 -3.05240
  1288 28.2401 -0.986316 3.02819
  1289 90.3346 -5.97739 -12.4431
  1290 90.7474 -2.72383 0.494600
  1291 90.7465 -2.79261 -0.459130
  1292 201.386 -0.0159148 -0.0486036
  1293 176.599 -2.58395 -9.63807
  1294 12.4104 0.713136 -4.39417
  1295 12.4716 0.703322 4.39377
  1296 90.6988 -6.33293 12.3233
  1297 203.573 -0.121625 0.0431765
  1298 191.753 0.0595828 -0.208308
  1299 191.762 -0.0539582 0.155948
  1300 251.523 51.7220 5.57561
  1301 186.296 -0.988896 -1.70311
  1302 164.725 -1.27550 0.345783
  1303 182.599 -2.54224 -5.18148
  1304 200.115 -0.525953 0.781229
  1305 205.792 20.5705 25.2323
  1306 238.977 48.8924 8.33656
  1307 193.416 -0.665902 -2.63403
  1308 -1.53551 -0.405870 1.38845
  1309 -1.54147 -0.405544 -1.39251
  1310 105.065 -6.38421 2.26911
  1311 105.042 -6.08743 -2.18252
  1312 207.692 22.8785 -24.1572
  1313 41.9102 14.3654 -23.9809
  1314 42.1804 13.9588 23.7009
  1315 137.380 -0.0209444 -11.0494
  1316 144.115 -1.86278 0.0398850
  1317 143.938 -1.84324 -0.0693300
  1318 -3.57258 -0.655247 5.21215
  1319 -3.56605 -0.646172 -5.20976
  1320 158.694 -0.404341 8.84098
  1321 243.708 48.5542 0.786559
  1322 14.0922 -0.629466 -1.92839
  1323 14.1268 -0.630973 1.90970
  1324 180.220 -17.6272 9.38610
  1325 -0.161106 2.73810 4.86255
  1326 -0.109786 2.75485 -4.82978
  1327 29.9645 -0.669035 -0.585068
  1328 29.9691 -0.656907 0.572738
  1329 137.427 -0.252572 11.2130
  1330 1.84783 0.321604 -0.279764
  1331 1.86280 0.322832 0.273590
  1332 184.456 -1.90918 3.44438
  1333 255.554 47.0035 1.75400
</Section>

newXOutput 24

<Section columns = "stress_xx | stress_yy | stress_xy">
  1 216.126 -0.458506 0.388991
  2 216.499 -0.630722 -0.505664
  3 -0.355338 0.212396 -0.575687
  4 -0.139036 -0.219485 -0.132475
  5 405.132 151.754 129.075
  6 411.392 174.334 -130.541
  7 -0.137429 -0.218091 0.130391
  8 -0.357432 0.211228 0.574272
  9 217.677 -0.317102 -0.357941
  10 215.920 -0.664108 -0.502027
  11 215.991 -0.499498 0.532811
  12 214.756 -0.199020 0.285903
  13 214.193 -0.620202 -0.0569062
  14 213.628 -0.586135 0.967392
  15 210.130 -0.373225 0.980867
  16 210.769 -1.48612 1.39959
  17 203.602 -1.20399 2.91156
  18 198.932 -0.470606 3.48590
  19 192.594 -0.625927 3.73297
  20 181.758 -0.550552 5.13256
  21 170.094 -0.495218 5.91404
  22 155.691 0.719555 8.03525
  23 136.108 1.10578 7.23822
  24 128.358 -0.134870 10.3163
  25 104.184 1.50465 7.30674
  26 89.6413 2.02203 5.69838
  27 85.8653 0.879875 4.19186
  28 81.8079 2.93432 0.297950
  29 84.0158 3.20588 -5.59979
  30 88.5132 0.877777 -7.03988
  31 106.403 0.310047 -9.44012
  32 124.590 -0.944178 -9.87853
  33 136.814 0.913767 -7.23219
  34 155.914 0.823562 -8.04381
  35 169.625 -0.593951 -6.33081
  36 182.982 -0.656401 -4.85390
  37 191.753 -0.432779 -3.78701
  38 198.308 -0.493376 -3.21728
  39 205.275 -0.682312 -1.89187
  40 208.142 -0.645549 -1.82843
  41 210.903 -0.617686 -1.59518
  42 213.743 -0.718005 -0.382090
  43 214.885 -0.936693 -0.687902
  44 213.719 0.189271 -0.111755
  45 215.750 -0.439518 -0.592120
  46 216.842 -1.02119 0.547105
  47 217.970 -0.563286 -0.0354939
  48 206.373 0.337382 -0.324721
  49 193.445 -0.492845 -0.622790
  50 178.933 -1.44969 -0.936590
  51 164.018 -1.06572 -0.687170
  52 151.107 -2.01979 -0.634851
  53 137.555 -2.23892 -0.589984
  54 123.953 -1.92052 -0.324288
  55 109.721 -2.12595 -0.426491
  56 97.7279 -2.36564 -0.545749
  57 81.8359 -2.31486 -0.460175
  58 65.5195 -1.40600 -0.294609
  59 52.0531 -0.885679 -0.242116
  60 35.4524 -0.557823 -0.130715
  61 23.3859 -0.597564 -0.855990
  62 12.1597 -0.895305 -0.299659
  63 0.850396 0.108410 0.486637
  64 -2.01952 0.798933 0.156683
  65 -2.77077 0.329478 0.488852
  66 -2.22352 0.151357 0.464007
  67 -4.36462 0.462798 0.152820
  68 -5.11025 0.599501 0.995627
  69 -5.23161 0.207056 0.290441
  70 -8.89788 0.436480 0.329224
  71 -10.5251 0.312131 0.939841
  72 -10.9858 0.114676 0.975813
  73 -14.9049 0.417402 0.722081
  74 -16.2744 0.615210 1.46069
  75 -17.7052 0.373531 0.446212
  76 -19.5354 0.268264 0.734653
  77 -20.0729 0.290072 0.228229
  78 -21.7505 0.676952 -0.557150
  79 -21.7930 0.464420 -0.422036
  80 -19.7118 0.359057 -0.737719
  81 -16.8425 0.453015 -1.34362
  82 -13.5851 0.189502 -1.97917
  83 -10.0509 0.0997618 -2.03925
  84 -6.00751 -0.218636 -2.12495
  85 -2.57325 -0.171210 -1.22610
  86 -1.06768 -0.438848 -0.758854
  87 -0.186911 -1.08409 -0.650348
  88 -0.322080 -2.76985 -1.17766
  89 -0.363123 -5.51038 -2.09111
  90 -0.0857680 -10.3641 -2.28134
  91 0.113285 -14.4261 -2.88753
  92 0.281128 -20.7938 -2.36661
  93 0.857039 -24.7884 -2.80983
  94 0.126519 -26.9518 -2.38724
  95 -0.0554351 -31.1444 -1.53974
  96 0.846756 -30.6996 -0.618661
  97 3.38199 -39.9990 1.25813
  98 2.89705 -23.0994 4.67344
  99 7.02572 -12.6306 10.7599
  100 21.5346 29.2816 35.5251
  101 94.7504 112.365 104.932
  102 531.163 55.3008 79.3047
  103 440.749 15.5116 28.4241
  104 418.911 6.62320 9.82945
  105 406.588 4.38745 -0.0474639
  106 414.340 6.31352 -8.04355
  107 445.143 13.2639 -23.6115
  108 525.651 44.1909 -74.1350
  109 61.2269 127.576 -86.7411
  110 15.0973 19.7001 -27.2247
  111 5.16473 -16.1583 -8.79717
  112 2.62330 -25.1853 -3.93158
  113 3.36822 -41.4941 -0.896546
  114 0.812013 -31.3684 0.878037
  115 -0.104590 -31.4817 1.67566
  116 0.0949456 -27.0842 2.46043
  117 0.840043 -24.8224 2.84104
  118 0.274566 -20.7855 2.37835
  119 0.108263 -14.4079 2.89204
  120 -0.0882189 -10.3400 2.28033
  121 -0.363488 -5.49484 2.08701
  122 -0.322775 -2.75624 1.17371
  123 -0.186808 -1.07899 0.646806
  124 -1.06153 -0.438303 0.755920
  125 -2.56242 -0.171940 1.22299
  126 -5.99391 -0.220334 2.12324
  127 -10.0356 0.0979360 2.03990
  128 -13.5773 0.187529 1.98284
  129 -16.8481 0.451658 1.35051
  130 -19.7308 0.358998 0.745016
  131 -21.8290 0.464098 0.429069
  132 -21.8004 0.677033 0.564382
  133 -20.1383 0.290881 -0.222108
  134 -19.6120 0.269253 -0.730317
  135 -17.7870 0.374625 -0.442952
  136 -16.3617 0.616479 -1.45973
  137 -14.9939 0.418562 -0.721318
  138 -11.0722 0.115382 -0.976530
  139 -10.6105 0.313332 -0.941749
  140 -8.97818 0.438189 -0.331916
  141 -5.30040 0.208211 -0.295145
  142 -5.16694 0.600606 -1.00232
  143 -4.41097 0.463046 -0.158799
  144 -2.25434 0.151112 -0.469713
  145 -2.78977 0.328859 -0.493395
  146 -2.03087 0.797815 -0.160667
  147 0.845307 0.107749 -0.488910
  148 12.1546 -0.898559 0.297193
  149 23.3805 -0.606058 0.853191
  150 35.4496 -0.573027 0.127153
  151 52.0539 -0.907747 0.240199
  152 65.5194 -1.43171 0.294196
  153 81.8290 -2.33727 0.463451
  154 97.7035 -2.37725 0.552824
  155 109.678 -2.11315 0.443514
  156 123.888 -1.87109 0.344211
  157 137.463 -2.12087 0.559132
  158 151.169 -2.05221 0.560418
  159 164.063 -1.27355 0.724004
  160 179.076 -1.41108 0.857161
  161 193.849 -0.379521 0.631141
  162 205.988 0.325572 0.314370
  163 116.842 -10.4699 -8.48964
  164 116.352 -10.6583 8.47084
  165 33.9949 9.54880 -12.9059
  166 34.3356 9.58650 12.8430
  167 138.906 -7.07943 34.6674
  168 145.814 -7.97569 -33.7042
  169 65.9563 -3.37328 3.79937
  170 65.9550 -3.33844 -3.86660
  171 148.674 -4.79930 1.54732
  172 145.566 -4.81333 -1.50354
  173 196.765 35.7553 -5.49222
  174 201.543 0.872701 -27.9932
  175 197.306 2.49401 29.8330
  176 45.3169 -1.64921 -8.55647
  177 45.3128 -1.63526 8.53408
  178 174.139 -17.3267 10.8404
  179 173.883 -13.3776 -14.4321
  180 1.90990 3.68205 4.78961
  181 1.98042 3.70612 -4.74826
  182 237.819 48.1472 9.62446
  183 44.5259 19.6507 -30.5520
  184 47.8865 19.8533 32.8898
  185 168.551 -7.59238 7.12007
  186 253.302 52.5207 -5.85093
  187 107.570 -3.58617 -0.772020
  188 107.386 -3.69022 0.758959
  189 173.590 -5.16984 -6.43348
  190 232.605 -2.73103 -0.839565
  191 39.6770 -1.16689 1.38653
  192 39.6714 -1.17852 -1.41237
  193 16.6249 2.34632 -5.55027
  194 16.7035 2.32226 5.56233
  195 95.8279 -3.71358 -21.2227
  196 95.4490 -3.92519 21.5049
  197 114.858 -7.21411 -2.41094
  198 115.092 -7.17327 2.63744
  199 27.6674 -0.966299 4.44328
  200 27.6306 -0.952244 -4.45672
  201 230.211 -5.46129 12.8202
  202 186.923 -18.7634 -5.64878
  203 178.424 -1.44006 -1.14247
  204 174.245 -1.80538 1.18877
  205 173.827 20.3118 20.7700
  206 7.01911 5.53272 -1.44290
  207 7.28997 5.51558 1.56255
  208 174.719 -7.13203 24.2262
  209 159.008 12.0409 -23.5214
  210 114.597 24.5500 -72.7007
  211 120.499 20.7021 67.4838
  212 2.07625 3.76658 0.190595
  213 2.14206 3.76491 -0.159959
  214 174.054 -6.31718 -24.9825
  215 306.616 43.2841 -2.71405
  216 144.735 -15.9098 11.4387
  217 145.877 -15.8107 -10.7394
  218 144.674 -10.0971 -2.00648
  219 181.133 -2.52926 3.52953
  220 85.3872 -5.73872 -7.28272
  221 83.9843 -5.71319 7.54717
  222 50.6327 1.13523 -13.1860
  223 50.7006 1.11406 13.0607
  224 185.262 -19.9376 -0.317235
  225 143.429 -10.7562 1.39592
  226 180.517 -2.44699 -2.85478
  227 139.289 -3.16701 0.407469
  228 140.557 -2.91883 -0.133706
  229 177.161 -7.79481 14.3596
  230 13.2383 0.196040 -4.73203
  231 13.2976 0.189030 4.72891
  232 -2.35866 -1.62486 -6.10103
  233 -2.37021 -1.63874 6.10636
  234 24.1809 -1.10973 -2.52295
  235 24.2097 -1.11239 2.49802
  236 72.5651 -1.99009 1.65949
  237 72.5875 -2.03102 -1.67619
  238 84.8170 5.73054 -31.5806
  239 84.8257 4.75477 31.2109
  240 179.829 -5.44930 -12.2752
  241 82.6874 -4.75784 -12.4194
  242 82.7528 -4.90614 12.2187
  243 156.230 2.25482 26.4963
  244 134.885 11.6633 1.59537
  245 153.794 -15.2656 -1.98461
  246 0.538866 -4.18416 -5.80177
  247 0.487567 -4.22396 5.84666
  248 9.40394 8.54177 -9.78777
  249 10.0335 8.18585 10.3521
  250 151.163 -14.9253 0.955595
  251 275.975 49.5685 -0.629003
  252 13.3539 9.19188 -3.66643
  253 13.5218 9.18556 3.71891
  254 -6.20485 1.20314 4.33467
  255 -6.17554 1.20933 -4.31467
  256 277.746 46.1065 2.07632
  257 94.3842 -4.32661 -2.50966
  258 94.3070 -4.25062 2.44094
  259 188.364 -12.9832 22.9810
  260 344.587 55.9228 33.8655
  261 54.1213 -2.79368 -6.94069
  262 54.1028 -2.81336 6.93003
  263 190.528 28.4406 -20.1583
  264 331.864 62.7701 -30.3371
  265 230.195 22.0357 20.5749
  266 252.655 13.1061 -44.6382
  267 154.016 -6.97729 3.30529
  268 174.280 0.580165 -30.0179
  269 166.079 -11.5709 -8.67229
  270 185.834 -3.14877 7.86005
  271 -1.14147 1.75835 -1.41512
  272 -1.07606 1.75246 1.43639
  273 184.284 -7.11194 -43.6768
  274 18.4224 5.93777 -5.48833
  275 18.5130 5.92571 5.52072
  276 177.291 -4.25871 -15.3999
  277 24.7255 23.9367 -31.6295
  278 17.8913 -0.0675541 -0.569372
  279 17.9009 -0.0627777 0.558761
  280 187.569 -11.9352 -23.8992
  281 31.8340 14.2921 -16.4833
  282 32.3021 14.2084 16.5284
  283 7.09842 -0.264195 3.33429
  284 7.03712 -0.260582 -3.33854
  285 153.809 -6.59126 -3.20580
  286 24.8888 23.6644 32.5322
  287 248.537 15.8949 52.7501
  288 64.7003 -2.45527 -2.19704
  289 64.6823 -2.43738 2.15676
  290 122.011 -4.73237 -0.463532
  291 121.948 -5.15755 0.592998
  292 104.134 9.56968 -48.7430
  293 169.327 -18.6511 -4.34579
  294 194.744 -0.944268 1.59182
  295 100.225 9.52256 47.0805
  296 116.655 -2.82455 -0.116963
  297 116.609 -2.82152 0.221734
  298 166.330 -12.0658 8.84296
  299 192.597 -1.83046 -3.83163
  300 -2.81886 0.729947 -2.47053
  301 -2.74761 0.724542 2.47978
  302 239.872 48.0746 -2.82336
  303 211.408 -10.4413 13.4154
  304 191.971 -0.709632 -0.464212
  305 195.488 -0.611358 0.420292
  306 190.281 -17.3444 14.5212
  307 234.870 23.5234 -19.3905
  308 203.073 37.9069 11.8814
  309 90.0144 -5.36329 -4.33737
  310 89.1626 -5.46570 4.43873
  311 194.581 -0.900167 -1.13165
  312 125.596 -9.66722 -23.3579
  313 123.342 -9.56706 3.16101
  314 117.624 -6.60427 26.8310
  315 190.774 -2.08728 4.53825
  316 40.4205 -1.85148 -4.27780
  317 40.4424 -1.86552 4.25446
  318 175.337 -6.72154 43.1807
  319 109.588 -8.53237 -5.39482
  320 203.416 25.7581 25.4502
  321 63.4742 4.49923 -20.0602
  322 61.0498 4.69912 19.8767
  323 15.6129 -0.368133 -1.03782
  324 15.6343 -0.365387 1.02088
  325 168.031 -3.03956 2.24638
  326 161.034 -1.89995 0.429066
  327 160.098 -2.11772 -0.487374
  328 175.846 -4.48954 16.2877
  329 12.3817 -0.524751 2.43636
  330 12.3319 -0.519557 -2.45051
  331 48.5628 -1.09185 -0.859151
  332 48.5603 -1.07100 0.847830
  333 1.55830 -8.68783 -3.52088
  334 1.44752 -8.75106 3.65285
  335 133.766 5.72304 17.8815
  336 213.519 -9.97435 -11.3445
  337 136.791 -6.98404 1.36605
  338 155.536 -2.75192 -1.33425
  339 159.961 19.9744 -11.0999
  340 29.5823 -0.917672 -6.29930
  341 29.6175 -0.918008 6.29077
  342 132.884 -6.56415 -0.643293
  343 36.0146 1.35402 -9.13430
  344 36.0809 1.32150 9.09955
  345 6.54432 5.96181 0.643895
  346 6.63208 5.95953 -0.607551
  347 162.498 -17.7027 15.0632
  348 366.584 24.2892 9.35621
  349 141.775 1.99995 -21.2162
  350 119.830 -10.7657 13.8612
  351 119.217 -10.5575 -14.3184
  352 177.536 -3.22408 29.8025
  353 156.705 -1.23128 21.0760
  354 160.320 -17.1198 -15.6027
  355 93.7674 -2.13597 -0.0433399
  356 93.7542 -2.16568 0.0673882
  357 177.363 -11.6097 18.7475
  358 242.760 48.6849 1.83613
  359 191.576 -1.98996 -5.81615
  360 46.3058 -1.74078 -3.01889
  361 46.3197 -1.74188 2.98187
  362 179.883 -17.5659 -18.9709
  363 187.548 12.7928 -29.8652
  364 122.368 6.60253 -11.4447
  365 178.547 -12.0108 -21.2974
  366 -5.94370 0.152547 -4.71859
  367 -5.95044 0.145657 4.72475
  368 150.024 -3.19412 0.993155
  369 -2.13679 -1.27961 -2.74646
  370 -2.13446 -1.28013 2.74112
  371 116.618 54.9569 -88.8948
  372 4.21927 3.63277 3.52554
  373 4.33379 3.66286 -3.46483
  374 155.420 -1.30164 -20.8969
  375 84.8588 -3.43368 1.87671
  376 84.9251 -3.48432 -1.90484
  377 -0.644903 -6.42748 5.36263
  378 -0.635162 -6.41565 -5.35667
  379 94.3302 57.7583 83.5430
  380 69.1924 -3.60763 -9.56457
  381 69.2421 -3.44418 9.57165
  382 21.7750 15.7525 -15.1055
  383 22.2461 15.6991 15.0080
  384 -9.45635 1.31998 1.92593
  385 -9.41652 1.32181 -1.90488
  386 180.628 11.7950 29.7848
  387 138.768 -14.5180 5.85178
  388 138.915 -12.5597 1.58425
  389 169.176 -19.3763 -0.765700
  390 40.8000 5.23303 -12.8815
  391 40.9350 5.22134 12.8567
  392 3.56742 -6.57030 -0.280657
  393 3.36317 -6.65500 0.571689
  394 168.890 24.2619 7.36747
  395 172.993 -4.67580 5.34189
  396 97.1625 -7.45415 8.63458
  397 59.2434 -1.42010 -11.5975
  398 59.2597 -1.43069 11.4980
  399 124.914 -3.45193 0.0207965
  400 124.772 -2.98171 -0.127377
  401 96.3349 -7.66450 -9.23825
  402 74.8948 -1.21995 -15.9577
  403 74.8770 -1.32548 16.0897
  404 179.934 -16.6258 -13.6993
  405 102.955 -7.77675 5.12101
  406 163.863 -4.68583 3.41865
  407 163.596 -4.23012 -2.92238
  408 136.289 -12.4609 -2.08947
  409 198.652 -0.656812 -1.67566
  410 65.0251 25.7029 -49.2424
  411 185.351 -2.56525 9.46557
  412 197.886 -0.847196 2.41489
  413 67.8267 -3.54574 5.55091
  414 67.8637 -3.49571 -5.54609
  415 138.134 -14.3418 -6.09762
  416 18.7148 8.56836 5.88817
  417 18.6119 8.56371 -5.89638
  418 370.511 24.2702 -19.2044
  419 160.268 -8.92245 -5.27822
  420 200.372 -0.486521 0.966447
  421 61.2935 23.8962 46.7839
  422 294.254 49.7607 8.86050
  423 172.809 -2.29460 -1.81324
  424 127.687 -9.07724 -1.53772
  425 52.2360 10.1025 -22.7526
  426 55.7327 9.37650 22.6167
  427 158.249 -9.83469 5.36896
  428 166.784 -2.17835 -15.6002
  429 -3.25018 -0.135612 2.48249
  430 -3.32349 -0.133817 -2.48184
  431 59.3227 14.1515 -30.8988
  432 59.5092 14.2059 30.8002
  433 6.03463 3.31666 -2.27649
  434 6.10708 3.30877 2.30301
  435 141.833 -2.36501 0.451773
  436 141.663 -2.29225 -0.401466
  437 176.855 -7.98132 -14.9958
  438 -0.669856 -0.742991 6.71665
  439 -0.638522 -0.716005 -6.69296
  440 182.381 -18.1645 12.2152
  441 172.823 -4.33626 -4.76381
  442 279.592 53.6439 -7.13556
  443 7.99690 -0.482616 1.11802
  444 7.95634 -0.482738 -1.13289
  445 339.333 93.9607 40.5688
  446 6.46077 0.520412 -8.88581
  447 18.9672 1.03982 -6.08663
  448 19.0312 1.02378 6.08303
  449 337.968 95.9639 -38.4838
  450 6.84867 1.27158 9.88078
  451 -9.34940 1.05172 0.742885
  452 -9.29848 1.04987 -0.723232
  453 17.7883 12.1410 -8.48511
  454 18.1057 12.1411 8.53409
  455 217.461 33.6947 -21.4199
  456 175.112 -6.66275 -9.89671
  457 199.244 -0.551106 -0.872368
  458 182.765 -2.73720 -11.0506
  459 -2.40811 1.17816 6.17500
  460 -2.37633 1.19530 -6.15297
  461 176.884 -6.97876 11.4076
  462 113.557 -6.15420 -1.86304
  463 113.195 -6.22201 1.46625
  464 155.504 -17.1885 -1.25333
  465 110.181 -1.72518 -33.1822
  466 168.587 -2.61659 15.9643
  467 138.286 -4.13074 -0.525708
  468 204.817 -15.9308 -0.629093
  469 106.672 0.710568 35.6549
  470 5.67335 -0.125955 2.39482
  471 5.61174 -0.122787 -2.40196
  472 223.041 44.1800 -9.97369
  473 180.284 -1.02030 0.187794
  474 179.645 -1.19606 -0.357367
  475 134.342 -8.75014 0.0141332
  476 56.5281 -1.83567 -1.63846
  477 56.5187 -1.81137 1.61325
  478 32.8883 -0.320370 -7.47526
  479 32.9232 -0.326932 7.45572
  480 109.335 4.25599 6.81964
  481 25.9763 -0.888118 3.54180
  482 25.9422 -0.879164 -3.56364
  483 28.9961 2.92490 8.39975
  484 28.8996 2.96817 -8.39510
  485 173.582 -13.4119 13.8963
  486 95.7555 -5.93899 -14.9142
  487 87.8101 -2.62622 0.886193
  488 87.8462 -2.69959 -0.889247
  489 96.7855 -6.12966 14.9053
  490 272.399 63.9848 -3.59469
  491 -4.36102 -0.678636 -3.59856
  492 -4.35915 -0.682027 3.59692
  493 65.8019 -1.71174 -0.664083
  494 65.7967 -1.68169 0.660360
  495 0.0448015 -11.9552 -4.58716
  496 0.0165394 -11.9935 4.62612
  497 158.796 -2.01165 0.814060
  498 108.579 5.25934 -3.40231
  499 148.877 15.6830 9.92100
  500 95.2802 -0.984645 -26.1909
  501 44.9867 -2.29163 5.39831
  502 44.9877 -2.27182 -5.41101
  503 -13.2829 0.407369 -0.727757
  504 -13.2138 0.405005 0.736376
  505 187.120 -3.79143 -29.7799
  506 11.6999 0.111853 -0.778200
  507 11.7158 0.114332 0.766088
  508 155.775 -12.1307 -4.63780
  509 166.210 -14.0885 -8.52175
  510 33.0716 24.5311 -32.7590
  511 139.554 3.18423 -53.1332
  512 1.23936 4.01784 3.27513
  513 1.30468 4.02566 -3.23938
  514 83.5700 -3.70396 -2.86779
  515 83.5229 -3.66646 2.79028
  516 241.925 8.85175 -7.97615
  517 172.945 -10.0972 -12.5675
  518 32.2188 23.1156 32.2753
  519 171.395 -19.6220 3.41995
  520 164.632 -15.6243 6.91962
  521 32.2414 -0.773329 -2.30993
  522 32.2563 -0.769612 2.28252
  523 132.233 1.35876 16.4040
  524 96.3339 -6.97063 -5.50641
  525 183.043 -3.83963 7.21453
  526 -0.768059 -4.43469 -3.48399
  527 -0.769962 -4.43175 3.47944
  528 126.992 -11.3300 16.7697
  529 194.878 -15.2595 -16.2451
  530 256.097 16.0485 -6.61055
  531 136.540 -4.30085 0.639151
  532 37.8609 -0.667359 -0.690362
  533 37.8628 -0.652146 0.682904
  534 85.4635 0.652081 25.1770
  535 243.207 39.7998 15.4242
  536 250.291 44.8086 -84.8927
  537 221.819 0.414256 15.9178
  538 158.676 -17.6793 0.382007
  539 382.493 30.3976 25.6518
  540 279.720 66.3949 5.73124
  541 37.0446 -1.51852 5.91772
  542 37.0212 -1.50259 -5.93130
  543 152.403 -12.4959 3.68743
  544 10.4235 5.35002 -1.97119
  545 10.5065 5.34583 2.00294
  546 192.450 -16.2875 16.2169
  547 154.762 8.22672 24.3436
  548 194.617 -1.13075 3.99078
  549 142.470 -8.29762 1.96699
  550 202.003 0.167403 -56.0046
  551 323.408 79.2268 53.7580
  552 155.170 -2.66680 -0.753875
  553 190.768 -1.82872 -6.32283
  554 28.7569 12.1104 -12.1210
  555 28.9681 11.9626 12.0582
  556 107.302 -4.04263 -1.14818
  557 107.249 -3.93701 1.18169
  558 1.16534 -15.3701 -0.993725
  559 193.935 -7.26663 26.7962
  560 6.85149 6.33980 1.41133
  561 6.96722 6.35591 -1.35805
  562 1.37675 -14.9001 1.40361
  563 176.066 -8.07906 -21.4897
  564 202.880 12.3389 -28.9350
  565 202.063 14.0320 28.9127
  566 9.27751 7.20530 6.25551
  567 8.79276 7.40564 -6.09627
  568 -7.31213 0.202276 1.83962
  569 -7.38835 0.204202 -1.83656
  570 187.877 3.36304 57.8443
  571 100.665 -5.37356 2.68444
  572 100.771 -5.35387 -2.75899
  573 227.229 -5.48648 -28.4687
  574 26.0598 -0.349075 1.34413
  575 26.0491 -0.355919 -1.36240
  576 10.0109 -0.349342 -0.325441
  577 10.0179 -0.347000 0.321215
  578 248.156 44.1234 -12.9677
  579 23.0682 30.8910 -36.4437
  580 125.971 2.44277 -13.8684
  581 181.044 29.0564 -12.6158
  582 2.45624 -0.609851 4.46379
  583 2.56604 -0.572226 -4.39018
  584 188.905 80.6469 100.395
  585 157.459 -4.02954 -2.07652
  586 4.19498 1.61846 -2.95827
  587 4.26553 1.60671 2.97382
  588 181.795 -14.7620 18.9142
  589 27.3492 29.8476 37.1076
  590 130.362 -2.36538 0.0473156
  591 130.396 -2.34195 -0.0478794
  592 -0.176391 -9.43069 4.68830
  593 -0.162250 -9.41501 -4.67292
  594 222.524 43.7346 -0.356102
  595 141.434 -11.6449 24.3770
  596 134.813 -5.44536 0.580217
  597 136.124 5.37242 56.1055
  598 -11.4808 0.551866 2.86312
  599 -11.4689 0.554830 -2.85219
  600 224.668 1.99830 -17.0264
  601 303.333 46.7848 -37.6338
  602 83.7139 8.29514 -36.7856
  603 43.7992 -1.78699 -7.26570
  604 43.8362 -1.78665 7.26436
  605 204.575 -0.532280 1.18191
  606 133.424 -5.57192 -0.758371
  607 180.849 -2.14501 2.65151
  608 176.088 -8.06433 20.9999
  609 4.40121 -0.279313 1.16440
  610 4.34939 -0.278058 -1.17555
  611 102.995 -3.31222 -0.640700
  612 102.979 -3.21061 0.607879
  613 63.5613 1.46196 -16.4858
  614 63.1353 1.47949 16.4030
  615 257.846 13.1161 12.6249
  616 426.563 32.1347 -46.8279
  617 -5.44322 -0.245395 1.62812
  618 -5.52060 -0.244513 -1.62854
  619 59.1804 -2.41793 3.06539
  620 59.1821 -2.41562 -3.11603
  621 239.241 11.7077 11.2450
  622 202.521 -0.499686 -0.376054
  623 202.053 -0.823098 0.182464
  624 141.948 -0.126939 16.2718
  625 210.409 -13.2656 -16.7295
  626 112.111 -9.08122 6.60998
  627 -3.19625 2.47849 -2.94530
  628 -3.24510 2.47510 2.97314
  629 180.902 3.40300 31.0726
  630 70.0264 -3.93773 -7.51850
  631 69.9498 -4.00597 7.53379
  632 147.718 -8.27917 -2.52079
  633 183.979 -3.78634 -6.54387
  634 103.038 -8.14036 -10.5132
  635 169.145 20.3886 -18.8598
  636 114.450 -7.96615 -19.6690
  637 39.4404 -1.03966 -1.15461
  638 39.4425 -1.02573 1.13569
  639 104.147 -8.29554 10.5434
  640 227.081 36.0771 19.5577
  641 180.111 -8.94230 26.4319
  642 147.490 -6.24187 2.24360
  643 104.151 -2.46398 0.538872
  644 104.124 -2.47102 -0.518223
  645 77.4787 -2.71273 -2.12747
  646 77.4448 -2.67942 2.09867
  647 173.820 -16.0017 -11.4860
  648 86.0263 -4.70030 3.75795
  649 86.1261 -4.68197 -3.85282
  650 171.806 26.7031 -2.54775
  651 160.574 -8.17848 5.28699
  652 203.263 -0.801514 -1.79272
  653 169.529 -3.29072 -27.2277
  654 22.2096 -1.01545 4.74117
  655 22.1662 -1.00798 -4.74793
  656 197.715 -0.944343 -3.60634
  657 33.7983 17.2836 -22.7641
  658 34.3874 17.2348 22.8775
  659 201.247 -13.0907 23.9850
  660 67.4627 16.5627 38.7314
  661 14.6438 -0.0464959 4.75261
  662 14.5902 -0.0427298 -4.75729
  663 170.697 -11.6811 31.7874
  664 169.008 21.6456 -77.0739
  665 161.493 4.86962 -27.0452
  666 214.704 38.6807 16.5985
  667 144.859 -6.10027 -1.59240
  668 261.656 47.5831 -1.15148
  669 -13.5781 0.594027 -0.350650
  670 -13.5192 0.592353 0.363138
  671 114.971 0.158607 -39.1284
  672 4.64816 -0.158852 0.921872
  673 4.61403 -0.159301 -0.933120
  674 144.980 -12.5222 -24.0686
  675 46.5420 6.52167 -15.8315
  676 46.1552 6.54105 15.8198
  677 -0.0481810 2.37919 -0.492179
  678 0.0157254 2.37551 0.518829
  679 122.439 -10.4578 -4.62148
  680 174.244 -1.70604 -10.5112
  681 81.2031 -2.31361 -0.792877
  682 81.2039 -2.28372 0.800203
  683 57.9585 -2.89896 -4.70779
  684 58.0005 -2.94115 4.68589
  685 10.6921 8.81007 -2.28383
  686 10.8797 8.82650 2.34522
  687 180.653 -1.79821 1.43484
  688 77.6684 -4.82113 6.15884
  689 78.1934 -4.73167 -6.15066
  690 199.408 -16.5443 -4.27180
  691 163.477 -16.4244 -5.15544
  692 127.784 -3.22609 0.261657
  693 127.315 -2.97626 -0.191543
  694 180.688 -19.5392 8.15359
  695 294.798 59.1989 14.0269
  696 158.503 -7.74642 -39.9263
  697 181.690 -4.93285 11.2730
  698 179.579 -6.91957 -28.2409
  699 53.4227 -1.57964 -2.14309
  700 53.4172 -1.56580 2.10950
  701 140.551 -3.04999 44.9631
  702 402.066 51.1028 46.9273
  703 25.6864 7.71285 -8.72374
  704 25.7225 7.76323 8.75327
  705 180.183 -1.37296 -0.741548
  706 181.660 -1.20757 0.752703
  707 75.2002 36.3467 -63.7666
  708 190.682 -0.907148 6.27751
  709 164.757 -2.41745 1.28398
  710 215.385 42.9700 -6.24709
  711 20.5819 3.92188 -6.18572
  712 20.6740 3.89650 6.20942
  713 206.812 -0.369049 0.244359
  714 165.372 -6.05187 -5.06098
  715 206.478 -3.76245 23.8853
  716 82.4991 -5.70044 -9.98795
  717 82.7076 -5.44621 9.87945
  718 16.4552 -0.619329 3.59137
  719 16.4073 -0.611122 -3.60389
  720 188.614 -0.954060 -1.26945
  721 162.168 29.5566 82.0198
  722 0.902785 0.863441 5.78867
  723 0.962112 0.897436 -5.74806
  724 188.729 -1.75068 -3.13576
  725 182.933 -3.05557 4.44299
  726 141.222 0.0144704 -17.4522
  727 1.27966 -17.4071 -2.53235
  728 1.19094 -17.5693 2.69546
  729 64.8641 17.0386 -38.7113
  730 144.630 -14.7165 -16.9448
  731 74.5160 36.0582 64.4346
  732 203.842 -0.339102 0.746674
  733 192.892 28.7812 20.2807
  734 138.168 12.6199 -6.89484
  735 254.767 51.4249 -1.15470
  736 200.717 -0.695185 2.39131
  737 -13.4133 0.298698 1.27897
  738 -13.4891 0.300348 -1.27373
  739 212.947 -13.0733 3.53681
  740 136.315 -3.52617 0.312929
  741 47.8625 0.177545 -11.0870
  742 47.9218 0.128217 11.0135
  743 183.240 -1.81249 -1.95275
  744 325.013 46.1354 -16.0401
  745 18.6041 -0.586111 -2.17589
  746 18.6425 -0.589731 2.15621
  747 205.256 -0.406980 -1.13955
  748 37.5440 -1.68707 -3.04917
  749 37.5640 -1.69309 3.02020
  750 198.605 -8.42670 -24.4302
  751 183.140 -1.85887 8.55437
  752 162.571 -1.25896 26.8202
  753 205.848 -0.425151 -0.0742229
  754 191.148 -1.15992 2.43425
  755 122.829 -6.31621 -0.443219
  756 155.408 -3.67899 1.65169
  757 176.474 -10.8675 -18.1947
  758 172.282 -10.7136 12.1906
  759 201.155 23.9273 -25.6721
  760 169.987 -9.33773 9.23162
  761 179.202 -10.7429 23.0423
  762 102.478 -6.73914 3.77755
  763 3.50680 -2.02743 -1.04777
  764 3.30892 -2.03760 1.23451
  765 157.568 -1.92665 0.0826664
  766 157.227 -1.90911 -0.142439
  767 190.574 -0.548012 -0.156509
  768 191.262 -0.506951 0.203097
  769 179.656 -4.95427 13.6620
  770 165.986 -15.7250 22.5755
  771 135.396 -10.8071 0.895148
  772 119.810 -6.86945 1.36099
  773 331.895 42.6744 18.9001
  774 182.180 -4.42097 -9.01081
  775 105.760 17.5932 -59.9737
  776 168.952 -8.10637 -8.04391
  777 4.84610 0.171541 -3.31508
  778 4.91418 0.165367 3.31847
  779 147.814 12.9614 -15.4737
  780 391.788 11.9264 -5.17028
  781 189.380 4.45702 -30.5925
  782 7.29541 0.990293 -13.7150
  783 193.737 35.1121 5.22409
  784 152.251 -9.42629 3.47871
  785 170.319 -4.42841 26.4513
  786 143.859 -15.3551 17.0430
  787 233.572 -3.30005 35.6519
  788 7.86524 2.76017 14.7148
  789 103.185 -0.801051 30.1917
  790 145.608 -3.33698 -0.840275
  791 162.630 -15.0491 -22.8695
  792 98.1833 -7.53077 -7.10445
  793 77.3481 3.61985 -26.1791
  794 187.962 -3.30664 29.9961
  795 119.623 -7.93635 2.61582
  796 19.9823 -0.614271 1.99286
  797 19.9560 -0.615184 -2.01478
  798 174.794 -0.926863 9.32442
  799 157.090 0.618699 -25.9804
  800 -14.2466 0.617751 1.84231
  801 -14.2254 0.618807 -1.83052
  802 116.326 -3.29820 -0.0377223
  803 115.973 -3.09566 0.00193834
  804 85.9376 9.32852 37.3546
  805 75.6736 -4.30136 4.52618
  806 75.7888 -4.19109 -4.58337
  807 205.229 -0.254574 -0.658412
  808 69.4394 5.45462 25.4641
  809 -0.757761 -0.0630650 1.27016
  810 -0.824120 -0.0615523 -1.27690
  811 172.634 -5.39282 20.5616
  812 186.916 -1.28423 1.03010
  813 -9.97573 0.0939890 2.79124
  814 -9.97659 0.0970744 -2.78574
  815 112.935 -7.21609 22.2410
  816 21.1656 17.1570 -19.0117
  817 21.4325 16.3001 18.7044
  818 103.111 4.63729 2.83411
  819 -4.56181 -0.0884015 -1.46647
  820 -4.48512 -0.0894886 1.46420
  821 130.309 -12.4973 -15.9282
  822 179.192 -19.0119 -7.65994
  823 -0.880071 -0.837636 -1.09924
  824 -0.877578 -0.835771 1.09528
  825 5.75929 0.323162 -0.282907
  826 5.77034 0.324938 0.276488
  827 158.946 -14.0510 5.28843
  828 133.189 -13.6949 10.6990
  829 148.353 -2.07463 0.652704
  830 132.813 -10.5334 -1.41799
  831 46.0379 -0.677882 -0.198125
  832 46.0376 -0.657814 0.193383
  833 -16.2357 0.340393 1.13479
  834 -16.2019 0.339913 -1.12331
  835 168.421 -1.78690 -0.987821
  836 145.499 5.58692 -22.0197
  837 170.188 -3.01781 -2.74451
  838 98.3849 -7.38465 6.73099
  839 166.451 -2.99931 -21.5852
  840 179.465 -5.38841 -14.1224
  841 169.136 -1.47799 0.894169
  842 121.970 -4.94539 31.0020
  843 130.331 -12.6666 -5.54460
  844 77.4743 -0.568007 -19.8167
  845 77.9112 -0.0286069 19.9203
  846 110.498 -8.09304 -4.10010
  847 184.266 19.7398 26.1415
  848 176.584 -18.8101 -11.7126
  849 60.8677 -1.81630 -1.03795
  850 60.8573 -1.78562 1.02405
  851 134.067 -2.64391 -0.152636
  852 134.070 -2.66948 0.189075
  853 158.503 -1.25061 -14.0623
  854 51.5303 -2.12832 -3.78844
  855 51.5539 -2.14498 3.74944
  856 0.612028 -17.1952 -3.53053
  857 0.577439 -17.2679 3.59878
  858 23.8764 -0.352350 -0.181130
  859 23.8708 -0.360814 0.175454
  860 167.033 -2.23356 -1.39355
  861 125.311 -11.9268 9.59878
  862 196.873 -17.3610 8.21968
  863 110.636 2.34278 10.8638
  864 170.760 -3.68142 3.12035
  865 185.986 -16.9441 -15.1417
  866 24.9806 1.73465 -7.24366
  867 25.0546 1.70644 7.23654
  868 147.577 -2.25705 -0.600471
  869 117.776 -3.76235 -0.467827
  870 117.349 -3.72433 0.572381
  871 181.604 28.3579 14.2002
  872 62.0174 -0.535724 -13.5328
  873 61.9502 -0.609939 13.4647
  874 126.490 -11.3128 4.22182
  875 11.4008 7.69352 -1.91779
  876 11.5191 7.67674 1.94997
  877 106.551 -7.62250 17.8888
  878 128.369 -7.93564 -0.409397
  879 159.502 -1.29351 14.2115
  880 158.573 -17.9814 4.54210
  881 182.008 -14.0223 -20.2882
  882 125.006 -12.0256 -9.75595
  883 103.248 -6.70778 -3.59871
  884 347.729 28.7729 -5.27981
  885 166.261 -17.6826 4.18529
  886 4.11488 5.17437 2.61789
  887 4.19978 5.18343 -2.57430
  888 143.976 -14.3622 1.60608
  889 158.368 -18.0306 -9.05482
  890 4.22873 4.61584 0.843093
  891 4.30260 4.61622 -0.810202
  892 57.7051 -1.96868 10.1026
  893 57.7486 -2.03344 -10.1719
  894 70.4611 -3.48945 11.1152
  895 70.4415 -3.57741 -11.2035
  896 228.229 45.8720 8.09706
  897 -0.358721 -7.07018 -3.39977
  898 -0.361189 -7.06258 3.39780
  899 50.9046 4.41599 -15.0371
  900 50.6417 4.32372 14.8734
  901 405.604 13.1728 -20.6544
  902 3.82668 -0.0229892 0.499373
  903 3.80309 -0.0243197 -0.508183
  904 0.630089 -20.2526 1.53838
  905 0.742927 -19.9332 -1.26818
  906 -7.57028 -0.111129 2.82559
  907 -7.57784 -0.108838 -2.82449
  908 40.6179 12.0156 -17.8019
  909 41.2530 11.6188 17.5301
  910 -3.49832 0.0463246 -6.05764
  911 -3.51481 0.0335360 6.06826
  912 10.3265 1.12104 -4.60282
  913 10.3967 1.10703 4.60831
  914 43.8435 -0.411411 9.26232
  915 43.8177 -0.409567 -9.31731
  916 35.2133 -1.15950 -7.43511
  917 35.2455 -1.15665 7.41930
  918 198.360 -0.642632 -3.51037
  919 95.0101 19.5424 55.5845
  920 131.665 -12.9174 5.10078
  921 92.4013 -6.47050 5.28345
  922 179.987 18.3465 -25.7382
  923 398.780 8.63413 8.18633
  924 215.770 9.05536 -25.3821
  925 32.9814 -1.26599 4.57302
  926 32.9518 -1.25084 -4.59442
  927 4.02522 -0.172529 -3.37812
  928 4.09067 -0.174512 3.37657
  929 -0.268837 -3.61479 -6.64665
  930 -0.296898 -3.64207 6.66836
  931 95.5335 -3.95526 2.13892
  932 95.5874 -4.04056 -2.15435
  933 10.2873 3.15482 -3.92241
  934 10.3638 3.14015 3.94483
  935 57.1603 -2.46851 -8.48899
  936 57.1948 -2.46748 8.48024
  937 124.325 -0.676981 -12.8164
  938 58.8696 -3.13376 -5.73526
  939 58.8206 -3.09603 5.75507
  940 148.581 -3.73420 -1.04727
  941 179.682 -10.4668 -24.6637
  942 76.3839 -2.91824 2.41374
  943 76.4258 -2.94879 -2.45570
  944 -3.21574 -0.356816 -1.95535
  945 -3.20739 -0.357667 1.95143
  946 184.085 -14.9521 -28.3006
  947 175.528 -10.2281 15.9474
  948 153.695 -10.5085 -4.27268
  949 147.516 4.88800 23.2253
  950 66.0953 -3.62189 -6.48887
  951 66.0884 -3.54761 6.51090
  952 166.033 6.13608 28.2558
  953 153.987 13.3756 18.5753
  954 323.354 39.1747 6.67278
  955 164.047 -5.52791 3.87558
  956 84.1252 -2.25523 -1.06926
  957 84.1112 -2.20312 1.08072
  958 146.191 -11.7932 -1.75700
  959 201.742 37.1389 -12.4214
  960 180.697 -1.57165 -1.44119
  961 116.624 -2.44714 0.340366
  962 116.576 -2.42527 -0.305678
  963 14.1886 11.7515 -7.70243
  964 14.5624 11.7227 7.76805
  965 28.3023 65.5152 -62.1707
  966 166.890 -4.05532 21.4881
  967 210.065 -4.65190 -21.5590
  968 -4.35410 1.98176 1.55016
  969 -4.30090 1.98099 -1.52415
  970 436.914 101.318 -81.6096
  971 179.536 -19.7640 3.74064
  972 191.925 -18.2724 -5.88759
  973 176.514 -15.1813 14.8279
  974 217.210 43.0474 5.42065
  975 15.1002 14.5401 -17.6283
  976 39.8282 56.0692 60.5757
  977 -1.19230 -2.64341 6.56992
  978 -1.17485 -2.62340 -6.55863
  979 172.323 -4.04201 3.82927
  980 276.807 49.3601 -5.20763
  981 15.5547 14.1615 18.3939
  982 -0.770832 -2.51149 -2.17416
  983 -0.771063 -2.50490 2.16883
  984 147.150 -2.97107 0.558952
  985 108.563 -8.51081 -7.37714
  986 177.854 -14.1296 -17.3275
  987 49.0762 13.1671 -23.8988
  988 49.8742 13.3894 23.9626
  989 171.954 -4.29719 -19.2670
  990 174.533 -5.22452 6.72098
  991 -4.92538 1.07225 5.40873
  992 -4.90231 1.08346 -5.39205
  993 103.651 -6.84501 -16.7532
  994 172.641 10.7916 -28.4916
  995 128.717 -4.41930 -0.0993921
  996 91.2694 -2.31110 0.122958
  997 91.2535 -2.32965 -0.112151
  998 -2.01306 -2.27940 -4.59692
  999 -2.01602 -2.28430 4.59374
  1000 176.886 -6.03680 -8.13768
  1001 168.813 -1.43248 0.284323
  1002 168.655 -1.43395 -0.212403
  1003 232.573 37.2898 -18.3587
  1004 40.1025 3.62953 -11.6781
  1005 40.2009 3.55694 11.6462
  1006 24.5040 -0.169925 -6.10857
  1007 24.5485 -0.175068 6.09784
  1008 190.541 9.78216 30.9456
  1009 181.888 -3.09245 -4.66321
  1010 30.3150 4.97614 -9.33240
  1011 30.4365 4.93764 9.36738
  1012 190.710 -0.690379 -0.843308
  1013 176.461 -7.43869 -12.0950
  1014 172.284 -19.7364 -5.74481
  1015 6.07576 4.89059 -0.921633
  1016 5.89507 4.86744 1.00288
  1017 -8.78206 1.31386 3.33966
  1018 -8.75234 1.31728 -3.32019
  1019 99.3379 3.85156 -4.74147
  1020 300.443 73.1746 -17.8119
  1021 135.240 -9.59969 0.261540
  1022 88.3790 -3.84646 -17.2982
  1023 219.743 -9.71602 4.08377
  1024 88.7301 -3.84796 17.5523
  1025 156.155 -18.3752 10.8528
  1026 177.137 -7.28865 -17.7588
  1027 58.0475 -1.21611 -0.333243
  1028 58.0459 -1.19034 0.330296
  1029 119.901 -9.16874 -3.34376
  1030 72.3874 -2.62701 -13.2747
  1031 72.3519 -2.64690 13.1963
  1032 23.5234 15.2800 -14.2617
  1033 23.9072 15.2274 14.3034
  1034 48.2221 -1.47396 -1.20498
  1035 48.2189 -1.45325 1.18507
  1036 157.839 -4.59019 2.31589
  1037 132.644 0.0365434 -45.5813
  1038 163.736 -4.93765 -3.82118
  1039 147.162 -16.3212 -5.99552
  1040 95.2659 -3.75079 1.39185
  1041 95.3502 -3.78223 -1.39906
  1042 193.328 -0.887269 1.06124
  1043 171.692 -3.69377 -3.59758
  1044 105.360 2.53826 8.92955
  1045 183.376 -1.78272 -7.94798
  1046 69.7426 19.8855 44.0777
  1047 189.341 -1.67972 -6.56630
  1048 47.7426 8.11774 -17.7563
  1049 46.2607 8.21454 16.9857
  1050 227.217 -5.00265 -5.19955
  1051 19.2452 10.2582 -7.00145
  1052 19.4281 10.1815 6.99665
  1053 3.16207 -1.04964 2.69938
  1054 3.33407 -1.02012 -2.58626
  1055 25.9452 -0.707344 1.48948
  1056 25.9282 -0.712657 -1.51245
  1057 79.6112 20.1533 -49.0697
  1058 452.059 114.102 87.7850
  1059 176.245 -6.03886 8.34914
  1060 157.561 -17.8103 -3.94494
  1061 108.326 -8.88002 -12.6757
  1062 -2.71782 2.26213 4.88071
  1063 -2.67650 2.27451 -4.85321
  1064 122.692 -5.97762 0.250134
  1065 135.886 -4.63048 -0.653764
  1066 -0.0834268 -10.0426 3.30069
  1067 -0.0800031 -10.0511 -3.29940
  1068 19.4505 12.1921 -8.48226
  1069 19.6897 12.1658 8.53599
  1070 120.992 -5.45617 -0.220812
  1071 8.40160 4.36688 2.17825
  1072 8.32500 4.37373 -2.14853
  1073 186.323 -7.64936 28.5497
  1074 134.236 -13.9428 -10.6445
  1075 108.985 -9.02465 12.6734
  1076 176.772 -3.82045 -29.7602
  1077 188.939 -1.75282 3.39300
  1078 66.4475 10.1379 29.1720
  1079 66.9308 9.70754 -28.6713
  1080 108.324 -5.36178 -24.4413
  1081 155.073 -5.14986 -2.41273
  1082 125.036 -7.22743 1.08745
  1083 147.195 -13.6284 0.828148
  1084 204.908 -0.601242 -1.89860
  1085 107.927 -4.65491 1.27158
  1086 107.879 -4.94464 -1.33753
  1087 3.20713 3.87804 4.27178
  1088 3.29580 3.90749 -4.22150
  1089 177.879 6.27839 -30.6707
  1090 38.3607 2.09137 -10.2491
  1091 38.4621 2.04627 10.2147
  1092 28.2026 0.667921 -7.21415
  1093 28.2622 0.651326 7.19660
  1094 205.883 -9.59023 35.9292
  1095 176.976 -8.10534 17.5598
  1096 85.0008 -3.84353 -14.5265
  1097 208.705 -0.722879 -1.14104
  1098 230.981 43.3634 -14.0034
  1099 188.733 -1.48579 -2.21960
  1100 175.595 -19.0826 7.50939
  1101 129.024 -9.99324 21.2401
  1102 210.424 -0.130341 0.265714
  1103 105.145 3.32546 -7.57958
  1104 148.241 -15.8414 -2.04462
  1105 85.1319 -4.02263 14.3485
  1106 149.665 -13.5103 -1.69861
  1107 188.214 -2.45126 6.08632
  1108 130.556 8.27583 11.8797
  1109 91.5551 -6.65209 -11.3789
  1110 286.802 37.9743 -13.6799
  1111 213.029 8.95047 26.4668
  1112 155.800 19.6377 2.93794
  1113 207.623 0.147832 1.05246
  1114 79.0069 -4.82899 -8.54581
  1115 54.0986 32.4920 -49.1089
  1116 97.4976 2.39460 -35.2218
  1117 111.881 -8.41761 4.97476
  1118 94.0361 -6.95911 10.5767
  1119 78.8007 -4.58134 8.64480
  1120 168.841 1.24244 29.6961
  1121 127.800 -4.06632 0.243255
  1122 204.204 -1.40689 2.49168
  1123 -1.81099 -0.314086 6.62517
  1124 -1.78701 -0.294355 -6.60895
  1125 134.130 -3.41251 -0.405573
  1126 -0.463868 1.25578 6.16418
  1127 -0.420785 1.28127 -6.13393
  1128 73.3553 -2.12757 1.46260
  1129 73.3656 -2.16652 -1.46503
  1130 191.104 -0.963338 5.45488
  1131 152.827 -9.08464 -3.64308
  1132 142.906 -7.31473 -1.67116
  1133 160.239 -11.0307 6.53311
  1134 47.7226 23.2601 -36.2690
  1135 157.258 -5.58159 2.99471
  1136 21.4824 0.509241 -5.87390
  1137 21.5386 0.497747 5.86612
  1138 31.6578 20.1237 -25.1139
  1139 253.203 31.6640 10.6341
  1140 15.4173 -0.773983 3.38247
  1141 15.3661 -0.767364 -3.39042
  1142 32.2340 19.7819 24.1964
  1143 143.380 -11.8295 1.17505
  1144 70.6319 -3.15674 3.05465
  1145 70.6492 -3.17373 -3.11684
  1146 295.779 62.2922 -14.9953
  1147 158.365 -15.8470 2.47419
  1148 53.2058 30.3001 48.9856
  1149 4.35229 -2.63104 -3.31819
  1150 4.70695 -2.57432 3.74129
  1151 164.686 20.6908 14.9789
  1152 11.5066 6.56407 -2.11195
  1153 11.6046 6.56472 2.13882
  1154 159.449 -13.7578 -5.52774
  1155 -0.0779058 -15.6146 -3.13481
  1156 -0.0851928 -15.6189 3.14900
  1157 170.649 -14.3714 -10.7471
  1158 -5.47139 0.221589 1.14202
  1159 -5.54785 0.222886 -1.14553
  1160 24.8757 9.45384 -9.29664
  1161 25.0118 9.49350 9.19989
  1162 -10.7995 0.0277326 -1.40024
  1163 -10.7172 0.0270625 1.40112
  1164 171.485 -1.45786 -0.415974
  1165 -17.7171 0.498958 0.428352
  1166 -17.6714 0.498616 -0.417884
  1167 88.3956 -6.84724 -8.17876
  1168 2.30072 -24.2678 -1.68037
  1169 42.4204 -1.15549 2.37972
  1170 42.4114 -1.16054 -2.41220
  1171 144.695 -2.31981 0.130943
  1172 144.975 -2.24572 -0.101901
  1173 2.46819 -23.2345 2.19528
  1174 171.935 -8.77784 -10.3529
  1175 197.457 -0.810610 4.08770
  1176 174.529 -11.1117 -14.8087
  1177 149.986 1.02760 23.0501
  1178 0.706439 -6.74883 5.09537
  1179 0.780732 -6.70305 -5.01800
  1180 110.256 -7.81681 3.80722
  1181 -7.86157 0.651404 4.29663
  1182 -7.84726 0.657053 -4.28438
  1183 291.521 46.7577 2.85063
  1184 346.023 102.814 -72.4060
  1185 178.542 -17.4819 13.1596
  1186 71.3686 -1.91070 -0.160105
  1187 71.3688 -1.88340 0.160197
  1188 372.133 36.0877 -32.9746
  1189 23.4692 -0.621219 3.51779
  1190 23.4292 -0.610977 -3.53490
  1191 165.305 -0.542807 -9.22463
  1192 105.683 -8.45647 9.29643
  1193 176.642 -17.4334 -9.99045
  1194 170.826 -12.3387 -11.8742
  1195 103.067 -3.74711 25.6757
  1196 37.1402 7.05878 -13.2187
  1197 37.1145 6.99525 13.1356
  1198 49.5979 18.2068 -30.6789
  1199 49.6538 16.8236 30.6759
  1200 13.2414 4.18935 -4.12585
  1201 13.3244 4.17601 4.15346
  1202 209.891 36.2259 -18.2537
  1203 10.2553 9.25286 -3.41501
  1204 10.5065 9.26231 3.48871
  1205 151.648 -11.4067 3.37459
  1206 288.341 39.2983 15.6406
  1207 33.3317 -1.41804 -2.34299
  1208 33.3506 -1.41718 2.31407
  1209 189.492 122.896 -110.400
  1210 139.051 8.19886 -18.3825
  1211 126.802 9.84198 7.47315
  1212 16.9454 7.44046 -4.90345
  1213 17.0281 7.43899 4.93356
  1214 0.336849 -0.0242386 0.840615
  1215 0.289988 -0.0241868 -0.849232
  1216 168.319 -13.4412 10.0547
  1217 165.771 -6.33419 5.50873
  1218 113.082 30.2975 -77.9683
  1219 261.817 56.9349 -0.832227
  1220 111.190 -3.54519 -28.4089
  1221 145.148 -4.06614 0.926052
  1222 3.63287 -0.736437 -0.213710
  1223 3.63618 -0.736006 0.212408
  1224 -5.05482 1.13303 -1.70851
  1225 -4.98759 1.12812 1.72355
  1226 96.3319 0.895085 -29.9005
  1227 180.476 -3.67485 5.89040
  1228 116.054 1.72053 41.3780
  1229 158.236 -7.53076 -4.46884
  1230 80.8101 27.8714 -60.8634
  1231 126.271 -6.44125 -30.7757
  1232 150.834 -16.1050 1.18474
  1233 185.736 -2.77922 8.94840
  1234 162.845 -2.99820 -1.78174
  1235 88.0009 -6.41081 8.23277
  1236 204.493 -12.0480 -17.0972
  1237 192.469 16.3493 29.3621
  1238 82.7566 0.360654 -23.3691
  1239 194.653 -0.934152 0.796997
  1240 151.704 19.0200 -4.18502
  1241 64.7280 -2.13226 -2.33910
  1242 64.7097 -2.10678 2.30739
  1243 298.566 65.9673 13.2084
  1244 413.673 11.0182 19.3591
  1245 0.341053 -19.1214 -3.12800
  1246 0.329502 -19.1448 3.15172
  1247 42.3817 21.8863 33.7871
  1248 102.604 -2.68773 -0.300823
  1249 102.626 -2.66830 0.340721
  1250 142.079 -14.2330 -2.43180
  1251 168.256 13.6273 25.7722
  1252 179.165 -3.19858 -3.92688
  1253 210.291 -0.442547 -0.140438
  1254 364.371 80.1590 -49.8563
  1255 53.2172 -1.94810 2.34358
  1256 53.2180 -1.95339 -2.38276
  1257 170.816 -15.8642 10.3848
  1258 303.690 71.0418 -19.2776
  1259 165.824 -6.94534 -6.16479
  1260 119.872 -8.11911 -2.27687
  1261 148.149 -16.1588 5.79974
  1262 144.889 -6.93115 1.98584
  1263 5.05607 -0.718571 -5.70125
  1264 199.277 -12.5433 19.9289
  1265 160.910 -10.3126 -6.35736
  1266 5.59124 -0.442125 6.42232
  1267 165.738 -13.8039 -28.6971
  1268 156.988 8.63538 -63.7411
  1269 259.778 31.4300 -8.25560
  1270 211.187 -0.0234533 -0.0766700
  1271 210.778 -0.220919 0.202268
  1272 163.781 -9.32491 6.75042
  1273 61.5513 7.34034 -22.9395
  1274 186.806 -16.8817 16.2615
  1275 320.412 72.6131 31.8175
  1276 77.2876 25.7115 59.2269
  1277 1.91116 -0.219216 5.29877
  1278 1.99292 -0.180946 -5.24245
  1279 197.014 -16.5383 -14.4762
  1280 76.7512 -4.04503 -3.68837
  1281 76.7321 -4.05484 3.60562
  1282 182.438 -12.1968 23.8151
  1283 4.54792 0.0820960 3.75055
  1284 4.48212 0.0856679 -3.75072
  1285 -1.06565 -3.90250 5.32861
  1286 -1.05882 -3.89419 -5.32889
  1287 29.5970 -1.02823 -3.20953
  1288 29.6252 -1.03459 3.18430
  1289 94.4351 -6.25109 -13.0534
  1290 94.8777 -2.86104 0.530165
  1291 94.8767 -2.93281 -0.493136
  1292 210.235 -0.0223372 -0.0474503
  1293 184.464 -2.70506 -10.0307
  1294 13.0476 0.742290 -4.62129
  1295 13.1118 0.732032 4.62097
  1296 94.8156 -6.62248 12.9286
  1297 212.507 -0.130992 0.0464658
  1298 200.196 0.0510622 -0.217763
  1299 200.205 -0.0675555 0.163246
  1300 262.682 54.0744 5.69191
  1301 194.525 -1.04533 -1.76449
  1302 172.033 -1.35140 0.353241
  1303 190.695 -2.66514 -5.38582
  1304 208.918 -0.554505 0.809685
  1305 214.974 21.5157 26.2480
  1306 249.615 51.1015 8.59453
  1307 201.971 -0.699939 -2.73844
  1308 -1.60570 -0.423795 1.45151
  1309 -1.61194 -0.423455 -1.45576
  1310 109.817 -6.68407 2.41014
  1311 109.793 -6.37408 -2.31940
  1312 216.957 23.9270 -25.1232
  1313 43.8396 15.0307 -25.1196
  1314 44.1222 14.6058 24.8272
  1315 143.634 -0.0205973 -11.5193
  1316 150.546 -1.96718 0.0343153
  1317 150.362 -1.94680 -0.0650987
  1318 -3.72762 -0.681084 5.44201
  1319 -3.72080 -0.671591 -5.43953
  1320 165.840 -0.422919 9.21262
  1321 254.574 50.7141 0.758863
  1322 14.8583 -0.658941 -2.02742
  1323 14.8948 -0.660516 2.00793
  1324 188.245 -18.3989 9.72068
  1325 -0.148316 2.87075 5.05924
  1326 -0.0946478 2.88831 -5.02496
  1327 31.4427 -0.702963 -0.617632
  1328 31.4478 -0.690310 0.604772
  1329 143.683 -0.262073 11.6900
  1330 2.09564 0.335056 -0.294866
  1331 2.11181 0.336335 0.288425
  1332 192.621 -2.00443 3.57612
  1333 266.934 49.0760 1.86192
</Section>

newXOutput 25

<Section columns = "stress_xx | stress_yy | stress_xy">
  1 225.175 -0.482379 0.405476
  2 225.563 -0.661418 -0.527079
  3 -0.188627 0.220811 -0.599163
  4 -0.145488 -0.229295 -0.138849
  5 421.723 158.407 134.513
  6 428.238 181.954 -136.038
  7 -0.143810 -0.227839 0.136673
  8 -0.191392 0.219596 0.597692
  9 226.788 -0.333999 -0.372937
  10 224.963 -0.695445 -0.523716
  11 225.042 -0.523952 0.552739
  12 223.762 -0.212034 0.294521
  13 223.181 -0.649591 -0.0626372
  14 222.603 -0.614372 1.00293
  15 218.975 -0.393061 1.01489
  16 219.649 -1.55012 1.45153
  17 212.206 -1.25705 3.02349
  18 207.361 -0.494015 3.62054
  19 200.782 -0.654790 3.87829
  20 189.526 -0.576135 5.33596
  21 177.404 -0.517112 6.15040
  22 162.429 0.749306 8.35968
  23 142.062 1.15180 7.53218
  24 133.997 -0.137937 10.7373
  25 108.845 1.57089 7.60643
  26 93.7066 2.10938 5.93329
  27 89.7753 0.921796 4.36509
  28 85.5515 3.06196 0.310704
  29 87.8506 3.34379 -5.83138
  30 92.5312 0.917060 -7.33065
  31 111.153 0.326770 -9.82830
  32 130.078 -0.981220 -10.2814
  33 142.796 0.951883 -7.52566
  34 162.661 0.857431 -8.36832
  35 176.916 -0.619950 -6.58417
  36 190.796 -0.685469 -5.04579
  37 199.908 -0.453722 -3.93461
  38 206.712 -0.518203 -3.34075
  39 213.946 -0.713012 -1.96331
  40 216.916 -0.676741 -1.89671
  41 219.778 -0.647213 -1.65534
  42 222.720 -0.751689 -0.393776
  43 223.902 -0.979545 -0.712632
  44 222.684 0.192067 -0.113102
  45 224.790 -0.461791 -0.614638
  46 225.920 -1.06734 0.570763
  47 227.092 -0.589742 -0.0366099
  48 215.037 0.342764 -0.338417
  49 201.596 -0.527548 -0.648496
  50 186.502 -1.52932 -0.973533
  51 170.986 -1.13240 -0.714011
  52 157.550 -2.12771 -0.659533
  53 143.444 -2.35619 -0.612527
  54 129.285 -2.02325 -0.335405
  55 114.466 -2.23610 -0.441773
  56 101.977 -2.48301 -0.565863
  57 85.4255 -2.42724 -0.476583
  58 68.4305 -1.47681 -0.305108
  59 54.4030 -0.931239 -0.250468
  60 37.1098 -0.586644 -0.134141
  61 24.5403 -0.625560 -0.890573
  62 12.8468 -0.933814 -0.311075
  63 1.06604 0.112709 0.507950
  64 -1.92632 0.831746 0.164966
  65 -2.71241 0.342793 0.511282
  66 -2.14836 0.157326 0.486201
  67 -4.38724 0.481658 0.162872
  68 -5.17109 0.624200 1.04190
  69 -5.30905 0.215656 0.307553
  70 -9.14086 0.454800 0.347976
  71 -10.8463 0.324824 0.984400
  72 -11.3393 0.118895 1.02263
  73 -15.4402 0.434627 0.758953
  74 -16.8788 0.640995 1.52966
  75 -18.3868 0.389166 0.472116
  76 -20.3062 0.279634 0.772356
  77 -20.8808 0.302222 0.244052
  78 -22.6448 0.706394 -0.575657
  79 -22.6992 0.484603 -0.435748
  80 -20.5392 0.374326 -0.765304
  81 -17.5545 0.472966 -1.39758
  82 -14.1645 0.198358 -2.06195
  83 -10.4833 0.104640 -2.12580
  84 -6.26726 -0.227370 -2.21582
  85 -2.68633 -0.178208 -1.27927
  86 -1.11517 -0.457642 -0.792083
  87 -0.194835 -1.13185 -0.679134
  88 -0.335401 -2.89187 -1.22882
  89 -0.378297 -5.74896 -2.18080
  90 -0.0887458 -10.8106 -2.37807
  91 0.118718 -15.0431 -3.00885
  92 0.293782 -21.6805 -2.46553
  93 0.895205 -25.8398 -2.92627
  94 0.133212 -28.0819 -2.48288
  95 -0.0569414 -32.4372 -1.59578
  96 0.882740 -31.9466 -0.629468
  97 3.52820 -41.6132 1.33127
  98 3.02852 -23.9447 4.90872
  99 7.33779 -12.9594 11.2748
  100 22.4694 30.8784 37.1182
  101 98.7061 117.558 109.422
  102 552.893 57.6260 82.5305
  103 458.938 16.1550 29.5801
  104 436.230 6.89742 10.2272
  105 423.427 4.56691 -0.0496453
  106 431.485 6.57459 -8.37038
  107 463.501 13.8130 -24.5683
  108 547.152 46.0357 -77.1370
  109 63.7956 133.465 -90.4604
  110 15.7537 20.8827 -28.4579
  111 5.39451 -16.6417 -9.22517
  112 2.74235 -26.1213 -4.13408
  113 3.51363 -43.1731 -0.953824
  114 0.846397 -32.6442 0.900063
  115 -0.108223 -32.7889 1.73755
  116 0.100283 -28.2199 2.55920
  117 0.877471 -25.8751 2.95881
  118 0.286936 -21.6718 2.47777
  119 0.113480 -15.0241 3.01354
  120 -0.0913021 -10.7855 2.37700
  121 -0.378676 -5.73272 2.17651
  122 -0.336125 -2.87765 1.22469
  123 -0.194727 -1.12652 0.675433
  124 -1.10874 -0.457071 0.789017
  125 -2.67501 -0.178969 1.27601
  126 -6.25303 -0.229142 2.21403
  127 -10.4672 0.102733 2.12647
  128 -14.1564 0.196297 2.06578
  129 -17.5602 0.471547 1.40478
  130 -20.5589 0.374262 0.772928
  131 -22.7368 0.484264 0.443099
  132 -22.6969 0.706473 0.583220
  133 -20.9491 0.303064 -0.237644
  134 -20.3863 0.280662 -0.767809
  135 -18.4724 0.390305 -0.468689
  136 -16.9701 0.642317 -1.52863
  137 -15.5332 0.435837 -0.758135
  138 -11.4298 0.119630 -1.02337
  139 -10.9358 0.326076 -0.986375
  140 -9.22504 0.456582 -0.350766
  141 -5.38126 0.216860 -0.312441
  142 -5.23071 0.625354 -1.04886
  143 -4.43610 0.481920 -0.169094
  144 -2.18104 0.157071 -0.492142
  145 -2.73279 0.342150 -0.516015
  146 -1.93874 0.830587 -0.169114
  147 1.06016 0.112022 -0.510320
  148 12.8409 -0.937208 0.308510
  149 24.5342 -0.634408 0.887665
  150 37.1065 -0.602476 0.130435
  151 54.4036 -0.954218 0.248477
  152 68.4301 -1.50358 0.304684
  153 85.4182 -2.45057 0.480002
  154 101.952 -2.49507 0.573238
  155 114.421 -2.22272 0.459506
  156 129.217 -1.97172 0.356146
  157 143.350 -2.23320 0.580436
  158 157.615 -2.16154 0.582087
  159 171.033 -1.34900 0.752336
  160 186.652 -1.48909 0.890780
  161 202.015 -0.409512 0.657204
  162 214.637 0.330428 0.327684
  163 121.882 -10.9246 -8.90991
  164 121.371 -11.1212 8.89013
  165 35.5095 9.96695 -13.5151
  166 35.8652 10.0062 13.4496
  167 144.854 -7.36306 36.2112
  168 152.049 -8.29648 -35.2066
  169 68.8758 -3.52739 3.99324
  170 68.8742 -3.49102 -4.06325
  171 155.026 -5.02312 1.57957
  172 151.791 -5.03779 -1.53363
  173 205.239 37.2820 -5.70552
  174 210.136 0.933627 -29.0808
  175 205.729 2.62089 31.0032
  176 47.3456 -1.72615 -8.96603
  177 47.3416 -1.71164 8.94282
  178 181.566 -18.0625 11.2248
  179 181.302 -13.9491 -14.9744
  180 2.01245 3.85483 4.96853
  181 2.08604 3.88002 -4.92535
  182 247.967 50.2115 9.94143
  183 46.4838 20.5271 -31.9316
  184 49.9877 20.7380 34.3696
  185 175.733 -7.92861 7.37354
  186 264.076 54.7822 -5.98883
  187 112.226 -3.75709 -0.827897
  188 112.035 -3.86555 0.814348
  189 180.974 -5.40387 -6.66487
  190 242.436 -2.78887 -0.986302
  191 41.5047 -1.22223 1.46048
  192 41.4984 -1.23434 -1.48737
  193 17.4081 2.44567 -5.82609
  194 17.4904 2.42059 5.83879
  195 99.9802 -3.87243 -22.1901
  196 99.5851 -4.09277 22.4848
  197 119.817 -7.53685 -2.55855
  198 120.060 -7.49421 2.79472
  199 28.9646 -1.01194 4.66095
  200 28.9259 -0.997268 -4.67488
  201 239.935 -5.62857 13.4677
  202 194.878 -19.5467 -5.80405
  203 185.978 -1.51902 -1.17745
  204 181.631 -1.90107 1.22440
  205 181.336 21.1918 21.5978
  206 7.34086 5.80983 -1.54943
  207 7.62346 5.79215 1.67431
  208 182.203 -7.43334 25.1886
  209 165.902 12.5667 -24.4695
  210 119.502 25.6636 -75.8679
  211 125.656 21.6426 70.4262
  212 2.20814 3.93193 0.169630
  213 2.27689 3.93023 -0.137590
  214 181.515 -6.58291 -25.9770
  215 319.578 45.0974 -2.83791
  216 150.935 -16.5855 11.9931
  217 152.124 -16.4826 -11.2639
  218 150.870 -10.5407 -2.03869
  219 188.811 -2.65243 3.65242
  220 89.1131 -5.99457 -7.64150
  221 87.6518 -5.96800 7.91708
  222 52.8735 1.18087 -13.8036
  223 52.9445 1.15882 13.6731
  224 193.144 -20.7693 -0.413529
  225 149.574 -11.2276 1.40164
  226 188.168 -2.56730 -2.95076
  227 145.252 -3.32321 0.407814
  228 146.572 -3.06466 -0.122775
  229 184.716 -8.13258 14.9125
  230 13.8966 0.202006 -4.96408
  231 13.9587 0.194692 4.96093
  232 -2.45376 -1.68857 -6.35682
  233 -2.46581 -1.70305 6.36237
  234 25.3488 -1.16063 -2.64902
  235 25.3792 -1.16342 2.62308
  236 75.7676 -2.08701 1.74577
  237 75.7907 -2.12964 -1.76315
  238 88.4981 5.98595 -32.9947
  239 88.5073 4.96786 32.6090
  240 187.490 -5.68884 -12.7479
  241 86.2936 -4.96843 -13.0044
  242 86.3621 -5.12316 12.7955
  243 162.995 2.35857 27.5685
  244 140.809 12.1714 1.66034
  245 160.372 -15.9216 -2.00377
  246 0.568803 -4.34292 -6.03347
  247 0.515291 -4.38449 6.08030
  248 9.82950 8.98082 -10.2662
  249 10.4865 8.60980 10.8548
  250 157.632 -15.5670 0.931691
  251 287.624 51.7617 -0.808017
  252 13.9648 9.60408 -3.87064
  253 14.1400 9.59759 3.92554
  254 -6.45173 1.25774 4.50783
  255 -6.42115 1.26421 -4.48695
  256 289.455 48.1613 2.32136
  257 98.4922 -4.52584 -2.65061
  258 98.4119 -4.44669 2.57909
  259 196.395 -13.5250 23.8693
  260 359.066 58.2788 35.3305
  261 56.5326 -2.92105 -7.27720
  262 56.5136 -2.94163 7.26620
  263 198.724 29.6665 -20.9486
  264 345.840 65.4265 -31.6736
  265 239.973 23.0185 21.3252
  266 263.264 13.7885 -46.6357
  267 160.595 -7.29052 3.40127
  268 181.769 0.616011 -31.2192
  269 173.166 -12.0723 -8.97992
  270 193.729 -3.29147 8.15901
  271 -1.13474 1.83391 -1.50049
  272 -1.06638 1.82779 1.52276
  273 192.102 -7.36559 -45.6063
  274 19.2697 6.19622 -5.76691
  275 19.3643 6.18369 5.80082
  276 184.870 -4.44236 -16.0075
  277 25.8191 25.0729 -33.0635
  278 18.8138 -0.0722107 -0.598542
  279 18.8243 -0.0672369 0.587494
  280 195.570 -12.4317 -24.8265
  281 33.2479 14.9272 -17.2515
  282 33.7364 14.8400 17.2988
  283 7.51412 -0.277015 3.49636
  284 7.44987 -0.273246 -3.50073
  285 160.377 -6.88886 -3.29932
  286 25.9901 24.7885 34.0045
  287 258.969 16.7111 55.0897
  288 67.5713 -2.57018 -2.31436
  289 67.5528 -2.55156 2.27242
  290 127.265 -4.95278 -0.514482
  291 127.199 -5.39587 0.649957
  292 108.620 10.0042 -50.8891
  293 176.551 -19.4419 -4.45584
  294 202.959 -0.996701 1.64578
  295 104.546 9.95695 49.1571
  296 121.686 -2.96470 -0.134049
  297 121.638 -2.96157 0.243132
  298 173.429 -12.5874 9.15642
  299 200.745 -1.91856 -3.97138
  300 -2.86590 0.760223 -2.59707
  301 -2.79139 0.754591 2.60679
  302 250.124 50.1113 -2.90810
  303 220.379 -10.8555 13.8829
  304 200.064 -0.754478 -0.478104
  305 203.721 -0.650467 0.432866
  306 198.363 -18.0522 15.2201
  307 244.837 24.5724 -20.0854
  308 211.800 39.5288 12.3339
  309 93.9377 -5.60507 -4.56366
  310 93.0505 -5.71187 4.66941
  311 202.786 -0.951275 -1.16729
  312 130.994 -10.0743 -24.4181
  313 128.654 -9.98756 3.34860
  314 122.689 -6.87966 28.0390
  315 198.854 -2.18626 4.70567
  316 42.2652 -1.93651 -4.48794
  317 42.2883 -1.95117 4.46369
  318 182.789 -6.96479 45.0875
  319 114.326 -8.90826 -5.67642
  320 212.125 26.8766 26.4385
  321 66.2547 4.69448 -20.9785
  322 63.7272 4.90327 20.7874
  323 16.4331 -0.385454 -1.09077
  324 16.4558 -0.382594 1.07313
  325 175.171 -3.18768 2.31632
  326 167.882 -2.00209 0.437778
  327 166.908 -2.22917 -0.498409
  328 183.369 -4.68294 16.9317
  329 13.0414 -0.549214 2.55746
  330 12.9891 -0.543794 -2.57215
  331 50.7658 -1.14525 -0.903158
  332 50.7635 -1.12354 0.891375
  333 1.63112 -9.02449 -3.64821
  334 1.51556 -9.09050 3.78588
  335 139.630 5.97649 18.6101
  336 222.577 -10.3618 -11.7217
  337 142.658 -7.29878 1.38068
  338 162.165 -2.89000 -1.36844
  339 166.912 20.8373 -11.5453
  340 30.9486 -0.961723 -6.60318
  341 30.9857 -0.962094 6.59439
  342 138.590 -6.86120 -0.628238
  343 37.6367 1.40828 -9.57102
  344 37.7061 1.37436 9.53493
  345 6.86197 6.22741 0.636533
  346 6.95362 6.22509 -0.598528
  347 169.432 -18.4448 15.7755
  348 381.904 25.2982 9.74987
  349 147.958 2.09342 -22.0786
  350 124.993 -11.2284 14.5140
  351 124.354 -11.0108 -14.9909
  352 185.149 -3.35249 30.9910
  353 163.481 -1.28029 21.9268
  354 167.165 -17.8373 -16.3379
  355 97.8522 -2.24340 -0.0352975
  356 97.8384 -2.27433 0.0603585
  357 184.934 -12.1042 19.4721
  358 253.130 50.7470 1.87884
  359 199.698 -2.08354 -6.03703
  360 48.4042 -1.82185 -3.17116
  361 48.4190 -1.82302 3.13263
  362 187.534 -18.2884 -19.8550
  363 195.594 13.3550 -31.0494
  364 127.773 6.89258 -11.9127
  365 186.171 -12.5198 -22.1272
  366 -6.19162 0.161595 -4.91584
  367 -6.19863 0.154398 4.92226
  368 156.428 -3.35090 1.01164
  369 -2.22784 -1.33377 -2.86469
  370 -2.22541 -1.33431 2.85910
  371 121.570 57.4477 -92.7482
  372 4.41985 3.81173 3.64479
  373 4.53934 3.84324 -3.58141
  374 162.145 -1.35336 -21.7407
  375 88.5713 -3.59417 1.98296
  376 88.6402 -3.64692 -2.01226
  377 -0.669745 -6.69582 5.58737
  378 -0.659588 -6.68349 -5.58118
  379 98.3583 60.3686 87.1719
  380 72.2336 -3.77003 -10.0222
  381 72.2858 -3.59967 10.0296
  382 22.7472 16.4705 -15.8170
  383 23.2387 16.4152 15.7155
  384 -9.83178 1.37829 1.99404
  385 -9.79018 1.38022 -1.97205
  386 188.393 12.3128 30.9723
  387 144.722 -15.1413 6.16469
  388 144.874 -13.1043 1.71116
  389 176.392 -20.1949 -0.873335
  390 42.6147 5.45878 -13.4870
  391 42.7558 5.44668 13.4613
  392 3.72988 -6.79627 -0.257667
  393 3.51683 -6.88478 0.561249
  394 176.211 25.3065 7.66017
  395 180.349 -4.88983 5.53066
  396 101.380 -7.78226 9.05657
  397 61.8571 -1.48682 -12.1446
  398 61.8744 -1.49790 12.0410
  399 130.287 -3.61902 -0.000862562
  400 130.140 -3.12898 -0.110271
  401 100.517 -8.00134 -9.68601
  402 78.1674 -1.27592 -16.6969
  403 78.1491 -1.38595 16.8348
  404 187.604 -17.3284 -14.2011
  405 107.418 -8.12143 5.38754
  406 170.840 -4.90267 3.52891
  407 170.560 -4.42823 -3.01377
  408 142.139 -13.0015 -2.23732
  409 207.028 -0.696077 -1.73294
  410 67.8528 26.8525 -51.4229
  411 193.243 -2.68086 9.83395
  412 206.239 -0.893531 2.50121
  413 70.8197 -3.70710 5.82697
  414 70.8580 -3.65489 -5.82193
  415 144.061 -14.9577 -6.42081
  416 19.5670 8.94591 6.18831
  417 19.4595 8.94098 -6.19675
  418 385.986 25.2785 -20.0082
  419 167.108 -9.31573 -5.45101
  420 208.805 -0.518825 0.999435
  421 63.9643 24.9699 48.8611
  422 306.719 51.8571 9.27074
  423 180.141 -2.41066 -1.86868
  424 133.179 -9.47806 -1.65372
  425 54.5324 10.5458 -23.7896
  426 58.1795 9.78728 23.6476
  427 165.008 -10.2658 5.54303
  428 173.958 -2.27094 -16.2248
  429 -3.29154 -0.142460 2.60403
  430 -3.36827 -0.140589 -2.60329
  431 61.9174 14.7771 -32.2886
  432 62.1122 14.8338 32.1857
  433 6.34882 3.46015 -2.40682
  434 6.42454 3.45195 2.43459
  435 147.899 -2.48787 0.462098
  436 147.721 -2.41206 -0.409752
  437 184.399 -8.32665 -15.5740
  438 -0.688854 -0.762535 6.99049
  439 -0.656162 -0.734343 -6.96579
  440 190.151 -18.9293 12.6518
  441 180.170 -4.53659 -4.93006
  442 291.463 55.9144 -7.50030
  443 8.48810 -0.504492 1.17534
  444 8.44536 -0.504618 -1.19081
  445 353.598 98.0096 42.4011
  446 6.75087 0.660548 -9.31943
  447 19.8630 1.08193 -6.38310
  448 19.9300 1.06520 6.37947
  449 352.199 100.107 -40.2527
  450 7.15632 1.44382 10.3575
  451 -9.70941 1.09663 0.758732
  452 -9.65622 1.09471 -0.738181
  453 18.5893 12.6894 -8.90448
  454 18.9205 12.6898 8.95575
  455 226.752 35.1536 -22.2272
  456 182.570 -6.95667 -10.2671
  457 207.632 -0.585182 -0.901287
  458 190.558 -2.85768 -11.4835
  459 -2.49672 1.23644 6.42524
  460 -2.46355 1.25435 -6.40225
  461 184.420 -7.28465 11.8402
  462 118.462 -6.43310 -1.98044
  463 118.085 -6.50374 1.56728
  464 162.154 -17.9215 -1.37543
  465 114.930 -1.78846 -34.6624
  466 175.831 -2.72762 16.6023
  467 144.209 -4.32720 -0.521591
  468 213.507 -16.5751 -0.750328
  469 111.273 0.754619 37.2417
  470 6.04013 -0.132915 2.51225
  471 5.97551 -0.129610 -2.51964
  472 232.591 46.0664 -10.3319
  473 187.909 -1.08175 0.190721
  474 187.244 -1.26506 -0.367178
  475 140.110 -9.13793 0.0640398
  476 59.0609 -1.92259 -1.72386
  477 59.0514 -1.89729 1.69762
  478 34.3851 -0.338981 -7.83514
  479 34.4217 -0.345843 7.81489
  480 114.207 4.44422 7.09971
  481 27.2121 -0.929739 3.71586
  482 27.1762 -0.920391 -3.73857
  483 30.3101 3.04925 8.80535
  484 30.2091 3.09437 -8.80034
  485 180.988 -13.9859 14.4170
  486 99.9089 -6.19773 -15.6096
  487 91.6468 -2.75328 0.941878
  488 91.6843 -2.82970 -0.945022
  489 100.983 -6.39650 15.6006
  490 283.959 66.7364 -3.86206
  491 -4.54585 -0.706341 -3.75165
  492 -4.54388 -0.709879 3.74993
  493 68.7239 -1.79556 -0.699675
  494 68.7187 -1.76427 0.695807
  495 0.0486358 -12.4498 -4.77367
  496 0.0191608 -12.4897 4.81430
  497 165.556 -2.11831 0.832426
  498 113.422 5.48888 -3.54167
  499 155.372 16.3626 10.3217
  500 99.4066 -1.02303 -27.3720
  501 47.0180 -2.39621 5.66197
  502 47.0187 -2.37552 -5.67512
  503 -13.7904 0.423840 -0.770159
  504 -13.7182 0.421375 0.779191
  505 195.118 -3.93886 -30.9559
  506 12.3613 0.115357 -0.816871
  507 12.3784 0.117937 0.804260
  508 162.433 -12.6573 -4.77545
  509 173.305 -14.6938 -8.81730
  510 34.5313 25.6500 -34.2399
  511 145.519 3.35442 -55.4608
  512 1.32143 4.19846 3.38885
  513 1.38963 4.20667 -3.35150
  514 87.2274 -3.87522 -3.02063
  515 87.1785 -3.83618 2.93990
  516 252.153 9.29339 -8.18689
  517 180.321 -10.5343 -13.0404
  518 33.6422 24.1746 33.7355
  519 178.703 -20.4478 3.64156
  520 171.661 -16.2929 7.14502
  521 33.7544 -0.810463 -2.42435
  522 33.7703 -0.806601 2.39581
  523 138.031 1.42193 17.0720
  524 100.519 -7.28041 -5.78811
  525 190.816 -4.01493 7.48310
  526 -0.799662 -4.62365 -3.63278
  527 -0.801644 -4.62057 3.62802
  528 132.452 -11.8121 17.5489
  529 203.170 -15.8907 -16.8427
  530 266.895 16.8202 -7.02250
  531 142.393 -4.50419 0.637592
  532 39.6181 -0.700720 -0.723695
  533 39.6203 -0.684877 0.715929
  534 89.1756 0.683526 26.3151
  535 253.538 41.5402 15.9492
  536 260.760 46.9105 -88.5733
  537 231.230 0.474807 16.4804
  538 165.456 -18.4323 0.468071
  539 398.448 31.6661 26.7303
  540 291.555 69.2744 6.10984
  541 38.7336 -1.58936 6.20538
  542 38.7090 -1.57273 -6.21944
  543 158.923 -13.0378 3.78417
  544 10.9181 5.58447 -2.09326
  545 11.0048 5.58015 2.12649
  546 200.641 -16.9653 16.8152
  547 161.479 8.58973 25.3283
  548 202.859 -1.18516 4.14067
  549 148.573 -8.66665 2.00248
  550 210.540 0.253071 -58.4587
  551 336.921 82.7574 56.1895
  552 161.781 -2.80160 -0.769131
  553 198.867 -1.91277 -6.56580
  554 30.0416 12.6451 -12.6973
  555 30.2622 12.4909 12.6320
  556 111.947 -4.23249 -1.22506
  557 111.892 -4.12244 1.26009
  558 1.22055 -15.9498 -1.06582
  559 202.205 -7.55892 27.8400
  560 7.17436 6.62952 1.43523
  561 7.29516 6.64643 -1.37956
  562 1.44131 -15.4594 1.49342
  563 183.597 -8.42249 -22.3373
  564 211.545 12.8887 -30.0631
  565 210.698 14.6551 30.0413
  566 9.69726 7.56865 6.57580
  567 9.19152 7.77739 -6.40965
  568 -7.53904 0.210033 1.93157
  569 -7.61878 0.212041 -1.92832
  570 195.832 3.57730 60.3737
  571 105.034 -5.61763 2.83763
  572 105.144 -5.59707 -2.91508
  573 236.817 -5.64500 -29.7716
  574 27.3208 -0.366997 1.41050
  575 27.3091 -0.374122 -1.42952
  576 10.6069 -0.364718 -0.341037
  577 10.6148 -0.362277 0.336636
  578 258.691 46.0495 -13.3850
  579 24.0793 32.4053 -38.0785
  580 131.517 2.55419 -14.4346
  581 188.862 30.3038 -13.1131
  582 2.57382 -0.608483 4.62825
  583 2.68837 -0.569134 -4.55145
  584 196.784 84.3114 104.719
  585 164.171 -4.22041 -2.13435
  586 4.44168 1.68680 -3.11400
  587 4.51544 1.67456 3.13031
  588 189.549 -15.3849 19.6365
  589 28.5446 31.3152 38.7724
  590 135.957 -2.48771 0.0551574
  591 135.992 -2.46328 -0.0557432
  592 -0.181883 -9.82469 4.88265
  593 -0.167136 -9.80835 -4.86662
  594 232.064 45.5913 -0.371380
  595 147.492 -12.1303 25.4821
  596 140.596 -5.69622 0.569028
  597 141.942 5.64254 58.5609
  598 -11.9604 0.576764 2.97945
  599 -11.9481 0.579865 -2.96804
  600 234.195 2.12911 -17.6318
  601 316.007 48.9390 -39.3743
  602 87.3448 8.66653 -38.4239
  603 45.7689 -1.86993 -7.61623
  604 45.8077 -1.86961 7.61495
  605 213.187 -0.561406 1.22299
  606 139.150 -5.82813 -0.754275
  607 188.509 -2.25266 2.74133
  608 183.620 -8.40790 21.8273
  609 4.73438 -0.291953 1.22301
  610 4.67989 -0.290645 -1.23460
  611 107.462 -3.47092 -0.685512
  612 107.445 -3.36507 0.651312
  613 66.3506 1.52284 -17.2481
  614 65.9067 1.54117 17.1620
  615 268.707 13.7730 13.2911
  616 444.254 33.4680 -48.7627
  617 -5.56875 -0.256455 1.70846
  618 -5.64977 -0.255536 -1.70885
  619 61.8187 -2.52985 3.22276
  620 61.8202 -2.52740 -3.27549
  621 249.368 12.2682 11.5943
  622 211.034 -0.531444 -0.389090
  623 210.547 -0.868112 0.187689
  624 148.135 -0.128840 16.9330
  625 219.317 -13.7835 -17.5298
  626 116.954 -9.47936 6.94615
  627 -3.30356 2.58851 -3.05082
  628 -3.35457 2.58495 3.07992
  629 188.664 3.56182 32.3108
  630 73.1063 -4.11531 -7.88508
  631 73.0267 -4.18649 7.90108
  632 154.039 -8.64715 -2.57968
  633 191.788 -3.95859 -6.78671
  634 107.500 -8.49614 -11.0182
  635 176.464 21.2703 -19.6127
  636 119.384 -8.30623 -20.5704
  637 41.2609 -1.08891 -1.21399
  638 41.2635 -1.07440 1.19428
  639 108.656 -8.65766 11.0505
  640 236.762 37.6426 20.2777
  641 187.814 -9.31679 27.4752
  642 153.797 -6.52570 2.29923
  643 108.666 -2.58722 0.567901
  644 108.638 -2.59452 -0.546390
  645 80.8844 -2.84141 -2.23971
  646 80.8493 -2.80672 2.20973
  647 181.235 -16.6822 -11.8991
  648 89.7849 -4.91423 3.95426
  649 89.8888 -4.89505 -4.05304
  650 179.250 27.8503 -2.64860
  651 167.426 -8.54057 5.46208
  652 211.830 -0.841973 -1.85704
  653 176.818 -3.42477 -28.3190
  654 23.2684 -1.06240 4.97214
  655 23.2229 -1.05459 -4.97909
  656 206.075 -0.991205 -3.74217
  657 35.2939 18.0559 -23.8067
  658 35.9087 18.0051 23.9252
  659 209.776 -13.6027 25.0872
  660 70.4017 17.2968 40.4568
  661 15.3717 -0.0512239 4.98361
  662 15.3156 -0.0472890 -4.98840
  663 177.963 -12.1491 33.2117
  664 176.168 22.6661 -80.4187
  665 168.475 5.08885 -28.1356
  666 223.897 40.3435 17.2219
  667 151.057 -6.37828 -1.62045
  668 272.803 49.5859 -1.20020
  669 -14.1105 0.619527 -0.377683
  670 -14.0490 0.617786 0.390752
  671 119.918 0.181804 -40.8622
  672 5.00613 -0.166311 0.967047
  673 4.97005 -0.166778 -0.978757
  674 151.185 -13.0445 -25.1612
  675 48.6005 6.80418 -16.5668
  676 48.1973 6.82456 16.5548
  677 -0.00178727 2.48282 -0.539686
  678 0.0649846 2.47900 0.567566
  679 127.713 -10.9142 -4.87441
  680 181.711 -1.77967 -10.9296
  681 84.7662 -2.42567 -0.833286
  682 84.7673 -2.39455 0.840925
  683 60.5389 -3.03145 -4.94291
  684 60.5830 -3.07549 4.92016
  685 11.1815 9.21274 -2.42742
  686 11.3773 9.23005 2.49160
  687 188.300 -1.89179 1.47866
  688 81.0731 -5.03805 6.46461
  689 81.6199 -4.94481 -6.45615
  690 207.877 -17.2220 -4.36146
  691 170.458 -17.1266 -5.30526
  692 133.274 -3.38414 0.254930
  693 132.786 -3.12385 -0.182133
  694 188.377 -20.3519 8.57963
  695 307.276 61.7169 14.6967
  696 165.261 -8.04607 -41.6939
  697 189.426 -5.14961 11.7073
  698 187.266 -7.20625 -29.3610
  699 55.8238 -1.65505 -2.25377
  700 55.8184 -1.64065 2.21880
  701 146.561 -3.15148 46.9452
  702 418.811 53.2528 48.9001
  703 26.8447 8.04990 -9.14798
  704 26.8826 8.10253 9.17892
  705 187.805 -1.44933 -0.763498
  706 189.342 -1.27624 0.775144
  707 78.4453 37.9919 -66.5679
  708 198.782 -0.951601 6.52062
  709 171.761 -2.54028 1.31790
  710 224.627 44.7995 -6.47654
  711 21.5291 4.09037 -6.49310
  712 21.6255 4.06393 6.51796
  713 215.498 -0.391451 0.251153
  714 172.418 -6.32535 -5.23316
  715 215.262 -3.89595 24.7959
  716 86.0998 -5.95283 -10.4667
  717 86.3174 -5.68781 10.3537
  718 17.2814 -0.648003 3.76620
  719 17.2311 -0.639440 -3.77919
  720 196.578 -1.00998 -1.31082
  721 169.039 30.9122 85.5691
  722 0.954605 0.918486 6.01498
  723 1.01650 0.954023 -5.97259
  724 196.714 -1.83832 -3.24656
  725 190.689 -3.19964 4.60149
  726 147.380 0.0192013 -18.1614
  727 1.33837 -18.1117 -2.62260
  728 1.24583 -18.2809 2.79274
  729 67.6915 17.7953 -40.4368
  730 150.823 -15.3378 -17.7337
  731 77.7379 37.6883 67.2623
  732 212.417 -0.361660 0.771087
  733 201.186 30.0215 21.0743
  734 144.225 13.1686 -7.17402
  735 265.620 53.6110 -1.13528
  736 209.189 -0.731734 2.47872
  737 -13.9150 0.311090 1.34399
  738 -13.9941 0.312808 -1.33849
  739 221.967 -13.5873 3.78381
  740 142.157 -3.69711 0.303940
  741 49.9895 0.180574 -11.6115
  742 50.0516 0.129123 11.5350
  743 190.995 -1.90532 -2.01612
  744 338.706 48.0724 -16.7461
  745 19.5331 -0.613657 -2.28589
  746 19.5735 -0.617438 2.26543
  747 213.890 -0.431437 -1.17969
  748 39.2720 -1.76455 -3.20261
  749 39.2931 -1.77084 3.17248
  750 207.062 -8.76502 -25.3703
  751 190.954 -1.94113 8.89086
  752 169.586 -1.30567 27.8999
  753 214.494 -0.450601 -0.0738805
  754 199.226 -1.22293 2.51859
  755 128.118 -6.60233 -0.503512
  756 162.034 -3.85559 1.69409
  757 184.008 -11.3321 -18.8990
  758 179.630 -11.1764 12.6464
  759 209.771 24.9676 -26.6719
  760 177.235 -9.74545 9.56784
  761 186.859 -11.1972 23.9448
  762 106.921 -7.04070 3.98287
  763 3.66798 -2.06876 -1.05824
  764 3.46157 -2.07950 1.25308
  765 164.275 -2.03045 0.0821254
  766 163.919 -2.01220 -0.144379
  767 198.611 -0.586258 -0.160870
  768 199.326 -0.543608 0.209330
  769 187.321 -5.17002 14.1954
  770 173.061 -16.3752 23.6080
  771 141.209 -11.2797 0.988580
  772 124.974 -7.17885 1.46043
  773 345.862 44.4621 19.7189
  774 189.927 -4.61865 -9.35222
  775 110.306 18.3858 -62.5994
  776 176.152 -8.46349 -8.33411
  777 5.13826 0.177181 -3.48153
  778 5.20950 0.170742 3.48516
  779 154.260 13.5257 -16.0993
  780 408.074 12.4201 -5.38230
  781 197.487 4.66405 -31.8027
  782 7.62103 1.19650 -14.3590
  783 202.087 36.6128 5.42690
  784 158.760 -9.84163 3.57510
  785 177.636 -4.61225 27.5099
  786 150.021 -16.0031 17.8363
  787 243.416 -3.35316 37.2545
  788 8.21622 3.04191 15.4025
  789 107.642 -0.827731 31.5439
  790 151.831 -3.50013 -0.853649
  791 169.567 -15.6717 -23.9146
  792 102.445 -7.86311 -7.45869
  793 80.7150 3.78051 -27.3613
  794 195.998 -3.43337 31.1819
  795 124.780 -8.28906 2.77596
  796 20.9798 -0.642914 2.09092
  797 20.9519 -0.643860 -2.11373
  798 182.284 -0.968159 9.69497
  799 163.887 0.652015 -27.0302
  800 -14.8386 0.644791 1.91427
  801 -14.8165 0.645899 -1.90195
  802 121.345 -3.45799 -0.0593841
  803 120.977 -3.24692 0.0219914
  804 89.6621 9.74457 39.0166
  805 78.9980 -4.49645 4.75660
  806 79.1177 -4.38146 -4.81617
  807 213.858 -0.272517 -0.680017
  808 72.4708 5.69471 26.6164
  809 -0.653139 -0.0660063 1.33260
  810 -0.722761 -0.0644304 -1.33961
  811 180.034 -5.62199 21.3796
  812 194.811 -1.35374 1.06260
  813 -10.3979 0.0991631 2.90745
  814 -10.3988 0.102386 -2.90171
  815 117.805 -7.52201 23.2528
  816 22.1097 17.9505 -19.8958
  817 22.3882 17.0572 19.5753
  818 107.731 4.84091 2.95043
  819 -4.63668 -0.0933836 -1.53806
  820 -4.55634 -0.0945189 1.53572
  821 135.907 -13.0292 -16.6716
  822 186.827 -19.8130 -7.90526
  823 -0.918166 -0.873815 -1.14721
  824 -0.915561 -0.871865 1.14307
  825 6.17613 0.335959 -0.297719
  826 6.18819 0.337806 0.291035
  827 165.738 -14.6562 5.44903
  828 138.909 -14.2808 11.2192
  829 154.686 -2.18494 0.667026
  830 138.518 -10.9945 -1.53277
  831 48.1363 -0.713652 -0.209892
  832 48.1363 -0.692755 0.204959
  833 -16.9042 0.354627 1.17605
  834 -16.8690 0.354129 -1.16405
  835 175.569 -1.88290 -1.01664
  836 151.838 5.83547 -22.9137
  837 177.417 -3.16433 -2.83402
  838 102.655 -7.71130 7.06867
  839 173.612 -3.12526 -22.4509
  840 187.122 -5.62273 -14.6734
  841 176.313 -1.56093 0.919930
  842 127.214 -5.14551 32.3888
  843 135.933 -13.2142 -5.84100
  844 80.8524 -0.593288 -20.7235
  845 81.3079 -0.0304303 20.8318
  846 115.275 -8.45180 -4.32271
  847 192.193 20.5980 27.1773
  848 184.103 -19.5928 -12.2879
  849 63.5830 -1.90330 -1.09373
  850 63.5724 -1.87135 1.07927
  851 139.815 -2.77808 -0.146931
  852 139.818 -2.80472 0.184743
  853 165.351 -1.30244 -14.6286
  854 53.8448 -2.22680 -3.97833
  855 53.8697 -2.24420 3.93775
  856 0.640003 -17.9075 -3.67105
  857 0.603923 -17.9833 3.74223
  858 25.0507 -0.370068 -0.185776
  859 25.0444 -0.378883 0.179869
  860 174.128 -2.34826 -1.43390
  861 130.703 -12.4410 10.0692
  862 205.240 -18.0778 8.47689
  863 115.558 2.44570 11.3091
  864 178.015 -3.85530 3.22320
  865 193.910 -17.6545 -15.6992
  866 26.1281 1.80684 -7.59492
  867 26.2055 1.77741 7.58763
  868 153.878 -2.37514 -0.613529
  869 122.855 -3.94169 -0.513163
  870 122.410 -3.90213 0.622247
  871 189.443 29.5772 14.7606
  872 64.7452 -0.563190 -14.1658
  873 64.6755 -0.640583 14.0950
  874 131.932 -11.8054 4.45872
  875 11.9293 8.03637 -2.04200
  876 12.0529 8.01893 2.07568
  877 111.156 -7.95023 18.7133
  878 133.889 -8.28929 -0.473791
  879 166.389 -1.34718 14.7837
  880 165.349 -18.7439 4.80634
  881 189.772 -14.6134 -21.0684
  882 130.385 -12.5440 -10.2329
  883 107.723 -7.00811 -3.79565
  884 362.314 29.9697 -5.50529
  885 173.358 -18.4346 4.29064
  886 4.32033 5.40844 2.69873
  887 4.40896 5.41797 -2.65318
  888 150.146 -14.9807 1.73746
  889 165.134 -18.7919 -9.51127
  890 4.44838 4.81992 0.847513
  891 4.52553 4.82036 -0.813120
  892 60.2583 -2.05975 10.5830
  893 60.3032 -2.12724 -10.6551
  894 73.5526 -3.64601 11.6422
  895 73.5318 -3.73767 -11.7342
  896 237.995 47.8294 8.37809
  897 -0.373102 -7.37217 -3.54401
  898 -0.375674 -7.36421 3.54194
  899 53.1529 4.60561 -15.7366
  900 52.8790 4.50948 15.5661
  901 422.439 13.7177 -21.5042
  902 4.15697 -0.0248277 0.524741
  903 4.13185 -0.0262127 -0.533914
  904 0.659622 -21.0641 1.58289
  905 0.777386 -20.7309 -1.30106
  906 -7.89351 -0.115087 2.94512
  907 -7.90143 -0.112695 -2.94397
  908 42.4150 12.5436 -18.6255
  909 43.0779 12.1293 18.3421
  910 -3.63898 0.0534727 -6.30916
  911 -3.65618 0.0401128 6.32024
  912 10.8465 1.16717 -4.83166
  913 10.9199 1.15256 4.83751
  914 45.8043 -0.434292 9.70477
  915 45.7771 -0.432346 -9.76196
  916 36.8147 -1.21453 -7.79203
  917 36.8486 -1.21158 7.77566
  918 206.759 -0.674289 -3.64436
  919 99.1081 20.4183 58.0263
  920 137.323 -13.4757 5.37867
  921 96.4229 -6.75889 5.55510
  922 187.738 19.1439 -26.7619
  923 415.335 8.98837 8.52555
  924 224.948 9.47487 -26.3468
  925 34.5092 -1.32484 4.79585
  926 34.4780 -1.30903 -4.81809
  927 4.29982 -0.181370 -3.54213
  928 4.36838 -0.183439 3.54058
  929 -0.273898 -3.75703 -6.91999
  930 -0.303170 -3.78550 6.94263
  931 99.6900 -4.13931 2.25937
  932 99.7461 -4.22818 -2.27540
  933 10.7917 3.29025 -4.12570
  934 10.8716 3.27497 4.14921
  935 59.6946 -2.58165 -8.89664
  936 59.7308 -2.58063 8.88763
  937 129.802 -0.700996 -13.3403
  938 61.4850 -3.27619 -6.01798
  939 61.4342 -3.23693 6.03873
  940 154.928 -3.91363 -1.06413
  941 187.362 -10.9073 -25.6339
  942 79.7429 -3.05493 2.54278
  943 79.7863 -3.08674 -2.58647
  944 -3.35489 -0.371711 -2.03973
  945 -3.34617 -0.372598 2.03563
  946 191.906 -15.5537 -29.5797
  947 183.017 -10.6678 16.5592
  948 160.266 -10.9682 -4.39906
  949 153.936 5.10687 24.1672
  950 69.0131 -3.78607 -6.80724
  951 69.0063 -3.70868 6.83027
  952 173.201 6.40983 29.3931
  953 160.683 13.9587 19.3245
  954 336.982 40.8113 6.96037
  955 171.035 -5.77968 4.00100
  956 87.8093 -2.36572 -1.12728
  957 87.7949 -2.31145 1.13922
  958 152.452 -12.3066 -1.77392
  959 210.413 38.7286 -12.8962
  960 188.345 -1.65553 -1.48576
  961 121.654 -2.57166 0.359465
  962 121.604 -2.54884 -0.323341
  963 14.8291 12.2931 -8.08837
  964 15.2192 12.2634 8.15695
  965 29.5134 68.6121 -64.8972
  966 174.068 -4.22532 22.3490
  967 218.994 -4.81787 -22.3678
  968 -4.50254 2.06811 1.59562
  969 -4.44698 2.06733 -1.56842
  970 455.016 105.625 -85.0476
  971 187.183 -20.5949 3.81931
  972 200.079 -19.0252 -6.22314
  973 184.043 -15.8267 15.3821
  974 226.529 44.8801 5.61586
  975 15.7751 15.2502 -18.4523
  976 41.5469 58.7481 63.2528
  977 -1.23706 -2.74776 6.84330
  978 -1.21886 -2.72688 -6.83154
  979 179.646 -4.23027 3.95845
  980 288.566 51.4390 -5.46158
  981 16.2494 14.8555 19.2507
  982 -0.803204 -2.62022 -2.26799
  983 -0.803441 -2.61333 2.26242
  984 153.436 -3.11887 0.563925
  985 113.258 -8.88390 -7.74668
  986 185.442 -14.7295 -17.9876
  987 51.2342 13.7476 -24.9870
  988 52.0667 13.9794 25.0537
  989 179.328 -4.48039 -20.0342
  990 181.958 -5.46037 6.96439
  991 -5.12259 1.12299 5.62962
  992 -5.09853 1.13471 -5.61221
  993 108.135 -7.14040 -17.5286
  994 180.084 11.2661 -29.6323
  995 134.247 -4.62741 -0.0767424
  996 95.2507 -2.42545 0.133034
  997 95.2340 -2.44476 -0.121770
  998 -2.09676 -2.37444 -4.79251
  999 -2.09985 -2.37954 4.78917
  1000 184.410 -6.30542 -8.43845
  1001 175.976 -1.51381 0.291911
  1002 175.810 -1.51537 -0.217081
  1003 242.476 38.9097 -19.0207
  1004 41.8909 3.78440 -12.2296
  1005 41.9938 3.70871 12.1965
  1006 25.6473 -0.180975 -6.40443
  1007 25.6940 -0.186350 6.39336
  1008 198.702 10.2179 32.1699
  1009 189.603 -3.23822 -4.82965
  1010 31.6792 5.19108 -9.78148
  1011 31.8061 5.15097 9.81813
  1012 198.755 -0.734377 -0.869929
  1013 183.980 -7.76379 -12.5547
  1014 179.627 -20.5650 -6.06524
  1015 6.35696 5.13268 -0.921825
  1016 6.16844 5.10835 1.00664
  1017 -9.13672 1.37228 3.47037
  1018 -9.10571 1.37586 -3.45003
  1019 103.801 4.01897 -4.93609
  1020 313.140 76.3283 -18.6888
  1021 141.045 -10.0230 0.221716
  1022 92.2203 -4.01427 -18.0962
  1023 229.049 -10.0876 4.15375
  1024 92.5866 -4.01561 18.3614
  1025 162.829 -19.1512 11.3852
  1026 184.702 -7.60180 -18.4538
  1027 60.6467 -1.27727 -0.351088
  1028 60.6454 -1.25043 0.348023
  1029 125.070 -9.57261 -3.53776
  1030 75.5569 -2.74540 -13.8965
  1031 75.5203 -2.76620 13.8151
  1032 24.5742 15.9680 -14.9350
  1033 24.9747 15.9135 14.9788
  1034 50.4091 -1.54392 -1.26840
  1035 50.4061 -1.52235 1.24768
  1036 164.568 -4.80439 2.38144
  1037 138.326 0.0615996 -47.5876
  1038 170.710 -5.16495 -3.94605
  1039 153.463 -17.0179 -6.31737
  1040 99.4119 -3.92628 1.47448
  1041 99.4996 -3.95903 -1.48194
  1042 201.483 -0.938139 1.09482
  1043 178.987 -3.86801 -3.71859
  1044 110.068 2.65256 9.29658
  1045 191.200 -1.86015 -8.26101
  1046 72.7752 20.7722 46.0342
  1047 197.394 -1.75444 -6.82252
  1048 49.8487 8.47202 -18.5764
  1049 48.3041 8.57280 17.7724
  1050 236.834 -5.16425 -5.30815
  1051 20.1167 10.7128 -7.35246
  1052 20.3076 10.6328 7.34762
  1053 3.31051 -1.05856 2.78334
  1054 3.48995 -1.02765 -2.66531
  1055 27.1968 -0.740973 1.56579
  1056 27.1787 -0.746502 -1.58970
  1057 83.0610 21.0507 -51.2374
  1058 470.737 118.986 91.4858
  1059 183.746 -6.30733 8.65766
  1060 164.295 -18.5666 -4.18302
  1061 113.008 -9.26489 -13.2756
  1062 -2.81321 2.36586 5.07184
  1063 -2.77009 2.37881 -5.04312
  1064 127.975 -6.25004 0.298317
  1065 141.712 -4.84756 -0.650405
  1066 -0.0862704 -10.4705 3.43976
  1067 -0.0827008 -10.4794 -3.43844
  1068 20.3272 12.7359 -8.89989
  1069 20.5769 12.7086 8.95614
  1070 126.205 -5.70668 -0.266759
  1071 8.81367 4.55714 2.30696
  1072 8.73362 4.56425 -2.27585
  1073 194.282 -7.96422 29.6749
  1074 139.999 -14.5394 -11.1620
  1075 113.694 -9.41572 13.2733
  1076 184.354 -3.97307 -30.9462
  1077 196.934 -1.84074 3.51366
  1078 69.3484 10.5844 30.4851
  1079 69.8524 10.1349 -29.9625
  1080 113.000 -5.58810 -25.5466
  1081 161.690 -5.38758 -2.47907
  1082 130.418 -7.55129 1.17943
  1083 153.498 -14.2173 0.801899
  1084 213.547 -0.632091 -1.96755
  1085 112.598 -4.87023 1.35999
  1086 112.548 -5.17226 -1.42855
  1087 3.36512 4.06313 4.42558
  1088 3.45764 4.09395 -4.37308
  1089 185.523 6.55977 -31.8967
  1090 40.0786 2.17823 -10.7363
  1091 40.1847 2.13120 10.7006
  1092 29.4935 0.692684 -7.56361
  1093 29.5559 0.675368 7.54544
  1094 214.598 -9.93563 37.5376
  1095 184.533 -8.45362 18.2446
  1096 88.7020 -4.01340 -15.2038
  1097 217.482 -0.757782 -1.18220
  1098 240.842 45.2274 -14.5024
  1099 196.713 -1.56267 -2.29508
  1100 183.080 -19.8894 7.75052
  1101 134.567 -10.4142 22.2103
  1102 219.256 -0.141544 0.273098
  1103 109.844 3.47154 -7.89082
  1104 154.588 -16.5201 -2.19757
  1105 88.8390 -4.20022 15.0185
  1106 156.071 -14.0941 -1.70910
  1107 196.199 -2.56565 6.31458
  1108 136.296 8.63824 12.3640
  1109 95.5357 -6.94466 -11.9194
  1110 298.844 39.7087 -14.4141
  1111 222.097 9.36247 27.4807
  1112 162.584 20.4865 3.05654
  1113 216.363 0.148764 1.08863
  1114 82.4630 -5.04495 -8.96008
  1115 56.4573 33.9532 -51.2882
  1116 101.712 2.50893 -36.7904
  1117 116.716 -8.78934 5.23741
  1118 98.1211 -7.26490 11.0835
  1119 82.2486 -4.78673 9.06329
  1120 176.113 1.30552 30.8894
  1121 133.292 -4.25946 0.227076
  1122 212.822 -1.47102 2.58492
  1123 -1.87884 -0.318976 6.89805
  1124 -1.85382 -0.298363 -6.88114
  1125 139.882 -3.57877 -0.400743
  1126 -0.468702 1.32192 6.41021
  1127 -0.423743 1.34856 -6.37864
  1128 76.5917 -2.23045 1.53528
  1129 76.6023 -2.27102 -1.53779
  1130 199.229 -1.00718 5.66752
  1131 159.360 -9.48548 -3.74687
  1132 149.026 -7.64309 -1.69757
  1133 167.082 -11.5105 6.75246
  1134 49.8141 24.3016 -37.8953
  1135 163.966 -5.83698 3.08359
  1136 22.4901 0.527661 -6.16068
  1137 22.5490 0.515666 6.15269
  1138 33.0590 21.0281 -26.2602
  1139 263.920 33.0777 10.9473
  1140 16.1924 -0.809712 3.54993
  1141 16.1387 -0.802802 -3.55815
  1142 33.6605 20.6725 25.3036
  1143 149.524 -12.3444 1.16726
  1144 73.7491 -3.30296 3.21378
  1145 73.7669 -3.32061 -3.27856
  1146 308.302 64.9454 -15.7104
  1147 165.133 -16.5253 2.51135
  1148 55.5289 31.6679 51.1605
  1149 4.55189 -2.67070 -3.50357
  1150 4.92201 -2.61132 3.94487
  1151 171.827 21.5853 15.5784
  1152 12.0445 6.85402 -2.24277
  1153 12.1469 6.85475 2.27091
  1154 166.262 -14.3508 -5.69868
  1155 -0.0810418 -16.2755 -3.26512
  1156 -0.0886384 -16.2799 3.27991
  1157 177.931 -14.9863 -11.1337
  1158 -5.57459 0.230371 1.19781
  1159 -5.65473 0.231725 -1.20144
  1160 25.9950 9.86961 -9.74782
  1161 26.1371 9.91106 9.64702
  1162 -11.1646 0.0285428 -1.46852
  1163 -11.0785 0.0278453 1.46947
  1164 178.756 -1.53969 -0.425345
  1165 -18.4400 0.520313 0.439184
  1166 -18.3923 0.519960 -0.428240
  1167 92.2461 -7.14982 -8.57884
  1168 2.40323 -25.2089 -1.78088
  1169 44.3594 -1.21100 2.50076
  1170 44.3497 -1.21625 -2.53457
  1171 150.877 -2.44066 0.140446
  1172 151.169 -2.36349 -0.110202
  1173 2.57833 -24.1309 2.31824
  1174 179.264 -9.16102 -10.7366
  1175 205.821 -0.849771 4.24382
  1176 181.975 -11.5893 -15.3722
  1177 156.496 1.07570 23.9843
  1178 0.741540 -7.01169 5.29458
  1179 0.819037 -6.96389 -5.21388
  1180 115.024 -8.16416 4.01709
  1181 -8.18675 0.681434 4.47312
  1182 -8.17183 0.687339 -4.46033
  1183 303.878 48.7206 2.98374
  1184 360.430 107.354 -75.6066
  1185 186.155 -18.2216 13.6393
  1186 74.5229 -2.00381 -0.170594
  1187 74.5232 -1.97539 0.170695
  1188 387.692 37.5969 -34.3704
  1189 24.5938 -0.650739 3.69172
  1190 24.5518 -0.640049 -3.70949
  1191 172.424 -0.566067 -9.59438
  1192 110.256 -8.82650 9.74886
  1193 184.172 -18.1713 -10.3370
  1194 178.115 -12.8691 -12.3125
  1195 107.521 -3.90361 26.8344
  1196 38.7942 7.36573 -13.8400
  1197 38.7676 7.29948 13.7533
  1198 51.7748 19.0137 -32.0616
  1199 51.8337 17.5704 32.0586
  1200 13.8682 4.37059 -4.34121
  1201 13.9549 4.35670 4.37013
  1202 218.884 37.7846 -18.9472
  1203 10.7230 9.68142 -3.61042
  1204 10.9852 9.69151 3.68741
  1205 158.134 -11.9043 3.46182
  1206 300.440 41.0953 16.4640
  1207 34.8865 -1.48314 -2.46225
  1208 34.9066 -1.48225 2.43216
  1209 197.347 128.437 -115.140
  1210 145.134 8.55949 -19.1296
  1211 132.392 10.2700 7.77839
  1212 17.7236 7.76665 -5.15819
  1213 17.8100 7.76518 5.18973
  1214 0.507798 -0.0258376 0.881452
  1215 0.458443 -0.0257830 -0.890422
  1216 175.503 -14.0185 10.4154
  1217 172.834 -6.61875 5.69860
  1218 117.925 31.6783 -81.3636
  1219 272.954 59.3661 -0.959938
  1220 115.984 -3.69004 -29.6846
  1221 151.355 -4.25962 0.935646
  1222 3.96483 -0.767325 -0.223184
  1223 3.96883 -0.766872 0.221827
  1224 -5.20915 1.18166 -1.80209
  1225 -5.13888 1.17655 1.81785
  1226 100.500 0.941097 -31.2413
  1227 188.139 -3.84475 6.10518
  1228 121.045 1.81398 43.2084
  1229 164.990 -7.86645 -4.61115
  1230 84.3030 29.1196 -63.5370
  1231 131.694 -6.70431 -32.1530
  1232 157.289 -16.7944 1.30148
  1233 193.635 -2.90490 9.29384
  1234 169.773 -3.14582 -1.83249
  1235 91.8351 -6.69487 8.63516
  1236 213.182 -12.5349 -17.7238
  1237 200.720 17.0656 30.5213
  1238 86.3557 0.377700 -24.4292
  1239 202.856 -0.987165 0.823135
  1240 158.319 19.8419 -4.35430
  1241 67.6023 -2.23349 -2.45779
  1242 67.5835 -2.20696 2.42477
  1243 311.136 68.8847 13.9395
  1244 430.823 11.4735 20.1551
  1245 0.356497 -19.9281 -3.25740
  1246 0.344447 -19.9524 3.28212
  1247 44.2445 22.8724 35.3087
  1248 107.055 -2.82019 -0.325636
  1249 107.077 -2.79997 0.367192
  1250 148.170 -14.8462 -2.59783
  1251 175.526 14.2228 26.8059
  1252 186.766 -3.35025 -4.06394
  1253 219.112 -0.466697 -0.148130
  1254 379.648 83.5568 -52.0041
  1255 55.6077 -2.03889 2.46632
  1256 55.6083 -2.04438 -2.50711
  1257 178.105 -16.5411 10.7540
  1258 316.472 74.1813 -20.2623
  1259 172.891 -7.25544 -6.37920
  1260 125.039 -8.47966 -2.42229
  1261 154.492 -16.8482 6.11352
  1262 151.091 -7.24327 2.02618
  1263 5.28702 -0.658870 -5.99432
  1264 207.754 -13.0573 20.6784
  1265 167.780 -10.7632 -6.57148
  1266 5.84573 -0.370485 6.74647
  1267 172.803 -14.3661 -29.9904
  1268 163.667 9.05650 -66.5174
  1269 270.759 32.8385 -8.46214
  1270 220.041 -0.0305674 -0.0793931
  1271 219.617 -0.236211 0.210132
  1272 170.769 -9.73398 6.98364
  1273 64.2475 7.66163 -23.9835
  1274 194.764 -17.5892 16.8659
  1275 333.934 75.7076 33.2459
  1276 80.6383 26.8664 61.8317
  1277 2.00552 -0.205713 5.50143
  1278 2.09082 -0.165705 -5.44266
  1279 205.373 -17.2095 -15.1752
  1280 80.1226 -4.22980 -3.87883
  1281 80.1028 -4.24009 3.79264
  1282 190.227 -12.7101 24.7446
  1283 4.83742 0.0840104 3.93311
  1284 4.76853 0.0877358 -3.93321
  1285 -1.10823 -4.06509 5.55387
  1286 -1.10111 -4.05643 -5.55419
  1287 30.9891 -1.07648 -3.36819
  1288 31.0189 -1.08312 3.34195
  1289 98.5348 -6.52494 -13.6674
  1290 99.0083 -2.99932 0.566820
  1291 99.0071 -3.07407 -0.528235
  1292 219.059 -0.0292249 -0.0460240
  1293 192.315 -2.82646 -10.4196
  1294 13.6910 0.771175 -4.85072
  1295 13.7582 0.760474 4.85050
  1296 98.9318 -6.91215 13.5378
  1297 221.415 -0.140670 0.0498614
  1298 208.616 0.0416268 -0.227216
  1299 208.624 -0.0820601 0.170562
  1300 273.817 56.4267 5.79691
  1301 202.733 -1.10270 -1.82456
  1302 179.326 -1.42876 0.360020
  1303 198.774 -2.78864 -5.58759
  1304 217.697 -0.583434 0.837564
  1305 224.140 22.4619 27.2527
  1306 260.234 53.3095 8.84251
  1307 210.506 -0.734285 -2.84159
  1308 -1.67592 -0.441674 1.51456
  1309 -1.68245 -0.441321 -1.51901
  1310 114.566 -6.98470 2.55432
  1311 114.542 -6.66152 -2.45942
  1312 226.207 24.9764 -26.0783
  1313 45.7709 15.6970 -26.2623
  1314 46.0660 15.2539 25.9576
  1315 149.889 -0.0201296 -11.9864
  1316 156.968 -2.07318 0.0281373
  1317 156.776 -2.05197 -0.0602587
  1318 -3.88202 -0.706582 5.67126
  1319 -3.87492 -0.696670 -5.66869
  1320 172.979 -0.441511 9.58172
  1321 265.423 52.8700 0.725975
  1322 15.6350 -0.688470 -2.12740
  1323 15.6735 -0.690115 2.10713
  1324 196.256 -19.1680 10.0475
  1325 -0.133801 3.00411 5.25385
  1326 -0.0777837 3.02248 -5.21804
  1327 32.9305 -0.737157 -0.650694
  1328 32.9363 -0.723979 0.637306
  1329 149.939 -0.271396 12.1642
  1330 2.35736 0.348417 -0.310168
  1331 2.37476 0.349747 0.303461
  1332 200.768 -2.10037 3.70582
  1333 278.294 51.1431 1.97212
</Section>

newXOutput 26

<Section columns = "stress_xx | stress_yy | stress_xy">
  1 234.197 -0.506556 0.421924
  2 234.598 -0.692365 -0.548444
  3 -0.00710432 0.229167 -0.622511
  4 -0.151973 -0.239127 -0.145273
  5 438.232 165.064 139.936
  6 445.002 189.575 -141.519
  7 -0.150224 -0.237609 0.143005
  8 -0.0105836 0.227905 0.620986
  9 235.870 -0.351136 -0.387886
  10 233.979 -0.726970 -0.545390
  11 234.065 -0.548618 0.572411
  12 232.741 -0.225388 0.302842
  13 232.144 -0.679168 -0.0686192
  14 231.553 -0.642822 1.03795
  15 227.796 -0.413179 1.04824
  16 228.506 -1.61407 1.50276
  17 220.790 -1.31015 3.13427
  18 215.772 -0.517656 3.75384
  19 208.954 -0.683783 4.02227
  20 197.283 -0.601848 5.53778
  21 184.707 -0.539031 6.38510
  22 169.165 0.778936 8.68209
  23 148.019 1.19766 7.82446
  24 139.641 -0.140765 11.1561
  25 113.516 1.63720 7.90463
  26 97.7852 2.19670 6.16712
  27 93.6994 0.964034 4.53757
  28 89.3100 3.18962 0.323441
  29 91.6998 3.48158 -6.06199
  30 96.5626 0.956448 -7.62015
  31 115.912 0.343772 -10.2146
  32 135.571 -1.01792 -10.6822
  33 148.781 0.989874 -7.81742
  34 169.404 0.891148 -8.69079
  35 184.200 -0.645959 -6.83576
  36 198.598 -0.714578 -5.23616
  37 208.049 -0.474835 -4.08086
  38 215.097 -0.543297 -3.46291
  39 222.595 -0.743791 -2.03390
  40 225.667 -0.708178 -1.96410
  41 228.629 -0.676948 -1.71478
  42 231.673 -0.785565 -0.405078
  43 232.893 -1.02256 -0.736957
  44 231.622 0.194439 -0.114178
  45 233.803 -0.484310 -0.636902
  46 234.970 -1.11363 0.594407
  47 236.185 -0.616347 -0.0376924
  48 223.676 0.347422 -0.352075
  49 209.725 -0.563283 -0.674091
  50 194.054 -1.61024 -1.01018
  51 177.940 -1.20066 -0.740610
  52 163.983 -2.23719 -0.683983
  53 149.327 -2.47501 -0.634823
  54 134.612 -2.12747 -0.346286
  55 119.209 -2.34761 -0.456796
  56 106.226 -2.60149 -0.585688
  57 89.0175 -2.54051 -0.492701
  58 71.3463 -1.54836 -0.315423
  59 56.7598 -0.977324 -0.258646
  60 38.7765 -0.615798 -0.137386
  61 25.7057 -0.653692 -0.924944
  62 13.5466 -0.972272 -0.322362
  63 1.29621 0.116981 0.529276
  64 -1.81839 0.864408 0.173365
  65 -2.63950 0.356032 0.533803
  66 -2.05921 0.163252 0.508556
  67 -4.39624 0.500422 0.173199
  68 -5.21877 0.648793 1.08841
  69 -5.37426 0.224230 0.325025
  70 -9.37209 0.473070 0.367085
  71 -11.1564 0.337449 1.02925
  72 -11.6827 0.123055 1.06981
  73 -15.9661 0.451780 0.796268
  74 -17.4747 0.666704 1.59906
  75 -19.0612 0.404753 0.498549
  76 -21.0706 0.290982 0.810529
  77 -21.6833 0.314336 0.260358
  78 -23.5348 0.735838 -0.593695
  79 -23.6019 0.504785 -0.449079
  80 -21.3641 0.389567 -0.792519
  81 -18.2647 0.492937 -1.45119
  82 -14.7430 0.207263 -2.14446
  83 -10.9152 0.109561 -2.21217
  84 -6.52689 -0.236040 -2.30657
  85 -2.79950 -0.185169 -1.33243
  86 -1.16273 -0.476412 -0.825331
  87 -0.202743 -1.17965 -0.707961
  88 -0.348665 -3.01402 -1.27997
  89 -0.393420 -5.98745 -2.27039
  90 -0.0916620 -11.2568 -2.47460
  91 0.124193 -15.6593 -3.12982
  92 0.306471 -22.5658 -2.56413
  93 0.933444 -26.8890 -3.04224
  94 0.140004 -29.2085 -2.57784
  95 -0.0583695 -33.7248 -1.65092
  96 0.918660 -33.1864 -0.638946
  97 3.67433 -43.2170 1.40592
  98 3.16045 -24.7769 5.14661
  99 7.65038 -13.2701 11.7934
  100 23.4039 32.5014 38.7149
  101 102.648 122.774 113.906
  102 574.515 59.9447 85.7384
  103 477.050 16.7959 30.7298
  104 453.478 7.17057 10.6226
  105 440.198 4.74551 -0.0518320
  106 448.561 6.83462 -8.69540
  107 481.780 14.3599 -25.5196
  108 568.546 47.8743 -80.1213
  109 66.3564 139.381 -94.1745
  110 16.4101 22.0919 -29.6949
  111 5.62472 -17.1070 -9.65684
  112 2.86182 -27.0443 -4.33916
  113 3.65896 -44.8417 -1.01261
  114 0.880711 -33.9127 0.920754
  115 -0.111776 -34.0909 1.79853
  116 0.105721 -29.3521 2.65729
  117 0.914972 -26.9256 3.07610
  118 0.299341 -22.5566 2.57685
  119 0.118740 -15.6394 3.13468
  120 -0.0943236 -11.2306 2.47347
  121 -0.393812 -5.97050 2.26590
  122 -0.349418 -2.99919 1.27566
  123 -0.202629 -1.17410 0.704102
  124 -1.15603 -0.475815 0.822132
  125 -2.78769 -0.185961 1.32903
  126 -6.51204 -0.237886 2.30469
  127 -10.8985 0.107573 2.21286
  128 -14.7344 0.205114 2.14845
  129 -18.2706 0.491455 1.45869
  130 -21.3846 0.389498 0.800471
  131 -23.6411 0.504428 0.456749
  132 -23.5891 0.735914 0.601589
  133 -21.7545 0.315210 -0.253662
  134 -21.1541 0.292049 -0.805770
  135 -19.1505 0.405937 -0.494954
  136 -17.5701 0.668079 -1.59796
  137 -16.0633 0.453039 -0.795395
  138 -11.7773 0.123821 -1.07055
  139 -11.2500 0.338753 -1.03130
  140 -9.46017 0.474925 -0.369973
  141 -5.44990 0.225482 -0.330097
  142 -5.28135 0.649997 -1.09565
  143 -4.44764 0.500697 -0.179663
  144 -2.09378 0.162988 -0.514733
  145 -2.66130 0.355366 -0.538726
  146 -1.83191 0.863208 -0.177677
  147 1.28950 0.116267 -0.531742
  148 13.5400 -0.975805 0.319697
  149 25.6989 -0.662893 0.921928
  150 38.7727 -0.632257 0.133537
  151 56.7601 -1.00121 0.256580
  152 71.3457 -1.57618 0.314987
  153 89.0097 -2.56475 0.496264
  154 106.199 -2.61400 0.593363
  155 119.162 -2.33366 0.475236
  156 134.542 -2.07384 0.367841
  157 149.229 -2.34708 0.601501
  158 164.050 -2.27243 0.603542
  159 177.989 -1.42602 0.780418
  160 194.210 -1.56840 0.924108
  161 210.161 -0.440552 0.683155
  162 223.262 0.334558 0.340968
  163 126.918 -11.3792 -9.33425
  164 126.387 -11.5841 9.31347
  165 37.0269 10.3853 -14.1282
  166 37.3977 10.4261 14.0601
  167 150.794 -7.64470 37.7579
  168 158.275 -8.61514 -36.7118
  169 71.7994 -3.68205 4.18941
  170 71.7974 -3.64416 -4.26217
  171 161.370 -5.24811 1.60904
  172 158.008 -5.26342 -1.56092
  173 213.707 38.8064 -5.91677
  174 218.715 0.996512 -30.1579
  175 214.138 2.74935 32.1632
  176 49.3789 -1.80350 -9.37860
  177 49.3751 -1.78842 9.35458
  178 188.981 -18.7968 11.6023
  179 188.709 -14.5198 -15.5099
  180 2.11660 4.02865 5.14504
  181 2.19327 4.05497 -5.10003
  182 258.098 52.2734 10.2503
  183 48.4435 21.4053 -33.3154
  184 52.0903 21.6244 35.8532
  185 182.903 -8.26529 7.62256
  186 274.830 57.0420 -6.11756
  187 116.880 -3.92916 -0.885548
  188 116.682 -4.04203 0.871516
  189 188.344 -5.63862 -6.89242
  190 252.243 -2.84167 -1.14181
  191 43.3405 -1.27791 1.53551
  192 43.3336 -1.29049 -1.56346
  193 18.1963 2.54481 -6.10469
  194 18.2821 2.51871 6.11805
  195 104.131 -4.03106 -23.1611
  196 103.720 -4.26007 23.4682
  197 124.773 -7.86028 -2.70956
  198 125.026 -7.81584 2.95539
  199 30.2693 -1.05785 4.88060
  200 30.2287 -1.04256 -4.89501
  201 249.636 -5.79005 14.1224
  202 202.818 -20.3273 -5.95209
  203 193.516 -1.59924 -1.21128
  204 189.002 -1.99810 1.25877
  205 188.840 22.0716 22.4196
  206 7.66398 6.08992 -1.65953
  207 7.95830 6.07171 1.78965
  208 189.677 -7.73390 26.1436
  209 172.795 13.0927 -25.4115
  210 124.400 26.7810 -79.0354
  211 130.806 22.5864 73.3691
  212 2.34343 4.09742 0.146277
  213 2.41513 4.09568 -0.112828
  214 188.966 -6.84786 -26.9642
  215 332.510 46.9052 -2.96219
  216 157.128 -17.2599 12.5521
  217 158.363 -17.1532 -11.7930
  218 157.059 -10.9845 -2.06653
  219 196.472 -2.77663 3.77290
  220 92.8398 -6.25089 -8.00365
  221 91.3203 -6.22330 8.29032
  222 55.1172 1.22622 -14.4248
  223 55.1916 1.20330 14.2891
  224 201.011 -21.5980 -0.516423
  225 155.712 -11.6992 1.40298
  226 195.802 -2.68870 -3.04452
  227 151.206 -3.48085 0.406785
  228 152.578 -3.21196 -0.110521
  229 192.259 -8.47024 15.4596
  230 14.5616 0.207775 -5.19825
  231 14.6265 0.200157 5.19508
  232 -2.54825 -1.75171 -6.61183
  233 -2.56079 -1.76680 6.61759
  234 26.5261 -1.21173 -2.77639
  235 26.5582 -1.21463 2.74945
  236 78.9737 -2.18471 1.83317
  237 78.9975 -2.22903 -1.85123
  238 92.1785 6.24185 -34.4120
  239 92.1882 5.18147 34.0104
  240 195.139 -5.92856 -13.2158
  241 89.9005 -5.17930 -13.5931
  242 89.9721 -5.34045 13.3759
  243 169.757 2.46283 28.6343
  244 146.737 12.6795 1.72494
  245 166.941 -16.5769 -2.01757
  246 0.599278 -4.49978 -6.26349
  247 0.543554 -4.54311 6.31224
  248 10.2564 9.42537 -10.7490
  249 10.9408 9.03927 11.3618
  250 164.092 -16.2081 0.902561
  251 299.246 53.9579 -0.998969
  252 14.5781 10.0173 -4.07849
  253 14.7606 10.0106 4.13582
  254 -6.69673 1.31252 4.67973
  255 -6.66486 1.31928 -4.65796
  256 301.133 50.2203 2.57858
  257 102.600 -4.72592 -2.79409
  258 102.517 -4.64362 2.71978
  259 204.412 -14.0649 24.7488
  260 373.504 60.6287 36.7945
  261 58.9485 -3.04887 -7.61648
  262 58.9290 -3.07035 7.60517
  263 206.913 30.8915 -21.7320
  264 359.779 68.0770 -33.0112
  265 249.732 24.0033 22.0640
  266 273.842 14.4800 -48.6374
  267 167.163 -7.60451 3.49345
  268 189.250 0.652787 -32.4120
  269 180.242 -12.5735 -9.28201
  270 201.608 -3.43461 8.45459
  271 -1.12340 1.90940 -1.58781
  272 -1.05209 1.90304 1.61109
  273 199.905 -7.61466 -47.5382
  274 20.1207 6.45468 -6.04871
  275 20.2194 6.44169 6.08417
  276 192.438 -4.62588 -16.6101
  277 26.9141 26.2168 -34.5020
  278 19.7480 -0.0769860 -0.628065
  279 19.7593 -0.0718155 0.616582
  280 203.559 -12.9263 -25.7449
  281 34.6641 15.5633 -18.0238
  282 35.1731 15.4727 18.0733
  283 7.93853 -0.289932 3.65980
  284 7.87131 -0.286005 -3.66429
  285 166.936 -7.18731 -3.38921
  286 27.0930 25.9202 35.4814
  287 269.372 17.5375 57.4327
  288 70.4468 -2.68570 -2.43341
  289 70.4278 -2.66636 2.38982
  290 132.514 -5.17431 -0.567877
  291 132.446 -5.63526 0.709391
  292 113.103 10.4402 -53.0373
  293 183.764 -20.2310 -4.55958
  294 211.154 -1.05002 1.69855
  295 108.865 10.3930 51.2360
  296 126.714 -3.10617 -0.152087
  297 126.664 -3.10296 0.265462
  298 180.516 -13.1088 9.46421
  299 208.875 -2.00732 -4.10900
  300 -2.90676 0.790385 -2.72516
  301 -2.82898 0.784525 2.73536
  302 260.361 52.1437 -2.98984
  303 229.332 -11.2663 14.3412
  304 208.137 -0.800411 -0.491503
  305 211.934 -0.690549 0.444995
  306 206.430 -18.7561 15.9244
  307 254.784 25.6237 -20.7684
  308 220.519 41.1485 12.7813
  309 97.8617 -5.84751 -4.79296
  310 96.9391 -5.95869 4.90308
  311 210.971 -1.00332 -1.20186
  312 136.388 -10.4804 -25.4818
  313 133.961 -10.4084 3.54018
  314 127.749 -7.15408 29.2503
  315 206.916 -2.28589 4.87072
  316 44.1169 -2.02187 -4.70002
  317 44.1413 -2.03716 4.67485
  318 190.227 -7.20401 46.9965
  319 119.062 -9.28450 -5.96177
  320 220.823 27.9951 27.4173
  321 69.0367 4.88970 -21.9004
  322 66.4063 5.10739 21.7019
  323 17.2647 -0.402862 -1.14434
  324 17.2888 -0.399889 1.12602
  325 182.297 -3.33704 2.38408
  326 174.718 -2.10575 0.445707
  327 173.706 -2.34211 -0.508644
  328 190.883 -4.87618 17.5705
  329 13.7109 -0.573794 2.67977
  330 13.6561 -0.568147 -2.69501
  331 52.9761 -1.19909 -0.947696
  332 52.9740 -1.17651 0.935452
  333 1.70436 -9.35777 -3.77342
  334 1.58403 -9.42656 3.91678
  335 145.498 6.23034 19.3347
  336 231.616 -10.7454 -12.0897
  337 148.518 -7.61438 1.39176
  338 168.783 -3.02951 -1.40076
  339 173.862 21.6997 -11.9876
  340 32.3214 -1.00609 -6.90947
  341 32.3603 -1.00650 6.90043
  342 144.290 -7.15914 -0.609762
  343 39.2633 1.46218 -10.0109
  344 39.3359 1.42686 9.97351
  345 7.18233 6.49352 0.626283
  346 7.27787 6.49117 -0.586614
  347 176.356 -19.1847 16.4925
  348 397.174 26.3035 10.1424
  349 154.142 2.18745 -22.9360
  350 130.151 -11.6906 15.1708
  351 129.486 -11.4637 -15.6673
  352 192.753 -3.47988 32.1709
  353 170.254 -1.32890 22.7722
  354 173.999 -18.5527 -17.0776
  355 101.937 -2.35196 -0.0264641
  356 101.923 -2.38410 0.0525350
  357 192.493 -12.5978 20.1896
  358 263.486 52.8047 1.91864
  359 207.802 -2.17766 -6.25538
  360 50.5094 -1.90332 -3.32512
  361 50.5251 -1.90457 3.28508
  362 195.172 -19.0076 -20.7438
  363 203.631 13.9177 -32.2243
  364 133.184 7.18290 -12.3782
  365 193.784 -13.0276 -22.9493
  366 -6.43866 0.170842 -5.11244
  367 -6.44595 0.163337 5.11911
  368 162.822 -3.50907 1.02817
  369 -2.31875 -1.38781 -2.98282
  370 -2.31620 -1.38837 2.97699
  371 126.511 59.9465 -96.6001
  372 4.62184 3.99240 3.76125
  373 4.74630 4.02534 -3.69519
  374 168.866 -1.40465 -22.5792
  375 92.2854 -3.75551 2.09118
  376 92.3569 -3.81036 -2.12163
  377 -0.694324 -6.96323 5.81142
  378 -0.683750 -6.95041 -5.80499
  379 102.380 62.9868 90.8001
  380 75.2773 -3.93285 -10.4831
  381 75.3319 -3.75560 10.4909
  382 23.7214 17.1912 -16.5329
  383 24.2333 17.1339 16.4274
  384 -10.2043 1.43668 2.06087
  385 -10.1609 1.43870 -2.03793
  386 196.150 12.8310 32.1510
  387 150.668 -15.7640 6.48227
  388 150.827 -13.6487 1.84270
  389 183.597 -21.0116 -0.986915
  390 44.4327 5.68437 -14.0962
  391 44.5798 5.67188 14.0695
  392 3.89295 -7.01733 -0.231791
  393 3.67111 -7.10966 0.547910
  394 183.530 26.3504 7.95063
  395 187.692 -5.10470 5.71599
  396 105.597 -8.11065 9.48229
  397 64.4737 -1.55392 -12.6951
  398 64.4921 -1.56550 12.5875
  399 135.655 -3.78742 -0.0243114
  400 135.502 -3.27760 -0.0913683
  401 104.699 -8.33845 -10.1374
  402 81.4410 -1.33212 -17.4398
  403 81.4224 -1.44665 17.5836
  404 195.262 -18.0294 -14.6954
  405 111.879 -8.46660 5.65756
  406 177.806 -5.12053 3.63612
  407 177.512 -4.62744 -3.10233
  408 147.983 -13.5420 -2.38971
  409 215.383 -0.736179 -1.78901
  410 70.6802 28.0047 -53.6064
  411 201.121 -2.79679 10.1989
  412 214.572 -0.940609 2.58606
  413 73.8162 -3.86900 6.10580
  414 73.8557 -3.81461 -6.10054
  415 149.981 -15.5730 -6.74863
  416 20.4222 9.32385 6.49202
  417 20.3101 9.31865 -6.50069
  418 401.411 26.2830 -20.8094
  419 173.938 -9.70941 -5.61930
  420 217.215 -0.551997 1.03171
  421 66.6354 26.0463 50.9416
  422 319.157 53.9480 9.68284
  423 187.458 -2.52797 -1.92228
  424 138.666 -9.87934 -1.77364
  425 56.8307 10.9894 -24.8305
  426 60.6280 10.1983 24.6823
  427 171.757 -10.6971 5.71238
  428 181.125 -2.36335 -16.8451
  429 -3.32473 -0.149378 2.72667
  430 -3.40491 -0.147432 -2.72584
  431 64.5132 15.4035 -33.6819
  432 64.7162 15.4624 33.5748
  433 6.66724 3.60359 -2.53971
  434 6.74622 3.59508 2.56874
  435 153.956 -2.61228 0.471687
  436 153.771 -2.53342 -0.417312
  437 191.931 -8.67181 -16.1464
  438 -0.707018 -0.781032 7.26284
  439 -0.672969 -0.751632 -7.23711
  440 197.908 -19.6921 13.0807
  441 187.502 -4.73782 -5.09307
  442 303.311 58.1798 -7.86920
  443 8.99096 -0.526425 1.23337
  444 8.94600 -0.526554 -1.24944
  445 367.823 102.055 44.2383
  446 7.04174 0.810289 -9.75688
  447 20.7646 1.12380 -6.68214
  448 20.8345 1.10638 6.67849
  449 366.392 104.248 -42.0286
  450 7.46478 1.62560 10.8380
  451 -10.0656 1.14148 0.773231
  452 -10.0101 1.13949 -0.751779
  453 19.3925 13.2396 -9.32793
  454 19.7376 13.2402 9.38151
  455 236.029 36.6120 -23.0246
  456 190.014 -7.25091 -10.6327
  457 215.998 -0.620044 -0.929501
  458 198.338 -2.97827 -11.9126
  459 -2.58401 1.29530 6.67399
  460 -2.54946 1.31399 -6.65003
  461 191.942 -7.59071 12.2678
  462 123.363 -6.71287 -2.10075
  463 122.972 -6.78632 1.67127
  464 168.794 -18.6533 -1.50294
  465 119.676 -1.85077 -36.1455
  466 183.067 -2.83843 17.2358
  467 150.125 -4.52497 -0.515338
  468 222.179 -17.2154 -0.879064
  469 115.872 0.799747 38.8312
  470 6.41668 -0.139984 2.63074
  471 6.34902 -0.136541 -2.63838
  472 242.128 47.9499 -10.6841
  473 195.516 -1.14453 0.193237
  474 194.826 -1.33538 -0.376541
  475 145.871 -9.52626 0.117869
  476 61.5997 -2.01003 -1.81039
  477 61.5900 -1.98374 1.78312
  478 35.8873 -0.357959 -8.19782
  479 35.9257 -0.365120 8.17687
  480 119.090 4.63273 7.37842
  481 28.4566 -0.971580 3.89153
  482 28.4188 -0.961838 -3.91510
  483 31.6283 3.17338 9.21420
  484 31.5229 3.22033 -9.20882
  485 188.383 -14.5591 14.9311
  486 104.061 -6.45649 -16.3087
  487 95.4849 -2.88132 0.998929
  488 95.5237 -2.96078 -1.00216
  489 105.179 -6.66334 16.2995
  490 295.495 69.4853 -4.13807
  491 -4.73028 -0.733898 -3.90446
  492 -4.72821 -0.737583 3.90265
  493 71.6506 -1.88008 -0.735802
  494 71.6454 -1.84755 0.731791
  495 0.0526269 -12.9423 -4.95911
  496 0.0219406 -12.9839 5.00140
  497 172.303 -2.22647 0.849450
  498 118.275 5.71850 -3.68032
  499 161.868 17.0420 10.7198
  500 103.531 -1.06106 -28.5564
  501 49.0553 -2.50116 5.92794
  502 49.0557 -2.47959 -5.94153
  503 -14.2921 0.440211 -0.813439
  504 -14.2168 0.437646 0.822886
  505 203.105 -4.08480 -32.1224
  506 13.0351 0.118766 -0.855928
  507 13.0534 0.121447 0.842819
  508 169.083 -13.1837 -4.90800
  509 180.388 -15.2985 -9.10686
  510 35.9926 26.7730 -35.7252
  511 151.475 3.52721 -57.7898
  512 1.40580 4.37956 3.50023
  513 1.47688 4.38816 -3.46127
  514 90.8867 -4.04725 -3.17572
  515 90.8360 -4.00669 3.09178
  516 262.357 9.73973 -8.38679
  517 187.684 -10.9711 -13.5074
  518 35.0672 25.2379 35.2002
  519 185.999 -21.2713 3.86899
  520 178.680 -16.9606 7.36440
  521 35.2764 -0.847851 -2.53988
  522 35.2934 -0.843845 2.51023
  523 143.832 1.48545 17.7363
  524 104.705 -7.59068 -6.07319
  525 198.575 -4.19089 7.74811
  526 -0.831117 -4.81230 -3.78134
  527 -0.833178 -4.80907 3.77636
  528 137.906 -12.2933 18.3321
  529 211.447 -16.5191 -17.4317
  530 277.665 17.5979 -7.44430
  531 148.238 -4.70880 0.633708
  532 41.3841 -0.734397 -0.757291
  533 41.3868 -0.717926 0.749220
  534 92.8872 0.715226 27.4566
  535 263.848 43.2815 16.4626
  536 271.196 49.0248 -92.2526
  537 240.623 0.538908 17.0327
  538 172.227 -19.1839 0.559686
  539 414.348 32.9303 27.8058
  540 303.364 72.1532 6.49852
  541 40.4289 -1.66057 6.49549
  542 40.4030 -1.64323 -6.51002
  543 165.433 -13.5796 3.87583
  544 11.4160 5.81906 -2.21830
  545 11.5064 5.81461 2.25300
  546 208.817 -17.6406 17.4049
  547 168.196 8.95321 26.3071
  548 211.083 -1.23999 4.28869
  549 154.669 -9.03631 2.03400
  550 219.056 0.345191 -60.9141
  551 350.390 86.2947 58.6279
  552 168.381 -2.93787 -0.783005
  553 206.951 -1.99717 -6.80625
  554 31.3291 13.1804 -13.2776
  555 31.5591 13.0198 13.2098
  556 116.590 -4.42343 -1.30408
  557 116.534 -4.30896 1.34063
  558 1.27615 -16.5221 -1.14029
  559 210.462 -7.84920 28.8741
  560 7.49927 6.92038 1.45607
  561 7.62513 6.93811 -1.39800
  562 1.50626 -16.0115 1.58560
  563 191.118 -8.76524 -23.1779
  564 220.196 13.4397 -31.1807
  565 219.320 15.2794 31.1595
  566 10.1183 7.93607 6.90003
  567 9.59163 8.15317 -6.72698
  568 -7.75851 0.217710 2.02448
  569 -7.84177 0.219799 -2.02105
  570 203.770 3.79715 62.9041
  571 109.402 -5.86249 2.99373
  572 109.517 -5.84106 -3.07405
  573 246.381 -5.79692 -31.0796
  574 28.5920 -0.385114 1.47749
  575 28.5795 -0.392519 -1.49727
  576 11.2160 -0.380094 -0.356749
  577 11.2248 -0.377555 0.352173
  578 269.205 47.9761 -13.7907
  579 25.0909 33.9334 -39.7172
  580 137.069 2.66605 -14.9977
  581 196.675 31.5499 -13.6063
  582 2.69229 -0.604831 4.79029
  583 2.81158 -0.563752 -4.71029
  584 204.635 87.9881 109.040
  585 170.871 -4.41249 -2.18962
  586 4.69363 1.75498 -3.27192
  587 4.77061 1.74224 3.28902
  588 197.290 -16.0062 20.3508
  589 29.7404 32.7965 40.4412
  590 141.546 -2.61155 0.0634569
  591 141.583 -2.58612 -0.0640644
  592 -0.187196 -10.2174 5.07622
  593 -0.171842 -10.2004 -5.05955
  594 241.594 47.4444 -0.386639
  595 153.542 -12.6141 26.5908
  596 146.372 -5.94818 0.554949
  597 147.752 5.91565 61.0175
  598 -12.4384 0.601737 3.09510
  599 -12.4256 0.604973 -3.08321
  600 243.703 2.26358 -18.2264
  601 328.638 51.1029 -41.1228
  602 90.9747 9.03878 -40.0651
  603 47.7437 -1.95327 -7.96952
  604 47.7845 -1.95297 7.96831
  605 221.777 -0.591000 1.26325
  606 144.870 -6.08541 -0.747234
  607 196.153 -2.36143 2.82915
  608 191.141 -8.75086 22.6479
  609 5.07907 -0.304622 1.28226
  610 5.02190 -0.303261 -1.29430
  611 111.928 -3.63075 -0.731673
  612 111.910 -3.52065 0.696096
  613 69.1418 1.58351 -18.0141
  614 68.6801 1.60263 17.9247
  615 279.540 14.4370 13.9666
  616 461.876 34.7963 -50.6892
  617 -5.68519 -0.267541 1.78956
  618 -5.76987 -0.266585 -1.78993
  619 64.4621 -2.64227 3.38206
  620 64.4635 -2.63968 -3.43686
  621 259.472 12.8330 11.9325
  622 219.523 -0.563981 -0.401866
  623 219.017 -0.913841 0.192705
  624 154.322 -0.130430 17.5903
  625 228.205 -14.2965 -18.3358
  626 121.795 -9.87774 7.28621
  627 -3.40828 2.69872 -3.15450
  628 -3.46145 2.69498 3.18485
  629 196.417 3.72160 33.5400
  630 76.1889 -4.29338 -8.25483
  631 76.1064 -4.36750 8.27154
  632 160.350 -9.01574 -2.63454
  633 199.581 -4.13143 -7.02625
  634 111.961 -8.85205 -11.5270
  635 183.779 22.1516 -20.3601
  636 124.315 -8.64578 -21.4754
  637 43.0899 -1.13845 -1.27409
  638 43.0930 -1.12336 1.25362
  639 113.162 -9.01987 11.5615
  640 246.427 39.2079 20.9872
  641 195.507 -9.69004 28.5099
  642 160.095 -6.81048 2.35153
  643 113.179 -2.71170 0.597373
  644 113.150 -2.71925 -0.575004
  645 84.2929 -2.97090 -2.35352
  646 84.2565 -2.93484 2.32237
  647 188.638 -17.3613 -12.3052
  648 93.5448 -5.12890 4.15320
  649 93.6527 -5.10886 -4.25587
  650 186.691 28.9963 -2.74864
  651 174.268 -8.90315 5.63282
  652 220.375 -0.882870 -1.92030
  653 184.101 -3.55803 -29.4029
  654 24.3348 -1.10955 5.20510
  655 24.2871 -1.10141 -5.21224
  656 214.416 -1.03852 -3.87634
  657 36.7915 18.8298 -24.8535
  658 37.4319 18.7771 24.9771
  659 218.287 -14.1100 26.1942
  660 73.3409 18.0320 42.1854
  661 16.1071 -0.0561586 5.21658
  662 16.0483 -0.0520547 -5.22146
  663 185.217 -12.6139 34.6393
  664 183.311 23.6932 -83.7628
  665 175.455 5.30875 -29.2190
  666 233.078 42.0048 17.8374
  667 157.248 -6.65727 -1.64524
  668 283.930 51.5833 -1.24880
  669 -14.6382 0.645001 -0.405680
  670 -14.5740 0.643194 0.419333
  671 124.860 0.206336 -42.5986
  672 5.37676 -0.173805 1.01263
  673 5.33869 -0.174290 -1.02480
  674 157.382 -13.5649 -26.2574
  675 50.6617 7.08658 -17.3058
  676 50.2422 7.10799 17.2934
  677 0.0485724 2.58646 -0.589324
  678 0.118215 2.58250 0.618440
  679 132.983 -11.3707 -5.13149
  680 189.169 -1.85324 -11.3450
  681 88.3318 -2.53860 -0.874167
  682 88.3331 -2.50625 0.882118
  683 63.1240 -3.16443 -5.18046
  684 63.1702 -3.21030 5.15686
  685 11.6729 9.61699 -2.57463
  686 11.8769 9.63519 2.64159
  687 195.930 -1.98657 1.52102
  688 84.4799 -5.25553 6.77341
  689 85.0484 -5.15852 -6.76468
  690 216.330 -17.8963 -4.44343
  691 177.429 -17.8278 -5.44913
  692 138.759 -3.54356 0.246768
  693 138.251 -3.27284 -0.171317
  694 196.053 -21.1615 9.01138
  695 319.727 64.2304 15.3711
  696 172.008 -8.34266 -43.4640
  697 197.149 -5.36653 12.1372
  698 194.943 -7.49171 -30.4725
  699 58.2310 -1.73095 -2.36584
  700 58.2257 -1.71600 2.32950
  701 152.562 -3.25040 48.9295
  702 435.498 55.3968 50.8673
  703 28.0064 8.38708 -9.57585
  704 28.0460 8.44197 9.60821
  705 195.409 -1.52699 -0.784641
  706 197.006 -1.34616 0.796777
  707 81.6882 39.6423 -69.3713
  708 206.867 -0.996448 6.76135
  709 178.752 -2.66450 1.35010
  710 233.859 46.6259 -6.70262
  711 22.4807 4.25869 -6.80359
  712 22.5812 4.23119 6.82962
  713 224.159 -0.414347 0.257648
  714 179.451 -6.59963 -5.40156
  715 224.030 -4.02691 25.6961
  716 89.7015 -6.20556 -10.9489
  717 89.9281 -5.92976 10.8314
  718 18.1166 -0.676801 3.94254
  719 18.0638 -0.667881 -3.95599
  720 204.523 -1.06702 -1.35111
  721 175.896 32.2736 89.1166
  722 1.00746 0.974964 6.23920
  723 1.07193 1.01205 -6.19504
  724 204.682 -1.92687 -3.35535
  725 198.429 -3.34459 4.75726
  726 153.538 0.0242874 -18.8665
  727 1.39734 -18.8121 -2.71121
  728 1.30098 -18.9883 2.88837
  729 70.5193 18.5533 -42.1656
  730 157.008 -15.9576 -18.5267
  731 80.9579 39.3235 70.0919
  732 220.968 -0.384827 0.794871
  733 209.471 31.2609 21.8608
  734 150.285 13.7172 -7.45151
  735 276.454 55.7930 -1.11042
  736 217.639 -0.768778 2.56483
  737 -14.4099 0.323435 1.40978
  738 -14.4925 0.325221 -1.40401
  739 230.968 -14.0968 4.03825
  740 147.992 -3.86940 0.293162
  741 52.1201 0.183232 -12.1394
  742 52.1851 0.129661 12.0599
  743 198.732 -1.99925 -2.07781
  744 352.364 50.0039 -17.4527
  745 20.4717 -0.641350 -2.39713
  746 20.5142 -0.645291 2.37588
  747 222.501 -0.456420 -1.21909
  748 41.0076 -1.84233 -3.35773
  749 41.0300 -1.84890 3.32643
  750 215.504 -9.10098 -26.3006
  751 198.755 -2.02351 9.22453
  752 176.596 -1.35167 28.9726
  753 223.116 -0.476591 -0.0732610
  754 207.285 -1.28692 2.60125
  755 133.403 -6.88933 -0.567069
  756 168.650 -4.03348 1.73417
  757 191.530 -11.7960 -19.5964
  758 186.967 -11.6390 13.0963
  759 218.375 26.0080 -27.6624
  760 184.470 -10.1533 9.89888
  761 194.505 -11.6505 24.8394
  762 111.364 -7.34290 4.19147
  763 3.82989 -2.10626 -1.06584
  764 3.61495 -2.11758 1.26877
  765 170.970 -2.13581 0.0812588
  766 170.600 -2.11685 -0.145984
  767 206.627 -0.625625 -0.165040
  768 207.369 -0.581401 0.215359
  769 194.974 -5.38579 14.7239
  770 180.125 -17.0226 24.6445
  771 147.015 -11.7524 1.08636
  772 130.134 -7.48907 1.56308
  773 359.791 46.2445 20.5374
  774 197.660 -4.81675 -9.68965
  775 114.848 19.1806 -65.2263
  776 183.341 -8.82096 -8.61958
  777 5.43706 0.182681 -3.64979
  778 5.51148 0.175978 3.65366
  779 160.707 14.0900 -16.7211
  780 424.299 12.9118 -5.59331
  781 205.583 4.87223 -33.0032
  782 7.94733 1.41604 -15.0068
  783 210.430 38.1113 5.62775
  784 165.260 -10.2574 3.66712
  785 184.946 -4.79534 28.5612
  786 156.175 -16.6495 18.6337
  787 253.235 -3.39883 38.8612
  788 8.56791 3.33684 16.0940
  789 112.097 -0.853741 32.8993
  790 158.045 -3.66467 -0.865192
  791 176.494 -16.2917 -24.9637
  792 106.705 -8.19582 -7.81654
  793 84.0821 3.94144 -28.5470
  794 204.023 -3.55864 32.3581
  795 129.933 -8.64235 2.93979
  796 21.9877 -0.671692 2.18989
  797 21.9582 -0.672670 -2.21360
  798 189.766 -1.00953 10.0627
  799 170.681 0.685896 -28.0735
  800 -15.4283 0.671846 1.98555
  801 -15.4053 0.673005 -1.97271
  802 126.359 -3.61904 -0.0826363
  803 125.977 -3.39947 0.0436304
  804 93.3854 10.1615 40.6814
  805 82.3249 -4.69216 4.98971
  806 82.4492 -4.57245 -5.05164
  807 222.463 -0.290995 -0.701073
  808 75.5030 5.93502 27.7723
  809 -0.537307 -0.0689573 1.39562
  810 -0.610218 -0.0673182 -1.40289
  811 187.425 -5.85070 22.1915
  812 202.688 -1.42431 1.09414
  813 -10.8191 0.104426 3.02322
  814 -10.8202 0.107787 -3.01725
  815 122.672 -7.82727 24.2681
  816 23.0558 18.7479 -20.7846
  817 23.3459 17.8182 20.4508
  818 112.360 5.04470 3.06618
  819 -4.70147 -0.0984519 -1.61027
  820 -4.61745 -0.0996354 1.60787
  821 141.499 -13.5600 -17.4189
  822 194.449 -20.6119 -8.14357
  823 -0.956247 -0.909974 -1.19519
  824 -0.953528 -0.907938 1.19087
  825 6.60650 0.348663 -0.312732
  826 6.61960 0.350582 0.305784
  827 172.521 -15.2608 5.60410
  828 144.623 -14.8658 11.7436
  829 161.009 -2.29681 0.680238
  830 144.218 -11.4559 -1.65179
  831 50.2425 -0.749889 -0.221912
  832 50.2428 -0.728166 0.216787
  833 -17.5697 0.368815 1.21664
  834 -17.5330 0.368299 -1.20412
  835 182.704 -1.98032 -1.04434
  836 158.178 6.08452 -23.8025
  837 184.633 -3.31203 -2.92118
  838 106.925 -8.03837 7.40993
  839 180.766 -3.25082 -23.3106
  840 194.766 -5.85704 -15.2194
  841 183.476 -1.64533 0.944658
  842 132.453 -5.34439 33.7787
  843 141.529 -13.7616 -6.14182
  844 84.2311 -0.618609 -21.6338
  845 84.7051 -0.0322947 21.7468
  846 120.050 -8.81106 -4.54885
  847 200.112 21.4562 28.2049
  848 191.608 -20.3725 -12.8685
  849 66.3038 -1.99089 -1.15036
  850 66.2930 -1.95768 1.13534
  851 145.556 -2.91373 -0.140249
  852 145.559 -2.94144 0.179418
  853 172.194 -1.35406 -15.1912
  854 56.1652 -2.32572 -4.17023
  855 56.1914 -2.34386 4.12807
  856 0.668093 -18.6168 -3.81049
  857 0.630523 -18.6957 3.88460
  858 26.2359 -0.387954 -0.190163
  859 26.2290 -0.397119 0.184027
  860 181.210 -2.46432 -1.47266
  861 136.091 -12.9547 10.5439
  862 213.591 -18.7914 8.72608
  863 120.489 2.54873 11.7523
  864 185.256 -4.03025 3.32346
  865 201.820 -18.3628 -16.2487
  866 27.2806 1.87876 -7.94911
  867 27.3615 1.84813 7.94167
  868 160.169 -2.49477 -0.625555
  869 127.930 -4.12224 -0.560483
  870 127.468 -4.08114 0.674096
  871 197.277 30.7954 15.3163
  872 67.4754 -0.590984 -14.8024
  873 67.4032 -0.671551 14.7288
  874 137.370 -12.2980 4.69988
  875 12.4606 8.37989 -2.16953
  876 12.5894 8.36180 2.20473
  877 115.758 -8.27764 19.5415
  878 139.404 -8.64359 -0.541894
  879 173.272 -1.40062 15.3521
  880 172.114 -19.5048 5.07591
  881 197.524 -15.2029 -21.8405
  882 135.759 -13.0619 -10.7141
  883 112.197 -7.30910 -3.99582
  884 376.855 31.1623 -5.73041
  885 180.444 -19.1853 4.38987
  886 4.52795 5.64325 2.77687
  887 4.62032 5.65324 -2.72935
  888 156.308 -15.5988 1.87375
  889 171.890 -19.5514 -9.97272
  890 4.67096 5.02426 0.849300
  891 4.75139 5.02477 -0.813400
  892 62.8149 -2.15125 11.0666
  893 62.8613 -2.22145 -11.1415
  894 76.6461 -3.80295 12.1727
  895 76.6241 -3.89829 -12.2683
  896 247.747 49.7838 8.65349
  897 -0.387382 -7.67372 -3.68795
  898 -0.390059 -7.66539 3.68577
  899 55.4039 4.79504 -16.4398
  900 55.1191 4.69506 16.2625
  901 439.210 14.2605 -22.3502
  902 4.50057 -0.0267252 0.550402
  903 4.47389 -0.0281647 -0.559936
  904 0.689339 -21.8698 1.62554
  905 0.812029 -21.5229 -1.33210
  906 -8.21626 -0.118974 3.06437
  907 -8.22453 -0.116480 -3.06318
  908 44.2146 13.0720 -19.4531
  909 44.9054 12.6401 19.1581
  910 -3.77869 0.0610417 -6.55971
  911 -3.79660 0.0471094 6.57123
  912 11.3722 1.21309 -5.06284
  913 11.4488 1.19789 5.06904
  914 47.7693 -0.457564 10.1504
  915 47.7407 -0.455514 -10.2098
  916 38.4218 -1.26991 -8.15165
  917 38.4574 -1.26687 8.13474
  918 215.140 -0.706238 -3.77687
  919 103.203 21.2964 60.4698
  920 142.975 -14.0336 5.66103
  921 100.445 -7.04780 5.83009
  922 195.483 19.9414 -27.7779
  923 431.828 9.34096 8.86342
  924 234.109 9.89657 -27.3003
  925 36.0445 -1.38398 5.02061
  926 36.0116 -1.36749 -5.04368
  927 4.58254 -0.190311 -3.70752
  928 4.65421 -0.192466 3.70598
  929 -0.278413 -3.89803 -7.19204
  930 -0.308895 -3.92771 7.21560
  931 103.847 -4.32428 2.38200
  932 103.905 -4.41671 -2.39863
  933 11.3008 3.42555 -4.33166
  934 11.3842 3.40966 4.35626
  935 62.2328 -2.69524 -9.30738
  936 62.2708 -2.69423 9.29812
  937 135.284 -0.724554 -13.8615
  938 64.1047 -3.41909 -6.30336
  939 64.0523 -3.37831 6.32505
  940 161.265 -4.09439 -1.07872
  941 195.031 -11.3465 -26.5958
  942 83.1048 -3.19237 2.67374
  943 83.1498 -3.22543 -2.71916
  944 -3.49399 -0.386555 -2.12405
  945 -3.48488 -0.387478 2.11977
  946 199.711 -16.1513 -30.8626
  947 190.495 -11.1070 17.1645
  948 166.828 -11.4282 -4.52071
  949 160.355 5.32630 25.1035
  950 71.9344 -3.95076 -7.12851
  951 71.9276 -3.87027 7.15253
  952 180.364 6.68419 30.5231
  953 167.379 14.5420 20.0689
  954 350.575 42.4426 7.24768
  955 178.011 -6.03233 4.12301
  956 91.4954 -2.47715 -1.18621
  957 91.4806 -2.42073 1.19865
  958 158.705 -12.8200 -1.78609
  959 219.075 40.3162 -13.3657
  960 195.977 -1.74063 -1.52891
  961 126.680 -2.69757 0.378904
  962 126.628 -2.67380 -0.341350
  963 15.4716 12.8371 -8.47844
  964 15.8779 12.8065 8.55000
  965 30.7226 71.7287 -67.6250
  966 181.239 -4.39477 23.2040
  967 227.907 -4.98079 -23.1663
  968 -4.64763 2.15448 1.63928
  969 -4.58969 2.15369 -1.61090
  970 473.046 109.924 -88.4761
  971 194.817 -21.4234 3.89126
  972 208.217 -19.7747 -6.56503
  973 191.560 -16.4707 15.9291
  974 235.838 46.7096 5.80784
  975 16.4515 15.9665 -19.2810
  976 43.2643 61.4464 65.9329
  977 -1.28123 -2.85125 7.11568
  978 -1.26228 -2.82948 -7.10345
  979 186.955 -4.41950 4.08467
  980 300.303 53.5126 -5.71763
  981 16.9456 15.5558 20.1120
  982 -0.835481 -2.72892 -2.36175
  983 -0.835724 -2.72172 2.35594
  984 159.711 -3.26811 0.567370
  985 117.951 -9.25721 -8.12012
  986 193.018 -15.3283 -18.6401
  987 53.3939 14.3287 -26.0791
  988 54.2610 14.5701 26.1486
  989 186.693 -4.66328 -20.7957
  990 189.368 -5.69690 7.20392
  991 -5.31842 1.17406 5.84933
  992 -5.29335 1.18629 -5.83120
  993 112.616 -7.43559 -18.3078
  994 187.521 11.7411 -30.7651
  995 139.771 -4.83676 -0.0519536
  996 99.2329 -2.54087 0.143485
  997 99.2153 -2.56092 -0.131767
  998 -2.18015 -2.46914 -4.98774
  999 -2.18335 -2.47445 4.98425
  1000 191.921 -6.57451 -8.73501
  1001 183.123 -1.59661 0.299123
  1002 182.951 -1.59827 -0.221402
  1003 252.363 40.5294 -19.6718
  1004 43.6829 3.93904 -12.7847
  1005 43.7903 3.86025 12.7504
  1006 26.7969 -0.192308 -6.70274
  1007 26.8458 -0.197917 6.69133
  1008 206.853 10.6546 33.3844
  1009 197.303 -3.38488 -4.99323
  1010 33.0470 5.40589 -10.2341
  1011 33.1793 5.36418 10.2724
  1012 206.780 -0.779462 -0.895762
  1013 191.486 -8.08899 -13.0092
  1014 186.957 -21.3911 -6.39131
  1015 6.63955 5.37716 -0.918756
  1016 6.44321 5.35165 1.00714
  1017 -9.48915 1.43080 3.59988
  1018 -9.45683 1.43454 -3.57867
  1019 108.276 4.18639 -5.12974
  1020 325.806 79.4795 -19.5736
  1021 146.844 -10.4467 0.177815
  1022 96.0613 -4.18211 -18.8979
  1023 238.335 -10.4549 4.21515
  1024 96.4427 -4.18326 19.1742
  1025 169.494 -19.9254 11.9223
  1026 192.257 -7.91463 -19.1427
  1027 63.2519 -1.33904 -0.369200
  1028 63.2508 -1.31115 0.366018
  1029 130.234 -9.97686 -3.73564
  1030 78.7281 -2.86411 -14.5220
  1031 78.6903 -2.88582 14.4374
  1032 25.6272 16.6579 -15.6126
  1033 26.0444 16.6015 15.6585
  1034 52.6033 -1.61431 -1.33270
  1035 52.6005 -1.59189 1.31117
  1036 171.285 -5.01971 2.44420
  1037 144.000 0.0885803 -49.5958
  1038 177.672 -5.39322 -4.06767
  1039 159.757 -17.7136 -6.64410
  1040 103.558 -4.10272 1.55886
  1041 103.649 -4.13676 -1.56658
  1042 209.617 -0.989965 1.12741
  1043 186.269 -4.04331 -3.83681
  1044 114.785 2.76719 9.66186
  1045 199.011 -1.93756 -8.57146
  1046 75.8075 21.6606 47.9939
  1047 205.432 -1.82929 -7.07641
  1048 51.9573 8.82638 -19.4002
  1049 50.3499 8.93114 18.5630
  1050 246.430 -5.32122 -5.40739
  1051 20.9909 11.1680 -7.70724
  1052 21.1899 11.0848 7.70236
  1053 3.45986 -1.06449 2.86456
  1054 3.64673 -1.03217 -2.74163
  1055 28.4584 -0.774807 1.64302
  1056 28.4392 -0.780551 -1.66786
  1057 86.5095 21.9497 -53.4076
  1058 489.337 123.863 95.1766
  1059 191.232 -6.57624 8.96184
  1060 171.019 -19.3213 -4.42642
  1061 117.687 -9.64964 -13.8795
  1062 -2.90674 2.47003 5.26124
  1063 -2.86180 2.48355 -5.23130
  1064 133.254 -6.52342 0.349466
  1065 147.531 -5.06584 -0.644525
  1066 -0.0890494 -10.8977 3.57847
  1067 -0.0853343 -10.9071 -3.57710
  1068 21.2064 13.2809 -9.32149
  1069 21.4665 13.2526 9.38026
  1070 131.413 -5.95821 -0.315598
  1071 9.22954 4.74744 2.43844
  1072 9.14605 4.75481 -2.40594
  1073 202.230 -8.27756 30.7907
  1074 145.756 -15.1351 -11.6839
  1075 118.401 -9.80666 13.8772
  1076 191.928 -4.12454 -32.1235
  1077 204.911 -1.92957 3.63221
  1078 72.2500 11.0314 31.8017
  1079 72.7748 10.5627 -31.2573
  1080 117.673 -5.81385 -26.6554
  1081 168.297 -5.62637 -2.54236
  1082 135.795 -7.87588 1.27495
  1083 159.793 -14.8058 0.770682
  1084 222.165 -0.663308 -2.03544
  1085 117.267 -5.08654 1.45103
  1086 117.215 -5.40085 -1.52218
  1087 3.52463 4.24956 4.57676
  1088 3.62101 4.28176 -4.52204
  1089 193.160 6.84191 -33.1140
  1090 41.8006 2.26476 -11.2269
  1091 41.9112 2.21581 11.1898
  1092 30.7897 0.717110 -7.91594
  1093 30.8550 0.699074 7.89718
  1094 223.294 -10.2751 39.1496
  1095 192.077 -8.80154 18.9231
  1096 92.4034 -4.18348 -15.8848
  1097 226.234 -0.792954 -1.22269
  1098 250.687 47.0898 -14.9927
  1099 204.674 -1.64050 -2.36890
  1100 190.554 -20.6943 7.98481
  1101 140.105 -10.8340 23.1842
  1102 228.063 -0.153179 0.280159
  1103 114.553 3.61776 -8.20054
  1104 160.928 -17.1980 -2.35562
  1105 92.5465 -4.37801 15.6922
  1106 162.469 -14.6776 -1.71455
  1107 204.168 -2.68065 6.53996
  1108 142.041 9.00090 12.8457
  1109 99.5161 -7.23748 -12.4635
  1110 310.851 41.4498 -15.1593
  1111 231.149 9.77641 28.4836
  1112 169.368 21.3349 3.17440
  1113 225.079 0.149263 1.12405
  1114 85.9206 -5.26135 -9.37776
  1115 58.8164 35.4183 -53.4710
  1116 105.925 2.62409 -38.3620
  1117 121.547 -9.16149 5.50376
  1118 102.206 -7.57091 11.5940
  1119 85.6980 -4.99260 9.48518
  1120 183.379 1.36938 32.0748
  1121 138.779 -4.45386 0.208775
  1122 221.419 -1.53539 2.67697
  1123 -1.94579 -0.323147 7.16968
  1124 -1.91973 -0.301650 -7.15207
  1125 145.627 -3.74641 -0.394133
  1126 -0.472275 1.38901 6.65443
  1127 -0.425440 1.41681 -6.62154
  1128 79.8317 -2.33412 1.60868
  1129 79.8425 -2.37630 -1.61128
  1130 207.339 -1.05118 5.87822
  1131 165.884 -9.88676 -3.84631
  1132 155.139 -7.97224 -1.72031
  1133 173.916 -11.9904 6.96665
  1134 51.9068 25.3455 -39.5255
  1135 170.664 -6.09334 3.16919
  1136 23.5037 0.545788 -6.45000
  1137 23.5653 0.533293 6.44181
  1138 34.4621 21.9349 -27.4107
  1139 274.613 34.4943 11.2486
  1140 16.9760 -0.845592 3.71903
  1141 16.9197 -0.838392 -3.72750
  1142 35.0891 21.5655 26.4152
  1143 155.661 -12.8592 1.15477
  1144 76.8699 -3.44985 3.37501
  1145 76.8882 -3.46817 -3.44236
  1146 320.798 67.5940 -16.4303
  1147 171.892 -17.2027 2.54288
  1148 57.8527 33.0397 53.3388
  1149 4.75236 -2.70423 -3.69231
  1150 5.13793 -2.64218 4.15179
  1151 178.966 22.4793 16.1736
  1152 12.5855 7.14433 -2.37677
  1153 12.6923 7.14516 2.40618
  1154 173.065 -14.9434 -5.86408
  1155 -0.0841565 -16.9349 -3.39494
  1156 -0.0920622 -16.9394 3.41032
  1157 185.200 -15.6003 -11.5138
  1158 -5.66679 0.239088 1.25410
  1159 -5.75064 0.240498 -1.25785
  1160 27.1172 10.2858 -10.2028
  1161 27.2655 10.3290 10.0980
  1162 -11.5212 0.0293240 -1.53740
  1163 -11.4312 0.0285993 1.53842
  1164 186.011 -1.62294 -0.434032
  1165 -19.1590 0.541641 0.449377
  1166 -19.1093 0.541277 -0.437955
  1167 96.0969 -7.45276 -8.98248
  1168 2.50595 -26.1405 -1.88364
  1169 46.3060 -1.26691 2.62321
  1170 46.2956 -1.27234 -2.65834
  1171 157.050 -2.56307 0.150250
  1172 157.353 -2.48281 -0.118808
  1173 2.68871 -25.0179 2.44345
  1174 186.580 -9.54430 -11.1150
  1175 214.167 -0.889240 4.39823
  1176 189.409 -12.0663 -15.9293
  1177 163.004 1.12410 24.9131
  1178 0.777006 -7.27204 5.49195
  1179 0.857703 -7.22222 -5.40792
  1180 119.789 -8.51208 4.23049
  1181 -8.51056 0.711604 4.64875
  1182 -8.49504 0.717765 -4.63543
  1183 316.209 50.6779 3.11754
  1184 374.785 111.898 -78.8107
  1185 193.755 -18.9595 14.1115
  1186 77.6810 -2.09768 -0.181365
  1187 77.6816 -2.06814 0.181476
  1188 403.200 39.1013 -35.7628
  1189 25.7269 -0.680441 3.86733
  1190 25.6828 -0.669304 -3.88574
  1191 179.536 -0.589297 -9.96160
  1192 114.828 -9.19669 10.2051
  1193 191.689 -18.9076 -10.6764
  1194 185.391 -13.3989 -12.7445
  1195 111.973 -4.05958 27.9964
  1196 40.4513 7.67268 -14.4649
  1197 40.4238 7.60370 14.3748
  1198 53.9533 19.8218 -33.4481
  1199 54.0152 18.3184 33.4453
  1200 14.4991 4.55174 -4.55949
  1201 14.5896 4.53732 4.58973
  1202 227.866 39.3421 -19.6328
  1203 11.1926 10.1121 -3.80965
  1204 11.4656 10.1229 3.88993
  1205 164.611 -12.4019 3.54431
  1206 312.502 42.8995 17.2988
  1207 36.4499 -1.54849 -2.58291
  1208 36.4711 -1.54758 2.55165
  1209 205.171 133.992 -119.875
  1210 151.220 8.92049 -19.8725
  1211 137.988 10.6980 8.08201
  1212 18.5051 8.09304 -5.41631
  1213 18.5953 8.09157 5.44928
  1214 0.691468 -0.0274745 0.922632
  1215 0.639586 -0.0274171 -0.931953
  1216 182.675 -14.5953 10.7699
  1217 179.885 -6.90401 5.88454
  1218 122.761 33.0642 -84.7590
  1219 284.070 61.7937 -1.09479
  1220 120.774 -3.83413 -30.9636
  1221 157.553 -4.45438 0.942813
  1222 4.31092 -0.798113 -0.232672
  1223 4.31566 -0.797637 0.231261
  1224 -5.35813 1.23025 -1.89724
  1225 -5.28481 1.22494 1.91373
  1226 104.667 0.987689 -32.5852
  1227 195.787 -4.01545 6.31669
  1228 126.031 1.90896 45.0412
  1229 171.734 -8.20278 -4.74932
  1230 87.7939 30.3707 -66.2125
  1231 137.112 -6.96596 -33.5334
  1232 163.736 -17.4829 1.42344
  1233 201.518 -3.03096 9.63582
  1234 176.689 -3.29478 -1.88113
  1235 95.6698 -6.97933 9.04110
  1236 221.855 -13.0187 -18.3409
  1237 208.961 17.7824 31.6711
  1238 89.9547 0.394860 -25.4928
  1239 211.038 -1.04114 0.848605
  1240 164.935 20.6634 -4.52255
  1241 70.4814 -2.33537 -2.57783
  1242 70.4621 -2.30779 2.54352
  1243 323.673 71.8060 14.6828
  1244 447.905 11.9269 20.9474
  1245 0.371991 -20.7327 -3.38625
  1246 0.359442 -20.7579 3.41197
  1247 46.1088 23.8613 36.8344
  1248 111.504 -2.95385 -0.351383
  1249 111.528 -2.93285 0.394590
  1250 154.254 -15.4590 -2.76867
  1251 182.791 14.8186 27.8326
  1252 194.351 -3.50291 -4.19834
  1253 227.907 -0.491227 -0.155943
  1254 394.880 86.9473 -54.1499
  1255 58.0043 -2.13014 2.59073
  1256 58.0046 -2.13582 -2.63311
  1257 185.382 -17.2169 11.1167
  1258 329.220 77.3247 -21.2583
  1259 179.947 -7.56616 -6.58935
  1260 130.202 -8.84076 -2.57140
  1261 160.827 -17.5364 6.43221
  1262 157.284 -7.55621 2.06285
  1263 5.51888 -0.591735 -6.29107
  1264 216.216 -13.5687 21.4184
  1265 174.639 -11.2139 -6.78065
  1266 6.10117 -0.291422 7.07428
  1267 179.855 -14.9252 -31.2872
  1268 170.334 9.48137 -69.2939
  1269 281.714 34.2505 -8.65661
  1270 228.870 -0.0381553 -0.0820675
  1271 228.430 -0.251944 0.217921
  1272 177.746 -10.1433 7.21206
  1273 66.9452 7.98308 -25.0312
  1274 202.710 -18.2945 17.4622
  1275 347.421 78.7969 34.6774
  1276 83.9879 28.0243 64.4387
  1277 2.10081 -0.190321 5.70182
  1278 2.18965 -0.148572 -5.64059
  1279 213.715 -17.8768 -15.8796
  1280 83.4965 -4.41524 -4.07169
  1281 83.4762 -4.42602 3.98207
  1282 198.003 -13.2221 25.6655
  1283 5.13440 0.0857991 4.11725
  1284 5.06240 0.0896779 -4.11727
  1285 -1.15050 -4.22710 5.77860
  1286 -1.14309 -4.21808 -5.77896
  1287 32.3896 -1.12500 -3.52838
  1288 32.4210 -1.13192 3.50114
  1289 102.634 -6.79893 -14.2851
  1290 103.139 -3.13866 0.604557
  1291 103.138 -3.21637 -0.564422
  1292 227.857 -0.0365743 -0.0443270
  1293 200.152 -2.94816 -10.8047
  1294 14.3407 0.799793 -5.08245
  1295 14.4108 0.788650 5.08234
  1296 103.047 -7.20194 14.1507
  1297 230.296 -0.150657 0.0533620
  1298 217.013 0.0312839 -0.236669
  1299 217.021 -0.0974644 0.177894
  1300 284.929 58.7792 5.89068
  1301 210.921 -1.16101 -1.88332
  1302 186.604 -1.50757 0.366126
  1303 206.836 -2.91274 -5.78680
  1304 226.451 -0.612737 0.864871
  1305 233.291 23.4090 28.2465
  1306 270.833 55.5163 9.08055
  1307 219.021 -0.768939 -2.94349
  1308 -1.74617 -0.459507 1.57761
  1309 -1.75299 -0.459141 -1.58225
  1310 119.313 -7.28609 2.70164
  1311 119.288 -6.94975 -2.60256
  1312 235.441 26.0265 -27.0223
  1313 47.7041 16.3644 -27.4091
  1314 48.0117 15.9030 27.0921
  1315 156.144 -0.0195402 -12.4508
  1316 163.379 -2.18077 0.0213549
  1317 163.179 -2.15873 -0.0548142
  1318 -4.03579 -0.731742 5.89990
  1319 -4.02841 -0.721411 -5.89724
  1320 180.113 -0.460115 9.94829
  1321 276.253 55.0218 0.687935
  1322 16.4223 -0.718053 -2.22834
  1323 16.4629 -0.719766 2.20728
  1324 204.253 -19.9346 10.3667
  1325 -0.117564 3.13816 5.44637
  1326 -0.0591973 3.15735 -5.40904
  1327 34.4281 -0.771611 -0.684252
  1328 34.4346 -0.757911 0.670339
  1329 156.196 -0.280539 12.6357
  1330 2.63296 0.361686 -0.325667
  1331 2.65163 0.363067 0.318695
  1332 208.896 -2.19700 3.83349
  1333 289.633 53.2049 2.08458
</Section>

newXOutput 27

<Section columns = "stress_xx | stress_yy | stress_xy">
  1 243.190 -0.531034 0.438333
  2 243.605 -0.723560 -0.569758
  3 0.189185 0.237464 -0.645735
  4 -0.158491 -0.248981 -0.151747
  5 454.660 171.723 145.344
  6 461.683 197.198 -146.984
  7 -0.156670 -0.247400 0.149387
  8 0.184950 0.236155 0.644156
  9 244.924 -0.368512 -0.402789
  10 242.968 -0.758682 -0.567051
  11 243.060 -0.573493 0.591831
  12 241.694 -0.239079 0.310869
  13 241.080 -0.708930 -0.0748498
  14 240.477 -0.671485 1.07247
  15 236.594 -0.433579 1.08093
  16 237.340 -1.67796 1.55331
  17 229.354 -1.36330 3.24390
  18 224.165 -0.541528 3.88582
  19 217.111 -0.712904 4.16492
  20 205.028 -0.627689 5.73803
  21 192.002 -0.560976 6.61814
  22 175.897 0.808444 9.00249
  23 153.979 1.24336 8.11505
  24 145.289 -0.143352 11.5726
  25 118.197 1.70358 8.20134
  26 101.877 2.28398 6.39989
  27 97.6374 1.00659 4.70929
  28 93.0834 3.31731 0.336162
  29 95.5633 3.61927 -6.29161
  30 100.607 0.995945 -7.90837
  31 120.681 0.361054 -10.5991
  32 141.069 -1.05429 -11.0807
  33 154.768 1.02774 -8.10747
  34 176.145 0.924711 -9.01123
  35 191.477 -0.671978 -7.08561
  36 206.388 -0.743726 -5.42501
  37 216.174 -0.496115 -4.22576
  38 223.465 -0.568656 -3.58380
  39 231.224 -0.774649 -2.10364
  40 234.396 -0.739857 -2.03063
  41 237.457 -0.706888 -1.77351
  42 240.600 -0.819630 -0.416001
  43 241.858 -1.06573 -0.760878
  44 240.534 0.196388 -0.114984
  45 242.788 -0.507071 -0.658913
  46 243.993 -1.16004 0.618036
  47 245.250 -0.643101 -0.0387417
  48 232.290 0.351362 -0.365697
  49 217.834 -0.600039 -0.699574
  50 201.589 -1.69243 -1.04652
  51 184.881 -1.27049 -0.766968
  52 170.406 -2.34822 -0.708202
  53 155.202 -2.59535 -0.656872
  54 139.934 -2.23316 -0.356931
  55 123.949 -2.46047 -0.471559
  56 110.475 -2.72107 -0.605226
  57 92.6117 -2.65466 -0.508533
  58 74.2670 -1.62062 -0.325554
  59 59.1235 -1.02393 -0.266650
  60 40.4524 -0.645280 -0.140452
  61 26.8823 -0.681957 -0.959105
  62 14.2593 -1.01068 -0.333519
  63 1.54086 0.121228 0.550614
  64 -1.69578 0.896921 0.181880
  65 -2.55207 0.369195 0.556417
  66 -1.95610 0.169134 0.531071
  67 -4.39165 0.519089 0.183799
  68 -5.25333 0.673281 1.13516
  69 -5.42726 0.232776 0.342859
  70 -9.59159 0.491290 0.386552
  71 -11.4553 0.350006 1.07440
  72 -12.0159 0.127158 1.11734
  73 -16.4829 0.468860 0.834026
  74 -18.0622 0.692336 1.66891
  75 -19.7283 0.420294 0.525510
  76 -21.8285 0.302308 0.849171
  77 -22.4805 0.326414 0.277146
  78 -24.4206 0.765282 -0.611263
  79 -24.5012 0.524967 -0.462030
  80 -22.1865 0.404779 -0.819366
  81 -18.9733 0.512929 -1.50442
  82 -15.3205 0.216219 -2.22671
  83 -11.3468 0.114527 -2.29836
  84 -6.78639 -0.244647 -2.39718
  85 -2.91276 -0.192093 -1.38557
  86 -1.21039 -0.495158 -0.858597
  87 -0.210634 -1.22751 -0.736829
  88 -0.361873 -3.13630 -1.33112
  89 -0.408492 -6.22586 -2.35988
  90 -0.0945165 -11.7027 -2.57092
  91 0.129709 -16.2746 -3.25044
  92 0.319195 -23.4497 -2.66239
  93 0.971757 -27.9360 -3.15773
  94 0.146896 -30.3317 -2.67212
  95 -0.0597193 -35.0073 -1.70516
  96 0.954516 -34.4189 -0.647097
  97 3.82040 -44.8104 1.48209
  98 3.29284 -25.5960 5.38711
  99 7.96350 -13.5627 12.3158
  100 24.3381 34.1503 40.3150
  101 106.577 128.014 118.383
  102 596.029 62.2570 88.9285
  103 495.084 17.4343 31.8733
  104 470.656 7.44266 11.0156
  105 456.902 4.92325 -0.0540236
  106 465.568 7.09363 -9.01864
  107 499.980 14.9047 -26.4654
  108 589.833 49.7068 -83.0880
  109 68.9095 145.323 -97.8831
  110 17.0664 23.3274 -30.9356
  111 5.85536 -17.5543 -10.0922
  112 2.98172 -27.9541 -4.54682
  113 3.80419 -46.4998 -1.07291
  114 0.914956 -35.1738 0.940110
  115 -0.115250 -35.3877 1.85860
  116 0.111260 -30.4808 2.75470
  117 0.952547 -27.9739 3.19291
  118 0.311782 -23.4399 2.67560
  119 0.124041 -16.2538 3.25548
  120 -0.0972833 -11.6753 2.56973
  121 -0.408898 -6.20820 2.35520
  122 -0.362655 -3.12086 1.32663
  123 -0.210514 -1.22172 0.732811
  124 -1.20341 -0.494535 0.855265
  125 -2.90047 -0.192917 1.38203
  126 -6.77091 -0.246567 2.39522
  127 -11.3293 0.112457 2.29908
  128 -15.3116 0.213981 2.23084
  129 -18.9794 0.511384 1.51223
  130 -22.2079 0.404706 0.827646
  131 -24.5420 0.524592 0.470019
  132 -24.4771 0.765356 0.619490
  133 -22.5546 0.327320 -0.270160
  134 -21.9155 0.303414 -0.844197
  135 -19.8213 0.421522 -0.521746
  136 -18.1616 0.693765 -1.66774
  137 -16.5843 0.470169 -0.833094
  138 -12.1146 0.127954 -1.11809
  139 -11.5531 0.351362 -1.07651
  140 -9.68359 0.493218 -0.389536
  141 -5.50637 0.234077 -0.348112
  142 -5.31891 0.674535 -1.14267
  143 -4.44564 0.519378 -0.190504
  144 -1.99262 0.168861 -0.537483
  145 -2.57533 0.368505 -0.561528
  146 -1.71045 0.895680 -0.186356
  147 1.53328 0.120486 -0.553175
  148 14.2519 -1.01435 0.330756
  149 26.8747 -0.691510 0.955981
  150 40.4481 -0.662363 0.136460
  151 59.1234 -1.04872 0.264510
  152 74.2661 -1.64949 0.325107
  153 92.6035 -2.67980 0.512239
  154 110.447 -2.73402 0.613199
  155 123.901 -2.44594 0.490705
  156 139.861 -2.17744 0.379297
  157 155.100 -2.46250 0.622327
  158 170.476 -2.38486 0.624784
  159 184.932 -1.50458 0.808251
  160 201.751 -1.64898 0.957148
  161 218.286 -0.472632 0.708993
  162 231.862 0.337970 0.354219
  163 131.950 -11.8338 -9.76265
  164 131.400 -12.0469 9.74086
  165 38.5473 10.8039 -14.7451
  166 38.9331 10.8462 14.6745
  167 156.726 -7.92434 39.3074
  168 164.493 -8.93165 -38.2199
  169 74.7270 -3.83726 4.38785
  170 74.7246 -3.79785 -4.46336
  171 167.704 -5.47426 1.63576
  172 164.216 -5.49021 -1.58544
  173 222.167 40.3285 -6.12598
  174 227.280 1.06136 -31.2246
  175 222.535 2.87941 33.3130
  176 51.4168 -1.88125 -9.79416
  177 51.4132 -1.86561 9.76934
  178 196.384 -19.5296 11.9728
  179 196.105 -15.0896 -16.0387
  180 2.22234 4.20350 5.31915
  181 2.30209 4.23094 -5.27230
  182 268.213 54.3330 10.5513
  183 50.4047 22.2852 -34.7032
  184 54.1943 22.5124 37.3407
  185 190.061 -8.60243 7.86715
  186 285.564 59.3000 -6.23716
  187 121.533 -4.10237 -0.944961
  188 121.327 -4.21963 0.930453
  189 195.701 -5.87407 -7.11617
  190 262.028 -2.88943 -1.30606
  191 45.1845 -1.33392 1.61164
  192 45.1770 -1.34697 -1.64063
  193 18.9893 2.64374 -6.38607
  194 19.0787 2.61662 6.40011
  195 108.281 -4.18946 -24.1355
  196 107.853 -4.42711 24.4552
  197 129.725 -8.18439 -2.86395
  198 129.988 -8.13814 3.11943
  199 31.5816 -1.10403 5.10220
  200 31.5391 -1.08813 -5.11708
  201 259.314 -5.94576 14.7842
  202 210.744 -21.1053 -6.09293
  203 201.037 -1.68073 -1.24396
  204 196.357 -2.09645 1.29189
  205 196.340 22.9512 23.2352
  206 7.98844 6.37297 -1.77320
  207 8.29448 6.35425 1.90855
  208 197.143 -8.03370 27.0914
  209 179.685 13.6190 -26.3474
  210 129.291 27.9021 -82.2031
  211 135.949 23.5335 76.3124
  212 2.48212 4.26303 0.120542
  213 2.55676 4.26126 -0.0856790
  214 196.408 -7.11205 -27.9440
  215 345.410 48.7075 -3.08690
  216 163.313 -17.9329 13.1156
  217 164.594 -17.8225 -12.3266
  218 163.240 -11.4286 -2.09001
  219 204.118 -2.90185 3.89098
  220 96.5674 -6.50768 -8.36914
  221 94.9899 -6.47908 8.66687
  222 57.3641 1.27128 -15.0495
  223 57.4416 1.24749 14.9086
  224 208.864 -22.4238 -0.625884
  225 161.842 -12.1711 1.39996
  226 203.420 -2.81118 -3.13608
  227 157.154 -3.63990 0.404389
  228 158.576 -3.36070 -0.0969525
  229 199.789 -8.80777 16.0011
  230 15.2333 0.213348 -5.43454
  231 15.3011 0.205426 5.43135
  232 -2.64213 -1.81427 -6.86606
  233 -2.65516 -1.82998 6.87202
  234 27.7128 -1.26300 -2.90507
  235 27.7465 -1.26603 2.87714
  236 82.1835 -2.28319 1.92169
  237 82.2080 -2.32919 -1.94042
  238 95.8581 6.49826 -35.8325
  239 95.8682 5.39558 35.4149
  240 202.775 -6.16847 -13.6788
  241 93.5082 -5.39044 -14.1853
  242 93.5829 -5.55802 13.9599
  243 176.516 2.56760 29.6935
  244 152.669 13.1877 1.78918
  245 173.501 -17.2315 -2.02604
  246 0.630290 -4.65474 -6.49180
  247 0.572355 -4.69984 6.54249
  248 10.6847 9.87539 -11.2361
  249 11.3964 9.47425 11.8731
  250 170.543 -16.8486 0.868231
  251 310.839 56.1571 -1.20178
  252 15.1938 10.4315 -4.28998
  253 15.3837 10.4247 4.34975
  254 -6.93984 1.36749 4.85037
  255 -6.90670 1.37453 -4.82772
  256 312.782 52.2832 2.84790
  257 106.708 -4.92684 -2.94010
  258 106.622 -4.84140 2.86301
  259 212.417 -14.6028 25.6193
  260 387.901 62.9725 38.2576
  261 61.3689 -3.17713 -7.95854
  262 61.3491 -3.19952 7.94691
  263 215.094 32.1157 -22.5085
  264 373.681 70.7215 -34.3498
  265 259.473 24.9901 22.7913
  266 284.389 15.1808 -50.6435
  267 173.722 -7.91924 3.58186
  268 196.724 0.690496 -33.5965
  269 187.307 -13.0746 -9.57860
  270 209.472 -3.57820 8.74680
  271 -1.10746 1.98483 -1.67707
  272 -1.03318 1.97823 1.70136
  273 207.692 -7.85916 -49.4724
  274 20.9755 6.71316 -6.33375
  275 21.0783 6.69972 6.37075
  276 199.995 -4.80925 -17.2078
  277 28.0106 27.3684 -35.9452
  278 20.6938 -0.0818773 -0.657941
  279 20.7061 -0.0765107 0.646024
  280 211.535 -13.4189 -26.6543
  281 36.0827 16.2005 -18.8002
  282 36.6121 16.1066 18.8519
  283 8.37162 -0.302943 3.82462
  284 8.30141 -0.298860 -3.82921
  285 173.485 -7.48660 -3.47548
  286 28.1973 27.0596 36.9628
  287 279.743 18.3741 59.7790
  288 73.3269 -2.80183 -2.55420
  289 73.3074 -2.78178 2.50897
  290 137.759 -5.39696 -0.623704
  291 137.689 -5.87573 0.771286
  292 117.582 10.8778 -55.1875
  293 190.965 -21.0184 -4.65704
  294 219.329 -1.10422 1.75013
  295 113.180 10.8307 53.3171
  296 131.738 -3.24897 -0.171073
  297 131.686 -3.24567 0.288720
  298 187.592 -13.6298 9.76637
  299 216.987 -2.09673 -4.24453
  300 -2.94145 0.820433 -2.85480
  301 -2.86040 0.814347 2.86549
  302 270.583 54.1718 -3.06860
  303 238.267 -11.6739 14.7902
  304 216.189 -0.847423 -0.504415
  305 220.124 -0.731597 0.456682
  306 214.481 -19.4562 16.6340
  307 264.711 26.6771 -21.4397
  308 229.228 42.7662 13.2235
  309 101.786 -6.09059 -5.02524
  310 100.828 -6.20614 5.13975
  311 219.135 -1.05628 -1.23539
  312 141.775 -10.8853 -26.5490
  313 139.264 -10.8295 3.73574
  314 132.805 -7.42752 30.4649
  315 214.960 -2.38615 5.03343
  316 45.9755 -2.10757 -4.91402
  317 46.0012 -2.12348 4.88795
  318 197.651 -7.43919 48.9077
  319 123.796 -9.66109 -6.25085
  320 229.509 29.1135 28.3867
  321 71.8203 5.08488 -22.8260
  322 69.0871 5.31150 22.6200
  323 18.1077 -0.420354 -1.19854
  324 18.1333 -0.417269 1.17953
  325 189.410 -3.48763 2.44966
  326 181.541 -2.21090 0.452858
  327 180.491 -2.45655 -0.518084
  328 198.386 -5.06924 18.2042
  329 14.3902 -0.598488 2.80330
  330 14.3328 -0.592615 -2.81908
  331 55.1936 -1.25336 -0.992762
  332 55.1918 -1.22993 0.980060
  333 1.77802 -9.68768 -3.89650
  334 1.65292 -9.75924 4.04556
  335 151.370 6.48460 20.0554
  336 240.637 -11.1251 -12.4484
  337 154.372 -7.93081 1.39929
  338 175.389 -3.17044 -1.43120
  339 180.811 22.5617 -12.4269
  340 33.7006 -1.05078 -7.21815
  341 33.7413 -1.05122 7.20887
  342 149.983 -7.45797 -0.587886
  343 40.8944 1.51571 -10.4540
  344 40.9702 1.47899 10.4153
  345 7.50539 6.76015 0.613154
  346 7.60482 6.75776 -0.571815
  347 183.268 -19.9223 17.2139
  348 412.393 27.3051 10.5339
  349 160.327 2.28205 -23.7885
  350 135.305 -12.1524 15.8316
  351 134.613 -11.9160 -16.3477
  352 200.347 -3.60624 33.3421
  353 177.024 -1.37712 23.6123
  354 180.823 -19.2658 -17.8219
  355 106.023 -2.46162 -0.0168439
  356 106.008 -2.49496 0.0439219
  357 200.040 -13.0906 20.8998
  358 273.825 54.8580 1.95554
  359 215.890 -2.27233 -6.47121
  360 52.6214 -1.98518 -3.48074
  361 52.6380 -1.98650 3.43921
  362 202.795 -19.7233 -21.6372
  363 211.658 14.4811 -33.3900
  364 138.602 7.47349 -12.8413
  365 201.386 -13.5342 -23.7638
  366 -6.68483 0.180285 -5.30839
  367 -6.69240 0.172472 5.31532
  368 169.207 -3.66861 1.04276
  369 -2.40950 -1.44172 -3.10086
  370 -2.40684 -1.44230 3.09478
  371 131.442 62.4533 -100.451
  372 4.82523 4.17478 3.87492
  373 4.95465 4.20916 -3.80619
  374 175.585 -1.45553 -23.4124
  375 96.0012 -3.91769 2.20135
  376 96.0753 -3.97464 -2.23296
  377 -0.718639 -7.22973 6.03477
  378 -0.707650 -7.21641 -6.02811
  379 106.395 65.6129 94.4275
  380 78.3235 -4.09609 -10.9473
  381 78.3806 -3.91196 10.9555
  382 24.6976 17.9146 -17.2532
  383 25.2299 17.8554 17.1437
  384 -10.5738 1.49514 2.12642
  385 -10.5287 1.49726 -2.10253
  386 203.900 13.3498 33.3211
  387 156.608 -16.3860 6.80449
  388 156.773 -14.1929 1.97884
  389 190.790 -21.8262 -1.10641
  390 46.2538 5.90982 -14.7090
  391 46.4071 5.89693 14.6815
  392 4.05663 -7.23351 -0.203032
  393 3.82601 -7.32966 0.531677
  394 190.847 27.3934 8.23886
  395 195.021 -5.32038 5.89790
  396 109.814 -8.43933 9.91169
  397 67.0933 -1.62141 -13.2490
  398 67.1127 -1.63349 13.1374
  399 141.018 -3.95712 -0.0495394
  400 140.859 -3.42758 -0.0706804
  401 108.881 -8.67581 -10.5925
  402 84.7158 -1.38854 -18.1863
  403 84.6968 -1.50756 18.3360
  404 202.907 -18.7287 -15.1822
  405 116.339 -8.81224 5.93107
  406 184.759 -5.33939 3.74032
  407 184.452 -4.82774 -3.18809
  408 153.820 -14.0823 -2.54663
  409 223.718 -0.777113 -1.84386
  410 73.5074 29.1594 -55.7929
  411 208.985 -2.91303 10.5604
  412 222.884 -0.988425 2.66946
  413 76.8160 -4.03145 6.38739
  414 76.8567 -3.97488 -6.38191
  415 155.894 -16.1876 -7.08106
  416 21.2806 9.70218 6.79930
  417 21.1639 9.69670 -6.80818
  418 416.784 27.2839 -21.6081
  419 180.758 -10.1035 -5.78310
  420 225.602 -0.586031 1.06329
  421 69.3067 27.1255 53.0254
  422 331.568 56.0336 10.0968
  423 194.760 -2.64655 -1.97405
  424 144.148 -10.2811 -1.89745
  425 59.1309 11.4333 -25.8752
  426 63.0784 10.6095 25.7208
  427 178.496 -11.1286 5.87703
  428 188.285 -2.45557 -17.4612
  429 -3.34978 -0.156365 2.85040
  430 -3.43342 -0.154343 -2.84948
  431 67.1100 16.0306 -35.0789
  432 67.3214 16.0917 34.9676
  433 6.98987 3.74697 -2.67515
  434 7.07213 3.73815 2.70543
  435 160.005 -2.73823 0.480543
  436 159.813 -2.65633 -0.424151
  437 199.452 -9.01680 -16.7130
  438 -0.724348 -0.798484 7.53369
  439 -0.688944 -0.767873 -7.50694
  440 205.652 -20.4527 13.5021
  441 194.822 -4.93997 -5.25286
  442 315.135 60.4402 -8.24222
  443 9.50543 -0.548414 1.29208
  444 9.45823 -0.548546 -1.30875
  445 382.009 106.098 46.0804
  446 7.33336 0.969610 -10.1982
  447 21.6719 1.16542 -6.98373
  448 21.7449 1.14732 6.98008
  449 380.547 108.386 -43.8113
  450 7.77405 1.81692 11.3223
  451 -10.4180 1.18627 0.786386
  452 -10.3603 1.18420 -0.764031
  453 20.1980 13.7913 -9.75546
  454 20.5568 13.7923 9.81135
  455 245.292 38.0700 -23.8121
  456 197.446 -7.54545 -10.9935
  457 224.342 -0.655686 -0.957015
  458 206.105 -3.09896 -12.3379
  459 -2.66997 1.35474 6.92123
  460 -2.63404 1.37421 -6.89631
  461 199.452 -7.89694 12.6904
  462 128.262 -6.99349 -2.22393
  463 127.856 -7.06975 1.77821
  464 175.424 -19.3839 -1.63582
  465 124.418 -1.91212 -37.6315
  466 190.297 -2.94899 17.8648
  467 156.034 -4.72403 -0.506961
  468 230.833 -17.8517 -1.01526
  469 120.466 0.845949 40.4237
  470 6.80296 -0.147161 2.75030
  471 6.73226 -0.143580 -2.75819
  472 251.652 49.8307 -11.0304
  473 203.106 -1.20862 0.195347
  474 202.390 -1.40700 -0.385457
  475 151.626 -9.91513 0.175600
  476 64.1443 -2.09800 -1.89804
  477 64.1346 -2.07071 1.86975
  478 37.3948 -0.377300 -8.56329
  479 37.4350 -0.384762 8.54166
  480 123.981 4.82152 7.65576
  481 29.7095 -1.01364 4.06880
  482 29.6699 -1.00350 -4.09322
  483 32.9507 3.29727 9.62630
  484 32.8410 3.34607 -9.62054
  485 195.766 -15.1315 15.4386
  486 108.213 -6.71527 -17.0115
  487 99.3243 -3.01033 1.05734
  488 99.3644 -3.09282 -1.06065
  489 109.374 -6.93019 17.0022
  490 307.008 72.2318 -4.42267
  491 -4.91432 -0.761307 -4.05699
  492 -4.91214 -0.765138 4.05509
  493 74.5820 -1.96530 -0.772462
  494 74.5769 -1.93154 0.768308
  495 0.0567750 -13.4327 -5.14348
  496 0.0248789 -13.4759 5.18743
  497 179.039 -2.33610 0.865140
  498 123.137 5.94821 -3.81827
  499 168.366 17.7213 11.1155
  500 107.655 -1.09871 -29.7442
  501 51.0985 -2.60647 6.19622
  502 51.0986 -2.58402 -6.21024
  503 -14.7881 0.456485 -0.857595
  504 -14.7096 0.453820 0.867460
  505 211.081 -4.22923 -33.2792
  506 13.7212 0.122082 -0.895369
  507 13.7407 0.124864 0.881765
  508 175.722 -13.7100 -5.03548
  509 187.461 -15.9025 -9.39047
  510 37.4556 27.9003 -37.2149
  511 157.422 3.70260 -60.1199
  512 1.49248 4.56115 3.60926
  513 1.56644 4.57014 -3.56869
  514 94.5476 -4.22005 -3.33304
  515 94.4951 -4.17796 3.24590
  516 272.538 10.1908 -8.57593
  517 195.036 -11.4078 -13.9686
  518 36.4940 26.3055 36.6694
  519 193.282 -22.0926 4.10221
  520 185.688 -17.6275 7.57777
  521 36.8073 -0.885489 -2.65653
  522 36.8253 -0.881341 2.62576
  523 149.637 1.54934 18.3970
  524 108.889 -7.90145 -6.36161
  525 206.318 -4.36749 8.00956
  526 -0.862425 -5.00063 -3.92968
  527 -0.864564 -4.99724 3.92448
  528 143.355 -12.7736 19.1193
  529 219.709 -17.1449 -18.0119
  530 288.408 18.3817 -7.87588
  531 154.077 -4.91465 0.627510
  532 43.1590 -0.768384 -0.791150
  533 43.1622 -0.751288 0.782775
  534 96.5982 0.747179 28.6016
  535 274.139 45.0235 16.9644
  536 281.598 51.1516 -95.9305
  537 249.996 0.606560 17.5746
  538 178.988 -19.9342 0.656823
  539 430.193 34.1904 28.8781
  540 315.146 75.0313 6.89722
  541 42.1305 -1.73214 6.78801
  542 42.1032 -1.71410 -6.80300
  543 171.935 -14.1212 3.96244
  544 11.9172 6.05380 -2.34628
  545 12.0114 6.04923 2.38248
  546 216.978 -18.3133 17.9861
  547 174.911 9.31718 27.2798
  548 219.290 -1.29522 4.43487
  549 160.758 -9.40658 2.06156
  550 227.553 0.443751 -63.3709
  551 363.814 89.8385 61.0731
  552 174.970 -3.07558 -0.795506
  553 215.018 -2.08193 -7.04419
  554 32.6194 13.7163 -13.8618
  555 32.8587 13.5493 13.7915
  556 121.232 -4.61544 -1.38523
  557 121.173 -4.49657 1.42330
  558 1.33213 -17.0872 -1.21713
  559 218.706 -8.13746 29.8985
  560 7.82622 7.21238 1.47385
  561 7.95714 7.23093 -1.41338
  562 1.57161 -16.5563 1.68013
  563 198.628 -9.10732 -24.0116
  564 228.835 13.9919 -32.2879
  565 227.929 15.9048 32.2674
  566 10.5408 8.30754 7.22817
  567 9.99308 8.53299 -7.04822
  568 -7.97054 0.225308 2.11837
  569 -8.05734 0.227479 -2.11475
  570 211.691 4.02258 65.4354
  571 113.769 -6.10813 3.15271
  572 113.888 -6.08584 -3.23588
  573 255.921 -5.94227 -32.3926
  574 29.8735 -0.403421 1.54512
  575 29.8600 -0.411106 -1.56564
  576 11.8381 -0.395470 -0.372576
  577 11.8477 -0.392832 0.367827
  578 279.699 49.9034 -14.1848
  579 26.1031 35.4753 -41.3597
  580 142.625 2.77836 -15.5579
  581 204.484 32.7948 -14.0954
  582 2.81164 -0.598900 4.94989
  583 2.93567 -0.556085 -4.86670
  584 212.459 91.6771 113.357
  585 177.560 -4.60577 -2.24234
  586 4.95081 1.82300 -3.43204
  587 5.03102 1.80977 3.44992
  588 205.019 -16.6259 21.0571
  589 30.9365 34.2915 42.1138
  590 147.128 -2.73688 0.0722111
  591 147.167 -2.71045 -0.0728401
  592 -0.192328 -10.6087 5.26900
  593 -0.176370 -10.5911 -5.25168
  594 251.112 49.2938 -0.401881
  595 159.584 -13.0961 27.7031
  596 152.142 -6.20121 0.537997
  597 153.553 6.19175 63.4752
  598 -12.9148 0.626782 3.21008
  599 -12.9015 0.630155 -3.19770
  600 253.191 2.40172 -18.8104
  601 341.228 53.2765 -42.8793
  602 94.6036 9.41188 -41.7094
  603 49.7237 -2.03702 -8.32558
  604 49.7664 -2.03674 8.32445
  605 230.344 -0.621056 1.30272
  606 150.584 -6.34375 -0.737268
  607 203.781 -2.47131 2.91497
  608 198.651 -9.09322 23.4617
  609 5.43526 -0.317320 1.34215
  610 5.37537 -0.315905 -1.35463
  611 116.392 -3.79168 -0.779175
  612 116.374 -3.67737 0.742224
  613 71.9349 1.64397 -18.7836
  614 71.4554 1.66387 18.6910
  615 290.345 15.1081 14.6513
  616 479.430 36.1194 -52.6075
  617 -5.79257 -0.278650 1.87143
  618 -5.88092 -0.277658 -1.87178
  619 67.1107 -2.75519 3.54327
  620 67.1118 -2.75246 -3.60014
  621 269.554 13.4020 12.2596
  622 227.988 -0.597289 -0.414384
  623 227.464 -0.960278 0.197511
  624 160.511 -0.131706 18.2440
  625 237.074 -14.8046 -19.1475
  626 126.633 -10.2763 7.63013
  627 -3.51041 2.80911 -3.25633
  628 -3.56574 2.80519 3.28794
  629 204.161 3.88234 34.7600
  630 79.2742 -4.47192 -8.62772
  631 79.1888 -4.54898 8.64516
  632 166.654 -9.38492 -2.68539
  633 207.359 -4.30486 -7.26252
  634 116.420 -9.20807 -12.0396
  635 191.091 23.0326 -21.1021
  636 129.243 -8.98479 -22.3841
  637 44.9274 -1.18827 -1.33493
  638 44.9309 -1.17261 1.31368
  639 117.667 -9.38215 12.0764
  640 256.076 40.7729 21.6864
  641 203.189 -10.0621 29.5361
  642 166.384 -7.09621 2.40053
  643 117.691 -2.83740 0.627286
  644 117.661 -2.84521 -0.604062
  645 87.7041 -3.10120 -2.46889
  646 87.6666 -3.06377 2.43658
  647 196.029 -18.0392 -12.7044
  648 97.3060 -5.34428 4.35474
  649 97.4179 -5.32338 -4.46129
  650 194.130 30.1413 -2.84789
  651 181.099 -9.26620 5.79923
  652 228.898 -0.924201 -1.98249
  653 191.376 -3.69051 -30.4794
  654 25.4087 -1.15691 5.44004
  655 25.3588 -1.14843 -5.44737
  656 222.737 -1.08629 -4.00887
  657 38.2912 19.6053 -25.9044
  658 38.9573 19.5508 26.0332
  659 226.780 -14.6126 27.3058
  660 76.2805 18.7683 43.9172
  661 16.8498 -0.0612981 5.45149
  662 16.7883 -0.0570249 -5.45647
  663 192.457 -13.0754 36.0703
  664 190.439 24.7266 -87.1060
  665 182.431 5.52931 -30.2954
  666 242.248 43.6645 18.4451
  667 163.430 -6.93723 -1.66678
  668 295.038 53.5755 -1.29730
  669 -15.1611 0.670449 -0.434639
  670 -15.0942 0.668577 0.448878
  671 129.798 0.232200 -44.3375
  672 5.76001 -0.181332 1.05862
  673 5.71993 -0.181835 -1.07124
  674 163.570 -14.0835 -27.3572
  675 52.7256 7.36889 -18.0486
  676 52.2899 7.39134 18.0359
  677 0.102889 2.69012 -0.641087
  678 0.175408 2.68603 0.671444
  679 138.248 -11.8274 -5.39269
  680 196.619 -1.92676 -11.7573
  681 91.8998 -2.65239 -0.915516
  682 91.9013 -2.61882 0.923779
  683 65.7139 -3.29789 -5.42044
  684 65.7622 -3.34560 5.39600
  685 12.1664 10.0228 -2.72543
  686 12.3785 10.0419 2.79519
  687 203.543 -2.08254 1.56193
  688 87.8887 -5.47355 7.08523
  689 88.4788 -5.37277 -7.07623
  690 224.766 -18.5670 -4.51776
  691 184.389 -18.5279 -5.58709
  692 144.238 -3.70435 0.237179
  693 143.711 -3.42322 -0.159104
  694 203.716 -21.9680 9.44880
  695 332.150 66.7394 16.0500
  696 178.744 -8.63620 -45.2365
  697 204.858 -5.58361 12.5627
  698 202.611 -7.77595 -31.5753
  699 60.6444 -1.80736 -2.47931
  700 60.6392 -1.79185 2.44160
  701 158.555 -3.34678 50.9157
  702 452.124 57.5350 52.8287
  703 29.1713 8.72438 -10.0073
  704 29.2128 8.78153 10.0411
  705 202.996 -1.60593 -0.804982
  706 204.653 -1.41734 0.817609
  707 84.9288 41.2979 -72.1767
  708 214.936 -1.04169 6.99974
  709 185.730 -2.79007 1.38059
  710 243.081 48.4492 -6.92536
  711 23.4364 4.42685 -7.11718
  712 23.5411 4.39829 7.14439
  713 232.796 -0.437733 0.263846
  714 186.472 -6.87469 -5.56618
  715 232.781 -4.15532 26.5862
  716 93.3040 -6.45862 -11.4347
  717 93.5397 -6.17206 11.3128
  718 18.9607 -0.705720 4.12037
  719 18.9055 -0.696444 -4.13427
  720 212.449 -1.12518 -1.39033
  721 182.737 33.6406 92.6625
  722 1.06135 1.03287 6.46134
  723 1.12839 1.07150 -6.41541
  724 212.631 -2.01631 -3.46214
  725 206.154 -3.49041 4.91031
  726 159.698 0.0297303 -19.5675
  727 1.45657 -19.5081 -2.79818
  728 1.35639 -19.6913 2.98235
  729 73.3474 19.3125 -43.8977
  730 163.186 -16.5758 -19.3239
  731 84.1762 40.9635 72.9233
  732 229.496 -0.408598 0.818031
  733 217.749 32.4994 22.6402
  734 156.348 14.2658 -7.72731
  735 287.270 57.9711 -1.08015
  736 226.069 -0.806314 2.64965
  737 -14.8981 0.335734 1.47634
  738 -14.9842 0.337588 -1.47030
  739 239.950 -14.6018 4.30009
  740 153.819 -4.04305 0.280605
  741 54.2543 0.185521 -12.6706
  742 54.3221 0.129833 12.5883
  743 206.452 -2.09426 -2.13781
  744 365.985 51.9299 -18.1597
  745 21.4201 -0.669187 -2.50959
  746 21.4647 -0.673289 2.48757
  747 231.089 -0.481927 -1.25775
  748 42.7509 -1.92041 -3.51451
  749 42.7745 -1.92725 3.48206
  750 223.931 -9.43456 -27.2211
  751 206.545 -2.10599 9.55540
  752 183.601 -1.39698 30.0383
  753 231.714 -0.503118 -0.0723666
  754 215.326 -1.35189 2.68223
  755 138.683 -7.17720 -0.633871
  756 175.254 -4.21265 1.77193
  757 199.041 -12.2592 -20.2869
  758 194.291 -12.1013 13.5402
  759 226.969 27.0485 -28.6436
  760 191.693 -10.5612 10.2248
  761 202.140 -12.1026 25.7260
  762 115.805 -7.64574 4.40332
  763 3.99251 -2.13993 -1.07056
  764 3.76905 -2.15185 1.28158
  765 177.653 -2.24271 0.0800687
  766 177.269 -2.22305 -0.147256
  767 214.623 -0.666103 -0.169019
  768 215.393 -0.620322 0.221187
  769 202.615 -5.60156 15.2476
  770 187.176 -17.6673 25.6850
  771 152.816 -12.2253 1.18845
  772 135.291 -7.80010 1.66891
  773 373.681 48.0214 21.3554
  774 205.378 -5.01527 -10.0231
  775 119.386 19.9777 -67.8544
  776 190.517 -9.17877 -8.90034
  777 5.74248 0.188042 -3.81985
  778 5.82008 0.181076 3.82396
  779 167.154 14.6544 -17.3390
  780 440.464 13.4016 -5.80329
  781 213.669 5.08158 -34.1941
  782 8.27431 1.64888 -15.6585
  783 218.767 39.6077 5.82665
  784 171.751 -10.6735 3.75480
  785 192.248 -4.97768 29.6052
  786 162.321 -17.2943 19.4352
  787 263.029 -3.43710 40.4720
  788 8.92033 3.64495 16.7894
  789 116.549 -0.879083 34.2577
  790 164.249 -3.83060 -0.874914
  791 183.410 -16.9091 -26.0168
  792 110.965 -8.52889 -8.17799
  793 87.4493 4.10262 -29.7362
  794 212.036 -3.68244 33.5247
  795 135.083 -8.99620 3.10729
  796 23.0059 -0.700601 2.28977
  797 22.9749 -0.701611 -2.31436
  798 197.238 -1.05097 10.4277
  799 177.471 0.720344 -29.1103
  800 -16.0159 0.698915 2.05617
  801 -15.9919 0.700127 -2.04280
  802 131.371 -3.78134 -0.107470
  803 130.974 -3.55329 0.0668462
  804 97.1074 10.5792 42.3492
  805 85.6544 -4.88847 5.22548
  806 85.7831 -4.76405 -5.28978
  807 231.045 -0.310003 -0.721585
  808 78.5360 6.17556 28.9317
  809 -0.410296 -0.0719171 1.45923
  810 -0.486522 -0.0702151 -1.46675
  811 194.807 -6.07894 22.9974
  812 210.546 -1.49593 1.12472
  813 -11.2394 0.109778 3.13858
  814 -11.2405 0.113277 -3.13237
  815 127.534 -8.13187 25.2869
  816 24.0037 19.5490 -21.6779
  817 24.3054 18.5831 21.3310
  818 117.001 5.24868 3.18135
  819 -4.75620 -0.103606 -1.68311
  820 -4.66848 -0.104837 1.68065
  821 147.086 -14.0900 -18.1703
  822 202.058 -21.4088 -8.37487
  823 -0.994312 -0.946112 -1.24318
  824 -0.991479 -0.943989 1.23868
  825 7.05034 0.361277 -0.327945
  826 7.06452 0.363266 0.320734
  827 179.293 -15.8649 5.75366
  828 150.332 -15.4499 12.2725
  829 167.323 -2.41023 0.692346
  830 149.911 -11.9174 -1.77503
  831 52.3563 -0.786587 -0.234183
  832 52.3570 -0.764042 0.228867
  833 -18.2321 0.382958 1.25656
  834 -18.1940 0.382424 -1.24353
  835 189.824 -2.07915 -1.07094
  836 164.519 6.33406 -24.6861
  837 191.835 -3.46092 -3.00600
  838 111.193 -8.36585 7.75477
  839 187.913 -3.37600 -24.1646
  840 202.398 -6.09133 -15.7604
  841 190.625 -1.73117 0.968361
  842 137.687 -5.54204 35.1716
  843 147.121 -14.3087 -6.44703
  844 87.6103 -0.643971 -22.5477
  845 88.1029 -0.0341994 22.6655
  846 124.822 -9.17083 -4.77850
  847 208.023 22.3144 29.2244
  848 199.100 -21.1494 -13.4543
  849 69.0299 -2.07907 -1.20784
  850 69.0191 -2.04460 1.19226
  851 151.290 -3.05085 -0.132597
  852 151.294 -3.07963 0.173105
  853 179.034 -1.40545 -15.7501
  854 58.4915 -2.42508 -4.36414
  855 58.5190 -2.44395 4.32041
  856 0.696296 -19.3233 -3.94887
  857 0.657237 -19.4052 4.02590
  858 27.4322 -0.406003 -0.194292
  859 27.4245 -0.415517 0.187927
  860 188.278 -2.58174 -1.50983
  861 141.474 -13.4681 11.0228
  862 221.926 -19.5018 8.96727
  863 125.428 2.65186 12.1932
  864 192.484 -4.20627 3.42114
  865 209.716 -19.0688 -16.7901
  866 28.4381 1.95043 -8.30621
  867 28.5224 1.91859 8.29863
  868 166.451 -2.61593 -0.636556
  869 133.001 -4.30400 -0.609777
  870 132.522 -4.26137 0.727916
  871 205.107 32.0125 15.8675
  872 70.2080 -0.619105 -15.4425
  873 70.1334 -0.702841 15.3662
  874 142.803 -12.7905 4.94527
  875 12.9945 8.72407 -2.30037
  876 13.1286 8.70534 2.33710
  877 120.358 -8.60473 20.3734
  878 144.913 -8.99853 -0.613686
  879 180.151 -1.45385 15.9169
  880 178.870 -20.2641 5.35079
  881 205.263 -15.7909 -22.6043
  882 141.129 -13.5795 -11.1995
  883 116.670 -7.61073 -4.19920
  884 391.353 32.3506 -5.95516
  885 187.519 -19.9345 4.48300
  886 4.73775 5.87880 2.85232
  887 4.83384 5.88926 -2.80283
  888 162.464 -16.2163 2.01492
  889 178.636 -20.3089 -10.4392
  890 4.89645 5.22888 0.848460
  891 4.98017 5.22946 -0.811049
  892 65.3749 -2.24317 11.5535
  893 65.4227 -2.31609 -11.6312
  894 79.7417 -3.96025 12.7067
  895 79.7185 -4.05926 -12.8058
  896 257.486 51.7353 8.92328
  897 -0.401563 -7.97481 -3.83160
  898 -0.404343 -7.96611 3.82931
  899 57.6575 4.98427 -17.1466
  900 57.3619 4.88045 16.9625
  901 455.918 14.8011 -23.1923
  902 4.85745 -0.0286805 0.576353
  903 4.82917 -0.0301742 -0.586247
  904 0.719240 -22.6699 1.66636
  905 0.846857 -22.3092 -1.36131
  906 -8.53850 -0.122788 3.18334
  907 -8.54715 -0.120194 -3.18212
  908 46.0167 13.6008 -20.2846
  909 46.7353 13.1514 19.9781
  910 -3.91747 0.0690307 -6.80927
  911 -3.93608 0.0545250 6.82125
  912 11.9036 1.25881 -5.29633
  913 11.9835 1.24301 5.30290
  914 49.7387 -0.481225 10.5992
  915 49.7087 -0.479070 -10.6608
  916 40.0346 -1.32565 -8.51396
  917 40.0719 -1.32252 8.49652
  918 223.502 -0.738477 -3.90792
  919 107.295 22.1765 62.9151
  920 148.622 -14.5913 5.94784
  921 104.466 -7.33724 6.10841
  922 203.222 20.7388 -28.7862
  923 448.258 9.69192 9.19995
  924 243.254 10.3205 -28.2427
  925 37.5872 -1.44339 5.24728
  926 37.5527 -1.42624 -5.27117
  927 4.87335 -0.199350 -3.87429
  928 4.94816 -0.201591 3.87276
  929 -0.282382 -4.03781 -7.46280
  930 -0.314073 -4.06868 7.48727
  931 108.003 -4.51016 2.50680
  932 108.063 -4.60613 -2.52402
  933 11.8145 3.56070 -4.54026
  934 11.9014 3.54421 4.56596
  935 64.7748 -2.80928 -9.72119
  936 64.8146 -2.80828 9.71169
  937 140.771 -0.747652 -14.3799
  938 66.7288 -3.56245 -6.59140
  939 66.6747 -3.52016 6.61403
  940 167.593 -4.27646 -1.09106
  941 202.689 -11.7845 -27.5495
  942 86.4695 -3.33055 2.80660
  943 86.5160 -3.36484 -2.85376
  944 -3.63302 -0.401348 -2.20832
  945 -3.62353 -0.402306 2.20386
  946 207.501 -16.7449 -32.1493
  947 197.961 -11.5458 17.7633
  948 173.380 -11.8883 -4.63765
  949 166.775 5.54628 26.0343
  950 74.8590 -4.11595 -7.45267
  951 74.8523 -4.03236 7.47768
  952 187.523 6.95918 31.6457
  953 174.075 15.1253 20.8086
  954 364.132 44.0686 7.53473
  955 184.975 -6.28585 4.24162
  956 95.1834 -2.58952 -1.24605
  957 95.1681 -2.53096 1.25898
  958 164.950 -13.3334 -1.79355
  959 227.729 41.9019 -13.8299
  960 203.592 -1.82693 -1.57065
  961 131.703 -2.82486 0.398681
  962 131.649 -2.80014 -0.359702
  963 16.1160 13.3836 -8.87265
  964 16.5385 13.3521 8.94718
  965 31.9301 74.8651 -70.3541
  966 188.403 -4.56369 24.0531
  967 236.803 -5.14066 -23.9545
  968 -4.78937 2.24087 1.68114
  969 -4.72906 2.24007 -1.65158
  970 491.004 114.214 -91.8954
  971 202.438 -22.2496 3.95652
  972 216.340 -20.5206 -6.91325
  973 199.066 -17.1136 16.4688
  974 245.135 48.5360 5.99662
  975 17.1294 16.6891 -20.1144
  976 44.9803 64.1638 68.6159
  977 -1.32482 -2.95386 7.38704
  978 -1.30512 -2.93121 -7.37434
  979 194.251 -4.60970 4.20796
  980 312.017 55.5808 -5.97576
  981 17.6433 16.2624 20.9779
  982 -0.867664 -2.83757 -2.45546
  983 -0.867913 -2.83007 2.44940
  984 165.978 -3.41877 0.569299
  985 122.641 -9.63072 -8.49742
  986 200.582 -15.9258 -19.2852
  987 55.5555 14.9104 -27.1751
  988 56.4572 15.1614 27.2475
  989 194.050 -4.84584 -21.5516
  990 196.765 -5.93408 7.43961
  991 -5.51285 1.22547 6.06787
  992 -5.48678 1.23821 -6.04901
  993 117.096 -7.73058 -19.0908
  994 194.952 12.2166 -31.8900
  995 145.290 -5.04733 -0.0250384
  996 103.216 -2.65733 0.154311
  997 103.198 -2.67812 -0.142140
  998 -2.26322 -2.56351 -5.18262
  999 -2.26655 -2.56902 5.17896
  1000 199.419 -6.84406 -9.02738
  1001 190.257 -1.68087 0.305961
  1002 190.078 -1.68264 -0.225366
  1003 262.232 42.1491 -20.3121
  1004 45.4784 4.09343 -13.3432
  1005 45.5903 4.01156 13.3078
  1006 27.9528 -0.203923 -7.00347
  1007 28.0038 -0.209765 6.99174
  1008 214.993 11.0921 34.5891
  1009 204.986 -3.53242 -5.15396
  1010 34.4185 5.62059 -10.6901
  1011 34.5563 5.57727 10.7301
  1012 214.786 -0.825627 -0.920814
  1013 198.980 -8.41430 -13.4585
  1014 194.276 -22.2147 -6.72299
  1015 6.92354 5.62403 -0.912433
  1016 6.71937 5.59733 1.00439
  1017 -9.83934 1.48942 3.72821
  1018 -9.80573 1.49333 -3.70613
  1019 112.762 4.35383 -5.32242
  1020 338.441 82.6283 -20.4661
  1021 152.637 -10.8708 0.129859
  1022 99.9019 -4.34998 -19.7031
  1023 247.601 -10.8179 4.26800
  1024 100.298 -4.35092 19.9907
  1025 176.149 -20.6977 12.4643
  1026 199.800 -8.22711 -19.8255
  1027 65.8630 -1.40143 -0.387579
  1028 65.8621 -1.37249 0.384281
  1029 135.395 -10.3815 -3.93736
  1030 81.9008 -2.98314 -15.1509
  1031 81.8619 -3.00576 15.0633
  1032 26.6824 17.3497 -16.2944
  1033 27.1164 17.2914 16.3424
  1034 54.8047 -1.68513 -1.39787
  1035 54.8021 -1.66186 1.37554
  1036 177.992 -5.23616 2.50419
  1037 149.667 0.117482 -51.6059
  1038 184.622 -5.62246 -4.18603
  1039 166.043 -18.4082 -6.97570
  1040 107.704 -4.28008 1.64499
  1041 107.799 -4.31543 -1.65296
  1042 217.731 -1.04274 1.15903
  1043 193.536 -4.21965 -3.95225
  1044 119.512 2.88216 10.0254
  1045 206.810 -2.01496 -8.87933
  1046 78.8397 22.5507 49.9565
  1047 213.455 -1.90427 -7.32799
  1048 54.0681 9.18084 -20.2279
  1049 52.3983 9.28955 19.3574
  1050 256.005 -5.47355 -5.49730
  1051 21.8679 11.6239 -8.06578
  1052 22.0750 11.5374 8.06089
  1053 3.61011 -1.06741 2.94305
  1054 3.80440 -1.03369 -2.81520
  1055 29.7298 -0.808842 1.72117
  1056 29.7095 -0.814798 -1.74694
  1057 89.9568 22.8504 -55.5803
  1058 507.858 128.733 98.8575
  1059 198.706 -6.84559 9.26173
  1060 177.733 -20.0746 -4.67512
  1061 122.364 -10.0343 -14.4873
  1062 -2.99839 2.57463 5.44891
  1063 -2.95164 2.58874 -5.41775
  1064 138.528 -6.79774 0.403564
  1065 153.344 -5.28533 -0.636140
  1066 -0.0917640 -11.3243 3.71681
  1067 -0.0879035 -11.3340 -3.71541
  1068 22.0881 13.8269 -9.74702
  1069 22.3587 13.7976 9.80834
  1070 136.618 -6.21075 -0.367310
  1071 9.64921 4.93777 2.57268
  1072 9.56227 4.94539 -2.53878
  1073 210.165 -8.58938 31.8972
  1074 151.507 -15.7301 -12.2101
  1075 123.106 -10.1975 14.4849
  1076 199.493 -4.27483 -33.2920
  1077 212.870 -2.01931 3.74866
  1078 75.1523 11.4789 33.1218
  1079 75.6979 10.9909 -32.5555
  1080 122.343 -6.03904 -27.7675
  1081 174.893 -5.86621 -2.60261
  1082 141.167 -8.20119 1.37402
  1083 166.081 -15.3939 0.734523
  1084 230.761 -0.694892 -2.10227
  1085 121.933 -5.30383 1.54469
  1086 121.880 -5.63039 -1.61841
  1087 3.68565 4.43732 4.72534
  1088 3.78589 4.47091 -4.66838
  1089 200.790 7.12480 -34.3226
  1090 43.5265 2.35097 -11.7207
  1091 43.6418 2.30009 11.6824
  1092 32.0911 0.741201 -8.27115
  1093 32.1592 0.722445 8.25180
  1094 231.971 -10.6088 40.7652
  1095 199.611 -9.14909 19.5954
  1096 96.1050 -4.35377 -16.5694
  1097 234.963 -0.828392 -1.26253
  1098 260.518 48.9504 -15.4744
  1099 212.617 -1.71927 -2.44109
  1100 198.015 -21.4973 8.21230
  1101 145.636 -11.2526 24.1619
  1102 236.844 -0.165242 0.286897
  1103 119.272 3.76412 -8.50874
  1104 167.259 -17.8751 -2.51877
  1105 96.2541 -4.55599 16.3695
  1106 168.859 -15.2607 -1.71496
  1107 212.121 -2.79625 6.76248
  1108 147.791 9.36379 13.3247
  1109 103.496 -7.53053 -13.0113
  1110 322.824 43.1976 -15.9152
  1111 240.185 10.1923 29.4755
  1112 176.153 22.1828 3.29151
  1113 233.773 0.149333 1.15873
  1114 89.3797 -5.47820 -9.79883
  1115 61.1757 36.8872 -55.6571
  1116 110.135 2.74008 -39.9364
  1117 126.377 -9.53405 5.77377
  1118 106.290 -7.87715 12.1083
  1119 89.1489 -5.19893 9.91046
  1120 190.639 1.43405 33.2523
  1121 144.260 -4.64951 0.188364
  1122 229.995 -1.59997 2.76784
  1123 -2.01185 -0.326600 7.44006
  1124 -1.98475 -0.304219 -7.42176
  1125 151.365 -3.91542 -0.385755
  1126 -0.474589 1.45704 6.89685
  1127 -0.425879 1.48600 -6.86263
  1128 83.0753 -2.43857 1.68279
  1129 83.0863 -2.48234 -1.68548
  1130 215.433 -1.09533 6.08699
  1131 172.398 -10.2885 -3.94144
  1132 161.244 -8.30216 -1.73939
  1133 180.739 -12.4703 7.17571
  1134 54.0007 26.3918 -41.1596
  1135 177.351 -6.35068 3.25153
  1136 24.5233 0.563625 -6.74183
  1137 24.5876 0.550631 6.73345
  1138 35.8672 22.8440 -28.5656
  1139 285.283 35.9140 11.5381
  1140 17.7681 -0.881620 3.88976
  1141 17.7092 -0.874130 -3.89848
  1142 36.5195 22.4609 27.5311
  1143 161.791 -13.3741 1.13762
  1144 79.9942 -3.59741 3.53833
  1145 80.0130 -3.61639 -3.60824
  1146 333.266 70.2380 -17.1549
  1147 178.641 -17.8792 2.56881
  1148 60.1770 34.4155 55.5205
  1149 4.95368 -2.73167 -3.88441
  1150 5.35470 -2.66694 4.36204
  1151 186.104 23.3730 16.7646
  1152 13.1296 7.43501 -2.51394
  1153 13.2407 7.43593 2.54462
  1154 179.858 -15.5355 -6.02396
  1155 -0.0872499 -17.5928 -3.52426
  1156 -0.0954640 -17.5974 3.54023
  1157 192.459 -16.2135 -11.8875
  1158 -5.74802 0.247741 1.31087
  1159 -5.83560 0.249207 -1.31475
  1160 28.2425 10.7023 -10.6615
  1161 28.3969 10.7473 10.5527
  1162 -11.8691 0.0300767 -1.60688
  1163 -11.7753 0.0293249 1.60797
  1164 193.252 -1.70762 -0.442038
  1165 -19.8742 0.562942 0.458932
  1166 -19.8224 0.562567 -0.447030
  1167 99.9480 -7.75606 -9.38964
  1168 2.60888 -27.0627 -1.98866
  1169 48.2601 -1.32320 2.74705
  1170 48.2489 -1.32882 -2.78350
  1171 163.214 -2.68700 0.160352
  1172 163.529 -2.60369 -0.127717
  1173 2.79932 -25.8955 2.57091
  1174 193.885 -9.92767 -11.4882
  1175 222.494 -0.929016 4.55095
  1176 196.832 -12.5429 -16.4800
  1177 169.511 1.17282 25.8363
  1178 0.812837 -7.52988 5.68749
  1179 0.896732 -7.47804 -5.60012
  1180 124.551 -8.86055 4.44739
  1181 -8.83299 0.741913 4.82353
  1182 -8.81687 0.748332 -4.80968
  1183 328.514 52.6296 3.25200
  1184 389.088 116.448 -82.0181
  1185 201.342 -19.6958 14.5763
  1186 80.8431 -2.19230 -0.192416
  1187 80.8440 -2.16165 0.192538
  1188 418.658 40.6009 -37.1520
  1189 26.8683 -0.710323 4.04461
  1190 26.8221 -0.698739 -4.06367
  1191 186.642 -0.612495 -10.3263
  1192 119.398 -9.56703 10.6652
  1193 199.195 -19.6422 -11.0089
  1194 192.657 -13.9282 -13.1704
  1195 116.423 -4.21501 29.1616
  1196 42.1114 7.97962 -15.0936
  1197 42.0832 7.90792 15.0000
  1198 56.1333 20.6311 -34.8386
  1199 56.1983 19.0676 34.8358
  1200 15.1341 4.73282 -4.78068
  1201 15.2283 4.71786 4.81225
  1202 236.837 40.8983 -20.3103
  1203 11.6640 10.5449 -4.01269
  1204 11.9479 10.5564 4.09628
  1205 171.080 -12.8996 3.62209
  1206 324.530 44.7109 18.1446
  1207 38.0216 -1.61407 -2.70495
  1208 38.0441 -1.61314 2.67253
  1209 212.965 139.562 -124.603
  1210 157.309 9.28187 -20.6112
  1211 143.590 11.1260 8.38401
  1212 19.2900 8.41963 -5.67779
  1213 19.3839 8.41819 5.71220
  1214 0.887821 -0.0291483 0.964154
  1215 0.833380 -0.0290882 -0.973824
  1216 189.836 -15.1714 11.1183
  1217 186.925 -7.18996 6.06655
  1218 127.591 34.4552 -88.1544
  1219 295.166 64.2176 -1.23672
  1220 125.560 -3.97745 -32.2457
  1221 163.742 -4.65043 0.947567
  1222 4.67110 -0.828800 -0.242175
  1223 4.67661 -0.828301 0.240709
  1224 -5.50176 1.27879 -1.99396
  1225 -5.42538 1.27328 2.01118
  1226 108.831 1.03486 -33.9323
  1227 203.419 -4.18692 6.52496
  1228 131.012 2.00546 46.8764
  1229 178.468 -8.53972 -4.88339
  1230 91.2828 31.6247 -68.8899
  1231 142.524 -7.22622 -34.9168
  1232 170.174 -18.1705 1.55057
  1233 209.387 -3.15740 9.97436
  1234 183.592 -3.44506 -1.92767
  1235 99.5050 -7.26417 9.45056
  1236 230.511 -13.4994 -18.9488
  1237 217.193 18.4997 32.8114
  1238 93.5535 0.412135 -26.5598
  1239 219.199 -1.09607 0.873414
  1240 171.552 21.4845 -4.68977
  1241 73.3651 -2.43787 -2.69922
  1242 73.3453 -2.40926 2.66361
  1243 336.177 74.7311 15.4382
  1244 464.921 12.3784 21.7361
  1245 0.387536 -21.5353 -3.51455
  1246 0.374489 -21.5613 3.54127
  1247 47.9746 24.8528 38.3643
  1248 115.953 -3.08869 -0.378057
  1249 115.978 -3.06690 0.422910
  1250 160.330 -16.0712 -2.94430
  1251 190.053 15.4147 28.8522
  1252 201.921 -3.65653 -4.33011
  1253 236.675 -0.516133 -0.163875
  1254 410.066 90.3305 -56.2936
  1255 60.4070 -2.22183 2.71679
  1256 60.4069 -2.22770 -2.76077
  1257 192.648 -17.8916 11.4728
  1258 341.933 80.4719 -22.2656
  1259 186.992 -7.87749 -6.79528
  1260 135.362 -9.20243 -2.72420
  1261 167.153 -18.2236 6.75579
  1262 163.470 -7.86996 2.09590
  1263 5.75167 -0.517182 -6.59151
  1264 224.662 -14.0775 22.1491
  1265 181.489 -11.6648 -6.98488
  1266 6.35754 -0.204953 7.40573
  1267 186.895 -15.4811 -32.5877
  1268 176.988 9.90998 -72.0706
  1269 292.644 35.6659 -8.83907
  1270 237.672 -0.0462130 -0.0846934
  1271 237.217 -0.268114 0.225637
  1272 184.712 -10.5529 7.43571
  1273 69.6443 8.30468 -26.0826
  1274 210.641 -18.9975 18.0502
  1275 360.875 81.8809 36.1120
  1276 87.3363 29.1850 67.0478
  1277 2.19703 -0.173047 5.89992
  1278 2.28940 -0.129550 -5.83625
  1279 222.039 -18.5402 -16.5896
  1280 86.8730 -4.60135 -4.26693
  1281 86.8521 -4.61261 4.17390
  1282 205.768 -13.7326 26.5780
  1283 5.43883 0.0874636 4.30296
  1284 5.36370 0.0914955 -4.30289
  1285 -1.19246 -4.38852 6.00280
  1286 -1.18475 -4.37915 -6.00320
  1287 33.7987 -1.17377 -3.69009
  1288 33.8317 -1.18098 3.66185
  1289 106.732 -7.07306 -14.9066
  1290 107.270 -3.27905 0.643370
  1291 107.269 -3.35972 -0.601690
  1292 236.630 -0.0443819 -0.0423616
  1293 207.976 -3.07014 -11.1861
  1294 14.9964 0.828147 -5.31648
  1295 15.0696 0.816562 5.31648
  1296 107.162 -7.49184 14.7673
  1297 239.150 -0.160950 0.0569668
  1298 225.387 0.0200410 -0.246121
  1299 225.394 -0.113761 0.185244
  1300 296.018 61.1317 5.97329
  1301 219.088 -1.22023 -1.94079
  1302 193.866 -1.58781 0.371563
  1303 214.880 -3.03742 -5.98347
  1304 235.181 -0.642411 0.891610
  1305 242.428 24.3570 29.2293
  1306 281.414 57.7219 9.30872
  1307 227.516 -0.803898 -3.04414
  1308 -1.81646 -0.477296 1.64066
  1309 -1.82356 -0.476917 -1.64549
  1310 124.058 -7.58823 2.85208
  1311 124.032 -7.23876 -2.74880
  1312 244.661 27.0774 -27.9553
  1313 49.6392 17.0327 -28.5599
  1314 49.9594 16.5531 28.2306
  1315 162.400 -0.0188284 -12.9124
  1316 169.779 -2.28994 0.0139722
  1317 169.572 -2.26706 -0.0487693
  1318 -4.18893 -0.756565 6.12793
  1319 -4.18127 -0.745815 -6.12518
  1320 187.240 -0.478732 10.3123
  1321 287.064 57.1697 0.644782
  1322 17.2202 -0.747686 -2.33021
  1323 17.2628 -0.749468 2.30837
  1324 212.236 -20.6986 10.6783
  1325 -0.0996076 3.27290 5.63681
  1326 -0.0388919 3.29291 -5.59796
  1327 35.9354 -0.806321 -0.718304
  1328 35.9425 -0.792100 0.703869
  1329 162.453 -0.289502 13.1045
  1330 2.92238 0.374866 -0.341363
  1331 2.94237 0.376296 0.334127
  1332 217.005 -2.29431 3.95915
  1333 300.951 55.2613 2.19928
</Section>

newXOutput 28

<Section columns = "stress_xx | stress_yy | stress_xy">
  1 252.156 -0.555810 0.454705
  2 252.585 -0.755002 -0.591022
  3 0.400197 0.245704 -0.668833
  4 -0.165042 -0.258856 -0.158271
  5 471.006 178.386 150.738
  6 478.281 204.822 -152.434
  7 -0.163150 -0.257212 0.155819
  8 0.395164 0.244349 0.667200
  9 253.950 -0.386124 -0.417646
  10 251.928 -0.790580 -0.588696
  11 252.029 -0.598575 0.610999
  12 250.621 -0.253103 0.318603
  13 249.991 -0.738878 -0.0813266
  14 249.376 -0.700358 1.10648
  15 245.369 -0.454258 1.11295
  16 246.151 -1.74180 1.60316
  17 237.898 -1.41650 3.35239
  18 232.540 -0.565628 4.01647
  19 225.253 -0.742153 4.30624
  20 212.762 -0.653658 5.93673
  21 199.290 -0.582946 6.84953
  22 182.626 0.837833 9.32089
  23 159.940 1.28890 8.40396
  24 150.941 -0.145698 11.9868
  25 122.888 1.77005 8.49656
  26 105.982 2.37123 6.63158
  27 101.589 1.04947 4.88025
  28 96.8714 3.44502 0.348866
  29 99.4412 3.75686 -6.52024
  30 104.665 1.03555 -8.19532
  31 125.459 0.378617 -10.9818
  32 146.572 -1.09031 -11.4771
  33 160.758 1.06549 -8.39583
  34 182.882 0.958122 -9.32964
  35 198.746 -0.698005 -7.33371
  36 214.167 -0.772915 -5.61235
  37 224.284 -0.517563 -4.36933
  38 231.816 -0.594278 -3.70340
  39 239.832 -0.805585 -2.17255
  40 243.103 -0.771777 -2.09628
  41 246.261 -0.737033 -1.83153
  42 249.501 -0.853882 -0.426546
  43 250.796 -1.10907 -0.784401
  44 249.420 0.197918 -0.115523
  45 251.746 -0.530073 -0.680672
  46 252.987 -1.20658 0.641650
  47 254.287 -0.670000 -0.0397579
  48 240.880 0.354589 -0.379281
  49 225.921 -0.637809 -0.724945
  50 209.107 -1.77589 -1.08257
  51 191.809 -1.34188 -0.793088
  52 176.818 -2.46077 -0.732191
  53 161.069 -2.71721 -0.678676
  54 145.251 -2.34031 -0.367341
  55 128.688 -2.57468 -0.486066
  56 114.723 -2.84173 -0.624477
  57 96.2082 -2.76967 -0.524078
  58 77.1925 -1.69359 -0.335502
  59 61.4939 -1.07104 -0.274481
  60 42.1376 -0.675084 -0.143338
  61 28.0698 -0.710351 -0.993056
  62 14.9847 -1.04903 -0.344547
  63 1.79994 0.125448 0.571963
  64 -1.55853 0.929284 0.190511
  65 -2.45018 0.382282 0.579121
  66 -1.83909 0.174976 0.553746
  67 -4.37352 0.537660 0.194671
  68 -5.27480 0.697664 1.18214
  69 -5.46808 0.241297 0.361051
  70 -9.79938 0.509462 0.406374
  71 -11.7432 0.362497 1.11985
  72 -12.3390 0.131204 1.16522
  73 -16.9904 0.485870 0.872225
  74 -18.6412 0.717894 1.73919
  75 -20.3883 0.435788 0.552998
  76 -22.5799 0.313611 0.888280
  77 -23.2723 0.338457 0.294414
  78 -25.3022 0.794727 -0.628364
  79 -25.3972 0.545147 -0.474600
  80 -23.0065 0.419964 -0.845844
  81 -19.6802 0.532941 -1.55729
  82 -15.8971 0.225225 -2.30868
  83 -11.7780 0.119536 -2.38439
  84 -7.04577 -0.253191 -2.48767
  85 -3.02612 -0.198980 -1.43870
  86 -1.25813 -0.513881 -0.891881
  87 -0.218508 -1.27541 -0.765738
  88 -0.375025 -3.25870 -1.38226
  89 -0.423514 -6.46418 -2.44926
  90 -0.0973096 -12.1482 -2.66704
  91 0.135266 -16.8891 -3.37071
  92 0.331954 -24.3321 -2.76032
  93 1.01014 -28.9807 -3.27275
  94 0.153888 -31.4514 -2.76573
  95 -0.0609903 -36.2847 -1.75849
  96 0.990310 -35.6440 -0.653922
  97 3.96639 -46.3934 1.55977
  98 3.42568 -26.4020 5.63020
  99 8.27713 -13.8373 12.8419
  100 25.2721 35.8250 41.9187
  101 110.492 133.278 122.853
  102 617.435 64.5629 92.1009
  103 513.041 18.0703 33.0104
  104 487.762 7.71369 11.4064
  105 473.541 5.10014 -0.0562197
  106 482.506 7.35162 -9.34011
  107 518.102 15.4474 -27.4058
  108 611.013 51.5332 -86.0373
  109 71.4546 151.290 -101.586
  110 17.7226 24.5892 -32.1800
  111 6.08644 -17.9835 -10.5311
  112 3.10203 -28.8507 -4.75705
  113 3.94935 -48.1476 -1.13471
  114 0.949131 -36.4277 0.958133
  115 -0.118644 -36.6795 1.91776
  116 0.116901 -31.6060 2.85143
  117 0.990196 -29.0199 3.30925
  118 0.324258 -24.3218 2.77402
  119 0.129384 -16.8674 3.37592
  120 -0.100181 -12.1197 2.66579
  121 -0.423933 -6.44581 2.44439
  122 -0.375836 -3.24265 1.37759
  123 -0.218382 -1.26940 0.761561
  124 -1.25087 -0.513231 0.888417
  125 -3.01334 -0.199836 1.43502
  126 -7.02966 -0.255185 2.48562
  127 -11.7598 0.117385 2.38512
  128 -15.8878 0.222897 2.31297
  129 -19.6864 0.531332 1.56540
  130 -23.0286 0.419885 0.854452
  131 -25.4394 0.544754 0.482910
  132 -25.3609 0.794798 0.636925
  133 -23.3494 0.339394 -0.287137
  134 -22.6705 0.314756 -0.883090
  135 -20.4850 0.437060 -0.549062
  136 -18.7447 0.719374 -1.73795
  137 -17.0960 0.487228 -0.871233
  138 -12.4418 0.132030 -1.16598
  139 -11.8450 0.363905 -1.12202
  140 -9.89535 0.511462 -0.409453
  141 -5.55069 0.242647 -0.366485
  142 -5.34342 0.698968 -1.18992
  143 -4.43012 0.537964 -0.201616
  144 -1.87758 0.174693 -0.560391
  145 -2.47494 0.381570 -0.584420
  146 -1.57438 0.928003 -0.195150
  147 1.79146 0.124681 -0.574621
  148 14.9764 -1.05284 0.341687
  149 28.0615 -0.720254 0.989825
  150 42.1327 -0.692789 0.139205
  151 61.4936 -1.09673 0.272269
  152 77.1913 -1.72350 0.335044
  153 96.1995 -2.79572 0.527927
  154 114.694 -2.85513 0.632748
  155 128.638 -2.55956 0.505914
  156 145.176 -2.28249 0.390514
  157 160.964 -2.57944 0.642916
  158 176.891 -2.49883 0.645813
  159 191.862 -1.58468 0.835837
  160 209.275 -1.73083 0.989901
  161 226.389 -0.505743 0.734719
  162 240.438 0.340668 0.367439
  163 136.979 -12.2882 -10.1951
  164 136.409 -12.5096 10.1723
  165 40.0705 11.2228 -15.3659
  166 40.4713 11.2665 15.2927
  167 162.650 -8.20200 40.8597
  168 170.701 -9.24603 -39.7308
  169 77.6585 -3.99302 4.58855
  170 77.6557 -3.95208 -4.66681
  171 174.029 -5.70156 1.65974
  172 170.415 -5.71815 -1.60719
  173 230.620 41.8484 -6.33316
  174 235.831 1.12818 -32.2810
  175 230.919 3.01106 34.4526
  176 53.4594 -1.95940 -10.2127
  177 53.4559 -1.94321 10.1871
  178 203.775 -20.2609 12.3364
  179 203.489 -15.6585 -16.5607
  180 2.32969 4.37938 5.49087
  181 2.41251 4.40796 -5.44218
  182 278.312 56.3902 10.8443
  183 52.3677 23.1668 -36.0950
  184 56.2997 23.4022 38.8322
  185 197.207 -8.94002 8.10734
  186 296.279 61.5562 -6.34771
  187 126.183 -4.27671 -1.00613
  188 125.970 -4.39836 0.991150
  189 203.045 -6.11022 -7.33613
  190 271.789 -2.93216 -1.47898
  191 47.0367 -1.39025 1.68884
  192 47.0285 -1.40378 -1.71887
  193 19.7871 2.74246 -6.67023
  194 19.8802 2.71432 6.68494
  195 112.429 -4.34763 -25.1135
  196 111.985 -4.59388 25.4456
  197 134.675 -8.50916 -3.02172
  198 134.947 -8.46111 3.28682
  199 32.9015 -1.15048 5.32574
  200 32.8570 -1.13395 -5.34109
  201 268.968 -6.09569 15.4531
  202 218.656 -21.8805 -6.22660
  203 208.541 -1.76346 -1.27550
  204 203.696 -2.19611 1.32376
  205 203.836 23.8305 24.0448
  206 8.31426 6.65898 -1.89043
  207 8.63201 6.63976 2.03102
  208 204.598 -8.33274 28.0319
  209 186.573 14.1455 -27.2773
  210 134.176 29.0268 -85.3709
  211 141.085 24.4839 79.2560
  212 2.62419 4.42877 0.0924295
  213 2.70178 4.42697 -0.0561484
  214 203.841 -7.37545 -28.9165
  215 358.281 50.5043 -3.21202
  216 169.490 -18.6046 13.6836
  217 170.817 -18.4905 -12.8648
  218 169.413 -11.8731 -2.10915
  219 211.747 -3.02808 4.00669
  220 100.296 -6.76494 -8.73795
  221 98.6606 -6.73533 9.04672
  222 59.6139 1.31604 -15.6777
  223 59.6948 1.29138 15.5317
  224 216.703 -23.2467 -0.741880
  225 167.964 -12.6432 1.39261
  226 211.021 -2.93473 -3.22545
  227 163.093 -3.80036 0.400637
  228 164.567 -3.51088 -0.0820770
  229 207.307 -9.14517 16.5370
  230 15.9116 0.218728 -5.67293
  231 15.9823 0.210502 5.66974
  232 -2.73539 -1.87627 -7.11950
  233 -2.74892 -1.89259 7.12567
  234 28.9088 -1.31446 -3.03505
  235 28.9442 -1.31762 3.00612
  236 85.3969 -2.38244 2.01133
  237 85.4221 -2.43011 -2.03072
  238 99.5370 6.75515 -37.2562
  239 99.5475 5.61020 36.8226
  240 210.397 -6.40856 -14.1371
  241 97.1164 -5.60186 -14.7810
  242 97.1943 -5.77586 14.5475
  243 183.273 2.67289 30.7464
  244 158.606 13.6960 1.85306
  245 180.052 -17.8854 -2.02920
  246 0.661837 -4.80781 -6.71843
  247 0.601694 -4.85467 6.77104
  248 11.1143 10.3309 -11.7274
  249 11.8534 9.91472 12.3886
  250 176.986 -17.4884 0.828728
  251 322.403 58.3593 -1.41636
  252 15.8120 10.8467 -4.50508
  253 16.0093 10.8398 4.56730
  254 -7.18108 1.42264 5.01976
  255 -7.14665 1.42998 -4.99622
  256 324.402 54.3502 3.12925
  257 110.817 -5.12859 -3.08861
  258 110.727 -5.04003 3.00876
  259 220.408 -15.1389 26.4810
  260 402.258 65.3101 39.7197
  261 63.7939 -3.30583 -8.30334
  262 63.7736 -3.32913 8.29141
  263 223.268 33.3390 -23.2781
  264 387.546 73.3601 -35.6893
  265 269.195 25.9791 23.5072
  266 294.906 15.8907 -52.6537
  267 180.271 -8.23471 3.66653
  268 204.191 0.729143 -34.7727
  269 194.361 -13.5755 -9.86971
  270 217.322 -3.72222 9.03565
  271 -1.08693 2.06018 -1.76826
  272 -1.00969 2.05334 1.79356
  273 215.463 -8.09909 -51.4088
  274 21.8339 6.97166 -6.62200
  275 21.9408 6.95776 6.66055
  276 207.542 -4.99247 -17.8005
  277 29.1084 28.5276 -37.3929
  278 21.6512 -0.0868818 -0.688165
  279 21.6645 -0.0813200 0.675818
  280 219.499 -13.9097 -27.5548
  281 37.5036 16.8388 -19.5808
  282 38.0535 16.7415 19.6347
  283 8.81337 -0.316046 3.99080
  284 8.74014 -0.311807 -3.99549
  285 180.024 -7.78671 -3.55815
  286 29.3031 28.2066 38.4487
  287 290.085 19.2208 62.1287
  288 76.2114 -2.91855 -2.67671
  289 76.1915 -2.89779 2.62984
  290 143.000 -5.62072 -0.681948
  291 142.927 -6.11725 0.835628
  292 122.057 11.3167 -57.3396
  293 198.155 -21.8042 -4.74825
  294 227.483 -1.15929 1.80053
  295 117.491 11.2700 55.4003
  296 136.759 -3.39308 -0.190999
  297 136.705 -3.38970 0.312898
  298 194.658 -14.1506 10.0629
  299 225.080 -2.18680 -4.37797
  300 -2.97000 0.850368 -2.98599
  301 -2.88566 0.844057 2.99717
  302 280.790 56.1955 -3.14441
  303 247.184 -12.0781 15.2300
  304 224.221 -0.895504 -0.516842
  305 228.294 -0.773602 0.467932
  306 222.516 -20.1524 17.3489
  307 274.618 27.7328 -22.0993
  308 237.929 44.3817 13.6607
  309 105.711 -6.33430 -5.26050
  310 104.718 -6.45422 5.37939
  311 227.279 -1.11017 -1.26787
  312 147.158 -11.2891 -27.6197
  313 144.563 -11.2510 3.93525
  314 137.857 -7.70000 31.6826
  315 222.987 -2.48705 5.19382
  316 47.8411 -2.19359 -5.12992
  317 47.8680 -2.21012 5.10296
  318 205.061 -7.67036 50.8211
  319 128.527 -10.0380 -6.54364
  320 238.184 30.2319 29.3466
  321 74.6054 5.28002 -23.7552
  322 71.7696 5.51559 23.5419
  323 18.9621 -0.437930 -1.25336
  324 18.9891 -0.434733 1.23366
  325 196.510 -3.63944 2.51308
  326 188.351 -2.31755 0.459236
  327 187.263 -2.57246 -0.526734
  328 205.879 -5.26214 18.8329
  329 15.0794 -0.623294 2.92803
  330 15.0194 -0.617194 -2.94435
  331 57.4184 -1.30805 -1.03835
  332 57.4168 -1.28377 1.02519
  333 1.85210 -10.0142 -4.01748
  334 1.72224 -10.0886 4.17222
  335 157.245 6.73927 20.7720
  336 249.639 -11.5010 -12.7979
  337 160.219 -8.24806 1.40331
  338 181.985 -3.31277 -1.45979
  339 187.759 23.4233 -12.8631
  340 35.0862 -1.09578 -7.52922
  341 35.1287 -1.09626 7.51971
  342 155.671 -7.75766 -0.562629
  343 42.5300 1.56888 -10.9002
  344 42.6089 1.53077 10.8602
  345 7.83114 7.02729 0.597153
  346 7.93446 7.02487 -0.554138
  347 190.170 -20.6575 17.9399
  348 427.563 28.3030 10.9242
  349 166.513 2.37721 -24.6362
  350 140.455 -12.6137 16.4963
  351 139.737 -12.3679 -17.0320
  352 207.933 -3.73158 34.5048
  353 183.789 -1.42493 24.4472
  354 187.636 -19.9767 -18.5705
  355 110.109 -2.57237 -0.00644127
  356 110.093 -2.60690 0.0345235
  357 207.576 -13.5824 21.6028
  358 284.149 56.9069 1.98956
  359 223.960 -2.36755 -6.68455
  360 54.7400 -2.06742 -3.63803
  361 54.7576 -2.06883 3.59501
  362 210.405 -20.4357 -22.5353
  363 219.677 15.0449 -34.5465
  364 144.025 7.76435 -13.3019
  365 208.976 -14.0398 -24.5706
  366 -6.93014 0.189926 -5.50369
  367 -6.93798 0.181804 5.51087
  368 175.582 -3.82952 1.05543
  369 -2.50010 -1.49552 -3.21879
  370 -2.49732 -1.49611 3.21246
  371 136.363 64.9681 -104.299
  372 5.03002 4.35887 3.98581
  373 5.16441 4.39469 -3.91441
  374 182.301 -1.50597 -24.2405
  375 99.7186 -4.08069 2.31346
  376 99.7952 -4.13975 -2.34622
  377 -0.742690 -7.49531 6.25742
  378 -0.731288 -7.48150 -6.25053
  379 110.404 68.2467 98.0541
  380 81.3722 -4.25975 -11.4148
  381 81.4317 -4.06875 11.4234
  382 25.6759 18.6405 -17.9779
  383 26.2286 18.5795 17.8644
  384 -10.9404 1.55368 2.19069
  385 -10.8936 1.55590 -2.16585
  386 211.642 13.8690 34.4826
  387 162.541 -17.0073 7.13133
  388 162.712 -14.7369 2.11956
  389 197.972 -22.6389 -1.23180
  390 48.0781 6.13512 -15.3254
  391 48.2375 6.12184 15.2970
  392 4.22092 -7.44481 -0.171396
  393 3.98152 -7.54479 0.512556
  394 198.162 28.4356 8.52485
  395 202.336 -5.53688 6.07641
  396 114.029 -8.76829 10.3448
  397 69.7157 -1.68928 -13.8064
  398 69.7362 -1.70186 13.6907
  399 146.376 -4.12810 -0.0765360
  400 146.211 -3.57889 -0.0482177
  401 113.061 -9.01343 -11.0512
  402 87.9917 -1.44519 -18.9364
  403 87.9722 -1.56869 19.0919
  404 210.539 -19.4262 -15.6615
  405 120.797 -9.15837 6.20803
  406 191.700 -5.55925 3.84152
  407 191.380 -5.02912 -3.27106
  408 159.652 -14.6224 -2.70804
  409 232.031 -0.818874 -1.89751
  410 76.3344 30.3166 -57.9823
  411 216.835 -3.02958 10.9186
  412 231.176 -1.03697 2.75141
  413 79.8192 -4.19443 6.67173
  414 79.8610 -4.13568 -6.66602
  415 161.800 -16.8015 -7.41808
  416 22.1420 10.0809 7.11014
  417 22.0207 10.0751 -7.11922
  418 432.106 28.2812 -22.4043
  419 187.566 -10.4979 -5.94244
  420 233.967 -0.620919 1.09417
  421 71.9783 28.2075 55.1124
  422 343.951 58.1138 10.5125
  423 202.047 -2.76637 -2.02400
  424 149.625 -10.6832 -2.02513
  425 61.4329 11.8775 -26.9236
  426 65.5305 11.0210 26.7630
  427 185.225 -11.5604 6.03701
  428 195.438 -2.54760 -18.0729
  429 -3.36671 -0.163419 2.97522
  430 -3.45382 -0.161322 -2.97420
  431 69.7079 16.6586 -36.4796
  432 69.9276 16.7219 36.3640
  433 7.31670 3.89029 -2.81312
  434 7.40224 3.88116 2.84467
  435 166.045 -2.86571 0.488671
  436 165.846 -2.78076 -0.430274
  437 206.960 -9.36162 -17.2737
  438 -0.740847 -0.814892 7.80304
  439 -0.704088 -0.783070 -7.77527
  440 213.383 -21.2113 13.9160
  441 202.127 -5.14301 -5.40947
  442 326.935 62.6957 -8.61932
  443 10.0315 -0.570455 1.35149
  444 9.98200 -0.570591 -1.36875
  445 396.154 110.137 47.9272
  446 7.62574 1.13849 -10.6432
  447 22.5849 1.20681 -7.28788
  448 22.6609 1.18801 7.28423
  449 394.664 112.521 -45.6009
  450 8.08412 2.01773 11.8104
  451 -10.7666 1.23099 0.798198
  452 -10.7066 1.22885 -0.774937
  453 21.0056 14.3447 -10.1870
  454 21.3783 14.3459 10.2453
  455 254.542 39.5275 -24.5898
  456 204.865 -7.84029 -11.3497
  457 232.663 -0.692103 -0.983834
  458 213.859 -3.21976 -12.7595
  459 -2.75462 1.41475 7.16698
  460 -2.71730 1.43500 -7.14110
  461 206.948 -8.20332 13.1080
  462 133.158 -7.27496 -2.34998
  463 132.737 -7.35401 1.88809
  464 182.046 -20.1133 -1.77405
  465 129.157 -1.97252 -39.1204
  466 197.518 -3.05932 18.4893
  467 161.935 -4.92436 -0.496473
  468 239.470 -18.4840 -1.15888
  469 125.058 0.893222 42.0189
  470 7.19896 -0.154444 2.87092
  471 7.12518 -0.150725 -2.87905
  472 261.164 51.7087 -11.3707
  473 210.678 -1.27402 0.197052
  474 209.937 -1.47992 -0.393931
  475 157.375 -10.3045 0.237210
  476 66.6949 -2.18649 -1.98681
  477 66.6851 -2.15821 1.95750
  478 38.9076 -0.397001 -8.93153
  479 38.9497 -0.404765 8.90924
  480 128.881 5.01059 7.93174
  481 30.9710 -1.05591 4.24766
  482 30.9295 -1.04537 -4.27292
  483 34.2774 3.42094 10.0416
  484 34.1632 3.47158 -10.0355
  485 203.137 -15.7031 15.9394
  486 112.363 -6.97406 -17.7179
  487 103.165 -3.14030 1.11710
  488 103.206 -3.22580 -1.12050
  489 113.567 -7.19703 17.7086
  490 318.497 74.9756 -4.71577
  491 -5.09796 -0.788568 -4.20924
  492 -5.09568 -0.792546 4.20725
  493 77.5182 -2.05121 -0.809651
  494 77.5132 -2.01623 0.805356
  495 0.0610799 -13.9210 -5.32679
  496 0.0279755 -13.9658 5.37239
  497 185.763 -2.44720 0.879505
  498 128.009 6.17802 -3.95551
  499 174.865 18.4004 11.5086
  500 111.776 -1.13601 -30.9353
  501 53.1477 -2.71215 6.46679
  502 53.1475 -2.68881 -6.48123
  503 -15.2783 0.472660 -0.902623
  504 -15.1967 0.469895 0.912909
  505 219.046 -4.37216 -34.4266
  506 14.4196 0.125307 -0.935192
  507 14.4404 0.128189 0.921096
  508 182.353 -14.2362 -5.15791
  509 194.523 -16.5059 -9.66816
  510 38.9203 29.0316 -38.7091
  511 163.361 3.88058 -62.4513
  512 1.58145 4.74321 3.71595
  513 1.65830 4.75260 -3.67377
  514 98.2102 -4.39360 -3.49258
  515 98.1560 -4.35001 3.40224
  516 282.695 10.6465 -8.75435
  517 202.376 -11.8443 -14.4240
  518 37.9224 27.3773 38.1430
  519 200.554 -22.9115 4.34121
  520 192.685 -18.2934 7.78518
  521 38.3471 -0.923373 -2.77428
  522 38.3662 -0.919083 2.74241
  523 155.446 1.61358 19.0539
  524 113.073 -8.21271 -6.65337
  525 214.046 -4.54473 8.26749
  526 -0.893586 -5.18863 -4.07779
  527 -0.895803 -5.18510 4.07238
  528 148.799 -13.2531 19.9104
  529 227.956 -17.7679 -18.5835
  530 299.123 19.1715 -8.31719
  531 159.908 -5.12174 0.619014
  532 44.9427 -0.802675 -0.825270
  533 44.9465 -0.784956 0.816592
  534 100.309 0.779385 29.7500
  535 284.409 46.7664 17.4549
  536 291.967 53.2906 -99.6070
  537 259.351 0.677763 18.1063
  538 185.740 -20.6831 0.759455
  539 445.984 35.4462 29.9474
  540 326.901 77.9086 7.30584
  541 43.8383 -1.80407 7.08295
  542 43.8096 -1.78532 -7.09839
  543 178.428 -14.6627 4.04404
  544 12.4219 6.28868 -2.47722
  545 12.5197 6.28399 2.51490
  546 225.125 -18.9835 18.5588
  547 181.624 9.68163 28.2466
  548 227.478 -1.35086 4.57920
  549 166.838 -9.77746 2.08518
  550 236.029 0.548744 -65.8289
  551 377.195 93.3889 63.5250
  552 181.548 -3.21473 -0.806642
  553 223.070 -2.16703 -7.27963
  554 33.9124 14.2529 -14.4500
  555 34.1610 14.0795 14.3772
  556 125.871 -4.80850 -1.46850
  557 125.810 -4.68525 1.50810
  558 1.38849 -17.6449 -1.29634
  559 226.936 -8.42371 30.9131
  560 8.15519 7.50552 1.48859
  561 8.29118 7.52489 -1.42571
  562 1.63736 -17.0938 1.77702
  563 206.128 -9.44872 -24.8384
  564 237.460 14.5452 -33.3848
  565 236.526 16.5313 33.3650
  566 10.9645 8.68305 7.56022
  567 10.3959 8.91682 -7.37337
  568 -8.17516 0.232828 2.21321
  569 -8.26551 0.235079 -2.20940
  570 219.594 4.25358 67.9676
  571 118.135 -6.35455 3.31457
  572 118.258 -6.33139 -3.40056
  573 265.438 -6.08104 -33.7107
  574 31.1652 -0.421917 1.61338
  575 31.1508 -0.429879 -1.63463
  576 12.4732 -0.410844 -0.388519
  577 12.4837 -0.408107 0.383596
  578 290.171 51.8313 -14.5675
  579 27.1158 37.0309 -43.0060
  580 148.187 2.89112 -16.1151
  581 212.287 34.0383 -14.5804
  582 2.93187 -0.590694 5.10706
  583 3.06065 -0.546137 -5.02068
  584 220.256 95.3781 117.669
  585 184.238 -4.80025 -2.29252
  586 5.21320 1.89085 -3.59435
  587 5.29666 1.87714 3.61302
  588 212.736 -17.2440 21.7554
  589 32.1330 35.8001 43.7902
  590 152.705 -2.86369 0.0814172
  591 152.745 -2.83627 -0.0820676
  592 -0.197280 -10.9987 5.46100
  593 -0.180719 -10.9804 -5.44304
  594 260.618 51.1396 -0.417104
  595 165.618 -13.5764 28.8188
  596 157.905 -6.45531 0.518188
  597 159.346 6.47083 65.9339
  598 -13.3895 0.651901 3.32438
  599 -13.3758 0.655411 -3.31153
  600 262.659 2.54353 -19.3836
  601 353.777 55.4596 -44.6436
  602 98.2315 9.78583 -43.3567
  603 51.7089 -2.12116 -8.68439
  604 51.7535 -2.12091 8.68334
  605 238.888 -0.651573 1.34138
  606 156.291 -6.60314 -0.724392
  607 211.392 -2.58229 2.99882
  608 206.151 -9.43496 24.2686
  609 5.80292 -0.330044 1.40267
  610 5.74028 -0.328576 -1.41559
  611 120.855 -3.95372 -0.828009
  612 120.836 -3.83519 0.789688
  613 74.7300 1.70422 -19.5568
  614 74.2327 1.72491 19.4609
  615 301.121 15.7863 15.3451
  616 496.915 37.4374 -54.5177
  617 -5.89092 -0.289784 1.95407
  618 -5.98296 -0.288755 -1.95439
  619 69.7643 -2.86860 3.70638
  620 69.7652 -2.86573 -3.76531
  621 279.614 13.9753 12.5756
  622 236.430 -0.631363 -0.426647
  623 235.888 -1.00742 0.202109
  624 166.700 -0.132669 18.8938
  625 245.923 -15.3079 -19.9650
  626 131.468 -10.6752 7.97790
  627 -3.60995 2.91968 -3.35633
  628 -3.66744 2.91558 3.38919
  629 211.896 4.04404 35.9710
  630 82.3621 -4.65094 -9.00376
  631 82.2739 -4.73094 9.02192
  632 172.948 -9.75468 -2.73225
  633 215.121 -4.47886 -7.49552
  634 120.877 -9.56420 -12.5560
  635 198.400 23.9132 -21.8387
  636 134.166 -9.32327 -23.2963
  637 46.7732 -1.23837 -1.39649
  638 46.7773 -1.22214 1.37448
  639 122.170 -9.74451 12.5952
  640 265.709 42.3378 22.3752
  641 210.861 -10.4329 30.5539
  642 172.665 -7.38287 2.44624
  643 122.202 -2.96431 0.657637
  644 122.170 -2.97237 -0.633560
  645 91.1182 -3.23230 -2.58582
  646 91.0794 -3.19350 2.55235
  647 203.408 -18.7158 -13.0968
  648 101.068 -5.56037 4.55888
  649 101.184 -5.53861 -4.66929
  650 201.566 31.2851 -2.94633
  651 187.919 -9.62973 5.96134
  652 237.399 -0.965964 -2.04363
  653 198.645 -3.82220 -31.5484
  654 26.4901 -1.20447 5.67696
  655 26.4379 -1.19566 -5.68447
  656 231.040 -1.13450 -4.13977
  657 39.7929 20.3824 -26.9596
  658 40.4846 20.3262 27.0936
  659 235.255 -15.1105 28.4221
  660 79.2202 19.5057 45.6522
  661 17.5998 -0.0666401 5.68835
  662 17.5358 -0.0621973 -5.69342
  663 199.685 -13.5336 37.5044
  664 197.551 25.7666 -90.4483
  665 189.403 5.75053 -31.3650
  666 251.405 45.3227 19.0450
  667 169.604 -7.21816 -1.68508
  668 306.127 55.5624 -1.34567
  669 -15.6792 0.695873 -0.464556
  670 -15.6097 0.693935 0.479384
  671 134.731 0.259393 -46.0788
  672 6.15585 -0.188890 1.10501
  673 6.11372 -0.189412 -1.11809
  674 169.750 -14.6003 -28.4606
  675 54.7923 7.65111 -18.7952
  676 54.3403 7.67460 18.7821
  677 0.161154 2.79379 -0.694971
  678 0.236553 2.78957 0.726574
  679 143.509 -12.2841 -5.65800
  680 204.059 -2.00022 -12.1665
  681 95.4701 -2.76702 -0.957332
  682 95.4718 -2.73224 0.965905
  683 68.3085 -3.43182 -5.66282
  684 68.3589 -3.48137 5.63754
  685 12.6618 10.4302 -2.87982
  686 12.8820 10.4502 2.95238
  687 211.139 -2.17969 1.60141
  688 91.2996 -5.69211 7.40005
  689 91.9112 -5.58758 -7.39079
  690 233.185 -19.2343 -4.58447
  691 191.339 -19.2271 -5.71917
  692 149.711 -3.86647 0.226171
  693 149.166 -3.57498 -0.145501
  694 211.364 -22.7715 9.89188
  695 344.545 69.2438 16.7333
  696 185.469 -8.92667 -47.0115
  697 212.554 -5.80085 12.9837
  698 210.268 -8.05897 -32.6694
  699 63.0640 -1.88424 -2.59416
  700 63.0589 -1.86819 2.55509
  701 164.539 -3.44060 52.9040
  702 468.692 59.6673 54.7845
  703 30.3396 9.06181 -10.4424
  704 30.3829 9.12123 10.4777
  705 210.566 -1.68614 -0.824527
  706 212.282 -1.48975 0.837645
  707 88.1670 42.9585 -74.9840
  708 222.989 -1.08731 7.23578
  709 192.695 -2.91701 1.40937
  710 252.292 50.2693 -7.14476
  711 24.3963 4.59484 -7.43385
  712 24.5052 4.56523 7.46225
  713 241.408 -0.461604 0.269751
  714 193.482 -7.15054 -5.72705
  715 241.518 -4.28119 27.4660
  716 96.9075 -6.71201 -11.9240
  717 97.1522 -6.41472 11.7976
  718 19.8137 -0.734758 4.29968
  719 19.7560 -0.725125 -4.31404
  720 220.356 -1.18444 -1.42847
  721 189.563 35.0134 96.2065
  722 1.11626 1.09221 6.68140
  723 1.18587 1.13239 -6.63370
  724 220.563 -2.10664 -3.56695
  725 213.862 -3.63709 5.06066
  726 165.858 0.0355312 -20.2645
  727 1.51606 -20.1999 -2.88352
  728 1.41206 -20.3900 3.07469
  729 76.1759 20.0730 -45.6331
  730 169.355 -17.1926 -20.1252
  731 87.3927 42.6085 75.7564
  732 238.001 -0.432969 0.840570
  733 226.018 33.7371 23.4125
  734 162.415 14.8145 -8.00143
  735 298.067 60.1451 -1.04451
  736 234.479 -0.844338 2.73318
  737 -15.3797 0.347988 1.54365
  738 -15.4692 0.349910 -1.53734
  739 248.912 -15.1023 4.56928
  740 159.639 -4.21803 0.266282
  741 56.3920 0.187444 -13.2052
  742 56.4628 0.129641 13.1200
  743 214.155 -2.19034 -2.19615
  744 379.571 53.8504 -18.8672
  745 22.3781 -0.697165 -2.62328
  746 22.4248 -0.701429 2.60049
  747 239.654 -0.507953 -1.29569
  748 44.5018 -1.99878 -3.67293
  749 44.5266 -2.00590 3.63934
  750 232.344 -9.76576 -28.1319
  751 214.321 -2.18857 9.88346
  752 190.602 -1.44158 31.0971
  753 240.287 -0.530177 -0.0711996
  754 223.348 -1.41782 2.76155
  755 143.959 -7.46593 -0.703900
  756 181.848 -4.39308 1.80740
  757 206.541 -12.7217 -20.9705
  758 201.604 -12.5633 13.9783
  759 235.551 28.0890 -29.6155
  760 198.905 -10.9692 10.5455
  761 209.764 -12.5537 26.6048
  762 120.244 -7.94920 4.61841
  763 4.15585 -2.16979 -1.07242
  764 3.92388 -2.18230 1.29152
  765 184.324 -2.35113 0.0785574
  766 183.926 -2.33078 -0.148198
  767 222.598 -0.707682 -0.172809
  768 223.395 -0.660359 0.226813
  769 210.243 -5.81734 15.7665
  770 194.217 -18.3092 26.7295
  771 158.610 -12.6984 1.29485
  772 140.443 -8.11192 1.77792
  773 387.534 49.7929 22.1730
  774 213.082 -5.21420 -10.3526
  775 123.919 20.7770 -70.4837
  776 197.682 -9.53691 -9.17642
  777 6.05450 0.193267 -3.99171
  778 6.13530 0.186037 3.99607
  779 173.603 15.2189 -17.9531
  780 456.570 13.8894 -6.01227
  781 221.744 5.29209 -35.3753
  782 8.60197 1.89500 -16.3139
  783 227.097 41.1020 6.02361
  784 178.232 -11.0900 3.83816
  785 199.543 -5.15925 30.6418
  786 168.460 -17.9375 20.2409
  787 272.798 -3.46795 42.0868
  788 9.27345 3.96619 17.4885
  789 120.999 -0.903759 35.6192
  790 170.445 -3.99790 -0.882827
  791 190.315 -17.5238 -27.0738
  792 115.224 -8.86230 -8.54301
  793 90.8166 4.26406 -30.9288
  794 220.038 -3.80476 34.6819
  795 140.228 -9.35061 3.27845
  796 24.0345 -0.729638 2.39055
  797 24.0018 -0.730680 -2.41603
  798 204.701 -1.09249 10.7899
  799 184.259 0.755363 -30.1407
  800 -16.6011 0.725999 2.12612
  801 -16.5763 0.727263 -2.11222
  802 136.379 -3.94488 -0.133875
  803 135.968 -3.70836 0.0916297
  804 100.828 10.9977 44.0199
  805 88.9864 -5.08537 5.46390
  806 89.1196 -4.95625 -5.53056
  807 239.603 -0.329538 -0.741556
  808 81.5698 6.41633 30.0946
  809 -0.272135 -0.0748849 1.52340
  810 -0.351704 -0.0731203 -1.53118
  811 202.181 -6.30673 23.7972
  812 218.385 -1.56860 1.15436
  813 -11.6587 0.115219 3.25350
  814 -11.6599 0.118856 -3.24706
  815 132.393 -8.43582 26.3093
  816 24.9535 20.3539 -22.5758
  817 25.2667 19.3518 22.2157
  818 121.651 5.45284 3.29596
  819 -4.80089 -0.108843 -1.75658
  820 -4.70945 -0.110123 1.75406
  821 152.666 -14.6189 -18.9256
  822 209.654 -22.2035 -8.59922
  823 -1.03236 -0.982229 -1.29118
  824 -1.02942 -0.980020 1.28650
  825 7.50761 0.373802 -0.343356
  826 7.52290 0.375862 0.335884
  827 186.055 -16.4685 5.89775
  828 156.034 -16.0333 12.8057
  829 173.627 -2.52518 0.703357
  830 155.599 -12.3792 -1.90244
  831 54.4778 -0.823739 -0.246703
  832 54.4788 -0.800375 0.241198
  833 -18.8914 0.397055 1.29583
  834 -18.8518 0.396504 -1.28227
  835 196.930 -2.17938 -1.09644
  836 170.860 6.58411 -25.5646
  837 199.023 -3.61097 -3.08849
  838 115.461 -8.69373 8.10315
  839 195.053 -3.50077 -25.0126
  840 210.018 -6.32559 -16.2964
  841 197.759 -1.81843 0.991046
  842 142.916 -5.73847 36.5675
  843 152.706 -14.8555 -6.75661
  844 90.9901 -0.669371 -23.4651
  845 91.5012 -0.0361436 23.5877
  846 129.591 -9.53110 -5.01165
  847 215.928 23.1727 30.2358
  848 206.580 -21.9233 -14.0454
  849 71.7614 -2.16784 -1.26616
  850 71.7504 -2.13211 1.25003
  851 157.017 -3.18943 -0.123981
  852 157.021 -3.21928 0.165811
  853 185.869 -1.45663 -16.3055
  854 60.8236 -2.52486 -4.56003
  855 60.8524 -2.54448 4.51474
  856 0.724612 -20.0268 -4.08616
  857 0.684067 -20.1118 4.16611
  858 28.6393 -0.424213 -0.198163
  859 28.6309 -0.434075 0.191571
  860 195.333 -2.70050 -1.54543
  861 146.852 -13.9811 11.5058
  862 230.245 -20.2091 9.20052
  863 130.376 2.75510 12.6319
  864 199.698 -4.38333 3.51626
  865 217.600 -19.7727 -17.3235
  866 29.6004 2.02184 -8.66623
  867 29.6882 1.98881 8.65851
  868 172.723 -2.73862 -0.646540
  869 138.068 -4.48695 -0.661032
  870 137.572 -4.44280 0.783696
  871 212.931 33.2286 16.4140
  872 72.9430 -0.647549 -16.0861
  873 72.8659 -0.734450 16.0072
  874 148.231 -13.2831 5.19487
  875 13.5311 9.06892 -2.43452
  876 13.6704 9.04955 2.47278
  877 124.956 -8.93149 21.2089
  878 150.417 -9.35410 -0.689147
  879 187.025 -1.50685 16.4781
  880 185.616 -21.0218 5.63094
  881 212.991 -16.3773 -23.3601
  882 146.494 -14.0967 -11.6890
  883 121.141 -7.91301 -4.40577
  884 405.808 33.5347 -6.17955
  885 194.584 -20.6824 4.57006
  886 4.94970 6.11507 2.92508
  887 5.04953 6.12602 -2.87362
  888 168.611 -16.8333 2.16096
  889 185.372 -21.0646 -10.9106
  890 5.12485 5.43377 0.845001
  891 5.21186 5.43442 -0.806073
  892 67.9383 -2.33550 12.0437
  893 67.9876 -2.41113 -12.1242
  894 82.8394 -4.11792 13.2442
  895 82.8149 -4.22059 -13.3468
  896 267.212 53.6837 9.18749
  897 -0.415644 -8.27545 -3.97494
  898 -0.418528 -8.26638 3.97255
  899 59.9139 5.17331 -17.8570
  900 59.6074 5.06566 17.6662
  901 472.561 15.3396 -24.0305
  902 5.22757 -0.0306924 0.602593
  903 5.19765 -0.0322401 -0.612845
  904 0.749325 -23.4642 1.70533
  905 0.881869 -23.0898 -1.38869
  906 -8.86026 -0.126532 3.30204
  907 -8.86927 -0.123836 -3.30078
  908 47.8211 14.1301 -21.1201
  909 48.5676 13.6631 20.8020
  910 -4.05530 0.0774388 -7.05786
  911 -4.07462 0.0623589 7.07029
  912 12.4408 1.30433 -5.53213
  913 12.5240 1.28794 5.53907
  914 51.7124 -0.505271 11.0512
  915 51.6808 -0.503011 -11.1149
  916 41.6529 -1.38174 -8.87895
  917 41.6919 -1.37851 8.86099
  918 231.846 -0.771004 -4.03752
  919 111.384 23.0588 65.3623
  920 154.263 -15.1486 6.23908
  921 108.488 -7.62719 6.39004
  922 210.954 21.5364 -29.7869
  923 464.626 10.0413 9.53515
  924 252.382 10.7465 -29.1741
  925 39.1375 -1.50307 5.47586
  926 39.1013 -1.48525 -5.50055
  927 5.17222 -0.208485 -4.04242
  928 5.25019 -0.210812 4.04091
  929 -0.285807 -4.17636 -7.73227
  930 -0.318706 -4.20843 7.75766
  931 112.159 -4.69694 2.63377
  932 112.222 -4.79645 -2.65157
  933 12.3328 3.69571 -4.75150
  934 12.4232 3.67862 4.77831
  935 67.3206 -2.92375 -10.1380
  936 67.3622 -2.92277 10.1283
  937 146.264 -0.770290 -14.8957
  938 69.3572 -3.70627 -6.88207
  939 69.3014 -3.66248 6.90565
  940 173.911 -4.45983 -1.10116
  941 210.336 -12.2212 -28.4951
  942 89.8371 -3.46944 2.94137
  943 89.8851 -3.50497 -2.99025
  944 -3.77200 -0.416090 -2.29254
  945 -3.76213 -0.417084 2.28789
  946 215.277 -17.3345 -33.4397
  947 205.415 -11.9841 18.3557
  948 179.923 -12.3486 -4.74992
  949 173.194 5.76682 26.9596
  950 77.7870 -4.28164 -7.77968
  951 77.7804 -4.19497 7.80570
  952 194.678 7.23479 32.7609
  953 180.770 15.7089 21.5436
  954 377.654 45.6893 7.82150
  955 191.927 -6.54024 4.35687
  956 98.8732 -2.70281 -1.30680
  957 98.8576 -2.64212 1.32022
  958 171.187 -13.8467 -1.79631
  959 236.375 43.4855 -14.2890
  960 211.190 -1.91441 -1.61099
  961 136.723 -2.95353 0.418793
  962 136.667 -2.92785 -0.378396
  963 16.7623 13.9325 -9.27097
  964 17.2011 13.9001 9.34848
  965 33.1358 78.0210 -73.0845
  966 195.561 -4.73205 24.8963
  967 245.683 -5.29749 -24.7325
  968 -4.92777 2.32727 1.72122
  969 -4.86509 2.32646 -1.69047
  970 508.890 118.496 -95.3051
  971 210.045 -23.0733 4.01512
  972 224.447 -21.2632 -7.26775
  973 206.559 -17.7551 17.0014
  974 254.422 50.3593 6.18220
  975 17.8088 17.4179 -20.9523
  976 46.6949 66.9003 71.3019
  977 -1.36783 -3.05560 7.65738
  978 -1.34738 -3.03207 -7.64422
  979 201.533 -4.80085 4.32834
  980 323.708 57.6436 -6.23593
  981 18.3424 16.9752 21.8484
  982 -0.899752 -2.94618 -2.54911
  983 -0.900008 -2.93838 2.54280
  984 172.235 -3.57086 0.569719
  985 127.328 -10.0044 -8.87857
  986 208.135 -16.5221 -19.9229
  987 57.7189 15.4928 -28.2750
  988 58.6551 15.7533 28.3502
  989 201.398 -5.02808 -22.3018
  990 204.149 -6.17193 7.67148
  991 -5.70589 1.27722 6.28523
  992 -5.67882 1.29047 -6.26564
  993 121.573 -8.02535 -19.8774
  994 202.378 12.6926 -33.0070
  995 150.803 -5.25910 0.00399073
  996 107.200 -2.77483 0.165510
  997 107.180 -2.79635 -0.152886
  998 -2.34597 -2.65754 -5.37714
  999 -2.34942 -2.66326 5.37332
  1000 206.902 -7.11406 -9.31560
  1001 197.376 -1.76659 0.312430
  1002 197.190 -1.76846 -0.228978
  1003 272.084 43.7687 -20.9416
  1004 47.2775 4.24759 -13.9053
  1005 47.3938 4.16263 13.8686
  1006 29.1149 -0.215817 -7.30661
  1007 29.1682 -0.221893 7.29457
  1008 223.123 11.5307 35.7842
  1009 212.654 -3.68082 -5.31186
  1010 35.7937 5.83516 -11.1496
  1011 35.9369 5.79025 11.1913
  1012 222.771 -0.872862 -0.945090
  1013 206.462 -8.73970 -13.9026
  1014 201.582 -23.0359 -7.06026
  1015 7.20891 5.87329 -0.902865
  1016 6.99693 5.84539 0.998397
  1017 -10.1873 1.54815 3.85534
  1018 -10.1524 1.55222 -3.83239
  1019 117.259 4.52128 -5.51415
  1020 351.047 85.7747 -21.3662
  1021 158.424 -11.2954 0.0778701
  1022 103.742 -4.51788 -20.5120
  1023 256.847 -11.1768 4.31235
  1024 104.154 -4.51859 20.8108
  1025 182.794 -21.4680 13.0110
  1026 207.332 -8.53926 -20.5021
  1027 68.4800 -1.46443 -0.406223
  1028 68.4794 -1.43443 0.402809
  1029 140.552 -10.7865 -4.14292
  1030 85.0751 -3.10249 -15.7834
  1031 85.0351 -3.12602 15.6927
  1032 27.7399 18.0434 -16.9806
  1033 28.1905 17.9832 17.0306
  1034 57.0132 -1.75637 -1.46392
  1035 57.0109 -1.73225 1.44079
  1036 184.687 -5.45373 2.56145
  1037 155.327 0.148300 -53.6177
  1038 191.560 -5.85266 -4.30117
  1039 172.320 -19.1017 -7.31212
  1040 111.850 -4.45838 1.73286
  1041 111.948 -4.49501 -1.74108
  1042 225.824 -1.09646 1.18967
  1043 200.790 -4.39704 -4.06493
  1044 124.249 2.99747 10.3872
  1045 214.597 -2.09234 -9.18463
  1046 81.8715 23.4425 51.9222
  1047 221.464 -1.97937 -7.57728
  1048 56.1813 9.53539 -21.0594
  1049 54.4491 9.64803 20.1557
  1050 265.558 -5.62125 -5.57794
  1051 22.7478 12.0804 -8.42807
  1052 22.9629 11.9907 8.42317
  1053 3.76126 -1.06733 3.01880
  1054 3.96297 -1.03220 -2.88605
  1055 31.0112 -0.843073 1.80023
  1056 30.9896 -0.849242 -1.82693
  1057 93.4029 23.7528 -57.7556
  1058 526.302 133.597 102.528
  1059 206.166 -7.11538 9.55735
  1060 184.437 -20.8263 -4.92908
  1061 127.038 -10.4187 -15.0989
  1062 -3.08818 2.67967 5.63486
  1063 -3.03962 2.69436 -5.60247
  1064 143.798 -7.07300 0.460595
  1065 159.149 -5.50602 -0.625265
  1066 -0.0944143 -11.7500 3.85478
  1067 -0.0904087 -11.7602 -3.85334
  1068 22.9723 14.3741 -10.1765
  1069 23.2533 14.3438 10.2404
  1070 141.818 -6.46429 -0.421880
  1071 10.0727 5.12813 2.70967
  1072 9.98227 5.13599 -2.67436
  1073 218.090 -8.89967 32.9944
  1074 157.252 -16.3242 -12.7406
  1075 127.808 -10.5881 15.0965
  1076 207.049 -4.42396 -34.4520
  1077 220.812 -2.10994 3.86302
  1078 78.0554 11.9267 34.4454
  1079 78.6217 11.4195 -33.8572
  1080 127.010 -6.26365 -28.8830
  1081 181.479 -6.10710 -2.65985
  1082 146.534 -8.52722 1.47660
  1083 172.360 -15.9817 0.693449
  1084 239.335 -0.726840 -2.16804
  1085 126.598 -5.52209 1.64096
  1086 126.542 -5.86088 -1.71722
  1087 3.84820 4.62643 4.87130
  1088 3.95229 4.66141 -4.81212
  1089 208.411 7.40846 -35.5226
  1090 45.2563 2.43685 -12.2179
  1091 45.3763 2.38406 12.1783
  1092 33.3976 0.764959 -8.62922
  1093 33.4686 0.745483 8.60928
  1094 240.628 -10.9365 42.3843
  1095 207.133 -9.49627 20.2614
  1096 99.8068 -4.52425 -17.2577
  1097 243.667 -0.864094 -1.30171
  1098 270.333 50.8093 -15.9473
  1099 220.542 -1.79900 -2.51164
  1100 205.463 -22.2983 8.43302
  1101 151.162 -11.6702 25.1431
  1102 245.599 -0.177730 0.293315
  1103 124.000 3.91062 -8.81542
  1104 173.582 -18.5513 -2.68698
  1105 99.9620 -4.73417 17.0505
  1106 175.240 -15.8435 -1.71037
  1107 220.057 -2.91246 6.98216
  1108 153.546 9.72692 13.8011
  1109 107.476 -7.82382 -13.5626
  1110 334.762 44.9521 -16.6820
  1111 249.205 10.6101 30.4566
  1112 182.938 23.0304 3.40787
  1113 242.444 0.148975 1.19267
  1114 92.8402 -5.69550 -10.2233
  1115 63.5354 38.3600 -57.8465
  1116 114.343 2.85689 -41.5137
  1117 131.203 -9.90703 6.04744
  1118 110.373 -8.18361 12.6262
  1119 92.6014 -5.40573 10.3391
  1120 197.893 1.49952 34.4220
  1121 149.736 -4.84639 0.165854
  1122 238.549 -1.66479 2.85754
  1123 -2.07701 -0.329337 7.70919
  1124 -2.04887 -0.306069 -7.69019
  1125 157.097 -4.08579 -0.375618
  1126 -0.475646 1.52602 7.13746
  1127 -0.425062 1.55613 -7.10192
  1128 86.3225 -2.54378 1.75762
  1129 86.3336 -2.58915 -1.76040
  1130 223.513 -1.13963 6.29384
  1131 178.904 -10.6906 -4.03227
  1132 167.341 -8.63286 -1.75483
  1133 187.552 -12.9501 7.37967
  1134 56.0957 27.4405 -42.7974
  1135 184.027 -6.60897 3.33065
  1136 25.5488 0.581175 -7.03618
  1137 25.6158 0.567681 7.02762
  1138 37.2742 23.7554 -29.7248
  1139 295.928 37.3367 11.8160
  1140 18.5685 -0.917795 4.06211
  1141 18.5071 -0.910015 -4.07109
  1142 37.9519 23.3588 28.6515
  1143 167.913 -13.8890 1.11581
  1144 83.1221 -3.74563 3.70373
  1145 83.1412 -3.76526 -3.77619
  1146 345.707 72.8776 -17.8841
  1147 185.381 -18.5547 2.58917
  1148 62.5018 35.7952 57.7056
  1149 5.15585 -2.75301 -4.07985
  1150 5.57232 -2.68559 4.57562
  1151 193.239 24.2663 17.3515
  1152 13.6767 7.72604 -2.65426
  1153 13.7922 7.72706 2.68623
  1154 186.642 -16.1271 -6.17837
  1155 -0.0903220 -18.2492 -3.65308
  1156 -0.0988439 -18.2539 3.66965
  1157 199.705 -16.8258 -12.2548
  1158 -5.81831 0.256331 1.36814
  1159 -5.90965 0.257853 -1.37213
  1160 29.3708 11.1191 -11.1241
  1161 29.5313 11.1660 11.0112
  1162 -12.2086 0.0308014 -1.67695
  1163 -12.1109 0.0300227 1.67811
  1164 200.477 -1.79370 -0.449370
  1165 -20.5854 0.584215 0.467850
  1166 -20.5316 0.583831 -0.455467
  1167 103.799 -8.05970 -9.80031
  1168 2.71203 -27.9754 -2.09593
  1169 50.2217 -1.37986 2.87228
  1170 50.2097 -1.38567 -2.91004
  1171 169.369 -2.81246 0.170751
  1172 169.695 -2.72609 -0.136927
  1173 2.91018 -26.7637 2.70062
  1174 201.177 -10.3111 -11.8561
  1175 230.803 -0.969094 4.70198
  1176 204.243 -13.0190 -17.0244
  1177 176.017 1.22186 26.7541
  1178 0.849032 -7.78521 5.88118
  1179 0.936122 -7.73135 -5.79049
  1180 129.311 -9.20956 4.66780
  1181 -9.15406 0.772361 4.99746
  1182 -9.13733 0.779037 -4.98307
  1183 340.792 54.5756 3.38713
  1184 403.340 121.002 -85.2286
  1185 208.917 -20.4304 15.0338
  1186 84.0091 -2.28765 -0.203745
  1187 84.0102 -2.25589 0.203878
  1188 434.067 42.0958 -38.5379
  1189 28.0181 -0.740382 4.22355
  1190 27.9698 -0.728349 -4.24325
  1191 193.742 -0.635662 -10.6885
  1192 123.966 -9.93751 11.1291
  1193 206.687 -20.3751 -11.3344
  1194 199.910 -14.4570 -13.5901
  1195 120.870 -4.36992 30.3302
  1196 43.7747 8.28656 -15.7260
  1197 43.7456 8.21213 15.6290
  1198 58.3148 21.4416 -36.2328
  1199 58.3829 19.8179 36.2301
  1200 15.7733 4.91382 -5.00477
  1201 15.8712 4.89833 5.03768
  1202 245.796 42.4532 -20.9799
  1203 12.1371 10.9798 -4.21953
  1204 12.4319 10.9920 4.30643
  1205 177.540 -13.3974 3.69519
  1206 336.522 46.5294 19.0015
  1207 39.6018 -1.67990 -2.82837
  1208 39.6255 -1.67895 2.79479
  1209 220.727 145.146 -129.325
  1210 163.400 9.64361 -21.3456
  1211 149.197 11.5541 8.68439
  1212 20.0782 8.74644 -5.94263
  1213 20.1758 8.74501 5.97847
  1214 1.09682 -0.0308582 1.00602
  1215 1.03979 -0.0307953 -1.01603
  1216 196.986 -15.7470 11.4607
  1217 193.952 -7.47659 6.24468
  1218 132.415 35.8514 -91.5499
  1219 306.241 66.6380 -1.38568
  1220 130.343 -4.12000 -33.5310
  1221 169.922 -4.84774 0.949923
  1222 5.04532 -0.859386 -0.251693
  1223 5.05166 -0.858863 0.250172
  1224 -5.64005 1.32728 -2.09224
  1225 -5.56060 1.32157 2.11019
  1226 112.994 1.08261 -35.2826
  1227 211.037 -4.35916 6.73000
  1228 135.989 2.10348 48.7140
  1229 185.191 -8.87728 -5.01338
  1230 94.7696 32.8815 -71.5692
  1231 147.930 -7.48507 -36.3033
  1232 176.604 -18.8571 1.68287
  1233 217.242 -3.28421 10.3095
  1234 190.483 -3.59667 -1.97214
  1235 103.341 -7.54941 9.86354
  1236 239.151 -13.9770 -19.5474
  1237 225.414 19.2176 33.9423
  1238 97.1522 0.429523 -27.6304
  1239 227.339 -1.15195 0.897564
  1240 178.170 22.3052 -4.85597
  1241 76.2535 -2.54101 -2.82195
  1242 76.2332 -2.51136 2.78505
  1243 348.647 77.6601 16.2057
  1244 481.870 12.8281 22.5211
  1245 0.403131 -22.3358 -3.64230
  1246 0.389587 -22.3627 3.67002
  1247 49.8419 25.8471 39.8983
  1248 120.401 -3.22470 -0.405653
  1249 120.426 -3.20214 0.452145
  1250 166.399 -16.6830 -3.12470
  1251 197.310 16.0112 29.8648
  1252 209.475 -3.81113 -4.45925
  1253 245.418 -0.541413 -0.171926
  1254 425.205 93.7065 -58.4351
  1255 62.8156 -2.31396 2.84451
  1256 62.8152 -2.32002 -2.89006
  1257 199.902 -18.5652 11.8224
  1258 354.612 83.6229 -23.2841
  1259 194.024 -8.18943 -6.99699
  1260 140.517 -9.56464 -2.88065
  1261 173.472 -18.9097 7.08424
  1262 169.647 -8.18452 2.12533
  1263 5.98537 -0.435229 -6.89560
  1264 233.093 -14.5836 22.8705
  1265 188.327 -12.1158 -7.18421
  1266 6.61485 -0.111097 7.74082
  1267 193.924 -16.0340 -33.8916
  1268 183.630 10.3423 -74.8474
  1269 303.548 37.0847 -9.00960
  1270 246.448 -0.0547367 -0.0872711
  1271 245.978 -0.284717 0.233279
  1272 191.666 -10.9627 7.65462
  1273 72.3448 8.62644 -27.1377
  1274 218.559 -19.6984 18.6301
  1275 374.296 84.9597 37.5497
  1276 90.6836 30.3487 69.6590
  1277 2.29417 -0.153893 6.09576
  1278 2.39008 -0.108645 -6.02964
  1279 230.347 -19.1996 -17.3050
  1280 90.2520 -4.78811 -4.46454
  1281 90.2306 -4.79987 4.36812
  1282 213.520 -14.2416 27.4820
  1283 5.75069 0.0890053 4.49023
  1284 5.67242 0.0931901 -4.49007
  1285 -1.23411 -4.54936 6.22647
  1286 -1.22612 -4.53964 -6.22691
  1287 35.2161 -1.22279 -3.85332
  1288 35.2507 -1.23029 3.82409
  1289 110.830 -7.34732 -15.5316
  1290 111.401 -3.42047 0.683254
  1291 111.400 -3.50409 -0.640033
  1292 245.377 -0.0526440 -0.0401302
  1293 215.785 -3.19241 -11.5638
  1294 15.6584 0.856238 -5.55280
  1295 15.7346 0.844211 5.55292
  1296 111.276 -7.78184 15.3876
  1297 247.978 -0.171547 0.0606746
  1298 233.738 0.00790523 -0.255572
  1299 233.745 -0.130943 0.192610
  1300 307.083 63.4842 6.04482
  1301 227.235 -1.28038 -1.99696
  1302 201.113 -1.66947 0.376335
  1303 222.907 -3.16268 -6.17761
  1304 243.887 -0.672452 0.917784
  1305 251.550 25.3059 30.2013
  1306 291.974 59.9264 9.52708
  1307 235.991 -0.839160 -3.14356
  1308 -1.88678 -0.495039 1.70369
  1309 -1.89416 -0.494648 -1.70872
  1310 128.801 -7.89111 3.00562
  1311 128.773 -7.52853 -2.89812
  1312 253.865 28.1292 -28.8774
  1313 51.5763 17.7020 -29.7147
  1314 51.9089 17.2042 29.3731
  1315 168.655 -0.0179931 -13.3714
  1316 176.170 -2.40066 0.00599322
  1317 175.954 -2.37696 -0.0421277
  1318 -4.34144 -0.781051 6.35535
  1319 -4.33349 -0.769881 -6.35251
  1320 194.361 -0.497360 10.6739
  1321 297.857 59.3137 0.596556
  1322 18.0286 -0.777367 -2.43303
  1323 18.0732 -0.779218 2.41041
  1324 220.204 -21.4600 10.9822
  1325 -0.0799357 3.40834 5.82518
  1326 -0.0168706 3.42918 -5.78481
  1327 37.4524 -0.841281 -0.752847
  1328 37.4602 -0.826542 0.737892
  1329 168.710 -0.298285 13.5704
  1330 3.22559 0.387956 -0.357254
  1331 3.24693 0.389437 0.349755
  1332 225.096 -2.39229 4.08280
  1333 312.249 57.3124 2.31620
</Section>

newXOutput 29

<Section columns = "stress_xx | stress_yy | stress_xy">
  1 261.094 -0.580881 0.471039
  2 261.536 -0.786688 -0.612234
  3 0.625887 0.253888 -0.691806
  4 -0.171627 -0.268753 -0.164846
  5 487.273 185.052 156.115
  6 494.798 212.447 -157.869
  7 -0.169663 -0.267046 0.162301
  8 0.620014 0.252487 0.690120
  9 262.948 -0.403969 -0.432457
  10 260.862 -0.822661 -0.610327
  11 260.970 -0.623862 0.629918
  12 259.521 -0.267459 0.326049
  13 258.875 -0.769008 -0.0880475
  14 258.250 -0.729440 1.14000
  15 254.120 -0.475213 1.14432
  16 254.939 -1.80558 1.65234
  17 246.421 -1.46975 3.45974
  18 240.898 -0.589956 4.14581
  19 233.379 -0.771530 4.44624
  20 220.484 -0.679753 6.13387
  21 206.571 -0.604939 7.07928
  22 189.352 0.867102 9.63730
  23 165.904 1.33428 8.69119
  24 156.597 -0.147801 12.3988
  25 127.589 1.83660 8.79028
  26 110.100 2.45846 6.86220
  27 105.555 1.09267 5.05046
  28 100.674 3.57276 0.361553
  29 103.333 3.89435 -6.74788
  30 108.736 1.07527 -8.48100
  31 130.247 0.396463 -11.3626
  32 152.080 -1.12599 -11.8713
  33 166.749 1.10312 -8.68249
  34 189.616 0.991383 -9.64604
  35 206.008 -0.724042 -7.58007
  36 221.933 -0.802143 -5.79818
  37 232.379 -0.539177 -4.51158
  38 240.148 -0.620162 -3.82173
  39 248.420 -0.836598 -2.24062
  40 251.788 -0.803936 -2.16108
  41 255.041 -0.767381 -1.88884
  42 258.378 -0.888321 -0.436718
  43 259.709 -1.15256 -0.807526
  44 258.280 0.199032 -0.115797
  45 260.677 -0.553313 -0.702183
  46 261.954 -1.25325 0.665248
  47 263.296 -0.697045 -0.0407413
  48 249.445 0.357108 -0.392829
  49 233.988 -0.676584 -0.750205
  50 216.608 -1.86059 -1.11832
  51 198.724 -1.41480 -0.818970
  52 183.219 -2.57484 -0.755951
  53 166.928 -2.84057 -0.700237
  54 150.563 -2.44890 -0.377519
  55 133.423 -2.69020 -0.500317
  56 118.971 -2.96347 -0.643443
  57 99.8070 -2.88555 -0.539339
  58 80.1228 -1.76727 -0.345267
  59 63.8712 -1.11866 -0.282141
  60 43.8319 -0.705206 -0.146047
  61 29.2683 -0.738871 -1.02680
  62 15.7228 -1.08732 -0.355447
  63 2.07341 0.129645 0.593324
  64 -1.40668 0.961499 0.199257
  65 -2.33385 0.395295 0.601916
  66 -1.70822 0.180776 0.576580
  67 -4.34188 0.556137 0.205814
  68 -5.28323 0.721944 1.22936
  69 -5.49677 0.249793 0.379600
  70 -9.99550 0.527585 0.426551
  71 -12.0199 0.374921 1.16559
  72 -12.6521 0.135193 1.21345
  73 -17.4888 0.502809 0.910862
  74 -19.2118 0.743376 1.80991
  75 -21.0409 0.451236 0.581011
  76 -23.3249 0.324893 0.927855
  77 -24.0588 0.350464 0.312162
  78 -26.1795 0.824174 -0.644998
  79 -26.2896 0.565327 -0.486791
  80 -23.8241 0.435120 -0.871955
  81 -20.3853 0.552972 -1.60979
  82 -16.4728 0.234280 -2.39038
  83 -12.2088 0.124590 -2.47023
  84 -7.30502 -0.261672 -2.57804
  85 -3.13958 -0.205831 -1.49182
  86 -1.30595 -0.532579 -0.925184
  87 -0.226365 -1.32337 -0.794688
  88 -0.388121 -3.38123 -1.43340
  89 -0.438486 -6.70241 -2.53854
  90 -0.100041 -12.5934 -2.76295
  91 0.140865 -17.5027 -3.49063
  92 0.344748 -25.2130 -2.85792
  93 1.04860 -30.0233 -3.38728
  94 0.160979 -32.5676 -2.85866
  95 -0.0621822 -37.5570 -1.81091
  96 1.02604 -36.8619 -0.659424
  97 4.11231 -47.9660 1.63896
  98 3.55897 -27.1949 5.87589
  99 8.59127 -14.0939 13.3717
  100 26.2059 37.5256 43.5259
  101 114.394 138.564 127.316
  102 638.735 66.8625 95.2556
  103 530.922 18.7039 34.1414
  104 504.799 7.98368 11.7949
  105 490.113 5.27619 -0.0584196
  106 499.376 7.60861 -9.65982
  107 536.145 15.9879 -28.3408
  108 632.088 53.3535 -88.9691
  109 73.9920 157.283 -105.284
  110 18.3788 25.8771 -33.4281
  111 6.31795 -18.3948 -10.9737
  112 3.22276 -29.7343 -4.96984
  113 4.09441 -49.7849 -1.19801
  114 0.983238 -37.6742 0.974825
  115 -0.121957 -37.9661 1.97601
  116 0.122643 -32.7277 2.94748
  117 1.02792 -30.0637 3.42510
  118 0.336769 -25.2022 2.87210
  119 0.134769 -17.4801 3.49601
  120 -0.103018 -12.5637 2.76164
  121 -0.438918 -6.68332 2.53347
  122 -0.388961 -3.36457 1.42855
  123 -0.226234 -1.31712 0.790351
  124 -1.29842 -0.531904 0.921585
  125 -3.12630 -0.206718 1.48799
  126 -7.28827 -0.263739 2.57590
  127 -12.1898 0.122357 2.47099
  128 -16.4630 0.231863 2.39483
  129 -20.3918 0.551300 1.61821
  130 -23.8470 0.435036 0.880892
  131 -26.3335 0.564915 0.495423
  132 -26.2404 0.824240 0.653893
  133 -24.1388 0.351432 -0.304593
  134 -23.4190 0.326076 -0.922448
  135 -21.1414 0.452553 -0.576902
  136 -19.3194 0.744909 -1.80860
  137 -17.5985 0.504216 -0.909809
  138 -12.7590 0.136050 -1.21422
  139 -12.1260 0.376381 -1.16782
  140 -10.0955 0.529658 -0.429723
  141 -5.58290 0.251191 -0.385213
  142 -5.35491 0.723299 -1.23741
  143 -4.40113 0.556455 -0.212997
  144 -1.74872 0.180485 -0.583458
  145 -2.36015 0.394560 -0.607401
  146 -1.42376 0.960178 -0.204058
  147 2.06398 0.128850 -0.596077
  148 15.7137 -1.09128 0.352490
  149 29.2592 -0.749123 1.02346
  150 43.8264 -0.723530 0.141773
  151 63.8705 -1.14524 0.279856
  152 80.1213 -1.79822 0.344799
  153 99.7979 -2.91249 0.543332
  154 118.941 -2.97730 0.652012
  155 133.372 -2.67451 0.520865
  156 150.486 -2.38900 0.401494
  157 166.820 -2.69791 0.663270
  158 183.295 -2.61431 0.666632
  159 198.779 -1.66629 0.863176
  160 216.782 -1.81394 1.02237
  161 234.472 -0.539877 0.760333
  162 248.989 0.342659 0.380627
  163 142.005 -12.7425 -10.6315
  164 141.414 -12.9722 10.6077
  165 41.5966 11.6418 -15.9905
  166 42.0124 11.6871 15.9147
  167 168.567 -8.47767 42.4148
  168 176.901 -9.55827 -41.2446
  169 80.5940 -4.14932 4.79151
  170 80.5908 -4.10685 -4.87250
  171 180.345 -5.93000 1.68100
  172 176.606 -5.94723 -1.62620
  173 239.067 43.3661 -6.53831
  174 244.368 1.19697 -33.3271
  175 239.290 3.14430 35.5821
  176 55.5064 -2.03794 -10.6342
  177 55.5032 -2.02120 10.6078
  178 211.154 -20.9907 12.6932
  179 210.861 -16.2266 -17.0760
  180 2.43862 4.55628 5.66019
  181 2.52452 4.58600 -5.60966
  182 288.395 58.4451 11.1294
  183 54.3322 24.0501 -37.4908
  184 58.4065 24.2936 40.3274
  185 204.341 -9.27806 8.34314
  186 306.974 63.8105 -6.44926
  187 130.832 -4.45217 -1.06904
  188 130.611 -4.57819 1.05360
  189 210.375 -6.34707 -7.55233
  190 281.528 -2.96987 -1.66053
  191 48.8969 -1.44691 1.76712
  192 48.8881 -1.46090 -1.79819
  193 20.5899 2.84096 -6.95715
  194 20.6866 2.81181 6.97255
  195 116.575 -4.50557 -26.0950
  196 116.116 -4.76039 26.4396
  197 139.621 -8.83460 -3.18284
  198 139.903 -8.78475 3.45756
  199 34.2288 -1.19719 5.55122
  200 34.1823 -1.18004 -5.56703
  201 278.599 -6.23986 16.1290
  202 226.553 -22.6531 -6.35315
  203 216.029 -1.84743 -1.30592
  204 211.021 -2.29708 1.35439
  205 211.327 24.7097 24.8484
  206 8.64143 6.94794 -2.01122
  207 8.97088 6.92824 2.15704
  208 212.045 -8.63102 28.9652
  209 193.459 14.6722 -28.2012
  210 139.053 30.1553 -88.5388
  211 146.213 25.4375 82.2000
  212 2.76965 4.59463 0.0619464
  213 2.85019 4.59281 -0.0242425
  214 211.265 -7.63808 -29.8818
  215 371.121 52.2958 -3.33755
  216 175.659 -19.2750 14.2561
  217 177.032 -19.1572 -13.4075
  218 175.578 -12.3178 -2.12399
  219 219.361 -3.15532 4.12004
  220 104.025 -7.02266 -9.11008
  221 102.332 -6.99205 9.42984
  222 61.8668 1.36051 -16.3095
  223 61.9509 1.33499 16.1583
  224 224.528 -24.0667 -0.864379
  225 174.078 -13.1156 1.38096
  226 218.607 -3.05933 -3.31265
  227 169.024 -3.96220 0.395535
  228 170.549 -3.66249 -0.0659032
  229 214.814 -9.48245 17.0672
  230 16.5966 0.223916 -5.91343
  231 16.6701 0.215386 5.91023
  232 -2.82805 -1.93770 -7.37216
  233 -2.84206 -1.95463 7.37854
  234 30.1142 -1.36610 -3.16631
  235 30.1513 -1.36938 3.13641
  236 88.6138 -2.48245 2.10207
  237 88.6397 -2.53179 -2.12212
  238 103.215 7.01254 -38.6830
  239 103.226 5.82532 38.2335
  240 218.007 -6.64883 -14.5905
  241 100.725 -5.81354 -15.3803
  242 100.806 -5.99397 15.1387
  243 190.027 2.77871 31.7927
  244 164.547 14.2044 1.91658
  245 186.595 -18.5387 -2.02708
  246 0.693919 -4.95898 -6.94338
  247 0.631571 -5.00761 6.99791
  248 11.5453 10.7918 -12.2229
  249 12.3117 10.3607 12.9083
  250 183.420 -18.1276 0.784079
  251 333.939 60.5645 -1.64263
  252 16.4326 11.2629 -4.72380
  253 16.6372 11.2558 4.78847
  254 -7.42043 1.47798 5.18789
  255 -7.38473 1.48561 -5.16346
  256 335.991 56.4212 3.42254
  257 114.925 -5.33116 -3.23962
  258 114.833 -5.23948 3.15702
  259 228.386 -15.6730 27.3340
  260 416.573 67.6417 41.1808
  261 66.2233 -3.43497 -8.65088
  262 66.2027 -3.45917 8.63866
  263 231.434 34.5616 -24.0408
  264 401.374 75.9928 -37.0297
  265 278.897 26.9701 24.2117
  266 305.393 16.6098 -54.6681
  267 186.810 -8.55091 3.74747
  268 211.650 0.768735 -35.9405
  269 201.403 -14.0762 -10.1554
  270 225.156 -3.86669 9.32117
  271 -1.06182 2.13546 -1.86138
  272 -0.981604 2.12839 1.88770
  273 223.218 -8.33446 -53.3475
  274 22.6961 7.23018 -6.91346
  275 22.8071 7.21583 6.95357
  276 215.078 -5.17555 -18.3884
  277 30.2077 29.6944 -38.8452
  278 22.6202 -0.0919968 -0.718738
  279 22.6345 -0.0862404 0.705961
  280 227.449 -14.3986 -28.4464
  281 38.9268 17.4781 -20.3654
  282 39.4971 17.3774 20.4215
  283 9.26375 -0.329241 4.15834
  284 9.18749 -0.324846 -4.16313
  285 186.553 -8.08764 -3.63725
  286 30.4102 29.3611 39.9391
  287 300.396 20.0777 64.4816
  288 79.1003 -3.03586 -2.80093
  289 79.0800 -3.01439 2.75243
  290 148.237 -5.84557 -0.742596
  291 148.161 -6.35982 0.902403
  292 126.529 11.7572 -59.4937
  293 205.334 -22.5882 -4.83324
  294 235.617 -1.21523 1.84976
  295 121.800 11.7109 57.4858
  296 141.776 -3.53849 -0.211861
  297 141.720 -3.53502 0.337993
  298 201.712 -14.6711 10.3539
  299 233.155 -2.27753 -4.50933
  300 -2.99241 0.880192 -3.11871
  301 -2.90478 0.873655 3.13039
  302 290.982 58.2150 -3.21728
  303 256.083 -12.4790 15.6607
  304 232.232 -0.944645 -0.528788
  305 236.442 -0.816557 0.478746
  306 230.535 -20.8448 18.0692
  307 284.505 28.7906 -22.7472
  308 246.621 45.9951 14.0928
  309 109.637 -6.57865 -5.49872
  310 108.609 -6.70293 5.62198
  311 235.403 -1.16496 -1.29930
  312 152.535 -11.6919 -28.6938
  313 149.857 -11.6727 4.13870
  314 142.904 -7.97150 32.9036
  315 230.997 -2.58858 5.35188
  316 49.7135 -2.27994 -5.34773
  317 49.7418 -2.29709 5.31988
  318 212.456 -7.89751 52.7366
  319 133.256 -10.4153 -6.84011
  320 246.847 31.3502 30.2971
  321 77.3919 5.47513 -24.6880
  322 74.4537 5.71966 24.4673
  323 19.8279 -0.455585 -1.30880
  324 19.8563 -0.452276 1.28842
  325 203.596 -3.79246 2.57436
  326 195.149 -2.42567 0.464847
  327 194.024 -2.68983 -0.534600
  328 213.362 -5.45487 19.4564
  329 15.7782 -0.648209 3.05396
  330 15.7156 -0.641883 -3.07081
  331 59.6503 -1.36316 -1.08446
  332 59.6491 -1.33803 1.07085
  333 1.92660 -10.3374 -4.13634
  334 1.79197 -10.4145 4.29677
  335 163.123 6.99436 21.4846
  336 258.623 -11.8730 -13.1382
  337 166.060 -8.56614 1.40383
  338 188.570 -3.45650 -1.48653
  339 194.706 24.2844 -13.2964
  340 36.4781 -1.14108 -7.84267
  341 36.5226 -1.14161 7.83294
  342 161.352 -8.05822 -0.534008
  343 44.1700 1.62169 -11.3495
  344 44.2520 1.58218 11.3083
  345 8.15956 7.29493 0.578287
  346 8.26678 7.29250 -0.533593
  347 197.061 -21.3905 18.6703
  348 442.683 29.2973 11.3135
  349 172.700 2.47294 -25.4789
  350 145.600 -13.0745 17.1649
  351 144.857 -12.8192 -17.7202
  352 215.510 -3.85588 35.6588
  353 190.552 -1.47235 25.2767
  354 194.439 -20.6853 -19.3236
  355 114.195 -2.68420 0.00473960
  356 114.179 -2.71993 0.0243440
  357 215.100 -14.0734 22.2987
  358 294.458 58.9514 2.02073
  359 232.014 -2.46330 -6.89540
  360 56.8653 -2.15005 -3.79697
  361 56.8839 -2.15154 3.75247
  362 218.000 -21.1447 -23.4379
  363 227.686 15.6094 -35.6939
  364 149.455 8.05548 -13.7601
  365 216.555 -14.5442 -25.3698
  366 -7.17458 0.199764 -5.69833
  367 -7.18269 0.191332 5.70577
  368 181.947 -3.99178 1.06618
  369 -2.59054 -1.54919 -3.33663
  370 -2.58765 -1.54980 3.33005
  371 141.274 67.4908 -108.147
  372 5.23620 4.54465 4.09393
  373 5.37556 4.58192 -4.01985
  374 189.013 -1.55599 -25.0633
  375 103.438 -4.24453 2.42750
  376 103.517 -4.30567 -2.46141
  377 -0.766479 -7.75997 6.47938
  378 -0.754663 -7.74568 -6.47226
  379 114.407 70.8882 101.680
  380 84.4232 -4.42381 -11.8856
  381 84.4853 -4.22597 11.8945
  382 26.6561 19.3691 -18.7070
  383 27.2292 19.3062 18.5895
  384 -11.3041 1.61229 2.25369
  385 -11.2555 1.61460 -2.22789
  386 219.376 14.3887 35.6355
  387 168.468 -17.6280 7.46275
  388 168.645 -15.2808 2.26484
  389 205.142 -23.4496 -1.36304
  390 49.9056 6.36027 -15.9454
  391 50.0711 6.34661 15.9161
  392 4.38581 -7.65124 -0.136890
  393 4.13765 -7.75505 0.490551
  394 205.474 29.4769 8.80862
  395 209.638 -5.75419 6.25154
  396 118.244 -9.09752 10.7815
  397 72.3410 -1.75753 -14.3671
  398 72.3626 -1.77061 14.2474
  399 151.729 -4.30037 -0.105291
  400 151.559 -3.73153 -0.0239907
  401 117.241 -9.35128 -11.5136
  402 91.2686 -1.50205 -19.6900
  403 91.2488 -1.63004 19.8515
  404 218.159 -20.1221 -16.1335
  405 125.254 -9.50496 6.48844
  406 198.629 -5.78009 3.93974
  407 198.295 -5.23158 -3.35127
  408 165.476 -15.1625 -2.87393
  409 240.323 -0.861453 -1.94996
  410 79.1612 31.4763 -60.1746
  411 224.671 -3.14644 11.2733
  412 239.448 -1.08625 2.83192
  413 82.8256 -4.35793 6.95879
  414 82.8687 -4.29700 -6.95286
  415 167.700 -17.4148 -7.75965
  416 23.0065 10.4600 7.42451
  417 22.8805 10.4540 -7.43379
  418 447.377 29.2747 -23.1978
  419 194.365 -10.8928 -6.09736
  420 242.310 -0.656655 1.12436
  421 74.6500 29.2921 57.2027
  422 356.307 60.1886 10.9300
  423 209.320 -2.88742 -2.07215
  424 155.097 -11.0858 -2.15666
  425 63.7369 12.3219 -27.9758
  426 67.9843 11.4327 27.8089
  427 191.944 -11.9924 6.19235
  428 202.585 -2.63944 -18.6804
  429 -3.37553 -0.170540 3.10113
  430 -3.46613 -0.168368 -3.10001
  431 72.3068 17.2873 -37.8838
  432 72.5348 17.3529 37.7639
  433 7.64772 4.03355 -2.95362
  434 7.73656 4.02412 2.98645
  435 172.077 -2.99469 0.496075
  436 171.870 -2.90672 -0.435685
  437 214.456 -9.70626 -17.8286
  438 -0.756516 -0.830260 8.07089
  439 -0.718403 -0.797223 -8.04212
  440 221.100 -21.9678 14.3225
  441 209.419 -5.34694 -5.56290
  442 338.712 64.9461 -9.00046
  443 10.5691 -0.592547 1.41159
  444 10.5173 -0.592686 -1.42944
  445 410.260 114.172 49.7786
  446 7.91888 1.31690 -11.0921
  447 23.5036 1.24795 -7.59457
  448 23.5827 1.22847 7.59093
  449 408.743 116.653 -47.3971
  450 8.39499 2.22802 12.3022
  451 -11.1113 1.27564 0.808672
  452 -11.0490 1.27344 -0.784502
  453 21.8155 14.8997 -10.6227
  454 22.2020 14.9013 10.6832
  455 263.778 40.9846 -25.3577
  456 212.272 -8.13543 -11.7011
  457 240.963 -0.729286 -1.00996
  458 221.601 -3.34066 -13.1774
  459 -2.83794 1.47534 7.41123
  460 -2.79925 1.49637 -7.38439
  461 214.433 -8.50987 13.5207
  462 138.052 -7.55726 -2.47887
  463 137.616 -7.63909 2.00088
  464 188.658 -20.8414 -1.91760
  465 133.892 -2.03195 -40.6121
  466 204.733 -3.16941 19.1094
  467 167.829 -5.12596 -0.483888
  468 248.089 -19.1123 -1.30989
  469 129.646 0.941564 43.6168
  470 7.60464 -0.161830 2.99259
  471 7.52776 -0.157974 -3.00096
  472 270.663 53.5839 -11.7051
  473 218.234 -1.34072 0.198356
  474 217.467 -1.55413 -0.401966
  475 163.118 -10.6945 0.302679
  476 69.2513 -2.27548 -2.07669
  477 69.2415 -2.24621 2.04637
  478 40.4257 -0.417060 -9.30255
  479 40.4696 -0.425126 9.27959
  480 133.791 5.19995 8.20637
  481 32.2410 -1.09839 4.42810
  482 32.1976 -1.08746 -4.45420
  483 35.6083 3.54438 10.4602
  484 35.4897 3.59685 -10.4536
  485 210.496 -16.2739 16.4337
  486 116.512 -7.23286 -18.4281
  487 107.007 -3.27123 1.17821
  488 107.050 -3.35973 -1.18168
  489 117.760 -7.46387 18.4187
  490 329.963 77.7169 -5.01731
  491 -5.28121 -0.815681 -4.36121
  492 -5.27882 -0.819806 4.35913
  493 80.4590 -2.13779 -0.847367
  494 80.4541 -2.10160 0.842932
  495 0.0655417 -14.4072 -5.50902
  496 0.0312305 -14.4537 5.55628
  497 192.475 -2.55975 0.892554
  498 132.890 6.40792 -4.09204
  499 181.365 19.0793 11.8993
  500 115.896 -1.17293 -32.1296
  501 55.2028 -2.81818 6.73964
  502 55.2023 -2.79395 -6.75450
  503 -15.7628 0.488738 -0.948523
  504 -15.6781 0.485874 0.959232
  505 226.999 -4.51358 -35.5645
  506 15.1302 0.128444 -0.975396
  507 15.1523 0.131426 0.960808
  508 188.973 -14.7622 -5.27532
  509 201.574 -17.1087 -9.93995
  510 40.3865 30.1671 -40.2077
  511 169.291 4.06114 -64.7839
  512 1.67272 4.92575 3.82031
  513 1.75246 4.93554 -3.77652
  514 101.874 -4.56790 -3.65433
  515 101.819 -4.52280 3.56081
  516 292.828 11.1069 -8.92211
  517 209.705 -12.2805 -14.8737
  518 39.3526 28.4534 39.6210
  519 207.814 -23.7283 4.58594
  520 199.672 -18.9584 7.98664
  521 39.8957 -0.961498 -2.89312
  522 39.9159 -0.957068 2.86016
  523 161.257 1.67819 19.7072
  524 117.257 -8.52444 -6.94845
  525 221.759 -4.72260 8.52191
  526 -0.924600 -5.37632 -4.22568
  527 -0.926894 -5.37263 4.22005
  528 154.238 -13.7316 20.7054
  529 236.189 -18.3883 -19.1466
  530 309.811 19.9673 -8.76816
  531 165.733 -5.33005 0.608234
  532 46.7352 -0.837266 -0.859650
  533 46.7395 -0.818926 0.850670
  534 104.019 0.811843 30.9017
  535 294.659 48.5101 17.9339
  536 302.302 55.4419 -103.282
  537 268.686 0.752515 18.6277
  538 192.481 -21.4308 0.867554
  539 461.721 36.6979 31.0136
  540 338.630 80.7852 7.72431
  541 45.5523 -1.87636 7.38029
  542 45.5222 -1.85690 -7.39617
  543 184.912 -15.2040 4.12064
  544 12.9298 6.52371 -2.61108
  545 13.0314 6.51889 2.65027
  546 233.257 -19.6512 19.1231
  547 188.336 10.0466 29.2074
  548 235.649 -1.40690 4.72170
  549 172.912 -10.1489 2.10489
  550 244.485 0.660157 -68.2882
  551 390.531 96.9457 65.9835
  552 188.115 -3.35530 -0.816423
  553 231.105 -2.25248 -7.51258
  554 35.2081 14.7901 -15.0421
  555 35.4661 14.6102 14.9668
  556 130.509 -5.00262 -1.55388
  557 130.446 -4.87498 1.59501
  558 1.44524 -18.1954 -1.37792
  559 235.153 -8.70794 31.9182
  560 8.48620 7.79978 1.50029
  561 8.62724 7.81999 -1.43500
  562 1.70349 -17.6240 1.87626
  563 213.617 -9.78944 -25.6583
  564 246.073 15.0998 -34.4713
  565 245.111 17.1590 34.4525
  566 11.3895 9.06260 7.89616
  567 10.8000 9.30466 -7.70243
  568 -8.37237 0.240270 2.30902
  569 -8.46628 0.242602 -2.30501
  570 227.479 4.49014 70.5007
  571 122.500 -6.60174 3.47929
  572 122.628 -6.57771 -3.56807
  573 274.930 -6.21326 -35.0337
  574 32.4671 -0.440596 1.68225
  575 32.4517 -0.448834 -1.70425
  576 13.1212 -0.426214 -0.404576
  577 13.1327 -0.423379 0.399481
  578 300.622 53.7598 -14.9387
  579 28.1290 38.6001 -44.6560
  580 153.754 3.00433 -16.6692
  581 220.086 35.2806 -15.0613
  582 3.05300 -0.580218 5.26182
  583 3.18651 -0.533915 -5.17225
  584 228.027 99.0912 121.977
  585 190.906 -4.99590 -2.34019
  586 5.48080 1.95855 -3.75884
  587 5.56750 1.94434 3.77831
  588 220.440 -17.8605 22.4458
  589 33.3297 37.3222 45.4705
  590 158.275 -2.99197 0.0910723
  591 158.317 -2.96355 -0.0917440
  592 -0.202053 -11.3874 5.65221
  593 -0.184890 -11.3685 -5.63362
  594 270.113 52.9818 -0.432310
  595 171.645 -14.0550 29.9381
  596 163.662 -6.71046 0.495539
  597 165.130 6.75288 68.3937
  598 -13.8627 0.677093 3.43802
  599 -13.8484 0.680741 -3.42469
  600 272.107 2.68900 -19.9462
  601 366.285 57.6522 -46.4156
  602 101.858 10.1606 -45.0069
  603 53.6992 -2.20568 -9.04594
  604 53.7457 -2.20547 9.04498
  605 247.409 -0.682545 1.37926
  606 161.992 -6.86358 -0.708624
  607 218.987 -2.69436 3.08070
  608 213.641 -9.77608 25.0688
  609 6.18199 -0.342793 1.46383
  610 6.11659 -0.341272 -1.47718
  611 125.317 -4.11685 -0.878168
  612 125.298 -3.99412 0.838482
  613 77.5269 1.76425 -20.3336
  614 77.0119 1.78575 20.2344
  615 311.869 16.4716 16.0479
  616 514.333 38.7504 -56.4197
  617 -5.98024 -0.300940 2.03747
  618 -6.07599 -0.299876 -2.03776
  619 72.4230 -2.98250 3.87139
  620 72.4235 -2.97948 -3.93237
  621 289.651 14.5528 12.8807
  622 244.848 -0.666195 -0.438656
  623 244.289 -1.05525 0.206502
  624 172.890 -0.133316 19.5400
  625 254.752 -15.8063 -20.7882
  626 136.300 -11.0742 8.32950
  627 -3.70691 3.03043 -3.45448
  628 -3.76656 3.02615 3.48861
  629 219.623 4.20672 37.1730
  630 85.4526 -4.83043 -9.38292
  631 85.3616 -4.91336 9.40180
  632 179.234 -10.1250 -2.77515
  633 222.867 -4.65344 -7.72530
  634 125.332 -9.92044 -13.0762
  635 205.705 24.7935 -22.5699
  636 139.086 -9.66121 -24.2122
  637 48.6275 -1.28875 -1.45876
  638 48.6321 -1.27195 1.43599
  639 126.671 -10.1069 13.1177
  640 275.326 43.9024 23.0538
  641 218.521 -10.8024 31.5632
  642 178.937 -7.67046 2.48869
  643 126.711 -3.09242 0.688423
  644 126.679 -3.10073 -0.663497
  645 94.5349 -3.36419 -2.70430
  646 94.4950 -3.32403 2.66967
  647 210.776 -19.3910 -13.4824
  648 104.832 -5.77717 4.76560
  649 104.952 -5.75453 -4.87985
  650 209.000 32.4278 -3.04398
  651 194.729 -9.99373 6.11916
  652 245.879 -1.00815 -2.10373
  653 205.906 -3.95309 -32.6100
  654 27.5789 -1.25223 5.91585
  655 27.5245 -1.24309 -5.92353
  656 239.323 -1.18316 -4.26904
  657 41.2965 21.1612 -28.0189
  658 42.0139 21.1031 28.1581
  659 243.712 -15.6037 29.5429
  660 82.1601 20.2441 47.3903
  661 18.3572 -0.0721826 5.92715
  662 18.2905 -0.0675700 -5.93229
  663 206.900 -13.9885 38.9418
  664 204.648 26.8129 -93.7897
  665 196.372 5.97243 -32.4276
  666 260.550 46.9794 19.6372
  667 175.770 -7.50005 -1.70018
  668 317.196 57.5440 -1.39394
  669 -16.1926 0.721271 -0.495431
  670 -16.1205 0.719269 0.510850
  671 139.659 0.287913 -47.8226
  672 6.56424 -0.196479 1.15180
  673 6.52003 -0.197019 -1.16534
  674 175.922 -15.1152 -29.5675
  675 56.8616 7.93322 -19.5454
  676 56.3934 7.95778 19.5320
  677 0.223357 2.89748 -0.750970
  678 0.301641 2.89312 0.783823
  679 148.766 -12.7409 -5.92738
  680 211.490 -2.07363 -12.5726
  681 99.0428 -2.88249 -0.999610
  682 99.0448 -2.84650 1.00849
  683 70.9078 -3.56622 -5.90759
  684 70.9603 -3.61760 5.88149
  685 13.1591 10.8392 -3.03779
  686 13.3876 10.8602 3.11315
  687 218.719 -2.27800 1.63945
  688 94.7124 -5.91121 7.71785
  689 95.3454 -5.80293 -7.70834
  690 241.588 -19.8982 -4.64360
  691 198.279 -19.9252 -5.84540
  692 155.179 -4.02993 0.213754
  693 154.615 -3.72810 -0.130518
  694 218.999 -23.5720 10.3406
  695 356.912 71.7436 17.4210
  696 192.183 -9.21410 -48.7888
  697 220.237 -6.01824 13.4004
  698 217.915 -8.34076 -33.7551
  699 65.4897 -1.96162 -2.71038
  700 65.4848 -1.94502 2.66996
  701 170.515 -3.53188 54.8943
  702 485.201 61.7937 56.7345
  703 31.5112 9.39936 -10.8811
  704 31.5562 9.46105 10.9178
  705 218.119 -1.76762 -0.843281
  706 219.894 -1.56338 0.856891
  707 91.4028 44.6242 -77.7933
  708 231.027 -1.13333 7.46951
  709 199.647 -3.04528 1.43646
  710 261.492 52.0863 -7.36086
  711 25.3604 4.76267 -7.75360
  712 25.4735 4.73201 7.78320
  713 249.995 -0.485957 0.275364
  714 200.479 -7.42715 -5.88420
  715 250.238 -4.40451 28.3357
  716 100.512 -6.96573 -12.4168
  717 100.765 -6.65773 12.2860
  718 20.6756 -0.763912 4.48048
  719 20.6154 -0.753923 -4.49527
  720 228.244 -1.24480 -1.46556
  721 196.374 36.3918 99.7488
  722 1.17221 1.15296 6.89938
  723 1.24438 1.19471 -6.84991
  724 228.476 -2.19785 -3.66979
  725 221.553 -3.78462 5.20833
  726 172.019 0.0416917 -20.9575
  727 1.57580 -20.8873 -2.96723
  728 1.46799 -21.0844 3.16540
  729 79.0047 20.8347 -47.3717
  730 175.516 -17.8077 -20.9306
  731 90.6073 44.2584 78.5912
  732 246.483 -0.457933 0.862494
  733 234.279 34.9740 24.1778
  734 168.485 15.3631 -8.27388
  735 308.846 62.3151 -1.00355
  736 242.868 -0.882847 2.81544
  737 -15.8546 0.360196 1.61173
  738 -15.9476 0.362185 -1.60514
  739 257.855 -15.5983 4.84579
  740 165.453 -4.39433 0.250202
  741 58.5334 0.189003 -13.7432
  742 58.6070 0.129087 13.6550
  743 221.841 -2.28749 -2.25283
  744 393.121 55.7654 -19.5751
  745 23.3457 -0.725282 -2.73819
  746 23.3946 -0.729707 2.71463
  747 248.195 -0.534493 -1.33291
  748 46.2602 -2.07744 -3.83301
  749 46.2864 -2.08484 3.79828
  750 240.743 -10.0946 -29.0329
  751 222.086 -2.27126 10.2088
  752 197.598 -1.48548 32.1489
  753 248.837 -0.557762 -0.0697623
  754 231.350 -1.48471 2.83921
  755 149.231 -7.75551 -0.777139
  756 188.431 -4.57478 1.84059
  757 214.029 -13.1835 -21.6472
  758 208.906 -13.0251 14.4106
  759 244.123 29.1296 -30.5781
  760 206.104 -11.3773 10.8611
  761 217.376 -13.0036 27.4756
  762 124.683 -8.25330 4.83672
  763 4.31991 -2.19584 -1.07142
  764 4.07943 -2.20896 1.29859
  765 190.983 -2.46107 0.0767270
  766 190.571 -2.44002 -0.148811
  767 230.554 -0.750353 -0.176412
  768 231.378 -0.701505 0.232240
  769 217.860 -6.03311 16.2806
  770 201.245 -18.9484 27.7780
  771 164.397 -13.1717 1.40551
  772 145.592 -8.42453 1.89007
  773 401.350 51.5591 22.9901
  774 220.772 -5.41353 -10.6782
  775 128.447 21.5785 -73.1142
  776 204.834 -9.89537 -9.44785
  777 6.37310 0.198355 -4.16535
  778 6.45712 0.190863 4.16998
  779 180.053 15.7836 -18.5634
  780 472.616 14.3754 -6.22024
  781 229.809 5.50378 -36.5471
  782 8.93029 2.15436 -16.9731
  783 235.420 42.5942 6.21863
  784 184.705 -11.5070 3.91723
  785 206.830 -5.34007 31.6712
  786 174.590 -18.5790 21.0506
  787 282.541 -3.49143 43.7055
  788 9.62727 4.30054 18.1915
  789 125.445 -0.927769 36.9838
  790 176.632 -4.16656 -0.888943
  791 197.208 -18.1360 -28.1348
  792 119.481 -9.19606 -8.91160
  793 94.1839 4.42577 -32.1248
  794 228.029 -3.92560 35.8297
  795 145.370 -9.70557 3.45325
  796 25.0733 -0.758801 2.49224
  797 25.0390 -0.759874 -2.51859
  798 212.155 -1.13408 11.1494
  799 191.043 0.790956 -31.1647
  800 -17.1841 0.753097 2.19540
  801 -17.1584 0.754414 -2.18097
  802 141.383 -4.10963 -0.161844
  803 140.958 -3.86469 0.117972
  804 104.548 11.4171 45.6935
  805 92.3209 -5.28286 5.70496
  806 92.4586 -5.14904 -5.77398
  807 248.138 -0.349596 -0.760991
  808 84.6043 6.65732 31.2611
  809 -0.122858 -0.0778600 1.58815
  810 -0.205793 -0.0760329 -1.59618
  811 209.545 -6.53405 24.5910
  812 226.206 -1.64230 1.18305
  813 -12.0771 0.120748 3.36801
  814 -12.0783 0.124524 -3.36133
  815 137.249 -8.73911 27.3351
  816 25.9052 21.1626 -23.4783
  817 26.2300 20.1244 23.1051
  818 126.313 5.65719 3.40999
  819 -4.83557 -0.114165 -1.83067
  820 -4.74039 -0.115493 1.82809
  821 158.241 -15.1469 -19.6850
  822 217.237 -22.9961 -8.81664
  823 -1.07040 -1.01833 -1.33920
  824 -1.06734 -1.01603 1.33434
  825 7.97826 0.386239 -0.358965
  826 7.99471 0.388369 0.351233
  827 192.808 -17.0716 6.03638
  828 161.731 -16.6159 13.3431
  829 179.921 -2.64165 0.713279
  830 161.281 -12.8412 -2.03403
  831 56.6069 -0.861338 -0.259471
  832 56.6083 -0.837159 0.253778
  833 -19.5476 0.411107 1.33443
  834 -19.5066 0.410538 -1.32035
  835 204.022 -2.28099 -1.12085
  836 177.201 6.83466 -26.4379
  837 206.197 -3.76219 -3.16868
  838 119.728 -9.02200 8.45507
  839 202.187 -3.62515 -25.8549
  840 217.626 -6.55983 -16.8275
  841 204.879 -1.90711 1.01272
  842 148.140 -5.93367 37.9663
  843 158.286 -15.4020 -7.07053
  844 94.3704 -0.694811 -24.3860
  845 94.9000 -0.0381267 24.5135
  846 134.359 -9.89186 -5.24828
  847 223.825 24.0310 31.2392
  848 214.045 -22.6943 -14.6416
  849 74.4982 -2.25719 -1.32532
  850 74.4872 -2.22020 1.30863
  851 162.738 -3.32946 -0.114406
  852 162.742 -3.36036 0.157542
  853 192.701 -1.50759 -16.8572
  854 63.1614 -2.62508 -4.75790
  855 63.1916 -2.64544 4.71106
  856 0.753043 -20.7274 -4.22239
  857 0.711011 -20.8155 4.30526
  858 29.8573 -0.442579 -0.201779
  859 29.8481 -0.452787 0.194960
  860 202.374 -2.82060 -1.57947
  861 152.225 -14.4937 11.9931
  862 238.548 -20.9132 9.42586
  863 135.332 2.85844 13.0684
  864 206.898 -4.56145 3.60884
  865 225.469 -20.4743 -17.8489
  866 30.7677 2.09300 -9.02914
  867 30.8589 2.05876 9.02130
  868 178.985 -2.86280 -0.655512
  869 143.132 -4.67107 -0.714237
  870 142.619 -4.62541 0.841423
  871 220.750 34.4435 16.9560
  872 75.6803 -0.676315 -16.7332
  873 75.6008 -0.766376 16.6517
  874 153.654 -13.7757 5.44865
  875 14.0704 9.41444 -2.57197
  876 14.2148 9.39443 2.61176
  877 129.551 -9.25793 22.0482
  878 155.915 -9.71030 -0.768256
  879 193.895 -1.55963 17.0356
  880 192.353 -21.7779 5.91635
  881 220.705 -16.9622 -24.1078
  882 151.854 -14.6134 -12.1827
  883 125.611 -8.21592 -4.61551
  884 420.219 34.7146 -6.40357
  885 201.637 -21.4288 4.65108
  886 5.16381 6.35208 2.99516
  887 5.26737 6.36351 -2.94173
  888 174.751 -17.4498 2.31183
  889 192.098 -21.8184 -11.3869
  890 5.35616 5.63893 0.838927
  891 5.44646 5.63965 -0.798478
  892 70.5051 -2.42825 12.5371
  893 70.5557 -2.50658 -12.6204
  894 85.9391 -4.27595 13.7851
  895 85.9134 -4.38228 -13.8912
  896 276.925 55.6292 9.44617
  897 -0.429625 -8.57565 -4.11799
  898 -0.432612 -8.56620 4.11549
  899 62.1730 5.36215 -18.5711
  900 61.8556 5.25069 18.3736
  901 489.142 15.8759 -24.8650
  902 5.61088 -0.0327597 0.629121
  903 5.57929 -0.0343612 -0.639730
  904 0.779596 -24.2529 1.74246
  905 0.917067 -23.8647 -1.41424
  906 -9.18152 -0.130204 3.42046
  907 -9.19091 -0.127407 -3.41917
  908 49.6279 14.6597 -21.9594
  909 50.4023 14.1751 21.6299
  910 -4.19220 0.0862653 -7.30548
  911 -4.21222 0.0706101 7.31835
  912 12.9837 1.34964 -5.77023
  913 13.0702 1.33265 5.77756
  914 53.6903 -0.529700 11.5063
  915 53.6573 -0.527333 -11.5722
  916 43.2768 -1.43818 -9.24660
  917 43.3175 -1.43486 9.22813
  918 240.172 -0.803817 -4.16568
  919 115.470 23.9431 67.8111
  920 159.898 -15.7056 6.53472
  921 112.510 -7.91766 6.67496
  922 218.680 22.3339 -30.7799
  923 480.931 10.3890 9.86902
  924 261.493 11.1748 -30.0945
  925 40.6951 -1.56303 5.70633
  926 40.6573 -1.54454 -5.73182
  927 5.47915 -0.217716 -4.21193
  928 5.56028 -0.220129 4.21044
  929 -0.288688 -4.31369 -8.00045
  930 -0.322793 -4.34696 8.02675
  931 116.316 -4.88461 2.76288
  932 116.380 -4.98765 -2.78126
  933 12.8557 3.83059 -4.96538
  934 12.9496 3.81289 4.99330
  935 69.8702 -3.03866 -10.5580
  936 69.9136 -3.03770 10.5480
  937 151.762 -0.792469 -15.4087
  938 71.9900 -3.85054 -7.17537
  939 71.9325 -3.80525 7.19991
  940 180.220 -4.64449 -1.10904
  941 217.972 -12.6566 -29.4326
  942 93.2075 -3.60906 3.07803
  943 93.2570 -3.64582 -3.12861
  944 -3.91092 -0.430782 -2.37670
  945 -3.90067 -0.431811 2.37187
  946 223.037 -17.9201 -34.7339
  947 212.857 -12.4220 18.9417
  948 186.457 -12.8091 -4.85753
  949 179.614 5.98793 27.8793
  950 80.7183 -4.44783 -8.10955
  951 80.7119 -4.35807 8.13657
  952 201.828 7.51104 33.8688
  953 187.465 16.2926 22.2738
  954 391.141 47.3048 8.10799
  955 198.868 -6.79549 4.46877
  956 102.565 -2.81702 -1.36844
  957 102.549 -2.75421 1.38236
  958 177.417 -14.3601 -1.79442
  959 245.011 45.0672 -14.7429
  960 218.771 -2.00308 -1.64994
  961 141.738 -3.08355 0.439239
  962 141.681 -3.05692 -0.397429
  963 17.4104 14.4839 -9.67339
  964 17.8655 14.4507 9.75389
  965 34.3397 81.1965 -75.8160
  966 202.712 -4.89988 25.7337
  967 254.545 -5.45126 -25.5003
  968 -5.06284 2.41369 1.75952
  969 -4.99778 2.41287 -1.72756
  970 526.706 122.769 -98.7055
  971 217.640 -23.8948 4.06710
  972 232.538 -22.0023 -7.62850
  973 214.040 -18.3955 17.5268
  974 263.698 52.1794 6.36461
  975 18.4896 18.1530 -21.7948
  976 48.4081 69.6557 73.9906
  977 -1.41026 -3.15647 7.92672
  978 -1.38905 -3.13206 -7.91310
  979 208.801 -4.99294 4.44583
  980 335.377 59.7010 -6.49813
  981 19.0429 17.6944 22.7234
  982 -0.931747 -3.05475 -2.64270
  983 -0.932007 -3.04665 2.63614
  984 178.483 -3.72434 0.568642
  985 132.014 -10.3783 -9.26355
  986 215.675 -17.1171 -20.5532
  987 59.8841 16.0757 -29.3787
  988 60.8548 16.3458 29.4568
  989 208.738 -5.21000 -23.0465
  990 211.520 -6.41042 7.89955
  991 -5.89754 1.32930 6.50142
  992 -5.86947 1.34307 -6.48111
  993 126.048 -8.31992 -20.6677
  994 209.798 13.1691 -34.1161
  995 156.311 -5.47207 0.0351211
  996 111.184 -2.89336 0.177078
  997 111.164 -2.91560 -0.164004
  998 -2.42842 -2.75124 -5.57131
  999 -2.43198 -2.75717 5.56732
  1000 214.373 -7.38452 -9.59968
  1001 204.480 -1.85375 0.318530
  1002 204.288 -1.85573 -0.232238
  1003 281.919 45.3883 -21.5605
  1004 49.0800 4.40151 -14.4708
  1005 49.2009 4.31347 14.4330
  1006 30.2832 -0.227987 -7.61216
  1007 30.3387 -0.234298 7.59981
  1008 231.242 11.9701 36.9696
  1009 220.307 -3.83008 -5.46694
  1010 37.1725 6.04961 -11.6126
  1011 37.3212 6.00311 11.6560
  1012 230.737 -0.921159 -0.968597
  1013 213.930 -9.06519 -14.3415
  1014 208.876 -23.8546 -7.40309
  1015 7.49566 6.12492 -0.890059
  1016 7.27587 6.09580 0.989165
  1017 -10.5330 1.60698 3.98129
  1018 -10.4968 1.61122 -3.95747
  1019 121.768 4.68875 -5.70492
  1020 363.623 88.9186 -22.2740
  1021 164.204 -11.7203 0.0218708
  1022 107.582 -4.68580 -21.3245
  1023 266.072 -11.5314 4.34823
  1024 108.009 -4.68626 21.6344
  1025 189.431 -22.2365 13.5624
  1026 214.852 -8.85107 -21.1727
  1027 71.1028 -1.52802 -0.425130
  1028 71.1025 -1.49698 0.421602
  1029 145.705 -11.1918 -4.35229
  1030 88.2510 -3.22215 -16.4195
  1031 88.2100 -3.24660 16.3257
  1032 28.7996 18.7389 -17.6709
  1033 29.2669 18.6768 17.7231
  1034 59.2287 -1.82802 -1.53084
  1035 59.2267 -1.80306 1.50691
  1036 191.371 -5.67239 2.61597
  1037 160.979 0.181032 -55.6313
  1038 198.486 -6.08381 -4.41311
  1039 178.589 -19.7941 -7.65335
  1040 115.997 -4.63758 1.82246
  1041 116.098 -4.67551 -1.83093
  1042 233.898 -1.15111 1.21935
  1043 208.030 -4.57546 -4.17486
  1044 128.996 3.11313 10.7472
  1045 222.372 -2.16970 -9.48738
  1046 84.9031 24.3360 53.8910
  1047 229.458 -2.05460 -7.82427
  1048 58.2968 9.89003 -21.8947
  1049 56.5023 10.0066 20.9577
  1050 275.091 -5.76432 -5.64936
  1051 23.6303 12.5376 -8.79410
  1052 23.8535 12.4447 8.78920
  1053 3.91330 -1.06428 3.09182
  1054 4.12244 -1.02772 -2.95418
  1055 32.3024 -0.877496 1.88020
  1056 32.2796 -0.883876 -1.90783
  1057 96.8477 24.6568 -59.9334
  1058 544.667 138.453 106.189
  1059 213.613 -7.38561 9.84871
  1060 191.132 -21.5766 -5.18827
  1061 131.709 -10.8031 -15.7143
  1062 -3.17611 2.78515 5.81907
  1063 -3.12573 2.80041 -5.78547
  1064 149.063 -7.34919 0.520543
  1065 164.948 -5.72788 -0.611914
  1066 -0.0970002 -12.1751 3.99238
  1067 -0.0928499 -12.1857 -3.99091
  1068 23.8590 14.9223 -10.6098
  1069 24.1504 14.8911 10.6763
  1070 147.014 -6.71882 -0.479293
  1071 10.4999 5.31852 2.84940
  1072 10.4060 5.32663 -2.81267
  1073 226.002 -9.20843 34.0824
  1074 162.990 -16.9175 -13.2753
  1075 132.507 -10.9786 15.7120
  1076 214.596 -4.57191 -35.6032
  1077 228.736 -2.20148 3.97532
  1078 80.9592 12.3750 35.7724
  1079 81.5462 11.8485 -35.1623
  1080 131.673 -6.48770 -30.0017
  1081 188.054 -6.34903 -2.71408
  1082 151.897 -8.85395 1.58268
  1083 178.631 -16.5692 0.647485
  1084 247.888 -0.759148 -2.23278
  1085 131.261 -5.74131 1.73982
  1086 131.203 -6.09231 -1.81861
  1087 4.01226 4.81687 5.01466
  1088 4.12020 4.85324 -4.95325
  1089 216.025 7.69288 -36.7139
  1090 46.9901 2.52241 -12.7184
  1091 47.1147 2.46770 12.6775
  1092 34.7093 0.788386 -8.99014
  1093 34.7832 0.768191 8.96963
  1094 249.266 -11.2584 44.0069
  1095 214.643 -9.84308 20.9212
  1096 103.509 -4.69494 -17.9495
  1097 252.348 -0.900058 -1.34025
  1098 280.133 52.6665 -16.4117
  1099 228.448 -1.87965 -2.58058
  1100 212.900 -23.0975 8.64699
  1101 156.683 -12.0866 26.1280
  1102 254.330 -0.190638 0.299417
  1103 128.739 4.05726 -9.12059
  1104 179.897 -19.2266 -2.86023
  1105 103.670 -4.91253 17.7351
  1106 181.612 -16.4260 -1.70081
  1107 227.977 -3.02926 7.19902
  1108 159.305 10.0903 14.2749
  1109 111.456 -8.11735 -14.1175
  1110 346.666 46.7133 -17.4594
  1111 258.209 11.0299 31.4268
  1112 189.722 23.8776 3.52350
  1113 251.091 0.148194 1.22588
  1114 96.3022 -5.91324 -10.6511
  1115 65.8953 39.8364 -60.0391
  1116 118.548 2.97452 -43.0938
  1117 136.027 -10.2804 6.32475
  1118 114.456 -8.49029 13.1479
  1119 96.0554 -5.61298 10.7711
  1120 205.141 1.56580 35.5838
  1121 155.206 -5.04450 0.141259
  1122 247.083 -1.72983 2.94607
  1123 -2.14127 -0.331358 7.97708
  1124 -2.11210 -0.307202 -7.95739
  1125 162.822 -4.25751 -0.363734
  1126 -0.475448 1.59593 7.37627
  1127 -0.422990 1.62721 -7.33941
  1128 89.5732 -2.64975 1.83316
  1129 89.5845 -2.69670 -1.83602
  1130 231.577 -1.18407 6.49877
  1131 185.400 -11.0931 -4.11884
  1132 173.430 -8.96432 -1.76667
  1133 194.355 -13.4299 7.57856
  1134 58.1919 28.4915 -44.4391
  1135 190.693 -6.86822 3.40654
  1136 26.5801 0.598440 -7.33303
  1137 26.6499 0.584447 7.32429
  1138 38.6831 24.6691 -30.8882
  1139 306.550 38.7625 12.0821
  1140 19.3774 -0.954114 4.23609
  1141 19.3134 -0.946043 -4.24530
  1142 39.3862 24.2590 29.7761
  1143 174.027 -14.4039 1.08939
  1144 86.2534 -3.89451 3.87119
  1145 86.2729 -3.91478 -3.94619
  1146 358.120 75.5126 -18.6178
  1147 192.110 -19.2294 2.60399
  1148 64.8271 37.1789 59.8940
  1149 5.35888 -2.76827 -4.27863
  1150 5.79080 -2.69815 4.79251
  1151 200.372 25.1592 17.9341
  1152 14.2268 8.01743 -2.79772
  1153 14.3467 8.01856 2.83099
  1154 193.415 -16.7183 -6.32732
  1155 -0.0933726 -18.9041 -3.78141
  1156 -0.102202 -18.9088 3.79857
  1157 206.941 -17.4373 -12.6157
  1158 -5.87769 0.264857 1.42589
  1159 -5.97281 0.266436 -1.43000
  1160 30.5020 11.5364 -11.5903
  1161 30.6687 11.5850 11.4735
  1162 -12.5395 0.0314984 -1.74761
  1163 -12.4380 0.0306930 1.74885
  1164 207.687 -1.88117 -0.456031
  1165 -21.2927 0.605461 0.476132
  1166 -21.2369 0.605067 -0.463266
  1167 107.651 -8.36369 -10.2145
  1168 2.81539 -28.8788 -2.20544
  1169 52.1907 -1.43691 2.99890
  1170 52.1779 -1.44290 -3.03796
  1171 175.514 -2.93942 0.181443
  1172 175.852 -2.85001 -0.146435
  1173 3.02128 -27.6225 2.83257
  1174 208.457 -10.6946 -12.2188
  1175 239.095 -1.00947 4.85134
  1176 211.642 -13.4946 -17.5624
  1177 182.521 1.27122 27.6663
  1178 0.885592 -8.03803 6.07304
  1179 0.975874 -7.98215 -5.97903
  1180 134.069 -9.55911 4.89167
  1181 -9.47376 0.802948 5.17054
  1182 -9.45643 0.809882 -5.15562
  1183 353.044 56.5162 3.52291
  1184 417.541 125.562 -88.4421
  1185 216.480 -21.1632 15.4840
  1186 87.1790 -2.38374 -0.215352
  1187 87.1804 -2.35087 0.215496
  1188 449.425 43.5859 -39.9205
  1189 29.1762 -0.770614 4.40416
  1190 29.1257 -0.758133 -4.42449
  1191 200.836 -0.658796 -11.0483
  1192 128.532 -10.3081 11.5968
  1193 214.168 -21.1063 -11.6529
  1194 207.153 -14.9852 -14.0037
  1195 125.315 -4.52429 31.5021
  1196 45.4410 8.59348 -16.3621
  1197 45.4111 8.51633 16.2616
  1198 60.4978 22.2532 -37.6308
  1199 60.5690 20.5695 37.6282
  1200 16.4165 5.09475 -5.23175
  1201 16.5183 5.07873 5.26601
  1202 254.745 44.0067 -21.6415
  1203 12.6120 11.4169 -4.43016
  1204 12.9177 11.4297 4.52037
  1205 183.990 -13.8952 3.76362
  1206 348.479 48.3549 19.8694
  1207 41.1904 -1.74596 -2.95316
  1208 41.2154 -1.74499 2.91843
  1209 228.459 150.745 -134.041
  1210 169.494 10.0057 -22.0758
  1211 154.810 11.9822 8.98316
  1212 20.8697 9.07345 -6.21079
  1213 20.9711 9.07204 6.24810
  1214 1.31843 -0.0326034 1.04821
  1215 1.25877 -0.0325377 -1.05858
  1216 204.125 -16.3219 11.7970
  1217 200.968 -7.76391 6.41894
  1218 137.232 37.2525 -94.9453
  1219 317.295 69.0547 -1.54161
  1220 135.122 -4.26179 -34.8194
  1221 176.094 -5.04631 0.949895
  1222 5.43355 -0.889869 -0.261225
  1223 5.44075 -0.889323 0.259650
  1224 -5.77302 1.37573 -2.19208
  1225 -5.69049 1.36982 2.21077
  1226 117.155 1.13093 -36.6360
  1227 218.640 -4.53218 6.93183
  1228 140.960 2.20301 50.5539
  1229 191.904 -9.21544 -5.13931
  1230 98.2545 34.1412 -74.2504
  1231 153.330 -7.74253 -37.6928
  1232 183.025 -19.5428 1.82029
  1233 225.082 -3.41138 10.6412
  1234 197.361 -3.74958 -2.01454
  1235 107.176 -7.83502 10.2800
  1236 247.774 -14.4515 -20.1367
  1237 233.626 19.9360 35.0639
  1238 100.751 0.447025 -28.7043
  1239 235.458 -1.20876 0.921063
  1240 184.790 23.1255 -5.02113
  1241 79.1465 -2.64476 -2.94600
  1242 79.1258 -2.61407 2.90782
  1243 361.084 80.5928 16.9851
  1244 498.754 13.2760 23.3025
  1245 0.418777 -23.1342 -3.76951
  1246 0.404735 -23.1621 3.79822
  1247 51.7106 26.8441 41.4363
  1248 124.847 -3.36187 -0.434166
  1249 124.874 -3.33854 0.482291
  1250 172.461 -17.2943 -3.30983
  1251 204.563 16.6079 30.8705
  1252 217.014 -3.96668 -4.58578
  1253 254.136 -0.567062 -0.180094
  1254 440.299 97.0753 -60.5744
  1255 65.2302 -2.40652 2.97386
  1256 65.2295 -2.41277 -3.02099
  1257 207.145 -19.2378 12.1655
  1258 367.257 86.7777 -24.3136
  1259 201.045 -8.50196 -7.19453
  1260 145.669 -9.92739 -3.04073
  1261 179.781 -19.5946 7.41753
  1262 175.817 -8.49988 2.15117
  1263 6.21999 -0.345895 -7.20336
  1264 241.509 -15.0872 23.5826
  1265 195.155 -12.5669 -7.37866
  1266 6.87308 -0.00987279 8.07954
  1267 200.941 -16.5837 -35.1991
  1268 190.260 10.7784 -77.6244
  1269 314.427 38.5070 -9.16826
  1270 255.198 -0.0637226 -0.0898007
  1271 254.713 -0.301749 0.240849
  1272 198.610 -11.3727 7.86882
  1273 75.0468 8.94836 -28.1964
  1274 226.464 -20.3970 19.2019
  1275 387.683 88.0333 38.9903
  1276 94.0298 31.5153 72.2722
  1277 2.39224 -0.132863 6.28933
  1278 2.49167 -0.0858589 -6.22076
  1279 238.638 -19.8551 -18.0259
  1280 93.6335 -4.97552 -4.66452
  1281 93.6116 -4.98777 4.56472
  1282 221.261 -14.7492 28.3776
  1283 6.06996 0.0904255 4.67905
  1284 5.98854 0.0947630 -4.67880
  1285 -1.27545 -4.70961 6.44960
  1286 -1.26717 -4.69955 -6.45008
  1287 36.6419 -1.27206 -4.01806
  1288 36.6782 -1.27984 3.98784
  1289 114.927 -7.62172 -16.1604
  1290 115.532 -3.56292 0.724203
  1291 115.531 -3.64947 -0.679445
  1292 254.099 -0.0613571 -0.0376348
  1293 223.580 -3.31496 -11.9378
  1294 16.3264 0.884068 -5.79139
  1295 16.4057 0.871599 5.79164
  1296 115.389 -8.07196 16.0116
  1297 256.780 -0.182444 0.0644844
  1298 242.066 -0.00511613 -0.265022
  1299 242.073 -0.149003 0.199993
  1300 318.125 65.8368 6.10534
  1301 235.363 -1.34143 -2.05186
  1302 208.345 -1.75254 0.380448
  1303 230.917 -3.28852 -6.36924
  1304 252.568 -0.702858 0.943399
  1305 260.656 26.2559 31.1624
  1306 302.516 62.1298 9.73569
  1307 244.446 -0.874724 -3.24174
  1308 -1.95713 -0.512738 1.76672
  1309 -1.96479 -0.512334 -1.77194
  1310 133.541 -8.19472 3.16225
  1311 133.512 -7.81906 -3.05051
  1312 263.054 29.1817 -29.7887
  1313 53.5152 18.3723 -30.8734
  1314 53.8604 17.8564 30.5197
  1315 174.911 -0.0170337 -13.8276
  1316 182.550 -2.51293 -0.00257802
  1317 182.327 -2.48841 -0.0348937
  1318 -4.49332 -0.805200 6.58216
  1319 -4.48509 -0.793611 -6.57924
  1320 201.476 -0.516000 11.0329
  1321 308.632 61.4537 0.543294
  1322 18.8475 -0.807094 -2.53678
  1323 18.8942 -0.809014 2.51339
  1324 228.158 -22.2188 11.2786
  1325 -0.0585511 3.54447 6.01147
  1326 0.00686338 3.56613 -5.96958
  1327 38.9789 -0.876488 -0.787879
  1328 38.9874 -0.861232 0.772407
  1329 174.967 -0.306887 14.0337
  1330 3.54254 0.400959 -0.373340
  1331 3.56527 0.402489 0.365579
  1332 233.168 -2.49094 4.20446
  1333 323.527 59.3581 2.43532
</Section>

newXOutput 30

<Section columns = "stress_xx | stress_yy | stress_xy">
  1 270.005 -0.606245 0.487335
  2 270.461 -0.818615 -0.633396
  3 0.866208 0.262017 -0.714655
  4 -0.178244 -0.278671 -0.171469
  5 503.459 191.720 161.478
  6 511.233 220.073 -163.287
  7 -0.176208 -0.276902 0.168832
  8 0.859456 0.260570 0.712916
  9 271.918 -0.422047 -0.447222
  10 269.768 -0.854923 -0.631942
  11 269.885 -0.649353 0.648589
  12 268.395 -0.282144 0.333207
  13 267.734 -0.799319 -0.0950100
  14 267.100 -0.758729 1.17301
  15 262.848 -0.496444 1.17503
  16 263.705 -1.86931 1.70083
  17 254.925 -1.52305 3.56597
  18 249.237 -0.614510 4.27385
  19 241.490 -0.801033 4.58492
  20 228.196 -0.705973 6.32946
  21 213.844 -0.626957 7.30739
  22 196.074 0.896253 9.95173
  23 171.871 1.37951 8.97675
  24 162.258 -0.149662 12.8086
  25 132.300 1.90323 9.08253
  26 114.231 2.54565 7.09175
  27 109.534 1.13620 5.21992
  28 104.491 3.70053 0.374224
  29 107.239 4.03174 -6.97454
  30 112.821 1.11510 -8.76540
  31 135.044 0.414591 -11.7416
  32 157.593 -1.16133 -12.2634
  33 172.742 1.14062 -8.96747
  34 196.347 1.02449 -9.96044
  35 213.263 -0.750086 -7.82471
  36 229.688 -0.831411 -5.98253
  37 240.459 -0.560956 -4.65251
  38 248.463 -0.646306 -3.93880
  39 256.987 -0.867688 -2.30786
  40 260.451 -0.836332 -2.22501
  41 263.798 -0.797929 -1.94544
  42 267.230 -0.922944 -0.446519
  43 268.596 -1.19621 -0.830258
  44 267.114 0.199732 -0.115808
  45 269.581 -0.576790 -0.723445
  46 270.893 -1.30004 0.688830
  47 272.276 -0.724233 -0.0416922
  48 257.985 0.358926 -0.406338
  49 242.034 -0.716356 -0.775354
  50 224.092 -1.94654 -1.15378
  51 205.625 -1.48925 -0.844615
  52 189.610 -2.69042 -0.779483
  53 172.780 -2.96541 -0.721556
  54 155.870 -2.55893 -0.387464
  55 138.157 -2.80704 -0.514313
  56 123.219 -3.08627 -0.662126
  57 103.408 -3.00227 -0.554317
  58 83.0578 -1.84164 -0.354852
  59 66.2552 -1.16677 -0.289630
  60 45.5354 -0.735640 -0.148579
  61 30.4777 -0.767512 -1.06033
  62 16.4735 -1.12556 -0.366220
  63 2.36123 0.133817 0.614697
  64 -1.24028 0.993567 0.208117
  65 -2.20314 0.408235 0.624800
  66 -1.56352 0.186537 0.599572
  67 -4.29677 0.574520 0.217227
  68 -5.27865 0.746122 1.27681
  69 -5.51334 0.258264 0.398505
  70 -10.1800 0.545660 0.447080
  71 -12.2856 0.387280 1.21162
  72 -12.9550 0.139128 1.26203
  73 -17.9779 0.519677 0.949937
  74 -19.7740 0.768783 1.88106
  75 -21.6864 0.466639 0.609548
  76 -24.0635 0.336153 0.967895
  77 -24.8400 0.362435 0.330388
  78 -27.0526 0.853621 -0.661165
  79 -27.1787 0.585506 -0.498603
  80 -24.6391 0.450248 -0.897698
  81 -21.0889 0.573024 -1.66193
  82 -17.0475 0.243385 -2.47181
  83 -12.6392 0.129686 -2.55590
  84 -7.56414 -0.270090 -2.66827
  85 -3.25312 -0.212646 -1.54493
  86 -1.35386 -0.551254 -0.958505
  87 -0.234205 -1.37137 -0.823678
  88 -0.401161 -3.50389 -1.48453
  89 -0.453406 -6.94055 -2.62771
  90 -0.102712 -13.0382 -2.85866
  91 0.146505 -18.1155 -3.61020
  92 0.357577 -26.0925 -2.95519
  93 1.08713 -31.0637 -3.50134
  94 0.168170 -33.6803 -2.95091
  95 -0.0632948 -38.8242 -1.86244
  96 1.06171 -38.0726 -0.663603
  97 4.25815 -49.5282 1.71966
  98 3.69272 -27.9747 6.12416
  99 8.90593 -14.3325 13.9053
  100 27.1393 39.2518 45.1364
  101 118.283 143.873 131.772
  102 659.929 69.1557 98.3928
  103 548.728 19.3351 35.2662
  104 521.766 8.25263 12.1812
  105 506.620 5.45140 -0.0606230
  106 516.178 7.86460 -9.97778
  107 554.111 16.5264 -29.2704
  108 653.058 55.1678 -91.8837
  109 76.5215 163.300 -108.976
  110 19.0348 27.1912 -34.6798
  111 6.54989 -18.7881 -11.4199
  112 3.34391 -30.6047 -5.18519
  113 4.23939 -51.4118 -1.26282
  114 1.01728 -38.9134 0.990186
  115 -0.125190 -39.2476 2.03335
  116 0.128487 -33.8459 3.04284
  117 1.06571 -31.1054 3.54047
  118 0.349315 -26.0812 2.96986
  119 0.140195 -18.0920 3.61575
  120 -0.105793 -13.0074 2.85729
  121 -0.453851 -6.92074 2.62246
  122 -0.402029 -3.48661 1.47950
  123 -0.234069 -1.36489 0.819181
  124 -1.34605 -0.550552 0.954772
  125 -3.23935 -0.213564 1.54095
  126 -7.54676 -0.272231 2.66605
  127 -12.6195 0.127372 2.55668
  128 -17.0373 0.240879 2.47642
  129 -21.0955 0.571288 1.67065
  130 -24.6628 0.450159 0.906964
  131 -27.2241 0.585074 0.507557
  132 -27.1157 0.853684 0.670397
  133 -24.9230 0.363434 -0.322525
  134 -24.1610 0.337375 -0.962268
  135 -21.7907 0.468000 -0.605264
  136 -19.8857 0.770368 -1.87968
  137 -18.0919 0.521134 -0.948821
  138 -13.0661 0.140014 -1.26281
  139 -12.3959 0.388792 -1.21391
  140 -10.2839 0.547805 -0.450344
  141 -5.60302 0.259710 -0.404296
  142 -5.35342 0.747526 -1.28513
  143 -4.35870 0.574852 -0.224647
  144 -1.60606 0.186236 -0.606681
  145 -2.23102 0.407477 -0.630472
  146 -1.25862 0.992207 -0.213080
  147 2.35081 0.132997 -0.617545
  148 16.4635 -1.12965 0.363166
  149 30.4678 -0.778113 1.05689
  150 45.5293 -0.754581 0.144164
  151 66.2541 -1.19425 0.287272
  152 83.0559 -1.87363 0.354374
  153 103.398 -3.03010 0.558453
  154 123.188 -3.10054 0.670991
  155 138.104 -2.79077 0.535559
  156 155.791 -2.49695 0.412239
  157 172.669 -2.81787 0.683389
  158 189.689 -2.73129 0.687240
  159 205.682 -1.74942 0.890271
  160 224.272 -1.89830 1.05455
  161 242.533 -0.575024 0.785835
  162 257.517 0.343947 0.393783
  163 147.026 -13.1968 -11.0720
  164 146.416 -13.4347 11.0471
  165 43.1255 12.0611 -16.6189
  166 43.5564 12.1078 16.5405
  167 174.476 -8.75135 43.9727
  168 183.091 -9.86839 -42.7612
  169 83.5334 -4.30615 4.99671
  170 83.5298 -4.26215 -5.08042
  171 186.651 -6.15956 1.69955
  172 182.789 -6.17744 -1.64247
  173 247.505 44.8815 -6.74144
  174 252.891 1.26774 -34.3630
  175 247.648 3.27916 36.7016
  176 57.5580 -2.11688 -11.0587
  177 57.5551 -2.09958 11.0315
  178 218.521 -21.7191 13.0431
  179 218.222 -16.7937 -17.5846
  180 2.54915 4.73421 5.82712
  181 2.63812 4.76507 -5.77475
  182 298.462 60.4977 11.4066
  183 56.2983 24.9351 -38.8905
  184 60.5146 25.1867 41.8265
  185 211.463 -9.61653 8.57459
  186 317.649 66.0631 -6.54187
  187 135.478 -4.62873 -1.13368
  188 135.250 -4.75912 1.11778
  189 217.692 -6.58461 -7.76480
  190 291.243 -3.00255 -1.85067
  191 50.7652 -1.50388 1.84647
  192 50.7556 -1.51833 -1.87857
  193 21.3974 2.93926 -7.24682
  194 21.4978 2.90909 7.26291
  195 120.721 -4.66329 -27.0800
  196 120.245 -4.92663 27.4370
  197 144.564 -9.16070 -3.34729
  198 144.856 -9.10903 3.63160
  199 35.5637 -1.24415 5.77863
  200 35.5152 -1.22638 -5.79489
  201 288.207 -6.37827 16.8119
  202 234.437 -23.4229 -6.47259
  203 223.501 -1.93263 -1.33521
  204 218.329 -2.39934 1.38379
  205 218.814 25.5886 25.6459
  206 8.96994 7.23983 -2.13554
  207 9.31109 7.21967 2.28660
  208 219.481 -8.92853 29.8913
  209 200.343 15.1991 -29.1191
  210 143.924 31.2875 -91.7068
  211 151.335 26.3943 85.1443
  212 2.91847 4.76062 0.0290986
  213 3.00197 4.75878 0.0100327
  214 218.680 -7.89993 -30.8397
  215 383.930 54.0818 -3.46347
  216 181.821 -19.9440 14.8331
  217 183.239 -19.8226 -13.9546
  218 181.735 -12.7629 -2.13454
  219 226.958 -3.28356 4.23104
  220 107.755 -7.28083 -9.48550
  221 106.005 -7.24922 9.81623
  222 64.1227 1.40469 -16.9447
  223 64.2101 1.37831 16.7884
  224 232.338 -24.8837 -0.993349
  225 180.185 -13.5882 1.36502
  226 226.177 -3.18498 -3.39770
  227 174.948 -4.12543 0.389093
  228 176.523 -3.81551 -0.0484393
  229 222.308 -9.81959 17.5919
  230 17.2882 0.228914 -6.15601
  231 17.3646 0.220080 6.15283
  232 -2.92009 -1.99857 -7.62404
  233 -2.93459 -2.01610 7.63063
  234 31.3288 -1.41791 -3.29887
  235 31.3676 -1.42131 3.26798
  236 91.8343 -2.58321 2.19391
  237 91.8608 -2.63421 -2.21461
  238 106.892 7.27041 -40.1129
  239 106.903 6.04095 39.6475
  240 225.604 -6.88927 -15.0393
  241 104.335 -6.02550 -15.9831
  242 104.419 -6.21234 15.7334
  243 196.778 2.88504 32.8327
  244 170.492 14.7130 1.97975
  245 193.128 -19.1912 -2.01971
  246 0.726536 -5.10826 -7.16664
  247 0.661983 -5.15866 7.22309
  248 11.9776 11.2581 -12.7227
  249 12.7714 10.8120 13.4322
  250 189.845 -18.7662 0.734311
  251 345.447 62.7727 -1.88051
  252 17.0557 11.6801 -4.94611
  253 17.2676 11.6729 5.01326
  254 -7.65792 1.53351 5.35477
  255 -7.62094 1.54142 -5.32945
  256 347.551 58.4962 3.72768
  257 119.033 -5.53454 -3.39311
  258 118.938 -5.43975 3.30777
  259 236.351 -16.2051 28.1781
  260 430.847 69.9672 42.6408
  261 68.6573 -3.56454 -9.00114
  262 68.6363 -3.58965 8.98864
  263 239.592 35.7832 -24.7967
  264 415.165 78.6196 -38.3710
  265 288.582 27.9631 24.9049
  266 315.849 17.3380 -56.6867
  267 193.339 -8.86783 3.82472
  268 219.102 0.809274 -37.1000
  269 208.435 -14.5767 -10.4356
  270 232.975 -4.01159 9.60339
  271 -1.03214 2.21067 -1.95643
  272 -0.948948 2.20337 1.98377
  273 230.957 -8.56527 -55.2884
  274 23.5620 7.48870 -7.20811
  275 23.6771 7.47391 7.24979
  276 222.603 -5.35848 -18.9714
  277 31.3083 30.8687 -40.3019
  278 23.6008 -0.0972195 -0.749657
  279 23.6161 -0.0912692 0.736452
  280 235.388 -14.8855 -29.3292
  281 40.3523 18.1185 -21.1540
  282 40.9431 18.0145 21.2124
  283 9.72273 -0.342526 4.32724
  284 9.64342 -0.337974 -4.33211
  285 193.072 -8.38938 -3.71280
  286 31.5189 30.5232 41.4339
  287 310.678 20.9447 66.8377
  288 81.9937 -3.15375 -2.92686
  289 81.9729 -3.13159 2.87673
  290 153.469 -6.07150 -0.805633
  291 153.391 -6.60342 0.971596
  292 130.997 12.1991 -61.6496
  293 212.501 -23.3706 -4.91204
  294 243.731 -1.27202 1.89783
  295 126.105 12.1535 59.5734
  296 146.789 -3.68517 -0.233652
  297 146.732 -3.68163 0.363998
  298 208.756 -15.1913 10.6393
  299 241.212 -2.36889 -4.63863
  300 -3.00870 0.909904 -3.25297
  301 -2.91777 0.903143 3.26515
  302 301.159 60.2302 -3.28723
  303 264.964 -12.8765 16.0823
  304 240.223 -0.994837 -0.540257
  305 244.569 -0.860454 0.489129
  306 238.539 -21.5335 18.7946
  307 294.372 29.8507 -23.3835
  308 255.305 47.6064 14.5198
  309 113.563 -6.82361 -5.73988
  310 112.500 -6.95225 5.86751
  311 243.506 -1.22066 -1.32971
  312 157.906 -12.0935 -29.7714
  313 155.147 -12.0948 4.34605
  314 147.948 -8.24202 34.1277
  315 238.989 -2.69073 5.50765
  316 51.5927 -2.36660 -5.56744
  317 51.6224 -2.38438 5.53870
  318 219.837 -8.12064 54.6543
  319 137.983 -10.7929 -7.14026
  320 255.499 32.4685 31.2383
  321 80.1798 5.67020 -25.6244
  322 77.1395 5.92371 25.3964
  323 20.7049 -0.473318 -1.36485
  324 20.7348 -0.469898 1.34379
  325 210.668 -3.94668 2.63350
  326 201.934 -2.53525 0.469696
  327 200.772 -2.80865 -0.541687
  328 220.834 -5.64743 20.0749
  329 16.4868 -0.673231 3.18109
  330 16.4215 -0.666679 -3.19846
  331 61.8894 -1.41868 -1.13110
  332 61.8885 -1.39270 1.11703
  333 2.00152 -10.6572 -4.25309
  334 1.86214 -10.7371 4.41920
  335 169.005 7.24987 22.1933
  336 267.588 -12.2412 -13.4694
  337 171.893 -8.88503 1.40087
  338 195.144 -3.60161 -1.51144
  339 201.652 25.1451 -13.7266
  340 37.8764 -1.18670 -8.15848
  341 37.9228 -1.18726 8.14853
  342 167.028 -8.35963 -0.502045
  343 45.8144 1.67414 -11.8020
  344 45.8996 1.63324 11.7595
  345 8.49067 7.56308 0.556564
  346 8.60179 7.56063 -0.510184
  347 203.941 -22.1213 19.4053
  348 457.753 30.2880 11.7016
  349 178.888 2.56925 -26.3168
  350 150.742 -13.5348 17.8375
  351 149.972 -13.2701 -18.4122
  352 223.078 -3.97914 36.8044
  353 197.311 -1.51936 26.1011
  354 201.231 -21.3918 -20.0812
  355 118.282 -2.79710 0.0166945
  356 118.265 -2.83401 0.0133876
  357 222.613 -14.5634 22.9874
  358 304.751 60.9915 2.04906
  359 240.051 -2.55959 -7.10378
  360 58.9973 -2.23306 -3.95756
  361 59.0169 -2.23462 3.91158
  362 225.582 -21.8502 -24.3452
  363 235.686 16.1744 -36.8323
  364 154.892 8.34689 -14.2159
  365 224.122 -15.0475 -26.1614
  366 -7.41816 0.209798 -5.89232
  367 -7.42654 0.201056 5.90001
  368 188.302 -4.15538 1.07502
  369 -2.68083 -1.60274 -3.45436
  370 -2.67783 -1.60337 3.44753
  371 146.175 70.0214 -111.992
  372 5.44378 4.73213 4.19929
  373 5.58810 4.77086 -4.12253
  374 195.723 -1.60558 -25.8810
  375 107.158 -4.40917 2.54347
  376 107.240 -4.47239 -2.57852
  377 -0.790006 -8.02371 6.70064
  378 -0.777777 -8.00893 -6.69330
  379 118.403 73.5374 105.304
  380 87.4766 -4.58829 -12.3597
  381 87.5412 -4.38361 12.3690
  382 27.6384 20.1003 -19.4404
  383 28.2319 20.0356 19.3189
  384 -11.6649 1.67098 2.31541
  385 -11.6145 1.67339 -2.28865
  386 227.103 14.9088 36.7797
  387 174.387 -18.2479 7.79875
  388 174.571 -15.8245 2.41464
  389 212.301 -24.2583 -1.50010
  390 51.7363 6.58526 -16.5690
  391 51.9079 6.57124 16.5389
  392 4.55131 -7.85281 -0.0995178
  393 4.29440 -7.96045 0.465669
  394 212.783 30.5175 9.09018
  395 216.927 -5.97230 6.42331
  396 122.457 -9.42703 11.2219
  397 74.9691 -1.82616 -14.9311
  398 74.9918 -1.83974 14.8075
  399 157.077 -4.47389 -0.135793
  400 156.901 -3.88548 0.00199013
  401 121.419 -9.68938 -11.9795
  402 94.5466 -1.55914 -20.4472
  403 94.5265 -1.69159 20.6146
  404 225.767 -20.8162 -16.5980
  405 129.709 -9.85201 6.77226
  406 205.546 -6.00191 4.03500
  407 205.199 -5.43509 -3.42873
  408 171.295 -15.7023 -3.04426
  409 248.595 -0.904847 -2.00123
  410 81.9876 32.6385 -62.3699
  411 232.494 -3.26360 11.6247
  412 247.699 -1.13624 2.91101
  413 85.8354 -4.52195 7.24857
  414 85.8795 -4.45885 -7.24241
  415 173.594 -18.0274 -8.10577
  416 23.8741 10.8395 7.74241
  417 23.7435 10.8332 -7.75188
  418 462.598 30.2647 -23.9888
  419 201.152 -11.2879 -6.24787
  420 250.631 -0.693232 1.15386
  421 77.3218 30.3795 59.2961
  422 368.636 62.2581 11.3492
  423 216.578 -3.00970 -2.11851
  424 160.564 -11.4888 -2.29202
  425 66.0427 12.7667 -29.0317
  426 70.4397 11.8447 28.8585
  427 198.653 -12.4246 6.34306
  428 209.724 -2.73109 -19.2836
  429 -3.37627 -0.177726 3.22812
  430 -3.47036 -0.175479 -3.22690
  431 74.9067 17.9169 -39.2915
  432 75.1431 17.9846 39.1675
  433 7.98292 4.17676 -3.09665
  434 8.07505 4.16702 3.13075
  435 178.101 -3.12517 0.502761
  436 177.887 -3.03418 -0.440388
  437 221.940 -10.0507 -18.3777
  438 -0.771355 -0.844588 8.33726
  439 -0.731889 -0.810334 -8.30747
  440 228.805 -22.7222 14.7214
  441 216.697 -5.55175 -5.71317
  442 350.466 67.1916 -9.38559
  443 11.1182 -0.614689 1.47237
  444 11.0641 -0.614831 -1.49081
  445 424.326 118.205 51.6346
  446 8.21277 1.50482 -11.5448
  447 24.4280 1.28885 -7.90379
  448 24.5101 1.26869 7.90016
  449 422.785 120.783 -49.1999
  450 8.70666 2.44777 12.7978
  451 -11.4523 1.32023 0.817810
  452 -11.3877 1.31797 -0.792728
  453 22.6275 15.4564 -11.0623
  454 23.0278 15.4583 11.1252
  455 273.001 42.4412 -26.1158
  456 219.665 -8.43086 -12.0480
  457 249.241 -0.767231 -1.03541
  458 229.330 -3.46166 -13.5915
  459 -2.91995 1.53649 7.65398
  460 -2.87987 1.55831 -7.62618
  461 221.904 -8.81657 13.9284
  462 142.942 -7.84040 -2.61060
  463 142.491 -7.92499 2.11657
  464 195.261 -21.5684 -2.06645
  465 138.623 -2.09043 -42.1067
  466 211.940 -3.27926 19.7250
  467 173.715 -5.32882 -0.469219
  468 256.690 -19.7366 -1.46825
  469 134.231 0.990972 45.2176
  470 8.01998 -0.169319 3.11531
  471 7.93998 -0.165326 -3.12392
  472 280.150 55.4564 -12.0336
  473 225.772 -1.40869 0.199263
  474 224.980 -1.62961 -0.409565
  475 168.854 -11.0849 0.371984
  476 71.8134 -2.36497 -2.16768
  477 71.8036 -2.33472 2.13635
  478 41.9491 -0.437474 -9.67631
  479 41.9949 -0.445843 9.65271
  480 138.709 5.38959 8.47963
  481 33.5194 -1.14107 4.61012
  482 33.4740 -1.12975 -4.63706
  483 36.9434 3.66760 10.8819
  484 36.8204 3.72190 -10.8750
  485 217.844 -16.8440 16.9214
  486 120.660 -7.49168 -19.1419
  487 110.850 -3.40309 1.24065
  488 110.894 -3.49459 -1.24419
  489 121.951 -7.73071 19.1325
  490 341.406 80.4557 -5.32721
  491 -5.46406 -0.842647 -4.51289
  492 -5.46156 -0.846918 4.51072
  493 83.4044 -2.22506 -0.885607
  494 83.3996 -2.18764 0.881033
  495 0.0701602 -14.8914 -5.69020
  496 0.0346438 -14.9394 5.73910
  497 199.175 -2.67375 0.904295
  498 137.780 6.63791 -4.22787
  499 187.866 19.7581 12.2874
  500 120.015 -1.20950 -33.3272
  501 57.2638 -2.92456 7.01476
  502 57.2629 -2.89945 -7.03003
  503 -16.2416 0.504719 -0.995291
  504 -16.1537 0.501756 1.00643
  505 234.941 -4.65348 -36.6930
  506 15.8531 0.131494 -1.01598
  507 15.8765 0.134575 1.00090
  508 195.585 -15.2882 -5.38774
  509 208.614 -17.7109 -10.2059
  510 41.8544 31.3066 -41.7106
  511 175.213 4.24429 -67.1176
  512 1.76628 5.10876 3.92234
  513 1.84891 5.11896 -3.87693
  514 105.540 -4.74295 -3.81827
  515 105.483 -4.69635 3.72158
  516 302.938 11.5721 -9.07929
  517 217.021 -12.7166 -15.3175
  518 40.7844 29.5338 41.1034
  519 215.063 -24.5427 4.83639
  520 206.649 -19.6224 8.18218
  521 41.4531 -0.999860 -3.01307
  522 41.4744 -0.995290 2.97901
  523 167.072 1.74316 20.3568
  524 121.440 -8.83666 -7.24683
  525 229.457 -4.90109 8.77285
  526 -0.955467 -5.56369 -4.37334
  527 -0.957838 -5.55984 4.36749
  528 159.671 -14.2093 21.5042
  529 244.406 -19.0059 -19.7010
  530 320.472 20.7692 -9.22872
  531 171.550 -5.53959 0.595182
  532 48.5365 -0.872151 -0.894288
  533 48.5414 -0.853193 0.885007
  534 107.728 0.844554 32.0568
  535 304.890 50.2546 18.4017
  536 312.604 57.6055 -106.955
  537 278.003 0.830818 19.1390
  538 199.213 -22.1771 0.981093
  539 477.404 37.9454 32.0767
  540 350.332 83.6610 8.15255
  541 47.2724 -1.94899 7.68001
  542 47.2409 -1.92882 -7.69633
  543 191.387 -15.7451 4.19228
  544 13.4411 6.75887 -2.74787
  545 13.5464 6.75395 2.78857
  546 241.375 -20.3163 19.6789
  547 195.047 10.4120 30.1622
  548 243.802 -1.46334 4.86239
  549 178.977 -10.5210 2.12071
  550 252.921 0.777980 -70.7487
  551 403.823 100.509 68.4484
  552 194.671 -3.49728 -0.824857
  553 239.125 -2.33827 -7.74307
  554 36.5064 15.3280 -15.6381
  555 36.7738 15.1416 15.5603
  556 135.144 -5.19777 -1.64135
  557 135.079 -5.06577 1.68401
  558 1.50238 -18.7387 -1.46185
  559 243.357 -8.99014 32.9136
  560 8.81922 8.09518 1.50896
  561 8.96533 8.11622 -1.44125
  562 1.77003 -18.1470 1.97784
  563 221.097 -10.1295 -26.4714
  564 254.672 15.6555 -35.5475
  565 253.683 17.7878 35.5297
  566 11.8159 9.44616 8.23599
  567 11.2054 9.69649 -8.03536
  568 -8.56220 0.247635 2.40578
  569 -8.65969 0.250048 -2.40158
  570 235.347 4.73224 73.0346
  571 126.864 -6.84968 3.64685
  572 126.996 -6.82479 -3.73839
  573 284.400 -6.33893 -36.3617
  574 33.7792 -0.459454 1.75175
  575 33.7628 -0.467969 -1.77448
  576 13.7820 -0.441579 -0.420747
  577 13.7945 -0.438645 0.415480
  578 311.053 55.6889 -15.2986
  579 29.1427 40.1830 -46.3097
  580 159.325 3.11800 -17.2203
  581 227.880 36.5217 -15.5381
  582 3.17500 -0.567478 5.41415
  583 3.31325 -0.519422 -5.32140
  584 235.770 102.816 126.281
  585 197.562 -5.19273 -2.38535
  586 5.75359 2.02610 -3.92551
  587 5.84355 2.01140 3.94577
  588 228.132 -18.4754 23.1283
  589 34.5268 38.8579 47.1546
  590 163.840 -3.12169 0.101174
  591 163.883 -3.09228 -0.101866
  592 -0.206647 -11.7748 5.84264
  593 -0.188882 -11.7552 -5.82341
  594 279.596 54.8204 -0.447498
  595 177.664 -14.5319 31.0608
  596 169.412 -6.96666 0.470067
  597 170.905 7.03791 70.8545
  598 -14.3342 0.702358 3.55099
  599 -14.3195 0.706144 -3.53717
  600 281.536 2.83814 -20.4982
  601 378.752 59.8544 -48.1954
  602 105.484 10.5363 -46.6601
  603 55.6945 -2.29060 -9.41020
  604 55.7430 -2.29042 9.40935
  605 255.909 -0.713970 1.41635
  606 167.687 -7.12504 -0.689979
  607 226.565 -2.80751 3.16063
  608 221.120 -10.1166 25.8622
  609 6.57246 -0.355567 1.52561
  610 6.50426 -0.353993 -1.53939
  611 129.778 -4.28105 -0.929646
  612 129.758 -4.15415 0.888596
  613 80.3256 1.82407 -21.1139
  614 79.7930 1.84637 21.0115
  615 322.589 17.1640 16.7598
  616 531.682 40.0583 -58.3135
  617 -6.06057 -0.312118 2.12163
  618 -6.16005 -0.311018 -2.12188
  619 75.0867 -3.09688 4.03828
  620 75.0869 -3.09371 -4.10130
  621 299.666 15.1346 13.1750
  622 253.243 -0.701779 -0.450413
  623 252.666 -1.10377 0.210690
  624 179.080 -0.133646 20.1823
  625 263.562 -16.2999 -21.6169
  626 141.129 -11.4734 8.68489
  627 -3.80129 3.14136 -3.55081
  628 -3.86311 3.13690 3.58620
  629 227.340 4.37037 38.3659
  630 88.5457 -5.01039 -9.76518
  631 88.4519 -5.09625 9.78479
  632 185.512 -10.4960 -2.81411
  633 230.598 -4.82858 -7.95185
  634 129.786 -10.2768 -13.6000
  635 213.007 25.6734 -23.2957
  636 144.003 -9.99862 -25.1316
  637 50.4900 -1.33939 -1.52176
  638 50.4952 -1.32203 1.49823
  639 131.170 -10.4695 13.6441
  640 284.928 45.4668 23.7222
  641 226.172 -11.1707 32.5642
  642 185.200 -7.95896 2.52789
  643 131.219 -3.22172 0.719642
  644 131.185 -3.23028 -0.693870
  645 97.9543 -3.49685 -2.82431
  646 97.9133 -3.45533 2.78853
  647 218.132 -20.0650 -13.8611
  648 108.597 -5.99466 4.97489
  649 108.721 -5.97115 -5.09296
  650 216.430 33.5694 -3.14083
  651 201.528 -10.3582 6.27274
  652 254.337 -1.05077 -2.16278
  653 213.161 -4.08319 -33.6643
  654 28.6751 -1.30018 6.15670
  655 28.6184 -1.29071 -6.16454
  656 247.587 -1.23226 -4.39671
  657 42.8022 21.9416 -29.0824
  658 43.5452 21.8817 29.2267
  659 252.151 -16.0922 30.6683
  660 85.1002 20.9836 49.1316
  661 19.1218 -0.0779234 6.16788
  662 19.0524 -0.0731407 -6.17309
  663 214.102 -14.4402 40.3825
  664 211.728 27.8657 -97.1302
  665 203.337 6.19501 -33.4834
  666 269.683 48.6346 20.2217
  667 181.927 -7.78287 -1.71209
  668 328.246 59.5204 -1.44209
  669 -16.7013 0.746645 -0.527261
  670 -16.6265 0.744579 0.543274
  671 144.583 0.317755 -49.5688
  672 6.98514 -0.204097 1.19899
  673 6.93881 -0.204655 -1.21298
  674 182.085 -15.6283 -30.6780
  675 58.9335 8.21524 -20.2993
  676 58.4492 8.24088 20.2855
  677 0.289490 3.00118 -0.809079
  678 0.370664 2.99669 0.843186
  679 154.018 -13.1978 -6.20082
  680 218.911 -2.14698 -12.9758
  681 102.618 -2.99879 -1.04235
  682 102.620 -2.96160 1.05154
  683 73.5116 -3.70108 -6.15475
  684 73.5663 -3.75430 6.12783
  685 13.6585 11.2497 -3.19933
  686 13.8951 11.2716 3.27751
  687 226.282 -2.37748 1.67607
  688 98.1272 -6.13083 8.03861
  689 98.7816 -6.01882 -8.02887
  690 249.975 -20.5586 -4.69519
  691 205.208 -20.6223 -5.96581
  692 160.642 -4.19471 0.199936
  693 160.058 -3.88257 -0.114162
  694 226.621 -24.3694 10.7949
  695 369.251 74.2389 18.1129
  696 198.885 -9.49848 -50.5684
  697 227.906 -6.23579 13.8128
  698 225.552 -8.62131 -34.8321
  699 67.9214 -2.03946 -2.82797
  700 67.9167 -2.02232 2.78620
  701 176.482 -3.62061 56.8866
  702 501.652 63.9143 58.6789
  703 32.6860 9.73703 -11.3234
  704 32.7329 9.80100 11.3615
  705 225.655 -1.85035 -0.861250
  706 227.488 -1.63823 0.875351
  707 94.6363 46.2950 -80.6043
  708 239.049 -1.17972 7.70092
  709 206.586 -3.17489 1.46186
  710 270.682 53.9003 -7.57366
  711 26.3287 4.93033 -8.07642
  712 26.4460 4.89863 8.10722
  713 258.559 -0.510787 0.280687
  714 207.465 -7.70454 -6.03764
  715 258.942 -4.52528 29.1953
  716 104.117 -7.21977 -12.9130
  717 104.380 -6.90107 12.7778
  718 21.5463 -0.793180 4.66274
  719 21.4836 -0.782835 -4.67798
  720 236.113 -1.30624 -1.50159
  721 203.171 37.7759 103.289
  722 1.22918 1.21514 7.11529
  723 1.30392 1.25845 -7.06405
  724 236.372 -2.28993 -3.77068
  725 229.229 -3.93300 5.35333
  726 178.181 0.0482131 -21.6465
  727 1.63579 -21.5704 -3.04931
  728 1.52418 -21.7745 3.25446
  729 81.8338 21.5976 -49.1134
  730 181.670 -18.4213 -21.7400
  731 93.8199 45.9131 81.4277
  732 254.942 -0.483487 0.883807
  733 242.533 36.2099 24.9361
  734 174.559 15.9118 -8.54465
  735 319.605 64.4811 -0.957296
  736 251.236 -0.921837 2.89644
  737 -16.3228 0.372360 1.68056
  738 -16.4193 0.374416 -1.67369
  739 266.778 -16.0898 5.12958
  740 171.259 -4.57195 0.232376
  741 60.6783 0.190200 -14.2845
  742 60.7548 0.128174 14.1935
  743 229.509 -2.38569 -2.30786
  744 406.635 57.6750 -20.2835
  745 24.3229 -0.753534 -2.85430
  746 24.3739 -0.758121 2.82999
  747 256.713 -0.561543 -1.36941
  748 48.0262 -2.15638 -3.99472
  749 48.0536 -2.16406 3.95886
  750 249.127 -10.4210 -29.9244
  751 229.838 -2.35405 10.5313
  752 204.589 -1.52866 33.1939
  753 257.362 -0.585871 -0.0680570
  754 239.335 -1.55256 2.91523
  755 154.498 -8.04593 -0.853569
  756 195.003 -4.75771 1.87151
  757 221.506 -13.6446 -22.3171
  758 216.195 -13.4865 14.8370
  759 252.684 30.1702 -31.5315
  760 213.292 -11.7855 11.1717
  761 224.978 -13.4525 28.3386
  762 129.120 -8.55800 5.05823
  763 4.48468 -2.21809 -1.06757
  764 4.23571 -2.23183 1.30281
  765 197.630 -2.57251 0.0745797
  766 197.204 -2.55076 -0.149097
  767 238.490 -0.794107 -0.179829
  768 239.341 -0.743750 0.237469
  769 225.464 -6.24889 16.7900
  770 208.261 -19.5848 28.8304
  771 170.179 -13.6451 1.52043
  772 150.736 -8.73793 2.00535
  773 415.128 53.3200 23.8067
  774 228.447 -5.61327 -10.9998
  775 132.970 22.3822 -75.7459
  776 211.975 -10.2542 -9.71465
  777 6.69827 0.203310 -4.34078
  778 6.78551 0.195555 4.34567
  779 186.504 16.3483 -19.1699
  780 488.603 14.8595 -6.42721
  781 237.863 5.71664 -37.7092
  782 9.25929 2.42693 -17.6361
  783 243.737 44.0843 6.41173
  784 191.168 -11.9242 3.99204
  785 214.110 -5.52012 32.6932
  786 180.713 -19.2189 21.8644
  787 292.259 -3.50752 45.3282
  788 9.98179 4.64795 18.8981
  789 129.889 -0.951115 38.3514
  790 182.810 -4.33656 -0.893273
  791 204.091 -18.7455 -29.1997
  792 123.738 -9.53016 -9.28372
  793 97.5513 4.58772 -33.3242
  794 236.009 -4.04496 36.9680
  795 150.508 -10.0611 3.63166
  796 26.1224 -0.788087 2.59481
  797 26.0864 -0.789190 -2.62203
  798 219.599 -1.17574 11.5061
  799 197.824 0.827126 -32.1823
  800 -17.7648 0.780210 2.26402
  801 -17.7382 0.781580 -2.24906
  802 146.384 -4.27560 -0.191366
  803 145.945 -4.02224 0.145864
  804 108.266 11.8372 47.3699
  805 95.6579 -5.48093 5.94865
  806 95.8000 -5.34243 -6.02001
  807 256.649 -0.370171 -0.779893
  808 87.6395 6.89853 32.4310
  809 0.0375069 -0.0808416 1.65347
  810 -0.0488206 -0.0789523 -1.66175
  811 216.901 -6.76090 25.3787
  812 234.008 -1.71703 1.21080
  813 -12.4945 0.126365 3.48208
  814 -12.4958 0.130280 -3.47517
  815 142.101 -9.04175 28.3643
  816 26.8587 21.9750 -24.3854
  817 27.1951 20.9009 23.9989
  818 130.984 5.86173 3.52346
  819 -4.86026 -0.119568 -1.90538
  820 -4.76132 -0.120945 1.90275
  821 163.810 -15.6739 -20.4482
  822 224.808 -23.7865 -9.02716
  823 -1.10842 -1.05440 -1.38723
  824 -1.10524 -1.05202 1.38219
  825 8.46227 0.398589 -0.374771
  826 8.47990 0.400789 0.366779
  827 199.551 -17.6742 6.16959
  828 167.421 -17.1976 13.8849
  829 186.205 -2.75963 0.722119
  830 166.957 -13.3033 -2.16976
  831 58.7435 -0.899380 -0.272486
  832 58.7454 -0.874388 0.266605
  833 -20.2008 0.425114 1.37237
  834 -20.1583 0.424527 -1.35777
  835 211.099 -2.38398 -1.14417
  836 183.543 7.08572 -27.3061
  837 213.357 -3.91455 -3.24658
  838 123.994 -9.35067 8.81050
  839 209.315 -3.74914 -26.6914
  840 225.222 -6.79404 -17.3537
  841 211.984 -1.99720 1.03339
  842 153.359 -6.12764 39.3681
  843 163.861 -15.9483 -7.38877
  844 97.7512 -0.720287 -25.3105
  845 98.2992 -0.0401478 25.4428
  846 139.123 -10.2531 -5.48836
  847 231.714 24.8894 32.2345
  848 221.498 -23.4624 -15.2429
  849 77.2404 -2.34710 -1.38531
  850 77.2292 -2.30887 1.36807
  851 168.452 -3.47092 -0.103878
  852 168.456 -3.50288 0.148303
  853 199.528 -1.55832 -17.4054
  854 65.5050 -2.72571 -4.95774
  855 65.5366 -2.74682 4.90937
  856 0.781586 -21.4251 -4.35755
  857 0.738070 -21.5162 4.44332
  858 31.0862 -0.461098 -0.205139
  859 31.0761 -0.471651 0.198096
  860 209.401 -2.94201 -1.61195
  861 157.594 -15.0059 12.4844
  862 246.836 -21.6141 9.64332
  863 140.297 2.96190 13.5027
  864 214.084 -4.74059 3.69889
  865 233.326 -21.1738 -18.3664
  866 31.9398 2.16391 -9.39493
  867 32.0345 2.12847 9.38698
  868 185.238 -2.98849 -0.663478
  869 148.192 -4.85636 -0.769381
  870 147.662 -4.80920 0.901088
  871 228.564 35.6574 17.4935
  872 78.4198 -0.705401 -17.3839
  873 78.3380 -0.798618 17.2997
  874 159.072 -14.2683 5.70660
  875 14.6122 9.76061 -2.71270
  876 14.7620 9.73997 2.75404
  877 134.143 -9.58404 22.8910
  878 161.409 -10.0671 -0.850993
  879 200.760 -1.61219 17.5894
  880 199.079 -22.5323 6.20698
  881 228.408 -17.5454 -24.8474
  882 157.209 -15.1298 -12.6805
  883 130.080 -8.51946 -4.82840
  884 434.588 35.8903 -6.62721
  885 208.680 -22.1738 4.72609
  886 5.38007 6.58982 3.06256
  887 5.48737 6.60173 -3.00715
  888 180.884 -18.0657 2.46751
  889 198.814 -22.5703 -11.8681
  890 5.59036 5.84436 0.830246
  891 5.68395 5.84516 -0.788273
  892 73.0752 -2.52141 13.0338
  893 73.1272 -2.60243 -13.1197
  894 89.0407 -4.43434 14.3294
  895 89.0137 -4.54431 -14.4391
  896 286.624 57.5717 9.69933
  897 -0.443507 -8.87539 -4.26075
  898 -0.446596 -8.86556 4.25814
  899 64.4346 5.55079 -19.2887
  900 64.1065 5.43553 19.0845
  901 505.659 16.4101 -25.6957
  902 6.00734 -0.0348813 0.655935
  903 5.97405 -0.0365363 -0.666899
  904 0.810052 -25.0358 1.77775
  905 0.952450 -24.6339 -1.43797
  906 -9.50229 -0.133805 3.53861
  907 -9.51205 -0.130906 -3.53728
  908 51.4371 15.1898 -22.8027
  909 52.2394 14.6876 22.4616
  910 -4.32815 0.0955092 -7.55212
  911 -4.34889 0.0792779 7.56544
  912 13.5322 1.39475 -6.01063
  913 13.6220 1.37717 6.01834
  914 55.6724 -0.554510 11.9646
  915 55.6379 -0.552034 -12.0325
  916 44.9062 -1.49496 -9.61690
  917 44.9487 -1.49155 9.59793
  918 248.480 -0.836913 -4.29240
  919 119.553 24.8295 70.2617
  920 165.527 -16.2623 6.83475
  921 116.532 -8.20862 6.96315
  922 226.399 23.1315 -31.7653
  923 497.175 10.7351 10.2016
  924 270.588 11.6053 -31.0040
  925 42.2602 -1.62325 5.93868
  926 42.2207 -1.60409 -5.96497
  927 5.79409 -0.227041 -4.38279
  928 5.87842 -0.229539 4.38133
  929 -0.291026 -4.44979 -8.26735
  930 -0.326336 -4.48427 8.29456
  931 120.472 -5.07317 2.89413
  932 120.539 -5.17972 -2.91308
  933 13.3832 3.96532 -5.18188
  934 13.4806 3.94703 5.21092
  935 72.4235 -3.15399 -10.9809
  936 72.4687 -3.15306 10.9707
  937 157.264 -0.814187 -15.9190
  938 74.6269 -3.99525 -7.47129
  939 74.5678 -3.94848 7.49678
  940 186.519 -4.83043 -1.11470
  941 225.597 -13.0908 -30.3620
  942 96.5807 -3.74939 3.21656
  943 96.6316 -3.78737 -3.26886
  944 -4.04979 -0.445423 -2.46080
  945 -4.03914 -0.446487 2.45579
  946 230.782 -18.5018 -36.0319
  947 220.288 -12.8595 19.5212
  948 192.982 -13.2697 -4.96052
  949 186.033 6.20960 28.7936
  950 83.6529 -4.61449 -8.44225
  951 83.6467 -4.52167 8.47027
  952 208.973 7.78792 34.9693
  953 194.159 16.8765 22.9993
  954 404.593 48.9150 8.39419
  955 205.796 -7.05158 4.57734
  956 106.258 -2.93214 -1.43099
  957 106.242 -2.86720 1.44539
  958 183.638 -14.8735 -1.78788
  959 253.639 46.6468 -15.1917
  960 226.336 -2.09291 -1.68750
  961 146.751 -3.21491 0.460016
  962 146.691 -3.18733 -0.416799
  963 18.0605 15.0377 -10.0799
  964 18.5318 15.0036 10.1634
  965 35.5418 84.3913 -78.5486
  966 209.856 -5.06715 26.5653
  967 263.392 -5.60197 -26.2580
  968 -5.19458 2.50012 1.79603
  969 -5.12714 2.49929 -1.76288
  970 544.450 127.034 -102.096
  971 225.221 -24.7138 4.11248
  972 240.614 -22.7379 -7.99547
  973 221.509 -19.0345 18.0451
  974 272.964 53.9963 6.54387
  975 19.1719 18.8943 -22.6418
  976 50.1199 72.4300 76.6821
  977 -1.45210 -3.25648 8.19505
  978 -1.43015 -3.23119 -8.18096
  979 216.055 -5.18598 4.56045
  980 347.022 61.7532 -6.76233
  981 19.7449 18.4197 23.6028
  982 -0.963647 -3.16328 -2.73622
  983 -0.963913 -3.15487 2.72942
  984 184.721 -3.87922 0.566076
  985 136.697 -10.7524 -9.65233
  986 223.204 -17.7110 -21.1762
  987 62.0510 16.6593 -30.4863
  988 63.0563 16.9389 30.5673
  989 216.068 -5.39159 -23.7856
  990 218.876 -6.64956 8.12385
  991 -6.08780 1.38172 6.71644
  992 -6.05874 1.39600 -6.69541
  993 130.521 -8.61429 -21.4617
  994 217.213 13.6461 -35.2173
  995 161.813 -5.68622 0.0683403
  996 115.169 -3.01290 0.189015
  997 115.149 -3.03586 -0.175491
  998 -2.51055 -2.84460 -5.76512
  999 -2.51423 -2.85073 5.76097
  1000 221.829 -7.65542 -9.87965
  1001 211.570 -1.94234 0.324265
  1002 211.372 -1.94442 -0.235150
  1003 291.736 47.0077 -22.1688
  1004 50.8860 4.55519 -15.0398
  1005 51.0114 4.46408 15.0008
  1006 31.4577 -0.240431 -7.92011
  1007 31.5155 -0.246977 7.90746
  1008 239.351 12.4105 38.1453
  1009 227.943 -3.98020 -5.61924
  1010 38.5549 6.26395 -12.0790
  1011 38.7091 6.21586 12.1242
  1012 238.683 -0.970508 -0.991339
  1013 221.386 -9.39077 -14.7752
  1014 216.158 -24.6709 -7.75145
  1015 7.78380 6.37893 -0.874022
  1016 7.55620 6.34858 0.976703
  1017 -10.8765 1.66592 4.10605
  1018 -10.8390 1.67033 -4.08136
  1019 126.287 4.85623 -5.89472
  1020 376.169 92.0600 -23.1892
  1021 169.978 -12.1457 -0.0381174
  1022 111.422 -4.85375 -22.1405
  1023 275.278 -11.8818 4.37570
  1024 111.863 -4.85394 22.4617
  1025 196.057 -23.0031 14.1186
  1026 222.362 -9.16253 -21.8372
  1027 73.7315 -1.59220 -0.444299
  1028 73.7315 -1.56012 0.440657
  1029 150.855 -11.5975 -4.56545
  1030 91.4284 -3.34213 -17.0590
  1031 91.3864 -3.36749 16.9621
  1032 29.8615 19.4363 -18.3655
  1033 30.3455 19.3724 18.4198
  1034 61.4514 -1.90008 -1.59862
  1035 61.4496 -1.87428 1.57389
  1036 198.044 -5.89215 2.66778
  1037 166.624 0.215673 -57.6467
  1038 205.400 -6.31590 -4.52185
  1039 184.851 -20.4854 -7.99936
  1040 120.143 -4.81769 1.91378
  1041 120.247 -4.85690 -1.92249
  1042 241.951 -1.20668 1.24808
  1043 215.256 -4.75491 -4.28207
  1044 133.752 3.22914 11.1054
  1045 230.134 -2.24705 -9.78760
  1046 87.9344 25.2313 55.8626
  1047 237.437 -2.12995 -8.06900
  1048 60.4145 10.2448 -22.7338
  1049 58.5579 10.3652 21.7635
  1050 284.602 -5.90276 -5.71160
  1051 24.5157 12.9955 -9.16385
  1052 24.7469 12.8993 9.15897
  1053 4.06625 -1.05824 3.16212
  1054 4.28280 -1.02026 -3.01958
  1055 33.6035 -0.912107 1.96108
  1056 33.5794 -0.918698 -1.98963
  1057 100.291 25.5624 -62.1137
  1058 562.956 143.303 109.840
  1059 221.047 -7.65626 10.1358
  1060 197.817 -22.3253 -5.45268
  1061 136.378 -11.1873 -16.3335
  1062 -3.26218 2.89106 6.00157
  1063 -3.20999 2.90691 -5.96675
  1064 154.324 -7.62630 0.583389
  1065 170.739 -5.95091 -0.596102
  1066 -0.0995220 -12.5994 4.12962
  1067 -0.0952273 -12.6105 -4.12812
  1068 24.7481 15.4716 -11.0471
  1069 25.0500 15.4394 11.1161
  1070 152.206 -6.97433 -0.539531
  1071 10.9309 5.50893 2.99186
  1072 10.8336 5.51728 -2.95372
  1073 233.902 -9.51566 35.1612
  1074 168.723 -17.5100 -13.8144
  1075 137.203 -11.3690 16.3312
  1076 222.135 -4.71868 -36.7459
  1077 236.641 -2.29389 4.08555
  1078 83.8637 12.8238 37.1029
  1079 84.4714 12.2779 -36.4709
  1080 136.334 -6.71118 -31.1238
  1081 194.620 -6.59199 -2.76534
  1082 157.255 -9.18138 1.69223
  1083 184.895 -17.1563 0.596657
  1084 256.418 -0.791815 -2.29647
  1085 135.922 -5.96148 1.84126
  1086 135.862 -6.32466 -1.92255
  1087 4.17782 5.00863 5.15542
  1088 4.28962 5.04641 -5.09178
  1089 223.632 7.97808 -37.8967
  1090 48.7278 2.60765 -13.2221
  1091 48.8571 2.55103 13.1800
  1092 36.0261 0.811485 -9.35389
  1093 36.1029 0.790571 9.33282
  1094 257.885 -11.5744 45.6330
  1095 222.142 -10.1895 21.5748
  1096 107.211 -4.86582 -18.6449
  1097 261.005 -0.936281 -1.37814
  1098 289.918 54.5220 -16.8676
  1099 236.336 -1.96123 -2.64791
  1100 220.324 -23.8947 8.85426
  1101 162.197 -12.5019 27.1166
  1102 263.035 -0.203964 0.305204
  1103 133.487 4.20406 -9.42424
  1104 186.203 -19.9011 -3.03848
  1105 107.378 -5.09109 18.4233
  1106 187.977 -17.0081 -1.68629
  1107 235.881 -3.14665 7.41307
  1108 165.068 10.4539 14.7461
  1109 115.435 -8.41110 -14.6760
  1110 358.535 48.4812 -18.2475
  1111 267.197 11.4517 32.3862
  1112 196.507 24.7243 3.63839
  1113 259.716 0.146992 1.25836
  1114 99.7656 -6.13140 -11.0822
  1115 68.2555 41.3167 -62.2350
  1116 122.752 3.09298 -44.6768
  1117 140.848 -10.6542 6.60566
  1118 118.538 -8.79718 13.6732
  1119 99.5108 -5.82068 11.2064
  1120 212.383 1.63288 36.7377
  1121 160.671 -5.24382 0.114590
  1122 255.596 -1.79509 3.03345
  1123 -2.20465 -0.332666 8.24371
  1124 -2.17444 -0.307621 -8.22334
  1125 168.541 -4.43055 -0.350114
  1126 -0.473997 1.66677 7.61329
  1127 -0.419666 1.69923 -7.57511
  1128 92.8274 -2.75646 1.90940
  1129 92.8388 -2.80499 -1.91234
  1130 239.626 -1.22866 6.70181
  1131 191.886 -11.4960 -4.20116
  1132 179.511 -9.29654 -1.77491
  1133 201.148 -13.9097 7.77239
  1134 60.2892 29.5448 -46.0846
  1135 197.348 -7.12842 3.47924
  1136 27.6173 0.615421 -7.63237
  1137 27.6898 0.600929 7.62347
  1138 40.0939 25.5851 -32.0559
  1139 317.148 40.1912 12.3367
  1140 20.1947 -0.990574 4.41167
  1141 20.1280 -0.982212 -4.42112
  1142 40.8224 25.1616 30.9051
  1143 180.134 -14.9187 1.05837
  1144 89.3881 -4.04403 4.04071
  1145 89.4081 -4.06494 -4.11824
  1146 370.505 78.1431 -19.3561
  1147 198.830 -19.9031 2.61329
  1148 67.1530 38.5665 62.0857
  1149 5.56275 -2.77747 -4.48074
  1150 6.01012 -2.70464 5.01271
  1151 207.502 26.0517 18.5126
  1152 14.7800 8.30918 -2.94433
  1153 14.9043 8.31042 2.97889
  1154 200.178 -17.3090 -6.47085
  1155 -0.0964019 -19.5575 -3.90925
  1156 -0.105537 -19.5623 3.92699
  1157 214.165 -18.0479 -12.9703
  1158 -5.92618 0.273322 1.48412
  1159 -6.02510 0.274957 -1.48836
  1160 31.6362 11.9539 -12.0604
  1161 31.8090 12.0044 11.9395
  1162 -12.8620 0.0321683 -1.81887
  1163 -12.7565 0.0313363 1.82019
  1164 214.883 -1.97003 -0.462026
  1165 -21.9961 0.626681 0.483779
  1166 -21.9383 0.626277 -0.470430
  1167 111.503 -8.66802 -10.6321
  1168 2.91898 -29.7727 -2.31719
  1169 54.1672 -1.49431 3.12689
  1170 54.1536 -1.50049 -3.16725
  1171 181.651 -3.06787 0.192427
  1172 182.001 -2.97543 -0.156241
  1173 3.13261 -28.4719 2.96676
  1174 215.725 -11.0782 -12.5764
  1175 247.368 -1.05015 4.99904
  1176 219.029 -13.9697 -18.0942
  1177 189.024 1.32090 28.5731
  1178 0.922516 -8.28835 6.26306
  1179 1.01599 -8.23045 -6.16575
  1180 138.824 -9.90920 5.11900
  1181 -9.79209 0.833672 5.34278
  1182 -9.77416 0.840866 -5.32733
  1183 365.269 58.4512 3.65933
  1184 431.691 130.126 -91.6586
  1185 224.030 -21.8943 15.9269
  1186 90.3527 -2.48054 -0.227234
  1187 90.3544 -2.44657 0.227390
  1188 464.734 45.0714 -41.2998
  1189 30.3426 -0.801017 4.58642
  1190 30.2900 -0.788088 -4.60737
  1191 207.924 -0.681899 -11.4055
  1192 133.096 -10.6789 12.0682
  1193 221.636 -21.8359 -11.9646
  1194 214.384 -15.5129 -14.4111
  1195 129.757 -4.67812 32.6772
  1196 47.1103 8.90038 -17.0019
  1197 47.0797 8.82053 16.8980
  1198 62.6822 23.0660 -39.0326
  1199 62.7565 21.3222 39.0301
  1200 17.0639 5.27560 -5.46162
  1201 17.1694 5.25905 5.49723
  1202 263.682 45.5591 -22.2953
  1203 13.0886 11.8560 -4.64457
  1204 13.4052 11.8696 4.73809
  1205 190.432 -14.3932 3.82741
  1206 360.401 50.1876 20.7482
  1207 42.7873 -1.81225 -3.07932
  1208 42.8136 -1.81127 3.04344
  1209 236.160 156.358 -138.751
  1210 175.590 10.3682 -22.8017
  1211 160.429 12.4104 9.28032
  1212 21.6645 9.40066 -6.48229
  1213 21.7696 9.39928 6.52105
  1214 1.55261 -0.0343830 1.09075
  1215 1.49030 -0.0343145 -1.10146
  1216 211.253 -16.8962 12.1274
  1217 207.971 -8.05190 6.58936
  1218 142.042 38.6588 -98.3406
  1219 328.330 71.4679 -1.70446
  1220 139.897 -4.40281 -36.1109
  1221 182.257 -5.24613 0.947499
  1222 5.83574 -0.920250 -0.270771
  1223 5.84383 -0.919680 0.269143
  1224 -5.90067 1.42412 -2.29348
  1225 -5.81507 1.41802 2.31291
  1226 121.313 1.17982 -37.9925
  1227 226.228 -4.70595 7.13047
  1228 145.927 2.30405 52.3961
  1229 198.606 -9.55420 -5.26121
  1230 101.737 35.4037 -76.9334
  1231 158.724 -7.99859 -39.0852
  1232 189.437 -20.2276 1.96282
  1233 232.907 -3.53891 10.9695
  1234 204.227 -3.90379 -2.05488
  1235 111.013 -8.12101 10.6999
  1236 256.381 -14.9229 -20.7169
  1237 241.828 20.6549 36.1761
  1238 104.349 0.464640 -29.7816
  1239 243.556 -1.26651 0.943913
  1240 191.410 23.9454 -5.18528
  1241 82.0440 -2.74911 -3.07138
  1242 82.0229 -2.71740 3.03193
  1243 373.488 83.5292 17.7763
  1244 515.571 13.7221 24.0803
  1245 0.434473 -23.9306 -3.89616
  1246 0.419935 -23.9593 3.92587
  1247 53.5807 27.8438 42.9784
  1248 129.292 -3.50019 -0.463592
  1249 129.320 -3.47609 0.513342
  1250 178.516 -17.9050 -3.49967
  1251 211.812 17.2049 31.8691
  1252 224.538 -4.12317 -4.70973
  1253 262.828 -0.593078 -0.188379
  1254 455.348 100.437 -62.7114
  1255 67.6508 -2.49951 3.10484
  1256 67.6497 -2.50594 -3.15355
  1257 214.377 -19.9092 12.5021
  1258 379.867 89.9362 -25.3541
  1259 208.054 -8.81509 -7.38790
  1260 150.817 -10.2907 -3.20444
  1261 186.083 -20.2784 7.75564
  1262 181.978 -8.81603 2.17344
  1263 6.45553 -0.249195 -7.51476
  1264 249.909 -15.5880 24.2855
  1265 201.973 -13.0181 -7.56826
  1266 7.13225 0.0987025 8.42187
  1267 207.946 -17.1303 -36.5101
  1268 196.878 11.2182 -80.4014
  1269 325.281 39.9326 -9.31514
  1270 263.922 -0.0731669 -0.0922826
  1271 263.422 -0.319208 0.248346
  1272 205.543 -11.7830 8.07832
  1273 77.7501 9.27042 -29.2588
  1274 234.356 -21.0934 19.7656
  1275 401.036 91.1016 40.4338
  1276 97.3746 32.6848 74.8875
  1277 2.49123 -0.109962 6.48063
  1278 2.59419 -0.0611971 -6.40962
  1279 246.912 -20.5066 -18.7522
  1280 97.0175 -5.16358 -4.86684
  1281 96.9951 -5.17632 4.76367
  1282 228.990 -15.2553 29.2649
  1283 6.39662 0.0917257 4.86943
  1284 6.31203 0.0962156 -4.86908
  1285 -1.31648 -4.86928 6.67221
  1286 -1.30791 -4.85887 -6.67273
  1287 38.0760 -1.32158 -4.18429
  1288 38.1140 -1.32965 4.15310
  1289 119.022 -7.89624 -16.7927
  1290 119.664 -3.70639 0.766211
  1291 119.662 -3.79586 -0.719921
  1292 262.796 -0.0705177 -0.0348779
  1293 231.362 -3.43780 -12.3081
  1294 17.0005 0.911638 -6.03226
  1295 17.0829 0.898729 6.03265
  1296 119.501 -8.36217 16.6393
  1297 265.555 -0.193640 0.0683952
  1298 250.372 -0.0190159 -0.274471
  1299 250.378 -0.167933 0.207392
  1300 329.144 68.1895 6.15492
  1301 243.470 -1.40338 -2.10549
  1302 215.562 -1.83700 0.383907
  1303 238.910 -3.41494 -6.55837
  1304 261.224 -0.733625 0.968458
  1305 269.748 27.2067 32.1128
  1306 313.038 64.3319 9.93462
  1307 252.882 -0.910586 -3.33871
  1308 -2.02751 -0.530391 1.82975
  1309 -2.03546 -0.529975 -1.83516
  1310 138.278 -8.49906 3.32194
  1311 138.249 -8.11033 -3.20595
  1312 272.229 30.2351 -30.6892
  1313 55.4560 19.0436 -32.0361
  1314 55.8137 18.5095 31.6701
  1315 181.167 -0.0159492 -14.2811
  1316 188.920 -2.62674 -0.0117376
  1317 188.689 -2.60140 -0.0270710
  1318 -4.64456 -0.829014 6.80837
  1319 -4.63606 -0.817004 -6.80536
  1320 208.585 -0.534650 11.3895
  1321 319.389 63.5897 0.485035
  1322 19.6768 -0.836865 -2.64146
  1323 19.7256 -0.838854 2.61731
  1324 236.098 -22.9751 11.5674
  1325 -0.0354569 3.68129 6.19570
  1326 0.0323069 3.70378 -6.15228
  1327 40.5150 -0.911936 -0.823398
  1328 40.5242 -0.896166 0.807410
  1329 181.224 -0.315306 14.4942
  1330 3.87320 0.413874 -0.389618
  1331 3.89735 0.415454 0.381598
  1332 241.222 -2.59025 4.32414
  1333 334.783 61.3986 2.55662
</Section>

newXOutput 31

<Section columns = "stress_xx | stress_yy | stress_xy">
  1 278.888 -0.631898 0.503593
  2 279.357 -0.850781 -0.654506
  3 1.12112 0.270092 -0.737380
  4 -0.184893 -0.288610 -0.178143
  5 519.565 198.391 166.826
  6 527.587 227.700 -168.690
  7 -0.182787 -0.286778 0.175413
  8 1.11344 0.268598 0.735589
  9 280.860 -0.440355 -0.461941
  10 278.648 -0.887365 -0.653542
  11 278.772 -0.675045 0.667013
  12 277.243 -0.297154 0.340080
  13 276.568 -0.829810 -0.102212
  14 275.924 -0.788223 1.20553
  15 271.553 -0.517948 1.20510
  16 272.448 -1.93299 1.74865
  17 263.408 -1.57639 3.67108
  18 257.559 -0.639288 4.40060
  19 249.586 -0.830661 4.72231
  20 235.896 -0.732319 6.52352
  21 221.110 -0.648998 7.53387
  22 202.794 0.925285 10.2642
  23 177.839 1.42458 9.26065
  24 167.922 -0.151279 13.2162
  25 137.021 1.96994 9.37328
  26 118.374 2.63281 7.32023
  27 113.527 1.18005 5.38862
  28 108.323 3.82833 0.386879
  29 111.160 4.16903 -7.20021
  30 116.918 1.15504 -9.04854
  31 139.850 0.433002 -12.1188
  32 163.111 -1.19633 -12.6533
  33 178.737 1.17801 -9.25076
  34 203.074 1.05745 -10.2728
  35 220.510 -0.776138 -8.06764
  36 237.431 -0.860717 -6.16539
  37 248.524 -0.582899 -4.79212
  38 256.760 -0.672709 -4.05462
  39 265.533 -0.898853 -2.37429
  40 269.092 -0.868964 -2.28810
  41 272.531 -0.828677 -2.00136
  42 276.056 -0.957750 -0.455952
  43 277.457 -1.24000 -0.852600
  44 275.922 0.200023 -0.115558
  45 278.458 -0.600501 -0.744462
  46 279.805 -1.34695 0.712395
  47 281.229 -0.751563 -0.0426107
  48 266.501 0.360048 -0.419811
  49 250.059 -0.757115 -0.800393
  50 231.560 -2.03372 -1.18894
  51 212.513 -1.56522 -0.870026
  52 195.991 -2.80748 -0.802789
  53 178.625 -3.09173 -0.742633
  54 161.172 -2.67037 -0.397180
  55 142.888 -2.92519 -0.528056
  56 127.466 -3.21012 -0.680527
  57 107.011 -3.11983 -0.569013
  58 85.9974 -1.91670 -0.364256
  59 68.6458 -1.21538 -0.296948
  60 47.2480 -0.766380 -0.150934
  61 31.6980 -0.796272 -1.09366
  62 17.2368 -1.16374 -0.376865
  63 2.66335 0.137967 0.636082
  64 -1.05937 1.02549 0.217090
  65 -2.05809 0.421101 0.647773
  66 -1.40503 0.192258 0.622721
  67 -4.23823 0.592810 0.228908
  68 -5.26109 0.770198 1.32449
  69 -5.51784 0.266712 0.417765
  70 -10.3528 0.563687 0.467961
  71 -12.5403 0.399574 1.25793
  72 -13.2479 0.143007 1.31096
  73 -18.4579 0.536476 0.989448
  74 -20.3278 0.794116 1.95265
  75 -22.3247 0.481997 0.638607
  76 -24.7957 0.347392 1.00840
  77 -25.6159 0.374372 0.349092
  78 -27.9215 0.883070 -0.676867
  79 -28.0644 0.605683 -0.510037
  80 -25.4518 0.465348 -0.923074
  81 -21.7907 0.593096 -1.71371
  82 -17.6213 0.252540 -2.55298
  83 -13.0692 0.134827 -2.64140
  84 -7.82314 -0.278445 -2.75838
  85 -3.36676 -0.219424 -1.59802
  86 -1.40186 -0.569905 -0.991843
  87 -0.242029 -1.41942 -0.852709
  88 -0.414145 -3.62667 -1.53565
  89 -0.468277 -7.17860 -2.71679
  90 -0.105321 -13.4827 -2.95416
  91 0.152187 -18.7274 -3.72942
  92 0.370441 -26.9706 -3.05213
  93 1.12574 -32.1018 -3.61493
  94 0.175460 -34.7896 -3.04248
  95 -0.0643278 -40.0863 -1.91306
  96 1.09732 -39.2760 -0.666461
  97 4.40392 -51.0800 1.80186
  98 3.82692 -28.7415 6.37501
  99 9.22109 -14.5531 14.4424
  100 28.0724 41.0035 46.7502
  101 122.158 149.205 136.221
  102 681.017 71.4425 101.512
  103 566.457 19.9639 36.3849
  104 538.664 8.52055 12.5652
  105 523.061 5.62579 -0.0628294
  106 532.912 8.11960 -10.2940
  107 572.000 17.0627 -30.1947
  108 673.924 56.9762 -94.7810
  109 79.0431 169.343 -112.662
  110 19.6908 28.5312 -35.9350
  111 6.78226 -19.1635 -11.8698
  112 3.46548 -31.4621 -5.40309
  113 4.38428 -53.0282 -1.32912
  114 1.05125 -40.1454 1.00422
  115 -0.128341 -40.5239 2.08978
  116 0.134432 -34.9606 3.13752
  117 1.10358 -32.1448 3.65537
  118 0.361895 -26.9587 3.06728
  119 0.145663 -18.7030 3.73514
  120 -0.108507 -13.4508 2.95273
  121 -0.468734 -7.15807 2.71133
  122 -0.415042 -3.60877 1.53044
  123 -0.241887 -1.41271 0.848052
  124 -1.39377 -0.569175 0.987976
  125 -3.35250 -0.220373 1.59390
  126 -7.80512 -0.280660 2.75607
  127 -13.0488 0.132430 2.64219
  128 -17.6107 0.249944 2.55774
  129 -21.7975 0.591296 1.72274
  130 -25.4762 0.465254 0.932670
  131 -28.1114 0.605233 0.519314
  132 -27.9868 0.883128 0.686435
  133 -25.7018 0.375402 -0.340933
  134 -24.8967 0.348652 -1.00255
  135 -22.4328 0.483401 -0.634146
  136 -20.4436 0.795754 -1.95119
  137 -18.5761 0.537982 -0.988267
  138 -13.3632 0.143923 -1.31174
  139 -12.6548 0.401138 -1.26029
  140 -10.4608 0.565906 -0.471316
  141 -5.61110 0.268205 -0.423731
  142 -5.33898 0.771653 -1.33307
  143 -4.30287 0.593157 -0.236564
  144 -1.44965 0.191949 -0.630061
  145 -2.08759 0.420321 -0.653631
  146 -1.07902 1.02409 -0.222214
  147 2.65190 0.137120 -0.639025
  148 17.2259 -1.16797 0.373716
  149 31.6873 -0.807220 1.09012
  150 47.2412 -0.785937 0.146381
  151 68.6444 -1.24374 0.294519
  152 85.9953 -1.94972 0.363768
  153 107.001 -3.14854 0.573293
  154 127.435 -3.22482 0.689688
  155 142.833 -2.90833 0.549998
  156 161.090 -2.60632 0.422749
  157 178.510 -2.93933 0.703276
  158 196.073 -2.84976 0.707639
  159 212.572 -1.83403 0.917122
  160 231.745 -1.98389 1.08646
  161 250.574 -0.611177 0.811226
  162 266.019 0.344538 0.406906
  163 152.044 -13.6509 -11.5164
  164 151.414 -13.8972 11.4904
  165 44.6572 12.4806 -17.2511
  166 45.1032 12.5288 17.1701
  167 180.377 -9.02306 45.5332
  168 189.273 -10.1764 -44.2805
  169 86.4766 -4.46350 5.20414
  170 86.4726 -4.41798 -5.29055
  171 192.948 -6.39025 1.71541
  172 188.962 -6.40878 -1.65604
  173 255.937 46.3947 -6.94257
  174 261.400 1.34049 -35.3887
  175 255.994 3.41562 37.8111
  176 59.6141 -2.19620 -11.4861
  177 59.6115 -2.17836 11.4582
  178 225.877 -22.4459 13.3863
  179 225.571 -17.3601 -18.0865
  180 2.66126 4.91316 5.99167
  181 2.75330 4.94517 -5.93746
  182 308.512 62.5479 11.6761
  183 58.2660 25.8217 -40.2942
  184 62.6240 26.0814 43.3293
  185 218.573 -9.95542 8.80171
  186 328.304 68.3139 -6.62561
  187 140.123 -4.80639 -1.20005
  188 139.887 -4.94113 1.18369
  189 224.995 -6.82282 -7.97355
  190 300.936 -3.03023 -2.04934
  191 52.6415 -1.56115 1.92689
  192 52.6312 -1.57607 -1.96002
  193 22.2097 3.03734 -7.53924
  194 22.3138 3.00617 7.55603
  195 124.864 -4.82078 -28.0683
  196 124.372 -5.09260 28.4379
  197 149.504 -9.48744 -3.51505
  198 149.806 -9.43396 3.80895
  199 36.9059 -1.29137 6.00796
  200 36.8554 -1.27298 -6.02467
  201 297.792 -6.51093 17.5016
  202 242.306 -24.1900 -6.58498
  203 230.956 -2.01905 -1.36338
  204 225.623 -2.50288 1.41198
  205 226.296 26.4673 26.4374
  206 9.29980 7.53466 -2.26340
  207 9.65263 7.51405 2.41969
  208 226.909 -9.22527 30.8102
  209 207.224 15.7263 -30.0309
  210 148.788 32.4233 -94.8749
  211 156.449 27.3543 88.0888
  212 3.07065 4.92673 -0.00610817
  213 3.15711 4.92487 0.0466711
  214 226.085 -8.16100 -31.7904
  215 396.710 55.8625 -3.58979
  216 187.975 -20.6116 15.4145
  217 189.438 -20.4867 -14.5063
  218 187.885 -13.2082 -2.14083
  219 234.540 -3.41278 4.33970
  220 111.486 -7.53945 -9.86419
  221 109.679 -7.50685 10.2059
  222 66.3815 1.44857 -17.5834
  223 66.4722 1.42135 17.4220
  224 240.134 -25.6979 -1.12876
  225 186.285 -14.0610 1.34482
  226 233.731 -3.31168 -3.48060
  227 180.864 -4.29002 0.381319
  228 182.489 -3.96992 -0.0296935
  229 229.789 -10.1566 18.1110
  230 17.9864 0.233723 -6.40068
  231 18.0657 0.224587 6.39751
  232 -3.01152 -2.05887 -7.87515
  233 -3.02651 -2.07701 7.88193
  234 32.5526 -1.46989 -3.43270
  235 32.5932 -1.47342 3.40084
  236 95.0583 -2.68471 2.28684
  237 95.0853 -2.73737 -2.30820
  238 110.568 7.52877 -41.5460
  239 110.580 6.25707 41.0646
  240 233.187 -7.12989 -15.4832
  241 107.945 -6.23771 -16.5895
  242 108.032 -6.43097 16.3317
  243 203.526 2.99190 33.8663
  244 176.441 15.2216 2.04255
  245 199.652 -19.8431 -2.00712
  246 0.759687 -5.25565 -7.38821
  247 0.692932 -5.30782 7.44658
  248 12.4113 11.7299 -13.2268
  249 13.2324 11.2689 13.9604
  250 196.262 -19.4041 0.679449
  251 356.927 64.9838 -2.12992
  252 17.6811 12.0983 -5.17201
  253 17.9005 12.0910 5.24163
  254 -7.89353 1.58921 5.52039
  255 -7.85527 1.59742 -5.49420
  256 359.081 60.5752 4.04460
  257 123.142 -5.73872 -3.54906
  258 123.043 -5.64084 3.46100
  259 244.303 -16.7354 29.0136
  260 445.081 72.2866 44.0997
  261 71.0956 -3.69453 -9.35412
  262 71.0744 -3.72056 9.34134
  263 247.743 37.0041 -25.5457
  264 428.920 81.2404 -39.7130
  265 298.247 28.9583 25.5869
  266 326.275 18.0753 -58.7092
  267 199.859 -9.18547 3.89828
  268 226.546 0.850765 -38.2512
  269 215.456 -15.0770 -10.7105
  270 240.778 -4.15691 9.88231
  271 -0.997910 2.28581 -2.05339
  272 -0.911730 2.27828 2.08176
  273 238.680 -8.79154 -57.2315
  274 24.4315 7.74724 -7.50594
  275 24.5508 7.73201 7.54920
  276 230.118 -5.54126 -19.5496
  277 32.4103 32.0505 -41.7632
  278 24.5928 -0.102547 -0.780920
  279 24.6091 -0.0964039 0.767290
  280 243.313 -15.3706 -30.2032
  281 41.7801 18.7599 -21.9467
  282 42.3913 18.6526 22.0074
  283 10.1903 -0.355898 4.49748
  284 10.1079 -0.351190 -4.50244
  285 199.582 -8.69193 -3.78481
  286 32.6289 31.6928 42.9331
  287 320.929 21.8217 69.1969
  288 84.8914 -3.27222 -3.05448
  289 84.8702 -3.24936 3.00273
  290 158.696 -6.29851 -0.871046
  291 158.616 -6.84806 1.04319
  292 135.461 12.6425 -63.8075
  293 219.657 -24.1513 -4.98467
  294 251.825 -1.32967 1.94474
  295 130.407 12.5976 61.6631
  296 151.799 -3.83313 -0.256368
  297 151.740 -3.82952 0.390908
  298 215.788 -15.7112 10.9192
  299 249.251 -2.46089 -4.76589
  300 -3.01889 0.939507 -3.38876
  301 -2.92464 0.932522 3.40144
  302 311.322 62.2411 -3.35428
  303 273.827 -13.2707 16.4949
  304 248.194 -1.04607 -0.551252
  305 252.675 -0.905285 0.499084
  306 246.527 -22.2182 19.5253
  307 304.219 30.9129 -24.0083
  308 263.979 49.2156 14.9418
  309 117.489 -7.06919 -5.98397
  310 116.392 -7.20218 6.11597
  311 251.589 -1.27725 -1.35910
  312 163.272 -12.4941 -30.8524
  313 160.432 -12.5171 4.55729
  314 152.986 -8.51158 35.3550
  315 246.964 -2.79349 5.66113
  316 53.4788 -2.45358 -5.78902
  317 53.5099 -2.47198 5.75941
  318 227.204 -8.33977 56.5741
  319 142.707 -11.1708 -7.44405
  320 264.140 33.5868 32.1702
  321 82.9692 5.86523 -26.5643
  322 79.8269 6.12773 26.3291
  323 21.5931 -0.491126 -1.42152
  324 21.6246 -0.487596 1.39978
  325 217.727 -4.10208 2.69053
  326 208.707 -2.64628 0.473788
  327 207.507 -2.92891 -0.548001
  328 228.297 -5.83981 20.6884
  329 17.2050 -0.698358 3.30941
  330 17.1371 -0.691580 -3.32730
  331 64.1355 -1.47461 -1.17824
  332 64.1350 -1.44779 1.16373
  333 2.07685 -10.9737 -4.36774
  334 1.93272 -11.0563 4.53952
  335 174.890 7.50579 22.8980
  336 276.535 -12.6055 -13.7916
  337 177.720 -9.20472 1.39445
  338 201.706 -3.74809 -1.53452
  339 208.597 26.0054 -14.1539
  340 39.2810 -1.23261 -8.47664
  341 39.3293 -1.23322 8.46649
  342 172.697 -8.66188 -0.466757
  343 47.4632 1.72623 -12.2576
  344 47.5516 1.68394 12.2138
  345 8.82444 7.83174 0.531989
  346 8.93946 7.82928 -0.483921
  347 210.810 -22.8497 20.1446
  348 472.775 31.2750 12.0886
  349 185.077 2.66613 -27.1499
  350 155.879 -13.9947 18.5139
  351 155.083 -13.7204 -19.1082
  352 230.637 -4.10135 37.9415
  353 204.066 -1.56597 26.9202
  354 208.013 -22.0960 -20.8431
  355 122.369 -2.91106 0.0294191
  356 122.351 -2.94915 0.00165853
  357 230.114 -15.0526 23.6691
  358 315.028 63.0273 2.07456
  359 248.071 -2.65640 -7.30971
  360 61.1359 -2.31643 -4.11978
  361 61.1565 -2.31808 4.07234
  362 233.150 -22.5524 -25.2571
  363 243.677 16.7400 -37.9615
  364 160.334 8.63858 -14.6693
  365 231.678 -15.5496 -26.9455
  366 -7.66088 0.220027 -6.08566
  367 -7.66951 0.210975 6.09361
  368 194.647 -4.32030 1.08198
  369 -2.77097 -1.65617 -3.57200
  370 -2.76785 -1.65682 3.56491
  371 151.065 72.5597 -115.836
  372 5.65276 4.92130 4.30188
  373 5.80203 4.96150 -4.22245
  374 202.429 -1.65474 -26.6935
  375 110.880 -4.57462 2.66135
  376 110.964 -4.63991 -2.69753
  377 -0.813270 -8.28654 6.92121
  378 -0.800629 -8.27128 -6.91364
  379 122.393 76.1943 108.928
  380 90.5324 -4.75317 -12.8371
  381 90.5996 -4.54167 12.8467
  382 28.6226 20.8341 -20.1781
  383 29.2365 20.7676 20.0526
  384 -12.0227 1.72974 2.37587
  385 -11.9706 1.73225 -2.34815
  386 234.822 15.4295 37.9155
  387 180.300 -18.8672 8.13929
  388 180.490 -16.3680 2.56895
  389 219.448 -25.0650 -1.64297
  390 53.5700 6.81011 -17.1961
  391 53.7478 6.79572 17.1652
  392 4.71741 -8.04952 -0.0592864
  393 4.45175 -8.16101 0.437913
  394 220.090 31.5572 9.36954
  395 224.202 -6.19120 6.59174
  396 126.670 -9.75680 11.6659
  397 77.6000 -1.89516 -15.4986
  398 77.6239 -1.90925 15.3710
  399 162.420 -4.64867 -0.168033
  400 162.238 -4.04072 0.0297143
  401 125.598 -10.0277 -12.4490
  402 97.8256 -1.61645 -21.2079
  403 97.8051 -1.75336 21.3812
  404 233.361 -21.5087 -17.0552
  405 134.163 -10.1995 7.05949
  406 212.452 -6.22470 4.12731
  407 212.090 -5.63965 -3.50345
  408 177.106 -16.2421 -3.21903
  409 256.846 -0.949048 -2.05131
  410 84.8137 33.8031 -64.5679
  411 240.303 -3.38106 11.9728
  412 255.931 -1.18696 2.98868
  413 88.8484 -4.68649 7.54104
  414 88.8936 -4.62121 -7.53466
  415 179.480 -18.6393 -8.45639
  416 24.7447 11.2194 8.06382
  417 24.6094 11.2127 -8.07347
  418 477.768 31.2511 -24.7773
  419 207.929 -11.6835 -6.39400
  420 258.929 -0.730642 1.18267
  421 79.9938 31.4695 61.3927
  422 380.938 64.3223 11.7702
  423 223.821 -3.13319 -2.16308
  424 166.025 -11.8923 -2.43118
  425 68.3502 13.2117 -30.0913
  426 72.8969 12.2568 29.9118
  427 205.352 -12.8570 6.48917
  428 216.857 -2.82256 -19.8826
  429 -3.36894 -0.184977 3.35619
  430 -3.46655 -0.182655 -3.35487
  431 77.5075 18.5472 -40.7028
  432 77.7523 18.6170 40.5745
  433 8.32229 4.31991 -3.24219
  434 8.41772 4.30987 3.27758
  435 184.116 -3.25714 0.508732
  436 183.895 -3.16313 -0.444389
  437 229.412 -10.3950 -18.9212
  438 -0.785366 -0.857878 8.60213
  439 -0.744549 -0.822407 -8.57133
  440 236.496 -23.4745 15.1130
  441 223.961 -5.75744 -5.86032
  442 362.195 69.4322 -9.77468
  443 11.6787 -0.636878 1.53384
  444 11.6223 -0.637023 -1.55286
  445 438.353 122.234 53.4951
  446 8.50742 1.70223 -12.0012
  447 25.3580 1.32952 -8.21553
  448 25.4432 1.30868 8.21193
  449 436.788 124.909 -51.0092
  450 9.01912 2.67694 13.2972
  451 -11.7895 1.36476 0.825615
  452 -11.7227 1.36243 -0.799618
  453 23.4418 16.0147 -11.5060
  454 23.8559 16.0169 11.5713
  455 282.209 43.8974 -26.8643
  456 227.046 -8.72659 -12.3901
  457 257.497 -0.805930 -1.06017
  458 237.047 -3.58275 -14.0019
  459 -3.00065 1.59822 7.89525
  460 -2.95919 1.62083 -7.86649
  461 229.362 -9.12342 14.3312
  462 147.829 -8.12434 -2.74514
  463 147.364 -8.21170 2.23515
  464 201.854 -22.2941 -2.22056
  465 143.350 -2.14795 -43.6040
  466 219.140 -3.38888 20.3363
  467 179.594 -5.53292 -0.452477
  468 265.274 -20.3569 -1.63391
  469 138.812 1.04144 46.8210
  470 8.44494 -0.176909 3.23908
  471 8.36180 -0.172778 -3.24791
  472 289.624 57.3261 -12.3564
  473 233.293 -1.47794 0.199774
  474 232.476 -1.70636 -0.416731
  475 174.585 -11.4759 0.445104
  476 74.3813 -2.45495 -2.25976
  477 74.3715 -2.42372 2.22744
  478 43.4777 -0.458240 -10.0528
  479 43.5254 -0.466912 10.0286
  480 143.637 5.57953 8.75153
  481 34.8062 -1.18396 4.79371
  482 34.7589 -1.17224 -4.82147
  483 38.2827 3.79060 11.3068
  484 38.1552 3.84672 -11.2995
  485 225.180 -17.4132 17.4026
  486 124.807 -7.75050 -19.8594
  487 114.694 -3.53588 1.30442
  488 114.739 -3.63036 -1.30804
  489 126.141 -7.99753 19.8499
  490 352.825 83.1918 -5.64542
  491 -5.64651 -0.869466 -4.66430
  492 -5.64391 -0.873884 4.66204
  493 86.3544 -2.31298 -0.924367
  494 86.3498 -2.27436 0.919656
  495 0.0749354 -15.3735 -5.87031
  496 0.0382155 -15.4231 5.92086
  497 205.863 -2.78918 0.914737
  498 142.680 6.86800 -4.36300
  499 194.369 20.4367 12.6731
  500 124.131 -1.24570 -34.5281
  501 59.3306 -3.03129 7.29214
  502 59.3293 -3.00529 -7.30781
  503 -16.7147 0.520605 -1.04293
  504 -16.6237 0.517542 1.05449
  505 242.871 -4.79186 -37.8121
  506 16.5881 0.134459 -1.05694
  507 16.6129 0.137640 1.04137
  508 202.187 -15.8140 -5.49519
  509 215.643 -18.3124 -10.4660
  510 43.3239 32.4502 -43.2178
  511 181.125 4.43002 -69.4525
  512 1.86213 5.29225 4.02205
  513 1.94764 5.30286 -3.97501
  514 109.208 -4.91872 -3.98439
  515 109.149 -4.87063 3.88455
  516 313.024 12.0419 -9.22592
  517 224.326 -13.1524 -15.7557
  518 42.2178 30.6183 42.5902
  519 222.299 -25.3549 5.09252
  520 213.614 -20.2856 8.37185
  521 43.0192 -1.03845 -3.13410
  522 43.0417 -1.03375 3.09895
  523 172.891 1.80849 21.0028
  524 125.623 -9.14934 -7.54850
  525 237.140 -5.08021 9.02033
  526 -0.986187 -5.75074 -4.52078
  527 -0.988635 -5.74673 4.51471
  528 165.099 -14.6861 22.3070
  529 252.609 -19.6208 -20.2469
  530 331.106 21.5770 -9.69883
  531 177.360 -5.75032 0.579873
  532 50.3464 -0.907325 -0.929182
  533 50.3519 -0.887751 0.919602
  534 111.436 0.877516 33.2152
  535 315.101 52.0000 18.8581
  536 322.872 59.7812 -110.627
  537 287.301 0.912670 19.6402
  538 205.935 -22.9221 1.10004
  539 493.034 39.1888 33.1367
  540 362.007 86.5361 8.59048
  541 48.9987 -2.02198 7.98211
  542 48.9658 -2.00110 -7.99886
  543 197.853 -16.2861 4.25898
  544 13.9556 6.99418 -2.88758
  545 14.0647 6.98915 2.92979
  546 249.478 -20.9789 20.2264
  547 201.756 10.7779 31.1112
  548 251.937 -1.52018 5.00127
  549 185.035 -10.8937 2.13266
  550 261.336 0.902204 -73.2104
  551 417.071 104.078 70.9197
  552 201.215 -3.64066 -0.831954
  553 247.129 -2.42440 -7.97110
  554 37.8075 15.8664 -16.2380
  555 38.0843 15.6736 16.1578
  556 139.778 -5.39395 -1.73091
  557 139.711 -5.25760 1.77511
  558 1.55990 -19.2746 -1.54813
  559 251.547 -9.27032 33.8995
  560 9.15425 8.39169 1.51460
  561 9.30543 8.41358 -1.44447
  562 1.83696 -18.6628 2.08176
  563 228.565 -10.4688 -27.2776
  564 263.259 16.2124 -36.6135
  565 262.242 18.4178 36.5968
  566 12.2436 9.83372 8.57968
  567 11.6122 10.0923 -8.37218
  568 -8.74466 0.254924 2.50350
  569 -8.84574 0.257417 -2.49909
  570 243.197 4.97989 75.5694
  571 131.227 -7.09838 3.81723
  572 131.363 -7.07262 -3.91151
  573 293.845 -6.45806 -37.6947
  574 35.1014 -0.478489 1.82186
  575 35.0839 -0.487278 -1.84533
  576 14.4556 -0.456937 -0.437031
  577 14.4692 -0.453904 0.431594
  578 321.463 57.6186 -15.6471
  579 30.1569 41.7793 -47.9671
  580 164.902 3.23212 -17.7685
  581 235.669 37.7614 -16.0109
  582 3.29789 -0.552477 5.56407
  583 3.44086 -0.502664 -5.46814
  584 243.486 106.553 130.581
  585 204.207 -5.39072 -2.42803
  586 6.03156 2.09348 -4.09434
  587 6.12478 2.07829 4.11542
  588 235.812 -19.0887 23.8030
  589 35.7241 40.4070 48.8423
  590 169.398 -3.25286 0.111719
  591 169.443 -3.22246 -0.112432
  592 -0.211062 -12.1608 6.03229
  593 -0.192695 -12.1406 -6.01243
  594 289.068 56.6555 -0.462668
  595 183.675 -15.0070 32.1870
  596 175.155 -7.22389 0.441788
  597 176.672 7.32590 73.3163
  598 -14.8042 0.727695 3.66329
  599 -14.7890 0.731620 -3.64899
  600 290.946 2.99094 -21.0397
  601 391.177 62.0660 -49.9827
  602 109.109 10.9127 -48.3162
  603 57.6949 -2.37590 -9.77718
  604 57.7454 -2.37575 9.77643
  605 264.385 -0.745843 1.45266
  606 173.375 -7.38753 -0.668476
  607 234.127 -2.92174 3.23863
  608 228.589 -10.4565 26.6490
  609 6.97429 -0.368364 1.58802
  610 6.90326 -0.366736 -1.60223
  611 134.237 -4.44633 -0.982433
  612 134.217 -4.31525 0.940024
  613 83.1262 1.88369 -21.8977
  614 82.5760 1.90679 21.7921
  615 333.281 17.8633 17.4805
  616 548.965 41.3612 -60.1992
  617 -6.13193 -0.323318 2.20654
  618 -6.23515 -0.322181 -2.20676
  619 77.7553 -3.21173 4.20704
  620 77.7552 -3.20841 -4.27209
  621 309.658 15.7206 13.4583
  622 261.615 -0.738109 -0.461920
  623 261.020 -1.15298 0.214676
  624 185.271 -0.133659 20.8210
  625 272.352 -16.7887 -22.4513
  626 145.956 -11.8729 9.04407
  627 -3.89309 3.25248 -3.64531
  628 -3.95709 3.24783 3.68197
  629 235.049 4.53501 39.5500
  630 91.6414 -5.19080 -10.1505
  631 91.5448 -5.27959 10.1709
  632 191.781 -10.8674 -2.84915
  633 238.314 -5.00429 -8.17521
  634 134.238 -10.6332 -14.1276
  635 220.305 26.5530 -24.0161
  636 148.915 -10.3355 -26.0546
  637 52.3608 -1.39030 -1.58547
  638 52.3665 -1.37238 1.56119
  639 135.667 -10.8320 14.1742
  640 294.513 47.0310 24.3805
  641 233.811 -11.5378 33.5567
  642 191.454 -8.24838 2.56385
  643 135.726 -3.35220 0.751291
  644 135.691 -3.36099 -0.724675
  645 101.376 -3.63028 -2.94585
  646 101.334 -3.58742 2.90892
  647 225.476 -20.7377 -14.2332
  648 112.363 -6.21283 5.18673
  649 112.490 -6.18844 -5.30861
  650 223.858 34.7098 -3.23690
  651 208.316 -10.7231 6.42208
  652 262.773 -1.09380 -2.22081
  653 220.409 -4.21249 -34.7112
  654 29.7787 -1.34833 6.39950
  655 29.7198 -1.33852 -6.40750
  656 255.833 -1.28180 -4.52277
  657 44.3098 22.7235 -30.1500
  658 45.0785 22.6619 30.2995
  659 260.572 -16.5760 31.7983
  660 88.0405 21.7242 50.8760
  661 19.8938 -0.0838605 6.41053
  662 19.8217 -0.0789075 -6.41580
  663 221.291 -14.8885 41.8263
  664 218.793 28.9248 -100.470
  665 210.298 6.41826 -34.5323
  666 278.805 50.2883 20.7985
  667 188.076 -8.06664 -1.72083
  668 339.277 61.4916 -1.49012
  669 -17.2052 0.771994 -0.560043
  670 -17.1278 0.769865 0.576652
  671 149.503 0.348917 -51.3174
  672 7.41850 -0.211743 1.24658
  673 7.37003 -0.212319 -1.26102
  674 188.240 -16.1396 -31.7921
  675 61.0081 8.49716 -21.0569
  676 60.5077 8.52389 21.0428
  677 0.359543 3.10489 -0.869291
  678 0.443612 3.10028 0.904658
  679 159.266 -13.6548 -6.47830
  680 226.324 -2.22028 -13.3759
  681 106.195 -3.11591 -1.08555
  682 106.198 -3.07752 1.09505
  683 76.1201 -3.83640 -6.40428
  684 76.1770 -3.89145 6.37654
  685 14.1598 11.6618 -3.36443
  686 14.4045 11.6847 3.44542
  687 233.827 -2.47810 1.71129
  688 101.544 -6.35097 8.36233
  689 102.220 -6.23524 -8.35235
  690 258.345 -21.2155 -4.73929
  691 212.126 -21.3184 -6.08042
  692 166.099 -4.36080 0.184724
  693 165.496 -4.03839 -0.0964418
  694 234.228 -25.1638 11.2547
  695 381.562 76.7297 18.8091
  696 205.576 -9.77983 -52.3504
  697 235.562 -6.45349 14.2208
  698 233.179 -8.90064 -35.9007
  699 70.3592 -2.11777 -2.94692
  700 70.3546 -2.10009 2.90381
  701 182.441 -3.70680 58.8808
  702 518.044 66.0290 60.6175
  703 33.8642 10.0748 -11.7692
  704 33.9128 10.1411 11.8088
  705 233.173 -1.93432 -0.878440
  706 235.065 -1.71428 0.893033
  707 97.8673 47.9708 -83.4172
  708 247.056 -1.22650 7.93004
  709 213.512 -3.30582 1.48560
  710 279.862 55.7111 -7.78318
  711 27.3011 5.09783 -8.40229
  712 27.4227 5.06509 8.43431
  713 267.098 -0.536091 0.285723
  714 214.439 -7.98268 -6.18740
  715 267.631 -4.64349 30.0449
  716 107.723 -7.47413 -13.4127
  717 107.995 -7.14476 13.2732
  718 22.4259 -0.822559 4.84648
  719 22.3606 -0.811858 -4.86214
  720 243.963 -1.36877 -1.53658
  721 209.952 39.1656 106.828
  722 1.28718 1.27874 7.32912
  723 1.36449 1.32361 -7.27611
  724 244.251 -2.38287 -3.86962
  725 236.889 -4.08221 5.49568
  726 184.344 0.0550966 -22.3315
  727 1.69605 -22.2493 -3.12976
  728 1.58063 -22.4603 3.34189
  729 84.6632 22.3617 -50.8584
  730 187.815 -19.0334 -22.5534
  731 97.0307 47.5727 84.2658
  732 263.378 -0.509627 0.904514
  733 250.778 37.4451 25.6875
  734 180.636 16.4606 -8.81375
  735 330.346 66.6432 -0.905801
  736 259.584 -0.961305 2.97618
  737 -16.7844 0.384479 1.75014
  738 -16.8844 0.386602 -1.74300
  739 275.683 -16.5768 5.42061
  740 177.057 -4.75086 0.212815
  741 62.8266 0.191037 -14.8292
  742 62.9062 0.126903 14.7352
  743 237.161 -2.48495 -2.36125
  744 420.113 59.5792 -20.9922
  745 25.3097 -0.781920 -2.97163
  746 25.3628 -0.786668 2.94655
  747 265.208 -0.589100 -1.40521
  748 49.7997 -2.23560 -4.15806
  749 49.8284 -2.24355 4.12107
  750 257.496 -10.7451 -30.8062
  751 237.578 -2.43694 10.8510
  752 211.575 -1.57113 34.2319
  753 265.863 -0.614497 -0.0660859
  754 247.300 -1.62135 2.98962
  755 159.761 -8.33718 -0.933172
  756 201.565 -4.94188 1.90018
  757 228.971 -14.1050 -22.9803
  758 223.473 -13.9477 15.2577
  759 261.234 31.2110 -32.4758
  760 220.468 -12.1938 11.4772
  761 232.568 -13.9002 29.1938
  762 133.555 -8.86331 5.28293
  763 4.65016 -2.23656 -1.06086
  764 4.39271 -2.25091 1.30417
  765 204.266 -2.68543 0.0721176
  766 203.826 -2.66300 -0.149060
  767 246.406 -0.838935 -0.183061
  768 247.283 -0.787085 0.242502
  769 233.056 -6.46466 17.2947
  770 215.266 -20.2184 29.8867
  771 175.954 -14.1186 1.63958
  772 155.877 -9.05209 2.12375
  773 428.868 55.0755 24.6227
  774 236.109 -5.81340 -11.3176
  775 137.489 23.1880 -78.3786
  776 219.104 -10.6133 -9.97685
  777 7.02998 0.208131 -4.51798
  778 7.12046 0.200115 4.52314
  779 192.955 16.9130 -19.7725
  780 504.531 15.3417 -6.63318
  781 245.907 5.93070 -38.8619
  782 9.58894 2.71267 -18.3028
  783 252.048 45.5723 6.60292
  784 197.622 -12.3419 4.06260
  785 221.382 -5.69940 33.7080
  786 186.827 -19.8571 22.6822
  787 301.952 -3.51625 46.9548
  788 10.3370 5.00839 19.6086
  789 134.331 -0.973798 39.7219
  790 188.979 -4.50791 -0.895827
  791 210.963 -19.3525 -30.2684
  792 127.994 -9.86460 -9.65936
  793 100.919 4.74994 -34.5269
  794 243.977 -4.16284 38.0970
  795 155.642 -10.4171 3.81366
  796 27.1817 -0.817492 2.69828
  797 27.1441 -0.818626 -2.72637
  798 227.034 -1.21747 11.8601
  799 204.601 0.863877 -33.1934
  800 -18.3433 0.807336 2.33197
  801 -18.3158 0.808761 -2.31648
  802 151.382 -4.44277 -0.222434
  803 150.929 -4.18102 0.175296
  804 111.983 12.2582 49.0491
  805 98.9973 -5.67958 6.19496
  806 99.1437 -5.53639 -6.26864
  807 265.138 -0.391261 -0.798267
  808 90.6754 7.13997 33.6045
  809 0.208927 -0.0838289 1.71936
  810 0.119183 -0.0818776 -1.72788
  811 224.248 -6.98729 26.1605
  812 241.792 -1.79277 1.23762
  813 -12.9109 0.132070 3.59574
  814 -12.9124 0.136124 -3.58859
  815 146.949 -9.34373 29.3970
  816 27.8141 22.7912 -25.2969
  817 28.1620 21.6811 24.8973
  818 135.666 6.06646 3.63635
  819 -4.87500 -0.125053 -1.98070
  820 -4.77228 -0.126478 1.97802
  821 169.373 -16.2000 -21.2154
  822 232.366 -24.5748 -9.23083
  823 -1.14643 -1.09046 -1.43527
  824 -1.14313 -1.08799 1.43005
  825 8.95957 0.410855 -0.390773
  826 8.97843 0.413124 0.382522
  827 206.284 -18.2762 6.29741
  828 173.105 -17.7785 14.4309
  829 192.480 -2.87910 0.729883
  830 172.627 -13.7657 -2.30961
  831 60.8877 -0.937856 -0.285747
  832 60.8900 -0.912055 0.279680
  833 -20.8509 0.439076 1.40965
  834 -20.8069 0.438472 -1.39453
  835 218.163 -2.48832 -1.16642
  836 189.885 7.33729 -28.1691
  837 220.504 -4.06805 -3.32220
  838 128.259 -9.67972 9.16943
  839 216.435 -3.87272 -27.5221
  840 232.806 -7.02822 -17.8749
  841 219.076 -2.08867 1.05306
  842 158.573 -6.32040 40.7729
  843 169.430 -16.4942 -7.71130
  844 101.132 -0.745801 -26.2385
  845 101.699 -0.0422063 26.3756
  846 143.885 -10.6148 -5.73187
  847 239.597 25.7478 33.2218
  848 228.938 -24.2276 -15.8494
  849 79.9877 -2.43757 -1.44612
  850 79.9765 -2.39810 1.42834
  851 174.158 -3.61379 -0.0924029
  852 174.163 -3.64681 0.138101
  853 206.351 -1.60884 -17.9500
  854 67.8543 -2.82676 -5.15955
  855 67.8873 -2.84861 5.10963
  856 0.810244 -22.1199 -4.49164
  857 0.765244 -22.2140 4.58032
  858 32.3258 -0.479766 -0.208246
  859 32.3149 -0.490663 0.200980
  860 216.415 -3.06473 -1.64290
  861 162.957 -15.5177 12.9799
  862 255.108 -22.3118 9.85295
  863 145.270 3.06546 13.9348
  864 221.257 -4.92076 3.78644
  865 241.169 -21.8710 -18.8760
  866 33.1167 2.23456 -9.76359
  867 33.2149 2.19793 9.75554
  868 191.481 -3.11565 -0.670446
  869 153.249 -5.04281 -0.826453
  870 152.701 -4.99415 0.962678
  871 236.372 36.8701 18.0264
  872 81.1617 -0.734804 -18.0380
  873 81.0776 -0.831171 17.9512
  874 164.486 -14.7609 5.96869
  875 15.1567 10.1074 -2.85671
  876 15.3117 10.0862 2.89960
  877 138.733 -9.90982 23.7374
  878 166.897 -10.4245 -0.937338
  879 207.621 -1.66453 18.1396
  880 205.796 -23.2852 6.50280
  881 236.098 -18.1271 -25.5791
  882 162.560 -15.6457 -13.1824
  883 134.547 -8.82361 -5.04444
  884 448.913 37.0618 -6.85049
  885 215.711 -22.9174 4.79513
  886 5.59848 6.82828 3.12730
  887 5.70952 6.84069 -3.06991
  888 187.009 -18.6812 2.62798
  889 205.520 -23.3204 -12.3542
  890 5.82745 6.05005 0.818965
  891 5.92434 6.05094 -0.775462
  892 75.6487 -2.61497 13.5336
  893 75.7020 -2.69869 -13.6223
  894 92.1444 -4.59308 14.8772
  895 92.1161 -4.70668 -14.9903
  896 296.310 59.5112 9.94702
  897 -0.457289 -9.17468 -4.40320
  898 -0.460481 -9.16447 4.40048
  899 66.6989 5.73924 -20.0099
  900 66.3600 5.62019 19.7991
  901 522.114 16.9422 -26.5225
  902 6.41691 -0.0370559 0.683034
  903 6.38188 -0.0387643 -0.694352
  904 0.840695 -25.8131 1.81120
  905 0.988019 -25.3975 -1.45987
  906 -9.82257 -0.137335 3.65649
  907 -9.83271 -0.134335 -3.65512
  908 53.2487 15.7203 -23.6498
  909 54.0789 15.2004 23.2973
  910 -4.46317 0.105170 -7.79779
  911 -4.48461 0.0883614 7.81155
  912 14.0865 1.43966 -6.25331
  913 14.1796 1.42149 6.26141
  914 57.6588 -0.579697 12.4259
  915 57.6227 -0.577112 -12.4960
  916 46.5412 -1.55209 -9.98985
  917 46.5855 -1.54859 9.97038
  918 256.769 -0.870292 -4.41770
  919 123.633 25.7179 72.7139
  920 171.151 -16.8187 7.13913
  921 120.554 -8.50008 7.25460
  922 234.112 23.9291 -32.7431
  923 513.358 11.0797 10.5328
  924 279.666 12.0380 -31.9026
  925 43.8327 -1.68374 6.17291
  926 43.7914 -1.66391 -6.19998
  927 6.11704 -0.236458 -4.55501
  928 6.20457 -0.239042 4.55358
  929 -0.292821 -4.58468 -8.53296
  930 -0.329335 -4.62036 8.56108
  931 124.628 -5.26259 3.02750
  932 124.697 -5.37266 -3.04702
  933 13.9153 4.09992 -5.40100
  934 14.0162 4.08103 5.43117
  935 74.9805 -3.26976 -11.4068
  936 75.0275 -3.26885 11.3965
  937 162.772 -0.835443 -16.4266
  938 77.2681 -4.14041 -7.76980
  939 77.2075 -4.09215 7.79625
  940 192.809 -5.01763 -1.11816
  941 233.211 -13.5238 -31.2834
  942 99.9565 -3.89041 3.35696
  943 100.009 -3.92961 -3.41096
  944 -4.18859 -0.460013 -2.54485
  945 -4.17756 -0.461112 2.53965
  946 238.512 -19.0794 -37.3335
  947 227.707 -13.2965 20.0944
  948 199.497 -13.7305 -5.05891
  949 192.452 6.43184 29.7023
  950 86.5907 -4.78164 -8.77778
  951 86.5848 -4.68576 8.80680
  952 216.114 8.06544 36.0626
  953 200.852 17.4606 23.7201
  954 418.010 50.5201 8.68009
  955 212.713 -7.30852 4.68260
  956 109.954 -3.04815 -1.49443
  957 109.937 -2.98110 1.50932
  958 189.851 -15.3868 -1.77672
  959 262.258 48.2244 -15.6353
  960 233.883 -2.18391 -1.72369
  961 151.759 -3.34760 0.481122
  962 151.698 -3.31907 -0.436504
  963 18.7125 15.5939 -10.4905
  964 19.2000 15.5591 10.5770
  965 36.7421 87.6054 -81.2822
  966 216.993 -5.23388 27.3910
  967 272.221 -5.74963 -27.0056
  968 -5.32300 2.58657 1.83076
  969 -5.25318 2.58573 -1.79641
  970 562.123 131.291 -105.478
  971 232.790 -25.5305 4.15130
  972 248.674 -23.4701 -8.36863
  973 228.967 -19.6724 18.5563
  974 282.218 55.8102 6.71998
  975 19.8556 19.6417 -23.4934
  976 51.8302 75.2231 79.3763
  977 -1.49337 -3.35563 8.46236
  978 -1.47067 -3.32946 -8.44782
  979 223.295 -5.37994 4.67221
  980 358.644 63.8000 -7.02852
  981 20.4483 19.1513 24.4868
  982 -0.995454 -3.27176 -2.82969
  983 -0.995724 -3.26305 2.82264
  984 190.950 -4.03548 0.562030
  985 141.378 -11.1267 -10.0449
  986 230.720 -18.3036 -21.7918
  987 64.2197 17.2435 -31.5977
  988 65.2594 17.5325 31.6815
  989 223.391 -5.57285 -24.5191
  990 226.220 -6.88934 8.34439
  991 -6.27667 1.43446 6.93030
  992 -6.24662 1.44926 -6.90853
  993 134.991 -8.90843 -22.2593
  994 224.622 14.1236 -36.3107
  995 167.309 -5.90154 0.103636
  996 119.155 -3.13344 0.201318
  997 119.134 -3.15712 -0.187346
  998 -2.59236 -2.93763 -5.95857
  999 -2.59616 -2.94397 5.95426
  1000 229.272 -7.92676 -10.1555
  1001 218.646 -2.03235 0.329637
  1002 218.441 -2.03454 -0.237716
  1003 301.537 48.6271 -22.7664
  1004 52.6955 4.70863 -15.6122
  1005 52.8254 4.61445 15.5721
  1006 32.6383 -0.253146 -8.23044
  1007 32.6985 -0.259928 8.21750
  1008 247.450 12.8519 39.3115
  1009 235.564 -4.13117 -5.76876
  1010 39.9410 6.47816 -12.5489
  1011 40.1006 6.42849 12.5957
  1012 246.609 -1.02090 -1.01332
  1013 228.830 -9.71644 -15.2038
  1014 223.428 -25.4847 -8.10531
  1015 8.07331 6.63530 -0.854763
  1016 7.83792 6.60371 0.961018
  1017 -11.2178 1.72496 4.22963
  1018 -11.1790 1.72954 -4.20407
  1019 130.817 5.02374 -6.08356
  1020 388.685 95.1990 -24.1118
  1021 175.745 -12.5715 -0.102072
  1022 115.261 -5.02172 -22.9601
  1023 284.463 -12.2280 4.39479
  1024 115.718 -5.02163 23.2925
  1025 202.674 -23.7678 14.6795
  1026 229.860 -9.47365 -22.4957
  1027 76.3659 -1.65696 -0.463730
  1028 76.3662 -1.62384 0.459974
  1029 156.000 -12.0036 -4.78238
  1030 94.6074 -3.46241 -17.7020
  1031 94.5643 -3.48869 17.6021
  1032 30.9255 20.1355 -19.0643
  1033 31.4262 20.0698 19.1208
  1034 63.6810 -1.97253 -1.66726
  1035 63.6796 -1.94590 1.64174
  1036 204.706 -6.11298 2.71689
  1037 172.262 0.252219 -59.6638
  1038 212.302 -6.54892 -4.62743
  1039 191.104 -21.1756 -8.35013
  1040 124.289 -4.99869 2.00681
  1041 124.397 -5.03919 -2.01576
  1042 249.985 -1.26318 1.27585
  1043 222.468 -4.93537 -4.38657
  1044 138.518 3.34549 11.4619
  1045 237.883 -2.32438 -10.0853
  1046 90.9653 26.1282 57.8373
  1047 245.402 -2.20542 -8.31147
  1048 62.5345 10.5996 -23.5766
  1049 60.6160 10.7239 22.5731
  1050 294.092 -6.03659 -5.76472
  1051 25.4038 13.4540 -9.53731
  1052 25.6431 13.3546 9.53246
  1053 4.22010 -1.04922 3.22970
  1054 4.44405 -1.00981 -3.08227
  1055 34.9143 -0.946903 2.04286
  1056 34.8889 -0.953703 -2.07232
  1057 103.733 26.4697 -64.2964
  1058 581.168 148.146 113.481
  1059 228.467 -7.92734 10.4188
  1060 204.493 -23.0725 -5.72227
  1061 141.045 -11.5714 -16.9566
  1062 -3.34639 2.99740 6.18236
  1063 -3.29238 3.01384 -6.14630
  1064 159.581 -7.90431 0.649119
  1065 176.524 -6.17511 -0.577844
  1066 -0.101980 -13.0230 4.26649
  1067 -0.0975409 -13.0346 -4.26496
  1068 25.6397 16.0219 -11.4883
  1069 25.9520 15.9888 11.5599
  1070 157.394 -7.23080 -0.602579
  1071 11.3656 5.69938 3.13705
  1072 11.2648 5.70797 -3.09748
  1073 241.791 -9.82134 36.2308
  1074 174.449 -18.1016 -14.3577
  1075 141.897 -11.7592 16.9543
  1076 229.665 -4.86427 -37.8801
  1077 244.530 -2.38719 4.19374
  1078 86.7688 13.2730 38.4369
  1079 87.3972 12.7077 -37.7829
  1080 140.992 -6.93410 -32.2491
  1081 201.174 -6.83596 -2.81363
  1082 162.608 -9.50949 1.80524
  1083 191.150 -17.7430 0.540990
  1084 264.928 -0.824837 -2.35914
  1085 140.580 -6.18259 1.94526
  1086 140.519 -6.55793 -2.02904
  1087 4.34490 5.20172 5.29359
  1088 4.46055 5.24091 -5.22771
  1089 231.231 8.26406 -39.0709
  1090 50.4694 2.69257 -13.7292
  1091 50.6033 2.63404 13.6858
  1092 37.3480 0.834257 -9.72046
  1093 37.4277 0.812625 9.69885
  1094 266.484 -11.8846 47.2625
  1095 229.630 -10.5356 22.2223
  1096 110.913 -5.03689 -19.3438
  1097 269.638 -0.972761 -1.41539
  1098 299.687 56.3758 -17.3149
  1099 244.207 -2.04374 -2.71364
  1100 227.736 -24.6901 9.05485
  1101 167.706 -12.9160 28.1087
  1102 271.715 -0.217705 0.310679
  1103 138.244 4.35100 -9.72638
  1104 192.502 -20.5747 -3.22172
  1105 111.087 -5.26983 19.1151
  1106 194.332 -17.5898 -1.66686
  1107 243.770 -3.26463 7.62434
  1108 170.836 10.8178 15.2146
  1109 119.414 -8.70507 -15.2381
  1110 370.371 50.2557 -19.0460
  1111 276.169 11.8754 33.3349
  1112 203.293 25.5707 3.75254
  1113 268.318 0.145372 1.29012
  1114 103.230 -6.35000 -11.5167
  1115 70.6159 42.8006 -64.4340
  1116 126.953 3.21225 -46.2625
  1117 145.666 -11.0283 6.89017
  1118 122.620 -9.10429 14.2022
  1119 102.968 -6.02883 11.6450
  1120 219.619 1.70078 37.8839
  1121 166.130 -5.44434 0.0858608
  1122 264.089 -1.86056 3.11968
  1123 -2.26713 -0.333261 8.50911
  1124 -2.23589 -0.307326 -8.48804
  1125 174.252 -4.60492 -0.334767
  1126 -0.471295 1.73855 7.84851
  1127 -0.415092 1.77218 -7.80901
  1128 96.0850 -2.86391 1.98634
  1129 96.0966 -2.91402 -1.98936
  1130 247.661 -1.27340 6.90295
  1131 198.364 -11.8994 -4.27925
  1132 185.585 -9.62950 -1.77959
  1133 207.930 -14.3894 7.96121
  1134 62.3877 30.6005 -47.7338
  1135 203.992 -7.38954 3.54877
  1136 28.6604 0.632120 -7.93419
  1137 28.7357 0.617130 7.92513
  1138 41.5065 26.5034 -33.2278
  1139 327.723 41.6229 12.5798
  1140 21.0203 -1.02717 4.58886
  1141 20.9509 -1.01852 -4.59854
  1142 42.2604 26.0665 32.0384
  1143 186.234 -15.4336 1.02278
  1144 92.5263 -4.19419 4.21227
  1145 92.5466 -4.21574 -4.29232
  1146 382.862 80.7692 -20.0989
  1147 205.541 -20.5759 2.61711
  1148 69.4792 39.9580 64.2807
  1149 5.76748 -2.78062 -4.68618
  1150 6.23029 -2.70506 5.23622
  1151 214.631 26.9439 19.0869
  1152 15.3361 8.60128 -3.09406
  1153 15.4648 8.60264 3.12993
  1154 206.932 -17.8992 -6.60898
  1155 -0.0994096 -20.2094 -4.03659
  1156 -0.108851 -20.2143 4.05491
  1157 221.377 -18.6576 -13.3186
  1158 -5.96381 0.281725 1.54284
  1159 -6.06656 0.283416 -1.54719
  1160 32.7734 12.3719 -12.5341
  1161 32.9524 12.4242 12.4093
  1162 -13.1760 0.0328116 -1.89071
  1163 -13.0666 0.0319531 1.89211
  1164 222.063 -2.06027 -0.467361
  1165 -22.6957 0.647873 0.490794
  1166 -22.6358 0.647460 -0.476960
  1167 115.356 -8.97268 -11.0532
  1168 3.02277 -30.6573 -2.43117
  1169 56.1510 -1.55208 3.25625
  1170 56.1365 -1.55844 -3.29790
  1171 187.779 -3.19780 0.203702
  1172 188.140 -3.10234 -0.166341
  1173 3.24419 -29.3120 3.10318
  1174 222.981 -11.4619 -12.9288
  1175 255.624 -1.09113 5.14508
  1176 226.405 -14.4443 -18.6197
  1177 195.525 1.37090 29.4745
  1178 0.959804 -8.53618 6.45126
  1179 1.05646 -8.47626 -6.35063
  1180 143.577 -10.2598 5.34977
  1181 -10.1091 0.864535 5.51416
  1182 -10.0905 0.871988 -5.49818
  1183 377.468 60.3807 3.79639
  1184 445.790 134.695 -94.8780
  1185 231.568 -22.6237 16.3625
  1186 93.5302 -2.57805 -0.239391
  1187 93.5321 -2.54299 0.239559
  1188 479.992 46.5522 -42.6759
  1189 31.5173 -0.831587 4.77032
  1190 31.4624 -0.818210 -4.79189
  1191 215.005 -0.704969 -11.7603
  1192 137.658 -11.0498 12.5434
  1193 229.092 -22.5637 -12.2694
  1194 221.603 -16.0401 -14.8125
  1195 134.197 -4.83143 33.8556
  1196 48.7827 9.20728 -17.6453
  1197 48.7513 9.12471 17.5379
  1198 64.8681 23.8800 -40.4381
  1199 64.9456 22.0761 40.4358
  1200 17.7153 5.45637 -5.69436
  1201 17.8246 5.43930 5.73133
  1202 272.608 47.1101 -22.9413
  1203 13.5670 12.2972 -4.86274
  1204 13.8945 12.3115 4.95959
  1205 196.865 -14.8912 3.88660
  1206 372.288 52.0272 21.6378
  1207 44.3926 -1.87877 -3.20683
  1208 44.4201 -1.87776 3.16982
  1209 243.831 161.985 -143.454
  1210 181.688 10.7311 -23.5234
  1211 166.053 12.8386 9.57586
  1212 22.4626 9.72807 -6.75711
  1213 22.5715 9.72672 6.79733
  1214 1.79933 -0.0361963 1.13362
  1215 1.73434 -0.0361249 -1.14467
  1216 218.370 -17.4698 12.4518
  1217 214.963 -8.34055 6.75595
  1218 146.846 40.0700 -101.736
  1219 339.343 73.8774 -1.87417
  1220 144.669 -4.54307 -37.4055
  1221 188.411 -5.44719 0.942749
  1222 6.25184 -0.950527 -0.280332
  1223 6.26087 -0.949933 0.278650
  1224 -6.02302 1.47247 -2.39642
  1225 -5.93433 1.46617 2.41661
  1226 125.470 1.22929 -39.3521
  1227 233.801 -4.88048 7.32595
  1228 150.889 2.40661 54.2406
  1229 205.298 -9.89355 -5.37909
  1230 105.218 36.6690 -79.6182
  1231 164.113 -8.25325 -40.4807
  1232 195.841 -20.9115 2.11042
  1233 240.718 -3.66681 11.2945
  1234 211.080 -4.05928 -2.09318
  1235 114.849 -8.40738 11.1233
  1236 264.971 -15.3912 -21.2878
  1237 250.019 21.3743 37.2790
  1238 107.947 0.482370 -30.8624
  1239 251.633 -1.32518 0.966120
  1240 198.030 24.7649 -5.34840
  1241 84.9461 -2.85408 -3.19807
  1242 84.9245 -2.82134 3.15735
  1243 385.859 86.4693 18.5792
  1244 532.323 14.1663 24.8545
  1245 0.450219 -24.7250 -4.02228
  1246 0.435185 -24.7545 4.05297
  1247 55.4523 28.8461 44.5245
  1248 133.736 -3.63965 -0.493923
  1249 133.765 -3.61479 0.545294
  1250 184.564 -18.5153 -3.69420
  1251 219.057 17.8022 32.8609
  1252 232.046 -4.28061 -4.83110
  1253 271.494 -0.619457 -0.196778
  1254 470.350 103.791 -64.8462
  1255 70.0773 -2.59292 3.23745
  1256 70.0757 -2.59953 -3.28772
  1257 221.597 -20.5795 12.8323
  1258 392.444 93.0984 -26.4054
  1259 215.052 -9.12880 -7.57715
  1260 155.961 -10.6545 -3.37174
  1261 192.377 -20.9611 8.09854
  1262 188.131 -9.13295 2.19216
  1263 6.69199 -0.145150 -7.82980
  1264 258.294 -16.0862 24.9791
  1265 208.780 -13.4695 -7.75304
  1266 7.39235 0.214610 8.76781
  1267 214.940 -17.6738 -37.8245
  1268 203.483 11.6617 -83.1785
  1269 336.109 41.3617 -9.45030
  1270 272.620 -0.0830656 -0.0947169
  1271 272.106 -0.337088 0.255771
  1272 212.465 -12.1936 8.28317
  1273 80.4548 9.59264 -30.3247
  1274 242.234 -21.7875 20.3213
  1275 414.356 94.1647 41.8801
  1276 100.718 33.8572 77.5048
  1277 2.59113 -0.0851928 6.66967
  1278 2.69762 -0.0346631 -6.59622
  1279 255.169 -21.1543 -19.4838
  1280 100.404 -5.35226 -5.07150
  1281 100.381 -5.36551 4.96497
  1282 236.707 -15.7600 30.1438
  1283 6.73064 0.0929072 5.06135
  1284 6.64287 0.0975493 -5.06089
  1285 -1.35721 -5.02837 6.89428
  1286 -1.34835 -5.01762 -6.89485
  1287 39.5185 -1.37134 -4.35202
  1288 39.5581 -1.37969 4.31985
  1289 123.118 -8.17090 -17.4287
  1290 123.795 -3.85086 0.809271
  1291 123.793 -3.94325 -0.761454
  1292 271.468 -0.0801222 -0.0318615
  1293 239.130 -3.56091 -12.6748
  1294 17.6807 0.938951 -6.27538
  1295 17.7662 0.925601 6.27592
  1296 123.613 -8.65248 17.2706
  1297 274.305 -0.205132 0.0724059
  1298 258.655 -0.0337869 -0.283919
  1299 258.660 -0.187727 0.214807
  1300 340.140 70.5421 6.19364
  1301 251.557 -1.46623 -2.15786
  1302 222.763 -1.92285 0.386715
  1303 246.886 -3.54192 -6.74503
  1304 269.857 -0.764751 0.992966
  1305 278.825 28.1586 33.0525
  1306 323.541 66.5330 10.1239
  1307 261.297 -0.946744 -3.43446
  1308 -2.09792 -0.548000 1.89276
  1309 -2.10616 -0.547571 -1.89838
  1310 143.014 -8.80412 3.48468
  1311 142.984 -8.40235 -3.36442
  1312 281.388 31.2893 -31.5790
  1313 57.3987 19.7158 -33.2027
  1314 57.7689 19.1637 32.8246
  1315 187.423 -0.0147388 -14.7319
  1316 195.280 -2.74206 -0.0214815
  1317 195.041 -2.71591 -0.0186637
  1318 -4.79518 -0.852493 7.03396
  1319 -4.78640 -0.840062 -7.03088
  1320 215.687 -0.553311 11.7436
  1321 330.127 65.7218 0.421817
  1322 20.5165 -0.866677 -2.74706
  1323 20.5675 -0.868735 2.72215
  1324 244.023 -23.7288 11.8487
  1325 -0.0106561 3.81879 6.37786
  1326 0.0594566 3.84212 -6.33292
  1327 42.0605 -0.947621 -0.859400
  1328 42.0706 -0.931338 0.842900
  1329 187.482 -0.323543 14.9519
  1330 4.21752 0.426705 -0.406089
  1331 4.24312 0.428333 0.397809
  1332 249.258 -2.69022 4.44186
  1333 346.019 63.4338 2.68008
</Section>

newXOutput 32

<Section columns = "stress_xx | stress_yy | stress_xy">
  1 287.744 -0.657839 0.519812
  2 288.227 -0.883184 -0.675565
  3 1.39057 0.278113 -0.759981
  4 -0.191576 -0.298571 -0.184866
  5 535.593 205.064 172.158
  6 543.861 235.327 -174.077
  7 -0.189397 -0.296676 0.182043
  8 1.38194 0.276574 0.758139
  9 289.775 -0.458890 -0.476614
  10 287.500 -0.919985 -0.675125
  11 287.633 -0.700937 0.685193
  12 286.065 -0.312488 0.346671
  13 285.376 -0.860479 -0.109651
  14 284.724 -0.817921 1.23757
  15 280.235 -0.539722 1.23453
  16 281.169 -1.99660 1.79580
  17 271.872 -1.62979 3.77508
  18 265.863 -0.664290 4.52606
  19 257.667 -0.860413 4.85839
  20 243.584 -0.758788 6.71606
  21 228.368 -0.671061 7.75874
  22 209.510 0.954200 10.5747
  23 183.809 1.46950 9.54289
  24 173.590 -0.152652 13.6215
  25 141.751 2.03673 9.66255
  26 122.531 2.71995 7.54764
  27 117.534 1.22422 5.55657
  28 112.169 3.95616 0.399517
  29 115.094 4.30622 -7.42490
  30 121.028 1.19510 -9.33040
  31 144.665 0.451698 -12.4941
  32 168.633 -1.23099 -13.0411
  33 184.734 1.21528 -9.53238
  34 209.798 1.09027 -10.5832
  35 227.750 -0.802197 -8.30885
  36 245.162 -0.890061 -6.34677
  37 256.574 -0.605005 -4.93043
  38 265.040 -0.699368 -4.16919
  39 274.060 -0.930093 -2.43990
  40 277.711 -0.901829 -2.35034
  41 281.241 -0.859622 -2.05658
  42 284.858 -0.992737 -0.465020
  43 286.293 -1.28396 -0.874553
  44 284.704 0.199907 -0.115050
  45 287.309 -0.624445 -0.765233
  46 288.690 -1.39399 0.735944
  47 290.154 -0.779032 -0.0434972
  48 274.993 0.360480 -0.433245
  49 258.063 -0.798855 -0.825321
  50 239.010 -2.12213 -1.22382
  51 219.387 -1.64269 -0.895203
  52 202.362 -2.92602 -0.825871
  53 184.462 -3.21950 -0.763471
  54 166.470 -2.78323 -0.406666
  55 147.617 -3.04461 -0.541548
  56 131.714 -3.33502 -0.698647
  57 110.617 -3.23821 -0.583429
  58 88.9418 -1.99244 -0.373480
  59 71.0432 -1.26446 -0.304097
  60 48.9697 -0.797422 -0.153114
  61 32.9292 -0.825148 -1.12679
  62 18.0127 -1.20186 -0.387384
  63 2.97973 0.142095 0.657478
  64 -0.863997 1.05727 0.226177
  65 -1.89874 0.433896 0.670834
  66 -1.23280 0.197941 0.646026
  67 -4.16629 0.611009 0.240857
  68 -5.23058 0.794173 1.37240
  69 -5.51029 0.275136 0.437378
  70 -10.5141 0.581668 0.489192
  71 -12.7840 0.411803 1.30454
  72 -13.5308 0.146832 1.36023
  73 -18.9287 0.553206 1.02939
  74 -20.8732 0.819375 2.02467
  75 -22.9558 0.497309 0.668187
  76 -25.5215 0.358610 1.04936
  77 -26.3864 0.386273 0.368271
  78 -28.7861 0.912520 -0.692104
  79 -28.9467 0.625860 -0.521094
  80 -26.2620 0.480421 -0.948084
  81 -22.4908 0.613187 -1.76512
  82 -18.1941 0.261744 -2.63387
  83 -13.4988 0.140010 -2.72672
  84 -8.08201 -0.286737 -2.84836
  85 -3.48050 -0.226166 -1.65110
  86 -1.44993 -0.588532 -1.02520
  87 -0.249836 -1.46752 -0.881779
  88 -0.427074 -3.74958 -1.58677
  89 -0.483097 -7.41656 -2.80576
  90 -0.107869 -13.9268 -3.04946
  91 0.157909 -19.3384 -3.84829
  92 0.383339 -27.8472 -3.14874
  93 1.16442 -33.1378 -3.72804
  94 0.182851 -35.8954 -3.13338
  95 -0.0652807 -41.3433 -1.96278
  96 1.13287 -40.4721 -0.668001
  97 4.54962 -52.6214 1.88556
  98 3.96157 -29.4953 6.62843
  99 9.53676 -14.7559 14.9833
  100 29.0052 42.7806 48.3674
  101 126.019 154.560 140.662
  102 702.000 73.7231 104.615
  103 584.112 20.5904 37.4974
  104 555.492 8.78745 12.9470
  105 539.437 5.79935 -0.0650383
  106 549.579 8.37362 -10.6085
  107 589.813 17.5970 -31.1138
  108 694.685 58.7786 -97.6612
  109 81.5569 175.410 -116.342
  110 20.3467 29.8972 -37.1937
  111 7.01507 -19.5209 -12.3231
  112 3.58747 -32.3064 -5.62353
  113 4.52908 -54.6342 -1.39693
  114 1.08515 -41.3700 1.01692
  115 -0.131411 -41.7951 2.14530
  116 0.140478 -36.0719 3.23152
  117 1.14152 -33.1819 3.76978
  118 0.374511 -27.8347 3.16437
  119 0.151172 -19.3131 3.85418
  120 -0.111160 -13.8938 3.04797
  121 -0.483567 -7.39531 2.80011
  122 -0.427998 -3.73106 1.58138
  123 -0.249688 -1.46058 0.876962
  124 -1.44157 -0.587775 1.02120
  125 -3.46573 -0.227146 1.64683
  126 -8.06336 -0.289026 2.84596
  127 -13.4776 0.137531 2.72753
  128 -18.1832 0.259058 2.63879
  129 -22.4978 0.611322 1.77445
  130 -26.2872 0.480321 0.958011
  131 -28.9952 0.625390 0.530695
  132 -28.8537 0.912573 0.702011
  133 -26.4753 0.387334 -0.359816
  134 -25.6260 0.359907 -1.04329
  135 -23.0677 0.498757 -0.663548
  136 -20.9931 0.821065 -2.02313
  137 -19.0512 0.554761 -1.02815
  138 -13.6503 0.147778 -1.36101
  139 -12.9027 0.413419 -1.30695
  140 -10.6262 0.583959 -0.492636
  141 -5.60716 0.276677 -0.443519
  142 -5.31163 0.795679 -1.38125
  143 -4.23368 0.611370 -0.248748
  144 -1.27954 0.197623 -0.653595
  145 -1.92989 0.433094 -0.676877
  146 -0.884984 1.05583 -0.231461
  147 2.96721 0.141221 -0.660516
  148 18.0008 -1.20623 0.384140
  149 32.9175 -0.836442 1.12314
  150 48.9622 -0.817591 0.148422
  151 71.0413 -1.29372 0.301597
  152 88.9393 -2.02648 0.372983
  153 110.606 -3.26781 0.587852
  154 131.681 -3.35014 0.708104
  155 147.560 -3.02717 0.564183
  156 166.385 -2.71709 0.433026
  157 184.343 -3.06225 0.722930
  158 202.446 -2.96971 0.727831
  159 219.449 -1.92014 0.943731
  160 239.201 -2.07071 1.11808
  161 258.594 -0.648327 0.836505
  162 274.498 0.344439 0.419996
  163 157.059 -14.1050 -11.9647
  164 156.409 -14.3595 11.9377
  165 46.1917 12.9002 -17.8871
  166 46.6528 12.9500 17.8036
  167 186.271 -9.29279 47.0965
  168 195.446 -10.4822 -45.8025
  169 89.4238 -4.62136 5.41379
  170 89.4193 -4.57432 -5.50289
  171 199.236 -6.62204 1.72859
  172 195.127 -6.64122 -1.66691
  173 264.362 47.9056 -7.14170
  174 269.895 1.41522 -36.4042
  175 264.326 3.55370 38.9106
  176 61.6747 -2.27591 -11.9164
  177 61.6723 -2.25752 11.8878
  178 233.220 -23.1713 13.7227
  179 232.909 -17.9255 -18.5819
  180 2.77495 5.09313 6.15385
  181 2.87007 5.12629 -6.09779
  182 318.547 64.5957 11.9378
  183 60.2352 26.7101 -41.7018
  184 64.7347 26.9777 44.8360
  185 225.671 -10.2948 9.02453
  186 338.940 70.5629 -6.70053
  187 144.765 -4.98512 -1.26813
  188 144.523 -5.12421 1.25133
  189 232.285 -7.06171 -8.17860
  190 310.606 -3.05289 -2.25650
  191 54.5258 -1.61873 2.00836
  192 54.5148 -1.63411 -2.04251
  193 23.0269 3.13522 -7.83438
  194 23.1346 3.10304 7.85188
  195 129.006 -4.97804 -29.0601
  196 128.498 -5.25829 29.4422
  197 154.441 -9.81482 -3.68611
  198 154.753 -9.75953 3.98958
  199 38.2556 -1.33884 6.23920
  200 38.2030 -1.31983 -6.25634
  201 307.354 -6.63785 18.1983
  202 250.161 -24.9545 -6.69033
  203 238.394 -2.10667 -1.39045
  204 232.901 -2.60769 1.43895
  205 233.774 27.3458 27.2230
  206 9.63100 7.83242 -2.39478
  207 9.99551 7.81136 2.55630
  208 234.327 -9.52124 31.7220
  209 214.104 16.2538 -30.9368
  210 153.646 33.5628 -98.0430
  211 161.556 28.3176 91.0336
  212 3.22619 5.09297 -0.0436679
  213 3.31562 5.09109 0.0856665
  214 233.482 -8.42128 -32.7340
  215 409.459 57.6378 -3.71650
  216 194.121 -21.2780 16.0002
  217 195.629 -21.1495 -15.0624
  218 194.026 -13.6538 -2.14288
  219 242.105 -3.54298 4.44605
  220 115.217 -7.79851 -10.2461
  221 113.353 -7.76493 10.5987
  222 68.6432 1.49218 -18.2256
  223 68.7373 1.46411 18.0591
  224 247.917 -26.5091 -1.27057
  225 192.376 -14.5341 1.32039
  226 241.268 -3.43941 -3.56137
  227 186.772 -4.45597 0.372221
  228 188.447 -4.12573 -0.00967395
  229 237.259 -10.4935 18.6245
  230 18.6912 0.238346 -6.64742
  231 18.7735 0.228907 6.64428
  232 -3.10234 -2.11860 -8.12547
  233 -3.11782 -2.13736 8.13245
  234 33.7856 -1.52204 -3.56781
  235 33.8280 -1.52569 3.53498
  236 98.2857 -2.78694 2.38086
  237 98.3134 -2.84125 -2.40287
  238 114.244 7.78761 -42.9821
  239 114.256 6.47369 42.4848
  240 240.758 -7.37067 -15.9225
  241 111.556 -6.45019 -17.1993
  242 111.646 -6.64985 16.9335
  243 210.272 3.09929 34.8935
  244 182.393 15.7303 2.10500
  245 206.167 -20.4943 -1.98933
  246 0.793371 -5.40116 -7.60811
  247 0.724416 -5.45510 7.66839
  248 12.8463 12.2070 -13.7350
  249 13.6948 11.7311 14.4927
  250 202.670 -20.0414 0.619521
  251 368.379 67.1979 -2.39079
  252 18.3090 12.5175 -5.40149
  253 18.5357 12.5100 5.47360
  254 -8.12727 1.64510 5.68478
  255 -8.08774 1.65361 -5.65769
  256 370.582 62.6581 4.37321
  257 127.250 -5.94369 -3.70747
  258 127.149 -5.84274 3.61670
  259 252.242 -17.2637 29.8404
  260 459.275 74.6000 45.5575
  261 73.5384 -3.82495 -9.70979
  262 73.5169 -3.85189 9.69674
  263 255.886 38.2242 -26.2880
  264 442.637 83.8554 -41.0558
  265 307.894 29.9555 26.2577
  266 336.670 18.8216 -60.7359
  267 206.369 -9.50381 3.96818
  268 233.982 0.893214 -39.3943
  269 222.466 -15.5771 -10.9800
  270 248.567 -4.30266 10.1580
  271 -0.959130 2.36089 -2.15226
  272 -0.869959 2.35312 2.18167
  273 246.387 -9.01327 -59.1768
  274 25.3048 8.00579 -7.80695
  275 25.4281 7.99013 7.85179
  276 237.621 -5.72389 -20.1229
  277 33.5136 33.2399 -43.2289
  278 25.5962 -0.107978 -0.812527
  279 25.6137 -0.101642 0.798472
  280 251.226 -15.8537 -31.0685
  281 43.2102 19.4024 -22.7435
  282 43.8418 19.2918 22.8064
  283 10.6664 -0.369357 4.66906
  284 10.5809 -0.364493 -4.67410
  285 206.082 -8.99528 -3.85331
  286 33.7402 32.8698 44.4367
  287 331.150 22.7088 71.5593
  288 87.7934 -3.39126 -3.18378
  289 87.7719 -3.36770 3.13043
  290 163.919 -6.52658 -0.938820
  291 163.836 -7.09371 1.11718
  292 139.922 13.0874 -65.9673
  293 226.801 -24.9303 -5.05118
  294 259.899 -1.38816 1.99051
  295 134.705 13.0434 63.7549
  296 156.805 -3.98235 -0.280004
  297 156.744 -3.97867 0.418718
  298 222.810 -16.2309 11.1937
  299 257.271 -2.55353 -4.89112
  300 -3.02299 0.969000 -3.52608
  301 -2.92541 0.961792 3.53926
  302 321.469 64.2478 -3.41845
  303 282.672 -13.6616 16.8984
  304 256.145 -1.09834 -0.561776
  305 260.760 -0.951041 0.508614
  306 254.500 -22.8992 20.2612
  307 314.047 31.9774 -24.6217
  308 272.645 50.8227 15.3589
  309 121.416 -7.31538 -6.23097
  310 120.284 -7.45271 6.36734
  311 259.651 -1.33474 -1.38746
  312 168.633 -12.8935 -31.9368
  313 165.713 -12.9398 4.77240
  314 158.020 -8.78017 36.5854
  315 254.922 -2.89688 5.81234
  316 55.3717 -2.54086 -6.01248
  317 55.4041 -2.55988 5.98201
  318 234.557 -8.55490 58.4960
  319 147.428 -11.5491 -7.75148
  320 272.770 34.7050 33.0928
  321 85.7599 6.06022 -27.5079
  322 82.5159 6.33174 27.2654
  323 22.4926 -0.509007 -1.47879
  324 22.5256 -0.505366 1.45638
  325 224.773 -4.25867 2.74545
  326 215.467 -2.75876 0.477127
  327 214.231 -3.05059 -0.553545
  328 235.749 -6.03201 21.2969
  329 17.9329 -0.723588 3.43891
  330 17.8624 -0.716583 -3.45732
  331 66.3888 -1.53094 -1.22591
  332 66.3886 -1.50327 1.21095
  333 2.15261 -11.2868 -4.48029
  334 2.00373 -11.3722 4.65773
  335 180.778 7.76213 23.5988
  336 285.464 -12.9660 -14.1047
  337 183.540 -9.52520 1.38459
  338 208.258 -3.89593 -1.55580
  339 215.541 26.8652 -14.5782
  340 40.6919 -1.27883 -8.79715
  341 40.7421 -1.27949 8.78680
  342 178.360 -8.96497 -0.428163
  343 49.1163 1.77797 -12.7163
  344 49.2080 1.73429 12.6713
  345 9.16087 8.10090 0.504572
  346 9.27980 8.09843 -0.454810
  347 217.669 -23.5759 20.8884
  348 487.747 32.2585 12.4745
  349 191.267 2.76358 -27.9781
  350 161.012 -14.4541 19.1942
  351 160.191 -14.1702 -19.8080
  352 238.188 -4.22253 39.0700
  353 210.817 -1.61218 27.7340
  354 214.784 -22.7981 -21.6094
  355 126.456 -3.02606 0.0429094
  356 126.438 -3.06533 -0.0108390
  357 237.603 -15.5409 24.3437
  358 325.290 65.0588 2.09727
  359 256.074 -2.75375 -7.51320
  360 63.2811 -2.40017 -4.28363
  361 63.3027 -2.40191 4.23473
  362 240.704 -23.2513 -26.1735
  363 251.659 17.3062 -39.0817
  364 165.782 8.93055 -15.1202
  365 239.222 -16.0506 -27.7220
  366 -7.90273 0.230452 -6.27836
  367 -7.91163 0.221090 6.28655
  368 200.982 -4.48655 1.08705
  369 -2.86095 -1.70948 -3.68953
  370 -2.85771 -1.71014 3.68219
  371 155.946 75.1058 -119.679
  372 5.86312 5.11216 4.40171
  373 6.01734 5.15383 -4.31960
  374 209.131 -1.70346 -27.5008
  375 114.604 -4.74086 2.78113
  376 114.690 -4.80822 -2.81844
  377 -0.836273 -8.54845 7.14108
  378 -0.823221 -8.53271 -7.13330
  379 126.377 78.8588 112.551
  380 93.5906 -4.91844 -13.3176
  381 93.6603 -4.70014 13.3276
  382 29.6088 21.5704 -20.9201
  383 30.2430 21.5022 20.7907
  384 -12.3777 1.78857 2.43505
  385 -12.3238 1.79118 -2.40637
  386 242.534 15.9507 39.0427
  387 186.206 -19.4858 8.48435
  388 186.402 -16.9113 2.72774
  389 226.584 -25.8698 -1.79161
  390 55.4069 7.03480 -17.8268
  391 55.5909 7.02006 17.7951
  392 4.88412 -8.24139 -0.0162010
  393 4.60972 -8.35673 0.407291
  394 227.395 32.5961 9.64669
  395 231.463 -6.41089 6.75686
  396 130.882 -10.0868 12.1134
  397 80.2337 -1.96454 -16.0693
  398 80.2588 -1.97913 15.9378
  399 167.758 -4.82468 -0.201999
  400 167.571 -4.19726 0.0591714
  401 129.775 -10.3663 -12.9221
  402 101.106 -1.67396 -21.9721
  403 101.085 -1.81533 22.1513
  404 240.944 -22.1994 -17.5051
  405 138.616 -10.5475 7.35011
  406 219.345 -6.44844 4.21670
  407 218.969 -5.84525 -3.57546
  408 182.912 -16.7816 -3.39820
  409 265.076 -0.994050 -2.10023
  410 87.6395 34.9702 -66.7688
  411 248.098 -3.49883 12.3175
  412 264.142 -1.23838 3.06495
  413 91.8647 -4.85154 7.83621
  414 91.9109 -4.78407 -7.82960
  415 185.360 -19.2506 -8.81150
  416 25.6184 11.5996 8.38874
  417 25.4784 11.5927 -8.39857
  418 492.888 32.2339 -25.5632
  419 214.696 -12.0794 -6.53577
  420 267.205 -0.768879 1.21081
  421 82.6659 32.5622 63.4924
  422 393.213 66.3812 12.1928
  423 231.050 -3.25788 -2.20588
  424 171.482 -12.2961 -2.57414
  425 70.6596 13.6571 -31.1546
  426 75.3557 12.6692 30.9688
  427 212.040 -13.2896 6.63072
  428 223.983 -2.91383 -20.4774
  429 -3.35356 -0.192290 3.48534
  430 -3.45471 -0.189894 -3.48390
  431 80.1094 19.1782 -42.1176
  432 80.3625 19.2503 41.9851
  433 8.66581 4.46299 -3.39024
  434 8.76455 4.45266 3.42692
  435 190.123 -3.39057 0.513993
  436 189.894 -3.29356 -0.447690
  437 236.872 -10.7391 -19.4589
  438 -0.798551 -0.870134 8.86552
  439 -0.756383 -0.833443 -8.83371
  440 244.175 -24.2247 15.4972
  441 231.212 -5.96399 -6.00434
  442 373.901 71.6678 -10.1677
  443 12.2507 -0.659112 1.59599
  444 12.1919 -0.659260 -1.61559
  445 452.340 126.259 55.3600
  446 8.80282 1.90911 -12.4614
  447 26.2937 1.36996 -8.52977
  448 26.3820 1.34843 8.52621
  449 450.754 129.033 -52.8248
  450 9.33238 2.91552 13.8002
  451 -12.1229 1.40923 0.832089
  452 -12.0538 1.40683 -0.805176
  453 24.2582 16.5745 -11.9537
  454 24.6861 16.5771 12.0213
  455 291.404 45.3532 -27.6032
  456 234.414 -9.02259 -12.7277
  457 265.731 -0.845378 -1.08426
  458 244.750 -3.70394 -14.4087
  459 -3.08003 1.66052 8.13503
  460 -3.03719 1.68392 -8.10530
  461 236.808 -9.43042 14.7291
  462 152.713 -8.40910 -2.88248
  463 152.234 -8.49921 2.35659
  464 208.439 -23.0187 -2.37991
  465 148.074 -2.20452 -45.1042
  466 226.332 -3.49825 20.9431
  467 185.465 -5.73825 -0.433675
  468 273.841 -20.9732 -1.80685
  469 143.390 1.09298 48.4272
  470 8.87949 -0.184598 3.36389
  471 8.79319 -0.180330 -3.37295
  472 299.085 59.1930 -12.6733
  473 240.797 -1.54846 0.199892
  474 239.954 -1.78436 -0.423466
  475 180.309 -11.8674 0.522019
  476 76.9550 -2.54542 -2.35294
  477 76.9452 -2.51321 2.31962
  478 45.0115 -0.479356 -10.4321
  479 45.0612 -0.488332 10.4072
  480 148.573 5.76975 9.02208
  481 36.1014 -1.22704 4.97886
  482 36.0521 -1.21493 -5.00744
  483 39.6261 3.91337 11.7350
  484 39.4942 3.97132 -11.7272
  485 232.505 -17.9816 17.8773
  486 128.953 -8.00933 -20.5804
  487 118.540 -3.66959 1.36951
  488 118.586 -3.76705 -1.37320
  489 130.330 -8.26435 20.5710
  490 364.221 85.9254 -5.97187
  491 -5.82857 -0.896138 -4.81543
  492 -5.82585 -0.900702 4.81307
  493 89.3090 -2.40156 -0.963645
  494 89.3045 -2.36173 0.958798
  495 0.0798673 -15.8535 -6.04935
  496 0.0419454 -15.9047 6.10155
  497 212.539 -2.90602 0.923889
  498 147.588 7.09819 -4.49742
  499 200.872 21.1152 13.0563
  500 128.246 -1.28154 -35.7321
  501 61.4033 -3.13836 7.57176
  502 61.4015 -3.11147 -7.58783
  503 -17.1820 0.536394 -1.09143
  504 -17.0879 0.533233 1.10342
  505 250.790 -4.92872 -38.9219
  506 17.3353 0.137342 -1.09827
  507 17.3615 0.140621 1.08222
  508 208.779 -16.3396 -5.59770
  509 222.661 -18.9133 -10.7202
  510 44.7949 33.5979 -44.7293
  511 187.029 4.61832 -71.7884
  512 1.96026 5.47621 4.11943
  513 2.04866 5.48723 -4.07077
  514 112.877 -5.09522 -4.15269
  515 112.816 -5.04565 4.04970
  516 323.087 12.5163 -9.36207
  517 231.619 -13.5881 -16.1882
  518 43.6529 31.7070 44.0813
  519 229.523 -26.1648 5.35430
  520 220.569 -20.9478 8.55566
  521 44.5941 -1.07728 -3.25621
  522 44.6177 -1.07243 3.21998
  523 178.712 1.87419 21.6450
  524 129.805 -9.46248 -7.85342
  525 244.807 -5.25994 9.26436
  526 -1.01676 -5.93747 -4.66800
  527 -1.01929 -5.93330 4.66170
  528 170.522 -15.1620 23.1136
  529 260.797 -20.2330 -20.7844
  530 341.712 22.3909 -10.1784
  531 183.163 -5.96225 0.562320
  532 52.1650 -0.942783 -0.964331
  533 52.1711 -0.922595 0.954454
  534 115.144 0.910729 34.3769
  535 325.291 53.7462 19.3034
  536 333.108 61.9691 -114.297
  537 296.579 0.998071 20.1313
  538 212.647 -23.6658 1.22438
  539 508.610 40.4280 34.1936
  540 373.656 89.4104 9.03803
  541 50.7310 -2.09530 8.28658
  542 50.6967 -2.07371 -8.30375
  543 204.310 -16.8269 4.32076
  544 14.4735 7.22962 -3.03020
  545 14.5863 7.22449 3.07392
  546 257.567 -21.6389 20.7655
  547 208.463 11.1443 32.0542
  548 260.054 -1.57741 5.13836
  549 191.086 -11.2669 2.14076
  550 269.732 1.03282 -75.6733
  551 430.276 107.654 73.3973
  552 207.749 -3.78543 -0.837722
  553 255.117 -2.51086 -8.19670
  554 39.1112 16.4054 -16.8418
  555 39.3974 16.2063 16.7591
  556 144.410 -5.59114 -1.82253
  557 144.341 -5.45046 1.86827
  558 1.61781 -19.8034 -1.63677
  559 259.725 -9.54847 34.8759
  560 9.49130 8.68932 1.51722
  561 9.64754 8.71207 -1.44467
  562 1.90428 -19.1714 2.18802
  563 236.024 -10.8075 -28.0771
  564 271.833 16.7705 -37.6693
  565 270.789 19.0490 37.6539
  566 12.6726 10.2253 8.92723
  567 12.0203 10.4921 -8.71286
  568 -8.91977 0.262138 2.60216
  569 -9.02445 0.264711 -2.59756
  570 251.030 5.23306 78.1050
  571 135.589 -7.34781 3.99043
  572 135.730 -7.32119 -4.08742
  573 303.267 -6.57067 -39.0325
  574 36.4336 -0.497697 1.89259
  575 36.4151 -0.506758 -1.91678
  576 15.1421 -0.472286 -0.453429
  577 15.1567 -0.469155 0.447821
  578 331.852 59.5490 -15.9845
  579 31.1715 43.3892 -49.6281
  580 170.483 3.34670 -18.3136
  581 243.453 38.9999 -16.4796
  582 3.42165 -0.535222 5.71159
  583 3.56936 -0.483645 -5.61247
  584 251.176 110.301 134.876
  585 210.841 -5.58987 -2.46824
  586 6.31468 2.16071 -4.26533
  587 6.41118 2.14504 4.28723
  588 243.479 -19.7004 24.4699
  589 36.9218 41.9694 50.5338
  590 174.950 -3.38545 0.122704
  591 174.996 -3.35406 -0.123439
  592 -0.215297 -12.5455 6.22115
  593 -0.196331 -12.5247 -6.20067
  594 298.528 58.4869 -0.477819
  595 189.678 -15.4805 33.3166
  596 180.892 -7.48215 0.410720
  597 182.431 7.61684 75.7791
  598 -15.2725 0.753105 3.77492
  599 -15.2568 0.757169 -3.76014
  600 300.336 3.14741 -21.5707
  601 403.562 64.2870 -51.7776
  602 112.733 11.2900 -49.9751
  603 59.7004 -2.46158 -10.1468
  604 59.7529 -2.46147 10.1462
  605 272.840 -0.778163 1.48820
  606 179.057 -7.65102 -0.644131
  607 241.673 -3.03704 3.31470
  608 236.048 -10.7957 27.4290
  609 7.38744 -0.381182 1.65105
  610 7.31356 -0.379502 -1.66569
  611 138.695 -4.61265 -1.03652
  612 138.674 -4.47742 0.992758
  613 85.9285 1.94309 -22.6851
  614 85.3608 1.96700 22.5763
  615 343.945 18.5697 18.2102
  616 566.181 42.6591 -62.0769
  617 -6.19433 -0.334537 2.29221
  618 -6.30131 -0.333366 -2.29238
  619 80.4289 -3.32705 4.37767
  620 80.4284 -3.32358 -4.44474
  621 319.629 16.3109 13.7309
  622 269.964 -0.775178 -0.473179
  623 269.352 -1.20286 0.218461
  624 191.462 -0.133354 21.4559
  625 281.123 -17.2726 -23.2913
  626 150.780 -12.2725 9.40702
  627 -3.98233 3.36377 -3.73798
  628 -4.04849 3.35894 3.77591
  629 242.750 4.70063 40.7251
  630 94.7396 -5.37166 -10.5390
  631 94.6403 -5.46338 10.5600
  632 198.042 -11.2395 -2.88030
  633 246.014 -5.18055 -8.39539
  634 138.688 -10.9898 -14.6589
  635 227.600 27.4322 -24.7313
  636 153.824 -10.6718 -26.9812
  637 54.2398 -1.44147 -1.64989
  638 54.2462 -1.42299 1.62485
  639 140.163 -11.1947 14.7081
  640 304.083 48.5950 25.0287
  641 241.441 -11.9037 34.5410
  642 197.699 -8.53869 2.59661
  643 140.231 -3.48384 0.783367
  644 140.195 -3.49287 -0.755911
  645 104.801 -3.76447 -3.06891
  646 104.758 -3.72026 3.03084
  647 232.808 -21.4091 -14.5985
  648 116.130 -6.43168 5.40111
  649 116.261 -6.40641 -5.52678
  650 231.283 35.8492 -3.33217
  651 215.094 -11.0885 6.56722
  652 271.188 -1.13726 -2.27781
  653 227.649 -4.34098 -35.7508
  654 30.8897 -1.39667 6.64425
  655 30.8284 -1.38653 -6.65239
  656 264.059 -1.33177 -4.64725
  657 45.8194 23.5071 -31.2216
  658 46.6137 23.4437 31.3764
  659 268.975 -17.0552 32.9328
  660 90.9808 22.4658 52.6234
  661 20.6730 -0.0899917 6.65509
  662 20.5982 -0.0848683 -6.66042
  663 228.467 -15.3337 43.2733
  664 225.843 29.9904 -103.808
  665 217.256 6.64220 -35.5744
  666 287.914 51.9405 21.3676
  667 194.216 -8.35133 -1.72641
  668 350.289 63.4575 -1.53804
  669 -17.7045 0.797319 -0.593775
  670 -17.6244 0.795127 0.610983
  671 154.417 0.381397 -53.0684
  672 7.86429 -0.219415 1.29456
  673 7.81364 -0.220009 -1.30945
  674 194.387 -16.6490 -32.9096
  675 63.0852 8.77897 -21.8181
  676 62.5688 8.80681 21.8038
  677 0.433508 3.20862 -0.931602
  678 0.520475 3.20389 0.968233
  679 164.510 -14.1118 -6.75980
  680 233.727 -2.29352 -13.7730
  681 109.775 -3.23383 -1.12920
  682 109.777 -3.19426 1.13901
  683 78.7332 -3.97216 -6.65616
  684 78.7922 -4.02905 6.62762
  685 14.6631 12.0755 -3.53307
  686 14.9160 12.0993 3.61689
  687 241.357 -2.57986 1.74510
  688 104.962 -6.57163 8.68899
  689 105.659 -6.45218 -8.67878
  690 266.699 -21.8690 -4.77591
  691 219.035 -22.0135 -6.18927
  692 171.550 -4.52819 0.168128
  693 170.929 -4.19553 -0.0773657
  694 241.822 -25.9551 11.7201
  695 393.846 79.2160 19.5096
  696 212.257 -10.0581 -54.1347
  697 243.204 -6.67133 14.6245
  698 240.796 -9.17872 -36.9607
  699 72.8030 -2.19655 -3.06723
  700 72.7986 -2.17833 3.02278
  701 188.391 -3.79047 60.8770
  702 534.378 68.1379 62.5504
  703 35.0455 10.4127 -12.2186
  704 35.0960 10.4813 12.2597
  705 240.675 -2.01952 -0.894855
  706 242.625 -1.79153 0.909940
  707 101.096 49.6516 -86.2319
  708 255.047 -1.27366 8.15687
  709 220.425 -3.43805 1.50768
  710 289.030 57.5188 -7.98945
  711 28.2777 5.26516 -8.73121
  712 28.4035 5.23138 8.76445
  713 275.613 -0.561865 0.290474
  714 221.401 -8.26157 -6.33350
  715 276.304 -4.75915 30.8844
  716 111.330 -7.72880 -13.9159
  717 111.610 -7.38878 13.7720
  718 23.3142 -0.852048 5.03167
  719 23.2464 -0.840991 -5.04776
  720 251.795 -1.43236 -1.57053
  721 216.718 40.5609 110.365
  722 1.34621 1.34375 7.54090
  723 1.42608 1.39019 -7.48612
  724 252.111 -2.47668 -3.96663
  725 244.534 -4.23226 5.63540
  726 190.507 0.0623438 -23.0125
  727 1.75655 -22.9239 -3.20858
  728 1.63733 -23.1418 3.42769
  729 87.4928 23.1270 -52.6065
  730 193.952 -19.6440 -23.3708
  731 100.240 49.2371 87.1055
  732 271.792 -0.536346 0.924619
  733 259.015 38.6794 26.4319
  734 186.716 17.0093 -9.08118
  735 341.069 68.8012 -0.849101
  736 267.912 -1.00125 3.05467
  737 -17.2394 0.396554 1.82048
  738 -17.3429 0.398743 -1.81305
  739 284.568 -17.0593 5.71884
  740 182.849 -4.93107 0.191530
  741 64.9785 0.191516 -15.3771
  742 65.0610 0.125278 15.2803
  743 244.795 -2.58524 -2.41303
  744 433.556 61.4779 -21.7013
  745 26.3060 -0.810436 -3.09015
  746 26.3613 -0.815346 3.06433
  747 273.681 -0.617160 -1.44029
  748 51.5806 -2.31510 -4.32302
  749 51.6106 -2.32333 4.28491
  750 265.851 -11.0668 -31.6785
  751 245.305 -2.51993 11.1681
  752 218.557 -1.61288 35.2631
  753 274.340 -0.643637 -0.0638512
  754 255.247 -1.69109 3.06239
  755 165.019 -8.62925 -1.01593
  756 208.115 -5.12728 1.92661
  757 236.425 -14.5648 -23.6367
  758 230.739 -14.4086 15.6727
  759 269.772 32.2518 -33.4109
  760 227.632 -12.6022 11.7777
  761 240.148 -14.3469 30.0412
  762 137.990 -9.16923 5.51080
  763 4.81636 -2.25124 -1.05132
  764 4.55042 -2.26622 1.30269
  765 210.890 -2.79983 0.0693428
  766 210.436 -2.77672 -0.148700
  767 254.302 -0.884828 -0.186110
  768 255.206 -0.831500 0.247340
  769 240.637 -6.68043 17.7946
  770 222.260 -20.8493 30.9469
  771 181.723 -14.5923 1.76293
  772 161.014 -9.36702 2.24524
  773 442.570 56.8258 25.4383
  774 243.756 -6.01393 -11.6316
  775 142.003 23.9961 -81.0124
  776 226.221 -10.9727 -10.2345
  777 7.36823 0.212820 -4.69695
  778 7.46195 0.204543 4.70239
  779 199.408 17.4779 -20.3714
  780 520.401 15.8220 -6.83817
  781 253.939 6.14594 -40.0052
  782 9.91926 3.01156 -18.9732
  783 260.351 47.0582 6.79219
  784 204.067 -12.7599 4.12894
  785 228.646 -5.87791 34.7156
  786 192.934 -20.4938 23.5041
  787 311.620 -3.51764 48.5853
  788 10.6929 5.38184 20.3227
  789 138.769 -0.995820 41.0955
  790 195.139 -4.68057 -0.896618
  791 217.823 -19.9568 -31.3411
  792 132.249 -10.1994 -10.0385
  793 104.286 4.91241 -35.7331
  794 251.933 -4.27922 39.2166
  795 160.772 -10.7737 3.99924
  796 28.2512 -0.847014 2.80263
  797 28.2118 -0.848177 -2.83158
  798 234.460 -1.25927 12.2114
  799 211.376 0.901211 -34.1982
  800 -18.9195 0.834477 2.39925
  801 -18.8912 0.835956 -2.38324
  802 156.376 -4.61113 -0.255037
  803 155.908 -4.34101 0.206260
  804 115.698 12.6800 50.7311
  805 102.339 -5.87879 6.44386
  806 102.490 -5.73092 -6.51987
  807 273.602 -0.412860 -0.816116
  808 93.7120 7.38162 34.7813
  809 0.391372 -0.0868212 1.78581
  810 0.298188 -0.0848080 -1.79458
  811 231.586 -7.21320 26.9364
  812 249.557 -1.86953 1.26352
  813 -13.3264 0.137864 3.70897
  814 -13.3280 0.142056 -3.70159
  815 151.794 -9.64505 30.4331
  816 28.7713 23.6111 -26.2129
  817 29.1308 22.4651 25.8002
  818 140.358 6.27138 3.74868
  819 -4.87980 -0.130619 -2.05665
  820 -4.77328 -0.132092 2.05391
  821 174.930 -16.7250 -21.9865
  822 239.911 -25.3610 -9.42766
  823 -1.18442 -1.12649 -1.48333
  824 -1.18101 -1.12393 1.47792
  825 9.47013 0.423037 -0.406969
  826 9.49025 0.425375 0.398462
  827 213.007 -18.8777 6.41986
  828 178.784 -18.3585 14.9812
  829 198.745 -3.00005 0.736579
  830 178.292 -14.2282 -2.45355
  831 63.0394 -0.976761 -0.299252
  832 63.0422 -0.950154 0.293000
  833 -21.4980 0.452993 1.44628
  834 -21.4525 0.452372 -1.43063
  835 225.212 -2.59402 -1.18761
  836 196.228 7.58937 -29.0271
  837 227.636 -4.22268 -3.39556
  838 132.524 -10.0091 9.53183
  839 223.549 -3.99590 -28.3471
  840 240.377 -7.26237 -18.3913
  841 226.153 -2.18153 1.07174
  842 163.781 -6.51193 42.1806
  843 174.993 -17.0398 -8.03812
  844 104.514 -0.771351 -27.1699
  845 105.099 -0.0443016 27.3119
  846 148.645 -10.9770 -5.97881
  847 247.472 26.6064 34.2011
  848 236.365 -24.9899 -16.4610
  849 82.7403 -2.52860 -1.50776
  850 82.7290 -2.48789 1.48944
  851 179.858 -3.75808 -0.0799872
  852 179.863 -3.79215 0.126942
  853 213.170 -1.65914 -18.4909
  854 70.2092 -2.92822 -5.36330
  855 70.2437 -2.95081 5.31186
  856 0.839014 -22.8118 -4.62466
  857 0.792533 -22.9089 4.71624
  858 33.5761 -0.498581 -0.211101
  859 33.5643 -0.509820 0.203612
  860 223.415 -3.18875 -1.67231
  861 168.316 -16.0291 13.4795
  862 263.364 -23.0064 10.0548
  863 150.251 3.16913 14.3646
  864 228.416 -5.10195 3.87149
  865 248.999 -22.5660 -19.3777
  866 34.2985 2.30497 -10.1351
  867 34.4002 2.26714 10.1270
  868 197.715 -3.24427 -0.676422
  869 158.302 -5.23041 -0.885440
  870 157.737 -5.18026 1.02618
  871 244.176 38.0819 18.5548
  872 83.9058 -0.764523 -18.6956
  873 83.8194 -0.864036 18.6062
  874 169.894 -15.2534 6.23489
  875 15.7039 10.4549 -3.00398
  876 15.8641 10.4330 3.04843
  877 143.320 -10.2353 24.5875
  878 172.380 -10.7826 -1.02727
  879 214.477 -1.71664 18.6862
  880 212.502 -24.0364 6.80380
  881 243.776 -18.7073 -26.3028
  882 167.905 -16.1613 -13.6883
  883 139.013 -9.12837 -5.26359
  884 463.196 38.2292 -7.07338
  885 222.732 -23.6596 4.85821
  886 5.81904 7.06747 3.18937
  887 5.93381 7.08037 -3.13000
  888 193.126 -19.2960 2.79321
  889 212.216 -24.0685 -12.8452
  890 6.06742 6.25601 0.805089
  891 6.16762 6.25698 -0.760053
  892 78.2254 -2.70894 14.0367
  893 78.2800 -2.79534 -14.1281
  894 95.2499 -4.75216 15.4283
  895 95.2203 -4.86939 -15.5449
  896 305.983 61.4478 10.1893
  897 -0.470972 -9.47352 -4.54536
  898 -0.474266 -9.46293 4.54253
  899 68.9658 5.92749 -20.7347
  900 68.6162 5.80467 20.5172
  901 538.506 17.4722 -27.3456
  902 6.83954 -0.0392823 0.710416
  903 6.80275 -0.0410439 -0.722086
  904 0.871524 -26.5846 1.84282
  905 1.02378 -26.1554 -1.47995
  906 -10.1424 -0.140794 3.77409
  907 -10.1529 -0.137692 -3.77269
  908 55.0626 16.2512 -24.5008
  909 55.9207 15.7136 24.1369
  910 -4.59726 0.115246 -8.04248
  911 -4.61940 0.0978599 8.05669
  912 14.6464 1.48438 -6.49827
  913 14.7428 1.46562 6.50677
  914 59.6493 -0.605258 12.8904
  915 59.6117 -0.602563 -12.9626
  916 48.1816 -1.60955 -10.3654
  917 48.2277 -1.60596 10.3455
  918 265.040 -0.903950 -4.54158
  919 127.710 26.6084 75.1678
  920 176.769 -17.3747 7.44785
  921 124.576 -8.79203 7.54929
  922 241.818 24.7268 -33.7134
  923 529.480 11.4227 10.8627
  924 288.728 12.4729 -32.7903
  925 45.4124 -1.74448 6.40900
  926 45.3695 -1.72398 -6.43686
  927 6.44797 -0.245966 -4.72857
  928 6.53871 -0.248635 4.72719
  929 -0.294074 -4.71835 -8.79729
  930 -0.331792 -4.75523 8.82632
  931 128.784 -5.45289 3.16299
  932 128.855 -5.56645 -3.18307
  933 14.4519 4.23438 -5.62272
  934 14.5564 4.21490 5.65403
  935 77.5412 -3.38594 -11.8357
  936 77.5901 -3.38507 11.8252
  937 168.285 -0.856237 -16.9314
  938 79.9135 -4.28599 -8.07090
  939 79.8513 -4.23627 8.09832
  940 199.090 -5.20608 -1.11944
  941 240.814 -13.9554 -32.1967
  942 103.335 -4.03213 3.49922
  943 103.389 -4.07255 -3.55492
  944 -4.32734 -0.474552 -2.62885
  945 -4.31591 -0.475687 2.62346
  946 246.227 -19.6531 -38.6388
  947 235.114 -13.7330 20.6613
  948 206.003 -14.1915 -5.15272
  949 198.871 6.65465 30.6056
  950 89.5318 -4.94927 -9.11611
  951 89.5261 -4.85033 9.14614
  952 223.250 8.34361 37.1486
  953 207.545 18.0448 24.4362
  954 431.391 52.1201 8.96570
  955 219.618 -7.56628 4.78457
  956 113.651 -3.16504 -1.55875
  957 113.634 -3.09590 1.57412
  958 196.057 -15.9001 -1.76098
  959 270.869 49.8001 -16.0738
  960 241.414 -2.27606 -1.75852
  961 156.764 -3.48161 0.502556
  962 156.701 -3.45213 -0.456542
  963 19.3663 16.1525 -10.9051
  964 19.8700 16.1169 10.9946
  965 37.9404 90.8386 -84.0168
  966 224.123 -5.40005 28.2110
  967 281.034 -5.89424 -27.7431
  968 -5.44811 2.67303 1.86372
  969 -5.37590 2.67219 -1.82817
  970 579.727 135.539 -108.850
  971 240.345 -26.3449 4.18358
  972 256.719 -24.1989 -8.74794
  973 236.412 -20.3089 19.0605
  974 291.462 57.6209 6.89298
  975 20.5407 20.3953 -24.3495
  976 53.5390 78.0348 82.0731
  977 -1.53406 -3.45391 8.72867
  978 -1.51061 -3.42686 -8.71368
  979 230.522 -5.57483 4.78113
  980 370.244 65.8415 -7.29667
  981 21.1531 19.8891 25.3752
  982 -1.02717 -3.38021 -2.92310
  983 -1.02744 -3.37119 2.91580
  984 197.170 -4.19310 0.556516
  985 146.056 -11.5012 -10.4412
  986 238.225 -18.8950 -22.4002
  987 66.3901 17.8282 -32.7128
  988 67.4643 18.1268 32.7995
  989 230.704 -5.75379 -25.2472
  990 233.550 -7.12975 8.56120
  991 -6.46417 1.48754 7.14298
  992 -6.43312 1.50286 -7.12050
  993 139.460 -9.20237 -23.0605
  994 232.025 14.6017 -37.3964
  995 172.800 -6.11803 0.140995
  996 123.142 -3.25497 0.213985
  997 123.119 -3.27937 -0.199566
  998 -2.67386 -3.03033 -6.15167
  999 -2.67778 -3.03687 6.14719
  1000 236.702 -8.19854 -10.4274
  1001 225.707 -2.12376 0.334648
  1002 225.495 -2.12606 -0.239937
  1003 311.320 50.2464 -23.3536
  1004 54.5083 4.86184 -16.1881
  1005 54.6429 4.76460 16.1469
  1006 33.8251 -0.266131 -8.54314
  1007 33.8876 -0.273149 8.52992
  1008 255.538 13.2942 40.4681
  1009 243.170 -4.28297 -5.91552
  1010 41.3306 6.69225 -13.0221
  1011 41.4957 6.64101 13.0707
  1012 254.516 -1.07233 -1.03455
  1013 236.261 -10.0422 -15.6274
  1014 230.686 -26.2961 -8.46465
  1015 8.36420 6.89402 -0.832288
  1016 8.12101 6.86118 0.942118
  1017 -11.5569 1.78410 4.35203
  1018 -11.5168 1.78885 -4.32559
  1019 135.359 5.19127 -6.27145
  1020 401.172 98.3355 -25.0417
  1021 181.506 -12.9976 -0.169972
  1022 119.099 -5.18970 -23.7833
  1023 293.628 -12.5700 4.40555
  1024 119.571 -5.18931 24.1268
  1025 209.281 -24.5306 15.2450
  1026 237.346 -9.78443 -23.1483
  1027 79.0061 -1.72230 -0.483419
  1028 79.0067 -1.68814 0.479552
  1029 161.141 -12.4100 -5.00306
  1030 97.7878 -3.58299 -18.3484
  1031 97.7437 -3.61019 18.2456
  1032 31.9918 20.8366 -19.7673
  1033 32.5092 20.7691 19.8259
  1034 65.9176 -2.04538 -1.73675
  1035 65.9165 -2.01791 1.71044
  1036 211.357 -6.33489 2.76333
  1037 177.892 0.290667 -61.6827
  1038 219.193 -6.78286 -4.72986
  1039 197.349 -21.8648 -8.70563
  1040 128.435 -5.18058 2.10154
  1041 128.546 -5.22235 -2.11072
  1042 257.998 -1.32058 1.30269
  1043 229.667 -5.11684 -4.48838
  1044 143.294 3.46219 11.8167
  1045 245.621 -2.40170 -10.3805
  1046 93.9959 27.0268 59.8148
  1047 253.352 -2.28101 -8.55169
  1048 64.6568 10.9544 -24.4231
  1049 62.6764 11.0826 23.3865
  1050 303.560 -6.16579 -5.80875
  1051 26.2946 13.9132 -9.91447
  1052 26.5420 13.8106 9.90965
  1053 4.37484 -1.03724 3.29457
  1054 4.60619 -0.996396 -3.14225
  1055 36.2348 -0.981880 2.12554
  1056 36.2081 -0.988888 -2.15590
  1057 107.174 27.3785 -66.4816
  1058 599.303 152.981 117.112
  1059 235.874 -8.19883 10.6975
  1060 211.159 -23.8182 -5.99701
  1061 145.708 -11.9553 -17.5833
  1062 -3.42875 3.10417 6.36142
  1063 -3.37293 3.12120 -6.32415
  1064 164.833 -8.18322 0.717716
  1065 182.302 -6.40045 -0.557154
  1066 -0.104373 -13.4459 4.40299
  1067 -0.0997908 -13.4579 -4.40144
  1068 26.5337 16.5734 -11.9333
  1069 26.8565 16.5393 12.0075
  1070 162.578 -7.48823 -0.668420
  1071 11.8041 5.88985 3.28496
  1072 11.6998 5.89868 -3.24396
  1073 249.668 -10.1255 37.2913
  1074 180.169 -18.6924 -14.9052
  1075 146.588 -12.1492 17.5811
  1076 237.187 -5.00867 -39.0057
  1077 252.400 -2.48136 4.29990
  1078 89.6746 13.7225 39.7742
  1079 90.3236 13.1378 -39.0983
  1080 145.646 -7.15644 -33.3776
  1081 207.719 -7.08095 -2.85898
  1082 167.957 -9.83829 1.92170
  1083 197.397 -18.3294 0.480510
  1084 273.416 -0.858212 -2.42079
  1085 145.237 -6.40463 2.05181
  1086 145.173 -6.79211 -2.13806
  1087 4.51348 5.39614 5.42917
  1088 4.63297 5.43674 -5.36106
  1089 238.822 8.55083 -40.2367
  1090 52.2148 2.77717 -14.2395
  1091 52.3534 2.71674 14.1949
  1092 38.6750 0.856704 -10.0899
  1093 38.7576 0.834356 10.0677
  1094 275.064 -12.1889 48.8955
  1095 237.106 -10.8812 22.8636
  1096 114.616 -5.20815 -20.0462
  1097 278.248 -1.00950 -1.45201
  1098 309.442 58.2280 -17.7538
  1099 252.059 -2.12715 -2.77779
  1100 235.136 -25.4835 9.24880
  1101 173.209 -13.3291 29.1044
  1102 280.371 -0.231856 0.315844
  1103 143.011 4.49809 -10.0270
  1104 198.792 -21.2475 -3.40992
  1105 114.795 -5.44875 19.8104
  1106 200.680 -18.1712 -1.64252
  1107 251.642 -3.38319 7.83284
  1108 176.609 11.1819 15.6805
  1109 123.393 -8.99927 -15.8036
  1110 382.172 52.0367 -19.8551
  1111 285.126 12.3011 34.2728
  1112 210.078 26.4167 3.86596
  1113 276.897 0.143336 1.32117
  1114 106.697 -6.56902 -11.9544
  1115 72.9765 44.2883 -66.6363
  1116 131.151 3.33234 -47.8510
  1117 150.482 -11.4029 7.17825
  1118 126.701 -9.41159 14.7347
  1119 106.426 -6.23742 12.0870
  1120 226.849 1.76950 39.0223
  1121 171.584 -5.64606 0.0550823
  1122 272.560 -1.92626 3.20477
  1123 -2.32872 -0.333145 8.77326
  1124 -2.29645 -0.306318 -8.75150
  1125 179.957 -4.78059 -0.317705
  1126 -0.467345 1.81127 8.08194
  1127 -0.409270 1.84607 -8.04111
  1128 99.3460 -2.97209 2.06398
  1129 99.3577 -3.02377 -2.06708
  1130 255.680 -1.31828 7.10222
  1131 204.832 -12.3031 -4.35315
  1132 191.651 -9.96320 -1.78071
  1133 214.702 -14.8691 8.14504
  1134 64.4871 31.6584 -49.3867
  1135 210.626 -7.65160 3.61513
  1136 29.7093 0.648540 -8.23848
  1137 29.7873 0.633052 8.22928
  1138 42.9210 27.4239 -34.4039
  1139 338.274 43.0576 12.8115
  1140 21.8542 -1.06391 4.76764
  1141 21.7822 -1.05497 -4.77754
  1142 43.7004 26.9738 33.1759
  1143 192.326 -15.9484 0.982637
  1144 95.6678 -4.34498 4.38587
  1145 95.6885 -4.36716 -4.46843
  1146 395.192 83.3907 -20.8461
  1147 212.241 -21.2478 2.61548
  1148 71.8060 41.3534 66.4789
  1149 5.97306 -2.77773 -4.89493
  1150 6.45131 -2.69945 5.46302
  1151 221.757 27.8356 19.6572
  1152 15.8953 8.89374 -3.24691
  1153 16.0284 8.89521 3.28409
  1154 213.675 -18.4890 -6.74174
  1155 -0.102396 -20.8599 -4.16343
  1156 -0.112143 -20.8648 4.18234
  1157 228.579 -19.2665 -13.6607
  1158 -5.99062 0.290068 1.60204
  1159 -6.09721 0.291815 -1.60650
  1160 33.9136 12.7902 -13.0116
  1161 34.0987 12.8443 12.8827
  1162 -13.4815 0.0334285 -1.96313
  1163 -13.3682 0.0325438 1.96462
  1164 229.229 -2.15186 -0.472040
  1165 -23.3913 0.669039 0.497176
  1166 -23.3295 0.668617 -0.482855
  1167 119.208 -9.27767 -11.4778
  1168 3.12679 -31.5324 -2.54739
  1169 58.1422 -1.61021 3.38697
  1170 58.1268 -1.61675 -3.42990
  1171 193.897 -3.32920 0.215265
  1172 194.270 -3.23073 -0.176733
  1173 3.35601 -30.1428 3.24182
  1174 230.225 -11.8457 -13.2761
  1175 263.862 -1.13241 5.28948
  1176 233.769 -14.9184 -19.1389
  1177 202.025 1.42123 30.3704
  1178 0.997456 -8.78151 6.63763
  1179 1.09730 -8.71957 -6.53370
  1180 148.327 -10.6109 5.58395
  1181 -10.4247 0.895535 5.68471
  1182 -10.4055 0.903248 -5.66819
  1183 389.641 62.3048 3.93407
  1184 459.839 139.268 -98.1000
  1185 239.094 -23.3514 16.7910
  1186 96.7115 -2.67627 -0.251820
  1187 96.7137 -2.64012 0.252000
  1188 495.202 48.0283 -44.0486
  1189 32.7002 -0.862322 4.95585
  1190 32.6431 -0.848497 -4.97804
  1191 222.081 -0.728006 -12.1126
  1192 142.218 -11.4209 13.0223
  1193 236.535 -23.2899 -12.5673
  1194 228.811 -16.5667 -15.2079
  1195 138.634 -4.98420 35.0371
  1196 50.4580 9.51416 -18.2923
  1197 50.4258 9.42888 18.1816
  1198 67.0553 24.6951 -41.8473
  1199 67.1361 22.8312 41.8452
  1200 18.3708 5.63706 -5.92996
  1201 18.4839 5.61948 5.96829
  1202 281.522 48.6599 -23.5794
  1203 14.0472 12.7405 -5.08468
  1204 14.3855 12.7556 5.18485
  1205 203.289 -15.3892 3.94119
  1206 384.140 53.8739 22.5381
  1207 46.0061 -1.94550 -3.33569
  1208 46.0350 -1.94448 3.29755
  1209 251.471 167.626 -148.151
  1210 187.789 11.0944 -24.2409
  1211 171.683 13.2668 9.86980
  1212 23.2640 10.0557 -7.03523
  1213 23.3767 10.0544 7.07693
  1214 2.05854 -0.0380423 1.17682
  1215 1.99084 -0.0379681 -1.18821
  1216 225.475 -18.0429 12.7702
  1217 221.943 -8.62986 6.91874
  1218 151.643 41.4862 -105.131
  1219 350.337 76.2834 -2.05068
  1220 149.436 -4.68257 -38.7031
  1221 194.557 -5.64947 0.935660
  1222 6.68181 -0.980700 -0.289908
  1223 6.69181 -0.980081 0.288172
  1224 -6.14007 1.52078 -2.50092
  1225 -6.04829 1.51428 2.52185
  1226 129.625 1.27933 -40.7147
  1227 241.359 -5.05576 7.51828
  1228 155.846 2.51066 56.0874
  1229 211.980 -10.2335 -5.49299
  1230 108.696 37.9372 -82.3047
  1231 169.496 -8.50652 -41.8791
  1232 202.236 -21.5945 2.26308
  1233 248.515 -3.79506 11.6161
  1234 217.921 -4.21605 -2.12946
  1235 118.686 -8.69410 11.5501
  1236 273.546 -15.8564 -21.8497
  1237 258.201 22.0943 38.3726
  1238 111.544 0.500213 -31.9465
  1239 259.690 -1.38477 0.987688
  1240 204.652 25.5840 -5.51051
  1241 87.8526 -2.95963 -3.32607
  1242 87.8307 -2.92588 3.28409
  1243 398.197 89.4131 19.3937
  1244 549.010 14.6088 25.6252
  1245 0.466016 -25.5173 -4.14784
  1246 0.450486 -25.5477 4.17953
  1247 57.3252 29.8511 46.0745
  1248 138.179 -3.78023 -0.525157
  1249 138.209 -3.75461 0.578140
  1250 190.604 -19.1250 -3.89340
  1251 226.297 18.3999 33.8457
  1252 239.539 -4.43899 -4.94992
  1253 280.136 -0.646196 -0.205290
  1254 485.308 107.138 -66.9786
  1255 72.5096 -2.68674 3.37167
  1256 72.5077 -2.69353 -3.42350
  1257 228.806 -21.2488 13.1562
  1258 404.987 96.2643 -27.4674
  1259 222.037 -9.44309 -7.76228
  1260 161.101 -11.0188 -3.54262
  1261 198.662 -21.6427 8.44620
  1262 194.276 -9.45065 2.20735
  1263 6.92936 -0.0337748 -8.14846
  1264 266.664 -16.5818 25.6637
  1265 215.577 -13.9210 -7.93302
  1266 7.65337 0.337832 9.11734
  1267 221.921 -18.2141 -39.1424
  1268 210.076 12.1089 -85.9556
  1269 346.912 42.7942 -9.57381
  1270 281.293 -0.0934151 -0.0971040
  1271 280.764 -0.355386 0.263125
  1272 219.376 -12.6043 8.48337
  1273 83.1608 9.91500 -31.3942
  1274 250.098 -22.4795 20.8689
  1275 427.643 97.2226 43.3292
  1276 104.061 35.0324 80.1240
  1277 2.69196 -0.0585599 6.85645
  1278 2.80197 -0.00626118 -6.78056
  1279 263.409 -21.7979 -20.2208
  1280 103.793 -5.54157 -5.27849
  1281 103.770 -5.55532 5.16861
  1282 244.412 -16.2633 31.0144
  1283 7.07202 0.0939714 5.25481
  1284 6.98105 0.0987655 -5.25424
  1285 -1.39763 -5.18687 7.11582
  1286 -1.38849 -5.17578 -7.11644
  1287 40.9692 -1.42133 -4.52123
  1288 41.0106 -1.42998 4.48810
  1289 127.212 -8.44567 -18.0682
  1290 127.927 -3.99633 0.853378
  1291 127.924 -4.09161 -0.804039
  1292 280.115 -0.0901672 -0.0285879
  1293 246.884 -3.68429 -13.0378
  1294 18.3670 0.966008 -6.52076
  1295 18.4556 0.952219 6.52146
  1296 127.723 -8.94289 17.9056
  1297 283.028 -0.216916 0.0765155
  1298 266.916 -0.0494222 -0.293366
  1299 266.920 -0.208377 0.222239
  1300 351.112 72.8948 6.22157
  1301 259.625 -1.52996 -2.20897
  1302 229.950 -2.01008 0.388878
  1303 254.845 -3.66947 -6.92923
  1304 278.466 -0.796232 1.01693
  1305 287.888 29.1114 33.9816
  1306 334.025 68.7329 10.3037
  1307 269.693 -0.983197 -3.52901
  1308 -2.16837 -0.565563 1.95577
  1309 -2.17689 -0.565122 -1.96158
  1310 147.747 -9.10989 3.65046
  1311 147.716 -8.69510 -3.52591
  1312 290.532 32.3443 -32.4580
  1313 59.3432 20.3890 -34.3732
  1314 59.7260 19.8188 33.9830
  1315 193.678 -0.0134017 -15.1800
  1316 201.630 -2.85890 -0.0318058
  1317 201.383 -2.83193 -0.00967559
  1318 -4.94517 -0.875637 7.25895
  1319 -4.93611 -0.862786 -7.25579
  1320 222.783 -0.571982 12.0952
  1321 340.846 67.8500 0.353679
  1322 21.3666 -0.896529 -2.85359
  1323 21.4198 -0.898655 2.82791
  1324 251.935 -24.4800 12.1226
  1325 0.0158482 3.95698 6.55797
  1326 0.0883095 3.98115 -6.51149
  1327 43.6156 -0.983538 -0.895883
  1328 43.6265 -0.966744 0.878873
  1329 193.739 -0.331597 15.4070
  1330 4.57545 0.439450 -0.422751
  1331 4.60255 0.441127 0.414213
  1332 257.275 -2.79084 4.55764
  1333 357.235 65.4638 2.80568
</Section>

newXOutput 33

<Section columns = "stress_xx | stress_yy | stress_xy">
  1 296.573 -0.684064 0.535992
  2 297.069 -0.915821 -0.696571
  3 1.67451 0.286082 -0.782459
  4 -0.198291 -0.308553 -0.191638
  5 551.541 211.740 177.475
  6 560.054 242.954 -179.447
  7 -0.196041 -0.306595 0.188722
  8 1.66489 0.284497 0.780566
  9 298.662 -0.477652 -0.491241
  10 296.325 -0.952782 -0.696693
  11 296.468 -0.727028 0.703130
  12 294.861 -0.328142 0.352981
  13 294.158 -0.891324 -0.117326
  14 293.499 -0.847820 1.26911
  15 288.894 -0.561766 1.26332
  16 289.867 -2.06017 1.84229
  17 280.316 -1.68322 3.87797
  18 274.149 -0.689512 4.65024
  19 265.732 -0.890289 4.99319
  20 251.262 -0.785380 6.90707
  21 235.618 -0.693147 7.98199
  22 216.223 0.982999 10.8832
  23 189.782 1.51427 9.82347
  24 179.262 -0.153780 14.0246
  25 146.491 2.10361 9.95034
  26 126.700 2.80707 7.77398
  27 121.554 1.26873 5.72376
  28 116.029 4.08403 0.412139
  29 119.042 4.44333 -7.64860
  30 125.151 1.23528 -9.61098
  31 149.489 0.470679 -12.8676
  32 174.161 -1.26531 -13.4267
  33 190.733 1.25244 -9.81232
  34 216.519 1.12293 -10.8917
  35 234.983 -0.828263 -8.54835
  36 252.882 -0.919443 -6.52668
  37 264.609 -0.627274 -5.06745
  38 273.301 -0.726283 -4.28252
  39 282.566 -0.961408 -2.50470
  40 286.308 -0.934926 -2.41175
  41 289.928 -0.890763 -2.11111
  42 293.635 -1.02790 -0.473727
  43 295.103 -1.32806 -0.896121
  44 293.461 0.199387 -0.114286
  45 296.133 -0.648619 -0.785762
  46 297.547 -1.44115 0.759476
  47 299.051 -0.806641 -0.0443517
  48 283.460 0.360226 -0.446641
  49 266.047 -0.841565 -0.850139
  50 246.444 -2.21174 -1.25841
  51 226.249 -1.72165 -0.920147
  52 208.722 -3.04602 -0.848728
  53 190.291 -3.34873 -0.784070
  54 171.762 -2.89747 -0.415924
  55 152.343 -3.16532 -0.554789
  56 135.960 -3.46094 -0.716489
  57 114.224 -3.35742 -0.597566
  58 91.8907 -2.06884 -0.382526
  59 73.4471 -1.31402 -0.311077
  60 50.7004 -0.828761 -0.155120
  61 34.1712 -0.854135 -1.15970
  62 18.8011 -1.23991 -0.397777
  63 3.31032 0.146201 0.678885
  64 -0.654200 1.08890 0.235376
  65 -1.72513 0.446620 0.693982
  66 -1.04686 0.203586 0.669486
  67 -4.08100 0.629116 0.253072
  68 -5.18717 0.818049 1.42054
  69 -5.49073 0.283537 0.457342
  70 -10.6638 0.599603 0.510772
  71 -13.0167 0.423969 1.35144
  72 -13.8037 0.150603 1.40985
  73 -19.3905 0.569868 1.06977
  74 -21.4103 0.844561 2.09711
  75 -23.5798 0.512578 0.698286
  76 -26.2408 0.369807 1.09079
  77 -27.1517 0.398141 0.387926
  78 -29.6466 0.941971 -0.706878
  79 -29.8256 0.646035 -0.531774
  80 -27.0697 0.495465 -0.972728
  81 -23.1893 0.633298 -1.81616
  82 -18.7660 0.270997 -2.71450
  83 -13.9280 0.145237 -2.81186
  84 -8.34075 -0.294967 -2.93822
  85 -3.59432 -0.232871 -1.70416
  86 -1.49810 -0.607135 -1.05857
  87 -0.257627 -1.51567 -0.910890
  88 -0.439946 -3.87261 -1.63789
  89 -0.497867 -7.65443 -2.89462
  90 -0.110356 -14.3706 -3.14456
  91 0.163673 -19.9486 -3.96681
  92 0.396272 -28.7223 -3.24502
  93 1.20317 -34.1715 -3.84067
  94 0.190341 -36.9977 -3.22360
  95 -0.0661534 -42.5952 -2.01160
  96 1.16836 -41.6609 -0.668224
  97 4.69525 -54.1525 1.97076
  98 4.09667 -30.2360 6.88440
  99 9.85292 -14.9408 15.5277
  100 29.9376 44.5830 49.9877
  101 129.868 159.936 145.097
  102 722.878 75.9974 107.700
  103 601.691 21.2145 38.6039
  104 572.252 9.05334 13.3265
  105 555.749 5.97211 -0.0672493
  106 566.179 8.62667 -10.9213
  107 607.549 18.1292 -32.0275
  108 715.344 60.5750 -100.524
  109 84.0629 181.501 -120.017
  110 21.0025 31.2889 -38.4560
  111 7.24830 -19.8605 -12.7801
  112 3.70988 -33.1377 -5.84652
  113 4.67379 -56.2298 -1.46622
  114 1.11900 -42.5873 1.02830
  115 -0.134399 -43.0612 2.19992
  116 0.146626 -37.1796 3.32484
  117 1.17953 -34.2169 3.88372
  118 0.387161 -28.7093 3.26113
  119 0.156723 -19.9224 3.97287
  120 -0.113751 -14.3364 3.14300
  121 -0.498349 -7.63245 2.88878
  122 -0.440899 -3.85347 1.63231
  123 -0.257473 -1.50850 0.905912
  124 -1.48945 -0.606351 1.05444
  125 -3.57906 -0.233882 1.69975
  126 -8.32146 -0.297329 2.93573
  127 -13.9061 0.142676 2.81269
  128 -18.7546 0.268221 2.71957
  129 -23.1964 0.631369 1.82580
  130 -27.0957 0.495359 0.982986
  131 -29.8756 0.645546 0.541699
  132 -29.7163 0.942018 0.717123
  133 -27.2435 0.399232 -0.379173
  134 -26.3489 0.371142 -1.08450
  135 -23.6954 0.514068 -0.693467
  136 -21.5343 0.846302 -2.09550
  137 -19.5171 0.571471 -1.06846
  138 -13.9274 0.151579 -1.41063
  139 -13.1396 0.425636 -1.35390
  140 -10.7800 0.601966 -0.514304
  141 -5.59123 0.285127 -0.463656
  142 -5.27140 0.819605 -1.42966
  143 -4.15117 0.629493 -0.261196
  144 -1.09575 0.203259 -0.677285
  145 -1.75797 0.445796 -0.700210
  146 -0.676567 1.08743 -0.240819
  147 3.29670 0.145301 -0.682017
  148 18.7882 -1.24442 0.394438
  149 34.1586 -0.865774 1.15595
  150 50.6922 -0.849540 0.150290
  151 73.4448 -1.34416 0.308507
  152 91.8879 -2.10390 0.382020
  153 114.213 -3.38789 0.602132
  154 135.926 -3.47649 0.726240
  155 152.284 -3.14729 0.578115
  156 171.675 -2.82927 0.443072
  157 190.169 -3.18664 0.742354
  158 208.809 -3.09113 0.747817
  159 226.312 -2.00771 0.970099
  160 246.640 -2.15875 1.14943
  161 266.594 -0.686466 0.861674
  162 282.953 0.343654 0.433054
  163 162.070 -14.5589 -12.4170
  164 161.400 -14.8218 12.3888
  165 47.7291 13.3201 -18.5269
  166 48.2052 13.3713 18.4407
  167 192.156 -9.56054 48.6625
  168 201.611 -10.7860 -47.3273
  169 92.3747 -4.77974 5.62564
  170 92.3697 -4.73117 -5.71743
  171 205.515 -6.85493 1.73912
  172 201.284 -6.87476 -1.67510
  173 272.779 49.4143 -7.33884
  174 278.377 1.49194 -37.4095
  175 272.646 3.69340 40.0001
  176 63.7398 -2.35600 -12.3497
  177 63.7377 -2.33707 12.3203
  178 240.552 -23.8952 14.0523
  179 240.235 -18.4901 -19.0706
  180 2.89023 5.27411 6.31364
  181 2.98842 5.30843 -6.25574
  182 328.566 66.6413 12.1918
  183 62.2060 27.6001 -43.1133
  184 66.8467 27.8756 46.3464
  185 232.757 -10.6345 9.24306
  186 349.555 72.8100 -6.76669
  187 149.406 -5.16493 -1.33791
  188 149.156 -5.30836 1.32067
  189 239.562 -7.30127 -8.37999
  190 320.254 -3.07054 -2.47211
  191 56.4180 -1.67661 2.09089
  192 56.4062 -1.69245 -2.12606
  193 23.8488 3.23289 -8.13225
  194 23.9602 3.19971 8.15047
  195 133.147 -5.13506 -30.0553
  196 132.623 -5.42372 30.4500
  197 159.374 -10.1428 -3.86045
  198 159.696 -10.0857 4.17347
  199 39.6126 -1.38656 6.47233
  200 39.5580 -1.36693 -6.48991
  201 316.894 -6.75903 18.9018
  202 258.002 -25.7162 -6.78870
  203 245.817 -2.19549 -1.41642
  204 240.164 -2.71376 1.46472
  205 241.246 28.2242 28.0026
  206 9.96353 8.13308 -2.52968
  207 10.3397 8.11161 2.69643
  208 241.735 -9.81644 32.6267
  209 220.981 16.7815 -31.8368
  210 158.496 34.7059 -101.211
  211 166.656 29.2841 93.9787
  212 3.38507 5.25933 -0.0835746
  213 3.47747 5.25744 0.127013
  214 240.870 -8.68077 -33.6703
  215 422.178 59.4079 -3.84358
  216 200.259 -21.9430 16.5904
  217 201.812 -21.8110 -15.6229
  218 200.160 -14.0997 -2.14071
  219 249.655 -3.67415 4.55011
  220 118.949 -8.05801 -10.6313
  221 117.029 -8.02346 10.9948
  222 70.9079 1.53549 -18.8712
  223 71.0053 1.50658 18.6996
  224 255.685 -27.3174 -1.41876
  225 198.460 -15.0074 1.29174
  226 248.790 -3.56817 -3.64003
  227 192.672 -4.62325 0.361807
  228 194.397 -4.28291 0.0116112
  229 244.717 -10.8302 19.1326
  230 19.4026 0.242785 -6.89623
  231 19.4877 0.233043 6.89312
  232 -3.19256 -2.17777 -8.37501
  233 -3.20852 -2.19714 8.38219
  234 35.0278 -1.57435 -3.70418
  235 35.0720 -1.57813 3.67039
  236 101.517 -2.88990 2.47595
  237 101.545 -2.94585 -2.49861
  238 117.918 8.04694 -44.4213
  239 117.931 6.69080 43.9081
  240 248.316 -7.61161 -16.3572
  241 115.167 -6.66292 -17.8125
  242 115.261 -6.86899 17.5387
  243 217.014 3.20722 35.9143
  244 188.350 16.2391 2.16709
  245 212.673 -21.1448 -1.96637
  246 0.827587 -5.54479 -7.82633
  247 0.756435 -5.60050 7.88852
  248 13.2827 12.6895 -14.2474
  249 14.1584 12.1987 15.0291
  250 209.070 -20.6781 0.554552
  251 379.803 69.4149 -2.66302
  252 18.9392 12.9376 -5.63454
  253 19.1733 12.9301 5.70913
  254 -8.35915 1.70118 5.84791
  255 -8.31834 1.70998 -5.81994
  256 382.054 64.7449 4.71344
  257 131.358 -6.14945 -3.86832
  258 131.254 -6.04543 3.77485
  259 260.168 -17.7901 30.6585
  260 473.427 76.9074 47.0141
  261 75.9856 -3.95578 -10.0681
  262 75.9638 -3.98364 10.0548
  263 264.022 39.4434 -27.0236
  264 456.318 86.4645 -42.3993
  265 317.522 30.9548 26.9174
  266 347.036 19.5771 -62.7665
  267 212.869 -9.82285 4.03445
  268 241.411 0.936624 -40.5291
  269 229.464 -16.0770 -11.2441
  270 256.341 -4.44883 10.4304
  271 -0.915813 2.43589 -2.25304
  272 -0.823648 2.42790 2.28349
  273 254.078 -9.23047 -61.1242
  274 26.1816 8.26436 -8.11111
  275 26.3091 8.24827 8.15754
  276 245.114 -5.90637 -20.6915
  277 34.6183 34.4367 -44.6990
  278 26.6111 -0.113508 -0.844474
  279 26.6297 -0.106980 0.829997
  280 259.127 -16.3349 -31.9250
  281 44.6425 20.0458 -23.5442
  282 45.2946 19.9320 23.6095
  283 11.1510 -0.382900 4.84198
  284 11.0625 -0.377880 -4.84710
  285 212.572 -9.29941 -3.91832
  286 34.8530 34.0543 45.9446
  287 341.342 23.6059 73.9247
  288 90.6997 -3.51085 -3.31476
  289 90.6779 -3.48660 3.25980
  290 169.138 -6.75570 -1.00894
  291 169.053 -7.34036 1.19354
  292 144.378 13.5337 -68.1289
  293 233.934 -25.7076 -5.11159
  294 267.952 -1.44749 2.03514
  295 139.000 13.4908 65.8487
  296 161.807 -4.13282 -0.304552
  297 161.744 -4.12906 0.447422
  298 229.820 -16.7502 11.4626
  299 265.274 -2.64680 -5.01433
  300 -3.02100 0.998384 -3.66491
  301 -2.92009 0.990954 3.67861
  302 331.601 66.2502 -3.47976
  303 291.500 -14.0492 17.2930
  304 264.076 -1.15163 -0.571834
  305 268.823 -0.997716 0.517722
  306 262.457 -23.5764 21.0022
  307 323.854 33.0441 -25.2236
  308 281.301 52.4277 15.7709
  309 125.343 -7.56216 -6.48086
  310 124.177 -7.70383 6.62159
  311 267.694 -1.39310 -1.41482
  312 173.989 -13.2919 -33.0246
  313 170.989 -13.3627 4.99136
  314 163.050 -9.04780 37.8189
  315 262.862 -3.00087 5.96130
  316 57.2713 -2.62844 -6.23780
  317 57.3052 -2.64810 6.20647
  318 241.896 -8.76604 60.4200
  319 152.147 -11.9277 -8.06251
  320 281.388 35.8232 34.0062
  321 88.5521 6.25517 -28.4549
  322 85.2064 6.53572 28.2053
  323 23.4032 -0.526959 -1.53666
  324 23.4379 -0.523208 1.51358
  325 231.805 -4.41642 2.79828
  326 222.215 -2.87265 0.479720
  327 220.942 -3.17369 -0.558326
  328 243.191 -6.22404 21.9004
  329 18.6704 -0.748918 3.56959
  330 18.5972 -0.741687 -3.58851
  331 68.6490 -1.58766 -1.27408
  332 68.6492 -1.55915 1.25867
  333 2.22878 -11.5965 -4.59073
  334 2.07516 -11.6848 4.77383
  335 186.669 8.01890 24.2956
  336 294.375 -13.3227 -14.4089
  337 189.354 -9.84647 1.37132
  338 214.799 -4.04512 -1.57528
  339 222.484 27.7246 -14.9995
  340 42.1091 -1.32534 -9.11999
  341 42.1612 -1.32605 9.10946
  342 184.017 -9.26889 -0.386283
  343 50.7738 1.82935 -13.1781
  344 50.8687 1.78429 13.1318
  345 9.49996 8.37056 0.474318
  346 9.62279 8.36809 -0.422859
  347 224.516 -24.2998 21.6366
  348 502.670 33.2384 12.8594
  349 197.457 2.86161 -28.8015
  350 166.141 -14.9130 19.8783
  351 165.293 -14.6196 -20.5116
  352 245.729 -4.34264 40.1902
  353 217.565 -1.65798 28.5427
  354 221.545 -23.4979 -22.3800
  355 130.543 -3.14211 0.0571610
  356 130.524 -3.18255 -0.0241008
  357 245.081 -16.0283 25.0113
  358 335.536 67.0859 2.11720
  359 264.060 -2.85161 -7.71427
  360 65.4328 -2.48427 -4.44910
  361 65.4555 -2.48609 4.39875
  362 248.243 -23.9467 -27.0943
  363 259.631 17.8731 -40.1929
  364 171.236 9.22280 -15.5687
  365 246.755 -16.5505 -28.4911
  366 -8.14371 0.241072 -6.47040
  367 -8.15288 0.231398 6.47884
  368 207.308 -4.65410 1.09026
  369 -2.95078 -1.76267 -3.80697
  370 -2.94743 -1.76334 3.79937
  371 160.816 77.6596 -123.519
  372 6.07486 5.30470 4.49879
  373 6.23404 5.34785 -4.41401
  374 215.831 -1.75175 -28.3030
  375 118.328 -4.90789 2.90279
  376 118.417 -4.97731 -2.94123
  377 -0.859014 -8.80945 7.36026
  378 -0.845551 -8.79323 -7.35226
  379 130.353 81.5308 116.172
  380 96.6510 -5.08411 -13.8014
  381 96.7233 -4.85903 13.8118
  382 30.5970 22.3094 -21.6664
  383 31.2515 22.2394 21.5331
  384 -12.7297 1.84748 2.49297
  385 -12.6740 1.85019 -2.46333
  386 250.238 16.4724 40.1614
  387 192.105 -20.1037 8.83391
  388 192.307 -17.4545 2.89099
  389 233.708 -26.6725 -1.94599
  390 57.2469 7.25934 -18.4611
  391 57.4370 7.24425 18.4285
  392 5.05143 -8.42843 0.0297326
  393 4.76831 -8.54762 0.373806
  394 234.697 33.6343 9.92165
  395 238.711 -6.63136 6.91868
  396 135.093 -10.4171 12.5646
  397 82.8702 -2.03428 -16.6433
  398 82.8965 -2.04938 16.5080
  399 173.091 -5.00193 -0.237682
  400 172.898 -4.35507 0.0903510
  401 133.951 -10.7051 -13.3987
  402 104.386 -1.73170 -22.7398
  403 104.365 -1.87751 22.9250
  404 248.514 -22.8885 -17.9477
  405 143.067 -10.8959 7.64409
  406 226.226 -6.67314 4.30318
  407 225.836 -6.05189 -3.64477
  408 188.711 -17.3210 -3.58174
  409 273.285 -1.03985 -2.14799
  410 90.4649 36.1398 -68.9725
  411 255.880 -3.61689 12.6589
  412 272.334 -1.29051 3.13982
  413 94.8841 -5.01709 8.13404
  414 94.9314 -4.94744 -8.12721
  415 191.233 -19.8611 -9.17108
  416 26.4950 11.9803 8.71716
  417 26.3504 11.9730 -8.72714
  418 507.958 33.2131 -26.3466
  419 221.452 -12.4757 -6.67321
  420 275.459 -0.807936 1.23828
  421 85.3380 33.6575 65.5952
  422 405.461 68.4348 12.6171
  423 238.264 -3.38377 -2.24693
  424 176.933 -12.7004 -2.72086
  425 72.9708 14.1027 -32.2216
  426 77.8161 13.0817 32.0294
  427 218.719 -13.7225 6.76772
  428 231.102 -3.00491 -21.0680
  429 -3.33017 -0.199666 3.61556
  430 -3.43486 -0.197196 -3.61400
  431 82.7121 19.8100 -43.5360
  432 82.9737 19.8843 43.3992
  433 9.01348 4.60603 -3.54078
  434 9.11553 4.59540 3.57877
  435 196.122 -3.52546 0.518548
  436 195.886 -3.42545 -0.450298
  437 244.320 -11.0830 -19.9909
  438 -0.810910 -0.881356 9.12742
  439 -0.767392 -0.843444 -9.09460
  440 251.840 -24.9728 15.8741
  441 238.450 -6.17141 -6.14528
  442 385.584 73.8986 -10.5645
  443 12.8341 -0.681390 1.65881
  444 12.7728 -0.681541 -1.67899
  445 466.288 130.282 57.2292
  446 9.09897 2.12542 -12.9254
  447 27.2350 1.41015 -8.84652
  448 27.3264 1.38794 8.84301
  449 464.683 133.154 -54.6467
  450 9.64643 3.16348 14.3070
  451 -12.4525 1.45363 0.837236
  452 -12.3811 1.45116 -0.809403
  453 25.0768 17.1360 -12.4054
  454 25.5184 17.1390 12.4754
  455 300.586 46.8086 -28.3324
  456 241.769 -9.31888 -13.0607
  457 273.944 -0.885568 -1.10768
  458 252.441 -3.82523 -14.8118
  459 -3.15811 1.72339 8.37332
  460 -3.11389 1.74758 -8.34264
  461 244.241 -9.73756 15.1222
  462 157.594 -8.69466 -3.02260
  463 157.100 -8.78750 2.48088
  464 215.014 -23.7420 -2.54448
  465 152.794 -2.26014 -46.6072
  466 233.517 -3.60738 21.5455
  467 191.329 -5.94481 -0.412827
  468 282.389 -21.5855 -1.98703
  469 147.965 1.14557 50.0361
  470 9.32361 -0.192385 3.48973
  471 9.23413 -0.187979 -3.49901
  472 308.534 61.0572 -12.9844
  473 248.284 -1.62022 0.199622
  474 247.416 -1.86360 -0.429775
  475 186.026 -12.2593 0.602706
  476 79.5343 -2.63637 -2.44721
  477 79.5246 -2.60319 2.41289
  478 46.5506 -0.500818 -10.8140
  479 46.6021 -0.510099 10.7885
  480 153.518 5.96026 9.29127
  481 37.4049 -1.27033 5.16556
  482 37.3537 -1.25781 -5.19495
  483 40.9737 4.03592 12.1662
  484 40.8373 4.09569 -12.1580
  485 239.818 -18.5493 18.3456
  486 133.097 -8.26816 -21.3051
  487 122.386 -3.80422 1.43591
  488 122.434 -3.90463 -1.43967
  489 134.518 -8.53115 21.2956
  490 375.594 88.6564 -6.30647
  491 -6.01023 -0.922663 -4.96628
  492 -6.00741 -0.927373 4.96383
  493 92.2681 -2.49079 -1.00344
  494 92.2637 -2.44976 0.998456
  495 0.0849558 -16.3314 -6.22733
  496 0.0458336 -16.3843 6.28117
  497 219.204 -3.02427 0.931760
  498 152.506 7.32847 -4.63114
  499 207.376 21.7935 13.4371
  500 132.360 -1.31702 -36.9394
  501 63.4817 -3.24577 7.85362
  502 63.4795 -3.21799 -7.87008
  503 -17.6437 0.552088 -1.14079
  504 -17.5464 0.548828 1.15321
  505 258.698 -5.06405 -40.0223
  506 18.0946 0.140144 -1.13997
  507 18.1222 0.143522 1.12344
  508 215.362 -16.8651 -5.69529
  509 229.668 -19.5135 -10.9688
  510 46.2675 34.7496 -46.2450
  511 192.924 4.80918 -74.1255
  512 2.06066 5.66064 4.21450
  513 2.15195 5.67208 -4.16422
  514 116.547 -5.27243 -4.32314
  515 116.485 -5.22139 4.21702
  516 333.127 12.9955 -9.48780
  517 238.900 -14.0235 -16.6150
  518 45.0895 32.7999 45.5766
  519 236.736 -26.9724 5.62170
  520 227.514 -21.6091 8.73365
  521 46.1776 -1.11633 -3.37940
  522 46.2025 -1.11135 3.34209
  523 184.536 1.94025 22.2837
  524 133.986 -9.77608 -8.16160
  525 252.460 -5.44028 9.50497
  526 -1.04719 -6.12388 -4.81499
  527 -1.04979 -6.11955 4.80846
  528 175.939 -15.6370 23.9240
  529 268.970 -20.8425 -21.3134
  530 352.292 23.2107 -10.6674
  531 188.959 -6.17537 0.542536
  532 53.9922 -0.978520 -0.999734
  533 53.9990 -0.957721 0.989560
  534 118.852 0.944193 35.5419
  535 335.462 55.4931 19.7376
  536 343.311 64.1690 -117.966
  537 305.840 1.08702 20.6124
  538 219.349 -24.4081 1.35407
  539 524.133 41.6632 35.2475
  540 385.279 92.2839 9.49510
  541 52.4695 -2.16897 8.59340
  542 52.4337 -2.14666 -8.61098
  543 210.759 -17.3675 4.37766
  544 14.9947 7.46521 -3.17572
  545 15.1112 7.45997 3.22097
  546 265.642 -22.2964 21.2963
  547 215.169 11.5112 32.9913
  548 268.154 -1.63504 5.27367
  549 197.128 -11.6407 2.14503
  550 278.108 1.16981 -78.1373
  551 443.437 111.236 75.8810
  552 214.271 -3.93158 -0.842170
  553 263.089 -2.59767 -8.41987
  554 40.4176 16.9451 -17.4494
  555 40.7132 16.7395 17.3643
  556 149.039 -5.78934 -1.91622
  557 148.968 -5.64434 1.96351
  558 1.67611 -20.3248 -1.72776
  559 267.889 -9.82458 35.8428
  560 9.83035 8.98807 1.51683
  561 9.99165 9.01168 -1.44185
  562 1.97200 -19.6727 2.29661
  563 243.472 -11.1455 -28.8699
  564 280.394 17.3298 -38.7150
  565 279.323 19.6813 38.7008
  566 13.1029 10.6208 9.27862
  567 12.4297 10.8958 -9.05739
  568 -9.08755 0.269277 2.70178
  569 -9.19583 0.271930 -2.69696
  570 258.845 5.49175 80.6414
  571 139.950 -7.59799 4.16642
  572 140.095 -7.57049 -4.26609
  573 312.666 -6.67676 -40.3751
  574 37.7759 -0.517073 1.96392
  575 37.7562 -0.526407 -1.98884
  576 15.8412 -0.487625 -0.469939
  577 15.8569 -0.484397 0.464162
  578 342.221 61.4799 -16.3107
  579 32.1866 45.0124 -51.2927
  580 176.069 3.46173 -18.8558
  581 251.232 40.2372 -16.9442
  582 3.54630 -0.515716 5.85669
  583 3.69872 -0.462371 -5.75440
  584 258.839 114.061 139.167
  585 217.464 -5.79015 -2.50599
  586 6.60296 2.22778 -4.43848
  587 6.70273 2.21162 4.46119
  588 251.134 -20.3105 25.1289
  589 38.1196 43.5452 52.2289
  590 180.495 -3.51945 0.134128
  591 180.543 -3.48708 -0.134883
  592 -0.219354 -12.9289 6.40924
  593 -0.199789 -12.9075 -6.38813
  594 307.977 60.3148 -0.492952
  595 195.674 -15.9522 34.4497
  596 186.622 -7.74142 0.376877
  597 188.180 7.91074 78.2428
  598 -15.7392 0.778587 3.88589
  599 -15.7231 0.782790 -3.87063
  600 309.706 3.30755 -22.0913
  601 415.907 66.5174 -53.5799
  602 116.355 11.6682 -51.6369
  603 61.7109 -2.54764 -10.5192
  604 61.7654 -2.54756 10.5187
  605 281.272 -0.810924 1.52297
  606 184.733 -7.91552 -0.616960
  607 249.202 -3.15339 3.38885
  608 243.496 -11.1344 28.2024
  609 7.81188 -0.394021 1.71470
  610 7.73511 -0.392287 -1.72977
  611 143.152 -4.78003 -1.09191
  612 143.130 -4.64064 1.04679
  613 88.7326 2.00229 -23.4760
  614 88.1474 2.02701 23.3640
  615 354.581 19.2831 18.9487
  616 583.329 43.9521 -63.9465
  617 -6.24780 -0.345777 2.37863
  618 -6.35856 -0.344569 -2.37876
  619 83.1074 -3.44283 4.55015
  620 83.1065 -3.43920 -4.61924
  621 329.577 16.9054 13.9928
  622 278.290 -0.812981 -0.484191
  623 277.660 -1.25342 0.222046
  624 197.654 -0.132729 22.0872
  625 289.874 -17.7517 -24.1368
  626 155.600 -12.6723 9.77370
  627 -4.06901 3.47525 -3.82883
  628 -4.13734 3.47022 3.86803
  629 250.441 4.86725 41.8913
  630 97.8402 -5.55297 -10.9304
  631 97.7383 -5.64762 10.9522
  632 204.294 -11.6121 -2.90757
  633 253.699 -5.35737 -8.61242
  634 143.137 -11.3464 -15.1939
  635 234.891 28.3111 -25.4410
  636 158.729 -11.0076 -27.9112
  637 56.1270 -1.49290 -1.71501
  638 56.1341 -1.47385 1.68923
  639 144.656 -11.5574 15.2457
  640 313.637 50.1589 25.6668
  641 249.059 -12.2682 35.5170
  642 203.935 -8.82989 2.62618
  643 144.734 -3.61663 0.815868
  644 144.697 -3.62590 -0.787575
  645 108.228 -3.89942 -3.19348
  646 108.184 -3.85387 3.15428
  647 240.129 -22.0792 -14.9571
  648 119.898 -6.65120 5.61801
  649 120.033 -6.62505 -5.74746
  650 238.706 36.9875 -3.42667
  651 221.861 -11.4543 6.70817
  652 279.582 -1.18112 -2.33380
  653 234.883 -4.46867 -36.7832
  654 32.0080 -1.44520 6.89092
  655 31.9444 -1.43472 -6.89921
  656 272.266 -1.38217 -4.77015
  657 47.3309 24.2922 -32.2974
  658 48.1508 24.2271 32.4574
  659 277.360 -17.5296 34.0717
  660 93.9213 23.2085 54.3739
  661 21.4594 -0.0963150 6.90156
  662 21.3819 -0.0910209 -6.90694
  663 235.631 -15.7756 44.7234
  664 232.876 31.0623 -107.146
  665 224.210 6.86682 -36.6097
  666 297.011 53.5912 21.9292
  667 200.349 -8.63694 -1.72886
  668 361.281 65.4183 -1.58585
  669 -18.1990 0.822619 -0.628455
  670 -18.1162 0.820365 0.646264
  671 159.327 0.415190 -54.8217
  672 8.32248 -0.227113 1.34294
  673 8.26962 -0.227725 -1.35827
  674 200.526 -17.1566 -34.0306
  675 65.1650 9.06069 -22.5830
  676 64.6325 9.08964 22.5683
  677 0.511376 3.31236 -0.996007
  678 0.601244 3.30751 1.03390
  679 169.749 -14.5689 -7.04528
  680 241.121 -2.36670 -14.1671
  681 113.356 -3.35256 -1.17330
  682 113.359 -3.31180 1.18342
  683 81.3508 -4.10837 -6.91039
  684 81.4120 -4.16709 6.88106
  685 15.1683 12.4906 -3.70526
  686 15.4294 12.5155 3.79190
  687 248.869 -2.68275 1.77753
  688 108.383 -6.79280 9.01856
  689 109.101 -6.66964 -9.00813
  690 275.036 -22.5191 -4.80511
  691 225.932 -22.7076 -6.29238
  692 176.995 -4.69686 0.150156
  693 176.356 -4.35398 -0.0569419
  694 249.403 -26.7434 12.1910
  695 406.102 81.6977 20.2141
  696 218.926 -10.3334 -55.9212
  697 250.833 -6.88932 15.0240
  698 248.403 -9.45557 -38.0124
  699 75.2527 -2.27578 -3.18888
  700 75.2485 -2.25703 3.14311
  701 194.333 -3.87160 62.8750
  702 550.653 70.2410 64.4776
  703 36.2301 10.7508 -12.6715
  704 36.2825 10.8216 12.7141
  705 248.159 -2.10593 -0.910502
  706 250.167 -1.86996 0.926080
  707 104.322 51.3374 -89.0483
  708 263.022 -1.32119 8.38144
  709 227.325 -3.57159 1.52811
  710 298.189 59.3234 -8.19247
  711 29.2584 5.43233 -9.06316
  712 29.3884 5.39752 9.09763
  713 284.104 -0.588104 0.294942
  714 228.351 -8.54121 -6.47596
  715 284.961 -4.87225 31.7140
  716 114.937 -7.98378 -14.4225
  717 115.227 -7.63312 14.2742
  718 24.2113 -0.881644 5.21831
  719 24.1409 -0.870231 -5.23482
  720 259.607 -1.49702 -1.60345
  721 223.470 41.9618 113.899
  722 1.40626 1.41017 7.75060
  723 1.48868 1.45819 -7.69406
  724 259.954 -2.57134 -4.06172
  725 252.162 -4.38313 5.77251
  726 196.671 0.0699558 -23.6896
  727 1.81732 -23.5941 -3.28578
  728 1.69430 -23.8190 3.51185
  729 90.3226 23.8935 -54.3577
  730 200.082 -20.2530 -24.1923
  731 103.446 50.9063 89.9468
  732 280.182 -0.563641 0.944127
  733 267.244 39.9128 27.1694
  734 192.799 17.5581 -9.34694
  735 351.773 70.9553 -0.787236
  736 276.219 -1.04166 3.13192
  737 -17.6878 0.408586 1.89157
  738 -17.7948 0.410841 -1.88386
  739 293.433 -17.5373 6.02423
  740 188.634 -5.11255 0.168531
  741 67.1338 0.191639 -15.9283
  742 67.2193 0.123299 15.8287
  743 252.413 -2.68656 -2.46319
  744 446.964 63.3713 -22.4107
  745 27.3117 -0.839080 -3.20987
  746 27.3692 -0.844152 3.18330
  747 282.130 -0.645718 -1.47467
  748 53.3689 -2.39486 -4.48959
  749 53.4003 -2.40337 4.45037
  750 274.191 -11.3860 -32.5413
  751 253.021 -2.60302 11.4824
  752 225.533 -1.65391 36.2874
  753 282.793 -0.673287 -0.0613552
  754 263.175 -1.76175 3.13355
  755 170.273 -8.92214 -1.10183
  756 214.656 -5.31388 1.95081
  757 243.867 -15.0238 -24.2864
  758 237.994 -14.8692 16.0819
  759 278.300 33.2927 -34.3370
  760 234.785 -13.0106 12.0733
  761 247.716 -14.7924 30.8809
  762 142.423 -9.47573 5.74182
  763 4.98327 -2.26214 -1.03893
  764 4.70886 -2.27777 1.29836
  765 217.502 -2.91569 0.0662575
  766 217.035 -2.89190 -0.148021
  767 262.178 -0.931777 -0.188976
  768 263.108 -0.876987 0.251983
  769 248.205 -6.89619 18.2900
  770 229.241 -21.4775 32.0109
  771 187.485 -15.0661 1.89046
  772 166.147 -9.68271 2.36982
  773 456.236 58.5708 26.2533
  774 251.389 -6.21485 -11.9416
  775 146.513 24.8063 -83.6473
  776 233.326 -11.3324 -10.4876
  777 7.71298 0.217379 -4.87769
  778 7.80997 0.208841 4.88341
  779 205.861 18.0429 -20.9664
  780 536.212 16.3005 -7.04217
  781 261.962 6.36238 -41.1390
  782 10.2502 3.32356 -19.6474
  783 268.648 48.5421 6.97957
  784 210.503 -13.1783 4.19109
  785 235.903 -6.05565 35.7160
  786 199.033 -21.1288 24.3299
  787 321.263 -3.51168 50.2195
  788 11.0495 5.76824 21.0405
  789 143.205 -1.01718 42.4720
  790 201.290 -4.85455 -0.895656
  791 224.673 -20.5585 -32.4176
  792 136.504 -10.5344 -10.4211
  793 107.653 5.07513 -36.9425
  794 259.879 -4.39410 40.3270
  795 165.899 -11.1308 4.18837
  796 29.3308 -0.876649 2.90786
  797 29.2897 -0.877842 -2.93767
  798 241.877 -1.30114 12.5600
  799 218.147 0.939131 -35.1967
  800 -19.4935 0.861632 2.46588
  801 -19.4643 0.863166 -2.44933
  802 161.366 -4.78067 -0.289168
  803 160.885 -4.50220 0.238747
  804 119.412 13.1026 52.4159
  805 105.683 -6.07857 6.69534
  806 105.838 -5.92603 -6.77367
  807 282.044 -0.434965 -0.833445
  808 96.7492 7.62349 35.9616
  809 0.584811 -0.0898178 1.85282
  810 0.488163 -0.0877430 -1.86183
  811 238.914 -7.43865 27.7063
  812 257.303 -1.94728 1.28851
  813 -13.7410 0.143744 3.82177
  814 -13.7426 0.148077 -3.81416
  815 156.635 -9.94571 31.4726
  816 29.7304 24.4347 -27.1334
  817 30.1014 23.2529 26.7076
  818 145.060 6.47649 3.86043
  819 -4.87469 -0.136263 -2.13320
  820 -4.76435 -0.137785 2.13042
  821 180.482 -17.2492 -22.7615
  822 247.443 -26.1451 -9.61771
  823 -1.22239 -1.16251 -1.53139
  824 -1.21887 -1.15986 1.52580
  825 9.99391 0.435136 -0.423359
  826 10.0153 0.437543 0.414595
  827 219.720 -19.4787 6.53698
  828 184.456 -18.9378 15.5357
  829 205.000 -3.12247 0.742212
  830 183.950 -14.6909 -2.60158
  831 65.1985 -1.01609 -0.313000
  832 65.2018 -0.988679 0.306564
  833 -22.1419 0.466866 1.48225
  834 -22.0950 0.466228 -1.46607
  835 232.248 -2.70105 -1.20773
  836 202.571 7.84196 -29.8799
  837 234.755 -4.37843 -3.46667
  838 136.787 -10.3389 9.89769
  839 230.656 -4.11868 -29.1664
  840 247.937 -7.49648 -18.9029
  841 233.215 -2.27576 1.08944
  842 168.985 -6.70224 43.5912
  843 180.551 -17.5851 -8.36918
  844 107.896 -0.796937 -28.1047
  845 108.499 -0.0464329 28.2516
  846 153.402 -11.3397 -6.22915
  847 255.339 27.4649 35.1725
  848 243.778 -25.7494 -17.0777
  849 85.4980 -2.62017 -1.57022
  850 85.4867 -2.57823 1.55135
  851 185.551 -3.90375 -0.0666365
  852 185.557 -3.93888 0.114832
  853 219.985 -1.70921 -19.0284
  854 72.5698 -3.03008 -5.56899
  855 72.6057 -3.05342 5.51603
  856 0.867898 -23.5007 -4.75661
  857 0.819937 -23.6009 4.85109
  858 34.8371 -0.517537 -0.213704
  859 34.8244 -0.529118 0.205995
  860 230.402 -3.31405 -1.70020
  861 173.670 -16.5401 13.9832
  862 271.605 -23.6978 10.2488
  863 155.240 3.27292 14.7923
  864 235.561 -5.28414 3.95407
  865 256.815 -23.2589 -19.8716
  866 35.4851 2.37512 -10.5095
  867 35.5904 2.33611 10.5013
  868 203.939 -3.37436 -0.681411
  869 163.351 -5.41913 -0.946333
  870 162.769 -5.36750 1.09159
  871 251.974 39.2925 19.0788
  872 86.6522 -0.794555 -19.3566
  873 86.5635 -0.897208 19.2646
  874 175.297 -15.7460 6.50519
  875 16.2537 10.8030 -3.15452
  876 16.4191 10.7806 3.20053
  877 147.905 -10.5604 25.4410
  878 177.857 -11.1412 -1.12077
  879 221.329 -1.76853 19.2292
  880 219.199 -24.7861 7.10994
  881 251.442 -19.2858 -27.0186
  882 173.246 -16.6764 -14.1983
  883 143.477 -9.43374 -5.48585
  884 477.436 39.3925 -7.29590
  885 229.742 -24.4004 4.91537
  886 6.04173 7.30738 3.24879
  887 6.16024 7.32078 -3.18743
  888 199.236 -19.9104 2.96317
  889 218.902 -24.8148 -13.3409
  890 6.31026 6.46224 0.788625
  891 6.41377 6.46330 -0.742052
  892 80.8054 -2.80331 14.5429
  893 80.8613 -2.89238 -14.6370
  894 98.3574 -4.91160 15.9828
  895 98.3264 -5.03244 -16.1028
  896 315.642 63.3814 10.4261
  897 -0.484556 -9.77191 -4.68722
  898 -0.487952 -9.76093 4.68428
  899 71.2353 6.11554 -21.4630
  900 70.8750 5.98896 21.2389
  901 554.836 18.0001 -28.1650
  902 7.27521 -0.0415594 0.738080
  903 7.23661 -0.0433740 -0.750100
  904 0.902541 -27.3505 1.87261
  905 1.05972 -26.9076 -1.49822
  906 -10.4617 -0.144183 3.89141
  907 -10.4726 -0.140979 -3.88998
  908 56.8788 16.7825 -25.3557
  909 57.7648 16.2272 24.9803
  910 -4.73041 0.125737 -8.28621
  911 -4.75325 0.107773 8.30085
  912 15.2120 1.52889 -6.74549
  913 15.3117 1.50954 6.75441
  914 61.6439 -0.631192 13.3579
  915 61.6048 -0.628385 -13.4322
  916 49.8275 -1.66734 -10.7436
  917 49.8754 -1.66367 10.7232
  918 273.293 -0.937886 -4.66406
  919 131.783 27.5009 77.6233
  920 182.381 -17.9304 7.76088
  921 128.598 -9.08447 7.84720
  922 249.518 25.5246 -34.6761
  923 545.541 11.7641 11.1914
  924 297.773 12.9100 -33.6672
  925 46.9995 -1.80548 6.64695
  926 46.9548 -1.78431 -6.67558
  927 6.78685 -0.255564 -4.90348
  928 6.88083 -0.258318 4.90214
  929 -0.294787 -4.85080 -9.06033
  930 -0.333706 -4.88889 9.09027
  931 132.940 -5.64403 3.30057
  932 133.013 -5.76108 -3.32121
  933 14.9931 4.36870 -5.84704
  934 15.1011 4.34863 5.87949
  935 80.1056 -3.50255 -12.2677
  936 80.1563 -3.50171 12.2569
  937 173.802 -0.876569 -17.4336
  938 82.5631 -4.43201 -8.37457
  939 82.4993 -4.38082 8.40297
  940 205.361 -5.39578 -1.11856
  941 248.407 -14.3859 -33.1021
  942 106.716 -4.17453 3.64333
  943 106.771 -4.21616 -3.70071
  944 -4.46602 -0.489041 -2.71279
  945 -4.45421 -0.490211 2.70721
  946 253.927 -20.2228 -39.9477
  947 242.510 -14.1690 21.2219
  948 212.500 -14.6526 -5.24198
  949 205.289 6.87803 31.5035
  950 92.4761 -5.11736 -9.45723
  951 92.4707 -5.01538 9.48827
  952 230.381 8.62242 38.2274
  953 214.238 18.6292 25.1477
  954 444.738 53.7149 9.25101
  955 226.511 -7.82488 4.88327
  956 117.350 -3.28281 -1.62395
  957 117.332 -3.21158 1.63981
  958 202.254 -16.4134 -1.74067
  959 279.470 51.3737 -16.5072
  960 248.929 -2.36935 -1.79200
  961 161.765 -3.61693 0.524314
  962 161.700 -3.58649 -0.476911
  963 20.0220 16.7136 -11.3238
  964 20.5419 16.6772 11.4163
  965 39.1370 94.0909 -86.7523
  966 231.246 -5.56568 29.0252
  967 289.831 -6.03578 -28.4707
  968 -5.56991 2.75951 1.89491
  969 -5.49531 2.75867 -1.85815
  970 597.259 139.780 -112.213
  971 247.888 -27.1568 4.20937
  972 264.748 -24.9243 -9.13338
  973 243.846 -20.9442 19.5577
  974 300.695 59.4285 7.06287
  975 21.2273 21.1551 -25.2101
  976 55.2463 80.8651 84.7724
  977 -1.57416 -3.55133 8.99397
  978 -1.54997 -3.52340 -8.97853
  979 237.735 -5.77063 4.88723
  980 381.820 67.8778 -7.56676
  981 21.8594 20.6330 26.2681
  982 -1.05879 -3.48861 -3.01644
  983 -1.05906 -3.47928 3.00889
  984 203.380 -4.35208 0.549540
  985 150.732 -11.8759 -10.8413
  986 245.718 -19.4851 -23.0014
  987 68.5622 18.4135 -33.8317
  988 69.6709 18.7216 33.9213
  989 238.009 -5.93439 -25.9697
  990 240.867 -7.37079 8.77429
  991 -6.65028 1.54096 7.35450
  992 -6.61824 1.55679 -7.33129
  993 143.926 -9.49609 -23.8654
  994 239.423 15.0802 -38.4742
  995 178.285 -6.33566 0.180406
  996 127.129 -3.37749 0.227015
  997 127.106 -3.40260 -0.212150
  998 -2.75505 -3.12270 -6.34442
  999 -2.75908 -3.12943 6.33976
  1000 244.118 -8.47075 -10.6951
  1001 232.754 -2.21656 0.339302
  1002 232.536 -2.21897 -0.241818
  1003 321.087 51.8657 -23.9303
  1004 56.3246 5.01481 -16.7673
  1005 56.4638 4.91451 16.7250
  1006 35.0181 -0.279383 -8.85821
  1007 35.0828 -0.286637 8.84472
  1008 263.617 13.7375 41.6151
  1009 250.759 -4.43561 -6.05955
  1010 42.7238 6.90622 -13.4988
  1011 42.8944 6.85340 13.5491
  1012 262.403 -1.12479 -1.05504
  1013 243.680 -10.3680 -16.0458
  1014 237.931 -27.1050 -8.82942
  1015 8.65646 7.15509 -0.806606
  1016 8.40548 7.12099 0.920010
  1017 -11.8937 1.84335 4.47325
  1018 -11.8523 1.84827 -4.44593
  1019 139.911 5.35882 -6.45837
  1020 413.628 101.469 -25.9789
  1021 187.261 -13.4242 -0.241796
  1022 122.937 -5.35771 -24.6099
  1023 302.774 -12.9078 4.40803
  1024 123.424 -5.35699 24.9647
  1025 215.879 -25.2915 15.8152
  1026 244.822 -10.0949 -23.7948
  1027 81.6519 -1.78820 -0.503367
  1028 81.6529 -1.75301 0.499388
  1029 166.279 -12.8167 -5.22747
  1030 100.970 -3.70388 -18.9983
  1031 100.925 -3.73201 18.8925
  1032 33.0602 21.5395 -20.4744
  1033 33.5942 21.4702 20.5352
  1034 68.1611 -2.11862 -1.80709
  1035 68.1604 -2.09032 1.78000
  1036 217.998 -6.55787 2.80711
  1037 183.515 0.331013 -63.7032
  1038 226.071 -7.01772 -4.82916
  1039 203.586 -22.5528 -9.06584
  1040 132.582 -5.36334 2.19796
  1041 132.696 -5.40638 -2.20737
  1042 265.992 -1.37889 1.32858
  1043 236.852 -5.29930 -4.58752
  1044 148.078 3.57924 12.1697
  1045 253.346 -2.47899 -10.6732
  1046 97.0260 27.9271 61.7953
  1047 261.287 -2.35672 -8.78968
  1048 66.7813 11.3094 -25.2734
  1049 64.7392 11.4415 24.2035
  1050 313.008 -6.29038 -5.84376
  1051 27.1882 14.3730 -10.2953
  1052 27.4437 14.2672 10.2905
  1053 4.53048 -1.02230 3.35673
  1054 4.76922 -0.980010 -3.19953
  1055 37.5650 -1.01703 2.20910
  1056 37.5370 -1.02425 -2.24038
  1057 110.613 28.2890 -68.6691
  1058 617.361 157.810 120.733
  1059 243.268 -8.47074 10.9722
  1060 217.815 -24.5624 -6.27689
  1061 150.369 -12.3390 -18.2139
  1062 -3.50926 3.21138 6.53878
  1063 -3.45163 3.22899 -6.50028
  1064 170.080 -8.46303 0.789163
  1065 188.073 -6.62693 -0.534048
  1066 -0.106703 -13.8681 4.53913
  1067 -0.101977 -13.8805 -4.53755
  1068 27.4301 17.1259 -12.3822
  1069 27.7634 17.0909 12.4590
  1070 167.757 -7.74662 -0.737040
  1071 12.2463 6.08035 3.43558
  1072 12.1386 6.08941 -3.39314
  1073 257.534 -10.4281 38.3427
  1074 185.882 -19.2824 -15.4569
  1075 151.277 -12.5392 18.2116
  1076 244.699 -5.15188 -40.1228
  1077 260.253 -2.57640 4.40405
  1078 92.5810 14.1726 41.1148
  1079 93.2506 13.5684 -40.4171
  1080 150.297 -7.37822 -34.5094
  1081 214.253 -7.32693 -2.90141
  1082 173.300 -10.1678 2.04157
  1083 203.636 -18.9154 0.415242
  1084 281.882 -0.891937 -2.48142
  1085 149.891 -6.62760 2.16089
  1086 149.825 -7.02719 -2.24959
  1087 4.68356 5.59187 5.56217
  1088 4.80690 5.63389 -5.49182
  1089 246.405 8.83838 -41.3939
  1090 53.9640 2.86145 -14.7530
  1091 54.1074 2.79912 14.7072
  1092 40.0071 0.878830 -10.4620
  1093 40.0926 0.855765 10.4394
  1094 283.625 -12.4874 50.5318
  1095 244.571 -11.2265 23.4989
  1096 118.318 -5.37960 -20.7522
  1097 286.835 -1.04648 -1.48800
  1098 319.181 60.0784 -18.1843
  1099 259.892 -2.21147 -2.84036
  1100 242.524 -26.2750 9.43613
  1101 178.706 -13.7410 30.1036
  1102 289.001 -0.246415 0.320702
  1103 147.787 4.64533 -10.3261
  1104 205.074 -21.9194 -3.60305
  1105 118.504 -5.62785 20.5093
  1106 207.019 -18.7522 -1.61331
  1107 259.498 -3.50233 8.03858
  1108 182.385 11.5462 16.1438
  1109 127.371 -9.29368 -16.3727
  1110 393.939 53.8244 -20.6745
  1111 294.066 12.7288 35.2002
  1112 216.863 27.2623 3.97865
  1113 285.454 0.140888 1.35151
  1114 110.164 -6.78846 -12.3955
  1115 75.3372 45.7796 -68.8416
  1116 135.347 3.45324 -49.4423
  1117 155.294 -11.7778 7.46989
  1118 130.781 -9.71911 15.2709
  1119 109.886 -6.44644 12.5322
  1120 234.073 1.83905 40.1529
  1121 177.032 -5.84895 0.0222670
  1122 281.011 -1.99217 3.28872
  1123 -2.38943 -0.332319 9.03616
  1124 -2.35613 -0.304599 -9.01373
  1125 185.655 -4.95756 -0.298938
  1126 -0.462147 1.88491 8.31358
  1127 -0.402202 1.92089 -8.27143
  1128 102.610 -3.08099 2.14231
  1129 102.622 -3.13423 -2.14549
  1130 263.684 -1.36330 7.29963
  1131 211.291 -12.7072 -4.42287
  1132 197.709 -10.2976 -1.77831
  1133 221.464 -15.3487 8.32390
  1134 66.5877 32.7186 -51.0432
  1135 217.249 -7.91457 3.67836
  1136 30.7640 0.664683 -8.54524
  1137 30.8448 0.648697 8.53589
  1138 44.3374 28.3467 -35.5842
  1139 348.802 44.4953 13.0317
  1140 22.6964 -1.10078 4.94802
  1141 22.6217 -1.09154 -4.95814
  1142 45.1421 27.8834 34.3176
  1143 198.410 -16.4632 0.937975
  1144 98.8127 -4.49639 4.56148
  1145 98.8337 -4.51919 -4.64655
  1146 407.495 86.0077 -21.5977
  1147 218.932 -21.9188 2.60841
  1148 74.1331 42.7526 68.6803
  1149 6.17949 -2.76882 -5.10698
  1150 6.67317 -2.68780 5.69310
  1151 228.881 28.7270 20.2232
  1152 16.4575 9.18654 -3.40288
  1153 16.5950 9.18814 3.44137
  1154 220.409 -19.0783 -6.86916
  1155 -0.105361 -21.5088 -4.28979
  1156 -0.115412 -21.5138 4.30927
  1157 235.769 -19.8745 -13.9965
  1158 -6.00662 0.298350 1.66171
  1159 -6.11708 0.300153 -1.66629
  1160 35.0566 13.2088 -13.4927
  1161 35.2479 13.2648 13.3599
  1162 -13.7786 0.0340197 -2.03614
  1163 -13.6614 0.0331088 2.03772
  1164 236.379 -2.24480 -0.476066
  1165 -24.0831 0.690178 0.502927
  1166 -24.0192 0.689747 -0.488119
  1167 123.061 -9.58299 -11.9057
  1168 3.23102 -32.3982 -2.66584
  1169 60.1406 -1.66869 3.51904
  1170 60.1244 -1.67540 -3.56325
  1171 200.007 -3.46205 0.227114
  1172 200.391 -3.36058 -0.187417
  1173 3.46806 -30.9642 3.38269
  1174 237.457 -12.2295 -13.6183
  1175 272.082 -1.17397 5.43225
  1176 241.122 -15.3919 -19.6520
  1177 208.522 1.47190 31.2608
  1178 1.03547 -9.02436 6.82217
  1179 1.13849 -8.96040 -6.71494
  1180 153.075 -10.9626 5.82154
  1181 -10.7389 0.926672 5.85440
  1182 -10.7192 0.934646 -5.83736
  1183 401.788 64.2234 4.07237
  1184 473.837 143.846 -101.325
  1185 246.607 -24.0774 17.2123
  1186 99.8964 -2.77517 -0.264521
  1187 99.8990 -2.73794 0.264714
  1188 510.362 49.4998 -45.4180
  1189 33.8912 -0.893218 5.14302
  1190 33.8320 -0.878946 -5.16581
  1191 229.150 -0.751010 -12.4625
  1192 146.775 -11.7920 13.5049
  1193 243.967 -24.0144 -12.8585
  1194 236.008 -17.0927 -15.5972
  1195 143.069 -5.13644 36.2219
  1196 52.1363 9.82102 -18.9430
  1197 52.1034 9.73304 18.8289
  1198 69.2439 25.5113 -43.2603
  1199 69.3280 23.5874 43.2583
  1200 19.0303 5.81768 -6.16842
  1201 19.1472 5.79958 6.20813
  1202 290.426 50.2084 -24.2098
  1203 14.5291 13.1858 -5.31036
  1204 14.8783 13.2017 5.41386
  1205 209.705 -15.8873 3.99123
  1206 395.958 55.7276 23.4490
  1207 47.6278 -2.01246 -3.46590
  1208 47.6580 -2.01142 3.42663
  1209 259.081 173.280 -152.842
  1210 193.892 11.4580 -24.9542
  1211 177.318 13.6951 10.1621
  1212 24.0687 10.3835 -7.31664
  1213 24.1851 10.3822 7.35982
  1214 2.33022 -0.0399202 1.22036
  1215 2.25977 -0.0398432 -1.23209
  1216 232.570 -18.6153 13.0828
  1217 228.912 -8.91983 7.07776
  1218 156.433 42.9074 -108.526
  1219 361.310 78.6858 -2.23395
  1220 154.201 -4.82130 -40.0038
  1221 200.694 -5.85297 0.926245
  1222 7.12561 -1.01077 -0.299497
  1223 7.13661 -1.01013 0.297708
  1224 -6.25184 1.56904 -2.60695
  1225 -6.15697 1.56235 2.62864
  1226 133.777 1.32994 -42.0804
  1227 248.902 -5.23178 7.70748
  1228 160.798 2.61622 57.9364
  1229 218.652 -10.5740 -5.60292
  1230 112.173 39.2081 -84.9929
  1231 174.873 -8.75840 -43.2804
  1232 208.623 -22.2765 2.42076
  1233 256.297 -3.92367 11.9344
  1234 224.749 -4.37408 -2.16371
  1235 122.523 -8.98119 11.9804
  1236 282.103 -16.3185 -22.4025
  1237 266.374 22.8148 39.4571
  1238 115.142 0.518169 -33.0339
  1239 267.726 -1.44526 1.00862
  1240 211.274 26.4028 -5.67160
  1241 90.7636 -3.06577 -3.45538
  1242 90.7414 -3.03100 3.41214
  1243 410.502 92.3606 20.2198
  1244 565.632 15.0495 26.3923
  1245 0.481863 -26.3075 -4.27286
  1246 0.465837 -26.3388 4.30553
  1247 59.1994 30.8587 47.6286
  1248 142.621 -3.92193 -0.557286
  1249 142.651 -3.89555 0.611877
  1250 196.637 -19.7342 -4.09723
  1251 233.533 18.9978 34.8236
  1252 247.017 -4.59829 -5.06621
  1253 288.752 -0.673292 -0.213916
  1254 500.220 110.478 -69.1087
  1255 74.9477 -2.78097 3.50750
  1256 74.9454 -2.78793 -3.56087
  1257 236.003 -21.9169 13.4737
  1258 417.496 99.4337 -28.5401
  1259 229.012 -9.75796 -7.94333
  1260 166.237 -11.3837 -3.71706
  1261 204.939 -22.3232 8.79860
  1262 200.412 -9.76912 2.21903
  1263 7.16764 0.0849110 -8.47074
  1264 275.019 -17.0747 26.3391
  1265 222.364 -14.3726 -8.10823
  1266 7.91531 0.468350 9.47045
  1267 228.891 -18.7514 -40.4637
  1268 216.657 12.5597 -88.7328
  1269 357.690 44.2301 -9.68575
  1270 289.940 -0.104212 -0.0994441
  1271 289.397 -0.374100 0.270407
  1272 226.276 -13.0153 8.67896
  1273 85.8681 10.2375 -32.4673
  1274 257.950 -23.1692 21.4086
  1275 440.897 100.275 44.7809
  1276 107.402 36.2105 82.7452
  1277 2.79371 -0.0300672 7.04098
  1278 2.90723 0.0240047 -6.96266
  1279 271.633 -22.4377 -20.9631
  1280 107.184 -5.73150 -5.48778
  1281 107.160 -5.74576 5.37457
  1282 252.105 -16.7650 31.8767
  1283 7.42072 0.0949197 5.44980
  1284 7.32654 0.0998654 -5.44911
  1285 -1.43774 -5.34480 7.33684
  1286 -1.42831 -5.33336 -7.33751
  1287 42.4281 -1.47156 -4.69192
  1288 42.4712 -1.48050 4.65783
  1289 131.305 -8.72057 -18.7113
  1290 132.058 -4.14278 0.898526
  1291 132.056 -4.24095 -0.847669
  1292 288.738 -0.100649 -0.0250593
  1293 254.624 -3.80795 -13.3972
  1294 19.0593 0.992811 -6.76839
  1295 19.1510 0.978583 6.76924
  1296 131.833 -9.23340 18.5441
  1297 291.725 -0.228991 0.0807229
  1298 275.155 -0.0659146 -0.302813
  1299 275.158 -0.229877 0.229687
  1300 362.061 75.2475 6.23878
  1301 267.673 -1.59458 -2.25885
  1302 237.121 -2.09867 0.390399
  1303 262.786 -3.79758 -7.11098
  1304 287.051 -0.828065 1.04034
  1305 296.935 30.0651 34.9000
  1306 344.489 70.9316 10.4739
  1307 278.069 -1.01994 -3.62237
  1308 -2.23884 -0.583081 2.01878
  1309 -2.24765 -0.582629 -2.02479
  1310 152.477 -9.41636 3.81925
  1311 152.445 -8.98858 -3.69040
  1312 299.661 33.4001 -33.3264
  1313 61.2894 21.0632 -35.5475
  1314 61.6848 20.4749 35.1452
  1315 199.934 -0.0119370 -15.6254
  1316 207.969 -2.97722 -0.0427067
  1317 207.715 -2.94944 -0.000110625
  1318 -5.09453 -0.898447 7.48333
  1319 -5.08519 -0.885175 -7.48009
  1320 229.872 -0.590663 12.4444
  1321 351.548 69.9743 0.280659
  1322 22.2271 -0.926417 -2.96103
  1323 22.2824 -0.928612 2.93460
  1324 259.832 -25.2285 12.3890
  1325 0.0440528 4.09586 6.73601
  1326 0.118862 4.12086 -6.68801
  1327 45.1801 -1.01968 -0.932845
  1328 45.1918 -1.00238 0.915327
  1329 199.996 -0.339467 15.8594
  1330 4.94695 0.452111 -0.439603
  1331 4.97558 0.453837 0.430808
  1332 265.274 -2.89211 4.67147
  1333 368.430 67.4886 2.93340
</Section>

newXOutput 34

<Section columns = "stress_xx | stress_yy | stress_xy">
  1 305.376 -0.710571 0.552133
  2 305.884 -0.948690 -0.717526
  3 1.97291 0.293999 -0.804814
  4 -0.205039 -0.318556 -0.198460
  5 567.410 218.418 182.777
  6 576.168 250.582 -184.802
  7 -0.202717 -0.316534 0.195451
  8 1.96225 0.292370 0.802870
  9 307.522 -0.496636 -0.505823
  10 305.124 -0.985752 -0.718245
  11 305.276 -0.753314 0.720826
  12 303.631 -0.344115 0.359014
  13 302.916 -0.922344 -0.125233
  14 302.250 -0.877920 1.30018
  15 297.530 -0.584077 1.29148
  16 298.543 -2.12367 1.88812
  17 288.740 -1.73670 3.97976
  18 282.417 -0.714954 4.77315
  19 273.783 -0.920287 5.12671
  20 258.928 -0.812095 7.09657
  21 242.861 -0.715254 8.20363
  22 222.933 1.01168 11.1897
  23 195.756 1.55889 10.1024
  24 184.938 -0.154662 14.4255
  25 151.241 2.17057 10.2366
  26 130.881 2.89416 7.99924
  27 125.587 1.31356 5.89019
  28 119.903 4.21193 0.424744
  29 123.003 4.58034 -7.87132
  30 129.287 1.27557 -9.89030
  31 154.323 0.489947 -13.2393
  32 179.693 -1.29928 -13.8101
  33 196.733 1.28948 -10.0906
  34 223.236 1.15545 -11.1981
  35 242.208 -0.854334 -8.78616
  36 260.589 -0.948863 -6.70514
  37 272.630 -0.649704 -5.20319
  38 281.546 -0.753451 -4.39463
  39 291.052 -0.992796 -2.56869
  40 294.883 -0.968253 -2.47232
  41 298.592 -0.922098 -2.16496
  42 302.387 -1.06325 -0.482075
  43 303.887 -1.37231 -0.917307
  44 302.192 0.198466 -0.113269
  45 304.930 -0.673021 -0.806049
  46 306.377 -1.48843 0.782990
  47 307.921 -0.834386 -0.0451746
  48 291.904 0.359293 -0.460000
  49 274.011 -0.885239 -0.874848
  50 253.860 -2.30255 -1.29271
  51 233.097 -1.80209 -0.944860
  52 215.071 -3.16748 -0.871363
  53 196.112 -3.47938 -0.804433
  54 177.049 -3.01309 -0.424956
  55 157.067 -3.28728 -0.567782
  56 140.207 -3.58788 -0.734052
  57 117.834 -3.47743 -0.611425
  58 94.8443 -2.14591 -0.391393
  59 75.8576 -1.36406 -0.317889
  60 52.4400 -0.860391 -0.156952
  61 35.4239 -0.883231 -1.19242
  62 19.6020 -1.27790 -0.408044
  63 3.65507 0.150287 0.700304
  64 -0.430026 1.12039 0.244686
  65 -1.53731 0.459273 0.717218
  66 -0.847267 0.209195 0.693101
  67 -3.98239 0.647133 0.265553
  68 -5.13090 0.841825 1.46891
  69 -5.45919 0.291917 0.477657
  70 -10.8020 0.617492 0.532699
  71 -13.2385 0.436072 1.39862
  72 -14.0666 0.154322 1.45981
  73 -19.8431 0.586461 1.11058
  74 -21.9390 0.869674 2.16999
  75 -24.1966 0.527802 0.728903
  76 -26.9538 0.380984 1.13268
  77 -27.9117 0.409974 0.408055
  78 -30.5028 0.971423 -0.721188
  79 -30.7010 0.666210 -0.542078
  80 -27.8750 0.510481 -0.997007
  81 -23.8861 0.653428 -1.86685
  82 -19.3370 0.280299 -2.79486
  83 -14.3568 0.150506 -2.89683
  84 -8.59937 -0.303134 -3.02795
  85 -3.70824 -0.239540 -1.75721
  86 -1.54634 -0.625714 -1.09196
  87 -0.265401 -1.56386 -0.940041
  88 -0.452764 -3.99577 -1.68900
  89 -0.512587 -7.89221 -2.98339
  90 -0.112783 -14.8141 -3.23946
  91 0.169478 -20.5580 -4.08498
  92 0.409239 -29.5960 -3.34098
  93 1.24199 -35.2031 -3.95283
  94 0.197931 -38.0966 -3.31315
  95 -0.0669455 -43.8420 -2.05952
  96 1.20379 -42.8425 -0.667131
  97 4.84080 -55.6731 2.05746
  98 4.23222 -30.9638 7.14293
  99 10.1696 -15.1078 16.0758
  100 30.8697 46.4107 51.6113
  101 133.703 165.335 149.523
  102 743.653 78.2654 110.767
  103 619.197 21.8362 39.7044
  104 588.944 9.31822 13.7039
  105 571.996 6.14406 -0.0694621
  106 582.713 8.87876 -11.2324
  107 625.209 18.6594 -32.9361
  108 735.900 62.3655 -103.371
  109 86.5610 187.616 -123.685
  110 21.6582 32.7064 -39.7216
  111 7.48197 -20.1823 -13.2406
  112 3.83271 -33.9559 -6.07203
  113 4.81842 -57.8150 -1.53702
  114 1.15277 -43.7974 1.03836
  115 -0.137305 -44.3222 2.25363
  116 0.152876 -38.2839 3.41748
  117 1.21762 -35.2496 3.99718
  118 0.399846 -29.5824 3.35756
  119 0.162315 -20.5308 4.09120
  120 -0.116282 -14.7787 3.23783
  121 -0.513081 -7.86950 2.97734
  122 -0.453744 -3.97600 1.68324
  123 -0.265241 -1.55646 0.934902
  124 -1.53742 -0.624903 1.08769
  125 -3.69248 -0.240582 1.75265
  126 -8.57943 -0.305570 3.02537
  127 -14.3342 0.147864 2.89767
  128 -19.3252 0.277433 2.80008
  129 -23.8934 0.651434 1.87680
  130 -27.9017 0.510370 1.00760
  131 -30.7526 0.665700 0.552328
  132 -30.5747 0.971465 0.731773
  133 -28.0064 0.411095 -0.399002
  134 -27.0654 0.382355 -1.12616
  135 -24.3160 0.529336 -0.723902
  136 -22.0672 0.871467 -2.16829
  137 -19.9740 0.588113 -1.10920
  138 -14.1946 0.155327 -1.46059
  139 -13.3657 0.437791 -1.40114
  140 -10.9223 0.619927 -0.536318
  141 -5.56334 0.293554 -0.484142
  142 -5.21834 0.843432 -1.47829
  143 -4.05537 0.647525 -0.273909
  144 -0.898338 0.208859 -0.701128
  145 -1.57187 0.458427 -0.723630
  146 -0.453809 1.11888 -0.250289
  147 3.64031 0.149361 -0.703530
  148 19.5881 -1.28255 0.404611
  149 35.4104 -0.895213 1.18856
  150 52.4311 -0.881778 0.151985
  151 75.8549 -1.39507 0.315250
  152 94.8410 -2.18198 0.390880
  153 117.822 -3.50878 0.616134
  154 140.171 -3.60385 0.744097
  155 157.007 -3.26867 0.591795
  156 176.960 -2.94283 0.452887
  157 195.988 -3.31248 0.761549
  158 215.161 -3.21399 0.767596
  159 233.163 -2.09673 0.996228
  160 254.063 -2.24798 1.18050
  161 274.572 -0.725586 0.886732
  162 291.384 0.342188 0.446079
  163 167.077 -15.0128 -12.8732
  164 166.388 -15.2839 12.8439
  165 49.2691 13.7402 -19.1703
  166 49.7604 13.7929 19.0817
  167 198.034 -9.82632 50.2312
  168 207.766 -11.0876 -48.8548
  169 95.3294 -4.93862 5.83968
  170 95.3239 -4.88853 -5.93415
  171 211.785 -7.08891 1.74700
  172 207.432 -7.10939 -1.68062
  173 281.189 50.9208 -7.53400
  174 286.844 1.57066 -38.4049
  175 280.952 3.83472 41.0798
  176 65.8092 -2.43647 -12.7858
  177 65.8075 -2.41700 12.7557
  178 247.872 -24.6176 14.3753
  179 247.549 -19.0538 -19.5528
  180 3.00708 5.45611 6.47107
  181 3.10834 5.49159 -6.41133
  182 338.568 68.6845 12.4381
  183 64.1782 28.4917 -44.5286
  184 68.9599 28.7752 47.8604
  185 239.831 -10.9747 9.45734
  186 360.152 75.0554 -6.82416
  187 154.044 -5.34580 -1.40939
  188 153.787 -5.49356 1.39171
  189 246.826 -7.54149 -8.57773
  190 329.879 -3.08320 -2.69611
  191 58.3182 -1.73478 2.17447
  192 58.3056 -1.75107 -2.21065
  193 24.6755 3.33036 -8.43283
  194 24.7905 3.29617 8.45178
  195 137.286 -5.29186 -31.0539
  196 136.746 -5.58888 31.4611
  197 164.305 -10.4715 -4.03805
  198 164.636 -10.4125 4.36060
  199 40.9770 -1.43452 6.70736
  200 40.9203 -1.41427 -6.72536
  201 326.410 -6.87450 19.6122
  202 265.829 -26.4753 -6.88010
  203 253.223 -2.28550 -1.44129
  204 247.412 -2.82107 1.48929
  205 248.715 29.1023 28.7762
  206 10.2974 8.43666 -2.66808
  207 10.6852 8.41477 2.84006
  208 249.134 -10.1109 33.5243
  209 227.856 17.3095 -32.7308
  210 163.339 35.8526 -104.379
  211 171.749 30.2537 96.9239
  212 3.54730 5.42582 -0.125822
  213 3.64266 5.42391 0.170705
  214 248.249 -8.93947 -34.5995
  215 434.866 61.1726 -3.97104
  216 206.389 -22.6066 17.1849
  217 207.987 -22.4712 -16.1878
  218 206.286 -14.5459 -2.13435
  219 257.188 -3.80629 4.65187
  220 122.682 -8.31795 -11.0197
  221 120.705 -8.28242 11.3940
  222 73.1755 1.57852 -19.5202
  223 73.2762 1.54877 19.3435
  224 263.439 -28.1228 -1.57330
  225 204.537 -15.4808 1.25890
  226 256.296 -3.69794 -3.71659
  227 198.565 -4.79187 0.350086
  228 200.339 -4.44145 0.0341538
  229 252.162 -11.1668 19.6352
  230 20.1205 0.247040 -7.14710
  231 20.2086 0.236995 7.14403
  232 -3.28216 -2.23637 -8.62377
  233 -3.29862 -2.25635 8.63115
  234 36.2791 -1.62682 -3.84181
  235 36.3251 -1.63073 3.80707
  236 104.751 -2.99357 2.57213
  237 104.780 -3.05116 -2.59543
  238 121.591 8.30674 -45.8636
  239 121.605 6.90840 45.3344
  240 255.862 -7.85272 -16.7871
  241 118.778 -6.87590 -18.4292
  242 118.876 -7.08838 18.1475
  243 223.754 3.31568 36.9288
  244 194.311 16.7481 2.22883
  245 219.170 -21.7947 -1.93826
  246 0.862335 -5.68654 -8.04287
  247 0.788988 -5.74403 8.10697
  248 13.7203 13.1774 -14.7640
  249 14.6234 12.6718 15.5697
  250 215.461 -21.3141 0.484569
  251 391.199 71.6348 -2.94655
  252 19.5719 13.3587 -5.87114
  253 19.8133 13.3511 5.94823
  254 -8.58916 1.75744 6.00980
  255 -8.54708 1.76653 -5.98094
  256 393.496 66.8357 5.06519
  257 135.467 -6.35599 -4.03159
  258 135.359 -6.24891 3.93544
  259 268.081 -18.3145 31.4680
  260 487.540 79.2088 48.4696
  261 78.4371 -4.08702 -10.4292
  262 78.4150 -4.11580 10.4156
  263 272.150 40.6619 -27.7524
  264 469.962 89.0678 -43.7434
  265 327.131 31.9562 27.5660
  266 357.372 20.3415 -64.8010
  267 219.360 -10.1426 4.09710
  268 248.832 0.981000 -41.6557
  269 236.452 -16.5767 -11.5030
  270 264.100 -4.59542 10.6995
  271 -0.867971 2.51083 -2.35572
  272 -0.772805 2.50261 2.38722
  273 261.754 -9.44314 -63.0738
  274 27.0621 8.52293 -8.41843
  275 27.1937 8.50642 8.46646
  276 252.596 -6.08870 -21.2553
  277 35.7243 35.6409 -46.1735
  278 27.6373 -0.119135 -0.876760
  279 27.6570 -0.112416 0.861864
  280 267.015 -16.8142 -32.7728
  281 46.0771 20.6903 -24.3490
  282 46.7496 20.5732 24.4166
  283 11.6442 -0.396526 5.01623
  284 11.5525 -0.391350 -5.02142
  285 219.052 -9.60432 -3.97987
  286 35.9671 35.2462 47.4568
  287 351.503 24.5130 76.2932
  288 93.6103 -3.63100 -3.44741
  289 93.5882 -3.60606 3.39086
  290 174.352 -6.98586 -1.08140
  291 174.264 -7.58801 1.27227
  292 148.831 13.9814 -70.2923
  293 241.056 -26.4832 -5.16593
  294 275.986 -1.50765 2.07863
  295 143.292 13.9398 67.9447
  296 166.806 -4.28452 -0.330009
  297 166.741 -4.28070 0.477014
  298 236.820 -17.2692 11.7262
  299 273.259 -2.74069 -5.13553
  300 -3.01296 1.02766 -3.80526
  301 -2.90871 1.02001 3.81948
  302 341.718 68.2484 -3.53824
  303 300.310 -14.4334 17.6786
  304 271.987 -1.20595 -0.581429
  305 276.866 -1.04530 0.526413
  306 270.399 -24.2498 21.7484
  307 333.642 34.1129 -25.8142
  308 289.949 54.0307 16.1780
  309 129.271 -7.80954 -6.73363
  310 128.070 -7.95554 6.87873
  311 275.716 -1.45234 -1.44118
  312 179.338 -13.6891 -34.1157
  313 176.261 -13.7859 5.21414
  314 168.076 -9.31445 39.0556
  315 270.785 -3.10546 6.10802
  316 59.1776 -2.71633 -6.46498
  317 59.2129 -2.73661 6.43279
  318 249.221 -8.97319 62.3460
  319 156.864 -12.3066 -8.37714
  320 289.995 36.9414 34.9104
  321 91.3456 6.45009 -29.4055
  322 87.8984 6.73967 29.1487
  323 24.3249 -0.544979 -1.59514
  324 24.3612 -0.541118 1.57140
  325 238.823 -4.57532 2.84904
  326 228.950 -2.98797 0.481571
  327 227.641 -3.29818 -0.562348
  328 250.622 -6.41588 22.4990
  329 19.4175 -0.774346 3.70144
  330 19.3416 -0.766890 -3.72087
  331 70.9162 -1.64476 -1.32276
  332 70.9168 -1.61543 1.30691
  333 2.30538 -11.9030 -4.69908
  334 2.14702 -11.9940 4.88784
  335 192.563 8.27609 24.9884
  336 303.267 -13.6755 -14.7042
  337 195.160 -10.1685 1.35464
  338 221.329 -4.19564 -1.59297
  339 229.426 28.5837 -15.4178
  340 43.5324 -1.37215 -9.44515
  341 43.5866 -1.37290 9.43444
  342 189.668 -9.57363 -0.341136
  343 52.4356 1.88038 -13.6429
  344 52.5338 1.83393 13.5955
  345 9.84169 8.64072 0.441236
  346 9.96844 8.63825 -0.388076
  347 231.353 -25.0214 22.3891
  348 517.544 34.2148 13.2431
  349 203.649 2.96023 -29.6200
  350 171.266 -15.3714 20.5663
  351 170.392 -15.0684 -21.2189
  352 253.261 -4.46171 41.3019
  353 224.310 -1.70337 29.3462
  354 228.295 -24.1955 -23.1550
  355 134.631 -3.25918 0.0721699
  356 134.611 -3.30078 -0.0381227
  357 252.548 -16.5148 25.6720
  358 345.767 69.1087 2.13438
  359 272.030 -2.95000 -7.91293
  360 67.5910 -2.56873 -4.61618
  361 67.6148 -2.57063 4.56438
  362 255.770 -24.6387 -28.0197
  363 267.594 18.4405 -41.2952
  364 176.696 9.51533 -16.0148
  365 254.277 -17.0492 -29.2528
  366 -8.38384 0.251886 -6.66180
  367 -8.39326 0.241901 6.67049
  368 213.624 -4.82294 1.09161
  369 -3.04046 -1.81574 -3.92430
  370 -3.03699 -1.81642 3.91645
  371 165.676 80.2211 -127.358
  372 6.28799 5.49891 4.59313
  373 6.45212 5.54356 -4.50567
  374 222.527 -1.79961 -29.1001
  375 122.055 -5.07569 3.02634
  376 122.146 -5.14717 -3.06590
  377 -0.881494 -9.06954 7.57875
  378 -0.867622 -9.05284 -7.57053
  379 134.324 84.2103 119.793
  380 99.7138 -5.25017 -14.2884
  381 99.7886 -5.01831 14.2992
  382 31.5871 23.0509 -22.4170
  383 32.2619 22.9793 22.2798
  384 -13.0788 1.90646 2.54962
  385 -13.0214 1.90928 -2.51902
  386 257.934 16.9946 41.2716
  387 197.998 -20.7209 9.18793
  388 198.206 -17.9974 3.05868
  389 240.821 -27.4733 -2.10608
  390 59.0899 7.48372 -19.0989
  391 59.2862 7.46830 19.0655
  392 5.21934 -8.61065 0.0785088
  393 4.92750 -8.73369 0.337465
  394 241.996 34.6716 10.1944
  395 245.946 -6.85260 7.07723
  396 139.304 -10.7477 13.0193
  397 85.5094 -2.10438 -17.2207
  398 85.5369 -2.12000 17.0814
  399 178.419 -5.18039 -0.275072
  400 178.221 -4.51415 0.123243
  401 138.127 -11.0441 -13.8788
  402 107.668 -1.78964 -23.5109
  403 107.647 -1.93990 23.7021
  404 256.071 -23.5758 -18.3831
  405 147.516 -11.2447 7.94142
  406 233.095 -6.89878 4.38677
  407 232.690 -6.25955 -3.71139
  408 194.504 -17.8602 -3.76965
  409 281.474 -1.08644 -2.19460
  410 93.2899 37.3117 -71.1789
  411 263.647 -3.73524 12.9971
  412 280.506 -1.34333 3.21330
  413 97.9067 -5.18313 8.43453
  414 97.9550 -5.11131 -8.42748
  415 197.099 -20.4711 -9.53510
  416 27.3747 12.3613 9.04905
  417 27.2254 12.3537 -9.05919
  418 522.978 34.1888 -27.1274
  419 228.198 -12.8723 -6.80635
  420 283.691 -0.847807 1.26508
  421 88.0102 34.7555 67.7010
  422 417.682 70.4832 13.0431
  423 245.463 -3.51085 -2.28623
  424 182.379 -13.1051 -2.87132
  425 75.2837 14.5486 -33.2922
  426 80.2781 13.4945 33.0937
  427 225.388 -14.1555 6.90021
  428 238.215 -3.09580 -21.6544
  429 -3.29876 -0.207103 3.74684
  430 -3.40702 -0.204559 -3.74517
  431 85.3158 20.4426 -44.9577
  432 85.5857 20.5190 44.8167
  433 9.36527 4.74900 -3.69382
  434 9.47065 4.73808 3.73311
  435 202.112 -3.66180 0.522402
  436 201.869 -3.55880 -0.452215
  437 251.757 -11.4267 -20.5173
  438 -0.822444 -0.891546 9.38784
  439 -0.777578 -0.852411 -9.35401
  440 259.493 -25.7188 16.2437
  441 245.673 -6.37967 -6.28314
  442 397.243 76.1244 -10.9652
  443 13.4288 -0.703709 1.72230
  444 13.3651 -0.703863 -1.74306
  445 480.197 134.300 59.1027
  446 9.39587 2.35115 -13.3931
  447 28.1818 1.45012 -9.16576
  448 28.2763 1.42723 9.16230
  449 478.574 137.272 -56.4748
  450 9.96126 3.42080 14.8175
  451 -12.7784 1.49797 0.841059
  452 -12.7047 1.49544 -0.812304
  453 25.8975 17.6991 -12.8610
  454 26.3529 17.7025 12.9334
  455 309.753 48.2635 -29.0521
  456 249.112 -9.61544 -13.3891
  457 282.135 -0.926495 -1.13043
  458 260.120 -3.94660 -15.2113
  459 -3.23487 1.78683 8.61012
  460 -3.18928 1.81181 -8.57848
  461 251.662 -10.0448 15.5105
  462 162.473 -8.98101 -3.16549
  463 161.964 -9.07657 2.60801
  464 221.579 -24.4641 -2.71423
  465 157.510 -2.31481 -48.1129
  466 240.694 -3.71627 22.1436
  467 197.186 -6.15257 -0.389945
  468 290.921 -22.1939 -2.17440
  469 152.536 1.19922 51.6476
  470 9.77727 -0.200268 3.61661
  471 9.68459 -0.195725 -3.62611
  472 317.971 62.9186 -13.2898
  473 255.754 -1.69322 0.198965
  474 254.861 -1.94407 -0.435661
  475 191.738 -12.6518 0.687145
  476 82.1192 -2.72779 -2.54256
  477 82.1096 -2.69364 2.50725
  478 48.0948 -0.522625 -11.1987
  479 48.1483 -0.532211 11.1726
  480 158.471 6.15107 9.55911
  481 38.7168 -1.31380 5.35380
  482 38.6635 -1.30089 -5.38400
  483 42.3253 4.15824 12.6007
  484 42.1845 4.21983 -12.5920
  485 247.119 -19.1161 18.8075
  486 137.241 -8.52699 -22.0333
  487 126.234 -3.93974 1.50363
  488 126.283 -4.04310 -1.50744
  489 138.704 -8.79794 22.0239
  490 386.944 91.3848 -6.64917
  491 -6.19150 -0.949041 -5.11685
  492 -6.18856 -0.953898 5.11430
  493 95.2317 -2.58066 -1.04374
  494 95.2275 -2.53843 1.03863
  495 0.0902009 -16.8073 -6.40426
  496 0.0498800 -16.8617 6.45973
  497 225.857 -3.14391 0.938357
  498 157.432 7.55886 -4.76416
  499 213.882 22.4716 13.8154
  500 136.471 -1.35213 -38.1498
  501 65.5658 -3.35352 8.13770
  502 65.5631 -3.32484 -8.15455
  503 -18.0998 0.567687 -1.19101
  504 -17.9993 0.564330 1.20387
  505 266.595 -5.19785 -41.1135
  506 18.8659 0.142868 -1.18205
  507 18.8949 0.146343 1.16503
  508 221.936 -17.3905 -5.78800
  509 236.665 -20.1130 -11.2115
  510 47.7416 35.9052 -47.7651
  511 198.810 5.00261 -76.4636
  512 2.16333 5.84554 4.30727
  513 2.25752 5.85740 -4.25535
  514 120.220 -5.45036 -4.49574
  515 120.155 -5.39784 4.38649
  516 343.144 13.4793 -9.60317
  517 246.169 -14.4587 -17.0362
  518 46.5278 33.8969 47.0763
  519 243.936 -27.7778 5.89469
  520 234.448 -22.2695 8.90585
  521 47.7698 -1.15560 -3.50367
  522 47.7959 -1.15048 3.46528
  523 190.364 2.00669 22.9187
  524 138.167 -10.0901 -8.47300
  525 260.098 -5.62123 9.74219
  526 -1.07747 -6.30997 -4.96176
  527 -1.08015 -6.30548 4.95500
  528 181.351 -16.1111 24.7382
  529 277.129 -21.4493 -21.8340
  530 362.845 24.0365 -11.1658
  531 194.748 -6.38965 0.520536
  532 55.8280 -1.01453 -1.03539
  533 55.8354 -0.993122 1.02492
  534 122.558 0.977906 36.7101
  535 345.614 57.2409 20.1607
  536 353.480 66.3810 -121.633
  537 315.081 1.17952 21.0836
  538 226.042 -25.1491 1.48909
  539 539.602 42.8944 36.2982
  540 396.875 95.1565 9.96163
  541 54.2139 -2.24297 8.90256
  542 54.1767 -2.21995 -8.92055
  543 217.198 -17.9079 4.42970
  544 15.5192 7.70093 -3.32413
  545 15.6395 7.69560 3.37091
  546 273.702 -22.9513 21.8188
  547 221.874 11.8786 33.9225
  548 276.236 -1.69305 5.40721
  549 203.164 -12.0151 2.14550
  550 286.463 1.31317 -80.6025
  551 456.555 114.824 78.3708
  552 220.783 -4.07908 -0.845306
  553 271.046 -2.68480 -8.64063
  554 41.7266 17.4854 -18.0609
  555 42.0316 17.2733 17.9734
  556 153.667 -5.98854 -2.01195
  557 153.594 -5.83923 2.06079
  558 1.73480 -20.8391 -1.82108
  559 276.039 -10.0986 36.8003
  560 10.1714 9.28793 1.51344
  561 10.3378 9.31241 -1.43603
  562 2.04012 -20.1669 2.40753
  563 250.910 -11.4828 -29.6559
  564 288.942 17.8903 -39.7505
  565 287.845 20.3148 39.7378
  566 13.5345 11.0203 9.63385
  567 12.8405 11.3035 -9.40576
  568 -9.24800 0.276342 2.80233
  569 -9.35990 0.279074 -2.79731
  570 266.643 5.75595 83.1785
  571 144.310 -7.84888 4.34519
  572 144.459 -7.82052 -4.44752
  573 322.041 -6.77635 -41.7226
  574 39.1281 -0.536614 2.03586
  575 39.1074 -0.546219 -2.06150
  576 16.5531 -0.502952 -0.486561
  577 16.5699 -0.499626 0.480615
  578 352.569 63.4114 -16.6259
  579 33.2021 46.6491 -52.9609
  580 181.660 3.57722 -19.3950
  581 259.006 41.4732 -17.4049
  582 3.67182 -0.493964 5.99940
  583 3.82897 -0.438847 -5.89393
  584 266.475 117.833 143.453
  585 224.076 -5.99156 -2.54130
  586 6.89637 2.29470 -4.61377
  587 6.99942 2.27806 4.63732
  588 258.777 -20.9189 25.7803
  589 39.3177 45.1343 53.9276
  590 186.035 -3.65485 0.145987
  591 186.085 -3.62150 -0.146762
  592 -0.223232 -13.3110 6.59654
  593 -0.203069 -13.2890 -6.57481
  594 317.414 62.1391 -0.508067
  595 201.662 -16.4222 35.5861
  596 192.346 -8.00170 0.340278
  597 193.922 8.20758 80.7075
  598 -16.2043 0.804141 3.99619
  599 -16.1877 0.808485 -3.98044
  600 319.058 3.47135 -22.6015
  601 428.210 68.7571 -55.3896
  602 119.977 12.0471 -53.3016
  603 63.7263 -2.63406 -10.8942
  604 63.7829 -2.63403 10.8939
  605 289.682 -0.844123 1.55698
  606 190.402 -8.18101 -0.586980
  607 256.715 -3.27079 3.46111
  608 250.934 -11.4724 28.9691
  609 8.24756 -0.406878 1.77897
  610 8.16790 -0.405092 -1.79446
  611 147.608 -4.94844 -1.14858
  612 147.585 -4.80492 1.10211
  613 91.5385 2.06128 -24.2704
  614 90.9358 2.08682 24.1553
  615 365.189 20.0035 19.6959
  616 600.412 45.2401 -65.8080
  617 -6.29237 -0.357035 2.46580
  618 -6.40691 -0.355792 -2.46588
  619 85.7907 -3.55907 4.72448
  620 85.7895 -3.55528 -4.79557
  621 339.503 17.5042 14.2440
  622 286.593 -0.851510 -0.494958
  623 285.946 -1.30464 0.225434
  624 203.846 -0.131783 22.7147
  625 298.606 -18.2259 -24.9878
  626 160.418 -13.0724 10.1441
  627 -4.15313 3.58690 -3.91787
  628 -4.22363 3.58168 3.95834
  629 258.124 5.03486 43.0487
  630 100.943 -5.73473 -11.3250
  631 100.839 -5.83230 11.3475
  632 210.538 -11.9852 -2.93099
  633 261.368 -5.53473 -8.82631
  634 147.583 -11.7031 -15.7325
  635 242.179 29.1897 -26.1455
  636 163.630 -11.3429 -28.8447
  637 58.0224 -1.54457 -1.78084
  638 58.0301 -1.52497 1.75431
  639 149.147 -11.9201 15.7871
  640 323.175 51.7225 26.2949
  641 256.667 -12.6316 36.4847
  642 210.163 -9.12197 2.65258
  643 149.236 -3.75056 0.848790
  644 149.198 -3.76006 -0.819664
  645 111.658 -4.03510 -3.31955
  646 111.613 -3.98822 3.27923
  647 247.438 -22.7480 -15.3091
  648 123.667 -6.87138 5.83742
  649 123.806 -6.84434 -5.97063
  650 246.125 38.1246 -3.52038
  651 228.617 -11.8205 6.84496
  652 287.954 -1.22540 -2.38878
  653 242.109 -4.59555 -37.8082
  654 33.1336 -1.49392 7.13952
  655 33.0677 -1.48310 -7.14794
  656 280.455 -1.43300 -4.89147
  657 48.8443 25.0789 -33.3772
  658 49.6899 25.0121 33.5424
  659 285.728 -17.9994 35.2151
  660 96.8618 23.9522 56.1274
  661 22.2530 -0.102828 7.14992
  662 22.1727 -0.0973635 -7.15535
  663 242.781 -16.2142 46.1766
  664 239.894 32.1405 -110.482
  665 231.160 7.09214 -37.6382
  666 306.097 55.2404 22.4832
  667 206.473 -8.92345 -1.72819
  668 372.254 67.3740 -1.63354
  669 -18.6888 0.847896 -0.664081
  670 -18.6034 0.845580 0.682493
  671 164.233 0.450296 -56.5774
  672 8.79301 -0.234835 1.39171
  673 8.73791 -0.235464 -1.40748
  674 206.656 -17.6624 -35.1551
  675 67.2473 9.34230 -23.3515
  676 66.6989 9.37239 23.3365
  677 0.593136 3.41612 -1.06250
  678 0.685911 3.41115 1.10167
  679 174.984 -15.0261 -7.33474
  680 248.506 -2.43982 -14.5582
  681 116.940 -3.47208 -1.21785
  682 116.944 -3.43013 1.22828
  683 83.9729 -4.24502 -7.16696
  684 84.0363 -4.30558 7.13683
  685 15.6755 12.9074 -3.88097
  686 15.9447 12.9332 3.97045
  687 256.366 -2.78677 1.80857
  688 111.805 -7.01447 9.35104
  689 112.544 -6.88761 -9.34040
  690 283.358 -23.1657 -4.82692
  691 232.820 -23.4006 -6.38979
  692 182.435 -4.86680 0.130816
  693 181.777 -4.51374 -0.0351784
  694 256.969 -27.5287 12.6673
  695 418.330 84.1750 20.9228
  696 225.583 -10.6056 -57.7100
  697 258.449 -7.10745 15.4192
  698 256.000 -9.73116 -39.0556
  699 77.7083 -2.35546 -3.31187
  700 77.7044 -2.33617 3.26477
  701 200.265 -3.95020 64.8750
  702 566.871 72.3383 66.3990
  703 37.4179 11.0889 -13.1280
  704 37.4721 11.1620 13.1720
  705 255.627 -2.19356 -0.925387
  706 257.692 -1.94957 0.941456
  707 107.546 53.0281 -91.8664
  708 270.983 -1.36909 8.60375
  709 234.212 -3.70641 1.54690
  710 307.336 61.1249 -8.39226
  711 30.2432 5.59934 -9.39813
  712 30.3774 5.56349 9.43383
  713 292.571 -0.614805 0.299130
  714 235.289 -8.82158 -6.61481
  715 293.603 -4.98279 32.5337
  716 118.545 -8.23907 -14.9324
  717 118.844 -7.87779 14.7798
  718 25.1171 -0.911343 5.40639
  719 25.0441 -0.899575 -5.42332
  720 267.401 -1.56273 -1.63534
  721 230.206 43.3682 117.432
  722 1.46733 1.47800 7.95825
  723 1.55231 1.52759 -7.89994
  724 267.779 -2.66684 -4.15491
  725 259.774 -4.53483 5.90702
  726 202.835 0.0779339 -24.3626
  727 1.87834 -24.2602 -3.36136
  728 1.75153 -24.4919 3.59439
  729 93.1526 24.6612 -56.1120
  730 206.203 -20.8605 -25.0176
  731 106.651 52.5803 92.7895
  732 288.550 -0.591507 0.963043
  733 275.465 41.1454 27.9000
  734 198.885 18.1069 -9.61104
  735 362.458 73.1055 -0.720244
  736 284.506 -1.08254 3.20794
  737 -18.1295 0.420574 1.96341
  738 -18.2401 0.422894 -1.95540
  739 302.280 -18.0109 6.33675
  740 194.411 -5.29529 0.143829
  741 69.2926 0.191410 -16.4829
  742 69.3810 0.120971 16.3804
  743 260.013 -2.78891 -2.51175
  744 460.336 65.2594 -23.1204
  745 28.3269 -0.867849 -3.33077
  746 28.3867 -0.873083 3.30346
  747 290.557 -0.674770 -1.50836
  748 55.1646 -2.47489 -4.65776
  749 55.1974 -2.48368 4.61744
  750 282.517 -11.7029 -33.3945
  751 260.723 -2.68620 11.7940
  752 232.505 -1.69422 37.3049
  753 291.223 -0.703442 -0.0585999
  754 271.085 -1.83334 3.20312
  755 175.522 -9.21584 -1.19084
  756 221.185 -5.50169 1.97281
  757 251.298 -15.4821 -24.9294
  758 245.236 -15.3295 16.4855
  759 286.817 34.3337 -35.2540
  760 241.926 -13.4191 12.3638
  761 255.273 -15.2369 31.7129
  762 146.854 -9.78282 5.97597
  763 5.15090 -2.26928 -1.02372
  764 4.86802 -2.28555 1.29120
  765 224.103 -3.03300 0.0628638
  766 223.622 -3.00853 -0.147024
  767 270.035 -0.979773 -0.191662
  768 270.991 -0.923537 0.256435
  769 255.761 -7.11194 18.7806
  770 236.211 -22.1029 33.0788
  771 193.241 -15.5401 2.02215
  772 171.275 -9.99914 2.49745
  773 469.864 60.3106 27.0677
  774 259.008 -6.41616 -12.2479
  775 151.017 25.6186 -86.2832
  776 240.419 -11.6924 -10.7361
  777 8.06423 0.221809 -5.06018
  778 8.16448 0.213011 5.06620
  779 212.314 18.6080 -21.5577
  780 551.965 16.7772 -7.24519
  781 269.973 6.58002 -42.2634
  782 10.5819 3.64864 -20.3252
  783 276.938 50.0238 7.16505
  784 216.930 -13.5970 4.24906
  785 243.153 -6.23261 36.7093
  786 205.125 -21.7622 25.1597
  787 330.881 -3.49841 51.8576
  788 11.4068 6.16759 21.7620
  789 147.638 -1.03789 43.8514
  790 207.432 -5.02983 -0.892952
  791 231.511 -21.1576 -33.4979
  792 140.757 -10.8699 -10.8072
  793 111.021 5.23810 -38.1553
  794 267.813 -4.50748 41.4281
  795 171.021 -11.4884 4.38104
  796 30.4205 -0.906396 3.01396
  797 30.3776 -0.907618 -3.04463
  798 249.284 -1.34307 12.9059
  799 224.914 0.977640 -36.1889
  800 -20.0653 0.888801 2.53183
  801 -20.0351 0.890390 -2.51475
  802 166.353 -4.95137 -0.324816
  803 165.858 -4.66457 0.272747
  804 123.125 13.5260 54.1034
  805 109.030 -6.27889 6.94939
  806 109.189 -6.12169 -7.03003
  807 290.463 -0.457571 -0.850257
  808 99.7871 7.86557 37.1453
  809 0.789212 -0.0928178 1.92039
  810 0.689078 -0.0906816 -1.92965
  811 246.234 -7.66362 28.4703
  812 265.032 -2.02603 1.31258
  813 -14.1546 0.149713 3.93416
  814 -14.1563 0.154184 -3.92632
  815 161.472 -10.2457 32.5155
  816 30.6913 25.2620 -28.0584
  817 31.0738 24.0445 27.6194
  818 149.772 6.68180 3.97162
  819 -4.85970 -0.141987 -2.21036
  820 -4.74552 -0.143557 2.20753
  821 186.028 -17.7723 -23.5404
  822 254.962 -26.9270 -9.80098
  823 -1.26035 -1.19850 -1.57947
  824 -1.25671 -1.19576 1.57370
  825 10.5309 0.447154 -0.439941
  826 10.5536 0.449630 0.430923
  827 226.424 -20.0791 6.64878
  828 190.122 -19.5162 16.0943
  829 211.246 -3.24635 0.746791
  830 189.603 -15.1538 -2.75365
  831 67.3650 -1.05583 -0.326990
  832 67.3688 -1.02762 0.320370
  833 -22.7829 0.480694 1.51756
  834 -22.7345 0.480039 -1.50086
  835 239.269 -2.80942 -1.22679
  836 208.914 8.09507 -30.7277
  837 241.860 -4.53529 -3.53554
  838 141.049 -10.6691 10.2670
  839 237.757 -4.24106 -29.9800
  840 255.484 -7.73055 -19.4096
  841 240.264 -2.37134 1.10616
  842 174.183 -6.89133 45.0046
  843 186.104 -18.1301 -8.70447
  844 111.279 -0.822557 -29.0430
  845 111.900 -0.0485996 29.1948
  846 158.157 -11.7028 -6.48287
  847 263.199 28.3236 36.1360
  848 251.179 -26.5059 -17.6994
  849 88.2609 -2.71227 -1.63349
  850 88.2496 -2.66911 1.61409
  851 191.238 -4.05081 -0.0523567
  852 191.243 -4.08698 0.101776
  853 226.795 -1.75906 -19.5623
  854 74.9360 -3.13234 -5.77661
  855 74.9734 -3.15643 5.72215
  856 0.896896 -24.1868 -4.88750
  857 0.847456 -24.2900 4.98488
  858 36.1088 -0.536633 -0.216057
  859 36.0951 -0.548554 0.208128
  860 237.376 -3.44064 -1.72658
  861 179.019 -17.0506 14.4909
  862 279.830 -24.3861 10.4352
  863 160.237 3.37682 15.2177
  864 242.692 -5.46734 4.03418
  865 264.619 -23.9495 -20.3577
  866 36.6765 2.44503 -10.8867
  867 36.7853 2.40482 10.8784
  868 210.154 -3.50588 -0.685421
  869 168.396 -5.60898 -1.00912
  870 167.797 -5.55588 1.15889
  871 259.767 40.5021 19.5982
  872 89.4007 -0.824899 -20.0210
  873 89.3098 -0.930688 19.9265
  874 180.696 -16.2385 6.77957
  875 16.8060 11.1518 -3.30830
  876 16.9767 11.1287 3.35588
  877 152.487 -10.8852 26.2982
  878 183.330 -11.5004 -1.21782
  879 228.177 -1.82020 19.7686
  880 225.886 -25.5341 7.42119
  881 259.095 -19.8628 -27.7264
  882 178.582 -17.1911 -14.7124
  883 147.939 -9.73970 -5.71120
  884 491.634 40.5516 -7.51804
  885 236.742 -25.1398 4.96665
  886 6.26656 7.54801 3.30555
  887 6.38881 7.56192 -3.24220
  888 205.339 -20.5242 3.13785
  889 225.578 -25.5592 -13.8415
  890 6.55597 6.66873 0.769579
  891 6.66279 6.66988 -0.721466
  892 83.3886 -2.89808 15.0523
  893 83.4457 -2.98982 -15.1491
  894 101.467 -5.07138 16.5406
  895 101.434 -5.19583 -16.6640
  896 325.288 65.3121 10.6575
  897 -0.498041 -10.0698 -4.82879
  898 -0.501538 -10.0585 4.82573
  899 73.5073 6.30340 -22.1948
  900 73.1364 6.17307 21.9641
  901 571.104 18.5260 -28.9807
  902 7.72386 -0.0438861 0.766024
  903 7.68342 -0.0457534 -0.778393
  904 0.933746 -28.1107 1.90057
  905 1.09585 -27.6542 -1.51467
  906 -10.7805 -0.147501 4.00846
  907 -10.7917 -0.144195 -4.00700
  908 58.6973 17.3142 -26.2144
  909 59.6112 16.7412 25.8275
  910 -4.86262 0.136643 -8.52896
  911 -4.88616 0.118098 8.54405
  912 15.7832 1.57321 -6.99497
  913 15.8862 1.55327 7.00431
  914 63.6427 -0.657494 13.8286
  915 63.6020 -0.654576 -13.9049
  916 51.4788 -1.72547 -11.1244
  917 51.5286 -1.72172 11.1035
  918 281.528 -0.972097 -4.78515
  919 135.853 28.3955 80.0804
  920 187.988 -18.4858 8.07820
  921 132.619 -9.37738 8.14832
  922 257.211 26.3224 -35.6314
  923 561.541 12.1040 11.5187
  924 306.801 13.3493 -34.5334
  925 48.5939 -1.86673 6.88674
  926 48.5473 -1.84489 -6.91614
  927 7.13367 -0.265250 -5.07973
  928 7.23090 -0.268090 5.07844
  929 -0.294960 -4.98204 -9.32210
  930 -0.335079 -5.02133 9.35294
  931 137.096 -5.83603 3.44025
  932 137.171 -5.95654 -3.46144
  933 15.5389 4.50288 -6.07396
  934 15.6503 4.48222 6.10755
  935 82.6735 -3.61957 -12.7025
  936 82.7262 -3.61877 12.6916
  937 179.324 -0.896438 -17.9331
  938 85.2168 -4.57844 -8.68081
  939 85.1515 -4.52580 8.71017
  940 211.623 -5.58672 -1.11551
  941 255.988 -14.8150 -33.9995
  942 110.100 -4.31761 3.78928
  943 110.157 -4.36044 -3.84834
  944 -4.60465 -0.503480 -2.79668
  945 -4.59244 -0.504684 2.79091
  946 261.612 -20.7885 -41.2603
  947 249.894 -14.6046 21.7762
  948 218.988 -15.1138 -5.32672
  949 211.708 7.10199 32.3959
  950 95.4236 -5.28592 -9.80113
  951 95.4184 -5.18091 9.83318
  952 237.508 8.90188 39.2989
  953 220.929 19.2137 25.8544
  954 458.050 55.3046 9.53600
  955 233.393 -8.08429 4.97872
  956 121.050 -3.40145 -1.69003
  957 121.032 -3.32813 1.70638
  958 208.444 -16.9267 -1.71582
  959 288.063 52.9454 -16.9356
  960 256.427 -2.46377 -1.82413
  961 166.763 -3.75353 0.546395
  962 166.696 -3.72215 -0.497608
  963 20.6796 17.2770 -11.7466
  964 21.2157 17.2399 11.8421
  965 40.3316 97.3622 -89.4886
  966 238.363 -5.73075 29.8337
  967 298.611 -6.17427 -29.1883
  968 -5.68841 2.84601 1.92433
  969 -5.61142 2.84516 -1.88636
  970 614.723 144.011 -115.566
  971 255.417 -27.9664 4.22870
  972 272.762 -25.6463 -9.52490
  973 251.267 -21.5783 20.0479
  974 309.918 61.2331 7.22967
  975 21.9153 21.9209 -26.0752
  976 56.9521 83.7138 87.4742
  977 -1.61370 -3.64789 9.25827
  978 -1.58876 -3.61908 -9.24237
  979 244.934 -5.96733 4.99052
  980 393.374 69.9088 -7.83877
  981 22.5670 21.3831 27.1653
  982 -1.09031 -3.59697 -3.10973
  983 -1.09059 -3.58733 3.10193
  984 209.582 -4.51240 0.541115
  985 155.405 -12.2507 -11.2451
  986 253.199 -20.0740 -23.5953
  987 70.7360 18.9994 -34.9544
  988 71.8791 19.3170 35.0469
  989 245.305 -6.11466 -26.6867
  990 248.170 -7.61244 8.98371
  991 -6.83501 1.59470 7.56486
  992 -6.80198 1.61105 -7.54093
  993 148.390 -9.78959 -24.6738
  994 246.815 15.5593 -39.5444
  995 183.764 -6.55444 0.221857
  996 131.117 -3.50097 0.240404
  997 131.093 -3.52679 -0.225094
  998 -2.83592 -3.21473 -6.53681
  999 -2.84007 -3.22166 6.53198
  1000 251.520 -8.74338 -10.9589
  1001 239.787 -2.31074 0.343600
  1002 239.562 -2.31327 -0.243360
  1003 330.836 53.4848 -24.4966
  1004 58.1443 5.16754 -17.3500
  1005 58.2881 5.06420 17.3066
  1006 36.2171 -0.292899 -9.17563
  1007 36.2842 -0.300389 9.16188
  1008 271.684 14.1817 42.7527
  1009 258.334 -4.58908 -6.20085
  1010 44.1205 7.12007 -13.9788
  1011 44.2967 7.06569 14.0309
  1012 270.270 -1.17826 -1.07478
  1013 251.086 -10.6939 -16.4592
  1014 245.165 -27.9115 -9.19962
  1015 8.95009 7.41851 -0.777724
  1016 8.69133 7.38313 0.894702
  1017 -12.2283 1.90269 4.59329
  1018 -12.1857 1.90779 -4.56510
  1019 144.473 5.52639 -6.64433
  1020 426.055 104.601 -26.9233
  1021 193.010 -13.8511 -0.317521
  1022 126.775 -5.52573 -25.4400
  1023 311.899 -13.2414 4.40226
  1024 127.277 -5.52467 25.8060
  1025 222.467 -26.0505 16.3900
  1026 252.286 -10.4049 -24.4355
  1027 84.3034 -1.85466 -0.523571
  1028 84.3048 -1.81845 0.519481
  1029 171.412 -13.2238 -5.45558
  1030 104.153 -3.82507 -19.6516
  1031 104.107 -3.85412 19.5428
  1032 34.1307 22.2441 -21.1857
  1033 34.6815 22.1731 21.2487
  1034 70.4116 -2.19224 -1.87828
  1035 70.4112 -2.16311 1.85040
  1036 224.627 -6.78189 2.84824
  1037 189.131 0.373253 -65.7254
  1038 232.938 -7.25348 -4.92536
  1039 209.815 -23.2398 -9.43073
  1040 136.727 -5.54696 2.29606
  1041 136.845 -5.59127 -2.30569
  1042 273.965 -1.43810 1.35355
  1043 244.023 -5.48275 -4.68400
  1044 152.872 3.69664 12.5210
  1045 261.058 -2.55627 -10.9634
  1046 100.056 28.8290 63.7786
  1047 269.208 -2.43255 -9.02545
  1048 68.9080 11.6645 -26.1273
  1049 66.8043 11.8003 25.0243
  1050 322.435 -6.41036 -5.86979
  1051 28.0844 14.8335 -10.6798
  1052 28.3480 14.7245 10.6751
  1053 4.68701 -1.00441 3.41618
  1054 4.93314 -0.960665 -3.25411
  1055 38.9048 -1.05236 2.29356
  1056 38.8754 -1.05978 -2.32573
  1057 114.051 29.2010 -70.8589
  1058 635.344 162.632 124.344
  1059 250.648 -8.74306 11.2426
  1060 224.461 -25.3051 -6.56187
  1061 155.028 -12.7227 -18.8481
  1062 -3.58792 3.31901 6.71443
  1063 -3.52848 3.33722 -6.67470
  1064 175.323 -8.74371 0.863444
  1065 193.837 -6.85453 -0.508539
  1066 -0.108969 -14.2895 4.67490
  1067 -0.104100 -14.3024 -4.67329
  1068 28.3290 17.6794 -12.8349
  1069 28.6727 17.6435 12.9143
  1070 172.932 -8.00594 -0.808422
  1071 12.6923 6.27088 3.58890
  1072 12.5810 6.28016 -3.54502
  1073 265.388 -10.7291 39.3850
  1074 191.590 -19.8716 -16.0127
  1075 155.962 -12.9289 18.8459
  1076 252.203 -5.29389 -41.2315
  1077 268.089 -2.67230 4.50620
  1078 95.4879 14.6230 42.4589
  1079 96.1783 13.9993 -41.7392
  1080 154.945 -7.59943 -35.6444
  1081 220.777 -7.57391 -2.94093
  1082 178.639 -10.4979 2.16484
  1083 209.867 -19.5011 0.345212
  1084 290.328 -0.926011 -2.54105
  1085 154.543 -6.85147 2.27250
  1086 154.476 -7.26315 -2.36362
  1087 4.85514 5.78891 5.69259
  1088 4.98232 5.83237 -5.62001
  1089 253.981 9.12673 -42.5426
  1090 55.7171 2.94542 -15.2697
  1091 55.8652 2.88119 15.2228
  1092 41.3441 0.900635 -10.8370
  1093 41.4326 0.876854 10.8138
  1094 292.167 -12.7801 52.1715
  1095 252.024 -11.5715 24.1281
  1096 122.020 -5.55123 -21.4616
  1097 295.398 -1.08372 -1.52337
  1098 328.906 61.9272 -18.6065
  1099 267.708 -2.29668 -2.90137
  1100 249.899 -27.0646 9.61689
  1101 184.198 -14.1518 31.1064
  1102 297.607 -0.261378 0.325256
  1103 152.573 4.79272 -10.6237
  1104 211.348 -22.5904 -3.80109
  1105 122.212 -5.80713 21.2117
  1106 213.350 -19.3329 -1.57926
  1107 267.338 -3.62204 8.24160
  1108 188.166 11.9109 16.6045
  1109 131.349 -9.58830 -16.9453
  1110 405.673 55.6186 -21.5042
  1111 302.991 13.1584 36.1169
  1112 223.648 28.1075 4.09060
  1113 293.988 0.138031 1.38114
  1114 113.633 -7.00832 -12.8398
  1115 77.6981 47.2746 -71.0500
  1116 139.541 3.57496 -51.0363
  1117 160.104 -12.1531 7.76506
  1118 134.861 -10.0268 15.8107
  1119 113.347 -6.65590 12.9806
  1120 241.291 1.90942 41.2758
  1121 182.475 -6.05300 -0.0125728
  1122 289.441 -2.05829 3.37156
  1123 -2.44924 -0.330785 9.29783
  1124 -2.41492 -0.302171 -9.27471
  1125 191.347 -5.13582 -0.278477
  1126 -0.455705 1.95948 8.54343
  1127 -0.393890 1.99664 -8.49997
  1128 105.878 -3.19060 2.22132
  1129 105.890 -3.24540 -2.22458
  1130 271.673 -1.40847 7.49518
  1131 217.741 -13.1117 -4.48844
  1132 203.759 -10.6328 -1.77239
  1133 228.216 -15.8283 8.49782
  1134 68.6893 33.7811 -52.7035
  1135 223.861 -8.17845 3.73847
  1136 31.8244 0.680551 -8.85444
  1137 31.9081 0.664067 8.84497
  1138 45.7555 29.2717 -36.7686
  1139 359.306 45.9360 13.2407
  1140 23.5469 -1.13778 5.12997
  1141 23.4695 -1.12826 -5.14030
  1142 46.5857 28.7953 35.4636
  1143 204.487 -16.9779 0.888814
  1144 101.961 -4.64842 4.73911
  1145 101.982 -4.67184 -4.82667
  1146 419.769 88.6202 -22.3535
  1147 225.613 -22.5888 2.59595
  1148 76.4606 44.1556 70.8848
  1149 6.38676 -2.75390 -5.32234
  1150 6.89588 -2.67013 5.92645
  1151 236.003 29.6180 20.7852
  1152 17.0227 9.47970 -3.56194
  1153 17.1645 9.48142 3.60175
  1154 227.133 -19.6671 -6.99126
  1155 -0.108304 -22.1563 -4.41564
  1156 -0.118659 -22.1613 4.43570
  1157 242.947 -20.4816 -14.3261
  1158 -6.01185 0.306573 1.72187
  1159 -6.12620 0.308432 -1.72655
  1160 36.2026 13.6278 -13.9775
  1161 36.4001 13.6856 13.8408
  1162 -14.0673 0.0345855 -2.10974
  1163 -13.9461 0.0336486 2.11140
  1164 243.515 -2.33907 -0.479446
  1165 -24.7710 0.711290 0.508049
  1166 -24.7051 0.710851 -0.492752
  1167 126.914 -9.88862 -12.3371
  1168 3.33547 -33.2546 -2.78651
  1169 62.1464 -1.72752 3.65247
  1170 62.1292 -1.73440 -3.69795
  1171 206.108 -3.59634 0.239247
  1172 206.503 -3.49188 -0.198390
  1173 3.58036 -31.7763 3.52578
  1174 244.677 -12.6133 -13.9554
  1175 280.284 -1.21583 5.57339
  1176 248.463 -15.8650 -20.1589
  1177 215.019 1.52290 32.1459
  1178 1.07385 -9.26472 7.00489
  1179 1.18005 -9.19874 -6.89437
  1180 157.820 -11.3147 6.06250
  1181 -11.0518 0.957946 6.02326
  1182 -11.0315 0.966182 -6.00568
  1183 413.908 66.1365 4.21128
  1184 487.785 148.429 -104.552
  1185 254.108 -24.8016 17.6264
  1186 103.085 -2.87476 -0.277492
  1187 103.088 -2.83645 0.277698
  1188 525.473 50.9666 -46.7840
  1189 35.0905 -0.924274 5.33180
  1190 35.0289 -0.909554 -5.35519
  1191 236.213 -0.773981 -12.8100
  1192 151.331 -12.1633 13.9911
  1193 251.385 -24.7372 -13.1428
  1194 243.193 -17.6182 -15.9806
  1195 147.501 -5.28815 37.4098
  1196 53.8176 10.1279 -19.5973
  1197 53.7840 10.0372 19.4798
  1198 71.4339 26.3286 -44.6769
  1199 71.5213 24.3447 44.6751
  1200 19.6939 5.99822 -6.40973
  1201 19.8146 5.97961 6.45081
  1202 299.318 51.7556 -24.8325
  1203 15.0128 13.6332 -5.53978
  1204 15.3728 13.6499 5.64660
  1205 216.111 -16.3855 4.03673
  1206 407.740 57.5882 24.3705
  1207 49.2577 -2.07962 -3.59744
  1208 49.2893 -2.07858 3.55705
  1209 266.660 178.948 -157.525
  1210 199.997 11.8221 -25.6633
  1211 182.958 14.1234 10.4529
  1212 24.8766 10.7115 -7.60134
  1213 24.9968 10.7103 7.64601
  1214 2.61431 -0.0418293 1.26422
  1215 2.54109 -0.0417495 -1.27629
  1216 239.653 -19.1870 13.3895
  1217 235.868 -9.21043 7.23302
  1218 161.217 44.3336 -111.920
  1219 372.262 81.0847 -2.42391
  1220 158.961 -4.95928 -41.3075
  1221 206.822 -6.05767 0.914521
  1222 7.58319 -1.04073 -0.309101
  1223 7.59523 -1.04006 0.307258
  1224 -6.35835 1.61725 -2.71452
  1225 -6.26037 1.61037 2.73698
  1226 137.928 1.38112 -43.4492
  1227 256.430 -5.40853 7.89358
  1228 165.746 2.72328 59.7876
  1229 225.313 -10.9151 -5.70891
  1230 115.647 40.4817 -87.6828
  1231 180.244 -9.00889 -44.6846
  1232 215.001 -22.9576 2.58344
  1233 264.065 -4.05263 12.2493
  1234 231.566 -4.53336 -2.19597
  1235 126.361 -9.26863 12.4140
  1236 290.645 -16.7775 -22.9463
  1237 274.536 23.5359 40.5323
  1238 118.739 0.536239 -34.1247
  1239 275.742 -1.50665 1.02893
  1240 217.897 27.2211 -5.83168
  1241 93.6791 -3.17249 -3.58598
  1242 93.6565 -3.13671 3.54149
  1243 422.774 95.3117 21.0573
  1244 582.190 15.4884 27.1558
  1245 0.497760 -27.0957 -4.39733
  1246 0.481239 -27.1278 4.43099
  1247 61.0750 31.8689 49.1865
  1248 147.061 -4.06473 -0.590307
  1249 147.093 -4.03760 0.646498
  1250 202.662 -20.3429 -4.30568
  1251 240.765 19.5961 35.7946
  1252 254.480 -4.75850 -5.17997
  1253 297.342 -0.700741 -0.222652
  1254 515.086 113.810 -71.2364
  1255 77.3917 -2.87560 3.64492
  1256 77.3889 -2.88274 -3.69984
  1257 243.190 -22.5839 13.7848
  1258 429.971 102.607 -29.6234
  1259 235.974 -10.0734 -8.12031
  1260 171.369 -11.7490 -3.89503
  1261 211.208 -23.0025 9.15571
  1262 206.541 -10.0883 2.22723
  1263 7.40683 0.210890 -8.79663
  1264 283.358 -17.5650 27.0055
  1265 229.140 -14.8242 -8.27869
  1266 8.17818 0.606145 9.82713
  1267 235.849 -19.2856 -41.7883
  1268 223.226 13.0143 -91.5100
  1269 368.443 45.6694 -9.78618
  1270 298.561 -0.115451 -0.101737
  1271 298.005 -0.393224 0.277618
  1272 233.165 -13.4265 8.86997
  1273 88.5768 10.5602 -33.5440
  1274 265.788 -23.8567 21.9403
  1275 454.117 103.323 46.2353
  1276 110.741 37.3914 85.3683
  1277 2.89637 0.000281432 7.22325
  1278 3.01341 0.0561305 -7.14250
  1279 279.839 -23.0736 -21.7107
  1280 110.578 -5.92204 -5.69937
  1281 110.553 -5.93681 5.58284
  1282 259.787 -17.2653 32.7309
  1283 7.77672 0.0957533 5.64632
  1284 7.67932 0.100850 -5.64550
  1285 -1.47755 -5.50215 7.55732
  1286 -1.46783 -5.49037 -7.55804
  1287 43.8952 -1.52202 -4.86408
  1288 43.9401 -1.53124 4.82904
  1289 135.398 -8.99558 -19.3579
  1290 136.190 -4.29020 0.944709
  1291 136.187 -4.39125 -0.892340
  1292 297.335 -0.111565 -0.0212778
  1293 262.350 -3.93188 -13.7531
  1294 19.7577 1.01936 -7.01825
  1295 19.8525 1.00469 7.01927
  1296 135.942 -9.52399 19.1863
  1297 300.397 -0.241354 0.0850274
  1298 283.371 -0.0832572 -0.312258
  1299 283.373 -0.252219 0.237151
  1300 372.988 77.6002 6.24535
  1301 275.701 -1.66006 -2.30749
  1302 244.278 -2.18860 0.391284
  1303 270.711 -3.92624 -7.29030
  1304 295.612 -0.860247 1.06322
  1305 305.968 31.0198 35.8078
  1306 354.934 73.1292 10.6347
  1307 286.425 -1.05698 -3.71454
  1308 -2.30934 -0.600555 2.08177
  1309 -2.31844 -0.600091 -2.08798
  1310 157.205 -9.72352 3.99104
  1311 157.173 -9.28277 -3.85788
  1312 308.775 34.4568 -34.1841
  1313 63.2375 21.7383 -36.7257
  1314 63.6454 21.1319 36.3114
  1315 206.190 -0.0103440 -16.0682
  1316 214.299 -3.09703 -0.0541802
  1317 214.036 -3.06844 0.0100274
  1318 -5.24326 -0.920924 7.70711
  1319 -5.23365 -0.907231 -7.70380
  1320 236.956 -0.609353 12.7911
  1321 362.231 72.0947 0.202793
  1322 23.0978 -0.956340 -3.06939
  1323 23.1553 -0.958604 3.04221
  1324 267.716 -25.9745 12.6481
  1325 0.0739546 4.23541 6.91201
  1326 0.151112 4.26126 -6.86247
  1327 46.7540 -1.05605 -0.970283
  1328 46.7665 -1.03824 0.952260
  1329 206.253 -0.347152 16.3090
  1330 5.33199 0.464690 -0.456644
  1331 5.36219 0.466464 0.447593
  1332 273.255 -2.99402 4.78339
  1333 379.605 69.5081 3.06322
</Section>

newXOutput 35

<Section columns = "stress_xx | stress_yy | stress_xy">
  1 314.151 -0.737357 0.568235
  2 314.672 -0.981789 -0.738428
  3 2.28571 0.301866 -0.827047
  4 -0.211819 -0.328580 -0.205330
  5 583.202 225.099 188.064
  6 592.203 258.210 -190.141
  7 -0.209425 -0.326495 0.202229
  8 2.27398 0.300192 0.825053
  9 316.354 -0.515843 -0.520359
  10 313.896 -1.01889 -0.739779
  11 314.057 -0.779794 0.738281
  12 312.375 -0.360403 0.364771
  13 311.648 -0.953538 -0.133371
  14 310.976 -0.908218 1.33076
  15 306.144 -0.606653 1.31902
  16 307.196 -2.18713 1.93330
  17 297.145 -1.79023 4.08046
  18 290.668 -0.740615 4.89480
  19 281.818 -0.950408 5.25896
  20 266.582 -0.838930 7.28457
  21 250.096 -0.737383 8.42368
  22 229.639 1.04025 11.4943
  23 201.732 1.60336 10.3797
  24 190.617 -0.155299 14.8242
  25 156.000 2.23762 10.5215
  26 135.076 2.98123 8.22344
  27 129.633 1.35872 6.05587
  28 123.792 4.33987 0.437333
  29 126.979 4.71726 -8.09305
  30 133.435 1.31598 -10.1683
  31 159.165 0.509501 -13.6091
  32 185.230 -1.33291 -14.1915
  33 202.735 1.32641 -10.3672
  34 229.949 1.18782 -11.5026
  35 249.425 -0.880412 -9.02228
  36 268.285 -0.978320 -6.88214
  37 280.636 -0.672295 -5.33764
  38 289.772 -0.780872 -4.50551
  39 299.517 -1.02426 -2.63189
  40 303.437 -1.00181 -2.53207
  41 307.232 -0.953626 -2.21814
  42 311.115 -1.09877 -0.490067
  43 312.647 -1.41671 -0.938113
  44 310.898 0.197147 -0.111999
  45 313.701 -0.697649 -0.826096
  46 315.180 -1.53582 0.806487
  47 316.763 -0.862267 -0.0459661
  48 300.323 0.357685 -0.473320
  49 281.954 -0.929867 -0.899446
  50 261.261 -2.39454 -1.32672
  51 239.932 -1.88399 -0.969343
  52 221.411 -3.29037 -0.893777
  53 201.926 -3.61146 -0.824559
  54 182.332 -3.13008 -0.433762
  55 161.788 -3.41050 -0.580527
  56 144.452 -3.71583 -0.751340
  57 121.445 -3.59824 -0.625007
  58 97.8024 -2.22362 -0.400085
  59 78.2747 -1.41455 -0.324534
  60 54.1886 -0.892308 -0.158611
  61 36.6873 -0.912432 -1.22493
  62 20.4154 -1.31582 -0.418187
  63 4.01395 0.154353 0.721733
  64 -0.191519 1.15174 0.254108
  65 -1.33532 0.471856 0.740540
  66 -0.634049 0.214767 0.716870
  67 -3.87050 0.665060 0.278297
  68 -5.06178 0.865504 1.51750
  69 -5.41571 0.300276 0.498320
  70 -10.9287 0.635335 0.554972
  71 -13.4493 0.448112 1.44608
  72 -14.3196 0.157988 1.51011
  73 -20.2866 0.602986 1.15182
  74 -22.4594 0.894714 2.24329
  75 -24.8062 0.542983 0.760036
  76 -27.6604 0.392140 1.17502
  77 -28.6664 0.421773 0.428656
  78 -31.3548 1.00088 -0.735037
  79 -31.5731 0.686384 -0.552006
  80 -28.6779 0.525470 -1.02092
  81 -24.5812 0.673578 -1.91717
  82 -19.9071 0.289650 -2.87495
  83 -14.7853 0.155819 -2.98163
  84 -8.85786 -0.311239 -3.11755
  85 -3.82224 -0.246173 -1.81025
  86 -1.59467 -0.644269 -1.12537
  87 -0.273158 -1.61211 -0.969231
  88 -0.465525 -4.11904 -1.74010
  89 -0.527256 -8.12990 -3.07205
  90 -0.115149 -15.2571 -3.33415
  91 0.175324 -21.1665 -4.20281
  92 0.422240 -30.4683 -3.43660
  93 1.28088 -36.2324 -4.06452
  94 0.205621 -39.1919 -3.40202
  95 -0.0676567 -45.0837 -2.10654
  96 1.23916 -44.0168 -0.664724
  97 4.98628 -57.1834 2.14565
  98 4.36823 -31.6785 7.40400
  99 10.4867 -15.2571 16.6275
  100 31.8014 48.2634 53.2379
  101 137.525 170.755 153.942
  102 764.325 80.5271 113.818
  103 636.628 22.4556 40.7989
  104 605.568 9.58211 14.0791
  105 588.179 6.31522 -0.0716760
  106 599.180 9.12990 -11.5418
  107 642.793 19.1875 -33.8394
  108 756.353 64.1501 -106.200
  109 89.0513 193.755 -127.347
  110 22.3138 34.1495 -40.9907
  111 7.71606 -20.4863 -13.7046
  112 3.95595 -34.7611 -6.30007
  113 4.96296 -59.3898 -1.60930
  114 1.18648 -45.0001 1.04709
  115 -0.140128 -45.5780 2.30643
  116 0.159227 -39.3847 3.50944
  117 1.25578 -36.2801 4.11016
  118 0.412566 -30.4541 3.45365
  119 0.167949 -21.1384 4.20919
  120 -0.118751 -15.2206 3.33245
  121 -0.527763 -8.10646 3.06580
  122 -0.466534 -4.09866 1.73416
  123 -0.272992 -1.60447 0.963931
  124 -1.58547 -0.643430 1.12097
  125 -3.80599 -0.247246 1.80554
  126 -8.83727 -0.313749 3.11488
  127 -14.7619 0.153094 2.98248
  128 -19.8948 0.286694 2.88032
  129 -24.5886 0.671519 1.92742
  130 -28.7053 0.525352 1.03184
  131 -31.6263 0.685854 0.562581
  132 -31.4290 1.00091 0.745962
  133 -28.7640 0.422924 -0.419303
  134 -27.7755 0.393548 -1.16828
  135 -24.9295 0.544559 -0.754852
  136 -22.5917 0.896558 -2.24151
  137 -20.4218 0.604688 -1.15037
  138 -14.4518 0.159023 -1.51089
  139 -13.5808 0.449882 -1.44866
  140 -11.0531 0.637842 -0.558677
  141 -5.52354 0.301960 -0.504976
  142 -5.15246 0.867161 -1.52715
  143 -3.94632 0.665467 -0.286884
  144 -0.687335 0.214423 -0.725124
  145 -1.37164 0.470989 -0.747135
  146 -0.216755 1.15019 -0.259869
  147 3.99801 0.153401 -0.725054
  148 20.4003 -1.32061 0.414660
  149 36.6728 -0.924757 1.22097
  150 54.1789 -0.914301 0.153508
  151 78.2715 -1.44644 0.321826
  152 97.7987 -2.26071 0.399563
  153 121.433 -3.63046 0.629859
  154 144.416 -3.73222 0.761677
  155 161.726 -3.39130 0.605225
  156 182.241 -3.05776 0.462473
  157 201.799 -3.43975 0.780516
  158 221.504 -3.33829 0.787172
  159 240.000 -2.18720 1.02212
  160 261.468 -2.33842 1.21129
  161 282.531 -0.765678 0.911679
  162 299.790 0.340048 0.459070
  163 172.080 -15.4665 -13.3332
  164 171.372 -15.7460 13.3029
  165 50.8120 14.1605 -19.8175
  166 51.3183 14.2146 19.7263
  167 203.904 -10.0901 51.8024
  168 213.913 -11.3871 -50.3850
  169 98.2878 -5.09800 6.05591
  170 98.2818 -5.04638 -6.15304
  171 218.045 -7.32396 1.75226
  172 213.571 -7.34510 -1.68350
  173 289.591 52.4250 -7.72719
  174 295.298 1.65138 -39.3901
  175 289.246 3.97767 42.1496
  176 67.8831 -2.51731 -13.2248
  177 67.8817 -2.49731 13.1940
  178 255.180 -25.3385 14.6915
  179 254.852 -19.6166 -20.0285
  180 3.12550 5.63911 6.62613
  181 3.22983 5.67576 -6.56454
  182 348.555 70.7254 12.6768
  183 66.1520 29.3850 -45.9478
  184 71.0743 29.6763 49.3782
  185 246.894 -11.3152 9.66739
  186 370.728 77.2990 -6.87298
  187 158.680 -5.52773 -1.48255
  188 158.416 -5.67980 1.46444
  189 254.076 -7.78236 -8.77184
  190 339.481 -3.09087 -2.92846
  191 60.2262 -1.79324 2.25909
  192 60.2127 -1.80999 -2.29628
  193 25.5069 3.42762 -8.73611
  194 25.6256 3.39243 8.75580
  195 141.424 -5.44842 -32.0558
  196 140.868 -5.75377 32.4756
  197 169.232 -10.8007 -4.21889
  198 169.573 -10.7400 4.55096
  199 42.3487 -1.48272 6.94427
  200 42.2899 -1.46185 -6.96269
  201 335.904 -6.98424 20.3292
  202 273.642 -27.2316 -6.96457
  203 260.613 -2.37669 -1.46509
  204 254.644 -2.92963 1.51267
  205 256.178 29.9802 29.5440
  206 10.6326 8.74313 -2.80999
  207 11.0321 8.72085 2.98719
  208 256.524 -10.4045 34.4148
  209 234.729 17.8377 -33.6189
  210 168.176 37.0030 -107.547
  211 176.834 31.2266 99.8693
  212 3.71285 5.59242 -0.170405
  213 3.81119 5.59051 0.216735
  214 255.618 -9.19737 -35.5216
  215 447.525 62.9321 -4.09886
  216 212.512 -23.2689 17.7838
  217 214.154 -23.1301 -16.7570
  218 212.404 -14.9923 -2.12383
  219 264.706 -3.93939 4.75137
  220 126.416 -8.57831 -11.4113
  221 124.382 -8.54182 11.7965
  222 75.4459 1.62126 -20.1726
  223 75.5500 1.59068 19.9909
  224 271.178 -28.9253 -1.73414
  225 210.606 -15.9545 1.22190
  226 263.786 -3.82872 -3.79106
  227 204.449 -4.96180 0.337066
  228 206.273 -4.60134 0.0579459
  229 259.596 -11.5032 20.1324
  230 20.8449 0.251114 -7.40002
  231 20.9360 0.240767 7.39699
  232 -3.37117 -2.29441 -8.87176
  233 -3.38810 -2.31501 8.87933
  234 37.5394 -1.67945 -3.98069
  235 37.5873 -1.68349 3.94500
  236 107.988 -3.09795 2.66937
  237 108.018 -3.15718 -2.69331
  238 125.264 8.56701 -47.3089
  239 125.278 7.12650 46.7638
  240 263.394 -8.09398 -17.2125
  241 122.391 -7.08914 -19.0493
  242 122.491 -7.30802 18.7597
  243 230.491 3.42468 37.9370
  244 200.276 17.2571 2.29021
  245 225.658 -22.4438 -1.90505
  246 0.897614 -5.82642 -8.25774
  247 0.822074 -5.88568 8.32375
  248 14.1594 13.6706 -15.2848
  249 15.0897 13.1501 16.1145
  250 221.843 -21.9495 0.409598
  251 402.567 73.8576 -3.24129
  252 20.2069 13.7808 -6.11129
  253 20.4557 13.7731 6.19089
  254 -8.81731 1.81388 6.17045
  255 -8.77396 1.82327 -6.14070
  256 404.909 68.9304 5.42840
  257 139.575 -6.56330 -4.19727
  258 139.464 -6.45316 4.09846
  259 275.981 -18.8370 32.2690
  260 501.612 81.5042 49.9238
  261 80.8930 -4.21866 -10.7928
  262 80.8706 -4.24838 10.7791
  263 280.270 41.8795 -28.4745
  264 483.570 91.6652 -45.0882
  265 336.722 32.9596 28.2035
  266 367.678 21.1150 -66.8394
  267 225.840 -10.4630 4.15615
  268 256.246 1.02635 -42.7742
  269 243.429 -17.0762 -11.7566
  270 271.844 -4.74242 10.9655
  271 -0.815613 2.58570 -2.46030
  272 -0.717444 2.57725 2.49284
  273 269.413 -9.65129 -65.0255
  274 27.9462 8.78152 -8.72889
  275 28.0820 8.76459 8.77852
  276 260.067 -6.27087 -21.8143
  277 36.8317 36.8525 -47.6524
  278 28.6748 -0.124857 -0.909383
  279 28.6957 -0.117948 0.894069
  280 274.890 -17.2916 -33.6120
  281 47.5138 21.3359 -25.1577
  282 48.2069 21.2155 25.2276
  283 12.1458 -0.410234 5.19181
  284 12.0510 -0.404902 -5.19706
  285 225.522 -9.91000 -4.03796
  286 37.0826 36.4454 48.9733
  287 361.635 25.4301 78.6646
  288 96.5251 -3.75169 -3.58171
  289 96.5027 -3.72607 3.52357
  290 179.562 -7.21706 -1.15617
  291 179.472 -7.83665 1.35334
  292 153.280 14.4306 -72.4574
  293 248.166 -27.2571 -5.21423
  294 284.000 -1.56863 2.12101
  295 147.580 14.3904 70.0426
  296 171.801 -4.43744 -0.356368
  297 171.735 -4.43355 0.507490
  298 243.808 -17.7879 11.9843
  299 281.225 -2.83520 -5.25474
  300 -2.99886 1.05683 -3.94712
  301 -2.89126 1.04896 3.96186
  302 351.820 70.2424 -3.59389
  303 309.102 -14.8143 18.0554
  304 279.878 -1.26126 -0.590565
  305 284.888 -1.09379 0.534688
  306 278.325 -24.9194 22.4997
  307 343.410 35.1840 -26.3935
  308 298.587 55.6316 16.5802
  309 133.199 -8.05750 -6.98927
  310 131.964 -8.20783 7.13872
  311 283.718 -1.51244 -1.46654
  312 184.683 -14.0853 -35.2102
  313 181.529 -14.2094 5.44073
  314 173.097 -9.58014 40.2953
  315 278.691 -3.21066 6.25251
  316 61.0906 -2.80451 -6.69400
  317 61.1274 -2.82541 6.66096
  318 256.531 -9.17636 64.2741
  319 161.578 -12.6858 -8.69534
  320 298.590 38.0596 35.8055
  321 94.1404 6.64496 -30.3595
  322 90.5920 6.94361 30.0956
  323 25.2577 -0.563064 -1.65422
  324 25.2957 -0.559094 1.62981
  325 245.829 -4.73538 2.89774
  326 235.673 -3.10468 0.482686
  327 234.327 -3.42407 -0.565617
  328 258.044 -6.60755 23.0926
  329 20.1742 -0.799870 3.83446
  330 20.0955 -0.792188 -3.85439
  331 73.1904 -1.70225 -1.37194
  332 73.1914 -1.67208 1.35566
  333 2.38239 -12.2061 -4.80534
  334 2.21930 -12.2999 4.99974
  335 198.460 8.53371 25.6773
  336 312.141 -14.0244 -14.9905
  337 200.960 -10.4913 1.33458
  338 227.848 -4.34749 -1.60889
  339 236.367 29.4422 -15.8332
  340 44.9620 -1.41925 -9.77263
  341 45.0182 -1.42005 9.76174
  342 195.313 -9.87917 -0.292739
  343 54.1017 1.93106 -14.1109
  344 54.2031 1.88323 14.0622
  345 10.1861 8.91137 0.405332
  346 10.3167 8.90891 -0.350466
  347 238.179 -25.7408 23.1460
  348 532.370 35.1877 13.6257
  349 209.840 3.05942 -30.4338
  350 176.386 -15.8294 21.2580
  351 175.487 -15.5167 -21.9301
  352 260.784 -4.57971 42.4053
  353 231.050 -1.74835 30.1446
  354 235.035 -24.8909 -23.9343
  355 138.719 -3.37726 0.0879318
  356 138.698 -3.42002 -0.0529006
  357 260.002 -17.0004 26.3257
  358 355.982 71.1272 2.14881
  359 279.983 -3.04889 -8.10920
  360 69.7556 -2.65353 -4.78486
  361 69.7805 -2.65552 4.73163
  362 263.282 -25.3274 -28.9495
  363 275.548 19.0085 -42.3885
  364 182.162 9.80815 -16.4585
  365 261.787 -17.5467 -30.0070
  366 -8.62311 0.262895 -6.85255
  367 -8.63279 0.252597 6.86149
  368 219.930 -4.99306 1.09112
  369 -3.12998 -1.86868 -4.04153
  370 -3.12639 -1.86938 4.03343
  371 170.526 82.7903 -131.194
  372 6.50250 5.69480 4.68473
  373 6.67157 5.74095 -4.59459
  374 229.220 -1.84702 -29.8921
  375 125.783 -5.24426 3.15176
  376 125.876 -5.31779 -3.19244
  377 -0.903713 -9.32871 7.79655
  378 -0.889432 -9.31154 -7.78812
  379 138.288 86.8973 123.412
  380 102.779 -5.41662 -14.7785
  381 102.856 -5.17800 14.7897
  382 32.5792 23.7949 -23.1718
  383 33.2743 23.7216 23.0307
  384 -13.4250 1.96551 2.60502
  385 -13.3658 1.96843 -2.57345
  386 265.622 17.5173 42.3735
  387 203.883 -21.3374 9.54641
  388 204.098 -18.5401 3.23077
  389 247.923 -28.2721 -2.27186
  390 60.9360 7.70796 -19.7401
  391 61.1385 7.69221 19.7060
  392 5.38785 -8.78804 0.130122
  393 5.08731 -8.91495 0.298273
  394 249.293 35.7081 10.4650
  395 253.167 -7.07460 7.23252
  396 143.513 -11.0785 13.4776
  397 88.1513 -2.17486 -17.8013
  398 88.1801 -2.19098 17.6582
  399 183.742 -5.36005 -0.314157
  400 183.538 -4.67448 0.157837
  401 142.301 -11.3833 -14.3625
  402 110.951 -1.84780 -24.2855
  403 110.930 -2.00249 24.4827
  404 263.616 -24.2614 -18.8113
  405 151.964 -11.5940 8.24208
  406 239.952 -7.12535 4.46749
  407 239.533 -6.46823 -3.77535
  408 200.290 -18.3992 -3.96188
  409 289.642 -1.13381 -2.24006
  410 96.1144 38.4860 -73.3880
  411 271.402 -3.85389 13.3320
  412 288.658 -1.39685 3.28540
  413 100.932 -5.34967 8.73767
  414 100.982 -5.27567 -8.73039
  415 202.959 -21.0803 -9.90353
  416 28.2574 12.7427 9.38441
  417 28.1034 12.7348 -9.39470
  418 537.949 35.1610 -27.9057
  419 234.933 -13.2693 -6.93520
  420 291.901 -0.888485 1.29122
  421 90.6824 35.8561 69.8099
  422 429.875 72.5263 13.4707
  423 252.648 -3.63909 -2.32380
  424 187.820 -13.5101 -3.02551
  425 77.5983 14.9948 -34.3665
  426 82.7417 13.9075 34.1615
  427 232.047 -14.5887 7.02820
  428 245.320 -3.18650 -22.2367
  429 -3.25938 -0.214600 3.87919
  430 -3.37120 -0.211982 -3.87739
  431 87.9204 21.0759 -46.3829
  432 88.1987 21.1545 46.2377
  433 9.72119 4.89191 -3.84935
  434 9.82989 4.88070 3.88995
  435 208.093 -3.79956 0.525560
  436 207.843 -3.69358 -0.453447
  437 259.181 -11.7703 -21.0380
  438 -0.833155 -0.900708 9.64678
  439 -0.786943 -0.860348 -9.61194
  440 267.132 -26.4628 16.6059
  441 252.883 -6.58878 -6.41794
  442 408.878 78.3454 -11.3697
  443 14.0349 -0.726068 1.78647
  444 13.9687 -0.726225 -1.80780
  445 494.066 138.316 60.9802
  446 9.69352 2.58628 -13.8645
  447 29.1343 1.48986 -9.48748
  448 29.2319 1.46629 9.48408
  449 492.427 141.387 -58.3089
  450 10.2769 3.68745 15.3317
  451 -13.1005 1.54224 0.843559
  452 -13.0245 1.53965 -0.813880
  453 26.7204 18.2638 -13.3206
  454 27.1896 18.2675 13.3954
  455 318.908 49.7180 -29.7623
  456 256.441 -9.91227 -13.7130
  457 290.304 -0.968151 -1.15253
  458 267.786 -4.06807 -15.6072
  459 -3.31033 1.85083 8.84545
  460 -3.26336 1.87660 -8.81285
  461 259.069 -10.3523 15.8939
  462 167.348 -9.26814 -3.31113
  463 166.825 -9.36642 2.73796
  464 228.136 -25.1850 -2.88914
  465 162.223 -2.36854 -49.6213
  466 247.864 -3.82492 22.7374
  467 203.035 -6.36153 -0.365041
  468 299.435 -22.7982 -2.36893
  469 157.104 1.25392 53.2618
  470 10.2404 -0.208245 3.74451
  471 10.1445 -0.203565 -3.75422
  472 327.395 64.7774 -13.5894
  473 263.206 -1.76746 0.197924
  474 262.290 -2.02576 -0.441125
  475 197.443 -13.0447 0.775315
  476 84.7098 -2.81967 -2.63898
  477 84.7002 -2.78456 2.60269
  478 49.6441 -0.544774 -11.5860
  479 49.6996 -0.554666 11.5594
  480 163.434 6.34217 9.82560
  481 40.0369 -1.35746 5.54359
  482 39.9816 -1.34416 -5.57458
  483 43.6811 4.28035 13.0382
  484 43.5357 4.34375 -13.0291
  485 254.409 -19.6821 19.2630
  486 141.383 -8.78582 -22.7650
  487 130.082 -4.07615 1.57264
  488 130.133 -4.18246 -1.57652
  489 142.889 -9.06471 22.7557
  490 398.270 94.1107 -6.99991
  491 -6.37238 -0.975274 -5.26714
  492 -6.36932 -0.980276 5.26449
  493 98.1998 -2.67115 -1.08456
  494 98.1957 -2.62773 1.07931
  495 0.0956025 -17.2811 -6.58012
  496 0.0540846 -17.3371 6.63723
  497 232.498 -3.26493 0.943690
  498 162.368 7.78935 -4.89648
  499 220.388 23.1497 14.1912
  500 140.581 -1.38689 -39.3634
  501 67.6557 -3.46159 8.42400
  502 67.6525 -3.43202 -8.44122
  503 -18.5501 0.583193 -1.24208
  504 -18.4465 0.579737 1.25539
  505 274.480 -5.33012 -42.1954
  506 19.6492 0.145514 -1.22449
  507 19.6797 0.149087 1.20700
  508 228.500 -17.9157 -5.87585
  509 243.651 -20.7120 -11.4486
  510 49.2172 37.0649 -49.2893
  511 204.688 5.19859 -78.8028
  512 2.26827 6.03091 4.39773
  513 2.36534 6.04319 -4.34418
  514 123.893 -5.62898 -4.67048
  515 123.827 -5.57500 4.55811
  516 353.137 13.9678 -9.70824
  517 253.427 -14.8936 -17.4519
  518 47.9676 34.9980 48.5802
  519 251.125 -28.5809 6.17326
  520 241.371 -22.9290 9.07228
  521 49.3706 -1.19508 -3.62899
  522 49.3979 -1.18983 3.58954
  523 196.194 2.07349 23.5501
  524 142.347 -10.4046 -8.78762
  525 267.721 -5.80277 9.97603
  526 -1.10761 -6.49574 -5.10830
  527 -1.11036 -6.49109 5.10132
  528 186.757 -16.5843 25.5562
  529 285.273 -22.0534 -22.3462
  530 373.371 24.8683 -11.6734
  531 200.530 -6.60509 0.496332
  532 57.6723 -1.05081 -1.07130
  533 57.6804 -1.02879 1.06053
  534 126.264 1.01187 37.8817
  535 355.745 58.9896 20.5727
  536 363.617 68.6050 -125.298
  537 324.303 1.27556 21.5448
  538 232.725 -25.8888 1.62941
  539 555.019 44.1214 37.3458
  540 408.445 98.0284 10.4375
  541 55.9644 -2.31731 9.21406
  542 55.9256 -2.29357 -9.23244
  543 223.629 -18.4481 4.47690
  544 16.0469 7.93679 -3.47543
  545 16.1709 7.93136 3.52374
  546 281.748 -23.6036 22.3332
  547 228.576 12.2465 34.8479
  548 284.301 -1.75145 5.53899
  549 209.191 -12.3900 2.14219
  550 294.799 1.46289 -83.0687
  551 469.630 118.419 80.8665
  552 227.283 -4.22793 -0.847139
  553 278.987 -2.77227 -8.85900
  554 43.0383 18.0262 -18.6762
  555 43.3526 17.8078 18.5863
  556 158.293 -6.18872 -2.10972
  557 158.217 -6.03511 2.16011
  558 1.79388 -21.3462 -1.91675
  559 284.177 -10.3707 37.7484
  560 10.5144 9.58889 1.50706
  561 10.6859 9.61425 -1.42721
  562 2.10863 -20.6538 2.52077
  563 258.338 -11.8193 -30.4352
  564 297.477 18.4520 -40.7760
  565 296.355 20.9494 40.7648
  566 13.9674 11.4238 9.99290
  567 13.2525 11.7151 -9.75796
  568 -9.40116 0.283334 2.90383
  569 -9.51669 0.286146 -2.89859
  570 274.424 6.02564 85.7163
  571 148.669 -8.10049 4.52672
  572 148.822 -8.07126 -4.63168
  573 331.393 -6.86944 -43.0748
  574 40.4903 -0.556318 2.10840
  575 40.4684 -0.566193 -2.13476
  576 17.2776 -0.518267 -0.503294
  577 17.2956 -0.514843 0.497180
  578 362.897 65.3435 -16.9300
  579 34.2181 48.2990 -54.6325
  580 187.255 3.69317 -19.9312
  581 266.775 42.7080 -17.8615
  582 3.79822 -0.469972 6.13970
  583 3.96008 -0.413077 -6.03106
  584 274.085 121.616 147.734
  585 230.677 -6.19410 -2.57419
  586 7.19489 2.36146 -4.79121
  587 7.30125 2.34434 4.81559
  588 266.408 -21.5258 26.4239
  589 40.5160 46.7367 55.6299
  590 191.568 -3.79164 0.158278
  591 191.620 -3.75730 -0.159073
  592 -0.226932 -13.6918 6.78307
  593 -0.206172 -13.6691 -6.76071
  594 326.839 63.9599 -0.523164
  595 207.642 -16.8905 36.7259
  596 198.063 -8.26298 0.300937
  597 199.654 8.50736 83.1731
  598 -16.6679 0.829768 4.10582
  599 -16.6508 0.834251 -4.08960
  600 328.390 3.63881 -23.1014
  601 440.474 71.0061 -57.2066
  602 123.597 12.4269 -54.9691
  603 65.7467 -2.72086 -11.2719
  604 65.8053 -2.72088 11.2717
  605 298.069 -0.877757 1.59023
  606 196.065 -8.44747 -0.554208
  607 264.212 -3.38923 3.53148
  608 258.361 -11.8098 29.7293
  609 8.69447 -0.419753 1.84386
  610 8.61187 -0.417915 -1.85977
  611 152.062 -5.11787 -1.20654
  612 152.039 -4.97023 1.15872
  613 94.3461 2.12007 -25.0682
  614 93.7260 2.14642 24.9500
  615 375.769 20.7309 20.4518
  616 617.428 46.5231 -67.6616
  617 -6.32804 -0.368311 2.55370
  618 -6.44640 -0.367033 -2.55374
  619 88.4788 -3.67575 4.90063
  620 88.4772 -3.67180 -4.97372
  621 349.408 18.1071 14.4846
  622 294.873 -0.890759 -0.505483
  623 294.209 -1.35652 0.228626
  624 210.038 -0.130516 23.3386
  625 307.318 -18.6954 -25.8442
  626 165.233 -13.4726 10.5182
  627 -4.23470 3.69873 -4.00509
  628 -4.30737 3.69332 4.04683
  629 265.798 5.20348 44.1972
  630 104.049 -5.91692 -11.7225
  631 103.942 -6.01741 11.7458
  632 216.773 -12.3589 -2.95058
  633 269.022 -5.71264 -9.03708
  634 152.028 -12.0599 -16.2747
  635 249.463 30.0679 -26.8447
  636 168.528 -11.6776 -29.7817
  637 59.9259 -1.59649 -1.84736
  638 59.9343 -1.57634 1.82009
  639 153.637 -12.2829 16.3321
  640 332.697 53.2859 26.9131
  641 264.264 -12.9936 37.4442
  642 216.382 -9.41493 2.67582
  643 153.736 -3.88562 0.882133
  644 153.697 -3.89535 -0.852174
  645 115.090 -4.17153 -3.44712
  646 115.044 -4.12331 3.40567
  647 254.735 -23.4155 -15.6545
  648 127.437 -7.09222 6.05933
  649 127.580 -7.06429 -6.19628
  650 253.541 39.2607 -3.61331
  651 235.363 -12.1872 6.97762
  652 296.304 -1.27009 -2.44276
  653 249.328 -4.72162 -38.8261
  654 34.2665 -1.54282 7.39003
  655 34.1982 -1.53167 -7.39858
  656 288.625 -1.48426 -5.01124
  657 50.3597 25.8671 -34.4610
  658 51.2308 25.7987 34.6315
  659 294.077 -18.4646 36.3630
  660 99.8024 24.6969 57.8839
  661 23.0538 -0.109530 7.40017
  662 22.9708 -0.103894 -7.40563
  663 249.919 -16.6495 47.6329
  664 246.896 33.2251 -113.817
  665 238.106 7.31814 -38.6599
  666 315.170 56.8881 23.0297
  667 212.589 -9.21087 -1.72443
  668 383.208 69.3245 -1.68112
  669 -19.1739 0.873149 -0.700650
  670 -19.0858 0.870772 0.719668
  671 169.133 0.486709 -58.3354
  672 9.27585 -0.242580 1.44087
  673 9.21849 -0.243227 -1.45708
  674 212.778 -18.1664 -36.2830
  675 69.3322 9.62381 -24.1236
  676 68.7678 9.65505 24.1084
  677 0.678781 3.51989 -1.13107
  678 0.774464 3.51480 1.17152
  679 180.215 -15.4833 -7.62815
  680 255.881 -2.51288 -14.9464
  681 120.526 -3.59237 -1.26285
  682 120.530 -3.54925 1.27359
  683 86.5994 -4.38210 -7.42584
  684 86.6651 -4.44449 7.39493
  685 16.1847 13.3256 -4.06020
  686 16.4620 13.3524 4.15252
  687 263.845 -2.89189 1.83825
  688 115.229 -7.23664 9.68641
  689 115.989 -7.10608 -9.67556
  690 291.663 -23.8088 -4.84137
  691 239.697 -24.0926 -6.48153
  692 187.870 -5.03800 0.110117
  693 187.193 -4.67479 -0.0120835
  694 264.523 -28.3109 13.1491
  695 430.531 86.6477 21.6355
  696 232.230 -10.8749 -59.5011
  697 266.052 -7.32571 15.8102
  698 263.587 -10.0055 -40.0904
  699 80.1698 -2.43558 -3.43620
  700 80.1662 -2.41577 3.38778
  701 206.190 -4.02629 66.8768
  702 583.032 74.4298 68.3147
  703 38.6089 11.4271 -13.5879
  704 38.6650 11.5026 13.6334
  705 263.078 -2.28239 -0.939514
  706 265.200 -2.03034 0.956076
  707 110.767 54.7237 -94.6861
  708 278.928 -1.41736 8.82382
  709 241.086 -3.84251 1.56407
  710 316.473 62.9234 -8.58885
  711 31.2321 5.76618 -9.73610
  712 31.3706 5.72931 9.77306
  713 301.015 -0.641963 0.303039
  714 242.216 -9.10268 -6.75006
  715 302.229 -5.09077 33.3435
  716 122.154 -8.49465 -15.4458
  717 122.462 -8.12279 15.2888
  718 26.0316 -0.941145 5.59592
  719 25.9560 -0.929022 -5.61325
  720 275.176 -1.62948 -1.66622
  721 236.927 44.7803 120.963
  722 1.52941 1.54723 8.16384
  723 1.61695 1.59841 -8.10377
  724 275.587 -2.76318 -4.24621
  725 267.371 -4.68733 6.03896
  726 209.000 0.0862794 -25.0318
  727 1.93961 -24.9219 -3.43531
  728 1.80901 -25.1606 3.67529
  729 95.9828 25.4301 -57.8694
  730 212.316 -21.4664 -25.8470
  731 109.854 54.2590 95.6337
  732 296.896 -0.619939 0.981371
  733 283.678 42.3772 28.6238
  734 204.974 18.6557 -9.87349
  735 373.124 75.2517 -0.648166
  736 292.773 -1.12388 3.28274
  737 -18.5647 0.432519 2.03599
  738 -18.6788 0.434905 -2.02770
  739 311.107 -18.4800 6.65635
  740 200.182 -5.47929 0.117435
  741 71.4547 0.190829 -17.0406
  742 71.5462 0.118294 16.9354
  743 267.597 -2.89227 -2.55872
  744 473.673 67.1421 -23.8305
  745 29.3514 -0.896740 -3.45286
  746 29.4135 -0.902136 3.42482
  747 298.961 -0.704313 -1.54136
  748 56.9677 -2.55518 -4.82753
  749 57.0019 -2.56425 4.78611
  750 290.828 -12.0174 -34.2384
  751 268.414 -2.76948 12.1029
  752 239.472 -1.73380 38.3156
  753 299.629 -0.734098 -0.0555876
  754 278.977 -1.90584 3.27110
  755 180.767 -9.51033 -1.28296
  756 227.704 -5.69069 1.99260
  757 258.718 -15.9397 -25.5657
  758 252.468 -15.7894 16.8833
  759 295.323 35.3748 -36.1619
  760 249.055 -13.8277 12.6494
  761 262.820 -15.6802 32.5373
  762 151.285 -10.0905 6.21323
  763 5.31923 -2.27267 -1.00568
  764 5.02790 -2.28959 1.28120
  765 230.691 -3.15174 0.0591638
  766 230.197 -3.12660 -0.145711
  767 277.872 -1.02881 -0.194168
  768 278.854 -0.971141 0.260696
  769 263.305 -7.32768 19.2667
  770 243.169 -22.7255 34.1504
  771 198.991 -16.0142 2.15798
  772 176.400 -10.3163 2.62814
  773 483.454 62.0452 27.8816
  774 266.613 -6.61784 -12.5504
  775 155.517 26.4331 -88.9201
  776 247.500 -12.0527 -10.9802
  777 8.42195 0.226111 -5.24442
  778 8.52548 0.217053 5.25074
  779 218.769 19.1732 -22.1452
  780 567.661 17.2520 -7.44724
  781 277.974 6.79886 -43.3785
  782 10.9142 3.98676 -21.0067
  783 285.221 51.5036 7.34865
  784 223.347 -14.0161 4.30288
  785 250.395 -6.40880 37.6954
  786 211.208 -22.3940 25.9935
  787 340.474 -3.47783 53.4995
  788 11.7648 6.57982 22.4872
  789 152.069 -1.05793 45.2337
  790 213.565 -5.20639 -0.888518
  791 238.338 -21.7542 -34.5820
  792 145.009 -11.2056 -11.1968
  793 114.388 5.40133 -39.3714
  794 275.736 -4.61936 42.5200
  795 176.139 -11.8465 4.57722
  796 31.5203 -0.936250 3.12094
  797 31.4755 -0.937501 -3.15246
  798 256.682 -1.38507 13.2491
  799 231.678 1.01674 -37.1747
  800 -20.6348 0.915985 2.59713
  801 -20.6037 0.917629 -2.57952
  802 171.336 -5.12323 -0.361974
  803 170.827 -4.82812 0.308253
  804 126.837 13.9502 55.7937
  805 112.379 -6.47977 7.20600
  806 112.542 -6.31790 -7.28894
  807 298.859 -0.480675 -0.866556
  808 102.826 8.10787 38.3324
  809 1.00454 -0.0958206 1.98852
  810 0.900901 -0.0936232 -1.99801
  811 253.545 -7.88812 29.2284
  812 272.742 -2.10576 1.33575
  813 -14.5672 0.155768 4.04612
  814 -14.5690 0.160380 -4.03805
  815 166.306 -10.5451 33.5617
  816 31.6540 26.0930 -28.9878
  817 32.0480 24.8398 28.5357
  818 154.494 6.88730 4.08224
  819 -4.83484 -0.147788 -2.28813
  820 -4.71681 -0.149406 2.28526
  821 191.567 -18.2945 -24.3230
  822 262.469 -27.7068 -9.97753
  823 -1.29830 -1.23447 -1.62756
  824 -1.29454 -1.23164 1.62160
  825 11.0809 0.459093 -0.456715
  826 11.1050 0.461637 0.447443
  827 233.118 -20.6790 6.75530
  828 195.782 -20.0938 16.6572
  829 217.482 -3.37166 0.750321
  830 195.249 -15.6168 -2.90976
  831 69.5388 -1.09599 -0.341221
  832 69.5432 -1.06698 0.334419
  833 -23.4207 0.494477 1.55222
  834 -23.3709 0.493806 -1.53499
  835 246.277 -2.91909 -1.24482
  836 215.258 8.34870 -31.5704
  837 248.952 -4.69325 -3.60220
  838 145.310 -10.9996 10.6397
  839 244.850 -4.36302 -30.7878
  840 263.020 -7.96458 -19.9115
  841 247.298 -2.46827 1.12191
  842 179.376 -7.07921 46.4209
  843 191.651 -18.6747 -9.04397
  844 114.662 -0.848211 -29.9847
  845 115.301 -0.0508010 30.1414
  846 162.908 -12.0664 -6.73995
  847 271.051 29.1824 37.0916
  848 258.567 -27.2595 -18.3261
  849 91.0288 -2.80491 -1.69756
  850 91.0175 -2.76052 1.67763
  851 196.917 -4.19923 -0.0371534
  852 196.923 -4.23645 0.0877800
  853 233.601 -1.80869 -20.0927
  854 77.3078 -3.23499 -5.98615
  855 77.3466 -3.25982 5.93018
  856 0.926007 -24.8699 -5.01732
  857 0.875089 -24.9762 5.11759
  858 37.3910 -0.555864 -0.218162
  859 37.3764 -0.568124 0.210013
  860 244.335 -3.56848 -1.75146
  861 184.363 -17.5608 15.0026
  862 288.039 -25.0712 10.6138
  863 165.242 3.48083 15.6410
  864 249.810 -5.65152 4.11185
  865 272.409 -24.6379 -20.8360
  866 37.8727 2.51469 -11.2667
  867 37.9850 2.47330 11.2584
  868 216.359 -3.63883 -0.688457
  869 173.437 -5.79994 -1.07379
  870 172.821 -5.74538 1.22807
  871 267.554 41.7106 20.1132
  872 92.1515 -0.855551 -20.6889
  873 92.0583 -0.964471 20.5918
  874 186.089 -16.7310 7.05799
  875 17.3610 11.5012 -3.46532
  876 17.5370 11.4776 3.51448
  877 157.066 -11.2096 27.1588
  878 188.797 -11.8602 -1.31840
  879 235.019 -1.87164 20.3045
  880 232.563 -26.2805 7.73754
  881 266.737 -20.4381 -28.4265
  882 183.913 -17.7054 -15.2304
  883 152.400 -10.0462 -5.93961
  884 505.789 41.7068 -7.73979
  885 243.730 -25.8778 5.01206
  886 6.49351 7.78935 3.35968
  887 6.61950 7.80377 -3.29433
  888 211.433 -21.1374 3.31721
  889 232.245 -26.3018 -14.3469
  890 6.80455 6.87548 0.747959
  891 6.91467 6.87673 -0.698302
  892 85.9751 -2.99323 15.5648
  893 86.0334 -3.08764 -15.6642
  894 104.578 -5.23149 17.1018
  895 104.544 -5.35954 -17.2286
  896 334.921 67.2399 10.8836
  897 -0.511426 -10.3673 -4.97006
  898 -0.515026 -10.3556 4.96689
  899 75.7818 6.49106 -22.9301
  900 75.4003 6.35700 22.6929
  901 587.310 19.0498 -29.7926
  902 8.18545 -0.0462611 0.794247
  903 8.14315 -0.0481811 -0.806963
  904 0.965139 -28.8653 1.92671
  905 1.13216 -28.3951 -1.52931
  906 -11.0988 -0.150748 4.12524
  907 -11.1104 -0.147341 -4.12374
  908 60.5181 17.8462 -27.0768
  909 61.4600 17.2555 26.6786
  910 -4.99391 0.147961 -8.77075
  911 -5.01815 0.128837 8.78627
  912 16.3600 1.61734 -7.24671
  913 16.4664 1.59681 7.25647
  914 65.6456 -0.684164 14.3022
  915 65.6032 -0.681132 -14.3806
  916 53.1355 -1.78393 -11.5078
  917 53.1872 -1.78009 11.4865
  918 289.745 -1.00658 -4.90485
  919 139.920 29.2921 82.5391
  920 193.589 -19.0408 8.39978
  921 136.641 -9.67076 8.45262
  922 264.897 27.1203 -36.5792
  923 577.481 12.4424 11.8447
  924 315.814 13.7908 -35.3890
  925 50.1954 -1.92823 7.12838
  926 50.1471 -1.90572 -7.15854
  927 7.48840 -0.275023 -5.25731
  928 7.58889 -0.277948 5.25607
  929 -0.294593 -5.11207 -9.58259
  930 -0.335911 -5.15256 9.61432
  931 141.251 -6.02885 3.58200
  932 141.328 -6.15283 -3.60374
  933 16.0891 4.63692 -6.30345
  934 16.2041 4.61568 6.33821
  935 85.2451 -3.73699 -13.1404
  936 85.2996 -3.73624 13.1293
  937 184.851 -0.915844 -18.4299
  938 87.8746 -4.72530 -8.98958
  939 87.8078 -4.67121 9.01993
  940 217.875 -5.77887 -1.11032
  941 263.558 -15.2429 -34.8890
  942 113.487 -4.46136 3.93705
  943 113.545 -4.50538 -3.99779
  944 -4.74321 -0.517868 -2.88051
  945 -4.73061 -0.519107 2.87455
  946 269.282 -21.3503 -42.5764
  947 257.266 -15.0397 22.3243
  948 225.466 -15.5752 -5.40695
  949 218.125 7.32652 33.2829
  950 98.3742 -5.45493 -10.1478
  951 98.3694 -5.34690 10.1809
  952 244.630 9.18200 40.3633
  953 227.620 19.7985 26.5565
  954 471.327 56.8892 9.82069
  955 240.262 -8.34450 5.07095
  956 124.752 -3.52094 -1.75698
  957 124.734 -3.44554 1.77381
  958 214.625 -17.4399 -1.68645
  959 296.647 54.5151 -17.3590
  960 263.908 -2.55932 -1.85492
  961 171.757 -3.89142 0.568797
  962 171.688 -3.85909 -0.518632
  963 21.3390 17.8428 -12.1733
  964 21.8913 17.8050 12.2718
  965 41.5244 100.652 -92.2256
  966 245.473 -5.89527 30.6364
  967 307.375 -6.30969 -29.8961
  968 -5.80361 2.93252 1.95199
  969 -5.72423 2.93167 -1.91281
  970 632.116 148.234 -118.909
  971 262.933 -28.7737 4.24158
  972 280.760 -26.3648 -9.92249
  973 258.677 -22.2111 20.5312
  974 319.129 63.0345 7.39340
  975 22.6047 22.6928 -26.9447
  976 58.6562 86.5810 90.1785
  977 -1.65265 -3.74360 9.52156
  978 -1.62697 -3.71390 -9.50521
  979 252.119 -6.16494 5.09104
  980 404.905 71.9346 -8.11267
  981 23.2761 22.1392 28.0670
  982 -1.12174 -3.70529 -3.20295
  983 -1.12203 -3.69534 3.19490
  984 215.773 -4.67405 0.531247
  985 160.076 -12.6257 -11.6526
  986 260.668 -20.6617 -24.1821
  987 72.9114 19.5859 -36.0808
  988 74.0890 19.9130 36.1761
  989 252.592 -6.29460 -27.3983
  990 255.460 -7.85471 9.18946
  991 -7.01836 1.64877 7.77406
  992 -6.98434 1.66565 -7.74940
  993 152.852 -10.0829 -25.4857
  994 254.201 16.0390 -40.6068
  995 189.238 -6.77434 0.265334
  996 135.105 -3.62541 0.254151
  997 135.080 -3.65194 -0.238398
  998 -2.91649 -3.30642 -6.72885
  999 -2.92074 -3.31356 6.72384
  1000 258.909 -9.01643 -11.2187
  1001 246.805 -2.40629 0.347544
  1002 246.574 -2.40894 -0.244565
  1003 340.569 55.1040 -25.0525
  1004 59.9674 5.32004 -17.9360
  1005 60.1157 5.21365 17.8916
  1006 37.4221 -0.306678 -9.49540
  1007 37.4916 -0.314405 9.48140
  1008 279.742 14.6269 43.8809
  1009 265.893 -4.74337 -6.33945
  1010 45.5208 7.33379 -14.4622
  1011 45.7025 7.27785 14.5161
  1012 278.119 -1.23275 -1.09378
  1013 258.479 -11.0199 -16.8676
  1014 252.386 -28.7155 -9.57520
  1015 9.24509 7.68426 -0.745650
  1016 8.97855 7.64760 0.866201
  1017 -12.5608 1.96215 4.71216
  1018 -12.5168 1.96741 -4.68309
  1019 149.047 5.69400 -6.82933
  1020 438.453 107.730 -27.8747
  1021 198.752 -14.2784 -0.397126
  1022 130.612 -5.69377 -26.2736
  1023 321.005 -13.5707 4.38828
  1024 131.129 -5.69235 26.6508
  1025 229.046 -26.8076 16.9694
  1026 259.740 -10.7146 -25.0702
  1027 86.9606 -1.92167 -0.544030
  1028 86.9624 -1.88444 0.539830
  1029 176.542 -13.6312 -5.68739
  1030 107.338 -3.94656 -20.3083
  1031 107.291 -3.97653 20.1966
  1032 35.2034 22.9506 -21.9012
  1033 35.7708 22.8779 21.9663
  1034 72.6688 -2.26623 -1.95030
  1035 72.6689 -2.23628 1.92165
  1036 231.245 -7.00696 2.88674
  1037 194.739 0.417383 -67.7493
  1038 239.793 -7.49014 -5.01846
  1039 216.035 -23.9257 -9.80027
  1040 140.873 -5.73144 2.39583
  1041 140.994 -5.77701 -2.40569
  1042 281.919 -1.49819 1.37760
  1043 251.180 -5.66719 -4.77784
  1044 157.675 3.81439 12.8705
  1045 268.759 -2.63353 -11.2511
  1046 103.085 29.7326 65.7647
  1047 277.114 -2.50849 -9.25901
  1048 71.0368 12.0196 -26.9849
  1049 68.8717 12.1593 25.8488
  1050 331.841 -6.52573 -5.88688
  1051 28.9834 15.2946 -11.0680
  1052 29.2551 15.1824 11.0634
  1053 4.84443 -0.983563 3.47294
  1054 5.09794 -0.938366 -3.30599
  1055 40.2543 -1.08786 2.37890
  1056 40.2235 -1.09548 -2.41196
  1057 117.488 30.1146 -73.0511
  1058 653.251 167.447 127.944
  1059 258.016 -9.01578 11.5090
  1060 231.098 -26.0462 -6.85193
  1061 159.683 -13.1061 -19.4861
  1062 -3.66474 3.42707 6.88837
  1063 -3.60349 3.44588 -6.84741
  1064 180.562 -9.02526 0.940542
  1065 199.595 -7.08325 -0.480642
  1066 -0.111172 -14.7103 4.81031
  1067 -0.106159 -14.7236 -4.80867
  1068 29.2303 18.2340 -13.2915
  1069 29.5844 18.1972 13.3735
  1070 178.103 -8.26619 -0.882551
  1071 13.1419 6.46143 3.74491
  1072 13.0272 6.47094 -3.69958
  1073 273.230 -11.0286 40.4184
  1074 197.291 -20.4599 -16.5727
  1075 160.645 -13.3185 19.4839
  1076 259.698 -5.43471 -42.3318
  1077 275.907 -2.76904 4.60635
  1078 98.3955 15.0738 43.8062
  1079 99.1064 14.4306 -43.0647
  1080 159.590 -7.82007 -36.7826
  1081 227.291 -7.82186 -2.97756
  1082 183.973 -10.8287 2.29149
  1083 216.090 -20.0863 0.270445
  1084 298.752 -0.960429 -2.59968
  1085 159.194 -7.07625 2.38661
  1086 159.124 -7.50000 -2.48014
  1087 5.02821 5.98727 5.82044
  1088 5.15924 6.03215 -5.74562
  1089 261.549 9.41589 -43.6829
  1090 57.4740 3.02907 -15.7897
  1091 57.6268 2.96295 15.7416
  1092 42.6862 0.922122 -11.2148
  1093 42.7776 0.897626 11.1911
  1094 300.689 -13.0670 53.8146
  1095 259.466 -11.9160 24.7514
  1096 125.723 -5.72305 -22.1746
  1097 303.938 -1.12120 -1.55811
  1098 338.615 63.7743 -19.0203
  1099 275.506 -2.38279 -2.96083
  1100 257.263 -27.8523 9.79109
  1101 189.684 -14.5614 32.1127
  1102 306.188 -0.276743 0.329508
  1103 157.368 4.94027 -10.9198
  1104 217.614 -23.2606 -4.00401
  1105 125.921 -5.98658 21.9176
  1106 219.672 -19.9132 -1.54039
  1107 275.162 -3.74232 8.44189
  1108 193.951 12.2757 17.0626
  1109 135.326 -9.88314 -17.5213
  1110 417.373 57.4194 -22.3441
  1111 311.900 13.5901 37.0231
  1112 230.433 28.9523 4.20183
  1113 302.499 0.134766 1.41008
  1114 117.103 -7.22858 -13.2874
  1115 80.0591 48.7732 -73.2615
  1116 143.733 3.69748 -52.6330
  1117 164.911 -12.5288 8.06374
  1118 138.940 -10.3347 16.3540
  1119 116.809 -6.86578 13.4323
  1120 248.502 1.98062 42.3910
  1121 187.912 -6.25822 -0.0494252
  1122 297.850 -2.12463 3.45327
  1123 -2.50818 -0.328545 9.55826
  1124 -2.47282 -0.299035 -9.53446
  1125 197.031 -5.31534 -0.256331
  1126 -0.448020 2.03498 8.77150
  1127 -0.384338 2.07332 -8.72672
  1128 109.149 -3.30091 2.30102
  1129 109.161 -3.35726 -2.30436
  1130 279.648 -1.45377 7.68888
  1131 224.181 -13.5166 -4.54988
  1132 209.801 -10.9686 -1.76299
  1133 234.958 -16.3078 8.66682
  1134 70.7918 34.8459 -54.3674
  1135 230.463 -8.44323 3.79548
  1136 32.8906 0.696145 -9.16608
  1137 32.9771 0.679165 9.15649
  1138 47.1755 30.1989 -37.9572
  1139 369.786 47.3796 13.4384
  1140 24.4056 -1.17491 5.31350
  1141 24.3255 -1.16510 -5.32404
  1142 48.0312 29.7096 36.6138
  1143 210.556 -17.4926 0.835179
  1144 105.112 -4.80105 4.91874
  1145 105.134 -4.82509 -5.00878
  1146 432.017 91.2282 -23.1136
  1147 232.285 -23.2579 2.57811
  1148 78.7884 45.5624 73.0925
  1149 6.59489 -2.73298 -5.54099
  1150 7.11943 -2.64646 6.16308
  1151 243.123 30.5086 21.3431
  1152 17.5908 9.77320 -3.72410
  1153 17.7371 9.77506 3.76523
  1154 233.847 -20.2554 -7.10808
  1155 -0.111225 -22.8022 -4.54101
  1156 -0.121884 -22.8073 4.56164
  1157 250.114 -21.0879 -14.6496
  1158 -6.00633 0.314738 1.78249
  1159 -6.12460 0.316652 -1.78728
  1160 37.3515 14.0471 -14.4660
  1161 37.5552 14.1068 14.3254
  1162 -14.3475 0.0351263 -2.18391
  1163 -14.2224 0.0341637 2.18566
  1164 250.636 -2.43467 -0.482184
  1165 -25.4551 0.732376 0.512542
  1166 -25.3871 0.731929 -0.496755
  1167 130.767 -10.1946 -12.7718
  1168 3.44015 -34.1016 -2.90939
  1169 64.1593 -1.78668 3.78723
  1170 64.1413 -1.79374 -3.83398
  1171 212.199 -3.73206 0.251663
  1172 212.606 -3.62463 -0.209649
  1173 3.69290 -32.5790 3.67108
  1174 251.885 -12.9972 -14.2875
  1175 288.468 -1.25798 5.71293
  1176 255.792 -16.3376 -20.6597
  1177 221.513 1.57423 33.0256
  1178 1.11259 -9.50260 7.18579
  1179 1.22197 -9.43459 -7.07198
  1180 162.562 -11.6673 6.30682
  1181 -11.3633 0.989356 6.19127
  1182 -11.3424 0.997855 -6.17317
  1183 426.003 68.0443 4.35078
  1184 501.683 153.016 -107.781
  1185 261.597 -25.5241 18.0334
  1186 106.277 -2.97503 -0.290731
  1187 106.281 -2.93564 0.290950
  1188 540.535 52.4289 -48.1468
  1189 36.2978 -0.955486 5.52219
  1190 36.2340 -0.940318 -5.54618
  1191 243.269 -0.796918 -13.1550
  1192 155.884 -12.5347 14.4811
  1193 258.792 -25.4584 -13.4205
  1194 250.367 -18.1431 -16.3580
  1195 151.930 -5.43933 38.6008
  1196 55.5018 10.4347 -20.2552
  1197 55.4675 10.3413 20.1342
  1198 73.6253 27.1471 -46.0971
  1199 73.7159 25.1031 46.0955
  1200 20.3615 6.17868 -6.65387
  1201 20.4860 6.15956 6.69634
  1202 308.199 53.3016 -25.4475
  1203 15.4981 14.0827 -5.77292
  1204 15.8691 14.1002 5.88308
  1205 222.508 -16.8836 4.07771
  1206 419.489 59.4558 25.3025
  1207 50.8958 -2.14700 -3.73032
  1208 50.9288 -2.14594 3.68881
  1209 274.210 184.630 -162.202
  1210 206.104 12.1865 -26.3682
  1211 188.603 14.5518 10.7420
  1212 25.6877 11.0397 -7.88931
  1213 25.8118 11.0385 7.93547
  1214 2.91079 -0.0437688 1.30842
  1215 2.83478 -0.0436862 -1.32082
  1216 246.726 -19.7582 13.6903
  1217 242.813 -9.50168 7.38454
  1218 165.994 45.7647 -115.314
  1219 383.195 83.4799 -2.62051
  1220 163.718 -5.09649 -42.6143
  1221 212.942 -6.26356 0.900499
  1222 8.05449 -1.07059 -0.318719
  1223 8.06762 -1.06990 0.316823
  1224 -6.45959 1.66542 -2.82362
  1225 -6.35850 1.65834 2.84684
  1226 142.077 1.43286 -44.8209
  1227 263.944 -5.58601 8.07658
  1228 170.688 2.83183 61.6411
  1229 231.964 -11.2567 -5.81099
  1230 119.119 41.7581 -90.3744
  1231 185.609 -9.25799 -46.0917
  1232 221.371 -23.6377 2.75109
  1233 271.818 -4.18194 12.5610
  1234 238.370 -4.69388 -2.22624
  1235 130.198 -9.55643 12.8510
  1236 299.170 -17.2334 -23.4810
  1237 282.688 24.2576 41.5984
  1238 122.336 0.554422 -35.2188
  1239 283.737 -1.56894 1.04861
  1240 224.521 28.0391 -5.99075
  1241 96.5989 -3.27978 -3.71786
  1242 96.5760 -3.24300 3.67212
  1243 435.014 98.2664 21.9061
  1244 598.683 15.9256 27.9158
  1245 0.513708 -27.8819 -4.52126
  1246 0.496692 -27.9148 4.55589
  1247 62.9520 32.8817 50.7483
  1248 151.501 -4.20862 -0.624213
  1249 151.533 -4.18074 0.681999
  1250 208.681 -20.9511 -4.51871
  1251 247.992 20.1947 36.7588
  1252 261.927 -4.91963 -5.29122
  1253 305.908 -0.728542 -0.231499
  1254 529.908 117.136 -73.3616
  1255 79.8414 -2.97062 3.78394
  1256 79.8381 -2.97793 -3.84039
  1257 250.364 -23.2498 14.0897
  1258 442.412 105.783 -30.7172
  1259 242.925 -10.3894 -8.29326
  1260 176.497 -12.1149 -4.07653
  1261 217.468 -23.6808 9.51751
  1262 212.661 -10.4083 2.23195
  1263 7.64694 0.344144 -9.12611
  1264 291.682 -18.0526 27.6628
  1265 235.906 -15.2760 -8.44443
  1266 8.44197 0.751199 10.1874
  1267 242.796 -19.8166 -43.1164
  1268 229.782 13.4726 -94.2871
  1269 379.171 47.1120 -9.87518
  1270 307.157 -0.127131 -0.103984
  1271 306.587 -0.412756 0.284758
  1272 240.043 -13.8379 9.05642
  1273 91.2867 10.8830 -34.6241
  1274 273.612 -24.5419 22.4641
  1275 467.304 106.365 47.6923
  1276 114.080 38.5751 87.9932
  1277 2.99994 0.0324820 7.40328
  1278 3.12050 0.0901120 -7.32010
  1279 288.029 -23.7055 -22.4635
  1280 113.973 -6.11318 -5.91325
  1281 113.949 -6.12847 5.79340
  1282 267.457 -17.7642 33.5768
  1283 8.14001 0.0964737 5.84436
  1284 8.03937 0.101722 -5.84341
  1285 -1.51705 -5.65891 7.77727
  1286 -1.50705 -5.64679 -7.77805
  1287 45.3705 -1.57271 -5.03770
  1288 45.4172 -1.58222 5.00171
  1289 139.489 -9.27070 -20.0081
  1290 140.321 -4.43859 0.991921
  1291 140.318 -4.54251 -0.938044
  1292 305.908 -0.122911 -0.0172456
  1293 270.063 -4.05608 -14.1053
  1294 20.4620 1.04566 -7.27034
  1295 20.5599 1.03056 7.27154
  1296 140.049 -9.81466 19.8320
  1297 309.043 -0.254003 0.0894277
  1298 291.565 -0.101443 -0.321703
  1299 291.566 -0.275396 0.244631
  1300 383.891 79.9530 6.24135
  1301 283.709 -1.72642 -2.35490
  1302 251.420 -2.27988 0.391538
  1303 278.619 -4.05545 -7.46720
  1304 304.149 -0.892775 1.08557
  1305 314.986 31.9756 36.7052
  1306 365.360 75.3256 10.7862
  1307 294.762 -1.09430 -3.80552
  1308 -2.37988 -0.617984 2.14476
  1309 -2.38926 -0.617508 -2.15117
  1310 161.931 -10.0314 4.16582
  1311 161.897 -9.57767 -4.02832
  1312 317.874 35.5144 -35.0314
  1313 65.1874 22.4143 -37.9078
  1314 65.6079 21.7899 37.4814
  1315 212.445 -0.00862193 -16.5083
  1316 220.618 -3.21830 -0.0662225
  1317 220.348 -3.18892 0.0207345
  1318 -5.39136 -0.943068 7.93028
  1319 -5.38148 -0.928954 -7.92689
  1320 244.032 -0.628051 13.1354
  1321 372.895 74.2112 0.120120
  1322 23.9788 -0.986296 -3.17865
  1323 24.0386 -0.988628 3.15072
  1324 275.585 -26.7179 12.8998
  1325 0.105551 4.37565 7.08595
  1326 0.185054 4.40235 -7.03489
  1327 48.3372 -1.09264 -1.00820
  1328 48.3506 -1.07432 0.989669
  1329 212.509 -0.354652 16.7560
  1330 5.73052 0.477188 -0.473873
  1331 5.76231 0.479009 0.464567
  1332 281.218 -3.09657 4.89339
  1333 390.758 71.5225 3.19513
</Section>

newXOutput 36

<Section columns = "stress_xx | stress_yy | stress_xy">
  1 322.900 -0.764420 0.584299
  2 323.433 -1.01511 -0.759277
  3 2.61287 0.309684 -0.849158
  4 -0.218631 -0.338625 -0.212250
  5 598.916 231.781 193.335
  6 608.158 265.837 -195.464
  7 -0.216165 -0.336477 0.209055
  8 2.60003 0.307965 0.847114
  9 325.159 -0.535269 -0.534850
  10 322.642 -1.05221 -0.761297
  11 322.813 -0.806467 0.755499
  12 321.094 -0.377003 0.370254
  13 320.355 -0.984903 -0.141737
  14 319.678 -0.938713 1.36087
  15 314.734 -0.629493 1.34593
  16 315.827 -2.25052 1.97782
  17 305.530 -1.84380 4.18008
  18 298.901 -0.766492 5.01519
  19 289.838 -0.980649 5.38995
  20 274.226 -0.865886 7.47107
  21 257.324 -0.759533 8.64213
  22 236.342 1.06870 11.7970
  23 207.710 1.64768 10.6553
  24 196.300 -0.155688 15.2207
  25 160.769 2.30475 10.8048
  26 139.282 3.06828 8.44656
  27 133.693 1.40421 6.22079
  28 127.695 4.46784 0.449905
  29 130.968 4.85409 -8.31380
  30 137.596 1.35652 -10.4451
  31 164.016 0.529343 -13.9772
  32 190.771 -1.36620 -14.5707
  33 208.739 1.36323 -10.6422
  34 236.660 1.22005 -11.8051
  35 256.635 -0.906494 -9.25672
  36 275.969 -1.00781 -7.05769
  37 288.626 -0.695045 -5.47083
  38 297.982 -0.808542 -4.61518
  39 307.963 -1.05579 -2.69430
  40 311.969 -1.03559 -2.59099
  41 315.850 -0.985345 -2.27064
  42 319.818 -1.13446 -0.497705
  43 321.381 -1.46125 -0.958543
  44 319.578 0.195433 -0.110480
  45 322.446 -0.722501 -0.845905
  46 323.957 -1.58333 0.829965
  47 325.578 -0.890282 -0.0467264
  48 308.719 0.355409 -0.486602
  49 289.877 -0.975443 -0.923936
  50 268.644 -2.48772 -1.36045
  51 246.754 -1.96735 -0.993597
  52 227.740 -3.41468 -0.915970
  53 207.733 -3.74494 -0.844451
  54 187.609 -3.24843 -0.442345
  55 166.507 -3.53496 -0.593025
  56 148.698 -3.84478 -0.768352
  57 125.059 -3.71984 -0.638314
  58 100.765 -2.30199 -0.408600
  59 80.6982 -1.46550 -0.331013
  60 55.9461 -0.924506 -0.160099
  61 37.9614 -0.941734 -1.25724
  62 21.2411 -1.35368 -0.428205
  63 4.38690 0.158400 0.743174
  64 0.0612772 1.18295 0.263640
  65 -1.11920 0.484371 0.763947
  66 -0.407250 0.220305 0.740792
  67 -3.74537 0.682899 0.291304
  68 -4.97988 0.889085 1.56633
  69 -5.36031 0.308614 0.519330
  70 -11.0439 0.653134 0.577589
  71 -13.6493 0.460089 1.49383
  72 -14.5626 0.161602 1.56075
  73 -20.7210 0.619445 1.19349
  74 -22.9714 0.919682 2.31702
  75 -25.4087 0.558120 0.791684
  76 -28.3607 0.403276 1.21782
  77 -29.4158 0.433538 0.449729
  78 -32.2027 1.03033 -0.748424
  79 -32.4418 0.706556 -0.561560
  80 -29.4783 0.540431 -1.04447
  81 -25.2746 0.693747 -1.96713
  82 -20.4762 0.299049 -2.95477
  83 -15.2133 0.161175 -3.06625
  84 -9.11621 -0.319281 -3.20703
  85 -3.93634 -0.252770 -1.86328
  86 -1.64308 -0.662800 -1.15880
  87 -0.280899 -1.66040 -0.998461
  88 -0.478231 -4.24244 -1.79120
  89 -0.541876 -8.36750 -3.16061
  90 -0.117454 -15.6999 -3.42863
  91 0.181210 -21.7741 -4.32028
  92 0.435276 -31.3391 -3.53189
  93 1.31985 -37.2596 -4.17572
  94 0.213411 -40.2839 -3.49022
  95 -0.0682867 -46.3203 -2.15266
  96 1.27447 -45.1839 -0.661005
  97 5.13168 -58.6834 2.23533
  98 4.50468 -32.3803 7.66762
  99 10.8044 -15.3885 17.1828
  100 32.7328 50.1411 54.8677
  101 141.333 176.197 158.354
  102 784.894 82.7827 116.851
  103 653.986 23.0727 41.8875
  104 622.124 9.84501 14.4521
  105 604.299 6.48559 -0.0738908
  106 615.581 9.38009 -11.8495
  107 660.302 19.7137 -34.7376
  108 776.706 65.9289 -109.013
  109 91.5337 199.918 -131.003
  110 22.9692 35.6181 -42.2631
  111 7.95058 -20.7725 -14.1722
  112 4.07962 -35.5533 -6.53064
  113 5.10741 -60.9541 -1.68307
  114 1.22013 -46.1956 1.05450
  115 -0.142869 -46.8288 2.35832
  116 0.165680 -40.4820 3.60072
  117 1.29401 -37.3084 4.22267
  118 0.425320 -31.3243 3.54942
  119 0.173624 -21.7451 4.32683
  120 -0.121160 -15.6622 3.42687
  121 -0.542394 -8.34332 3.15416
  122 -0.479267 -4.22143 1.78507
  123 -0.280727 -1.65253 0.992999
  124 -1.63360 -0.661934 1.15426
  125 -3.91959 -0.253874 1.85842
  126 -9.09497 -0.321865 3.20426
  127 -15.1891 0.158368 3.06712
  128 -20.4635 0.296003 2.96030
  129 -25.2822 0.691623 1.97769
  130 -29.5065 0.540307 1.05573
  131 -32.4965 0.706006 0.572461
  132 -32.2790 1.03036 0.759691
  133 -29.5164 0.434718 -0.440075
  134 -28.4792 0.404720 -1.21085
  135 -25.5358 0.559739 -0.786315
  136 -23.1079 0.921578 -2.31515
  137 -20.8606 0.621195 -1.19196
  138 -14.6991 0.162667 -1.56153
  139 -13.7851 0.461911 -1.49647
  140 -11.1724 0.655713 -0.581378
  141 -5.47184 0.310345 -0.526155
  142 -5.07382 0.890792 -1.57623
  143 -3.82406 0.683322 -0.300121
  144 -0.462784 0.219952 -0.749272
  145 -1.15731 0.483483 -0.770725
  146 0.0345528 1.18136 -0.269558
  147 4.36974 0.157422 -0.746588
  148 21.2249 -1.35860 0.424585
  149 37.9459 -0.954401 1.25318
  150 55.9356 -0.947102 0.154860
  151 80.6945 -1.49826 0.328236
  152 100.761 -2.34008 0.408071
  153 125.046 -3.75293 0.643310
  154 148.660 -3.86158 0.778982
  155 166.443 -3.51516 0.618407
  156 187.516 -3.17405 0.471832
  157 207.602 -3.56844 0.799256
  158 227.836 -3.46402 0.806544
  159 246.824 -2.27911 1.04777
  160 268.857 -2.43003 1.24181
  161 290.469 -0.806734 0.936517
  162 308.174 0.337239 0.472028
  163 177.080 -15.9201 -13.7971
  164 176.352 -16.2079 13.7656
  165 52.3576 14.5810 -20.4684
  166 52.8790 14.6366 20.3747
  167 209.766 -10.3520 53.3764
  168 220.050 -11.6845 -51.9178
  169 101.250 -5.25787 6.27431
  170 101.243 -5.20473 -6.37409
  171 224.296 -7.56008 1.75492
  172 219.702 -7.58188 -1.68375
  173 297.987 53.9271 -7.91841
  174 303.737 1.73409 -40.3654
  175 297.528 4.12226 43.2096
  176 69.9613 -2.59853 -13.6667
  177 69.9603 -2.57799 13.6352
  178 262.476 -26.0580 15.0012
  179 262.143 -20.1785 -20.4977
  180 3.24550 5.82312 6.77884
  181 3.35290 5.86095 -6.71540
  182 358.525 72.7640 12.9080
  183 68.1272 30.2799 -47.3708
  184 73.1900 30.5790 50.8997
  185 253.944 -11.6562 9.87324
  186 381.285 79.5408 -6.91323
  187 163.315 -5.71069 -1.55738
  188 163.043 -5.86707 1.53885
  189 261.313 -8.02389 -8.96234
  190 349.060 -3.09354 -3.16911
  191 62.1420 -1.85199 2.34475
  192 62.1277 -1.86918 -2.38294
  193 26.3430 3.52467 -9.04209
  194 26.4655 3.48849 9.06252
  195 145.560 -5.60476 -33.0611
  196 144.988 -5.91838 33.4934
  197 174.155 -11.1306 -4.40295
  198 174.506 -11.0680 4.74452
  199 43.7277 -1.53116 7.18306
  200 43.6668 -1.50967 -7.20189
  201 345.374 -7.08828 21.0530
  202 281.441 -27.9853 -7.04216
  203 267.987 -2.46904 -1.48780
  204 261.862 -3.03941 1.53488
  205 263.637 30.8580 30.3058
  206 10.9691 9.05249 -2.95538
  207 11.3803 9.02983 3.13781
  208 263.904 -10.6974 35.2983
  209 241.599 18.3662 -34.5011
  210 173.006 38.1569 -110.715
  211 181.913 32.2026 102.815
  212 3.88172 5.75915 -0.217317
  213 3.98304 5.75723 0.265098
  214 262.979 -9.45448 -36.4366
  215 460.153 64.6863 -4.22705
  216 218.626 -23.9299 18.3869
  217 220.313 -23.7877 -17.3306
  218 218.514 -15.4390 -2.10915
  219 272.209 -4.07343 4.84861
  220 130.150 -8.83908 -11.8061
  221 128.060 -8.80164 12.2021
  222 77.7192 1.66373 -20.8284
  223 77.8267 1.63232 20.6417
  224 278.904 -29.7248 -1.90126
  225 216.667 -16.4284 1.18075
  226 271.260 -3.96050 -3.86346
  227 210.326 -5.13303 0.322755
  228 212.198 -4.76256 0.0829794
  229 267.017 -11.8395 20.6241
  230 21.5758 0.255008 -7.65498
  231 21.6698 0.244360 7.65200
  232 -3.45956 -2.35189 -9.11897
  233 -3.47698 -2.37310 9.12673
  234 38.8089 -1.73223 -4.12083
  235 38.8586 -1.73640 4.08419
  236 111.229 -3.20303 2.76767
  237 111.259 -3.26388 -2.79225
  238 128.935 8.82776 -48.7571
  239 128.950 7.34508 48.1962
  240 270.914 -8.33540 -17.6332
  241 126.003 -7.30262 -19.6729
  242 126.107 -7.52790 19.3754
  243 237.224 3.53422 38.9389
  244 206.244 17.7663 2.35124
  245 232.138 -23.0922 -1.86674
  246 0.933424 -5.96442 -8.47094
  247 0.855693 -6.02546 8.53885
  248 14.5997 14.1691 -15.8097
  249 15.5573 13.6339 16.6634
  250 228.217 -22.5842 0.329665
  251 413.907 76.0832 -3.54716
  252 20.8443 14.2039 -6.35497
  253 21.1005 14.1961 6.43708
  254 -9.04361 1.87050 6.32985
  255 -8.99899 1.88019 -6.29922
  256 416.293 71.0289 5.80299
  257 143.683 -6.77136 -4.36535
  258 143.569 -6.65819 4.26389
  259 283.868 -19.3576 33.0614
  260 515.644 83.7937 51.3767
  261 83.3531 -4.35071 -11.1591
  262 83.3305 -4.38135 11.1451
  263 288.382 43.0964 -29.1899
  264 497.141 94.2568 -46.4336
  265 346.294 33.9651 28.8301
  266 377.954 21.8974 -68.8816
  267 232.311 -10.7841 4.21163
  268 263.652 1.07266 -43.8846
  269 250.395 -17.5755 -12.0049
  270 279.573 -4.88983 11.2282
  271 -0.758751 2.66050 -2.56677
  272 -0.657573 2.65183 2.60037
  273 277.057 -9.85493 -66.9792
  274 28.8340 9.04012 -9.04247
  275 28.9739 9.02277 9.09372
  276 267.528 -6.45288 -22.3687
  277 37.9403 38.0715 -49.1355
  278 29.7236 -0.130671 -0.942343
  279 29.7457 -0.123572 0.926612
  280 282.753 -17.7670 -34.4426
  281 48.9529 21.9824 -25.9704
  282 49.6663 21.8588 26.0426
  283 12.6558 -0.424021 5.36870
  284 12.5579 -0.418534 -5.37402
  285 231.983 -10.2164 -4.09262
  286 38.1993 37.6520 50.4940
  287 371.738 26.3571 81.0389
  288 99.4442 -3.87292 -3.71767
  289 99.4214 -3.84662 3.65794
  290 184.767 -7.44927 -1.23326
  291 184.674 -8.08626 1.43675
  292 157.725 14.8812 -74.6244
  293 255.266 -28.0294 -5.25652
  294 291.994 -1.63044 2.16227
  295 151.865 14.8426 72.1425
  296 176.793 -4.59157 -0.383624
  297 176.724 -4.58763 0.538844
  298 250.786 -18.3063 12.2370
  299 289.174 -2.93032 -5.37197
  300 -2.97873 1.08589 -4.09048
  301 -2.86778 1.07780 4.10575
  302 361.907 72.2322 -3.64673
  303 317.876 -15.1919 18.4233
  304 287.749 -1.31758 -0.599244
  305 292.889 -1.14317 0.542551
  306 286.235 -25.5852 23.2561
  307 353.159 36.2573 -26.9616
  308 307.217 57.2304 16.9774
  309 137.127 -8.30604 -7.24775
  310 135.858 -8.46069 7.40156
  311 291.701 -1.57341 -1.49092
  312 190.022 -14.4804 -36.3080
  313 186.791 -14.6331 5.67110
  314 178.113 -9.84486 41.5380
  315 286.580 -3.31645 6.39478
  316 63.0103 -2.89298 -6.92485
  317 63.0485 -2.91451 6.89098
  318 263.828 -9.37555 66.2041
  319 166.289 -13.0652 -9.01708
  320 307.174 39.1777 36.6914
  321 96.9365 6.83979 -31.3171
  322 93.2871 7.14751 31.0461
  323 26.2016 -0.581213 -1.71389
  324 26.2413 -0.577134 1.68882
  325 252.821 -4.89657 2.94438
  326 242.384 -3.22278 0.483068
  327 241.002 -3.55132 -0.568138
  328 265.455 -6.79903 23.6814
  329 20.9404 -0.825488 3.96865
  330 20.8589 -0.817580 -3.98907
  331 75.4715 -1.76011 -1.42163
  332 75.4730 -1.72911 1.40491
  333 2.45981 -12.5059 -4.90951
  334 2.29200 -12.6024 5.10955
  335 204.361 8.79175 26.3623
  336 320.997 -14.3695 -15.2680
  337 206.753 -10.8149 1.31116
  338 234.356 -4.50065 -1.62304
  339 243.306 30.3004 -16.2457
  340 46.3978 -1.46664 -10.1024
  341 46.4559 -1.46749 10.0913
  342 200.951 -10.1855 -0.241112
  343 55.7721 1.98140 -14.5818
  344 55.8768 1.93219 14.5319
  345 10.5331 9.18252 0.366614
  346 10.6676 9.18007 -0.310039
  347 244.994 -26.4579 23.9072
  348 547.148 36.1571 14.0072
  349 216.033 3.15920 -31.2427
  350 181.502 -16.2868 21.9535
  351 180.577 -15.9646 -22.6450
  352 268.298 -4.69666 43.5004
  353 237.787 -1.79292 30.9378
  354 241.765 -25.5842 -24.7178
  355 142.807 -3.49635 0.104443
  356 142.786 -3.54026 -0.0684303
  357 267.446 -17.4851 26.9725
  358 366.181 73.1414 2.16052
  359 287.919 -3.14830 -8.30310
  360 71.9267 -2.73868 -4.95514
  361 71.9528 -2.74076 4.90047
  362 270.780 -26.0127 -29.8838
  363 283.493 19.5771 -43.4729
  364 187.634 10.1013 -16.8998
  365 269.286 -18.0431 -30.7539
  366 -8.86151 0.274097 -7.04265
  367 -8.87145 0.263487 7.05184
  368 226.227 -5.16446 1.08880
  369 -3.21935 -1.92151 -4.15867
  370 -3.21564 -1.92222 4.15030
  371 175.366 85.3669 -135.029
  372 6.71839 5.89236 4.77359
  373 6.89240 5.94001 -4.68078
  374 235.909 -1.89400 -30.6790
  375 129.512 -5.41359 3.27903
  376 129.608 -5.48916 -3.32082
  377 -0.925671 -9.58697 8.01365
  378 -0.910983 -9.56933 -8.00501
  379 142.245 89.5918 127.030
  380 105.846 -5.58345 -15.2718
  381 105.926 -5.33809 15.2834
  382 33.5731 24.5415 -23.9308
  383 34.2886 24.4666 23.7858
  384 -13.7683 2.02464 2.65915
  385 -13.7074 2.02767 -2.62661
  386 273.303 18.0405 43.4669
  387 209.762 -21.9532 9.90931
  388 209.983 -19.0827 3.40725
  389 255.013 -29.0689 -2.44329
  390 62.7851 7.93204 -20.3849
  391 62.9938 7.91597 20.3500
  392 5.55697 -8.96064 0.184566
  393 5.24773 -9.09140 0.256235
  394 256.587 36.7438 10.7334
  395 260.375 -7.29737 7.38457
  396 147.721 -11.4095 13.9393
  397 90.7959 -2.24569 -18.3852
  398 90.8259 -2.26232 18.2382
  399 189.059 -5.54091 -0.354929
  400 188.851 -4.83605 0.194122
  401 146.475 -11.7228 -14.8496
  402 114.235 -1.90616 -25.0636
  403 114.213 -2.06528 25.2667
  404 271.148 -24.9453 -19.2323
  405 156.411 -11.9437 8.54606
  406 246.797 -7.35285 4.54536
  407 246.364 -6.67790 -3.83667
  408 206.070 -18.9381 -4.15843
  409 297.790 -1.18195 -2.28439
  410 98.9386 39.6628 -75.5998
  411 279.142 -3.97282 13.6636
  412 296.790 -1.45106 3.35614
  413 103.961 -5.51669 9.04343
  414 104.012 -5.44051 -9.03593
  415 208.812 -21.6888 -10.2764
  416 29.1431 13.1244 9.72322
  417 28.9844 13.1162 -9.73366
  418 552.869 36.1298 -28.6815
  419 241.658 -13.6666 -7.05979
  420 300.090 -0.929963 1.31669
  421 93.3546 36.9593 71.9218
  422 442.042 74.5643 13.8999
  423 259.818 -3.76851 -2.35965
  424 193.256 -13.9156 -3.18340
  425 79.9147 15.4412 -35.4443
  426 85.2069 14.3207 35.2329
  427 238.695 -15.0221 7.15172
  428 252.418 -3.27700 -22.8148
  429 -3.21203 -0.222156 4.01260
  430 -3.32744 -0.219464 -4.01067
  431 90.5258 21.7100 -47.8116
  432 90.8125 21.7907 47.6621
  433 10.0812 5.03477 -4.00736
  434 10.1932 5.02327 4.04927
  435 214.067 -3.93874 0.528025
  436 213.809 -3.82979 -0.453997
  437 266.594 -12.1136 -21.5532
  438 -0.843044 -0.908841 9.90423
  439 -0.795487 -0.867256 -9.86839
  440 274.758 -27.2046 16.9610
  441 260.080 -6.79872 -6.54971
  442 420.490 80.5615 -11.7780
  443 14.6522 -0.748465 1.85130
  444 14.5835 -0.748625 -1.87319
  445 507.897 142.327 62.8619
  446 9.99192 2.83077 -14.3396
  447 30.0923 1.52937 -9.81167
  448 30.1930 1.50512 9.80834
  449 506.244 145.498 -60.1489
  450 10.5933 3.96341 15.8495
  451 -13.4188 1.58646 0.844741
  452 -13.3406 1.58380 -0.814136
  453 27.5454 18.8300 -13.7842
  454 28.0284 18.8342 13.8613
  455 328.048 51.1721 -30.4630
  456 263.758 -10.2094 -14.0325
  457 298.452 -1.01053 -1.17397
  458 275.439 -4.18962 -15.9995
  459 -3.38449 1.91539 9.07929
  460 -3.33614 1.94197 -9.04573
  461 266.464 -10.6598 16.2726
  462 172.220 -9.55604 -3.45950
  463 171.683 -9.65702 2.87071
  464 234.683 -25.9047 -3.06919
  465 166.931 -2.42132 -51.1325
  466 255.026 -3.93333 23.3268
  467 208.876 -6.57167 -0.338128
  468 307.932 -23.3986 -2.57059
  469 161.668 1.30968 54.8786
  470 10.7131 -0.216315 3.87343
  471 10.6139 -0.211498 -3.88336
  472 336.806 66.6334 -13.8834
  473 270.642 -1.84291 0.196503
  474 269.701 -2.10867 -0.446173
  475 203.142 -13.4381 0.867195
  476 87.3059 -2.91201 -2.73648
  477 87.2965 -2.87594 2.69921
  478 51.1986 -0.567261 -11.9761
  479 51.2560 -0.577459 11.9488
  480 168.404 6.53356 10.0907
  481 41.3653 -1.40131 5.73490
  482 41.3080 -1.38761 -5.76669
  483 45.0410 4.40223 13.4789
  484 44.8911 4.46744 -13.4693
  485 261.687 -20.2474 19.7121
  486 145.524 -9.04464 -23.5003
  487 133.932 -4.21344 1.64294
  488 133.983 -4.32268 -1.64688
  489 147.073 -9.33145 23.4910
  490 409.574 96.8339 -7.35860
  491 -6.55286 -1.00136 -5.41715
  492 -6.54968 -1.00651 5.41441
  493 101.172 -2.76227 -1.12588
  494 101.168 -2.71767 1.12050
  495 0.101161 -17.7528 -6.75492
  496 0.0584474 -17.8104 6.81366
  497 239.128 -3.38733 0.947766
  498 167.312 8.01995 -5.02809
  499 226.895 23.8275 14.5646
  500 144.689 -1.42128 -40.5801
  501 69.7513 -3.56998 8.71250
  502 69.7476 -3.53952 -8.73008
  503 -18.9948 0.598604 -1.29402
  504 -18.8880 0.595051 1.30776
  505 282.354 -5.46084 -43.2682
  506 20.4444 0.148086 -1.26730
  507 20.4765 0.151756 1.24933
  508 235.055 -18.4408 -5.95887
  509 250.625 -21.3102 -11.6799
  510 50.6944 38.2285 -50.8177
  511 210.557 5.39712 -81.1430
  512 2.37547 6.21674 4.48589
  513 2.47544 6.22945 -4.43071
  514 127.568 -5.80829 -4.84734
  515 127.501 -5.75285 4.73187
  516 363.107 14.4609 -9.80305
  517 260.672 -15.3284 -17.8619
  518 49.4089 36.1032 50.0883
  519 258.302 -29.3818 6.45736
  520 248.284 -23.5875 9.23297
  521 50.9800 -1.23478 -3.75538
  522 51.0085 -1.22940 3.71487
  523 202.028 2.14067 24.1779
  524 146.526 -10.7196 -9.10543
  525 275.329 -5.98491 10.2065
  526 -1.13760 -6.68119 -5.25462
  527 -1.14042 -6.67637 5.24741
  528 192.158 -17.0567 26.3780
  529 293.402 -22.6547 -22.8501
  530 383.870 25.7060 -12.1903
  531 206.305 -6.82168 0.469938
  532 59.5251 -1.08735 -1.10745
  533 59.5340 -1.06473 1.09640
  534 129.969 1.04608 39.0564
  535 365.857 60.7390 20.9739
  536 373.721 70.8409 -128.961
  537 333.507 1.37515 21.9961
  538 239.398 -26.6272 1.77501
  539 570.383 45.3445 38.3904
  540 419.989 100.899 10.9228
  541 57.7209 -2.39197 9.52787
  542 57.6806 -2.36752 -9.54664
  543 230.051 -18.9881 4.51929
  544 16.5779 8.17279 -3.62960
  545 16.7057 8.16727 3.67945
  546 289.779 -24.2535 22.8393
  547 235.277 12.6149 35.7674
  548 292.348 -1.81023 5.66902
  549 215.211 -12.7655 2.13511
  550 303.115 1.61895 -85.5360
  551 482.661 122.019 83.3681
  552 233.773 -4.37813 -0.847678
  553 286.912 -2.86006 -9.07499
  554 44.3525 18.5677 -19.2953
  555 44.6763 18.3428 19.2031
  556 162.916 -6.38988 -2.20951
  557 162.839 -6.23198 2.26145
  558 1.85334 -21.8460 -2.01475
  559 292.302 -10.6407 38.6871
  560 10.8595 9.89096 1.49768
  561 11.0360 9.91720 -1.41541
  562 2.17754 -21.1336 2.63633
  563 265.755 -12.1552 -31.2079
  564 305.999 19.0149 -41.7914
  565 304.852 21.5853 41.7819
  566 14.4016 11.8311 10.3558
  567 13.6659 12.1306 -10.1140
  568 -9.54703 0.290254 3.00627
  569 -9.66620 0.293144 -3.00081
  570 282.187 6.30082 88.2549
  571 153.027 -8.35281 4.71100
  572 153.184 -8.32271 -4.81857
  573 340.722 -6.95605 -44.4318
  574 41.8624 -0.576179 2.18155
  575 41.8393 -0.586323 -2.20862
  576 18.0147 -0.533567 -0.520139
  577 18.0339 -0.530046 0.513857
  578 373.203 67.2762 -17.2231
  579 35.2344 49.9622 -56.3077
  580 192.855 3.80958 -20.4644
  581 274.538 43.9415 -18.3142
  582 3.92550 -0.443743 6.27762
  583 4.09207 -0.385067 -6.16581
  584 281.668 125.410 152.011
  585 237.267 -6.39774 -2.60467
  586 7.49853 2.42807 -4.97077
  587 7.60818 2.41047 4.99599
  588 274.026 -22.1310 27.0598
  589 41.7145 48.3522 57.3357
  590 197.095 -3.92980 0.170998
  591 197.148 -3.89448 -0.171814
  592 -0.230454 -14.0712 6.96882
  593 -0.209098 -14.0480 -6.94584
  594 336.253 65.7772 -0.538243
  595 213.614 -17.3571 37.8691
  596 203.773 -8.52524 0.258872
  597 205.378 8.81007 85.6395
  598 -17.1298 0.855466 4.21479
  599 -17.1122 0.860090 -4.19809
  600 337.702 3.80994 -23.5911
  601 452.697 73.2643 -59.0308
  602 127.216 12.8075 -56.6394
  603 67.7720 -2.80802 -11.6522
  604 67.8327 -2.80808 11.6522
  605 306.435 -0.911823 1.62273
  606 201.721 -8.71491 -0.518659
  607 271.693 -3.50870 3.59998
  608 265.778 -12.1465 30.4829
  609 9.15255 -0.432645 1.90935
  610 9.06701 -0.430755 -1.92568
  611 156.514 -5.28831 -1.26576
  612 156.491 -5.13656 1.21661
  613 97.1554 2.17865 -25.8695
  614 96.5179 2.20582 25.7482
  615 386.322 21.4652 21.2163
  616 634.378 47.8012 -69.5071
  617 -6.35486 -0.379605 2.64236
  618 -6.47703 -0.378292 -2.64234
  619 91.1718 -3.79287 5.07862
  620 91.1698 -3.78876 -5.15369
  621 359.290 18.7143 14.7146
  622 303.131 -0.930723 -0.515766
  623 302.449 -1.40905 0.231623
  624 216.231 -0.128926 23.9588
  625 316.012 -19.1600 -26.7061
  626 170.045 -13.8730 10.8960
  627 -4.31372 3.81074 -4.09050
  628 -4.38856 3.80514 4.13352
  629 273.463 5.37311 45.3370
  630 107.157 -6.09955 -12.1231
  631 107.047 -6.20296 12.1471
  632 222.999 -12.7331 -2.96636
  633 276.661 -5.89108 -9.24475
  634 156.470 -12.4168 -16.8206
  635 256.743 30.9458 -27.5386
  636 173.422 -12.0118 -30.7222
  637 61.8374 -1.64865 -1.91458
  638 61.8465 -1.62794 1.88657
  639 158.124 -12.6458 16.8809
  640 342.203 54.8492 27.5215
  641 271.851 -13.3545 38.3955
  642 222.592 -9.70874 2.69593
  643 158.235 -4.02179 0.915891
  644 158.195 -4.03176 -0.885105
  645 118.525 -4.30867 -3.57617
  646 118.478 -4.25913 3.53361
  647 262.021 -24.0817 -15.9933
  648 131.209 -7.31370 6.28373
  649 131.355 -7.28488 -6.42440
  650 260.955 40.3957 -3.70546
  651 242.098 -12.5543 7.10617
  652 304.634 -1.31518 -2.49574
  653 256.541 -4.84687 -39.8367
  654 35.4067 -1.59190 7.64245
  655 35.3360 -1.58041 -7.65113
  656 296.776 -1.53593 -5.12947
  657 51.8769 26.6569 -35.5488
  658 52.7736 26.5868 35.7246
  659 302.409 -18.9250 37.5152
  660 102.743 25.4426 59.6434
  661 23.8617 -0.116418 7.65231
  662 23.7759 -0.110610 -7.65779
  663 257.044 -17.0817 49.0923
  664 253.883 34.3159 -117.152
  665 245.049 7.54484 -39.6749
  666 324.231 58.5344 23.5687
  667 218.696 -9.49917 -1.71759
  668 394.143 71.2699 -1.72858
  669 -19.6543 0.898379 -0.738161
  670 -19.5635 0.895941 0.757786
  671 174.029 0.524428 -60.0957
  672 9.77096 -0.250346 1.49041
  673 9.71131 -0.251011 -1.50706
  674 218.891 -18.6686 -37.4144
  675 71.4196 9.90522 -24.8993
  676 70.8393 9.93761 24.8838
  677 0.768301 3.62368 -1.20173
  678 0.866896 3.61847 1.24345
  679 185.441 -15.9406 -7.92548
  680 263.248 -2.58589 -15.3316
  681 124.115 -3.71344 -1.30830
  682 124.118 -3.66914 1.31934
  683 89.2304 -4.51961 -7.68703
  684 89.2983 -4.58383 7.65534
  685 16.6957 13.7454 -4.24294
  686 16.9812 13.7732 4.33810
  687 271.308 -2.99812 1.86656
  688 118.655 -7.45930 10.0247
  689 119.436 -7.32506 -10.0136
  690 299.952 -24.4485 -4.84851
  691 246.563 -24.7836 -6.56761
  692 193.299 -5.21045 0.0880655
  693 192.603 -4.83712 0.0123347
  694 272.062 -29.0901 13.6363
  695 442.704 89.1160 22.3523
  696 238.866 -11.1411 -61.2944
  697 273.641 -7.54411 16.1970
  698 271.163 -10.2786 -41.1169
  699 82.6372 -2.51614 -3.56185
  700 82.6339 -2.49580 3.51212
  701 212.105 -4.09986 68.8804
  702 599.135 76.5155 70.2247
  703 39.8031 11.7655 -14.0514
  704 39.8611 11.8432 14.0984
  705 270.512 -2.37240 -0.952888
  706 272.691 -2.11226 0.969943
  707 113.985 56.4242 -97.5075
  708 286.857 -1.46600 9.04166
  709 247.948 -3.97988 1.57962
  710 325.600 64.7188 -8.78225
  711 32.2251 5.93286 -10.0771
  712 32.3678 5.89496 10.1153
  713 309.434 -0.669575 0.306672
  714 249.130 -9.38450 -6.88174
  715 310.839 -5.19617 34.1434
  716 125.764 -8.75054 -15.9625
  717 126.080 -8.36810 15.8012
  718 26.9547 -0.971047 5.78687
  719 26.8765 -0.958568 -5.80461
  720 282.932 -1.69726 -1.69609
  721 243.634 46.1978 124.492
  722 1.59252 1.61786 8.36738
  723 1.68261 1.67063 -8.30555
  724 283.378 -2.86036 -4.33563
  725 274.951 -4.84064 6.16833
  726 215.165 0.0949935 -25.6969
  727 2.00114 -25.5794 -3.50765
  728 1.86676 -25.8250 3.75457
  729 98.8132 26.2001 -59.6299
  730 218.421 -22.0709 -26.6802
  731 113.055 55.9424 98.4793
  732 305.219 -0.648933 0.999115
  733 291.882 43.6082 29.3407
  734 211.066 19.2045 -10.1343
  735 383.772 77.3940 -0.571040
  736 301.020 -1.16568 3.35633
  737 -18.9933 0.444421 2.10931
  738 -19.1109 0.446872 -2.10073
  739 319.916 -18.9447 6.98300
  740 205.945 -5.66452 0.0893586
  741 73.6203 0.189899 -17.6016
  742 73.7147 0.115270 17.4936
  743 275.164 -2.99663 -2.60411
  744 486.975 69.0195 -24.5408
  745 30.3854 -0.925751 -3.57612
  746 30.4497 -0.931309 3.54735
  747 307.343 -0.734342 -1.57367
  748 58.7780 -2.63572 -4.99889
  749 58.8137 -2.64508 4.95638
  750 299.125 -12.3295 -35.0728
  751 276.092 -2.85286 12.4092
  752 246.433 -1.77265 39.3195
  753 308.012 -0.765251 -0.0523205
  754 286.850 -1.97926 3.33750
  755 186.007 -9.80561 -1.37817
  756 234.211 -5.88087 2.01022
  757 266.126 -16.3966 -26.1954
  758 259.687 -16.2491 17.2756
  759 303.818 36.4161 -37.0609
  760 256.172 -14.2363 12.9301
  761 270.355 -16.1224 33.3539
  762 155.713 -10.3987 6.45360
  763 5.48827 -2.27231 -0.984825
  764 5.18850 -2.28988 1.26838
  765 237.268 -3.27191 0.0551595
  766 236.760 -3.24609 -0.144085
  767 285.689 -1.07887 -0.196496
  768 286.697 -1.01979 0.264767
  769 270.837 -7.54341 19.7481
  770 250.115 -23.3455 35.2259
  771 204.735 -16.4884 2.29792
  772 181.521 -10.6342 2.76184
  773 497.008 63.7745 28.6949
  774 274.204 -6.81991 -12.8491
  775 160.013 27.2498 -91.5579
  776 254.570 -12.4133 -11.2197
  777 8.78612 0.230286 -5.43041
  778 8.89295 0.220969 5.43703
  779 225.224 19.7386 -22.7290
  780 583.298 17.7251 -7.64831
  781 285.965 7.01892 -44.4843
  782 11.2471 4.33790 -21.6919
  783 293.498 52.9812 7.53038
  784 229.756 -14.4356 4.35258
  785 257.629 -6.58420 38.6744
  786 217.283 -23.0242 26.8311
  787 350.043 -3.44995 55.1451
  788 12.1234 7.00492 23.2160
  789 156.496 -1.07732 46.6190
  790 219.689 -5.38423 -0.882364
  791 245.155 -22.3481 -35.6699
  792 149.260 -11.5416 -11.5897
  793 117.755 5.56480 -40.5907
  794 283.648 -4.72973 43.6027
  795 181.254 -12.2052 4.77690
  796 32.6301 -0.966210 3.22878
  797 32.5835 -0.967490 -3.26115
  798 264.071 -1.42713 13.5897
  799 238.439 1.05644 -38.1542
  800 -21.2020 0.943182 2.66177
  801 -21.1701 0.944882 -2.64363
  802 176.316 -5.29623 -0.400632
  803 175.793 -4.99284 0.345254
  804 130.546 14.3752 57.4867
  805 115.730 -6.68118 7.46515
  806 115.898 -6.51467 -7.55038
  807 307.232 -0.504272 -0.882347
  808 105.865 8.35038 39.5229
  809 1.23078 -0.0988255 2.05720
  810 1.12360 -0.0965671 -2.06693
  811 260.847 -8.11215 29.9807
  812 280.434 -2.18646 1.35802
  813 -14.9789 0.161911 4.15766
  814 -14.9808 0.166662 -4.14936
  815 171.136 -10.8438 34.6113
  816 32.6185 26.9276 -29.9216
  817 33.0241 25.6388 29.4564
  818 159.226 7.09301 4.19229
  819 -4.80016 -0.153665 -2.36650
  820 -4.67824 -0.155332 2.36359
  821 197.101 -18.8157 -25.1095
  822 269.963 -28.4845 -10.1474
  823 -1.33623 -1.27042 -1.67566
  824 -1.33235 -1.26751 1.66952
  825 11.6441 0.470954 -0.473679
  826 11.6696 0.473565 0.464155
  827 239.802 -21.2784 6.85657
  828 201.436 -20.6706 17.2241
  829 223.708 -3.49841 0.752810
  830 200.890 -16.0800 -3.06988
  831 71.7200 -1.13654 -0.355690
  832 71.7250 -1.10675 0.348707
  833 -24.0556 0.508217 1.58622
  834 -24.0043 0.507529 -1.56846
  835 253.270 -3.03007 -1.26180
  836 221.601 8.60285 -32.4080
  837 256.030 -4.85230 -3.66665
  838 149.570 -11.3305 11.0158
  839 251.937 -4.48458 -31.5901
  840 270.543 -8.19857 -20.4087
  841 254.319 -2.56654 1.13669
  842 184.563 -7.26587 47.8400
  843 197.192 -19.2191 -9.38765
  844 118.045 -0.873899 -30.9298
  845 118.703 -0.0530366 31.0914
  846 167.658 -12.4304 -7.00037
  847 278.896 30.0412 38.0393
  848 265.941 -28.0103 -18.9578
  849 93.8018 -2.89807 -1.76245
  850 93.7906 -2.85246 1.74199
  851 202.590 -4.34901 -0.0210326
  852 202.596 -4.38727 0.0728507
  853 240.403 -1.85809 -20.6195
  854 79.6851 -3.33803 -6.19760
  855 79.7254 -3.36361 6.14014
  856 0.955231 -25.5502 -5.14608
  857 0.902838 -25.6594 5.24923
  858 38.6838 -0.575227 -0.220018
  859 38.6682 -0.587826 0.211652
  860 251.282 -3.69758 -1.77484
  861 189.702 -18.0705 15.5184
  862 296.233 -25.7531 10.7848
  863 170.256 3.58497 16.0620
  864 256.915 -5.83669 4.18709
  865 280.185 -25.3241 -21.3066
  866 39.0736 2.58411 -11.6496
  867 39.1895 2.54153 11.6412
  868 222.555 -3.77319 -0.690526
  869 178.475 -5.99201 -1.14033
  870 177.842 -5.93598 1.29911
  871 275.337 42.9180 20.6237
  872 94.9044 -0.886511 -21.3601
  873 94.8090 -0.998556 21.2605
  874 191.478 -17.2235 7.34045
  875 17.9186 11.8513 -3.62558
  876 18.0998 11.8270 3.67631
  877 161.642 -11.5337 28.0230
  878 194.258 -12.2206 -1.42249
  879 241.857 -1.92286 20.8368
  880 239.230 -27.0253 8.05895
  881 274.366 -21.0119 -29.1187
  882 189.239 -18.2192 -15.7524
  883 156.860 -10.3534 -6.17108
  884 519.902 42.8579 -7.96116
  885 250.708 -26.6143 5.05164
  886 6.72259 8.03141 3.41116
  887 6.85231 8.04635 -3.34382
  888 217.521 -21.7502 3.50123
  889 238.901 -27.0425 -14.8570
  890 7.05597 7.08249 0.723770
  891 7.16941 7.08384 -0.672565
  892 88.5647 -3.08878 16.0804
  893 88.6242 -3.18584 -16.1826
  894 107.691 -5.39194 17.6663
  895 107.656 -5.52358 -17.7965
  896 344.540 69.1647 11.1044
  897 -0.524714 -10.6644 -5.11104
  898 -0.528414 -10.6522 5.10774
  899 78.0588 6.67852 -23.6689
  900 77.6668 6.54074 23.4252
  901 603.455 19.5716 -30.6008
  902 8.65995 -0.0486834 0.822747
  903 8.61574 -0.0506558 -0.835809
  904 0.996721 -29.6142 1.95102
  905 1.16867 -29.1303 -1.54213
  906 -11.4166 -0.153925 4.24174
  907 -11.4286 -0.150416 -4.24022
  908 62.3411 18.3787 -27.9431
  909 63.3110 17.7702 27.5334
  910 -5.12426 0.159692 -9.01157
  911 -5.14920 0.139987 9.02753
  912 16.9424 1.66127 -7.50069
  913 17.0521 1.64016 7.51089
  914 67.6526 -0.711197 14.7790
  915 67.6086 -0.708052 -14.8594
  916 54.7976 -1.84271 -11.8938
  917 54.8511 -1.83880 11.8720
  918 297.944 -1.04134 -5.02317
  919 143.984 30.1906 84.9993
  920 199.184 -19.5955 8.72561
  921 140.663 -9.96461 8.76009
  922 272.577 27.9182 -37.5195
  923 593.361 12.7792 12.1694
  924 324.809 14.2346 -36.2338
  925 51.8042 -1.98997 7.37184
  926 51.7541 -1.96679 -7.40275
  927 7.85101 -0.284882 -5.43622
  928 7.95478 -0.287893 5.43503
  929 -0.293687 -5.24089 -9.84180
  930 -0.336203 -5.28258 9.87443
  931 145.407 -6.22251 3.72581
  932 145.485 -6.34994 -3.74809
  933 16.6438 4.77083 -6.53552
  934 16.7624 4.74900 6.57144
  935 87.8202 -3.85483 -13.5811
  936 87.8767 -3.85412 13.5699
  937 190.383 -0.934786 -18.9240
  938 90.5365 -4.87257 -9.30089
  939 90.4682 -4.81705 9.33223
  940 224.119 -5.97223 -1.10300
  941 271.118 -15.6695 -35.7706
  942 116.876 -4.60577 4.08665
  943 116.935 -4.65098 -4.14905
  944 -4.88172 -0.532206 -2.96428
  945 -4.86873 -0.533480 2.95814
  946 276.937 -21.9082 -43.8961
  947 264.627 -15.4744 22.8661
  948 231.935 -16.0367 -5.48270
  949 224.543 7.55163 34.1645
  950 101.328 -5.62440 -10.4972
  951 101.323 -5.51336 10.5313
  952 251.747 9.46277 41.4204
  953 234.310 20.3834 27.2540
  954 484.569 58.4688 10.1051
  955 247.120 -8.60552 5.15996
  956 128.456 -3.64128 -1.82479
  957 128.438 -3.56381 1.84211
  958 220.799 -17.9531 -1.65260
  959 305.222 56.0828 -17.7773
  960 271.373 -2.65597 -1.88440
  961 176.747 -4.03058 0.591518
  962 176.676 -3.99730 -0.539980
  963 22.0003 18.4110 -12.6041
  964 22.5687 18.3726 12.7056
  965 42.7152 103.961 -94.9634
  966 252.575 -6.05923 31.4335
  967 316.122 -6.44205 -30.5939
  968 -5.91552 3.01905 1.97790
  969 -5.83375 3.01820 -1.93750
  970 649.440 152.449 -122.243
  971 270.437 -29.5786 4.24807
  972 288.743 -27.0799 -10.3261
  973 266.075 -22.8426 21.0075
  974 328.329 64.8329 7.55407
  975 23.2955 23.4709 -27.8187
  976 60.3588 89.4664 92.8850
  977 -1.69103 -3.83844 9.78385
  978 -1.66461 -3.80786 -9.76705
  979 259.291 -6.36344 5.18879
  980 416.413 73.9552 -8.38844
  981 23.9865 22.9015 28.9730
  982 -1.15308 -3.81357 -3.29611
  983 -1.15337 -3.80331 3.28781
  984 221.956 -4.83702 0.519948
  985 164.745 -13.0008 -12.0638
  986 268.125 -21.2482 -24.7617
  987 75.0885 20.1730 -37.2109
  988 76.3005 20.5095 37.3091
  989 259.871 -6.47420 -28.1045
  990 262.737 -8.09759 9.39156
  991 -7.20034 1.70317 7.98209
  992 -7.16533 1.72057 -7.95671
  993 157.311 -10.3759 -26.3012
  994 261.581 16.5191 -41.6615
  995 194.706 -6.99536 0.310826
  996 139.094 -3.75081 0.268254
  997 139.069 -3.77803 -0.252059
  998 -2.99674 -3.39779 -6.92053
  999 -3.00111 -3.40513 6.91534
  1000 266.285 -9.28990 -11.4745
  1001 253.810 -2.50319 0.351138
  1002 253.572 -2.50596 -0.245435
  1003 350.284 56.7231 -25.5982
  1004 61.7938 5.47230 -18.5254
  1005 61.9467 5.36288 18.4799
  1006 38.6332 -0.320716 -9.81750
  1007 38.7051 -0.328680 9.80325
  1008 287.789 15.0731 44.9996
  1009 273.436 -4.89847 -6.47536
  1010 46.9246 7.54739 -14.9490
  1011 47.1118 7.48990 15.0046
  1012 285.947 -1.28824 -1.11205
  1013 265.860 -11.3459 -17.2711
  1014 259.596 -29.5172 -9.95615
  1015 9.54145 7.95234 -0.710392
  1016 9.26713 7.91439 0.834515
  1017 -12.8910 2.02170 4.82985
  1018 -12.8457 2.02714 -4.79991
  1019 153.630 5.86163 -7.01337
  1020 450.820 110.856 -28.8332
  1021 204.487 -14.7061 -0.480590
  1022 134.449 -5.86182 -27.1106
  1023 330.091 -13.8959 4.36615
  1024 134.981 -5.86002 27.4991
  1025 235.615 -27.5628 17.5534
  1026 267.181 -11.0240 -25.6991
  1027 89.6233 -1.98922 -0.564743
  1028 89.6255 -1.95097 0.560433
  1029 181.667 -14.0389 -5.92286
  1030 110.524 -4.06834 -20.9684
  1031 110.476 -4.09924 20.8537
  1032 36.2782 23.6589 -22.6207
  1033 36.8623 23.5845 22.6881
  1034 74.9329 -2.34059 -2.02316
  1035 74.9334 -2.30982 1.99374
  1036 237.852 -7.23307 2.92263
  1037 200.340 0.463400 -69.7747
  1038 246.636 -7.72769 -5.10849
  1039 222.248 -24.6104 -10.1745
  1040 145.019 -5.91676 2.49726
  1041 145.143 -5.96359 -2.50734
  1042 289.853 -1.55917 1.40073
  1043 258.324 -5.85259 -4.86906
  1044 162.488 3.93249 13.2183
  1045 276.447 -2.71076 -11.5364
  1046 106.114 30.6378 67.7537
  1047 285.005 -2.58455 -9.49037
  1048 73.1678 12.3748 -27.8462
  1049 70.9414 12.5183 26.6769
  1050 341.226 -6.63650 -5.89509
  1051 29.8851 15.7564 -11.4598
  1052 30.1648 15.6410 11.4553
  1053 5.00274 -0.959779 3.52701
  1054 5.26363 -0.913121 -3.35519
  1055 41.6133 -1.12352 2.46511
  1056 41.5811 -1.13135 -2.49907
  1057 120.923 31.0298 -75.2456
  1058 671.083 172.255 131.535
  1059 265.370 -9.28890 11.7713
  1060 237.724 -26.7859 -7.14704
  1061 164.336 -13.4895 -20.1277
  1062 -3.73972 3.53556 7.06060
  1063 -3.67666 3.55497 -7.01842
  1064 185.796 -9.30767 1.02044
  1065 205.345 -7.31307 -0.450371
  1066 -0.113310 -15.1303 4.94534
  1067 -0.108156 -15.1441 -4.94369
  1068 30.1339 18.7896 -13.7518
  1069 30.4985 18.7519 13.8366
  1070 183.270 -8.52736 -0.959410
  1071 13.5953 6.65201 3.90361
  1072 13.4770 6.66175 -3.85683
  1073 281.060 -11.3265 41.4427
  1074 202.986 -21.0474 -17.1369
  1075 165.325 -13.7079 20.1256
  1076 267.184 -5.57432 -43.4236
  1077 283.707 -2.86664 4.70453
  1078 101.304 15.5251 45.1569
  1079 102.035 14.8623 -44.3934
  1080 164.232 -8.04014 -37.9239
  1081 233.794 -8.07079 -3.01131
  1082 189.303 -11.1601 2.42151
  1083 222.305 -20.6712 0.190965
  1084 307.155 -0.995190 -2.65732
  1085 163.841 -7.30192 2.50321
  1086 163.770 -7.73771 -2.59913
  1087 5.20277 6.18693 5.94572
  1088 5.33764 6.23326 -5.86867
  1089 269.110 9.70584 -44.8148
  1090 59.2346 3.11241 -16.3129
  1091 59.3922 3.04440 16.2635
  1092 44.0333 0.943293 -11.5953
  1093 44.1277 0.918082 11.5711
  1094 309.193 -13.3480 55.4609
  1095 266.896 -12.2601 25.3686
  1096 129.425 -5.89505 -22.8909
  1097 312.455 -1.15893 -1.59224
  1098 348.309 65.6198 -19.4259
  1099 283.287 -2.46978 -3.01874
  1100 264.614 -28.6380 9.95878
  1101 195.164 -14.9699 33.1224
  1102 314.745 -0.292505 0.333460
  1103 162.172 5.08797 -11.2144
  1104 223.871 -23.9299 -4.21179
  1105 129.630 -6.16621 22.6270
  1106 225.986 -20.4932 -1.49672
  1107 282.970 -3.86316 8.63948
  1108 199.741 12.6409 17.5180
  1109 139.303 -10.1782 -18.1008
  1110 429.039 59.2266 -23.1942
  1111 320.793 14.0237 37.9187
  1112 237.217 29.7968 4.31233
  1113 310.988 0.131098 1.43832
  1114 120.574 -7.44925 -13.7382
  1115 82.4202 50.2754 -75.4760
  1116 147.921 3.82080 -54.2323
  1117 169.715 -12.9048 8.36592
  1118 143.018 -10.6428 16.9009
  1119 120.273 -7.07608 13.8873
  1120 255.708 2.05265 43.4986
  1121 193.344 -6.46458 -0.0882781
  1122 306.239 -2.19117 3.53387
  1123 -2.56622 -0.325598 9.81746
  1124 -2.52984 -0.295192 -9.79298
  1125 202.709 -5.49613 -0.232511
  1126 -0.439095 2.11140 8.99779
  1127 -0.373546 2.15093 -8.95169
  1128 112.424 -3.41192 2.38140
  1129 112.436 -3.46982 -2.38481
  1130 287.607 -1.49921 7.88075
  1131 230.613 -13.9218 -4.60722
  1132 215.836 -11.3052 -1.75012
  1133 241.690 -16.7873 8.83095
  1134 72.8954 35.9129 -56.0348
  1135 237.055 -8.70891 3.84941
  1136 33.9626 0.711468 -9.48016
  1137 34.0519 0.693991 9.47045
  1138 48.5972 31.1284 -39.1498
  1139 380.244 48.8262 13.6250
  1140 25.2725 -1.21217 5.49860
  1141 25.1897 -1.20206 -5.50934
  1142 49.4784 30.6261 37.7682
  1143 216.618 -18.0073 0.777093
  1144 108.267 -4.95429 5.10035
  1145 108.289 -4.97893 -5.19287
  1146 444.237 93.8318 -23.8779
  1147 238.947 -23.9261 2.55492
  1148 81.1166 46.9730 75.3032
  1149 6.80385 -2.70608 -5.76292
  1150 7.34381 -2.61680 6.40296
  1151 250.240 31.3988 21.8968
  1152 18.1619 10.0670 -3.88934
  1153 18.3126 10.0690 3.93180
  1154 240.551 -20.8432 -7.21964
  1155 -0.114125 -23.4467 -4.66588
  1156 -0.125086 -23.4517 4.68709
  1157 257.270 -21.6932 -14.9669
  1158 -5.99009 0.322844 1.84359
  1159 -6.11229 0.324814 -1.84849
  1160 38.5033 14.4668 -14.9582
  1161 38.7131 14.5283 14.8136
  1162 -14.6194 0.0356427 -2.25865
  1163 -14.4903 0.0346545 2.26050
  1164 257.742 -2.53159 -0.484283
  1165 -26.1352 0.753435 0.516408
  1166 -26.0653 0.752981 -0.500130
  1167 134.620 -10.5008 -13.2100
  1168 3.54504 -34.9393 -3.03450
  1169 66.1795 -1.84619 3.92332
  1170 66.1605 -1.85342 -3.97133
  1171 218.282 -3.86919 0.264359
  1172 218.700 -3.75879 -0.221193
  1173 3.80568 -33.3725 3.81859
  1174 259.081 -13.3812 -14.6146
  1175 296.635 -1.30041 5.85086
  1176 263.109 -16.8096 -21.1544
  1177 228.006 1.62590 33.9000
  1178 1.15170 -9.73800 7.36488
  1179 1.26424 -9.66797 -7.24777
  1180 167.302 -12.0205 6.55449
  1181 -11.6735 1.02090 6.35844
  1182 -11.6520 1.02966 -6.33981
  1183 438.071 69.9466 4.49088
  1184 515.531 157.607 -111.013
  1185 269.073 -26.2449 18.4333
  1186 109.473 -3.07596 -0.304237
  1187 109.477 -3.03550 0.304470
  1188 555.548 53.8866 -49.5062
  1189 37.5133 -0.986851 5.71419
  1190 37.4472 -0.971235 -5.73877
  1191 250.319 -0.819821 -13.4976
  1192 160.436 -12.9062 14.9746
  1193 266.187 -26.1778 -13.6914
  1194 257.529 -18.6675 -16.7295
  1195 156.357 -5.58998 39.7950
  1196 57.1890 10.7415 -20.9166
  1197 57.1540 10.6454 20.7923
  1198 75.8179 27.9666 -47.5210
  1199 75.9120 25.8627 47.5196
  1200 21.0331 6.35907 -6.90083
  1201 21.1614 6.33944 6.94469
  1202 317.069 54.8464 -26.0548
  1203 15.9853 14.5342 -6.00977
  1204 16.3670 14.5526 6.12327
  1205 228.897 -17.3819 4.11421
  1206 431.202 61.3303 26.2449
  1207 52.5420 -2.21457 -3.86451
  1208 52.5764 -2.21350 3.82190
  1209 281.730 190.324 -166.872
  1210 212.213 12.5513 -27.0689
  1211 194.254 14.9802 11.0295
  1212 26.5021 11.3681 -8.18055
  1213 26.6299 11.3670 8.22821
  1214 3.21962 -0.0457378 1.35293
  1215 3.14078 -0.0456523 -1.36567
  1216 253.787 -20.3287 13.9854
  1217 249.746 -9.79355 7.53236
  1218 170.765 47.2007 -118.708
  1219 394.106 85.8716 -2.82370
  1220 168.471 -5.23295 -43.9239
  1221 219.053 -6.47063 0.884196
  1222 8.53949 -1.10034 -0.328352
  1223 8.55373 -1.09962 0.326403
  1224 -6.55559 1.71354 -2.93425
  1225 -6.45139 1.70627 2.95825
  1226 146.223 1.48516 -46.1956
  1227 271.442 -5.76422 8.25652
  1228 175.625 2.94187 63.4967
  1229 238.604 -11.5989 -5.90916
  1230 122.588 43.0372 -93.0675
  1231 190.969 -9.50571 -47.5016
  1232 227.732 -24.3170 2.92369
  1233 279.557 -4.31159 12.8694
  1234 245.161 -4.85563 -2.25453
  1235 134.036 -9.84457 13.2914
  1236 307.679 -17.6862 -24.0069
  1237 290.830 24.9798 42.6554
  1238 125.932 0.572718 -36.3161
  1239 291.712 -1.63211 1.06767
  1240 231.145 28.8567 -6.14882
  1241 99.5231 -3.38763 -3.85102
  1242 99.4998 -3.34985 3.80405
  1243 447.221 101.225 22.7662
  1244 615.112 16.3610 28.6724
  1245 0.529705 -28.6660 -4.64464
  1246 0.512195 -28.6997 4.68025
  1247 64.8302 33.8972 52.3141
  1248 155.939 -4.35359 -0.659001
  1249 155.972 -4.32496 0.718374
  1250 214.692 -21.5588 -4.73632
  1251 255.215 20.7937 37.7161
  1252 269.359 -5.08166 -5.39999
  1253 314.449 -0.756689 -0.240454
  1254 544.685 120.454 -75.4843
  1255 82.2968 -3.06604 3.92453
  1256 82.2931 -3.07352 -3.98251
  1257 257.528 -23.9147 14.3882
  1258 454.820 108.963 -31.8213
  1259 249.865 -10.7059 -8.46219
  1260 181.621 -12.4812 -4.26153
  1261 223.720 -24.3579 9.88398
  1262 218.773 -10.7290 2.23322
  1263 7.88796 0.484656 -9.45918
  1264 299.991 -18.5376 28.3112
  1265 242.661 -15.7279 -8.60548
  1266 8.70668 0.903494 10.5512
  1267 249.730 -20.3446 -44.4478
  1268 236.326 13.9345 -97.0642
  1269 389.873 48.5581 -9.95282
  1270 315.728 -0.139246 -0.106185
  1271 315.144 -0.432692 0.291829
  1272 246.911 -14.2495 9.23833
  1273 93.9978 11.2059 -35.7078
  1274 281.424 -25.2249 22.9801
  1275 480.458 109.402 49.1518
  1276 117.417 39.7616 90.6199
  1277 3.10443 0.0665306 7.58107
  1278 3.22850 0.125945 -7.49546
  1279 296.202 -24.3335 -23.2215
  1280 117.372 -6.30492 -6.12939
  1281 117.347 -6.32072 6.00625
  1282 275.115 -18.2616 34.4146
  1283 8.51056 0.0970822 6.04391
  1284 8.40668 0.102481 -6.04283
  1285 -1.55625 -5.81510 7.99669
  1286 -1.54596 -5.80264 -7.99753
  1287 46.8539 -1.62362 -5.21277
  1288 46.9024 -1.63342 5.17585
  1289 143.580 -9.54594 -20.6617
  1290 144.453 -4.58792 1.04016
  1291 144.450 -4.69470 -0.984776
  1292 314.457 -0.134683 -0.0129647
  1293 277.761 -4.18054 -14.4541
  1294 21.1724 1.07171 -7.52464
  1295 21.2734 1.05617 7.52603
  1296 144.156 -10.1054 20.4812
  1297 317.663 -0.266935 0.0939229
  1298 299.736 -0.120465 -0.331147
  1299 299.737 -0.299401 0.252127
  1300 394.771 82.3057 6.22684
  1301 291.697 -1.79363 -2.40110
  1302 258.546 -2.37249 0.391164
  1303 286.509 -4.18521 -7.64170
  1304 312.662 -0.925646 1.10738
  1305 323.989 32.9323 37.5921
  1306 375.767 77.5209 10.9283
  1307 303.080 -1.13191 -3.89534
  1308 -2.45044 -0.635368 2.20774
  1309 -2.46011 -0.634881 -2.21435
  1310 166.654 -10.3399 4.34356
  1311 166.620 -9.87326 -4.20170
  1312 326.958 36.5727 -35.8681
  1313 67.1390 23.0913 -39.0937
  1314 67.5720 22.4489 38.6553
  1315 218.700 -0.00676993 -16.9457
  1316 226.927 -3.34103 -0.0788297
  1317 226.649 -3.31085 0.0320070
  1318 -5.53884 -0.964879 8.15285
  1319 -5.52869 -0.950344 -8.14939
  1320 251.103 -0.646758 13.4772
  1321 383.541 76.3238 0.0326771
  1322 24.8701 -1.01628 -3.28881
  1323 24.9321 -1.01868 3.26014
  1324 283.440 -27.4588 13.1441
  1325 0.138838 4.51656 7.25785
  1326 0.220688 4.54411 -7.20526
  1327 49.9298 -1.12944 -1.04658
  1328 49.9441 -1.11062 1.02755
  1329 218.765 -0.361966 17.2002
  1330 6.14250 0.489604 -0.491289
  1331 6.17592 0.491473 0.481728
  1332 289.162 -3.19974 5.00150
  1333 401.892 73.5317 3.32909
</Section>

newXOutput 37

<Section columns = "stress_xx | stress_yy | stress_xy">
  1 331.621 -0.791756 0.600322
  2 332.168 -1.04867 -0.780074
  3 2.95435 0.317453 -0.871147
  4 -0.225476 -0.348691 -0.219218
  5 614.553 238.465 198.590
  6 624.035 273.464 -200.771
  7 -0.222938 -0.346479 0.215931
  8 2.94036 0.315689 0.869054
  9 333.938 -0.554913 -0.549296
  10 331.361 -1.08569 -0.782798
  11 331.542 -0.833330 0.772481
  12 329.788 -0.393914 0.375466
  13 329.037 -1.01644 -0.150330
  14 328.356 -0.969403 1.39051
  15 323.302 -0.652594 1.37223
  16 324.436 -2.31386 2.02170
  17 313.895 -1.89740 4.27862
  18 307.116 -0.792585 5.13434
  19 297.843 -1.01101 5.51967
  20 281.858 -0.892961 7.65609
  21 264.544 -0.781703 8.85901
  22 243.041 1.09704 12.0977
  23 213.690 1.69185 10.9293
  24 201.986 -0.155831 15.6150
  25 165.546 2.37198 11.0867
  26 143.501 3.15531 8.66862
  27 137.766 1.45004 6.38496
  28 131.611 4.59586 0.462461
  29 134.971 4.99084 -8.53357
  30 141.769 1.39717 -10.7206
  31 168.875 0.549474 -14.3434
  32 196.317 -1.39914 -14.9477
  33 214.744 1.39993 -10.9155
  34 243.366 1.25213 -12.1057
  35 263.838 -0.932581 -9.48949
  36 283.641 -1.03734 -7.23181
  37 296.602 -0.717954 -5.60275
  38 306.174 -0.836461 -4.72364
  39 316.388 -1.08739 -2.75592
  40 320.479 -1.06960 -2.64910
  41 324.444 -1.01725 -2.32248
  42 328.497 -1.17033 -0.504994
  43 330.090 -1.50594 -0.978599
  44 328.233 0.193327 -0.108714
  45 331.165 -0.747576 -0.865477
  46 332.706 -1.63096 0.853424
  47 334.366 -0.918430 -0.0474556
  48 317.090 0.352469 -0.499845
  49 297.779 -1.02196 -0.948316
  50 276.011 -2.58206 -1.39390
  51 253.562 -2.05214 -1.01762
  52 234.058 -3.54041 -0.937944
  53 213.532 -3.87982 -0.864109
  54 192.882 -3.36812 -0.450704
  55 171.223 -3.66064 -0.605279
  56 152.943 -3.97471 -0.785090
  57 128.675 -3.84222 -0.651348
  58 103.732 -2.38098 -0.416940
  59 83.1282 -1.51690 -0.337326
  60 57.7124 -0.956981 -0.161415
  61 39.2461 -0.971135 -1.28934
  62 22.0791 -1.39147 -0.438099
  63 4.77388 0.162429 0.764625
  64 0.328318 1.21402 0.273281
  65 -0.888992 0.496818 0.787439
  66 -0.166912 0.225808 0.764865
  67 -3.60704 0.700650 0.304573
  68 -4.88521 0.912569 1.61537
  69 -5.29302 0.316932 0.540686
  70 -11.1477 0.670889 0.600550
  71 -13.8383 0.472006 1.54186
  72 -14.7957 0.165166 1.61173
  73 -21.1464 0.635837 1.23558
  74 -23.4752 0.944578 2.39117
  75 -26.0042 0.573215 0.823846
  76 -29.0545 0.414392 1.26108
  77 -30.1599 0.445270 0.471273
  78 -33.0463 1.05979 -0.761351
  79 -33.3071 0.726727 -0.570739
  80 -30.2763 0.555364 -1.06766
  81 -25.9663 0.713935 -2.01673
  82 -21.0443 0.308497 -3.03432
  83 -15.6410 0.166573 -3.15069
  84 -9.37444 -0.327262 -3.29638
  85 -4.05053 -0.259331 -1.91629
  86 -1.69158 -0.681308 -1.19224
  87 -0.288623 -1.70874 -1.02773
  88 -0.490882 -4.36596 -1.84229
  89 -0.556446 -8.60500 -3.24906
  90 -0.119698 -16.1423 -3.52292
  91 0.187138 -22.3809 -4.43741
  92 0.448346 -32.2084 -3.62685
  93 1.35888 -38.2845 -4.28646
  94 0.221301 -41.3723 -3.57774
  95 -0.0688352 -47.5518 -2.19788
  96 1.30973 -46.3438 -0.655976
  97 5.27701 -60.1729 2.32650
  98 4.64157 -33.0692 7.93376
  99 11.1225 -15.5023 17.7416
  100 33.6638 52.0437 56.5005
  101 145.128 181.660 162.758
  102 805.361 85.0320 119.867
  103 671.270 23.6875 42.9701
  104 638.613 10.1069 14.8230
  105 620.355 6.65518 -0.0761060
  106 631.917 9.62934 -12.1556
  107 677.737 20.2378 -35.6307
  108 796.957 67.7019 -111.808
  109 94.0083 206.104 -134.652
  110 23.6246 37.1122 -43.5388
  111 8.18553 -21.0409 -14.6432
  112 4.20371 -36.3325 -6.76371
  113 5.25178 -62.5081 -1.75832
  114 1.25372 -47.3838 1.06059
  115 -0.145526 -48.0744 2.40931
  116 0.172235 -41.5758 3.69132
  117 1.33231 -38.3345 4.33469
  118 0.438109 -32.1930 3.64485
  119 0.179339 -22.3509 4.44411
  120 -0.123508 -16.1035 3.52108
  121 -0.556975 -8.58009 3.24242
  122 -0.491945 -4.34433 1.83598
  123 -0.288445 -1.70063 1.02211
  124 -1.68181 -0.680413 1.18756
  125 -4.03327 -0.260465 1.91128
  126 -9.35255 -0.329919 3.29352
  127 -15.6160 0.163684 3.15158
  128 -21.0312 0.305361 3.04000
  129 -25.9741 0.711745 2.02759
  130 -30.3052 0.555234 1.07925
  131 -33.3633 0.726156 0.581967
  132 -33.1248 1.05981 0.772961
  133 -30.2635 0.446480 -0.461315
  134 -29.1766 0.415873 -1.25388
  135 -26.1350 0.574876 -0.818290
  136 -23.6159 0.946525 -2.38922
  137 -21.2903 0.637635 -1.23398
  138 -14.9365 0.166260 -1.61251
  139 -13.9785 0.473879 -1.54455
  140 -11.2804 0.673539 -0.604422
  141 -5.40829 0.318710 -0.547679
  142 -4.98245 0.914328 -1.62553
  143 -3.68862 0.701088 -0.313618
  144 -0.224725 0.225447 -0.773570
  145 -0.928939 0.495908 -0.794399
  146 0.300070 1.21240 -0.279357
  147 4.75548 0.161425 -0.768133
  148 22.0619 -1.39653 0.434387
  149 39.2296 -0.984143 1.28519
  150 57.7012 -0.980178 0.156042
  151 83.1240 -1.55053 0.334482
  152 103.728 -2.42008 0.416403
  153 128.661 -3.87617 0.656486
  154 152.904 -3.99192 0.796012
  155 171.158 -3.64026 0.631341
  156 192.786 -3.29169 0.480964
  157 213.398 -3.69854 0.817771
  158 234.157 -3.59116 0.825715
  159 253.635 -2.37243 1.07319
  160 276.230 -2.52282 1.27206
  161 298.386 -0.848746 0.961244
  162 316.533 0.333766 0.484953
  163 182.076 -16.3736 -14.2649
  164 181.329 -16.6697 14.2323
  165 53.9059 15.0017 -21.1230
  166 54.4425 15.0587 21.0268
  167 215.620 -10.6119 54.9529
  168 226.179 -11.9798 -53.4533
  169 104.216 -5.41822 6.49487
  170 104.209 -5.36355 -6.59729
  171 230.538 -7.79726 1.75498
  172 225.824 -7.81972 -1.68138
  173 306.375 55.4270 -8.10768
  174 312.163 1.81882 -41.3308
  175 305.796 4.26848 44.2598
  176 72.0439 -2.68011 -14.1115
  177 72.0433 -2.65904 14.0793
  178 269.761 -26.7759 15.3042
  179 269.423 -20.7396 -20.9605
  180 3.36706 6.00814 6.92918
  181 3.47753 6.04714 -6.86390
  182 368.480 74.8003 13.1317
  183 70.1039 31.1764 -48.7976
  184 75.3068 31.4833 52.4247
  185 260.983 -11.9976 10.0749
  186 391.823 81.7808 -6.94495
  187 167.947 -5.89468 -1.63388
  188 167.668 -6.05536 1.61493
  189 268.537 -8.26605 -9.14926
  190 358.618 -3.09124 -3.41801
  191 64.0656 -1.91101 2.43144
  192 64.0504 -1.92866 -2.47062
  193 27.1839 3.62152 -9.35075
  194 27.3100 3.58434 9.37193
  195 149.694 -5.76086 -34.0696
  196 149.106 -6.08272 34.5146
  197 179.076 -11.4611 -4.59021
  198 179.436 -11.3966 4.94127
  199 45.1139 -1.57983 7.42371
  200 45.0509 -1.55772 -7.44294
  201 354.822 -7.18662 21.7835
  202 289.227 -28.7363 -7.11288
  203 275.345 -2.56255 -1.50945
  204 269.064 -3.15041 1.55591
  205 271.092 31.7355 31.0618
  206 11.3070 9.36473 -3.10425
  207 11.7298 9.34170 3.29190
  208 271.275 -10.9895 36.1749
  209 248.467 18.8949 -35.3774
  210 177.828 39.3144 -113.883
  211 186.984 33.1818 105.760
  212 4.05391 5.92600 -0.266553
  213 4.15820 5.92407 0.315789
  214 270.330 -9.71080 -37.3445
  215 472.752 66.4353 -4.35559
  216 224.733 -24.5895 18.9944
  217 226.463 -24.4440 -17.9085
  218 224.617 -15.8859 -2.09036
  219 279.695 -4.20841 4.94361
  220 133.885 -9.10028 -12.2041
  221 131.739 -9.06189 12.6108
  222 79.9952 1.70591 -21.4875
  223 80.1062 1.67367 21.2958
  224 286.616 -30.5215 -2.07463
  225 222.720 -16.9025 1.13548
  226 278.718 -4.09328 -3.93381
  227 216.195 -5.30556 0.307161
  228 218.116 -4.92512 0.109246
  229 274.426 -12.1756 21.1105
  230 22.3132 0.258724 -7.91197
  231 22.4102 0.247774 7.90905
  232 -3.54735 -2.40882 -9.36541
  233 -3.56525 -2.43063 9.37336
  234 40.0873 -1.78516 -4.26220
  235 40.1390 -1.78946 4.22463
  236 114.474 -3.30880 2.86703
  237 114.504 -3.37127 -2.89224
  238 132.606 9.08897 -50.2083
  239 132.621 7.56414 49.6315
  240 278.420 -8.57697 -18.0494
  241 129.616 -7.51634 -20.2998
  242 129.723 -7.74801 19.9944
  243 243.955 3.64431 39.9345
  244 212.216 18.2755 2.41191
  245 238.608 -23.7399 -1.82337
  246 0.969763 -6.10056 -8.68248
  247 0.889843 -6.16337 8.75228
  248 15.0413 14.6729 -16.3388
  249 16.0262 14.1229 17.2163
  250 234.581 -23.2182 0.244796
  251 425.219 78.3117 -3.86409
  252 21.4841 14.6279 -6.60218
  253 21.7476 14.6200 6.68681
  254 -9.26805 1.92730 6.48802
  255 -9.22216 1.93729 -6.45650
  256 427.647 73.1314 6.18886
  257 147.791 -6.98018 -4.53582
  258 147.674 -6.86397 4.43172
  259 291.742 -19.8762 33.8453
  260 529.636 86.0772 52.8284
  261 85.8175 -4.48316 -11.5281
  262 85.7948 -4.51473 11.5139
  263 296.487 44.3124 -29.8987
  264 510.676 96.8425 -47.7794
  265 355.847 34.9727 29.4458
  266 388.200 22.6888 -70.9277
  267 238.772 -11.1059 4.26356
  268 271.050 1.11996 -44.9869
  269 257.350 -18.0746 -12.2480
  270 287.287 -5.03765 11.4878
  271 -0.697395 2.73523 -2.67512
  272 -0.593204 2.72634 2.70978
  273 284.685 -10.0541 -68.9350
  274 29.7253 9.29872 -9.35918
  275 29.8694 9.28096 9.41204
  276 274.977 -6.63473 -22.9183
  277 39.0502 39.2978 -50.6230
  278 30.7837 -0.136575 -0.975636
  279 30.8070 -0.129287 0.959491
  280 290.603 -18.2405 -35.2646
  281 50.3941 22.6299 -26.7870
  282 51.1279 22.5032 26.8616
  283 13.1743 -0.437887 5.54691
  284 13.0732 -0.432244 -5.55228
  285 238.433 -10.5236 -4.14387
  286 39.3174 38.8659 52.0190
  287 381.811 27.2940 83.4160
  288 102.367 -3.99468 -3.85526
  289 102.344 -3.96771 3.79396
  290 189.968 -7.68250 -1.31263
  291 189.873 -8.33684 1.52248
  292 162.167 15.3332 -76.7931
  293 262.353 -28.8000 -5.29282
  294 299.969 -1.69305 2.20243
  295 156.146 15.2964 74.2444
  296 181.780 -4.74691 -0.411773
  297 181.710 -4.74290 0.571070
  298 257.753 -18.8243 12.4844
  299 297.105 -3.02605 -5.48724
  300 -2.95258 1.11485 -4.23534
  301 -2.83827 1.10654 4.25115
  302 371.979 74.2178 -3.69680
  303 326.632 -15.5662 18.7825
  304 295.600 -1.37489 -0.607470
  305 300.870 -1.19345 0.550006
  306 294.130 -26.2472 24.0175
  307 362.887 37.3327 -27.5185
  308 315.838 58.8271 17.3698
  309 141.056 -8.55515 -7.50906
  310 139.753 -8.71412 7.66723
  311 299.663 -1.63523 -1.51432
  312 195.355 -14.8744 -37.4090
  313 192.050 -15.0571 5.90523
  314 183.125 -10.1086 42.7838
  315 294.452 -3.42283 6.53487
  316 64.9365 -2.98173 -7.15753
  317 64.9762 -3.00389 7.12282
  318 271.110 -9.57078 68.1361
  319 170.998 -13.4450 -9.34236
  320 315.747 40.2959 37.5683
  321 99.7339 7.03457 -32.2780
  322 95.9836 7.35139 32.0000
  323 27.1565 -0.599424 -1.77415
  324 27.1979 -0.595236 1.74843
  325 259.800 -5.05889 2.98899
  326 249.082 -3.34226 0.482724
  327 247.664 -3.67994 -0.569916
  328 272.856 -6.99033 24.2652
  329 21.7160 -0.851197 4.10399
  330 21.6317 -0.843063 -4.12490
  331 77.7594 -1.81834 -1.47182
  332 77.7614 -1.78652 1.45466
  333 2.53766 -12.8023 -5.01159
  334 2.36512 -12.9016 5.21727
  335 210.264 9.05023 27.0434
  336 329.835 -14.7108 -15.5367
  337 212.539 -11.1392 1.28440
  338 240.854 -4.65511 -1.63545
  339 250.244 31.1582 -16.6552
  340 47.8397 -1.51431 -10.4345
  341 47.8998 -1.51521 10.4232
  342 206.584 -10.4927 -0.186273
  343 57.4467 2.03138 -15.0558
  344 57.5547 1.98080 15.0047
  345 10.8827 9.45417 0.325089
  346 11.0212 9.45173 -0.266801
  347 251.798 -27.1727 24.6727
  348 561.877 37.1231 14.3876
  349 222.226 3.25956 -32.0469
  350 186.614 -16.7438 22.6528
  351 185.663 -16.4119 -23.3637
  352 275.804 -4.81253 44.5871
  353 244.520 -1.83708 31.7258
  354 248.484 -26.2752 -25.5055
  355 146.895 -3.61643 0.121698
  356 146.873 -3.66149 -0.0847076
  357 274.877 -17.9689 27.6123
  358 376.365 75.1514 2.16953
  359 295.839 -3.24822 -8.49462
  360 74.1042 -2.82416 -5.12700
  361 74.1314 -2.82634 5.07091
  362 278.264 -26.6947 -30.8224
  363 291.429 20.1464 -44.5485
  364 193.111 10.3946 -17.3387
  365 276.773 -18.5384 -31.4934
  366 -9.09906 0.285492 -7.23211
  367 -9.10925 0.274570 7.24154
  368 232.514 -5.33711 1.08465
  369 -3.30857 -1.97421 -4.27570
  370 -3.30474 -1.97493 4.26707
  371 180.195 87.9512 -138.861
  372 6.93565 6.09158 4.85972
  373 7.11460 6.14074 -4.76424
  374 242.595 -1.94053 -31.4608
  375 133.242 -5.58367 3.40815
  376 133.341 -5.66127 -3.45106
  377 -0.947369 -9.84433 8.23006
  378 -0.932274 -9.82621 -8.22121
  379 146.196 92.2936 130.647
  380 108.915 -5.75066 -15.7683
  381 108.998 -5.49857 15.7803
  382 34.5691 25.2906 -24.6941
  383 35.3048 25.2141 24.5452
  384 -14.1088 2.08384 2.71203
  385 -14.0461 2.08697 -2.67852
  386 280.976 18.5642 44.5519
  387 215.634 -22.5683 10.2766
  388 215.861 -19.6250 3.58810
  389 262.091 -29.8638 -2.62034
  390 64.6372 8.15596 -21.0331
  391 64.8522 8.13958 20.9975
  392 5.72668 -9.12843 0.241836
  393 5.40876 -9.26307 0.211358
  394 263.879 37.7787 10.9997
  395 267.570 -7.52088 7.53341
  396 151.928 -11.7408 14.4046
  397 93.4432 -2.31687 -18.9723
  398 93.4745 -2.33402 18.8215
  399 194.372 -5.72295 -0.397376
  400 194.158 -4.99885 0.232089
  401 150.647 -12.0624 -15.3402
  402 117.519 -1.96473 -25.8450
  403 117.498 -2.12827 26.0541
  404 278.668 -25.6276 -19.6461
  405 160.856 -12.2938 8.85332
  406 253.630 -7.58126 4.62039
  407 253.183 -6.88858 -3.89535
  408 211.843 -19.4768 -4.35926
  409 305.917 -1.23087 -2.32759
  410 101.762 40.8419 -77.8143
  411 286.869 -4.09204 13.9920
  412 304.902 -1.50596 3.42553
  413 106.993 -5.68419 9.35181
  414 107.044 -5.60583 -9.34408
  415 214.658 -22.2967 -10.6536
  416 30.0317 13.5065 10.0655
  417 29.8684 13.4980 -10.0761
  418 567.741 37.0950 -29.4547
  419 248.372 -14.0642 -7.18016
  420 308.257 -0.972235 1.34152
  421 96.0268 38.0651 74.0366
  422 454.182 76.5970 14.3306
  423 266.974 -3.89907 -2.39378
  424 198.687 -14.3214 -3.34498
  425 82.2328 15.8879 -36.5258
  426 87.6736 14.7341 36.3079
  427 245.334 -15.4557 7.27079
  428 259.510 -3.36731 -23.3888
  429 -3.15673 -0.229770 4.14706
  430 -3.27574 -0.227005 -4.14500
  431 93.1321 22.3448 -49.2436
  432 93.4272 22.4276 49.0900
  433 10.4454 5.17757 -4.16783
  434 10.5607 5.16579 4.21106
  435 220.032 -4.07933 0.529802
  436 219.767 -3.96741 -0.453871
  437 273.994 -12.4567 -22.0628
  438 -0.852113 -0.915950 10.1602
  439 -0.803212 -0.873137 -10.1234
  440 282.372 -27.9444 17.3089
  441 267.263 -7.00950 -6.67845
  442 432.078 82.7727 -12.1899
  443 15.2808 -0.770899 1.91679
  444 15.2096 -0.771062 -1.93925
  445 521.688 146.336 64.7475
  446 10.2911 3.08461 -14.8184
  447 31.0558 1.56865 -10.1383
  448 31.1597 1.54372 10.1351
  449 520.023 149.607 -61.9948
  450 10.9105 4.24865 16.3710
  451 -13.7334 1.63061 0.844608
  452 -13.6529 1.62789 -0.813073
  453 28.3726 19.3978 -14.2516
  454 28.8693 19.4025 14.3312
  455 337.175 52.6259 -31.1543
  456 271.063 -10.5067 -14.3474
  457 306.579 -1.05363 -1.19476
  458 283.079 -4.31127 -16.3883
  459 -3.45734 1.98052 9.31165
  460 -3.40762 2.00790 -9.27714
  461 273.847 -10.9675 16.6466
  462 177.089 -9.84471 -3.61060
  463 176.537 -9.94839 3.00625
  464 241.221 -26.6231 -3.25434
  465 171.636 -2.47315 -52.6463
  466 262.180 -4.04149 23.9119
  467 214.710 -6.78300 -0.309218
  468 316.411 -23.9950 -2.77934
  469 166.229 1.36648 56.4980
  470 11.1952 -0.224476 4.00337
  471 11.0928 -0.219522 -4.01350
  472 346.204 68.4867 -14.1718
  473 278.061 -1.91957 0.194704
  474 277.096 -2.19277 -0.450805
  475 208.835 -13.8320 0.962763
  476 89.9076 -3.00481 -2.83504
  477 89.8983 -2.96778 2.79679
  478 52.7582 -0.590085 -12.3688
  479 52.8175 -0.600590 12.3409
  480 173.384 6.72525 10.3545
  481 42.7018 -1.44534 5.92773
  482 42.6425 -1.43125 -5.96031
  483 46.4049 4.52390 13.9228
  484 46.2505 4.59092 -13.9127
  485 268.954 -20.8118 20.1549
  486 149.664 -9.30346 -24.2391
  487 137.783 -4.35161 1.71453
  488 137.835 -4.46376 -1.71852
  489 151.255 -9.59818 24.2299
  490 420.854 99.5546 -7.72519
  491 -6.73294 -1.02730 -5.56689
  492 -6.72965 -1.03259 5.56404
  493 104.149 -2.85400 -1.16770
  494 104.145 -2.80822 1.16219
  495 0.106875 -18.2225 -6.92867
  496 0.0629683 -18.2817 6.98903
  497 245.745 -3.51108 0.950594
  498 172.265 8.25065 -5.15901
  499 233.402 24.5052 14.9356
  500 148.795 -1.45531 -41.7999
  501 71.8525 -3.67870 9.00319
  502 71.8483 -3.64734 -9.02113
  503 -19.4338 0.613922 -1.34680
  504 -19.3238 0.610272 1.36099
  505 290.216 -5.59002 -44.3317
  506 21.2516 0.150585 -1.31047
  507 21.2852 0.154352 1.29203
  508 241.600 -18.9657 -6.03707
  509 257.589 -21.9079 -11.9056
  510 52.1730 39.3961 -52.3502
  511 216.416 5.59820 -83.4842
  512 2.48492 6.40304 4.57175
  513 2.58778 6.41618 -4.51494
  514 131.245 -5.98828 -5.02631
  515 131.176 -5.93139 4.90775
  516 373.054 14.9587 -9.88768
  517 267.906 -15.7629 -18.2664
  518 50.8518 37.2125 51.6005
  519 265.467 -30.1804 6.74697
  520 255.186 -24.2452 9.38796
  521 52.5978 -1.27468 -3.88282
  522 52.6277 -1.26917 3.84125
  523 207.864 2.20822 24.8020
  524 150.704 -11.0349 -9.42641
  525 282.923 -6.16764 10.4336
  526 -1.16744 -6.86632 -5.40071
  527 -1.17034 -6.86134 5.39327
  528 197.554 -17.5281 27.2035
  529 301.517 -23.2534 -23.3457
  530 394.343 26.5496 -12.7164
  531 212.073 -7.03941 0.441368
  532 61.3864 -1.12416 -1.14385
  533 61.3960 -1.10093 1.13251
  534 133.674 1.08054 40.2343
  535 375.949 62.4892 21.3642
  536 383.792 73.0887 -132.622
  537 342.692 1.47829 22.4376
  538 246.061 -27.3642 1.92586
  539 585.694 46.5635 39.4318
  540 431.506 103.770 11.4172
  541 59.4833 -2.46695 9.84399
  542 59.4415 -2.44179 -9.86314
  543 236.464 -19.5280 4.55690
  544 17.1122 8.40892 -3.78664
  545 17.2437 8.40331 3.83803
  546 297.796 -24.9007 23.3373
  547 241.976 12.9838 36.6811
  548 300.378 -1.86939 5.79732
  549 221.223 -13.1415 2.12429
  550 311.411 1.78135 -88.0044
  551 495.649 125.625 85.8754
  552 240.251 -4.52965 -0.846932
  553 294.821 -2.94817 -9.28862
  554 45.6694 19.1097 -19.9183
  555 46.0026 18.8784 19.8236
  556 167.537 -6.59200 -2.31131
  557 167.458 -6.42983 2.36482
  558 1.91320 -22.3387 -2.11507
  559 300.413 -10.9086 39.6165
  560 11.2065 10.1941 1.48533
  561 11.3880 10.2213 -1.40061
  562 2.24685 -21.6062 2.75420
  563 273.162 -12.4904 -31.9739
  564 314.509 19.5791 -42.7968
  565 313.336 22.2223 42.7891
  566 14.8371 12.2425 10.7224
  567 14.0805 12.5500 -10.4738
  568 -9.68563 0.297101 3.10964
  569 -9.80844 0.300070 -3.10395
  570 289.933 6.58147 90.7941
  571 157.384 -8.60584 4.89801
  572 157.545 -8.57487 -5.00816
  573 350.027 -7.03618 -45.7935
  574 43.2443 -0.596195 2.25528
  575 43.2200 -0.606607 -2.28307
  576 18.7644 -0.548851 -0.537093
  577 18.7848 -0.545233 0.530644
  578 383.490 69.2095 -17.5054
  579 36.2512 51.6386 -57.9862
  580 198.459 3.92645 -20.9947
  581 282.297 45.1738 -18.7629
  582 4.05365 -0.415284 6.41314
  583 4.22492 -0.354822 -6.29817
  584 289.225 129.215 156.284
  585 243.846 -6.60249 -2.63275
  586 7.80725 2.49453 -5.15247
  587 7.92021 2.47644 5.17853
  588 281.632 -22.7347 27.6882
  589 42.9132 49.9808 59.0450
  590 202.616 -4.06932 0.184146
  591 202.671 -4.03303 -0.184981
  592 -0.233798 -14.4494 7.15379
  593 -0.211847 -14.4255 -7.13019
  594 345.655 67.5909 -0.553303
  595 219.579 -17.8220 39.0156
  596 209.476 -8.78848 0.214098
  597 211.094 9.11571 88.1068
  598 -17.5901 0.881235 4.32310
  599 -17.5721 0.886000 -4.30592
  600 346.995 3.98472 -24.0705
  601 464.881 75.5317 -60.8622
  602 130.834 13.1889 -58.3124
  603 69.8022 -2.89554 -12.0352
  604 69.8649 -2.89566 12.0353
  605 314.779 -0.946317 1.65449
  606 207.371 -8.98331 -0.480350
  607 279.158 -3.62920 3.66661
  608 273.185 -12.4827 31.2300
  609 9.62179 -0.445553 1.97546
  610 9.53327 -0.443610 -1.99220
  611 160.966 -5.45975 -1.32626
  612 160.942 -5.30391 1.27576
  613 99.9664 2.23703 -26.6742
  614 99.3115 2.26502 26.5498
  615 396.847 22.2065 21.9894
  616 651.262 49.0745 -71.3447
  617 -6.37283 -0.390915 2.73174
  618 -6.49884 -0.389567 -2.73167
  619 93.8695 -3.91043 5.25841
  620 93.8671 -3.90616 -5.33547
  621 369.150 19.3257 14.9342
  622 311.365 -0.971394 -0.525810
  623 310.667 -1.46224 0.234427
  624 222.424 -0.127014 24.5753
  625 324.686 -19.6199 -27.5734
  626 174.854 -14.2735 11.2775
  627 -4.39020 3.92293 -4.17411
  628 -4.46721 3.91713 4.21840
  629 281.119 5.54374 46.4680
  630 110.267 -6.28261 -12.5266
  631 110.155 -6.38893 12.5514
  632 229.217 -13.1079 -2.97836
  633 284.285 -6.07005 -9.44934
  634 160.911 -12.7738 -17.3700
  635 264.020 31.8234 -28.2272
  636 178.311 -12.3454 -31.6660
  637 63.7570 -1.70105 -1.98248
  638 63.7669 -1.67978 1.95375
  639 162.609 -13.0086 17.4332
  640 351.694 56.4122 28.1199
  641 279.427 -13.7140 39.3387
  642 228.794 -10.0034 2.71292
  643 162.733 -4.15907 0.950064
  644 162.691 -4.16926 -0.918453
  645 121.963 -4.44654 -3.70670
  646 121.914 -4.39568 3.66303
  647 269.295 -24.7466 -16.3255
  648 134.981 -7.53582 6.51059
  649 135.131 -7.50610 -6.65497
  650 268.365 41.5296 -3.79684
  651 248.823 -12.9218 7.23063
  652 312.942 -1.36067 -2.54774
  653 263.746 -4.97130 -40.8402
  654 36.5540 -1.64116 7.89676
  655 36.4810 -1.62933 -7.90556
  656 304.909 -1.58803 -5.24615
  657 53.3960 27.4482 -36.6406
  658 54.3183 27.3765 36.8217
  659 310.722 -19.3809 38.6717
  660 105.684 26.1894 61.4058
  661 24.6768 -0.123489 7.90631
  662 24.5882 -0.117511 -7.91182
  663 264.156 -17.5106 50.5547
  664 260.854 35.4131 -120.485
  665 251.988 7.77224 -40.6831
  666 333.280 60.1792 24.1002
  667 224.796 -9.78836 -1.70768
  668 405.058 73.2102 -1.77593
  669 -20.1300 0.923585 -0.776610
  670 -20.0366 0.921087 0.796845
  671 178.920 0.563450 -61.8582
  672 10.2783 -0.258133 1.54034
  673 10.2163 -0.258816 -1.55743
  674 224.996 -19.1689 -38.5491
  675 73.5095 10.1865 -25.6786
  676 72.9133 10.2201 25.6628
  677 0.861686 3.72748 -1.27445
  678 0.963197 3.72216 1.31746
  679 190.663 -16.3979 -8.22672
  680 270.604 -2.65883 -15.7139
  681 127.705 -3.83527 -1.35418
  682 127.709 -3.78981 1.36553
  683 91.8659 -4.65754 -7.95052
  684 91.9360 -4.72360 7.91806
  685 17.2088 14.1667 -4.42918
  686 17.5024 14.1956 4.52718
  687 278.755 -3.10544 1.89352
  688 122.083 -7.68244 10.3658
  689 122.885 -7.54453 -10.3545
  690 308.224 -25.0848 -4.84836
  691 253.420 -25.4735 -6.64808
  692 198.722 -5.38414 0.0646712
  693 198.008 -5.00071 0.0380683
  694 279.589 -29.8663 14.1289
  695 454.850 91.5798 23.0729
  696 245.490 -11.4043 -63.0898
  697 281.217 -7.76265 16.5796
  698 278.730 -10.5505 -42.1351
  699 85.1103 -2.59713 -3.68881
  700 85.1073 -2.57627 3.63778
  701 218.012 -4.17092 70.8858
  702 615.181 78.5954 72.1289
  703 41.0005 12.1040 -14.5183
  704 41.0603 12.1840 14.5668
  705 277.929 -2.46360 -0.965516
  706 280.165 -2.19533 0.983064
  707 117.201 58.1295 -100.330
  708 294.771 -1.51501 9.25728
  709 254.796 -4.11850 1.59356
  710 334.715 66.5112 -8.97247
  711 33.2221 6.09938 -10.4210
  712 33.3691 6.06046 10.4605
  713 317.830 -0.697638 0.310031
  714 256.033 -9.66704 -7.00987
  715 319.433 -5.29901 34.9336
  716 129.374 -9.00671 -16.4825
  717 129.700 -8.61372 16.3170
  718 27.8865 -1.00105 5.97925
  719 27.8056 -0.988212 -5.99739
  720 290.670 -1.76608 -1.72496
  721 250.325 47.6209 128.019
  722 1.65664 1.68990 8.56887
  723 1.74929 1.74425 -8.50528
  724 291.151 -2.95835 -4.42319
  725 282.516 -4.99475 6.29515
  726 221.331 0.104077 -26.3582
  727 2.06292 -26.2326 -3.57838
  728 1.92476 -26.4851 3.83223
  729 101.644 26.9713 -61.3933
  730 224.519 -22.6737 -27.5173
  731 116.253 57.6305 101.326
  732 313.519 -0.678484 1.01628
  733 300.079 44.8383 30.0509
  734 217.161 19.7534 -10.3934
  735 394.401 79.5324 -0.488905
  736 309.247 -1.20794 3.42872
  737 -19.4154 0.456281 2.18337
  738 -19.5365 0.458797 -2.17450
  739 328.705 -19.4048 7.31665
  740 211.701 -5.85099 0.0596107
  741 75.7892 0.188621 -18.1659
  742 75.8867 0.111903 18.0551
  743 282.714 -3.10200 -2.64794
  744 500.242 70.8917 -25.2514
  745 31.4287 -0.954879 -3.70056
  746 31.4953 -0.960599 3.67106
  747 315.702 -0.764853 -1.60530
  748 60.5957 -2.71652 -5.17183
  749 60.6328 -2.72615 5.12823
  750 307.407 -12.6392 -35.8979
  751 283.758 -2.93633 12.7127
  752 253.390 -1.81077 40.3167
  753 316.371 -0.796895 -0.0488006
  754 294.705 -2.05358 3.40234
  755 191.243 -10.1017 -1.47644
  756 240.709 -6.07222 2.02566
  757 273.523 -16.8528 -26.8186
  758 266.895 -16.7085 17.6623
  759 312.302 37.4574 -37.9510
  760 263.277 -14.6450 13.2060
  761 277.879 -16.5635 34.1630
  762 160.141 -10.7075 6.69705
  763 5.65802 -2.26820 -0.961154
  764 5.34981 -2.28644 1.25274
  765 243.834 -3.39348 0.0508530
  766 243.312 -3.36700 -0.142147
  767 293.487 -1.12995 -0.198647
  768 294.520 -1.06948 0.268650
  769 278.357 -7.75912 20.2250
  770 257.050 -23.9626 36.3051
  771 210.472 -16.9627 2.44195
  772 186.637 -10.9528 2.89856
  773 510.524 65.4987 29.5075
  774 281.780 -7.02235 -13.1441
  775 164.503 28.0685 -94.1967
  776 261.628 -12.7742 -11.4549
  777 9.15674 0.234336 -5.61814
  778 9.26686 0.224760 5.62506
  779 231.679 20.3040 -23.3090
  780 598.879 18.1963 -7.84842
  781 293.945 7.24019 -45.5808
  782 11.5807 4.70201 -22.3806
  783 301.767 54.4568 7.71023
  784 236.155 -14.8553 4.39818
  785 264.855 -6.75883 39.6464
  786 223.351 -23.6527 27.6727
  787 359.587 -3.41479 56.7944
  788 12.4827 7.44284 23.9484
  789 160.921 -1.09606 48.0071
  790 225.805 -5.56334 -0.874500
  791 251.960 -22.9395 -36.7615
  792 153.509 -11.8779 -11.9861
  793 121.122 5.72852 -41.8133
  794 291.548 -4.83858 44.6763
  795 186.364 -12.5643 4.98006
  796 33.7498 -0.996272 3.33748
  797 33.7014 -0.997580 -3.37070
  798 271.450 -1.46926 13.9277
  799 245.197 1.09673 -39.1275
  800 -21.7670 0.970393 2.72575
  801 -21.7342 0.972149 -2.70707
  802 181.292 -5.47036 -0.440782
  803 180.756 -5.15870 0.383743
  804 134.255 14.8009 59.1824
  805 119.083 -6.88313 7.72683
  806 119.255 -6.71197 -7.81435
  807 315.582 -0.528358 -0.897633
  808 108.904 8.59309 40.7167
  809 1.46788 -0.101832 2.12644
  810 1.35715 -0.0995124 -2.13640
  811 268.140 -8.33569 30.7272
  812 288.107 -2.26813 1.37940
  813 -15.3896 0.168141 4.26878
  814 -15.3917 0.173032 -4.26025
  815 175.962 -11.1418 35.6641
  816 33.5848 27.7659 -30.8598
  817 34.0018 26.4416 30.3815
  818 163.968 7.29891 4.30178
  819 -4.75566 -0.159618 -2.44547
  820 -4.62986 -0.161334 2.44253
  821 202.629 -19.3359 -25.8998
  822 277.444 -29.2600 -10.3106
  823 -1.37414 -1.30635 -1.72377
  824 -1.37015 -1.30334 1.71745
  825 12.2203 0.482737 -0.490833
  826 12.2472 0.485416 0.481057
  827 246.476 -21.8773 6.95261
  828 207.084 -21.2465 17.7952
  829 229.925 -3.62657 0.754264
  830 206.524 -16.5433 -3.23398
  831 73.9085 -1.17750 -0.370398
  832 73.9140 -1.14691 0.363234
  833 -24.6874 0.521912 1.61957
  834 -24.6346 0.521209 -1.60129
  835 260.250 -3.14234 -1.27774
  836 227.945 8.85753 -33.2406
  837 263.094 -5.01244 -3.72891
  838 153.829 -11.6618 11.3953
  839 259.017 -4.60573 -32.3867
  840 278.055 -8.43251 -20.9011
  841 261.325 -2.66612 1.15052
  842 189.746 -7.45131 49.2620
  843 202.728 -19.7631 -9.73549
  844 121.429 -0.899619 -31.8783
  845 122.105 -0.0553057 32.0448
  846 172.404 -12.7948 -7.26412
  847 286.734 30.9001 38.9792
  848 273.303 -28.7582 -19.5944
  849 96.5799 -2.99175 -1.82813
  850 96.5687 -2.94492 1.80714
  851 208.255 -4.50013 -0.00399986
  852 208.262 -4.53943 0.0569935
  853 247.200 -1.90727 -21.1429
  854 82.0679 -3.44145 -6.41094
  855 82.1098 -3.46778 6.35200
  856 0.984568 -26.2275 -5.27378
  857 0.930701 -26.3397 5.37981
  858 39.9872 -0.594718 -0.221628
  859 39.9706 -0.607655 0.213045
  860 258.215 -3.82792 -1.79675
  861 195.036 -18.5799 16.0381
  862 304.411 -26.4318 10.9482
  863 175.276 3.68921 16.4809
  864 264.005 -6.02282 4.25992
  865 287.949 -26.0081 -21.7695
  866 40.2793 2.65328 -12.0352
  867 40.3987 2.60952 12.0268
  868 228.741 -3.90896 -0.691634
  869 183.508 -6.18516 -1.20873
  870 182.859 -6.12769 1.37202
  871 283.113 44.1244 21.1298
  872 97.6594 -0.917776 -22.0347
  873 97.5619 -1.03294 21.9326
  874 196.861 -17.7159 7.62692
  875 18.4787 12.2020 -3.78905
  876 18.6652 12.1771 3.84137
  877 166.216 -11.8575 28.8906
  878 199.714 -12.5815 -1.53006
  879 248.691 -1.97385 21.3655
  880 245.888 -27.7685 8.38539
  881 281.983 -21.5841 -29.8031
  882 194.560 -18.7326 -16.2784
  883 161.318 -10.6611 -6.40559
  884 533.972 44.0050 -8.18215
  885 257.674 -27.3494 5.08542
  886 6.95378 8.27418 3.46001
  887 7.08725 8.28964 -3.39067
  888 223.600 -22.3623 3.68988
  889 245.547 -27.7813 -15.3718
  890 7.31025 7.28977 0.697018
  891 7.42700 7.29121 -0.644263
  892 91.1575 -3.18472 16.5992
  893 91.2181 -3.28443 -16.7040
  894 110.806 -5.55273 18.2341
  895 110.769 -5.68794 -18.3677
  896 354.145 71.0866 11.3199
  897 -0.537902 -10.9610 -5.25172
  898 -0.541703 -10.9484 5.24830
  899 80.3384 6.86579 -24.4112
  900 79.9358 6.72430 24.1610
  901 619.539 20.0913 -31.4054
  902 9.14730 -0.0511519 0.851523
  903 9.10117 -0.0531765 -0.864930
  904 1.02849 -30.3574 1.97350
  905 1.20536 -29.8600 -1.55315
  906 -11.7339 -0.157032 4.35796
  907 -11.7464 -0.153422 -4.35641
  908 64.1664 18.9115 -28.8131
  909 65.1642 18.2853 28.3921
  910 -5.25369 0.171835 -9.25142
  911 -5.27932 0.151548 9.26782
  912 17.5303 1.70501 -7.75691
  913 17.6435 1.68331 7.76754
  914 69.6636 -0.738592 15.2587
  915 69.6180 -0.735332 -15.3412
  916 56.4651 -1.90182 -12.2823
  917 56.5205 -1.89783 12.2601
  918 306.126 -1.07637 -5.14012
  919 148.045 31.0912 87.4610
  920 204.773 -20.1498 9.05566
  921 144.684 -10.2589 9.07072
  922 280.251 28.7163 -38.4524
  923 609.181 13.1145 12.4929
  924 333.789 14.6805 -37.0681
  925 53.4202 -2.05195 7.61712
  926 53.3682 -2.02810 -7.64878
  927 8.22149 -0.294826 -5.61645
  928 8.32855 -0.297921 5.61533
  929 -0.292244 -5.36850 -10.0997
  930 -0.335955 -5.41139 10.1333
  931 149.562 -6.41698 3.87167
  932 149.642 -6.54786 -3.89450
  933 17.2031 4.90460 -6.77016
  934 17.3252 4.88219 6.80724
  935 90.3989 -3.97307 -14.0248
  936 90.4573 -3.97240 14.0134
  937 195.919 -0.953263 -19.4154
  938 93.2024 -5.02025 -9.61472
  939 93.1327 -4.96329 9.64704
  940 230.352 -6.16680 -1.09357
  941 278.666 -16.0948 -36.6444
  942 120.267 -4.75083 4.23804
  943 120.328 -4.79722 -4.30212
  944 -5.02017 -0.546493 -3.04800
  945 -5.00678 -0.547802 3.04167
  946 284.577 -22.4620 -45.2193
  947 271.976 -15.9086 23.4018
  948 238.395 -16.4984 -5.55401
  949 230.960 7.77733 35.0407
  950 104.285 -5.79432 -10.8494
  951 104.281 -5.68027 10.8844
  952 258.859 9.74421 42.4705
  953 241.000 20.9685 27.9469
  954 497.777 60.0433 10.3891
  955 253.966 -8.86733 5.24579
  956 132.161 -3.76245 -1.89346
  957 132.143 -3.68292 1.91127
  958 226.964 -18.4662 -1.61427
  959 313.789 57.6486 -18.1907
  960 278.821 -2.75374 -1.91255
  961 181.733 -4.17099 0.614555
  962 181.661 -4.13676 -0.561651
  963 22.6634 18.9815 -13.0388
  964 23.2480 18.9424 13.1434
  965 43.9041 107.289 -97.7018
  966 259.671 -6.22264 32.2249
  967 324.853 -6.57135 -31.2820
  968 -6.02416 3.10559 2.00205
  969 -5.94000 3.10475 -1.96044
  970 666.696 156.656 -125.568
  971 277.927 -30.3811 4.24818
  972 296.711 -27.7916 -10.7357
  973 273.461 -23.4729 21.4770
  974 337.519 66.6282 7.71171
  975 23.9877 24.2549 -28.6971
  976 62.0597 92.3699 95.5939
  977 -1.72884 -3.93243 10.0451
  978 -1.70167 -3.90097 -10.0279
  979 266.450 -6.56281 5.28379
  980 427.899 75.9706 -8.66607
  981 24.6983 23.6699 29.8834
  982 -1.18433 -3.92180 -3.38921
  983 -1.18462 -3.91123 3.38065
  984 228.129 -5.00129 0.507225
  985 169.410 -13.3762 -12.4787
  986 275.571 -21.8334 -25.3343
  987 77.2672 20.7606 -38.3446
  988 78.5136 21.1066 38.4458
  989 267.140 -6.65346 -28.8053
  990 270.001 -8.34107 9.59005
  991 -7.38095 1.75790 8.18896
  992 -7.34494 1.77582 -8.16286
  993 161.768 -10.6688 -27.1202
  994 268.956 16.9998 -42.7086
  995 200.168 -7.21748 0.358321
  996 143.084 -3.87714 0.282712
  997 143.057 -3.90506 -0.266076
  998 -3.07668 -3.48883 -7.11185
  999 -3.08116 -3.49636 7.10649
  1000 273.647 -9.56378 -11.7264
  1001 260.800 -2.60144 0.354384
  1002 260.556 -2.60433 -0.245974
  1003 359.982 58.3421 -26.1336
  1004 63.6236 5.62433 -19.1182
  1005 63.7811 5.51188 19.0716
  1006 39.8504 -0.335012 -10.1419
  1007 39.9246 -0.343214 10.1274
  1008 295.825 15.5203 46.1089
  1009 280.964 -5.05438 -6.60860
  1010 48.3319 7.76087 -15.4391
  1011 48.5246 7.70183 15.4965
  1012 293.757 -1.34472 -1.12960
  1013 273.229 -11.6721 -17.6695
  1014 266.793 -30.3163 -10.3424
  1015 9.83916 8.22274 -0.671956
  1016 9.55708 8.18348 0.799650
  1017 -13.2190 2.08135 4.94637
  1018 -13.1724 2.08697 -4.91555
  1019 158.225 6.02929 -7.19645
  1020 463.158 113.980 -29.7986
  1021 210.217 -15.1341 -0.567891
  1022 138.285 -6.02988 -27.9511
  1023 339.157 -14.2168 4.33590
  1024 138.832 -6.02768 28.3508
  1025 242.174 -28.3162 18.1419
  1026 274.612 -11.3330 -26.3221
  1027 92.2916 -2.05731 -0.585708
  1028 92.2942 -2.01805 0.581290
  1029 186.788 -14.4469 -6.16198
  1030 113.711 -4.19041 -21.6318
  1031 113.663 -4.22225 21.5143
  1032 37.3552 24.3690 -23.3444
  1033 37.9559 24.2929 23.4140
  1034 77.2038 -2.41531 -2.09685
  1035 77.2048 -2.38372 2.06667
  1036 244.449 -7.46020 2.95592
  1037 205.933 0.511298 -71.8018
  1038 253.467 -7.96612 -5.19547
  1039 228.453 -25.2941 -10.5532
  1040 149.165 -6.10291 2.60034
  1041 149.291 -6.15100 -2.61064
  1042 297.768 -1.62102 1.42296
  1043 265.454 -6.03896 -4.95767
  1044 167.309 4.05094 13.5643
  1045 284.122 -2.78798 -11.8192
  1046 109.142 31.5447 69.7454
  1047 292.882 -2.66072 -9.71956
  1048 75.3010 12.7300 -28.7111
  1049 73.0134 12.8773 27.5087
  1050 350.590 -6.74267 -5.89446
  1051 30.7894 16.2188 -11.8553
  1052 31.0773 16.1002 11.8508
  1053 5.16195 -0.933060 3.57839
  1054 5.43021 -0.884936 -3.40170
  1055 42.9818 -1.15934 2.55220
  1056 42.9482 -1.16738 -2.58705
  1057 124.357 31.9465 -77.4424
  1058 688.840 177.056 135.115
  1059 272.711 -9.56242 12.0296
  1060 244.342 -27.5240 -7.44718
  1061 168.986 -13.8726 -20.7730
  1062 -3.81287 3.64448 7.23114
  1063 -3.74799 3.66448 -7.18774
  1064 191.025 -9.59094 1.10313
  1065 211.088 -7.54399 -0.417742
  1066 -0.115385 -15.5495 5.08002
  1067 -0.110088 -15.5638 -5.07834
  1068 31.0400 19.3462 -14.2160
  1069 31.4150 19.3077 14.3034
  1070 188.432 -8.78944 -1.03898
  1071 14.0523 6.84262 4.06499
  1072 13.9306 6.85257 -4.01675
  1073 288.879 -11.6229 42.4581
  1074 208.674 -21.6341 -17.7051
  1075 170.003 -14.0972 20.7709
  1076 274.662 -5.71273 -44.5071
  1077 291.491 -2.96507 4.80075
  1078 104.212 15.9767 46.5108
  1079 104.964 15.2944 -45.7254
  1080 168.871 -8.25965 -39.0684
  1081 240.287 -8.32069 -3.04222
  1082 194.627 -11.4922 2.55487
  1083 228.512 -21.2558 0.106799
  1084 315.536 -1.03029 -2.71397
  1085 168.487 -7.52847 2.62228
  1086 168.413 -7.97628 -2.72058
  1087 5.37883 6.38790 6.06844
  1088 5.51754 6.43567 -5.98915
  1089 276.662 9.99661 -45.9384
  1090 60.9990 3.19543 -16.8392
  1091 61.1613 3.12555 16.7887
  1092 45.3854 0.964150 -11.9786
  1093 45.4827 0.938225 11.9539
  1094 317.677 -13.6233 57.1106
  1095 274.316 -12.6039 25.9798
  1096 133.128 -6.06722 -23.6107
  1097 320.948 -1.19691 -1.62575
  1098 357.987 67.4635 -19.8233
  1099 291.049 -2.55764 -3.07512
  1100 271.953 -29.4219 10.1200
  1101 200.638 -15.3774 34.1356
  1102 323.277 -0.308662 0.337114
  1103 166.985 5.23583 -11.5075
  1104 230.120 -24.5983 -4.42440
  1105 133.338 -6.34601 23.3398
  1106 232.291 -21.0727 -1.44829
  1107 290.763 -3.98456 8.83439
  1108 205.534 13.0062 17.9709
  1109 143.279 -10.4734 -18.6837
  1110 440.672 61.0404 -24.0543
  1111 329.671 14.4592 38.8039
  1112 244.002 30.6408 4.42211
  1113 319.455 0.127028 1.46587
  1114 124.047 -7.67031 -14.1922
  1115 84.7813 51.7812 -77.6934
  1116 152.108 3.94493 -55.8344
  1117 174.517 -13.2812 8.67157
  1118 147.096 -10.9511 17.4513
  1119 123.737 -7.28680 14.3454
  1120 262.907 2.12552 44.5985
  1121 198.770 -6.67207 -0.129120
  1122 314.608 -2.25792 3.61337
  1123 -2.62339 -0.321947 10.0754
  1124 -2.58598 -0.290644 -10.0503
  1125 208.380 -5.67816 -0.207028
  1126 -0.428932 2.18874 9.22230
  1127 -0.361517 2.22946 -9.17488
  1128 115.701 -3.52361 2.46245
  1129 115.713 -3.58305 -2.46594
  1130 295.551 -1.54479 8.07080
  1131 237.035 -14.3275 -4.66048
  1132 221.863 -11.6425 -1.73380
  1133 248.411 -17.2667 8.99021
  1134 75.0000 36.9821 -57.7059
  1135 243.635 -8.97547 3.90028
  1136 35.0402 0.726521 -9.79665
  1137 35.1323 0.708548 9.78685
  1138 50.0208 32.0600 -40.3466
  1139 390.678 50.2758 13.8004
  1140 26.1476 -1.24955 5.68526
  1141 26.0620 -1.23915 -5.69620
  1142 50.9274 31.5449 38.9267
  1143 222.673 -18.5219 0.714581
  1144 111.425 -5.10811 5.28395
  1145 111.447 -5.13336 -5.37893
  1146 456.429 96.4309 -24.6464
  1147 245.599 -24.5933 2.52642
  1148 83.4451 48.3873 77.5170
  1149 7.01366 -2.67321 -5.98813
  1150 7.56904 -2.58116 6.64609
  1151 257.354 32.2887 22.4466
  1152 18.7360 10.3612 -4.05765
  1153 18.8911 10.3634 4.10145
  1154 247.245 -21.4305 -7.32597
  1155 -0.117003 -24.0896 -4.79026
  1156 -0.128266 -24.0947 4.81204
  1157 264.415 -22.2978 -15.2781
  1158 -5.96317 0.330893 1.90516
  1159 -6.08932 0.332918 -1.91016
  1160 39.6579 14.8868 -15.4540
  1161 39.8740 14.9502 15.3055
  1162 -14.8829 0.0361350 -2.33398
  1163 -14.7499 0.0351213 2.33592
  1164 264.834 -2.62980 -0.485749
  1165 -26.8116 0.774468 0.519648
  1166 -26.7396 0.774006 -0.502878
  1167 138.473 -10.8074 -13.6514
  1168 3.65015 -35.7677 -3.16181
  1169 68.2068 -1.90602 4.06075
  1170 68.1868 -1.91342 -4.11001
  1171 224.355 -4.00772 0.277334
  1172 224.785 -3.89437 -0.233021
  1173 3.91871 -34.1566 3.96830
  1174 266.265 -13.7652 -14.9367
  1175 304.784 -1.34313 5.98720
  1176 270.415 -17.2811 -21.6430
  1177 234.497 1.67792 34.7689
  1178 1.19117 -9.97093 7.54214
  1179 1.30688 -9.89888 -7.42176
  1180 172.040 -12.3741 6.80548
  1181 -11.9823 1.05259 6.52477
  1182 -11.9602 1.06161 -6.50561
  1183 450.113 71.8436 4.63155
  1184 529.330 162.202 -114.247
  1185 276.537 -26.9640 18.8262
  1186 112.673 -3.17755 -0.318009
  1187 112.677 -3.13603 0.318256
  1188 570.512 55.3397 -50.8622
  1189 38.7368 -1.01837 5.90779
  1190 38.6684 -1.00230 -5.93294
  1191 257.363 -0.842690 -13.8378
  1192 164.985 -13.2779 15.4718
  1193 273.569 -26.8955 -13.9556
  1194 264.680 -19.1913 -17.0952
  1195 160.781 -5.74010 40.9923
  1196 58.8790 11.0483 -21.5816
  1197 58.8434 10.9495 21.4540
  1198 78.0119 28.7873 -48.9484
  1199 78.1093 26.6234 48.9473
  1200 21.7087 6.53937 -7.15062
  1201 21.8408 6.51925 7.19588
  1202 325.927 56.3899 -26.6546
  1203 16.4741 14.9878 -6.25033
  1204 16.8667 15.0070 6.36717
  1205 235.277 -17.8801 4.14625
  1206 442.882 63.2116 27.1976
  1207 54.1963 -2.28235 -4.00002
  1208 54.2322 -2.28127 3.95631
  1209 289.219 196.031 -171.535
  1210 218.324 12.9165 -27.7655
  1211 199.909 15.4087 11.3155
  1212 27.3197 11.6967 -8.47504
  1213 27.4514 11.6956 8.52420
  1214 3.54077 -0.0477356 1.39778
  1215 3.45907 -0.0476473 -1.41084
  1216 260.838 -20.8985 14.2746
  1217 256.667 -10.0861 7.67649
  1218 175.528 48.6416 -122.102
  1219 404.998 88.2598 -3.03343
  1220 173.220 -5.36865 -45.2366
  1221 225.156 -6.67888 0.865625
  1222 9.03814 -1.12998 -0.337998
  1223 9.05353 -1.12924 0.335996
  1224 -6.64636 1.76162 -3.04641
  1225 -6.53904 1.75416 3.07117
  1226 150.367 1.53803 -47.5733
  1227 278.926 -5.94314 8.43341
  1228 180.558 3.05340 65.3544
  1229 245.235 -11.9417 -6.00346
  1230 126.056 44.3191 -95.7622
  1231 196.322 -9.75204 -48.9144
  1232 234.084 -24.9952 3.10121
  1233 287.281 -4.44159 13.1746
  1234 251.940 -5.01860 -2.28087
  1235 137.874 -10.1330 13.7351
  1236 316.172 -18.1359 -24.5238
  1237 298.963 25.7025 43.7033
  1238 129.528 0.591127 -37.4167
  1239 299.666 -1.69615 1.08611
  1240 237.770 29.6739 -6.30588
  1241 102.452 -3.49604 -3.98546
  1242 102.428 -3.45726 3.93725
  1243 459.395 104.186 23.6374
  1244 631.478 16.7947 29.4254
  1245 0.545752 -29.4481 -4.76748
  1246 0.527749 -29.4826 4.80406
  1247 66.7097 34.9152 53.8836
  1248 160.375 -4.49963 -0.694664
  1249 160.409 -4.47026 0.755619
  1250 220.695 -22.1659 -4.95846
  1251 262.434 21.3929 38.6666
  1252 276.777 -5.24459 -5.50628
  1253 322.965 -0.785180 -0.249517
  1254 559.416 123.765 -77.6045
  1255 84.7579 -3.16183 4.06670
  1256 84.7537 -3.16948 -4.12621
  1257 264.680 -24.5784 14.6806
  1258 467.194 112.147 -32.9356
  1259 256.793 -11.0230 -8.62713
  1260 186.741 -12.8481 -4.45000
  1261 229.964 -25.0339 10.2551
  1262 224.877 -11.0505 2.23107
  1263 8.12988 0.632407 -9.79583
  1264 308.286 -19.0199 28.9506
  1265 249.407 -16.1798 -8.76187
  1266 8.97230 1.06301 10.9185
  1267 256.653 -20.8695 -45.7825
  1268 242.857 14.4001 -99.8411
  1269 400.551 50.0075 -10.0192
  1270 324.274 -0.151794 -0.108339
  1271 323.677 -0.453028 0.298830
  1272 253.767 -14.6613 9.41573
  1273 96.7102 11.5289 -36.7949
  1274 289.222 -25.9057 23.4882
  1275 493.579 112.433 50.6137
  1276 120.752 40.9509 93.2485
  1277 3.20984 0.102423 7.75662
  1278 3.33741 0.163626 -7.66858
  1279 304.359 -24.9576 -23.9847
  1280 120.772 -6.49724 -6.34780
  1281 120.747 -6.51357 6.22138
  1282 282.761 -18.7575 35.2442
  1283 8.88836 0.0975800 6.24497
  1284 8.78121 0.103130 -6.24375
  1285 -1.59514 -5.97071 8.21558
  1286 -1.58457 -5.95791 -8.21648
  1287 48.3454 -1.67474 -5.38930
  1288 48.3958 -1.68483 5.35144
  1289 147.670 -9.82128 -21.3189
  1290 148.584 -4.73820 1.08941
  1291 148.581 -4.84782 -1.03253
  1292 322.980 -0.146879 -0.00843744
  1293 285.446 -4.30526 -14.7992
  1294 21.8887 1.09752 -7.78116
  1295 21.9928 1.08154 7.78274
  1296 148.262 -10.3963 21.1340
  1297 326.258 -0.280147 0.0985121
  1298 307.886 -0.140317 -0.340589
  1299 307.886 -0.324228 0.259638
  1300 405.628 84.6584 6.20191
  1301 299.667 -1.86170 -2.44609
  1302 265.658 -2.46641 0.390167
  1303 294.383 -4.31550 -7.81382
  1304 321.152 -0.958858 1.12867
  1305 332.977 33.8899 38.4686
  1306 386.155 79.7150 11.0612
  1307 311.378 -1.16981 -3.98399
  1308 -2.52103 -0.652707 2.27072
  1309 -2.53099 -0.652209 -2.27752
  1310 171.375 -10.6491 4.52424
  1311 171.339 -10.1696 -4.37803
  1312 336.028 37.6320 -36.6944
  1313 69.0923 23.7692 -40.2833
  1314 69.5380 23.1089 39.8330
  1315 224.955 -0.00478727 -17.3805
  1316 233.226 -3.46521 -0.0919980
  1317 232.940 -3.43422 0.0438410
  1318 -5.68569 -0.986359 8.37481
  1319 -5.67527 -0.971403 -8.37128
  1320 258.166 -0.665472 13.8167
  1321 394.169 78.4326 -0.0594992
  1322 25.7715 -1.04630 -3.39987
  1323 25.8358 -1.04877 3.37046
  1324 291.281 -28.1971 13.3812
  1325 0.173812 4.65815 7.42771
  1326 0.258008 4.68656 -7.37359
  1327 51.5316 -1.16645 -1.08543
  1328 51.5468 -1.14713 1.06590
  1329 225.021 -0.369094 17.6418
  1330 6.56787 0.501941 -0.508890
  1331 6.60296 0.503857 0.499077
  1332 297.089 -3.30355 5.10772
  1333 413.004 75.5357 3.46510
</Section>

newXOutput 38

<Section columns = "stress_xx | stress_yy | stress_xy">
  1 340.317 -0.819364 0.616307
  2 340.875 -1.08244 -0.800818
  3 3.31009 0.325174 -0.893016
  4 -0.232353 -0.358777 -0.226236
  5 630.112 245.150 203.830
  6 639.834 281.091 -206.062
  7 -0.229743 -0.356503 0.222855
  8 3.29492 0.323366 0.890873
  9 342.689 -0.574772 -0.563697
  10 340.054 -1.11934 -0.804282
  11 340.245 -0.860382 0.789228
  12 338.456 -0.411132 0.380409
  13 337.694 -1.04814 -0.159147
  14 337.009 -1.00029 1.41968
  15 331.847 -0.675954 1.39792
  16 333.023 -2.37714 2.06494
  17 322.240 -1.95106 4.37609
  18 315.314 -0.818891 5.25225
  19 305.833 -1.04149 5.64815
  20 289.478 -0.920155 7.83962
  21 271.757 -0.803893 9.07431
  22 249.736 1.12527 12.3965
  23 219.671 1.73588 11.2017
  24 207.676 -0.155726 16.0071
  25 170.333 2.43929 11.3671
  26 147.732 3.24232 8.88961
  27 141.852 1.49620 6.54838
  28 135.542 4.72392 0.475000
  29 138.987 5.12750 -8.75235
  30 145.955 1.43795 -10.9949
  31 173.744 0.569893 -14.7078
  32 201.867 -1.43174 -15.3227
  33 220.751 1.43653 -11.1871
  34 250.069 1.28407 -12.4043
  35 271.033 -0.958673 -9.72060
  36 291.301 -1.06691 -7.40449
  37 304.563 -0.741021 -5.73341
  38 314.348 -0.864628 -4.83090
  39 324.793 -1.11907 -2.81675
  40 328.968 -1.10383 -2.70641
  41 333.016 -1.04935 -2.37366
  42 337.152 -1.20637 -0.511936
  43 338.774 -1.55077 -0.998284
  44 336.863 0.190832 -0.106703
  45 339.858 -0.772871 -0.884814
  46 341.429 -1.67870 0.876865
  47 343.127 -0.946709 -0.0481541
  48 325.438 0.348870 -0.513050
  49 305.661 -1.06940 -0.972588
  50 283.361 -2.67756 -1.42707
  51 260.358 -2.13837 -1.04143
  52 240.367 -3.66753 -0.959701
  53 219.323 -4.01608 -0.883536
  54 198.149 -3.48913 -0.458843
  55 175.937 -3.78754 -0.617289
  56 157.187 -4.10561 -0.801557
  57 132.292 -3.96537 -0.664109
  58 106.704 -2.46061 -0.425105
  59 85.5647 -1.56874 -0.343475
  60 59.4875 -0.989727 -0.162562
  61 40.5414 -1.00063 -1.32125
  62 22.9294 -1.42918 -0.447869
  63 5.17485 0.166440 0.786087
  64 0.609558 1.24494 0.283032
  65 -0.644746 0.509197 0.811015
  66 0.0869232 0.231278 0.789090
  67 -3.45554 0.718314 0.318102
  68 -4.77781 0.935958 1.66464
  69 -5.21389 0.325230 0.562387
  70 -11.2401 0.688600 0.623852
  71 -14.0166 0.483861 1.59018
  72 -15.0189 0.168679 1.66305
  73 -21.5628 0.652163 1.27810
  74 -23.9707 0.969403 2.46575
  75 -26.5924 0.588267 0.856519
  76 -29.7421 0.425488 1.30479
  77 -30.8988 0.456968 0.493287
  78 -33.8857 1.08924 -0.773819
  79 -34.1691 0.746898 -0.579544
  80 -31.0718 0.570269 -1.09048
  81 -26.6564 0.734143 -2.06597
  82 -21.6116 0.317994 -3.11361
  83 -16.0682 0.172014 -3.23496
  84 -9.63254 -0.335180 -3.38560
  85 -4.16481 -0.265856 -1.96928
  86 -1.74015 -0.699791 -1.22570
  87 -0.296331 -1.75713 -1.05704
  88 -0.503477 -4.48960 -1.89337
  89 -0.570965 -8.84241 -3.33741
  90 -0.121882 -16.5843 -3.61700
  91 0.193106 -22.9868 -4.55418
  92 0.461450 -33.0763 -3.72149
  93 1.39799 -39.3072 -4.39671
  94 0.229290 -42.4573 -3.66459
  95 -0.0693020 -48.7783 -2.24220
  96 1.34493 -47.4964 -0.649639
  97 5.42226 -61.6521 2.41915
  98 4.77892 -33.7451 8.20242
  99 11.4411 -15.5984 18.3039
  100 34.5944 53.9710 58.1362
  101 148.910 187.144 167.154
  102 825.727 87.2751 122.867
  103 688.482 24.3000 44.0468
  104 655.035 10.3679 15.1917
  105 636.348 6.82399 -0.0783212
  106 648.188 9.87767 -12.4600
  107 695.097 20.7599 -36.5187
  108 817.108 69.4691 -114.588
  109 96.4751 212.312 -138.295
  110 24.2797 38.6315 -44.8177
  111 8.42090 -21.2916 -15.1178
  112 4.32822 -37.0987 -6.99929
  113 5.39605 -64.0516 -1.83506
  114 1.28724 -48.5647 1.06536
  115 -0.148099 -49.3148 2.45940
  116 0.178891 -42.6662 3.78125
  117 1.37069 -39.3584 4.44624
  118 0.450932 -33.0603 3.73995
  119 0.185096 -22.9558 4.56105
  120 -0.125796 -16.5443 3.61509
  121 -0.571506 -8.81677 3.33057
  122 -0.504568 -4.46735 1.88688
  123 -0.296146 -1.74878 1.05125
  124 -1.73011 -0.698869 1.22089
  125 -4.14705 -0.267021 1.96413
  126 -9.61000 -0.337911 3.38265
  127 -16.0425 0.169042 3.23586
  128 -21.5980 0.314767 3.11944
  129 -26.6643 0.731887 2.07714
  130 -31.1015 0.570132 1.10240
  131 -34.2268 0.746306 0.591100
  132 -33.9664 1.08926 0.785771
  133 -31.0053 0.458207 -0.483025
  134 -29.8677 0.427005 -1.29736
  135 -26.7272 0.589970 -0.850775
  136 -24.1155 0.971401 -2.46370
  137 -21.7110 0.654010 -1.27642
  138 -15.1640 0.169802 -1.66382
  139 -14.1611 0.485786 -1.59291
  140 -11.3769 0.691321 -0.627806
  141 -5.33291 0.327056 -0.569546
  142 -4.87838 0.937767 -1.67506
  143 -3.54005 0.718768 -0.327374
  144 0.0268002 0.230908 -0.798020
  145 -0.686556 0.508267 -0.818157
  146 0.579752 1.24329 -0.289263
  147 5.15516 0.165411 -0.789688
  148 22.9110 -1.43438 0.444066
  149 40.5238 -1.01398 1.31700
  150 59.4755 -1.01352 0.157055
  151 85.5599 -1.60324 0.340563
  152 106.699 -2.50070 0.424562
  153 132.278 -4.00018 0.669390
  154 157.147 -4.12323 0.812769
  155 175.870 -3.76656 0.644030
  156 198.051 -3.41066 0.489871
  157 219.186 -3.83004 0.836061
  158 240.468 -3.71970 0.844684
  159 260.433 -2.46716 1.09838
  160 283.586 -2.61677 1.30203
  161 306.283 -0.891705 0.985862
  162 324.869 0.329634 0.497844
  163 187.069 -16.8270 -14.7365
  164 186.302 -17.1314 14.7027
  165 55.4569 15.4226 -21.7813
  166 56.0086 15.4810 21.6825
  167 221.466 -10.8698 56.5320
  168 232.299 -12.2729 -54.9914
  169 107.185 -5.57904 6.71757
  170 107.178 -5.52286 -6.82262
  171 236.771 -8.03549 1.75246
  172 231.937 -8.05861 -1.67641
  173 314.755 56.9246 -8.29500
  174 320.575 1.90555 -42.2862
  175 314.052 4.41634 45.3003
  176 74.1307 -2.76206 -14.5591
  177 74.1306 -2.74046 14.5262
  178 277.033 -27.4924 15.6007
  179 276.691 -21.2997 -21.4168
  180 3.49019 6.19415 7.07718
  181 3.60372 6.23434 -7.01005
  182 378.418 76.8343 13.3479
  183 72.0821 32.0745 -50.2282
  184 77.4248 32.3892 53.9534
  185 268.009 -12.3393 10.2724
  186 402.341 84.0191 -6.96822
  187 172.576 -6.07968 -1.71203
  188 172.291 -6.24466 1.69267
  189 275.748 -8.50886 -9.33262
  190 368.152 -3.08395 -3.67512
  191 65.9969 -1.97030 2.51916
  192 65.9809 -1.98840 -2.55933
  193 28.0294 3.71817 -9.66208
  194 28.1593 3.68000 9.68402
  195 153.826 -5.91672 -35.0815
  196 153.223 -6.24679 35.5390
  197 183.993 -11.7921 -4.78067
  198 184.363 -11.7259 5.14120
  199 46.5074 -1.62874 7.66621
  200 46.4422 -1.60600 -7.68584
  201 364.248 -7.27927 22.5206
  202 296.998 -29.4845 -7.17678
  203 282.686 -2.65721 -1.53004
  204 276.251 -3.26262 1.57579
  205 278.541 32.6129 31.8119
  206 11.6461 9.67983 -3.25659
  207 12.0806 9.65645 3.44946
  208 278.636 -11.2807 37.0445
  209 255.332 19.4239 -36.2478
  210 182.644 40.4756 -117.050
  211 192.047 34.1641 108.706
  212 4.22940 6.09297 -0.318105
  213 4.33667 6.09104 0.368800
  214 277.673 -9.96631 -38.2455
  215 485.320 68.1791 -4.48448
  216 230.833 -25.2478 19.6061
  217 232.606 -25.0990 -18.4908
  218 230.711 -16.3331 -2.06746
  219 287.166 -4.34433 5.03638
  220 137.620 -9.36188 -12.6052
  221 135.418 -9.32255 13.0226
  222 82.2741 1.74781 -22.1500
  223 82.3885 1.71476 21.9534
  224 294.314 -31.3153 -2.25422
  225 228.766 -17.3768 1.08611
  226 286.161 -4.22704 -4.00211
  227 222.056 -5.47936 0.290292
  228 224.026 -5.08898 0.136739
  229 281.823 -12.5116 21.5915
  230 23.0571 0.262264 -8.17099
  231 23.1570 0.251013 8.16814
  232 -3.63453 -2.46518 -9.61107
  233 -3.65292 -2.48761 9.61920
  234 41.3747 -1.83824 -4.40481
  235 41.4283 -1.84266 4.36630
  236 117.721 -3.41525 2.96744
  237 117.752 -3.47933 -2.99327
  238 136.275 9.35065 -51.6625
  239 136.291 7.78369 51.0699
  240 285.914 -8.81869 -18.4610
  241 133.230 -7.73031 -20.9301
  242 133.340 -7.96837 20.6169
  243 250.682 3.75495 40.9238
  244 218.191 18.7849 2.47223
  245 245.069 -24.3870 -1.77496
  246 1.00663 -6.23484 -8.89234
  247 0.924526 -6.29942 8.96404
  248 15.4843 15.1820 -16.8720
  249 16.4964 14.6173 17.7734
  250 240.938 -23.8516 0.155016
  251 436.504 80.5430 -4.19199
  252 22.1263 15.0528 -6.85289
  253 22.3971 15.0449 6.94005
  254 -9.49064 1.98429 6.64495
  255 -9.44348 1.99457 -6.61254
  256 438.973 75.2377 6.58595
  257 151.898 -7.18974 -4.70866
  258 151.779 -7.07051 4.60193
  259 299.603 -20.3928 34.6208
  260 543.587 88.3547 54.2788
  261 88.2861 -4.61600 -11.8996
  262 88.2632 -4.64850 11.8852
  263 304.584 45.5277 -30.6008
  264 524.175 99.4224 -49.1258
  265 365.382 35.9823 30.0507
  266 398.417 23.4892 -72.9774
  267 245.224 -11.4283 4.31195
  268 278.441 1.16824 -46.0812
  269 264.293 -18.5734 -12.4860
  270 294.986 -5.18587 11.7442
  271 -0.631555 2.80990 -2.78536
  272 -0.524348 2.80078 2.82108
  273 292.297 -10.2487 -70.8927
  274 30.6202 9.55733 -9.67899
  275 30.7684 9.53917 9.73348
  276 282.416 -6.81643 -23.4632
  277 40.1613 40.5314 -52.1147
  278 31.8549 -0.142566 -1.00926
  279 31.8795 -0.135089 0.992703
  280 298.440 -18.7121 -36.0781
  281 51.8374 23.2785 -27.6075
  282 52.5918 23.1485 27.6845
  283 13.7012 -0.451829 5.72642
  284 13.5969 -0.446031 -5.73184
  285 244.874 -10.8316 -4.19174
  286 40.4368 40.0871 53.5481
  287 391.855 28.2408 85.7960
  288 105.295 -4.11696 -3.99449
  289 105.271 -4.08932 3.93162
  290 195.164 -7.91672 -1.39429
  291 195.067 -8.58837 1.61052
  292 166.604 15.7867 -78.9635
  293 269.430 -29.5689 -5.32318
  294 307.924 -1.75647 2.24149
  295 160.424 15.7517 76.3483
  296 186.764 -4.90343 -0.440808
  297 186.692 -4.89936 0.604164
  298 264.709 -19.3421 12.7265
  299 305.018 -3.12239 -5.60055
  300 -2.92042 1.14371 -4.38170
  301 -2.80274 1.13517 4.39804
  302 382.035 76.1993 -3.74410
  303 335.371 -15.9371 19.1328
  304 303.431 -1.43318 -0.615247
  305 308.830 -1.24460 0.557055
  306 302.010 -26.9054 24.7839
  307 372.597 38.4104 -28.0643
  308 324.449 60.4218 17.7573
  309 144.985 -8.80482 -7.77319
  310 143.648 -8.96810 7.93572
  311 307.606 -1.69790 -1.53674
  312 200.683 -15.2673 -38.5133
  313 197.304 -15.4813 6.14310
  314 188.133 -10.3714 44.0326
  315 302.307 -3.52979 6.67276
  316 66.8693 -3.07077 -7.39202
  317 66.9106 -3.09355 7.35649
  318 278.379 -9.76204 70.0701
  319 175.704 -13.8251 -9.67115
  320 324.308 41.4141 38.4362
  321 102.533 7.22932 -33.2425
  322 98.6816 7.55525 32.9575
  323 28.1223 -0.617693 -1.83501
  324 28.1654 -0.613397 1.80863
  325 266.765 -5.22233 3.03157
  326 255.768 -3.46310 0.481658
  327 254.314 -3.80991 -0.570955
  328 280.247 -7.18144 24.8442
  329 22.5011 -0.876996 4.24047
  330 22.4140 -0.868636 -4.26188
  331 80.0542 -1.87693 -1.52250
  332 80.0566 -1.84429 1.50491
  333 2.61592 -13.0955 -5.11159
  334 2.43866 -13.1975 5.32290
  335 216.169 9.30914 27.7205
  336 338.655 -15.0482 -15.7967
  337 218.318 -11.4643 1.25431
  338 247.340 -4.81086 -1.64611
  339 257.181 32.0155 -17.0617
  340 49.2877 -1.56227 -10.7688
  341 49.3499 -1.56322 10.7574
  342 212.210 -10.8006 -0.128240
  343 59.1255 2.08103 -15.5328
  344 59.2368 2.02907 15.4806
  345 11.2350 9.72630 0.280764
  346 11.3774 9.72388 -0.220760
  347 258.592 -27.8853 25.4425
  348 576.557 38.0855 14.7668
  349 228.419 3.36051 -32.8464
  350 191.722 -17.2003 23.3558
  351 190.744 -16.8587 -24.0860
  352 283.300 -4.92734 45.6656
  353 251.249 -1.88082 32.5088
  354 255.193 -26.9640 -26.2975
  355 150.983 -3.73749 0.139694
  356 150.960 -3.78370 -0.101729
  357 282.297 -18.4518 28.2454
  358 386.533 77.1571 2.17586
  359 303.742 -3.34863 -8.68381
  360 76.2881 -2.90998 -5.30044
  361 76.3164 -2.91225 5.24294
  362 285.735 -27.3733 -31.7655
  363 299.355 20.7162 -45.6152
  364 198.594 10.6883 -17.7752
  365 284.250 -19.0325 -32.2256
  366 -9.33575 0.297080 -7.42092
  367 -9.34619 0.285845 7.43059
  368 238.791 -5.51101 1.07870
  369 -3.39764 -2.02679 -4.39263
  370 -3.39368 -2.02753 4.38374
  371 185.015 90.5429 -142.692
  372 7.15428 6.29246 4.94314
  373 7.33817 6.34314 -4.84497
  374 249.277 -1.98662 -32.2376
  375 136.974 -5.75449 3.53911
  376 137.075 -5.83412 -3.58312
  377 -0.968808 -10.1008 8.44579
  378 -0.953307 -10.0822 -8.43673
  379 150.140 95.0027 134.262
  380 111.987 -5.91824 -16.2679
  381 112.072 -5.65944 16.2803
  382 35.5669 26.0422 -25.4616
  383 36.3229 25.9641 25.3088
  384 -14.4463 2.14311 2.76365
  385 -14.3819 2.14635 -2.72918
  386 288.642 19.0885 45.6287
  387 221.499 -23.1827 10.6483
  388 221.733 -20.1671 3.77328
  389 269.159 -30.6567 -2.80300
  390 66.4923 8.37973 -21.6848
  391 66.7135 8.36305 21.6484
  392 5.89699 -9.29145 0.301924
  393 5.57040 -9.42995 0.163645
  394 271.168 38.8128 11.2638
  395 274.751 -7.74514 7.67905
  396 156.134 -12.0723 14.8734
  397 96.0931 -2.38842 -19.5627
  398 96.1257 -2.40608 19.4080
  399 199.680 -5.90617 -0.441488
  400 199.460 -5.16287 0.271728
  401 154.819 -12.4023 -15.8342
  402 120.805 -2.02351 -26.6299
  403 120.783 -2.19146 26.8449
  404 286.176 -26.3081 -20.0529
  405 165.299 -12.6443 9.16386
  406 260.452 -7.81058 4.69260
  407 259.989 -7.10024 -3.95142
  408 217.610 -20.0153 -4.56436
  409 314.024 -1.28056 -2.36967
  410 104.585 42.0233 -80.0314
  411 294.582 -4.21154 14.3172
  412 312.995 -1.56153 3.49356
  413 110.028 -5.85216 9.66279
  414 110.080 -5.77163 -9.65484
  415 220.497 -22.9039 -11.0351
  416 30.9233 13.8890 10.4112
  417 30.7553 13.8801 -10.4219
  418 582.563 38.0568 -30.2254
  419 255.076 -14.4622 -7.29631
  420 316.402 -1.01529 1.36569
  421 98.6989 39.1734 76.1544
  422 466.295 78.6246 14.7629
  423 274.115 -4.03078 -2.42622
  424 204.112 -14.7276 -3.51021
  425 84.5525 16.3349 -37.6108
  426 90.1419 15.1477 37.3864
  427 251.963 -15.8895 7.38545
  428 266.594 -3.45742 -23.9587
  429 -3.09352 -0.237440 4.28257
  430 -3.21613 -0.234603 -4.28037
  431 95.7392 22.9803 -50.6790
  432 96.0427 23.0652 50.5211
  433 10.8136 5.32031 -4.33077
  434 10.9323 5.30824 4.37533
  435 225.988 -4.22131 0.530895
  436 225.716 -4.10643 -0.453071
  437 281.383 -12.7997 -22.5669
  438 -0.860362 -0.922035 10.4147
  439 -0.810118 -0.877994 -10.3769
  440 289.972 -28.6821 17.6495
  441 274.433 -7.22110 -6.80420
  442 443.643 84.9792 -12.6055
  443 15.9206 -0.793366 1.98294
  444 15.8468 -0.793532 -2.00597
  445 535.441 150.340 66.6371
  446 10.5910 3.34777 -15.3009
  447 32.0248 1.60770 -10.4674
  448 32.1319 1.58210 10.4643
  449 533.764 153.713 -63.8464
  450 11.2284 4.54315 16.8962
  451 -14.0443 1.67470 0.843161
  452 -13.9614 1.67192 -0.810696
  453 29.2019 19.9672 -14.7230
  454 29.7124 19.9723 14.8050
  455 346.288 54.0792 -31.8363
  456 278.355 -10.8043 -14.6579
  457 314.684 -1.09744 -1.21490
  458 290.707 -4.43299 -16.7734
  459 -3.52890 2.04622 9.54254
  460 -3.47780 2.07439 -9.50708
  461 281.217 -11.2753 17.0158
  462 181.955 -10.1341 -3.76440
  463 181.389 -10.2405 3.14456
  464 247.750 -27.3404 -3.44457
  465 176.337 -2.52405 -54.1628
  466 269.327 -4.14940 24.4928
  467 220.537 -6.99548 -0.278324
  468 324.874 -24.5874 -2.99513
  469 170.786 1.42433 58.1199
  470 11.6867 -0.232728 4.13432
  471 11.5810 -0.227637 -4.14466
  472 355.590 70.3372 -14.4545
  473 285.464 -1.99743 0.192530
  474 284.474 -2.27806 -0.455027
  475 214.522 -14.2264 1.06200
  476 92.5148 -3.09805 -2.93465
  477 92.5056 -3.06007 2.89544
  478 54.3228 -0.613243 -12.7641
  479 54.3842 -0.624054 12.7357
  480 178.371 6.91724 10.6169
  481 44.0466 -1.48955 6.12207
  482 43.9851 -1.47506 -6.15543
  483 47.7728 4.64534 14.3697
  484 47.6139 4.71416 -14.3591
  485 276.210 -21.3754 20.5915
  486 153.802 -9.56227 -24.9814
  487 141.634 -4.49063 1.78740
  488 141.688 -4.60569 -1.79144
  489 155.436 -9.86488 24.9723
  490 432.111 102.273 -8.09961
  491 -6.91264 -1.05310 -5.71634
  492 -6.90923 -1.05853 5.71339
  493 107.130 -2.94634 -1.21003
  494 107.127 -2.89938 1.20439
  495 0.112746 -18.6901 -7.10136
  496 0.0676472 -18.7509 7.16335
  497 252.351 -3.63618 0.952183
  498 177.226 8.48146 -5.28923
  499 239.911 25.1828 15.3041
  500 152.900 -1.48899 -43.0228
  501 73.9593 -3.78773 9.29606
  502 73.9545 -3.75548 -9.31435
  503 -19.8672 0.629148 -1.40044
  504 -19.7540 0.625400 1.41507
  505 298.067 -5.71764 -45.3862
  506 22.0707 0.153013 -1.35400
  507 22.1059 0.156876 1.33509
  508 248.136 -19.4904 -6.11050
  509 264.543 -22.5048 -12.1257
  510 53.6531 40.5676 -53.8868
  511 222.268 5.80182 -85.8264
  512 2.59663 6.58981 4.65533
  513 2.70238 6.60338 -4.59688
  514 134.922 -6.16895 -5.20738
  515 134.852 -6.11062 5.08573
  516 382.979 15.4611 -9.96217
  517 275.129 -16.1972 -18.6654
  518 52.2962 38.3259 53.1170
  519 272.621 -30.9767 7.04205
  520 262.078 -24.9018 9.53727
  521 54.2242 -1.31479 -4.01131
  522 54.2554 -1.30915 3.96868
  523 213.703 2.27614 25.4226
  524 154.882 -11.3507 -9.75056
  525 290.501 -6.35095 10.6575
  526 -1.19714 -7.05114 -5.54658
  527 -1.20012 -7.04598 5.53891
  528 202.944 -17.9987 28.0327
  529 309.617 -23.8493 -23.8330
  530 404.789 27.3992 -13.2516
  531 217.834 -7.25827 0.410634
  532 63.2561 -1.16121 -1.18050
  533 63.2664 -1.13739 1.16887
  534 137.377 1.11524 41.4155
  535 386.021 64.2403 21.7436
  536 393.831 75.3483 -136.281
  537 351.859 1.58497 22.8694
  538 252.715 -28.0999 2.08192
  539 600.953 47.7786 40.4702
  540 442.998 106.639 11.9208
  541 61.2517 -2.54226 10.1624
  542 61.2083 -2.51638 -10.1819
  543 242.868 -20.0676 4.58975
  544 17.6497 8.64518 -3.94654
  545 17.7850 8.63950 3.99947
  546 305.799 -25.5455 23.8272
  547 248.673 13.3532 37.5890
  548 308.390 -1.92892 5.92389
  549 227.228 -13.5180 2.10976
  550 319.687 1.95007 -90.4737
  551 508.595 129.237 88.3883
  552 246.719 -4.68248 -0.844908
  553 302.715 -3.03661 -9.49989
  554 46.9888 19.6523 -20.5450
  555 47.3314 19.4146 20.4480
  556 172.157 -6.79508 -2.41512
  557 172.076 -6.62865 2.47018
  558 1.97344 -22.8242 -2.21773
  559 308.511 -11.1745 40.5366
  560 11.5555 10.4984 1.47000
  561 11.7421 10.5264 -1.38284
  562 2.31655 -22.0716 2.87437
  563 280.558 -12.8249 -32.7334
  564 323.005 20.1445 -43.7924
  565 321.808 22.8605 43.7864
  566 15.2738 12.6577 11.0929
  567 14.4965 12.9733 -10.8374
  568 -9.81697 0.303878 3.21393
  569 -9.94345 0.306926 -3.20803
  570 297.661 6.86759 93.3340
  571 161.739 -8.85955 5.08774
  572 161.905 -8.82771 -5.20045
  573 359.309 -7.10986 -47.1598
  574 44.6360 -0.616363 2.32962
  575 44.6106 -0.627041 -2.35811
  576 19.5266 -0.564117 -0.554157
  577 19.5482 -0.560402 0.547542
  578 393.756 71.1434 -17.7768
  579 37.2683 53.3282 -59.6681
  580 204.067 4.04378 -21.5220
  581 290.050 46.4048 -19.2076
  582 4.18267 -0.384599 6.54628
  583 4.35865 -0.322346 -6.42815
  584 296.756 133.032 160.551
  585 250.414 -6.80832 -2.65846
  586 8.12106 2.56083 -5.33628
  587 8.23733 2.54227 5.36320
  588 289.225 -23.3367 28.3089
  589 44.1120 51.6225 60.7578
  590 208.131 -4.21018 0.197718
  591 208.187 -4.17292 -0.198573
  592 -0.236963 -14.8262 7.33798
  593 -0.214419 -14.8017 -7.31377
  594 355.045 69.4011 -0.568345
  595 225.536 -18.2851 40.1654
  596 215.173 -9.05268 0.166632
  597 216.800 9.42427 90.5750
  598 -18.0488 0.907076 4.43075
  599 -18.0303 0.911983 -4.41308
  600 356.269 4.16317 -24.5398
  601 477.024 77.8083 -62.7006
  602 134.450 13.5711 -59.9882
  603 71.8373 -2.98342 -12.4208
  604 71.9021 -2.98359 12.4210
  605 323.101 -0.981236 1.68551
  606 213.015 -9.25267 -0.439298
  607 286.607 -3.75070 3.73140
  608 280.581 -12.8182 31.9705
  609 10.1021 -0.458474 2.04217
  610 10.0106 -0.456479 -2.05932
  611 165.416 -5.63219 -1.38801
  612 165.391 -5.47226 1.33617
  613 102.779 2.29520 -27.4823
  614 102.107 2.32402 27.3549
  615 407.344 22.9548 22.7711
  616 668.082 50.3428 -73.1744
  617 -6.38198 -0.402240 2.82187
  618 -6.51184 -0.400858 -2.82174
  619 96.5719 -4.02842 5.44001
  620 96.5690 -4.02398 -5.51904
  621 378.989 19.9414 15.1433
  622 319.577 -1.01277 -0.535617
  623 318.862 -1.51606 0.237040
  624 228.617 -0.124776 25.1882
  625 333.340 -20.0749 -28.4461
  626 179.660 -14.6743 11.6625
  627 -4.46414 4.03529 -4.25591
  628 -4.54332 4.02929 4.30148
  629 288.766 5.71540 47.5903
  630 113.380 -6.46609 -12.9331
  631 113.265 -6.57532 12.9587
  632 235.427 -13.4831 -2.98659
  633 291.893 -6.24955 -9.65087
  634 165.350 -13.1308 -17.9230
  635 271.293 32.7007 -28.9106
  636 183.198 -12.6785 -32.6133
  637 65.6846 -1.75367 -2.05108
  638 65.6952 -1.73186 2.02161
  639 167.092 -13.3716 17.9893
  640 361.168 57.9751 28.7086
  641 286.993 -14.0723 40.2737
  642 234.987 -10.2989 2.72682
  643 167.228 -4.29745 0.984649
  644 167.186 -4.30786 -0.952216
  645 125.402 -4.58511 -3.83870
  646 125.353 -4.53293 3.79392
  647 276.557 -25.4102 -16.6512
  648 138.754 -7.75857 6.73990
  649 138.908 -7.72795 -6.88798
  650 275.772 42.6624 -3.88745
  651 255.537 -13.2897 7.35103
  652 321.230 -1.40656 -2.59875
  653 270.944 -5.09491 -41.8365
  654 37.7086 -1.69059 8.15297
  655 37.6331 -1.67842 -8.16187
  656 313.022 -1.64054 -5.36131
  657 54.9170 28.2411 -37.7364
  658 55.8648 28.1677 37.9228
  659 319.018 -19.8321 39.8326
  660 108.624 26.9372 63.1711
  661 25.4989 -0.130743 8.16217
  662 25.4075 -0.124593 -8.16770
  663 271.256 -17.9362 52.0201
  664 267.809 36.5165 -123.816
  665 258.922 8.00035 -41.6847
  666 342.318 61.8225 24.6244
  667 230.887 -10.0784 -1.69474
  668 415.953 75.1454 -1.82316
  669 -20.6011 0.948769 -0.815996
  670 -20.5050 0.946210 0.836843
  671 183.807 0.603771 -63.6231
  672 10.7978 -0.265939 1.59065
  673 10.7335 -0.266640 -1.60818
  674 231.093 -19.6674 -39.6872
  675 75.6019 10.4677 -26.4614
  676 74.9898 10.5025 26.4453
  677 0.958928 3.83129 -1.34924
  678 1.06336 3.82586 1.39354
  679 195.880 -16.8553 -8.53185
  680 277.952 -2.73171 -16.0933
  681 131.297 -3.95785 -1.40051
  682 131.302 -3.91122 1.41216
  683 94.5057 -4.79588 -8.21630
  684 94.5780 -4.86377 8.18307
  685 17.7237 14.5896 -4.61890
  686 18.0254 14.6194 4.71976
  687 286.185 -3.21384 1.91914
  688 125.512 -7.90607 10.7097
  689 126.335 -7.76449 -10.6983
  690 316.481 -25.7176 -4.84096
  691 260.265 -26.1625 -6.72295
  692 204.139 -5.55905 0.0399418
  693 203.407 -5.16556 0.0651091
  694 287.101 -30.6394 14.6269
  695 466.968 94.0392 23.7975
  696 252.104 -11.6644 -64.8875
  697 288.779 -7.98131 16.9580
  698 286.287 -10.8210 -43.1451
  699 87.5893 -2.67854 -3.81709
  700 87.5866 -2.65716 3.76475
  701 223.911 -4.23947 72.8931
  702 631.170 80.6695 74.0274
  703 42.2010 12.4425 -14.9887
  704 42.2627 12.5249 15.0387
  705 285.330 -2.55596 -0.977403
  706 287.621 -2.27954 0.995443
  707 120.414 59.8397 -103.155
  708 302.670 -1.56438 9.47070
  709 261.632 -4.25837 1.60591
  710 343.820 68.3005 -9.15954
  711 34.2232 6.26574 -10.7680
  712 34.3744 6.22580 10.8087
  713 326.203 -0.726146 0.313118
  714 262.924 -9.95029 -7.13447
  715 328.012 -5.39928 35.7140
  716 132.985 -9.26318 -17.0059
  717 133.319 -8.85964 16.8361
  718 28.8269 -1.03114 6.17304
  719 28.7433 -1.01795 -6.19158
  720 298.390 -1.83591 -1.75284
  721 257.002 49.0495 131.544
  722 1.72178 1.76333 8.76832
  723 1.81697 1.81927 -8.70296
  724 298.906 -3.05717 -4.50889
  725 290.066 -5.14965 6.41944
  726 227.497 0.113532 -27.0155
  727 2.12496 -26.8816 -3.64749
  728 1.98302 -27.1409 3.90826
  729 104.474 27.7436 -63.1598
  730 230.608 -23.2751 -28.3583
  731 119.450 59.3233 104.175
  732 321.798 -0.708587 1.03287
  733 308.267 46.0676 30.7543
  734 223.259 20.3024 -10.6509
  735 405.012 81.6668 -0.401799
  736 317.454 -1.25065 3.49991
  737 -19.8309 0.468099 2.25818
  738 -19.9555 0.470680 -2.24900
  739 337.475 -19.8606 7.65728
  740 217.450 -6.03867 0.0282016
  741 77.9615 0.186999 -18.7333
  742 78.0620 0.108194 18.6198
  743 290.247 -3.20835 -2.69021
  744 513.473 72.7586 -25.9622
  745 32.4813 -0.984121 -3.82616
  746 32.5502 -0.990004 3.79595
  747 324.038 -0.795844 -1.63625
  748 62.4206 -2.79756 -5.34633
  749 62.4591 -2.80748 5.30166
  750 315.675 -12.9465 -36.7137
  751 291.412 -3.01988 13.0137
  752 260.342 -1.84816 41.3071
  753 324.707 -0.829028 -0.0450301
  754 302.541 -2.12879 3.46563
  755 196.474 -10.3985 -1.57776
  756 247.195 -6.26473 2.03895
  757 280.908 -17.3083 -27.4352
  758 274.091 -17.1675 18.0434
  759 320.775 38.4988 -38.8322
  760 270.371 -15.0537 13.4769
  761 285.392 -17.0035 34.9646
  762 164.566 -11.0169 6.94356
  763 5.82848 -2.26037 -0.934677
  764 5.51184 -2.27928 1.23428
  765 250.388 -3.51646 0.0462465
  766 249.852 -3.48931 -0.139900
  767 301.265 -1.18205 -0.200623
  768 302.324 -1.12019 0.272346
  769 285.865 -7.97481 20.6974
  770 263.973 -24.5771 37.3881
  771 216.203 -17.4372 2.59005
  772 191.750 -11.2722 3.03827
  773 524.004 67.2178 30.3195
  774 289.343 -7.22516 -13.4354
  775 168.989 28.8894 -96.8364
  776 268.673 -13.1354 -11.6856
  777 9.53377 0.238262 -5.80760
  778 9.64721 0.228428 5.81483
  779 238.135 20.8695 -23.8853
  780 614.402 18.6658 -8.04757
  781 301.914 7.46268 -46.6680
  782 11.9149 5.07907 -23.0730
  783 310.030 55.9303 7.88823
  784 242.545 -15.2754 4.43970
  785 272.074 -6.93266 40.6113
  786 229.411 -24.2796 28.5181
  787 369.106 -3.37237 58.4473
  788 12.8427 7.89356 24.6844
  789 165.342 -1.11414 49.3980
  790 231.911 -5.74370 -0.864939
  791 258.754 -23.5282 -37.8568
  792 157.758 -12.2146 -12.3858
  793 124.488 5.89249 -43.0391
  794 299.437 -4.94592 45.7407
  795 191.471 -12.9239 5.18667
  796 34.8795 -1.02643 3.44705
  797 34.8292 -1.02777 -3.48110
  798 278.820 -1.51146 14.2630
  799 251.950 1.13763 -40.0945
  800 -22.3298 0.997618 2.78907
  801 -22.2962 0.999431 -2.76986
  802 186.264 -5.64560 -0.482414
  803 185.714 -5.32571 0.423710
  804 137.962 15.2275 60.8807
  805 122.439 -7.08560 7.99102
  806 122.615 -6.90980 -8.08082
  807 323.909 -0.552930 -0.912418
  808 111.944 8.83602 41.9138
  809 1.71582 -0.104838 2.19622
  810 1.60152 -0.102459 -2.20641
  811 275.424 -8.55876 31.4679
  812 295.763 -2.35076 1.39989
  813 -15.7994 0.174457 4.37948
  814 -15.8016 0.179488 -4.37072
  815 180.784 -11.4392 36.7203
  816 34.5529 28.6077 -31.8024
  817 34.9814 27.2480 31.3110
  818 168.720 7.50501 4.41070
  819 -4.70138 -0.165646 -2.52504
  820 -4.57167 -0.167410 2.52206
  821 208.151 -19.8551 -26.6938
  822 284.913 -30.0334 -10.4671
  823 -1.41204 -1.34226 -1.77190
  824 -1.40793 -1.33916 1.76539
  825 12.8095 0.494445 -0.508176
  826 12.8379 0.497191 0.498149
  827 253.140 -22.4755 7.04345
  828 212.726 -21.8216 18.3704
  829 236.132 -3.75614 0.754690
  830 212.153 -17.0068 -3.40205
  831 76.1043 -1.21885 -0.385342
  832 76.1104 -1.18747 0.378000
  833 -25.3161 0.535563 1.65227
  834 -25.2619 0.534844 -1.63346
  835 267.216 -3.25590 -1.29267
  836 234.288 9.11273 -34.0681
  837 270.145 -5.17364 -3.78900
  838 158.087 -11.9934 11.7782
  839 266.090 -4.72647 -33.1777
  840 285.554 -8.66641 -21.3888
  841 268.317 -2.76702 1.16340
  842 194.923 -7.63555 50.6867
  843 208.258 -20.3068 -10.0875
  844 124.813 -0.925371 -32.8301
  845 125.507 -0.0576078 33.0016
  846 177.148 -13.1597 -7.53117
  847 294.564 31.7591 39.9113
  848 280.651 -29.5031 -20.2360
  849 99.3629 -3.08593 -1.89461
  850 99.3518 -3.03790 1.87310
  851 213.914 -4.65258 0.0139390
  852 213.921 -4.69292 0.0402143
  853 253.993 -1.95623 -21.6627
  854 84.4562 -3.54524 -6.62618
  855 84.4996 -3.57232 6.56576
  856 1.01402 -26.9020 -5.40041
  857 0.958679 -27.0172 5.50932
  858 41.3010 -0.614336 -0.222992
  859 41.2833 -0.627608 0.214194
  860 265.135 -3.95950 -1.81718
  861 200.365 -19.0888 16.5618
  862 312.574 -27.1074 11.1040
  863 180.305 3.79358 16.8975
  864 271.082 -6.20992 4.33034
  865 295.699 -26.6899 -22.2248
  866 41.4896 2.72221 -12.4237
  867 41.6126 2.67727 12.4152
  868 234.917 -4.04611 -0.691787
  869 188.538 -6.37939 -1.27898
  870 187.873 -6.32048 1.44677
  871 290.884 45.3297 21.6315
  872 100.417 -0.949345 -22.7126
  873 100.317 -1.06763 22.6081
  874 202.240 -18.2083 7.91737
  875 19.0414 12.5533 -3.95573
  876 19.2332 12.5279 4.00964
  877 170.787 -12.1809 29.7616
  878 205.165 -12.9430 -1.64111
  879 255.519 -2.02462 21.8907
  880 252.536 -28.5101 8.71685
  881 289.587 -22.1547 -30.4798
  882 199.876 -19.2456 -16.8084
  883 165.774 -10.9693 -6.64311
  884 548.001 45.1481 -8.40274
  885 264.630 -28.0832 5.11343
  886 7.18709 8.51765 3.50623
  887 7.32429 8.53364 -3.43490
  888 229.673 -22.9739 3.88315
  889 252.184 -28.5182 -15.8913
  890 7.56736 7.49730 0.667712
  891 7.68742 7.49885 -0.613402
  892 93.7533 -3.28103 17.1211
  893 93.8152 -3.38339 -17.2284
  894 113.922 -5.71384 18.8052
  895 113.884 -5.85263 -18.9421
  896 363.738 73.0056 11.5302
  897 -0.550993 -11.2571 -5.39210
  898 -0.554893 -11.2441 5.38856
  899 82.6204 7.05287 -25.1569
  900 82.2073 6.90768 24.9002
  901 635.562 20.6091 -32.2063
  902 9.64747 -0.0536654 0.880573
  903 9.59938 -0.0557421 -0.894323
  904 1.06045 -31.0950 1.99417
  905 1.24225 -30.5840 -1.56237
  906 -12.0507 -0.160069 4.47392
  907 -12.0636 -0.156357 -4.47234
  908 65.9939 19.4447 -29.6869
  909 67.0197 18.8007 29.2545
  910 -5.38219 0.184388 -9.49031
  911 -5.40852 0.163519 9.50714
  912 18.1239 1.74855 -8.01535
  913 18.2404 1.72627 8.02643
  914 71.6787 -0.766345 15.7415
  915 71.6314 -0.762970 -15.8260
  916 58.1379 -1.96124 -12.6734
  917 58.1952 -1.95718 12.6507
  918 314.289 -1.11166 -5.25571
  919 152.102 31.9938 89.9242
  920 210.357 -20.7038 9.38990
  921 148.705 -10.5537 9.38447
  922 287.917 29.5144 -39.3779
  923 624.942 13.4484 12.8151
  924 342.751 15.1287 -37.8918
  925 55.0433 -2.11417 7.86421
  926 54.9894 -2.08965 -7.89661
  927 8.59982 -0.304853 -5.79799
  928 8.71018 -0.308032 5.79694
  929 -0.290264 -5.49491 -10.3564
  930 -0.335169 -5.53900 10.3908
  931 153.716 -6.61226 4.01958
  932 153.799 -6.74657 -4.04294
  933 17.7668 5.03824 -7.00735
  934 17.8925 5.01525 7.04561
  935 92.9811 -4.09170 -14.4714
  936 93.0414 -4.09109 14.4598
  937 201.460 -0.971275 -19.9042
  938 95.8723 -5.16832 -9.93106
  939 95.8012 -5.10995 9.96437
  940 236.577 -6.36255 -1.08203
  941 286.204 -16.5189 -37.5104
  942 123.661 -4.89653 4.39124
  943 123.723 -4.94411 -4.45697
  944 -5.15855 -0.560731 -3.13166
  945 -5.14476 -0.562074 3.12514
  946 292.202 -23.0120 -46.5461
  947 279.313 -16.3423 23.9314
  948 244.846 -16.9602 -5.62089
  949 237.376 8.00361 35.9115
  950 107.245 -5.96468 -11.2042
  951 107.241 -5.84763 11.2403
  952 265.967 10.0263 43.5133
  953 247.688 21.5538 28.6351
  954 510.950 61.6129 10.6728
  955 260.801 -9.12993 5.32845
  956 135.868 -3.88446 -1.96299
  957 135.849 -3.80287 1.98128
  958 233.122 -18.9793 -1.57150
  959 322.346 59.2124 -18.5991
  960 286.253 -2.85259 -1.93940
  961 186.716 -4.31264 0.637907
  962 186.642 -4.27747 -0.583642
  963 23.3283 19.5544 -13.4775
  964 23.9292 19.5147 13.5851
  965 45.0911 110.635 -100.441
  966 266.760 -6.38548 33.0107
  967 333.567 -6.69758 -31.9603
  968 -6.12952 3.19214 2.02444
  969 -6.04296 3.19131 -1.98161
  970 683.882 160.853 -128.883
  971 285.405 -31.1813 4.24195
  972 304.663 -28.4998 -11.1513
  973 280.835 -24.1019 21.9396
  974 346.697 68.4204 7.86633
  975 24.6813 25.0450 -29.5799
  976 63.7589 95.2915 98.3050
  977 -1.76607 -4.02556 10.3054
  978 -1.73816 -3.99322 -10.2877
  979 273.595 -6.76307 5.37605
  980 439.361 77.9808 -8.94554
  981 25.4115 24.4443 30.7981
  982 -1.21548 -4.02999 -3.48225
  983 -1.21577 -4.01910 3.47344
  984 234.293 -5.16686 0.493089
  985 174.074 -13.7516 -12.8972
  986 283.004 -22.4174 -25.8997
  987 79.4475 21.3487 -39.4821
  988 80.7282 21.7042 39.5861
  989 274.402 -6.83239 -29.5007
  990 277.251 -8.58514 9.78494
  991 -7.56018 1.81296 8.39468
  992 -7.52319 1.83141 -8.36786
  993 166.223 -10.9614 -27.9426
  994 276.324 17.4810 -43.7480
  995 205.625 -7.44070 0.407806
  996 147.074 -4.00440 0.297521
  997 147.046 -4.03301 -0.280446
  998 -3.15631 -3.57953 -7.30282
  999 -3.16090 -3.58727 7.29728
  1000 280.996 -9.83807 -11.9743
  1001 267.776 -2.70102 0.357284
  1002 267.525 -2.70404 -0.246183
  1003 369.663 59.9610 -26.6588
  1004 65.4566 5.77613 -19.7143
  1005 65.6188 5.66065 19.6666
  1006 41.0735 -0.349563 -10.4687
  1007 41.1501 -0.358003 10.4539
  1008 303.852 15.9684 47.2090
  1009 288.477 -5.21108 -6.73919
  1010 49.7426 7.97423 -15.9325
  1011 49.9409 7.91365 15.9917
  1012 301.547 -1.40218 -1.14643
  1013 280.585 -11.9982 -18.0631
  1014 273.978 -31.1131 -10.7340
  1015 10.1382 8.49546 -0.630352
  1016 9.84839 8.45489 0.761615
  1017 -13.5448 2.14111 5.06173
  1018 -13.4970 2.14690 -5.03003
  1019 162.829 6.19698 -7.37858
  1020 475.467 117.101 -30.7709
  1021 215.940 -15.5625 -0.659008
  1022 142.120 -6.19795 -28.7950
  1023 348.203 -14.5336 4.29758
  1024 142.682 -6.19533 29.2059
  1025 248.724 -29.0676 18.7349
  1026 282.032 -11.6417 -26.9393
  1027 94.9654 -2.12593 -0.606924
  1028 94.9684 -2.08566 0.602398
  1029 191.906 -14.8553 -6.40473
  1030 116.900 -4.31278 -22.2986
  1031 116.850 -4.34554 22.1782
  1032 38.4342 25.0808 -24.0721
  1033 39.0516 25.0031 24.1439
  1034 79.4814 -2.49039 -2.17137
  1035 79.4828 -2.45799 2.14042
  1036 251.034 -7.68834 2.98663
  1037 211.519 0.561076 -73.8305
  1038 260.286 -8.20543 -5.27942
  1039 234.649 -25.9767 -10.9366
  1040 153.310 -6.28989 2.70507
  1041 153.440 -6.33923 -2.71558
  1042 305.663 -1.68373 1.44428
  1043 272.571 -6.22629 -5.04370
  1044 172.139 4.16975 13.9086
  1045 291.786 -2.86517 -12.0996
  1046 112.170 32.4531 71.7399
  1047 300.745 -2.73700 -9.94657
  1048 77.4363 13.0854 -29.5796
  1049 75.0877 13.2364 28.3442
  1050 359.933 -6.84424 -5.88504
  1051 31.6965 16.6818 -12.2544
  1052 31.9924 16.5601 12.2500
  1053 5.32204 -0.903413 3.62709
  1054 5.59766 -0.853817 -3.44554
  1055 44.3598 -1.19533 2.64016
  1056 44.3248 -1.20356 -2.67589
  1057 127.789 32.8648 -79.6414
  1058 706.522 181.850 138.685
  1059 280.039 -9.83633 12.2838
  1060 250.949 -28.2607 -7.75231
  1061 173.634 -14.2556 -21.4219
  1062 -3.88418 3.75382 7.39999
  1063 -3.81749 3.77442 -7.35535
  1064 196.250 -9.87505 1.18858
  1065 216.825 -7.77600 -0.382767
  1066 -0.117397 -15.9681 5.21433
  1067 -0.111958 -15.9828 -5.21263
  1068 31.9484 19.9039 -14.6840
  1069 32.3339 19.8646 14.7740
  1070 193.591 -9.05243 -1.12126
  1071 14.5130 7.03325 4.22904
  1072 14.3878 7.04342 -4.17933
  1073 296.686 -11.9177 43.4646
  1074 214.356 -22.2199 -18.2774
  1075 174.677 -14.4862 21.4199
  1076 282.131 -5.84993 -45.5822
  1077 299.256 -3.06434 4.89502
  1078 107.121 16.4288 47.8681
  1079 107.894 15.7268 -47.0607
  1080 173.506 -8.47859 -40.2160
  1081 246.770 -8.57154 -3.07028
  1082 199.947 -11.8249 2.69155
  1083 234.711 -21.8399 0.0179711
  1084 323.897 -1.06573 -2.76964
  1085 173.131 -7.75590 2.74382
  1086 173.055 -8.21571 -2.84447
  1087 5.55637 6.59017 6.18860
  1088 5.69891 6.63939 -6.10708
  1089 284.207 10.2882 -47.0536
  1090 62.7672 3.27815 -17.3687
  1091 62.9342 3.20638 17.3171
  1092 46.7424 0.984695 -12.3646
  1093 46.8427 0.958057 12.3394
  1094 326.143 -13.8928 58.7634
  1095 281.723 -12.9472 26.5851
  1096 136.830 -6.23957 -24.3339
  1097 329.419 -1.23512 -1.65866
  1098 367.651 69.3057 -20.2126
  1099 298.793 -2.64638 -3.12999
  1100 279.280 -30.2038 10.2747
  1101 206.106 -15.7836 35.1523
  1102 331.785 -0.325211 0.340474
  1103 171.807 5.38385 -11.7991
  1104 236.361 -25.2659 -4.64181
  1105 137.047 -6.52597 24.0561
  1106 238.588 -21.6519 -1.39511
  1107 298.539 -4.10651 9.02663
  1108 211.331 13.3719 18.4212
  1109 147.255 -10.7689 -19.2701
  1110 452.271 62.8606 -24.9245
  1111 338.533 14.8968 39.6787
  1112 250.786 31.4845 4.53116
  1113 327.899 0.122559 1.49275
  1114 127.520 -7.89177 -14.6494
  1115 87.1425 53.2906 -79.9138
  1116 156.292 4.06986 -57.4390
  1117 179.315 -13.6580 8.98068
  1118 151.172 -11.2596 18.0052
  1119 127.204 -7.49794 14.8068
  1120 270.100 2.19923 45.6908
  1121 204.191 -6.88068 -0.171938
  1122 322.956 -2.32488 3.69178
  1123 -2.67967 -0.317594 10.3321
  1124 -2.64124 -0.285392 -10.3063
  1125 214.045 -5.86143 -0.179892
  1126 -0.417532 2.26701 9.44504
  1127 -0.348253 2.30891 -9.39631
  1128 118.982 -3.63597 2.54418
  1129 118.994 -3.69695 -2.54774
  1130 303.481 -1.59050 8.25904
  1131 243.447 -14.7334 -4.70968
  1132 227.882 -11.9805 -1.71405
  1133 255.123 -17.7461 9.14464
  1134 77.1055 38.0535 -59.3805
  1135 250.206 -9.24290 3.94810
  1136 36.1236 0.741307 -10.1156
  1137 36.2185 0.722839 10.1057
  1138 51.4460 32.9938 -41.5474
  1139 401.089 51.7283 13.9648
  1140 27.0308 -1.28706 5.87348
  1141 26.9424 -1.27637 -5.88460
  1142 52.3782 32.4660 40.0893
  1143 228.720 -19.0365 0.647667
  1144 114.586 -5.26252 5.46951
  1145 114.609 -5.28837 -5.56695
  1146 468.594 99.0255 -25.4189
  1147 252.242 -25.2596 2.49263
  1148 85.7738 49.8054 79.7338
  1149 7.22431 -2.63439 -6.21660
  1150 7.79510 -2.53957 6.89247
  1151 264.466 33.1782 22.9922
  1152 19.3130 10.6558 -4.22903
  1153 19.4725 10.6581 4.27417
  1154 253.930 -22.0173 -7.42710
  1155 -0.119860 -24.7311 -4.91415
  1156 -0.131424 -24.7362 4.93649
  1157 271.548 -22.9014 -15.5833
  1158 -5.92559 0.338885 1.96719
  1159 -6.05571 0.340966 -1.97230
  1160 40.8155 15.3071 -15.9534
  1161 41.0377 15.3724 15.8010
  1162 -15.1381 0.0366037 -2.40987
  1163 -15.0010 0.0355646 2.41191
  1164 271.910 -2.72931 -0.486586
  1165 -27.4840 0.795475 0.522264
  1166 -27.4101 0.795006 -0.505000
  1167 142.326 -11.1143 -14.0962
  1168 3.75549 -36.5867 -3.29133
  1169 70.2412 -1.96618 4.19949
  1170 70.2202 -1.97375 -4.24999
  1171 230.420 -4.14764 0.290585
  1172 230.861 -4.03135 -0.245129
  1173 4.03197 -34.9315 4.12021
  1174 273.437 -14.1493 -15.2539
  1175 312.916 -1.38613 6.12197
  1176 277.709 -17.7521 -22.1255
  1177 240.986 1.73027 35.6326
  1178 1.23100 -10.2014 7.71760
  1179 1.34988 -10.1273 -7.59393
  1180 176.775 -12.7282 7.05977
  1181 -12.2897 1.08440 6.69026
  1182 -12.2671 1.09369 -6.67057
  1183 462.129 73.7353 4.77280
  1184 543.079 166.802 -117.484
  1185 283.989 -27.6814 19.2121
  1186 115.876 -3.27980 -0.332045
  1187 115.880 -3.23720 0.332306
  1188 585.428 56.7883 -52.2149
  1189 39.9683 -1.05003 6.10297
  1190 39.8976 -1.03352 -6.12870
  1191 264.401 -0.865525 -14.1756
  1192 169.532 -13.6496 15.9726
  1193 280.939 -27.6116 -14.2132
  1194 271.820 -19.7146 -17.4549
  1195 165.203 -5.88969 42.1926
  1196 60.5720 11.3550 -22.2502
  1197 60.5357 11.2536 22.1192
  1198 80.2071 29.6090 -50.3795
  1199 80.3080 27.3852 50.3786
  1200 22.3883 6.71960 -7.40321
  1201 22.5242 6.69898 7.44988
  1202 334.774 57.9322 -27.2467
  1203 16.9647 15.4434 -6.49459
  1204 17.3681 15.4635 6.61476
  1205 241.647 -18.3784 4.17385
  1206 454.527 65.0999 28.1605
  1207 55.8587 -2.35033 -4.13685
  1208 55.8960 -2.34923 4.09204
  1209 296.679 201.751 -176.192
  1210 224.438 13.2822 -28.4579
  1211 205.570 15.8372 11.5998
  1212 28.1406 12.0254 -8.77277
  1213 28.2760 12.0245 8.82344
  1214 3.87418 -0.0497613 1.44294
  1215 3.78960 -0.0496702 -1.45634
  1216 267.877 -21.4678 14.5581
  1217 263.577 -10.3792 7.81695
  1218 180.285 50.0874 -125.495
  1219 415.869 90.6444 -3.24964
  1220 177.965 -5.50359 -46.5521
  1221 231.249 -6.88828 0.844801
  1222 9.55038 -1.15952 -0.347658
  1223 9.56695 -1.15875 0.345604
  1224 -6.73190 1.80965 -3.16008
  1225 -6.62145 1.80201 3.18563
  1226 154.510 1.59147 -48.9539
  1227 286.396 -6.12278 8.60726
  1228 185.485 3.16641 67.2143
  1229 251.855 -12.2850 -6.09392
  1230 129.521 45.6037 -98.4585
  1231 201.670 -9.99699 -50.3300
  1232 240.428 -25.6726 3.28363
  1233 294.992 -4.57192 13.4765
  1234 258.707 -5.18278 -2.30525
  1235 141.712 -10.4219 14.1822
  1236 324.648 -18.5825 -25.0318
  1237 307.085 26.4259 44.7421
  1238 133.124 0.609648 -38.5206
  1239 307.600 -1.76107 1.10394
  1240 244.395 30.4907 -6.46194
  1241 105.384 -3.60500 -4.12115
  1242 105.361 -3.56522 4.07172
  1243 471.537 107.152 24.5197
  1244 647.780 17.2267 30.1749
  1245 0.561849 -30.2281 -4.88977
  1246 0.543353 -30.2634 4.92733
  1247 68.5905 35.9357 55.4570
  1248 164.810 -4.64672 -0.731198
  1249 164.845 -4.61662 0.793728
  1250 226.692 -22.7725 -5.18512
  1251 269.648 21.9926 39.6104
  1252 284.179 -5.40840 -5.61012
  1253 331.457 -0.814013 -0.258687
  1254 574.103 127.069 -79.7221
  1255 87.2247 -3.25801 4.21044
  1256 87.2199 -3.26582 -4.27145
  1257 271.821 -25.2410 14.9667
  1258 479.535 115.334 -34.0602
  1259 263.709 -11.3406 -8.78810
  1260 191.857 -13.2154 -4.64194
  1261 236.200 -25.7088 10.6308
  1262 230.973 -11.3726 2.22551
  1263 8.37271 0.787380 -10.1360
  1264 316.565 -19.4996 29.5811
  1265 256.141 -16.6319 -8.91361
  1266 9.23884 1.22973 11.2894
  1267 263.564 -21.3913 -47.1205
  1268 249.377 14.8694 -102.618
  1269 411.204 51.4602 -10.0743
  1270 332.795 -0.164770 -0.110447
  1271 332.184 -0.473762 0.305761
  1272 260.613 -15.0733 9.58865
  1273 99.4237 11.8521 -37.8856
  1274 297.007 -26.5843 23.9886
  1275 506.666 115.460 52.0781
  1276 124.086 42.1429 95.8787
  1277 3.31615 0.140156 7.92994
  1278 3.44723 0.203151 -7.83947
  1279 312.499 -25.5779 -24.7531
  1280 124.175 -6.69015 -6.56846
  1281 124.149 -6.70700 6.43876
  1282 290.395 -19.2520 36.0658
  1283 9.27337 0.0979686 6.44753
  1284 9.16295 0.103668 -6.44617
  1285 -1.63373 -6.12574 8.43395
  1286 -1.62287 -6.11260 -8.43491
  1287 49.8450 -1.72609 -5.56726
  1288 49.8972 -1.73647 5.52847
  1289 151.758 -10.0967 -21.9795
  1290 152.716 -4.88940 1.13967
  1291 152.712 -5.00187 -1.08130
  1292 331.480 -0.159495 -0.00366575
  1293 293.118 -4.43024 -15.1409
  1294 22.6109 1.12308 -8.03988
  1295 22.7182 1.10666 8.04166
  1296 152.367 -10.6872 21.7902
  1297 334.828 -0.293637 0.103194
  1298 316.014 -0.160991 -0.350032
  1299 316.012 -0.349870 0.267165
  1300 416.462 87.0111 6.16662
  1301 307.616 -1.93061 -2.48988
  1302 272.755 -2.56163 0.388551
  1303 302.240 -4.44634 -7.98356
  1304 329.619 -0.992406 1.14943
  1305 341.951 34.8486 39.3347
  1306 396.524 81.9079 11.1848
  1307 319.656 -1.20799 -4.07149
  1308 -2.59165 -0.670002 2.33368
  1309 -2.60190 -0.669492 -2.34069
  1310 176.093 -10.9589 4.70787
  1311 176.057 -10.4665 -4.55726
  1312 345.082 38.6920 -37.5102
  1313 71.0474 24.4480 -41.4767
  1314 71.5056 23.7697 41.0145
  1315 231.210 -0.00267320 -17.8126
  1316 239.514 -3.59081 -0.105724
  1317 239.221 -3.55903 0.0562327
  1318 -5.83192 -1.00751 8.59617
  1319 -5.82123 -0.992131 -8.59257
  1320 265.223 -0.684194 14.1538
  1321 404.778 80.5375 -0.156372
  1322 26.6831 -1.07634 -3.51183
  1323 26.7497 -1.07888 3.48168
  1324 299.108 -28.9328 13.6110
  1325 0.210472 4.80042 7.59552
  1326 0.297011 4.82968 -7.53987
  1327 53.1426 -1.20367 -1.12475
  1328 53.1588 -1.18385 1.10473
  1329 231.277 -0.376035 18.0808
  1330 7.00661 0.514199 -0.526676
  1331 7.04339 0.516163 0.516611
  1332 304.997 -3.40797 5.21207
  1333 424.097 77.5347 3.60313
</Section>

newXOutput 39

<Section columns = "stress_xx | stress_yy | stress_xy">
  1 348.986 -0.847240 0.632251
  2 349.557 -1.11643 -0.821508
  3 3.68006 0.332849 -0.914763
  4 -0.239262 -0.368885 -0.233302
  5 645.596 251.838 209.055
  6 655.555 288.716 -211.336
  7 -0.236580 -0.366546 0.229828
  8 3.66368 0.330997 0.912573
  9 351.413 -0.594846 -0.578052
  10 348.721 -1.15316 -0.825747
  11 348.922 -0.887621 0.805741
  12 347.099 -0.428656 0.385085
  13 346.326 -1.08001 -0.168187
  14 345.638 -1.03136 1.44838
  15 340.370 -0.699572 1.42300
  16 341.587 -2.44036 2.10755
  17 330.567 -2.00475 4.47250
  18 323.495 -0.845410 5.36893
  19 313.808 -1.07209 5.77539
  20 297.088 -0.947466 8.02169
  21 278.961 -0.826103 9.28804
  22 256.429 1.15338 12.6934
  23 225.654 1.77977 11.4724
  24 213.369 -0.155372 16.3970
  25 175.129 2.50669 11.6460
  26 151.976 3.32932 9.10952
  27 145.951 1.54269 6.71104
  28 139.486 4.85202 0.487523
  29 143.016 5.26409 -8.97015
  30 150.153 1.47886 -11.2678
  31 178.620 0.590603 -15.0704
  32 207.421 -1.46399 -15.6955
  33 226.759 1.47301 -11.4571
  34 256.768 1.31587 -12.7010
  35 278.220 -0.984768 -9.95004
  36 298.949 -1.09651 -7.57576
  37 312.510 -0.764245 -5.86283
  38 322.505 -0.893040 -4.93698
  39 333.178 -1.15081 -2.87681
  40 337.436 -1.13828 -2.76290
  41 341.565 -1.08163 -2.42417
  42 345.782 -1.24258 -0.518533
  43 347.433 -1.59574 -1.01760
  44 345.468 0.187951 -0.104448
  45 348.525 -0.798384 -0.903917
  46 350.126 -1.72655 0.900287
  47 351.861 -0.975117 -0.0488220
  48 333.762 0.344619 -0.526217
  49 313.523 -1.11777 -0.996751
  50 290.695 -2.77421 -1.45996
  51 267.141 -2.22600 -1.06500
  52 246.665 -3.79605 -0.981241
  53 225.107 -4.15370 -0.902732
  54 203.411 -3.61146 -0.466761
  55 180.648 -3.91563 -0.629057
  56 161.431 -4.23748 -0.817752
  57 135.912 -4.08928 -0.676599
  58 109.680 -2.54085 -0.433097
  59 88.0075 -1.62102 -0.349460
  60 61.2715 -1.02274 -0.163539
  61 41.8472 -1.03022 -1.35296
  62 23.7920 -1.46682 -0.457517
  63 5.58975 0.170435 0.807560
  64 0.904955 1.27574 0.292890
  65 -0.386503 0.521510 0.834675
  66 0.354215 0.236714 0.813465
  67 -3.29091 0.735892 0.331891
  68 -4.65773 0.959252 1.71412
  69 -5.12294 0.333510 0.584430
  70 -11.3210 0.706267 0.647495
  71 -14.1840 0.495656 1.63877
  72 -15.2323 0.172142 1.71470
  73 -21.9702 0.668424 1.32104
  74 -24.4579 0.994158 2.54074
  75 -27.1737 0.603276 0.889702
  76 -30.4232 0.436565 1.34896
  77 -31.6324 0.468633 0.515769
  78 -34.7210 1.11870 -0.785827
  79 -35.0276 0.767067 -0.587977
  80 -31.8649 0.585146 -1.11295
  81 -27.3448 0.754369 -2.11484
  82 -22.1779 0.327539 -3.19263
  83 -16.4951 0.177498 -3.31906
  84 -9.89051 -0.343037 -3.47470
  85 -4.27917 -0.272345 -2.02227
  86 -1.78881 -0.718251 -1.25918
  87 -0.304022 -1.80556 -1.08639
  88 -0.516017 -4.61337 -1.94445
  89 -0.585435 -9.07972 -3.42566
  90 -0.124006 -17.0260 -3.71087
  91 0.199115 -23.5918 -4.67061
  92 0.474588 -33.9428 -3.81579
  93 1.43717 -40.3278 -4.50650
  94 0.237379 -43.5389 -3.75076
  95 -0.0696867 -49.9996 -2.28562
  96 1.38007 -48.6418 -0.641995
  97 5.56743 -63.1209 2.51328
  98 4.91671 -34.4081 8.47359
  99 11.7602 -15.6768 18.8697
  100 35.5245 55.9230 59.7749
  101 152.679 192.650 171.543
  102 845.991 89.5121 125.849
  103 705.622 24.9102 45.1177
  104 671.391 10.6278 15.5583
  105 652.279 6.99204 -0.0805360
  106 664.393 10.1251 -12.7628
  107 712.384 21.2801 -37.4017
  108 837.159 71.2304 -117.351
  109 98.9341 218.543 -141.931
  110 24.9348 40.1762 -46.0999
  111 8.65671 -21.5246 -15.5958
  112 4.45314 -37.8519 -7.23737
  113 5.54024 -65.5847 -1.91328
  114 1.32070 -49.7383 1.06882
  115 -0.150589 -50.5502 2.50857
  116 0.185649 -43.7531 3.87049
  117 1.40913 -40.3800 4.55731
  118 0.463789 -33.9261 3.83473
  119 0.190894 -23.5599 4.67763
  120 -0.128023 -16.9848 3.70890
  121 -0.585987 -9.05334 3.41861
  122 -0.517136 -4.59048 1.93777
  123 -0.303831 -1.79698 1.08044
  124 -1.77849 -0.717300 1.25423
  125 -4.26091 -0.273540 2.01696
  126 -9.86731 -0.345840 3.47165
  127 -16.4686 0.174443 3.31997
  128 -22.1639 0.324222 3.19861
  129 -27.3528 0.752047 2.12632
  130 -31.8954 0.585003 1.12520
  131 -35.0868 0.766454 0.599861
  132 -34.8039 1.11871 0.798124
  133 -31.7419 0.469901 -0.505201
  134 -30.5524 0.438118 -1.34129
  135 -27.3122 0.605021 -0.883769
  136 -24.6069 0.996206 -2.53861
  137 -22.1226 0.670318 -1.31929
  138 -15.3817 0.173295 -1.71547
  139 -14.3329 0.497632 -1.64155
  140 -11.4621 0.709060 -0.651529
  141 -5.24574 0.335383 -0.591754
  142 -4.76164 0.961112 -1.72480
  143 -3.37838 0.736362 -0.341389
  144 0.291751 0.236336 -0.822618
  145 -0.430208 0.520559 -0.841998
  146 0.873557 1.27404 -0.299278
  147 5.56875 0.169380 -0.811254
  148 23.7724 -1.47217 0.453622
  149 41.8286 -1.04391 1.34861
  150 61.2586 -1.04713 0.157899
  151 88.0022 -1.65638 0.346481
  152 109.674 -2.58194 0.432548
  153 135.897 -4.12494 0.682023
  154 161.390 -4.25551 0.829255
  155 180.580 -3.89407 0.656473
  156 203.311 -3.53095 0.498554
  157 224.967 -3.96292 0.854128
  158 246.769 -3.84962 0.863454
  159 267.218 -2.56329 1.12333
  160 290.925 -2.71188 1.33174
  161 314.160 -0.935605 1.01037
  162 333.182 0.324849 0.510701
  163 192.057 -17.2803 -15.2118
  164 191.272 -17.5930 15.1769
  165 57.0106 15.8437 -22.4433
  166 57.5774 15.9035 22.3419
  167 227.305 -11.1258 58.1136
  168 238.410 -12.5640 -56.5321
  169 110.158 -5.74034 6.94241
  170 110.150 -5.68263 -7.05008
  171 242.995 -8.27476 1.74738
  172 238.042 -8.29854 -1.66886
  173 323.128 58.4201 -8.48039
  174 328.974 1.99429 -43.2318
  175 322.295 4.56584 46.3311
  176 76.2219 -2.84437 -15.0095
  177 76.2222 -2.82225 14.9759
  178 284.294 -28.2074 15.8907
  179 283.948 -21.8590 -21.8668
  180 3.61488 6.38117 7.22283
  181 3.73148 6.42254 -7.15386
  182 388.340 78.8660 13.5566
  183 74.0616 32.9742 -51.6625
  184 79.5440 33.2966 55.4857
  185 275.024 -12.6815 10.4658
  186 412.839 86.2555 -6.98307
  187 177.204 -6.26570 -1.79183
  188 176.911 -6.43496 1.77206
  189 282.946 -8.75229 -9.51245
  190 377.665 -3.07170 -3.94040
  191 67.9360 -2.02986 2.60790
  192 67.9191 -2.04841 -2.64906
  193 28.8796 3.81462 -9.97607
  194 29.0132 3.77545 9.99878
  195 157.957 -6.07236 -36.0966
  196 157.338 -6.41059 36.5668
  197 188.907 -12.1238 -4.97429
  198 189.287 -12.0557 5.34428
  199 47.9080 -1.67787 7.91056
  200 47.8407 -1.65451 -7.93059
  201 373.651 -7.36624 23.2643
  202 304.755 -30.2301 -7.23388
  203 290.012 -2.75301 -1.54957
  204 283.423 -3.37602 1.59450
  205 285.986 33.4901 32.5562
  206 11.9866 9.99781 -3.41240
  207 12.4327 9.97408 3.61048
  208 285.988 -11.5713 37.9071
  209 262.195 19.9532 -37.1124
  210 187.453 41.6402 -120.218
  211 197.104 35.1496 111.652
  212 4.40819 6.26006 -0.371969
  213 4.51845 6.25813 0.424125
  214 285.006 -10.2210 -39.1394
  215 497.858 69.9177 -4.61371
  216 236.924 -25.9047 20.2220
  217 238.741 -25.7527 -19.0773
  218 236.798 -16.7806 -2.04049
  219 294.621 -4.48117 5.12695
  220 141.356 -9.62389 -13.0095
  221 139.099 -9.58362 13.4376
  222 84.5558 1.78943 -22.8159
  223 84.6736 1.75557 22.6142
  224 301.997 -32.1061 -2.44000
  225 234.804 -17.8513 1.03267
  226 293.588 -4.36177 -4.06838
  227 227.910 -5.65443 0.272157
  228 229.927 -5.25415 0.165449
  229 289.208 -12.8474 22.0672
  230 23.8073 0.265629 -8.43203
  231 23.9103 0.254078 8.42925
  232 -3.72112 -2.52098 -9.85595
  233 -3.73998 -2.54402 9.86428
  234 42.6711 -1.89146 -4.54864
  235 42.7266 -1.89601 4.50921
  236 120.972 -3.52238 3.06889
  237 121.003 -3.58807 -3.09535
  238 139.944 9.61280 -53.1196
  239 139.959 8.00371 52.5111
  240 293.396 -9.06055 -18.8682
  241 136.844 -7.94451 -21.5637
  242 136.957 -8.18895 21.2427
  243 257.407 3.86614 41.9069
  244 224.170 19.2944 2.53220
  245 251.521 -25.0333 -1.72154
  246 1.04403 -6.36725 -9.10055
  247 0.959739 -6.43361 9.17414
  248 15.9286 15.6964 -17.4093
  249 16.9679 15.1170 18.3345
  250 247.286 -24.4844 0.0603524
  251 447.761 82.7772 -4.53079
  252 22.7707 15.4788 -7.10711
  253 23.0490 15.4708 7.19680
  254 -9.71138 2.04145 6.80065
  255 -9.66295 2.05204 -6.76735
  256 450.270 77.3478 6.99417
  257 156.006 -7.40003 -4.88386
  258 155.884 -7.27780 4.77451
  259 307.451 -20.9075 35.3879
  260 557.499 90.6264 55.7279
  261 90.7589 -4.74923 -12.2738
  262 90.7359 -4.78267 12.2592
  263 312.673 46.7422 -31.2964
  264 537.637 101.997 -50.4726
  265 374.899 36.9940 30.6447
  266 408.604 24.2984 -75.0309
  267 251.666 -11.7514 4.35684
  268 285.824 1.21751 -47.1674
  269 271.226 -19.0721 -12.7187
  270 302.671 -5.33448 11.9975
  271 -0.561243 2.88450 -2.89747
  272 -0.451016 2.87516 2.93425
  273 299.893 -10.4388 -72.8525
  274 31.5187 9.81595 -10.0019
  275 31.6711 9.79739 10.0580
  276 289.844 -6.99796 -24.0035
  277 41.2738 41.7722 -53.6107
  278 32.9372 -0.148641 -1.04322
  279 32.9631 -0.140976 1.02625
  280 306.266 -19.1818 -36.8831
  281 53.2830 23.9280 -28.4320
  282 54.0577 23.7949 28.5113
  283 14.2364 -0.465846 5.90724
  284 14.1289 -0.459893 -5.91271
  285 251.306 -11.1403 -4.23623
  286 41.5575 41.3155 55.0813
  287 401.869 29.1974 88.1788
  288 108.226 -4.23977 -4.13533
  289 108.202 -4.21145 4.07091
  290 200.356 -8.15194 -1.47821
  291 200.256 -8.84085 1.70085
  292 171.037 16.2416 -81.1356
  293 276.495 -30.3361 -5.34762
  294 315.859 -1.82069 2.27945
  295 164.698 16.2086 78.4540
  296 191.745 -5.06112 -0.470723
  297 191.671 -5.05700 0.638120
  298 271.654 -19.8595 12.9633
  299 312.914 -3.21932 -5.71193
  300 -2.88228 1.17246 -4.52955
  301 -2.76122 1.16370 4.54643
  302 392.077 78.1765 -3.78865
  303 344.093 -16.3047 19.4745
  304 311.243 -1.49245 -0.622578
  305 316.769 -1.29662 0.563701
  306 309.874 -27.5598 25.5553
  307 382.286 39.4903 -28.5991
  308 333.052 62.0144 18.1399
  309 148.914 -9.05505 -8.04012
  310 147.543 -9.22264 8.20700
  311 315.528 -1.76140 -1.55820
  312 206.006 -15.6591 -39.6209
  313 202.553 -15.9058 6.38470
  314 193.136 -10.6332 45.2844
  315 310.145 -3.63734 6.80849
  316 68.8087 -3.16008 -7.62832
  317 68.8515 -3.18349 7.59197
  318 285.633 -9.94935 72.0060
  319 180.408 -14.2055 -10.0034
  320 332.858 42.5322 39.2950
  321 105.332 7.42402 -34.2103
  322 101.381 7.75908 33.9183
  323 29.0991 -0.636019 -1.89645
  324 29.1440 -0.631615 1.86942
  325 273.717 -5.38688 3.07215
  326 262.442 -3.58530 0.479875
  327 260.952 -3.94122 -0.571261
  328 287.628 -7.37236 25.4184
  329 23.2956 -0.902882 4.37811
  330 23.2057 -0.894296 -4.40000
  331 82.3557 -1.93587 -1.57368
  332 82.3587 -1.90242 1.55565
  333 2.69460 -13.3853 -5.20951
  334 2.51263 -13.4901 5.42644
  335 222.078 9.56849 28.3938
  336 347.457 -15.3819 -16.0479
  337 224.091 -11.7901 1.22092
  338 253.815 -4.96788 -1.65504
  339 264.116 32.8725 -17.4654
  340 50.7418 -1.61050 -11.1054
  341 50.8061 -1.61151 11.0939
  342 217.830 -11.1093 -0.0670333
  343 60.8086 2.13033 -16.0128
  344 60.9232 2.07699 15.9594
  345 11.5898 9.99892 0.233646
  346 11.7362 9.99653 -0.171923
  347 265.375 -28.5956 26.2165
  348 591.190 39.0446 15.1450
  349 234.613 3.46205 -33.6410
  350 196.825 -17.6562 24.0625
  351 195.822 -17.3050 -24.8121
  352 290.787 -5.04107 46.7358
  353 257.974 -1.92415 33.2867
  354 261.891 -27.6506 -27.0937
  355 155.071 -3.85953 0.158427
  356 155.048 -3.90687 -0.119489
  357 289.706 -18.9338 28.8716
  358 396.685 79.1585 2.17953
  359 311.629 -3.44955 -8.87065
  360 78.4782 -2.99612 -5.47545
  361 78.5077 -2.99848 5.41654
  362 293.192 -28.0485 -32.7129
  363 307.273 21.2867 -46.6732
  364 204.083 10.9823 -18.2093
  365 291.714 -19.5255 -32.9506
  366 -9.57158 0.308861 -7.60909
  367 -9.58228 0.297312 7.61900
  368 245.058 -5.68615 1.07095
  369 -3.48655 -2.07925 -4.50946
  370 -3.48247 -2.08000 4.50031
  371 189.824 93.1420 -146.521
  372 7.37428 6.49500 5.02383
  373 7.56310 6.54720 -4.92300
  374 255.956 -2.03227 -33.0093
  375 140.707 -5.92604 3.67190
  376 140.810 -6.00770 -3.71701
  377 -0.989987 -10.3563 8.66082
  378 -0.974081 -10.3373 -8.65155
  379 154.078 97.7191 137.876
  380 115.061 -6.08619 -16.7706
  381 115.149 -5.82069 16.7834
  382 36.5666 26.7963 -26.2332
  383 37.3428 26.7167 26.0766
  384 -14.7810 2.20246 2.81403
  385 -14.7148 2.20580 -2.77858
  386 296.299 19.6133 46.6971
  387 227.358 -23.7964 11.0243
  388 227.597 -20.7090 3.96278
  389 276.214 -31.4476 -2.99122
  390 68.3503 8.60335 -22.3400
  391 68.5778 8.58638 22.3028
  392 6.06791 -9.44968 0.364827
  393 5.73265 -9.59206 0.113104
  394 278.453 39.8462 11.5258
  395 281.919 -7.97013 7.82152
  396 160.339 -12.4040 15.3456
  397 98.7455 -2.46031 -20.1562
  398 98.7795 -2.47849 19.9978
  399 204.982 -6.09054 -0.487257
  400 204.757 -5.32810 0.313028
  401 158.990 -12.7424 -16.3316
  402 124.091 -2.08249 -27.4181
  403 124.069 -2.25484 27.6391
  404 293.671 -26.9869 -20.4525
  405 169.740 -12.9952 9.47766
  406 267.261 -8.04080 4.76201
  407 266.784 -7.31288 -4.00489
  408 223.370 -20.5536 -4.77370
  409 322.111 -1.33101 -2.41063
  410 107.408 43.2071 -82.2511
  411 302.282 -4.33132 14.6393
  412 321.068 -1.61777 3.56025
  413 113.066 -6.02059 9.97636
  414 113.119 -5.93789 -9.96818
  415 226.330 -23.5104 -11.4210
  416 31.8179 14.2718 10.7603
  417 31.6451 14.2626 -10.7711
  418 597.336 39.0152 -30.9936
  419 261.769 -14.8605 -7.40828
  420 324.525 -1.05914 1.38923
  421 101.371 40.2844 78.2750
  422 478.381 80.6470 15.1967
  423 281.242 -4.16362 -2.45697
  424 209.532 -15.1341 -3.67909
  425 86.8738 16.7821 -38.6993
  426 92.6116 15.5615 38.4685
  427 258.582 -16.3234 7.49571
  428 273.672 -3.54733 -24.5245
  429 -3.02239 -0.245167 4.41913
  430 -3.14863 -0.242257 -4.41679
  431 98.3471 23.6165 -52.1178
  432 98.6590 23.7036 51.9557
  433 11.1859 5.46300 -4.49617
  434 11.3079 5.45065 4.54206
  435 231.936 -4.36467 0.531309
  436 231.657 -4.24683 -0.451604
  437 288.760 -13.1424 -23.0655
  438 -0.867793 -0.927098 10.6677
  439 -0.816208 -0.881827 -10.6289
  440 297.560 -29.4176 17.9831
  441 281.589 -7.43351 -6.92697
  442 455.184 87.1808 -13.0247
  443 16.5715 -0.815867 2.04975
  444 16.4952 -0.816035 -2.07333
  445 549.154 154.341 68.5304
  446 10.8916 3.62022 -15.7870
  447 32.9993 1.64653 -10.7990
  448 33.1096 1.62025 10.7959
  449 547.469 157.815 -65.7037
  450 11.5472 4.84688 17.4250
  451 -14.3514 1.71873 0.840404
  452 -14.2663 1.71589 -0.807006
  453 30.0333 20.5381 -15.1984
  454 30.5575 20.5437 15.2828
  455 355.388 55.5321 -32.5090
  456 285.634 -11.1022 -14.9639
  457 322.768 -1.14196 -1.23440
  458 298.322 -4.55480 -17.1551
  459 -3.59915 2.11247 9.77196
  460 -3.54668 2.14145 -9.73554
  461 288.574 -11.5832 17.3803
  462 186.818 -10.4243 -3.92089
  463 186.238 -10.5333 3.28563
  464 254.269 -28.0564 -3.63986
  465 181.034 -2.57401 -55.6819
  466 276.467 -4.25708 25.0693
  467 226.356 -7.20912 -0.245457
  468 333.318 -25.1758 -3.21794
  469 175.340 1.48323 59.7445
  470 12.1876 -0.241068 4.26628
  471 12.0786 -0.235840 -4.27682
  472 364.963 72.1851 -14.7317
  473 292.849 -2.07648 0.189983
  474 291.835 -2.36454 -0.458839
  475 220.202 -14.6212 1.16488
  476 95.1274 -3.19172 -3.03532
  477 95.1184 -3.15280 2.99514
  478 55.8925 -0.636732 -13.1622
  479 55.9559 -0.647851 13.1332
  480 183.367 7.10953 10.8780
  481 45.3995 -1.53394 6.31792
  482 45.3359 -1.51905 -6.35206
  483 49.1448 4.76657 14.8197
  484 48.9814 4.83719 -14.8086
  485 283.453 -21.9382 21.0218
  486 157.939 -9.82107 -25.7272
  487 145.487 -4.63050 1.86154
  488 145.542 -4.74846 -1.86563
  489 159.616 -10.1316 25.7182
  490 443.345 104.988 -8.48180
  491 -7.09193 -1.07875 -5.86552
  492 -7.08840 -1.08433 5.86246
  493 110.116 -3.03928 -1.25285
  494 110.113 -2.99114 1.24708
  495 0.118773 -19.1557 -7.27299
  496 0.0724842 -19.2180 7.33660
  497 258.946 -3.76262 0.952540
  498 182.196 8.71237 -5.41876
  499 246.420 25.8603 15.6702
  500 157.002 -1.52231 -44.2488
  501 76.0717 -3.89707 9.59109
  502 76.0664 -3.86392 -9.60973
  503 -20.2950 0.644282 -1.45492
  504 -20.1786 0.640437 1.47000
  505 305.907 -5.84372 -46.4316
  506 22.9016 0.155372 -1.39790
  507 22.9383 0.159331 1.37851
  508 254.662 -20.0150 -6.17917
  509 271.485 -23.1011 -12.3402
  510 55.1347 41.7429 -55.4276
  511 228.110 6.00797 -88.1696
  512 2.71058 6.77703 4.73662
  513 2.81923 6.79104 -4.67653
  514 138.602 -6.35028 -5.39053
  515 138.529 -6.29051 5.26582
  516 392.880 15.9682 -10.0266
  517 282.339 -16.6312 -19.0590
  518 53.7422 39.4433 54.6375
  519 279.762 -31.7708 7.34260
  520 268.959 -25.5576 9.68093
  521 55.8590 -1.35510 -4.14084
  522 55.8915 -1.34933 4.09717
  523 219.544 2.34444 26.0395
  524 159.059 -11.6669 -10.0778
  525 298.065 -6.53484 10.8780
  526 -1.22669 -7.23563 -5.69223
  527 -1.22974 -7.23030 5.68432
  528 208.329 -18.4683 28.8656
  529 317.702 -24.4425 -24.3122
  530 415.208 28.2546 -13.7958
  531 223.587 -7.47824 0.377750
  532 65.1341 -1.19852 -1.21740
  533 65.1452 -1.17410 1.20547
  534 141.080 1.15020 42.5997
  535 396.074 65.9921 22.1123
  536 403.837 77.6197 -139.938
  537 361.006 1.69520 23.2914
  538 259.358 -28.8343 2.24318
  539 616.159 48.9897 41.5055
  540 454.463 109.507 12.4334
  541 63.0259 -2.61788 10.4831
  542 62.9810 -2.59128 -10.5030
  543 249.263 -20.6070 4.61787
  544 18.1904 8.88158 -4.10929
  545 18.3295 8.87582 4.16377
  546 313.788 -26.1876 24.3089
  547 255.369 13.7232 38.4911
  548 316.385 -1.98883 6.04875
  549 233.225 -13.8951 2.09152
  550 327.943 2.12511 -92.9440
  551 521.498 132.855 90.9068
  552 253.175 -4.83661 -0.841615
  553 310.594 -3.12536 -9.70883
  554 48.3108 20.1955 -21.1755
  555 48.6629 19.9513 21.0761
  556 176.774 -6.99911 -2.52091
  557 176.691 -6.82843 2.57754
  558 2.03408 -23.3025 -2.32270
  559 316.596 -11.4383 41.4475
  560 11.9065 10.8037 1.45171
  561 12.0981 10.8327 -1.36210
  562 2.38664 -22.5300 2.99685
  563 287.944 -13.1587 -33.4863
  564 331.489 20.7111 -44.7780
  565 330.268 23.4999 44.7740
  566 15.7119 13.0768 11.4671
  567 14.9137 13.4005 -11.2048
  568 -9.94108 0.310584 3.31916
  569 -10.0712 0.313710 -3.31303
  570 305.372 7.15916 95.8746
  571 166.094 -9.11395 5.28018
  572 166.263 -9.08125 -5.39541
  573 368.568 -7.17708 -48.5307
  574 46.0376 -0.636678 2.40454
  575 46.0108 -0.647622 -2.43374
  576 20.3012 -0.579365 -0.571331
  577 20.3241 -0.575553 0.564550
  578 404.001 73.0779 -18.0375
  579 38.2858 55.0309 -61.3534
  580 209.680 4.16158 -22.0463
  581 297.798 47.6346 -19.6484
  582 4.31256 -0.351692 6.67704
  583 4.49324 -0.287645 -6.55575
  584 304.261 136.859 164.814
  585 256.971 -7.01524 -2.68180
  586 8.43993 2.62699 -5.52221
  587 8.55952 2.60795 5.54998
  588 296.807 -23.9371 28.9220
  589 45.3110 53.2772 62.4739
  590 213.639 -4.35239 0.211712
  591 213.697 -4.31415 -0.212586
  592 -0.239952 -15.2017 7.52139
  593 -0.216814 -15.1766 -7.49657
  594 364.423 71.2078 -0.583368
  595 231.484 -18.7466 41.3184
  596 220.864 -9.31784 0.116490
  597 222.498 9.73574 93.0439
  598 -18.5059 0.932987 4.53773
  599 -18.4870 0.938037 -4.51959
  600 365.524 4.34528 -24.9989
  601 489.128 80.0940 -64.5460
  602 138.065 13.9541 -61.6667
  603 73.8772 -3.07166 -12.8089
  604 73.9441 -3.07187 12.8094
  605 331.401 -1.01658 1.71579
  606 218.653 -9.52296 -0.395518
  607 294.040 -3.87322 3.79435
  608 287.967 -13.1530 32.7046
  609 10.5936 -0.471408 2.10948
  610 10.4990 -0.469361 -2.12704
  611 169.864 -5.80560 -1.45101
  612 169.839 -5.64161 1.39784
  613 105.593 2.35318 -28.2938
  614 104.904 2.38283 28.1634
  615 417.815 23.7099 23.5611
  616 684.836 51.6063 -74.9962
  617 -6.38233 -0.413581 2.91272
  618 -6.51605 -0.412164 -2.91254
  619 99.2791 -4.14683 5.62341
  620 99.2757 -4.14222 -5.70440
  621 388.805 20.5612 15.3420
  622 327.767 -1.05484 -0.545188
  623 327.035 -1.57052 0.239462
  624 234.810 -0.122214 25.7974
  625 341.976 -20.5251 -29.3241
  626 184.463 -15.0752 12.0512
  627 -4.53555 4.14783 -4.33592
  628 -4.61690 4.14163 4.38277
  629 296.405 5.88808 48.7039
  630 116.495 -6.64999 -13.3426
  631 116.378 -6.76214 13.3689
  632 241.628 -13.8589 -2.99108
  633 299.486 -6.42958 -9.84936
  634 169.787 -13.4879 -18.4796
  635 278.562 33.5777 -29.5888
  636 188.080 -13.0111 -33.5639
  637 67.6202 -1.80652 -2.12035
  638 67.6315 -1.78416 2.09016
  639 171.573 -13.7346 18.5489
  640 370.628 59.5378 29.2876
  641 294.548 -14.4293 41.2007
  642 241.170 -10.5953 2.73763
  643 171.723 -4.43691 1.01964
  644 171.679 -4.44754 -0.986390
  645 128.844 -4.72438 -3.97216
  646 128.794 -4.67089 3.92628
  647 283.808 -26.0724 -16.9704
  648 142.528 -7.98194 6.97166
  649 142.686 -7.95042 -7.12342
  650 283.176 43.7941 -3.97729
  651 262.240 -13.6581 7.46739
  652 329.496 -1.45285 -2.64880
  653 278.134 -5.21770 -42.8257
  654 38.8703 -1.74019 8.41105
  655 38.7924 -1.72769 -8.42006
  656 321.118 -1.69346 -5.47495
  657 56.4398 29.0354 -38.8362
  658 57.4132 28.9605 39.0278
  659 327.297 -20.2786 40.9979
  660 111.565 27.6859 64.9394
  661 26.3281 -0.138177 8.41990
  662 26.2340 -0.131855 -8.42544
  663 278.342 -18.3586 53.4886
  664 274.748 37.6262 -127.147
  665 265.853 8.22916 -42.6795
  666 351.343 63.4644 25.1412
  667 236.969 -10.3693 -1.67877
  668 426.830 77.0755 -1.87028
  669 -21.0675 0.973929 -0.856316
  670 -20.9687 0.971311 0.877778
  671 188.689 0.645388 -65.3901
  672 11.3295 -0.273764 1.64134
  673 11.2628 -0.274482 -1.65930
  674 237.181 -20.1641 -40.8286
  675 77.6967 10.7488 -27.2477
  676 77.0689 10.7848 27.2314
  677 1.06002 3.93512 -1.42609
  678 1.16737 3.92957 1.47168
  679 201.093 -17.3127 -8.84084
  680 285.290 -2.80453 -16.4698
  681 134.892 -4.08117 -1.44727
  682 134.896 -4.03339 1.45922
  683 97.1498 -4.93464 -8.48435
  684 97.2244 -5.00436 8.45036
  685 18.2405 15.0139 -4.81210
  686 18.5504 15.0448 4.91582
  687 293.599 -3.32332 1.94343
  688 128.943 -8.13016 11.0565
  689 129.786 -7.98493 -11.0449
  690 324.721 -26.3470 -4.82636
  691 267.101 -26.8504 -6.79227
  692 209.551 -5.73517 0.0138855
  693 208.801 -5.33165 0.0934491
  694 294.600 -31.4096 15.1302
  695 479.058 96.4941 24.5259
  696 258.706 -11.9216 -66.6873
  697 296.329 -8.20010 17.3323
  698 293.833 -11.0904 -44.1468
  699 90.0740 -2.76037 -3.94667
  700 90.0716 -2.73847 3.89304
  701 229.800 -4.30551 74.9021
  702 647.102 82.7380 75.9201
  703 43.4046 12.7812 -15.4626
  704 43.4683 12.8659 15.5141
  705 292.714 -2.64948 -0.988554
  706 295.061 -2.36487 1.00709
  707 123.625 61.5547 -105.981
  708 310.553 -1.61411 9.68194
  709 268.455 -4.39947 1.61668
  710 352.914 70.0868 -9.34346
  711 35.2282 6.43193 -11.1179
  712 35.3838 6.39098 11.1599
  713 334.552 -0.755097 0.315935
  714 269.804 -10.2342 -7.25556
  715 336.576 -5.49698 36.4847
  716 136.596 -9.51993 -17.5326
  717 136.940 -9.10588 17.3585
  718 29.7758 -1.06133 6.36825
  719 29.6895 -1.04778 -6.38717
  720 306.091 -1.90675 -1.77972
  721 263.663 50.4836 135.066
  722 1.78793 1.83815 8.96572
  723 1.88567 1.89569 -8.89860
  724 306.644 -3.15681 -4.59275
  725 297.599 -5.30534 6.54122
  726 233.663 0.123360 -27.6690
  727 2.18726 -27.5263 -3.71499
  728 2.04155 -27.7925 3.98268
  729 107.305 28.5171 -64.9292
  730 236.689 -23.8749 -29.2031
  731 122.644 61.0207 107.024
  732 330.054 -0.739239 1.04889
  733 316.447 47.2961 31.4509
  734 229.360 20.8513 -10.9068
  735 415.604 83.7974 -0.309762
  736 325.640 -1.29382 3.56991
  737 -20.2398 0.479876 2.33372
  738 -20.3680 0.482521 -2.32424
  739 346.227 -20.3118 8.00484
  740 223.191 -6.22756 -0.00485836
  741 80.1371 0.185034 -19.3040
  742 80.2406 0.104145 19.1877
  743 297.764 -3.31568 -2.73093
  744 526.670 74.6202 -26.6732
  745 33.5431 -1.01348 -3.95292
  746 33.6144 -1.01952 3.92199
  747 332.353 -0.827309 -1.66653
  748 64.2527 -2.87884 -5.52240
  749 64.2927 -2.88905 5.47666
  750 323.929 -13.2513 -37.5202
  751 299.053 -3.10353 13.3120
  752 267.288 -1.88481 42.2909
  753 333.019 -0.861645 -0.0410111
  754 310.359 -2.20490 3.52738
  755 201.701 -10.6961 -1.68211
  756 253.671 -6.45839 2.05010
  757 288.282 -17.7631 -28.0452
  758 281.276 -17.6263 18.4190
  759 329.237 39.5404 -39.7045
  760 277.453 -15.4625 13.7431
  761 292.893 -17.4423 35.7586
  762 168.991 -11.3268 7.19312
  763 5.99964 -2.24882 -0.905398
  764 5.67458 -2.26840 1.21302
  765 256.930 -3.64082 0.0413418
  766 256.381 -3.61301 -0.137346
  767 309.025 -1.23515 -0.202424
  768 310.108 -1.17192 0.275857
  769 293.361 -8.19048 21.1652
  770 270.885 -25.1888 38.4748
  771 221.928 -17.9117 2.74220
  772 196.859 -11.5922 3.18096
  773 537.446 68.9317 31.1309
  774 296.892 -7.42834 -13.7229
  775 173.470 29.7124 -99.4770
  776 275.707 -13.4968 -11.9119
  777 9.91720 0.242064 -5.99878
  778 10.0340 0.231973 6.00634
  779 244.591 21.4352 -24.4578
  780 629.868 19.1335 -8.24576
  781 309.873 7.68640 -47.7461
  782 12.2498 5.46904 -23.7690
  783 318.286 57.4018 8.06438
  784 248.926 -15.6958 4.47716
  785 279.286 -7.10571 41.5691
  786 235.462 -24.9050 29.3674
  787 378.600 -3.32269 60.1039
  788 13.2033 8.35703 25.4240
  789 169.761 -1.13157 50.7918
  790 238.008 -5.92530 -0.853690
  791 265.538 -24.1144 -38.9558
  792 162.006 -12.5515 -12.7890
  793 127.855 6.05670 -44.2681
  794 307.315 -5.05174 46.7961
  795 196.573 -13.2840 5.39672
  796 36.0191 -1.05669 3.55746
  797 35.9669 -1.05806 -3.59234
  798 286.180 -1.55371 14.5956
  799 258.701 1.17912 -41.0554
  800 -22.8904 1.02486 2.85173
  801 -22.8558 1.02673 -2.83199
  802 191.233 -5.82196 -0.525521
  803 190.670 -5.49384 0.465147
  804 141.667 15.6548 62.5816
  805 125.797 -7.28859 8.25771
  806 125.977 -7.10816 -8.34978
  807 332.214 -0.577982 -0.926705
  808 114.985 9.07915 43.1142
  809 1.97456 -0.107845 2.26655
  810 1.85667 -0.105405 -2.27697
  811 282.699 -8.78135 32.2028
  812 303.400 -2.43434 1.41951
  813 -16.2083 0.180860 4.48976
  814 -16.2105 0.186031 -4.48077
  815 185.603 -11.7359 37.7797
  816 35.5227 29.4532 -32.7493
  817 35.9627 28.0582 32.2449
  818 173.481 7.71131 4.51905
  819 -4.63734 -0.171748 -2.60521
  820 -4.50370 -0.173561 2.60219
  821 213.668 -20.3734 -27.4916
  822 292.369 -30.8047 -10.6171
  823 -1.44992 -1.37814 -1.82003
  824 -1.44569 -1.37496 1.81333
  825 13.4117 0.506078 -0.525706
  826 13.4415 0.508891 0.515430
  827 259.795 -23.0733 7.12912
  828 218.362 -22.3959 18.9497
  829 242.330 -3.88710 0.754095
  830 217.776 -17.4705 -3.57407
  831 78.3072 -1.26058 -0.400522
  832 78.3139 -1.22842 0.393001
  833 -25.9418 0.549171 1.68432
  834 -25.8862 0.548437 -1.66498
  835 274.168 -3.37072 -1.30657
  836 240.632 9.36846 -34.8907
  837 277.182 -5.33591 -3.84693
  838 162.344 -12.3253 12.1644
  839 273.157 -4.84679 -33.9631
  840 293.041 -8.90026 -21.8717
  841 275.295 -2.86923 1.17533
  842 200.095 -7.81858 52.1142
  843 213.782 -20.8502 -10.4436
  844 128.197 -0.951154 -33.7852
  845 128.909 -0.0599422 33.9617
  846 181.889 -13.5250 -7.80152
  847 302.386 32.6182 40.8357
  848 287.987 -30.2453 -20.8825
  849 102.151 -3.18061 -1.96188
  850 102.140 -3.13137 1.93985
  851 219.566 -4.80634 0.0327782
  852 219.574 -4.84773 0.0225189
  853 260.781 -2.00496 -22.1791
  854 86.8500 -3.64941 -6.84329
  855 86.8949 -3.67723 6.78140
  856 1.04358 -27.5736 -5.52599
  857 0.986772 -27.6917 5.63777
  858 42.6252 -0.634075 -0.224112
  859 42.6065 -0.647682 0.215100
  860 272.041 -4.09229 -1.83615
  861 205.690 -19.5972 17.0894
  862 320.721 -27.7799 11.2523
  863 185.342 3.89807 17.3120
  864 278.146 -6.39798 4.39839
  865 303.436 -27.3695 -22.6725
  866 42.7047 2.79090 -12.8149
  867 42.8312 2.74478 12.8064
  868 241.085 -4.18465 -0.690992
  869 193.564 -6.57469 -1.35106
  870 192.882 -6.51434 1.52336
  871 298.650 46.5340 22.1288
  872 103.176 -0.981214 -23.3939
  873 103.074 -1.10261 23.2869
  874 207.614 -18.7006 8.21178
  875 19.6068 12.9053 -4.12562
  876 19.8038 12.8793 4.18112
  877 175.356 -12.5040 30.6362
  878 210.611 -13.3050 -1.75560
  879 262.343 -2.07516 22.4124
  880 259.173 -29.2501 9.05329
  881 297.180 -22.7238 -31.1487
  882 205.188 -19.7582 -17.3422
  883 170.229 -11.2782 -6.88364
  884 561.987 46.2872 -8.62295
  885 271.575 -28.8155 5.13569
  886 7.42251 8.76184 3.54983
  887 7.56345 8.77836 -3.47650
  888 235.737 -23.5850 4.08100
  889 258.810 -29.2532 -16.4155
  890 7.82730 7.70509 0.635856
  891 7.95068 7.70675 -0.579989
  892 96.3523 -3.37773 17.6460
  893 96.4153 -3.48273 -17.7560
  894 117.041 -5.87528 19.3796
  895 117.001 -6.01763 -19.5198
  896 373.316 74.9217 11.7352
  897 -0.563984 -11.5528 -5.53219
  898 -0.567985 -11.5394 5.52853
  899 84.9048 7.23974 -25.9061
  900 84.4812 7.09088 25.6429
  901 651.524 21.1248 -33.0036
  902 10.1604 -0.0562229 0.909896
  903 10.1103 -0.0583514 -0.923987
  904 1.09261 -31.8270 2.01302
  905 1.27932 -31.3024 -1.56978
  906 -12.3671 -0.163036 4.58960
  907 -12.3803 -0.159222 -4.58799
  908 67.8236 19.9783 -30.5644
  909 68.8775 19.3165 30.1207
  910 -5.50976 0.197351 -9.72824
  911 -5.53678 0.175899 9.74550
  912 18.7229 1.79191 -8.27601
  913 18.8428 1.76905 8.28755
  914 73.6977 -0.794455 16.2272
  915 73.6487 -0.790964 -16.3137
  916 59.8160 -2.02099 -13.0670
  917 59.8752 -2.01684 13.0440
  918 322.434 -1.14722 -5.36995
  919 156.156 32.8983 92.3889
  920 215.935 -21.2574 9.72832
  921 152.726 -10.8489 9.70135
  922 295.577 30.3126 -40.2960
  923 640.644 13.7807 13.1360
  924 351.698 15.5792 -38.7051
  925 56.6735 -2.17662 8.11310
  926 56.6178 -2.15143 -8.14623
  927 8.98596 -0.314961 -5.98084
  928 9.09964 -0.318226 5.97986
  929 -0.287748 -5.62011 -10.6118
  930 -0.333846 -5.66540 10.6471
  931 157.871 -6.80834 4.16952
  932 157.955 -6.94607 -4.19340
  933 18.3350 5.17174 -7.24709
  934 18.4642 5.14817 7.28653
  935 95.5667 -4.21073 -14.9208
  936 95.6290 -4.21017 14.9092
  937 207.005 -0.988822 -20.3903
  938 98.5462 -5.31680 -10.2499
  939 98.4737 -5.25702 10.2842
  940 242.792 -6.55948 -1.06841
  941 293.731 -16.9417 -38.3687
  942 127.058 -5.04287 4.54622
  943 127.121 -5.09162 -4.61360
  944 -5.29688 -0.574918 -3.21527
  945 -5.28269 -0.576295 3.20856
  946 299.813 -23.5580 -47.8763
  947 286.639 -16.7755 24.4549
  948 251.287 -17.4221 -5.68336
  949 243.792 8.23047 36.7769
  950 110.208 -6.13548 -11.5618
  951 110.204 -6.01544 11.5989
  952 273.070 10.3091 44.5491
  953 254.375 22.1393 29.3187
  954 524.089 63.1775 10.9562
  955 267.623 -9.39331 5.40796
  956 139.577 -4.00727 -2.03337
  957 139.558 -3.92364 2.05214
  958 239.272 -19.4924 -1.52431
  959 330.895 60.7743 -19.0025
  960 293.669 -2.95253 -1.96495
  961 191.695 -4.45552 0.661571
  962 191.619 -4.41941 -0.605951
  963 23.9951 20.1297 -13.9202
  964 24.6121 20.0893 14.0308
  965 46.2762 113.999 -103.180
  966 273.842 -6.54777 33.7908
  967 342.265 -6.82075 -32.6289
  968 -6.23161 3.27872 2.04509
  969 -6.14266 3.27789 -2.00104
  970 701.000 165.043 -132.188
  971 292.870 -31.9791 4.22941
  972 312.600 -29.2047 -11.5728
  973 288.197 -24.7296 22.3954
  974 355.865 70.2096 8.01794
  975 25.3763 25.8410 -30.4670
  976 65.4565 98.2311 101.018
  977 -1.80272 -4.11784 10.5647
  978 -1.77408 -4.08462 -10.5466
  979 280.726 -6.96419 5.46561
  980 450.801 79.9859 -9.22681
  981 26.1261 25.2247 31.7172
  982 -1.24654 -4.13814 -3.57523
  983 -1.24683 -4.12694 3.56616
  984 240.448 -5.33372 0.477548
  985 178.735 -14.1273 -13.3193
  986 290.426 -23.0001 -26.4581
  987 81.6294 21.9374 -40.6231
  988 82.9445 22.3024 40.7300
  989 281.654 -7.01097 -30.1907
  990 284.488 -8.82981 9.97625
  991 -7.73804 1.86834 8.59924
  992 -7.70007 1.88732 -8.57170
  993 170.675 -11.2538 -28.7686
  994 283.687 17.9628 -44.7798
  995 211.076 -7.66500 0.459270
  996 151.064 -4.13258 0.312680
  997 151.036 -4.16188 -0.295167
  998 -3.23562 -3.66991 -7.49344
  999 -3.24032 -3.67784 7.48772
  1000 288.332 -10.1128 -12.2184
  1001 274.738 -2.80193 0.359841
  1002 274.481 -2.80507 -0.246065
  1003 379.328 61.5800 -27.1739
  1004 67.2930 5.92769 -20.3137
  1005 67.4597 5.80919 20.2650
  1006 42.3026 -0.364368 -10.7977
  1007 42.3816 -0.373045 10.7828
  1008 311.868 16.4176 48.2997
  1009 295.974 -5.36859 -6.86714
  1010 51.1568 8.18746 -16.4293
  1011 51.3607 8.12534 16.4903
  1012 309.318 -1.46063 -1.16254
  1013 287.929 -12.3244 -18.4517
  1014 281.151 -31.9074 -11.1309
  1015 10.4387 8.77048 -0.585586
  1016 10.1411 8.72859 0.720417
  1017 -13.8684 2.20097 5.17591
  1018 -13.8193 2.20694 -5.14334
  1019 167.444 6.36470 -7.55974
  1020 487.746 120.220 -31.7499
  1021 221.656 -15.9912 -0.753919
  1022 145.955 -6.36603 -29.6422
  1023 357.230 -14.8462 4.25122
  1024 146.532 -6.36298 30.0645
  1025 255.264 -29.8172 19.3324
  1026 289.440 -11.9500 -27.5507
  1027 97.6446 -2.19507 -0.628390
  1028 97.6481 -2.15380 0.623757
  1029 197.019 -15.2639 -6.65108
  1030 120.090 -4.43543 -22.9688
  1031 120.040 -4.46913 22.8455
  1032 39.5153 25.7944 -24.8039
  1033 40.1493 25.7151 24.8780
  1034 81.7658 -2.56582 -2.24672
  1035 81.7676 -2.53261 2.21500
  1036 257.608 -7.91749 3.01478
  1037 217.098 0.612727 -75.8607
  1038 267.094 -8.44560 -5.36035
  1039 240.837 -26.6582 -11.3245
  1040 157.455 -6.47769 2.81143
  1041 157.588 -6.52827 -2.82215
  1042 313.538 -1.74731 1.46471
  1043 279.674 -6.41456 -5.12715
  1044 176.979 4.28891 14.2512
  1045 299.437 -2.94234 -12.3776
  1046 115.197 33.3632 73.7371
  1047 308.593 -2.81339 -10.1714
  1048 79.5736 13.4408 -30.4517
  1049 77.1641 13.5956 29.1832
  1050 369.256 -6.94122 -5.86688
  1051 32.6062 17.1455 -12.6570
  1052 32.9102 17.0205 12.6528
  1053 5.48302 -0.870845 3.67311
  1054 5.76600 -0.819773 -3.48671
  1055 45.7473 -1.23146 2.72898
  1056 45.7108 -1.23990 -2.76559
  1057 131.219 33.7846 -81.8426
  1058 724.129 186.636 142.245
  1059 287.354 -10.1106 12.5340
  1060 257.547 -28.9958 -8.06242
  1061 178.279 -14.6384 -22.0745
  1062 -3.95366 3.86358 7.56713
  1063 -3.88516 3.88479 -7.52127
  1064 201.470 -10.1600 1.27679
  1065 222.554 -8.00907 -0.345462
  1066 -0.119346 -16.3859 5.34827
  1067 -0.113765 -16.4011 -5.34656
  1068 32.8592 20.4626 -15.1557
  1069 33.2551 20.4224 15.2484
  1070 198.744 -9.31631 -1.20622
  1071 14.9774 7.22391 4.39575
  1072 14.8486 7.23429 -4.34457
  1073 304.482 -12.2109 44.4623
  1074 220.032 -22.8049 -18.8538
  1075 179.349 -14.8752 22.0725
  1076 289.591 -5.98592 -46.6491
  1077 307.005 -3.16443 4.98736
  1078 110.031 16.8812 49.2285
  1079 110.824 16.1596 -48.3992
  1080 178.138 -8.69696 -41.3667
  1081 253.243 -8.82333 -3.09553
  1082 205.261 -12.1583 2.83153
  1083 240.901 -22.4237 -0.0754941
  1084 332.237 -1.10150 -2.82434
  1085 177.772 -7.98419 2.86781
  1086 177.694 -8.45598 -2.97080
  1087 5.73539 6.79373 6.30621
  1088 5.88177 6.84441 -6.22246
  1089 291.744 10.5806 -48.1605
  1090 64.5390 3.36055 -17.9014
  1091 64.7109 3.28691 17.8486
  1092 48.1043 1.00493 -12.7533
  1093 48.2076 0.977580 12.7277
  1094 334.589 -14.1565 60.4195
  1095 289.120 -13.2902 27.1845
  1096 140.533 -6.41209 -25.0605
  1097 337.866 -1.27358 -1.69097
  1098 377.299 71.1462 -20.5937
  1099 306.520 -2.73597 -3.18334
  1100 286.594 -30.9839 10.4231
  1101 211.568 -16.1888 36.1723
  1102 340.268 -0.342147 0.343541
  1103 176.638 5.53203 -12.0892
  1104 242.594 -25.9326 -4.86401
  1105 140.756 -6.70610 24.7758
  1106 244.876 -22.2308 -1.33721
  1107 306.300 -4.22901 9.21622
  1108 217.133 13.7378 18.8689
  1109 151.231 -11.0645 -19.8598
  1110 463.837 64.6872 -25.8045
  1111 347.379 15.3364 40.5431
  1112 257.570 32.3278 4.63949
  1113 336.321 0.117695 1.51894
  1114 130.995 -8.11362 -15.1098
  1115 89.5038 54.8034 -82.1371
  1116 160.473 4.19559 -59.0463
  1117 184.111 -14.0350 9.29323
  1118 155.248 -11.5682 18.5626
  1119 130.671 -7.70947 15.2713
  1120 277.287 2.27379 46.7755
  1121 209.606 -7.09041 -0.216721
  1122 331.284 -2.39204 3.76910
  1123 -2.73507 -0.312539 10.5876
  1124 -2.69561 -0.279438 -10.5611
  1125 219.702 -6.04592 -0.151112
  1126 -0.404898 2.34619 9.66600
  1127 -0.333756 2.38928 -9.61596
  1128 122.266 -3.74901 2.62657
  1129 122.278 -3.81151 -2.63020
  1130 311.395 -1.63635 8.44548
  1131 249.851 -15.1397 -4.75484
  1132 233.894 -12.3191 -1.69089
  1133 261.824 -18.2254 9.29426
  1134 79.2120 39.1271 -61.0586
  1135 256.765 -9.51119 3.99290
  1136 37.2126 0.755828 -10.4369
  1137 37.3104 0.736864 10.4269
  1138 52.8731 33.9298 -42.7522
  1139 411.476 53.1838 14.1183
  1140 27.9222 -1.32468 6.06324
  1141 27.8310 -1.31370 -6.07455
  1142 53.8307 33.3893 41.2560
  1143 234.759 -19.5510 0.576374
  1144 117.750 -5.41751 5.65702
  1145 117.773 -5.44395 -5.75691
  1146 480.732 101.616 -26.1955
  1147 258.875 -25.9250 2.45357
  1148 88.1028 51.2272 81.9536
  1149 7.43580 -2.58963 -6.44833
  1150 8.02199 -2.49203 7.14208
  1151 271.575 34.0673 23.5338
  1152 19.8930 10.9506 -4.40346
  1153 20.0569 10.9531 4.44995
  1154 260.604 -22.6037 -7.52305
  1155 -0.122694 -25.3711 -5.03754
  1156 -0.134559 -25.3762 5.06045
  1157 278.670 -23.5042 -15.8824
  1158 -5.87737 0.346821 2.02969
  1159 -6.01148 0.348958 -2.03490
  1160 41.9758 15.7278 -16.4564
  1161 42.2043 15.7949 16.3002
  1162 -15.3850 0.0370492 -2.48634
  1163 -15.2439 0.0359850 2.48847
  1164 278.973 -2.83010 -0.486798
  1165 -28.1527 0.816456 0.524256
  1166 -28.0767 0.815980 -0.506497
  1167 146.180 -11.4214 -14.5443
  1168 3.86104 -37.3964 -3.42306
  1169 72.2827 -2.02665 4.33954
  1170 72.2607 -2.03439 -4.39129
  1171 236.476 -4.28894 0.304111
  1172 236.928 -4.16971 -0.257517
  1173 4.14548 -35.6971 4.27431
  1174 280.597 -14.5334 -15.5661
  1175 321.030 -1.42941 6.25516
  1176 284.992 -18.2226 -22.6021
  1177 247.473 1.78298 36.4909
  1178 1.27120 -10.4294 7.89124
  1179 1.39323 -10.3533 -7.76431
  1180 181.507 -13.0827 7.31735
  1181 -12.5958 1.11636 6.85491
  1182 -12.5726 1.12591 -6.83470
  1183 474.119 75.6217 4.91461
  1184 556.778 171.406 -120.722
  1185 291.429 -28.3970 19.5910
  1186 119.083 -3.38268 -0.346343
  1187 119.087 -3.33903 0.346620
  1188 600.296 58.2324 -53.5643
  1189 41.2079 -1.08184 6.29973
  1190 41.1348 -1.06488 -6.32603
  1191 271.432 -0.888325 -14.5110
  1192 174.076 -14.0215 16.4770
  1193 288.297 -28.3260 -14.4642
  1194 278.948 -20.2372 -17.8089
  1195 169.622 -6.03875 43.3961
  1196 62.2678 11.6618 -22.9223
  1197 62.2308 11.5576 22.7879
  1198 82.4036 30.4319 -51.8141
  1199 82.5080 28.1481 51.8135
  1200 23.0718 6.89975 -7.65860
  1201 23.2116 6.87864 7.70668
  1202 343.610 59.4732 -27.8313
  1203 17.4570 15.9011 -6.74252
  1204 17.8712 15.9220 6.86603
  1205 248.009 -18.8768 4.19704
  1206 466.138 66.9949 29.1336
  1207 57.5290 -2.41849 -4.27497
  1208 57.5678 -2.41739 4.22907
  1209 304.110 207.484 -180.841
  1210 230.553 13.6482 -29.1462
  1211 211.236 16.2658 11.8826
  1212 28.9646 12.3544 -9.07372
  1213 29.1038 12.3535 9.12591
  1214 4.21983 -0.0518143 1.48843
  1215 4.13234 -0.0517204 -1.50215
  1216 274.905 -22.0364 14.8359
  1217 270.474 -10.6729 7.95377
  1218 185.035 51.5381 -128.888
  1219 426.720 93.0255 -3.47228
  1220 182.707 -5.63778 -47.8706
  1221 237.335 -7.09884 0.821736
  1222 10.0762 -1.18895 -0.357333
  1223 10.0940 -1.18815 0.355225
  1224 -6.81223 1.85764 -3.27527
  1225 -6.69865 1.84981 3.30160
  1226 158.650 1.64546 -50.3374
  1227 293.850 -6.30312 8.77811
  1228 190.407 3.28090 69.0764
  1229 258.464 -12.6288 -6.18054
  1230 132.984 46.8909 -101.156
  1231 207.012 -10.2406 -51.7484
  1232 246.763 -26.3490 3.47091
  1233 302.688 -4.70259 13.7753
  1234 265.462 -5.34816 -2.32769
  1235 145.551 -10.7110 14.6325
  1236 333.109 -19.0260 -25.5311
  1237 315.198 27.1498 45.7720
  1238 136.719 0.628283 -39.6277
  1239 315.514 -1.82685 1.12117
  1240 251.020 31.3072 -6.61701
  1241 108.321 -3.71450 -4.25811
  1242 108.297 -3.67373 4.20745
  1243 483.647 110.120 25.4130
  1244 664.019 17.6570 30.9211
  1245 0.577996 -31.0061 -5.01152
  1246 0.559007 -31.0422 5.05004
  1247 70.4725 36.9588 57.0342
  1248 169.244 -4.79487 -0.768597
  1249 169.280 -4.76403 0.832696
  1250 232.681 -23.3786 -5.41627
  1251 276.857 22.5925 40.5474
  1252 291.566 -5.57310 -5.71152
  1253 339.923 -0.843184 -0.267963
  1254 588.745 130.365 -81.8371
  1255 89.6971 -3.35455 4.35573
  1256 89.6917 -3.36253 -4.41825
  1257 278.951 -25.9025 15.2467
  1258 491.843 118.524 -35.1948
  1259 270.614 -11.6588 -8.94513
  1260 196.969 -13.5832 -4.83732
  1261 242.428 -26.3825 11.0111
  1262 237.061 -11.6955 2.21656
  1263 8.61645 0.949556 -10.4798
  1264 324.828 -19.9766 30.2028
  1265 262.866 -17.0840 -9.06074
  1266 9.50629 1.40364 11.6638
  1267 270.463 -21.9100 -48.4618
  1268 255.884 15.3423 -105.395
  1269 421.832 52.9164 -10.1182
  1270 341.290 -0.178172 -0.112510
  1271 340.666 -0.494888 0.312623
  1272 267.447 -15.4855 9.75711
  1273 102.138 12.1755 -38.9796
  1274 304.779 -27.2606 24.4812
  1275 519.721 118.481 53.5447
  1276 127.419 43.3377 98.5108
  1277 3.42337 0.179725 8.10102
  1278 3.55795 0.244515 -8.00813
  1279 320.622 -26.1942 -25.5266
  1280 127.580 -6.88362 -6.79135
  1281 127.554 -6.90100 6.65839
  1282 298.018 -19.7449 36.8793
  1283 9.66558 0.0982492 6.65159
  1284 9.55188 0.104099 -6.65007
  1285 -1.67201 -6.28019 8.65178
  1286 -1.66087 -6.26672 -8.65281
  1287 51.3526 -1.77764 -5.74665
  1288 51.4066 -1.78831 5.70694
  1289 155.846 -10.3723 -22.6435
  1290 156.847 -5.04153 1.19095
  1291 156.843 -5.15682 -1.13108
  1292 339.955 -0.172528 0.00134826
  1293 300.775 -4.55548 -15.4791
  1294 23.3390 1.14839 -8.30080
  1295 23.4495 1.13154 8.30278
  1296 156.471 -10.9782 22.4500
  1297 343.372 -0.307404 0.107969
  1298 324.119 -0.182481 -0.359473
  1299 324.117 -0.376320 0.274707
  1300 427.273 89.3638 6.12104
  1301 315.546 -2.00036 -2.53248
  1302 279.837 -2.65815 0.386322
  1303 310.080 -4.57770 -8.15096
  1304 338.062 -1.02629 1.16967
  1305 350.910 35.8083 40.1904
  1306 406.873 84.0998 11.2994
  1307 327.916 -1.24644 -4.15784
  1308 -2.66230 -0.687252 2.39664
  1309 -2.67285 -0.686731 -2.40385
  1310 180.808 -11.2694 4.89440
  1311 180.771 -10.7642 -4.73940
  1312 354.121 39.7530 -38.3158
  1313 73.0041 25.1277 -42.6739
  1314 73.4749 24.4315 42.1997
  1315 237.464 -0.000426977 -18.2421
  1316 245.793 -3.71782 -0.120003
  1317 245.492 -3.68526 0.0691785
  1318 -5.97752 -1.02833 8.81692
  1319 -5.96657 -1.01253 -8.81325
  1320 272.274 -0.702923 14.4884
  1321 415.369 82.6386 -0.257904
  1322 27.6048 -1.10640 -3.62467
  1323 27.6737 -1.10901 3.59380
  1324 306.921 -29.6660 13.8336
  1325 0.248813 4.94335 7.76131
  1326 0.337695 4.97347 -7.70413
  1327 54.7628 -1.24108 -1.16453
  1328 54.7800 -1.22076 1.14402
  1329 237.532 -0.382788 18.5170
  1330 7.45867 0.526380 -0.544645
  1331 7.49717 0.528390 0.534329
  1332 312.888 -3.51301 5.31456
  1333 435.168 79.5285 3.74316
</Section>

newXOutput 40

<Section columns = "stress_xx | stress_yy | stress_xy">
  1 357.629 -0.875383 0.648156
  2 358.211 -1.15065 -0.842145
  3 4.06420 0.340477 -0.936391
  4 -0.246203 -0.379013 -0.240416
  5 661.003 258.526 214.264
  6 671.198 296.341 -216.595
  7 -0.243449 -0.376611 0.236849
  8 4.04657 0.338581 0.934152
  9 360.111 -0.615131 -0.592363
  10 357.361 -1.18714 -0.847196
  11 357.574 -0.915045 0.822023
  12 355.716 -0.446483 0.389497
  13 354.934 -1.11205 -0.177446
  14 354.244 -1.06263 1.47662
  15 348.871 -0.723445 1.44748
  16 350.130 -2.50353 2.14953
  17 338.873 -2.05848 4.56785
  18 331.658 -0.872140 5.48438
  19 321.768 -1.10281 5.90139
  20 304.686 -0.974894 8.20229
  21 286.158 -0.848331 9.50021
  22 263.117 1.18138 12.9884
  23 231.639 1.82351 11.7416
  24 219.066 -0.154769 16.7848
  25 179.935 2.57419 11.9234
  26 156.231 3.41630 9.32837
  27 150.063 1.58951 6.87294
  28 143.444 4.98017 0.500030
  29 147.059 5.40058 -9.18698
  30 154.364 1.51989 -11.5396
  31 183.506 0.611603 -15.4312
  32 212.980 -1.49590 -16.0662
  33 232.769 1.50939 -11.7255
  34 263.464 1.34753 -12.9957
  35 285.400 -1.01087 -10.1778
  36 306.586 -1.12615 -7.74561
  37 320.442 -0.787624 -5.99101
  38 330.645 -0.921695 -5.04187
  39 341.544 -1.18263 -2.93610
  40 345.882 -1.17295 -2.81861
  41 350.092 -1.11410 -2.47404
  42 354.388 -1.27896 -0.524788
  43 356.067 -1.64085 -1.03655
  44 354.049 0.184686 -0.101953
  45 357.166 -0.824113 -0.922789
  46 358.796 -1.77451 0.923689
  47 360.568 -1.00365 -0.0494596
  48 342.063 0.339720 -0.539344
  49 321.365 -1.16705 -1.02081
  50 298.012 -2.87200 -1.49257
  51 273.910 -2.31505 -1.08835
  52 252.953 -3.92593 -1.00257
  53 230.883 -4.29269 -0.921698
  54 208.668 -3.73510 -0.474460
  55 185.357 -4.04492 -0.640583
  56 165.674 -4.37031 -0.833679
  57 139.533 -4.21394 -0.688819
  58 112.660 -2.62170 -0.440917
  59 90.4566 -1.67373 -0.355281
  60 63.0641 -1.05601 -0.164347
  61 43.1635 -1.05990 -1.38447
  62 24.6668 -1.50439 -0.467043
  63 6.01855 0.174414 0.829043
  64 1.21446 1.30639 0.302857
  65 -0.114305 0.533757 0.858418
  66 0.634922 0.242119 0.837990
  67 -3.11320 0.753385 0.345937
  68 -4.52499 0.982452 1.76383
  69 -5.02021 0.341772 0.606815
  70 -11.3907 0.723892 0.671476
  71 -14.3406 0.507391 1.68764
  72 -15.4358 0.175555 1.76669
  73 -22.3685 0.684619 1.36440
  74 -24.9369 1.01884 2.61615
  75 -27.7478 0.618244 0.923394
  76 -31.0981 0.447623 1.39357
  77 -32.3608 0.480266 0.538718
  78 -35.5521 1.14816 -0.797378
  79 -35.8828 0.787235 -0.596037
  80 -32.6556 0.599996 -1.13505
  81 -28.0315 0.774615 -2.16336
  82 -22.7433 0.337132 -3.27138
  83 -16.9215 0.183023 -3.40298
  84 -10.1483 -0.350831 -3.56366
  85 -4.39363 -0.278798 -2.07523
  86 -1.83755 -0.736686 -1.29267
  87 -0.311696 -1.85404 -1.11577
  88 -0.528502 -4.73725 -1.99552
  89 -0.599855 -9.31695 -3.51380
  90 -0.126070 -17.4673 -3.80455
  91 0.205164 -24.1961 -4.78670
  92 0.487760 -34.8077 -3.90977
  93 1.47642 -41.3461 -4.61580
  94 0.245569 -44.6170 -3.83626
  95 -0.0699890 -51.2158 -2.32815
  96 1.41516 -49.7800 -0.633046
  97 5.71254 -64.5794 2.60889
  98 5.05495 -35.0583 8.74727
  99 12.0798 -15.7376 19.4391
  100 36.4543 57.8994 61.4165
  101 156.435 198.176 175.923
  102 866.155 91.7430 128.815
  103 722.689 25.5182 46.1828
  104 687.680 10.8869 15.9228
  105 668.146 7.15933 -0.0827500
  106 680.534 10.3716 -13.0639
  107 729.597 21.7983 -38.2796
  108 857.111 72.9861 -120.097
  109 101.385 224.797 -145.561
  110 25.5897 41.7459 -47.3853
  111 8.89293 -21.7399 -16.0773
  112 4.57849 -38.5922 -7.47794
  113 5.68434 -67.1074 -1.99299
  114 1.35410 -50.9047 1.07096
  115 -0.152994 -51.7804 2.55685
  116 0.192509 -44.8364 3.95905
  117 1.44765 -41.3995 4.66790
  118 0.476680 -34.7904 3.92917
  119 0.196733 -24.1632 4.79387
  120 -0.130190 -17.4250 3.80250
  121 -0.600417 -9.28982 3.50655
  122 -0.529648 -4.71374 1.98865
  123 -0.311499 -1.84522 1.10966
  124 -1.82694 -0.735707 1.28759
  125 -4.37486 -0.280024 2.06978
  126 -10.1245 -0.353708 3.56052
  127 -16.8943 0.179886 3.40391
  128 -22.7288 0.333724 3.27752
  129 -28.0396 0.772226 2.17514
  130 -32.6868 0.599847 1.14763
  131 -35.9435 0.786600 0.608250
  132 -35.6371 1.14816 0.810020
  133 -32.4733 0.481563 -0.527844
  134 -31.2308 0.449210 -1.38567
  135 -27.8902 0.620030 -0.917270
  136 -25.0901 1.02094 -2.61393
  137 -22.5253 0.686562 -1.36258
  138 -15.5896 0.176738 -1.76745
  139 -14.4939 0.509419 -1.69047
  140 -11.5360 0.726756 -0.675591
  141 -5.14681 0.343691 -0.614302
  142 -4.63228 0.984363 -1.77477
  143 -3.20365 0.753871 -0.355660
  144 0.570088 0.241732 -0.847366
  145 -0.159938 0.532785 -0.865921
  146 1.18144 1.30466 -0.309399
  147 5.99620 0.173333 -0.832830
  148 24.6460 -1.50988 0.463057
  149 43.1438 -1.07392 1.38003
  150 63.0503 -1.08100 0.158575
  151 90.4508 -1.70995 0.352237
  152 112.654 -2.66379 0.440362
  153 139.518 -4.25045 0.694386
  154 165.632 -4.38873 0.845471
  155 185.287 -4.02277 0.668673
  156 208.566 -3.65255 0.507014
  157 230.740 -4.09717 0.871973
  158 253.060 -3.98092 0.882024
  159 273.990 -2.66080 1.14805
  160 298.248 -2.80812 1.36118
  161 322.017 -0.980436 1.03477
  162 341.471 0.319416 0.523524
  163 197.042 -17.7334 -15.6910
  164 196.238 -18.0544 15.6548
  165 58.5670 16.2650 -23.1088
  166 59.1489 16.3262 23.0050
  167 233.136 -11.3798 59.6978
  168 244.512 -12.8530 -58.0753
  169 113.135 -5.90211 7.16937
  170 113.126 -5.84287 -7.27965
  171 249.209 -8.51505 1.73976
  172 244.139 -8.53949 -1.65875
  173 331.493 59.9134 -8.66384
  174 337.358 2.08504 -44.1676
  175 330.525 4.71700 47.3522
  176 78.3174 -2.92704 -15.4627
  177 78.3181 -2.90439 15.4285
  178 291.543 -28.9208 16.1741
  179 291.193 -22.4174 -22.3103
  180 3.74113 6.56918 7.36613
  181 3.86079 6.61174 -7.29532
  182 398.247 80.8955 13.7580
  183 76.0426 33.8755 -53.1005
  184 81.6642 34.2055 57.0216
  185 282.027 -13.0240 10.6550
  186 423.317 88.4902 -6.98958
  187 181.830 -6.45271 -1.87326
  188 181.530 -6.62624 1.85310
  189 290.130 -8.99635 -9.68875
  190 387.155 -3.05448 -4.21379
  191 69.8827 -2.08969 2.69765
  192 69.8649 -2.10868 -2.73980
  193 29.7345 3.91086 -10.2927
  194 29.8718 3.87071 10.3162
  195 162.087 -6.22775 -37.1150
  196 161.451 -6.57411 37.5978
  197 193.818 -12.4560 -5.17106
  198 194.207 -12.3861 5.55049
  199 49.3159 -1.72723 8.15674
  200 49.2463 -1.70325 -8.17716
  201 383.031 -7.44753 24.0146
  202 312.498 -30.9730 -7.28423
  203 297.322 -2.84994 -1.56805
  204 290.580 -3.49061 1.61207
  205 293.425 34.3671 33.2946
  206 12.3284 10.3186 -3.57166
  207 12.7861 10.2946 3.77495
  208 293.331 -11.8610 38.7629
  209 269.055 20.4828 -37.9711
  210 192.254 42.8084 -123.385
  211 202.153 36.1382 114.598
  212 4.59026 6.42727 -0.428138
  213 4.70351 6.42534 0.481760
  214 292.330 -10.4749 -40.0263
  215 510.367 71.6512 -4.74328
  216 243.007 -26.5604 20.8422
  217 244.868 -26.4051 -19.6680
  218 242.877 -17.2282 -2.00946
  219 302.060 -4.61893 5.21532
  220 145.092 -9.88630 -13.4169
  221 142.780 -9.84511 13.8556
  222 86.8402 1.83078 -23.4850
  223 86.9614 1.79610 23.2785
  224 309.667 -32.8941 -2.63192
  225 240.835 -18.3259 0.975173
  226 300.999 -4.49748 -4.13263
  227 233.756 -5.83076 0.252762
  228 235.821 -5.42060 0.195369
  229 296.581 -13.1831 22.5376
  230 24.5640 0.268822 -8.69507
  231 24.6700 0.256970 8.69237
  232 -3.80709 -2.57623 -10.1001
  233 -3.82643 -2.59988 10.1086
  234 43.9763 -1.94482 -4.69370
  235 44.0338 -1.94950 4.65334
  236 124.226 -3.63017 3.17138
  237 124.257 -3.69746 -3.19846
  238 143.611 9.87541 -54.5796
  239 143.627 8.22422 53.9553
  240 300.864 -9.30256 -19.2708
  241 140.458 -8.15895 -22.2006
  242 140.575 -8.40977 21.8720
  243 264.128 3.97789 42.8837
  244 230.153 19.8040 2.59182
  245 257.964 -25.6789 -1.66314
  246 1.08195 -6.49780 -9.30709
  247 0.995482 -6.56594 9.38257
  248 16.3742 16.2160 -17.9507
  249 17.4407 15.6219 18.8997
  250 253.625 -25.1165 -0.0391701
  251 458.991 85.0141 -4.88041
  252 23.4176 15.9056 -7.36482
  253 23.7032 15.8976 7.45705
  254 -9.93027 2.09880 6.95512
  255 -9.88058 2.10969 -6.92093
  256 461.538 79.4617 7.41345
  257 160.113 -7.61105 -5.06140
  258 159.988 -7.48582 4.94945
  259 315.287 -21.4203 36.1465
  260 571.371 92.8921 57.1756
  261 93.2359 -4.88284 -12.6505
  262 93.2128 -4.91722 12.6357
  263 320.754 47.9559 -31.9854
  264 551.063 104.565 -51.8198
  265 384.397 38.0078 31.2280
  266 418.762 25.1166 -77.0881
  267 258.098 -12.0751 4.39823
  268 293.199 1.26777 -48.2456
  269 278.148 -19.5705 -12.9464
  270 310.340 -5.48350 12.2477
  271 -0.486469 2.95903 -3.01145
  272 -0.373218 2.94948 3.04931
  273 307.474 -10.6245 -74.8143
  274 32.4207 10.0746 -10.3279
  275 32.5773 10.0556 10.3856
  276 297.262 -7.17933 -24.5392
  277 42.3874 43.0203 -55.1109
  278 34.0307 -0.154798 -1.07750
  279 34.0579 -0.146946 1.06012
  280 314.078 -19.6495 -37.6796
  281 54.7307 24.5785 -29.2603
  282 55.5259 24.4422 29.3420
  283 14.7800 -0.479937 6.08935
  284 14.6693 -0.473829 -6.09486
  285 257.727 -11.4497 -4.27738
  286 42.6794 42.5512 56.6187
  287 411.854 30.1639 90.5643
  288 111.161 -4.36308 -4.27779
  289 111.138 -4.33410 4.21181
  290 205.543 -8.38814 -1.56439
  291 205.441 -9.09427 1.79346
  292 175.467 16.6979 -83.3094
  293 283.549 -31.1016 -5.36617
  294 323.775 -1.88569 2.31634
  295 168.969 16.6671 80.5617
  296 196.721 -5.21998 -0.501515
  297 196.646 -5.21581 0.672933
  298 278.588 -20.3766 13.1949
  299 320.791 -3.31686 -5.82138
  300 -2.83815 1.20110 -4.67889
  301 -2.71371 1.19213 4.69632
  302 402.103 80.1497 -3.83048
  303 352.796 -16.6690 19.8075
  304 319.035 -1.55268 -0.629467
  305 324.688 -1.34951 0.569949
  306 317.723 -28.2105 26.3317
  307 391.957 40.5724 -29.1228
  308 341.645 63.6050 18.5178
  309 152.843 -9.30584 -8.30983
  310 151.439 -9.47771 8.48106
  311 323.432 -1.82574 -1.57870
  312 211.323 -16.0498 -40.7317
  313 207.797 -16.3306 6.62999
  314 198.134 -10.8941 46.5391
  315 317.965 -3.74547 6.94207
  316 70.7546 -3.24966 -7.86642
  317 70.7989 -3.27370 7.82926
  318 292.873 -10.1327 73.9438
  319 185.109 -14.5861 -10.3392
  320 341.397 43.6504 40.1450
  321 108.134 7.61867 -35.1815
  322 104.082 7.96288 34.8826
  323 30.0868 -0.654400 -1.95847
  324 30.1334 -0.649889 1.93079
  325 280.656 -5.55253 3.11073
  326 269.103 -3.70883 0.477380
  327 267.578 -4.07386 -0.570839
  328 294.998 -7.56310 25.9878
  329 24.0995 -0.928852 4.51688
  330 24.0068 -0.920042 -4.53925
  331 84.6640 -1.99517 -1.62535
  332 84.6675 -1.96090 1.60689
  333 2.77369 -13.6718 -5.30536
  334 2.58701 -13.7794 5.52790
  335 227.989 9.82827 29.0631
  336 356.241 -15.7116 -16.2904
  337 229.857 -12.1166 1.18425
  338 260.280 -5.12618 -1.66225
  339 271.049 33.7290 -17.8661
  340 52.2020 -1.65901 -11.4443
  341 52.2683 -1.66007 11.4326
  342 223.444 -11.4187 -0.00266962
  343 62.4958 2.17929 -16.4958
  344 62.6138 2.12458 16.4412
  345 11.9473 10.2720 0.183744
  346 12.0975 10.2697 -0.120298
  347 272.147 -29.3037 26.9947
  348 605.775 40.0003 15.5221
  349 240.807 3.56418 -34.4309
  350 201.924 -18.1117 24.7728
  351 200.895 -17.7507 -25.5418
  352 298.265 -5.15372 47.7978
  353 264.696 -1.96705 34.0594
  354 268.579 -28.3350 -27.8941
  355 159.160 -3.98253 0.177892
  356 159.136 -4.03100 -0.137985
  357 297.103 -19.4149 29.4911
  358 406.822 81.1557 2.18056
  359 319.499 -3.55095 -9.05518
  360 80.6747 -3.08259 -5.65202
  361 80.7054 -3.08505 5.59170
  362 300.635 -28.7204 -33.6645
  363 315.181 21.8579 -47.7224
  364 209.577 11.2766 -18.6410
  365 299.168 -20.0173 -33.6683
  366 -9.80656 0.320834 -7.79661
  367 -9.81750 0.308971 7.80677
  368 251.315 -5.86252 1.06141
  369 -3.57531 -2.13159 -4.62618
  370 -3.57111 -2.13235 4.61678
  371 194.622 95.7486 -150.347
  372 7.59565 6.69918 5.10181
  373 7.78939 6.75292 -4.99831
  374 262.632 -2.07747 -33.7760
  375 144.441 -6.09831 3.80651
  376 144.547 -6.18199 -3.85271
  377 -1.01091 -10.6109 8.87516
  378 -0.994597 -10.5914 -8.86569
  379 158.009 100.443 141.489
  380 118.137 -6.25451 -17.2764
  381 118.227 -5.98233 17.2896
  382 37.5682 27.5529 -27.0090
  383 38.3647 27.4717 26.8486
  384 -15.1128 2.26187 2.86315
  385 -15.0448 2.26533 -2.82673
  386 303.949 20.1387 47.7572
  387 233.209 -24.4094 11.4047
  388 233.455 -21.2507 4.15657
  389 283.259 -32.2365 -3.18499
  390 70.2114 8.82681 -22.9985
  391 70.4451 8.80955 22.9607
  392 6.23942 -9.60315 0.430538
  393 5.89551 -9.74940 0.0597392
  394 285.736 40.8787 11.7856
  395 289.074 -8.19586 7.96084
  396 164.543 -12.7360 15.8212
  397 101.401 -2.53256 -20.7530
  398 101.436 -2.55126 20.5908
  399 210.280 -6.27606 -0.534670
  400 210.049 -5.49452 0.355979
  401 163.160 -13.0826 -16.8324
  402 127.378 -2.14167 -28.2096
  403 127.356 -2.31842 28.4367
  404 301.154 -27.6640 -20.8452
  405 174.180 -13.3465 9.79470
  406 274.059 -8.27191 4.82864
  407 273.567 -7.52649 -4.05577
  408 229.124 -21.0917 -4.98725
  409 330.178 -1.38221 -2.45050
  410 110.230 44.3933 -84.4734
  411 309.968 -4.45138 14.9581
  412 329.122 -1.67469 3.62562
  413 116.107 -6.18949 10.2925
  414 116.161 -6.10461 -10.2841
  415 232.156 -24.1162 -11.8111
  416 32.7154 14.6550 11.1128
  417 32.5379 14.6454 -11.1237
  418 612.060 39.9702 -31.7593
  419 268.452 -15.2591 -7.51609
  420 332.628 -1.10375 1.41212
  421 104.043 41.3978 80.3986
  422 490.440 82.6643 15.6320
  423 288.354 -4.29759 -2.48604
  424 214.947 -15.5411 -3.85159
  425 89.1968 17.2296 -39.7914
  426 95.0828 15.9755 39.5540
  427 265.190 -16.7575 7.60160
  428 280.742 -3.63705 -25.0863
  429 -2.94339 -0.252949 4.55673
  430 -3.07326 -0.249966 -4.55425
  431 100.956 24.2534 -53.5598
  432 101.276 24.3426 53.3936
  433 11.5622 5.60562 -4.66401
  434 11.6876 5.59299 4.71124
  435 237.876 -4.50940 0.531048
  436 237.590 -4.38861 -0.449471
  437 296.125 -13.4849 -23.5586
  438 -0.874407 -0.931142 10.9193
  439 -0.821483 -0.884640 -10.8795
  440 305.134 -30.1511 18.3095
  441 288.732 -7.64672 -7.04678
  442 466.702 89.3776 -13.4476
  443 17.2336 -0.838398 2.11721
  444 17.1547 -0.838569 -2.14135
  445 562.829 158.339 70.4275
  446 11.1930 3.90195 -16.2768
  447 33.9793 1.68513 -11.1329
  448 34.0927 1.65818 11.1300
  449 561.136 161.915 -67.5665
  450 11.8667 5.15983 17.9573
  451 -14.6548 1.76270 0.836340
  452 -14.5674 1.75980 -0.802007
  453 30.8668 21.1106 -15.6776
  454 31.4048 21.1167 15.7644
  455 364.474 56.9847 -33.1723
  456 292.901 -11.4003 -15.2656
  457 330.831 -1.18717 -1.25327
  458 305.925 -4.67670 -17.5332
  459 -3.66812 2.17928 9.99990
  460 -3.61427 2.20906 -9.96253
  461 295.918 -11.8912 17.7402
  462 191.678 -10.7152 -4.08005
  463 191.084 -10.8269 3.42944
  464 260.779 -28.7713 -3.84017
  465 185.727 -2.62302 -57.2037
  466 283.599 -4.36450 25.6417
  467 232.168 -7.42390 -0.210631
  468 341.746 -25.7603 -3.44773
  469 179.891 1.54316 61.3715
  470 12.6979 -0.249494 4.39924
  471 12.5856 -0.244130 -4.40997
  472 374.323 74.0303 -15.0033
  473 300.218 -2.15671 0.187067
  474 299.180 -2.45218 -0.462246
  475 225.876 -15.0165 1.27139
  476 97.7455 -3.28583 -3.13704
  477 97.7366 -3.24596 3.09590
  478 57.4672 -0.660549 -13.5628
  479 57.5326 -0.671976 13.5333
  480 188.371 7.30212 11.1378
  481 46.7605 -1.57850 6.51527
  482 46.6948 -1.56321 -6.55018
  483 50.5207 4.88758 15.2727
  484 50.3528 4.96000 -15.2611
  485 290.686 -22.5002 21.4458
  486 162.075 -10.0799 -26.4764
  487 149.341 -4.77122 1.93694
  488 149.397 -4.89206 -1.94108
  489 163.794 -10.3982 26.4675
  490 454.555 107.701 -8.87168
  491 -7.27084 -1.10425 -6.01441
  492 -7.26719 -1.10998 6.01125
  493 113.106 -3.13281 -1.29617
  494 113.103 -3.08350 1.29028
  495 0.124957 -19.6192 -7.44357
  496 0.0774792 -19.6831 7.50880
  497 265.528 -3.89037 0.951674
  498 187.175 8.94340 -5.54759
  499 252.930 26.5376 16.0339
  500 161.103 -1.55526 -45.4778
  501 78.1897 -4.00672 9.88828
  502 78.1838 -3.97267 -9.90726
  503 -20.7172 0.659324 -1.51025
  504 -20.5976 0.655382 1.52578
  505 313.736 -5.96824 -47.4679
  506 23.7442 0.157663 -1.44215
  507 23.7827 0.161718 1.42230
  508 261.179 -20.5394 -6.24310
  509 278.417 -23.6968 -12.5491
  510 56.6177 42.9222 -56.9724
  511 233.943 6.21665 -90.5136
  512 2.82677 6.96472 4.81563
  513 2.93831 6.97916 -4.75390
  514 142.282 -6.53227 -5.57577
  515 142.209 -6.47107 5.44799
  516 402.758 16.4799 -10.0810
  517 289.538 -17.0651 -19.4471
  518 55.1896 40.5647 56.1622
  519 286.892 -32.5627 7.64856
  520 275.830 -26.2124 9.81898
  521 57.5022 -1.39561 -4.27140
  522 57.5361 -1.38971 4.22669
  523 225.389 2.41311 26.6529
  524 163.236 -11.9835 -10.4083
  525 305.614 -6.71930 11.0953
  526 -1.25610 -7.41981 -5.83765
  527 -1.25923 -7.41431 5.82950
  528 213.708 -18.9371 29.7021
  529 325.773 -25.0331 -24.7831
  530 425.601 29.1160 -14.3491
  531 229.334 -7.69932 0.342728
  532 67.0205 -1.23607 -1.25454
  533 67.0324 -1.21105 1.24232
  534 144.782 1.18540 43.7872
  535 406.107 67.7448 22.4703
  536 413.811 79.9029 -143.594
  537 370.136 1.80896 23.7037
  538 265.992 -29.5674 2.40961
  539 631.314 50.1969 42.5377
  540 465.902 112.375 12.9551
  541 64.8060 -2.69382 10.8061
  542 64.7595 -2.66650 -10.8263
  543 255.649 -21.1462 4.64128
  544 18.7343 9.11811 -4.27488
  545 18.8772 9.11227 4.33092
  546 321.762 -26.8273 24.7827
  547 262.062 14.0936 39.3873
  548 324.363 -2.04911 6.17191
  549 239.215 -14.2727 2.06961
  550 336.180 2.30645 -95.4153
  551 534.358 136.479 93.4308
  552 259.621 -4.99204 -0.837062
  553 318.456 -3.21443 -9.91544
  554 49.6354 20.7393 -21.8097
  555 49.9968 20.4887 21.7080
  556 181.389 -7.20406 -2.62868
  557 181.304 -7.02915 2.68688
  558 2.09510 -23.7736 -2.42999
  559 324.668 -11.7001 42.3492
  560 12.2594 11.1102 1.43045
  561 12.4561 11.1400 -1.33840
  562 2.45714 -22.9811 3.12163
  563 295.320 -13.4918 -34.2327
  564 339.960 21.2790 -45.7538
  565 338.715 24.1405 45.7517
  566 16.1512 13.4998 11.8451
  567 15.3323 13.8316 -11.5760
  568 -10.0580 0.317221 3.42531
  569 -10.1918 0.320425 -3.41895
  570 313.066 7.45618 98.4157
  571 170.447 -9.36902 5.47529
  572 170.621 -9.33545 -5.59304
  573 377.804 -7.23787 -49.9063
  574 47.4488 -0.657137 2.48004
  575 47.4208 -0.668346 -2.50995
  576 21.0883 -0.594592 -0.588613
  577 21.1125 -0.590683 0.581667
  578 414.226 75.0129 -18.2875
  579 39.3036 56.7466 -63.0420
  580 215.298 4.27984 -22.5677
  581 305.540 48.8632 -20.0853
  582 4.44332 -0.316569 6.80543
  583 4.62869 -0.250724 -6.68098
  584 311.739 140.697 169.071
  585 263.518 -7.22323 -2.70280
  586 8.76384 2.69299 -5.71024
  587 8.88676 2.67348 5.73888
  588 304.376 -24.5359 29.5276
  589 46.5101 54.9449 64.1934
  590 219.142 -4.49591 0.226124
  591 219.201 -4.45671 -0.227018
  592 -0.242762 -15.5759 7.70403
  593 -0.219032 -15.5502 -7.67860
  594 373.790 73.0110 -0.598373
  595 237.425 -19.2064 42.4748
  596 226.547 -9.58395 0.0636866
  597 228.188 10.0501 95.5137
  598 -18.9614 0.958970 4.64405
  599 -18.9421 0.964162 -4.62543
  600 374.760 4.53104 -25.4480
  601 501.192 82.3888 -66.3984
  602 141.679 14.3379 -63.3480
  603 75.9219 -3.16024 -13.1997
  604 75.9909 -3.16051 13.2003
  605 339.679 -1.05233 1.74534
  606 224.284 -9.79419 -0.349027
  607 301.457 -3.99673 3.85548
  608 295.342 -13.4872 33.4323
  609 11.0960 -0.484354 2.17739
  610 10.9984 -0.482255 -2.19536
  611 174.311 -5.97999 -1.51525
  612 174.286 -5.81193 1.46075
  613 108.409 2.41095 -29.1087
  614 107.703 2.44143 28.9753
  615 428.257 24.4720 24.3596
  616 701.525 52.8650 -76.8101
  617 -6.37390 -0.424936 3.00431
  618 -6.51150 -0.423485 -3.00406
  619 101.991 -4.26566 5.80859
  620 101.987 -4.26088 -5.89153
  621 398.600 21.1852 15.5304
  622 335.934 -1.09760 -0.554524
  623 335.186 -1.62561 0.241697
  624 241.003 -0.119325 26.4030
  625 350.592 -20.9706 -30.2074
  626 189.264 -15.4762 12.4436
  627 -4.60443 4.26055 -4.41413
  628 -4.68795 4.25414 4.46226
  629 304.034 6.06178 49.8088
  630 119.612 -6.83430 -13.7551
  631 119.492 -6.94936 13.7821
  632 247.821 -14.2352 -2.99184
  633 307.064 -6.61012 -10.0448
  634 174.222 -13.8451 -19.0397
  635 285.827 34.4543 -30.2618
  636 192.958 -13.3431 -34.5180
  637 69.5637 -1.85959 -2.19031
  638 69.5758 -1.83668 2.15939
  639 176.052 -14.0976 19.1121
  640 380.071 61.1004 29.8569
  641 302.092 -14.7851 42.1196
  642 247.346 -10.8925 2.74539
  643 176.215 -4.57744 1.05504
  644 176.170 -4.58829 -1.02097
  645 132.289 -4.86435 -4.10707
  646 132.237 -4.80955 4.06010
  647 291.047 -26.7334 -17.2831
  648 146.303 -8.20594 7.20584
  649 146.465 -8.17350 -7.36126
  650 290.577 44.9247 -4.06637
  651 268.933 -14.0268 7.57973
  652 337.742 -1.49952 -2.69788
  653 285.318 -5.33967 -43.8078
  654 40.0391 -1.78997 8.67101
  655 39.9588 -1.77713 -8.68012
  656 329.194 -1.74679 -5.58708
  657 57.9644 29.8313 -39.9398
  658 58.9634 29.7548 40.1368
  659 335.557 -20.7206 42.1673
  660 114.505 28.4357 66.7105
  661 27.1644 -0.145788 8.67947
  662 27.0674 -0.139295 -8.68501
  663 285.416 -18.7778 54.9600
  664 281.672 38.7422 -130.476
  665 272.780 8.45867 -43.6677
  666 360.356 65.1048 25.6506
  667 243.044 -10.6611 -1.65980
  668 437.687 79.0007 -1.91728
  669 -21.5292 0.999066 -0.897568
  670 -21.4278 0.996390 0.919646
  671 193.565 0.688299 -67.1593
  672 11.8733 -0.281605 1.69242
  673 11.8042 -0.282341 -1.71081
  674 243.262 -20.6590 -41.9734
  675 79.7940 11.0298 -28.0376
  676 79.1504 11.0669 28.0210
  677 1.16495 4.03896 -1.50500
  678 1.27522 4.03331 1.55188
  679 206.301 -17.7702 -9.15367
  680 292.619 -2.87729 -16.8433
  681 138.488 -4.20523 -1.49446
  682 138.493 -4.15629 1.50672
  683 99.7982 -5.07380 -8.75465
  684 99.8752 -5.14535 8.71991
  685 18.7593 15.4397 -5.00878
  686 19.0773 15.4717 5.11535
  687 300.997 -3.43386 1.96640
  688 132.376 -8.35472 11.4061
  689 133.240 -8.20585 -11.3943
  690 332.946 -26.9730 -4.80458
  691 273.926 -27.5372 -6.85605
  692 214.957 -5.91249 -0.0134896
  693 214.189 -5.49897 0.123081
  694 302.086 -32.1767 15.6387
  695 491.121 98.9445 25.2582
  696 265.297 -12.1758 -68.4892
  697 303.865 -8.41902 17.7026
  698 301.370 -11.3584 -45.1403
  699 92.5644 -2.84261 -4.07754
  700 92.5624 -2.82020 4.02263
  701 235.682 -4.36906 76.9128
  702 662.978 84.8006 77.8071
  703 44.6114 13.1200 -15.9399
  704 44.6770 13.2070 15.9929
  705 300.081 -2.74415 -0.998973
  706 302.484 -2.45131 1.01800
  707 126.833 63.2745 -108.808
  708 318.421 -1.66419 9.89100
  709 275.265 -4.54179 1.62588
  710 361.998 71.8701 -9.52426
  711 36.2373 6.59796 -11.4708
  712 36.3972 6.55600 11.5141
  713 342.878 -0.784487 0.318485
  714 276.672 -10.5189 -7.37317
  715 345.124 -5.59210 37.2458
  716 140.208 -9.77696 -18.0626
  717 140.561 -9.35241 17.8843
  718 30.7333 -1.09161 6.56486
  719 30.6443 -1.07771 -6.58416
  720 313.773 -1.97859 -1.80563
  721 270.310 51.9231 138.587
  722 1.85509 1.91436 9.16108
  723 1.95537 1.97350 -9.09221
  724 314.365 -3.25724 -4.67478
  725 305.118 -5.46180 6.66051
  726 239.830 0.133560 -28.3185
  727 2.24980 -28.1667 -3.78088
  728 2.10033 -28.4398 4.05547
  729 110.136 29.2918 -66.7016
  730 242.762 -24.4732 -30.0518
  731 125.836 62.7228 109.875
  732 338.288 -0.770435 1.06434
  733 324.618 48.5238 32.1408
  734 235.463 21.4003 -11.1610
  735 426.177 85.9241 -0.212830
  736 333.807 -1.33742 3.63873
  737 -20.6423 0.491612 2.40999
  738 -20.7740 0.494321 -2.40022
  739 354.959 -20.7586 8.35930
  740 228.926 -6.41764 -0.0395588
  741 82.3159 0.182728 -19.8778
  742 82.4226 0.0997580 19.7588
  743 305.264 -3.42399 -2.77011
  744 539.831 76.4766 -27.3844
  745 34.6142 -1.04294 -4.08083
  746 34.6879 -1.04915 4.04920
  747 340.645 -0.859245 -1.69615
  748 66.0919 -2.96036 -5.70003
  749 66.1335 -2.97085 5.65322
  750 332.168 -13.5538 -38.3175
  751 306.682 -3.18727 13.6076
  752 274.230 -1.92073 43.2679
  753 341.309 -0.894741 -0.0367456
  754 318.159 -2.28189 3.58759
  755 206.923 -10.9944 -1.78948
  756 260.137 -6.65319 2.05913
  757 295.645 -18.2172 -28.6488
  758 288.449 -18.0847 18.7890
  759 337.688 40.5821 -40.5680
  760 284.524 -15.8713 14.0044
  761 300.384 -17.8801 36.5451
  762 173.414 -11.6372 7.44570
  763 6.17151 -2.23355 -0.873324
  764 5.83804 -2.25381 1.18895
  765 263.460 -3.76655 0.0361411
  766 262.898 -3.73809 -0.134487
  767 316.764 -1.28924 -0.204052
  768 317.873 -1.22466 0.279183
  769 300.845 -8.40612 21.6285
  770 277.784 -25.7978 39.5652
  771 227.646 -18.3864 2.89837
  772 201.963 -11.9130 3.32660
  773 550.852 70.6406 31.9416
  774 304.426 -7.63188 -14.0068
  775 177.945 30.5375 -102.118
  776 282.730 -13.8585 -12.1339
  777 10.3070 0.245746 -6.19168
  778 10.4271 0.235397 6.19956
  779 251.048 22.0009 -25.0266
  780 645.278 19.5995 -8.44301
  781 317.821 7.91134 -48.8150
  782 12.5853 5.87189 -24.4686
  783 326.534 58.8713 8.23868
  784 255.298 -16.1166 4.51059
  785 286.489 -7.27796 42.5200
  786 241.506 -25.5287 30.2205
  787 388.070 -3.26577 61.7641
  788 13.5646 8.83323 26.1672
  789 174.177 -1.14835 52.1883
  790 244.097 -6.10813 -0.840765
  791 272.310 -24.6980 -40.0585
  792 166.252 -12.8887 -13.1955
  793 131.221 6.22116 -45.5002
  794 315.182 -5.15603 47.8424
  795 201.672 -13.6446 5.61019
  796 37.1686 -1.08705 3.66872
  797 37.1145 -1.08844 -3.70443
  798 293.531 -1.59603 14.9257
  799 265.447 1.22123 -42.0100
  800 -23.4487 1.05211 2.91374
  801 -23.4133 1.05404 -2.89346
  802 196.198 -5.99942 -0.570093
  803 195.621 -5.66310 0.508045
  804 145.371 16.0829 64.2852
  805 129.157 -7.49210 8.52689
  806 129.341 -7.30704 -8.62123
  807 340.497 -0.603512 -0.940499
  808 118.026 9.32249 44.3179
  809 2.24408 -0.110851 2.33742
  810 2.12257 -0.108351 -2.34807
  811 289.965 -9.00346 32.9320
  812 311.019 -2.51887 1.43826
  813 -16.6161 0.187349 4.59962
  814 -16.6185 0.192661 -4.59040
  815 190.418 -12.0319 38.8423
  816 36.4943 30.3023 -33.7005
  817 36.9457 28.8719 33.1831
  818 178.252 7.91781 4.62684
  819 -4.56357 -0.177923 -2.68597
  820 -4.42599 -0.179784 2.68292
  821 219.178 -20.8907 -28.2931
  822 299.812 -31.5739 -10.7604
  823 -1.48779 -1.41401 -1.86818
  824 -1.48344 -1.41073 1.86129
  825 14.0267 0.517637 -0.543423
  826 14.0581 0.520517 0.532898
  827 266.440 -23.6705 7.20964
  828 223.991 -22.9693 19.5330
  829 248.517 -4.01944 0.752484
  830 223.393 -17.9343 -3.75000
  831 80.5173 -1.30270 -0.415936
  832 80.5247 -1.26975 0.408238
  833 -26.5645 0.562735 1.71572
  834 -26.5074 0.561985 -1.69585
  835 281.106 -3.48680 -1.31946
  836 246.976 9.62472 -35.7082
  837 284.205 -5.49924 -3.90270
  838 166.600 -12.6576 12.5539
  839 280.216 -4.96670 -34.7430
  840 300.517 -9.13405 -22.3501
  841 282.260 -2.97272 1.18632
  842 205.262 -8.00040 53.5444
  843 219.301 -21.3932 -10.8038
  844 131.581 -0.976969 -34.7437
  845 132.311 -0.0623084 34.9251
  846 186.628 -13.8907 -8.07513
  847 310.201 33.4775 41.7523
  848 295.310 -30.9845 -21.5338
  849 104.944 -3.27579 -2.02994
  850 104.933 -3.22535 2.00739
  851 225.211 -4.96141 0.0525122
  852 225.219 -5.00383 0.00391287
  853 267.565 -2.05347 -22.6921
  854 89.2491 -3.75394 -7.06227
  855 89.2955 -3.78251 6.99892
  856 1.07326 -28.2422 -5.65050
  857 1.01498 -28.3634 5.76515
  858 43.9599 -0.653934 -0.224988
  859 43.9400 -0.667874 0.215763
  860 278.934 -4.22630 -1.85367
  861 211.009 -20.1053 17.6209
  862 328.853 -28.4492 11.3930
  863 190.386 4.00269 17.7243
  864 285.196 -6.58698 4.46407
  865 311.160 -28.0469 -23.1125
  866 43.9244 2.85935 -13.2089
  867 44.0546 2.81205 13.2004
  868 247.242 -4.32455 -0.689254
  869 198.587 -6.77105 -1.42498
  870 197.888 -6.70928 1.60177
  871 306.411 47.7372 22.6218
  872 105.937 -1.01338 -24.0785
  873 105.833 -1.13788 23.9690
  874 212.982 -19.1929 8.51014
  875 20.1746 13.2579 -4.29869
  876 20.3769 13.2313 4.35580
  877 179.921 -12.8268 31.5141
  878 216.051 -13.6676 -1.87353
  879 269.162 -2.12547 22.9306
  880 265.801 -29.9885 9.39469
  881 304.760 -23.2912 -31.8100
  882 210.494 -20.2703 -17.8799
  883 174.682 -11.5876 -7.12716
  884 575.932 47.4224 -8.84276
  885 278.510 -29.5464 5.15223
  886 7.66003 9.00673 3.59082
  887 7.80471 9.02378 -3.51548
  888 241.794 -24.1955 4.28342
  889 265.427 -29.9864 -16.9444
  890 8.09006 7.91314 0.601457
  891 8.21677 7.91491 -0.544030
  892 98.9544 -3.47480 18.1740
  893 99.0184 -3.58244 -18.2866
  894 120.161 -6.03705 19.9572
  895 120.120 -6.18294 -20.1007
  896 382.882 76.8349 11.9350
  897 -0.576878 -11.8480 -5.67198
  898 -0.580978 -11.8342 5.66820
  899 87.1917 7.42643 -26.6587
  900 86.7577 7.27389 26.3890
  901 667.427 21.6386 -33.7972
  902 10.6861 -0.0588232 0.939490
  903 10.6340 -0.0610034 -0.953921
  904 1.12495 -32.5533 2.03006
  905 1.31658 -32.0151 -1.57539
  906 -12.6829 -0.165934 4.70501
  907 -12.6966 -0.162017 -4.70337
  908 69.6556 20.5123 -31.4456
  909 70.7374 19.8327 30.9906
  910 -5.63641 0.210724 -9.96520
  911 -5.66412 0.188688 9.98289
  912 19.3275 1.83508 -8.53889
  913 19.4508 1.81164 8.55088
  914 75.7207 -0.822918 16.7160
  915 75.6701 -0.819310 -16.8045
  916 61.4993 -2.08104 -13.4632
  917 61.5605 -2.07683 13.4397
  918 330.562 -1.18305 -5.48284
  919 160.207 33.8048 94.8550
  920 221.506 -21.8107 10.0709
  921 156.747 -11.1445 10.0213
  922 303.230 31.1109 -41.2068
  923 656.286 14.1116 13.4556
  924 360.628 16.0318 -39.5079
  925 58.3107 -2.23930 8.36378
  926 58.2531 -2.21344 -8.39764
  927 9.37991 -0.325150 -6.16500
  928 9.49692 -0.328499 6.16410
  929 -0.284696 -5.74411 -10.8659
  930 -0.331985 -5.79060 10.9021
  931 162.025 -7.00521 4.32147
  932 162.111 -7.14635 -4.34588
  933 18.9076 5.30510 -7.48937
  934 19.0404 5.28096 7.52999
  935 98.1559 -4.33015 -15.3732
  936 98.2201 -4.32965 15.3614
  937 212.554 -1.00590 -20.8737
  938 101.224 -5.46567 -10.5712
  939 101.150 -5.40448 10.6065
  940 248.998 -6.75758 -1.05270
  941 301.246 -17.3632 -39.2192
  942 130.457 -5.18983 4.70298
  943 130.521 -5.23976 -4.77201
  944 -5.43514 -0.589056 -3.29882
  945 -5.42055 -0.590467 3.29192
  946 307.408 -24.1001 -49.2100
  947 293.953 -17.2083 24.9723
  948 257.720 -17.8841 -5.74146
  949 250.207 8.45793 37.6370
  950 113.174 -6.30671 -11.9220
  951 113.171 -6.18369 11.9602
  952 280.167 10.5925 45.5778
  953 261.062 22.7249 29.9978
  954 537.193 64.7371 11.2392
  955 274.434 -9.65746 5.48433
  956 143.287 -4.13090 -2.10460
  957 143.267 -4.04523 2.12385
  958 245.414 -20.0054 -1.47273
  959 339.434 62.3342 -19.4010
  960 301.068 -3.05355 -1.98922
  961 196.671 -4.59963 0.685546
  962 196.593 -4.56257 -0.628576
  963 24.6637 20.7073 -14.3669
  964 25.2968 20.6663 14.4805
  965 47.4592 117.382 -105.920
  966 280.917 -6.70950 34.5653
  967 350.947 -6.94085 -33.2878
  968 -6.33043 3.36531 2.06400
  969 -6.23909 3.36448 -2.01873
  970 718.050 169.224 -135.484
  971 300.322 -32.7746 4.21059
  972 320.521 -29.9062 -12.0002
  973 295.547 -25.3561 22.8444
  974 365.021 71.9957 8.16657
  975 26.0727 26.6431 -31.3585
  976 67.1524 101.189 103.734
  977 -1.83881 -4.20926 10.8230
  978 -1.80942 -4.17516 -10.8044
  979 287.844 -7.16617 5.55246
  980 462.218 81.9859 -9.50988
  981 26.8420 26.0111 32.6405
  982 -1.27750 -4.24625 -3.66815
  983 -1.27780 -4.23472 3.65882
  984 246.594 -5.50184 0.460611
  985 183.393 -14.5030 -13.7451
  986 297.836 -23.5816 -27.0096
  987 83.8129 22.5267 -41.7678
  988 85.1623 22.9011 41.8776
  989 288.898 -7.18921 -30.8754
  990 291.712 -9.07506 10.1640
  991 -7.91453 1.92406 8.80265
  992 -7.87558 1.94355 -8.77439
  993 175.125 -11.5460 -29.5980
  994 291.044 18.4452 -45.8040
  995 216.521 -7.89038 0.512701
  996 155.055 -4.26167 0.328187
  997 155.026 -4.29165 -0.310237
  998 -3.31463 -3.75995 -7.68371
  999 -3.31944 -3.76808 7.67780
  1000 295.654 -10.3878 -12.4586
  1001 281.685 -2.90414 0.362057
  1002 281.422 -2.90741 -0.245621
  1003 388.975 63.1988 -27.6790
  1004 69.1326 6.07902 -20.9164
  1005 69.3040 5.95750 20.8667
  1006 43.5376 -0.379423 -11.1290
  1007 43.6190 -0.388338 11.1139
  1008 319.873 16.8677 49.3811
  1009 303.456 -5.52688 -6.99247
  1010 52.5745 8.40057 -16.9293
  1011 52.7839 8.33692 16.9921
  1012 317.070 -1.52004 -1.17794
  1013 295.260 -12.6507 -18.8355
  1014 288.312 -32.6993 -11.5330
  1015 10.7404 9.04781 -0.537666
  1016 10.4351 9.00458 0.676064
  1017 -14.1898 2.26093 5.28893
  1018 -14.1394 2.26708 -5.25548
  1019 172.070 6.53246 -7.73995
  1020 499.996 123.336 -32.7357
  1021 227.367 -16.4203 -0.852605
  1022 149.789 -6.53411 -30.4929
  1023 366.236 -15.1546 4.19688
  1024 150.381 -6.53061 30.9264
  1025 261.795 -30.5649 19.9344
  1026 296.837 -12.2579 -28.1564
  1027 100.329 -2.26473 -0.650104
  1028 100.333 -2.22245 0.645365
  1029 202.128 -15.6728 -6.90103
  1030 123.281 -4.55836 -23.6422
  1031 123.230 -4.59299 23.5161
  1032 40.5986 26.5098 -25.5398
  1033 41.2492 26.4289 25.6161
  1034 84.0568 -2.64160 -2.32287
  1035 84.0591 -2.60757 2.29040
  1036 264.172 -8.14764 3.04039
  1037 222.669 0.666250 -77.8925
  1038 273.890 -8.68663 -5.43828
  1039 247.018 -27.3386 -11.7170
  1040 161.600 -6.66629 2.91941
  1041 161.736 -6.71812 -2.93034
  1042 321.394 -1.81174 1.48425
  1043 286.763 -6.60377 -5.20805
  1044 181.827 4.40843 14.5920
  1045 307.076 -3.01949 -12.6532
  1046 118.224 34.2748 75.7370
  1047 316.426 -2.88990 -10.3941
  1048 81.7131 13.7963 -31.3274
  1049 79.2428 13.9548 30.0259
  1050 378.558 -7.03362 -5.84001
  1051 33.5185 17.6097 -13.0633
  1052 33.8306 17.4816 13.0592
  1053 5.64488 -0.835361 3.71646
  1054 5.93521 -0.782808 -3.52521
  1055 47.1442 -1.26775 2.81866
  1056 47.1062 -1.27639 -2.85615
  1057 134.648 34.7060 -84.0460
  1058 741.663 191.416 145.795
  1059 294.655 -10.3853 12.7802
  1060 264.136 -29.7294 -8.37747
  1061 182.921 -15.0211 -22.7306
  1062 -4.02131 3.97377 7.73259
  1063 -3.95101 3.99558 -7.68550
  1064 206.686 -10.4458 1.36774
  1065 228.277 -8.24322 -0.305840
  1066 -0.121231 -16.8030 5.48185
  1067 -0.115509 -16.8187 -5.48012
  1068 33.7724 21.0224 -15.6312
  1069 34.1787 20.9813 15.7266
  1070 203.894 -9.58106 -1.29384
  1071 15.4454 7.41459 4.56511
  1072 15.3131 7.42518 -4.51246
  1073 312.266 -12.5026 45.4511
  1074 225.702 -23.3891 -19.4342
  1075 184.018 -15.2639 22.7287
  1076 297.042 -6.12069 -47.7077
  1077 314.736 -3.26534 5.07777
  1078 112.941 17.3341 50.5922
  1079 113.755 16.5927 -49.7410
  1080 182.767 -8.91476 -42.5205
  1081 259.705 -9.07606 -3.11797
  1082 210.571 -12.4923 2.97481
  1083 247.084 -23.0071 -0.173572
  1084 340.556 -1.13761 -2.87808
  1085 182.411 -8.21334 2.99423
  1086 182.331 -8.69708 -3.09954
  1087 5.91590 6.99859 6.42128
  1088 6.06610 7.05072 -6.33528
  1089 299.274 10.8738 -49.2591
  1090 66.3145 3.44265 -18.4372
  1091 66.4912 3.36713 18.3833
  1092 49.4711 1.02486 -13.1448
  1093 49.5775 0.996795 13.1187
  1094 343.017 -14.4145 62.0788
  1095 296.505 -13.6327 27.7781
  1096 144.235 -6.58478 -25.7905
  1097 346.291 -1.31227 -1.72268
  1098 386.933 72.9850 -20.9667
  1099 314.229 -2.82643 -3.23520
  1100 293.897 -31.7620 10.5650
  1101 217.025 -16.5928 37.1958
  1102 348.727 -0.359469 0.346317
  1103 181.478 5.68036 -12.3777
  1104 248.819 -26.5984 -5.09096
  1105 144.464 -6.88638 25.4989
  1106 251.157 -22.8092 -1.27462
  1107 314.045 -4.35206 9.40318
  1108 222.938 14.1040 19.3140
  1109 155.205 -11.3603 -20.4529
  1110 475.370 66.5202 -26.6944
  1111 356.209 15.7780 41.3973
  1112 264.353 33.1707 4.74711
  1113 344.721 0.112438 1.54446
  1114 134.471 -8.33586 -15.5734
  1115 91.8650 56.3199 -84.3633
  1116 164.652 4.32211 -60.6562
  1117 188.903 -14.4124 9.60920
  1118 159.323 -11.8770 19.1234
  1119 134.140 -7.92142 15.7389
  1120 284.468 2.34920 47.8527
  1121 215.015 -7.30124 -0.263457
  1122 339.591 -2.45940 3.84534
  1123 -2.78959 -0.306784 10.8419
  1124 -2.74912 -0.272782 -10.8147
  1125 225.353 -6.23163 -0.120700
  1126 -0.391032 2.42628 9.88519
  1127 -0.318029 2.47057 -9.83384
  1128 125.553 -3.86270 2.70962
  1129 125.566 -3.92672 -2.71333
  1130 319.295 -1.68234 8.63012
  1131 256.245 -15.5464 -4.79600
  1132 239.897 -12.6584 -1.66435
  1133 268.515 -18.7046 9.43910
  1134 81.3193 40.2029 -62.7402
  1135 263.315 -9.78035 4.03470
  1136 38.3072 0.770085 -10.7606
  1137 38.4079 0.750627 10.7505
  1138 54.3019 34.8680 -43.9611
  1139 421.841 54.6422 14.2608
  1140 28.8216 -1.36243 6.25453
  1141 28.7276 -1.35116 -6.26602
  1142 55.2850 34.3149 42.4269
  1143 240.791 -20.0654 0.500726
  1144 120.918 -5.57306 5.84649
  1145 120.941 -5.60010 -5.94881
  1146 492.843 104.201 -26.9760
  1147 265.498 -26.5894 2.40927
  1148 90.4320 52.6527 84.1763
  1149 7.64813 -2.53894 -6.68332
  1150 8.24972 -2.43855 7.39491
  1151 278.682 34.9561 24.0713
  1152 20.4759 11.2458 -4.58094
  1153 20.6443 11.2484 4.62878
  1154 267.269 -23.1895 -7.61385
  1155 -0.125507 -26.0096 -5.16045
  1156 -0.137672 -26.0147 5.18392
  1157 285.781 -24.1060 -16.1755
  1158 -5.81855 0.354701 2.09265
  1159 -5.95667 0.356894 -2.09796
  1160 43.1391 16.1488 -16.9631
  1161 43.3738 16.2178 16.8029
  1162 -15.6235 0.0374718 -2.56337
  1163 -15.4784 0.0363827 2.56561
  1164 286.020 -2.93215 -0.486391
  1165 -28.8175 0.837411 0.525626
  1166 -28.7395 0.836928 -0.507371
  1167 150.033 -11.7289 -14.9957
  1168 3.96682 -38.1968 -3.55698
  1169 74.3313 -2.08745 4.48090
  1170 74.3082 -2.09535 -4.53388
  1171 242.522 -4.43160 0.317910
  1172 242.985 -4.30944 -0.270182
  1173 4.25923 -36.4534 4.43060
  1174 287.745 -14.9175 -15.8734
  1175 329.126 -1.47297 6.38679
  1176 292.263 -18.6926 -23.0726
  1177 253.958 1.83603 37.3439
  1178 1.31176 -10.6549 8.06308
  1179 1.43695 -10.5768 -7.93287
  1180 186.236 -13.4377 7.57820
  1181 -12.9006 1.14844 7.01873
  1182 -12.8768 1.15826 -6.99799
  1183 486.082 77.5027 5.05698
  1184 570.429 176.013 -123.962
  1185 298.856 -29.1109 19.9630
  1186 122.293 -3.48619 -0.360903
  1187 122.298 -3.44149 0.361195
  1188 615.115 59.6720 -54.9103
  1189 42.4554 -1.11379 6.49807
  1190 42.3800 -1.09638 -6.52493
  1191 278.457 -0.911090 -14.8441
  1192 178.619 -14.3934 16.9849
  1193 295.642 -29.0387 -14.7086
  1194 286.065 -20.7594 -18.1570
  1195 174.038 -6.18729 44.6025
  1196 63.9665 11.9685 -23.5979
  1197 63.9289 11.8617 23.4602
  1198 84.6014 31.2557 -53.2522
  1199 84.7093 28.9120 53.2519
  1200 23.7594 7.07983 -7.91678
  1201 23.9030 7.05822 7.96628
  1202 352.434 61.0130 -28.4084
  1203 17.9510 16.3607 -6.99413
  1204 18.3761 16.3826 7.12098
  1205 254.362 -19.3751 4.21583
  1206 477.716 68.8968 30.1167
  1207 59.2074 -2.48684 -4.41439
  1208 59.2476 -2.48573 4.36741
  1209 311.510 213.229 -185.483
  1210 236.670 14.0146 -29.8303
  1211 216.906 16.6944 12.1638
  1212 29.7918 12.6835 -9.37790
  1213 29.9349 12.6827 9.43161
  1214 4.57767 -0.0538937 1.53423
  1215 4.48726 -0.0537969 -1.54829
  1216 281.922 -22.6043 15.1080
  1217 277.361 -10.9672 8.08696
  1218 189.778 52.9936 -132.280
  1219 437.550 95.4030 -3.70130
  1220 187.444 -5.77121 -49.1920
  1221 243.411 -7.31054 0.796447
  1222 10.6155 -1.21827 -0.367021
  1223 10.6345 -1.21745 0.364861
  1224 -6.88736 1.90559 -3.39197
  1225 -6.77065 1.89757 3.41908
  1226 162.788 1.70001 -51.7238
  1227 301.290 -6.48416 8.94596
  1228 195.325 3.39687 70.9405
  1229 265.064 -12.9732 -6.26336
  1230 136.444 48.1808 -103.855
  1231 212.348 -10.4827 -53.1695
  1232 253.090 -27.0245 3.66304
  1233 310.369 -4.83359 14.0708
  1234 272.205 -5.51472 -2.34821
  1235 149.389 -11.0005 15.0862
  1236 341.553 -19.4664 -26.0215
  1237 323.301 27.8743 46.7928
  1238 140.314 0.647029 -40.7379
  1239 323.408 -1.89348 1.13780
  1240 257.646 32.1233 -6.77108
  1241 111.263 -3.82454 -4.39632
  1242 111.238 -3.78278 4.34443
  1243 495.724 113.092 26.3171
  1244 680.196 18.0856 31.6637
  1245 0.594193 -31.7820 -5.13272
  1246 0.574712 -31.8189 5.17221
  1247 72.3557 37.9844 58.6151
  1248 173.677 -4.94404 -0.806857
  1249 173.714 -4.91248 0.872519
  1250 238.663 -23.9842 -5.65189
  1251 284.062 23.1928 41.4776
  1252 298.938 -5.73866 -5.81049
  1253 348.366 -0.872689 -0.277343
  1254 603.343 133.655 -83.9495
  1255 92.1750 -3.45147 4.50256
  1256 92.1691 -3.45960 -4.56659
  1257 286.069 -26.5629 15.5206
  1258 504.117 121.718 -36.3395
  1259 277.507 -11.9775 -9.09824
  1260 202.077 -13.9514 -5.03612
  1261 248.647 -27.0552 11.3960
  1262 243.140 -12.0191 2.20424
  1263 8.86110 1.11892 -10.8271
  1264 333.077 -20.4510 30.8156
  1265 269.580 -17.5362 -9.20328
  1266 9.77465 1.58471 12.0417
  1267 277.351 -22.4256 -49.8063
  1268 262.378 15.8189 -108.171
  1269 432.435 54.3758 -10.1511
  1270 349.761 -0.191995 -0.114528
  1271 349.124 -0.516405 0.319417
  1272 274.271 -15.8979 9.92114
  1273 104.854 12.4989 -40.0771
  1274 312.537 -27.9347 24.9660
  1275 532.743 121.497 55.0136
  1276 130.750 44.5353 101.144
  1277 3.53150 0.221126 8.26988
  1278 3.66957 0.287714 -8.17457
  1279 328.728 -26.8066 -26.3052
  1280 130.987 -7.07767 -7.01646
  1281 130.961 -7.09558 6.88025
  1282 305.629 -20.2364 37.6848
  1283 10.0650 0.0984230 6.85714
  1284 9.94797 0.104423 -6.85547
  1285 -1.70999 -6.43406 8.86909
  1286 -1.69857 -6.42026 -8.87018
  1287 52.8682 -1.82940 -5.92747
  1288 52.9241 -1.84036 5.88685
  1289 159.933 -10.6479 -23.3110
  1290 160.978 -5.19456 1.24322
  1291 160.974 -5.31267 -1.18187
  1292 348.407 -0.185975 0.00660251
  1293 308.419 -4.68097 -15.8138
  1294 24.0731 1.17347 -8.56390
  1295 24.1868 1.15618 8.56609
  1296 160.574 -11.2692 23.1132
  1297 351.891 -0.321443 0.112834
  1298 332.203 -0.204781 -0.368913
  1299 332.200 -0.403571 0.282265
  1300 438.062 91.7164 6.06524
  1301 323.457 -2.07094 -2.57390
  1302 286.905 -2.75596 0.383482
  1303 317.904 -4.70959 -8.31601
  1304 346.482 -1.06050 1.18940
  1305 359.854 36.7689 41.0360
  1306 417.204 86.2904 11.4048
  1307 336.156 -1.28518 -4.24304
  1308 -2.73298 -0.704457 2.45959
  1309 -2.74382 -0.703926 -2.46700
  1310 185.521 -11.5806 5.08384
  1311 185.484 -11.0625 -4.92443
  1312 363.145 40.8147 -39.1110
  1313 74.9625 25.8083 -43.8748
  1314 75.4460 25.0943 43.3888
  1315 243.718 0.00195214 -18.6690
  1316 252.061 -3.84625 -0.134832
  1317 251.753 -3.81289 0.0826745
  1318 -6.12250 -1.04882 9.03707
  1319 -6.11129 -1.03260 -9.03334
  1320 279.318 -0.721659 14.8207
  1321 425.941 84.7358 -0.364060
  1322 28.5366 -1.13649 -3.73839
  1323 28.6079 -1.13917 3.70680
  1324 314.720 -30.3966 14.0490
  1325 0.288832 5.08696 7.92507
  1326 0.380057 5.11795 -7.86636
  1327 56.3922 -1.27870 -1.20477
  1328 56.4103 -1.25788 1.18377
  1329 243.787 -0.389354 18.9507
  1330 7.92400 0.538484 -0.562797
  1331 7.96426 0.540540 0.552231
  1332 320.761 -3.61866 5.41521
  1333 446.219 81.5172 3.88519
</Section>

newXOutput 41

<Section columns = "stress_xx | stress_yy | stress_xy">
  1 366.245 -0.903789 0.664021
  2 366.840 -1.18507 -0.862729
  3 4.46247 0.348061 -0.957898
  4 -0.253176 -0.389162 -0.247579
  5 676.334 265.216 219.458
  6 686.765 303.965 -221.837
  7 -0.250350 -0.386696 0.243919
  8 4.44356 0.346121 0.955612
  9 368.782 -0.635625 -0.606629
  10 365.976 -1.22128 -0.868626
  11 366.199 -0.942653 0.838074
  12 364.309 -0.464609 0.393646
  13 363.517 -1.14425 -0.186924
  14 362.825 -1.09408 1.50440
  15 357.349 -0.747573 1.47136
  16 358.651 -2.56664 2.19088
  17 347.161 -2.11225 4.66216
  18 339.803 -0.899079 5.59863
  19 329.712 -1.13364 6.02617
  20 312.272 -1.00244 8.38143
  21 293.348 -0.870578 9.71082
  22 269.802 1.20927 13.2815
  23 237.625 1.86710 12.0091
  24 224.766 -0.153916 17.1703
  25 184.749 2.64177 12.1994
  26 160.499 3.50326 9.54616
  27 154.187 1.63668 7.03409
  28 147.415 5.10837 0.512519
  29 151.115 5.53700 -9.40282
  30 158.586 1.56104 -11.8100
  31 188.400 0.632895 -15.7901
  32 218.543 -1.52747 -16.4348
  33 238.780 1.54566 -11.9922
  34 270.156 1.37904 -13.2886
  35 292.572 -1.03697 -10.4040
  36 314.210 -1.15582 -7.91406
  37 328.358 -0.811159 -6.11795
  38 338.767 -0.950594 -5.14559
  39 349.889 -1.21451 -2.99462
  40 354.306 -1.20784 -2.87351
  41 358.596 -1.14675 -2.52326
  42 362.970 -1.31551 -0.530704
  43 364.677 -1.68609 -1.05514
  44 362.604 0.181041 -0.0992186
  45 365.781 -0.850056 -0.941429
  46 367.439 -1.82257 0.947071
  47 369.249 -1.03232 -0.0500671
  48 350.340 0.334178 -0.552432
  49 329.187 -1.21724 -1.04475
  50 305.313 -2.97091 -1.52490
  51 280.667 -2.40548 -1.11148
  52 259.230 -4.05718 -1.02368
  53 236.651 -4.43301 -0.940436
  54 213.921 -3.86003 -0.481942
  55 190.063 -4.17539 -0.651871
  56 169.917 -4.50408 -0.849337
  57 143.157 -4.33934 -0.700771
  58 115.645 -2.70316 -0.448565
  59 92.9121 -1.72686 -0.360941
  60 64.8654 -1.08955 -0.164989
  61 44.4903 -1.08966 -1.41578
  62 25.5537 -1.54189 -0.476447
  63 6.46121 0.178377 0.850536
  64 1.53804 1.33691 0.312930
  65 0.171803 0.545939 0.882243
  66 0.929003 0.247492 0.862663
  67 -2.92244 0.770793 0.360241
  68 -4.37964 1.00556 1.81376
  69 -4.90573 0.350017 0.629539
  70 -11.4489 0.741474 0.695796
  71 -14.4865 0.519067 1.73678
  72 -15.6295 0.178921 1.81901
  73 -22.7579 0.700750 1.40819
  74 -25.4076 1.04346 2.69198
  75 -28.3148 0.633171 0.957593
  76 -31.7666 0.458661 1.43864
  77 -33.0840 0.491866 0.562134
  78 -36.3790 1.17762 -0.808472
  79 -36.7345 0.807402 -0.603726
  80 -33.4438 0.614819 -1.15679
  81 -28.7166 0.794879 -2.21152
  82 -23.3077 0.346774 -3.34987
  83 -17.3476 0.188592 -3.48673
  84 -10.4061 -0.358564 -3.65251
  85 -4.50817 -0.285215 -2.12819
  86 -1.88638 -0.755098 -1.32619
  87 -0.319354 -1.90256 -1.14520
  88 -0.540932 -4.86125 -2.04658
  89 -0.614225 -9.55407 -3.60184
  90 -0.128074 -17.9083 -3.89802
  91 0.211254 -24.7994 -4.90243
  92 0.500966 -35.6713 -4.00342
  93 1.51574 -42.3622 -4.72464
  94 0.253858 -45.6916 -3.92108
  95 -0.0702087 -52.4270 -2.36979
  96 1.45019 -50.9109 -0.622794
  97 5.85756 -66.0275 2.70598
  98 5.19363 -35.6955 9.02345
  99 12.3999 -15.7808 20.0119
  100 37.3836 59.9003 63.0609
  101 160.178 203.722 180.296
  102 886.220 93.9678 131.764
  103 739.685 26.1239 47.2422
  104 703.904 11.1449 16.2852
  105 683.952 7.32587 -0.0849628
  106 696.611 10.6172 -13.3634
  107 746.736 22.3146 -39.1526
  108 876.964 74.7360 -122.827
  109 103.829 231.073 -149.184
  110 26.2445 43.3407 -48.6738
  111 9.12958 -21.9376 -16.5622
  112 4.70426 -39.3195 -7.72100
  113 5.82835 -68.6196 -2.07416
  114 1.38744 -52.0638 1.07178
  115 -0.155315 -53.0056 2.60422
  116 0.199471 -45.9163 4.04694
  117 1.48624 -42.4167 4.77801
  118 0.489605 -35.6533 4.02328
  119 0.202613 -24.7656 4.90975
  120 -0.132297 -17.8648 3.89590
  121 -0.614798 -9.52621 3.59439
  122 -0.542104 -4.83711 2.03953
  123 -0.319150 -1.89352 1.13893
  124 -1.87548 -0.754090 1.32096
  125 -4.48890 -0.286471 2.12258
  126 -10.3815 -0.361515 3.64927
  127 -17.3196 0.185372 3.48767
  128 -23.2927 0.343275 3.35616
  129 -28.7248 0.792424 2.22361
  130 -33.4757 0.614662 1.16971
  131 -36.7968 0.806745 0.616268
  132 -36.4662 1.17761 0.821460
  133 -33.1993 0.493191 -0.550952
  134 -31.9029 0.460284 -1.43051
  135 -28.4611 0.634998 -0.951277
  136 -25.5650 1.04560 -2.68966
  137 -22.9191 0.702741 -1.40628
  138 -15.7876 0.180132 -1.81976
  139 -14.6441 0.521146 -1.73967
  140 -11.5985 0.744410 -0.699988
  141 -5.03615 0.351982 -0.637189
  142 -4.49033 1.00752 -1.82495
  143 -3.01590 0.771295 -0.370187
  144 0.861768 0.247097 -0.872261
  145 0.124210 0.544947 -0.889926
  146 1.50335 1.33515 -0.319627
  147 6.43747 0.177271 -0.854416
  148 25.5317 -1.54751 0.472371
  149 44.4695 -1.10402 1.41124
  150 64.8508 -1.11513 0.159085
  151 92.9057 -1.76393 0.357830
  152 115.638 -2.74623 0.448004
  153 143.141 -4.37670 0.706480
  154 169.874 -4.52290 0.861417
  155 189.991 -4.15265 0.680631
  156 213.816 -3.77545 0.515253
  157 236.506 -4.23278 0.889598
  158 259.340 -4.11358 0.900397
  159 280.748 -2.75968 1.17254
  160 305.554 -2.90550 1.39035
  161 329.854 -1.02619 1.05906
  162 349.736 0.313340 0.536313
  163 202.023 -18.1864 -16.1739
  164 201.200 -18.5157 16.1366
  165 60.1260 16.6865 -23.7780
  166 60.7231 16.7491 23.6717
  167 238.958 -11.6318 61.2845
  168 250.605 -13.1398 -59.6211
  169 116.115 -6.06433 7.39844
  170 116.106 -6.00357 -7.51132
  171 255.415 -8.75636 1.72960
  172 250.226 -8.78147 -1.64608
  173 339.851 61.4045 -8.84537
  174 345.729 2.17782 -45.0936
  175 338.742 4.86981 48.3638
  176 80.4170 -3.01006 -15.9188
  177 80.4182 -2.98690 15.8839
  178 298.781 -29.6328 16.4511
  179 298.427 -22.9749 -22.7476
  180 3.86894 6.75818 7.50711
  181 3.99166 6.80194 -7.43444
  182 408.137 82.9226 13.9521
  183 78.0249 34.7783 -54.5422
  184 83.7856 35.1160 58.5609
  185 289.018 -13.3669 10.8402
  186 433.777 90.7231 -6.98781
  187 186.453 -6.64071 -1.95632
  188 186.146 -6.81850 1.93576
  189 297.302 -9.24103 -9.86156
  190 396.623 -3.03230 -4.49525
  191 71.8371 -2.14977 2.78842
  192 71.8183 -2.16920 -2.83154
  193 30.5940 4.00691 -10.6120
  194 30.7350 3.96577 10.6363
  195 166.214 -6.38292 -38.1366
  196 165.563 -6.73735 38.6320
  197 198.725 -12.7888 -5.37097
  198 199.124 -12.7170 5.75982
  199 50.7308 -1.77681 8.40476
  200 50.6591 -1.75221 -8.42555
  201 392.389 -7.52316 24.7713
  202 320.227 -31.7133 -7.32785
  203 304.615 -2.94798 -1.58550
  204 297.722 -3.60637 1.62850
  205 300.860 35.2440 34.0273
  206 12.6715 10.6423 -3.73436
  207 13.1408 10.6179 3.94286
  208 300.663 -12.1499 39.6118
  209 275.913 21.0126 -38.8240
  210 197.049 43.9802 -126.551
  211 207.194 37.1299 117.544
  212 4.77562 6.59459 -0.486607
  213 4.89186 6.59268 0.541696
  214 299.645 -10.7280 -40.9064
  215 522.845 73.3796 -4.87317
  216 249.083 -27.2146 21.4665
  217 250.986 -27.0562 -20.2630
  218 248.948 -17.6761 -1.97441
  219 309.484 -4.75760 5.30150
  220 148.829 -10.1491 -13.8273
  221 146.462 -10.1070 14.2767
  222 89.1274 1.87184 -24.1575
  223 89.2521 1.83637 23.9460
  224 317.323 -33.6792 -2.82997
  225 246.858 -18.8007 0.913648
  226 308.395 -4.63414 -4.19488
  227 239.594 -6.00833 0.232117
  228 241.706 -5.58834 0.226491
  229 303.942 -13.5186 23.0027
  230 25.3271 0.271843 -8.96012
  231 25.4361 0.259692 8.95751
  232 -3.89247 -2.63091 -10.3434
  233 -3.91229 -2.65518 10.3521
  234 45.2904 -1.99832 -4.83997
  235 45.3499 -2.00313 4.79870
  236 127.483 -3.73861 3.27490
  237 127.515 -3.80750 -3.30260
  238 147.277 10.1385 -56.0425
  239 147.294 8.44520 55.4024
  240 308.320 -9.54470 -19.6689
  241 144.072 -8.37361 -22.8409
  242 144.193 -8.63082 22.5045
  243 270.846 4.09020 43.8544
  244 236.138 20.3137 2.65109
  245 264.398 -26.3238 -1.59978
  246 1.12040 -6.62651 -9.51197
  247 1.03176 -6.69641 9.58934
  248 16.8210 16.7409 -18.4962
  249 17.9148 16.1321 19.4690
  250 259.955 -25.7479 -0.143526
  251 470.193 87.2539 -5.24077
  252 24.0667 16.3334 -7.62601
  253 24.3597 16.3254 7.72079
  254 -10.1473 2.15632 7.10835
  255 -10.0964 2.16752 -7.07328
  256 472.777 81.5795 7.84370
  257 164.220 -7.82278 -5.24127
  258 164.092 -7.69457 5.12674
  259 323.109 -21.9311 36.8969
  260 585.204 95.1520 58.6219
  261 95.7171 -5.01683 -13.0299
  262 95.6938 -5.05215 13.0149
  263 328.827 49.1688 -32.6679
  264 564.453 107.127 -53.1674
  265 393.877 39.0237 31.8006
  266 428.890 25.9436 -79.1488
  267 264.520 -12.3995 4.43616
  268 300.567 1.31902 -49.3158
  269 285.060 -20.0686 -13.1689
  270 317.995 -5.63290 12.4947
  271 -0.407243 3.03350 -3.12730
  272 -0.290966 3.02373 3.16623
  273 315.039 -10.8057 -76.7780
  274 33.3263 10.3332 -10.6570
  275 33.4870 10.3139 10.7164
  276 304.668 -7.36053 -25.0703
  277 43.5023 44.2756 -56.6152
  278 35.1352 -0.161036 -1.11211
  279 35.1638 -0.152997 1.09433
  280 321.878 -20.1153 -38.4677
  281 56.1806 25.2300 -30.0925
  282 56.9962 25.0906 30.1766
  283 15.3319 -0.494100 6.27275
  284 15.2180 -0.487837 -6.27830
  285 264.139 -11.7598 -4.31520
  286 43.8026 43.7940 58.1602
  287 421.810 31.1401 92.9524
  288 114.101 -4.48689 -4.42186
  289 114.077 -4.45725 4.35433
  290 210.725 -8.62531 -1.65280
  291 210.621 -9.34861 1.88833
  292 179.892 17.1556 -85.4848
  293 290.592 -31.8654 -5.37886
  294 331.671 -1.95149 2.35215
  295 173.236 17.1272 82.6712
  296 201.694 -5.37999 -0.533177
  297 201.616 -5.37577 0.708597
  298 285.511 -20.8934 13.4212
  299 328.651 -3.41498 -5.92891
  300 -2.78806 1.22965 -4.82970
  301 -2.66023 1.22046 4.84768
  302 412.115 82.1187 -3.86960
  303 361.483 -17.0299 20.1319
  304 326.808 -1.61387 -0.635916
  305 332.586 -1.40326 0.575800
  306 325.557 -28.8574 27.1130
  307 401.607 41.6567 -29.6356
  308 350.229 65.1935 18.8909
  309 156.773 -9.55716 -8.58232
  310 155.335 -9.73333 8.75789
  311 331.315 -1.89090 -1.59826
  312 216.634 -16.4395 -41.8457
  313 213.038 -16.7556 6.87896
  314 203.128 -11.1540 47.7968
  315 325.769 -3.85416 7.07350
  316 72.7070 -3.33951 -8.10630
  317 72.7528 -3.36418 8.06833
  318 300.099 -10.3121 75.8835
  319 189.807 -14.9670 -10.6784
  320 349.924 44.7686 40.9860
  321 110.936 7.81329 -36.1561
  322 106.784 8.16665 35.8504
  323 31.0852 -0.672833 -2.02108
  324 31.1337 -0.668215 1.99275
  325 287.582 -5.71927 3.14733
  326 275.752 -3.83370 0.474178
  327 274.192 -4.20781 -0.569693
  328 302.358 -7.75364 26.5523
  329 24.9128 -0.954906 4.65679
  330 24.8172 -0.945870 -4.67964
  331 86.9791 -2.05482 -1.67750
  332 86.9831 -2.01973 1.65862
  333 2.85320 -13.9550 -5.39913
  334 2.66182 -14.0654 5.62728
  335 233.903 10.0885 29.7286
  336 365.007 -16.0376 -16.5244
  337 235.616 -12.4438 1.14431
  338 266.734 -5.28573 -1.66775
  339 277.982 34.5851 -18.2640
  340 53.6682 -1.70780 -11.7854
  341 53.7366 -1.70892 11.7736
  342 229.052 -11.7290 0.0648323
  343 64.1872 2.22791 -16.9817
  344 64.3085 2.17184 16.9261
  345 12.3074 10.5456 0.131063
  346 12.4615 10.5433 -0.0658912
  347 278.908 -30.0095 27.7771
  348 620.313 40.9525 15.8981
  349 247.002 3.66691 -35.2161
  350 207.018 -18.5667 25.4869
  351 205.964 -18.1960 -26.2751
  352 305.735 -5.26530 48.8516
  353 271.413 -2.00954 34.8272
  354 275.257 -29.0173 -28.6986
  355 163.248 -4.10648 0.198085
  356 163.223 -4.15608 -0.157212
  357 304.489 -19.8951 30.1038
  358 416.943 83.1487 2.17896
  359 327.353 -3.65285 -9.23741
  360 82.8774 -3.16937 -5.83014
  361 82.9093 -3.17193 5.76843
  362 308.064 -29.3890 -34.6205
  363 323.079 22.4297 -48.7628
  364 215.076 11.5711 -19.0704
  365 306.610 -20.5079 -34.3788
  366 -10.0407 0.332998 -7.98349
  367 -10.0519 0.320822 7.99389
  368 257.563 -6.04010 1.05010
  369 -3.66392 -2.18381 -4.74281
  370 -3.65959 -2.18458 4.73314
  371 199.411 98.3625 -154.171
  372 7.81838 6.90501 5.17709
  373 8.01704 6.96028 -5.07091
  374 269.303 -2.12223 -34.5378
  375 148.177 -6.27130 3.94292
  376 148.285 -6.35699 -3.99022
  377 -1.03157 -10.8646 9.08881
  378 -1.01485 -10.8447 -9.07915
  379 161.934 103.174 145.100
  380 121.214 -6.42319 -17.7853
  381 121.308 -6.14434 17.7989
  382 38.5717 28.3120 -27.7890
  383 39.3884 28.2293 27.6247
  384 -15.4417 2.32136 2.91103
  385 -15.3720 2.32492 -2.87363
  386 311.591 20.6646 48.8091
  387 239.054 -25.0217 11.7893
  388 239.306 -21.7922 4.35463
  389 290.292 -33.0234 -3.38426
  390 72.0753 9.05012 -23.6605
  391 72.3153 9.03258 23.6219
  392 6.41152 -9.75186 0.499050
  393 6.05897 -9.90199 0.00355646
  394 293.016 41.9104 12.0432
  395 296.215 -8.42231 8.09701
  396 168.746 -13.0682 16.3003
  397 104.058 -2.60515 -21.3529
  398 104.095 -2.62437 21.1870
  399 215.572 -6.46271 -0.583720
  400 215.337 -5.66212 0.400571
  401 167.328 -13.4231 -17.3367
  402 130.666 -2.20105 -29.0045
  403 130.643 -2.38219 29.2376
  404 308.624 -28.3393 -21.2308
  405 178.618 -13.6982 10.1150
  406 280.845 -8.50390 4.89251
  407 280.337 -7.74106 -4.10410
  408 234.872 -21.6296 -5.20500
  409 338.224 -1.43416 -2.48927
  410 113.052 45.5817 -86.6982
  411 317.640 -4.57172 15.2738
  412 337.156 -1.73226 3.68967
  413 119.151 -6.35885 10.6112
  414 119.206 -6.27179 -10.6026
  415 237.975 -24.7213 -12.2056
  416 33.6158 15.0386 11.4687
  417 33.4337 15.0287 -11.4798
  418 626.736 40.9218 -32.5224
  419 275.124 -15.6580 -7.61976
  420 340.708 -1.14913 1.43438
  421 106.715 42.5138 82.5249
  422 502.473 84.6765 16.0688
  423 295.452 -4.43268 -2.51345
  424 220.357 -15.9483 -4.02770
  425 91.5214 17.6774 -40.8869
  426 97.5554 16.3896 40.6430
  427 271.789 -17.1918 7.70315
  428 287.806 -3.72657 -25.6440
  429 -2.85652 -0.260785 4.69537
  430 -2.99003 -0.257730 -4.69274
  431 103.565 24.8911 -55.0052
  432 103.894 24.9824 54.8347
  433 11.9426 5.74819 -4.83430
  434 12.0713 5.73529 4.88286
  435 243.808 -4.65548 0.530116
  436 243.514 -4.53176 -0.446679
  437 303.478 -13.8273 -24.0463
  438 -0.880205 -0.934169 11.1694
  439 -0.825943 -0.886434 -11.1286
  440 312.696 -30.8825 18.6289
  441 295.862 -7.86074 -7.16364
  442 478.197 91.5696 -13.8740
  443 17.9067 -0.860958 2.18532
  444 17.8253 -0.861132 -2.21002
  445 576.466 162.333 72.3282
  446 11.4951 4.19293 -16.7703
  447 34.9647 1.72352 -11.4693
  448 35.0813 1.69590 11.4665
  449 574.767 166.011 -69.4348
  450 12.1870 5.48195 18.4933
  451 -14.9545 1.80660 0.830972
  452 -14.8648 1.80365 -0.795702
  453 31.7024 21.6846 -16.1606
  454 32.2541 21.6913 16.2499
  455 373.546 58.4368 -33.8265
  456 300.155 -11.6987 -15.5629
  457 338.873 -1.23308 -1.27151
  458 313.515 -4.79867 -17.9078
  459 -3.73578 2.24666 10.2264
  460 -3.68057 2.27724 -10.1881
  461 303.250 -12.1994 18.0954
  462 196.534 -11.0069 -4.24187
  463 195.926 -11.1212 3.57597
  464 267.280 -29.4849 -4.04549
  465 190.417 -2.67111 -58.7280
  466 290.723 -4.47168 26.2097
  467 237.972 -7.63981 -0.173856
  468 350.157 -26.3408 -3.68445
  469 184.437 1.60413 63.0011
  470 13.2175 -0.258006 4.53320
  471 13.1019 -0.252505 -4.54413
  472 383.671 75.8729 -15.2694
  473 307.570 -2.23811 0.183785
  474 306.508 -2.54098 -0.465251
  475 231.543 -15.4122 1.38151
  476 100.369 -3.38037 -3.23979
  477 100.360 -3.33955 3.19770
  478 59.0469 -0.684693 -13.9661
  479 59.1144 -0.696429 13.9360
  480 193.383 7.49500 11.3962
  481 48.1296 -1.62323 6.71411
  482 48.0617 -1.60754 -6.74978
  483 51.9007 5.00837 15.7289
  484 51.7282 5.08258 -15.7168
  485 297.907 -23.0614 21.8637
  486 166.209 -10.3386 -27.2291
  487 153.195 -4.91276 2.01360
  488 153.252 -5.03649 -2.01778
  489 167.971 -10.6648 27.2203
  490 465.743 110.411 -9.26920
  491 -7.44935 -1.12961 -6.16303
  492 -7.44557 -1.13548 6.15977
  493 116.100 -3.22692 -1.33998
  494 116.097 -3.17645 1.33396
  495 0.131296 -20.0806 -7.61310
  496 0.0826321 -20.1461 7.67993
  497 272.099 -4.01944 0.949593
  498 192.162 9.17454 -5.67572
  499 259.440 27.2147 16.3951
  500 165.202 -1.58786 -46.7098
  501 80.3132 -4.11667 10.1876
  502 80.3067 -4.08173 -10.2069
  503 -21.1337 0.674275 -1.56642
  504 -21.0110 0.670237 1.58240
  505 321.553 -6.09120 -48.4952
  506 24.5987 0.159889 -1.48676
  507 24.6387 0.164039 1.46644
  508 267.687 -21.0637 -6.30234
  509 285.338 -24.2917 -12.7525
  510 58.1021 44.1053 -58.5212
  511 239.768 6.42786 -92.8586
  512 2.94520 7.15286 4.89236
  513 3.05964 7.16775 -4.82900
  514 145.964 -6.71491 -5.76306
  515 145.889 -6.65229 5.63224
  516 412.613 16.9962 -10.1254
  517 296.726 -17.4986 -19.8298
  518 56.6384 41.6901 57.6909
  519 294.010 -33.3523 7.95992
  520 282.690 -26.8663 9.95143
  521 59.1538 -1.43631 -4.40300
  522 59.1891 -1.43028 4.35725
  523 231.235 2.48217 27.2627
  524 167.411 -12.3005 -10.7418
  525 313.148 -6.90433 11.3093
  526 -1.28537 -7.60367 -5.98284
  527 -1.28856 -7.59799 5.97446
  528 219.082 -19.4050 30.5423
  529 333.829 -25.6208 -25.2459
  530 435.968 29.9832 -14.9112
  531 235.073 -7.92150 0.305583
  532 68.9152 -1.27386 -1.29192
  533 68.9279 -1.24825 1.27942
  534 148.483 1.22084 44.9777
  535 416.121 69.4983 22.8177
  536 423.753 82.1977 -147.247
  537 379.247 1.92627 24.1064
  538 272.616 -30.2991 2.58118
  539 646.417 51.4001 43.5668
  540 477.315 115.242 13.4857
  541 66.5919 -2.77007 11.1313
  542 66.5438 -2.74203 -11.1519
  543 262.027 -21.6852 4.66001
  544 19.2815 9.35477 -4.44330
  545 19.4282 9.34886 4.50090
  546 329.722 -27.4643 25.2485
  547 268.754 14.4646 40.2779
  548 332.323 -2.10976 6.29338
  549 245.196 -14.6508 2.04404
  550 344.396 2.49408 -97.8875
  551 547.176 140.108 95.9601
  552 266.056 -5.14875 -0.831256
  553 326.303 -3.30382 -10.1198
  554 50.9625 21.2836 -22.4477
  555 51.3334 21.0266 22.3437
  556 186.002 -7.40995 -2.73841
  557 185.915 -7.23081 2.79818
  558 2.15652 -24.2376 -2.53959
  559 332.726 -11.9598 43.2418
  560 12.6143 11.4177 1.40625
  561 12.8161 11.4485 -1.31175
  562 2.52803 -23.4252 3.24870
  563 302.686 -13.8242 -34.9725
  564 348.418 21.8481 -46.7197
  565 347.150 24.7823 46.7198
  566 16.5918 13.9267 12.2268
  567 15.7521 14.2665 -11.9509
  568 -10.1677 0.323788 3.53238
  569 -10.3052 0.327070 -3.52579
  570 320.742 7.75862 100.957
  571 174.799 -9.62477 5.67309
  572 174.977 -9.59033 -5.79331
  573 387.017 -7.29223 -51.2864
  574 48.8698 -0.677738 2.55613
  575 48.8405 -0.689211 -2.58674
  576 21.8877 -0.609798 -0.606003
  577 21.9133 -0.605792 0.598893
  578 424.430 76.9485 -18.5268
  579 40.3218 58.4752 -64.7339
  580 220.919 4.39856 -23.0862
  581 313.278 50.0906 -20.5183
  582 4.57495 -0.279235 6.93144
  583 4.76501 -0.211587 -6.80384
  584 319.192 144.546 173.324
  585 270.053 -7.43228 -2.72146
  586 9.09280 2.75885 -5.90038
  587 9.21905 2.73886 5.92988
  588 311.933 -25.1330 30.1257
  589 47.7093 56.6254 65.9162
  590 224.638 -4.64075 0.240953
  591 224.699 -4.60058 -0.241865
  592 -0.245396 -15.9488 7.88590
  593 -0.221075 -15.9225 -7.85986
  594 383.144 74.8107 -0.613359
  595 243.359 -19.6644 43.6343
  596 232.224 -9.85100 0.00823912
  597 233.869 10.3674 97.9842
  598 -19.4154 0.985024 4.74972
  599 -19.3955 0.990358 -4.73061
  600 383.977 4.72046 -25.8871
  601 513.216 84.6926 -68.2576
  602 145.292 14.7225 -65.0318
  603 77.9714 -3.24917 -13.5931
  604 78.0426 -3.24950 13.5938
  605 347.936 -1.08851 1.77416
  606 229.908 -10.0663 -0.299840
  607 308.858 -4.12123 3.91480
  608 302.707 -13.8208 34.1535
  609 11.6095 -0.497310 2.24590
  610 11.5088 -0.495159 -2.26427
  611 178.757 -6.15533 -1.58073
  612 178.731 -5.98323 1.52491
  613 111.227 2.46852 -29.9270
  614 110.503 2.49984 29.7905
  615 438.673 25.2409 25.1664
  616 718.150 54.1189 -78.6161
  617 -6.35672 -0.436304 3.09662
  618 -6.49821 -0.434819 -3.09631
  619 104.707 -4.38490 5.99554
  620 104.703 -4.37994 -6.08043
  621 408.373 21.8135 15.7085
  622 344.079 -1.14104 -0.563629
  623 343.314 -1.68132 0.243744
  624 247.196 -0.116109 27.0050
  625 359.189 -21.4113 -31.0960
  626 194.061 -15.8774 12.8394
  627 -4.67079 4.37344 -4.49055
  628 -4.75648 4.36682 4.53996
  629 311.655 6.23651 50.9051
  630 122.732 -7.01902 -14.1704
  631 122.610 -7.13699 14.1982
  632 254.005 -14.6119 -2.98891
  633 314.627 -6.79117 -10.2373
  634 178.655 -14.2023 -19.6033
  635 293.089 35.3306 -30.9296
  636 197.833 -13.6746 -35.4753
  637 71.5150 -1.91288 -2.26094
  638 71.5280 -1.88943 2.22930
  639 180.529 -14.4606 19.6789
  640 389.498 62.6627 30.4166
  641 309.626 -15.1396 43.0305
  642 253.512 -11.1905 2.75011
  643 180.706 -4.71903 1.09084
  644 180.660 -4.73009 -1.05596
  645 135.736 -5.00499 -4.24343
  646 135.683 -4.94889 4.19536
  647 298.275 -27.3931 -17.5895
  648 150.079 -8.43053 7.44244
  649 150.244 -8.39719 -7.60151
  650 297.974 46.0543 -4.15468
  651 275.615 -14.3960 7.68808
  652 345.966 -1.54659 -2.74599
  653 292.495 -5.46080 -44.7828
  654 41.2151 -1.83991 8.93282
  655 41.1323 -1.82673 -8.94203
  656 337.253 -1.80052 -5.69771
  657 59.4909 30.6287 -41.0474
  658 60.5154 30.5506 41.2497
  659 343.800 -21.1579 43.3411
  660 117.445 29.1864 68.4844
  661 28.0077 -0.153577 8.94087
  662 27.9079 -0.146911 -8.94641
  663 292.477 -19.1938 56.4343
  664 288.580 39.8643 -133.804
  665 279.703 8.68890 -44.6493
  666 369.357 66.7437 26.1527
  667 249.110 -10.9537 -1.63784
  668 448.525 80.9208 -1.96417
  669 -21.9863 1.02418 -0.939750
  670 -21.8822 1.02145 0.962446
  671 198.438 0.732501 -68.9308
  672 12.4292 -0.289462 1.74386
  673 12.3576 -0.290216 -1.76268
  674 249.333 -21.1521 -43.1214
  675 81.8938 11.3106 -28.8309
  676 81.2344 11.3490 28.8141
  677 1.27370 4.14282 -1.58595
  678 1.38690 4.13705 1.63414
  679 211.505 -18.2276 -9.47033
  680 299.939 -2.94998 -17.2140
  681 142.086 -4.33001 -1.54209
  682 142.092 -4.27993 1.55465
  683 102.451 -5.21336 -9.02721
  684 102.530 -5.28675 8.99172
  685 19.2800 15.8671 -5.20890
  686 19.6061 15.9002 5.31834
  687 308.378 -3.54546 1.98805
  688 135.811 -8.57975 11.7584
  689 136.695 -8.42723 -11.7465
  690 341.154 -27.5955 -4.77567
  691 280.741 -28.2231 -6.91433
  692 220.357 -6.09100 -0.0421756
  693 219.571 -5.66751 0.153995
  694 309.558 -32.9408 16.1526
  695 503.157 101.391 25.9941
  696 271.877 -12.4270 -70.2932
  697 311.388 -8.63806 18.0687
  698 308.897 -11.6252 -46.1256
  699 95.0604 -2.92525 -4.20971
  700 95.0588 -2.90233 4.15351
  701 241.554 -4.43012 78.9253
  702 678.798 86.8576 79.6884
  703 45.8213 13.4589 -16.4206
  704 45.8888 13.5482 16.4752
  705 307.431 -2.83996 -1.00867
  706 309.890 -2.53887 1.02819
  707 130.038 64.9990 -111.637
  708 326.274 -1.71463 10.0979
  709 282.063 -4.68533 1.63351
  710 371.070 73.6504 -9.70196
  711 37.2504 6.76383 -11.8266
  712 37.4145 6.72087 11.8712
  713 351.180 -0.814311 0.320769
  714 283.528 -10.8042 -7.48731
  715 353.656 -5.68464 37.9973
  716 143.820 -10.0343 -18.5958
  717 144.182 -9.59924 18.4133
  718 31.6992 -1.12197 6.76286
  719 31.6075 -1.10772 -6.78254
  720 321.437 -2.05143 -1.83056
  721 276.941 53.3681 142.105
  722 1.92326 1.99195 9.35440
  723 2.02608 2.05269 -9.28378
  724 322.069 -3.35848 -4.75500
  725 312.620 -5.61904 6.77731
  726 245.996 0.144135 -28.9641
  727 2.31261 -28.8030 -3.84517
  728 2.15937 -29.0829 4.12665
  729 112.966 30.0675 -68.4769
  730 248.827 -25.0700 -30.9042
  731 129.026 64.4294 112.727
  732 346.500 -0.802169 1.07923
  733 332.782 49.7508 32.8241
  734 241.569 21.9494 -11.4136
  735 436.732 88.0470 -0.111043
  736 341.955 -1.38148 3.70638
  737 -21.0382 0.503306 2.48699
  738 -21.1735 0.506079 -2.47692
  739 363.672 -21.2010 8.72062
  740 234.653 -6.60891 -0.0758896
  741 84.4981 0.180083 -20.4548
  742 84.6078 0.0950354 20.3331
  743 312.747 -3.53326 -2.80777
  744 552.958 78.3278 -28.0958
  745 35.6945 -1.07251 -4.20990
  746 35.7706 -1.07888 4.17755
  747 348.915 -0.891648 -1.72510
  748 67.9384 -3.04212 -5.87920
  749 67.9814 -3.05290 5.83133
  750 340.394 -13.8539 -39.1056
  751 314.299 -3.27110 13.9007
  752 281.166 -1.95590 44.2383
  753 349.575 -0.928313 -0.0322357
  754 325.941 -2.35975 3.64629
  755 212.141 -11.2935 -1.89985
  756 266.592 -6.84912 2.06604
  757 302.996 -18.6705 -29.2459
  758 295.611 -18.5428 19.1536
  759 346.128 41.6239 -41.4227
  760 291.583 -16.2802 14.2610
  761 307.864 -18.3167 37.3241
  762 177.835 -11.9482 7.70131
  763 6.34409 -2.21457 -0.838460
  764 6.00221 -2.23553 1.16208
  765 269.979 -3.89364 0.0306465
  766 269.404 -3.86453 -0.131325
  767 324.485 -1.34432 -0.205508
  768 325.619 -1.27840 0.282327
  769 308.317 -8.62175 22.0874
  770 284.672 -26.4041 40.6592
  771 233.358 -18.8611 3.05854
  772 207.063 -12.2344 3.47519
  773 564.221 72.3443 32.7516
  774 311.947 -7.83578 -14.2870
  775 182.416 31.3647 -104.761
  776 289.740 -14.2205 -12.3515
  777 10.7032 0.249307 -6.38630
  778 10.8266 0.238702 6.39451
  779 257.505 22.5668 -25.5917
  780 660.631 20.0637 -8.63931
  781 325.759 8.13752 -49.8748
  782 12.9215 6.28759 -25.1717
  783 334.776 60.3387 8.41114
  784 261.661 -16.5376 4.54001
  785 293.685 -7.44942 43.4639
  786 247.542 -26.1507 31.0774
  787 397.515 -3.20163 63.4278
  788 13.9265 9.32211 26.9139
  789 178.590 -1.16448 53.5877
  790 250.176 -6.29218 -0.826173
  791 279.071 -25.2790 -41.1649
  792 170.498 -13.2262 -13.6053
  793 134.588 6.38586 -46.7356
  794 323.037 -5.25879 48.8798
  795 206.766 -14.0056 5.82706
  796 38.3278 -1.11749 3.78083
  797 38.2718 -1.11891 -3.81737
  798 300.873 -1.63840 15.2532
  799 272.191 1.26394 -42.9584
  800 -24.0048 1.07937 2.97509
  801 -23.9685 1.08136 -2.95428
  802 201.160 -6.17796 -0.616121
  803 200.569 -5.83346 0.552396
  804 149.073 16.5118 65.9914
  805 132.519 -7.69611 8.79854
  806 132.707 -7.50643 -8.89513
  807 348.757 -0.629516 -0.953803
  808 121.068 9.56603 45.5249
  809 2.52434 -0.113855 2.40884
  810 2.39920 -0.111295 -2.41971
  811 297.222 -9.22508 33.6555
  812 318.621 -2.60432 1.45614
  813 -17.0231 0.193924 4.70906
  814 -17.0256 0.199377 -4.69961
  815 195.229 -12.3273 39.9082
  816 37.4677 31.1549 -34.6561
  817 37.9305 29.6894 34.1256
  818 183.032 8.12452 4.73406
  819 -4.48009 -0.184170 -2.76732
  820 -4.33856 -0.186079 2.76424
  821 224.682 -21.4071 -29.0983
  822 307.243 -32.3410 -10.8973
  823 -1.52564 -1.44986 -1.91633
  824 -1.52118 -1.44649 1.90926
  825 14.6547 0.529125 -0.561325
  826 14.6876 0.532071 0.550552
  827 273.075 -24.2671 7.28504
  828 229.615 -23.5419 20.1204
  829 254.696 -4.15315 0.749866
  830 229.004 -18.3982 -3.92984
  831 82.7346 -1.34518 -0.431583
  832 82.7426 -1.31146 0.423708
  833 -27.1841 0.576256 1.74648
  834 -27.1256 0.575491 -1.72607
  835 288.030 -3.60414 -1.33135
  836 253.319 9.88151 -36.5207
  837 291.215 -5.66361 -3.95635
  838 170.855 -12.9902 12.9467
  839 287.269 -5.08619 -35.5173
  840 307.980 -9.36779 -22.8237
  841 289.210 -3.07749 1.19639
  842 210.423 -8.18101 54.9773
  843 224.814 -21.9360 -11.1680
  844 134.966 -1.00281 -35.7054
  845 135.714 -0.0647059 35.8919
  846 191.363 -14.2569 -8.35200
  847 318.008 34.3368 42.6612
  848 302.619 -31.7208 -22.1900
  849 107.742 -3.37145 -2.09878
  850 107.731 -3.31982 2.07571
  851 230.850 -5.11778 0.0731353
  852 230.858 -5.16123 -0.0155979
  853 274.344 -2.10174 -23.2016
  854 91.6536 -3.85883 -7.28311
  855 91.7016 -3.88815 7.21830
  856 1.10305 -28.9080 -5.77396
  857 1.04330 -29.0321 5.89147
  858 45.3048 -0.673908 -0.225623
  859 45.2839 -0.688181 0.216186
  860 285.814 -4.36151 -1.86975
  861 216.323 -20.6129 18.1564
  862 336.969 -29.1153 11.5263
  863 195.437 4.10742 18.1344
  864 292.233 -6.77693 4.52739
  865 318.871 -28.7221 -23.5451
  866 45.1488 2.92756 -13.6056
  867 45.2825 2.87908 13.5971
  868 253.391 -4.46580 -0.686579
  869 203.605 -6.96845 -1.50071
  870 202.890 -6.90526 1.68200
  871 314.165 48.9394 23.1103
  872 108.700 -1.04585 -24.7664
  873 108.594 -1.17345 24.6545
  874 218.345 -19.6852 8.81242
  875 20.7450 13.6111 -4.47495
  876 20.9526 13.5840 4.53367
  877 184.484 -13.1492 32.3954
  878 221.486 -14.0307 -1.99486
  879 275.976 -2.17555 23.4453
  880 272.420 -30.7253 9.74102
  881 312.329 -23.8570 -32.4637
  882 215.795 -20.7820 -18.4215
  883 179.134 -11.8975 -7.37364
  884 589.835 48.5536 -9.06218
  885 285.433 -30.2758 5.16309
  886 7.89965 9.25232 3.62920
  887 8.04806 9.26991 -3.55186
  888 247.844 -24.8055 4.49038
  889 272.034 -30.7178 -17.4778
  890 8.35565 8.12144 0.564523
  891 8.48567 8.12333 -0.505532
  892 101.560 -3.57225 18.7051
  893 101.625 -3.68251 -18.8202
  894 123.283 -6.19913 20.5380
  895 123.240 -6.34857 -20.6848
  896 392.434 78.7452 12.1297
  897 -0.589674 -12.1428 -5.81148
  898 -0.593873 -12.1286 5.80757
  899 89.4809 7.61291 -27.4146
  900 89.0365 7.45672 27.1386
  901 683.269 22.1504 -34.5873
  902 11.2245 -0.0614652 0.969354
  903 11.1703 -0.0636970 -0.984123
  904 1.15748 -33.2740 2.04528
  905 1.35403 -32.7223 -1.57921
  906 -12.9983 -0.168761 4.82014
  907 -13.0123 -0.164743 -4.81848
  908 71.4897 21.0466 -32.3305
  909 72.5995 20.3492 31.8642
  910 -5.76213 0.224504 -10.2012
  911 -5.79054 0.201884 10.2193
  912 19.9376 1.87806 -8.80396
  913 20.0642 1.85404 8.81642
  914 77.7477 -0.851733 17.2077
  915 77.6953 -0.848008 -17.2982
  916 63.1879 -2.14141 -13.8618
  917 63.2510 -2.13712 13.8380
  918 338.672 -1.21914 -5.59440
  919 164.254 34.7133 97.3224
  920 227.073 -22.3636 10.4176
  921 160.767 -11.4406 10.3444
  922 310.877 31.9093 -42.1103
  923 671.870 14.4410 13.7740
  924 369.542 16.4867 -40.3003
  925 59.9550 -2.30221 8.61624
  926 59.8955 -2.27568 -8.65082
  927 9.78162 -0.335419 -6.35046
  928 9.90198 -0.338852 6.34964
  929 -0.281109 -5.86690 -11.1188
  930 -0.329588 -5.91460 11.1558
  931 166.178 -7.20286 4.47543
  932 166.266 -7.34741 -4.50036
  933 19.4847 5.43833 -7.73418
  934 19.6211 5.41362 7.77600
  935 100.748 -4.44995 -15.8284
  936 100.815 -4.44952 15.8164
  937 218.108 -1.02252 -21.3545
  938 103.906 -5.61493 -10.8950
  939 103.831 -5.55234 10.9313
  940 255.194 -6.95684 -1.03494
  941 308.751 -17.7834 -40.0620
  942 133.858 -5.33742 4.86151
  943 133.924 -5.38851 -4.93218
  944 -5.57334 -0.603143 -3.38232
  945 -5.55835 -0.604588 3.37522
  946 314.989 -24.6382 -50.5472
  947 301.255 -17.6406 25.4836
  948 264.143 -18.3462 -5.79521
  949 256.622 8.68598 38.4918
  950 116.142 -6.47837 -12.2850
  951 116.140 -6.35238 12.3241
  952 287.260 10.8767 46.5994
  953 267.747 23.3108 30.6722
  954 550.262 66.2918 11.5219
  955 281.233 -9.92237 5.55760
  956 146.998 -4.25533 -2.17666
  957 146.979 -4.16763 2.19640
  958 251.547 -20.5183 -1.41678
  959 347.965 63.8922 -19.7947
  960 308.452 -3.15564 -2.01220
  961 201.642 -4.74494 0.709829
  962 201.563 -4.70693 -0.651516
  963 25.3341 21.2872 -14.8175
  964 25.9834 21.2457 14.9341
  965 48.6403 120.783 -108.660
  966 287.985 -6.87067 35.3343
  967 359.613 -7.05788 -33.9371
  968 -6.42601 3.45191 2.08117
  969 -6.33227 3.45109 -2.03467
  970 735.031 173.397 -138.770
  971 307.761 -33.5677 4.18552
  972 328.427 -30.6042 -12.4334
  973 302.886 -25.9813 23.2867
  974 374.166 73.7788 8.31222
  975 26.7705 27.4510 -32.2544
  976 68.8465 104.164 106.451
  977 -1.87432 -4.29984 11.0803
  978 -1.84420 -4.26486 -11.0613
  979 294.948 -7.36900 5.63664
  980 473.612 83.9808 -9.79471
  981 27.5593 26.8035 33.5681
  982 -1.30838 -4.35431 -3.76100
  983 -1.30868 -4.34247 3.75142
  984 252.730 -5.67122 0.442288
  985 188.049 -14.8789 -14.1744
  986 305.235 -24.1619 -27.5540
  987 85.9979 23.1165 -42.9161
  988 87.3816 23.5003 43.0288
  989 296.132 -7.36711 -31.5548
  990 298.923 -9.32088 10.3482
  991 -8.08966 1.98009 9.00491
  992 -8.04973 2.00012 -8.97593
  993 179.572 -11.8379 -30.4308
  994 298.395 18.9281 -46.8207
  995 221.960 -8.11682 0.568086
  996 159.046 -4.39165 0.344040
  997 159.017 -4.42231 -0.325654
  998 -3.39333 -3.84966 -7.87361
  999 -3.39824 -3.85799 7.86752
  1000 302.962 -10.6633 -12.6949
  1001 288.619 -3.00765 0.363933
  1002 288.350 -3.01105 -0.244855
  1003 398.605 64.8177 -28.1740
  1004 70.9754 6.23012 -21.5224
  1005 71.1515 6.10559 21.4717
  1006 44.7785 -0.394726 -11.4626
  1007 44.8624 -0.403880 11.4473
  1008 327.869 17.3189 50.4533
  1009 310.923 -5.68595 -7.11521
  1010 53.9956 8.61355 -17.4327
  1011 54.2106 8.54838 17.4973
  1012 324.803 -1.58041 -1.19264
  1013 302.579 -12.9770 -19.2144
  1014 295.461 -33.4887 -11.9403
  1015 11.0436 9.32743 -0.486600
  1016 10.7305 9.28286 0.628563
  1017 -14.5090 2.32099 5.40079
  1018 -14.4574 2.32731 -5.36645
  1019 176.705 6.70025 -7.91920
  1020 512.216 126.449 -33.7280
  1021 233.071 -16.8497 -0.955042
  1022 153.623 -6.70220 -31.3468
  1023 375.224 -15.4587 4.13458
  1024 154.229 -6.69823 31.7916
  1025 268.316 -31.3107 20.5408
  1026 304.223 -12.5654 -28.7563
  1027 103.019 -2.33489 -0.672065
  1028 103.024 -2.29162 0.667220
  1029 207.234 -16.0820 -7.15454
  1030 126.474 -4.68158 -24.3189
  1031 126.422 -4.71715 24.1900
  1032 41.6838 27.2269 -26.2797
  1033 42.3511 27.1444 26.3582
  1034 86.3544 -2.71771 -2.39985
  1035 86.3573 -2.68288 2.36662
  1036 270.725 -8.37878 3.06346
  1037 228.233 0.721639 -79.9258
  1038 280.674 -8.92850 -5.51324
  1039 253.190 -28.0178 -12.1140
  1040 165.744 -6.85569 3.02901
  1041 165.883 -6.90875 -3.04014
  1042 329.231 -1.87701 1.50290
  1043 293.839 -6.79392 -5.28640
  1044 186.683 4.52831 14.9311
  1045 314.702 -3.09661 -12.9264
  1046 121.250 35.1880 77.7396
  1047 324.245 -2.96651 -10.6147
  1048 83.8546 14.1518 -32.2067
  1049 81.3237 14.3140 30.8721
  1050 387.839 -7.12143 -5.80450
  1051 34.4335 18.0746 -13.4732
  1052 34.7537 17.9434 13.4692
  1053 5.80763 -0.796970 3.75715
  1054 6.10530 -0.742931 -3.56105
  1055 48.5504 -1.30419 2.90920
  1056 48.5109 -1.31302 -2.94755
  1057 138.076 35.6288 -86.2515
  1058 759.123 196.188 149.334
  1059 301.944 -10.6603 13.0225
  1060 270.714 -30.4615 -8.69745
  1061 187.560 -15.4036 -23.3903
  1062 -4.08714 4.08438 7.89636
  1063 -4.01503 4.10680 -7.84805
  1064 211.897 -10.7323 1.46141
  1065 233.993 -8.47841 -0.263915
  1066 -0.123053 -17.2194 5.61506
  1067 -0.117190 -17.2356 -5.61332
  1068 34.6879 21.5831 -16.1104
  1069 35.1047 21.5412 16.2085
  1070 209.039 -9.84670 -1.38412
  1071 15.9171 7.60530 4.73712
  1072 15.7813 7.61610 -4.68299
  1073 320.038 -12.7926 46.4311
  1074 231.365 -23.9724 -20.0187
  1075 188.684 -15.6525 23.3885
  1076 304.485 -6.25424 -48.7580
  1077 322.450 -3.36707 5.16628
  1078 115.851 17.7873 51.9591
  1079 116.686 17.0262 -51.0859
  1080 187.392 -9.13200 -43.6773
  1081 266.157 -9.32972 -3.13763
  1082 215.876 -12.8268 3.12135
  1083 253.259 -23.5900 -0.276237
  1084 348.854 -1.17404 -2.93087
  1085 187.047 -8.44333 3.12308
  1086 186.966 -8.93900 -3.23068
  1087 6.09788 7.20474 6.53380
  1088 6.25191 7.25834 -6.44557
  1089 306.795 11.1679 -50.3494
  1090 68.0937 3.52444 -18.9761
  1091 68.2751 3.44706 18.9211
  1092 50.8428 1.04448 -13.5389
  1093 50.9522 1.01571 13.5124
  1094 351.425 -14.6667 63.7413
  1095 303.878 -13.9749 28.3658
  1096 147.937 -6.75764 -26.5238
  1097 354.693 -1.35119 -1.75380
  1098 396.551 74.8222 -21.3317
  1099 321.921 -2.91772 -3.28556
  1100 301.188 -32.5382 10.7006
  1101 222.475 -16.9957 38.2226
  1102 357.163 -0.377173 0.348806
  1103 186.326 5.82887 -12.6648
  1104 255.036 -27.2633 -5.32264
  1105 148.172 -7.06683 26.2253
  1106 257.428 -23.3873 -1.20736
  1107 321.774 -4.47565 9.58752
  1108 228.747 14.4704 19.7566
  1109 159.180 -11.6563 -21.0493
  1110 486.869 68.3597 -27.5940
  1111 365.024 16.2215 42.2411
  1112 271.136 34.0132 4.85401
  1113 353.099 0.106790 1.56932
  1114 137.949 -8.55848 -16.0401
  1115 94.2262 57.8398 -86.5923
  1116 168.828 4.44942 -62.2686
  1117 193.693 -14.7902 9.92856
  1118 163.397 -12.1860 19.6877
  1119 137.609 -8.13375 16.2097
  1120 291.642 2.42545 48.9223
  1121 220.419 -7.51316 -0.312134
  1122 347.879 -2.52696 3.92050
  1123 -2.84324 -0.300330 11.0949
  1124 -2.80174 -0.265427 -11.0671
  1125 230.997 -6.41854 -0.0886647
  1126 -0.375936 2.50729 10.1026
  1127 -0.301074 2.55278 -10.0500
  1128 128.844 -3.97704 2.79333
  1129 128.856 -4.04258 -2.79711
  1130 327.180 -1.72845 8.81299
  1131 262.630 -15.9534 -4.83316
  1132 245.893 -12.9984 -1.63444
  1133 275.196 -19.1837 9.57919
  1134 83.4276 41.2809 -64.4253
  1135 269.853 -10.0504 4.07350
  1136 39.4075 0.784080 -11.0866
  1137 39.5111 0.764128 11.0765
  1138 55.7323 35.8083 -45.1739
  1139 432.182 56.1035 14.3924
  1140 29.7291 -1.40029 6.44737
  1141 29.6323 -1.38873 -6.45903
  1142 56.7410 35.2427 43.6017
  1143 246.815 -20.5798 0.420746
  1144 124.088 -5.72918 6.03788
  1145 124.111 -5.75681 -6.14264
  1146 504.926 106.783 -27.7605
  1147 272.111 -27.2529 2.35977
  1148 92.7614 54.0819 86.4020
  1149 7.86130 -2.48234 -6.92154
  1150 8.47828 -2.37916 7.65096
  1151 285.786 35.8445 24.6049
  1152 21.0617 11.5414 -4.76146
  1153 21.2345 11.5441 4.81065
  1154 273.924 -23.7748 -7.69953
  1155 -0.128298 -26.6466 -5.28286
  1156 -0.140762 -26.6517 5.30689
  1157 292.880 -24.7070 -16.4626
  1158 -5.74915 0.362527 2.15608
  1159 -5.89130 0.364775 -2.16148
  1160 44.3051 16.5701 -17.4733
  1161 44.5461 16.6410 17.3092
  1162 -15.8537 0.0378722 -2.64097
  1163 -15.7046 0.0367582 2.64331
  1164 293.053 -3.03547 -0.485367
  1165 -29.4784 0.858339 0.526374
  1166 -29.3984 0.857850 -0.507624
  1167 153.887 -12.0366 -15.4504
  1168 4.07283 -38.9879 -3.69309
  1169 76.3868 -2.14855 4.62355
  1170 76.3627 -2.15662 -4.67776
  1171 248.560 -4.57560 0.331980
  1172 249.034 -4.45054 -0.283122
  1173 4.37322 -37.2005 4.58908
  1174 294.881 -15.3017 -16.1759
  1175 337.205 -1.51681 6.51687
  1176 299.523 -19.1620 -23.5372
  1177 260.441 1.88943 38.1916
  1178 1.35268 -10.8780 8.23311
  1179 1.48102 -10.7979 -8.09964
  1180 190.963 -13.7932 7.84231
  1181 -13.2040 1.18067 7.18171
  1182 -13.1796 1.19075 -7.16044
  1183 498.020 79.3785 5.19990
  1184 584.030 180.625 -127.204
  1185 306.272 -29.8231 20.3281
  1186 125.506 -3.59033 -0.375723
  1187 125.512 -3.54458 0.376030
  1188 629.886 61.1071 -56.2529
  1189 43.7108 -1.14588 6.69797
  1190 43.6330 -1.12802 -6.72539
  1191 285.475 -0.933820 -15.1748
  1192 183.159 -14.7655 17.4963
  1193 302.976 -29.7497 -14.9465
  1194 293.171 -21.2809 -18.4994
  1195 178.451 -6.33529 45.8120
  1196 65.6680 12.2752 -24.2770
  1197 65.6298 12.1657 24.1359
  1198 86.8004 32.0807 -54.6938
  1199 86.9118 29.6771 54.6938
  1200 24.4508 7.25983 -8.17774
  1201 24.5983 7.23773 8.22866
  1202 361.247 62.5516 -28.9780
  1203 18.4467 16.8224 -7.24939
  1204 18.8826 16.8452 7.37959
  1205 260.706 -19.8735 4.23027
  1206 489.259 70.8054 31.1098
  1207 60.8936 -2.55538 -4.55510
  1208 60.9354 -2.55426 4.50704
  1209 318.882 218.986 -190.117
  1210 242.788 14.3814 -30.5103
  1211 222.582 17.1231 12.4434
  1212 30.6222 13.0128 -9.68529
  1213 30.7691 13.0121 9.74052
  1214 4.94767 -0.0559988 1.58036
  1215 4.85430 -0.0558992 -1.59474
  1216 288.929 -23.1716 15.3744
  1217 284.235 -11.2622 8.21655
  1218 194.514 54.4539 -135.672
  1219 448.360 97.7771 -3.93664
  1220 192.178 -5.90388 -50.5162
  1221 249.479 -7.52336 0.768945
  1222 11.1683 -1.24748 -0.376723
  1223 11.1886 -1.24663 0.374511
  1224 -6.95730 1.95349 -3.51018
  1225 -6.83745 1.94529 3.53808
  1226 166.923 1.75512 -53.1131
  1227 308.715 -6.66589 9.11084
  1228 200.237 3.51431 72.8066
  1229 271.653 -13.3181 -6.34239
  1230 139.902 49.4734 -106.556
  1231 217.678 -10.7236 -54.5934
  1232 259.408 -27.6990 3.85999
  1233 318.037 -4.96493 14.3631
  1234 278.935 -5.68247 -2.36682
  1235 153.228 -11.2903 15.5431
  1236 349.981 -19.9037 -26.5033
  1237 331.394 28.5994 47.8048
  1238 143.908 0.665888 -41.8514
  1239 331.282 -1.96097 1.15382
  1240 264.273 32.9390 -6.92415
  1241 114.208 -3.93510 -4.53576
  1242 114.184 -3.89236 4.48267
  1243 507.769 116.068 27.2319
  1244 696.309 18.5125 32.4030
  1245 0.610439 -32.5559 -5.25338
  1246 0.590466 -32.5935 5.29384
  1247 74.2401 39.0125 60.1998
  1248 178.108 -5.09425 -0.845972
  1249 178.146 -5.06195 0.913190
  1250 244.637 -24.5892 -5.89196
  1251 291.262 23.7935 42.4011
  1252 306.295 -5.90510 -5.90705
  1253 356.783 -0.902527 -0.286826
  1254 617.896 136.937 -86.0591
  1255 94.6585 -3.54874 4.65094
  1256 94.6521 -3.55704 -4.71646
  1257 293.176 -27.2222 15.7883
  1258 516.358 124.915 -37.4940
  1259 284.389 -12.2967 -9.24745
  1260 207.180 -14.3201 -5.23832
  1261 254.858 -27.7267 11.7854
  1262 249.212 -12.3434 2.18858
  1263 9.10664 1.29545 -11.1780
  1264 341.311 -20.9227 31.4197
  1265 276.284 -17.9885 -9.34126
  1266 10.0439 1.77293 12.4230
  1267 284.227 -22.9382 -51.1540
  1268 268.861 16.2990 -110.948
  1269 443.014 55.8386 -10.1730
  1270 358.207 -0.206236 -0.116500
  1271 357.557 -0.538308 0.326142
  1272 281.084 -16.3104 10.0808
  1273 107.571 12.8225 -41.1779
  1274 320.282 -28.6066 25.4432
  1275 545.732 124.507 56.4847
  1276 134.079 45.7356 103.780
  1277 3.64053 0.264355 8.43651
  1278 3.78210 0.332745 -8.33878
  1279 336.818 -27.4152 -27.0889
  1280 134.396 -7.27227 -7.24378
  1281 134.369 -7.29072 7.10434
  1282 313.228 -20.7265 38.4824
  1283 10.4715 0.0984915 7.06417
  1284 10.3512 0.104640 -7.06234
  1285 -1.74766 -6.58736 9.08587
  1286 -1.73597 -6.57323 -9.08703
  1287 54.3917 -1.88137 -6.10971
  1288 54.4495 -1.89262 6.06817
  1289 164.018 -10.9237 -23.9819
  1290 165.109 -5.34850 1.29648
  1291 165.104 -5.46942 -1.23366
  1292 356.834 -0.199831 0.0120950
  1293 316.050 -4.80671 -16.1451
  1294 24.8130 1.19830 -8.82917
  1295 24.9299 1.18058 8.83159
  1296 164.675 -11.5604 23.7799
  1297 360.385 -0.335753 0.117790
  1298 340.266 -0.227883 -0.378353
  1299 340.261 -0.431616 0.289837
  1300 448.827 94.0690 5.99930
  1301 331.348 -2.14235 -2.61414
  1302 293.957 -2.85503 0.380038
  1303 325.711 -4.84201 -8.47874
  1304 354.878 -1.09505 1.20862
  1305 368.784 37.7306 41.8712
  1306 427.515 88.4799 11.5013
  1307 344.376 -1.32419 -4.32712
  1308 -2.80369 -0.721618 2.52253
  1309 -2.81482 -0.721076 -2.53014
  1310 190.232 -11.8924 5.27616
  1311 190.193 -11.3615 -5.11231
  1312 372.155 41.8774 -39.8959
  1313 76.9226 26.4899 -45.0794
  1314 77.4187 25.7579 44.5815
  1315 249.971 0.00446486 -19.0932
  1316 258.319 -3.97606 -0.150207
  1317 258.003 -3.94192 0.0967170
  1318 -6.26686 -1.06897 9.25662
  1319 -6.25538 -1.05233 -9.25282
  1320 286.356 -0.740400 15.1506
  1321 436.495 86.8292 -0.474802
  1322 29.4784 -1.16660 -3.85300
  1323 29.5521 -1.16934 3.82068
  1324 322.506 -31.1246 14.2572
  1325 0.330527 5.23124 8.08680
  1326 0.424092 5.26309 -8.02656
  1327 58.0306 -1.31650 -1.24547
  1328 58.0498 -1.29520 1.22398
  1329 250.041 -0.395731 19.3816
  1330 8.40256 0.550512 -0.581130
  1331 8.44461 0.552614 0.570315
  1332 328.615 -3.72492 5.51402
  1333 457.250 83.5009 4.02918
</Section>

newXOutput 42

<Section columns = "stress_xx | stress_yy | stress_xy">
  1 374.836 -0.932457 0.679846
  2 375.442 -1.21972 -0.883259
  3 4.87483 0.355601 -0.979286
  4 -0.260181 -0.399331 -0.254791
  5 691.590 271.907 224.636
  6 702.255 311.587 -227.062
  7 -0.257283 -0.396802 0.251037
  8 4.85460 0.353618 0.976953
  9 377.427 -0.656328 -0.620850
  10 374.565 -1.25558 -0.890037
  11 374.799 -0.970442 0.853898
  12 372.877 -0.483033 0.397534
  13 372.076 -1.17662 -0.196618
  14 371.383 -1.12572 1.53173
  15 365.804 -0.771952 1.49465
  16 367.150 -2.62969 2.23160
  17 355.429 -2.16605 4.75542
  18 347.932 -0.926226 5.71166
  19 337.642 -1.16459 6.14973
  20 319.848 -1.03010 8.55912
  21 300.529 -0.892843 9.91989
  22 276.483 1.23705 13.5727
  23 243.612 1.91056 12.2750
  24 230.469 -0.152813 17.5537
  25 189.572 2.70945 12.4739
  26 164.778 3.59021 9.76287
  27 158.324 1.68418 7.19449
  28 151.400 5.23661 0.524993
  29 155.184 5.67335 -9.61768
  30 162.821 1.60233 -12.0792
  31 193.302 0.654478 -16.1473
  32 224.110 -1.55869 -16.8013
  33 244.792 1.58183 -12.2573
  34 276.844 1.41042 -13.5795
  35 299.737 -1.06307 -10.6285
  36 321.823 -1.18553 -8.08110
  37 336.261 -0.834847 -6.24367
  38 346.872 -0.979732 -5.24814
  39 358.215 -1.24646 -3.05239
  40 362.710 -1.24294 -2.92764
  41 367.077 -1.17958 -2.57183
  42 371.529 -1.35222 -0.536285
  43 373.262 -1.73148 -1.07336
  44 371.135 0.177018 -0.0962476
  45 374.371 -0.876212 -0.959840
  46 376.057 -1.87075 0.970434
  47 377.903 -1.06111 -0.0506446
  48 358.594 0.327999 -0.565482
  49 336.989 -1.26833 -1.06859
  50 312.597 -3.07093 -1.55697
  51 287.411 -2.49729 -1.13439
  52 265.498 -4.18977 -1.04457
  53 242.412 -4.57467 -0.958947
  54 219.168 -3.98624 -0.489208
  55 194.767 -4.30703 -0.662919
  56 174.159 -4.63878 -0.864728
  57 146.782 -4.46548 -0.712455
  58 118.633 -2.78521 -0.456043
  59 95.3738 -1.78041 -0.366439
  60 66.6754 -1.12333 -0.165463
  61 45.8275 -1.11951 -1.44690
  62 26.4528 -1.57931 -0.485730
  63 6.91766 0.182326 0.872040
  64 1.87563 1.36729 0.323110
  65 0.471779 0.558057 0.906149
  66 1.23642 0.252835 0.887484
  67 -2.71867 0.788118 0.374800
  68 -4.22171 1.02857 1.86391
  69 -4.77953 0.358244 0.652603
  70 -11.4959 0.759015 0.720451
  71 -14.6216 0.530684 1.78620
  72 -15.8134 0.182238 1.87166
  73 -23.1383 0.716817 1.45239
  74 -25.8701 1.06800 2.76823
  75 -28.8748 0.648056 0.992299
  76 -32.4289 0.469681 1.48416
  77 -33.8019 0.503434 0.586015
  78 -37.2017 1.20709 -0.819110
  79 -37.5830 0.827568 -0.611044
  80 -34.2296 0.629613 -1.17817
  81 -29.3999 0.815161 -2.25932
  82 -23.8712 0.356463 -3.42809
  83 -17.7732 0.194202 -3.57031
  84 -10.6636 -0.366236 -3.74122
  85 -4.62280 -0.291596 -2.18113
  86 -1.93528 -0.773486 -1.35971
  87 -0.326996 -1.95114 -1.17466
  88 -0.553307 -4.98537 -2.09764
  89 -0.628546 -9.79111 -3.68978
  90 -0.130018 -18.3489 -3.99128
  91 0.217385 -25.4019 -5.01782
  92 0.514205 -36.5334 -4.09674
  93 1.55514 -43.3761 -4.83300
  94 0.262247 -46.7628 -4.00523
  95 -0.0703455 -53.6331 -2.41052
  96 1.48517 -52.0346 -0.611241
  97 6.00251 -67.4652 2.80455
  98 5.33275 -36.3199 9.30211
  99 12.7204 -15.8064 20.5882
  100 38.3124 61.9255 64.7080
  101 163.907 209.288 184.660
  102 906.185 96.1864 134.696
  103 756.609 26.7274 48.2958
  104 720.062 11.4020 16.6455
  105 699.696 7.49166 -0.0871740
  106 712.624 10.8619 -13.6613
  107 763.803 22.8289 -40.0206
  108 896.719 76.4803 -125.541
  109 106.264 237.370 -152.801
  110 26.8990 44.9605 -49.9654
  111 9.36665 -22.1178 -17.0505
  112 4.83044 -40.0340 -7.96654
  113 5.97228 -70.1215 -2.15681
  114 1.42072 -53.2157 1.07130
  115 -0.157551 -54.2256 2.65069
  116 0.206535 -46.9928 4.13414
  117 1.52489 -43.4317 4.88765
  118 0.502565 -36.5147 4.11706
  119 0.208533 -25.3671 5.02529
  120 -0.134343 -18.3042 3.98909
  121 -0.629129 -9.76249 3.68212
  122 -0.554506 -4.96060 2.09040
  123 -0.326785 -1.94185 1.16823
  124 -1.92410 -0.772449 1.35435
  125 -4.60303 -0.292883 2.17537
  126 -10.6384 -0.369259 3.73789
  127 -17.7444 0.190899 3.57125
  128 -23.8558 0.352873 3.43452
  129 -29.4083 0.812640 2.27171
  130 -34.2623 0.629450 1.19142
  131 -37.6468 0.826889 0.623916
  132 -37.2911 1.20707 0.832444
  133 -33.9202 0.504787 -0.574524
  134 -32.5687 0.471339 -1.47579
  135 -29.0249 0.649925 -0.985789
  136 -26.0317 1.07020 -2.76581
  137 -23.3039 0.718856 -1.45040
  138 -15.9759 0.183479 -1.87240
  139 -14.7837 0.532814 -1.78914
  140 -11.6498 0.762021 -0.724720
  141 -4.91379 0.360256 -0.660413
  142 -4.33583 1.03059 -1.87535
  143 -2.81517 0.788636 -0.384969
  144 1.16675 0.252432 -0.897303
  145 0.422195 0.557044 -0.914011
  146 1.83926 1.36550 -0.329961
  147 6.89251 0.181195 -0.876012
  148 26.4294 -1.58506 0.481564
  149 45.8055 -1.13420 1.44226
  150 66.6598 -1.14950 0.159429
  151 95.3668 -1.81833 0.363263
  152 118.627 -2.82927 0.455476
  153 146.766 -4.50367 0.718307
  154 174.115 -4.65799 0.877097
  155 194.693 -4.28369 0.692348
  156 219.061 -3.89963 0.523272
  157 242.264 -4.36973 0.907003
  158 265.611 -4.24759 0.918574
  159 287.494 -2.85992 1.19680
  160 312.844 -3.00400 1.41926
  161 337.670 -1.07286 1.08324
  162 357.979 0.306627 0.549068
  163 207.000 -18.6392 -16.6605
  164 206.158 -18.9769 16.6220
  165 61.6877 17.1081 -24.4509
  166 62.2999 17.1721 24.3420
  167 244.773 -11.8820 62.8736
  168 256.690 -13.4246 -61.1695
  169 119.099 -6.22700 7.62962
  170 119.089 -6.16472 -7.74509
  171 261.611 -8.99868 1.71694
  172 256.305 -9.02446 -1.63087
  173 348.202 62.8934 -9.02499
  174 354.086 2.27262 -46.0099
  175 346.947 5.02427 49.3658
  176 82.5209 -3.09344 -16.3776
  177 82.5226 -3.06975 16.3421
  178 306.007 -30.3433 16.7216
  179 305.649 -23.5315 -23.1786
  180 3.99830 6.94817 7.64574
  181 4.12407 6.99313 -7.57123
  182 418.011 84.9475 14.1388
  183 80.0086 35.6827 -55.9876
  184 85.9081 36.0280 60.1038
  185 295.997 -13.7102 11.0213
  186 444.216 92.9541 -6.97779
  187 191.074 -6.82969 -2.04099
  188 190.760 -7.01173 2.02004
  189 304.460 -9.48632 -10.0309
  190 406.069 -3.00518 -4.78473
  191 73.7990 -2.21011 2.88019
  192 73.7792 -2.22998 -2.92429
  193 31.4581 4.10275 -10.9339
  194 31.6029 4.06063 10.9590
  195 170.340 -6.53785 -39.1615
  196 169.673 -6.90032 39.6695
  197 203.629 -13.1222 -5.57399
  198 204.037 -13.0486 5.97226
  199 52.1528 -1.82661 8.65459
  200 52.0789 -1.80138 -8.67576
  201 401.725 -7.59313 25.5346
  202 327.942 -32.4508 -7.36477
  203 311.893 -3.04713 -1.60192
  204 304.850 -3.72330 1.64380
  205 308.290 36.1206 34.7541
  206 13.0160 10.9688 -3.90050
  207 13.4968 10.9441 4.11421
  208 307.987 -12.4380 40.4538
  209 282.768 21.5427 -39.6712
  210 201.837 45.1554 -129.718
  211 212.229 38.1247 120.489
  212 4.96426 6.76204 -0.547369
  213 5.08348 6.76013 0.603930
  214 306.951 -10.9803 -41.7795
  215 535.293 75.1029 -5.00339
  216 255.151 -27.8676 22.0950
  217 257.097 -27.7061 -20.8621
  218 255.011 -18.1243 -1.93534
  219 316.893 -4.89717 5.38552
  220 152.566 -10.4123 -14.2409
  221 150.144 -10.3693 14.7009
  222 91.4172 1.91264 -24.8333
  223 91.5454 1.87636 24.6168
  224 324.965 -34.4614 -3.03411
  225 252.873 -19.2757 0.848116
  226 315.775 -4.77176 -4.25514
  227 245.424 -6.18714 0.210230
  228 247.584 -5.75733 0.258808
  229 311.291 -13.8540 23.4626
  230 26.0965 0.274695 -9.22716
  231 26.2086 0.262244 9.22464
  232 -3.97725 -2.68505 -10.5860
  233 -3.99754 -2.70992 10.5948
  234 46.6134 -2.05195 -4.98746
  235 46.6748 -2.05689 4.94527
  236 130.743 -3.84771 3.37945
  237 130.776 -3.91818 -3.40776
  238 150.942 10.4020 -57.5083
  239 150.959 8.66665 56.8523
  240 315.763 -9.78699 -20.0626
  241 147.687 -8.58851 -23.4845
  242 147.811 -8.85209 23.1404
  243 277.561 4.20306 44.8188
  244 242.128 20.8236 2.71000
  245 270.823 -26.9680 -1.53149
  246 1.15938 -6.75336 -9.71520
  247 1.06856 -6.82504 9.79444
  248 17.2692 17.2709 -19.0457
  249 18.3902 16.6475 20.0423
  250 266.277 -26.3787 -0.252689
  251 481.368 89.4964 -5.61181
  252 24.7182 16.7622 -7.89067
  253 25.0185 16.7541 7.98799
  254 -10.3625 2.21403 7.26036
  255 -10.3103 2.22552 -7.22440
  256 483.988 83.7010 8.28486
  257 168.327 -8.03523 -5.42346
  258 168.196 -7.90403 5.30636
  259 330.919 -22.4400 37.6389
  260 598.996 97.4060 60.0667
  261 98.2023 -5.15120 -13.4117
  262 98.1790 -5.18746 13.3966
  263 336.892 50.3810 -33.3438
  264 577.807 109.684 -54.5153
  265 403.339 40.0416 32.3626
  266 438.989 26.7795 -81.2131
  267 270.933 -12.7245 4.47063
  268 307.927 1.37127 -50.3781
  269 291.960 -20.5666 -13.3863
  270 325.635 -5.78269 12.7387
  271 -0.323577 3.10790 -3.24500
  272 -0.204270 3.09791 3.28501
  273 322.588 -10.9824 -78.7437
  274 34.2354 10.5918 -10.9891
  275 34.4003 10.5721 11.0501
  276 312.064 -7.54157 -25.5967
  277 44.6184 45.5380 -58.1237
  278 36.2507 -0.167350 -1.14705
  279 36.2807 -0.159125 1.12886
  280 329.666 -20.5791 -39.2475
  281 57.6325 25.8824 -30.9285
  282 58.4685 25.7399 31.0151
  283 15.8921 -0.508334 6.45743
  284 15.7749 -0.501916 -6.46301
  285 270.541 -12.0707 -4.34971
  286 44.9270 45.0439 59.7057
  287 431.736 32.1261 95.3432
  288 117.044 -4.61120 -4.56752
  289 117.020 -4.58090 4.49845
  290 215.903 -8.86343 -1.74344
  291 215.797 -9.60386 1.98546
  292 184.313 17.6147 -87.6619
  293 297.624 -32.6276 -5.38572
  294 339.548 -2.01806 2.38689
  295 177.499 17.5888 84.7826
  296 206.663 -5.54114 -0.565705
  297 206.584 -5.53687 0.745108
  298 292.424 -21.4099 13.6423
  299 336.494 -3.51368 -6.03455
  300 -2.73202 1.25809 -4.98200
  301 -2.60080 1.24869 5.00053
  302 422.111 84.0836 -3.90603
  303 370.151 -17.3876 20.4477
  304 334.561 -1.67600 -0.641930
  305 340.464 -1.45786 0.581258
  306 333.375 -29.5005 27.8992
  307 411.239 42.7431 -30.1376
  308 358.804 66.7801 19.2592
  309 160.702 -9.80902 -8.85755
  310 159.231 -9.98948 9.03748
  311 339.179 -1.95689 -1.61686
  312 221.940 -16.8280 -42.9628
  313 218.273 -17.1808 7.13160
  314 208.118 -11.4130 49.0575
  315 333.556 -3.96343 7.20281
  316 74.6658 -3.42963 -8.34796
  317 74.7132 -3.45493 8.30919
  318 307.311 -10.4876 77.8251
  319 194.503 -15.3482 -11.0211
  320 358.440 45.8868 41.8181
  321 113.739 8.00785 -37.1341
  322 109.488 8.37039 36.8215
  323 32.0945 -0.691317 -2.08426
  324 32.1448 -0.686591 2.05529
  325 294.494 -5.88708 3.18195
  326 282.389 -3.95988 0.470273
  327 280.793 -4.34307 -0.567829
  328 309.708 -7.94399 27.1122
  329 25.7354 -0.981041 4.79783
  330 25.6370 -0.971780 -4.82114
  331 89.3007 -2.11480 -1.73015
  332 89.3053 -2.07890 1.71084
  333 2.93313 -14.2350 -5.49083
  334 2.73705 -14.3481 5.72458
  335 239.820 10.3492 30.3902
  336 373.755 -16.3597 -16.7497
  337 241.368 -12.7718 1.10113
  338 273.177 -5.44653 -1.67156
  339 284.912 35.4409 -18.6589
  340 55.1405 -1.75686 -12.1287
  341 55.2110 -1.75803 12.1168
  342 234.654 -12.0399 0.135454
  343 65.8827 2.27619 -17.4707
  344 66.0074 2.21875 17.4139
  345 12.6700 10.8197 0.0756113
  346 12.8281 10.8174 -0.00871103
  347 285.658 -30.7131 28.5637
  348 634.803 41.9015 16.2729
  349 253.197 3.77023 -35.9966
  350 212.108 -19.0213 26.2046
  351 211.028 -18.6407 -27.0121
  352 313.195 -5.37578 49.8973
  353 278.126 -2.05161 35.5899
  354 281.924 -29.6973 -29.5072
  355 167.336 -4.23137 0.219003
  356 167.311 -4.28209 -0.177166
  357 311.863 -20.3744 30.7098
  358 427.048 85.1375 2.17475
  359 335.190 -3.75524 -9.41735
  360 85.0863 -3.25647 -6.00980
  361 85.1195 -3.25912 5.94670
  362 315.480 -30.0542 -35.5808
  363 330.969 23.0021 -49.7946
  364 220.581 11.8660 -19.4973
  365 314.041 -20.9974 -35.0822
  366 -10.2739 0.345354 -8.16973
  367 -10.2854 0.332863 8.18036
  368 263.802 -6.21888 1.03702
  369 -3.75237 -2.23591 -4.85934
  370 -3.74792 -2.23669 4.84940
  371 204.189 100.984 -157.993
  372 8.04247 7.11249 5.24967
  373 8.24605 7.16930 -5.14082
  374 275.972 -2.16654 -35.2945
  375 151.913 -6.44500 4.08113
  376 152.024 -6.53269 -4.12951
  377 -1.05197 -11.1175 9.30178
  378 -1.03485 -11.0970 -9.29192
  379 165.852 105.912 148.710
  380 124.294 -6.59223 -18.2973
  381 124.391 -6.30673 18.3112
  382 39.5771 29.0735 -28.5731
  383 40.4140 28.9894 28.4050
  384 -15.7678 2.38092 2.95766
  385 -15.6963 2.38459 -2.91929
  386 319.226 21.1910 49.8528
  387 244.892 -25.6333 12.1783
  388 245.150 -22.3334 4.55693
  389 297.314 -33.8084 -3.58903
  390 73.9422 9.27327 -24.3259
  391 74.1884 9.25546 24.2866
  392 6.58422 -9.89582 0.570359
  393 6.22305 -10.0498 -0.0554386
  394 300.294 42.9414 12.2988
  395 303.344 -8.64947 8.23007
  396 172.948 -13.4006 16.7828
  397 106.718 -2.67808 -21.9560
  398 106.756 -2.69782 21.7863
  399 220.859 -6.65050 -0.634394
  400 220.618 -5.83090 0.446794
  401 171.496 -13.7638 -17.8443
  402 133.954 -2.26063 -29.8028
  403 133.932 -2.44615 30.0418
  404 316.082 -29.0130 -21.6095
  405 183.055 -14.0503 10.4384
  406 287.618 -8.73676 4.95362
  407 287.096 -7.95658 -4.14987
  408 240.613 -22.1674 -5.42692
  409 346.251 -1.48685 -2.52695
  410 115.873 46.7724 -88.9255
  411 325.299 -4.69233 15.5863
  412 345.171 -1.79050 3.75240
  413 122.197 -6.52866 10.9324
  414 122.253 -6.43942 -10.9236
  415 243.787 -25.3257 -12.6042
  416 34.5192 15.4225 11.8280
  417 34.3323 15.4122 -11.8392
  418 641.363 41.8701 -33.2831
  419 281.786 -16.0572 -7.71931
  420 348.768 -1.19528 1.45601
  421 109.386 43.6323 84.6541
  422 514.479 86.6836 16.5071
  423 302.536 -4.56887 -2.53921
  424 225.761 -16.3560 -4.20738
  425 93.8476 18.1254 -41.9860
  426 100.030 16.8040 41.7355
  427 278.378 -17.6262 7.80038
  428 294.862 -3.81589 -26.1976
  429 -2.76181 -0.268673 4.83504
  430 -2.89898 -0.265546 -4.83227
  431 106.175 25.5294 -56.4539
  432 106.513 25.6229 56.2792
  433 12.3271 5.89070 -5.00702
  434 12.4591 5.87752 5.05693
  435 249.731 -4.80290 0.528517
  436 249.430 -4.67625 -0.443231
  437 310.819 -14.1694 -24.5285
  438 -0.885189 -0.936180 11.4180
  439 -0.829591 -0.887212 -11.3762
  440 320.245 -31.6119 18.9413
  441 302.978 -8.07555 -7.27758
  442 489.668 93.7569 -14.3038
  443 18.5910 -0.883546 2.25408
  444 18.5069 -0.883723 -2.27932
  445 590.064 166.323 74.2326
  446 11.7979 4.49314 -17.2674
  447 35.9556 1.76168 -11.8081
  448 36.0754 1.73339 11.8054
  449 588.361 170.104 -71.3084
  450 12.5081 5.81324 19.0329
  451 -15.2504 1.85045 0.824302
  452 -15.1584 1.84743 -0.788093
  453 32.5400 22.2601 -16.6476
  454 33.1055 22.2674 16.7393
  455 382.605 59.8886 -34.4715
  456 307.396 -11.9973 -15.8558
  457 346.894 -1.27968 -1.28912
  458 321.093 -4.92072 -18.2790
  459 -3.80216 2.31459 10.4514
  460 -3.74558 2.34598 -10.4121
  461 310.570 -12.5076 18.4461
  462 201.388 -11.2992 -4.40633
  463 200.766 -11.4162 3.72520
  464 273.771 -30.1972 -4.25578
  465 195.102 -2.71826 -60.2549
  466 297.840 -4.57861 26.7736
  467 243.769 -7.85685 -0.135146
  468 358.550 -26.9174 -3.92808
  469 188.980 1.66614 64.6331
  470 13.7464 -0.266602 4.66815
  471 13.6274 -0.260964 -4.67927
  472 393.006 77.7127 -15.5300
  473 314.905 -2.32066 0.180138
  474 313.820 -2.63093 -0.467856
  475 237.205 -15.8083 1.49521
  476 102.998 -3.47532 -3.34358
  477 102.989 -3.43357 3.30054
  478 60.6316 -0.709161 -14.3719
  479 60.7011 -0.721205 14.3413
  480 198.403 7.68819 11.6532
  481 49.5067 -1.66812 6.91443
  482 49.4367 -1.65204 -6.95086
  483 53.2846 5.12895 16.1881
  484 53.1076 5.20494 -16.1754
  485 305.116 -23.6217 22.2754
  486 170.342 -10.5974 -27.9851
  487 157.050 -5.05513 2.09151
  488 157.109 -5.18172 -2.09573
  489 172.146 -10.9314 27.9765
  490 476.908 113.119 -9.67429
  491 -7.62748 -1.15482 -6.31137
  492 -7.62357 -1.16084 6.30800
  493 119.098 -3.32160 -1.38428
  494 119.095 -3.26997 1.37814
  495 0.137792 -20.5400 -7.78157
  496 0.0879430 -20.6070 7.85002
  497 278.659 -4.14981 0.946306
  498 197.157 9.40579 -5.80316
  499 265.950 27.8917 16.7539
  500 169.299 -1.62011 -47.9449
  501 82.4421 -4.22691 10.4891
  502 82.4350 -4.19107 -10.5087
  503 -21.5447 0.689135 -1.62343
  504 -21.4187 0.685001 1.63987
  505 329.360 -6.21260 -49.5135
  506 25.4648 0.162051 -1.53172
  507 25.5066 0.166296 1.51094
  508 274.185 -21.5878 -6.35689
  509 292.248 -24.8861 -12.9503
  510 59.5879 45.2922 -60.0741
  511 245.583 6.64159 -95.2045
  512 3.06587 7.34146 4.96683
  513 3.18319 7.35680 -4.90182
  514 149.647 -6.89820 -5.95241
  515 149.571 -6.83416 5.81855
  516 422.446 17.5171 -10.1599
  517 303.901 -17.9319 -20.2070
  518 58.0887 42.8195 59.2236
  519 301.117 -34.1396 8.27665
  520 289.539 -27.5193 10.0783
  521 60.8137 -1.47720 -4.53562
  522 60.8504 -1.47104 4.48884
  523 237.085 2.55160 27.8689
  524 171.586 -12.6180 -11.0784
  525 320.667 -7.08993 11.5200
  526 -1.31449 -7.78721 -6.12782
  527 -1.31776 -7.78135 6.11919
  528 224.450 -19.8720 31.3861
  529 341.871 -26.2059 -25.7006
  530 446.308 30.8563 -15.4823
  531 240.806 -8.14476 0.266326
  532 70.8181 -1.31189 -1.32954
  533 70.8316 -1.28568 1.31675
  534 152.183 1.25653 46.1714
  535 426.115 71.2525 23.1546
  536 433.662 84.5042 -150.898
  537 388.339 2.04711 24.4996
  538 279.231 -31.0295 2.75786
  539 661.468 52.5994 44.5928
  540 488.702 118.107 14.0251
  541 68.3837 -2.84662 11.4588
  542 68.3339 -2.81787 -11.4798
  543 268.395 -22.2240 4.67408
  544 19.8319 9.59156 -4.61455
  545 19.9823 9.58559 4.67372
  546 337.668 -28.0989 25.7062
  547 275.443 14.8361 41.1626
  548 340.266 -2.17078 6.41317
  549 251.171 -15.0294 2.01483
  550 352.593 2.68800 -100.361
  551 559.951 143.743 98.4946
  552 272.479 -5.30672 -0.824207
  553 334.135 -3.39352 -10.3218
  554 52.2921 21.8285 -23.0894
  555 52.6724 21.5651 22.9831
  556 190.612 -7.61675 -2.85010
  557 190.524 -7.43340 2.91145
  558 2.21833 -24.6945 -2.65150
  559 340.772 -12.2175 44.1252
  560 12.9712 11.7263 1.37910
  561 13.1780 11.7580 -1.28215
  562 2.59931 -23.8621 3.37806
  563 310.041 -14.1559 -35.7059
  564 356.863 22.4184 -47.6759
  565 355.572 25.4253 47.6782
  566 17.0336 14.3575 12.6123
  567 16.1732 14.7053 -12.3296
  568 -10.2702 0.330288 3.64037
  569 -10.4114 0.333647 -3.63354
  570 328.401 8.06649 103.500
  571 179.150 -9.88117 5.87353
  572 179.331 -9.84587 -5.99621
  573 396.207 -7.34017 -52.6710
  574 50.3004 -0.698476 2.63280
  575 50.2698 -0.710212 -2.66411
  576 22.6995 -0.624981 -0.623501
  577 22.7265 -0.620879 0.616228
  578 434.615 78.8847 -18.7556
  579 41.3403 60.2168 -66.4290
  580 226.545 4.51776 -23.6017
  581 321.010 51.3167 -20.9474
  582 4.70745 -0.239693 7.05508
  583 4.90219 -0.170239 -6.92434
  584 326.618 148.406 177.572
  585 276.577 -7.64238 -2.73780
  586 9.42678 2.82455 -6.09260
  587 9.55636 2.80410 6.12298
  588 319.478 -25.7286 30.7164
  589 48.9085 58.3189 67.6424
  590 230.128 -4.78688 0.256195
  591 230.190 -4.74575 -0.257127
  592 -0.247852 -16.3204 8.06699
  593 -0.222941 -16.2935 -8.04035
  594 392.487 76.6070 -0.628327
  595 249.284 -20.1208 44.7971
  596 237.895 -10.1190 -0.0498371
  597 239.541 10.6876 100.455
  598 -19.8677 1.01115 4.85473
  599 -19.8474 1.01663 -4.83514
  600 393.174 4.91353 -26.3162
  601 525.202 87.0054 -70.1235
  602 148.903 15.1079 -66.7184
  603 80.0256 -3.33845 -13.9890
  604 80.0990 -3.33884 13.9899
  605 356.171 -1.12509 1.80227
  606 235.526 -10.3394 -0.247975
  607 316.243 -4.24671 3.97232
  608 310.062 -14.1538 34.8683
  609 12.1339 -0.510276 2.31500
  610 12.0302 -0.508074 -2.33377
  611 183.200 -6.33162 -1.64745
  612 183.174 -6.15549 1.59029
  613 114.046 2.52589 -30.7486
  614 113.305 2.55805 30.6091
  615 449.061 26.0167 25.9815
  616 734.711 55.3680 -80.4143
  617 -6.33081 -0.447685 3.18966
  618 -6.47620 -0.446166 -3.18928
  619 107.428 -4.50454 6.18426
  620 107.423 -4.49941 -6.27109
  621 418.125 22.4459 15.8764
  622 352.202 -1.18516 -0.572502
  623 351.421 -1.73766 0.245606
  624 253.389 -0.112566 27.6033
  625 367.768 -21.8472 -31.9898
  626 198.855 -16.2788 13.2389
  627 -4.73464 4.48650 -4.56518
  628 -4.82250 4.47968 4.61588
  629 319.267 6.41228 51.9928
  630 125.854 -7.20415 -14.5887
  631 125.729 -7.32502 14.6172
  632 260.180 -14.9892 -2.98230
  633 322.175 -6.97273 -10.4268
  634 183.086 -14.5596 -20.1704
  635 300.346 36.2067 -31.5922
  636 202.703 -14.0055 -36.4360
  637 73.4742 -1.96637 -2.33224
  638 73.4880 -1.94238 2.29988
  639 185.004 -14.8237 20.2493
  640 398.910 64.2249 30.9667
  641 317.149 -15.4928 43.9334
  642 259.670 -11.4893 2.75180
  643 185.195 -4.86167 1.12705
  644 185.148 -4.87294 -1.09136
  645 139.185 -5.14632 -4.38122
  646 139.131 -5.08892 4.33207
  647 305.491 -28.0514 -17.8894
  648 153.855 -8.65573 7.68144
  649 154.024 -8.62148 -7.84413
  650 305.369 47.1827 -4.24224
  651 282.287 -14.7655 7.79246
  652 354.170 -1.59404 -2.79316
  653 299.664 -5.58110 -45.7507
  654 42.3981 -1.89002 9.19649
  655 42.3128 -1.87650 -9.20578
  656 345.293 -1.85466 -5.80686
  657 61.0191 31.4275 -42.1589
  658 62.0691 31.3479 42.3664
  659 352.025 -21.5906 44.5190
  660 120.386 29.9381 70.2612
  661 28.8581 -0.161539 9.20411
  662 28.7554 -0.154702 -9.20965
  663 299.526 -19.6066 57.9116
  664 295.473 40.9927 -137.131
  665 286.622 8.91984 -45.6242
  666 378.346 68.3812 26.6476
  667 255.168 -11.2472 -1.61291
  668 459.343 82.8359 -2.01094
  669 -22.4387 1.04927 -0.982860
  670 -22.3319 1.04648 1.00618
  671 203.305 0.777990 -70.7043
  672 12.9971 -0.297334 1.79569
  673 12.9231 -0.298106 -1.81493
  674 255.397 -21.6434 -44.2728
  675 83.9959 11.5914 -29.6277
  676 83.3208 11.6310 29.6107
  677 1.38628 4.24669 -1.66895
  678 1.50241 4.24082 1.71844
  679 216.705 -18.6851 -9.79078
  680 307.250 -3.02261 -17.5818
  681 145.687 -4.45551 -1.59014
  682 145.693 -4.40428 1.60300
  683 105.108 -5.35331 -9.30200
  684 105.189 -5.42853 9.26577
  685 19.8026 16.2959 -5.41248
  686 20.1368 16.3301 5.52479
  687 315.743 -3.65811 2.00839
  688 139.247 -8.80523 12.1136
  689 140.151 -8.64909 -12.1015
  690 349.346 -28.2146 -4.73965
  691 287.545 -28.9079 -6.96713
  692 225.752 -6.27069 -0.0721643
  693 224.948 -5.83725 0.186186
  694 317.017 -33.7019 16.6717
  695 515.165 103.832 26.7338
  696 278.446 -12.6752 -72.0993
  697 318.898 -8.85721 18.4308
  698 316.413 -11.8907 -47.1027
  699 97.5621 -3.00830 -4.34316
  700 97.5609 -2.98487 4.28568
  701 247.418 -4.48868 80.9395
  702 694.561 88.9088 81.5639
  703 47.0343 13.7979 -16.9048
  704 47.1038 13.8896 16.9609
  705 314.765 -2.93689 -1.01764
  706 317.279 -2.62751 1.03765
  707 133.241 66.7282 -114.467
  708 334.112 -1.76543 10.3026
  709 288.848 -4.83007 1.63959
  710 380.132 75.4276 -9.87656
  711 38.2675 6.92953 -12.1853
  712 38.4359 6.88557 12.2312
  713 359.459 -0.844567 0.322789
  714 290.372 -11.0902 -7.59800
  715 362.173 -5.77461 38.7391
  716 147.434 -10.2918 -19.1324
  717 147.804 -9.84636 18.9456
  718 32.6737 -1.15243 6.96225
  719 32.5792 -1.13782 -6.98231
  720 329.083 -2.12525 -1.85453
  721 283.558 54.8185 145.621
  722 1.99243 2.07093 9.54570
  723 2.09780 2.13328 -9.47332
  724 329.755 -3.46051 -4.83341
  725 320.107 -5.77705 6.89165
  726 252.163 0.155085 -29.6059
  727 2.37566 -29.4350 -3.90785
  728 2.21866 -29.7217 4.19622
  729 115.797 30.8444 -70.2551
  730 254.884 -25.6652 -31.7604
  731 132.214 66.1406 115.581
  732 354.690 -0.834439 1.09357
  733 340.937 50.9769 33.5006
  734 247.678 22.4984 -11.6645
  735 447.267 90.1659 -0.00443847
  736 350.082 -1.42597 3.77287
  737 -21.4276 0.514960 2.56473
  738 -21.5665 0.517796 -2.55434
  739 372.367 -21.6390 9.08875
  740 240.374 -6.80135 -0.113841
  741 86.6835 0.177101 -21.0350
  742 86.7963 0.0899792 20.9106
  743 320.214 -3.64348 -2.84392
  744 566.050 80.1739 -28.8073
  745 36.7839 -1.10219 -4.34010
  746 36.8624 -1.10872 4.30706
  747 357.163 -0.924514 -1.75340
  748 69.7919 -3.12411 -6.05990
  749 69.8364 -3.13517 6.01099
  750 348.604 -14.1515 -39.8845
  751 321.903 -3.35501 14.1912
  752 288.097 -1.99032 45.2021
  753 357.818 -0.962357 -0.0274835
  754 333.705 -2.43848 3.70347
  755 217.354 -11.5934 -2.01319
  756 273.036 -7.04616 2.07084
  757 310.336 -19.1231 -29.8366
  758 302.761 -19.0006 19.5127
  759 354.557 42.6658 -42.2686
  760 298.630 -16.6891 14.5128
  761 315.333 -18.7522 38.0957
  762 182.255 -12.2597 7.95991
  763 6.51736 -2.19190 -0.800813
  764 6.16710 -2.21355 1.13243
  765 276.486 -4.02208 0.0248598
  766 275.898 -3.99232 -0.127861
  767 332.186 -1.40038 -0.206794
  768 333.345 -1.33314 0.285289
  769 315.777 -8.83734 22.5418
  770 291.549 -27.0077 41.7569
  771 239.064 -19.3360 3.22269
  772 212.160 -12.5565 3.62670
  773 577.554 74.0430 33.5609
  774 319.454 -8.04003 -14.5635
  775 186.883 32.1940 -107.404
  776 296.739 -14.5828 -12.5648
  777 11.1057 0.252749 -6.58262
  778 11.2325 0.241888 6.59117
  779 263.962 23.1328 -26.1531
  780 675.928 20.5261 -8.83466
  781 333.686 8.36494 -50.9255
  782 13.2582 6.71609 -25.8784
  783 343.011 61.8041 8.58178
  784 268.014 -16.9589 4.56544
  785 300.874 -7.62009 44.4009
  786 253.570 -26.7712 31.9381
  787 406.936 -3.13028 65.0951
  788 14.2891 9.82364 27.6641
  789 183.000 -1.17996 54.9898
  790 256.247 -6.47743 -0.809926
  791 285.821 -25.8575 -42.2749
  792 174.742 -13.5639 -14.0184
  793 137.953 6.55080 -47.9741
  794 330.882 -5.36002 49.9082
  795 211.857 -14.3671 6.04731
  796 39.4969 -1.14803 3.89377
  797 39.4389 -1.14947 -3.93113
  798 308.205 -1.68084 15.5781
  799 278.930 1.30726 -43.9006
  800 -24.5586 1.10665 3.03579
  801 -24.5215 1.10870 -3.01444
  802 206.118 -6.35758 -0.663598
  803 205.514 -6.00491 0.598190
  804 152.774 16.9414 67.7001
  805 135.883 -7.90062 9.07265
  806 136.076 -7.70633 -9.17149
  807 356.994 -0.655989 -0.966620
  808 124.110 9.80976 46.7351
  809 2.81532 -0.116857 2.48079
  810 2.68652 -0.114238 -2.49188
  811 304.470 -9.44622 34.3732
  812 326.204 -2.69070 1.47316
  813 -17.4291 0.200585 4.81808
  814 -17.4317 0.206178 -4.80841
  815 200.036 -12.6221 40.9773
  816 38.4428 32.0111 -35.6160
  817 38.9170 30.5104 35.0724
  818 187.822 8.33144 4.84072
  819 -4.38694 -0.190487 -2.84926
  820 -4.24143 -0.192446 2.84615
  821 230.181 -21.9224 -29.9072
  822 314.661 -33.1059 -11.0276
  823 -1.56348 -1.48568 -1.96450
  824 -1.55889 -1.48222 1.95724
  825 15.2954 0.540542 -0.579411
  826 15.3299 0.543554 0.568392
  827 279.700 -24.8632 7.35535
  828 235.232 -24.1137 20.7118
  829 260.865 -4.28821 0.746245
  830 234.608 -18.8622 -4.11355
  831 84.9589 -1.38804 -0.447462
  832 84.9676 -1.35355 0.439412
  833 -27.8007 0.589734 1.77658
  834 -27.7408 0.588954 -1.75564
  835 294.941 -3.72270 -1.34224
  836 259.663 10.1388 -37.3282
  837 298.212 -5.82901 -4.00787
  838 175.108 -13.3231 13.3429
  839 294.315 -5.20526 -36.2861
  840 315.431 -9.60148 -23.2928
  841 296.146 -3.18352 1.20552
  842 215.579 -8.36042 56.4130
  843 230.322 -22.4783 -11.5363
  844 138.351 -1.02869 -36.6704
  845 139.117 -0.0671340 36.8619
  846 196.096 -14.6234 -8.63210
  847 325.808 35.1962 43.5624
  848 309.916 -32.4543 -22.8511
  849 110.544 -3.46760 -2.16840
  850 110.534 -3.41477 2.14481
  851 236.481 -5.27542 0.0946418
  852 236.490 -5.31991 -0.0360078
  853 281.119 -2.14980 -23.7076
  854 94.0634 -3.96408 -7.50580
  855 94.1130 -3.99415 7.43954
  856 1.13295 -29.5709 -5.89636
  857 1.07174 -29.6979 6.01672
  858 46.6601 -0.693994 -0.226016
  859 46.6380 -0.708599 0.216369
  860 292.681 -4.49791 -1.88440
  861 221.633 -21.1201 18.6957
  862 345.070 -29.7783 11.6522
  863 200.496 4.21228 18.5423
  864 299.256 -6.96780 4.58838
  865 326.569 -29.3950 -23.9701
  866 46.3778 2.99553 -14.0051
  867 46.5151 2.94588 13.9966
  868 259.529 -4.60839 -0.682975
  869 208.619 -7.16690 -1.57824
  870 207.888 -7.10229 1.76403
  871 321.915 50.1406 23.5945
  872 111.466 -1.07861 -25.4576
  873 111.358 -1.20930 25.3433
  874 223.704 -20.1774 9.11859
  875 21.3180 13.9650 -4.65439
  876 21.5308 13.9372 4.71471
  877 189.044 -13.4713 33.2801
  878 226.915 -14.3944 -2.11959
  879 282.786 -2.22541 23.9565
  880 279.028 -31.4604 10.0923
  881 319.885 -24.4213 -33.1097
  882 221.091 -21.2933 -18.9670
  883 183.584 -12.2079 -7.62307
  884 603.696 49.6810 -9.28121
  885 292.346 -31.0039 5.16830
  886 8.14136 9.49861 3.66498
  887 8.29351 9.51675 -3.58563
  888 253.886 -25.4148 4.70184
  889 278.631 -31.4472 -18.0159
  890 8.62404 8.33000 0.525058
  891 8.75738 8.33201 -0.464502
  892 104.168 -3.67006 19.2392
  893 104.234 -3.78295 -19.3569
  894 126.406 -6.36152 21.1220
  895 126.362 -6.51450 -21.2721
  896 401.972 80.6526 12.3192
  897 -0.602372 -12.4371 -5.95068
  898 -0.606670 -12.4225 5.94664
  899 91.7726 7.79920 -28.1740
  900 91.3178 7.63937 27.8916
  901 699.051 22.6603 -35.3737
  902 11.7755 -0.0641480 0.999486
  903 11.7193 -0.0664312 -1.01459
  904 1.19021 -33.9890 2.05870
  905 1.39167 -33.4238 -1.58124
  906 -13.3132 -0.171519 4.93500
  907 -13.3276 -0.167400 -4.93332
  908 73.3259 21.5813 -33.2191
  909 74.4637 20.8660 32.7415
  910 -5.88693 0.238692 -10.4362
  911 -5.91603 0.215487 10.4548
  912 20.5531 1.92085 -9.07123
  913 20.6832 1.89625 9.08417
  914 79.7786 -0.880896 17.7024
  915 79.7245 -0.877053 -17.7948
  916 64.8818 -2.20209 -14.2630
  917 64.9468 -2.19773 14.2388
  918 346.764 -1.25549 -5.70464
  919 168.298 35.6237 99.7913
  920 232.633 -22.9162 10.7684
  921 164.787 -11.7371 10.6705
  922 318.516 32.7077 -43.0065
  923 687.396 14.7690 14.0911
  924 378.440 16.9438 -41.0823
  925 61.6063 -2.36534 8.87048
  926 61.5449 -2.33813 -8.90577
  927 10.1911 -0.345765 -6.53722
  928 10.3148 -0.349283 6.53648
  929 -0.276989 -5.98851 -11.3703
  930 -0.326656 -6.03740 11.4083
  931 170.331 -7.40129 4.63138
  932 170.421 -7.54923 -4.65682
  933 20.0661 5.57142 -7.98151
  934 20.2062 5.54614 8.02453
  935 103.344 -4.57014 -16.2864
  936 103.413 -4.56977 16.2744
  937 223.666 -1.03867 -21.8326
  938 106.592 -5.76456 -11.2212
  939 106.515 -5.70059 11.2585
  940 261.381 -7.15724 -1.01512
  941 316.245 -18.2023 -40.8971
  942 137.262 -5.48562 5.02179
  943 137.329 -5.53787 -5.09409
  944 -5.71148 -0.617181 -3.46576
  945 -5.69609 -0.618659 3.45846
  946 322.554 -25.1725 -51.8877
  947 308.546 -18.0723 25.9889
  948 270.556 -18.8085 -5.84462
  949 263.036 8.91461 39.3412
  950 119.114 -6.65045 -12.6506
  951 119.112 -6.52149 12.6907
  952 294.348 11.1615 47.6140
  953 274.431 23.8968 31.3421
  954 563.298 67.8416 11.8043
  955 288.021 -10.1880 5.62777
  956 150.711 -4.38054 -2.24957
  957 150.691 -4.29082 2.26978
  958 257.673 -21.0312 -1.35648
  959 356.486 65.4482 -20.1834
  960 315.818 -3.25878 -2.03391
  961 206.610 -4.89144 0.734419
  962 206.529 -4.85249 -0.674767
  963 26.0064 21.8694 -15.2720
  964 26.6717 21.8273 15.3917
  965 49.8194 124.201 -111.401
  966 295.046 -7.03128 36.0977
  967 368.262 -7.17185 -34.5768
  968 -6.51833 3.53853 2.09661
  969 -6.42219 3.53772 -2.04888
  970 751.945 177.561 -142.047
  971 315.187 -34.3585 4.15424
  972 336.318 -31.2989 -12.8725
  973 310.213 -26.6052 23.7223
  974 383.301 75.5589 8.45492
  975 27.4696 28.2650 -33.1545
  976 70.5388 107.157 109.170
  977 -1.90927 -4.38956 11.3365
  978 -1.87841 -4.35370 -11.3171
  979 302.039 -7.57268 5.71816
  980 484.983 85.9705 -10.0813
  981 28.2779 27.6019 34.5000
  982 -1.33916 -4.46232 -3.85379
  983 -1.33946 -4.45017 3.84395
  984 258.857 -5.84185 0.422587
  985 192.702 -15.2550 -14.6073
  986 312.621 -24.7409 -28.0915
  987 88.1844 23.7069 -44.0680
  988 89.6024 24.1001 44.1835
  989 303.358 -7.54467 -32.2290
  990 306.120 -9.56728 10.5289
  991 -8.26343 2.03645 9.20601
  992 -8.22251 2.05701 -9.17632
  993 184.017 -12.1296 -31.2671
  994 305.741 19.4115 -47.8298
  995 227.394 -8.34431 0.625414
  996 163.038 -4.52252 0.360237
  997 163.008 -4.55386 -0.341417
  998 -3.47171 -3.93905 -8.06317
  999 -3.47673 -3.94757 8.05689
  1000 310.258 -10.9392 -12.9274
  1001 295.539 -3.11245 0.365474
  1002 295.263 -3.11598 -0.243768
  1003 408.219 66.4365 -28.6591
  1004 72.8215 6.38098 -22.1317
  1005 73.0022 6.25345 22.0800
  1006 46.0254 -0.410277 -11.7985
  1007 46.1117 -0.419669 11.7830
  1008 335.854 17.7710 51.5164
  1009 318.374 -5.84579 -7.23536
  1010 55.4201 8.82642 -17.9393
  1011 55.6406 8.75972 18.0057
  1012 332.517 -1.64174 -1.20663
  1013 309.886 -13.3034 -19.5885
  1014 302.598 -34.2758 -12.3528
  1015 11.3480 9.60934 -0.432396
  1016 11.0272 9.56342 0.577921
  1017 -14.8261 2.38115 5.51148
  1018 -14.7731 2.38765 -5.47627
  1019 181.350 6.86808 -8.09750
  1020 524.407 129.560 -34.7270
  1021 238.768 -17.2794 -1.06121
  1022 157.456 -6.87030 -32.2041
  1023 384.192 -15.7588 4.06438
  1024 158.077 -6.86583 32.6602
  1025 274.828 -32.0546 21.1516
  1026 311.598 -12.8726 -29.3506
  1027 105.715 -2.40555 -0.694272
  1028 105.720 -2.36128 0.689321
  1029 212.335 -16.4916 -7.41159
  1030 129.668 -4.80507 -24.9990
  1031 129.615 -4.84158 24.8672
  1032 42.7712 27.9457 -27.0236
  1033 43.4550 27.8617 27.1044
  1034 88.6586 -2.79416 -2.47763
  1035 88.6620 -2.75852 2.44366
  1036 277.266 -8.61089 3.08402
  1037 233.789 0.778891 -81.9606
  1038 287.447 -9.17122 -5.58524
  1039 259.354 -28.6960 -12.5154
  1040 169.889 -7.04588 3.14021
  1041 170.031 -7.10018 -3.15154
  1042 337.048 -1.94312 1.52069
  1043 300.902 -6.98498 -5.36224
  1044 191.549 4.64855 15.2685
  1045 322.316 -3.17371 -13.1972
  1046 124.276 36.1029 79.7448
  1047 332.049 -3.04323 -10.8332
  1048 85.9982 14.5074 -33.0895
  1049 83.4068 14.6733 31.7219
  1050 397.100 -7.20467 -5.76039
  1051 35.3511 18.5401 -13.8866
  1052 35.6794 18.4057 13.8827
  1053 5.97126 -0.755676 3.79517
  1054 6.27627 -0.700147 -3.59423
  1055 49.9660 -1.34077 3.00059
  1056 49.9249 -1.34980 -3.03981
  1057 141.501 36.5532 -88.4592
  1058 776.509 200.953 152.863
  1059 309.219 -10.9358 13.2608
  1060 277.283 -31.1921 -9.02232
  1061 192.196 -15.7860 -24.0536
  1062 -4.15115 4.19540 8.05845
  1063 -4.07723 4.21844 -8.00891
  1064 217.103 -11.0197 1.55778
  1065 239.701 -8.71465 -0.219702
  1066 -0.124812 -17.6351 5.74791
  1067 -0.118809 -17.6518 -5.74616
  1068 35.6057 22.1449 -16.5934
  1069 36.0330 22.1021 16.6942
  1070 214.180 -10.1132 -1.47704
  1071 16.3924 7.79603 4.91176
  1072 16.2531 7.80703 -4.85615
  1073 327.799 -13.0811 47.4023
  1074 237.022 -24.5549 -20.6071
  1075 193.347 -16.0408 24.0519
  1076 311.918 -6.38657 -49.8002
  1077 330.147 -3.46960 5.25289
  1078 118.762 18.2409 53.3291
  1079 119.617 17.4600 -52.4340
  1080 192.014 -9.34867 -44.8372
  1081 272.599 -9.58429 -3.15453
  1082 221.177 -13.1620 3.27114
  1083 259.425 -24.1726 -0.383464
  1084 357.131 -1.21081 -2.98270
  1085 191.682 -8.67416 3.25433
  1086 191.598 -9.18174 -3.36421
  1087 6.28133 7.41217 6.64379
  1088 6.43919 7.46724 -6.55333
  1089 314.309 11.4628 -51.4315
  1090 69.8766 3.60593 -19.5182
  1091 70.0628 3.52668 19.4621
  1092 52.2194 1.06379 -13.9358
  1093 52.3318 1.03431 13.9088
  1094 359.815 -14.9131 65.4068
  1095 311.241 -14.3167 28.9476
  1096 151.639 -6.93066 -27.2605
  1097 363.073 -1.39035 -1.78432
  1098 406.154 76.6577 -21.6888
  1099 329.594 -3.00986 -3.33445
  1100 308.466 -33.3125 10.8298
  1101 227.920 -17.3975 39.2528
  1102 365.574 -0.395255 0.351009
  1103 191.184 5.97753 -12.9504
  1104 261.244 -27.9273 -5.55902
  1105 151.881 -7.24744 26.9552
  1106 263.692 -23.9649 -1.13546
  1107 329.488 -4.59978 9.76926
  1108 234.559 14.8371 20.1965
  1109 163.153 -11.9525 -21.6491
  1110 498.336 70.2055 -28.5034
  1111 373.823 16.6671 43.0747
  1112 277.919 34.8554 4.96019
  1113 361.455 0.100755 1.59352
  1114 141.427 -8.78147 -16.5099
  1115 96.5874 59.3631 -88.8242
  1116 173.002 4.57752 -63.8836
  1117 198.480 -15.1683 10.2513
  1118 167.471 -12.4951 20.2554
  1119 141.080 -8.34649 16.6837
  1120 298.810 2.50257 49.9844
  1121 225.817 -7.72616 -0.362741
  1122 356.146 -2.59472 3.99460
  1123 -2.89601 -0.293178 11.3467
  1124 -2.85349 -0.257374 -11.3182
  1125 236.634 -6.60664 -0.0550168
  1126 -0.359612 2.58921 10.3183
  1127 -0.282892 2.63590 -10.2643
  1128 132.137 -4.09202 2.87770
  1129 132.149 -4.15908 -2.88154
  1130 335.050 -1.77470 8.99409
  1131 269.006 -16.3607 -4.86636
  1132 251.881 -13.3391 -1.60117
  1133 281.867 -19.6627 9.71455
  1134 85.5367 42.3610 -66.1138
  1135 276.381 -10.3212 4.10934
  1136 40.5133 0.797816 -11.4151
  1137 40.6199 0.777370 11.4049
  1138 57.1645 36.7507 -46.3908
  1139 442.501 57.5677 14.5133
  1140 30.6446 -1.43826 6.64172
  1141 30.5450 -1.42641 -6.65356
  1142 58.1987 36.1727 44.7807
  1143 252.832 -21.0941 0.336460
  1144 127.262 -5.88586 6.23120
  1145 127.285 -5.91406 -6.33838
  1146 516.982 109.360 -28.5489
  1147 278.715 -27.9155 2.30509
  1148 95.0910 55.5147 88.6305
  1149 8.07530 -2.41985 -7.16300
  1150 8.70766 -2.31386 7.91021
  1151 292.888 36.7325 25.1344
  1152 21.6504 11.8373 -4.94500
  1153 21.8277 11.8402 4.99555
  1154 280.569 -24.3596 -7.78012
  1155 -0.131067 -27.2821 -5.40478
  1156 -0.143830 -27.2873 5.42937
  1157 299.968 -25.3072 -16.7437
  1158 -5.66920 0.370298 2.21996
  1159 -5.81539 0.372601 -2.22545
  1160 45.4739 16.9918 -17.9871
  1161 45.7211 17.0645 17.8192
  1162 -16.0757 0.0382506 -2.71914
  1163 -15.9225 0.0371119 2.72158
  1164 300.071 -3.14003 -0.483733
  1165 -30.1355 0.879242 0.526503
  1166 -30.0535 0.878747 -0.507255
  1167 157.740 -12.3446 -15.9083
  1168 4.17905 -39.7697 -3.83140
  1169 78.4493 -2.20996 4.76750
  1170 78.4242 -2.21818 -4.82293
  1171 254.589 -4.72095 0.346319
  1172 255.074 -4.59299 -0.296336
  1173 4.48745 -37.9384 4.74973
  1174 302.006 -15.6859 -16.4735
  1175 345.266 -1.56093 6.64541
  1176 306.771 -19.6309 -23.9959
  1177 266.923 1.94319 39.0341
  1178 1.39396 -11.0986 8.40134
  1179 1.52545 -11.0165 -8.26461
  1180 195.687 -14.1491 8.10964
  1181 -13.5060 1.21302 7.34385
  1182 -13.4811 1.22337 -7.32206
  1183 509.932 81.2491 5.34335
  1184 597.582 185.240 -130.447
  1185 313.675 -30.5336 20.6862
  1186 128.723 -3.69509 -0.390801
  1187 128.729 -3.64829 0.391124
  1188 644.609 62.5378 -57.5921
  1189 44.9741 -1.17810 6.89943
  1190 44.8940 -1.15980 -6.92740
  1191 292.486 -0.956514 -15.5032
  1192 187.697 -15.1376 18.0113
  1193 310.297 -30.4590 -15.1779
  1194 300.266 -21.8019 -18.8360
  1195 182.862 -6.48277 47.0245
  1196 67.3723 12.5818 -24.9596
  1197 67.3335 12.4697 24.8152
  1198 89.0005 32.9067 -56.1389
  1199 89.1156 30.4432 56.1392
  1200 25.1462 7.43974 -8.44147
  1201 25.2975 7.41716 8.49382
  1202 370.049 64.0890 -29.5402
  1203 18.9441 17.2861 -7.50831
  1204 19.3908 17.3098 7.64185
  1205 267.042 -20.3718 4.24036
  1206 500.769 72.7208 32.1129
  1207 62.5878 -2.62410 -4.69709
  1208 62.6311 -2.62297 4.64796
  1209 326.224 224.756 -194.744
  1210 248.909 14.7486 -31.1861
  1211 228.262 17.5518 12.7214
  1212 31.4558 13.3423 -9.99587
  1213 31.6064 13.3417 10.0526
  1214 5.32980 -0.0581288 1.62679
  1215 5.23345 -0.0580264 -1.64150
  1216 295.924 -23.7382 15.6352
  1217 291.098 -11.5577 8.34257
  1218 199.243 55.9190 -139.063
  1219 459.150 100.148 -4.17826
  1220 196.908 -6.03581 -51.8433
  1221 255.538 -7.73731 0.739246
  1222 11.7345 -1.27658 -0.386438
  1223 11.7561 -1.27571 0.384174
  1224 -7.02206 2.00136 -3.62988
  1225 -6.89908 1.99297 3.65858
  1226 171.057 1.81078 -54.5053
  1227 316.126 -6.84830 9.27276
  1228 205.144 3.63322 74.6748
  1229 278.232 -13.6635 -6.41766
  1230 143.358 50.7686 -109.258
  1231 223.002 -10.9630 -56.0201
  1232 265.718 -28.3726 4.06174
  1233 325.690 -5.09659 14.6523
  1234 285.653 -5.85138 -2.38353
  1235 157.066 -11.5804 16.0032
  1236 358.394 -20.3379 -26.9763
  1237 339.476 29.3250 48.8078
  1238 147.502 0.684858 -42.9680
  1239 339.136 -2.02929 1.16925
  1240 270.899 33.7543 -7.07624
  1241 117.158 -4.04618 -4.67645
  1242 117.133 -4.00247 4.62215
  1243 519.782 119.047 28.1575
  1244 712.361 18.9377 33.1388
  1245 0.626735 -33.3278 -5.37349
  1246 0.606271 -33.3662 5.41491
  1247 76.1257 40.0432 61.7882
  1248 182.537 -5.24546 -0.885937
  1249 182.576 -5.21245 0.954706
  1250 250.604 -25.1937 -6.13644
  1251 298.458 24.3945 43.3179
  1252 313.637 -6.07239 -6.00122
  1253 365.177 -0.932693 -0.296412
  1254 632.405 140.212 -88.1661
  1255 97.1475 -3.64636 4.80085
  1256 97.1405 -3.65482 -4.86785
  1257 300.272 -27.8803 16.0499
  1258 528.566 128.115 -38.6583
  1259 291.259 -12.6164 -9.39278
  1260 212.280 -14.6893 -5.44391
  1261 261.060 -28.3971 12.1794
  1262 255.275 -12.6684 2.16958
  1263 9.35309 1.47912 -11.5324
  1264 349.530 -21.3917 32.0150
  1265 282.977 -18.4408 -9.47470
  1266 10.3141 1.96828 12.8079
  1267 291.091 -23.4476 -52.5050
  1268 275.331 16.7829 -113.724
  1269 453.568 57.3047 -10.1839
  1270 366.629 -0.220891 -0.118428
  1271 365.966 -0.560595 0.332800
  1272 287.886 -16.7232 10.2360
  1273 110.290 13.1462 -42.2822
  1274 328.014 -29.2762 25.9127
  1275 558.689 127.513 57.9580
  1276 137.407 46.9386 106.417
  1277 3.75047 0.309408 8.60092
  1278 3.89553 0.379603 -8.50078
  1279 344.891 -28.0199 -27.8776
  1280 137.807 -7.46742 -7.47330
  1281 137.780 -7.48641 7.33064
  1282 320.815 -21.2150 39.2720
  1283 10.8852 0.0984558 7.27268
  1284 10.7616 0.104754 -7.27069
  1285 -1.78504 -6.74009 9.30212
  1286 -1.77306 -6.72562 -9.30335
  1287 55.9231 -1.93354 -6.29336
  1288 55.9828 -1.94508 6.25091
  1289 168.103 -11.1995 -24.6562
  1290 169.240 -5.50333 1.35074
  1291 169.235 -5.62704 -1.28643
  1292 365.237 -0.214095 0.0178236
  1293 323.666 -4.93270 -16.4729
  1294 25.5589 1.22289 -9.09662
  1295 25.6789 1.20474 9.09926
  1296 168.776 -11.8516 24.4500
  1297 368.854 -0.350332 0.122834
  1298 348.306 -0.251781 -0.387792
  1299 348.300 -0.460450 0.297425
  1300 459.570 96.4216 5.92328
  1301 339.221 -2.21458 -2.65322
  1302 300.995 -2.95537 0.375992
  1303 333.501 -4.97494 -8.63916
  1304 363.252 -1.12991 1.22733
  1305 377.699 38.6932 42.6964
  1306 437.807 90.6682 11.5888
  1307 352.578 -1.36348 -4.41007
  1308 -2.87442 -0.738735 2.58547
  1309 -2.88584 -0.738182 -2.59328
  1310 194.940 -12.2048 5.47134
  1311 194.900 -11.6611 -5.30305
  1312 381.149 42.9409 -40.6707
  1313 78.8844 27.1723 -46.2877
  1314 79.3930 26.4225 45.7780
  1315 256.223 0.00711190 -19.5149
  1316 264.568 -4.10725 -0.166124
  1317 264.244 -4.07234 0.111302
  1318 -6.41060 -1.08880 9.47556
  1319 -6.39886 -1.07174 -9.47170
  1320 293.387 -0.759147 15.4782
  1321 447.031 88.9188 -0.590095
  1322 30.4303 -1.19673 -3.96848
  1323 30.5063 -1.19954 3.93545
  1324 330.277 -31.8501 14.4584
  1325 0.373894 5.37618 8.24650
  1326 0.469798 5.40890 -8.18473
  1327 59.6782 -1.35450 -1.28663
  1328 59.6984 -1.33270 1.26465
  1329 256.295 -0.401918 19.8100
  1330 8.89431 0.562465 -0.599644
  1331 8.93818 0.564614 0.588581
  1332 336.452 -3.83177 5.61101
  1333 468.259 85.4795 4.17512
</Section>

newXOutput 43

<Section columns = "stress_xx | stress_yy | stress_xy">
  1 383.401 -0.961383 0.695631
  2 384.019 -1.25457 -0.903734
  3 5.30123 0.363097 -1.00056
  4 -0.267218 -0.409521 -0.262050
  5 706.771 278.599 229.798
  6 717.669 319.208 -232.272
  7 -0.264247 -0.406928 0.258204
  8 5.27965 0.361071 0.998175
  9 386.046 -0.677237 -0.635027
  10 383.128 -1.29004 -0.911431
  11 383.374 -0.998411 0.869494
  12 381.420 -0.501753 0.401164
  13 380.610 -1.20914 -0.206526
  14 379.917 -1.15755 1.55860
  15 374.238 -0.796581 1.51735
  16 375.627 -2.69268 2.27172
  17 363.677 -2.21990 4.84765
  18 356.042 -0.953580 5.82350
  19 345.557 -1.19565 6.27208
  20 327.412 -1.05787 8.73537
  21 307.703 -0.915126 10.1274
  22 283.160 1.26472 13.8620
  23 249.601 1.95388 12.5392
  24 236.176 -0.151460 17.9349
  25 194.404 2.77722 12.7470
  26 169.069 3.67715 9.97852
  27 162.474 1.73201 7.35413
  28 155.399 5.36491 0.537450
  29 159.266 5.80961 -9.83157
  30 167.067 1.64374 -12.3471
  31 198.212 0.676354 -16.5026
  32 229.681 -1.58956 -17.1658
  33 250.805 1.61789 -12.5208
  34 283.528 1.44165 -13.8685
  35 306.894 -1.08918 -10.8514
  36 329.424 -1.21527 -8.24676
  37 344.148 -0.858689 -6.36817
  38 354.960 -1.00911 -5.34953
  39 366.521 -1.27848 -3.10940
  40 371.092 -1.27826 -2.98098
  41 375.536 -1.21259 -2.61976
  42 380.063 -1.38910 -0.541532
  43 381.823 -1.77699 -1.09123
  44 379.641 0.172620 -0.0930418
  45 382.935 -0.902578 -0.978024
  46 384.648 -1.91903 0.993775
  47 386.531 -1.09002 -0.0511924
  48 366.825 0.321188 -0.578492
  49 344.771 -1.32031 -1.09233
  50 319.865 -3.17207 -1.58875
  51 294.141 -2.59047 -1.15708
  52 271.755 -4.32371 -1.06526
  53 248.166 -4.71765 -0.977233
  54 224.410 -4.11372 -0.496258
  55 199.468 -4.43982 -0.673731
  56 178.400 -4.77440 -0.879854
  57 150.409 -4.59234 -0.723873
  58 121.627 -2.86785 -0.463350
  59 97.8418 -1.83437 -0.371776
  60 68.4939 -1.15736 -0.165772
  61 47.1750 -1.14943 -1.47782
  62 27.3639 -1.61665 -0.494892
  63 7.38787 0.186261 0.893554
  64 2.22721 1.39754 0.333396
  65 0.785578 0.570111 0.930136
  66 1.55712 0.258148 0.912452
  67 -2.50193 0.805359 0.389614
  68 -4.05124 1.05150 1.91427
  69 -4.64165 0.366456 0.676003
  70 -11.5317 0.776514 0.745441
  71 -14.7460 0.542243 1.83590
  72 -15.9876 0.185508 1.92464
  73 -23.5098 0.732820 1.49701
  74 -26.3244 1.09247 2.84488
  75 -29.4278 0.662901 1.02751
  76 -33.0848 0.480682 1.53012
  77 -34.5145 0.514970 0.610359
  78 -38.0202 1.23655 -0.829293
  79 -38.4280 0.847732 -0.617991
  80 -35.0130 0.644381 -1.19919
  81 -30.0816 0.835463 -2.30676
  82 -24.4338 0.366200 -3.50604
  83 -18.1985 0.199854 -3.65370
  84 -10.9211 -0.373846 -3.82981
  85 -4.73752 -0.297942 -2.23405
  86 -1.98426 -0.791850 -1.39326
  87 -0.334621 -1.99975 -1.20417
  88 -0.565626 -5.10961 -2.14869
  89 -0.642817 -10.0280 -3.77761
  90 -0.131901 -18.7892 -4.08435
  91 0.223555 -26.0035 -5.13286
  92 0.527478 -37.3940 -4.18973
  93 1.59460 -44.3878 -4.94088
  94 0.270736 -47.8305 -4.08871
  95 -0.0703991 -54.8341 -2.45037
  96 1.52009 -53.1511 -0.598389
  97 6.14738 -68.8926 2.90458
  98 5.47232 -36.9315 9.58326
  99 13.0413 -15.8146 21.1679
  100 39.2408 63.9749 66.3579
  101 167.624 214.875 189.017
  102 926.051 98.3990 137.612
  103 773.462 27.3287 49.3437
  104 736.155 11.6582 17.0038
  105 715.379 7.65671 -0.0893833
  106 728.573 11.1057 -13.9576
  107 780.798 23.3413 -40.8836
  108 916.377 78.2189 -128.239
  109 108.692 243.689 -156.410
  110 27.5535 46.6051 -51.2601
  111 9.60415 -22.2803 -17.5423
  112 4.95704 -40.7355 -8.21455
  113 6.11611 -71.6130 -2.24094
  114 1.45394 -54.3602 1.06950
  115 -0.159702 -55.4405 2.69625
  116 0.213701 -48.0657 4.22067
  117 1.56362 -44.4444 4.99680
  118 0.515558 -37.3746 4.21051
  119 0.214494 -25.9677 5.14048
  120 -0.136329 -18.7433 4.08208
  121 -0.643411 -9.99868 3.76975
  122 -0.566853 -5.08421 2.14126
  123 -0.334403 -1.99023 1.19757
  124 -1.97281 -0.790784 1.38775
  125 -4.71724 -0.299259 2.22814
  126 -10.8952 -0.376942 3.82638
  127 -18.1689 0.196469 3.65466
  128 -24.4179 0.362519 3.51263
  129 -30.0901 0.832875 2.31946
  130 -35.0464 0.644210 1.21278
  131 -38.4933 0.847031 0.631193
  132 -38.1119 1.23652 0.842974
  133 -34.6359 0.516351 -0.598559
  134 -33.2282 0.482374 -1.52152
  135 -29.5818 0.664810 -1.02080
  136 -26.4903 1.09472 -2.84238
  137 -23.6797 0.734907 -1.49494
  138 -16.1544 0.186778 -1.92537
  139 -14.9126 0.544424 -1.83888
  140 -11.6898 0.779591 -0.749786
  141 -4.77977 0.368514 -0.683973
  142 -4.16880 1.05356 -1.92596
  143 -2.60149 0.805894 -0.400004
  144 1.48500 0.257737 -0.922491
  145 0.733973 0.569078 -0.938177
  146 2.18911 1.39571 -0.340400
  147 7.36128 0.185104 -0.897618
  148 27.3393 -1.62254 0.490637
  149 47.1519 -1.16446 1.47309
  150 68.4775 -1.18412 0.159607
  151 97.8342 -1.87314 0.368536
  152 121.619 -2.91289 0.462779
  153 150.392 -4.63137 0.729868
  154 178.355 -4.79400 0.892510
  155 199.393 -4.41589 0.703826
  156 224.301 -4.02509 0.531072
  157 248.014 -4.50802 0.924190
  158 271.870 -4.38294 0.936555
  159 294.227 -2.96150 1.22083
  160 320.118 -3.10361 1.44791
  161 345.467 -1.12044 1.10732
  162 366.198 0.299281 0.561788
  163 211.974 -19.0919 -17.1509
  164 211.113 -19.4380 17.1111
  165 63.2520 17.5299 -25.1273
  166 63.8794 17.5954 25.0159
  167 250.580 -12.1301 64.4653
  168 262.765 -13.7073 -62.7203
  169 122.086 -6.39012 7.86288
  170 122.076 -6.32632 -7.98093
  171 267.798 -9.24200 1.70177
  172 262.376 -9.26845 -1.61315
  173 356.544 64.3802 -9.20271
  174 362.429 2.36944 -46.9165
  175 355.139 5.18040 50.3582
  176 84.6290 -3.17716 -16.8392
  177 84.6312 -3.15296 16.8030
  178 313.221 -31.0523 16.9857
  179 312.860 -24.0872 -23.6033
  180 4.12920 7.13916 7.78205
  181 4.25803 7.18531 -7.70570
  182 427.869 86.9701 14.3184
  183 81.9936 36.5887 -57.4366
  184 88.0316 36.9415 61.6502
  185 302.964 -14.0539 11.1984
  186 454.636 95.1835 -6.95961
  187 195.693 -7.01963 -2.12728
  188 195.372 -7.20591 2.10594
  189 311.605 -9.73221 -10.1968
  190 415.492 -2.97310 -5.08220
  191 75.7685 -2.27069 2.97296
  192 75.7477 -2.29101 -3.01803
  193 32.3269 4.19840 -11.2585
  194 32.4754 4.15529 11.2843
  195 174.464 -6.69254 -40.1895
  196 173.781 -7.06302 40.7102
  197 208.529 -13.4561 -5.78011
  198 208.948 -13.3806 6.18777
  199 53.5820 -1.87662 8.90623
  200 53.5058 -1.85077 -8.92777
  201 411.038 -7.65746 26.3042
  202 335.644 -33.1856 -7.39504
  203 319.155 -3.14738 -1.61731
  204 311.962 -3.84139 1.65798
  205 315.715 36.9972 35.4753
  206 13.3617 11.2981 -4.07007
  207 13.8541 11.2732 4.28897
  208 315.301 -12.7254 41.2891
  209 289.621 22.0731 -40.5125
  210 206.617 46.3342 -132.884
  211 217.256 39.1227 123.435
  212 5.15615 6.92960 -0.610419
  213 5.27836 6.92770 0.668454
  214 314.248 -11.2318 -42.6457
  215 547.712 76.8211 -5.13393
  216 261.211 -28.5191 22.7277
  217 263.199 -28.3546 -21.4655
  218 261.066 -18.5726 -1.89229
  219 324.285 -5.03763 5.46739
  220 156.304 -10.6759 -14.6575
  221 153.827 -10.6319 15.1281
  222 93.7098 1.95316 -25.5123
  223 93.8414 1.91609 25.2910
  224 332.592 -35.2407 -3.24432
  225 258.881 -19.7508 0.778599
  226 323.140 -4.91032 -4.31342
  227 251.246 -6.36716 0.187107
  228 253.453 -5.92758 0.292311
  229 318.628 -14.1891 23.9173
  230 26.8723 0.277378 -9.49618
  231 26.9874 0.264628 9.49377
  232 -4.06142 -2.73862 -10.8278
  233 -4.08219 -2.76411 10.8368
  234 47.9451 -2.10572 -5.13614
  235 48.0086 -2.11078 5.09305
  236 134.006 -3.95745 3.48502
  237 134.039 -4.02950 -3.51394
  238 154.606 10.6660 -58.9769
  239 154.624 8.88857 58.3051
  240 323.193 -10.0294 -20.4519
  241 151.303 -8.80363 -24.1313
  242 151.429 -9.07357 23.7796
  243 284.272 4.31649 45.7771
  244 248.120 21.3335 2.76857
  245 277.239 -27.6115 -1.45830
  246 1.19888 -6.87836 -9.91677
  247 1.10589 -6.95181 9.99790
  248 17.7187 17.8062 -19.5993
  249 18.8668 17.1682 20.6196
  250 272.590 -27.0088 -0.366634
  251 492.516 91.7417 -5.99343
  252 25.3720 17.1919 -8.15878
  253 25.6797 17.1838 8.25867
  254 -10.5759 2.27191 7.41114
  255 -10.5224 2.28371 -7.37429
  256 495.170 85.8263 8.73683
  257 172.433 -8.24838 -5.60796
  258 172.300 -8.11421 5.48829
  259 338.715 -22.9469 38.3727
  260 612.749 99.6541 61.5102
  261 100.692 -5.28594 -13.7962
  262 100.668 -5.32315 13.7808
  263 344.950 51.5924 -34.0133
  264 591.125 112.235 -55.8635
  265 412.782 41.0616 32.9141
  266 449.059 27.6242 -83.2809
  267 277.336 -13.0501 4.50168
  268 315.279 1.42452 -51.4325
  269 298.849 -21.0643 -13.5987
  270 333.260 -5.93287 12.9796
  271 -0.235480 3.18224 -3.36456
  272 -0.113140 3.17203 3.40565
  273 330.121 -11.1546 -80.7113
  274 35.1480 10.8505 -11.3243
  275 35.3171 10.8304 11.3870
  276 319.449 -7.72244 -26.1187
  277 45.7358 46.8076 -59.6363
  278 37.3772 -0.173740 -1.18231
  279 37.4086 -0.165329 1.16371
  280 337.441 -21.0411 -40.0188
  281 59.0866 26.5358 -31.7684
  282 59.9430 26.3902 31.8573
  283 16.4606 -0.522636 6.64339
  284 16.3401 -0.516064 -6.64901
  285 276.934 -12.3823 -4.38094
  286 46.0526 46.3010 61.2553
  287 441.634 33.1218 97.7366
  288 119.992 -4.73599 -4.71477
  289 119.968 -4.70505 4.64416
  290 221.077 -9.10251 -1.83629
  291 220.968 -9.86003 2.08483
  292 188.731 18.0751 -89.8405
  293 304.644 -33.3880 -5.38677
  294 347.405 -2.08540 2.42058
  295 181.759 18.0519 86.8958
  296 211.628 -5.70342 -0.599092
  297 211.547 -5.69910 0.782461
  298 299.325 -21.9260 13.8582
  299 344.319 -3.61297 -6.13829
  300 -2.67005 1.28643 -5.13576
  301 -2.53543 1.27682 5.15485
  302 432.092 86.0444 -3.93979
  303 378.803 -17.7419 20.7549
  304 342.295 -1.73908 -0.647510
  305 348.322 -1.51330 0.586326
  306 341.178 -30.1399 28.6903
  307 420.850 43.8318 -30.6287
  308 367.370 68.3645 19.6227
  309 164.632 -10.0614 -9.13553
  310 163.128 -10.2462 9.31980
  311 347.023 -2.02368 -1.63454
  312 227.240 -17.2155 -44.0832
  313 223.504 -17.6062 7.38787
  314 213.102 -11.6710 50.3210
  315 341.327 -4.07325 7.33000
  316 76.6310 -3.52001 -8.59139
  317 76.6800 -3.54593 8.55183
  318 314.509 -10.6592 79.7685
  319 199.196 -15.7296 -11.3671
  320 366.944 47.0050 42.6414
  321 116.544 8.20237 -38.1154
  322 112.192 8.57410 37.7960
  323 33.1146 -0.709848 -2.14801
  324 33.1667 -0.705016 2.11841
  325 301.394 -6.05597 3.21462
  326 289.013 -4.08737 0.465671
  327 287.383 -4.47962 -0.565251
  328 317.048 -8.13415 27.6672
  329 26.5673 -1.00725 4.93999
  330 26.4659 -0.997768 -4.96377
  331 91.6291 -2.17511 -1.78327
  332 91.6342 -2.13841 1.76354
  333 3.01347 -14.5116 -5.58046
  334 2.81269 -14.6275 5.81981
  335 245.739 10.6103 31.0479
  336 382.485 -16.6780 -16.9665
  337 247.113 -13.1005 1.05471
  338 279.609 -5.60856 -1.67369
  339 291.841 36.2962 -19.0510
  340 56.6187 -1.80618 -12.4743
  341 56.6913 -1.80741 12.4623
  342 240.249 -12.3516 0.209178
  343 67.5824 2.32414 -17.9625
  344 67.7104 2.26534 17.9046
  345 13.0353 11.0942 0.0173963
  346 13.1973 11.0920 0.0512354
  347 292.398 -31.4144 29.3544
  348 649.245 42.8470 16.6467
  349 259.392 3.87414 -36.7724
  350 217.194 -19.4753 26.9259
  351 216.088 -19.0849 -27.7527
  352 320.646 -5.48518 50.9349
  353 284.836 -2.09326 36.3476
  354 288.580 -30.3752 -30.3199
  355 171.424 -4.35719 0.240641
  356 171.398 -4.40903 -0.197843
  357 319.226 -20.8528 31.3091
  358 437.137 87.1221 2.16796
  359 343.011 -3.85810 -9.59501
  360 87.3014 -3.34387 -6.19100
  361 87.3358 -3.34663 6.12652
  362 322.882 -30.7160 -36.5453
  363 338.849 23.5751 -50.8177
  364 226.091 12.1611 -19.9219
  365 321.460 -21.4858 -35.7784
  366 -10.5064 0.357900 -8.35533
  367 -10.5180 0.345095 8.36620
  368 270.030 -6.39886 1.02220
  369 -3.84068 -2.28789 -4.97576
  370 -3.83610 -2.28868 4.96556
  371 208.957 103.612 -161.813
  372 8.26791 7.32159 5.31955
  373 8.47641 7.37996 -5.20804
  374 282.636 -2.21039 -36.0463
  375 155.651 -6.61939 4.22112
  376 155.764 -6.70909 -4.27059
  377 -1.07211 -11.3694 9.51405
  378 -1.05460 -11.3485 -9.50400
  379 169.763 108.657 152.318
  380 127.377 -6.76162 -18.8123
  381 127.475 -6.46948 18.8267
  382 40.5843 29.8375 -29.3612
  383 41.4414 29.7519 29.1893
  384 -16.0909 2.44055 3.00305
  385 -16.0177 2.44434 -2.96370
  386 326.852 21.7180 50.8883
  387 250.723 -26.2442 12.5715
  388 250.987 -22.8744 4.76346
  389 304.324 -34.5914 -3.79924
  390 75.8119 9.49626 -24.9946
  391 76.0645 9.47820 24.9546
  392 6.75752 -10.0350 0.644458
  393 6.38773 -10.1929 -0.117240
  394 307.568 43.9716 12.5522
  395 310.459 -8.87735 8.36003
  396 177.148 -13.7332 17.2686
  397 109.381 -2.75136 -22.5622
  398 109.421 -2.77162 22.3888
  399 226.141 -6.83940 -0.686685
  400 225.895 -6.00084 0.494639
  401 175.662 -14.1046 -18.3552
  402 137.244 -2.32041 -30.6043
  403 137.221 -2.51030 30.8494
  404 323.528 -29.6850 -21.9812
  405 187.490 -14.4028 10.7651
  406 294.381 -8.97049 5.01201
  407 293.843 -8.17304 -4.19311
  408 246.348 -22.7049 -5.65298
  409 354.257 -1.54028 -2.56355
  410 118.693 47.9655 -91.1553
  411 332.945 -4.81321 15.8957
  412 353.167 -1.84939 3.81384
  413 125.247 -6.69891 11.2562
  414 125.304 -6.60750 -11.2471
  415 249.593 -25.9295 -13.0072
  416 35.4254 15.8068 12.1907
  417 35.2338 15.7961 -12.2019
  418 655.941 42.8150 -34.0413
  419 288.438 -16.4567 -7.81478
  420 356.806 -1.24218 1.47701
  421 112.058 44.7533 86.7861
  422 526.457 88.6856 16.9468
  423 309.605 -4.70615 -2.56332
  424 231.161 -16.7640 -4.39062
  425 96.1754 18.5736 -43.0885
  426 102.505 17.2185 42.8314
  427 284.957 -18.0608 7.89331
  428 301.911 -3.90502 -26.7472
  429 -2.65928 -0.276614 4.97574
  430 -2.80011 -0.273415 -4.97282
  431 108.786 26.1685 -57.9058
  432 109.132 26.2640 57.7269
  433 12.7155 6.03315 -5.18217
  434 12.8510 6.01971 5.23343
  435 255.645 -4.95166 0.526256
  436 255.338 -4.82207 -0.439131
  437 318.149 -14.5113 -25.0054
  438 -0.889360 -0.937177 11.6651
  439 -0.832427 -0.886975 -11.6223
  440 327.781 -32.3391 19.2466
  441 310.081 -8.29115 -7.38861
  442 501.116 95.9394 -14.7372
  443 19.2862 -0.906160 2.32348
  444 19.1994 -0.906339 -2.34927
  445 603.623 170.310 76.1404
  446 12.1015 4.80255 -17.7681
  447 36.9518 1.79963 -12.1494
  448 37.0748 1.77066 12.1468
  449 601.917 174.194 -73.1873
  450 12.8299 6.15366 19.5761
  451 -15.5427 1.89424 0.816334
  452 -15.4484 1.89116 -0.779185
  453 33.3798 22.8372 -17.1384
  454 33.9590 22.8450 17.2325
  455 391.650 61.3400 -35.1073
  456 314.625 -12.2961 -16.1444
  457 354.894 -1.32696 -1.30610
  458 328.658 -5.04285 -18.6467
  459 -3.86724 2.38307 10.6749
  460 -3.80930 2.41527 -10.6347
  461 317.877 -12.8160 18.7921
  462 206.238 -11.5923 -4.57342
  463 205.602 -11.7119 3.87713
  464 280.254 -30.9084 -4.47103
  465 199.783 -2.76447 -61.7844
  466 304.949 -4.68529 27.3333
  467 249.558 -8.07499 -0.0945128
  468 366.926 -27.4900 -4.17858
  469 193.520 1.72919 66.2676
  470 14.2846 -0.275279 4.80409
  471 14.1623 -0.269505 -4.81539
  472 402.328 79.5499 -15.7852
  473 322.224 -2.40437 0.176130
  474 321.115 -2.72202 -0.470064
  475 242.860 -16.2049 1.61248
  476 105.632 -3.57068 -3.44840
  477 105.624 -3.52800 3.40441
  478 62.2212 -0.733950 -14.7804
  479 62.2928 -0.746302 14.7493
  480 203.432 7.88169 11.9089
  481 50.8918 -1.71318 7.11623
  482 50.8197 -1.69670 -7.15341
  483 54.6724 5.24930 16.6503
  484 54.4909 5.32709 -16.6371
  485 312.314 -24.1813 22.6809
  486 174.474 -10.8561 -28.7446
  487 160.906 -5.19831 2.17066
  488 160.966 -5.32776 -2.17492
  489 176.320 -11.1979 28.7361
  490 488.050 115.824 -10.0869
  491 -7.80520 -1.17989 -6.45943
  492 -7.80117 -1.18606 6.45595
  493 122.100 -3.41685 -1.42907
  494 122.098 -3.36407 1.42280
  495 0.144444 -20.9974 -7.94899
  496 0.0934117 -21.0659 8.01904
  497 285.206 -4.28148 0.941819
  498 202.160 9.63715 -5.92991
  499 272.462 28.5686 17.1104
  500 173.394 -1.65200 -49.1829
  501 84.5766 -4.33746 10.7927
  502 84.5688 -4.30072 -10.8126
  503 -21.9501 0.703905 -1.68129
  504 -21.8209 0.699675 1.69818
  505 337.154 -6.33242 -50.5229
  506 26.3426 0.164150 -1.57704
  507 26.3861 0.168491 1.55579
  508 280.674 -22.1116 -6.40679
  509 299.147 -25.4797 -13.1427
  510 61.0751 46.4830 -61.6309
  511 251.390 6.85783 -97.5513
  512 3.18876 7.53052 5.03903
  513 3.30897 7.54630 -4.97238
  514 153.332 -7.08212 -6.14380
  515 153.253 -7.01667 6.00691
  516 432.256 18.0427 -10.1846
  517 311.065 -18.3650 -20.5790
  518 59.5405 43.9528 60.7604
  519 308.211 -34.9247 8.59872
  520 296.379 -28.1713 10.1997
  521 62.4820 -1.51827 -4.66926
  522 62.5200 -1.51199 4.62145
  523 242.937 2.62142 28.4716
  524 175.760 -12.9358 -11.4181
  525 328.172 -7.27608 11.7276
  526 -1.34347 -7.97043 -6.27256
  527 -1.34680 -7.96440 6.26370
  528 229.813 -20.3381 32.2336
  529 349.898 -26.7883 -26.1473
  530 456.622 31.7352 -16.0622
  531 246.531 -8.36909 0.224971
  532 72.7292 -1.35014 -1.36740
  533 72.7436 -1.32335 1.35433
  534 155.882 1.29246 47.3681
  535 436.089 73.0076 23.4809
  536 443.539 86.8223 -154.546
  537 397.413 2.17150 24.8832
  538 285.836 -31.7586 2.93963
  539 676.468 53.7949 45.6157
  540 500.063 120.972 14.5733
  541 70.1812 -2.92347 11.7886
  542 70.1298 -2.89400 -11.8098
  543 274.755 -22.7626 4.68353
  544 20.3855 9.82848 -4.78861
  545 20.5397 9.82244 4.84935
  546 345.600 -28.7308 26.1561
  547 282.131 15.2081 42.0417
  548 348.192 -2.23216 6.53128
  549 257.137 -15.4085 1.98201
  550 360.770 2.88818 -102.835
  551 572.684 147.384 101.034
  552 278.892 -5.46596 -0.815922
  553 341.951 -3.48352 -10.5215
  554 53.6242 22.3739 -23.7347
  555 54.0140 22.1041 23.6261
  556 195.221 -7.82445 -2.96373
  557 195.130 -7.63691 3.02666
  558 2.28053 -25.1442 -2.76571
  559 348.805 -12.4731 44.9995
  560 13.3300 12.0360 1.34901
  561 13.5418 12.0686 -1.24961
  562 2.67099 -24.2919 3.50970
  563 317.386 -14.4869 -36.4328
  564 365.295 22.9900 -48.6223
  565 363.982 26.0695 48.6270
  566 17.4767 14.7921 13.0015
  567 16.5956 15.1478 -12.7120
  568 -10.3655 0.336720 3.74927
  569 -10.5104 0.340157 -3.74220
  570 336.043 8.37977 106.042
  571 183.499 -10.1382 6.07662
  572 183.685 -10.1021 -6.20173
  573 405.374 -7.38170 -54.0601
  574 51.7406 -0.719349 2.71005
  575 51.7086 -0.731346 -2.74205
  576 23.5236 -0.640140 -0.641106
  577 23.5520 -0.635940 0.633669
  578 444.778 80.8215 -18.9739
  579 42.3591 61.9713 -68.1274
  580 232.174 4.63742 -24.1143
  581 328.736 52.5417 -21.3725
  582 4.84081 -0.197951 7.17637
  583 5.04023 -0.126687 -7.04248
  584 334.019 152.277 181.815
  585 283.091 -7.85352 -2.75184
  586 9.76576 2.89011 -6.28691
  587 9.89869 2.86918 6.31817
  588 327.011 -26.3225 31.2996
  589 50.1079 60.0251 69.3717
  590 235.611 -4.93430 0.271848
  591 235.675 -4.89220 -0.272799
  592 -0.250131 -16.6907 8.24730
  593 -0.224632 -16.6632 -8.22006
  594 401.818 78.3998 -0.643276
  595 255.202 -20.5754 45.9630
  596 243.558 -10.3879 -0.110526
  597 245.204 11.0106 102.927
  598 -20.3185 1.03734 4.95907
  599 -20.2978 1.04296 -4.93901
  600 402.353 5.11026 -26.7354
  601 537.148 89.3271 -71.9961
  602 152.513 15.4941 -68.4076
  603 82.0846 -3.42806 -14.3874
  604 82.1601 -3.42851 14.3886
  605 364.385 -1.16208 1.82967
  606 241.138 -10.6134 -0.193446
  607 323.612 -4.37316 4.02805
  608 317.406 -14.4861 35.5768
  609 12.6693 -0.523250 2.38469
  610 12.5625 -0.520996 -2.40387
  611 187.643 -6.50885 -1.71538
  612 187.616 -6.32869 1.65690
  613 116.866 2.58306 -31.5735
  614 116.108 2.61607 31.4311
  615 459.422 26.7994 26.8048
  616 751.207 56.6123 -82.2048
  617 -6.29619 -0.459078 3.28341
  618 -6.44550 -0.457525 -3.28297
  619 110.154 -4.62459 6.37474
  620 110.148 -4.61928 -6.46349
  621 427.855 23.0825 16.0342
  622 360.302 -1.22995 -0.581147
  623 359.505 -1.79460 0.247284
  624 259.582 -0.108694 28.1981
  625 376.327 -22.2784 -32.8888
  626 203.646 -16.6803 13.6419
  627 -4.79597 4.59974 -4.63803
  628 -4.88599 4.59271 4.69001
  629 326.870 6.58909 53.0720
  630 128.978 -7.38967 -15.0099
  631 128.851 -7.51344 15.0392
  632 266.347 -15.3669 -2.97203
  633 329.708 -7.15479 -10.6133
  634 187.515 -14.9170 -20.7410
  635 307.600 37.0824 -32.2497
  636 207.570 -14.3359 -37.3999
  637 75.4412 -2.02008 -2.40420
  638 75.4558 -1.99555 2.37113
  639 189.476 -15.1867 20.8232
  640 408.306 65.7869 31.5072
  641 324.662 -15.8447 44.8284
  642 265.819 -11.7889 2.75049
  643 189.682 -5.00535 1.16365
  644 189.634 -5.01683 -1.12715
  645 142.636 -5.28831 -4.52043
  646 142.582 -5.22962 4.47020
  647 312.695 -28.7085 -18.1830
  648 157.633 -8.88153 7.92282
  649 157.805 -8.84636 -8.08913
  650 312.759 48.3101 -4.32903
  651 288.949 -15.1354 7.89289
  652 362.353 -1.64188 -2.83938
  653 306.826 -5.70057 -46.7117
  654 43.5882 -1.94029 9.46201
  655 43.5004 -1.92644 -9.47138
  656 353.314 -1.90920 -5.91453
  657 62.5491 32.2279 -43.2742
  658 63.6247 32.1467 43.4871
  659 360.233 -22.0187 45.7011
  660 123.326 30.6908 72.0408
  661 29.7153 -0.169674 9.46918
  662 29.6098 -0.162665 -9.47469
  663 306.561 -20.0161 59.3918
  664 302.350 42.1272 -140.456
  665 293.537 9.15150 -46.5926
  666 387.323 70.0173 27.1353
  667 261.217 -11.5415 -1.58503
  668 470.142 84.7460 -2.05760
  669 -22.8865 1.07434 -1.02689
  670 -22.7771 1.07149 1.05083
  671 208.167 0.824763 -72.4801
  672 13.5769 -0.305219 1.84789
  673 13.5005 -0.306009 -1.86756
  674 261.451 -22.1329 -45.4274
  675 86.1004 11.8720 -30.4280
  676 85.4097 11.9129 30.4108
  677 1.50267 4.35057 -1.75399
  678 1.62172 4.34460 1.80478
  679 221.900 -19.1427 -10.1150
  680 314.551 -3.09518 -17.9468
  681 149.289 -4.58171 -1.63862
  682 149.295 -4.52935 1.65178
  683 107.769 -5.49365 -9.57901
  684 107.853 -5.57070 9.54205
  685 20.3270 16.7262 -5.61950
  686 20.6694 16.7615 5.73467
  687 323.092 -3.77179 2.02744
  688 142.684 -9.03116 12.4715
  689 143.609 -8.87140 -12.4592
  690 357.522 -28.8302 -4.69657
  691 294.339 -29.5916 -7.01449
  692 231.141 -6.45154 -0.103448
  693 230.319 -6.00819 0.219643
  694 324.462 -34.4600 17.1960
  695 527.146 106.269 27.4772
  696 285.003 -12.9204 -73.9075
  697 326.394 -9.07649 18.7888
  698 323.920 -12.1550 -48.0718
  699 100.069 -3.09174 -4.47788
  700 100.069 -3.06780 4.41913
  701 253.273 -4.54476 82.9553
  702 710.269 90.9544 83.4337
  703 48.2504 14.1370 -17.3923
  704 48.3218 14.2310 17.4500
  705 322.083 -3.03495 -1.02590
  706 324.651 -2.71725 1.04640
  707 136.441 68.4622 -117.298
  708 341.935 -1.81657 10.5052
  709 295.620 -4.97600 1.64413
  710 389.183 77.2018 -10.0481
  711 39.2885 7.09508 -12.5470
  712 39.4612 7.05012 12.5942
  713 367.715 -0.875250 0.324548
  714 297.204 -11.3769 -7.70527
  715 370.674 -5.86199 39.4715
  716 151.047 -10.5497 -19.6721
  717 151.427 -10.0938 19.4812
  718 33.6565 -1.18296 7.16303
  719 33.5594 -1.16800 -7.18346
  720 336.711 -2.20005 -1.87754
  721 290.160 56.2743 149.135
  722 2.06262 2.15129 9.73496
  723 2.17052 2.21524 -9.66084
  724 337.424 -3.56333 -4.91003
  725 327.578 -5.93581 7.00354
  726 258.330 0.166412 -30.2438
  727 2.43898 -30.0627 -3.96893
  728 2.27822 -30.3563 4.26418
  729 118.628 31.6224 -72.0362
  730 260.933 -26.2589 -32.6204
  731 135.399 67.8563 118.435
  732 362.858 -0.867239 1.10735
  733 349.083 52.2022 34.1706
  734 253.789 23.0476 -11.9138
  735 457.785 92.2811 0.106947
  736 358.190 -1.47090 3.83821
  737 -21.8105 0.526574 2.64319
  738 -21.9530 0.529474 -2.63250
  739 381.043 -22.0725 9.46367
  740 246.087 -6.99495 -0.153401
  741 88.8721 0.173784 -21.6183
  742 88.9881 0.0845913 21.4912
  743 327.664 -3.75466 -2.87857
  744 579.107 82.0148 -29.5190
  745 37.8825 -1.13196 -4.47144
  746 37.9634 -1.13866 4.43770
  747 365.388 -0.957840 -1.78105
  748 71.6525 -3.20632 -6.24214
  749 71.6986 -3.21767 6.19218
  750 356.801 -14.4467 -40.6544
  751 329.495 -3.43901 14.4791
  752 295.023 -2.02400 46.1592
  753 366.038 -0.996868 -0.0224911
  754 341.451 -2.51807 3.75916
  755 222.562 -11.8939 -2.12950
  756 279.469 -7.24431 2.07357
  757 317.665 -19.5750 -30.4209
  758 309.899 -19.4581 19.8665
  759 362.975 43.7079 -43.1059
  760 305.665 -17.0980 14.7599
  761 322.791 -19.1866 38.8600
  762 186.673 -12.5718 8.22148
  763 6.69134 -2.16554 -0.760388
  764 6.33270 -2.18788 1.09999
  765 282.982 -4.15186 0.0187831
  766 282.380 -4.12145 -0.124099
  767 339.868 -1.45740 -0.207910
  768 341.051 -1.38886 0.288072
  769 323.225 -9.05291 22.9917
  770 298.414 -27.6085 42.8581
  771 244.763 -19.8109 3.39080
  772 217.252 -12.8793 3.78112
  773 590.849 75.7367 34.3695
  774 326.947 -8.24464 -14.8365
  775 191.344 33.0254 -110.048
  776 303.726 -14.9452 -12.7737
  777 11.5146 0.256073 -6.78065
  778 11.6447 0.244956 6.78953
  779 270.420 23.6989 -26.7108
  780 691.170 20.9869 -9.02908
  781 341.602 8.59361 -51.9672
  782 13.5956 7.15737 -26.5886
  783 351.239 63.2674 8.75060
  784 274.359 -17.3806 4.58691
  785 308.054 -7.78996 45.3309
  786 259.591 -27.3901 32.8026
  787 416.333 -3.05173 66.7659
  788 14.6524 10.3378 28.4178
  789 187.407 -1.19480 56.3947
  790 262.309 -6.66389 -0.792035
  791 292.560 -26.4334 -43.3884
  792 178.985 -13.9020 -14.4348
  793 141.319 6.71597 -49.2157
  794 338.715 -5.45971 50.9277
  795 216.943 -14.7291 6.27091
  796 40.6757 -1.17865 4.00755
  797 40.6157 -1.18012 -4.04573
  798 315.528 -1.72334 15.9004
  799 285.666 1.35120 -44.8367
  800 -25.1103 1.13395 3.09583
  801 -25.0723 1.13605 -3.07395
  802 211.072 -6.53826 -0.712514
  803 210.455 -6.17745 0.645419
  804 156.473 17.3718 69.4114
  805 139.249 -8.10563 9.34921
  806 139.446 -7.90673 -9.45029
  807 365.209 -0.682927 -0.978956
  808 127.152 10.0537 47.9485
  809 3.11697 -0.119857 2.55328
  810 2.98451 -0.117177 -2.56459
  811 311.708 -9.66688 35.0853
  812 333.770 -2.77800 1.48932
  813 -17.8341 0.207332 4.92668
  814 -17.8369 0.213066 -4.91678
  815 204.839 -12.9162 42.0495
  816 39.4196 32.8709 -36.5801
  817 39.9053 31.3351 36.0235
  818 192.621 8.53856 4.94682
  819 -4.28412 -0.196876 -2.93178
  820 -4.13462 -0.198883 2.92865
  821 235.673 -22.4368 -30.7198
  822 322.066 -33.8687 -11.1515
  823 -1.60130 -1.52148 -2.01267
  824 -1.59659 -1.51793 2.00523
  825 15.9490 0.551890 -0.597681
  826 15.9851 0.554967 0.586417
  827 286.315 -25.4588 7.42060
  828 240.844 -24.6846 21.3071
  829 267.024 -4.42462 0.741630
  830 240.207 -19.3264 -4.30112
  831 87.1903 -1.43126 -0.463571
  832 87.1997 -1.39599 0.455346
  833 -28.4143 0.603168 1.80604
  834 -28.3529 0.602373 -1.78457
  835 301.837 -3.84250 -1.35214
  836 266.006 10.3967 -38.1308
  837 305.195 -5.99544 -4.05729
  838 179.360 -13.6563 13.7423
  839 301.354 -5.32391 -37.0494
  840 322.871 -9.83510 -23.7573
  841 303.068 -3.29082 1.21374
  842 220.730 -8.53862 57.8513
  843 235.824 -23.0204 -11.9087
  844 141.736 -1.05459 -37.6387
  845 142.520 -0.0695924 37.8352
  846 200.827 -14.9904 -8.91541
  847 333.600 36.0558 44.4560
  848 317.200 -33.1850 -23.5169
  849 113.352 -3.56421 -2.23879
  850 113.341 -3.51020 2.21470
  851 242.106 -5.43433 0.117026
  852 242.115 -5.47985 -0.0573110
  853 287.889 -2.19762 -24.2102
  854 96.4786 -4.06967 -7.73032
  855 96.5298 -4.10049 7.66263
  856 1.16297 -30.2310 -6.01770
  857 1.10029 -30.3609 6.14092
  858 48.0256 -0.714190 -0.226170
  859 48.0024 -0.729125 0.216313
  860 299.534 -4.63549 -1.89762
  861 226.937 -21.6269 19.2388
  862 353.155 -30.4381 11.7707
  863 205.563 4.31726 18.9481
  864 306.266 -7.15959 4.64705
  865 334.253 -30.0658 -24.3876
  866 47.6114 3.06327 -14.4074
  867 47.7524 3.01245 14.3988
  868 265.659 -4.75231 -0.678445
  869 213.630 -7.36636 -1.65758
  870 212.882 -7.30036 1.84785
  871 329.658 51.3407 24.0744
  872 114.233 -1.11167 -26.1521
  873 114.123 -1.24545 26.0353
  874 229.057 -20.6695 9.42865
  875 21.8935 14.3194 -4.83698
  876 22.1116 14.2912 4.89892
  877 193.601 -13.7930 34.1682
  878 232.339 -14.7586 -2.24769
  879 289.590 -2.27504 24.4643
  880 285.626 -32.1940 10.4484
  881 327.429 -24.9840 -33.7482
  882 226.383 -21.8041 -19.5163
  883 188.032 -12.5189 -7.87544
  884 617.516 50.8045 -9.49983
  885 299.248 -31.7306 5.16787
  886 8.38516 9.74560 3.69817
  887 8.54105 9.76428 -3.61681
  888 259.920 -26.0237 4.91780
  889 285.218 -32.1748 -18.5585
  890 8.89524 8.53881 0.483070
  891 9.03190 8.54094 -0.420946
  892 106.779 -3.76825 19.7763
  893 106.846 -3.88375 -19.8966
  894 129.531 -6.52423 21.7093
  895 129.486 -6.68073 -21.8626
  896 411.497 82.5572 12.5036
  897 -0.614972 -12.7310 -6.08958
  898 -0.619369 -12.7160 6.08542
  899 94.0665 7.98529 -28.9367
  900 93.6014 7.82184 28.6479
  901 714.774 23.1682 -36.1566
  902 12.3391 -0.0668704 1.02989
  903 12.2808 -0.0692048 -1.04533
  904 1.22313 -34.6984 2.07031
  905 1.42950 -34.1198 -1.58147
  906 -13.6275 -0.174208 5.04959
  907 -13.6424 -0.169987 -5.04789
  908 75.1643 22.1163 -34.1114
  909 76.3302 21.3832 33.6225
  910 -6.01081 0.253286 -10.6703
  911 -6.04059 0.229496 10.6893
  912 21.1742 1.96346 -9.34069
  913 21.3077 1.93828 9.35410
  914 81.8134 -0.910405 18.2000
  915 81.7576 -0.906443 -18.2944
  916 66.5808 -2.26307 -14.6667
  917 66.6479 -2.25864 14.6421
  918 354.839 -1.29209 -5.81356
  919 172.338 36.5360 102.262
  920 238.188 -23.4684 11.1233
  921 168.807 -12.0340 10.9997
  922 326.149 33.5063 -43.8954
  923 702.863 15.0955 14.4070
  924 387.321 17.4032 -41.8541
  925 63.2646 -2.42869 9.12647
  926 63.2013 -2.40081 -9.16247
  927 10.6083 -0.356188 -6.72526
  928 10.7354 -0.359790 6.72461
  929 -0.272335 -6.10891 -11.6207
  930 -0.323189 -6.15900 11.6595
  931 174.484 -7.60047 4.78932
  932 174.576 -7.75180 -4.81527
  933 20.6520 5.70438 -8.23135
  934 20.7956 5.67854 8.27558
  935 105.944 -4.69071 -16.7473
  936 106.014 -4.69041 16.7352
  937 229.228 -1.05435 -22.3081
  938 109.281 -5.91458 -11.5499
  939 109.203 -5.84922 11.5882
  940 267.559 -7.35878 -0.993270
  941 323.729 -18.6200 -41.7246
  942 140.668 -5.63442 5.18383
  943 140.737 -5.68783 -5.25775
  944 -5.84956 -0.631169 -3.54914
  945 -5.83377 -0.632681 3.54165
  946 330.105 -25.7028 -53.2317
  947 315.826 -18.5036 26.4883
  948 276.961 -19.2708 -5.88973
  949 269.449 9.14385 40.1853
  950 122.089 -6.82295 -13.0188
  951 122.088 -6.69104 13.0600
  952 301.431 11.4469 48.6216
  953 281.114 24.4831 32.0075
  954 576.299 69.3865 12.0863
  955 294.797 -10.4545 5.69488
  956 154.426 -4.50654 -2.32330
  957 154.406 -4.41480 2.34399
  958 263.791 -21.5440 -1.29185
  959 364.999 67.0023 -20.5673
  960 323.169 -3.36298 -2.05436
  961 211.574 -5.03913 0.759313
  962 211.491 -4.99924 -0.698328
  963 26.6804 22.4539 -15.7304
  964 27.3619 22.4113 15.8531
  965 50.9965 127.638 -114.142
  966 302.099 -7.19132 36.8556
  967 376.895 -7.28275 -35.2070
  968 -6.60741 3.62516 2.11031
  969 -6.50888 3.62437 -2.06135
  970 768.792 181.717 -145.314
  971 322.600 -35.1469 4.11677
  972 344.193 -31.9901 -13.3174
  973 317.528 -27.2279 24.1512
  974 392.424 77.3360 8.59469
  975 28.1700 29.0848 -34.0590
  976 72.2294 110.167 111.891
  977 -1.94364 -4.47844 11.5918
  978 -1.91205 -4.44170 -11.5720
  979 309.116 -7.77720 5.79703
  980 496.332 87.9552 -10.3696
  981 28.9978 28.4062 35.4360
  982 -1.36984 -4.57030 -3.94652
  983 -1.37015 -4.55782 3.93642
  984 264.975 -6.01372 0.401518
  985 197.352 -15.6312 -15.0437
  986 319.996 -25.3187 -28.6222
  987 90.3725 24.2977 -45.2234
  988 91.8247 24.7004 45.3419
  989 310.576 -7.72187 -32.8978
  990 313.305 -9.81425 10.7062
  991 -8.43583 2.09314 9.40596
  992 -8.39394 2.11422 -9.37556
  993 188.460 -12.4211 -32.1067
  994 313.080 19.8956 -48.8315
  995 232.821 -8.57285 0.684673
  996 167.030 -4.65427 0.376776
  997 166.999 -4.68628 -0.357523
  998 -3.54979 -4.02810 -8.25237
  999 -3.55492 -4.03682 8.24590
  1000 317.540 -11.2154 -13.1561
  1001 302.445 -3.21852 0.366680
  1002 302.163 -3.22218 -0.242363
  1003 417.816 68.0552 -29.1342
  1004 74.6708 6.53162 -22.7442
  1005 74.8562 6.40109 22.6915
  1006 47.2781 -0.426071 -12.1367
  1007 47.3669 -0.435702 12.1209
  1008 343.828 18.2242 52.5702
  1009 325.810 -6.00641 -7.35294
  1010 56.8480 9.03915 -18.4492
  1011 57.0741 8.97095 18.5174
  1012 340.212 -1.70401 -1.21993
  1013 317.180 -13.6298 -19.9578
  1014 309.723 -35.0604 -12.7705
  1015 11.6538 9.89353 -0.375061
  1016 11.3253 9.84624 0.524146
  1017 -15.1409 2.44141 5.62102
  1018 -15.0867 2.44809 -5.58492
  1019 186.006 7.03595 -8.27484
  1020 536.569 132.668 -35.7324
  1021 244.459 -17.7095 -1.17109
  1022 161.288 -7.03839 -33.0648
  1023 393.140 -16.0546 3.98631
  1024 161.924 -7.03342 33.5321
  1025 281.330 -32.7967 21.7669
  1026 318.961 -13.1795 -29.9392
  1027 108.416 -2.47671 -0.716723
  1028 108.421 -2.43145 0.711668
  1029 217.432 -16.9013 -7.67218
  1030 132.863 -4.92884 -25.6822
  1031 132.810 -4.96629 25.5477
  1032 43.8606 28.6662 -27.7715
  1033 44.5610 28.5808 27.8546
  1034 90.9693 -2.87093 -2.55621
  1035 90.9733 -2.83450 2.52149
  1036 283.797 -8.84398 3.10207
  1037 239.337 0.838003 -83.9969
  1038 294.208 -9.41477 -5.65430
  1039 265.509 -29.3731 -12.9213
  1040 174.032 -7.23684 3.25301
  1041 174.178 -7.29237 -3.26454
  1042 344.846 -2.01006 1.53760
  1043 307.951 -7.17696 -5.43557
  1044 196.423 4.76914 15.6041
  1045 329.918 -3.25078 -13.4656
  1046 127.301 37.0192 81.7526
  1047 339.839 -3.12005 -11.0495
  1048 88.1438 14.8631 -33.9758
  1049 85.4920 15.0327 32.5753
  1050 406.340 -7.28333 -5.70772
  1051 36.2713 19.0062 -14.3036
  1052 36.6078 18.8687 14.2999
  1053 6.13578 -0.711487 3.83054
  1054 6.44811 -0.654464 -3.62476
  1055 51.3909 -1.37749 3.09282
  1056 51.3482 -1.38672 -3.13290
  1057 144.925 37.4790 -90.6690
  1058 793.823 205.711 156.383
  1059 316.482 -11.2115 13.4952
  1060 283.842 -31.9211 -9.35206
  1061 196.829 -16.1681 -24.7204
  1062 -4.21334 4.30685 8.21885
  1063 -4.13762 4.33049 -8.16808
  1064 222.305 -11.3079 1.65684
  1065 245.403 -8.95192 -0.173214
  1066 -0.126508 -18.0500 5.88040
  1067 -0.120365 -18.0672 -5.87863
  1068 36.5259 22.7076 -17.0801
  1069 36.9636 22.6641 17.1836
  1070 219.317 -10.3805 -1.57258
  1071 16.8713 7.98678 5.08903
  1072 16.7285 7.99798 -5.03193
  1073 335.548 -13.3680 48.3649
  1074 242.673 -25.1366 -21.1995
  1075 198.007 -16.4291 24.7188
  1076 319.343 -6.51768 -50.8342
  1077 337.826 -3.57294 5.33762
  1078 121.674 18.6949 54.7023
  1079 122.549 17.8942 -53.7853
  1080 196.633 -9.56478 -46.0000
  1081 279.031 -9.83978 -3.16867
  1082 226.472 -13.4978 3.42415
  1083 265.584 -24.7548 -0.495230
  1084 365.388 -1.24790 -3.03359
  1085 196.314 -8.90582 3.38798
  1086 196.228 -9.42529 -3.50012
  1087 6.46626 7.62088 6.75124
  1088 6.62794 7.67743 -6.65855
  1089 321.815 11.7585 -52.5055
  1090 71.6630 3.68711 -20.0633
  1091 71.8541 3.60599 20.0061
  1092 53.6008 1.08281 -14.3353
  1093 53.7163 1.05262 14.3079
  1094 368.185 -15.1538 67.0755
  1095 318.592 -14.6580 29.5237
  1096 155.341 -7.10385 -28.0005
  1097 371.430 -1.42974 -1.81426
  1098 415.742 78.4917 -22.0379
  1099 337.251 -3.10284 -3.38187
  1100 315.733 -34.0849 10.9528
  1101 233.359 -17.7982 40.2863
  1102 373.962 -0.413713 0.352928
  1103 196.050 6.12636 -13.2345
  1104 267.444 -28.5905 -5.80009
  1105 155.589 -7.42820 27.6884
  1106 269.947 -24.5422 -1.05894
  1107 337.185 -4.72444 9.94841
  1108 240.376 15.2040 20.6339
  1109 167.127 -12.2489 -22.2522
  1110 509.770 72.0576 -29.4223
  1111 382.607 17.1146 43.8982
  1112 284.701 35.6972 5.06566
  1113 369.789 0.0943344 1.61705
  1114 144.906 -9.00483 -16.9829
  1115 98.9484 60.8900 -91.0588
  1116 177.173 4.70642 -65.5011
  1117 203.264 -15.5467 10.5774
  1118 171.543 -12.8045 20.8266
  1119 144.552 -8.55961 17.1607
  1120 305.972 2.58054 51.0390
  1121 231.210 -7.94023 -0.415266
  1122 364.393 -2.66267 4.06765
  1123 -2.94790 -0.285331 11.5973
  1124 -2.90436 -0.248624 -11.5681
  1125 242.265 -6.79592 -0.0197662
  1126 -0.342063 2.67204 10.5322
  1127 -0.263486 2.71993 -10.4769
  1128 135.434 -4.20764 2.96271
  1129 135.446 -4.27620 -2.96663
  1130 342.905 -1.82107 9.17343
  1131 275.373 -16.7684 -4.89561
  1132 257.861 -13.6804 -1.56458
  1133 288.528 -20.1417 9.84521
  1134 87.6467 43.4433 -67.8058
  1135 282.899 -10.5929 4.14222
  1136 41.6248 0.811294 -11.7459
  1137 41.7342 0.790355 11.7356
  1138 58.5984 37.6953 -47.6116
  1139 452.796 59.0349 14.6235
  1140 31.5681 -1.47634 6.83760
  1141 31.4656 -1.46420 -6.84959
  1142 59.6581 37.1049 45.9636
  1143 258.841 -21.6083 0.247889
  1144 130.438 -6.04308 6.42644
  1145 130.462 -6.07187 -6.53602
  1146 529.011 111.932 -29.3411
  1147 285.310 -28.5771 2.24525
  1148 97.4208 56.9511 90.8618
  1149 8.29014 -2.35146 -7.40769
  1150 8.93788 -2.24268 8.17267
  1151 299.987 37.6202 25.6599
  1152 22.2421 12.1335 -5.13157
  1153 22.4237 12.1366 5.18348
  1154 287.204 -24.9440 -7.85564
  1155 -0.133814 -27.9162 -5.52621
  1156 -0.146875 -27.9213 5.55136
  1157 307.045 -25.9064 -17.0189
  1158 -5.57874 0.378016 2.28429
  1159 -5.72899 0.380374 -2.28988
  1160 46.6456 17.4137 -18.5044
  1161 46.8990 17.4884 18.3327
  1162 -16.2894 0.0386074 -2.79786
  1163 -16.1322 0.0374442 2.80041
  1164 307.075 -3.24582 -0.481491
  1165 -30.7888 0.900119 0.526014
  1166 -30.7048 0.899618 -0.506267
  1167 161.593 -12.6529 -16.3695
  1168 4.28551 -40.5422 -3.97188
  1169 80.5188 -2.27166 4.91272
  1170 80.4925 -2.28005 -4.96938
  1171 260.609 -4.86762 0.360925
  1172 261.105 -4.73677 -0.309821
  1173 4.60193 -38.6670 4.91255
  1174 309.118 -16.0701 -16.7663
  1175 353.311 -1.60532 6.77243
  1176 314.007 -20.0993 -24.4488
  1177 273.402 1.99731 39.8713
  1178 1.43560 -11.3168 8.56776
  1179 1.57025 -11.2326 -8.42779
  1180 200.409 -14.5055 8.38018
  1181 -13.8067 1.24551 7.50517
  1182 -13.7812 1.25613 -7.48285
  1183 521.817 83.1144 5.48734
  1184 611.086 189.860 -133.692
  1185 321.066 -31.2424 21.0376
  1186 131.944 -3.80045 -0.406136
  1187 131.950 -3.75261 0.406475
  1188 659.285 63.9641 -58.9280
  1189 46.2453 -1.21047 7.10243
  1190 46.1628 -1.19172 -7.13096
  1191 299.492 -0.979173 -15.8292
  1192 192.233 -15.5098 18.5298
  1193 317.606 -31.1666 -15.4027
  1194 307.349 -22.3223 -19.1670
  1195 187.270 -6.62972 48.2400
  1196 69.0794 12.8884 -25.6456
  1197 69.0400 12.7736 25.4979
  1198 91.2019 33.7338 -57.5875
  1199 91.3205 31.2103 57.5881
  1200 25.8455 7.61958 -8.70797
  1201 26.0006 7.59652 8.76175
  1202 378.840 65.6252 -30.0950
  1203 19.4432 17.7517 -7.77086
  1204 19.9007 17.7764 7.90775
  1205 273.368 -20.8702 4.24614
  1206 512.245 74.6429 33.1258
  1207 64.2899 -2.69299 -4.84035
  1208 64.3347 -2.69186 4.79015
  1209 333.537 230.537 -199.364
  1210 255.031 15.1162 -31.8579
  1211 233.946 17.9807 12.9978
  1212 32.2925 13.6720 -10.3096
  1213 32.4470 13.6715 10.3679
  1214 5.72401 -0.0602829 1.67355
  1215 5.62465 -0.0601778 -1.68857
  1216 302.908 -24.3042 15.8904
  1217 297.949 -11.8538 8.46502
  1218 203.966 57.3889 -142.454
  1219 469.920 102.515 -4.42610
  1220 201.634 -6.16698 -53.1733
  1221 261.589 -7.95237 0.707363
  1222 12.3140 -1.30558 -0.396168
  1223 12.3370 -1.30467 0.393852
  1224 -7.08165 2.04917 -3.75109
  1225 -6.95553 2.04060 3.78058
  1226 175.188 1.86700 -55.9003
  1227 323.522 -7.03140 9.43175
  1228 210.046 3.75360 76.5450
  1229 284.801 -14.0094 -6.48920
  1230 146.811 52.0664 -111.962
  1231 228.320 -11.2011 -57.4494
  1232 272.019 -29.0453 4.26825
  1233 333.329 -5.22857 14.9384
  1234 292.359 -6.02145 -2.39835
  1235 160.905 -11.8708 16.4666
  1236 366.790 -20.7689 -27.4406
  1237 347.549 30.0513 49.8020
  1238 151.095 0.703940 -44.0878
  1239 346.970 -2.09844 1.18410
  1240 277.525 34.5693 -7.22734
  1241 120.112 -4.15777 -4.81836
  1242 120.087 -4.11309 4.76286
  1243 531.763 122.029 29.0936
  1244 728.350 19.3613 33.8712
  1245 0.643080 -34.0976 -5.49307
  1246 0.622126 -34.1367 5.53544
  1247 78.0125 41.0763 63.3803
  1248 186.966 -5.39768 -0.926748
  1249 187.006 -5.36394 0.997061
  1250 256.564 -25.7977 -6.38533
  1251 305.649 24.9958 44.2280
  1252 320.964 -6.24053 -6.09302
  1253 373.546 -0.963185 -0.306099
  1254 646.870 143.480 -90.2703
  1255 99.6420 -3.74434 4.95228
  1256 99.6344 -3.75295 -5.02076
  1257 307.357 -28.5374 16.3055
  1258 540.741 131.319 -39.8323
  1259 298.118 -12.9367 -9.53427
  1260 217.376 -15.0589 -5.65287
  1261 267.255 -29.0663 12.5778
  1262 261.330 -12.9940 2.14728
  1263 9.60045 1.66993 -11.8902
  1264 357.734 -21.8581 32.6016
  1265 289.660 -18.8932 -9.60362
  1266 10.5852 2.17075 13.1963
  1267 297.943 -23.9541 -53.8591
  1268 281.788 17.2703 -116.500
  1269 464.097 58.7741 -10.1839
  1270 375.026 -0.235958 -0.120311
  1271 374.350 -0.583261 0.339390
  1272 294.677 -17.1361 10.3869
  1273 113.009 13.4701 -43.3898
  1274 335.733 -29.9436 26.3746
  1275 571.612 130.513 59.4334
  1276 140.733 48.1442 109.055
  1277 3.86131 0.356282 8.76312
  1278 4.00986 0.428284 -8.66057
  1279 352.948 -28.6206 -28.6713
  1280 141.221 -7.66312 -7.70501
  1281 141.194 -7.68264 7.55913
  1282 328.391 -21.7021 40.0537
  1283 11.3060 0.0983172 7.48267
  1284 11.1791 0.104764 -7.48050
  1285 -1.82211 -6.89224 9.51785
  1286 -1.80985 -6.87744 -9.51915
  1287 57.4625 -1.98590 -6.47840
  1288 57.5241 -1.99774 6.43506
  1289 172.186 -11.4755 -25.3338
  1290 173.370 -5.65903 1.40597
  1291 173.365 -5.78553 -1.34020
  1292 373.617 -0.228762 0.0237864
  1293 331.269 -5.05894 -16.7974
  1294 26.3105 1.24725 -9.36622
  1295 26.4338 1.22866 9.36909
  1296 172.876 -12.1429 25.1235
  1297 377.298 -0.365177 0.127968
  1298 356.325 -0.276469 -0.397230
  1299 356.318 -0.490065 0.305027
  1300 470.290 98.7741 5.83725
  1301 347.074 -2.28762 -2.69114
  1302 308.019 -3.05695 0.371350
  1303 341.274 -5.10839 -8.79728
  1304 371.602 -1.16511 1.24554
  1305 386.599 39.6569 43.5113
  1306 448.080 92.8554 11.6674
  1307 360.760 -1.40303 -4.49190
  1308 -2.94519 -0.755807 2.64839
  1309 -2.95690 -0.755244 -2.65641
  1310 199.645 -12.5178 5.66938
  1311 199.605 -11.9614 -5.49663
  1312 390.129 44.0053 -41.4353
  1313 80.8477 27.8556 -47.4996
  1314 81.3690 27.0880 46.9781
  1315 262.475 0.00989395 -19.9340
  1316 270.806 -4.23981 -0.182580
  1317 270.475 -4.20412 0.126427
  1318 -6.55371 -1.10831 9.69391
  1319 -6.54171 -1.09082 -9.68999
  1320 300.411 -0.777900 15.8034
  1321 457.548 91.0047 -0.709904
  1322 31.3921 -1.22687 -4.08483
  1323 31.4705 -1.22975 4.05108
  1324 338.034 -32.5730 14.6524
  1325 0.418929 5.52179 8.40419
  1326 0.517172 5.55538 -8.34089
  1327 61.3347 -1.39268 -1.32824
  1328 61.3560 -1.37039 1.30578
  1329 262.548 -0.407916 20.2357
  1330 9.39920 0.574345 -0.618336
  1331 9.44492 0.576539 0.607027
  1332 344.272 -3.93922 5.70619
  1333 479.249 87.4531 4.32299
</Section>

newXOutput 44

<Section columns = "stress_xx | stress_yy | stress_xy">
  1 391.939 -0.990565 0.711375
  2 392.569 -1.28963 -0.924156
  3 5.74162 0.370551 -1.02171
  4 -0.274286 -0.419732 -0.269358
  5 721.877 285.292 234.945
  6 733.008 326.827 -237.465
  7 -0.271243 -0.417074 0.265418
  8 5.71865 0.368482 1.01928
  9 394.638 -0.698349 -0.649159
  10 391.666 -1.32466 -0.932805
  11 391.923 -1.02656 0.884865
  12 389.938 -0.520765 0.404538
  13 389.120 -1.24183 -0.216645
  14 388.428 -1.18956 1.58503
  15 382.649 -0.821459 1.53947
  16 384.083 -2.75561 2.31121
  17 371.907 -2.27378 4.93884
  18 364.136 -0.981139 5.93414
  19 353.457 -1.22683 6.39322
  20 334.964 -1.08576 8.91019
  21 314.869 -0.937425 10.3334
  22 289.834 1.29229 14.1494
  23 255.591 1.99706 12.8019
  24 241.885 -0.149856 18.3140
  25 199.244 2.84508 13.0185
  26 173.372 3.76408 10.1931
  27 166.636 1.78019 7.51302
  28 159.411 5.49325 0.549890
  29 163.361 5.94580 -10.0445
  30 171.326 1.68529 -12.6137
  31 203.130 0.698523 -16.8562
  32 235.256 -1.62009 -17.5281
  33 256.819 1.65384 -12.7827
  34 290.208 1.47275 -14.1556
  35 314.043 -1.11528 -11.0727
  36 337.013 -1.24505 -8.41103
  37 352.021 -0.882683 -6.49147
  38 363.031 -1.03873 -5.44977
  39 374.808 -1.31056 -3.16566
  40 379.454 -1.31379 -3.03355
  41 383.972 -1.24578 -2.66706
  42 388.574 -1.42614 -0.546448
  43 390.359 -1.82265 -1.10875
  44 388.122 0.167851 -0.0896032
  45 391.474 -0.929153 -0.995981
  46 393.214 -1.96741 1.01710
  47 395.132 -1.11905 -0.0517107
  48 375.032 0.313749 -0.591463
  49 352.534 -1.37317 -1.11595
  50 327.117 -3.27430 -1.62027
  51 300.859 -2.68500 -1.17955
  52 278.001 -4.45896 -1.08573
  53 253.912 -4.86193 -0.995294
  54 229.647 -4.24245 -0.503094
  55 204.166 -4.57375 -0.684307
  56 182.641 -4.91094 -0.894716
  57 154.038 -4.71991 -0.735027
  58 124.624 -2.95108 -0.470489
  59 100.316 -1.88874 -0.376953
  60 70.3211 -1.19164 -0.165916
  61 48.5329 -1.17944 -1.50855
  62 28.2870 -1.65391 -0.503934
  63 7.87180 0.190183 0.915078
  64 2.59271 1.42766 0.343786
  65 1.11316 0.582102 0.954204
  66 1.89107 0.263432 0.937567
  67 -2.27225 0.822519 0.404681
  68 -3.86827 1.07433 1.96484
  69 -4.49212 0.374651 0.699738
  70 -11.5562 0.793972 0.770764
  71 -14.8597 0.553745 1.88586
  72 -16.1520 0.188731 1.97795
  73 -23.8723 0.748761 1.54205
  74 -26.7705 1.11688 2.92195
  75 -29.9737 0.677705 1.06322
  76 -33.7344 0.491665 1.57654
  77 -35.2220 0.526474 0.635167
  78 -38.8346 1.26602 -0.839021
  79 -39.2697 0.867895 -0.624569
  80 -35.7940 0.659120 -1.21984
  81 -30.7617 0.855783 -2.35384
  82 -24.9954 0.375985 -3.58373
  83 -18.6233 0.205548 -3.73693
  84 -11.1784 -0.381394 -3.91827
  85 -4.85232 -0.304251 -2.28696
  86 -2.03333 -0.810189 -1.42682
  87 -0.342229 -2.04842 -1.23371
  88 -0.577891 -5.23397 -2.19973
  89 -0.657038 -10.2649 -3.86534
  90 -0.133726 -19.2291 -4.17721
  91 0.229766 -26.6043 -5.24755
  92 0.540785 -38.2531 -4.28239
  93 1.63413 -45.3973 -5.04829
  94 0.279325 -48.8947 -4.17152
  95 -0.0703692 -56.0300 -2.48931
  96 1.55496 -54.2604 -0.584240
  97 6.29218 -70.3097 3.00608
  98 5.61233 -37.5302 9.86688
  99 13.3628 -15.8053 21.7510
  100 40.1688 66.0483 68.0104
  101 171.327 220.482 193.365
  102 945.819 100.606 140.511
  103 790.245 27.9277 50.3859
  104 752.183 11.9135 17.3600
  105 731.000 7.82104 -0.0915903
  106 744.459 11.3486 -14.2524
  107 797.720 23.8518 -41.7418
  108 935.938 79.9519 -130.920
  109 111.112 250.030 -160.013
  110 28.2077 48.2745 -52.5578
  111 9.84206 -22.4253 -18.0374
  112 5.08406 -41.4241 -8.46502
  113 6.25985 -73.0941 -2.32653
  114 1.48711 -55.4976 1.06639
  115 -0.161767 -56.6503 2.74092
  116 0.220969 -49.1352 4.30652
  117 1.60242 -45.4550 5.10549
  118 0.528585 -38.2331 4.30363
  119 0.220496 -26.5675 5.25532
  120 -0.138256 -19.1821 4.17486
  121 -0.657642 -10.2348 3.85727
  122 -0.579144 -5.20794 2.19212
  123 -0.342005 -2.03866 1.22694
  124 -2.02159 -0.809095 1.42118
  125 -4.83153 -0.305599 2.28090
  126 -11.1519 -0.384564 3.91474
  127 -18.5930 0.202081 3.73790
  128 -24.9790 0.372212 3.59046
  129 -30.7703 0.853128 2.36685
  130 -35.8280 0.658942 1.23377
  131 -39.3365 0.867172 0.638102
  132 -38.9284 1.26598 0.853050
  133 -35.3463 0.527882 -0.623055
  134 -33.8814 0.493391 -1.56769
  135 -30.1315 0.679655 -1.05632
  136 -26.9406 1.11918 -2.91935
  137 -24.0467 0.750895 -1.53989
  138 -16.3232 0.190030 -1.97867
  139 -15.0307 0.555977 -1.88889
  140 -11.7186 0.797121 -0.775184
  141 -4.63412 0.376756 -0.707867
  142 -3.98930 1.07644 -1.97679
  143 -2.37491 0.823070 -0.415292
  144 1.81647 0.263012 -0.947824
  145 1.05950 0.581049 -0.962422
  146 2.55286 1.42580 -0.350943
  147 7.84373 0.189001 -0.919234
  148 28.2611 -1.65994 0.499590
  149 48.5086 -1.19480 1.50372
  150 70.3036 -1.21898 0.159622
  151 100.308 -1.92835 0.373649
  152 124.616 -2.99708 0.469912
  153 154.021 -4.75978 0.741164
  154 182.594 -4.93093 0.907658
  155 204.089 -4.54923 0.715066
  156 229.536 -4.15180 0.538655
  157 253.757 -4.64762 0.941160
  158 278.120 -4.51961 0.954342
  159 300.947 -3.06443 1.24463
  160 327.375 -3.20433 1.47630
  161 353.244 -1.16892 1.13128
  162 374.395 0.291307 0.574473
  163 216.944 -19.5445 -17.6449
  164 216.064 -19.8989 17.6039
  165 64.8189 17.9520 -25.8073
  166 65.4615 18.0188 25.6934
  167 256.379 -12.3764 66.0594
  168 268.831 -13.9879 -64.2736
  169 125.077 -6.55368 8.09822
  170 125.066 -6.48835 -8.21883
  171 273.975 -9.48631 1.68413
  172 268.438 -9.51343 -1.59292
  173 364.879 65.8648 -9.37853
  174 370.758 2.46829 -47.8134
  175 363.318 5.33819 51.3412
  176 86.7412 -3.26123 -17.3036
  177 86.7439 -3.23652 17.2668
  178 320.423 -31.7598 17.2434
  179 320.059 -24.6420 -24.0217
  180 4.26166 7.33112 7.91604
  181 4.39354 7.37848 -7.83784
  182 437.711 88.9904 14.4907
  183 83.9800 37.4962 -58.8892
  184 90.1562 37.8565 63.2001
  185 309.920 -14.3979 11.3715
  186 465.037 97.4110 -6.93330
  187 200.309 -7.21052 -2.21515
  188 199.982 -7.40104 2.19343
  189 318.737 -9.97871 -10.3592
  190 424.894 -2.93608 -5.38759
  191 77.7455 -2.33152 3.06672
  192 77.7238 -2.35227 -3.11276
  193 33.2002 4.29384 -11.5857
  194 33.3525 4.24976 11.6123
  195 178.587 -6.84699 -41.2207
  196 177.887 -7.22544 41.7541
  197 213.427 -13.7905 -5.98931
  198 213.854 -13.7133 6.40635
  199 55.0181 -1.92684 9.15968
  200 54.9397 -1.90037 -9.18157
  201 420.328 -7.71615 27.0803
  202 343.332 -33.9178 -7.41868
  203 326.401 -3.24872 -1.63168
  204 319.059 -3.96062 1.67104
  205 323.136 37.8735 36.1907
  206 13.7087 11.6303 -4.24305
  207 14.2127 11.6051 4.46715
  208 322.605 -13.0119 42.1175
  209 296.470 22.6038 -41.3481
  210 211.391 47.5165 -136.050
  211 222.275 40.1237 126.381
  212 5.35131 7.09728 -0.675750
  213 5.47651 7.09540 0.735262
  214 321.536 -11.4825 -43.5051
  215 560.101 78.5342 -5.26478
  216 267.263 -29.1694 23.3644
  217 269.294 -29.0018 -22.0730
  218 267.114 -19.0212 -1.84527
  219 331.663 -5.17899 5.54712
  220 160.042 -10.9398 -15.0772
  221 157.511 -10.8950 15.5584
  222 96.0050 1.99341 -26.1946
  223 96.1402 1.95555 25.9684
  224 340.206 -36.0171 -3.46055
  225 264.881 -20.2262 0.705119
  226 330.489 -5.04982 -4.36975
  227 257.060 -6.54840 0.162757
  228 259.315 -6.09908 0.326992
  229 325.953 -14.5241 24.3667
  230 27.6544 0.279896 -9.76718
  231 27.7725 0.266847 9.76487
  232 -4.14500 -2.79165 -11.0688
  233 -4.16624 -2.81774 11.0780
  234 49.2856 -2.15961 -5.28602
  235 49.3511 -2.16480 5.24203
  236 137.272 -4.06781 3.59160
  237 137.306 -4.14145 -3.62113
  238 158.269 10.9304 -60.4483
  239 158.287 9.11096 59.7607
  240 330.611 -10.2719 -20.8368
  241 154.918 -9.01897 -24.7814
  242 155.048 -9.29528 24.4221
  243 290.980 4.43049 46.7292
  244 254.116 21.8436 2.82679
  245 283.647 -28.2543 -1.38023
  246 1.23891 -7.00151 -10.1167
  247 1.14374 -7.07674 10.1997
  248 18.1695 18.3466 -20.1569
  249 19.3448 17.6940 21.2009
  250 278.895 -27.6382 -0.485336
  251 503.636 93.9896 -6.38557
  252 26.0282 17.6225 -8.43034
  253 26.3432 17.6144 8.53279
  254 -10.7874 2.32997 7.56069
  255 -10.7327 2.34208 -7.52296
  256 506.323 87.9553 9.19955
  257 176.539 -8.46222 -5.79475
  258 176.403 -8.32510 5.67253
  259 346.499 -23.4518 39.0982
  260 626.463 101.896 62.9521
  261 103.185 -5.42104 -14.1831
  262 103.162 -5.45920 14.1676
  263 353.000 52.8030 -34.6763
  264 604.407 114.781 -57.2120
  265 422.206 42.0837 33.4549
  266 459.099 28.4777 -85.3522
  267 283.729 -13.3764 4.52932
  268 322.624 1.47877 -52.4791
  269 305.728 -21.5618 -13.8061
  270 340.871 -6.08342 13.2175
  271 -0.142964 3.25651 -3.48597
  272 -0.0175893 3.24609 3.52814
  273 337.639 -11.3224 -82.6807
  274 36.0641 11.1091 -11.6625
  275 36.2374 11.0886 11.7269
  276 326.824 -7.90315 -26.6360
  277 46.8543 48.0842 -61.1529
  278 38.5147 -0.180202 -1.21789
  279 38.5475 -0.171606 1.19889
  280 345.204 -21.5010 -40.7819
  281 60.5428 27.1902 -32.6120
  282 61.4196 27.0415 32.7035
  283 17.0373 -0.537007 6.83063
  284 16.9135 -0.530280 -6.83627
  285 283.316 -12.6945 -4.40889
  286 47.1794 47.5652 62.8088
  287 451.503 34.1273 100.133
  288 122.943 -4.86127 -4.86360
  289 122.919 -4.82968 4.79146
  290 226.246 -9.34254 -1.93135
  291 226.134 -10.1171 2.18642
  292 193.144 18.5370 -92.0207
  293 311.653 -34.1468 -5.38205
  294 355.243 -2.15351 2.45321
  295 186.016 18.5166 89.0109
  296 216.589 -5.86682 -0.633334
  297 216.507 -5.86246 0.820649
  298 306.216 -22.4418 14.0690
  299 352.126 -3.71284 -6.24016
  300 -2.60216 1.31468 -5.29099
  301 -2.46413 1.30484 5.31064
  302 442.057 88.0011 -3.97090
  303 387.436 -18.0929 21.0537
  304 350.010 -1.80310 -0.652662
  305 356.160 -1.56958 0.591007
  306 348.965 -30.7755 29.4863
  307 430.443 44.9227 -31.1091
  308 375.927 69.9470 19.9815
  309 168.562 -10.3143 -9.41623
  310 167.025 -10.5033 9.60484
  311 354.848 -2.09128 -1.65128
  312 232.535 -17.6018 -45.2066
  313 228.730 -18.0319 7.64776
  314 218.083 -11.9280 51.5874
  315 349.080 -4.18364 7.45509
  316 78.6026 -3.61064 -8.83658
  317 78.6532 -3.63719 8.79622
  318 321.693 -10.8268 81.7137
  319 203.886 -16.1113 -11.7166
  320 375.437 48.1232 43.4560
  321 119.350 8.39684 -39.1000
  322 114.899 8.77778 38.7738
  323 34.1454 -0.728426 -2.21234
  324 34.1994 -0.723487 2.18210
  325 308.280 -6.22592 3.24535
  326 295.626 -4.21615 0.460376
  327 293.961 -4.61744 -0.561964
  328 324.377 -8.32412 28.2176
  329 27.4084 -1.03354 5.08326
  330 27.3042 -1.02383 -5.10751
  331 93.9640 -2.23576 -1.83688
  332 93.9697 -2.19825 1.81673
  333 3.09422 -14.7850 -5.66804
  334 2.88876 -14.9036 5.91297
  335 251.660 10.8718 31.7018
  336 391.198 -16.9924 -17.1748
  337 252.852 -13.4298 1.00509
  338 286.031 -5.77182 -1.67414
  339 298.769 37.1511 -19.4402
  340 58.1029 -1.85577 -12.8221
  341 58.1776 -1.85706 12.8100
  342 245.838 -12.6641 0.285986
  343 69.2861 2.37176 -18.4573
  344 69.4175 2.31159 18.3984
  345 13.4031 11.3693 -0.0435749
  346 13.5690 11.3671 0.113941
  347 299.126 -32.1135 30.1492
  348 663.641 43.7893 17.0193
  349 265.587 3.97865 -37.5434
  350 222.275 -19.9288 27.6508
  351 221.144 -19.5286 -28.4968
  352 328.088 -5.59349 51.9644
  353 291.541 -2.13448 37.1002
  354 295.226 -31.0508 -31.1367
  355 175.513 -4.48394 0.262995
  356 175.486 -4.53688 -0.219240
  357 326.577 -21.3302 31.9017
  358 447.211 89.1025 2.15859
  359 350.816 -3.96145 -9.77040
  360 89.5227 -3.43157 -6.37373
  361 89.5583 -3.43443 6.30787
  362 330.270 -31.3746 -37.5140
  363 346.720 24.1489 -51.8322
  364 231.606 12.4566 -20.3441
  365 328.869 -21.9729 -36.4675
  366 -10.7379 0.370637 -8.54028
  367 -10.7498 0.357516 8.55139
  368 276.249 -6.58002 1.00563
  369 -3.92883 -2.33975 -5.09208
  370 -3.92412 -2.34055 5.08161
  371 213.715 106.248 -165.630
  372 8.49471 7.53234 5.38675
  373 8.70812 7.59226 -5.27257
  374 289.297 -2.25380 -36.7932
  375 159.390 -6.79447 4.36289
  376 159.505 -6.88616 -4.41344
  377 -1.09200 -11.6204 9.72564
  378 -1.07408 -11.5990 -9.71539
  379 173.667 111.409 155.924
  380 130.461 -6.93137 -19.3303
  381 130.562 -6.63261 19.3451
  382 41.5934 30.6039 -30.1535
  383 42.4706 30.5169 29.9778
  384 -16.4113 2.50026 3.04720
  385 -16.3363 2.50415 -3.00687
  386 334.471 22.2456 51.9157
  387 256.547 -26.8543 12.9689
  388 256.817 -23.4152 4.97419
  389 311.323 -35.3724 -4.01489
  390 77.6845 9.71910 -25.6667
  391 77.9434 9.70078 25.6261
  392 6.93141 -10.1695 0.721342
  393 6.55301 -10.3313 -0.181843
  394 314.839 45.0010 12.8035
  395 317.561 -9.10593 8.48692
  396 181.348 -14.0660 17.7578
  397 112.046 -2.82498 -23.1716
  398 112.087 -2.84575 22.9945
  399 231.418 -7.02940 -0.740581
  400 231.167 -6.17193 0.544095
  401 179.828 -14.4456 -18.8695
  402 140.534 -2.38038 -31.4091
  403 140.511 -2.57464 31.6602
  404 330.961 -30.3552 -22.3460
  405 191.923 -14.7557 11.0949
  406 301.131 -9.20508 5.06768
  407 300.578 -8.39044 -4.23383
  408 252.076 -23.2422 -5.88318
  409 362.244 -1.59444 -2.59908
  410 121.513 49.1607 -93.3875
  411 340.577 -4.93436 16.2020
  412 361.143 -1.90892 3.87398
  413 128.300 -6.86959 11.5825
  414 128.357 -6.77601 -11.5732
  415 255.391 -26.5325 -13.4143
  416 36.3346 16.1914 12.5567
  417 36.1383 16.1803 -12.5681
  418 670.472 43.7566 -34.7970
  419 295.079 -16.8565 -7.90619
  420 364.823 -1.28983 1.49739
  421 114.729 45.8768 88.9208
  422 538.409 90.6826 17.3878
  423 316.661 -4.84453 -2.58580
  424 236.555 -17.1723 -4.57741
  425 98.5047 19.0221 -44.1945
  426 104.982 17.6333 43.9308
  427 291.526 -18.4955 7.98196
  428 308.953 -3.99394 -27.2929
  429 -2.54895 -0.284605 5.11747
  430 -2.69345 -0.281335 -5.11439
  431 111.398 26.8082 -59.3610
  432 111.752 26.9059 59.1779
  433 13.1080 6.17555 -5.35974
  434 13.2468 6.16183 5.41235
  435 261.552 -5.10173 0.523336
  436 261.237 -4.96923 -0.434384
  437 325.466 -14.8530 -25.4769
  438 -0.892718 -0.937163 11.9108
  439 -0.834453 -0.885726 -11.8671
  440 335.304 -33.0642 19.5450
  441 317.170 -8.50752 -7.49676
  442 512.540 98.1171 -15.1740
  443 19.9924 -0.928798 2.39352
  444 19.9030 -0.928979 -2.41986
  445 617.145 174.293 78.0517
  446 12.4059 5.12113 -18.2724
  447 37.9535 1.83735 -12.4930
  448 38.0797 1.80772 12.4905
  449 615.437 178.280 -75.0713
  450 13.1525 6.50320 20.1228
  451 -15.8312 1.93796 0.807071
  452 -15.7346 1.93483 -0.768979
  453 34.2216 23.4158 -17.6330
  454 34.8146 23.4242 17.7296
  455 400.681 62.7910 -35.7341
  456 321.841 -12.5952 -16.4287
  457 362.873 -1.37492 -1.32247
  458 336.210 -5.16505 -19.0110
  459 -3.93104 2.45211 10.8970
  460 -3.87173 2.48512 -10.8558
  461 325.171 -13.1245 19.1336
  462 211.085 -11.8861 -4.74311
  463 210.435 -12.0083 4.03174
  464 286.727 -31.6184 -4.69119
  465 204.461 -2.80976 -63.3164
  466 312.050 -4.79173 27.8889
  467 255.340 -8.29423 -0.0519676
  468 375.285 -28.0586 -4.43590
  469 198.056 1.79326 67.9046
  470 14.8320 -0.284038 4.94102
  471 14.7063 -0.278128 -4.95250
  472 411.638 81.3844 -16.0349
  473 329.526 -2.48921 0.171764
  474 328.394 -2.81424 -0.471878
  475 248.508 -16.6019 1.73330
  476 108.271 -3.66645 -3.55424
  477 108.263 -3.62283 3.50931
  478 63.8157 -0.759057 -15.1915
  479 63.8895 -0.771719 15.1598
  480 208.468 8.07548 12.1633
  481 52.2849 -1.75840 7.31949
  482 52.2106 -1.74153 -7.35742
  483 56.0642 5.36945 17.1155
  484 55.8781 5.44901 -17.1018
  485 319.500 -24.7400 23.0804
  486 178.604 -11.1148 -29.5074
  487 164.763 -5.34230 2.25104
  488 164.824 -5.47460 -2.25534
  489 180.492 -11.4644 29.4991
  490 499.169 118.527 -10.5069
  491 -7.98254 -1.20482 -6.60721
  492 -7.97837 -1.21113 6.60362
  493 125.107 -3.51266 -1.47434
  494 125.105 -3.45873 1.46795
  495 0.151252 -21.4527 -8.11537
  496 0.0990382 -21.5227 8.18702
  497 291.743 -4.41441 0.936142
  498 207.172 9.86863 -6.05596
  499 278.973 29.2454 17.4644
  500 177.487 -1.68353 -50.4239
  501 86.7165 -4.44829 11.0984
  502 86.7081 -4.41065 -11.1186
  503 -22.3498 0.718585 -1.73997
  504 -22.2175 0.714260 1.75732
  505 344.938 -6.45068 -51.5234
  506 27.2320 0.166190 -1.62270
  507 27.2772 0.170625 1.60100
  508 287.153 -22.6353 -6.45206
  509 306.036 -26.0727 -13.3296
  510 62.5637 47.6775 -63.1917
  511 257.188 7.07657 -99.8989
  512 3.31387 7.72003 5.10898
  513 3.43697 7.73627 -5.04068
  514 157.017 -7.26666 -6.33722
  515 156.938 -7.19981 6.19731
  516 442.043 18.5729 -10.1995
  517 318.217 -18.7979 -20.9456
  518 60.9936 45.0901 62.3012
  519 315.294 -35.7076 8.92610
  520 303.207 -28.8223 10.3155
  521 64.1585 -1.55953 -4.80392
  522 64.1979 -1.55312 4.75509
  523 248.791 2.69161 29.0707
  524 179.933 -13.2540 -11.7608
  525 335.662 -7.46278 11.9319
  526 -1.37230 -8.15333 -6.41709
  527 -1.37571 -8.14712 6.40798
  528 235.171 -20.8033 33.0846
  529 357.911 -27.3680 -26.5859
  530 466.910 32.6200 -16.6508
  531 252.249 -8.59449 0.181531
  532 74.6485 -1.38863 -1.40549
  533 74.6638 -1.36124 1.39214
  534 159.580 1.32864 48.5679
  535 446.045 74.7634 23.7968
  536 453.385 89.1519 -158.193
  537 406.468 2.29942 25.2573
  538 292.431 -32.4863 3.12646
  539 691.417 54.9865 46.6356
  540 511.399 123.836 15.1302
  541 71.9845 -3.00063 12.1205
  542 71.9314 -2.97044 -12.1421
  543 281.106 -23.3010 4.68836
  544 20.9422 10.0655 -4.96548
  545 21.1002 10.0594 5.02779
  546 353.518 -29.3603 26.5981
  547 288.816 15.5807 42.9150
  548 356.101 -2.29390 6.64774
  549 263.096 -15.7881 1.94560
  550 368.928 3.09462 -105.309
  551 585.375 151.030 103.579
  552 285.294 -5.62643 -0.806411
  553 349.752 -3.57383 -10.7190
  554 54.9589 22.9199 -24.3838
  555 55.3581 22.6437 24.2729
  556 199.827 -8.03306 -3.07929
  557 199.735 -7.84132 3.14380
  558 2.34312 -25.5869 -2.88222
  559 356.824 -12.7266 45.8649
  560 13.6908 12.3468 1.31600
  561 13.9077 12.3803 -1.21414
  562 2.74307 -24.7147 3.64363
  563 324.721 -14.8172 -37.1533
  564 373.715 23.5628 -49.5591
  565 372.380 26.7149 49.5662
  566 17.9211 15.2306 13.3944
  567 17.0193 15.5942 -13.0981
  568 -10.4537 0.343085 3.85908
  569 -10.6023 0.346599 -3.85177
  570 343.668 8.69845 108.586
  571 187.847 -10.3959 6.28234
  572 188.037 -10.3589 -6.40985
  573 414.518 -7.41685 -55.4536
  574 53.1903 -0.740352 2.78787
  575 53.1571 -0.752611 -2.82056
  576 24.3599 -0.655272 -0.658817
  577 24.3897 -0.650977 0.651219
  578 454.922 82.7588 -19.1817
  579 43.3782 63.7386 -69.8288
  580 237.808 4.75754 -24.6240
  581 336.458 53.7654 -21.7939
  582 4.97503 -0.154011 7.29529
  583 5.17913 -0.0809340 -7.15826
  584 341.394 156.158 186.052
  585 289.594 -8.06570 -2.76359
  586 10.1097 2.95552 -6.48330
  587 10.2460 2.93413 6.51544
  588 334.531 -26.9148 31.8755
  589 51.3073 61.7441 71.1043
  590 241.089 -5.08300 0.287909
  591 241.154 -5.03994 -0.288879
  592 -0.252234 -17.0596 8.42685
  593 -0.226147 -17.0316 -8.39901
  594 411.137 80.1891 -0.658207
  595 261.111 -21.0284 47.1322
  596 249.215 -10.6577 -0.173813
  597 250.859 11.3366 105.400
  598 -20.7676 1.06361 5.06277
  599 -20.7465 1.06937 -5.04222
  600 411.512 5.31064 -27.1448
  601 549.055 91.6578 -73.8754
  602 156.122 15.8811 -70.0994
  603 84.1483 -3.51801 -14.7885
  604 84.2260 -3.51853 14.7898
  605 372.577 -1.19948 1.85635
  606 246.744 -10.8882 -0.136270
  607 330.966 -4.50058 4.08201
  608 324.740 -14.8177 36.2790
  609 13.2156 -0.536231 2.45498
  610 13.1056 -0.533926 -2.47454
  611 192.084 -6.68701 -1.78453
  612 192.057 -6.50284 1.72473
  613 119.688 2.64003 -32.4017
  614 118.913 2.67389 32.2564
  615 469.756 27.5889 27.6362
  616 767.640 57.8519 -83.9874
  617 -6.25288 -0.470482 3.37788
  618 -6.40611 -0.468895 -3.37737
  619 112.884 -4.74502 6.56696
  620 112.878 -4.73953 -6.65764
  621 437.563 23.7234 16.1818
  622 368.380 -1.27541 -0.589564
  623 367.567 -1.85216 0.248779
  624 265.775 -0.104492 28.7893
  625 384.867 -22.7048 -33.7930
  626 208.433 -17.0819 14.0484
  627 -4.85479 4.71315 -4.70910
  628 -4.94699 4.70591 4.76237
  629 334.464 6.76694 54.1426
  630 132.104 -7.57559 -15.4339
  631 131.975 -7.70226 15.4640
  632 272.506 -15.7451 -2.95812
  633 337.226 -7.33735 -10.7969
  634 191.942 -15.2744 -21.3151
  635 314.850 37.9578 -32.9020
  636 212.433 -14.6657 -38.3672
  637 77.4159 -2.07398 -2.47683
  638 77.4314 -2.04891 2.44305
  639 193.946 -15.5498 21.4006
  640 417.687 67.3488 32.0383
  641 332.164 -16.1954 45.7155
  642 271.959 -12.0893 2.74619
  643 194.168 -5.15005 1.20065
  644 194.119 -5.16174 -1.16335
  645 146.090 -5.43095 -4.66107
  646 146.035 -5.37098 4.60976
  647 319.888 -29.3642 -18.4702
  648 161.411 -9.10791 8.16658
  649 161.587 -9.07182 -8.33649
  650 320.147 49.4365 -4.41508
  651 295.599 -15.5057 7.98939
  652 370.515 -1.69009 -2.88466
  653 313.981 -5.81920 -47.6657
  654 44.7853 -1.99072 9.72936
  655 44.6950 -1.97653 -9.73880
  656 361.317 -1.96413 -6.02073
  657 64.0809 33.0297 -44.3934
  658 65.1820 32.9470 44.6116
  659 368.423 -22.4421 46.8874
  660 126.266 31.4445 73.8231
  661 30.5796 -0.177979 9.73605
  662 30.4711 -0.170798 -9.74155
  663 313.584 -20.4225 60.8748
  664 309.211 43.2679 -143.780
  665 300.448 9.38389 -47.5543
  666 396.288 71.6519 27.6157
  667 267.259 -11.8366 -1.55421
  668 480.922 86.6512 -2.10414
  669 -23.3297 1.09939 -1.07185
  670 -23.2176 1.09649 1.09641
  671 213.025 0.872818 -74.2579
  672 14.1688 -0.313117 1.90045
  673 14.0898 -0.313924 -1.92055
  674 267.498 -22.6206 -46.5852
  675 88.2073 12.1526 -31.2317
  676 87.5009 12.1948 31.2143
  677 1.62286 4.45447 -1.84107
  678 1.74484 4.44839 1.89317
  679 227.090 -19.6002 -10.4430
  680 321.842 -3.16768 -18.3089
  681 152.893 -4.70861 -1.68752
  682 152.900 -4.65512 1.70098
  683 110.435 -5.63438 -9.85824
  684 110.521 -5.71326 9.82055
  685 20.8534 17.1580 -5.82994
  686 21.2038 17.1944 5.94799
  687 330.425 -3.88651 2.04521
  688 146.123 -9.25753 12.8322
  689 147.068 -9.09416 -12.8198
  690 365.682 -29.4425 -4.64645
  691 301.123 -30.2744 -7.05642
  692 236.524 -6.63355 -0.136018
  693 235.684 -6.18031 0.254361
  694 331.894 -35.2151 17.7255
  695 539.100 108.702 28.2241
  696 291.550 -13.1626 -75.7177
  697 333.878 -9.29587 19.1428
  698 331.416 -12.4180 -49.0328
  699 102.582 -3.17557 -4.61387
  700 102.582 -3.15112 4.55386
  701 259.119 -4.59837 84.9728
  702 725.920 92.9942 85.2978
  703 49.4696 14.4762 -17.8832
  704 49.5429 14.5725 17.9425
  705 329.384 -3.13411 -1.03345
  706 332.006 -2.80806 1.05445
  707 139.638 70.2008 -120.131
  708 349.742 -1.86806 10.7057
  709 302.379 -5.12311 1.64714
  710 398.223 78.9731 -10.2166
  711 40.3135 7.26046 -12.9116
  712 40.4905 7.21451 12.9601
  713 375.948 -0.906357 0.326048
  714 304.025 -11.6642 -7.80913
  715 379.160 -5.94680 40.1944
  716 154.661 -10.8078 -20.2151
  717 155.050 -10.3415 20.0200
  718 34.6478 -1.21358 7.36518
  719 34.5479 -1.19827 -7.38597
  720 344.321 -2.27581 -1.89960
  721 296.746 57.7355 152.647
  722 2.13380 2.23302 9.92220
  723 2.24424 2.29859 -9.84633
  724 345.077 -3.66693 -4.98488
  725 335.034 -6.09533 7.11300
  726 264.497 0.178117 -30.8779
  727 2.50254 -30.6863 -4.02841
  728 2.33804 -30.9866 4.33052
  729 121.459 32.4015 -73.8201
  730 266.974 -26.8511 -33.4841
  731 138.582 69.5766 121.291
  732 371.004 -0.900566 1.12058
  733 357.222 53.4267 34.8339
  734 259.902 23.5967 -12.1615
  735 468.283 94.3924 0.223075
  736 366.278 -1.51626 3.90240
  737 -22.1870 0.538148 2.72237
  738 -22.3330 0.541110 -2.71137
  739 389.700 -22.5016 9.84534
  740 251.792 -7.18970 -0.194562
  741 91.0639 0.170134 -22.2047
  742 91.1830 0.0788738 22.0749
  743 335.097 -3.86678 -2.91172
  744 592.129 83.8505 -30.2308
  745 38.9902 -1.16184 -4.60392
  746 39.0735 -1.16870 4.56948
  747 373.592 -0.991622 -1.80805
  748 73.5201 -3.28875 -6.42590
  749 73.5677 -3.30039 6.37490
  750 364.983 -14.7396 -41.4151
  751 337.075 -3.52309 14.7644
  752 301.944 -2.05693 47.1098
  753 374.236 -1.03184 -0.0172603
  754 349.179 -2.59852 3.81335
  755 227.766 -12.1952 -2.24876
  756 285.892 -7.44357 2.07421
  757 324.982 -20.0262 -30.9988
  758 317.026 -19.9152 20.2148
  759 371.382 44.7501 -43.9345
  760 312.689 -17.5070 15.0023
  761 330.238 -19.6198 39.6168
  762 191.089 -12.8843 8.48603
  763 6.86602 -2.13550 -0.717192
  764 6.49900 -2.15855 1.06476
  765 289.467 -4.28296 0.0124185
  766 288.851 -4.25191 -0.120040
  767 347.531 -1.51539 -0.208858
  768 348.739 -1.44556 0.290675
  769 330.661 -9.26845 23.4373
  770 305.267 -28.2067 43.9630
  771 250.456 -20.2859 3.56285
  772 222.340 -13.2027 3.93843
  773 604.109 77.4254 35.1774
  774 334.426 -8.44959 -15.1058
  775 195.800 33.8588 -112.692
  776 310.701 -15.3080 -12.9785
  777 11.9297 0.259280 -6.98037
  778 12.0632 0.247909 6.98960
  779 276.878 24.2652 -27.2648
  780 706.355 21.4460 -9.22257
  781 349.508 8.82352 -52.9998
  782 13.9337 7.61140 -27.3023
  783 359.459 64.7288 8.91760
  784 280.694 -17.8026 4.60444
  785 315.227 -7.95903 46.2541
  786 265.603 -28.0073 33.6708
  787 425.705 -2.96600 68.4401
  788 15.0162 10.8645 29.1750
  789 191.812 -1.20899 57.8023
  790 268.362 -6.85153 -0.772509
  791 299.289 -27.0067 -44.5056
  792 183.227 -14.2403 -14.8545
  793 144.684 6.88139 -50.4604
  794 346.536 -5.55787 51.9382
  795 222.025 -15.0915 6.49786
  796 41.8642 -1.20935 4.12215
  797 41.8023 -1.21085 -4.16115
  798 322.841 -1.76589 16.2202
  799 292.398 1.39575 -45.7667
  800 -25.6597 1.16125 3.15522
  801 -25.6209 1.16341 -3.13280
  802 216.022 -6.72000 -0.762861
  803 215.392 -6.35107 0.694075
  804 160.170 17.8030 71.1252
  805 142.618 -8.31112 9.62819
  806 142.818 -8.10763 -9.73151
  807 373.402 -0.710327 -0.990812
  808 130.195 10.2978 49.1651
  809 3.42928 -0.122853 2.62630
  810 3.29312 -0.120114 -2.63783
  811 318.938 -9.88704 35.7918
  812 341.318 -2.86621 1.50464
  813 -18.2382 0.214165 5.03486
  814 -18.2411 0.220040 -5.02474
  815 209.639 -13.2096 43.1249
  816 40.3981 33.7341 -37.5485
  817 40.8952 32.1634 36.9789
  818 197.429 8.74589 5.05235
  819 -4.17168 -0.203333 -3.01489
  820 -4.01818 -0.205389 3.01173
  821 241.160 -22.9502 -31.5359
  822 329.459 -34.6294 -11.2689
  823 -1.63910 -1.55726 -2.06086
  824 -1.63428 -1.55362 2.05323
  825 16.6152 0.563169 -0.616134
  826 16.6530 0.566311 0.604625
  827 292.921 -26.0537 7.48081
  828 246.449 -25.2547 21.9064
  829 273.173 -4.56235 0.736025
  830 245.800 -19.7907 -4.49252
  831 89.4287 -1.47484 -0.479909
  832 89.4388 -1.43880 0.471511
  833 -29.0249 0.616560 1.83486
  834 -28.9621 0.615750 -1.81285
  835 308.720 -3.96351 -1.36105
  836 272.349 10.6551 -38.9284
  837 312.164 -6.16289 -4.10462
  838 183.611 -13.9899 14.1449
  839 308.386 -5.44214 -37.8072
  840 330.298 -10.0687 -24.2171
  841 309.977 -3.39936 1.22105
  842 225.875 -8.71563 59.2923
  843 241.320 -23.5621 -12.2850
  844 145.121 -1.08052 -38.6102
  845 145.923 -0.0720805 38.8117
  846 205.554 -15.3577 -9.20192
  847 341.384 36.9154 45.3419
  848 324.471 -33.9127 -24.1875
  849 116.164 -3.66129 -2.30995
  850 116.154 -3.60609 2.28535
  851 247.723 -5.59450 0.140283
  852 247.733 -5.64105 -0.0795021
  853 294.655 -2.24522 -24.7094
  854 98.8990 -4.17561 -7.95668
  855 98.9518 -4.20718 7.88755
  856 1.19310 -30.8881 -6.13799
  857 1.12896 -31.0210 6.26405
  858 49.4014 -0.734492 -0.226085
  859 49.3769 -0.749757 0.216020
  860 306.374 -4.77424 -1.90943
  861 232.236 -22.1332 19.7858
  862 361.225 -31.0947 11.8818
  863 210.636 4.42237 19.3517
  864 313.262 -7.35230 4.70341
  865 341.925 -30.7343 -24.7977
  866 48.8496 3.13077 -14.8123
  867 48.9942 3.07878 14.8038
  868 271.779 -4.89755 -0.672997
  869 218.636 -7.56685 -1.73869
  870 217.873 -7.49945 1.93345
  871 337.396 52.5398 24.5500
  872 117.002 -1.14501 -26.8498
  873 116.890 -1.28188 26.7306
  874 234.405 -21.1616 9.74256
  875 22.4715 14.6745 -5.02274
  876 22.6949 14.6457 5.08630
  877 198.156 -14.1144 35.0596
  878 237.757 -15.1233 -2.37915
  879 296.390 -2.32444 24.9686
  880 292.215 -32.9259 10.8093
  881 334.961 -25.5450 -34.3791
  882 231.669 -22.3145 -20.0694
  883 192.478 -12.8305 -8.13073
  884 631.295 51.9241 -9.71806
  885 306.140 -32.4558 5.16184
  886 8.63105 9.99328 3.72876
  887 8.79067 10.0125 -3.64539
  888 265.947 -26.6319 5.13823
  889 291.794 -32.9006 -19.1057
  890 9.16923 8.74787 0.438566
  891 9.30922 8.75013 -0.374870
  892 109.393 -3.86679 20.3164
  893 109.461 -3.98491 -20.4392
  894 132.658 -6.68725 22.2997
  895 132.611 -6.84727 -22.4562
  896 421.008 84.4589 12.6830
  897 -0.627475 -13.0244 -6.22820
  898 -0.631970 -13.0090 6.22390
  899 96.3629 8.17119 -29.7028
  900 95.8875 8.00412 29.4077
  901 730.438 23.6742 -36.9359
  902 12.9153 -0.0696314 1.06055
  903 12.8548 -0.0720169 -1.07633
  904 1.25624 -35.4023 2.08011
  905 1.46753 -34.8101 -1.57991
  906 -13.9414 -0.176828 5.16391
  907 -13.9567 -0.172504 -5.16218
  908 77.0048 22.6517 -35.0073
  909 78.1987 21.9007 34.5071
  910 -6.13378 0.268286 -10.9034
  911 -6.16424 0.243911 10.9228
  912 21.8007 2.00588 -9.61233
  913 21.9376 1.98013 9.62623
  914 83.8521 -0.940258 18.7006
  915 83.7945 -0.936177 -18.7969
  916 68.2850 -2.32436 -15.0729
  917 68.3540 -2.31986 15.0479
  918 362.896 -1.32896 -5.92118
  919 176.375 37.4503 104.733
  920 243.736 -24.0202 11.4822
  921 172.827 -12.3314 11.3319
  922 333.775 34.3050 -44.7771
  923 718.273 15.4207 14.7216
  924 396.186 17.8648 -42.6156
  925 64.9298 -2.49225 9.38423
  926 64.8646 -2.46370 -9.42092
  927 11.0332 -0.366687 -6.91458
  928 11.1636 -0.370372 6.91403
  929 -0.267149 -6.22812 -11.8697
  930 -0.319187 -6.27941 11.9094
  931 178.637 -7.80042 4.94922
  932 178.730 -7.95511 -4.97568
  933 21.2423 5.83720 -8.48371
  934 21.3895 5.81080 8.52914
  935 108.546 -4.81165 -17.2110
  936 108.619 -4.81142 17.1988
  937 234.794 -1.06957 -22.7809
  938 111.975 -6.06497 -11.8810
  939 111.895 -5.99824 11.9203
  940 273.728 -7.56145 -0.969394
  941 331.201 -19.0363 -42.5445
  942 144.077 -5.78383 5.34759
  943 144.146 -5.83838 -5.42314
  944 -5.98758 -0.645107 -3.63247
  945 -5.97138 -0.646652 3.62478
  946 337.641 -26.2292 -54.5789
  947 323.093 -18.9345 26.9817
  948 283.356 -19.7332 -5.93056
  949 275.861 9.37368 41.0241
  950 125.067 -6.99586 -13.3897
  951 125.066 -6.86100 13.4319
  952 308.509 11.7331 49.6222
  953 287.796 25.0695 32.6683
  954 589.266 70.9266 12.3679
  955 301.561 -10.7216 5.75892
  956 158.142 -4.63330 -2.39785
  957 158.121 -4.53956 2.41902
  958 269.901 -22.0567 -1.22293
  959 373.503 68.5545 -20.9464
  960 330.503 -3.46821 -2.07356
  961 216.534 -5.18799 0.784509
  962 216.450 -5.14716 -0.722198
  963 27.3562 23.0407 -16.1928
  964 28.0538 22.9976 16.3185
  965 52.1716 131.093 -116.883
  966 309.146 -7.35079 37.6079
  967 385.512 -7.39058 -35.8276
  968 -6.69326 3.71181 2.12228
  969 -6.59233 3.71103 -2.07210
  970 785.572 185.864 -148.572
  971 330.001 -35.9330 4.07315
  972 352.054 -32.6780 -13.7681
  973 324.831 -27.8493 24.5734
  974 401.536 79.1100 8.73153
  975 28.8719 29.9105 -34.9677
  976 73.9182 113.195 114.615
  977 -1.97744 -4.56647 11.8461
  978 -1.94512 -4.52885 -11.8258
  979 316.180 -7.98254 5.87328
  980 507.657 89.9349 -10.6596
  981 29.7191 29.2164 36.3763
  982 -1.40044 -4.67822 -4.03919
  983 -1.40074 -4.66543 4.02883
  984 271.083 -6.18682 0.379089
  985 202.000 -16.0075 -15.4836
  986 327.359 -25.8952 -29.1459
  987 92.5620 24.8891 -46.3823
  988 94.0485 25.3012 46.5037
  989 317.784 -7.89873 -33.5615
  990 320.476 -10.0618 10.8799
  991 -8.60687 2.15015 9.60477
  992 -8.56400 2.17176 -9.57365
  993 192.900 -12.7123 -32.9497
  994 320.413 20.3802 -49.8256
  995 238.243 -8.80241 0.745851
  996 171.023 -4.78689 0.393656
  997 170.990 -4.81956 -0.373971
  998 -3.62756 -4.11683 -8.44122
  999 -3.63279 -4.12574 8.43456
  1000 324.809 -11.4920 -13.3810
  1001 309.337 -3.32586 0.367555
  1002 309.048 -3.32966 -0.240641
  1003 427.395 69.6739 -29.5995
  1004 76.5233 6.68202 -23.3600
  1005 76.7133 6.54850 23.3064
  1006 48.5366 -0.442107 -12.4771
  1007 48.6279 -0.451977 12.4611
  1008 351.792 18.6784 53.6150
  1009 333.231 -6.16778 -7.46798
  1010 58.2793 9.25176 -18.9623
  1011 58.5109 9.18205 19.0324
  1012 347.889 -1.76722 -1.23255
  1013 324.462 -13.9563 -20.3223
  1014 316.836 -35.8425 -13.1934
  1015 11.9610 10.1800 -0.314603
  1016 11.6247 10.1313 0.467246
  1017 -15.4536 2.50177 5.72939
  1018 -15.3981 2.50863 -5.69242
  1019 190.671 7.20386 -8.45122
  1020 548.702 135.774 -36.7442
  1021 250.144 -18.1398 -1.28466
  1022 165.119 -7.20649 -33.9287
  1023 402.069 -16.3462 3.90042
  1024 165.770 -7.20099 34.4073
  1025 287.822 -33.5369 22.3865
  1026 326.314 -13.4859 -30.5221
  1027 111.122 -2.54835 -0.739416
  1028 111.128 -2.50211 0.734257
  1029 222.525 -17.3114 -7.93627
  1030 136.059 -5.05289 -26.3687
  1031 136.005 -5.09128 26.2314
  1032 44.9520 29.3885 -28.5234
  1033 45.6691 29.3016 28.6088
  1034 93.2866 -2.94802 -2.63560
  1035 93.2912 -2.91080 2.60014
  1036 290.318 -9.07802 3.11765
  1037 244.878 0.898969 -86.0347
  1038 300.957 -9.65915 -5.72044
  1039 271.657 -30.0491 -13.3317
  1040 178.176 -7.42857 3.36739
  1041 178.324 -7.48533 -3.37911
  1042 352.624 -2.07783 1.55365
  1043 314.986 -7.36985 -5.50641
  1044 201.306 4.89010 15.9380
  1045 337.508 -3.32783 -13.7317
  1046 130.325 37.9371 83.7630
  1047 347.615 -3.19698 -11.2638
  1048 90.2914 15.2188 -34.8657
  1049 87.5794 15.3920 33.4322
  1050 415.559 -7.35742 -5.64654
  1051 37.1941 19.4729 -14.7241
  1052 37.5387 19.3323 14.7205
  1053 6.30117 -0.664409 3.86325
  1054 6.62083 -0.605888 -3.65265
  1055 52.8250 -1.41435 3.18589
  1056 52.7808 -1.42378 -3.22684
  1057 148.348 38.4064 -92.8808
  1058 811.063 210.462 159.891
  1059 323.731 -11.4877 13.7257
  1060 290.392 -32.6487 -9.68664
  1061 201.460 -16.5501 -25.3908
  1062 -4.27371 4.41871 8.37757
  1063 -4.19619 4.44297 -8.32558
  1064 227.502 -11.5969 1.75858
  1065 251.098 -9.19021 -0.124466
  1066 -0.128141 -18.4642 6.01252
  1067 -0.121858 -18.4819 -6.01075
  1068 37.4484 23.2713 -17.5705
  1069 37.8965 23.2270 17.6767
  1070 224.449 -10.6487 -1.67072
  1071 17.3538 8.17756 5.26893
  1072 17.2075 8.18896 -5.21033
  1073 343.286 -13.6534 49.3187
  1074 248.318 -25.7174 -21.7958
  1075 202.664 -16.8171 25.3892
  1076 326.759 -6.64755 -51.8600
  1077 345.489 -3.67706 5.42048
  1078 124.585 19.1493 56.0786
  1079 125.481 18.3288 -55.1396
  1080 201.249 -9.78032 -47.1659
  1081 285.452 -10.0962 -3.18008
  1082 231.762 -13.8342 3.58039
  1083 271.734 -25.3366 -0.611510
  1084 373.624 -1.28531 -3.08354
  1085 200.944 -9.13830 3.52400
  1086 200.856 -9.66963 -3.63839
  1087 6.65265 7.83088 6.85617
  1088 6.81815 7.88891 -6.76125
  1089 329.313 12.0551 -53.5713
  1090 73.4531 3.76798 -20.6115
  1091 73.6489 3.68501 20.5532
  1092 54.9870 1.10152 -14.7375
  1093 55.1056 1.07063 14.7097
  1094 376.537 -15.3888 68.7472
  1095 325.931 -14.9990 30.0941
  1096 159.043 -7.27720 -28.7437
  1097 379.764 -1.46935 -1.84362
  1098 425.315 80.3240 -22.3791
  1099 344.890 -3.19664 -3.42783
  1100 322.987 -34.8554 11.0695
  1101 238.792 -18.1978 41.3231
  1102 382.325 -0.432544 0.354566
  1103 200.924 6.27536 -13.5171
  1104 273.636 -29.2528 -6.04581
  1105 159.297 -7.60912 28.4249
  1106 276.193 -25.1191 -0.977830
  1107 344.868 -4.84962 10.1250
  1108 246.196 15.5713 21.0688
  1109 171.099 -12.5454 -22.8587
  1110 521.171 73.9160 -30.3508
  1111 391.375 17.5642 44.7115
  1112 291.482 36.5386 5.17042
  1113 378.102 0.0875315 1.63994
  1114 148.386 -9.22856 -17.4590
  1115 101.309 62.4202 -93.2961
  1116 181.341 4.83609 -67.1212
  1117 208.044 -15.9254 10.9069
  1118 175.615 -13.1139 21.4011
  1119 148.025 -8.77311 17.6408
  1120 313.127 2.65937 52.0862
  1121 236.597 -8.15535 -0.469697
  1122 372.620 -2.73082 4.13964
  1123 -2.99892 -0.276789 11.8467
  1124 -2.95437 -0.239178 -11.8168
  1125 247.889 -6.98637 0.0170770
  1126 -0.323290 2.75578 10.7443
  1127 -0.242859 2.80487 -10.6877
  1128 138.733 -4.32389 3.04838
  1129 138.745 -4.39395 -3.05236
  1130 350.746 -1.86758 9.35102
  1131 281.731 -17.1764 -4.92094
  1132 263.833 -14.0223 -1.52468
  1133 295.179 -20.6205 9.97118
  1134 89.7575 44.5276 -69.5011
  1135 289.406 -10.8654 4.17218
  1136 42.7417 0.824516 -12.0791
  1137 42.8541 0.803085 12.0688
  1138 60.0340 38.6419 -48.8363
  1139 463.069 60.5049 14.7230
  1140 32.4996 -1.51454 7.03498
  1141 32.3943 -1.50210 -7.04714
  1142 61.1192 38.0393 47.1505
  1143 264.842 -22.1225 0.155057
  1144 133.618 -6.20085 6.62357
  1145 133.642 -6.23020 -6.73556
  1146 541.012 114.500 -30.1371
  1147 291.894 -29.2378 2.18028
  1148 99.7506 58.3911 93.0960
  1149 8.50582 -2.27721 -7.65559
  1150 9.16892 -2.16562 8.43831
  1151 307.083 38.5075 26.1815
  1152 22.8366 12.4300 -5.32114
  1153 23.0227 12.4333 5.37442
  1154 293.829 -25.5278 -7.92612
  1155 -0.136539 -28.5487 -5.64715
  1156 -0.149898 -28.5538 5.67286
  1157 314.111 -26.5047 -17.2883
  1158 -5.47778 0.385681 2.34909
  1159 -5.63212 0.388094 -2.35477
  1160 47.8200 17.8360 -19.0253
  1161 48.0797 17.9126 18.8497
  1162 -16.4949 0.0389432 -2.87715
  1163 -16.3336 0.0377556 2.87981
  1164 314.064 -3.35284 -0.478647
  1165 -31.4383 0.920971 0.524907
  1166 -31.3523 0.920464 -0.504661
  1167 165.447 -12.9615 -16.8339
  1168 4.39218 -41.3055 -4.11455
  1169 82.5951 -2.33367 5.05923
  1170 82.5678 -2.34221 -5.11710
  1171 266.619 -5.01560 0.375797
  1172 267.127 -4.88188 -0.323576
  1173 4.71664 -39.3864 5.07754
  1174 316.219 -16.4543 -17.0544
  1175 361.337 -1.64997 6.89791
  1176 321.232 -20.5672 -24.8957
  1177 279.879 2.05178 40.7032
  1178 1.47761 -11.5325 8.73239
  1179 1.61539 -11.4463 -8.58917
  1180 205.128 -14.8623 8.65392
  1181 -14.1061 1.27814 7.66565
  1182 -14.0800 1.28902 -7.64281
  1183 533.677 84.9745 5.63184
  1184 624.541 194.483 -136.939
  1185 328.445 -31.9494 21.3821
  1186 135.167 -3.90641 -0.421726
  1187 135.174 -3.85754 0.422082
  1188 673.913 65.3859 -60.2605
  1189 47.5244 -1.24296 7.30698
  1190 47.4394 -1.22376 -7.33605
  1191 306.490 -1.00180 -16.1528
  1192 196.766 -15.8821 19.0517
  1193 324.904 -31.8726 -15.6211
  1194 314.421 -22.8421 -19.4922
  1195 191.675 -6.77614 49.4584
  1196 70.7893 13.1950 -26.3351
  1197 70.7493 13.0775 26.1841
  1198 93.4044 34.5618 -59.0395
  1199 93.5267 31.9786 59.0404
  1200 26.5487 7.79935 -8.97721
  1201 26.7077 7.77580 9.03244
  1202 387.619 67.1602 -30.6424
  1203 19.9440 18.2194 -8.03705
  1204 20.4123 18.2450 8.17728
  1205 279.686 -21.3686 4.24762
  1206 523.687 76.5717 34.1484
  1207 65.9997 -2.76205 -4.98488
  1208 66.0461 -2.76091 4.93363
  1209 340.820 236.330 -203.977
  1210 261.154 15.4842 -32.5255
  1211 239.636 18.4095 13.2727
  1212 33.1323 14.0019 -10.6266
  1213 33.2906 14.0015 10.6864
  1214 6.13027 -0.0624606 1.72061
  1215 6.02788 -0.0623527 -1.73596
  1216 309.882 -24.8696 16.1400
  1217 304.788 -12.1505 8.58394
  1218 208.681 58.8636 -145.844
  1219 480.669 104.878 -4.68011
  1220 206.356 -6.29740 -54.5060
  1221 267.631 -8.16852 0.673310
  1222 12.9069 -1.33446 -0.405911
  1223 12.9313 -1.33352 0.403543
  1224 -7.13609 2.09695 -3.87379
  1225 -7.00682 2.08820 3.90408
  1226 179.317 1.92377 -57.2980
  1227 330.904 -7.21517 9.58782
  1228 214.943 3.87544 78.4173
  1229 291.359 -14.3559 -6.55701
  1230 150.262 53.3668 -114.666
  1231 233.632 -11.4378 -58.8814
  1232 278.311 -29.7170 4.47950
  1233 340.954 -5.36088 15.2213
  1234 299.053 -6.19267 -2.41130
  1235 164.743 -12.1615 16.9333
  1236 375.170 -21.1969 -27.8964
  1237 355.612 30.7782 50.7873
  1238 154.687 0.723134 -45.2107
  1239 354.784 -2.16842 1.19836
  1240 284.152 35.3839 -7.37746
  1241 123.069 -4.26987 -4.96149
  1242 123.044 -4.22422 4.90479
  1243 543.712 125.015 30.0402
  1244 744.278 19.7832 34.6003
  1245 0.659475 -34.8654 -5.61210
  1246 0.638031 -34.9052 5.65543
  1247 79.9004 42.1118 64.9760
  1248 191.392 -5.55089 -0.968400
  1249 191.433 -5.51644 1.04025
  1250 262.517 -26.4011 -6.63858
  1251 312.836 25.5975 45.1315
  1252 328.277 -6.40952 -6.18245
  1253 381.891 -0.994001 -0.315886
  1254 661.290 146.740 -92.3718
  1255 102.142 -3.84266 5.10522
  1256 102.134 -3.85142 -5.17518
  1257 314.430 -29.1933 16.5551
  1258 552.884 134.526 -41.0159
  1259 304.965 -13.2574 -9.67192
  1260 222.467 -15.4289 -5.86517
  1261 273.441 -29.7345 12.9807
  1262 267.377 -13.3204 2.12168
  1263 9.84870 1.86785 -12.2516
  1264 365.923 -22.3219 33.1796
  1265 296.333 -19.3456 -9.72806
  1266 10.8572 2.38030 13.5881
  1267 304.784 -24.4574 -55.2164
  1268 288.234 17.7614 -119.276
  1269 474.602 60.2469 -10.1731
  1270 383.398 -0.251432 -0.122149
  1271 382.710 -0.606303 0.345912
  1272 301.458 -17.5492 10.5334
  1273 115.729 13.7941 -44.5008
  1274 343.439 -30.6088 26.8290
  1275 584.503 133.508 60.9108
  1276 144.058 49.3526 111.695
  1277 3.97305 0.404971 8.92310
  1278 4.12509 0.478784 -8.81814
  1279 360.988 -29.2176 -29.4700
  1280 144.636 -7.85936 -7.93889
  1281 144.609 -7.87942 7.78981
  1282 335.955 -22.1877 40.8275
  1283 11.7339 0.0980770 7.69411
  1284 11.6036 0.104672 -7.69177
  1285 -1.85888 -7.04382 9.73305
  1286 -1.84634 -7.02869 -9.73442
  1287 59.0096 -2.03846 -6.66485
  1288 59.0732 -2.05059 6.62061
  1289 176.269 -11.7515 -26.0148
  1290 177.500 -5.81561 1.46219
  1291 177.495 -5.94488 -1.39495
  1292 381.972 -0.243829 0.0299814
  1293 338.859 -5.18542 -17.1184
  1294 27.0680 1.27137 -9.63798
  1295 27.1945 1.25235 9.64109
  1296 176.974 -12.4342 25.8004
  1297 385.718 -0.380286 0.133188
  1298 364.323 -0.301939 -0.406668
  1299 364.314 -0.520454 0.312645
  1300 480.987 101.127 5.74128
  1301 354.907 -2.36147 -2.72792
  1302 315.027 -3.15978 0.366115
  1303 349.031 -5.24235 -8.95313
  1304 379.929 -1.20062 1.26325
  1305 395.485 40.6216 44.3162
  1306 458.335 95.0414 11.7371
  1307 368.924 -1.44286 -4.57262
  1308 -3.01598 -0.772834 2.71131
  1309 -3.02799 -0.772261 -2.71953
  1310 204.347 -12.8315 5.87024
  1311 204.307 -12.2623 -5.69302
  1312 399.094 45.0706 -42.1898
  1313 82.8127 28.5397 -48.7152
  1314 83.3465 27.7544 48.1819
  1315 268.727 0.0128117 -20.3504
  1316 277.034 -4.37373 -0.199570
  1317 276.695 -4.33726 0.142087
  1318 -6.69620 -1.12748 9.91165
  1319 -6.68395 -1.10958 -9.90767
  1320 307.428 -0.796657 16.1263
  1321 468.047 93.0867 -0.834192
  1322 32.3638 -1.25702 -4.20205
  1323 32.4447 -1.25997 4.16759
  1324 345.778 -33.2933 14.8394
  1325 0.465631 5.66807 8.55986
  1326 0.566210 5.70253 -8.49503
  1327 63.0002 -1.43104 -1.37031
  1328 63.0226 -1.40826 1.34736
  1329 268.800 -0.413724 20.6588
  1330 9.91720 0.586151 -0.637207
  1331 9.96479 0.588391 0.625652
  1332 352.073 -4.04727 5.79957
  1333 490.218 89.4217 4.47277
</Section>

newXOutput 45

<Section columns = "stress_xx | stress_yy | stress_xy">
  1 400.453 -1.02000 0.727079
  2 401.094 -1.32491 -0.944523
  3 6.19596 0.377964 -1.04274
  4 -0.281386 -0.429962 -0.276713
  5 736.910 291.986 240.076
  6 748.271 334.445 -242.641
  7 -0.278271 -0.427241 0.272680
  8 6.17158 0.375852 1.04027
  9 403.204 -0.719664 -0.663247
  10 400.178 -1.35944 -0.954161
  11 400.447 -1.05488 0.900011
  12 398.431 -0.540067 0.407658
  13 397.605 -1.27467 -0.226975
  14 396.915 -1.22175 1.61101
  15 391.039 -0.846583 1.56102
  16 392.517 -2.81849 2.35011
  17 380.117 -2.32770 5.02902
  18 372.212 -1.00890 6.04360
  19 361.342 -1.25813 6.51317
  20 342.506 -1.11376 9.08358
  21 322.027 -0.959742 10.5379
  22 296.504 1.31974 14.4349
  23 261.582 2.04010 13.0630
  24 247.597 -0.147999 18.6909
  25 204.094 2.91304 13.2886
  26 177.687 3.85100 10.4066
  27 170.811 1.82871 7.67115
  28 163.436 5.62165 0.562314
  29 167.469 6.08192 -10.2564
  30 175.596 1.72697 -12.8791
  31 208.057 0.720986 -17.2079
  32 240.835 -1.65027 -17.8883
  33 262.834 1.68970 -13.0430
  34 296.884 1.50371 -14.4408
  35 321.185 -1.14139 -11.2923
  36 344.591 -1.27486 -8.57393
  37 359.879 -0.906828 -6.61356
  38 371.085 -1.06858 -5.54886
  39 383.074 -1.34271 -3.22117
  40 387.794 -1.34954 -3.08534
  41 392.386 -1.27915 -2.71373
  42 397.061 -1.46333 -0.551037
  43 398.871 -1.86843 -1.12591
  44 396.580 0.162712 -0.0859340
  45 399.988 -0.955934 -1.01371
  46 401.754 -2.01590 1.04040
  47 403.707 -1.14821 -0.0521996
  48 383.217 0.305688 -0.604395
  49 360.276 -1.42691 -1.13947
  50 334.353 -3.37761 -1.65152
  51 307.564 -2.78088 -1.20180
  52 284.238 -4.59553 -1.10600
  53 259.650 -5.00750 -1.01313
  54 234.879 -4.37243 -0.509718
  55 208.862 -4.70882 -0.694649
  56 186.881 -5.04837 -0.909315
  57 157.669 -4.84819 -0.745918
  58 127.626 -3.03487 -0.477459
  59 102.796 -1.94350 -0.381971
  60 72.1567 -1.22615 -0.165896
  61 49.9011 -1.20951 -1.53908
  62 29.2222 -1.69109 -0.512856
  63 8.36939 0.194093 0.936612
  64 2.97211 1.45764 0.354281
  65 1.45447 0.594031 0.978351
  66 2.23823 0.268688 0.962826
  67 -2.02968 0.839597 0.420000
  68 -3.67282 1.09707 2.01563
  69 -4.33097 0.382832 0.723808
  70 -11.5695 0.811390 0.796420
  71 -14.9628 0.565189 1.93610
  72 -16.3066 0.191908 2.03159
  73 -24.2260 0.764638 1.58749
  74 -27.2084 1.14122 2.99943
  75 -30.5126 0.692470 1.09943
  76 -34.3778 0.502629 1.62339
  77 -35.9243 0.537946 0.660436
  78 -39.6449 1.29548 -0.848296
  79 -40.1080 0.888058 -0.630778
  80 -36.5725 0.673833 -1.24015
  81 -31.4400 0.876121 -2.40056
  82 -25.5561 0.385817 -3.66115
  83 -19.0478 0.211285 -3.81998
  84 -11.4356 -0.388882 -4.00661
  85 -4.96721 -0.310526 -2.33985
  86 -2.08247 -0.828506 -1.46039
  87 -0.349821 -2.09713 -1.26329
  88 -0.590102 -5.35845 -2.25077
  89 -0.671210 -10.5016 -3.95296
  90 -0.135490 -19.6687 -4.26987
  91 0.236017 -27.2042 -5.36189
  92 0.554125 -39.1109 -4.37472
  93 1.67373 -46.4046 -5.15523
  94 0.288014 -49.9555 -4.25366
  95 -0.0702555 -57.2208 -2.52737
  96 1.58978 -55.3625 -0.568795
  97 6.43690 -71.7165 3.10904
  98 5.75278 -38.1161 10.1530
  99 13.6847 -15.7785 22.3375
  100 41.0962 68.1457 69.6656
  101 175.017 226.108 197.705
  102 965.489 102.806 143.394
  103 806.958 28.5246 51.4225
  104 768.146 12.1678 17.7142
  105 746.560 7.98463 -0.0937946
  106 760.282 11.5906 -14.5455
  107 814.571 24.3604 -42.5952
  108 955.402 81.6792 -133.586
  109 113.524 256.391 -163.608
  110 28.8618 49.9685 -53.8585
  111 10.0804 -22.5528 -18.5359
  112 5.21151 -42.0999 -8.71795
  113 6.40351 -74.5647 -2.41359
  114 1.52022 -56.6277 1.06198
  115 -0.163747 -57.8549 2.78468
  116 0.228338 -50.2012 4.39170
  117 1.64130 -46.4633 5.21369
  118 0.541646 -39.0901 4.39642
  119 0.226539 -27.1664 5.36981
  120 -0.140123 -19.6204 4.26744
  121 -0.671824 -10.4708 3.94469
  122 -0.591381 -5.33178 2.24297
  123 -0.349590 -2.08713 1.25636
  124 -2.07045 -0.827382 1.45461
  125 -4.94592 -0.311904 2.33365
  126 -11.4084 -0.392124 4.00298
  127 -19.0167 0.207734 3.82096
  128 -25.5392 0.381953 3.66804
  129 -31.4487 0.873399 2.41388
  130 -36.6073 0.673647 1.25441
  131 -40.1763 0.887312 0.644642
  132 -39.7408 1.29543 0.862673
  133 -36.0515 0.539382 -0.648013
  134 -34.5283 0.504390 -1.61431
  135 -30.6743 0.694460 -1.09233
  136 -27.3828 1.14357 -2.99673
  137 -24.4047 0.766820 -1.58526
  138 -16.4823 0.193236 -2.03229
  139 -15.1383 0.567472 -1.93917
  140 -11.7362 0.814609 -0.800913
  141 -4.47687 0.384982 -0.732093
  142 -3.79735 1.09924 -2.02783
  143 -2.13545 0.840164 -0.430831
  144 2.16111 0.268260 -0.973302
  145 1.39873 0.592958 -0.986747
  146 2.93047 1.45575 -0.361590
  147 8.33981 0.192885 -0.940859
  148 29.1948 -1.69726 0.508425
  149 49.8755 -1.22521 1.53416
  150 72.1383 -1.25408 0.159473
  151 102.787 -1.98396 0.378604
  152 127.617 -3.08184 0.476878
  153 157.651 -4.88888 0.752197
  154 186.833 -5.06875 0.922543
  155 208.783 -4.68370 0.726069
  156 234.766 -4.27977 0.546021
  157 259.493 -4.78854 0.957914
  158 284.360 -4.65760 0.971935
  159 307.654 -3.16868 1.26821
  160 334.616 -3.30613 1.50442
  161 361.001 -1.21830 1.15514
  162 382.568 0.282711 0.587124
  163 221.909 -19.9969 -18.1426
  164 221.011 -20.3597 18.1004
  165 66.3884 18.3741 -26.4909
  166 67.0461 18.4423 26.3745
  167 262.170 -12.6206 67.6559
  168 274.889 -14.2664 -65.8294
  169 128.071 -6.71767 8.33563
  170 128.059 -6.65082 -8.45879
  171 280.144 -9.73160 1.66401
  172 274.492 -9.75939 -1.57020
  173 373.207 67.3472 -9.55246
  174 379.074 2.56917 -48.7008
  175 371.485 5.49765 52.3147
  176 88.8576 -3.34565 -17.7707
  177 88.8609 -3.32043 17.7332
  178 327.614 -32.4659 17.4948
  179 327.247 -25.1960 -24.4340
  180 4.39565 7.52407 8.04771
  181 4.53059 7.57264 -7.96766
  182 447.537 91.0085 14.6559
  183 85.9676 38.4052 -60.3454
  184 92.2818 38.7729 64.7534
  185 316.864 -14.7422 11.5406
  186 475.418 99.6367 -6.89893
  187 204.923 -7.40237 -2.30462
  188 204.589 -7.59711 2.28252
  189 325.856 -10.2258 -10.5182
  190 434.273 -2.89413 -5.70088
  191 79.7300 -2.39259 3.16148
  192 79.7072 -2.41378 -3.20847
  193 34.0781 4.38909 -11.9154
  194 34.2341 4.34404 11.9429
  195 182.707 -7.00121 -42.2551
  196 181.992 -7.38758 42.8011
  197 218.320 -14.1256 -6.20158
  198 218.757 -14.0464 6.62797
  199 56.4613 -1.97728 9.41491
  200 56.3806 -1.95018 -9.43716
  201 429.597 -7.76921 27.8627
  202 351.005 -34.6473 -7.43572
  203 333.631 -3.35115 -1.64504
  204 326.142 -4.08099 1.68300
  205 330.551 38.7497 36.9003
  206 14.0571 11.9653 -4.41944
  207 14.5726 11.9398 4.64874
  208 329.900 -13.2977 42.9392
  209 303.318 23.1348 -42.1780
  210 216.157 48.7022 -139.215
  211 227.287 41.1278 129.326
  212 5.54971 7.26508 -0.743357
  213 5.67791 7.26321 0.804348
  214 328.815 -11.7323 -44.3577
  215 572.460 80.2424 -5.39593
  216 273.307 -29.8183 24.0053
  217 275.380 -29.6477 -22.6846
  218 273.154 -19.4700 -1.79431
  219 339.025 -5.32122 5.62473
  220 163.781 -11.2042 -15.4999
  221 161.195 -11.1584 15.9916
  222 98.3029 2.03338 -26.8801
  223 98.4415 1.99474 26.6490
  224 347.807 -36.7906 -3.68278
  225 270.873 -20.7016 0.627699
  226 337.822 -5.19025 -4.42412
  227 262.867 -6.73083 0.137188
  228 265.168 -6.27180 0.362845
  229 333.266 -14.8590 24.8110
  230 28.4428 0.282248 -10.0402
  231 28.5640 0.268901 10.0380
  232 -4.22798 -2.84412 -11.3090
  233 -4.24969 -2.87082 11.3184
  234 50.6349 -2.21362 -5.43710
  235 50.7024 -2.21895 5.39221
  236 140.542 -4.17881 3.69918
  237 140.576 -4.25401 -3.72932
  238 161.930 11.1953 -61.9226
  239 161.949 9.33381 61.2192
  240 338.016 -10.5146 -21.2173
  241 158.534 -9.23453 -25.4347
  242 158.667 -9.51720 25.0678
  243 297.685 4.54506 47.6752
  244 260.115 22.3538 2.88466
  245 290.045 -28.8964 -1.29730
  246 1.27946 -7.12283 -10.3150
  247 1.18213 -7.19983 10.3998
  248 18.6215 18.8922 -20.7186
  249 19.8239 18.2251 21.7862
  250 285.191 -28.2670 -0.608770
  251 514.729 96.2404 -6.78815
  252 26.6866 18.0540 -8.70534
  253 27.0089 18.0459 8.81036
  254 -10.9971 2.38821 7.70902
  255 -10.9412 2.40063 -7.67040
  256 517.449 90.0881 9.67294
  257 180.645 -8.67674 -5.98382
  258 180.506 -8.53667 5.85907
  259 354.270 -23.9548 39.8155
  260 640.137 104.133 64.3926
  261 105.683 -5.55651 -14.5726
  262 105.659 -5.59562 14.5569
  263 361.041 54.0129 -35.3328
  264 617.654 117.320 -58.5606
  265 431.613 43.1078 33.9854
  266 469.111 29.3400 -87.4270
  267 290.113 -13.7032 4.55357
  268 329.961 1.53404 -53.5177
  269 312.595 -22.0590 -14.0085
  270 348.467 -6.23435 13.4524
  271 -0.0460394 3.33071 -3.60922
  272 0.0823730 3.32008 3.65249
  273 345.141 -11.4858 -84.6520
  274 36.9838 11.3678 -12.0038
  275 37.1612 11.3469 12.0698
  276 334.187 -8.08368 -27.1489
  277 47.9739 49.3680 -62.6737
  278 39.6630 -0.186734 -1.25379
  279 39.6972 -0.177954 1.23439
  280 352.955 -21.9591 -41.5367
  281 62.0011 27.8455 -33.4595
  282 62.8983 27.6938 33.5534
  283 17.6222 -0.551443 7.01913
  284 17.4952 -0.544562 -7.02479
  285 289.689 -13.0075 -4.43360
  286 48.3074 48.8364 64.3664
  287 461.343 35.1424 102.531
  288 125.899 -4.98703 -5.01400
  289 125.874 -4.95479 4.94033
  290 231.410 -9.58349 -2.02858
  291 231.296 -10.3750 2.29023
  292 197.553 19.0003 -94.2025
  293 318.651 -34.9039 -5.37158
  294 363.062 -2.22238 2.48479
  295 190.268 18.9828 91.1277
  296 221.547 -6.03132 -0.668426
  297 221.462 -6.02692 0.859668
  298 313.096 -22.9572 14.2747
  299 359.916 -3.81327 -6.34017
  300 -2.52837 1.34282 -5.44768
  301 -2.38692 1.33277 5.46789
  302 452.008 89.9537 -3.99937
  303 396.053 -18.4405 21.3440
  304 357.705 -1.86803 -0.657387
  305 363.977 -1.62669 0.595304
  306 356.737 -31.4074 30.2870
  307 440.016 46.0157 -31.5788
  308 384.475 71.5275 20.3356
  309 172.492 -10.5678 -9.69964
  310 170.922 -10.7610 9.89258
  311 362.654 -2.15968 -1.66709
  312 237.824 -17.9871 -46.3332
  313 233.952 -18.4578 7.91124
  314 223.058 -12.1841 52.8567
  315 356.817 -4.29458 7.57810
  316 80.5805 -3.70152 -9.08351
  317 80.6328 -3.72871 9.04238
  318 328.863 -10.9905 83.6607
  319 208.574 -16.4933 -12.0694
  320 383.919 49.2415 44.2617
  321 122.157 8.59127 -40.0879
  322 117.606 8.98144 39.7550
  323 35.1869 -0.747047 -2.27723
  324 35.2428 -0.742003 2.24636
  325 315.153 -6.39692 3.27414
  326 302.226 -4.34621 0.454393
  327 300.526 -4.75654 -0.557973
  328 331.696 -8.51388 28.7632
  329 28.2588 -1.05991 5.22765
  330 28.1516 -1.04997 -5.25236
  331 96.3055 -2.29672 -1.89096
  332 96.3118 -2.25842 1.87039
  333 3.17539 -15.0550 -5.75355
  334 2.96525 -15.1764 6.00406
  335 257.584 11.1338 32.3518
  336 399.893 -17.3030 -17.3746
  337 258.584 -13.7598 0.952279
  338 292.442 -5.93628 -1.67292
  339 305.695 38.0057 -19.8265
  340 59.5930 -1.90563 -13.1721
  341 59.6699 -1.90698 13.1599
  342 251.421 -12.9773 0.365859
  343 70.9940 2.41904 -18.9551
  344 71.1287 2.35751 18.8950
  345 13.7735 11.6448 -0.107295
  346 13.9433 11.6426 0.179398
  347 305.844 -32.8103 30.9482
  348 677.989 44.7282 17.3909
  349 271.783 4.08376 -38.3098
  350 227.352 -20.3818 28.3792
  351 226.195 -19.9718 -29.2446
  352 335.521 -5.70071 52.9858
  353 298.243 -2.17527 37.8479
  354 301.862 -31.7243 -31.9576
  355 179.601 -4.61159 0.286061
  356 179.573 -4.66564 -0.241351
  357 333.917 -21.8068 32.4877
  358 457.269 91.0788 2.14668
  359 358.604 -4.06527 -9.94356
  360 91.7501 -3.51957 -6.55797
  361 91.7870 -3.52254 6.49074
  362 337.644 -32.0298 -38.4869
  363 354.581 24.7233 -52.8381
  364 237.126 12.7524 -20.7640
  365 336.266 -22.4589 -37.1495
  366 -10.9686 0.383563 -8.72460
  367 -10.9808 0.370128 8.73594
  368 282.458 -6.76235 0.987337
  369 -4.01682 -2.39149 -5.20830
  370 -4.01199 -2.39229 5.19756
  371 218.462 108.891 -169.445
  372 8.72286 7.74470 5.45126
  373 8.94118 7.80619 -5.33441
  374 295.954 -2.29676 -37.5351
  375 163.130 -6.97023 4.50642
  376 163.247 -7.06391 -4.55806
  377 -1.11163 -11.8705 9.93655
  378 -1.09331 -11.8487 -9.92611
  379 177.565 114.168 159.529
  380 133.547 -7.10146 -19.8514
  381 133.651 -6.79609 19.8666
  382 42.6043 31.3727 -30.9499
  383 43.5016 31.2844 30.7704
  384 -16.7288 2.56003 3.09011
  385 -16.6520 2.56404 -3.04881
  386 342.082 22.7737 52.9349
  387 262.364 -27.4638 13.3706
  388 262.641 -23.9557 5.18909
  389 318.311 -36.1515 -4.23594
  390 79.5600 9.94178 -26.3422
  391 79.8251 9.92322 26.3008
  392 7.10590 -10.2993 0.801003
  393 6.71891 -10.4650 -0.249241
  394 322.107 46.0296 13.0527
  395 324.649 -9.33521 8.61074
  396 185.546 -14.3990 18.2504
  397 114.714 -2.89893 -23.7841
  398 114.756 -2.92023 23.6033
  399 236.690 -7.22050 -0.796073
  400 236.434 -6.34415 0.595152
  401 183.992 -14.7868 -19.3871
  402 143.824 -2.44054 -32.2171
  403 143.802 -2.63917 32.4743
  404 338.382 -31.0238 -22.7039
  405 196.354 -15.1089 11.4278
  406 307.869 -9.44052 5.12066
  407 307.301 -8.60876 -4.27206
  408 257.797 -23.7793 -6.11748
  409 370.211 -1.64933 -2.63354
  410 124.332 50.3583 -95.6221
  411 348.195 -5.05577 16.5053
  412 369.100 -1.96910 3.93284
  413 131.355 -7.04072 11.9113
  414 131.413 -6.94496 -11.9018
  415 261.183 -27.1349 -13.8256
  416 37.2466 16.5763 12.9261
  417 37.0456 16.5649 -12.9375
  418 684.954 44.6949 -35.5501
  419 301.710 -17.2566 -7.99355
  420 372.819 -1.33822 1.51716
  421 117.400 47.0027 91.0582
  422 550.335 92.6745 17.8303
  423 323.701 -4.98398 -2.60667
  424 241.943 -17.5809 -4.76771
  425 100.836 19.4708 -45.3039
  426 107.460 18.0482 45.0335
  427 298.085 -18.9304 8.06637
  428 315.988 -4.08266 -27.8345
  429 -2.43084 -0.292647 5.26022
  430 -2.57902 -0.289305 -5.25698
  431 114.010 27.4487 -60.8194
  432 114.373 27.5484 60.6321
  433 13.5045 6.31789 -5.53971
  434 13.6467 6.30390 5.59369
  435 267.450 -5.25310 0.519763
  436 267.128 -5.11769 -0.428993
  437 332.772 -15.1944 -25.9430
  438 -0.895267 -0.936140 12.1551
  439 -0.835670 -0.883466 -12.1103
  440 342.815 -33.7873 19.8365
  441 324.247 -8.72467 -7.60203
  442 523.941 100.290 -15.6142
  443 20.7096 -0.951458 2.46419
  444 20.6174 -0.951642 -2.49108
  445 630.627 178.272 79.9663
  446 12.7109 5.44887 -18.7803
  447 38.9605 1.87486 -12.8389
  448 39.0899 1.84456 12.8366
  449 628.920 182.363 -76.9604
  450 13.4758 6.86182 20.6730
  451 -16.1161 1.98163 0.796515
  452 -16.0172 1.97844 -0.757478
  453 35.0655 23.9959 -18.1314
  454 35.6722 24.0049 18.2305
  455 409.699 64.2416 -36.3518
  456 329.045 -12.8945 -16.7088
  457 370.832 -1.42355 -1.33823
  458 343.750 -5.28733 -19.3718
  459 -3.99356 2.52171 11.1176
  460 -3.93288 2.55553 -11.0755
  461 332.453 -13.4330 19.4705
  462 215.929 -12.1806 -4.91541
  463 215.265 -12.3054 4.18901
  464 293.190 -32.3271 -4.91626
  465 209.134 -2.85412 -64.8510
  466 319.143 -4.89791 28.4402
  467 261.115 -8.51456 -0.00752268
  468 383.627 -28.6233 -4.70003
  469 202.588 1.85836 69.5440
  470 15.3886 -0.292877 5.07892
  471 15.2596 -0.286830 -5.09058
  472 420.934 83.2162 -16.2793
  473 336.812 -2.57518 0.167041
  474 335.657 -2.90757 -0.473302
  475 254.151 -16.9993 1.85763
  476 110.916 -3.76262 -3.66110
  477 110.908 -3.71808 3.61523
  478 65.4152 -0.784481 -15.6051
  479 65.4910 -0.797452 15.5730
  480 213.512 8.26959 12.4163
  481 53.6859 -1.80378 7.52422
  482 53.6094 -1.78650 -7.56289
  483 57.4599 5.48938 17.5838
  484 57.2692 5.57072 -17.5695
  485 326.675 -25.2979 23.4738
  486 182.732 -11.3735 -30.2735
  487 168.621 -5.48708 2.33265
  488 168.683 -5.62221 -2.33699
  489 184.663 -11.7309 30.2655
  490 510.265 121.226 -10.9343
  491 -8.15948 -1.22960 -6.75471
  492 -8.15519 -1.23605 6.75102
  493 128.117 -3.60903 -1.52009
  494 128.116 -3.55395 1.51358
  495 0.158215 -21.9059 -8.28069
  496 0.104823 -21.9775 8.35394
  497 298.267 -4.54862 0.929282
  498 212.192 10.1002 -6.18132
  499 285.485 29.9220 17.8161
  500 181.578 -1.71470 -51.6678
  501 88.8617 -4.55941 11.4062
  502 88.8527 -4.52086 -11.4268
  503 -22.7441 0.733177 -1.79950
  504 -22.6085 0.728757 1.81730
  505 352.711 -6.56737 -52.5150
  506 28.1331 0.168172 -1.66871
  507 28.1800 0.172701 1.64655
  508 293.623 -23.1589 -6.49273
  509 312.914 -26.6650 -13.5111
  510 64.0536 48.8758 -64.7564
  511 262.977 7.29783 -102.247
  512 3.44119 7.90999 5.17666
  513 3.56719 7.92669 -5.10673
  514 160.704 -7.45183 -6.53266
  515 160.623 -7.38358 6.38974
  516 451.808 19.1077 -10.2046
  517 325.358 -19.2304 -21.3069
  518 62.4482 46.2312 63.8459
  519 322.365 -36.4882 9.25876
  520 310.025 -29.4725 10.4259
  521 65.8432 -1.60096 -4.93958
  522 65.8841 -1.59442 4.88973
  523 254.648 2.76219 29.6663
  524 184.105 -13.5726 -12.1066
  525 343.138 -7.65003 12.1331
  526 -1.40099 -8.33592 -6.56139
  527 -1.40447 -8.32952 6.55204
  528 240.523 -21.2676 33.9391
  529 365.910 -27.9449 -27.0165
  530 477.172 33.5106 -17.2482
  531 257.960 -8.82094 0.136019
  532 76.5759 -1.42733 -1.44383
  533 76.5921 -1.39936 1.43019
  534 163.277 1.36506 49.7707
  535 455.980 76.5201 24.1023
  536 463.198 91.4930 -161.837
  537 415.505 2.43087 25.6220
  538 299.016 -33.2127 3.31832
  539 706.314 56.1742 47.6523
  540 522.708 126.699 15.6957
  541 73.7934 -3.07808 12.4547
  542 73.7387 -3.04717 -12.4766
  543 287.448 -23.8391 4.68862
  544 21.5022 10.3027 -5.14515
  545 21.6640 10.2966 5.20904
  546 361.421 -29.9871 27.0322
  547 295.500 15.9538 43.7826
  548 363.993 -2.35600 6.76256
  549 269.048 -16.1682 1.90561
  550 377.066 3.30730 -107.785
  551 598.025 154.682 106.129
  552 291.685 -5.78814 -0.795679
  553 357.537 -3.66445 -10.9142
  554 56.2960 23.4665 -25.0366
  555 56.7046 23.1839 24.9234
  556 204.431 -8.24255 -3.19677
  557 204.337 -8.04664 3.26286
  558 2.40611 -26.0224 -3.00102
  559 364.831 -12.9781 46.7212
  560 14.0535 12.6586 1.28006
  561 14.2754 12.6931 -1.17575
  562 2.81555 -25.1303 3.77982
  563 332.045 -15.1467 -37.8675
  564 382.121 24.1369 -50.4862
  565 380.765 27.3615 50.4958
  566 18.3668 15.6729 13.7910
  567 17.4442 16.0444 -13.4880
  568 -10.5347 0.349384 3.96980
  569 -10.6870 0.352974 -3.96225
  570 351.275 9.02252 111.130
  571 192.194 -10.6543 6.49066
  572 192.388 -10.6164 -6.62056
  573 423.640 -7.44561 -56.8516
  574 54.6497 -0.761484 2.86626
  575 54.6150 -0.774002 -2.89964
  576 25.2085 -0.670378 -0.676635
  577 25.2397 -0.665986 0.668874
  578 465.045 84.6967 -19.3792
  579 44.3976 65.5187 -71.5335
  580 243.446 4.87814 -25.1307
  581 344.173 54.9879 -22.2113
  582 5.11012 -0.107879 7.41185
  583 5.31889 -0.0329859 -7.27170
  584 348.743 160.049 190.285
  585 296.086 -8.27890 -2.77306
  586 10.4587 3.02079 -6.68176
  587 10.5983 2.99892 6.71479
  588 342.040 -27.5055 32.4439
  589 52.5068 63.4757 72.8400
  590 246.560 -5.23295 0.304376
  591 246.627 -5.18893 -0.305364
  592 -0.254160 -17.4273 8.60562
  593 -0.227487 -17.3987 -8.57718
  594 420.445 81.9750 -0.673119
  595 267.013 -21.4797 48.3045
  596 254.865 -10.9284 -0.239681
  597 256.505 11.6654 107.873
  598 -21.2152 1.08994 5.16580
  599 -21.1936 1.09585 -5.14478
  600 420.653 5.51467 -27.5443
  601 560.923 93.9972 -75.7612
  602 159.729 16.2688 -71.7938
  603 86.2166 -3.60829 -15.1920
  604 86.2965 -3.60888 15.1936
  605 380.748 -1.23727 1.88234
  606 252.343 -11.1640 -0.0764618
  607 338.304 -4.62895 4.13420
  608 332.064 -15.1487 36.9749
  609 13.7727 -0.549218 2.52584
  610 13.6596 -0.546862 -2.54580
  611 196.523 -6.86609 -1.85488
  612 196.496 -6.67792 1.79377
  613 122.512 2.69681 -33.2332
  614 121.720 2.73152 33.0850
  615 480.063 28.3852 28.4758
  616 784.009 59.0868 -85.7623
  617 -6.20091 -0.481897 3.47307
  618 -6.35808 -0.480277 -3.47248
  619 115.618 -4.86584 6.76092
  620 115.612 -4.86018 -6.85351
  621 447.250 24.3683 16.3194
  622 376.437 -1.32153 -0.597756
  623 375.608 -1.91031 0.250094
  624 271.967 -0.0999600 29.3769
  625 393.388 -23.1264 -34.7023
  626 213.218 -17.4837 14.4584
  627 -4.91111 4.82673 -4.77839
  628 -5.00548 4.81928 4.83295
  629 342.050 6.94584 55.2047
  630 135.233 -7.76191 -15.8609
  631 135.101 -7.89147 15.8917
  632 278.656 -16.1238 -2.94060
  633 344.728 -7.52041 -10.9775
  634 196.367 -15.6318 -21.8925
  635 322.095 38.8329 -33.5492
  636 217.291 -14.9950 -39.3377
  637 79.3984 -2.12809 -2.55013
  638 79.4148 -2.10248 2.51564
  639 198.414 -15.9130 21.9815
  640 427.052 68.9105 32.5600
  641 339.656 -16.5448 46.5947
  642 278.090 -12.3905 2.73892
  643 198.652 -5.29577 1.23804
  644 198.602 -5.30767 -1.19994
  645 149.546 -5.57425 -4.80311
  646 149.490 -5.51299 4.75074
  647 327.069 -30.0187 -18.7511
  648 165.190 -9.33487 8.41270
  649 165.370 -9.29785 -8.58619
  650 327.531 50.5617 -4.50037
  651 302.240 -15.8764 8.08199
  652 378.657 -1.73868 -2.92902
  653 321.128 -5.93699 -48.6127
  654 45.9894 -2.04130 9.99854
  655 45.8966 -2.02677 -10.0081
  656 369.302 -2.01946 -6.12547
  657 65.6144 33.8329 -45.5164
  658 66.7410 33.7487 45.7399
  659 376.595 -22.8610 48.0778
  660 129.205 32.1991 75.6082
  661 31.4508 -0.186453 10.0047
  662 31.3394 -0.179099 -10.0102
  663 320.594 -20.8256 62.3607
  664 316.057 44.4148 -147.103
  665 307.354 9.61699 -48.5095
  666 405.240 73.2851 28.0890
  667 273.292 -12.1325 -1.52048
  668 491.682 88.5514 -2.15057
  669 -23.7683 1.12442 -1.11773
  670 -23.6534 1.12146 1.14292
  671 217.878 0.922152 -76.0379
  672 14.7725 -0.321026 1.95339
  673 14.6910 -0.321851 -1.97390
  674 273.536 -23.1064 -47.7462
  675 90.3165 12.4330 -32.0389
  676 89.5945 12.4765 32.0213
  677 1.74684 4.55838 -1.93017
  678 1.87176 4.55220 1.98358
  679 232.276 -20.0578 -10.7747
  680 329.125 -3.24011 -18.6682
  681 156.499 -4.83620 -1.73684
  682 156.506 -4.78158 1.75060
  683 113.104 -5.77548 -10.1397
  684 113.193 -5.85619 10.1013
  685 21.3817 17.5913 -6.04380
  686 21.7402 17.6288 6.16472
  687 337.741 -4.00225 2.06169
  688 149.564 -9.48434 13.1956
  689 150.529 -9.31737 -13.1830
  690 373.827 -30.0513 -4.58934
  691 307.896 -30.9561 -7.09297
  692 241.902 -6.81670 -0.169867
  693 241.044 -6.35361 0.290331
  694 339.313 -35.9672 18.2602
  695 551.027 111.130 28.9746
  696 298.085 -13.4018 -77.5299
  697 341.348 -9.51537 19.4928
  698 338.903 -12.6797 -49.9858
  699 105.101 -3.25977 -4.75112
  700 105.101 -3.23483 4.68985
  701 264.957 -4.64949 86.9920
  702 741.517 95.0284 87.1560
  703 50.6918 14.8154 -18.3776
  704 50.7670 14.9141 18.4383
  705 336.669 -3.23437 -1.04029
  706 339.345 -2.89995 1.06178
  707 142.832 71.9440 -122.965
  708 357.534 -1.91990 10.9041
  709 309.126 -5.27140 1.64862
  710 407.252 80.7413 -10.3820
  711 41.3424 7.42569 -13.2790
  712 41.5237 7.37874 13.3289
  713 384.158 -0.937884 0.327291
  714 310.835 -11.9522 -7.90962
  715 387.631 -6.02902 40.9078
  716 158.276 -11.0662 -20.7612
  717 158.673 -10.5894 20.5620
  718 35.6475 -1.24428 7.56870
  719 35.5448 -1.22861 -7.58985
  720 351.912 -2.35254 -1.92071
  721 303.318 59.2021 156.156
  722 2.20599 2.31613 10.1074
  723 2.31896 2.38331 -10.0298
  724 352.712 -3.77131 -5.05796
  725 342.474 -6.25560 7.22004
  726 270.664 0.190200 -31.5081
  727 2.56636 -31.3056 -4.08629
  728 2.39811 -31.6127 4.39526
  729 124.289 33.1817 -75.6068
  730 273.007 -27.4418 -34.3515
  731 141.763 71.3014 124.148
  732 379.129 -0.934414 1.13326
  733 365.352 54.6504 35.4907
  734 266.018 24.1459 -12.4076
  735 478.763 96.4998 0.343909
  736 374.346 -1.56205 3.96545
  737 -22.5570 0.549683 2.80228
  738 -22.7066 0.552708 -2.79097
  739 398.339 -22.9262 10.2337
  740 257.491 -7.38559 -0.237312
  741 93.2590 0.166153 -22.7942
  742 93.3812 0.0728287 22.6618
  743 342.515 -3.97982 -2.94338
  744 605.117 85.6812 -30.9426
  745 40.1069 -1.19181 -4.73751
  746 40.1927 -1.19883 4.70240
  747 381.774 -1.02586 -1.83440
  748 75.3947 -3.37140 -6.61118
  749 75.4439 -3.38332 6.55914
  750 373.151 -15.0300 -42.1669
  751 344.643 -3.60725 15.0472
  752 308.860 -2.08911 48.0538
  753 382.411 -1.06728 -0.0117933
  754 356.889 -2.67982 3.86607
  755 232.965 -12.4972 -2.37095
  756 292.305 -7.64391 2.07280
  757 332.288 -20.4767 -31.5704
  758 324.141 -20.3721 20.5577
  759 379.778 45.7925 -44.7544
  760 319.701 -17.9160 15.2401
  761 337.673 -20.0519 40.3663
  762 195.504 -13.1974 8.75351
  763 7.04140 -2.10179 -0.671230
  764 6.66602 -2.12555 1.02677
  765 295.939 -4.41538 0.00576776
  766 295.311 -4.38368 -0.115685
  767 355.175 -1.57433 -0.209639
  768 356.407 -1.50323 0.293100
  769 338.085 -9.48395 23.8785
  770 312.108 -28.8021 45.0715
  771 256.142 -20.7610 3.73880
  772 227.424 -13.5268 4.09862
  773 617.332 79.1090 35.9845
  774 341.891 -8.65489 -15.3716
  775 200.251 34.6943 -115.337
  776 317.665 -15.6710 -13.1789
  777 12.3512 0.262372 -7.18177
  778 12.4880 0.250746 7.19135
  779 283.336 24.8315 -27.8151
  780 721.486 21.9034 -9.41513
  781 357.403 9.05468 -54.0234
  782 14.2723 8.07814 -28.0195
  783 367.673 66.1881 9.08281
  784 287.020 -18.2248 4.61805
  785 322.392 -8.12729 47.1704
  786 271.607 -28.6230 34.5427
  787 435.053 -2.87310 70.1177
  788 15.3807 11.4038 29.9357
  789 196.213 -1.22254 59.2125
  790 274.406 -7.04034 -0.751359
  791 306.006 -27.5775 -45.6263
  792 187.467 -14.5789 -15.2775
  793 148.049 7.04705 -51.7082
  794 354.347 -5.65448 52.9400
  795 227.104 -15.4544 6.72814
  796 43.0624 -1.24014 4.23758
  797 42.9984 -1.24166 -4.27739
  798 330.145 -1.80850 16.5374
  799 299.126 1.44092 -46.6906
  800 -26.2069 1.18857 3.21396
  801 -26.1672 1.19079 -3.19101
  802 220.969 -6.90278 -0.814630
  803 220.325 -6.52575 0.744150
  804 163.866 18.2349 72.8414
  805 145.988 -8.51709 9.90960
  806 146.193 -8.30901 -10.0151
  807 381.573 -0.738185 -1.00219
  808 133.238 10.5422 50.3849
  809 3.75220 -0.125844 2.69985
  810 3.61234 -0.123047 -2.71160
  811 326.159 -10.1067 36.4926
  812 348.848 -2.95532 1.51912
  813 -18.6414 0.221082 5.14263
  814 -18.6444 0.227098 -5.13229
  815 214.434 -13.5024 44.2035
  816 41.3784 34.6009 -38.5211
  817 41.8868 32.9952 37.9385
  818 202.247 8.95343 5.15733
  819 -4.04963 -0.209859 -3.09857
  820 -3.89211 -0.211963 3.09540
  821 246.640 -23.4627 -32.3557
  822 336.840 -35.3879 -11.3799
  823 -1.67689 -1.59302 -2.10906
  824 -1.67194 -1.58928 2.10124
  825 17.2942 0.574381 -0.634767
  826 17.3336 0.577588 0.623016
  827 299.517 -26.6482 7.53601
  828 252.048 -25.8240 22.5097
  829 279.314 -4.70141 0.729438
  830 251.387 -20.2551 -4.68774
  831 91.6741 -1.51877 -0.496476
  832 91.6849 -1.48196 0.487905
  833 -29.6324 0.629909 1.86303
  834 -29.5682 0.629085 -1.84049
  835 315.590 -4.08572 -1.36899
  836 278.692 10.9141 -39.7210
  837 319.120 -6.33135 -4.14988
  838 187.861 -14.3237 14.5508
  839 315.411 -5.55995 -38.5596
  840 337.714 -10.3022 -24.6725
  841 316.871 -3.50913 1.22745
  842 231.015 -8.89143 60.7359
  843 246.810 -24.1034 -12.6653
  844 148.506 -1.10648 -39.5849
  845 149.326 -0.0745977 39.7915
  846 210.279 -15.7254 -9.49161
  847 349.161 37.7752 46.2203
  848 331.729 -34.6376 -24.8628
  849 118.981 -3.75883 -2.38188
  850 118.971 -3.70245 2.35677
  851 253.334 -5.75592 0.164406
  852 253.344 -5.80349 -0.102575
  853 301.416 -2.29259 -25.2053
  854 101.325 -4.28188 -8.18485
  855 101.379 -4.31421 8.11429
  856 1.22334 -31.5424 -6.25722
  857 1.15774 -31.6781 6.38613
  858 50.7873 -0.754897 -0.225763
  859 50.7616 -0.770490 0.215490
  860 313.201 -4.91414 -1.91984
  861 237.531 -22.6391 20.3366
  862 369.280 -31.7482 11.9856
  863 215.717 4.52761 19.7531
  864 320.245 -7.54591 4.75748
  865 349.583 -31.4007 -25.2005
  866 50.0924 3.19803 -15.2200
  867 50.2406 3.14488 15.2115
  868 277.889 -5.04409 -0.666637
  869 223.639 -7.76834 -1.82158
  870 222.860 -7.69955 2.02082
  871 345.128 53.7378 25.0213
  872 119.774 -1.17865 -27.5507
  873 119.660 -1.31859 27.4292
  874 239.749 -21.6536 10.0603
  875 23.0521 15.0302 -5.21163
  876 23.2807 15.0008 5.27682
  877 202.707 -14.4354 35.9543
  878 243.170 -15.4885 -2.51394
  879 303.185 -2.37362 25.4695
  880 298.794 -33.6563 11.1751
  881 342.481 -26.1045 -35.0025
  882 236.951 -22.8244 -20.6263
  883 196.923 -13.1425 -8.38892
  884 645.032 53.0399 -9.93589
  885 313.020 -33.1796 5.15024
  886 8.87901 10.2417 3.75677
  887 9.04236 10.2615 -3.67139
  888 271.966 -27.2396 5.36309
  889 298.362 -33.6245 -19.6574
  890 9.44601 8.95719 0.391551
  891 9.58932 8.95958 -0.326282
  892 112.010 -3.96570 20.8594
  893 112.079 -4.08642 -20.9848
  894 135.787 -6.85058 22.8932
  895 135.738 -7.01410 -23.0530
  896 430.506 86.3577 12.8573
  897 -0.639880 -13.3174 -6.36651
  898 -0.644473 -13.3016 6.36209
  899 98.6615 8.35689 -30.4722
  900 98.1758 8.18622 30.1708
  901 746.042 24.1782 -37.7117
  902 13.5040 -0.0724300 1.09148
  903 13.4414 -0.0748663 -1.10759
  904 1.28954 -36.1005 2.08812
  905 1.50574 -35.4949 -1.57657
  906 -14.2548 -0.179378 5.27795
  907 -14.2705 -0.174953 -5.27620
  908 78.8474 23.1875 -35.9068
  909 80.0693 22.4185 35.3954
  910 -6.25582 0.283691 -11.1356
  911 -6.28697 0.258729 11.1554
  912 22.4326 2.04812 -9.88614
  913 22.5729 2.02179 9.90053
  914 85.8947 -0.970452 19.2040
  915 85.8353 -0.966252 -19.3023
  916 69.9944 -2.38594 -15.4815
  917 70.0654 -2.38138 15.4562
  918 370.935 -1.36607 -6.02749
  919 180.408 38.3665 107.206
  920 249.279 -24.5716 11.8452
  921 176.846 -12.6291 11.6671
  922 341.395 35.1038 -45.6516
  923 733.625 15.7444 15.0350
  924 405.035 18.3286 -43.3668
  925 66.6020 -2.55603 9.64372
  926 66.5347 -2.52680 -9.68112
  927 11.4658 -0.377260 -7.10519
  928 11.5996 -0.381029 7.10473
  929 -0.261432 -6.34614 -12.1175
  930 -0.314653 -6.39863 12.1581
  931 182.789 -8.00111 5.11109
  932 182.884 -8.15917 -5.13805
  933 21.8370 5.96989 -8.73856
  934 21.9878 5.94292 8.78520
  935 111.152 -4.93296 -17.6775
  936 111.227 -4.93281 17.6652
  937 240.365 -1.08431 -23.2511
  938 114.672 -6.21572 -12.2145
  939 114.591 -6.14763 12.2549
  940 279.887 -7.76523 -0.943508
  941 338.662 -19.4514 -43.3568
  942 147.488 -5.93382 5.51309
  943 147.558 -5.98952 -5.59026
  944 -6.12553 -0.658995 -3.71574
  945 -6.10893 -0.660574 3.70786
  946 345.163 -26.7517 -55.9296
  947 330.350 -19.3648 27.4691
  948 289.743 -20.1957 -5.96713
  949 282.273 9.60411 41.8577
  950 128.047 -7.16918 -13.7632
  951 128.047 -7.03138 13.8064
  952 315.582 12.0200 50.6158
  953 294.477 25.6562 33.3246
  954 602.198 72.4618 12.6492
  955 308.314 -10.9895 5.81994
  956 161.859 -4.76083 -2.47323
  957 161.838 -4.66508 2.49488
  958 276.003 -22.5693 -1.14973
  959 381.997 70.1048 -21.3207
  960 337.822 -3.57448 -2.09152
  961 221.491 -5.33800 0.810005
  962 221.404 -5.29623 -0.746373
  963 28.0338 23.6298 -16.6590
  964 28.7475 23.5863 16.7878
  965 53.3447 134.566 -119.624
  966 316.186 -7.50970 38.3548
  967 394.113 -7.49534 -36.4389
  968 -6.77588 3.79847 2.13254
  969 -6.67255 3.79771 -2.08111
  970 802.285 190.003 -151.820
  971 337.388 -36.7167 4.02341
  972 359.899 -33.3625 -14.2245
  973 332.123 -28.4694 24.9890
  974 410.638 80.8810 8.86546
  975 29.5750 30.7420 -35.8807
  976 75.6051 116.240 117.339
  977 -2.01068 -4.65366 12.0994
  978 -1.97762 -4.61516 -12.0787
  979 323.230 -8.18871 5.94691
  980 518.960 91.9095 -10.9513
  981 30.4417 30.0325 37.3208
  982 -1.43094 -4.78611 -4.13180
  983 -1.43124 -4.77299 4.12118
  984 277.182 -6.36112 0.355310
  985 206.645 -16.3839 -15.9271
  986 334.711 -26.4705 -29.6628
  987 94.7530 25.4810 -47.5448
  988 96.2737 25.9025 47.6691
  989 324.984 -8.07525 -34.2199
  990 327.634 -10.3099 11.0502
  991 -8.77656 2.20748 9.80243
  992 -8.73272 2.22962 -9.77060
  993 197.338 -13.0034 -33.7960
  994 327.740 20.8653 -50.8123
  995 243.660 -9.03300 0.808936
  996 175.015 -4.92036 0.410873
  997 174.982 -4.95370 -0.390758
  998 -3.70502 -4.20523 -8.62971
  999 -3.71035 -4.21433 8.62286
  1000 332.065 -11.7690 -13.6022
  1001 316.215 -3.43446 0.368100
  1002 315.920 -3.43838 -0.238606
  1003 436.958 71.2926 -30.0550
  1004 78.3789 6.83219 -23.9790
  1005 78.5736 6.69568 23.9244
  1006 49.8010 -0.458383 -12.8197
  1007 49.8948 -0.468492 12.8036
  1008 359.746 19.1336 54.6507
  1009 340.637 -6.32991 -7.58047
  1010 59.7140 9.46425 -19.4786
  1011 59.9512 9.39303 19.5506
  1012 355.546 -1.83136 -1.24448
  1013 331.731 -14.2828 -20.6821
  1014 323.936 -36.6223 -13.6213
  1015 12.2694 10.4687 -0.251030
  1016 11.9254 10.4187 0.407228
  1017 -15.7641 2.56222 5.83661
  1018 -15.7073 2.56928 -5.79876
  1019 195.346 7.37181 -8.62665
  1020 560.805 138.877 -37.7624
  1021 255.822 -18.5705 -1.40190
  1022 168.950 -7.37459 -34.7959
  1023 410.978 -16.6337 3.80674
  1024 169.616 -7.36854 35.2858
  1025 294.305 -34.2752 23.0104
  1026 333.655 -13.7920 -31.0994
  1027 113.833 -2.62047 -0.762351
  1028 113.840 -2.57324 0.757089
  1029 227.614 -17.7217 -8.20385
  1030 139.256 -5.17721 -27.0585
  1031 139.202 -5.21654 26.9184
  1032 46.0455 30.1125 -29.2792
  1033 46.7791 30.0241 29.3670
  1034 95.6104 -3.02543 -2.71578
  1035 95.6155 -2.98741 2.67958
  1036 296.827 -9.31302 3.13076
  1037 250.412 0.961786 -88.0739
  1038 307.695 -9.90434 -5.78368
  1039 277.797 -30.7240 -13.7465
  1040 182.319 -7.62107 3.48335
  1041 182.470 -7.67905 -3.49526
  1042 360.384 -2.14642 1.56884
  1043 322.008 -7.56364 -5.57478
  1044 206.197 5.01141 16.2702
  1045 345.085 -3.40485 -13.9955
  1046 133.348 38.8566 85.7760
  1047 355.376 -3.27401 -11.4760
  1048 92.4410 15.5745 -35.7590
  1049 89.6689 15.7515 34.2926
  1050 424.758 -7.42695 -5.57689
  1051 38.1196 19.9402 -15.1482
  1052 38.4722 19.7964 15.1448
  1053 6.46744 -0.614450 3.89332
  1054 6.79441 -0.554426 -3.67790
  1055 54.2683 -1.45134 3.27981
  1056 54.2225 -1.46096 -3.32160
  1057 151.769 39.3352 -95.0947
  1058 828.231 215.205 163.390
  1059 330.968 -11.7642 13.9524
  1060 296.932 -33.3748 -10.0260
  1061 206.088 -16.9319 -26.0646
  1062 -4.33228 4.53100 8.53462
  1063 -4.25295 4.55587 -8.48141
  1064 232.695 -11.8866 1.86298
  1065 256.786 -9.42952 -0.0734708
  1066 -0.129712 -18.8778 6.14428
  1067 -0.123289 -18.8959 -6.14250
  1068 38.3732 23.8361 -18.0646
  1069 38.8317 23.7910 18.1736
  1070 229.577 -10.9178 -1.77146
  1071 17.8400 8.36835 5.45144
  1072 17.6901 8.37995 -5.39135
  1073 351.012 -13.9371 50.2639
  1074 253.956 -26.2974 -22.3960
  1075 207.318 -17.2049 26.0631
  1076 334.166 -6.77620 -52.8778
  1077 353.135 -3.78198 5.50148
  1078 127.497 19.6041 57.4581
  1079 128.413 18.7636 -56.4971
  1080 205.861 -9.99530 -48.3348
  1081 291.864 -10.3535 -3.18878
  1082 237.048 -14.1711 3.73981
  1083 277.876 -25.9180 -0.732280
  1084 381.840 -1.32304 -3.13256
  1085 205.571 -9.37158 3.66239
  1086 205.481 -9.91476 -3.77900
  1087 6.84051 8.04214 6.95859
  1088 7.00982 8.10166 -6.86143
  1089 336.804 12.3525 -54.6289
  1090 75.2467 3.84856 -21.1628
  1091 75.4474 3.76374 21.1035
  1092 56.3780 1.11994 -15.1424
  1093 56.4996 1.08834 15.1142
  1094 384.870 -15.6181 70.4220
  1095 333.260 -15.3395 30.6586
  1096 162.744 -7.45070 -29.4903
  1097 388.076 -1.50919 -1.87240
  1098 434.872 82.1547 -22.7125
  1099 352.511 -3.29126 -3.47234
  1100 330.230 -35.6240 11.1799
  1101 244.219 -18.5962 42.3632
  1102 390.665 -0.451745 0.355926
  1103 205.807 6.42452 -13.7981
  1104 279.820 -29.9142 -6.29616
  1105 163.005 -7.79018 29.1647
  1106 282.431 -25.6956 -0.892150
  1107 352.534 -4.97533 10.2990
  1108 252.019 15.9388 21.5011
  1109 175.071 -12.8422 -23.4683
  1110 532.539 75.7807 -31.2887
  1111 400.127 18.0158 45.5147
  1112 298.263 37.3796 5.27447
  1113 386.392 0.0803489 1.66218
  1114 151.868 -9.45265 -17.9381
  1115 103.670 63.9539 -95.5361
  1116 185.507 4.96655 -68.7437
  1117 212.822 -16.3044 11.2396
  1118 179.685 -13.4236 21.9790
  1119 151.500 -8.98699 18.1240
  1120 320.276 2.73907 53.1259
  1121 241.978 -8.37153 -0.526022
  1122 380.827 -2.79917 4.21058
  1123 -3.04906 -0.267554 12.0948
  1124 -3.00350 -0.229039 -12.0643
  1125 253.506 -7.17798 0.0555031
  1126 -0.303295 2.84042 10.9547
  1127 -0.221012 2.89072 -10.8968
  1128 142.035 -4.44075 3.13468
  1129 142.048 -4.51230 -3.13873
  1130 358.571 -1.91421 9.52688
  1131 288.079 -17.5847 -4.94238
  1132 269.798 -14.3649 -1.48149
  1133 301.820 -21.0993 10.0925
  1134 91.8691 45.6141 -71.1998
  1135 295.903 -11.1387 4.19921
  1136 43.8643 0.837484 -12.4146
  1137 43.9796 0.815561 12.4042
  1138 61.4712 39.5906 -50.0649
  1139 473.319 61.9778 14.8119
  1140 33.4391 -1.55284 7.23387
  1141 33.3308 -1.54011 -7.24618
  1142 62.5820 38.9759 48.3415
  1143 270.837 -22.6366 0.0579886
  1144 136.801 -6.35915 6.82260
  1145 136.824 -6.38907 -6.93698
  1146 552.987 117.063 -30.9368
  1147 298.469 -29.8976 2.11022
  1148 102.081 59.8347 95.3330
  1149 8.72232 -2.19710 -7.90670
  1150 9.40078 -2.08269 8.70714
  1151 314.176 39.3945 26.6990
  1152 23.4340 12.7269 -5.51372
  1153 23.6245 12.7303 5.56837
  1154 300.445 -26.1111 -7.99159
  1155 -0.139242 -29.1798 -5.76760
  1156 -0.152897 -29.1848 5.79386
  1157 321.165 -27.1022 -17.5517
  1158 -5.36637 0.393293 2.41433
  1159 -5.52479 0.395762 -2.42010
  1160 48.9972 18.2586 -19.5497
  1161 49.2632 18.3371 19.3703
  1162 -16.6921 0.0392582 -2.95699
  1163 -16.5268 0.0380465 2.95976
  1164 321.039 -3.46108 -0.475204
  1165 -32.0839 0.941797 0.523184
  1166 -31.9959 0.941285 -0.502438
  1167 169.300 -13.2703 -17.3015
  1168 4.49908 -42.0595 -4.25939
  1169 84.6783 -2.39596 5.20700
  1170 84.6499 -2.40466 -5.26608
  1171 272.621 -5.16489 0.390932
  1172 273.140 -5.02829 -0.337599
  1173 4.83160 -40.0966 5.24470
  1174 323.308 -16.8386 -17.3376
  1175 369.347 -1.69490 7.02189
  1176 328.446 -21.0345 -25.3368
  1177 286.354 2.10661 41.5299
  1178 1.51998 -11.7458 8.89523
  1179 1.66090 -11.6576 -8.74877
  1180 209.844 -15.2195 8.93084
  1181 -14.4041 1.31089 7.82529
  1182 -14.3774 1.32205 -7.80193
  1183 545.510 86.8295 5.77687
  1184 637.948 199.110 -140.187
  1185 335.811 -32.6547 21.7199
  1186 138.394 -4.01297 -0.437571
  1187 138.402 -3.96306 0.437943
  1188 688.493 66.8034 -61.5895
  1189 48.8113 -1.27558 7.51306
  1190 48.7239 -1.25593 -7.54266
  1191 313.482 -1.02438 -16.4742
  1192 201.297 -16.2545 19.5771
  1193 332.188 -32.5768 -15.8331
  1194 321.481 -23.3613 -19.8118
  1195 196.077 -6.92204 50.6798
  1196 72.5019 13.5016 -27.0281
  1197 72.4614 13.3814 26.8737
  1198 95.6080 35.3910 -60.4949
  1199 95.7340 32.7478 60.4961
  1200 27.2558 7.97903 -9.24920
  1201 27.4187 7.95501 9.30587
  1202 396.386 68.6939 -31.1825
  1203 20.4465 18.6890 -8.30684
  1204 20.9255 18.7156 8.45043
  1205 285.994 -21.8670 4.24484
  1206 535.097 78.5072 35.1807
  1207 67.7174 -2.83128 -5.13068
  1208 67.7654 -2.83014 5.07837
  1209 348.075 242.135 -208.582
  1210 267.280 15.8526 -33.1891
  1211 245.330 18.8385 13.5460
  1212 33.9753 14.3319 -10.9467
  1213 34.1374 14.3316 11.0081
  1214 6.54853 -0.0646609 1.76799
  1215 6.44309 -0.0645502 -1.78366
  1216 316.844 -25.4342 16.3840
  1217 311.616 -12.4477 8.69934
  1218 213.389 60.3429 -149.234
  1219 491.398 107.238 -4.94024
  1220 211.074 -6.42708 -55.8415
  1221 273.664 -8.38576 0.637100
  1222 13.5131 -1.36323 -0.415667
  1223 13.5388 -1.36227 0.413248
  1224 -7.18539 2.14469 -3.99797
  1225 -7.05297 2.13575 4.02907
  1226 183.444 1.98109 -58.6986
  1227 338.271 -7.39962 9.74098
  1228 219.835 3.99874 80.2915
  1229 297.907 -14.7028 -6.62113
  1230 153.710 54.6699 -117.372
  1231 238.938 -11.6731 -60.3161
  1232 284.595 -30.3877 4.69547
  1233 348.564 -5.49350 15.5012
  1234 305.735 -6.36503 -2.42238
  1235 168.582 -12.4526 17.4031
  1236 383.534 -21.6218 -28.3436
  1237 363.665 31.5056 51.7639
  1238 158.280 0.742439 -46.3367
  1239 362.579 -2.23922 1.21204
  1240 290.779 36.1981 -7.52660
  1241 126.031 -4.38247 -5.10584
  1242 126.006 -4.33585 5.04795
  1243 555.629 128.004 30.9972
  1244 760.145 20.2035 35.3260
  1245 0.675920 -35.6311 -5.73058
  1246 0.653986 -35.6717 5.77487
  1247 81.7894 43.1499 66.5753
  1248 195.818 -5.70509 -1.01089
  1249 195.860 -5.66992 1.08427
  1250 268.462 -27.0039 -6.89619
  1251 320.017 26.1996 46.0283
  1252 335.574 -6.57934 -6.26954
  1253 390.212 -1.02514 -0.325772
  1254 675.667 149.994 -94.4704
  1255 104.647 -3.94131 5.25968
  1256 104.638 -3.95022 -5.33110
  1257 321.493 -29.8482 16.7987
  1258 564.993 137.735 -42.2091
  1259 311.801 -13.5787 -9.80577
  1260 227.555 -15.7994 -6.08079
  1261 279.619 -30.4015 13.3880
  1262 273.416 -13.6474 2.09282
  1263 10.0978 2.07287 -12.6165
  1264 374.097 -22.7829 33.7489
  1265 302.995 -19.7981 -9.84803
  1266 11.1300 2.59693 13.9833
  1267 311.613 -24.9577 -56.5768
  1268 294.667 18.2560 -122.051
  1269 485.082 61.7229 -10.1516
  1270 391.747 -0.267310 -0.123943
  1271 391.046 -0.629719 0.352368
  1272 308.228 -17.9624 10.6757
  1273 118.451 14.1181 -45.6150
  1274 351.132 -31.2718 27.2758
  1275 597.361 136.498 62.3902
  1276 147.381 50.5637 114.337
  1277 4.08570 0.455473 9.08088
  1278 4.24121 0.531099 -8.97352
  1279 369.012 -29.8106 -30.2737
  1280 148.054 -8.05613 -8.17493
  1281 148.026 -8.07674 8.02266
  1282 343.508 -22.6718 41.5935
  1283 12.1689 0.0977365 7.90702
  1284 12.0352 0.104480 -7.90450
  1285 -1.89534 -7.19482 9.94772
  1286 -1.88253 -7.17937 -9.94917
  1287 60.5646 -2.09121 -6.85268
  1288 60.6302 -2.10363 6.80756
  1289 180.350 -12.0276 -26.6991
  1290 181.630 -5.97304 1.51937
  1291 181.625 -6.10508 -1.45068
  1292 390.304 -0.259294 0.0364066
  1293 346.435 -5.31215 -17.4361
  1294 27.8313 1.29526 -9.91188
  1295 27.9610 1.27581 9.91523
  1296 181.071 -12.7256 26.4806
  1297 394.112 -0.395656 0.138495
  1298 372.299 -0.328186 -0.416105
  1299 372.289 -0.551612 0.320277
  1300 491.662 103.479 5.63544
  1301 362.722 -2.43611 -2.76355
  1302 322.021 -3.26383 0.360292
  1303 356.771 -5.37681 -9.10671
  1304 388.234 -1.23645 1.28046
  1305 404.356 41.5872 45.1111
  1306 468.570 97.2263 11.7981
  1307 377.068 -1.48296 -4.65224
  1308 -3.08680 -0.789817 2.77421
  1309 -3.09910 -0.789235 -2.78264
  1310 209.047 -13.1457 6.07393
  1311 209.006 -12.5638 -5.89222
  1312 408.044 46.1367 -42.9342
  1313 84.7792 29.2248 -49.9344
  1314 85.3257 28.4216 49.3894
  1315 274.977 0.0158659 -20.7643
  1316 283.252 -4.50899 -0.217092
  1317 282.905 -4.47174 0.158279
  1318 -6.83808 -1.14633 10.1288
  1319 -6.82556 -1.12800 -10.1248
  1320 314.439 -0.815419 16.4468
  1321 478.528 95.1649 -0.962924
  1322 33.3455 -1.28719 -4.32013
  1323 33.4288 -1.29021 4.28496
  1324 353.507 -34.0111 15.0194
  1325 0.513995 5.81500 8.71353
  1326 0.616908 5.85035 -8.64717
  1327 64.6747 -1.46958 -1.41282
  1328 64.6982 -1.44631 1.38939
  1329 275.051 -0.419340 21.0793
  1330 10.4483 0.597886 -0.656255
  1331 10.4978 0.600170 0.644455
  1332 359.857 -4.15589 5.89117
  1333 501.166 91.3853 4.62444
</Section>

newXOutput 46

<Section columns = "stress_xx | stress_yy | stress_xy">
  1 408.940 -1.04969 0.742742
  2 409.592 -1.36038 -0.964836
  3 6.66419 0.385336 -1.06365
  4 -0.288518 -0.440213 -0.284117
  5 751.868 298.681 245.191
  6 763.459 342.060 -247.802
  7 -0.285330 -0.437427 0.279990
  8 6.63837 0.383181 1.06113
  9 411.744 -0.741179 -0.677290
  10 408.665 -1.39437 -0.975498
  11 408.946 -1.08338 0.914936
  12 406.900 -0.559657 0.410526
  13 406.067 -1.30767 -0.237513
  14 405.378 -1.25413 1.63654
  15 399.406 -0.871952 1.58198
  16 400.929 -2.88130 2.38839
  17 388.308 -2.38165 5.11818
  18 380.271 -1.03687 6.15189
  19 369.212 -1.28953 6.63193
  20 350.036 -1.14187 9.25556
  21 329.177 -0.982075 10.7409
  22 303.169 1.34708 14.7186
  23 267.575 2.08300 13.3225
  24 253.313 -0.145891 19.0656
  25 208.952 2.98109 13.5573
  26 182.013 3.93791 10.6191
  27 174.998 1.87757 7.82853
  28 167.474 5.75010 0.574721
  29 171.589 6.21797 -10.4674
  30 179.878 1.76878 -13.1432
  31 212.992 0.743744 -17.5579
  32 246.417 -1.68011 -18.2464
  33 268.851 1.72545 -13.3016
  34 303.557 1.53454 -14.7241
  35 328.318 -1.16750 -11.5104
  36 352.156 -1.30470 -8.73545
  37 367.723 -0.931124 -6.73445
  38 379.121 -1.09866 -5.64682
  39 391.321 -1.37493 -3.27595
  40 396.113 -1.38549 -3.13637
  41 400.778 -1.31269 -2.75977
  42 405.525 -1.50069 -0.555300
  43 407.358 -1.91434 -1.14272
  44 405.013 0.157206 -0.0820361
  45 408.476 -0.982920 -1.03122
  46 410.268 -2.06449 1.06368
  47 412.256 -1.17748 -0.0526595
  48 391.378 0.297010 -0.617287
  49 367.999 -1.48152 -1.16288
  50 341.572 -3.48200 -1.68250
  51 314.256 -2.87809 -1.22384
  52 290.464 -4.73341 -1.12606
  53 265.380 -5.15436 -1.03075
  54 240.106 -4.50364 -0.516130
  55 213.555 -4.84501 -0.704758
  56 191.120 -5.18670 -0.923653
  57 161.301 -4.97716 -0.756547
  58 130.632 -3.11922 -0.484262
  59 105.283 -1.99865 -0.386831
  60 74.0008 -1.26090 -0.165713
  61 51.2795 -1.23966 -1.56942
  62 30.1692 -1.72818 -0.521659
  63 8.88061 0.197991 0.958155
  64 3.36534 1.48749 0.364880
  65 1.80948 0.605898 1.00258
  66 2.59855 0.273916 0.988230
  67 -1.77426 0.856595 0.435571
  68 -3.46494 1.11972 2.06663
  69 -4.15823 0.390998 0.748211
  70 -11.5716 0.828769 0.822405
  71 -15.0553 0.576577 1.98661
  72 -16.4516 0.195039 2.08555
  73 -24.5708 0.780454 1.63336
  74 -27.6382 1.16549 3.07732
  75 -31.0445 0.707194 1.13615
  76 -35.0149 0.513576 1.67070
  77 -36.6213 0.549387 0.686166
  78 -40.4509 1.32495 -0.857118
  79 -40.9430 0.908219 -0.636618
  80 -37.3486 0.688518 -1.26009
  81 -32.1167 0.896478 -2.44693
  82 -26.1158 0.395696 -3.73831
  83 -19.4719 0.217062 -3.90286
  84 -11.6926 -0.396308 -4.09482
  85 -5.08219 -0.316765 -2.39273
  86 -2.13170 -0.846798 -1.49398
  87 -0.357397 -2.14588 -1.29290
  88 -0.602257 -5.48304 -2.30180
  89 -0.685333 -10.7383 -4.04049
  90 -0.137195 -20.1079 -4.36232
  91 0.242309 -27.8033 -5.47589
  92 0.567498 -39.9671 -4.46673
  93 1.71341 -47.4097 -5.26169
  94 0.296803 -51.0128 -4.33512
  95 -0.0700578 -58.4065 -2.56453
  96 1.62455 -56.4574 -0.552057
  97 6.58154 -73.1129 3.21347
  98 5.89367 -38.6893 10.4415
  99 14.0070 -15.7344 22.9274
  100 42.0231 70.2669 71.3234
  101 178.695 231.753 202.037
  102 985.063 105.001 146.261
  103 823.601 29.1193 52.4535
  104 784.046 12.4212 18.0664
  105 762.060 8.14751 -0.0959959
  106 776.042 11.8318 -14.8371
  107 831.351 24.8671 -43.4437
  108 974.770 83.4010 -136.236
  109 115.928 262.773 -167.196
  110 29.5157 51.6871 -55.1620
  111 10.3191 -22.6629 -19.0378
  112 5.33936 -42.7628 -8.97334
  113 6.54708 -76.0250 -2.50212
  114 1.55327 -57.7505 1.05627
  115 -0.165640 -59.0545 2.82754
  116 0.235810 -51.2637 4.47619
  117 1.68024 -47.4694 5.32142
  118 0.554740 -39.9456 4.48887
  119 0.232621 -27.7645 5.48395
  120 -0.141929 -20.0584 4.35982
  121 -0.685956 -10.7067 4.03200
  122 -0.603563 -5.45574 2.29381
  123 -0.357159 -2.13565 1.28581
  124 -2.11939 -0.845645 1.48807
  125 -5.06038 -0.318173 2.38637
  126 -11.6647 -0.399623 4.09109
  127 -19.4399 0.213429 3.90384
  128 -26.0985 0.391741 3.74534
  129 -32.1255 0.893688 2.46055
  130 -37.3841 0.688325 1.27468
  131 -41.0128 0.907450 0.650814
  132 -40.5491 1.32489 0.871844
  133 -36.7515 0.550850 -0.673430
  134 -35.1689 0.515370 -1.66137
  135 -31.2101 0.709224 -1.12885
  136 -27.8168 1.16788 -3.07452
  137 -24.7539 0.782683 -1.63104
  138 -16.6317 0.196396 -2.08624
  139 -15.2352 0.578910 -1.98972
  140 -11.7427 0.832058 -0.826971
  141 -4.30806 0.393194 -0.756652
  142 -3.59299 1.12194 -2.07908
  143 -1.88317 0.857179 -0.446619
  144 2.51890 0.273480 -0.998923
  145 1.75163 0.604806 -1.01115
  146 3.32189 1.48557 -0.372340
  147 8.84949 0.196758 -0.962494
  148 30.1405 -1.73449 0.517140
  149 51.2527 -1.25569 1.56441
  150 73.9815 -1.28941 0.159162
  151 105.273 -2.03995 0.383401
  152 130.623 -3.16717 0.483677
  153 161.282 -5.01868 0.762968
  154 191.072 -5.20746 0.937165
  155 213.475 -4.81930 0.736836
  156 239.990 -4.40897 0.553173
  157 265.221 -4.93075 0.974453
  158 290.589 -4.79688 0.989336
  159 314.349 -3.27424 1.29157
  160 341.841 -3.40902 1.53229
  161 368.738 -1.26856 1.17889
  162 390.719 0.273498 0.599740
  163 226.871 -20.4492 -18.6440
  164 225.954 -20.8203 18.6005
  165 67.9604 18.7965 -27.1780
  166 68.6333 18.8660 27.0592
  167 267.954 -12.8630 69.2548
  168 280.938 -14.5428 -67.3876
  169 131.069 -6.88209 8.57508
  170 131.056 -6.81372 -8.70080
  171 286.304 -9.97786 1.64145
  172 280.537 -10.0063 -1.54501
  173 381.527 68.8275 -9.72452
  174 387.376 2.67209 -49.5786
  175 379.639 5.65878 53.2788
  176 90.9781 -3.43040 -18.2405
  177 90.9819 -3.40467 18.2025
  178 334.793 -33.1704 17.7399
  179 334.424 -25.7490 -24.8401
  180 4.53119 7.71799 8.17706
  181 4.66917 7.76778 -8.09517
  182 457.347 93.0243 14.8140
  183 87.9565 39.3157 -61.8052
  184 94.4084 39.6909 66.3101
  185 323.796 -15.0870 11.7057
  186 485.780 101.861 -6.85656
  187 209.535 -7.59514 -2.39566
  188 209.194 -7.79410 2.37320
  189 332.962 -10.4735 -10.6739
  190 443.631 -2.84726 -6.02200
  191 81.7219 -2.45389 3.25721
  192 81.6981 -2.47551 -3.30516
  193 34.9605 4.48415 -12.2478
  194 35.1204 4.43812 12.2761
  195 186.826 -7.15519 -43.2925
  196 186.095 -7.54944 43.8513
  197 223.211 -14.4611 -6.41689
  198 223.657 -14.3802 6.85263
  199 57.9114 -2.02792 9.67193
  200 57.8285 -2.00020 -9.69453
  201 438.843 -7.81665 28.6514
  202 358.665 -35.3741 -7.44621
  203 340.845 -3.45464 -1.65740
  204 333.210 -4.20248 1.69385
  205 337.961 39.6257 37.6043
  206 14.4067 12.3030 -4.59924
  207 14.9338 12.2773 4.83372
  208 337.186 -13.5826 43.7542
  209 310.162 23.6661 -43.0021
  210 220.917 49.8914 -142.380
  211 232.292 42.1350 132.271
  212 5.75135 7.43299 -0.813233
  213 5.88254 7.43114 0.875707
  214 336.084 -11.9814 -45.2034
  215 584.790 81.9455 -5.52739
  216 279.344 -30.4659 24.6502
  217 281.459 -30.2923 -23.3004
  218 279.185 -19.9189 -1.73943
  219 346.371 -5.46433 5.70023
  220 167.520 -11.4689 -15.9256
  221 164.880 -11.4222 16.4278
  222 100.603 2.07309 -27.5689
  223 100.746 2.03367 27.3329
  224 355.393 -37.5612 -3.91098
  225 276.858 -21.1772 0.546360
  226 345.140 -5.33159 -4.47656
  227 268.666 -6.91445 0.110407
  228 271.013 -6.44574 0.399861
  229 340.567 -15.1936 25.2502
  230 29.2375 0.284438 -10.3151
  231 29.3618 0.270792 10.3130
  232 -4.31036 -2.89604 -11.5485
  233 -4.33254 -2.92335 11.5581
  234 51.9928 -2.26775 -5.58935
  235 52.0623 -2.27321 5.54357
  236 143.814 -4.29042 3.80777
  237 143.849 -4.36719 -3.83851
  238 165.590 11.4606 -63.3996
  239 165.610 9.55713 62.6804
  240 345.408 -10.7574 -21.5935
  241 162.150 -9.45031 -26.0913
  242 162.287 -9.73934 25.7169
  243 304.387 4.66020 48.6151
  244 266.117 22.8641 2.94218
  245 296.434 -29.5377 -1.20954
  246 1.32054 -7.24231 -10.5116
  247 1.22104 -7.32109 10.5983
  248 19.0749 19.4430 -21.2843
  249 20.3044 18.7613 22.3754
  250 291.478 -28.8951 -0.736910
  251 525.795 98.4938 -7.20109
  252 27.3473 18.4865 -8.98377
  253 27.6770 18.4784 9.09136
  254 -11.2050 2.44662 7.85613
  255 -11.1478 2.45935 -7.81663
  256 528.545 92.2246 10.1569
  257 184.750 -8.89194 -6.17515
  258 184.609 -8.74894 6.04788
  259 362.028 -24.4558 40.5247
  260 653.772 106.364 65.8315
  261 108.184 -5.69233 -14.9646
  262 108.160 -5.73239 14.9488
  263 369.075 55.2221 -35.9830
  264 630.864 119.854 -59.9094
  265 441.001 44.1340 34.5054
  266 479.093 30.2111 -89.5051
  267 296.487 -14.0307 4.57445
  268 337.290 1.59032 -54.5486
  269 319.452 -22.5560 -14.2059
  270 356.048 -6.38566 13.6842
  271 0.0552834 3.40486 -3.73431
  272 0.186736 3.39401 3.77867
  273 352.628 -11.6447 -86.6251
  274 37.9068 11.6264 -12.3480
  275 38.0885 11.6052 12.4157
  276 341.540 -8.26404 -27.6573
  277 49.0948 50.6588 -64.1984
  278 40.8222 -0.193334 -1.29001
  279 40.8579 -0.184371 1.27021
  280 360.693 -22.4152 -42.2833
  281 63.4614 28.5018 -34.3108
  282 64.3790 28.3470 34.4071
  283 18.2153 -0.565944 7.20889
  284 18.0850 -0.558909 -7.21457
  285 296.052 -13.3212 -4.45507
  286 49.4366 50.1147 65.9278
  287 471.154 36.1672 104.932
  288 128.858 -5.11325 -5.16595
  289 128.833 -5.08037 5.09078
  290 236.570 -9.82536 -2.12800
  291 236.454 -10.6339 2.39623
  292 201.959 19.4649 -96.3858
  293 325.638 -35.6593 -5.35541
  294 370.862 -2.29200 2.51534
  295 194.517 19.4506 93.2462
  296 226.501 -6.19692 -0.704362
  297 226.414 -6.19248 0.899513
  298 319.965 -23.4723 14.4753
  299 367.688 -3.91427 -6.43833
  300 -2.44868 1.37086 -5.60582
  301 -2.30382 1.36061 5.62661
  302 461.943 91.9022 -4.02522
  303 404.652 -18.7849 21.6258
  304 365.381 -1.93389 -0.661690
  305 371.775 -1.68462 0.599220
  306 364.494 -32.0355 31.0925
  307 449.570 47.1110 -32.0378
  308 393.013 73.1059 20.6851
  309 176.422 -10.8217 -9.98574
  310 174.819 -11.0192 10.1830
  311 370.440 -2.22887 -1.68200
  312 243.108 -18.3713 -47.4629
  313 239.169 -18.8839 8.17831
  314 228.029 -12.4392 54.1288
  315 364.537 -4.40606 7.69904
  316 82.5648 -3.79265 -9.33218
  317 82.6187 -3.82047 9.29028
  318 336.019 -11.1503 85.6094
  319 213.259 -16.8754 -12.4256
  320 392.389 50.3598 45.0588
  321 124.964 8.78564 -41.0791
  322 120.315 9.18505 40.7395
  323 36.2390 -0.765711 -2.34269
  324 36.2968 -0.760560 2.31119
  325 322.013 -6.56896 3.30102
  326 308.814 -4.47755 0.447726
  327 307.080 -4.89689 -0.553283
  328 339.005 -8.70345 29.3042
  329 29.1184 -1.08635 5.37315
  330 29.0082 -1.07619 -5.39831
  331 98.6534 -2.35801 -1.94552
  332 98.6604 -2.31890 1.92453
  333 3.25697 -15.3219 -5.83700
  334 3.04216 -15.4460 6.09309
  335 263.510 11.3962 32.9980
  336 408.569 -17.6099 -17.5661
  337 264.309 -14.0906 0.896294
  338 298.842 -6.10195 -1.67006
  339 312.619 38.8598 -20.2100
  340 61.0890 -1.95574 -13.5243
  341 61.1681 -1.95715 13.5120
  342 256.998 -13.2912 0.448781
  343 72.7058 2.46599 -19.4557
  344 72.8440 2.40311 19.3946
  345 14.1464 11.9208 -0.173757
  346 14.3202 11.9187 0.247598
  347 312.552 -33.5049 31.7512
  348 692.291 45.6639 17.7614
  349 277.978 4.18947 -39.0716
  350 232.424 -20.8343 29.1113
  351 231.242 -20.4145 -29.9958
  352 342.946 -5.80682 53.9992
  353 304.940 -2.21565 38.5907
  354 308.488 -32.3956 -32.7824
  355 183.689 -4.74015 0.309835
  356 183.661 -4.79530 -0.264174
  357 341.245 -22.2824 33.0672
  358 467.311 93.0509 2.13224
  359 366.376 -4.16956 -10.1145
  360 93.9835 -3.60787 -6.74372
  361 94.0217 -3.61093 6.67513
  362 345.005 -32.6816 -39.4640
  363 362.434 25.2983 -53.8355
  364 242.651 13.0484 -21.1814
  365 343.651 -22.9438 -37.8245
  366 -11.1985 0.396679 -8.90827
  367 -11.2109 0.382929 8.91984
  368 288.657 -6.94584 0.967323
  369 -4.10467 -2.44311 -5.32442
  370 -4.09971 -2.44392 5.31341
  371 223.199 111.541 -173.257
  372 8.95236 7.95870 5.51310
  373 9.17558 8.02175 -5.39359
  374 302.607 -2.33926 -38.2721
  375 166.872 -7.14667 4.65172
  376 166.991 -7.24233 -4.70442
  377 -1.13100 -12.1197 10.1468
  378 -1.11229 -12.0974 -10.1361
  379 181.456 116.935 163.132
  380 136.635 -7.27190 -20.3754
  381 136.742 -6.95993 20.3910
  382 43.6170 32.1440 -31.7503
  383 44.5345 32.0543 31.5670
  384 -17.0434 2.61988 3.13179
  385 -16.9649 2.62400 -3.08951
  386 349.685 23.3024 53.9460
  387 268.174 -28.0725 13.7765
  388 268.458 -24.4960 5.40815
  389 325.287 -36.9286 -4.46236
  390 81.4383 10.1643 -27.0210
  391 81.7098 10.1455 26.9790
  392 7.28098 -10.4244 0.883438
  393 6.88540 -10.5939 -0.319429
  394 329.372 47.0574 13.2998
  395 331.725 -9.56517 8.73153
  396 189.743 -14.7323 18.7463
  397 117.384 -2.97322 -24.3997
  398 117.428 -2.99504 24.2152
  399 241.957 -7.41268 -0.853152
  400 241.695 -6.51751 0.647802
  401 188.155 -15.1282 -19.9079
  402 147.116 -2.50090 -33.0284
  403 147.093 -2.70388 33.2916
  404 345.791 -31.6906 -23.0550
  405 200.784 -15.4625 11.7639
  406 314.596 -9.67680 5.17096
  407 314.012 -8.82800 -4.30780
  408 263.512 -24.3162 -6.35585
  409 378.158 -1.70494 -2.66695
  410 127.150 51.5580 -97.8591
  411 355.800 -5.17744 16.8054
  412 377.038 -2.02992 3.99043
  413 134.413 -7.21227 12.2426
  414 134.472 -7.11434 -12.2329
  415 266.968 -27.7365 -14.2411
  416 38.1615 16.9616 13.2988
  417 37.9557 16.9498 -13.3103
  418 699.389 45.6299 -36.3008
  419 308.330 -17.6570 -8.07689
  420 380.794 -1.38735 1.53631
  421 120.071 48.1312 93.1983
  422 562.233 94.6614 18.2741
  423 330.728 -5.12450 -2.62592
  424 247.327 -17.9899 -4.96152
  425 103.168 19.9198 -46.4167
  426 109.940 18.4633 46.1396
  427 304.634 -19.3654 8.14656
  428 323.016 -4.17118 -28.3722
  429 -2.30496 -0.300737 5.40399
  430 -2.45683 -0.297325 -5.40058
  431 116.623 28.0898 -62.2810
  432 116.994 28.1916 62.0895
  433 13.9050 6.46017 -5.72210
  434 14.0506 6.44592 5.77743
  435 273.339 -5.40577 0.515539
  436 273.011 -5.26745 -0.422962
  437 340.066 -15.5357 -26.4039
  438 -0.897005 -0.934109 12.3978
  439 -0.836079 -0.880198 -12.3521
  440 350.312 -34.5082 20.1210
  441 331.310 -8.94258 -7.70446
  442 535.318 102.458 -16.0578
  443 21.4377 -0.974139 2.53550
  444 21.3428 -0.974325 -2.56292
  445 644.072 182.248 81.8842
  446 13.0167 5.78574 -19.2917
  447 39.9728 1.91216 -13.1873
  448 40.1055 1.88119 13.1851
  449 642.367 186.443 -78.8545
  450 13.7999 7.22950 21.2268
  451 -16.3972 2.02523 0.784669
  452 -16.2960 2.02199 -0.744687
  453 35.9115 24.5776 -18.6337
  454 36.5318 24.5871 18.7353
  455 418.703 65.6919 -36.9606
  456 336.236 -13.1940 -16.9845
  457 378.769 -1.47284 -1.35338
  458 351.278 -5.40968 -19.7292
  459 -4.05479 2.59185 11.3368
  460 -3.99275 2.62649 -11.2937
  461 339.722 -13.7417 19.8029
  462 220.770 -12.4758 -5.09029
  463 220.092 -12.6031 4.34893
  464 299.645 -33.0346 -5.14619
  465 213.804 -2.89756 -66.3880
  466 326.229 -5.00385 28.9875
  467 266.882 -8.73597 0.0388100
  468 391.952 -29.1841 -4.97091
  469 207.116 1.92449 71.1858
  470 15.9545 -0.301793 5.21780
  471 15.8220 -0.295610 -5.22963
  472 430.218 85.0454 -16.5183
  473 344.081 -2.66227 0.161966
  474 342.903 -3.00202 -0.474337
  475 259.787 -17.3971 1.98548
  476 113.566 -3.85919 -3.76897
  477 113.558 -3.81371 3.72216
  478 67.0196 -0.810219 -16.0213
  479 67.0975 -0.823499 15.9887
  480 218.563 8.46399 12.6680
  481 55.0949 -1.84931 7.73039
  482 55.0161 -1.83164 -7.76980
  483 58.8595 5.60909 18.0550
  484 58.6642 5.69221 -18.0402
  485 333.839 -25.8550 23.8611
  486 186.860 -11.6322 -31.0430
  487 172.480 -5.63264 2.41548
  488 172.542 -5.77061 -2.41985
  489 188.832 -11.9973 31.0352
  490 521.338 123.924 -11.3690
  491 -8.33604 -1.25424 -6.90194
  492 -8.33161 -1.26083 6.89813
  493 131.132 -3.70593 -1.56632
  494 131.131 -3.64971 1.55968
  495 0.165335 -22.3571 -8.44497
  496 0.110765 -22.4303 8.51981
  497 304.780 -4.68408 0.921247
  498 217.220 10.3319 -6.30600
  499 291.997 30.5985 18.1653
  500 185.667 -1.74553 -52.9147
  501 91.0124 -4.67081 11.7161
  502 91.0026 -4.63136 -11.7369
  503 -23.1327 0.747679 -1.85985
  504 -22.9940 0.743164 1.87812
  505 360.472 -6.68248 -53.4978
  506 29.0456 0.170096 -1.71507
  507 29.0944 0.174719 1.69245
  508 300.084 -23.6822 -6.52883
  509 319.781 -27.2566 -13.6872
  510 65.5449 50.0779 -66.3250
  511 268.757 7.52157 -104.597
  512 3.57073 8.10041 5.24210
  513 3.69962 8.11756 -5.17052
  514 164.392 -7.63761 -6.73010
  515 164.310 -7.56796 6.58419
  516 461.550 19.6470 -10.2001
  517 332.487 -19.6628 -21.6629
  518 63.9041 47.3763 65.3945
  519 329.424 -37.2665 9.59668
  520 316.833 -30.1217 10.5308
  521 67.5361 -1.64256 -5.07625
  522 67.5784 -1.63590 5.02539
  523 260.507 2.83315 30.2583
  524 188.276 -13.8916 -12.4554
  525 350.599 -7.83783 12.3311
  526 -1.42953 -8.51818 -6.70546
  527 -1.43308 -8.51161 6.69587
  528 245.869 -21.7310 34.7972
  529 373.894 -28.5191 -27.4392
  530 487.407 34.4070 -17.8542
  531 263.664 -9.04843 0.0884468
  532 78.5114 -1.46625 -1.48239
  533 78.5285 -1.43770 1.46848
  534 166.974 1.40172 50.9766
  535 465.897 78.2775 24.3974
  536 472.979 93.8455 -165.479
  537 424.524 2.56586 25.9772
  538 305.591 -33.9378 3.51519
  539 721.161 57.3581 48.6660
  540 533.992 129.561 16.2698
  541 75.6081 -3.15582 12.7911
  542 75.5517 -3.12419 -12.8133
  543 293.781 -24.3770 4.68432
  544 22.0653 10.5400 -5.32762
  545 22.2309 10.5338 5.39308
  546 369.311 -30.6115 27.4585
  547 302.181 16.3274 44.6446
  548 371.867 -2.41845 6.87573
  549 274.991 -16.5488 1.86207
  550 385.184 3.52622 -110.261
  551 610.632 158.339 108.683
  552 298.066 -5.95108 -0.783737
  553 365.307 -3.75536 -11.1072
  554 57.6356 24.0136 -25.6930
  555 58.0537 23.7246 25.5776
  556 209.033 -8.45291 -3.31616
  557 208.936 -8.25284 3.38384
  558 2.46948 -26.4508 -3.12211
  559 372.824 -13.2274 47.5685
  560 14.4181 12.9715 1.24121
  561 14.6451 13.0070 -1.13444
  562 2.88842 -25.5390 3.91829
  563 339.359 -15.4756 -38.5753
  564 390.515 24.7123 -51.4038
  565 389.138 28.0094 51.4159
  566 18.8136 16.1189 14.1913
  567 17.8705 16.4984 -13.8815
  568 -10.6087 0.355617 4.08143
  569 -10.7647 0.359284 -4.07363
  570 358.865 9.35196 113.674
  571 196.540 -10.9132 6.70159
  572 196.738 -10.8745 -6.83384
  573 432.738 -7.46800 -58.2539
  574 56.1185 -0.782740 2.94521
  575 56.0824 -0.795517 -2.97928
  576 26.0692 -0.685455 -0.694557
  577 26.1019 -0.680967 0.686636
  578 475.149 86.6351 -19.5664
  579 45.4173 67.3115 -73.2411
  580 249.087 4.99921 -25.6346
  581 351.884 56.2092 -22.6250
  582 5.24607 -0.0595603 7.52607
  583 5.45950 0.0171526 -7.38278
  584 356.067 163.950 194.512
  585 302.567 -8.49311 -2.78028
  586 10.8126 3.08590 -6.88229
  587 10.9556 3.06358 6.91621
  588 349.536 -28.0945 33.0051
  589 53.7063 65.2200 74.5789
  590 252.024 -5.38416 0.321246
  591 252.093 -5.33918 -0.322252
  592 -0.255910 -17.7937 8.78362
  593 -0.228651 -17.7645 -8.75459
  594 429.740 83.7575 -0.688012
  595 272.907 -21.9293 49.4799
  596 260.509 -11.2000 -0.308115
  597 262.142 11.9971 110.347
  598 -21.6612 1.11634 5.26818
  599 -21.6392 1.12240 -5.24669
  600 429.775 5.72234 -27.9341
  601 572.752 96.3455 -77.6535
  602 163.335 16.6573 -73.4907
  603 88.2896 -3.69890 -15.5981
  604 88.3717 -3.69956 15.5999
  605 388.897 -1.27547 1.90762
  606 257.935 -11.4406 -0.0140379
  607 345.626 -4.75827 4.18465
  608 339.377 -15.4791 37.6645
  609 14.3407 -0.562210 2.59729
  610 14.2244 -0.559802 -2.61764
  611 200.961 -7.04607 -1.92643
  612 200.933 -6.85392 1.86401
  613 125.337 2.75339 -34.0680
  614 124.528 2.78896 33.9168
  615 490.343 29.1883 29.3234
  616 800.316 60.3169 -87.5295
  617 -6.14029 -0.493322 3.56897
  618 -6.30141 -0.491668 -3.56831
  619 118.358 -4.98705 6.95660
  620 118.350 -4.98120 -7.05109
  621 456.915 25.0175 16.4471
  622 384.471 -1.36830 -0.605724
  623 383.626 -1.96907 0.251228
  624 278.160 -0.0950970 29.9609
  625 401.890 -23.5433 -35.6167
  626 218.000 -17.8857 14.8719
  627 -4.96494 4.94049 -4.84592
  628 -5.06147 4.93282 4.90176
  629 349.626 7.12579 56.2584
  630 138.363 -7.94860 -16.2906
  631 138.229 -8.08106 16.3222
  632 284.798 -16.5030 -2.91949
  633 352.216 -7.70395 -11.1552
  634 200.790 -15.9893 -22.4734
  635 329.337 39.7078 -34.1914
  636 222.146 -15.3238 -40.3115
  637 81.3885 -2.18238 -2.62407
  638 81.4058 -2.15625 2.58888
  639 202.880 -16.2761 22.5659
  640 436.401 70.4720 33.0723
  641 347.137 -16.8929 47.4660
  642 284.213 -12.6925 2.72869
  643 203.134 -5.44250 1.27583
  644 203.083 -5.45460 -1.23693
  645 153.004 -5.71820 -4.94656
  646 152.947 -5.65565 4.89312
  647 334.239 -30.6718 -19.0258
  648 168.970 -9.56240 8.66116
  649 169.153 -9.52446 -8.83822
  650 334.912 51.6859 -4.58491
  651 308.869 -16.2474 8.17072
  652 386.778 -1.78764 -2.97244
  653 328.269 -6.05394 -49.5527
  654 47.2004 -2.09205 10.2695
  655 47.1052 -2.07718 -10.2791
  656 377.269 -2.07518 -6.22876
  657 67.1497 34.6376 -46.6432
  658 68.3017 34.5520 46.8721
  659 384.750 -23.2754 49.2723
  660 132.145 32.9546 77.3960
  661 32.3288 -0.195093 10.2752
  662 32.2146 -0.187567 -10.2807
  663 327.592 -21.2256 63.8494
  664 322.887 45.5678 -150.424
  665 314.257 9.85082 -49.4582
  666 414.181 74.9169 28.5552
  667 279.317 -12.4293 -1.48385
  668 502.423 90.4467 -2.19688
  669 -24.2022 1.14942 -1.16453
  670 -24.0847 1.14641 1.19034
  671 222.725 0.972760 -77.8199
  672 15.3881 -0.328945 2.00669
  673 15.3041 -0.329787 -2.02763
  674 279.566 -23.5905 -48.9105
  675 92.4281 12.7133 -32.8495
  676 91.6905 12.7581 32.8317
  677 1.87460 4.66230 -2.02130
  678 2.00246 4.65602 2.07602
  679 237.458 -20.5154 -11.1102
  680 336.398 -3.31248 -19.0247
  681 160.106 -4.96447 -1.78658
  682 160.114 -4.90872 1.80064
  683 115.778 -5.91696 -10.4233
  684 115.869 -5.99950 10.3842
  685 21.9118 18.0261 -6.26107
  686 22.2784 18.0647 6.38487
  687 345.042 -4.11900 2.07691
  688 153.006 -9.71159 13.5617
  689 153.992 -9.54103 -13.5490
  690 381.955 -30.6567 -4.52527
  691 314.659 -31.6367 -7.12415
  692 247.274 -7.00099 -0.204988
  693 246.399 -6.52807 0.327545
  694 346.718 -36.7163 18.8000
  695 562.926 113.554 29.7286
  696 304.609 -13.6381 -79.3441
  697 348.805 -9.73498 19.8389
  698 346.379 -12.9401 -50.9308
  699 107.624 -3.34436 -4.88962
  700 107.625 -3.31891 4.82710
  701 270.786 -4.69814 89.0128
  702 757.057 97.0570 89.0086
  703 51.9171 15.1548 -18.8752
  704 51.9942 15.2559 18.9376
  705 343.937 -3.33572 -1.04643
  706 346.667 -2.99289 1.06842
  707 146.024 73.6919 -125.800
  708 365.311 -1.97207 11.1004
  709 315.861 -5.42084 1.64860
  710 416.271 82.5066 -10.5444
  711 42.3752 7.59075 -13.6494
  712 42.5609 7.54282 13.7006
  713 392.346 -0.969827 0.328278
  714 317.632 -12.2409 -8.00674
  715 396.086 -6.10865 41.6119
  716 161.891 -11.3248 -21.3106
  717 162.297 -10.8377 21.1072
  718 36.6555 -1.27506 7.77359
  719 36.5500 -1.25903 -7.79509
  720 359.486 -2.43022 -1.94089
  721 309.875 60.6740 159.664
  722 2.27918 2.40061 10.2906
  723 2.39468 2.46940 -10.2113
  724 360.330 -3.87645 -5.12928
  725 349.899 -6.41660 7.32468
  726 276.831 0.202663 -32.1345
  727 2.63043 -31.9207 -4.14258
  728 2.45844 -32.2346 4.45840
  729 127.120 33.9630 -77.3964
  730 279.032 -28.0309 -35.2226
  731 144.941 73.0306 127.005
  732 387.232 -0.968780 1.14541
  733 373.473 55.8734 36.1409
  734 272.136 24.6952 -12.6521
  735 489.225 98.6035 0.469412
  736 382.395 -1.60827 4.02737
  737 -22.9206 0.561179 2.88291
  738 -23.0737 0.564265 -2.87128
  739 406.958 -23.3465 10.6288
  740 263.183 -7.58261 -0.281643
  741 95.4571 0.161844 -23.3868
  742 95.5825 0.0664579 23.2518
  743 349.915 -4.09380 -2.97358
  744 618.070 87.5067 -31.6546
  745 41.2326 -1.22188 -4.87223
  746 41.3209 -1.22907 4.83643
  747 389.935 -1.06054 -1.86012
  748 77.2763 -3.45427 -6.79795
  749 77.3271 -3.46647 6.74489
  750 381.304 -15.3179 -42.9097
  751 352.198 -3.69150 15.3274
  752 315.771 -2.12053 48.9912
  753 390.563 -1.10316 -0.00609196
  754 364.581 -2.76196 3.91732
  755 238.160 -12.7999 -2.49605
  756 298.706 -7.84532 2.06934
  757 339.583 -20.9264 -32.1357
  758 331.245 -20.8285 20.8954
  759 388.163 46.8350 -45.5658
  760 326.702 -18.3250 15.4731
  761 345.098 -20.4829 41.1086
  762 199.917 -13.5110 9.02393
  763 7.21747 -2.06442 -0.622508
  764 6.83375 -2.08889 0.986000
  765 302.401 -4.54909 -0.00116699
  766 301.759 -4.51676 -0.111038
  767 362.801 -1.63422 -0.210254
  768 364.056 -1.56185 0.295350
  769 345.497 -9.69942 24.3153
  770 318.938 -29.3948 46.1835
  771 261.822 -21.2362 3.91865
  772 232.503 -13.8516 4.26166
  773 630.518 80.7877 36.7909
  774 349.343 -8.86053 -15.6339
  775 204.698 35.5318 -117.983
  776 324.617 -16.0342 -13.3752
  777 12.7789 0.265349 -7.38486
  778 12.9191 0.253470 7.39480
  779 289.793 25.3980 -28.3618
  780 736.561 22.3591 -9.60677
  781 365.287 9.28710 -55.0381
  782 14.6116 8.55755 -28.7401
  783 375.879 67.6454 9.24621
  784 293.337 -18.6473 4.62776
  785 329.550 -8.29476 48.0799
  786 277.604 -29.2370 35.4183
  787 444.377 -2.77305 71.7988
  788 15.7459 11.9556 30.6998
  789 200.611 -1.23545 60.6255
  790 280.441 -7.23031 -0.728595
  791 312.712 -28.1457 -46.7505
  792 191.706 -14.9177 -15.7037
  793 151.414 7.21293 -52.9591
  794 362.146 -5.74954 53.9329
  795 232.178 -15.8177 6.96171
  796 44.2703 -1.27100 4.35384
  797 44.2042 -1.27255 -4.39445
  798 337.439 -1.85117 16.8521
  799 305.851 1.48671 -47.6084
  800 -26.7519 1.21591 3.27205
  801 -26.7114 1.21819 -3.24856
  802 225.912 -7.08659 -0.867813
  803 225.255 -6.70148 0.795634
  804 167.560 18.6675 74.5602
  805 149.360 -8.72354 10.1934
  806 149.569 -8.51087 -10.3012
  807 389.722 -0.766498 -1.01310
  808 136.282 10.7867 51.6078
  809 4.08571 -0.128831 2.77393
  810 3.94212 -0.125974 -2.78589
  811 333.371 -10.3259 37.1879
  812 356.360 -3.04533 1.53276
  813 -19.0436 0.228085 5.24998
  814 -19.0467 0.234242 -5.23941
  815 219.226 -13.7945 45.2852
  816 42.3603 35.4711 -39.4979
  817 42.8801 33.8306 38.9023
  818 207.073 9.16117 5.26174
  819 -3.91800 -0.216453 -3.18284
  820 -3.75645 -0.218605 3.17964
  821 252.115 -23.9742 -33.1791
  822 344.207 -36.1444 -11.4846
  823 -1.71466 -1.62876 -2.15727
  824 -1.70959 -1.62493 2.14926
  825 17.9858 0.585526 -0.653582
  826 18.0269 0.588799 0.641588
  827 306.104 -27.2420 7.58622
  828 257.640 -26.3924 23.1169
  829 285.444 -4.84178 0.721876
  830 256.968 -20.7196 -4.88675
  831 93.9264 -1.56304 -0.513268
  832 93.9379 -1.52547 0.504526
  833 -30.2370 0.643215 1.89056
  834 -30.1713 0.642377 -1.86748
  835 322.446 -4.20913 -1.37595
  836 285.035 11.1735 -40.5087
  837 326.063 -6.50081 -4.19306
  838 192.110 -14.6579 14.9599
  839 322.429 -5.67733 -39.3065
  840 345.117 -10.5356 -25.1233
  841 323.752 -3.62013 1.23296
  842 236.150 -9.06604 62.1821
  843 252.295 -24.6444 -13.0496
  844 151.892 -1.13247 -40.5628
  845 152.730 -0.0771437 40.7744
  846 215.001 -16.0936 -9.78446
  847 356.930 38.6351 47.0911
  848 338.974 -35.3597 -25.5429
  849 121.803 -3.85682 -2.45457
  850 121.793 -3.79927 2.42896
  851 258.938 -5.91856 0.189391
  852 258.948 -5.96716 -0.126525
  853 308.172 -2.33973 -25.6977
  854 103.755 -4.38850 -8.41483
  855 103.812 -4.42157 8.34286
  856 1.25370 -32.1938 -6.37540
  857 1.18663 -32.3324 6.50715
  858 52.1834 -0.775401 -0.225204
  859 52.1564 -0.791322 0.214725
  860 320.015 -5.05520 -1.92885
  861 242.820 -23.1445 20.8912
  862 377.319 -32.3986 12.0821
  863 220.805 4.63298 20.1524
  864 327.214 -7.74042 4.80927
  865 357.229 -32.0648 -25.5958
  866 51.3397 3.26506 -15.6303
  867 51.4916 3.21075 15.6219
  868 283.990 -5.19193 -0.659371
  869 228.638 -7.97083 -1.90623
  870 227.842 -7.90066 2.10996
  871 352.855 54.9349 25.4883
  872 122.547 -1.21257 -28.2549
  873 122.431 -1.35559 28.1310
  874 245.087 -22.1456 10.3819
  875 23.6351 15.3865 -5.40367
  876 23.8690 15.3566 5.47048
  877 207.256 -14.7561 36.8522
  878 248.578 -15.8542 -2.65204
  879 309.974 -2.42256 25.9669
  880 305.363 -34.3851 11.5457
  881 349.989 -26.6624 -35.6185
  882 242.227 -23.3339 -21.1870
  883 201.366 -13.4550 -8.65000
  884 658.728 54.1519 -10.1533
  885 319.890 -33.9020 5.13310
  886 9.12905 10.4907 3.78220
  887 9.29613 10.5111 -3.69480
  888 277.978 -27.8467 5.59237
  889 304.919 -34.3465 -20.2136
  890 9.72557 9.16675 0.342032
  891 9.87220 9.16927 -0.275187
  892 114.630 -4.06497 21.4055
  893 114.700 -4.18828 -21.5334
  894 138.917 -7.01420 23.4900
  895 138.866 -7.18123 -23.6529
  896 439.991 88.2537 13.0266
  897 -0.652188 -13.6100 -6.50454
  898 -0.656878 -13.5937 6.49998
  899 100.962 8.54240 -31.2449
  900 100.467 8.36814 30.9372
  901 761.588 24.6804 -38.4840
  902 14.1052 -0.0752651 1.12267
  903 14.0404 -0.0777522 -1.13911
  904 1.32304 -36.7931 2.09432
  905 1.54414 -36.1741 -1.57145
  906 -14.5677 -0.181860 5.39172
  907 -14.5838 -0.177333 -5.38995
  908 80.6922 23.7235 -36.8099
  909 81.9421 22.9367 36.2873
  910 -6.37694 0.299500 -11.3668
  911 -6.40877 0.273951 11.3871
  912 23.0699 2.09018 -10.1621
  913 23.2137 2.06328 10.1770
  914 87.9411 -1.00098 19.7104
  915 87.8799 -0.996665 -19.8105
  916 71.7088 -2.44783 -15.8926
  917 71.7819 -2.44320 15.8669
  918 378.957 -1.40345 -6.13252
  919 184.438 39.2846 109.680
  920 254.816 -25.1227 12.2122
  921 180.865 -12.9273 12.0054
  922 349.007 35.9027 -46.5189
  923 748.919 16.0666 15.3472
  924 413.868 18.7947 -44.1080
  925 68.2810 -2.62001 9.90496
  926 68.2117 -2.59011 -9.94304
  927 11.9060 -0.387905 -7.29706
  928 12.0433 -0.391759 7.29671
  929 -0.255184 -6.46296 -12.3640
  930 -0.309586 -6.51665 12.4055
  931 186.940 -8.20254 5.27490
  932 187.037 -8.36395 -5.30236
  933 22.4360 6.10244 -8.99589
  934 22.5904 6.07492 9.04376
  935 113.762 -5.05464 -18.1468
  936 113.838 -5.05457 18.1343
  937 245.939 -1.09859 -23.7187
  938 117.373 -6.36684 -12.5504
  939 117.291 -6.29739 12.5918
  940 286.037 -7.97012 -0.915623
  941 346.113 -19.8652 -44.1616
  942 150.901 -6.08439 5.68030
  943 150.972 -6.14123 -5.75908
  944 -6.26343 -0.672834 -3.79895
  945 -6.24642 -0.674446 3.79088
  946 352.669 -27.2703 -57.2835
  947 337.594 -19.7946 27.9507
  948 296.120 -20.6584 -5.99947
  949 288.684 9.83514 42.6859
  950 131.031 -7.34289 -14.1393
  951 131.031 -7.20217 14.1835
  952 322.650 12.3075 51.6024
  953 301.157 26.2430 33.9764
  954 615.097 73.9922 12.9301
  955 315.055 -11.2581 5.87794
  956 165.577 -4.88911 -2.54943
  957 165.557 -4.79137 2.57155
  958 282.097 -23.0819 -1.07228
  959 390.483 71.6532 -21.6902
  960 345.124 -3.68176 -2.10824
  961 226.443 -5.48917 0.835801
  962 226.355 -5.44646 -0.770852
  963 28.7132 24.2212 -17.1291
  964 29.4430 24.1772 17.2609
  965 54.5157 138.056 -122.365
  966 323.219 -7.66805 39.0962
  967 402.697 -7.59703 -37.0407
  968 -6.85527 3.88515 2.14107
  969 -6.74955 3.88440 -2.08841
  970 818.931 194.133 -155.058
  971 344.763 -37.4981 3.96756
  972 367.729 -34.0436 -14.6867
  973 339.403 -29.0883 25.3981
  974 419.728 82.6491 8.99650
  975 30.2795 31.5794 -36.7979
  976 77.2902 119.303 120.066
  977 -2.04335 -4.74000 12.3517
  978 -2.00956 -4.70062 -12.3306
  979 330.267 -8.39570 6.01795
  980 530.241 93.8791 -11.2447
  981 31.1656 30.8545 38.2695
  982 -1.46135 -4.89395 -4.22434
  983 -1.46165 -4.88051 4.21346
  984 283.272 -6.53663 0.330188
  985 211.288 -16.7605 -16.3740
  986 342.051 -27.0445 -30.1729
  987 96.9455 26.0735 -48.7108
  988 98.5003 26.5043 48.8379
  989 332.175 -8.25141 -34.8731
  990 334.779 -10.5585 11.2171
  991 -8.94489 2.26513 9.99895
  992 -8.90007 2.28781 -9.96640
  993 201.773 -13.2941 -34.6457
  994 335.062 21.3511 -51.7916
  995 249.070 -9.26460 0.873917
  996 179.008 -5.05468 0.428426
  997 178.975 -5.08868 -0.407882
  998 -3.78217 -4.29330 -8.81785
  999 -3.78761 -4.30259 8.81081
  1000 339.307 -12.0464 -13.8196
  1001 323.079 -3.54429 0.368318
  1002 322.778 -3.54836 -0.236259
  1003 446.504 72.9113 -30.5008
  1004 80.2377 6.98212 -24.6013
  1005 80.4371 6.84264 24.5457
  1006 51.0712 -0.474897 -13.1646
  1007 51.1675 -0.485245 13.1483
  1008 367.690 19.5898 55.6773
  1009 348.028 -6.49279 -7.69046
  1010 61.1519 9.67661 -19.9982
  1011 61.3947 9.60390 20.0720
  1012 363.185 -1.89642 -1.25572
  1013 338.988 -14.6093 -21.0372
  1014 331.025 -37.3997 -14.0543
  1015 12.5792 10.7597 -0.184350
  1016 12.2275 10.7083 0.344100
  1017 -16.0724 2.62278 5.94268
  1018 -16.0143 2.63002 -5.90395
  1019 200.031 7.53980 -8.80112
  1020 572.880 141.977 -38.7868
  1021 261.494 -19.0015 -1.52278
  1022 172.780 -7.54268 -35.6663
  1023 419.868 -16.9171 3.70533
  1024 173.460 -7.53607 36.1675
  1025 300.778 -35.0116 23.6387
  1026 340.985 -14.0977 -31.6712
  1027 116.550 -2.69306 -0.785525
  1028 116.557 -2.64486 0.780161
  1029 232.698 -18.1323 -8.47490
  1030 142.455 -5.30180 -27.7514
  1031 142.400 -5.34207 27.6086
  1032 47.1410 30.8382 -30.0390
  1033 47.8912 30.7483 30.1291
  1034 97.9406 -3.10315 -2.79675
  1035 97.9463 -3.06434 2.75982
  1036 303.325 -9.54896 3.14141
  1037 255.938 1.02645 -90.1145
  1038 314.420 -10.1503 -5.84403
  1039 283.928 -31.3978 -14.1656
  1040 186.462 -7.81431 3.60088
  1041 186.616 -7.87351 -3.61298
  1042 368.124 -2.21581 1.58319
  1043 329.017 -7.75831 -5.64069
  1044 211.096 5.13309 16.6007
  1045 352.650 -3.48184 -14.2569
  1046 136.371 39.7776 87.7915
  1047 363.123 -3.35114 -11.6861
  1048 94.5925 15.9304 -36.6558
  1049 91.7605 16.1109 35.1565
  1050 433.937 -7.49192 -5.49883
  1051 39.0476 20.4081 -15.5758
  1052 39.4083 20.2612 15.5725
  1053 6.63459 -0.561615 3.92075
  1054 6.96887 -0.500085 -3.70051
  1055 55.7208 -1.48846 3.37455
  1056 55.6734 -1.49828 -3.41720
  1057 155.188 40.2655 -97.3107
  1058 845.327 219.941 166.878
  1059 338.191 -12.0411 14.1752
  1060 303.462 -34.0993 -10.3702
  1061 210.713 -17.3135 -26.7419
  1062 -4.38904 4.64369 8.69000
  1063 -4.30791 4.66918 -8.63556
  1064 237.883 -12.1772 1.97002
  1065 262.467 -9.66982 -0.0202424
  1066 -0.131219 -19.2905 6.27568
  1067 -0.124658 -19.3092 -6.27389
  1068 39.3003 24.4018 -18.5624
  1069 39.7692 24.3559 18.6741
  1070 234.700 -11.1876 -1.87478
  1071 18.3297 8.55918 5.63655
  1072 18.1763 8.57096 -5.57496
  1073 358.726 -14.2192 51.2005
  1074 259.587 -26.8765 -23.0002
  1075 211.970 -17.5926 26.7405
  1076 341.565 -6.90361 -53.8874
  1077 360.763 -3.88768 5.58063
  1078 130.409 20.0592 58.8406
  1079 131.346 19.1989 -57.8577
  1080 210.470 -10.2097 -49.5066
  1081 298.265 -10.6116 -3.19478
  1082 242.328 -14.5087 3.90241
  1083 284.011 -26.4990 -0.857514
  1084 390.035 -1.36109 -3.18066
  1085 210.196 -9.60567 3.80313
  1086 210.104 -10.1607 -3.92195
  1087 7.02983 8.25468 7.05848
  1088 7.20295 8.31569 -6.95909
  1089 344.286 12.6507 -55.6784
  1090 77.0440 3.92883 -21.7172
  1091 77.2495 3.84216 21.6568
  1092 57.7738 1.13806 -15.5499
  1093 57.8985 1.10575 15.5213
  1094 393.185 -15.8417 72.0999
  1095 340.577 -15.6797 31.2175
  1096 166.446 -7.62436 -30.2401
  1097 396.365 -1.54926 -1.90061
  1098 444.415 83.9837 -23.0381
  1099 360.115 -3.38670 -3.51542
  1100 337.460 -36.3906 11.2841
  1101 249.640 -18.9935 43.4066
  1102 398.982 -0.471312 0.357008
  1103 210.698 6.57385 -14.0777
  1104 285.995 -30.5748 -6.55111
  1105 166.712 -7.97139 29.9078
  1106 288.661 -26.2717 -0.801927
  1107 360.185 -5.10156 10.4705
  1108 257.846 16.3065 21.9308
  1109 179.042 -13.1391 -24.0813
  1110 543.875 77.6517 -32.2360
  1111 408.864 18.4694 46.3079
  1112 305.043 38.2203 5.37781
  1113 394.661 0.0727891 1.68378
  1114 155.350 -9.67710 -18.4203
  1115 106.031 65.4909 -97.7788
  1116 189.670 5.09779 -70.3687
  1117 217.597 -16.6837 11.5757
  1118 183.755 -13.7334 22.5603
  1119 154.975 -9.20125 18.6102
  1120 327.419 2.81964 54.1582
  1121 247.354 -8.58874 -0.584231
  1122 389.014 -2.86770 4.28049
  1123 -3.09834 -0.257628 12.3417
  1124 -3.05176 -0.218207 -12.3106
  1125 259.116 -7.37073 0.0955020
  1126 -0.282081 2.92597 11.1634
  1127 -0.197947 2.97747 -11.1042
  1128 145.341 -4.55822 3.22162
  1129 145.353 -4.63126 -3.22574
  1130 366.382 -1.96097 9.70101
  1131 294.418 -17.9933 -4.95994
  1132 275.755 -14.7081 -1.43503
  1133 308.451 -21.5780 10.2092
  1134 93.9815 46.7027 -72.9018
  1135 302.389 -11.4129 4.22336
  1136 44.9923 0.850199 -12.7524
  1137 45.1106 0.827786 12.7420
  1138 62.9101 40.5415 -51.2974
  1139 483.545 63.4537 14.8903
  1140 34.3864 -1.59124 7.43426
  1141 34.2753 -1.57823 -7.44672
  1142 64.0463 39.9146 49.5363
  1143 276.823 -23.1505 -0.0432944
  1144 139.986 -6.51798 7.02351
  1145 140.010 -6.54846 -7.14027
  1146 564.934 119.623 -31.7402
  1147 305.035 -30.5564 2.03507
  1148 104.411 61.2819 97.5726
  1149 8.93966 -2.11114 -8.16102
  1150 9.63347 -1.99393 8.97914
  1151 321.266 40.2811 27.2126
  1152 24.0343 13.0241 -5.70929
  1153 24.2293 13.0277 5.76531
  1154 307.050 -26.6938 -8.05207
  1155 -0.141924 -29.8094 -5.88756
  1156 -0.155874 -29.8144 5.91437
  1157 328.209 -27.6988 -17.8094
  1158 -5.24452 0.400854 2.48002
  1159 -5.40706 0.403378 -2.48588
  1160 50.1772 18.6815 -20.0777
  1161 50.4494 18.7619 19.8944
  1162 -16.8812 0.0395530 -3.03739
  1163 -16.7118 0.0383172 3.04027
  1164 327.999 -3.57052 -0.471167
  1165 -32.7258 0.962597 0.520847
  1166 -32.6358 0.962080 -0.499599
  1167 173.153 -13.5794 -17.7723
  1168 4.60621 -42.8042 -4.40641
  1169 86.7683 -2.45854 5.35604
  1170 86.7387 -2.46740 -5.41632
  1171 278.614 -5.31546 0.406329
  1172 279.144 -5.17601 -0.351888
  1173 4.94681 -40.7976 5.41401
  1174 330.385 -17.2228 -17.6162
  1175 377.339 -1.74010 7.14437
  1176 335.648 -21.5012 -25.7722
  1177 292.827 2.16181 42.3514
  1178 1.56271 -11.9566 9.05627
  1179 1.70677 -11.8665 -8.90657
  1180 214.557 -15.5772 9.21092
  1181 -14.7008 1.34378 7.98411
  1182 -14.6735 1.35520 -7.96023
  1183 557.318 88.6793 5.92239
  1184 651.307 203.740 -143.436
  1185 343.166 -33.3583 22.0509
  1186 141.625 -4.12011 -0.453669
  1187 141.633 -4.06917 0.454057
  1188 703.026 68.2165 -62.9152
  1189 50.1059 -1.30833 7.72067
  1190 50.0160 -1.28823 -7.75080
  1191 320.468 -1.04693 -16.7933
  1192 205.826 -16.6269 20.1060
  1193 339.461 -33.2794 -16.0388
  1194 328.531 -23.8800 -20.1258
  1195 200.476 -7.06741 51.9041
  1196 74.2173 13.8081 -27.7244
  1197 74.1762 13.6853 27.5668
  1198 97.8128 36.2211 -61.9537
  1199 97.9425 33.5181 61.9553
  1200 27.9668 8.15864 -9.52392
  1201 28.1335 8.13415 9.58204
  1202 405.143 70.2265 -31.7153
  1203 20.9507 19.1607 -8.58025
  1204 21.4405 19.1882 8.72718
  1205 292.294 -22.3654 4.23781
  1206 546.472 80.4493 36.2226
  1207 69.4428 -2.90068 -5.27773
  1208 69.4924 -2.89953 5.22437
  1209 355.301 247.951 -213.179
  1210 273.406 16.2215 -33.8486
  1211 251.028 19.2675 13.8177
  1212 34.8214 14.6622 -11.2700
  1213 34.9874 14.6620 11.3329
  1214 6.97876 -0.0668832 1.81567
  1215 6.87025 -0.0667698 -1.83166
  1216 323.796 -25.9983 16.6226
  1217 318.432 -12.7456 8.81125
  1218 218.091 61.8271 -152.622
  1219 502.107 109.595 -5.20644
  1220 215.788 -6.55600 -57.1798
  1221 279.689 -8.60409 0.598746
  1222 14.1325 -1.39189 -0.425437
  1223 14.1597 -1.39090 0.422966
  1224 -7.22956 2.19238 -4.12365
  1225 -7.09399 2.18326 4.15555
  1226 187.568 2.03895 -60.1020
  1227 345.623 -7.58472 9.89127
  1228 224.722 4.12349 82.1676
  1229 304.445 -15.0502 -6.68158
  1230 157.156 55.9755 -120.080
  1231 244.238 -11.9071 -61.7535
  1232 290.870 -31.0576 4.91614
  1233 356.161 -5.62644 15.7779
  1234 312.405 -6.53851 -2.43162
  1235 172.420 -12.7439 17.8761
  1236 391.882 -22.0435 -28.7822
  1237 371.708 32.2337 52.7317
  1238 161.871 0.761855 -47.4657
  1239 370.353 -2.31083 1.22514
  1240 297.406 37.0120 -7.67476
  1241 128.997 -4.49556 -5.25140
  1242 128.972 -4.44798 5.19232
  1243 567.515 130.996 31.9646
  1244 775.950 20.6221 36.0484
  1245 0.692413 -36.3949 -5.84853
  1246 0.669990 -36.4361 5.89377
  1247 83.6796 44.1903 68.1783
  1248 200.241 -5.86025 -1.05420
  1249 200.284 -5.82437 1.12911
  1250 274.400 -27.6063 -7.15812
  1251 327.195 26.8020 46.9185
  1252 342.857 -6.74999 -6.35429
  1253 398.510 -1.05659 -0.335756
  1254 690.000 153.240 -96.5661
  1255 107.158 -4.04030 5.41563
  1256 107.148 -4.04936 -5.48851
  1257 328.544 -30.5019 17.0363
  1258 577.069 140.948 -43.4117
  1259 318.625 -13.9004 -9.93583
  1260 232.638 -16.1703 -6.29973
  1261 285.789 -31.0674 13.7998
  1262 279.447 -13.9751 2.06070
  1263 10.3479 2.28496 -12.9849
  1264 382.257 -23.2413 34.3097
  1265 309.648 -20.2507 -9.96357
  1266 11.4038 2.82061 14.3820
  1267 318.430 -25.4550 -57.9403
  1268 301.088 18.7543 -124.827
  1269 495.538 63.2022 -10.1194
  1270 400.070 -0.283589 -0.125694
  1271 399.358 -0.653504 0.358758
  1272 314.986 -18.3758 10.8136
  1273 121.173 14.4423 -46.7326
  1274 358.811 -31.9325 27.7151
  1275 610.187 139.482 63.8715
  1276 150.702 51.7774 116.980
  1277 4.19924 0.507783 9.23645
  1278 4.35823 0.585225 -9.12669
  1279 377.019 -30.3998 -31.0823
  1280 151.473 -8.25342 -8.41311
  1281 151.445 -8.27457 8.25767
  1282 351.048 -23.1544 42.3516
  1283 12.6109 0.0972968 8.12139
  1284 12.4739 0.104188 -8.11868
  1285 -1.93151 -7.34525 10.1619
  1286 -1.91842 -7.32947 -10.1634
  1287 62.1274 -2.14415 -7.04189
  1288 62.1949 -2.15686 6.99589
  1289 184.430 -12.3038 -27.3867
  1290 185.760 -6.13133 1.57752
  1291 185.754 -6.26613 -1.50737
  1292 398.613 -0.275153 0.0430599
  1293 353.997 -5.43911 -17.7504
  1294 28.6003 1.31891 -10.1879
  1295 28.7333 1.29903 10.1915
  1296 185.167 -13.0170 27.1642
  1297 402.483 -0.411285 0.143888
  1298 380.254 -0.355203 -0.425541
  1299 380.242 -0.583531 0.327923
  1300 502.314 105.831 5.51980
  1301 370.518 -2.51155 -2.79805
  1302 329.001 -3.36910 0.353885
  1303 364.495 -5.51177 -9.25804
  1304 396.516 -1.27259 1.29718
  1305 413.212 42.5539 45.8960
  1306 478.786 99.4100 11.8503
  1307 385.194 -1.52332 -4.73076
  1308 -3.15764 -0.806756 2.83711
  1309 -3.17024 -0.806164 -2.84575
  1310 213.745 -13.4606 6.28042
  1311 213.703 -12.8660 -6.09420
  1312 416.979 47.2037 -43.6687
  1313 86.7474 29.9107 -51.1572
  1314 87.3064 29.0898 50.6005
  1315 281.227 0.0190571 -21.1756
  1316 289.460 -4.64557 -0.235142
  1317 289.106 -4.60756 0.174999
  1318 -6.97933 -1.16485 10.3453
  1319 -6.96656 -1.14610 -10.3412
  1320 321.443 -0.834185 16.7650
  1321 488.990 97.2394 -1.09606
  1322 34.3370 -1.31737 -4.43906
  1323 34.4228 -1.32045 4.40320
  1324 361.223 -34.7263 15.1924
  1325 0.564018 5.96260 8.86518
  1326 0.669265 5.99882 -8.79730
  1327 66.3581 -1.50829 -1.45578
  1328 66.3826 -1.48453 1.43187
  1329 281.302 -0.424766 21.4972
  1330 10.9923 0.609549 -0.675479
  1331 11.0438 0.611878 0.663436
  1332 367.623 -4.26510 5.98100
  1333 512.093 93.3439 4.77800
</Section>

newXOutput 47

<Section columns = "stress_xx | stress_yy | stress_xy">
  1 417.402 -1.07962 0.758365
  2 418.066 -1.39606 -0.985094
  3 7.14628 0.392669 -1.08445
  4 -0.295681 -0.450485 -0.291568
  5 766.753 305.376 250.291
  6 778.572 349.674 -252.945
  7 -0.292421 -0.447634 0.287348
  8 7.11898 0.390471 1.08189
  9 420.258 -0.762893 -0.691290
  10 417.126 -1.42945 -0.996815
  11 417.420 -1.11205 0.929640
  12 415.344 -0.579533 0.413143
  13 414.504 -1.34083 -0.248257
  14 413.818 -1.28668 1.66164
  15 407.752 -0.897564 1.60238
  16 409.320 -2.94406 2.42608
  17 396.480 -2.43564 5.20633
  18 388.313 -1.06503 6.25901
  19 377.067 -1.32105 6.74951
  20 357.554 -1.17009 9.42612
  21 336.320 -1.00442 10.9423
  22 309.831 1.37432 15.0004
  23 273.568 2.12577 13.5804
  24 259.031 -0.143530 19.4383
  25 213.818 3.04924 13.8245
  26 186.351 4.02482 10.8305
  27 179.198 1.92677 7.98516
  28 171.526 5.87861 0.587111
  29 175.723 6.35395 -10.6773
  30 184.172 1.81072 -13.4061
  31 217.934 0.766796 -17.9061
  32 252.004 -1.70959 -18.6025
  33 274.868 1.76110 -13.5587
  34 310.225 1.56523 -15.0056
  35 335.444 -1.19361 -11.7269
  36 359.710 -1.33457 -8.89562
  37 375.552 -0.955570 -6.85416
  38 387.141 -1.12898 -5.74364
  39 399.549 -1.40721 -3.32999
  40 404.412 -1.42165 -3.18665
  41 409.148 -1.34641 -2.80519
  42 413.965 -1.53821 -0.559241
  43 415.822 -1.96038 -1.15919
  44 413.421 0.151337 -0.0779115
  45 416.940 -1.01011 -1.04851
  46 418.756 -2.11318 1.08693
  47 420.779 -1.20688 -0.0530905
  48 399.517 0.287719 -0.630140
  49 375.703 -1.53698 -1.18619
  50 348.775 -3.58746 -1.71321
  51 320.935 -2.97663 -1.24566
  52 296.681 -4.87256 -1.14591
  53 271.103 -5.30249 -1.04814
  54 245.327 -4.63606 -0.522333
  55 218.245 -4.98230 -0.714634
  56 195.358 -5.32591 -0.937731
  57 164.935 -5.10683 -0.766914
  58 133.642 -3.20414 -0.490898
  59 107.775 -2.05420 -0.391534
  60 75.8534 -1.29587 -0.165367
  61 52.6680 -1.26987 -1.59956
  62 31.1282 -1.76519 -0.530344
  63 9.40540 0.201877 0.979708
  64 3.77238 1.51721 0.375582
  65 2.17814 0.617705 1.02688
  66 2.97200 0.279117 1.01378
  67 -1.50602 0.873513 0.451391
  68 -3.24466 1.14229 2.11785
  69 -3.97394 0.399150 0.772944
  70 -11.5625 0.846107 0.848720
  71 -15.1371 0.587908 2.03739
  72 -16.5869 0.198125 2.13984
  73 -24.9067 0.796208 1.67963
  74 -28.0598 1.18969 3.15562
  75 -31.5694 0.721880 1.17336
  76 -35.6457 0.524505 1.71844
  77 -37.3132 0.560797 0.712356
  78 -41.2529 1.35442 -0.865488
  79 -41.7746 0.928378 -0.642091
  80 -38.1223 0.703175 -1.27967
  81 -32.7918 0.916853 -2.49294
  82 -26.6747 0.405623 -3.81520
  83 -19.8956 0.222882 -3.98556
  84 -11.9495 -0.403673 -4.18290
  85 -5.19725 -0.322968 -2.44560
  86 -2.18100 -0.865066 -1.52759
  87 -0.364956 -2.19468 -1.32256
  88 -0.614358 -5.60775 -2.35282
  89 -0.699406 -10.9748 -4.12790
  90 -0.138841 -20.5467 -4.45458
  91 0.248640 -28.4015 -5.58954
  92 0.580905 -40.8219 -4.55840
  93 1.75315 -48.4126 -5.36768
  94 0.305692 -52.0667 -4.41591
  95 -0.0697758 -59.5872 -2.60080
  96 1.65926 -57.5450 -0.534027
  97 6.72610 -74.4989 3.31935
  98 6.03500 -39.2497 10.7325
  99 14.3298 -15.6729 23.5207
  100 42.9496 72.4119 72.9837
  101 182.359 237.418 206.360
  102 1004.54 107.189 149.111
  103 840.174 29.7118 53.4789
  104 799.881 12.6737 18.4165
  105 777.500 8.30968 -0.0981937
  106 791.740 12.0722 -15.1271
  107 848.060 25.3719 -44.2874
  108 994.044 85.1173 -138.870
  109 118.325 269.176 -170.778
  110 30.1693 53.4301 -56.4685
  111 10.5583 -22.7555 -19.5430
  112 5.46764 -43.4129 -9.23117
  113 6.69056 -77.4749 -2.59210
  114 1.58626 -58.8661 1.04924
  115 -0.167447 -60.2490 2.86950
  116 0.243383 -52.3228 4.56001
  117 1.71925 -48.4733 5.42867
  118 0.567868 -40.7997 4.58100
  119 0.238745 -28.3616 5.59775
  120 -0.143677 -20.4961 4.45199
  121 -0.700038 -10.9425 4.11921
  122 -0.615690 -5.57981 2.34464
  123 -0.364711 -2.18421 1.31530
  124 -2.16841 -0.863883 1.52154
  125 -5.17494 -0.324406 2.43908
  126 -11.9210 -0.407061 4.17907
  127 -19.8628 0.219165 3.98656
  128 -26.6569 0.401576 3.82238
  129 -32.8006 0.913995 2.50687
  130 -38.1585 0.702975 1.29460
  131 -41.8459 0.927586 0.656619
  132 -41.3532 1.35435 0.880565
  133 -37.4463 0.562287 -0.699305
  134 -35.8033 0.526333 -1.70887
  135 -31.7389 0.723950 -1.16586
  136 -28.2427 1.19214 -3.15271
  137 -25.0942 0.798484 -1.67722
  138 -16.7714 0.199511 -2.14051
  139 -15.3216 0.590293 -2.04054
  140 -11.7380 0.849467 -0.853357
  141 -4.12771 0.401392 -0.781540
  142 -3.37625 1.14456 -2.13054
  143 -1.61809 0.874113 -0.462656
  144 2.88978 0.278673 -1.02469
  145 2.11815 0.616593 -1.03563
  146 3.72708 1.51526 -0.383193
  147 9.37271 0.200619 -0.984138
  148 31.0981 -1.77164 0.525738
  149 52.6400 -1.28623 1.59447
  150 75.8330 -1.32497 0.158689
  151 107.765 -2.09632 0.388040
  152 133.632 -3.25304 0.490310
  153 164.916 -5.14917 0.773478
  154 195.309 -5.34705 0.951527
  155 218.163 -4.95600 0.747369
  156 245.210 -4.53939 0.560110
  157 270.941 -5.07425 0.990779
  158 296.808 -4.93746 1.00655
  159 321.030 -3.38110 1.31470
  160 349.050 -3.51298 1.55990
  161 376.455 -1.31969 1.20254
  162 398.847 0.263673 0.612321
  163 231.829 -20.9014 -19.1490
  164 230.894 -21.2808 19.1042
  165 69.5351 19.2190 -27.8686
  166 70.2231 19.2899 27.7473
  167 273.729 -13.1034 70.8561
  168 286.977 -14.8172 -68.9483
  169 134.070 -7.04693 8.81659
  170 134.056 -6.97704 -8.94484
  171 292.454 -10.2251 1.61644
  172 286.573 -10.2542 -1.51735
  173 389.839 70.3057 -9.89470
  174 395.665 2.77704 -50.4468
  175 387.780 5.82159 54.2335
  176 93.1027 -3.51550 -18.7130
  177 93.1071 -3.48926 18.6744
  178 341.960 -33.8734 17.9786
  179 341.589 -26.3011 -25.2401
  180 4.66826 7.91290 8.30411
  181 4.80929 7.96390 -8.22038
  182 467.141 95.0378 14.9650
  183 89.9467 40.2277 -63.2686
  184 96.5360 40.6103 67.8702
  185 330.716 -15.4320 11.8668
  186 496.122 104.083 -6.80623
  187 214.145 -7.78885 -2.48827
  188 213.797 -7.99201 2.46545
  189 340.056 -10.7217 -10.8262
  190 452.966 -2.79546 -6.35093
  191 83.7212 -2.51542 3.35393
  192 83.6964 -2.53748 -3.40283
  193 35.8475 4.57901 -12.5827
  194 36.0111 4.53200 12.6118
  195 190.943 -7.30894 -44.3331
  196 190.196 -7.71103 44.9046
  197 228.098 -14.7972 -6.63523
  198 228.554 -14.7144 7.08029
  199 59.3685 -2.07876 9.93072
  200 59.2833 -2.05042 -9.95366
  201 448.068 -7.85849 29.4463
  202 366.312 -36.0982 -7.45016
  203 348.044 -3.55920 -1.66876
  204 340.263 -4.32509 1.70361
  205 345.366 40.5016 38.3026
  206 14.7576 12.6436 -4.78242
  207 15.2962 12.6176 5.02208
  208 344.462 -13.8668 44.5625
  209 317.004 24.1977 -43.8205
  210 225.669 51.0841 -145.545
  211 237.290 43.1452 135.217
  212 5.95623 7.60101 -0.885374
  213 6.09041 7.59919 0.949332
  214 343.345 -12.2296 -46.0424
  215 597.090 83.6436 -5.65914
  216 285.372 -31.1121 25.2992
  217 287.529 -30.9356 -23.9202
  218 285.209 -20.3681 -1.68065
  219 353.702 -5.60830 5.77363
  220 171.259 -11.7339 -16.3544
  221 168.565 -11.6864 16.8670
  222 102.906 2.11252 -28.2608
  223 103.052 2.07233 28.0200
  224 362.965 -38.3290 -4.14511
  225 282.835 -21.6530 0.461126
  226 352.443 -5.47386 -4.52707
  227 274.457 -7.09924 0.0824230
  228 276.851 -6.62089 0.438033
  229 347.856 -15.5281 25.6843
  230 30.0384 0.286465 -10.5920
  231 30.1658 0.272522 10.5900
  232 -4.39215 -2.94740 -11.7872
  233 -4.41480 -2.97533 11.7970
  234 53.3593 -2.32200 -5.74279
  235 53.4310 -2.32759 5.69612
  236 147.090 -4.40264 3.91736
  237 147.124 -4.48097 -3.94869
  238 169.249 11.7264 -64.8793
  239 169.269 9.78090 64.1444
  240 352.787 -11.0003 -21.9653
  241 165.766 -9.66630 -26.7510
  242 165.906 -9.96168 26.3691
  243 311.085 4.77591 49.5490
  244 272.122 23.3745 2.99936
  245 302.814 -30.1784 -1.11699
  246 1.36214 -7.35995 -10.7066
  247 1.26047 -7.44050 10.7952
  248 19.5295 19.9989 -21.8539
  249 20.7861 19.3027 22.9686
  250 297.757 -29.5225 -0.869731
  251 536.834 100.750 -7.62431
  252 28.0103 18.9199 -9.26561
  253 28.3474 18.9118 9.37578
  254 -11.4111 2.50522 8.00202
  255 -11.3526 2.51825 -7.96164
  256 539.614 94.3647 10.6514
  257 188.855 -9.10781 -6.36874
  258 188.711 -8.96188 6.23895
  259 369.774 -24.9549 41.2258
  260 667.368 108.589 67.2689
  261 110.689 -5.82851 -15.3590
  262 110.666 -5.86953 15.3431
  263 377.101 56.4304 -36.6267
  264 644.039 122.382 -61.2584
  265 450.371 45.1623 35.0150
  266 489.047 31.0908 -91.5866
  267 302.852 -14.3587 4.59198
  268 344.611 1.64761 -55.5716
  269 326.298 -23.0527 -14.3983
  270 363.615 -6.53734 13.9130
  271 0.160994 3.47893 -3.86124
  272 0.295488 3.46788 3.90669
  273 360.098 -11.7991 -88.6001
  274 38.8334 11.8851 -12.6953
  275 39.0192 11.8635 12.7647
  276 348.882 -8.44423 -28.1612
  277 50.2168 51.9565 -65.7271
  278 41.9922 -0.200000 -1.32655
  279 42.0293 -0.190853 1.30635
  280 368.418 -22.8693 -43.0217
  281 64.9238 29.1590 -35.1658
  282 65.8618 29.0012 35.2646
  283 18.8166 -0.580508 7.39990
  284 18.6829 -0.573319 -7.40559
  285 302.406 -13.6355 -4.47334
  286 50.5669 51.3999 67.4932
  287 480.936 37.2015 107.335
  288 131.821 -5.23994 -5.31946
  289 131.796 -5.20641 5.24277
  290 241.725 -10.0682 -2.22957
  291 241.606 -10.8936 2.50442
  292 206.360 19.9309 -98.5706
  293 332.614 -36.4130 -5.33354
  294 378.643 -2.36237 2.54487
  295 198.762 19.9199 95.3665
  296 231.451 -6.36360 -0.741137
  297 231.362 -6.35912 0.940178
  298 326.823 -23.9871 14.6708
  299 375.443 -4.01584 -6.53465
  300 -2.36312 1.39881 -5.76542
  301 -2.21484 1.38834 5.78678
  302 471.863 93.8467 -4.04848
  303 413.234 -19.1259 21.8993
  304 373.038 -2.00066 -0.665573
  305 379.552 -1.74337 0.602758
  306 372.236 -32.6599 31.9028
  307 459.105 48.2085 -32.4862
  308 401.542 74.6823 21.0299
  309 180.352 -11.0761 -10.2745
  310 178.716 -11.2779 10.4761
  311 378.207 -2.29885 -1.69599
  312 248.386 -18.7545 -48.5957
  313 244.382 -19.3102 8.44893
  314 232.996 -12.6934 55.4037
  315 372.240 -4.51810 7.81791
  316 84.5553 -3.88402 -9.58259
  317 84.6109 -3.91247 9.53991
  318 343.161 -11.3062 87.5600
  319 217.941 -17.2579 -12.7851
  320 400.848 51.4782 45.8472
  321 127.773 8.97997 -42.0736
  322 123.025 9.38864 41.7273
  323 37.3017 -0.784414 -2.40871
  324 37.3615 -0.779158 2.37658
  325 328.860 -6.74204 3.32599
  326 315.389 -4.61014 0.440381
  327 313.621 -5.03849 -0.547899
  328 346.304 -8.89282 29.8406
  329 29.9871 -1.11286 5.51974
  330 29.8740 -1.10247 -5.54535
  331 101.008 -2.41960 -2.00054
  332 101.016 -2.37970 1.97914
  333 3.33897 -15.5854 -5.91841
  334 3.11948 -15.7123 6.18006
  335 269.439 11.6591 33.6403
  336 417.229 -17.9128 -17.7491
  337 270.027 -14.4219 0.837156
  338 305.231 -6.26882 -1.66555
  339 319.541 39.7135 -20.5906
  340 62.5909 -2.00611 -13.8786
  341 62.6721 -2.00759 13.8662
  342 262.569 -13.6058 0.534732
  343 74.4217 2.51262 -19.9593
  344 74.5633 2.44838 19.8970
  345 14.5219 12.1972 -0.242953
  346 14.6997 12.1952 0.318536
  347 319.248 -34.1972 32.5583
  348 706.546 46.5963 18.1307
  349 284.174 4.29578 -39.8286
  350 237.492 -21.2863 29.8469
  351 236.284 -20.8566 -30.7506
  352 350.361 -5.91184 55.0046
  353 311.633 -2.25559 39.3284
  354 315.103 -33.0648 -33.6113
  355 187.777 -4.86959 0.334313
  356 187.748 -4.92584 -0.287703
  357 348.562 -22.7571 33.6400
  358 477.338 95.0188 2.11528
  359 374.132 -4.27432 -10.2832
  360 96.2230 -3.69645 -6.93098
  361 96.2625 -3.69962 6.86103
  362 352.352 -33.3302 -40.4452
  363 370.276 25.8740 -54.8243
  364 248.182 13.3448 -21.5966
  365 351.026 -23.4275 -38.4925
  366 -11.4275 0.409985 -9.09131
  367 -11.4401 0.395918 9.10311
  368 294.847 -7.13049 0.945603
  369 -4.19236 -2.49461 -5.44043
  370 -4.18727 -2.49543 5.42916
  371 227.926 114.198 -177.067
  372 9.18321 8.17431 5.57226
  373 9.41132 8.23894 -5.45009
  374 309.256 -2.38130 -39.0042
  375 170.614 -7.32377 4.79875
  376 170.735 -7.42141 -4.85253
  377 -1.15012 -12.3680 10.3563
  378 -1.13101 -12.3453 -10.3455
  379 185.341 119.708 166.734
  380 139.725 -7.44267 -20.9025
  381 139.835 -7.12413 20.9185
  382 44.6316 32.9176 -32.5547
  383 45.5691 32.8266 32.3676
  384 -17.3552 2.67979 3.17223
  385 -17.2750 2.68403 -3.12897
  386 357.280 23.8316 54.9491
  387 273.978 -28.6806 14.1865
  388 274.267 -25.0361 5.63134
  389 332.253 -37.7037 -4.69412
  390 83.3194 10.3867 -27.7031
  391 83.5972 10.3677 27.6604
  392 7.45665 -10.5448 0.968639
  393 7.05250 -10.7182 -0.392401
  394 336.634 48.0845 13.5448
  395 338.787 -9.79583 8.84929
  396 193.939 -15.0657 19.2455
  397 120.056 -3.04783 -25.0183
  398 120.102 -3.07018 24.8302
  399 247.218 -7.60593 -0.911807
  400 246.952 -6.69198 0.702033
  401 192.317 -15.4697 -20.4321
  402 150.408 -2.56145 -33.8430
  403 150.385 -2.76877 34.1122
  404 353.187 -32.3557 -23.3993
  405 205.211 -15.8164 12.1031
  406 321.311 -9.91391 5.21859
  407 320.711 -9.04815 -4.34107
  408 269.221 -24.8529 -6.59829
  409 386.085 -1.76127 -2.69931
  410 129.968 52.7600 -100.099
  411 363.392 -5.29938 17.1025
  412 384.956 -2.09137 4.04675
  413 137.474 -7.38424 12.5764
  414 137.534 -7.28414 -12.5664
  415 272.747 -28.3375 -14.6607
  416 39.0792 17.3473 13.6749
  417 38.8688 17.3351 -13.6864
  418 713.775 46.5616 -37.0491
  419 314.940 -18.0576 -8.15623
  420 388.747 -1.43721 1.55486
  421 122.741 49.2620 95.3411
  422 574.106 96.6434 18.7193
  423 337.741 -5.26608 -2.64358
  424 252.705 -18.3992 -5.15881
  425 105.502 20.3690 -47.5328
  426 112.421 18.8785 47.2491
  427 311.173 -19.8005 8.22254
  428 330.037 -4.25949 -28.9059
  429 -2.17134 -0.308875 5.54877
  430 -2.32692 -0.305392 -5.54520
  431 119.236 28.7315 -63.7457
  432 119.616 28.8355 63.5500
  433 14.3095 6.60239 -5.90688
  434 14.4584 6.58788 5.96358
  435 279.221 -5.55972 0.510670
  436 278.885 -5.41851 -0.416296
  437 347.349 -15.8767 -26.8595
  438 -0.897936 -0.931072 12.6391
  439 -0.835683 -0.875924 -12.5924
  440 357.797 -35.2271 20.3987
  441 338.359 -9.16125 -7.80405
  442 546.672 104.622 -16.5046
  443 22.1766 -0.996838 2.60744
  444 22.0790 -0.997028 -2.63540
  445 657.479 186.220 83.8053
  446 13.3232 6.13171 -19.8068
  447 40.9905 1.94924 -13.5380
  448 41.1264 1.91761 13.5360
  449 655.777 190.520 -80.7534
  450 14.1248 7.60621 21.7841
  451 -16.6747 2.06878 0.771537
  452 -16.5712 2.06549 -0.730607
  453 36.7595 25.1607 -19.1397
  454 37.3935 25.1708 19.2438
  455 427.694 67.1419 -37.5603
  456 343.415 -13.4937 -17.2561
  457 386.686 -1.52280 -1.36793
  458 358.793 -5.53210 -20.0833
  459 -4.11474 2.66255 11.5545
  460 -4.05134 2.69800 -11.5105
  461 346.979 -14.0505 20.1309
  462 225.607 -12.7716 -5.26773
  463 224.916 -12.9016 4.51147
  464 306.090 -33.7409 -5.38098
  465 218.469 -2.94007 -67.9275
  466 333.307 -5.10953 29.5306
  467 272.641 -8.95845 0.0870186
  468 400.260 -29.7409 -5.24851
  469 211.641 1.99164 72.8300
  470 16.5295 -0.310786 5.35764
  471 16.3936 -0.304467 -5.36965
  472 439.490 86.8720 -16.7519
  473 351.334 -2.75046 0.156540
  474 350.133 -3.09756 -0.474987
  475 265.416 -17.7954 2.11680
  476 116.221 -3.95614 -3.87784
  477 116.214 -3.90974 3.83011
  478 68.6287 -0.836268 -16.4400
  479 68.7088 -0.849858 16.4069
  480 223.623 8.65871 12.9184
  481 56.5117 -1.89499 7.93801
  482 56.4307 -1.87692 -7.97815
  483 60.2629 5.72860 18.5293
  484 60.0631 5.81348 -18.5139
  485 340.991 -26.4112 24.2425
  486 190.986 -11.8908 -31.8159
  487 176.339 -5.77898 2.49953
  488 176.403 -5.91976 -2.50392
  489 193.000 -12.2637 31.8082
  490 532.388 126.618 -11.8110
  491 -8.51220 -1.27874 -7.04889
  492 -8.50763 -1.28547 7.04497
  493 134.151 -3.80338 -1.61303
  494 134.150 -3.74602 1.60627
  495 0.172611 -22.8063 -8.60820
  496 0.116864 -22.8810 8.68463
  497 311.282 -4.82079 0.912046
  498 222.256 10.5638 -6.42998
  499 298.509 31.2749 18.5122
  500 189.754 -1.77600 -54.1645
  501 93.1684 -4.78248 12.0280
  502 93.1579 -4.74213 -12.0492
  503 -23.5158 0.762094 -1.92103
  504 -23.3739 0.757484 1.93977
  505 368.222 -6.79600 -54.4718
  506 29.9697 0.171966 -1.76177
  507 30.0202 0.176682 1.73870
  508 306.535 -24.2053 -6.56036
  509 326.637 -27.8476 -13.8580
  510 67.0375 51.2836 -67.8975
  511 274.528 7.74782 -106.947
  512 3.70248 8.29127 5.30530
  513 3.83425 8.30889 -5.23207
  514 168.081 -7.82399 -6.92954
  515 167.997 -7.75296 6.78064
  516 471.269 20.1910 -10.1859
  517 339.605 -20.0948 -22.0137
  518 65.3614 48.5252 66.9471
  519 336.472 -38.0426 9.93983
  520 323.630 -30.7699 10.6303
  521 69.2371 -1.68434 -5.21391
  522 69.2810 -1.67756 5.16204
  523 266.368 2.90450 30.8468
  524 192.447 -14.2109 -12.8072
  525 358.045 -8.02616 12.5260
  526 -1.45793 -8.70013 -6.84931
  527 -1.46156 -8.69337 6.83948
  528 251.210 -22.1935 35.6588
  529 381.863 -29.0907 -27.8540
  530 497.617 35.3092 -18.4687
  531 269.361 -9.27696 0.0388277
  532 80.4550 -1.50538 -1.52119
  533 80.4730 -1.47625 1.50700
  534 170.669 1.43862 52.1854
  535 475.793 80.0358 24.6824
  536 482.729 96.2094 -169.119
  537 433.525 2.70438 26.3232
  538 312.157 -34.6616 3.71705
  539 735.956 58.5382 49.6766
  540 545.250 132.422 16.8524
  541 77.4284 -3.23385 13.1297
  542 77.3704 -3.20149 -13.1522
  543 300.106 -24.9146 4.67548
  544 22.6315 10.7774 -5.51286
  545 22.8009 10.7712 5.57991
  546 377.186 -31.2332 27.8770
  547 308.860 16.7015 45.5008
  548 379.725 -2.48125 6.98728
  549 280.927 -16.9299 1.81499
  550 393.283 3.75137 -112.739
  551 623.198 162.001 111.242
  552 304.435 -6.11522 -0.770592
  553 373.061 -3.84657 -11.2979
  554 58.9776 24.5612 -26.3531
  555 59.4052 24.2658 26.2354
  556 213.632 -8.66415 -3.43744
  557 213.534 -8.45992 3.50671
  558 2.53325 -26.8721 -3.24549
  559 380.805 -13.4747 48.4069
  560 14.7847 13.2855 1.19945
  561 15.0167 13.3219 -1.09023
  562 2.96169 -25.9405 4.05901
  563 346.663 -15.8037 -39.2767
  564 398.896 25.2889 -52.3117
  565 397.498 28.6584 52.3266
  566 19.2618 16.5688 14.5953
  567 18.2979 16.9562 -14.2788
  568 -10.6755 0.361785 4.19395
  569 -10.8352 0.365529 -4.18590
  570 366.439 9.68678 116.218
  571 200.884 -11.1728 6.91509
  572 201.086 -11.1332 -7.04967
  573 441.814 -7.48404 -59.6606
  574 57.5967 -0.804117 3.02473
  575 57.5592 -0.817152 -3.05948
  576 26.9420 -0.700503 -0.712585
  577 26.9763 -0.695919 0.704504
  578 485.231 88.5741 -19.7433
  579 46.4371 69.1169 -74.9519
  580 254.733 5.12075 -26.1355
  581 359.588 57.4293 -23.0348
  582 5.38288 -0.00905937 7.63794
  583 5.60097 0.0694763 -7.49153
  584 363.365 167.862 198.734
  585 309.037 -8.70833 -2.78525
  586 11.1715 3.15088 -7.08487
  587 11.3178 3.12809 7.11969
  588 357.020 -28.6819 33.5589
  589 54.9057 66.9769 76.3208
  590 257.483 -5.53660 0.338516
  591 257.553 -5.49067 -0.339541
  592 -0.257484 -18.1587 8.96084
  593 -0.229641 -18.1289 -8.93123
  594 439.024 85.5365 -0.702887
  595 278.793 -22.3772 50.6584
  596 266.146 -11.4725 -0.379099
  597 267.770 12.3316 112.822
  598 -22.1056 1.14282 5.36991
  599 -22.0832 1.14902 -5.34794
  600 438.878 5.93366 -28.3141
  601 584.543 98.7026 -79.5521
  602 166.939 17.0466 -75.1902
  603 90.3672 -3.78984 -16.0066
  604 90.4515 -3.79057 16.0087
  605 397.026 -1.31406 1.93222
  606 263.521 -11.7181 0.0509863
  607 352.932 -4.88853 4.23335
  608 346.680 -15.8088 38.3479
  609 14.9195 -0.575206 2.66932
  610 14.8000 -0.572747 -2.69006
  611 205.397 -7.22695 -1.99918
  612 205.369 -7.03082 1.93545
  613 128.163 2.80977 -34.9060
  614 127.338 2.84620 34.7520
  615 500.596 29.9982 30.1790
  616 816.559 61.5424 -89.2890
  617 -6.07106 -0.504755 3.66558
  618 -6.23613 -0.503068 -3.66484
  619 121.101 -5.10863 7.15400
  620 121.093 -5.10259 -7.25039
  621 466.559 25.6708 16.5648
  622 392.484 -1.41573 -0.613469
  623 391.623 -2.02841 0.252185
  624 284.352 -0.0899020 30.5413
  625 410.374 -23.9555 -36.5362
  626 222.778 -18.2877 15.2888
  627 -5.01627 5.05442 -4.91167
  628 -5.11497 5.04654 4.96880
  629 357.194 7.30680 57.3037
  630 141.496 -8.13568 -16.7232
  631 141.359 -8.27104 16.7556
  632 290.931 -16.8826 -2.89480
  633 359.689 -7.88797 -11.3301
  634 205.211 -16.3469 -23.0577
  635 336.575 40.5823 -34.8284
  636 226.997 -15.6520 -41.2884
  637 83.3863 -2.23687 -2.69867
  638 83.4045 -2.21020 2.66278
  639 207.344 -16.6393 23.1537
  640 445.734 72.0334 33.5752
  641 354.608 -17.2397 48.3295
  642 290.327 -12.9952 2.71554
  643 207.615 -5.59022 1.31400
  644 207.562 -5.60253 -1.27431
  645 156.464 -5.86277 -5.09140
  646 156.406 -5.79895 5.03690
  647 341.397 -31.3236 -19.2942
  648 172.751 -9.79049 8.91195
  649 172.937 -9.75163 -9.09257
  650 342.289 52.8090 -4.66871
  651 315.489 -16.6188 8.25558
  652 394.879 -1.83698 -3.01495
  653 335.402 -6.17005 -50.4859
  654 48.4184 -2.14294 10.5423
  655 48.3206 -2.12773 -10.5520
  656 385.217 -2.13128 -6.33061
  657 68.6867 35.4438 -47.7737
  658 69.8642 35.3567 48.0080
  659 392.888 -23.6851 50.4709
  660 135.084 33.7111 79.1865
  661 33.2138 -0.203898 10.5475
  662 33.0966 -0.196201 -10.5529
  663 334.576 -21.6223 65.3410
  664 329.701 46.7269 -153.744
  665 321.155 10.0854 -50.4003
  666 423.109 76.5473 29.0143
  667 285.333 -12.7268 -1.44434
  668 513.145 92.3371 -2.24308
  669 -24.6315 1.17441 -1.21224
  670 -24.5114 1.17133 1.23868
  671 227.568 1.02464 -79.6040
  672 16.0156 -0.336873 2.06036
  673 15.9290 -0.337733 -2.08171
  674 285.588 -24.0728 -50.0779
  675 94.5419 12.9935 -33.6634
  676 93.7888 13.0396 33.6454
  677 2.00614 4.76624 -2.11444
  678 2.13693 4.75986 2.17048
  679 242.635 -20.9729 -11.4493
  680 343.661 -3.38478 -19.3784
  681 163.716 -5.09342 -1.83674
  682 163.724 -5.03655 1.85110
  683 118.456 -6.05881 -10.7091
  684 118.549 -6.14317 10.6692
  685 22.4438 18.4623 -6.48173
  686 22.8185 18.5020 6.60841
  687 352.326 -4.23675 2.09087
  688 156.450 -9.93926 13.9306
  689 157.455 -9.76512 -13.9177
  690 390.067 -31.2587 -4.45428
  691 321.412 -32.3163 -7.14999
  692 252.640 -7.18639 -0.241371
  693 251.747 -6.70367 0.365995
  694 354.110 -37.4624 19.3449
  695 574.798 115.974 30.4861
  696 311.123 -13.8714 -81.1603
  697 356.250 -9.95470 20.1809
  698 353.845 -13.1992 -51.8678
  699 110.154 -3.42931 -5.02937
  700 110.155 -3.40337 4.96560
  701 276.606 -4.74433 91.0351
  702 772.543 99.0799 90.8554
  703 53.1453 15.4943 -19.3763
  704 53.2245 15.5977 19.4402
  705 351.189 -3.43816 -1.05188
  706 353.973 -3.08688 1.07436
  707 149.212 75.4443 -128.637
  708 373.073 -2.02459 11.2946
  709 322.582 -5.57144 1.64707
  710 425.278 84.2689 -10.7038
  711 43.4120 7.75565 -14.0226
  712 43.6019 7.70674 14.0751
  713 400.510 -1.00218 0.329012
  714 324.418 -12.5302 -8.10052
  715 404.526 -6.18570 42.3066
  716 165.506 -11.5837 -21.8631
  717 165.921 -11.0862 21.6556
  718 37.6718 -1.30591 7.97982
  719 37.5635 -1.28953 -8.00168
  720 367.041 -2.50884 -1.96013
  721 316.417 62.1513 163.168
  722 2.35337 2.48646 10.4718
  723 2.47140 2.55686 -10.3907
  724 367.931 -3.98235 -5.19886
  725 357.309 -6.57834 7.42694
  726 282.997 0.215507 -32.7571
  727 2.69476 -32.5316 -4.19727
  728 2.51903 -32.8523 4.51993
  729 129.950 34.7453 -79.1887
  730 285.048 -28.6185 -36.0974
  731 148.117 74.7642 129.864
  732 395.313 -1.00366 1.15702
  733 381.586 57.0956 36.7846
  734 278.257 25.2445 -12.8949
  735 499.668 100.703 0.599547
  736 390.425 -1.65491 4.08816
  737 -23.2777 0.572635 2.96425
  738 -23.4344 0.575784 -2.95231
  739 415.560 -23.7623 11.0304
  740 268.867 -7.78074 -0.327543
  741 97.6584 0.157207 -23.9825
  742 97.7869 0.0597634 23.8448
  743 357.300 -4.20869 -3.00231
  744 630.989 89.3272 -32.3666
  745 42.3674 -1.25204 -5.00806
  746 42.4582 -1.25939 4.97158
  747 398.073 -1.09567 -1.88520
  748 79.1648 -3.53734 -6.98623
  749 79.2172 -3.54983 6.93214
  750 389.444 -15.6035 -43.6435
  751 359.742 -3.77582 15.6051
  752 322.676 -2.15120 49.9221
  753 398.693 -1.13950 -0.000158331
  754 372.255 -2.84494 3.96711
  755 243.349 -13.1033 -2.62404
  756 305.098 -8.04781 2.06385
  757 346.867 -21.3754 -32.6947
  758 338.338 -21.2847 21.2277
  759 396.537 47.8777 -46.3686
  760 333.691 -18.7340 15.7016
  761 352.512 -20.9127 41.8435
  762 204.329 -13.8250 9.29726
  763 7.39424 -2.02340 -0.571033
  764 7.00218 -2.04858 0.942472
  765 308.850 -4.68410 -0.00838384
  766 308.196 -4.65113 -0.106100
  767 370.407 -1.69504 -0.210705
  768 371.686 -1.62143 0.297424
  769 352.897 -9.91485 24.7478
  770 325.757 -29.9849 47.2990
  771 267.496 -21.7114 4.10237
  772 237.579 -14.1770 4.42754
  773 643.668 82.4615 37.5965
  774 356.780 -9.06650 -15.8926
  775 209.139 36.3714 -120.630
  776 331.557 -16.3977 -13.5672
  777 13.2129 0.268214 -7.58963
  778 13.3565 0.256081 7.59992
  779 296.251 25.9646 -28.9048
  780 751.581 22.8131 -9.79750
  781 373.162 9.52079 -56.0439
  782 14.9514 9.04960 -29.4643
  783 384.078 69.1007 9.40783
  784 299.646 -19.0701 4.63360
  785 336.700 -8.46141 48.9825
  786 283.592 -29.8494 36.2976
  787 453.677 -2.66586 73.4832
  788 16.1116 12.5199 31.4673
  789 205.006 -1.24771 62.0411
  790 286.468 -7.42144 -0.704229
  791 319.408 -28.7113 -47.8783
  792 195.944 -15.2568 -16.1331
  793 154.779 7.37906 -54.2130
  794 369.934 -5.84306 54.9170
  795 237.248 -16.1814 7.19857
  796 45.4877 -1.30194 4.47090
  797 45.4196 -1.30351 -4.51232
  798 344.724 -1.89389 17.1643
  799 312.572 1.53313 -48.5201
  800 -27.2946 1.24326 3.32949
  801 -27.2533 1.24559 -3.30547
  802 230.851 -7.27142 -0.922401
  803 230.181 -6.87825 0.848519
  804 171.252 19.1009 76.2814
  805 152.735 -8.93046 10.4796
  806 152.947 -8.71321 -10.5896
  807 397.849 -0.795260 -1.02355
  808 139.326 11.0314 52.8339
  809 4.42977 -0.131812 2.84853
  810 4.28244 -0.128897 -2.86071
  811 340.574 -10.5446 37.8775
  812 363.855 -3.13622 1.54557
  813 -19.4448 0.235173 5.35691
  814 -19.4481 0.241471 -5.34612
  815 224.014 -14.0859 46.3699
  816 43.3440 36.3449 -40.4789
  817 43.8751 34.6696 39.8703
  818 211.909 9.36913 5.36559
  819 -3.77681 -0.223113 -3.26768
  820 -3.61123 -0.225314 3.26446
  821 257.584 -24.4847 -34.0061
  822 351.563 -36.8987 -11.5829
  823 -1.75241 -1.66447 -2.20548
  824 -1.74723 -1.66055 2.19729
  825 18.6900 0.596608 -0.672575
  826 18.7329 0.599945 0.660340
  827 312.680 -27.8353 7.63148
  828 263.227 -26.9599 23.7279
  829 291.565 -4.98344 0.713343
  830 262.543 -21.1842 -5.08954
  831 96.1856 -1.60765 -0.530287
  832 96.1979 -1.56933 0.521373
  833 -30.8385 0.656479 1.91745
  834 -30.7714 0.655627 -1.89384
  835 329.288 -4.33373 -1.38195
  836 291.377 11.4336 -41.2915
  837 332.992 -6.67126 -4.23420
  838 196.357 -14.9924 15.3722
  839 329.440 -5.79428 -40.0481
  840 352.509 -10.7690 -25.5696
  841 330.619 -3.73235 1.23756
  842 241.279 -9.23945 63.6310
  843 257.775 -25.1851 -13.4378
  844 155.278 -1.15848 -41.5439
  845 156.133 -0.0797180 41.7606
  846 219.720 -16.4620 -10.0805
  847 364.692 39.4952 47.9543
  848 346.207 -36.0789 -26.2276
  849 124.629 -3.95526 -2.52801
  850 124.619 -3.89653 2.50190
  851 264.535 -6.08243 0.215232
  852 264.546 -6.13205 -0.151346
  853 314.923 -2.38665 -26.1868
  854 106.192 -4.49544 -8.64660
  855 106.249 -4.52926 8.57322
  856 1.28416 -32.8423 -6.49253
  857 1.21564 -32.9838 6.62711
  858 53.5895 -0.796003 -0.224410
  859 53.5613 -0.812251 0.213726
  860 326.816 -5.19739 -1.93648
  861 248.104 -23.6495 21.4496
  862 385.344 -33.0458 12.1713
  863 225.901 4.73848 20.5494
  864 334.171 -7.93582 4.85880
  865 364.861 -32.7267 -25.9838
  866 52.5916 3.33186 -16.0434
  867 52.7471 3.27639 16.0350
  868 290.082 -5.34104 -0.651203
  869 233.633 -8.17430 -1.99263
  870 232.821 -8.10276 2.20084
  871 360.576 56.1309 25.9510
  872 125.322 -1.24679 -28.9622
  873 125.204 -1.39287 28.8360
  874 250.420 -22.6374 10.7072
  875 24.2207 15.7434 -5.59882
  876 24.4598 15.7130 5.66727
  877 211.802 -15.0764 37.7535
  878 253.980 -16.2204 -2.79344
  879 316.759 -2.47128 26.4609
  880 311.923 -35.1122 11.9211
  881 357.485 -27.2186 -36.2270
  882 247.498 -23.8430 -21.7514
  883 205.807 -13.7681 -8.91395
  884 672.383 55.2601 -10.3703
  885 326.750 -34.6230 5.11044
  886 9.38116 10.7405 3.80506
  887 9.55197 10.7614 -3.71565
  888 283.982 -28.4533 5.82605
  889 311.466 -35.0666 -20.7743
  890 10.0079 9.37657 0.290016
  891 10.1579 9.37922 -0.221593
  892 117.253 -4.16458 21.9545
  893 117.324 -4.29050 -22.0849
  894 142.048 -7.17813 24.0898
  895 141.996 -7.34865 -24.2559
  896 449.462 90.1469 13.1909
  897 -0.664399 -13.9020 -6.64226
  898 -0.669186 -13.8853 6.63757
  899 103.266 8.72770 -32.0209
  900 102.760 8.54987 31.7069
  901 777.076 25.1807 -39.2527
  902 14.7188 -0.0781357 1.15412
  903 14.6518 -0.0806734 -1.17089
  904 1.35673 -37.4801 2.09873
  905 1.58274 -36.8477 -1.56455
  906 -14.8801 -0.184273 5.50522
  907 -14.8967 -0.179644 -5.50343
  908 82.5389 24.2600 -37.7166
  909 83.8169 23.4552 37.1828
  910 -6.49715 0.315712 -11.5971
  911 -6.52966 0.289576 11.6177
  912 23.7127 2.13206 -10.4402
  913 23.8599 2.10459 10.4556
  914 89.9913 -1.03185 20.2196
  915 89.9283 -1.02741 -20.3217
  916 73.4284 -2.51001 -16.3062
  917 73.5035 -2.50531 16.2801
  918 386.961 -1.44107 -6.23626
  919 188.465 40.2047 112.155
  920 260.347 -25.6734 12.5833
  921 184.884 -13.2258 12.3466
  922 356.613 36.7018 -47.3790
  923 764.156 16.3875 15.6581
  924 422.685 19.2630 -44.8390
  925 69.9668 -2.68420 10.1679
  926 69.8956 -2.65363 -10.2067
  927 12.3539 -0.398623 -7.49020
  928 12.4946 -0.402560 7.48996
  929 -0.248406 -6.57860 -12.6093
  930 -0.303987 -6.63348 12.6516
  931 191.091 -8.40469 5.44065
  932 191.190 -8.56945 -5.46860
  933 23.0394 6.23486 -9.25571
  934 23.1974 6.20679 9.30481
  935 116.374 -5.17669 -18.6189
  936 116.453 -5.17669 18.6063
  937 251.517 -1.11241 -24.1836
  938 120.077 -6.51832 -12.8887
  939 119.995 -6.44752 12.9311
  940 292.177 -8.17610 -0.885753
  941 353.553 -20.2776 -44.9588
  942 154.316 -6.23554 5.84922
  943 154.389 -6.29352 -5.92961
  944 -6.40126 -0.686623 -3.88211
  945 -6.38384 -0.688268 3.87384
  946 360.161 -27.7850 -58.6408
  947 344.828 -20.2240 28.4264
  948 302.488 -21.1210 -6.02760
  949 295.093 10.0668 43.5090
  950 134.017 -7.51701 -14.5180
  951 134.017 -7.37336 14.5632
  952 329.713 12.5958 52.5822
  953 307.835 26.8300 34.6237
  954 627.961 75.5179 13.2107
  955 321.785 -11.5275 5.93294
  956 169.297 -5.01814 -2.62643
  957 169.276 -4.91841 2.64903
  958 288.183 -23.5944 -0.990605
  959 398.959 73.1996 -22.0549
  960 352.411 -3.79007 -2.12373
  961 231.392 -5.64147 0.861892
  962 231.302 -5.59783 -0.795634
  963 29.3944 24.8148 -17.6030
  964 30.1402 24.7704 17.7379
  965 55.6847 141.564 -125.107
  966 330.244 -7.82583 39.8322
  967 411.266 -7.69566 -37.6331
  968 -6.93145 3.97185 2.14788
  969 -6.82333 3.97111 -2.09399
  970 835.510 198.255 -158.287
  971 352.126 -38.2771 3.90566
  972 375.544 -34.7213 -15.1545
  973 346.671 -29.7059 25.8006
  974 428.806 84.4141 9.12468
  975 30.9854 32.4226 -37.7193
  976 78.9734 122.382 122.794
  977 -2.07545 -4.82550 12.6030
  978 -2.04093 -4.78524 -12.5815
  979 337.291 -8.60349 6.08641
  980 541.498 95.8437 -11.5398
  981 31.8907 31.6823 39.2223
  982 -1.49167 -5.00174 -4.31682
  983 -1.49197 -4.98798 4.30568
  984 289.353 -6.71333 0.303733
  985 215.928 -17.1372 -16.8244
  986 349.379 -27.6173 -30.6763
  987 99.1393 26.6664 -49.8802
  988 100.728 27.1067 50.0103
  989 339.357 -8.42722 -35.5212
  990 341.911 -10.8077 11.3806
  991 -9.11186 2.32310 10.1943
  992 -9.06608 2.34632 -10.1611
  993 206.206 -13.5847 -35.4987
  994 342.377 21.8374 -52.7635
  995 254.475 -9.49720 0.940782
  996 183.002 -5.18984 0.446314
  997 182.967 -5.22449 -0.425342
  998 -3.85901 -4.38104 -9.00564
  999 -3.86455 -4.39052 8.99840
  1000 346.537 -12.3241 -14.0333
  1001 329.929 -3.65536 0.368211
  1002 329.622 -3.65956 -0.233602
  1003 456.034 74.5299 -30.9369
  1004 82.0996 7.13183 -25.2267
  1005 82.3037 6.98938 25.1702
  1006 52.3471 -0.491646 -13.5117
  1007 52.4459 -0.502234 13.4952
  1008 375.623 20.0470 56.6949
  1009 355.404 -6.65641 -7.79794
  1010 62.5933 9.88885 -20.5210
  1011 62.8416 9.81464 20.5966
  1012 370.805 -1.96239 -1.26630
  1013 346.233 -14.9359 -21.3876
  1014 338.102 -38.1746 -14.4924
  1015 12.8903 11.0530 -0.114570
  1016 12.5310 11.0001 0.277870
  1017 -16.3785 2.68344 6.04760
  1018 -16.3192 2.69086 -6.00798
  1019 204.726 7.70784 -8.97464
  1020 584.925 145.075 -39.8174
  1021 267.159 -19.4328 -1.64730
  1022 176.609 -7.71077 -36.5400
  1023 428.738 -17.1962 3.59621
  1024 177.304 -7.70358 37.0525
  1025 307.242 -35.7461 24.2713
  1026 348.304 -14.4030 -32.2373
  1027 119.271 -2.76612 -0.808939
  1028 119.279 -2.71694 0.803473
  1029 237.779 -18.5432 -8.74939
  1030 145.654 -5.42665 -28.4475
  1031 145.599 -5.46787 28.3020
  1032 48.2385 31.5655 -30.8027
  1033 49.0052 31.4743 30.8951
  1034 100.277 -3.18118 -2.87851
  1035 100.284 -3.14158 2.84084
  1036 309.813 -9.78584 3.14963
  1037 261.457 1.09296 -92.1565
  1038 321.135 -10.3972 -5.90151
  1039 290.051 -32.0705 -14.5891
  1040 190.604 -8.00830 3.71996
  1041 190.761 -8.06871 -3.73225
  1042 375.846 -2.28601 1.59669
  1043 336.012 -7.95387 -5.70415
  1044 216.004 5.25513 16.9294
  1045 360.203 -3.55880 -14.5160
  1046 139.393 40.7001 89.8095
  1047 370.856 -3.42838 -11.8941
  1048 96.7460 16.2863 -37.5561
  1049 93.8541 16.4704 36.0238
  1050 443.095 -7.55234 -5.41240
  1051 39.9782 20.8767 -16.0069
  1052 40.3470 20.7266 16.0038
  1053 6.80262 -0.505911 3.94555
  1054 7.14419 -0.442872 -3.72049
  1055 57.1824 -1.52571 3.47013
  1056 57.1334 -1.53573 -3.51362
  1057 158.605 41.1972 -99.5286
  1058 862.351 224.670 170.356
  1059 345.402 -12.3183 14.3941
  1060 309.983 -34.8223 -10.7192
  1061 215.335 -17.6950 -27.4226
  1062 -4.44399 4.75681 8.84370
  1063 -4.36107 4.78292 -8.78804
  1064 243.066 -12.4684 2.07969
  1065 268.141 -9.91113 0.0352054
  1066 -0.132665 -19.7026 6.40671
  1067 -0.125964 -19.7218 -6.40491
  1068 40.2297 24.9685 -19.0638
  1069 40.7090 24.9219 19.1782
  1070 239.819 -11.4583 -1.98065
  1071 18.8230 8.75002 5.82426
  1072 18.6661 8.76199 -5.76116
  1073 366.429 -14.4998 52.1286
  1074 265.213 -27.4548 -23.6082
  1075 216.618 -17.9800 27.4214
  1076 348.954 -7.02978 -54.8890
  1077 368.375 -3.99415 5.65796
  1078 133.322 20.5147 60.2262
  1079 134.279 19.6344 -59.2214
  1080 215.075 -10.4236 -50.6813
  1081 304.656 -10.8707 -3.19809
  1082 247.604 -14.8468 4.06816
  1083 290.137 -27.0796 -0.987190
  1084 398.209 -1.39945 -3.22785
  1085 214.818 -9.84056 3.94621
  1086 214.725 -10.4074 -4.06722
  1087 7.22061 8.46849 7.15587
  1088 7.39754 8.53099 -7.05425
  1089 351.761 12.9499 -56.7199
  1090 78.8447 4.00880 -22.2746
  1091 79.0551 3.92029 22.2131
  1092 59.1743 1.15589 -15.9601
  1093 59.3021 1.12287 15.9311
  1094 401.480 -16.0596 73.7807
  1095 347.883 -16.0194 31.7708
  1096 170.147 -7.79818 -30.9931
  1097 404.633 -1.58954 -1.92825
  1098 453.942 85.8112 -23.3560
  1099 367.701 -3.48294 -3.55706
  1100 344.678 -37.1554 11.3822
  1101 255.055 -19.3897 44.4532
  1102 407.275 -0.491242 0.357817
  1103 215.598 6.72335 -14.3559
  1104 292.163 -31.2344 -6.81065
  1105 170.420 -8.15275 30.6542
  1106 294.882 -26.8474 -0.707185
  1107 367.821 -5.22831 10.6395
  1108 263.677 16.6746 22.3580
  1109 183.012 -13.4361 -24.6975
  1110 555.178 79.5289 -33.1927
  1111 417.586 18.9250 47.0911
  1112 311.822 39.0605 5.48045
  1113 402.909 0.0648548 1.70474
  1114 158.834 -9.90191 -18.9055
  1115 108.392 67.0313 -100.024
  1116 193.830 5.22981 -71.9961
  1117 222.369 -17.0633 11.9151
  1118 187.824 -14.0433 23.1449
  1119 158.451 -9.41588 19.0995
  1120 334.556 2.90108 55.1831
  1121 252.724 -8.80698 -0.644312
  1122 397.182 -2.93642 4.34937
  1123 -3.14674 -0.247010 12.5874
  1124 -3.09915 -0.206684 -12.5556
  1125 264.719 -7.56462 0.137064
  1126 -0.259650 3.01241 11.3703
  1127 -0.173668 3.06513 -11.3098
  1128 148.649 -4.67629 3.30920
  1129 148.661 -4.75082 -3.31338
  1130 374.179 -2.00785 9.87342
  1131 300.748 -18.4022 -4.97364
  1132 281.704 -15.0519 -1.38532
  1133 315.071 -22.0566 10.3213
  1134 96.0947 47.7934 -74.6072
  1135 308.865 -11.6878 4.24462
  1136 46.1258 0.862664 -13.0925
  1137 46.2470 0.839760 13.0821
  1138 64.3506 41.4944 -52.5337
  1139 493.750 64.9324 14.9583
  1140 35.3417 -1.62975 7.63613
  1141 35.2276 -1.61645 -7.64874
  1142 65.5124 40.8555 50.7351
  1143 282.802 -23.6644 -0.148768
  1144 143.175 -6.67733 7.22628
  1145 143.199 -6.70837 -7.34543
  1146 576.855 122.177 -32.5472
  1147 311.591 -31.2142 1.95488
  1148 106.741 62.7326 99.8150
  1149 9.15782 -2.01936 -8.41852
  1150 9.86697 -1.89933 9.25430
  1151 328.354 41.1674 27.7223
  1152 24.6375 13.3216 -5.90784
  1153 24.8368 13.3254 5.96524
  1154 313.646 -27.2761 -8.10759
  1155 -0.144583 -30.4375 -6.00703
  1156 -0.158829 -30.4424 6.03439
  1157 335.241 -28.2945 -18.0612
  1158 -5.11226 0.408363 2.54616
  1159 -5.27893 0.410943 -2.55211
  1160 51.3599 19.1047 -20.6091
  1161 51.6384 19.1870 20.4220
  1162 -17.0621 0.0398278 -3.11834
  1163 -16.8885 0.0385682 3.12133
  1164 334.945 -3.68115 -0.466540
  1165 -33.3638 0.983372 0.517896
  1166 -33.2718 0.982851 -0.496146
  1167 177.006 -13.8888 -18.2462
  1168 4.71356 -43.5397 -4.55559
  1169 88.8651 -2.52140 5.50633
  1170 88.8344 -2.53041 -5.56781
  1171 284.598 -5.46731 0.421986
  1172 285.138 -5.32502 -0.366441
  1173 5.06225 -41.4895 5.58547
  1174 337.450 -17.6071 -17.8900
  1175 385.314 -1.78556 7.26536
  1176 342.838 -21.9675 -26.2017
  1177 299.297 2.21737 43.1677
  1178 1.60580 -12.1650 9.21552
  1179 1.75299 -12.0729 -9.06259
  1180 219.268 -15.9353 9.49414
  1181 -14.9961 1.37681 8.14210
  1182 -14.9683 1.38850 -8.11770
  1183 569.100 90.5239 6.06842
  1184 664.618 208.374 -146.686
  1185 350.508 -34.0601 22.3752
  1186 144.858 -4.22782 -0.470018
  1187 144.867 -4.17586 0.470423
  1188 717.512 69.6252 -64.2375
  1189 51.4083 -1.34120 7.92980
  1190 51.3160 -1.32066 -7.96045
  1191 327.447 -1.06945 -17.1100
  1192 210.352 -16.9995 20.6382
  1193 346.722 -33.9802 -16.2380
  1194 335.569 -24.3981 -20.4342
  1195 204.873 -7.21226 53.1313
  1196 75.9354 14.1146 -28.4242
  1197 75.8938 13.9891 28.2632
  1198 100.019 37.0522 -63.4159
  1199 100.152 34.2895 63.4178
  1200 28.6816 8.33816 -9.80137
  1201 28.8522 8.31320 9.86095
  1202 413.888 71.7578 -32.2409
  1203 21.4565 19.6342 -8.85725
  1204 21.9571 19.6628 9.00753
  1205 298.585 -22.8637 4.22656
  1206 557.815 82.3981 37.2740
  1207 71.1760 -2.97024 -5.42603
  1208 71.2272 -2.96909 5.37162
  1209 362.497 253.779 -217.768
  1210 279.535 16.5907 -34.5040
  1211 256.731 19.6966 14.0879
  1212 35.6706 14.9925 -11.5964
  1213 35.8404 14.9925 11.6609
  1214 7.42093 -0.0691267 1.86367
  1215 7.30932 -0.0690106 -1.87997
  1216 330.736 -26.5616 16.8556
  1217 325.237 -13.0440 8.91968
  1218 222.785 63.3159 -156.010
  1219 512.795 111.948 -5.47866
  1220 220.498 -6.68418 -58.5208
  1221 285.705 -8.82348 0.558264
  1222 14.7651 -1.42043 -0.435220
  1223 14.7938 -1.41942 0.432698
  1224 -7.26861 2.24004 -4.25080
  1225 -7.12988 2.23074 4.28351
  1226 191.690 2.09737 -61.5080
  1227 352.961 -7.77048 10.0387
  1228 229.603 4.24970 84.0457
  1229 310.973 -15.3981 -6.73838
  1230 160.599 57.2836 -122.788
  1231 249.532 -12.1396 -63.1935
  1232 297.137 -31.7264 5.14147
  1233 363.743 -5.75970 16.0516
  1234 319.062 -6.71311 -2.43902
  1235 176.259 -13.0355 18.3522
  1236 400.214 -22.4622 -29.2123
  1237 379.741 32.9624 53.6907
  1238 165.462 0.781381 -48.5979
  1239 378.108 -2.38325 1.23767
  1240 304.033 37.8255 -7.82195
  1241 131.967 -4.60914 -5.39815
  1242 131.941 -4.56059 5.33789
  1243 579.368 133.991 32.9421
  1244 791.695 21.0391 36.7674
  1245 0.708956 -37.1565 -5.96593
  1246 0.686045 -37.1985 6.01212
  1247 85.5708 45.2332 69.7849
  1248 204.664 -6.01638 -1.09835
  1249 204.707 -5.97979 1.17477
  1250 280.331 -28.2081 -7.42436
  1251 334.367 27.4048 47.8022
  1252 350.125 -6.92147 -6.43674
  1253 406.783 -1.08835 -0.345836
  1254 704.289 156.479 -98.6590
  1255 109.674 -4.13961 5.57306
  1256 109.664 -4.14882 -5.64740
  1257 335.583 -31.1545 17.2680
  1258 589.113 144.164 -44.6236
  1259 325.438 -14.2226 -10.0621
  1260 237.717 -16.5417 -6.52195
  1261 291.950 -31.7321 14.2160
  1262 285.470 -14.3034 2.02536
  1263 10.5988 2.50411 -13.3567
  1264 390.401 -23.6971 34.8619
  1265 316.290 -20.7033 -10.0747
  1266 11.6785 3.05133 14.7842
  1267 325.236 -25.9492 -59.3069
  1268 307.496 19.2562 -127.602
  1269 505.970 64.6848 -10.0766
  1270 408.370 -0.300265 -0.127400
  1271 407.645 -0.677656 0.365081
  1272 321.734 -18.7894 10.9473
  1273 123.896 14.7666 -47.8535
  1274 366.478 -32.5910 28.1469
  1275 622.980 142.462 65.3546
  1276 154.022 52.9937 119.625
  1277 4.31368 0.561898 9.38982
  1278 4.47614 0.641158 -9.27766
  1279 385.010 -30.9852 -31.8957
  1280 154.895 -8.45122 -8.65344
  1281 154.867 -8.47293 8.49483
  1282 358.577 -23.6356 43.1021
  1283 13.0599 0.0967593 8.33720
  1284 12.9196 0.103798 -8.33430
  1285 -1.96737 -7.49510 10.3755
  1286 -1.95401 -7.47901 -10.3771
  1287 63.6979 -2.19727 -7.23248
  1288 63.7674 -2.21027 7.18560
  1289 188.509 -12.5800 -28.0776
  1290 189.889 -6.29045 1.63664
  1291 189.883 -6.42800 -1.56503
  1292 406.897 -0.291403 0.0499396
  1293 361.546 -5.56631 -18.0614
  1294 29.3751 1.34234 -10.4661
  1295 29.5113 1.32203 10.4699
  1296 189.262 -13.3085 27.8512
  1297 410.829 -0.427171 0.149365
  1298 388.187 -0.382983 -0.434976
  1299 388.175 -0.616206 0.335584
  1300 512.944 108.184 5.39442
  1301 378.295 -2.58778 -2.83143
  1302 335.966 -3.47558 0.346898
  1303 372.202 -5.64723 -9.40713
  1304 404.775 -1.30904 1.31341
  1305 422.054 43.5217 46.6709
  1306 488.983 101.593 11.8939
  1307 393.300 -1.56395 -4.80819
  1308 -3.22852 -0.823651 2.90000
  1309 -3.24141 -0.823049 -2.90884
  1310 218.439 -13.7760 6.48969
  1311 218.396 -13.1687 -6.29895
  1312 425.899 48.2716 -44.3931
  1313 88.7170 30.5975 -52.3836
  1314 89.2887 29.7588 51.8152
  1315 287.476 0.0223860 -21.5844
  1316 295.658 -4.78348 -0.253715
  1317 295.296 -4.74471 0.192243
  1318 -7.11997 -1.18305 10.5613
  1319 -7.10695 -1.16388 -10.5571
  1320 328.441 -0.852955 17.0809
  1321 499.433 99.3101 -1.23358
  1322 35.3384 -1.34756 -4.55885
  1323 35.4267 -1.35071 4.52229
  1324 368.925 -35.4390 15.3585
  1325 0.615698 6.11085 9.01483
  1326 0.723275 6.14796 -8.94542
  1327 68.0503 -1.54716 -1.49918
  1328 68.0760 -1.52292 1.47480
  1329 287.552 -0.430000 21.9125
  1330 11.5494 0.621142 -0.694877
  1331 11.6028 0.623516 0.682592
  1332 375.372 -4.37488 6.06907
  1333 523.001 95.2976 4.93341
</Section>

newXOutput 48

<Section columns = "stress_xx | stress_yy | stress_xy">
  1 425.839 -1.10981 0.773946
  2 426.513 -1.43194 -1.00530
  3 7.64218 0.399962 -1.10513
  4 -0.302875 -0.460776 -0.299067
  5 781.565 312.071 255.375
  6 793.611 357.285 -258.073
  7 -0.299543 -0.457861 0.294753
  8 7.61338 0.397722 1.10252
  9 428.747 -0.784803 -0.705246
  10 425.563 -1.46468 -1.01811
  11 425.869 -1.14090 0.944124
  12 423.764 -0.599692 0.415513
  13 422.918 -1.37414 -0.259205
  14 422.235 -1.31941 1.68630
  15 416.076 -0.923416 1.62222
  16 417.690 -3.00676 2.46318
  17 404.633 -2.48966 5.29347
  18 396.338 -1.09340 6.36496
  19 384.907 -1.35267 6.86592
  20 365.061 -1.19842 9.59528
  21 343.454 -1.02679 11.1422
  22 316.489 1.40145 15.2803
  23 279.563 2.16841 13.8367
  24 264.752 -0.140916 19.8087
  25 218.693 3.11749 14.0902
  26 190.700 4.11171 11.0408
  27 183.409 1.97631 8.14103
  28 175.590 6.00717 0.599485
  29 179.869 6.48986 -10.8863
  30 188.477 1.85280 -13.6677
  31 222.885 0.790144 -18.2524
  32 257.594 -1.73874 -18.9565
  33 280.886 1.79665 -13.8141
  34 316.890 1.59578 -15.2852
  35 342.563 -1.21972 -11.9417
  36 367.252 -1.36448 -9.05443
  37 383.366 -0.980164 -6.97269
  38 395.143 -1.15954 -5.83935
  39 407.757 -1.43955 -3.38330
  40 412.689 -1.45802 -3.23617
  41 417.496 -1.38030 -2.85000
  42 422.382 -1.57588 -0.562861
  43 424.261 -2.00655 -1.17531
  44 421.806 0.145107 -0.0735621
  45 425.378 -1.03750 -1.06558
  46 427.219 -2.16196 1.11017
  47 429.276 -1.23639 -0.0534928
  48 407.632 0.277821 -0.642953
  49 383.386 -1.59330 -1.20939
  50 355.962 -3.69398 -1.74365
  51 327.601 -3.07647 -1.26726
  52 302.887 -5.01300 -1.16555
  53 276.819 -5.45187 -1.06532
  54 250.544 -4.76970 -0.528326
  55 222.933 -5.12070 -0.724281
  56 199.596 -5.46599 -0.951550
  57 168.571 -5.23717 -0.777023
  58 136.656 -3.28960 -0.497369
  59 110.274 -2.11012 -0.396079
  60 77.7144 -1.33108 -0.164860
  61 54.0668 -1.30015 -1.62952
  62 32.0990 -1.80212 -0.538911
  63 9.94372 0.205754 1.00127
  64 4.19316 1.54681 0.386387
  65 2.56040 0.629452 1.05126
  66 3.35853 0.284292 1.03947
  67 -1.22500 0.890352 0.467460
  68 -3.01203 1.16477 2.16927
  69 -3.77813 0.407289 0.798007
  70 -11.5424 0.863407 0.875363
  71 -15.2084 0.599185 2.08843
  72 -16.7125 0.201167 2.19444
  73 -25.2337 0.811901 1.72631
  74 -28.4734 1.21383 3.23432
  75 -32.0873 0.736526 1.21106
  76 -36.2703 0.535416 1.76663
  77 -37.9998 0.572176 0.739004
  78 -42.0507 1.38389 -0.873408
  79 -42.6028 0.948537 -0.647197
  80 -38.8936 0.717806 -1.29890
  81 -33.4651 0.937246 -2.53860
  82 -27.2326 0.415597 -3.89183
  83 -20.3188 0.228742 -4.06810
  84 -12.2063 -0.410977 -4.27085
  85 -5.31240 -0.329136 -2.49845
  86 -2.23039 -0.883310 -1.56122
  87 -0.372499 -2.24353 -1.35225
  88 -0.626405 -5.73257 -2.40383
  89 -0.713430 -11.2113 -4.21522
  90 -0.140427 -20.9852 -4.54663
  91 0.255011 -28.9988 -5.70285
  92 0.594345 -41.6753 -4.64975
  93 1.79296 -49.4133 -5.47319
  94 0.314681 -53.1171 -4.49603
  95 -0.0694092 -60.7628 -2.63618
  96 1.69392 -58.6255 -0.514707
  97 6.87059 -75.8747 3.42669
  98 6.17677 -39.7974 11.0259
  99 14.6531 -15.5941 24.1173
  100 43.8755 74.5805 74.6464
  101 186.011 243.102 210.675
  102 1023.92 109.372 151.945
  103 856.679 30.3022 54.4988
  104 815.653 12.9253 18.7647
  105 792.879 8.47114 -0.100388
  106 807.376 12.3117 -15.4156
  107 864.698 25.8749 -45.1263
  108 1013.22 86.8280 -141.488
  109 120.713 275.599 -174.351
  110 30.8228 55.1975 -57.7778
  111 10.7979 -22.8307 -20.0516
  112 5.59634 -44.0502 -9.49143
  113 6.83394 -78.9145 -2.68355
  114 1.61920 -59.9745 1.04092
  115 -0.169167 -61.4383 2.91057
  116 0.251059 -53.3784 4.64316
  117 1.75833 -49.4750 5.53544
  118 0.581030 -41.6523 4.67280
  119 0.244908 -28.9580 5.71120
  120 -0.145365 -20.9334 4.54396
  121 -0.714071 -11.1782 4.20631
  122 -0.627762 -5.70400 2.39546
  123 -0.372247 -2.23282 1.34483
  124 -2.21751 -0.882098 1.55502
  125 -5.28957 -0.330604 2.49178
  126 -12.1771 -0.414438 4.26692
  127 -20.2853 0.224943 4.06909
  128 -27.2143 0.411458 3.89915
  129 -33.4741 0.934320 2.55283
  130 -38.9305 0.717597 1.31417
  131 -42.6757 0.947721 0.662057
  132 -42.1532 1.38381 0.888835
  133 -38.1359 0.573693 -0.725638
  134 -36.4315 0.537277 -1.75681
  135 -32.2607 0.738636 -1.20336
  136 -28.6605 1.21632 -3.23131
  137 -25.4257 0.814225 -1.72382
  138 -16.9015 0.202581 -2.19510
  139 -15.3974 0.601620 -2.09163
  140 -11.7222 0.866836 -0.880070
  141 -3.93587 0.409577 -0.806756
  142 -3.14718 1.16709 -2.18221
  143 -1.34027 0.890969 -0.478941
  144 3.27372 0.283839 -1.05059
  145 2.49824 0.628321 -1.06019
  146 4.14600 1.54482 -0.394148
  147 9.90943 0.204471 -1.00579
  148 32.0674 -1.80871 0.534218
  149 54.0374 -1.31684 1.62433
  150 77.6930 -1.36075 0.158055
  151 110.263 -2.15308 0.392524
  152 136.646 -3.33947 0.496777
  153 168.551 -5.28033 0.783728
  154 199.546 -5.48751 0.965630
  155 222.849 -5.09380 0.757669
  156 250.425 -4.67103 0.566835
  157 276.654 -5.21901 1.00689
  158 303.017 -5.07931 1.02357
  159 327.699 -3.48925 1.33762
  160 356.242 -3.61800 1.58725
  161 384.153 -1.37170 1.22607
  162 406.952 0.253240 0.624866
  163 236.784 -21.3533 -19.6576
  164 235.830 -21.7411 19.6116
  165 71.1123 19.6417 -28.5628
  166 71.8155 19.7140 28.4390
  167 279.496 -13.3419 72.4598
  168 293.008 -15.0895 -70.5113
  169 137.074 -7.21218 9.06012
  170 137.060 -7.14077 -9.19090
  171 298.595 -10.4733 1.58902
  172 292.601 -10.5031 -1.48726
  173 398.143 71.7817 -10.0630
  174 403.939 2.88403 -51.3056
  175 395.909 5.98607 55.1789
  176 95.2313 -3.60092 -19.1883
  177 95.2363 -3.57418 19.1491
  178 349.116 -34.5750 18.2112
  179 348.743 -26.8524 -25.6339
  180 4.80687 8.10877 8.42885
  181 4.95094 8.16100 -8.34328
  182 476.919 97.0491 15.1091
  183 91.9382 41.1412 -64.7355
  184 98.6646 41.5311 69.4336
  185 337.625 -15.7774 12.0241
  186 506.445 106.303 -6.74801
  187 218.752 -7.98347 -2.58244
  188 218.398 -8.19083 2.55926
  189 347.136 -10.9706 -10.9751
  190 462.280 -2.73875 -6.68760
  191 85.7279 -2.57718 3.45162
  192 85.7020 -2.59966 -3.50146
  193 36.7391 4.67367 -12.9203
  194 36.9064 4.62570 12.9502
  195 195.058 -7.46244 -45.3768
  196 194.295 -7.87234 45.9610
  197 232.981 -15.1338 -6.85657
  198 233.447 -15.0491 7.31095
  199 60.8325 -2.12980 10.1913
  200 60.7450 -2.10084 -10.2146
  201 457.270 -7.89472 30.2475
  202 373.944 -36.8197 -7.44762
  203 355.227 -3.66481 -1.67914
  204 347.301 -4.44880 1.71228
  205 352.766 41.3773 38.9953
  206 15.1098 12.9869 -4.96898
  207 15.6599 12.9607 5.21382
  208 351.728 -14.1501 45.3641
  209 323.842 24.7295 -44.6332
  210 230.414 52.2802 -148.709
  211 242.279 44.1585 138.162
  212 6.16433 7.76915 -0.959771
  213 6.30150 7.76735 1.02522
  214 350.596 -12.4770 -46.8747
  215 609.360 85.3368 -5.79118
  216 291.393 -31.7571 25.9522
  217 293.591 -31.5776 -24.5441
  218 291.225 -20.8175 -1.61800
  219 361.018 -5.75314 5.84495
  220 174.999 -11.9993 -16.7861
  221 172.251 -11.9510 17.3091
  222 105.212 2.15169 -28.9560
  223 105.361 2.11074 28.7103
  224 370.524 -39.0938 -4.38516
  225 288.804 -22.1289 0.372017
  226 359.730 -5.61703 -4.57568
  227 280.241 -7.28519 0.0532427
  228 282.680 -6.79723 0.477354
  229 355.133 -15.8624 26.1133
  230 30.8456 0.288333 -10.8708
  231 30.9761 0.274093 10.8690
  232 -4.47333 -2.99822 -12.0252
  233 -4.49645 -3.02676 12.0351
  234 54.7345 -2.37637 -5.89739
  235 54.8083 -2.38209 5.84984
  236 150.368 -4.51546 4.02793
  237 150.403 -4.59534 -4.05986
  238 172.907 11.9926 -66.3618
  239 172.927 10.0051 65.6112
  240 360.154 -11.2434 -22.3329
  241 169.382 -9.88251 -27.4139
  242 169.526 -10.1842 27.0246
  243 317.780 4.89221 50.4767
  244 278.130 23.8851 3.05620
  245 309.186 -30.8183 -1.01965
  246 1.40426 -7.47576 -10.8999
  247 1.30043 -7.55809 10.9904
  248 19.9854 20.5598 -22.4276
  249 21.2691 19.8492 23.5658
  250 304.027 -30.1493 -1.00721
  251 547.846 103.009 -8.05776
  252 28.6756 19.3542 -9.55085
  253 29.0200 19.3461 9.66361
  254 -11.6153 2.56399 8.14670
  255 -11.5555 2.57733 -8.10543
  256 550.654 96.5086 11.1563
  257 192.960 -9.32435 -6.56457
  258 192.813 -9.17550 6.43228
  259 377.506 -25.4520 41.9187
  260 680.925 110.808 68.7047
  261 113.199 -5.96504 -15.7560
  262 113.175 -6.00701 15.7399
  263 385.119 57.6381 -37.2641
  264 657.179 124.905 -62.6074
  265 459.723 46.1926 35.5144
  266 498.972 31.9793 -93.6714
  267 309.206 -14.6874 4.60619
  268 351.925 1.70593 -56.5869
  269 333.133 -23.5492 -14.5859
  270 371.167 -6.68938 14.1389
  271 0.271080 3.55295 -3.98999
  272 0.408618 3.54168 4.03654
  273 367.554 -11.9492 -90.5768
  274 39.7634 12.1437 -13.0456
  275 39.9534 12.1217 13.1167
  276 356.213 -8.62425 -28.6606
  277 51.3399 53.2613 -67.2598
  278 43.1729 -0.206729 -1.36340
  279 43.2116 -0.197400 1.34281
  280 376.132 -23.3215 -43.7519
  281 66.3882 29.8171 -36.0245
  282 67.3466 29.6563 36.1258
  283 19.4260 -0.595134 7.59217
  284 19.2890 -0.587791 -7.59787
  285 308.750 -13.9505 -4.48841
  286 51.6984 52.6921 69.0624
  287 490.690 38.2455 109.741
  288 134.787 -5.36708 -5.47452
  289 134.762 -5.33292 5.39632
  290 246.875 -10.3118 -2.33329
  291 246.755 -11.1541 2.61478
  292 210.757 20.3983 -100.757
  293 339.578 -37.1651 -5.30602
  294 386.405 -2.43348 2.57336
  295 203.004 20.3907 97.4885
  296 236.397 -6.53136 -0.778746
  297 236.307 -6.52684 0.981659
  298 333.670 -24.5015 14.8612
  299 383.181 -4.11796 -6.62915
  300 -2.27169 1.42666 -5.92647
  301 -2.11999 1.41598 5.94840
  302 481.768 95.7872 -4.06915
  303 421.798 -19.4636 22.1645
  304 380.675 -2.06832 -0.669039
  305 387.310 -1.80292 0.605920
  306 379.963 -33.2806 32.7179
  307 468.620 49.3081 -32.9241
  308 410.062 76.2568 21.3700
  309 184.283 -11.3311 -10.5660
  310 182.614 -11.5371 10.7719
  311 385.955 -2.36961 -1.70908
  312 253.658 -19.1365 -49.7315
  313 249.589 -19.7367 8.72309
  314 237.957 -12.9466 56.6815
  315 379.927 -4.63067 7.93475
  316 86.5521 -3.97564 -9.83471
  317 86.6093 -4.00471 9.79127
  318 350.289 -11.4582 89.5122
  319 222.621 -17.6406 -13.1480
  320 409.295 52.5966 46.6269
  321 130.584 9.17425 -43.0713
  322 125.736 9.59219 42.7184
  323 38.3749 -0.803154 -2.47529
  324 38.4367 -0.797794 2.44253
  325 335.694 -6.91614 3.34906
  326 321.953 -4.74398 0.432362
  327 320.151 -5.18132 -0.541824
  328 353.592 -9.08199 30.3723
  329 30.8649 -1.13943 5.66743
  330 30.7489 -1.12882 -5.69349
  331 103.369 -2.48150 -2.05604
  332 103.377 -2.44081 2.03423
  333 3.42138 -15.8457 -5.99776
  334 3.19723 -15.9753 6.26497
  335 275.369 11.9225 34.2788
  336 425.870 -18.2120 -17.9238
  337 275.738 -14.7540 0.774883
  338 311.610 -6.43686 -1.65941
  339 326.461 40.5669 -20.9684
  340 64.0987 -2.05674 -14.2352
  341 64.1821 -2.05828 14.2227
  342 268.133 -13.9210 0.623697
  343 76.1416 2.55892 -20.4657
  344 76.2866 2.49332 20.4024
  345 14.9000 12.4742 -0.314877
  346 15.0816 12.4722 0.392203
  347 325.934 -34.8873 33.3693
  348 720.754 47.5255 18.4989
  349 290.370 4.40269 -40.5811
  350 242.556 -21.7378 30.5860
  351 241.323 -21.2982 -31.5089
  352 357.767 -6.01575 56.0021
  353 318.322 -2.29510 40.0613
  354 321.707 -33.7317 -34.4442
  355 191.865 -4.99992 0.359491
  356 191.835 -5.05726 -0.311936
  357 355.868 -23.2309 34.2064
  358 487.348 96.9827 2.09583
  359 381.872 -4.37955 -10.4497
  360 98.4685 -3.78531 -7.11972
  361 98.5094 -3.78859 7.04843
  362 359.685 -33.9754 -41.4305
  363 378.110 26.4504 -55.8047
  364 253.717 13.6414 -22.0093
  365 358.389 -23.9100 -39.1535
  366 -11.6557 0.423479 -9.27371
  367 -11.6685 0.409097 9.28574
  368 301.028 -7.31627 0.922186
  369 -4.27990 -2.54598 -5.55634
  370 -4.27468 -2.54681 5.54480
  371 232.643 116.862 -180.875
  372 9.41539 8.39153 5.62876
  373 9.64840 8.45774 -5.50393
  374 315.902 -2.42289 -39.7314
  375 174.357 -7.50153 4.94752
  376 174.481 -7.60114 -5.00237
  377 -1.16898 -12.6154 10.5651
  378 -1.14947 -12.5922 -10.5541
  379 189.218 122.488 170.333
  380 142.817 -7.61379 -21.4325
  381 142.929 -7.28867 21.4489
  382 45.6479 33.6937 -33.3632
  383 46.6056 33.6014 33.1723
  384 -17.6641 2.73978 3.21145
  385 -17.5822 2.74413 -3.16721
  386 364.867 24.3614 55.9441
  387 279.775 -29.2879 14.6006
  388 280.070 -25.5759 5.85863
  389 339.206 -38.4769 -4.93120
  390 85.2033 10.6089 -28.3885
  391 85.4874 10.5896 28.3452
  392 7.63290 -10.6604 1.05660
  393 7.22021 -10.8377 -0.468151
  394 343.892 49.1108 13.7878
  395 345.837 -10.0272 8.96406
  396 198.134 -15.3993 19.7480
  397 122.731 -3.12278 -25.6400
  398 122.778 -3.14565 25.4483
  399 252.474 -7.80024 -0.972029
  400 252.203 -6.86756 0.757836
  401 196.478 -15.8114 -20.9595
  402 153.700 -2.62218 -34.6607
  403 153.677 -2.83385 34.9360
  404 360.572 -33.0191 -23.7369
  405 209.637 -16.1707 12.4454
  406 328.014 -10.1518 5.26358
  407 327.399 -9.26920 -4.37189
  408 274.923 -25.3893 -6.84476
  409 393.993 -1.81830 -2.73063
  410 132.785 53.9643 -102.340
  411 370.970 -5.42157 17.3966
  412 392.856 -2.15344 4.10181
  413 140.538 -7.55663 12.9126
  414 140.598 -7.45436 -12.9024
  415 278.518 -28.9377 -15.0844
  416 39.9998 17.7333 14.0542
  417 39.7846 17.7207 -14.0659
  418 728.115 47.4901 -37.7948
  419 321.540 -18.4585 -8.23161
  420 396.680 -1.48779 1.57281
  421 125.411 50.3953 97.4865
  422 585.951 98.6203 19.1658
  423 344.739 -5.40870 -2.65965
  424 258.078 -18.8088 -5.35955
  425 107.837 20.8184 -48.6524
  426 114.903 19.2939 48.3619
  427 317.703 -20.2358 8.29435
  428 337.050 -4.34761 -29.4357
  429 -2.03001 -0.317061 5.69456
  430 -2.18929 -0.313507 -5.69082
  431 121.851 29.3740 -65.2136
  432 122.239 29.4800 65.0137
  433 14.7180 6.74455 -6.09405
  434 14.8702 6.72978 6.15212
  435 285.094 -5.71494 0.505160
  436 284.751 -5.57083 -0.409000
  437 354.619 -16.2175 -27.3098
  438 -0.898060 -0.927032 12.8790
  439 -0.834481 -0.870645 -12.8313
  440 365.269 -35.9439 20.6696
  441 345.396 -9.38066 -7.90083
  442 558.003 106.781 -16.9548
  443 22.9263 -1.01956 2.68001
  444 22.8260 -1.01975 -2.70850
  445 670.847 190.188 85.7295
  446 13.6305 6.48676 -20.3253
  447 42.0135 1.98611 -13.8911
  448 42.1527 1.95382 13.8892
  449 669.151 194.593 -82.6571
  450 14.4504 7.99194 22.3449
  451 -16.9485 2.11227 0.757120
  452 -16.8427 2.10892 -0.715241
  453 37.6095 25.7453 -19.6496
  454 38.2572 25.7561 19.7561
  455 436.671 68.5914 -38.1512
  456 350.581 -13.7937 -17.5235
  457 394.583 -1.57341 -1.38187
  458 366.295 -5.65459 -20.4340
  459 -4.17341 2.73380 11.7708
  460 -4.10865 2.77006 -11.7258
  461 354.224 -14.3593 20.4544
  462 230.442 -13.0682 -5.44772
  463 229.737 -13.2007 4.67663
  464 312.526 -34.4460 -5.62058
  465 223.131 -2.98166 -69.4694
  466 340.378 -5.21497 30.0696
  467 278.393 -9.18199 0.137091
  468 408.551 -30.2938 -5.53280
  469 216.162 2.05981 74.4765
  470 17.1136 -0.319854 5.49845
  471 16.9742 -0.313399 -5.51063
  472 448.748 88.6960 -16.9803
  473 358.571 -2.83976 0.150766
  474 357.346 -3.19419 -0.475254
  475 271.040 -18.1940 2.25160
  476 118.881 -4.05347 -3.98772
  477 118.874 -4.00615 3.93906
  478 70.2428 -0.862627 -16.8613
  479 70.3249 -0.876526 16.8277
  480 228.690 8.85373 13.1674
  481 57.9363 -1.94082 8.14706
  482 57.8531 -1.92236 -8.18793
  483 61.6702 5.84789 19.0065
  484 61.4658 5.93454 -18.9905
  485 348.132 -26.9666 24.6179
  486 195.110 -12.1494 -32.5920
  487 180.199 -5.92609 2.58478
  488 180.264 -6.06968 -2.58920
  489 197.166 -12.5300 32.5846
  490 543.415 129.310 -12.2602
  491 -8.68797 -1.30309 -7.19556
  492 -8.68327 -1.30997 7.19152
  493 137.173 -3.90135 -1.66020
  494 137.173 -3.84286 1.65333
  495 0.180042 -23.2534 -8.77038
  496 0.123122 -23.3296 8.84840
  497 317.772 -4.95873 0.901685
  498 227.300 10.7957 -6.55328
  499 305.022 31.9511 18.8567
  500 193.839 -1.80611 -55.4171
  501 95.3297 -4.89443 12.3421
  502 95.3185 -4.85317 -12.3635
  503 -23.8934 0.776421 -1.98304
  504 -23.7482 0.771717 2.00224
  505 375.960 -6.90795 -55.4370
  506 30.9052 0.173782 -1.80882
  507 30.9575 0.178592 1.78529
  508 312.977 -24.7283 -6.58738
  509 333.483 -28.4379 -14.0234
  510 68.5313 52.4931 -69.4738
  511 280.291 7.97654 -109.297
  512 3.83643 8.48258 5.36625
  513 3.97109 8.50066 -5.29137
  514 171.772 -8.01097 -7.13096
  515 171.686 -7.93856 6.97908
  516 480.966 20.7396 -10.1622
  517 346.711 -20.5266 -22.3592
  518 66.8201 49.6780 68.5035
  519 343.508 -38.8165 10.2882
  520 330.417 -31.4173 10.7244
  521 70.9462 -1.72628 -5.35257
  522 70.9916 -1.71938 5.29969
  523 272.232 2.97624 31.4318
  524 196.616 -14.5306 -13.1620
  525 365.477 -8.21503 12.7178
  526 -1.48619 -8.88176 -6.99294
  527 -1.48988 -8.87481 6.98285
  528 256.545 -22.6552 36.5240
  529 389.818 -29.6595 -28.2608
  530 507.801 36.2172 -19.0919
  531 275.051 -9.50651 -0.0128257
  532 82.4065 -1.54472 -1.56023
  533 82.4255 -1.51501 1.54576
  534 174.363 1.47576 53.3972
  535 485.671 81.7948 24.9571
  536 492.447 98.5847 -172.756
  537 442.507 2.84643 26.6598
  538 318.713 -35.3840 3.92385
  539 750.702 59.7145 50.6841
  540 556.482 135.283 17.4433
  541 79.2544 -3.31216 13.4704
  542 79.1946 -3.27909 -13.4933
  543 306.421 -25.4521 4.66215
  544 23.2009 11.0150 -5.70088
  545 23.3741 11.0087 5.76952
  546 385.047 -31.8525 28.2878
  547 315.537 17.0762 46.3514
  548 387.565 -2.54441 7.09721
  549 286.856 -17.3114 1.76441
  550 401.362 3.98272 -115.217
  551 635.722 165.669 113.806
  552 310.794 -6.28057 -0.756252
  553 380.800 -3.93808 -11.4865
  554 60.3221 25.1094 -27.0167
  555 60.7591 24.8076 26.8968
  556 218.229 -8.87624 -3.56061
  557 218.129 -8.66788 3.63148
  558 2.59742 -27.2864 -3.37114
  559 388.772 -13.7200 49.2365
  560 15.1532 13.6005 1.15479
  561 15.3902 13.6379 -1.04311
  562 3.03535 -26.3350 4.20200
  563 353.956 -16.1311 -39.9719
  564 407.265 25.8668 -53.2102
  565 405.846 29.3087 53.2278
  566 19.7111 17.0225 15.0029
  567 18.7267 17.4177 -14.6797
  568 -10.7352 0.367890 4.30738
  569 -10.8987 0.371709 -4.29907
  570 373.995 10.0269 118.763
  571 205.227 -11.4330 7.13116
  572 205.433 -11.3926 -7.26805
  573 450.868 -7.49373 -61.0715
  574 59.0844 -0.825613 3.10481
  575 59.0454 -0.838905 -3.14024
  576 27.8269 -0.715519 -0.730717
  577 27.8627 -0.710839 0.722476
  578 495.294 90.5136 -19.9100
  579 47.4573 70.9349 -76.6656
  580 260.382 5.24276 -26.6335
  581 367.288 58.6482 -23.4408
  582 5.52054 0.0436189 7.74747
  583 5.74329 0.123980 -7.59794
  584 370.638 171.784 202.950
  585 315.496 -8.92455 -2.78799
  586 11.5353 3.21571 -7.28951
  587 11.6850 3.19245 7.32523
  588 364.492 -29.2677 34.1055
  589 56.1052 68.7464 78.0658
  590 262.935 -5.69026 0.356184
  591 263.007 -5.64338 -0.357227
  592 -0.258882 -18.5225 9.13730
  593 -0.230455 -18.4921 -9.10710
  594 448.295 87.3121 -0.717743
  595 284.671 -22.8234 51.8400
  596 271.776 -11.7458 -0.452619
  597 273.390 12.6690 115.297
  598 -22.5484 1.16936 5.47099
  599 -22.5256 1.17571 -5.44853
  600 447.962 6.14863 -28.6845
  601 596.296 101.068 -81.4571
  602 170.542 17.4367 -76.8922
  603 92.4494 -3.88110 -16.4177
  604 92.5359 -3.88190 16.4199
  605 405.133 -1.35304 1.95612
  606 269.101 -11.9965 0.118595
  607 360.223 -5.01972 4.28033
  608 353.973 -16.1378 39.0250
  609 15.5090 -0.588204 2.74192
  610 15.3863 -0.585694 -2.76305
  611 209.832 -7.40872 -2.07312
  612 209.803 -7.20863 2.00808
  613 130.991 2.86596 -35.7472
  614 130.149 2.90326 35.5904
  615 510.822 30.8149 31.0425
  616 832.740 62.7632 -91.0409
  617 -5.99322 -0.516197 3.76289
  618 -6.16226 -0.514477 -3.76207
  619 123.849 -5.23058 7.35311
  620 123.841 -5.22436 -7.45139
  621 476.181 26.3283 16.6726
  622 400.475 -1.46379 -0.620994
  623 399.599 -2.08835 0.252965
  624 290.543 -0.0843745 31.1182
  625 418.838 -24.3629 -37.4607
  626 227.554 -18.6899 15.7092
  627 -5.06511 5.16851 -4.97566
  628 -5.16598 5.16042 5.03408
  629 364.753 7.48887 58.3405
  630 144.631 -8.32313 -17.1587
  631 144.492 -8.46138 17.1918
  632 297.055 -17.2626 -2.86657
  633 367.147 -8.07248 -11.5020
  634 209.630 -16.7045 -23.6454
  635 343.808 41.4566 -35.4604
  636 231.844 -15.9797 -42.2686
  637 85.3917 -2.29154 -2.77392
  638 85.4109 -2.26434 2.73733
  639 211.805 -17.0024 23.7450
  640 455.052 73.5946 34.0689
  641 362.068 -17.5852 49.1853
  642 296.432 -13.2987 2.69947
  643 212.094 -5.73893 1.35256
  644 212.040 -5.75143 -1.31207
  645 159.927 -6.00798 -5.23763
  646 159.868 -5.94288 5.18208
  647 348.544 -31.9741 -19.5565
  648 176.532 -10.0191 9.16507
  649 176.722 -9.97935 -9.34922
  650 349.663 53.9311 -4.75176
  651 322.098 -16.9906 8.33661
  652 402.960 -1.88668 -3.05655
  653 342.528 -6.28531 -51.4122
  654 49.6433 -2.19399 10.8169
  655 49.5430 -2.17844 -10.8266
  656 393.148 -2.18777 -6.43104
  657 70.2254 36.2513 -48.9081
  658 71.4283 36.1628 49.1478
  659 401.008 -24.0902 51.6735
  660 138.023 34.4685 80.9797
  661 34.1056 -0.212867 10.8215
  662 33.9855 -0.204997 -10.8269
  663 341.548 -22.0159 66.8353
  664 336.500 47.8922 -157.062
  665 328.050 10.3207 -51.3360
  666 432.026 78.1762 29.4664
  667 291.341 -13.0251 -1.40196
  668 523.848 94.2226 -2.28916
  669 -25.0563 1.19937 -1.26086
  670 -24.9334 1.19624 1.28794
  671 232.406 1.07779 -81.3901
  672 16.6548 -0.344810 2.11439
  673 16.5656 -0.345687 -2.13616
  674 291.601 -24.5533 -51.2485
  675 96.6581 13.2736 -34.4808
  676 95.8895 13.3210 34.4626
  677 2.14144 4.87019 -2.20959
  678 2.27517 4.86371 2.26695
  679 247.807 -21.4305 -11.7922
  680 350.915 -3.45702 -19.7294
  681 167.327 -5.22302 -1.88730
  682 167.336 -5.16504 1.90196
  683 121.137 -6.20101 -10.9970
  684 121.233 -6.28721 10.9565
  685 22.9777 18.9000 -6.70579
  686 23.3604 18.9409 6.83535
  687 359.595 -4.35550 2.10357
  688 159.895 -10.1674 14.3021
  689 160.920 -9.98964 -14.2891
  690 398.164 -31.8572 -4.37640
  691 328.154 -32.9949 -7.17053
  692 258.001 -7.37290 -0.279010
  693 257.090 -6.88042 0.405675
  694 361.488 -38.2055 19.8948
  695 586.643 118.389 31.2470
  696 317.625 -14.1017 -82.9785
  697 363.681 -10.1745 20.5191
  698 361.302 -13.4571 -52.7968
  699 112.688 -3.51463 -5.17036
  700 112.690 -3.48820 5.10535
  701 282.418 -4.78806 93.0591
  702 787.974 101.097 92.6965
  703 54.3766 15.8338 -19.8806
  704 54.4578 15.9396 19.9461
  705 358.425 -3.54166 -1.05664
  706 361.262 -3.18191 1.07961
  707 152.398 77.2013 -131.474
  708 380.820 -2.07745 11.4867
  709 329.291 -5.72318 1.64406
  710 434.274 86.0283 -10.8602
  711 44.4526 7.92039 -14.3987
  712 44.6468 7.87050 14.4526
  713 408.652 -1.03495 0.329494
  714 331.193 -12.8201 -8.19097
  715 412.950 -6.26016 42.9920
  716 169.122 -11.8428 -22.4188
  717 169.546 -11.3350 22.2071
  718 38.6965 -1.33683 8.18741
  719 38.5853 -1.32011 -8.20961
  720 374.579 -2.58840 -1.97844
  721 322.944 63.6339 166.671
  722 2.42856 2.57366 10.6510
  723 2.54911 2.64569 -10.5681
  724 375.515 -4.08902 -5.26671
  725 364.703 -6.74081 7.52683
  726 289.164 0.228732 -33.3758
  727 2.75934 -33.1382 -4.25037
  728 2.57988 -33.4657 4.57986
  729 132.781 35.5288 -80.9837
  730 291.057 -29.2046 -36.9758
  731 151.291 76.5023 132.724
  732 403.373 -1.03905 1.16809
  733 389.691 58.3170 37.4219
  734 284.379 25.7939 -13.1362
  735 510.092 102.799 0.734277
  736 398.435 -1.70197 4.14785
  737 -23.6284 0.584054 3.04631
  738 -23.7887 0.587264 -3.03405
  739 424.142 -24.1737 11.4387
  740 274.544 -7.97998 -0.375002
  741 99.8628 0.152244 -24.5813
  742 99.9945 0.0527472 24.4410
  743 364.668 -4.32449 -3.02959
  744 643.874 91.1427 -33.0786
  745 43.5111 -1.28229 -5.14500
  746 43.6044 -1.28980 5.10785
  747 406.190 -1.13123 -1.90966
  748 81.0602 -3.62062 -7.17600
  749 81.1143 -3.63340 7.12089
  750 397.569 -15.8866 -44.3684
  751 367.273 -3.86022 15.8803
  752 329.576 -2.18111 50.8466
  753 406.800 -1.17629 0.00600566
  754 379.912 -2.92874 4.01546
  755 248.535 -13.4074 -2.75491
  756 311.479 -8.25136 2.05633
  757 354.139 -21.8237 -33.2475
  758 345.419 -21.7405 21.5547
  759 404.899 48.9205 -47.1629
  760 340.669 -19.1431 15.9255
  761 359.915 -21.3414 42.5713
  762 208.739 -14.1396 9.57349
  763 7.57171 -1.97873 -0.516810
  764 7.17132 -2.00462 0.896187
  765 315.289 -4.82038 -0.0158809
  766 314.621 -4.78678 -0.100872
  767 377.994 -1.75679 -0.210993
  768 379.298 -1.68195 0.299324
  769 360.286 -10.1302 25.1760
  770 332.564 -30.5722 48.4180
  771 273.163 -22.1867 4.28994
  772 242.650 -14.5030 4.59625
  773 656.783 84.1303 38.4013
  774 364.204 -9.27281 -16.1477
  775 213.575 37.2130 -123.277
  776 338.486 -16.7614 -13.7551
  777 13.6531 0.270966 -7.79606
  778 13.8001 0.258581 7.80672
  779 302.709 26.5314 -29.4442
  780 766.546 23.2655 -9.98731
  781 381.025 9.75573 -57.0409
  782 15.2919 9.55426 -30.1918
  783 392.270 70.5540 9.56767
  784 305.945 -19.4932 4.63559
  785 343.842 -8.62726 49.8784
  786 289.573 -30.4603 37.1805
  787 462.953 -2.55154 75.1710
  788 16.4780 13.0966 32.2382
  789 209.398 -1.25934 63.4594
  790 292.485 -7.61371 -0.678270
  791 326.092 -29.2744 -49.0095
  792 200.181 -15.5961 -16.5657
  793 158.143 7.54541 -55.4699
  794 377.711 -5.93502 55.8924
  795 242.314 -16.5455 7.43870
  796 46.7147 -1.33295 4.58878
  797 46.6445 -1.33455 -4.63099
  798 352.000 -1.93667 17.4740
  799 319.289 1.58017 -49.4258
  800 -27.8352 1.27062 3.38629
  801 -27.7930 1.27301 -3.36173
  802 235.786 -7.45727 -0.978387
  803 235.104 -7.05605 0.902796
  804 174.943 19.5351 78.0051
  805 156.111 -9.13784 10.7682
  806 156.327 -8.91602 -10.8804
  807 405.955 -0.824469 -1.03352
  808 142.370 11.2763 54.0631
  809 4.78435 -0.134788 2.92366
  810 4.63326 -0.131814 -2.93605
  811 347.767 -10.7628 38.5617
  812 371.332 -3.22799 1.55756
  813 -19.8451 0.242346 5.46343
  814 -19.8486 0.248785 -5.45242
  815 228.798 -14.3767 47.4578
  816 44.3293 37.2221 -41.4640
  817 44.8717 35.5121 40.8424
  818 216.754 9.57731 5.46888
  819 -3.62610 -0.229839 -3.35309
  820 -3.45646 -0.232089 3.34986
  821 263.046 -24.9942 -34.8366
  822 358.905 -37.6509 -11.6748
  823 -1.79015 -1.70016 -2.25371
  824 -1.78485 -1.69615 2.24533
  825 19.4068 0.607625 -0.691747
  826 19.4514 0.611026 0.679272
  827 319.247 -28.4280 7.67181
  828 268.808 -27.5267 24.3429
  829 297.676 -5.12638 0.703848
  830 268.112 -21.6490 -5.29607
  831 98.4517 -1.65260 -0.547529
  832 98.4648 -1.61352 0.538446
  833 -31.4371 0.669700 1.94370
  834 -31.3685 0.668834 -1.91955
  835 336.116 -4.45949 -1.38699
  836 297.718 11.6942 -42.0694
  837 339.908 -6.84270 -4.27330
  838 200.603 -15.3271 15.7877
  839 336.444 -5.91081 -40.7842
  840 359.888 -11.0023 -26.0114
  841 337.473 -3.84577 1.24128
  842 246.403 -9.41167 65.0824
  843 263.248 -25.7254 -13.8300
  844 158.663 -1.18452 -42.5281
  845 159.537 -0.0823200 42.7499
  846 224.436 -16.8309 -10.3796
  847 372.445 40.3553 48.8100
  848 353.426 -36.7952 -26.9170
  849 127.460 -4.05413 -2.60221
  850 127.450 -3.99424 2.57560
  851 270.125 -6.24751 0.241923
  852 270.136 -6.29815 -0.177032
  853 321.670 -2.43333 -26.6725
  854 108.633 -4.60270 -8.88017
  855 108.692 -4.63728 8.80538
  856 1.31474 -33.4879 -6.60861
  857 1.24477 -33.6324 6.74602
  858 55.0057 -0.816699 -0.223382
  859 54.9762 -0.833272 0.212494
  860 333.604 -5.34072 -1.94274
  861 253.384 -24.1541 22.0117
  862 393.353 -33.6899 12.2533
  863 231.003 4.84411 20.9444
  864 341.114 -8.13210 4.90609
  865 372.480 -33.3864 -26.3645
  866 53.8479 3.39843 -16.4591
  867 54.0072 3.34180 16.4508
  868 296.164 -5.49143 -0.642141
  869 238.623 -8.37875 -2.08077
  870 237.796 -8.30584 2.29346
  871 368.291 57.3259 26.4095
  872 128.099 -1.28128 -29.6728
  873 127.979 -1.43042 29.5442
  874 255.748 -23.1292 11.0363
  875 24.8088 16.1010 -5.79710
  876 25.0532 16.0700 5.86718
  877 216.345 -15.3964 38.6580
  878 259.377 -16.5870 -2.93812
  879 323.539 -2.51976 26.9516
  880 318.472 -35.8378 12.3013
  881 364.969 -27.7733 -36.8281
  882 252.764 -24.3516 -22.3195
  883 210.246 -14.0817 -9.18075
  884 685.997 56.3646 -10.5869
  885 333.598 -35.3426 5.08230
  886 9.63533 10.9909 3.82535
  887 9.80987 11.0124 -3.73393
  888 289.978 -29.0593 6.06410
  889 318.003 -35.7850 -21.3394
  890 10.2930 9.58663 0.235509
  891 10.4463 9.58943 -0.165506
  892 119.879 -4.26455 22.5065
  893 119.950 -4.39306 -22.6394
  894 145.181 -7.34236 24.6927
  895 145.128 -7.51636 -24.8620
  896 458.919 92.0372 13.3503
  897 -0.676513 -14.1937 -6.77970
  898 -0.681396 -14.1765 6.77487
  899 105.571 8.91282 -32.8002
  900 105.055 8.73142 32.4800
  901 792.505 25.6791 -40.0180
  902 15.3448 -0.0810408 1.18583
  903 15.2756 -0.0836289 -1.20293
  904 1.39062 -38.1615 2.10134
  905 1.62153 -37.5157 -1.55587
  906 -15.1920 -0.186617 5.61845
  907 -15.2090 -0.181886 -5.61664
  908 84.3878 24.7967 -38.6269
  909 85.6938 23.9741 38.0819
  910 -6.61645 0.332326 -11.8264
  911 -6.64964 0.305603 11.8474
  912 24.3608 2.17375 -10.7205
  913 24.5114 2.14571 10.7364
  914 92.0452 -1.06306 20.7318
  915 91.9804 -1.05850 -20.8357
  916 75.1530 -2.57247 -16.7222
  917 75.2302 -2.56771 16.6957
  918 394.948 -1.47894 -6.33873
  919 192.488 41.1266 114.632
  920 265.873 -26.2237 12.9582
  921 188.902 -13.5248 12.6908
  922 364.211 37.5009 -48.2321
  923 779.337 16.7070 15.9679
  924 431.485 19.7336 -45.5600
  925 71.6595 -2.74859 10.4326
  926 71.5862 -2.71734 -10.4720
  927 12.8094 -0.409411 -7.68461
  928 12.9535 -0.413432 7.68447
  929 -0.241098 -6.69305 -12.8533
  930 -0.297858 -6.74913 12.8965
  931 195.241 -8.60757 5.60833
  932 195.342 -8.77566 -5.63676
  933 23.6471 6.36715 -9.51800
  934 23.8087 6.33852 9.56833
  935 118.990 -5.29909 -19.0937
  936 119.071 -5.29918 19.0811
  937 257.100 -1.12575 -24.6460
  938 122.786 -6.67015 -13.2294
  939 122.702 -6.59801 13.2728
  940 298.309 -8.38317 -0.853911
  941 360.981 -20.6888 -45.7487
  942 157.734 -6.38726 6.01984
  943 157.808 -6.44637 -6.10182
  944 -6.53902 -0.700363 -3.96521
  945 -6.52119 -0.702041 3.95674
  946 367.638 -28.2958 -60.0012
  947 352.049 -20.6528 28.8963
  948 308.846 -21.5838 -6.05154
  949 301.502 10.2990 44.3267
  950 137.006 -7.69152 -14.8992
  951 137.007 -7.54496 14.9455
  952 336.770 12.8847 53.5550
  953 314.512 27.4173 35.2664
  954 640.792 77.0388 13.4908
  955 328.503 -11.7975 5.98496
  956 173.018 -5.14790 -2.70424
  957 172.997 -5.04619 2.72731
  958 294.261 -24.1068 -0.904722
  959 407.426 74.7442 -22.4149
  960 359.681 -3.89937 -2.13801
  961 236.337 -5.79490 0.888278
  962 236.246 -5.75032 -0.820715
  963 30.0773 25.4107 -18.0808
  964 30.8392 25.3659 18.2187
  965 56.8516 145.089 -127.848
  966 337.262 -7.98303 40.5627
  967 419.818 -7.79121 -38.2163
  968 -7.00442 4.05856 2.15299
  969 -6.89390 4.05784 -2.09786
  970 852.024 202.369 -161.506
  971 359.475 -39.0538 3.83772
  972 383.343 -35.3956 -15.6280
  973 353.927 -30.3222 26.1966
  974 437.874 86.1762 9.24999
  975 31.6925 33.2716 -38.6449
  976 80.6547 125.479 125.524
  977 -2.10698 -4.91015 12.8533
  978 -2.07174 -4.86902 -12.8314
  979 344.301 -8.81208 6.15232
  980 552.733 97.8034 -11.8364
  981 32.6172 32.5160 40.1792
  982 -1.52190 -5.10949 -4.40924
  983 -1.52220 -5.09541 4.39783
  984 295.425 -6.89122 0.275953
  985 220.565 -17.5140 -17.2783
  986 356.695 -28.1889 -31.1729
  987 101.335 27.2599 -51.0531
  988 102.958 27.7095 51.1861
  989 346.530 -8.60267 -36.1641
  990 349.030 -11.0574 11.5406
  991 -9.27748 2.38139 10.3886
  992 -9.23073 2.40514 -10.3546
  993 210.636 -13.8750 -36.3549
  994 349.686 22.3243 -53.7280
  995 259.874 -9.73079 1.00952
  996 186.995 -5.32583 0.464534
  997 186.960 -5.36113 -0.443135
  998 -3.93555 -4.46846 -9.19307
  999 -3.94119 -4.47813 9.18564
  1000 353.753 -12.6022 -14.2433
  1001 336.765 -3.76765 0.367781
  1002 336.452 -3.77199 -0.230638
  1003 465.546 76.1485 -31.3633
  1004 83.9646 7.28131 -25.8553
  1005 84.1735 7.13589 25.7979
  1006 53.6288 -0.508629 -13.8610
  1007 53.7301 -0.519456 13.8444
  1008 383.545 20.5053 57.7035
  1009 362.765 -6.82077 -7.90293
  1010 64.0379 10.1010 -21.0470
  1011 64.2918 10.0253 21.1245
  1012 378.406 -2.02927 -1.27620
  1013 353.466 -15.2624 -21.7333
  1014 345.168 -38.9471 -14.9355
  1015 13.2028 11.3485 -0.0416977
  1016 12.8357 11.2942 0.208544
  1017 -16.6825 2.74420 6.15136
  1018 -16.6219 2.75180 -6.11087
  1019 209.430 7.87592 -9.14721
  1020 596.941 148.170 -40.8541
  1021 272.818 -19.8644 -1.77542
  1022 180.437 -7.87885 -37.4169
  1023 437.590 -17.4712 3.47944
  1024 181.147 -7.87106 37.9407
  1025 313.696 -36.4788 24.9081
  1026 355.612 -14.7080 -32.7980
  1027 121.998 -2.83963 -0.832589
  1028 122.007 -2.78949 0.827022
  1029 242.855 -18.9543 -9.02732
  1030 148.855 -5.55177 -29.1468
  1031 148.799 -5.59393 28.9986
  1032 49.3380 32.2946 -31.5704
  1033 50.1212 32.2019 31.6651
  1034 102.620 -3.25950 -2.96106
  1035 102.627 -3.21912 2.92266
  1036 316.290 -10.0236 3.15543
  1037 266.968 1.16130 -94.1999
  1038 327.837 -10.6447 -5.95614
  1039 296.167 -32.7421 -15.0170
  1040 194.746 -8.20302 3.84059
  1041 194.906 -8.26464 -3.85306
  1042 383.548 -2.35701 1.60935
  1043 342.994 -8.15031 -5.76519
  1044 220.920 5.37753 17.2564
  1045 367.744 -3.63574 -14.7728
  1046 142.414 41.6241 91.8300
  1047 378.574 -3.50571 -12.1001
  1048 98.9014 16.6422 -38.4598
  1049 95.9498 16.8299 36.8946
  1050 452.233 -7.60820 -5.31764
  1051 40.9113 21.3458 -16.4415
  1052 41.2883 21.1926 16.4386
  1053 6.97152 -0.447345 3.96771
  1054 7.32038 -0.382793 -3.73785
  1055 58.6531 -1.56308 3.56652
  1056 58.6024 -1.57329 -3.61086
  1057 162.021 42.1304 -101.748
  1058 879.304 229.391 173.824
  1059 352.599 -12.5958 14.6093
  1060 316.494 -35.5439 -11.0729
  1061 219.954 -18.0762 -28.1068
  1062 -4.49714 4.87033 8.99574
  1063 -4.41242 4.89706 -8.93885
  1064 248.245 -12.7605 2.19197
  1065 273.808 -10.1534 0.0928590
  1066 -0.134047 -20.1139 6.53738
  1067 -0.127209 -20.1336 -6.53558
  1068 41.1614 25.5362 -19.5689
  1069 41.6510 25.4888 19.6861
  1070 244.934 -11.7298 -2.08908
  1071 19.3199 8.94088 6.01456
  1072 19.1594 8.95304 -5.94996
  1073 374.120 -14.7787 53.0480
  1074 270.831 -28.0323 -24.2201
  1075 221.263 -18.3673 28.1057
  1076 356.335 -7.15471 -55.8826
  1077 375.970 -4.10139 5.73346
  1078 136.235 20.9706 61.6149
  1079 137.213 20.0703 -60.5881
  1080 219.677 -10.6368 -51.8590
  1081 311.036 -11.1306 -3.19874
  1082 252.875 -15.1854 4.23706
  1083 296.255 -27.6598 -1.12128
  1084 406.363 -1.43813 -3.27412
  1085 219.439 -10.0762 4.09162
  1086 219.343 -10.6548 -4.21480
  1087 7.41285 8.68356 7.25075
  1088 7.59358 8.74757 -7.14690
  1089 359.228 13.2499 -57.7533
  1090 80.6490 4.08848 -22.8350
  1091 80.8642 3.99812 22.7725
  1092 60.5795 1.17342 -16.3729
  1093 60.7105 1.13970 16.3435
  1094 409.757 -16.2718 75.4645
  1095 355.177 -16.3587 32.3183
  1096 173.847 -7.97215 -31.7494
  1097 412.878 -1.63005 -1.95533
  1098 463.454 87.6370 -23.6661
  1099 375.271 -3.57999 -3.59729
  1100 351.885 -37.9182 11.4741
  1101 260.465 -19.7848 45.5031
  1102 415.545 -0.511533 0.358353
  1103 220.506 6.87303 -14.6325
  1104 298.322 -31.8932 -7.07474
  1105 174.127 -8.33425 31.4038
  1106 301.095 -27.4227 -0.607949
  1107 375.441 -5.35557 10.8060
  1108 269.511 17.0429 22.7827
  1109 186.982 -13.7334 -25.3169
  1110 566.449 81.4123 -34.1585
  1111 426.292 19.3826 47.8644
  1112 318.601 39.9005 5.58238
  1113 411.135 0.0565485 1.72507
  1114 162.318 -10.1271 -19.3938
  1115 110.752 68.5751 -102.272
  1116 197.988 5.36260 -73.6259
  1117 227.137 -17.4433 12.2577
  1118 191.891 -14.3534 23.7328
  1119 161.928 -9.63087 19.5918
  1120 341.686 2.98339 56.2007
  1121 258.089 -9.02624 -0.706253
  1122 405.329 -3.00533 4.41723
  1123 -3.19428 -0.235704 12.8319
  1124 -3.14568 -0.194471 -12.7994
  1125 270.316 -7.75963 0.180179
  1126 -0.236004 3.09976 11.5754
  1127 -0.148176 3.15368 -11.5136
  1128 151.960 -4.79495 3.39741
  1129 151.972 -4.87096 -3.40165
  1130 381.960 -2.05486 10.0441
  1131 307.069 -18.8114 -4.98352
  1132 287.645 -15.3964 -1.33237
  1133 321.682 -22.5350 10.4288
  1134 98.2086 48.8861 -76.3158
  1135 315.330 -11.9635 4.26302
  1136 47.2648 0.874881 -13.4350
  1137 47.3890 0.851487 13.4246
  1138 65.7927 42.4493 -53.7740
  1139 503.931 66.4140 15.0158
  1140 36.3048 -1.66836 7.83949
  1141 36.1878 -1.65476 -7.85223
  1142 66.9800 41.7985 51.9378
  1143 288.774 -24.1782 -0.258410
  1144 146.366 -6.83719 7.43092
  1145 146.390 -6.86879 -7.55243
  1146 588.748 124.728 -33.3578
  1147 318.137 -31.8712 1.86967
  1148 109.071 64.1868 102.060
  1149 9.37682 -1.92176 -8.67922
  1150 10.1013 -1.79891 9.53262
  1151 335.439 42.0533 28.2280
  1152 25.2435 13.6194 -6.10937
  1153 25.4473 13.6234 6.16814
  1154 320.233 -27.8578 -8.15817
  1155 -0.147219 -31.0641 -6.12601
  1156 -0.161760 -31.0690 6.15392
  1157 342.262 -28.8893 -18.3073
  1158 -4.96963 0.415822 2.61275
  1159 -5.14044 0.418457 -2.61878
  1160 52.5453 19.5283 -21.1440
  1161 52.8301 19.6125 20.9531
  1162 -17.2348 0.0400832 -3.19984
  1163 -17.0571 0.0387998 3.20295
  1164 341.876 -3.79296 -0.461328
  1165 -33.9980 1.00412 0.514333
  1166 -33.9041 1.00360 -0.492080
  1167 180.859 -14.1984 -18.7233
  1168 4.82114 -44.2660 -4.70693
  1169 90.9687 -2.58453 5.65788
  1170 90.9368 -2.59370 -5.72054
  1171 290.573 -5.62043 0.437901
  1172 291.124 -5.47530 -0.381256
  1173 5.17794 -42.1721 5.75909
  1174 344.504 -17.9914 -18.1591
  1175 393.271 -1.83128 7.38486
  1176 350.017 -22.4332 -26.6256
  1177 305.766 2.27330 43.9789
  1178 1.64925 -12.3710 9.37298
  1179 1.79957 -12.2768 -9.21683
  1180 223.975 -16.2937 9.78048
  1181 -15.2901 1.40996 8.29926
  1182 -15.2618 1.42192 -8.27434
  1183 580.856 92.3635 6.21493
  1184 677.881 213.011 -149.938
  1185 357.839 -34.7603 22.6928
  1186 148.095 -4.33611 -0.486616
  1187 148.104 -4.28312 0.487040
  1188 731.951 71.0296 -65.5565
  1189 52.7184 -1.37419 8.14043
  1190 52.6236 -1.35320 -8.17161
  1191 334.419 -1.09192 -17.4245
  1192 214.876 -17.3721 21.1739
  1193 353.971 -34.6794 -16.4310
  1194 342.596 -24.9156 -20.7371
  1195 209.267 -7.35658 54.3613
  1196 77.6562 14.4211 -29.1273
  1197 77.6141 14.2929 28.9631
  1198 102.226 37.8844 -64.8814
  1199 102.363 35.0618 64.8837
  1200 29.4003 8.51761 -10.0815
  1201 29.5748 8.49219 10.1426
  1202 422.621 73.2880 -32.7592
  1203 21.9640 20.1098 -9.13784
  1204 22.4753 20.1394 9.29146
  1205 304.868 -23.3621 4.21112
  1206 569.124 84.3534 38.3349
  1207 72.9168 -3.03995 -5.57557
  1208 72.9697 -3.03880 5.52012
  1209 369.666 259.617 -222.350
  1210 285.664 16.9604 -35.1553
  1211 262.438 20.1258 14.3565
  1212 36.5229 15.3231 -11.9259
  1213 36.6965 15.3231 11.9920
  1214 7.87499 -0.0713908 1.91196
  1215 7.76027 -0.0712720 -1.92858
  1216 337.666 -27.1243 17.0832
  1217 332.030 -13.3429 9.02467
  1218 227.472 64.8094 -159.397
  1219 523.464 114.297 -5.75685
  1220 225.204 -6.81161 -59.8646
  1221 291.713 -9.04393 0.515665
  1222 15.4109 -1.44887 -0.445017
  1223 15.4410 -1.44782 0.442443
  1224 -7.30254 2.28765 -4.37943
  1225 -7.16066 2.27817 4.41295
  1226 195.810 2.15633 -62.9169
  1227 360.285 -7.95690 10.1833
  1228 234.480 4.37735 85.9257
  1229 317.491 -15.7465 -6.79154
  1230 164.039 58.5944 -125.498
  1231 254.820 -12.3709 -64.6360
  1232 303.395 -32.3944 5.37144
  1233 371.311 -5.89326 16.3222
  1234 325.708 -6.88882 -2.44459
  1235 180.097 -13.3274 18.8316
  1236 408.531 -22.8778 -29.6340
  1237 387.764 33.6917 54.6411
  1238 169.052 0.801018 -49.7330
  1239 385.844 -2.45646 1.24963
  1240 310.659 38.6386 -7.96816
  1241 134.941 -4.72320 -5.54610
  1242 134.915 -4.67369 5.48466
  1243 591.191 136.990 33.9298
  1244 807.379 21.4546 37.4831
  1245 0.725548 -37.9162 -6.08280
  1246 0.702149 -37.9588 6.12992
  1247 87.4631 46.2785 71.3950
  1248 209.084 -6.17345 -1.14331
  1249 209.129 -6.13617 1.22125
  1250 286.254 -28.8093 -7.69487
  1251 341.534 28.0080 48.6792
  1252 357.378 -7.09376 -6.51688
  1253 415.033 -1.12043 -0.356013
  1254 718.534 159.712 -100.749
  1255 112.195 -4.23924 5.73199
  1256 112.184 -4.24860 -5.80777
  1257 342.612 -31.8060 17.4938
  1258 601.124 147.383 -45.8448
  1259 332.240 -14.5453 -10.1847
  1260 242.792 -16.9134 -6.74745
  1261 298.103 -32.3958 14.6365
  1262 291.484 -14.6324 1.98680
  1263 10.8507 2.73030 -13.7320
  1264 398.531 -24.1501 35.4056
  1265 322.922 -21.1559 -10.1814
  1266 11.9541 3.28907 15.1897
  1267 332.029 -26.4403 -60.6766
  1268 313.892 19.7616 -130.376
  1269 516.377 66.1707 -10.0232
  1270 416.646 -0.317335 -0.129063
  1271 415.909 -0.702170 0.371339
  1272 328.472 -19.2031 11.0768
  1273 126.621 15.0911 -48.9776
  1274 374.131 -33.2472 28.5712
  1275 635.741 145.436 66.8396
  1276 157.339 54.2127 122.271
  1277 4.42901 0.617812 9.54099
  1278 4.59494 0.698893 -9.42645
  1279 392.985 -31.5667 -32.7140
  1280 158.318 -8.64954 -8.89589
  1281 158.290 -8.67180 8.73412
  1282 366.095 -24.1152 43.8448
  1283 13.5160 0.0961251 8.55445
  1284 13.3723 0.103311 -8.55136
  1285 -2.00294 -7.64439 10.5886
  1286 -1.98930 -7.62797 -10.5903
  1287 65.2761 -2.25057 -7.42443
  1288 65.3477 -2.26386 7.37668
  1289 192.586 -12.8564 -28.7718
  1290 194.018 -6.45041 1.69670
  1291 194.012 -6.59069 -1.62365
  1292 415.159 -0.308041 0.0570436
  1293 369.081 -5.69374 -18.3691
  1294 30.1557 1.36554 -10.7463
  1295 30.2951 1.34480 10.7505
  1296 193.356 -13.6000 28.5414
  1297 419.150 -0.443312 0.154927
  1298 396.100 -0.411520 -0.444411
  1299 396.085 -0.649631 0.343260
  1300 523.551 110.536 5.25938
  1301 386.053 -2.66479 -2.86369
  1302 342.917 -3.58326 0.339336
  1303 379.893 -5.78318 -9.55400
  1304 413.011 -1.34580 1.32916
  1305 430.881 44.4904 47.4360
  1306 499.161 103.774 11.9289
  1307 401.388 -1.60484 -4.88455
  1308 -3.29942 -0.840501 2.96288
  1309 -3.31261 -0.839890 -2.97193
  1310 223.131 -14.0920 6.70173
  1311 223.088 -13.4721 -6.50645
  1312 434.805 49.3404 -45.1077
  1313 90.6883 31.2851 -53.6136
  1314 91.2726 30.4288 53.0335
  1315 293.724 0.0258532 -21.9905
  1316 301.846 -4.92270 -0.272809
  1317 301.477 -4.88316 0.210009
  1318 -7.25999 -1.20092 10.7766
  1319 -7.24671 -1.18133 -10.7724
  1320 335.431 -0.871728 17.3946
  1321 509.859 101.377 -1.37543
  1322 36.3495 -1.37775 -4.67949
  1323 36.4403 -1.38097 4.64223
  1324 376.613 -36.1491 15.5176
  1325 0.669030 6.25976 9.16249
  1326 0.778937 6.29775 -9.09155
  1327 69.7513 -1.58620 -1.54302
  1328 69.7782 -1.56148 1.51817
  1329 293.800 -0.435042 22.3253
  1330 12.1193 0.632666 -0.714450
  1331 12.1747 0.635085 0.701923
  1332 383.103 -4.48524 6.15538
  1333 533.887 97.2464 5.09066
</Section>

newXOutput 49

<Section columns = "stress_xx | stress_yy | stress_xy">
  1 434.250 -1.14023 0.789487
  2 434.935 -1.46802 -1.02545
  3 8.15184 0.407218 -1.12569
  4 -0.310101 -0.471087 -0.306613
  5 796.305 318.767 260.443
  6 808.577 364.893 -263.183
  7 -0.306696 -0.468109 0.302206
  8 8.12150 0.404935 1.12304
  9 437.210 -0.806908 -0.719157
  10 433.974 -1.50006 -1.03939
  11 434.292 -1.16991 0.958390
  12 432.160 -0.620132 0.417637
  13 431.308 -1.40760 -0.270356
  14 430.629 -1.35232 1.71053
  15 424.378 -0.949509 1.64149
  16 426.038 -3.06940 2.49968
  17 412.767 -2.54371 5.37963
  18 404.345 -1.12196 6.46976
  19 392.733 -1.38441 6.98116
  20 372.557 -1.22686 9.76304
  21 350.581 -1.04917 11.3407
  22 323.144 1.42848 15.5585
  23 285.559 2.21091 14.0915
  24 270.476 -0.138049 20.1771
  25 223.576 3.18584 14.3545
  26 195.061 4.19861 11.2500
  27 187.633 2.02620 8.29615
  28 179.668 6.13579 0.611843
  29 184.027 6.62570 -11.0944
  30 192.794 1.89502 -13.9281
  31 227.843 0.813789 -18.5970
  32 263.188 -1.76753 -19.3084
  33 286.905 1.83211 -14.0680
  34 323.550 1.62620 -15.5629
  35 349.673 -1.24583 -12.1550
  36 374.782 -1.39442 -9.21190
  37 391.166 -1.00491 -7.09004
  38 403.129 -1.19032 -5.93394
  39 415.946 -1.47196 -3.43589
  40 420.946 -1.49459 -3.28494
  41 425.822 -1.41436 -2.89419
  42 430.776 -1.61371 -0.566165
  43 432.677 -2.05284 -1.19108
  44 430.166 0.138518 -0.0689899
  45 433.792 -1.06509 -1.08243
  46 435.656 -2.21085 1.13338
  47 437.747 -1.26601 -0.0538665
  48 415.725 0.267321 -0.655726
  49 391.051 -1.65047 -1.23248
  50 363.133 -3.80155 -1.77384
  51 334.255 -3.17761 -1.28866
  52 309.082 -5.15470 -1.18499
  53 282.527 -5.60250 -1.08227
  54 255.755 -4.90453 -0.534111
  55 227.618 -5.26018 -0.733697
  56 203.833 -5.60694 -0.965112
  57 172.208 -5.36818 -0.786873
  58 139.674 -3.37560 -0.503674
  59 112.778 -2.16641 -0.400468
  60 79.5837 -1.36650 -0.164192
  61 55.4756 -1.33049 -1.65929
  62 33.0816 -1.83896 -0.547360
  63 10.4955 0.209620 1.02284
  64 4.62766 1.57627 0.397293
  65 2.95622 0.641139 1.07572
  66 3.75810 0.289442 1.06530
  67 -0.931249 0.907112 0.483777
  68 -2.76707 1.18716 2.22090
  69 -3.57084 0.415416 0.823399
  70 -11.5111 0.880668 0.902331
  71 -15.2691 0.610406 2.13974
  72 -16.8285 0.204165 2.24937
  73 -25.5519 0.827533 1.77340
  74 -28.8788 1.23789 3.31342
  75 -32.5983 0.751134 1.24927
  76 -36.8887 0.546310 1.81526
  77 -38.6813 0.583524 0.766109
  78 -42.8443 1.41336 -0.880877
  79 -43.4277 0.968694 -0.651936
  80 -39.6625 0.732409 -1.31777
  81 -34.1368 0.957656 -2.58390
  82 -27.7895 0.425617 -3.96819
  83 -20.7417 0.234645 -4.15045
  84 -12.4629 -0.418221 -4.35868
  85 -5.42763 -0.335268 -2.55128
  86 -2.27985 -0.901530 -1.59486
  87 -0.380025 -2.29242 -1.38198
  88 -0.638397 -5.85751 -2.45484
  89 -0.727404 -11.4476 -4.30243
  90 -0.141954 -21.4234 -4.63848
  91 0.261422 -29.5953 -5.81581
  92 0.607818 -42.5271 -4.74077
  93 1.83284 -50.4118 -5.57823
  94 0.323770 -54.1641 -4.57548
  95 -0.0689578 -61.9333 -2.67067
  96 1.72854 -59.6989 -0.494099
  97 7.01499 -77.2401 3.53549
  98 6.31897 -40.3323 11.3218
  99 14.9767 -15.4980 24.7172
  100 44.8009 76.7725 76.3116
  101 189.650 248.804 214.982
  102 1043.21 111.548 154.763
  103 873.114 30.8904 55.5132
  104 831.362 13.1760 19.1109
  105 808.199 8.63190 -0.102578
  106 822.951 12.5503 -15.7026
  107 881.267 26.3761 -45.9606
  108 1032.31 88.5332 -144.091
  109 123.094 282.042 -177.918
  110 31.4761 56.9891 -59.0900
  111 11.0379 -22.8885 -20.5634
  112 5.72545 -44.6747 -9.75413
  113 6.97724 -80.3436 -2.77645
  114 1.65208 -61.0756 1.03130
  115 -0.170800 -62.6226 2.95073
  116 0.258837 -54.4305 4.72562
  117 1.79748 -50.4744 5.64174
  118 0.594225 -42.5035 4.76427
  119 0.251112 -29.5534 5.82429
  120 -0.146993 -21.3703 4.63573
  121 -0.728055 -11.4138 4.29331
  122 -0.639780 -5.82830 2.44628
  123 -0.379766 -2.28147 1.37440
  124 -2.26669 -0.900288 1.58852
  125 -5.40429 -0.336766 2.54446
  126 -12.4330 -0.421754 4.35465
  127 -20.7073 0.230762 4.15146
  128 -27.7707 0.421387 3.97566
  129 -34.1459 0.954663 2.59844
  130 -39.7000 0.732192 1.33338
  131 -43.5021 0.967855 0.667129
  132 -42.9490 1.41327 0.896655
  133 -38.8204 0.585068 -0.752428
  134 -37.0534 0.548204 -1.80520
  135 -32.7755 0.753283 -1.24136
  136 -29.0702 1.24044 -3.31031
  137 -25.7484 0.829904 -1.77082
  138 -17.0219 0.205608 -2.25001
  139 -15.4626 0.612892 -2.14298
  140 -11.6953 0.884167 -0.907108
  141 -3.73255 0.417748 -0.832300
  142 -2.90581 1.18953 -2.23409
  143 -1.04972 0.907747 -0.495473
  144 3.67067 0.288981 -1.07664
  145 2.89187 0.639989 -1.08482
  146 4.57859 1.57425 -0.405204
  147 10.4596 0.208312 -1.02745
  148 33.0486 -1.84568 0.542582
  149 55.4449 -1.34751 1.65401
  150 79.5613 -1.39674 0.157262
  151 112.767 -2.21020 0.396852
  152 139.663 -3.42642 0.503080
  153 172.188 -5.41215 0.793720
  154 203.782 -5.62882 0.979474
  155 227.533 -5.23269 0.767737
  156 255.634 -4.80387 0.573348
  157 282.359 -5.36504 1.02280
  158 309.215 -5.22243 1.04040
  159 334.354 -3.59868 1.36031
  160 363.418 -3.72408 1.61435
  161 391.831 -1.42457 1.24950
  162 415.035 0.242205 0.637377
  163 241.734 -21.8052 -20.1698
  164 240.762 -22.2013 20.1225
  165 72.6920 20.0646 -29.2605
  166 73.4104 20.1382 29.1342
  167 285.256 -13.5785 74.0658
  168 299.030 -15.3597 -72.0767
  169 140.081 -7.37784 9.30567
  170 140.067 -7.30491 -9.43896
  171 304.727 -10.7224 1.55919
  172 298.620 -10.7529 -1.45473
  173 406.440 73.2555 -10.2295
  174 412.201 2.99306 -52.1550
  175 404.025 6.15224 56.1150
  176 97.3639 -3.68668 -19.6663
  177 97.3696 -3.65944 19.6265
  178 356.260 -35.2750 18.4375
  179 355.885 -27.4027 -26.0217
  180 4.94701 8.30562 8.55130
  181 5.09412 8.35908 -8.46388
  182 486.681 99.0582 15.2461
  183 93.9309 42.0562 -66.2058
  184 100.794 42.4534 71.0004
  185 344.522 -16.1232 12.1774
  186 516.749 108.522 -6.68195
  187 223.357 -8.17899 -2.67817
  188 222.996 -8.39054 2.65462
  189 354.203 -11.2200 -11.1207
  190 471.572 -2.67713 -7.03199
  191 87.7419 -2.63916 3.55027
  192 87.7149 -2.66207 -3.60106
  193 37.6351 4.76814 -13.2603
  194 37.8062 4.71920 13.2911
  195 199.171 -7.61571 -46.4236
  196 198.393 -8.03338 47.0205
  197 237.861 -15.4709 -7.08092
  198 238.336 -15.3844 7.54459
  199 62.3034 -2.18104 10.4536
  200 62.2136 -2.15145 -10.4772
  201 466.450 -7.92536 31.0549
  202 381.563 -37.5385 -7.43861
  203 362.395 -3.77146 -1.68853
  204 354.325 -4.57361 1.71988
  205 360.161 42.2529 39.6823
  206 15.4633 13.3331 -5.15892
  207 16.0249 13.3066 5.40893
  208 358.985 -14.4326 46.1591
  209 330.678 25.2617 -45.4402
  210 235.152 53.4797 -151.873
  211 247.262 45.1748 141.106
  212 6.37564 7.93740 -1.03642
  213 6.51581 7.93563 1.10336
  214 357.838 -12.7235 -47.7003
  215 621.601 87.0250 -5.92350
  216 297.406 -32.4006 26.6092
  217 299.645 -32.2183 -25.1720
  218 297.234 -21.2671 -1.55150
  219 368.319 -5.89882 5.91421
  220 178.739 -12.2651 -17.2208
  221 175.938 -12.2159 17.7542
  222 107.520 2.19060 -29.6543
  223 107.673 2.14888 29.4038
  224 378.069 -39.8558 -4.63108
  225 294.766 -22.6049 0.279056
  226 367.002 -5.76109 -4.62239
  227 286.016 -7.47230 0.0228739
  228 288.501 -6.97476 0.517816
  229 362.399 -16.1965 26.5372
  230 31.6590 0.290042 -11.1516
  231 31.7926 0.275506 11.1499
  232 -4.55393 -3.04849 -12.2624
  233 -4.57751 -3.07763 12.2724
  234 56.1183 -2.43084 -6.05316
  235 56.1942 -2.43670 6.00474
  236 153.649 -4.62887 4.13949
  237 153.685 -4.71030 -4.17201
  238 176.564 12.2592 -67.8470
  239 176.584 10.2298 67.0806
  240 367.509 -11.4865 -22.6961
  241 172.998 -10.0989 -28.0800
  242 173.146 -10.4070 27.6832
  243 324.471 5.00908 51.3984
  244 284.141 24.3958 3.11268
  245 315.548 -31.4575 -0.917567
  246 1.44690 -7.58975 -11.0916
  247 1.34092 -7.67384 11.1839
  248 20.4426 21.1259 -23.0052
  249 21.7533 20.4008 24.1669
  250 310.289 -30.7753 -1.14932
  251 558.830 105.270 -8.50134
  252 29.3431 19.7894 -9.83948
  253 29.6949 19.7813 9.95483
  254 -11.8177 2.62293 8.29016
  255 -11.7567 2.63659 -8.24800
  256 561.666 98.6561 11.6716
  257 197.064 -9.54154 -6.76262
  258 196.914 -9.38977 6.62785
  259 385.226 -25.9472 42.6036
  260 694.443 113.021 70.1389
  261 115.712 -6.10191 -16.1554
  262 115.689 -6.14485 16.1393
  263 393.128 58.8450 -37.8952
  264 670.282 127.422 -63.9565
  265 469.057 47.2250 36.0035
  266 508.868 32.8765 -95.7594
  267 315.552 -15.0166 4.61709
  268 359.230 1.76526 -57.5944
  269 339.957 -24.0455 -14.7685
  270 378.704 -6.84178 14.3618
  271 0.385533 3.62689 -4.12056
  272 0.526116 3.61543 4.16821
  273 374.993 -12.0948 -92.5553
  274 40.6968 12.4023 -13.3989
  275 40.8910 12.3800 13.4716
  276 363.534 -8.80409 -29.1557
  277 52.4641 54.5730 -68.7965
  278 44.3644 -0.213519 -1.40056
  279 44.4046 -0.204008 1.37958
  280 383.832 -23.7717 -44.4739
  281 67.8547 30.4761 -36.8870
  282 68.8334 30.3123 36.9908
  283 20.0435 -0.609820 7.78568
  284 19.9032 -0.602324 -7.79138
  285 315.084 -14.2662 -4.50032
  286 52.8310 53.9912 70.6354
  287 500.415 39.2990 112.149
  288 137.758 -5.49467 -5.63110
  289 137.733 -5.45987 5.55141
  290 252.021 -10.5564 -2.43914
  291 251.898 -11.4155 2.72730
  292 215.149 20.8671 -102.945
  293 346.531 -37.9154 -5.27287
  294 394.147 -2.50533 2.60085
  295 207.242 20.8630 99.6122
  296 241.339 -6.70017 -0.817184
  297 241.247 -6.69563 1.02395
  298 340.507 -25.0156 15.0467
  299 390.902 -4.22064 -6.72183
  300 -2.17442 1.45442 -6.08895
  301 -2.01928 1.44352 6.11147
  302 491.658 97.7236 -4.08727
  303 430.345 -19.7980 22.4214
  304 388.294 -2.13688 -0.672092
  305 395.047 -1.86328 0.608711
  306 387.674 -33.8975 33.5376
  307 478.116 50.4099 -33.3515
  308 418.572 77.8292 21.7055
  309 188.213 -11.5865 -10.8600
  310 186.511 -11.7968 11.0703
  311 393.684 -2.44114 -1.72127
  312 258.925 -19.5175 -50.8703
  313 254.792 -20.1633 9.00077
  314 242.914 -13.1989 57.9620
  315 387.597 -4.74379 8.04955
  316 88.5550 -4.06748 -10.0885
  317 88.6140 -4.09719 10.0443
  318 357.403 -11.6063 91.4662
  319 227.297 -18.0235 -13.5142
  320 417.732 53.7150 47.3981
  321 133.395 9.36848 -44.0722
  322 128.449 9.79571 43.7127
  323 39.4587 -0.821931 -2.54242
  324 39.5225 -0.816465 2.50905
  325 342.515 -7.09125 3.37026
  326 328.505 -4.87906 0.423673
  327 326.669 -5.32538 -0.535065
  328 360.871 -9.27096 30.8994
  329 31.7519 -1.16608 5.81621
  330 31.6328 -1.15524 -5.84271
  331 105.736 -2.54370 -2.11201
  332 105.745 -2.50222 2.08978
  333 3.50420 -16.1027 -6.07507
  334 3.27539 -16.2351 6.34782
  335 281.302 12.1863 34.9135
  336 434.494 -18.5074 -18.0903
  337 281.442 -15.0867 0.709493
  338 317.977 -6.60607 -1.65165
  339 333.380 41.4199 -21.3433
  340 65.6123 -2.10761 -14.5939
  341 65.6979 -2.10922 14.5813
  342 273.692 -14.2370 0.715655
  343 77.8655 2.60489 -20.9750
  344 78.0139 2.53794 20.9106
  345 15.2806 12.7515 -0.389521
  346 15.4662 12.7496 0.468592
  347 332.609 -35.5752 34.1844
  348 734.916 48.4515 18.8661
  349 296.565 4.51021 -41.3289
  350 247.615 -22.1888 31.3286
  351 246.356 -21.7393 -32.2706
  352 365.164 -6.11855 56.9917
  353 325.007 -2.33419 40.7892
  354 328.302 -34.3965 -35.2810
  355 195.952 -5.13112 0.385366
  356 195.922 -5.18955 -0.336868
  357 363.162 -23.7037 34.7662
  358 497.343 98.9424 2.07390
  359 389.595 -4.48523 -10.6140
  360 100.720 -3.87446 -7.30996
  361 100.762 -3.87784 7.23732
  362 367.005 -34.6174 -42.4199
  363 385.935 27.0275 -56.7766
  364 259.257 13.9384 -22.4197
  365 365.741 -24.3913 -39.8076
  366 -11.8830 0.437161 -9.45547
  367 -11.8961 0.422463 9.46773
  368 307.198 -7.50318 0.897085
  369 -4.36729 -2.59724 -5.67216
  370 -4.36194 -2.59808 5.66034
  371 237.349 119.533 -184.680
  372 9.64892 8.61036 5.68260
  373 9.88682 8.67816 -5.55512
  374 322.544 -2.46402 -40.4538
  375 178.102 -7.67993 5.09802
  376 178.227 -7.78151 -5.15393
  377 -1.18758 -12.8619 10.7733
  378 -1.16768 -12.8383 -10.7621
  379 193.089 125.275 173.931
  380 145.910 -7.78523 -21.9654
  381 146.026 -7.45356 21.9823
  382 46.6661 34.4721 -34.1756
  383 47.6438 34.3785 33.9810
  384 -17.9702 2.79983 3.24943
  385 -17.8865 2.80430 -3.20421
  386 372.447 24.8918 56.9311
  387 285.564 -29.8945 15.0189
  388 285.867 -26.1155 6.09001
  389 346.149 -39.2481 -5.17358
  390 87.0900 10.8309 -29.0772
  391 87.3804 10.8115 29.0332
  392 7.80975 -10.7714 1.14732
  393 7.38851 -10.9526 -0.546674
  394 351.148 50.1363 14.0286
  395 352.873 -10.2592 9.07584
  396 202.327 -15.7331 20.2538
  397 125.408 -3.19806 -26.2648
  398 125.457 -3.22145 26.0695
  399 257.726 -7.99561 -1.03381
  400 257.449 -7.04424 0.815202
  401 200.638 -16.1533 -21.4901
  402 156.993 -2.68311 -35.4816
  403 156.971 -2.89910 35.7629
  404 367.944 -33.6808 -24.0677
  405 214.061 -16.5254 12.7908
  406 334.706 -10.3906 5.30594
  407 334.075 -9.49114 -4.40027
  408 280.619 -25.9255 -7.09525
  409 401.881 -1.87604 -2.76091
  410 135.601 55.1707 -104.584
  411 378.534 -5.54402 17.6876
  412 400.737 -2.21614 4.15563
  413 143.604 -7.72944 13.2513
  414 143.665 -7.62499 -13.2409
  415 284.283 -29.5373 -15.5122
  416 40.9233 18.1196 14.4369
  417 40.7033 18.1066 -14.4486
  418 742.407 48.4154 -38.5381
  419 328.129 -18.8597 -8.30303
  420 404.593 -1.53909 1.59015
  421 128.081 51.5310 99.6345
  422 597.770 100.592 19.6135
  423 351.723 -5.55237 -2.67414
  424 263.446 -19.2187 -5.56374
  425 110.174 21.2680 -49.7753
  426 117.386 19.7095 49.4781
  427 324.222 -20.6711 8.36200
  428 344.057 -4.43552 -29.9616
  429 -1.88097 -0.325292 5.84135
  430 -2.04398 -0.321669 -5.83745
  431 124.465 30.0171 -66.6846
  432 124.862 30.1252 66.4806
  433 15.1304 6.88666 -6.28360
  434 15.2860 6.87163 6.34305
  435 290.958 -5.87142 0.499011
  436 290.609 -5.72443 -0.401075
  437 361.878 -16.5581 -27.7550
  438 -0.897378 -0.921991 13.1174
  439 -0.832475 -0.864364 -13.0687
  440 372.729 -36.6586 20.9337
  441 352.419 -9.60083 -7.99480
  442 569.311 108.935 -17.4082
  443 23.6869 -1.04229 2.75320
  444 23.5838 -1.04248 -2.78222
  445 684.178 194.152 87.6568
  446 13.9385 6.85087 -20.8475
  447 43.0418 2.02277 -14.2465
  448 43.1842 1.98981 14.2448
  449 682.488 198.662 -84.5655
  450 14.7768 8.38666 22.9091
  451 -17.2186 2.15570 0.741423
  452 -17.1106 2.15230 -0.698593
  453 38.4616 26.3314 -20.1632
  454 39.1229 26.3428 20.2722
  455 445.634 70.0406 -38.7332
  456 357.735 -14.0939 -17.7866
  457 402.459 -1.62466 -1.39522
  458 373.785 -5.77715 -20.7814
  459 -4.23080 2.80559 11.9856
  460 -4.16469 2.84267 -11.9397
  461 361.456 -14.6682 20.7734
  462 235.272 -13.3654 -5.63025
  463 234.554 -13.5004 4.84440
  464 318.953 -35.1499 -5.86498
  465 227.788 -3.02233 -71.0138
  466 347.441 -5.32015 30.6045
  467 284.138 -9.40657 0.189017
  468 416.825 -30.8427 -5.82375
  469 220.680 2.12899 76.1254
  470 17.7068 -0.328995 5.64023
  471 17.5640 -0.322405 -5.65256
  472 457.994 90.5173 -17.2034
  473 365.791 -2.93015 0.144647
  474 364.544 -3.29191 -0.475142
  475 276.657 -18.5931 2.38983
  476 121.546 -4.15117 -4.09859
  477 121.540 -4.10295 4.04901
  478 71.8616 -0.889292 -17.2851
  479 71.9459 -0.903501 17.2510
  480 233.765 9.04907 13.4151
  481 59.3688 -1.98680 8.35755
  482 59.2832 -1.96794 -8.39913
  483 63.0813 5.96696 19.4867
  484 62.8723 6.05538 -19.4701
  485 355.261 -27.5212 24.9873
  486 199.233 -12.4080 -33.3713
  487 184.059 -6.07396 2.67123
  488 184.125 -6.22034 -2.67568
  489 201.330 -12.7963 33.3642
  490 554.420 132.000 -12.7165
  491 -8.86335 -1.32729 -7.34195
  492 -8.85851 -1.33432 7.33780
  493 140.200 -3.99984 -1.70785
  494 140.200 -3.94022 1.70086
  495 0.187629 -23.6985 -8.93152
  496 0.129536 -23.7762 9.01112
  497 324.251 -5.09790 0.890173
  498 232.351 11.0278 -6.67589
  499 311.535 32.6273 19.1989
  500 197.922 -1.83588 -56.6726
  501 97.4962 -5.00665 12.6582
  502 97.4843 -4.96449 -12.6799
  503 -24.2655 0.790661 -2.04588
  504 -24.1171 0.785863 2.06555
  505 383.688 -7.01830 -56.3935
  506 31.8521 0.175547 -1.85620
  507 31.9063 0.180450 1.83223
  508 319.410 -25.2510 -6.60989
  509 340.318 -29.0275 -14.1835
  510 70.0265 53.7063 -71.0539
  511 286.044 8.20775 -111.649
  512 3.97257 8.67434 5.42497
  513 4.11012 8.69289 -5.34845
  514 175.463 -8.19854 -7.33435
  515 175.376 -8.12475 7.17950
  516 490.641 21.2927 -10.1289
  517 353.805 -20.9582 -22.6996
  518 68.2801 50.8346 70.0637
  519 350.533 -39.5882 10.6417
  520 337.193 -32.0636 10.8132
  521 72.6635 -1.76838 -5.49221
  522 72.7104 -1.76136 5.43834
  523 278.097 3.04836 32.0133
  524 200.784 -14.8507 -13.5198
  525 372.894 -8.40442 12.9064
  526 -1.51431 -9.06308 -7.13634
  527 -1.51807 -9.05594 7.12601
  528 261.875 -23.1159 37.3926
  529 397.759 -30.2256 -28.6599
  530 517.959 37.1310 -19.7235
  531 280.734 -9.73708 -0.0665007
  532 84.3661 -1.58427 -1.59949
  533 84.3861 -1.55397 1.58475
  534 178.056 1.51314 54.6120
  535 495.529 83.5546 25.2216
  536 502.134 100.971 -176.391
  537 451.471 2.99201 26.9872
  538 325.260 -36.1051 4.13559
  539 765.397 60.8871 51.6886
  540 567.689 138.142 18.0427
  541 81.0860 -3.39076 13.8134
  542 81.0245 -3.35696 -13.8365
  543 312.728 -25.9892 4.64432
  544 23.7734 11.2527 -5.89166
  545 23.9504 11.2463 5.96189
  546 392.894 -32.4691 28.6909
  547 322.212 17.4514 47.1964
  548 395.389 -2.60791 7.20554
  549 292.777 -17.6933 1.71033
  550 409.422 4.22028 -117.695
  551 648.205 169.342 116.375
  552 317.141 -6.44710 -0.740725
  553 388.524 -4.02989 -11.6728
  554 61.6690 25.6581 -27.6840
  555 62.1155 25.3499 27.5619
  556 222.824 -9.08918 -3.68566
  557 222.722 -8.87670 3.75812
  558 2.66198 -27.6936 -3.49907
  559 396.726 -13.9631 50.0572
  560 15.5236 13.9165 1.10724
  561 15.7657 13.9549 -0.993096
  562 3.10941 -26.7225 4.34724
  563 361.239 -16.4578 -40.6608
  564 415.620 26.4460 -54.0992
  565 414.181 29.9602 54.1196
  566 20.1618 17.4800 15.4142
  567 19.1567 17.8830 -15.0843
  568 -10.7879 0.373931 4.42169
  569 -10.9551 0.377826 -4.41314
  570 381.533 10.3725 121.309
  571 209.569 -11.6939 7.34978
  572 209.778 -11.6525 -7.48896
  573 459.898 -7.49708 -62.4868
  574 60.5814 -0.847224 3.18545
  575 60.5410 -0.860772 -3.22155
  576 28.7238 -0.730504 -0.748953
  577 28.7612 -0.725728 0.740553
  578 505.337 92.4537 -20.0666
  579 48.4776 72.7654 -78.3824
  580 266.035 5.36524 -27.1286
  581 374.981 59.8660 -23.8430
  582 5.65906 0.0984694 7.85466
  583 5.88647 0.180659 -7.70201
  584 377.886 175.716 207.161
  585 321.945 -9.14175 -2.78851
  586 11.9041 3.28040 -7.49619
  587 12.0571 3.25668 7.53282
  588 371.952 -29.8519 34.6449
  589 57.3047 70.5283 79.8139
  590 268.381 -5.84514 0.374248
  591 268.455 -5.79731 -0.375309
  592 -0.260104 -18.8849 9.31299
  593 -0.231095 -18.8540 -9.28220
  594 457.554 89.0843 -0.732580
  595 290.542 -23.2679 53.0247
  596 277.400 -12.0201 -0.528658
  597 279.001 13.0093 117.773
  598 -22.9897 1.19597 5.57141
  599 -22.9664 1.20246 -5.54848
  600 457.027 6.36724 -29.0453
  601 608.010 103.443 -83.3684
  602 174.143 17.8275 -78.5967
  603 94.5361 -3.97268 -16.8312
  604 94.6249 -3.97356 16.8337
  605 413.219 -1.39242 1.97934
  606 274.674 -12.2757 0.188773
  607 367.498 -5.15184 4.32560
  608 361.255 -16.4663 39.6960
  609 16.1092 -0.601204 2.81510
  610 15.9833 -0.598643 -2.83661
  611 214.264 -7.59137 -2.14823
  612 214.235 -7.38732 2.08189
  613 133.820 2.92195 -36.5917
  614 132.961 2.96012 36.4320
  615 521.022 31.6384 31.9138
  616 848.858 63.9794 -92.7850
  617 -5.90681 -0.527647 3.86090
  618 -6.07983 -0.525894 -3.86000
  619 126.601 -5.35289 7.55391
  620 126.592 -5.34648 -7.65407
  621 485.782 26.9900 16.7705
  622 408.444 -1.51249 -0.628300
  623 407.552 -2.14886 0.253570
  624 296.734 -0.0785137 31.6916
  625 427.284 -24.7656 -38.3903
  626 232.326 -19.0922 16.1330
  627 -5.11148 5.28278 -5.03789
  628 -5.21450 5.27446 5.09760
  629 372.302 7.67200 59.3690
  630 147.768 -8.51096 -17.5969
  631 147.626 -8.65209 17.6308
  632 303.172 -17.6432 -2.83479
  633 374.590 -8.25746 -11.6711
  634 214.046 -17.0621 -24.2364
  635 351.038 42.3305 -36.0873
  636 236.687 -16.3068 -43.2519
  637 87.4047 -2.34639 -2.84981
  638 87.4248 -2.31866 2.81253
  639 216.264 -17.3656 24.3397
  640 464.354 75.1557 34.5533
  641 369.517 -17.9294 50.0333
  642 302.529 -13.6029 2.68050
  643 216.570 -5.88861 1.39150
  644 216.516 -5.90131 -1.35022
  645 163.391 -6.15380 -5.38523
  646 163.331 -6.08744 5.32863
  647 355.679 -32.6233 -19.8125
  648 180.314 -10.2483 9.42049
  649 180.507 -10.2076 -9.60816
  650 357.033 55.0521 -4.83407
  651 328.696 -17.3627 8.41384
  652 411.020 -1.93674 -3.09724
  653 349.646 -6.39972 -52.3316
  654 50.8751 -2.24518 11.0933
  655 50.7722 -2.22929 -11.1031
  656 401.060 -2.24464 -6.53004
  657 71.7658 37.0603 -50.0462
  658 72.9942 36.9704 50.2912
  659 409.111 -24.4908 52.8802
  660 140.962 35.2268 82.7756
  661 35.0042 -0.221996 11.0974
  662 34.8812 -0.213954 -11.1027
  663 348.508 -22.4063 68.3324
  664 343.284 49.0635 -160.379
  665 334.940 10.5567 -52.2652
  666 440.930 79.8037 29.9115
  667 297.341 -13.3242 -1.35674
  668 534.531 96.1032 -2.33513
  669 -25.4764 1.22431 -1.31040
  670 -25.3509 1.22113 1.33811
  671 237.239 1.13221 -83.1782
  672 17.3058 -0.352753 2.16878
  673 17.2140 -0.353648 -2.19096
  674 297.605 -25.0320 -52.4221
  675 98.7765 13.5535 -35.3015
  676 97.9924 13.6023 35.2831
  677 2.28050 4.97415 -2.30675
  678 2.41717 4.96758 2.36544
  679 252.975 -21.8881 -12.1386
  680 358.160 -3.52918 -20.0775
  681 170.940 -5.35328 -1.93828
  682 170.949 -5.29419 1.95324
  683 123.823 -6.34358 -11.2871
  684 123.921 -6.43160 11.2459
  685 23.5134 19.3391 -6.93322
  686 23.9042 19.3812 7.06566
  687 366.848 -4.47523 2.11504
  688 163.342 -10.3959 14.6763
  689 164.387 -10.2146 -14.6632
  690 406.245 -32.4524 -4.29166
  691 334.887 -33.6725 -7.18579
  692 263.355 -7.56052 -0.317897
  693 262.428 -7.05829 0.446575
  694 368.853 -38.9456 20.4498
  695 598.461 120.800 32.0113
  696 324.116 -14.3291 -84.7985
  697 371.099 -10.3944 20.8534
  698 368.748 -13.7136 -53.7180
  699 115.229 -3.60031 -5.31258
  700 115.231 -3.57338 5.24633
  701 288.221 -4.82932 95.0846
  702 803.351 103.109 94.5318
  703 55.6109 16.1735 -20.3883
  704 55.6940 16.2816 20.4554
  705 365.645 -3.64622 -1.06071
  706 368.534 -3.27798 1.08418
  707 155.581 78.9629 -134.313
  708 388.552 -2.13064 11.6767
  709 335.988 -5.87605 1.63956
  710 443.260 87.7847 -11.0137
  711 45.4970 8.08497 -14.7777
  712 45.6956 8.03411 14.8329
  713 416.772 -1.06812 0.329727
  714 337.956 -13.1107 -8.27813
  715 421.359 -6.33204 43.6681
  716 172.738 -12.1022 -22.9776
  717 173.171 -11.5840 22.7618
  718 39.7293 -1.36783 8.39634
  719 39.6153 -1.35075 -8.41887
  720 382.098 -2.66889 -1.99584
  721 329.457 65.1218 170.171
  722 2.50474 2.66223 10.8281
  723 2.62781 2.73588 -10.7436
  724 383.082 -4.19643 -5.33284
  725 372.082 -6.90401 7.62436
  726 295.330 0.242340 -33.9908
  727 2.82417 -33.7407 -4.30189
  728 2.64099 -34.0749 4.63819
  729 135.611 36.3133 -82.7815
  730 297.058 -29.7892 -37.8578
  731 154.462 78.2448 135.584
  732 411.411 -1.07494 1.17864
  733 397.787 59.5376 38.0526
  734 290.504 26.3433 -13.3758
  735 520.497 104.892 0.873567
  736 406.426 -1.74945 4.20642
  737 -23.9726 0.595434 3.12909
  738 -24.1366 0.598706 -3.11651
  739 432.706 -24.5808 11.8536
  740 280.214 -8.18032 -0.424012
  741 102.070 0.146959 -25.1831
  742 102.205 0.0454111 25.0402
  743 372.020 -4.44119 -3.05544
  744 656.724 92.9531 -33.7907
  745 44.6637 -1.31263 -5.28304
  746 44.7595 -1.32030 5.24522
  747 414.286 -1.16724 -1.93349
  748 82.9625 -3.70409 -7.36724
  749 83.0182 -3.71717 7.31113
  750 405.681 -16.1673 -45.0845
  751 374.791 -3.94470 16.1530
  752 336.470 -2.21025 51.7645
  753 414.885 -1.21352 0.0123981
  754 387.551 -3.01337 4.06236
  755 253.715 -13.7121 -2.88865
  756 317.849 -8.45595 2.04681
  757 361.400 -22.2712 -33.7941
  758 352.488 -22.1960 21.8765
  759 413.251 49.9635 -47.9487
  760 347.635 -19.5522 16.1448
  761 367.307 -21.7690 43.2918
  762 213.147 -14.4546 9.85259
  763 7.74988 -1.93042 -0.459846
  764 7.34117 -1.95704 0.847151
  765 321.715 -4.95793 -0.0236561
  766 321.035 -4.92370 -0.0953578
  767 385.563 -1.81945 -0.211118
  768 386.890 -1.74341 0.301052
  769 367.662 -10.3456 25.5999
  770 339.359 -31.1568 49.5405
  771 278.824 -22.6621 4.48133
  772 247.717 -14.8297 4.76776
  773 669.861 85.7943 39.2053
  774 371.614 -9.47945 -16.3994
  775 218.006 38.0567 -125.925
  776 345.403 -17.1254 -13.9388
  777 14.0995 0.273608 -8.00416
  778 14.2499 0.260971 8.01518
  779 309.167 27.0983 -29.9800
  780 781.457 23.7162 -10.1762
  781 388.878 9.99194 -58.0289
  782 15.6330 10.0715 -30.9227
  783 400.455 72.0053 9.72574
  784 312.234 -19.9165 4.63375
  785 350.976 -8.79229 50.7676
  786 295.545 -31.0695 38.0671
  787 472.205 -2.43012 76.8621
  788 16.8450 13.6857 33.0125
  789 213.787 -1.27033 64.8802
  790 298.494 -7.80711 -0.650728
  791 332.765 -29.8349 -50.1442
  792 204.416 -15.9357 -17.0016
  793 161.506 7.71200 -56.7298
  794 385.477 -6.02543 56.8591
  795 247.376 -16.9101 7.68207
  796 47.9512 -1.36404 4.70747
  797 47.8789 -1.36566 -4.75047
  798 359.266 -1.97950 17.7812
  799 326.002 1.62784 -50.3254
  800 -28.3736 1.29799 3.44243
  801 -28.3305 1.30045 -3.41734
  802 240.718 -7.64411 -1.03576
  803 240.023 -7.23487 0.958458
  804 178.631 19.9699 79.7312
  805 159.489 -9.34567 11.0591
  806 159.709 -9.11929 -11.1735
  807 414.038 -0.854121 -1.04304
  808 145.415 11.5214 55.2954
  809 5.14943 -0.137756 2.99931
  810 4.99456 -0.134724 -3.01191
  811 354.952 -10.9805 39.2403
  812 378.792 -3.32063 1.56874
  813 -20.2445 0.249603 5.56953
  814 -20.2481 0.256184 -5.55830
  815 233.578 -14.6669 48.5487
  816 45.3162 38.1027 -42.4533
  817 45.8700 36.3581 41.8188
  818 221.607 9.78569 5.57161
  819 -3.46589 -0.236630 -3.43907
  820 -3.29218 -0.238929 3.43583
  821 268.503 -25.5028 -35.6706
  822 366.236 -38.4010 -11.7605
  823 -1.82788 -1.73584 -2.30195
  824 -1.82245 -1.73173 2.29337
  825 20.1361 0.618580 -0.711096
  826 20.1825 0.622046 0.698382
  827 325.804 -29.0202 7.70723
  828 274.382 -28.0926 24.9617
  829 303.778 -5.27060 0.693395
  830 273.675 -22.1138 -5.50633
  831 100.725 -1.69788 -0.564995
  832 100.738 -1.65804 0.555742
  833 -32.0326 0.682880 1.96931
  834 -31.9627 0.682000 -1.94462
  835 342.931 -4.58642 -1.39109
  836 304.059 11.9553 -42.8424
  837 346.811 -7.01511 -4.31038
  838 204.848 -15.6622 16.2063
  839 343.441 -6.02691 -41.5150
  840 367.256 -11.2355 -26.4488
  841 344.312 -3.96038 1.24412
  842 251.522 -9.58270 66.5363
  843 268.716 -26.2653 -14.2260
  844 162.049 -1.21058 -43.5155
  845 162.940 -0.0849495 43.7424
  846 229.150 -17.2001 -10.6818
  847 380.191 41.2157 49.6583
  848 360.633 -37.5087 -27.6110
  849 130.296 -4.15344 -2.67715
  850 130.286 -4.09238 2.65005
  851 275.708 -6.41378 0.269458
  852 275.720 -6.46544 -0.203578
  853 328.412 -2.47979 -27.1549
  854 111.079 -4.71028 -9.11551
  855 111.140 -4.74562 9.03933
  856 1.34544 -34.1307 -6.72364
  857 1.27401 -34.2780 6.86387
  858 56.4319 -0.837486 -0.222121
  859 56.4011 -0.854383 0.211030
  860 340.378 -5.48516 -1.94762
  861 258.658 -24.6582 22.5775
  862 401.346 -34.3308 12.3282
  863 236.112 4.94987 21.3371
  864 348.044 -8.32925 4.95114
  865 380.086 -34.0439 -26.7379
  866 55.1088 3.46477 -16.8775
  867 55.2717 3.40699 16.8692
  868 302.237 -5.64307 -0.632190
  869 243.610 -8.58417 -2.17065
  870 242.767 -8.50989 2.38781
  871 376.000 58.5198 26.8637
  872 130.877 -1.31606 -30.3865
  873 130.756 -1.46826 30.2556
  874 261.070 -23.6209 11.3692
  875 25.3993 16.4591 -5.99849
  876 25.6490 16.4276 6.07021
  877 220.884 -15.7161 39.5658
  878 264.769 -16.9542 -3.08605
  879 330.313 -2.56802 27.4388
  880 325.012 -36.5617 12.6861
  881 372.440 -28.3264 -37.4219
  882 258.025 -24.8597 -22.8913
  883 214.684 -14.3957 -9.45039
  884 699.570 57.4652 -10.8032
  885 340.436 -36.0607 5.04870
  886 9.89155 11.2420 3.84309
  887 10.0698 11.2641 -3.74965
  888 295.967 -29.6647 6.30649
  889 324.531 -36.5014 -21.9090
  890 10.5809 9.79694 0.178518
  891 10.7375 9.79988 -0.106933
  892 122.507 -4.36487 23.0613
  893 122.580 -4.49596 -23.1967
  894 148.316 -7.50687 25.2988
  895 148.261 -7.68436 -25.4712
  896 468.363 93.9247 13.5048
  897 -0.688530 -14.4848 -6.91684
  898 -0.693510 -14.4673 6.91187
  899 107.879 9.09773 -33.5828
  900 107.352 8.91279 33.2563
  901 807.877 26.1756 -40.7798
  902 15.9832 -0.0839794 1.21780
  903 15.9118 -0.0866179 -1.23522
  904 1.42470 -38.8374 2.10216
  905 1.66051 -38.1782 -1.54542
  906 -15.5035 -0.188892 5.73140
  907 -15.5208 -0.184060 -5.72958
  908 86.2386 25.3338 -39.5407
  909 87.5727 24.4932 38.9845
  910 -6.73483 0.349342 -12.0547
  911 -6.76870 0.322030 12.0762
  912 25.0143 2.21527 -11.0029
  913 25.1683 2.18666 11.0193
  914 94.1029 -1.09459 21.2467
  915 94.0363 -1.08991 -21.3526
  916 76.8827 -2.63523 -17.1406
  917 76.9619 -2.63041 17.1138
  918 402.917 -1.51706 -6.43993
  919 196.507 42.0504 117.109
  920 271.392 -26.7737 13.3372
  921 192.919 -13.8241 13.0379
  922 371.803 38.3002 -49.0780
  923 794.461 17.0252 16.2763
  924 440.270 20.2064 -46.2710
  925 73.3589 -2.81318 10.6990
  926 73.2837 -2.78126 -10.7391
  927 13.2725 -0.420269 -7.88026
  928 13.4200 -0.424373 7.88024
  929 -0.233263 -6.80632 -13.0961
  930 -0.291198 -6.86359 13.1401
  931 199.391 -8.81117 5.77792
  932 199.494 -8.98258 -5.80683
  933 24.2591 6.49931 -9.78275
  934 24.4244 6.47013 9.83432
  935 121.609 -5.42185 -19.5712
  936 121.692 -5.42203 19.5585
  937 262.685 -1.13863 -25.1057
  938 125.498 -6.82233 -13.5724
  939 125.413 -6.74885 13.6169
  940 304.431 -8.59132 -0.820109
  941 368.399 -21.0987 -46.5310
  942 161.153 -6.53954 6.19215
  943 161.228 -6.59977 -6.27572
  944 -6.67672 -0.714054 -4.04825
  945 -6.65849 -0.715764 4.03958
  946 375.100 -28.8028 -61.3650
  947 359.259 -21.0811 29.3603
  948 315.196 -22.0467 -6.07133
  949 307.910 10.5319 45.1393
  950 139.997 -7.86641 -15.2830
  951 139.999 -7.71695 15.3304
  952 343.823 13.1744 54.5210
  953 321.187 28.0047 35.9048
  954 653.589 78.5550 13.7706
  955 335.210 -12.0683 6.03402
  956 176.741 -5.27839 -2.78285
  957 176.720 -5.17470 2.80640
  958 300.331 -24.6191 -0.814658
  959 415.884 76.2868 -22.7702
  960 366.935 -4.00968 -2.15107
  961 241.278 -5.94944 0.914956
  962 241.185 -5.90392 -0.846094
  963 30.7620 26.0089 -18.5624
  964 31.5399 25.9636 18.7034
  965 58.0164 148.632 -130.589
  966 344.274 -8.13967 41.2879
  967 428.355 -7.88370 -38.7902
  968 -7.07419 4.14528 2.15639
  969 -6.96128 4.14458 -2.10002
  970 868.472 206.474 -164.715
  971 366.812 -39.8282 3.76379
  972 391.128 -36.0666 -16.1070
  973 361.172 -30.9372 26.5860
  974 446.930 87.9353 9.37247
  975 32.4010 34.1264 -39.5747
  976 82.3340 128.593 128.255
  977 -2.13795 -4.99397 13.1027
  978 -2.10199 -4.95196 -13.0803
  979 351.299 -9.02146 6.21567
  980 563.945 99.7581 -12.1347
  981 33.3450 33.3554 41.1402
  982 -1.55203 -5.21720 -4.50159
  983 -1.55233 -5.20279 4.48992
  984 301.487 -7.07027 0.246858
  985 225.199 -17.8909 -17.7356
  986 364.000 -28.7592 -31.6628
  987 103.531 27.8538 -52.2294
  988 105.189 28.3129 52.3653
  989 353.694 -8.77777 -36.8019
  990 356.136 -11.3076 11.6974
  991 -9.44176 2.44000 10.5817
  992 -9.39404 2.46429 -10.5470
  993 215.063 -14.1651 -37.2145
  994 356.989 22.8118 -54.6851
  995 265.267 -9.96536 1.08012
  996 190.989 -5.46264 0.483084
  997 190.953 -5.49859 -0.461261
  998 -4.01177 -4.55555 -9.38015
  999 -4.01752 -4.56541 9.37252
  1000 360.956 -12.8806 -14.4496
  1001 343.588 -3.88114 0.367031
  1002 343.269 -3.88563 -0.227368
  1003 475.042 77.7670 -31.7802
  1004 85.8327 7.43056 -26.4871
  1005 86.0463 7.28218 26.4287
  1006 54.9163 -0.525843 -14.2125
  1007 55.0201 -0.536909 14.1958
  1008 391.458 20.9646 58.7032
  1009 370.110 -6.98586 -8.00546
  1010 65.4858 10.3129 -21.5762
  1011 65.7453 10.2358 21.6555
  1012 385.989 -2.09705 -1.28545
  1013 360.686 -15.5891 -22.0744
  1014 352.221 -39.7172 -15.3837
  1015 13.5166 11.6462 0.0342584
  1016 13.1418 11.5905 0.136130
  1017 -16.9843 2.80505 6.25398
  1018 -16.9225 2.81284 -6.21261
  1019 214.144 8.04405 -9.31882
  1020 608.929 151.262 -41.8968
  1021 278.470 -20.2962 -1.90712
  1022 184.264 -8.04693 -38.2969
  1023 446.422 -17.7420 3.35505
  1024 184.989 -8.03852 38.8321
  1025 320.141 -37.2096 25.5492
  1026 362.909 -15.0126 -33.3531
  1027 124.730 -2.91360 -0.856476
  1028 124.739 -2.86249 0.850808
  1029 247.927 -19.3656 -9.30866
  1030 152.057 -5.67715 -29.8492
  1031 152.000 -5.72026 29.6983
  1032 50.4394 33.0253 -32.3419
  1033 51.2392 32.9313 32.4390
  1034 104.969 -3.33812 -3.04437
  1035 104.977 -3.29695 3.00525
  1036 322.756 -10.2624 3.15882
  1037 272.471 1.23149 -96.2446
  1038 334.529 -10.8931 -6.00794
  1039 302.274 -33.4126 -15.4492
  1040 198.888 -8.39846 3.96277
  1041 199.051 -8.46129 -3.97541
  1042 391.232 -2.42880 1.62118
  1043 349.963 -8.34761 -5.82383
  1044 225.844 5.50030 17.5817
  1045 375.272 -3.71265 -15.0274
  1046 145.435 42.5497 93.8530
  1047 386.278 -3.58314 -12.3041
  1048 101.059 16.9982 -39.3669
  1049 98.0476 17.1895 37.7689
  1050 461.351 -7.65952 -5.21460
  1051 41.8470 21.8154 -16.8795
  1052 42.2321 21.6592 16.8768
  1053 7.14129 -0.385923 3.98725
  1054 7.49744 -0.319855 -3.75260
  1055 60.1329 -1.60058 3.66374
  1056 60.0805 -1.61098 -3.70891
  1057 165.434 43.0650 -103.970
  1058 896.185 234.106 177.281
  1059 359.784 -12.8738 14.8207
  1060 322.996 -36.2639 -11.4313
  1061 224.570 -18.4573 -28.7945
  1062 -4.54850 4.98427 9.14612
  1063 -4.46198 5.01162 -9.08801
  1064 253.419 -13.0533 2.30685
  1065 279.468 -10.3967 0.152705
  1066 -0.135368 -20.5245 6.66768
  1067 -0.128391 -20.5448 -6.66588
  1068 42.0953 26.1048 -20.0777
  1069 42.5954 26.0567 20.1976
  1070 250.044 -12.0021 -2.20003
  1071 19.8203 9.13177 6.20744
  1072 19.6563 9.14411 -6.14132
  1073 381.800 -15.0561 53.9590
  1074 276.444 -28.6089 -24.8358
  1075 225.906 -18.7543 28.7934
  1076 363.707 -7.27840 -56.8683
  1077 383.547 -4.20939 5.80716
  1078 139.148 21.4268 63.0065
  1079 140.146 20.5065 -61.9578
  1080 224.275 -10.8496 -53.0395
  1081 317.407 -11.3913 -3.19674
  1082 258.140 -15.5246 4.40907
  1083 302.365 -28.2396 -1.25977
  1084 414.497 -1.47712 -3.31949
  1085 224.056 -10.3127 4.23933
  1086 223.959 -10.9030 -4.36467
  1087 7.60653 8.89989 7.34313
  1088 7.79107 8.96540 -7.23705
  1089 366.686 13.5507 -58.7787
  1090 82.4568 4.16785 -23.3984
  1091 82.6768 4.07567 23.3349
  1092 61.9895 1.19066 -16.7883
  1093 62.1236 1.15624 16.7585
  1094 418.015 -16.4783 77.1512
  1095 362.460 -16.6976 32.8603
  1096 177.548 -8.14627 -32.5089
  1097 421.101 -1.67078 -1.98184
  1098 472.951 89.4613 -23.9686
  1099 382.823 -3.67782 -3.63612
  1100 359.079 -38.6792 11.5599
  1101 265.868 -20.1788 46.5561
  1102 423.791 -0.532182 0.358619
  1103 225.422 7.02287 -14.9076
  1104 304.473 -32.5510 -7.34337
  1105 177.834 -8.51589 32.1567
  1106 307.300 -27.9976 -0.504243
  1107 383.045 -5.48333 10.9700
  1108 275.348 17.4115 23.2048
  1109 190.951 -14.0307 -25.9395
  1110 577.687 83.3019 -35.1336
  1111 434.983 19.8422 48.6278
  1112 325.379 40.7400 5.68362
  1113 419.339 0.0478728 1.74478
  1114 165.803 -10.3526 -19.8851
  1115 113.112 70.1221 -104.523
  1116 202.143 5.49616 -75.2582
  1117 231.903 -17.8235 12.6035
  1118 195.958 -14.6636 24.3240
  1119 165.407 -9.84623 20.0871
  1120 348.809 3.06658 57.2110
  1121 263.447 -9.24650 -0.770043
  1122 413.457 -3.07442 4.48407
  1123 -3.24094 -0.223710 13.0752
  1124 -3.19134 -0.181570 -13.0420
  1125 275.906 -7.95575 0.224838
  1126 -0.211146 3.18800 11.7788
  1127 -0.121472 3.24314 -11.7157
  1128 155.275 -4.91420 3.48624
  1129 155.286 -4.99168 -3.49055
  1130 389.727 -2.10198 10.2131
  1131 313.381 -19.2209 -4.98958
  1132 293.578 -15.7415 -1.27621
  1133 328.282 -23.0134 10.5318
  1134 100.323 49.9809 -78.0277
  1135 321.785 -12.2400 4.27858
  1136 48.4093 0.886851 -13.7798
  1137 48.5364 0.862968 13.7693
  1138 67.2364 43.4063 -55.0180
  1139 514.090 67.8984 15.0630
  1140 37.2757 -1.70707 8.04432
  1141 37.1558 -1.69318 -8.05720
  1142 68.4493 42.7437 53.1444
  1143 294.738 -24.6919 -0.372197
  1144 149.560 -6.99756 7.63741
  1145 149.584 -7.02971 -7.76128
  1146 600.614 127.274 -34.1719
  1147 324.674 -32.5271 1.77947
  1148 111.401 65.6445 104.308
  1149 9.59664 -1.81836 -8.94308
  1150 10.3364 -1.69269 9.81409
  1151 342.520 42.9389 28.7298
  1152 25.8524 13.9176 -6.31386
  1153 26.0606 13.9218 6.37402
  1154 326.809 -28.4391 -8.20385
  1155 -0.149834 -31.6892 -6.24451
  1156 -0.164669 -31.6940 6.27295
  1157 349.271 -29.4832 -18.5476
  1158 -4.81665 0.423231 2.67978
  1159 -4.99162 0.425921 -2.68589
  1160 53.7335 19.9521 -21.6824
  1161 54.0245 20.0382 21.4877
  1162 -17.3993 0.0403195 -3.28189
  1163 -17.2176 0.0390126 3.28512
  1164 348.793 -3.90595 -0.455534
  1165 -34.6285 1.02485 0.510158
  1166 -34.5325 1.02432 -0.487402
  1167 184.711 -14.5082 -19.2036
  1168 4.92895 -44.9831 -4.86042
  1169 93.0789 -2.64794 5.81066
  1170 93.0459 -2.65726 -5.87451
  1171 296.539 -5.77479 0.454073
  1172 297.101 -5.62684 -0.396332
  1173 5.29387 -42.8456 5.93484
  1174 351.545 -18.3757 -18.4236
  1175 401.212 -1.87727 7.50289
  1176 357.184 -22.8983 -27.0437
  1177 312.232 2.32960 44.7849
  1178 1.69306 -12.5746 9.52866
  1179 1.84651 -12.4784 -9.36929
  1180 228.680 -16.6526 10.0699
  1181 -15.5828 1.44325 8.45559
  1182 -15.5539 1.45547 -8.43016
  1183 592.586 94.1979 6.36193
  1184 691.097 217.652 -153.191
  1185 365.157 -35.4587 23.0038
  1186 151.335 -4.44495 -0.503464
  1187 151.344 -4.39095 0.503905
  1188 746.343 72.4297 -66.8720
  1189 54.0361 -1.40730 8.35258
  1190 53.9388 -1.38587 -8.38427
  1191 341.384 -1.11436 -17.7367
  1192 219.398 -17.7448 21.7129
  1193 361.208 -35.3769 -16.6176
  1194 349.611 -25.4325 -21.0344
  1195 213.658 -7.50038 55.5942
  1196 79.3798 14.7275 -29.8338
  1197 79.3371 14.5967 29.6663
  1198 104.434 38.7175 -66.3502
  1199 104.575 35.8352 66.3530
  1200 30.1229 8.69698 -10.3644
  1201 30.3012 8.67109 10.4269
  1202 431.343 74.8170 -33.2704
  1203 22.4732 20.5873 -9.42200
  1204 22.9952 20.6180 9.57897
  1205 311.141 -23.8604 4.19150
  1206 580.401 86.3153 39.4051
  1207 74.6653 -3.10982 -5.72634
  1208 74.7198 -3.10866 5.66986
  1209 376.805 265.466 -226.923
  1210 291.795 17.3305 -35.8026
  1211 268.150 20.5550 14.6235
  1212 37.3782 15.6538 -12.2586
  1213 37.5557 15.6540 12.3262
  1214 8.34090 -0.0736748 1.96056
  1215 8.22304 -0.0735533 -1.97750
  1216 344.585 -27.6864 17.3054
  1217 338.812 -13.6424 9.12622
  1218 232.152 66.3075 -162.784
  1219 534.112 116.643 -6.04096
  1220 229.907 -6.93830 -61.2110
  1221 297.712 -9.26543 0.470964
  1222 16.0697 -1.47719 -0.454827
  1223 16.1014 -1.47611 0.452202
  1224 -7.33139 2.33522 -4.50952
  1225 -7.18634 2.32557 4.54387
  1226 199.927 2.21584 -64.3284
  1227 367.594 -8.14396 10.3250
  1228 239.351 4.50645 87.8076
  1229 323.999 -16.0954 -6.84110
  1230 167.478 59.9076 -128.209
  1231 260.102 -12.6008 -66.0812
  1232 309.645 -33.0614 5.60604
  1233 378.866 -6.02713 16.5898
  1234 332.341 -7.06562 -2.44835
  1235 183.935 -13.6196 19.3140
  1236 416.831 -23.2902 -30.0473
  1237 395.777 34.4216 55.5828
  1238 172.642 0.820765 -50.8712
  1239 393.560 -2.53046 1.26103
  1240 317.286 39.4514 -8.11341
  1241 137.919 -4.83772 -5.69523
  1242 137.893 -4.78727 5.63262
  1243 602.981 139.992 34.9275
  1244 823.003 21.8684 38.1955
  1245 0.742189 -38.6738 -6.19912
  1246 0.718303 -38.7171 6.24719
  1247 89.3564 47.3262 73.0086
  1248 213.504 -6.33147 -1.18909
  1249 213.549 -6.29348 1.26853
  1250 292.170 -29.4100 -7.96964
  1251 348.697 28.6115 49.5497
  1252 364.617 -7.26686 -6.59473
  1253 423.259 -1.15282 -0.366285
  1254 732.736 162.937 -102.836
  1255 114.722 -4.33919 5.89238
  1256 114.710 -4.34869 -5.96961
  1257 349.630 -32.4563 17.7137
  1258 613.103 150.605 -47.0751
  1259 339.030 -14.8685 -10.3035
  1260 247.863 -17.2856 -6.97619
  1261 304.248 -33.0583 15.0614
  1262 297.491 -14.9620 1.94504
  1263 11.1034 2.96351 -14.1108
  1264 406.645 -24.6006 35.9409
  1265 329.543 -21.6085 -10.2838
  1266 12.2305 3.53380 15.5987
  1267 338.812 -26.9285 -62.0493
  1268 320.276 20.2706 -133.151
  1269 526.761 67.6598 -9.95938
  1270 424.898 -0.334795 -0.130683
  1271 424.149 -0.727045 0.377531
  1272 335.198 -19.6169 11.2020
  1273 129.346 15.4156 -50.1050
  1274 381.771 -33.9012 28.9882
  1275 648.469 148.404 68.3264
  1276 160.655 55.4342 124.918
  1277 4.54524 0.675523 9.68998
  1278 4.71463 0.758427 -9.57304
  1279 400.943 -32.1443 -33.5372
  1280 161.743 -8.84836 -9.14045
  1281 161.715 -8.87118 8.97554
  1282 373.600 -24.5934 44.5797
  1283 13.9790 0.0953955 8.77314
  1284 13.8319 0.102728 -8.76985
  1285 -2.03820 -7.79311 10.8011
  1286 -2.02429 -7.77636 -10.8029
  1287 66.8620 -2.30405 -7.61773
  1288 66.9356 -2.31764 7.56912
  1289 196.663 -13.1328 -29.4693
  1290 198.147 -6.61119 1.75772
  1291 198.140 -6.75419 -1.68323
  1292 423.397 -0.325063 0.0643700
  1293 376.603 -5.82141 -18.6734
  1294 30.9420 1.38851 -11.0287
  1295 31.0847 1.36734 11.0331
  1296 197.448 -13.8916 29.2350
  1297 427.447 -0.459705 0.160571
  1298 403.991 -0.440809 -0.453845
  1299 403.975 -0.683797 0.350949
  1300 534.136 112.888 5.11474
  1301 393.792 -2.74257 -2.89484
  1302 349.853 -3.69212 0.331202
  1303 387.568 -5.91961 -9.69867
  1304 421.225 -1.38287 1.34442
  1305 439.694 45.4602 48.1912
  1306 509.321 105.954 11.9553
  1307 409.457 -1.64599 -4.95983
  1308 -3.37034 -0.857308 3.02575
  1309 -3.38383 -0.856687 -3.03501
  1310 227.821 -14.4087 6.91652
  1311 227.776 -13.7761 -6.71669
  1312 443.695 50.4101 -45.8124
  1313 92.6610 31.9735 -54.8470
  1314 93.2579 31.0996 54.2553
  1315 299.972 0.0294595 -22.3942
  1316 308.024 -5.06320 -0.292420
  1317 307.647 -5.02290 0.228292
  1318 -7.39939 -1.21846 10.9914
  1319 -7.38586 -1.19845 -10.9871
  1320 342.415 -0.890504 17.7059
  1321 520.266 103.440 -1.52159
  1322 37.3704 -1.40795 -4.80096
  1323 37.4638 -1.41123 4.76302
  1324 384.287 -36.8566 15.6699
  1325 0.724012 6.40933 9.30814
  1326 0.836246 6.44820 -9.23568
  1327 71.4611 -1.62540 -1.58731
  1328 71.4892 -1.60020 1.56198
  1329 300.048 -0.439891 22.7354
  1330 12.7022 0.644122 -0.734195
  1331 12.7596 0.646585 0.721427
  1332 390.817 -4.59616 6.23996
  1333 544.753 99.1902 5.24973
</Section>

newXOutput 50

<Section columns = "stress_xx | stress_yy | stress_xy">
  1 442.636 -1.17090 0.804987
  2 443.332 -1.50429 -1.04554
  3 8.67522 0.414436 -1.14614
  4 -0.317358 -0.481419 -0.314207
  5 810.972 325.463 265.495
  6 823.469 372.499 -268.277
  7 -0.313881 -0.478376 0.309706
  8 8.64331 0.412111 1.14345
  9 445.647 -0.829206 -0.733025
  10 442.360 -1.53559 -1.06065
  11 442.692 -1.19909 0.972440
  12 440.532 -0.640850 0.419517
  13 439.674 -1.44121 -0.281707
  14 438.999 -1.38540 1.73433
  15 432.658 -0.975838 1.66021
  16 434.366 -3.13198 2.53560
  17 420.883 -2.59780 5.46479
  18 412.336 -1.15072 6.57342
  19 400.543 -1.41626 7.09523
  20 380.042 -1.25541 9.92942
  21 357.700 -1.07156 11.5377
  22 329.794 1.45540 15.8347
  23 291.555 2.25328 14.3446
  24 276.202 -0.134927 20.5433
  25 228.467 3.25428 14.6173
  26 199.433 4.28550 11.4582
  27 191.869 2.07643 8.45052
  28 183.758 6.26447 0.624183
  29 188.198 6.76148 -11.3014
  30 197.122 1.93738 -14.1872
  31 232.809 0.837729 -18.9398
  32 268.785 -1.79598 -19.6583
  33 292.924 1.86746 -14.3203
  34 330.206 1.65648 -15.8388
  35 356.776 -1.27193 -12.3667
  36 382.300 -1.42439 -9.36803
  37 398.951 -1.02980 -7.20623
  38 411.097 -1.22133 -6.02742
  39 424.116 -1.50443 -3.48776
  40 429.183 -1.53137 -3.33297
  41 434.126 -1.44859 -2.93778
  42 439.146 -1.65170 -0.569153
  43 441.068 -2.09926 -1.20652
  44 438.503 0.131574 -0.0641969
  45 442.181 -1.09288 -1.09906
  46 444.069 -2.25982 1.15657
  47 446.193 -1.29575 -0.0542120
  48 423.796 0.256223 -0.668459
  49 398.696 -1.70848 -1.25547
  50 370.288 -3.91015 -1.80376
  51 340.895 -3.28003 -1.30984
  52 315.268 -5.29765 -1.20422
  53 288.227 -5.75436 -1.09901
  54 260.962 -5.04055 -0.539690
  55 232.300 -5.40074 -0.742886
  56 208.069 -5.74873 -0.978418
  57 175.847 -5.49985 -0.796467
  58 142.696 -3.46214 -0.509816
  59 115.289 -2.22307 -0.404703
  60 81.4614 -1.40213 -0.163364
  61 56.8945 -1.36089 -1.68886
  62 34.0759 -1.87571 -0.555692
  63 11.0608 0.213478 1.04442
  64 5.07582 1.60561 0.408301
  65 3.36556 0.652768 1.10026
  66 4.17067 0.294566 1.09127
  67 -0.624797 0.923795 0.500340
  68 -2.50983 1.20946 2.27274
  69 -3.35210 0.423529 0.849117
  70 -11.4688 0.897891 0.929625
  71 -15.3193 0.621573 2.19131
  72 -16.9349 0.207119 2.30462
  73 -25.8614 0.843105 1.82090
  74 -29.2761 1.26190 3.39293
  75 -33.1023 0.765703 1.28796
  76 -37.5008 0.557187 1.86432
  77 -39.3576 0.594842 0.793671
  78 -43.6338 1.44284 -0.887898
  79 -44.2493 0.988850 -0.656309
  80 -40.4289 0.746985 -1.33629
  81 -34.8068 0.978085 -2.62884
  82 -28.3456 0.435685 -4.04429
  83 -21.1642 0.240588 -4.23264
  84 -12.7194 -0.425404 -4.44638
  85 -5.54294 -0.341365 -2.60410
  86 -2.32939 -0.919727 -1.62851
  87 -0.387535 -2.34135 -1.41175
  88 -0.650334 -5.98256 -2.50584
  89 -0.741330 -11.6839 -4.38953
  90 -0.143422 -21.8612 -4.73012
  91 0.267873 -30.1910 -5.92842
  92 0.621324 -43.3776 -4.83147
  93 1.87279 -51.4081 -5.68280
  94 0.332959 -55.2077 -4.65426
  95 -0.0684212 -63.0988 -2.70427
  96 1.76310 -60.7650 -0.472206
  97 7.15932 -78.5953 3.64573
  98 6.46162 -40.8545 11.6201
  99 15.3009 -15.3847 25.3204
  100 45.7257 78.9880 77.9792
  101 193.276 254.525 219.280
  102 1062.40 113.719 157.565
  103 889.482 31.4765 56.5222
  104 847.008 13.4258 19.4551
  105 823.459 8.79197 -0.104764
  106 838.463 12.7881 -15.9880
  107 897.765 26.8754 -46.7901
  108 1051.30 90.2330 -146.678
  109 125.468 288.505 -181.477
  110 32.1292 58.8049 -60.4049
  111 11.2783 -22.9290 -21.0786
  112 5.85498 -45.2863 -10.0192
  113 7.12045 -81.7623 -2.87081
  114 1.68491 -62.1695 1.02038
  115 -0.172345 -63.8017 2.99000
  116 0.266717 -55.4791 4.80742
  117 1.83670 -51.4717 5.74756
  118 0.607453 -43.3532 4.85541
  119 0.257356 -30.1480 5.93705
  120 -0.148562 -21.8069 4.72729
  121 -0.741989 -11.6492 4.38021
  122 -0.651744 -5.95271 2.49709
  123 -0.387268 -2.33016 1.40400
  124 -2.31594 -0.918454 1.62204
  125 -5.51909 -0.342893 2.59713
  126 -12.6889 -0.429009 4.44225
  127 -21.1290 0.236622 4.23365
  128 -28.3263 0.431363 4.05191
  129 -34.8160 0.975023 2.64369
  130 -40.4672 0.746760 1.35223
  131 -44.3251 0.987987 0.671836
  132 -43.7407 1.44273 0.904027
  133 -39.4996 0.596412 -0.779672
  134 -37.6691 0.559113 -1.85402
  135 -33.2834 0.767892 -1.27985
  136 -29.4718 1.26449 -3.38972
  137 -26.0623 0.845523 -1.81822
  138 -17.1328 0.208591 -2.30524
  139 -15.5173 0.624109 -2.19459
  140 -11.6574 0.901460 -0.934470
  141 -3.51781 0.425907 -0.858169
  142 -2.65217 1.21188 -2.28617
  143 -0.746504 0.924447 -0.512249
  144 4.08060 0.294097 -1.10283
  145 3.29899 0.651599 -1.10953
  146 5.02482 1.60355 -0.416360
  147 11.0232 0.212145 -1.04913
  148 34.0414 -1.88257 0.550829
  149 56.8625 -1.37824 1.68350
  150 81.4378 -1.43296 0.156309
  151 115.276 -2.26769 0.401025
  152 142.685 -3.51391 0.509219
  153 175.826 -5.54464 0.803456
  154 208.017 -5.77099 0.993062
  155 232.213 -5.37265 0.777575
  156 260.838 -4.93790 0.579651
  157 288.057 -5.51232 1.03849
  158 315.404 -5.36680 1.05704
  159 340.997 -3.70938 1.38278
  160 370.579 -3.83120 1.64120
  161 399.490 -1.47829 1.27283
  162 423.095 0.230573 0.649851
  163 246.680 -22.2568 -20.6856
  164 245.690 -22.6614 20.6369
  165 74.2742 20.4876 -29.9616
  166 75.0078 20.5626 29.8329
  167 291.007 -13.8131 75.6741
  168 305.043 -15.6278 -73.6445
  169 143.092 -7.54391 9.55323
  170 143.077 -7.46946 -9.68903
  171 310.850 -10.9724 1.52697
  172 304.631 -11.0036 -1.41980
  173 414.728 74.7272 -10.3941
  174 420.448 3.10414 -52.9949
  175 412.128 6.32009 57.0419
  176 99.5006 -3.77276 -20.1469
  177 99.5068 -3.74502 20.1065
  178 363.392 -35.9736 18.6576
  179 363.016 -27.9521 -26.4035
  180 5.08867 8.50344 8.67144
  181 5.23883 8.55812 -8.58218
  182 496.427 101.065 15.3762
  183 95.9248 42.9727 -67.6797
  184 102.925 43.3772 72.5706
  185 351.407 -16.4692 12.3269
  186 527.033 110.739 -6.60810
  187 227.959 -8.37542 -2.77543
  188 227.592 -8.59114 2.75154
  189 361.257 -11.4700 -11.2629
  190 480.842 -2.61061 -7.38403
  191 89.7632 -2.70135 3.64989
  192 89.7351 -2.72469 -3.70162
  193 38.5356 4.86241 -13.6030
  194 38.7105 4.81251 13.6346
  195 203.283 -7.76874 -47.4734
  196 202.489 -8.19413 48.0830
  197 242.738 -15.8086 -7.30824
  198 243.222 -15.7202 7.78119
  199 63.7812 -2.23247 10.7176
  200 63.6890 -2.20226 -10.7416
  201 475.608 -7.95042 31.8684
  202 389.168 -38.2546 -7.42317
  203 369.547 -3.87914 -1.69694
  204 361.334 -4.69951 1.72641
  205 367.551 43.1283 40.3637
  206 15.8181 13.6820 -5.35222
  207 16.3912 13.6553 5.60740
  208 366.233 -14.7144 46.9475
  209 337.511 25.7942 -46.2416
  210 239.883 54.6827 -155.036
  211 252.237 46.1941 144.051
  212 6.59017 8.10577 -1.11532
  213 6.73333 8.10403 1.18374
  214 365.071 -12.9693 -48.5192
  215 633.812 88.7083 -6.05610
  216 303.411 -33.0429 27.2702
  217 305.691 -32.8577 -25.8039
  218 303.234 -21.7168 -1.48116
  219 375.604 -6.04535 5.98140
  220 182.479 -12.5312 -17.6584
  221 179.625 -12.4811 18.2022
  222 109.831 2.22923 -30.3557
  223 109.987 2.18676 30.1005
  224 385.600 -40.6149 -4.88285
  225 300.720 -23.0811 0.182265
  226 374.259 -5.90605 -4.66721
  227 291.784 -7.66055 -0.00867554
  228 294.315 -7.15346 0.559411
  229 369.652 -16.5304 26.9561
  230 32.4786 0.291595 -11.4342
  231 32.6153 0.276762 11.4327
  232 -4.63393 -3.09821 -12.4988
  233 -4.65798 -3.12796 12.5090
  234 57.5106 -2.48543 -6.21009
  235 57.5886 -2.49141 6.16080
  236 156.933 -4.74287 4.25202
  237 156.969 -4.82585 -4.28513
  238 180.219 12.5263 -69.3349
  239 180.240 10.4550 68.5528
  240 374.850 -11.7298 -23.0551
  241 176.615 -10.3155 -28.7493
  242 176.766 -10.6299 28.3451
  243 331.159 5.12653 52.3140
  244 290.155 24.9066 3.16883
  245 321.901 -32.0959 -0.810757
  246 1.49006 -7.70191 -11.2817
  247 1.38193 -7.78777 11.3758
  248 20.9010 21.6971 -23.5867
  249 22.2387 20.9575 24.7719
  250 316.541 -31.4007 -1.29603
  251 569.789 107.534 -8.95498
  252 30.0130 20.2255 -10.1315
  253 30.3720 20.2175 10.2494
  254 -12.0183 2.68205 8.43241
  255 -11.9560 2.69602 -8.38937
  256 572.650 100.807 12.1972
  257 201.168 -9.75937 -6.96289
  258 201.015 -9.60471 6.82564
  259 392.933 -26.4403 43.2805
  260 707.922 115.229 71.5715
  261 118.229 -6.23913 -16.5573
  262 118.206 -6.28302 16.5410
  263 401.130 60.0511 -38.5200
  264 683.351 129.933 -65.3056
  265 478.372 48.2595 36.4824
  266 518.736 33.7823 -97.8507
  267 321.887 -15.3465 4.62470
  268 366.529 1.82562 -58.5942
  269 346.771 -24.5414 -14.9463
  270 386.227 -6.99455 14.5818
  271 0.504342 3.70078 -4.25296
  272 0.647971 3.68911 4.30171
  273 382.417 -12.2360 -94.5355
  274 41.6336 12.6610 -13.7551
  275 41.8320 12.6383 13.8296
  276 370.844 -8.98376 -29.6463
  277 53.5895 55.8916 -70.3370
  278 45.5665 -0.220369 -1.43803
  279 45.6083 -0.210676 1.41666
  280 391.521 -24.2200 -45.1879
  281 69.3232 31.1361 -37.7532
  282 70.3223 30.9693 37.8595
  283 20.6691 -0.624565 7.98042
  284 20.5254 -0.616915 -7.98613
  285 321.408 -14.5825 -4.50907
  286 53.9648 55.2972 72.2123
  287 510.112 40.3620 114.559
  288 140.732 -5.62270 -5.78922
  289 140.707 -5.58728 5.70803
  290 257.162 -10.8019 -2.54711
  291 257.037 -11.6778 2.84197
  292 219.538 21.3372 -105.134
  293 353.473 -38.6641 -5.23412
  294 401.871 -2.57790 2.62732
  295 211.476 21.3369 101.738
  296 246.277 -6.87004 -0.856446
  297 246.184 -6.86546 1.06705
  298 347.333 -25.5293 15.2272
  299 398.605 -4.32386 -6.81272
  300 -2.07131 1.48208 -6.25288
  301 -1.91275 1.47097 6.27598
  302 501.532 99.6560 -4.10284
  303 438.875 -20.1291 22.6700
  304 395.894 -2.20633 -0.674735
  305 402.765 -1.92443 0.611132
  306 395.370 -34.5107 34.3620
  307 487.593 51.5139 -33.7685
  308 427.074 79.3996 22.0365
  309 192.143 -11.8424 -11.1568
  310 190.409 -12.0570 11.3714
  311 401.393 -2.51344 -1.73258
  312 264.186 -19.8973 -52.0122
  313 259.991 -20.5902 9.28194
  314 247.867 -13.4502 59.2453
  315 395.250 -4.85743 8.16233
  316 90.5642 -4.15956 -10.3441
  317 90.6248 -4.18990 10.2991
  318 364.504 -11.7505 93.4218
  319 231.971 -18.4066 -13.8836
  320 426.156 54.8335 48.1607
  321 136.207 9.56265 -45.0764
  322 131.162 9.99919 44.7103
  323 40.5530 -0.840741 -2.61011
  324 40.6188 -0.835171 2.57611
  325 349.324 -7.26738 3.38958
  326 335.044 -5.01537 0.414320
  327 333.175 -5.47065 -0.527625
  328 368.139 -9.45972 31.4219
  329 32.6479 -1.19279 5.96608
  330 32.5258 -1.18173 -5.99302
  331 108.110 -2.60619 -2.16843
  332 108.120 -2.56393 2.14580
  333 3.58743 -16.3565 -6.15033
  334 3.35397 -16.4916 6.42863
  335 287.238 12.4505 35.5444
  336 443.100 -18.7989 -18.2484
  337 287.140 -15.4200 0.641004
  338 324.335 -6.77644 -1.64228
  339 340.296 42.2724 -21.7154
  340 67.1317 -2.15874 -14.9547
  341 67.2194 -2.16041 14.9421
  342 279.244 -14.5537 0.810591
  343 79.5934 2.65053 -21.4871
  344 79.7452 2.58224 21.4218
  345 15.6637 13.0294 -0.466877
  346 15.8532 13.0276 0.547696
  347 339.273 -36.2608 35.0035
  348 749.032 49.3742 19.2321
  349 302.761 4.61834 -42.0720
  350 252.670 -22.6393 32.0746
  351 251.385 -22.1798 -33.0358
  352 372.552 -6.22025 57.9733
  353 331.687 -2.37284 41.5122
  354 334.886 -35.0591 -36.1217
  355 200.040 -5.26318 0.411932
  356 200.008 -5.32269 -0.362495
  357 370.445 -24.1757 35.3196
  358 507.322 100.898 2.04951
  359 397.302 -4.59137 -10.7761
  360 102.977 -3.96387 -7.50167
  361 103.021 -3.96736 7.42769
  362 374.311 -35.2560 -43.4134
  363 393.750 27.6052 -57.7400
  364 264.802 14.2357 -22.8278
  365 373.081 -24.8715 -40.4548
  366 -12.1095 0.451031 -9.63659
  367 -12.1228 0.436017 9.64908
  368 313.359 -7.69121 0.870310
  369 -4.45452 -2.64838 -5.78786
  370 -4.44905 -2.64922 5.77578
  371 242.045 122.211 -188.482
  372 9.88378 8.83080 5.73379
  373 10.1266 8.90019 -5.60365
  374 329.182 -2.50470 -41.1714
  375 181.847 -7.85898 5.25024
  376 181.974 -7.96251 -5.30720
  377 -1.20593 -13.1075 10.9808
  378 -1.18563 -13.0835 -10.9694
  379 196.953 128.069 177.527
  380 149.006 -7.95701 -22.5013
  381 149.124 -7.61880 22.5186
  382 47.6860 35.2529 -34.9921
  383 48.6838 35.1581 34.7937
  384 -18.2735 2.85996 3.28620
  385 -18.1881 2.86454 -3.23999
  386 380.018 25.4228 57.9102
  387 291.347 -30.5003 15.4413
  388 291.656 -26.6548 6.32545
  389 353.080 -40.0174 -5.42121
  390 88.9794 11.0528 -29.7692
  391 89.2762 11.0332 29.7246
  392 7.98719 -10.8778 1.24078
  393 7.55742 -11.0628 -0.627964
  394 358.400 51.1610 14.2674
  395 359.896 -10.4918 9.18465
  396 206.519 -16.0671 20.7628
  397 128.088 -3.27365 -26.8926
  398 128.138 -3.29757 26.6937
  399 262.971 -8.19201 -1.09713
  400 262.690 -7.22200 0.874121
  401 204.796 -16.4953 -22.0240
  402 160.287 -2.74422 -36.3057
  403 160.264 -2.96454 36.5931
  404 375.303 -34.3408 -24.3917
  405 218.484 -16.8804 13.1393
  406 341.386 -10.6302 5.34569
  407 340.739 -9.71396 -4.42623
  408 286.308 -26.4615 -7.34973
  409 409.749 -1.93448 -2.79017
  410 138.416 56.3793 -106.830
  411 386.085 -5.66672 17.9757
  412 408.598 -2.27946 4.20821
  413 146.673 -7.90265 13.5924
  414 146.735 -7.79603 -13.5818
  415 290.041 -30.1362 -15.9441
  416 41.8495 18.5062 14.8228
  417 41.6249 18.4928 -14.8346
  418 756.651 49.3375 -39.2789
  419 334.708 -19.2612 -8.37053
  420 412.484 -1.59111 1.60690
  421 130.751 52.6691 101.785
  422 609.562 102.559 20.0626
  423 358.693 -5.69707 -2.68707
  424 268.808 -19.6289 -5.77135
  425 112.512 21.7179 -50.9015
  426 119.871 20.1253 50.5975
  427 330.732 -21.1066 8.42553
  428 351.056 -4.52323 -30.4836
  429 -1.72426 -0.333569 5.98915
  430 -1.89099 -0.329875 -5.98507
  431 127.081 30.6608 -68.1587
  432 127.485 30.7710 67.9505
  433 15.5467 7.02871 -6.47553
  434 15.7057 7.01343 6.53636
  435 296.815 -6.02914 0.492230
  436 296.458 -5.87927 -0.392528
  437 369.125 -16.8984 -28.1949
  438 -0.895891 -0.915950 13.3543
  439 -0.829668 -0.857083 -13.3047
  440 380.175 -37.3712 21.1909
  441 359.429 -9.82172 -8.08600
  442 580.595 111.085 -17.8648
  443 24.4582 -1.06504 2.82701
  444 24.3523 -1.06523 -2.85656
  445 697.471 198.112 89.5870
  446 14.2472 7.22400 -21.3731
  447 44.0753 2.05922 -14.6043
  448 44.2210 2.02560 14.6028
  449 695.788 202.729 -86.4785
  450 15.1039 8.79033 23.4769
  451 -17.4851 2.19907 0.724448
  452 -17.3748 2.19562 -0.680666
  453 39.3156 26.9189 -20.6805
  454 39.9906 26.9311 20.7920
  455 454.584 71.4895 -39.3064
  456 364.877 -14.3942 -18.0457
  457 410.315 -1.67656 -1.40798
  458 381.262 -5.89977 -21.1254
  459 -4.28692 2.87794 12.1989
  460 -4.21945 2.91584 -12.1521
  461 368.675 -14.9772 21.0880
  462 240.100 -13.6632 -5.81530
  463 239.368 -13.8008 5.01474
  464 325.371 -35.8525 -6.11415
  465 232.441 -3.06208 -72.5606
  466 354.495 -5.42508 31.1354
  467 289.875 -9.63219 0.242783
  468 425.082 -31.3877 -6.12131
  469 225.194 2.19919 77.7766
  470 18.3091 -0.338209 5.78295
  471 18.1628 -0.331483 -5.79545
  472 467.226 92.3360 -17.4212
  473 372.995 -3.02161 0.138185
  474 371.725 -3.39069 -0.474653
  475 282.267 -18.9925 2.53149
  476 124.217 -4.24924 -4.21045
  477 124.211 -4.20011 4.15995
  478 73.4852 -0.916261 -17.7114
  479 73.5717 -0.930780 17.6769
  480 238.847 9.24471 13.6614
  481 60.8090 -2.03292 8.56945
  482 60.7212 -2.01366 -8.61175
  483 64.4962 6.08583 19.9698
  484 64.2826 6.17600 -19.9527
  485 362.379 -28.0750 25.3508
  486 203.354 -12.6665 -34.1540
  487 187.921 -6.22257 2.75888
  488 187.987 -6.37175 -2.76335
  489 205.493 -13.0626 34.1471
  490 565.402 134.686 -13.1798
  491 -9.03834 -1.35136 -7.48806
  492 -9.03336 -1.35852 7.48379
  493 143.231 -4.09885 -1.75597
  494 143.231 -4.03810 1.74886
  495 0.195371 -24.1416 -9.09162
  496 0.136109 -24.2208 9.17280
  497 330.718 -5.23828 0.877518
  498 237.411 11.2600 -6.79782
  499 318.047 33.3033 19.5386
  500 202.003 -1.86529 -57.9310
  501 99.6680 -5.11913 12.9763
  502 99.6554 -5.07607 -12.9983
  503 -24.6320 0.804814 -2.10954
  504 -24.4804 0.799922 2.12967
  505 391.404 -7.12707 -57.3413
  506 32.8104 0.177262 -1.90393
  507 32.8665 0.182257 1.87950
  508 325.833 -25.7735 -6.62792
  509 347.142 -29.6164 -14.3383
  510 71.5230 54.9232 -72.6378
  511 291.789 8.44144 -114.001
  512 4.11091 8.86655 5.48146
  513 4.25134 8.88556 -5.40329
  514 179.155 -8.38669 -7.53970
  515 179.067 -8.31153 7.38190
  516 500.293 21.8504 -10.0862
  517 360.888 -21.3894 -23.0348
  518 69.7413 51.9950 71.6278
  519 357.545 -40.3576 11.0004
  520 343.959 -32.7091 10.8966
  521 74.3887 -1.81065 -5.63283
  522 74.4371 -1.80351 5.57796
  523 283.965 3.12087 32.5913
  524 204.952 -15.1712 -13.8805
  525 380.297 -8.59434 13.0920
  526 -1.54228 -9.24407 -7.27952
  527 -1.54611 -9.23674 7.26894
  528 267.199 -23.5758 38.2646
  529 405.686 -30.7889 -29.0511
  530 528.091 38.0505 -20.3635
  531 286.409 -9.96865 -0.122185
  532 86.3335 -1.62401 -1.63898
  533 86.3545 -1.59314 1.62396
  534 181.749 1.55076 55.8297
  535 505.368 85.3151 25.4761
  536 511.789 103.369 -180.023
  537 460.417 3.14111 27.3054
  538 331.797 -36.8248 4.35223
  539 780.042 62.0559 52.6900
  540 578.870 141.000 18.6502
  541 82.9231 -3.46964 14.1584
  542 82.8599 -3.43512 -14.1819
  543 319.026 -26.5262 4.62205
  544 24.3491 11.4904 -6.08520
  545 24.5299 11.4841 6.15703
  546 400.727 -33.0833 29.0863
  547 328.884 17.8272 48.0358
  548 403.195 -2.67175 7.31228
  549 298.690 -18.0758 1.65278
  550 417.462 4.46402 -120.175
  551 660.647 173.020 118.948
  552 323.479 -6.61482 -0.724019
  553 396.233 -4.12198 -11.8570
  554 63.0183 26.2074 -28.3549
  555 63.4742 25.8927 28.2305
  556 227.416 -9.30296 -3.81257
  557 227.313 -9.08636 3.88662
  558 2.72693 -28.0938 -3.62928
  559 404.668 -14.2042 50.8691
  560 15.8960 14.2337 1.05680
  561 16.1431 14.2730 -0.940199
  562 3.18387 -27.1030 4.49473
  563 368.512 -16.7838 -41.3434
  564 423.963 27.0264 -54.9787
  565 422.505 30.6129 55.0021
  566 20.6136 17.9412 15.8292
  567 19.5880 18.3521 -15.4925
  568 -10.8335 0.379909 4.53690
  569 -11.0045 0.383880 -4.52809
  570 389.055 10.7233 123.855
  571 213.909 -11.9553 7.57094
  572 214.122 -11.9131 -7.71238
  573 468.906 -7.49411 -63.9063
  574 62.0877 -0.868946 3.26664
  575 62.0459 -0.882750 -3.30341
  576 29.6327 -0.745455 -0.767292
  577 29.6717 -0.740583 0.758733
  578 515.360 94.3943 -20.2132
  579 49.4982 74.6085 -80.1020
  580 271.691 5.48819 -27.6209
  581 382.669 61.0825 -24.2415
  582 5.79844 0.155487 7.95951
  583 6.03049 0.239509 -7.80376
  584 385.108 179.658 211.367
  585 328.383 -9.35993 -2.78683
  586 12.2777 3.34494 -7.70491
  587 12.4342 3.32076 7.74245
  588 379.400 -30.4345 35.1771
  589 58.5041 72.3226 81.5648
  590 273.821 -6.00122 0.392704
  591 273.896 -5.95245 -0.393783
  592 -0.261151 -19.2461 9.48791
  593 -0.231561 -19.2146 -9.45654
  594 466.802 90.8532 -0.747398
  595 296.404 -23.7107 54.2124
  596 283.016 -12.2952 -0.607202
  597 284.604 13.3524 120.250
  598 -23.4293 1.22265 5.67118
  599 -23.4056 1.22929 -5.64778
  600 466.074 6.58948 -29.3965
  601 619.686 105.826 -85.2858
  602 177.743 18.2191 -80.3037
  603 96.6274 -4.06458 -17.2472
  604 96.7185 -4.06553 17.2499
  605 421.284 -1.43217 2.00189
  606 280.241 -12.5557 0.261505
  607 374.757 -5.28487 4.36916
  608 368.527 -16.7940 40.3608
  609 16.7202 -0.614204 2.88884
  610 16.5910 -0.611593 -2.91074
  611 218.696 -7.77489 -2.22452
  612 218.666 -7.56690 2.15687
  613 136.651 2.97775 -37.4394
  614 135.775 3.01680 37.2768
  615 531.195 32.4685 32.7930
  616 864.915 65.1909 -94.5216
  617 -5.81185 -0.539104 3.95962
  618 -5.98885 -0.537318 -3.95863
  619 129.358 -5.47556 7.75640
  620 129.348 -5.46896 -7.85844
  621 495.362 27.6558 16.8587
  622 416.392 -1.56183 -0.635388
  623 415.485 -2.20995 0.254001
  624 302.925 -0.0723188 32.2615
  625 435.711 -25.1636 -39.3248
  626 237.095 -19.4946 16.5602
  627 -5.15536 5.39722 -5.09836
  628 -5.26055 5.38868 5.15936
  629 379.843 7.85620 60.3891
  630 150.907 -8.69916 -18.0379
  631 150.763 -8.84317 18.0726
  632 309.279 -18.0241 -2.79951
  633 382.018 -8.44290 -11.8374
  634 218.461 -17.4197 -24.8307
  635 358.263 43.2042 -36.7092
  636 241.525 -16.6334 -44.2384
  637 89.4252 -2.40141 -2.92635
  638 89.4463 -2.37316 2.88837
  639 220.721 -17.7287 24.9378
  640 473.641 76.7166 35.0286
  641 376.957 -18.2724 50.8736
  642 308.617 -13.9079 2.65865
  643 221.045 -6.03926 1.43082
  644 220.989 -6.05215 -1.38876
  645 166.858 -6.30023 -5.53420
  646 166.797 -6.23261 5.47656
  647 362.803 -33.2711 -20.0624
  648 184.096 -10.4781 9.67820
  649 184.293 -10.4364 -9.86938
  650 364.400 56.1720 -4.91565
  651 335.284 -17.7352 8.48727
  652 419.060 -1.98717 -3.13703
  653 356.757 -6.51328 -53.2442
  654 52.1137 -2.29652 11.3715
  655 52.0083 -2.28029 -11.3813
  656 408.954 -2.30189 -6.62763
  657 73.3079 37.8707 -51.1880
  658 74.5616 37.7794 51.4384
  659 417.196 -24.8869 54.0908
  660 143.900 35.9861 84.5740
  661 35.9096 -0.231285 11.3750
  662 35.7837 -0.223070 -11.3802
  663 355.454 -22.7935 69.8322
  664 350.052 50.2409 -163.694
  665 341.825 10.7934 -53.1879
  666 449.822 81.4298 30.3496
  667 303.333 -13.6241 -1.30869
  668 545.194 97.9790 -2.38098
  669 -25.8920 1.24923 -1.36085
  670 -25.7638 1.24600 1.38919
  671 242.068 1.18789 -84.9683
  672 17.9685 -0.360702 2.22353
  673 17.8741 -0.361615 -2.24612
  674 303.601 -25.5089 -53.5989
  675 100.897 13.8334 -36.1255
  676 100.098 13.8835 36.1070
  677 2.42331 5.07812 -2.40592
  678 2.56291 5.07147 2.46593
  679 258.138 -22.3457 -12.4888
  680 365.396 -3.60128 -20.4229
  681 174.555 -5.48419 -1.98967
  682 174.564 -5.42398 2.00492
  683 126.513 -6.48650 -11.5794
  684 126.614 -6.57634 11.5375
  685 24.0510 19.7797 -7.16402
  686 24.4499 19.8229 7.29935
  687 374.084 -4.59595 2.12527
  688 166.790 -10.6248 15.0531
  689 167.855 -10.4400 -15.0400
  690 414.310 -33.0441 -4.20010
  691 341.608 -34.3490 -7.19579
  692 268.705 -7.74922 -0.358023
  693 267.759 -7.23728 0.488690
  694 376.205 -39.6827 21.0099
  695 610.251 123.206 32.7790
  696 330.595 -14.5535 -86.6205
  697 378.504 -10.6145 21.1838
  698 376.184 -13.9689 -54.6313
  699 117.774 -3.68633 -5.45603
  700 117.777 -3.65892 5.38855
  701 294.015 -4.86814 97.1116
  702 818.672 105.115 96.3614
  703 56.8482 16.5132 -20.8993
  704 56.9333 16.6237 20.9680
  705 372.848 -3.75184 -1.06411
  706 375.790 -3.37506 1.08806
  707 158.761 80.7290 -137.152
  708 396.268 -2.18416 11.8647
  709 342.672 -6.03004 1.63360
  710 452.234 89.5381 -11.1642
  711 46.5454 8.24940 -15.1595
  712 46.7483 8.19756 15.2161
  713 424.869 -1.10170 0.329713
  714 344.707 -13.4019 -8.36200
  715 429.753 -6.40132 44.3350
  716 176.354 -12.3619 -23.5395
  717 176.796 -11.8333 23.3196
  718 40.7704 -1.39890 8.60660
  719 40.6535 -1.38146 -8.62947
  720 389.600 -2.75029 -2.01233
  721 335.954 66.6150 173.669
  722 2.58192 2.75216 11.0033
  723 2.70750 2.82743 -10.9170
  724 390.633 -4.30458 -5.39726
  725 379.446 -7.06791 7.71956
  726 301.496 0.256331 -34.6020
  727 2.88926 -34.3390 -4.35181
  728 2.70236 -34.6799 4.69493
  729 138.441 37.0988 -84.5820
  730 303.050 -30.3723 -38.7434
  731 157.631 79.9917 138.446
  732 419.429 -1.11133 1.18866
  733 405.875 60.7575 38.6769
  734 296.631 26.8927 -13.6138
  735 530.884 106.980 1.01738
  736 414.398 -1.79735 4.26390
  737 -24.3105 0.606777 3.21257
  738 -24.4781 0.610109 -3.19967
  739 441.251 -24.9834 12.2749
  740 285.877 -8.38174 -0.474562
  741 104.281 0.141351 -25.7879
  742 104.419 0.0377571 25.6424
  743 379.355 -4.55878 -3.07984
  744 669.540 94.7585 -34.5027
  745 45.8252 -1.34305 -5.42217
  746 45.9235 -1.35089 5.38369
  747 422.360 -1.20368 -1.95670
  748 84.8716 -3.78777 -7.55996
  749 84.9289 -3.80113 7.50285
  750 413.778 -16.4456 -45.7917
  751 382.298 -4.02926 16.4233
  752 343.360 -2.23864 52.6760
  753 422.947 -1.25119 0.0190170
  754 395.172 -3.09881 4.10784
  755 258.891 -14.0175 -3.02523
  756 324.209 -8.66159 2.03529
  757 368.649 -22.7180 -34.3345
  758 359.546 -22.6511 22.1931
  759 421.592 51.0067 -48.7260
  760 354.589 -19.9612 16.3596
  761 374.687 -22.1954 44.0052
  762 217.553 -14.7701 10.1346
  763 7.92874 -1.87848 -0.400146
  764 7.51172 -1.90583 0.795369
  765 328.131 -5.09673 -0.0317076
  766 327.438 -5.06187 -0.0895583
  767 393.113 -1.88304 -0.211083
  768 394.463 -1.80579 0.302609
  769 375.027 -10.5609 26.0195
  770 346.143 -31.7388 50.6665
  771 284.478 -23.1375 4.67653
  772 252.780 -15.1569 4.94207
  773 682.903 87.4533 40.0085
  774 379.010 -9.68641 -16.6477
  775 222.433 38.9023 -128.574
  776 352.308 -17.4895 -14.1184
  777 14.5522 0.276140 -8.21391
  778 14.7060 0.263252 8.22531
  779 315.625 27.6653 -30.5121
  780 796.314 24.1653 -10.3642
  781 396.720 10.2294 -59.0082
  782 15.9747 10.6013 -31.6571
  783 408.632 73.4546 9.88204
  784 318.515 -20.3402 4.62810
  785 358.102 -8.95651 51.6500
  786 301.510 -31.6771 38.9572
  787 481.432 -2.30160 78.5564
  788 17.2126 14.2871 33.7901
  789 218.172 -1.28069 66.3037
  790 304.493 -8.00163 -0.621613
  791 339.428 -30.3929 -51.2824
  792 208.650 -16.2755 -17.4406
  793 164.869 7.87882 -57.9927
  794 393.231 -6.11427 57.8171
  795 252.433 -17.2751 7.92868
  796 49.1971 -1.39519 4.82696
  797 49.1228 -1.39683 -4.87075
  798 366.523 -2.02239 18.0859
  799 332.711 1.67614 -51.2190
  800 -28.9097 1.32538 3.49793
  801 -28.8658 1.32790 -3.47230
  802 245.646 -7.83195 -1.09451
  803 244.938 -7.41471 1.01550
  804 182.319 20.4055 81.4596
  805 162.869 -9.55395 11.3524
  806 163.093 -9.32301 -11.4690
  807 422.100 -0.884213 -1.05210
  808 148.459 11.7667 56.5308
  809 5.52496 -0.140717 3.07547
  810 5.36631 -0.137627 -3.08828
  811 362.128 -11.1977 39.9134
  812 386.234 -3.41413 1.57910
  813 -20.6429 0.256945 5.67521
  814 -20.6467 0.263667 -5.66376
  815 238.354 -14.9564 49.6427
  816 46.3048 38.9867 -43.4468
  817 46.8699 37.2076 42.7992
  818 226.469 9.99429 5.67378
  819 -3.29620 -0.243486 -3.52561
  820 -3.11841 -0.245832 3.52236
  821 273.953 -26.0103 -36.5082
  822 373.553 -39.1490 -11.8400
  823 -1.86558 -1.77149 -2.35019
  824 -1.86003 -1.76729 2.34143
  825 20.8779 0.629474 -0.730622
  826 20.9260 0.633003 0.717669
  827 332.352 -29.6118 7.73777
  828 279.950 -28.6576 25.5843
  829 309.871 -5.41608 0.681992
  830 279.231 -22.5787 -5.72030
  831 103.004 -1.74348 -0.582682
  832 103.019 -1.70289 0.573261
  833 -32.6251 0.696017 1.99429
  834 -32.5538 0.695124 -1.96906
  835 349.733 -4.71451 -1.39423
  836 310.400 12.2170 -43.6106
  837 353.701 -7.18848 -4.34544
  838 209.091 -15.9975 16.6281
  839 350.431 -6.14258 -42.2405
  840 374.612 -11.4687 -26.8818
  841 351.138 -4.07617 1.24609
  842 256.635 -9.75254 67.9928
  843 274.178 -26.8049 -14.6259
  844 165.435 -1.23667 -44.5060
  845 166.344 -0.0876059 44.7380
  846 233.860 -17.5697 -10.9871
  847 387.929 42.0761 50.4991
  848 367.827 -38.2194 -28.3096
  849 133.136 -4.25317 -2.75284
  850 133.127 -4.19095 2.72524
  851 281.284 -6.58124 0.297833
  852 281.297 -6.63392 -0.230978
  853 335.149 -2.52601 -27.6339
  854 113.530 -4.81818 -9.35262
  855 113.593 -4.85427 9.27505
  856 1.37624 -34.7706 -6.83762
  857 1.30336 -34.9208 6.98067
  858 57.8680 -0.858360 -0.220628
  859 57.8359 -0.875581 0.209335
  860 347.140 -5.63072 -1.95116
  861 263.927 -25.1619 23.1470
  862 409.325 -34.9686 12.3959
  863 241.228 5.05576 21.7278
  864 354.960 -8.52726 4.99398
  865 387.680 -34.6992 -27.1041
  866 56.3742 3.53088 -17.2985
  867 56.5407 3.47194 17.2904
  868 308.300 -5.79596 -0.621356
  869 248.593 -8.79054 -2.26224
  870 247.734 -8.71491 2.48387
  871 383.703 59.7128 27.3138
  872 133.658 -1.35112 -31.1033
  873 133.535 -1.50637 30.9701
  874 266.388 -24.1125 11.7058
  875 25.9924 16.8178 -6.20297
  876 26.2473 16.7858 6.27633
  877 225.421 -16.0353 40.4767
  878 270.154 -17.3219 -3.23723
  879 337.083 -2.61604 27.9227
  880 331.542 -37.2841 13.0757
  881 379.900 -28.8779 -38.0083
  882 263.282 -25.3674 -23.4669
  883 219.119 -14.7102 -9.72285
  884 713.103 58.5622 -11.0190
  885 347.263 -36.7775 5.00966
  886 10.1498 11.4938 3.85827
  887 10.3318 11.5165 -3.76281
  888 301.948 -30.2695 6.55320
  889 331.049 -37.2160 -22.4829
  890 10.8715 10.0075 0.119048
  891 11.0314 10.0106 -0.0458797
  892 125.138 -4.46554 23.6191
  893 125.212 -4.59920 -23.7570
  894 151.452 -7.67168 25.9079
  895 151.395 -7.85263 -26.0835
  896 477.793 95.8093 13.6544
  897 -0.700450 -14.7756 -7.05368
  898 -0.705526 -14.7576 7.04858
  899 110.189 9.28245 -34.3686
  900 109.652 9.09398 34.0359
  901 823.190 26.6703 -41.5381
  902 16.6339 -0.0869506 1.25002
  903 16.5602 -0.0896391 -1.26777
  904 1.45897 -39.5077 2.10120
  905 1.69968 -38.8351 -1.53319
  906 -15.8144 -0.191100 5.84409
  907 -15.8322 -0.186165 -5.84225
  908 88.0915 25.8712 -40.4580
  909 89.4536 25.0127 39.8907
  910 -6.85230 0.366758 -12.2821
  911 -6.88684 0.338858 12.3040
  912 25.6731 2.25661 -11.2874
  913 25.8306 2.22743 11.3044
  914 96.1644 -1.12645 21.7645
  915 96.0959 -1.12165 -21.8722
  916 78.6174 -2.69828 -17.5614
  917 78.6986 -2.69339 17.5343
  918 410.870 -1.55542 -6.53988
  919 200.523 42.9761 119.588
  920 276.906 -27.3233 13.7200
  921 196.937 -14.1238 13.3879
  922 379.388 39.0996 -49.9168
  923 809.528 17.3420 16.5836
  924 449.038 20.6814 -46.9720
  925 75.0651 -2.87796 10.9671
  926 74.9878 -2.84537 -11.0078
  927 13.7432 -0.431195 -8.07717
  928 13.8941 -0.435381 8.07727
  929 -0.224900 -6.91840 -13.3376
  930 -0.284009 -6.97687 13.3824
  931 203.540 -9.01546 5.94941
  932 203.645 -9.19019 -5.97881
  933 24.8755 6.63133 -10.0500
  934 25.0443 6.60160 10.1028
  935 124.231 -5.54497 -20.0515
  936 124.316 -5.54524 20.0388
  937 268.275 -1.15103 -25.5628
  938 128.214 -6.97485 -13.9178
  939 128.127 -6.90005 13.9633
  940 310.544 -8.80052 -0.784359
  941 375.807 -21.5073 -47.3060
  942 164.575 -6.69237 6.36613
  943 164.651 -6.75373 -6.45129
  944 -6.81436 -0.727695 -4.13124
  945 -6.79572 -0.729438 4.12237
  946 382.548 -29.3059 -62.7319
  947 366.458 -21.5090 29.8186
  948 321.536 -22.5096 -6.08697
  949 314.316 10.7653 45.9466
  950 142.992 -8.04169 -15.6694
  951 142.994 -7.88933 15.7177
  952 350.870 13.4647 55.4801
  953 327.861 28.5924 36.5386
  954 666.352 80.0664 14.0500
  955 341.904 -12.3397 6.08014
  956 180.464 -5.40959 -2.86226
  957 180.443 -5.30394 2.88628
  958 306.394 -25.1313 -0.720435
  959 424.333 77.8276 -23.1208
  960 374.174 -4.12097 -2.16294
  961 246.215 -6.10508 0.941925
  962 246.120 -6.05863 -0.871769
  963 31.4484 26.6092 -19.0479
  964 32.2424 26.5636 19.1918
  965 59.1791 152.192 -133.330
  966 351.278 -8.29574 42.0076
  967 436.875 -7.97311 -39.3548
  968 -7.14076 4.23202 2.15808
  969 -7.02545 4.23134 -2.10047
  970 884.855 210.570 -167.915
  971 374.136 -40.6002 3.68388
  972 398.897 -36.7342 -16.5917
  973 368.405 -31.5509 26.9691
  974 455.976 89.6914 9.49212
  975 33.1107 34.9869 -40.5087
  976 84.0114 131.723 130.988
  977 -2.16836 -5.07694 13.3510
  978 -2.13167 -5.03406 -13.3282
  979 358.282 -9.23164 6.27650
  980 575.135 101.708 -12.4346
  981 34.0740 34.2006 42.1054
  982 -1.58207 -5.32486 -4.59388
  983 -1.58237 -5.31012 4.58195
  984 307.541 -7.25048 0.216456
  985 229.831 -18.2679 -18.1963
  986 371.293 -29.3282 -32.1460
  987 105.729 28.4483 -53.4092
  988 107.421 28.9167 53.5479
  989 360.850 -8.95252 -37.4346
  990 363.230 -11.5584 11.8507
  991 -9.60468 2.49893 10.7736
  992 -9.55600 2.52376 -10.7382
  993 219.488 -14.4549 -38.0772
  994 364.286 23.2999 -55.6349
  995 270.655 -10.2009 1.15257
  996 194.983 -5.60025 0.501962
  997 194.946 -5.63685 -0.479715
  998 -4.08769 -4.64231 -9.56688
  999 -4.09354 -4.65236 9.55904
  1000 368.146 -13.1594 -14.6523
  1001 350.397 -3.99584 0.365963
  1002 350.071 -4.00047 -0.223796
  1003 484.521 79.3855 -32.1875
  1004 87.7039 7.57958 -27.1221
  1005 87.9222 7.42824 27.0628
  1006 56.2094 -0.543286 -14.5662
  1007 56.3158 -0.554592 14.5493
  1008 399.360 21.4250 59.6940
  1009 377.441 -7.15168 -8.10553
  1010 66.9370 10.5248 -22.1085
  1011 67.2021 10.4461 22.1897
  1012 393.553 -2.16572 -1.29403
  1013 367.894 -15.9157 -22.4108
  1014 359.262 -40.4849 -15.8368
  1015 13.8316 11.9462 0.113291
  1016 13.4492 11.8891 0.0606368
  1017 -17.2840 2.86600 6.35545
  1018 -17.2209 2.87398 -6.31320
  1019 218.867 8.21222 -9.48948
  1020 620.888 154.352 -42.9456
  1021 284.117 -20.7284 -2.04239
  1022 188.091 -8.21500 -39.1802
  1023 455.235 -18.0087 3.22308
  1024 188.831 -8.20596 39.7266
  1025 326.576 -37.9386 26.1945
  1026 370.194 -15.3168 -33.9028
  1027 127.467 -2.98801 -0.880597
  1028 127.477 -2.93593 0.874830
  1029 252.995 -19.7772 -9.59339
  1030 155.260 -5.80279 -30.5548
  1031 155.202 -5.84685 30.4012
  1032 51.5429 33.7576 -33.1173
  1033 52.3592 33.6623 33.2168
  1034 107.325 -3.41702 -3.12847
  1035 107.333 -3.37507 3.08862
  1036 329.212 -10.5020 3.15982
  1037 277.967 1.30350 -98.2907
  1038 341.208 -11.1423 -6.05692
  1039 308.373 -34.0820 -15.8856
  1040 203.029 -8.59462 4.08647
  1041 203.194 -8.65866 -4.09929
  1042 398.897 -2.50137 1.63218
  1043 356.919 -8.54578 -5.88006
  1044 230.776 5.62343 17.9053
  1045 382.788 -3.78953 -15.2796
  1046 148.455 43.4767 95.8783
  1047 393.968 -3.66067 -12.5060
  1048 103.218 17.3542 -40.2775
  1049 100.147 17.5491 38.6466
  1050 470.448 -7.70631 -5.10333
  1051 42.7853 22.2857 -17.3211
  1052 43.1784 22.1264 17.3186
  1053 7.31194 -0.321652 4.00417
  1054 7.67536 -0.254065 -3.76473
  1055 61.6217 -1.63819 3.76177
  1056 61.5676 -1.64878 -3.80777
  1057 168.846 44.0011 -106.194
  1058 912.995 238.812 180.728
  1059 366.956 -13.1520 15.0284
  1060 329.488 -36.9824 -11.7944
  1061 229.183 -18.8382 -29.4855
  1062 -4.59806 5.09862 9.29483
  1063 -4.50975 5.12660 -9.23550
  1064 258.588 -13.3468 2.42430
  1065 285.121 -10.6409 0.214729
  1066 -0.136626 -20.9344 6.79763
  1067 -0.129511 -20.9552 -6.79583
  1068 43.0315 26.6744 -20.5900
  1069 43.5419 26.6255 20.7127
  1070 255.150 -12.2752 -2.31350
  1071 20.3242 9.32267 6.40289
  1072 20.1567 9.33519 -6.33526
  1073 389.468 -15.3318 54.8615
  1074 282.050 -29.1847 -25.4553
  1075 230.545 -19.1412 29.4845
  1076 371.070 -7.40084 -57.8460
  1077 391.108 -4.31815 5.87906
  1078 142.061 21.8834 64.4012
  1079 143.080 20.9430 -63.3305
  1080 228.870 -11.0617 -54.2230
  1081 323.768 -11.6530 -3.19211
  1082 263.401 -15.8644 4.58418
  1083 308.467 -28.8189 -1.40262
  1084 422.611 -1.51642 -3.36397
  1085 228.672 -10.5499 4.38935
  1086 228.573 -11.1519 -4.51682
  1087 7.80167 9.11748 7.43302
  1088 7.99000 9.18450 -7.32472
  1089 374.137 13.8524 -59.7961
  1090 84.2680 4.24693 -23.9649
  1091 84.4929 4.15291 23.9003
  1092 63.4042 1.20761 -17.2063
  1093 63.5414 1.17249 17.1761
  1094 426.255 -16.6791 78.8408
  1095 369.732 -17.0361 33.3967
  1096 181.248 -8.32053 -33.2715
  1097 429.302 -1.71172 -2.00780
  1098 482.433 91.2839 -24.2634
  1099 390.358 -3.77645 -3.67354
  1100 366.262 -39.4382 11.6397
  1101 271.265 -20.5717 47.6123
  1102 432.014 -0.553185 0.358617
  1103 230.346 7.17289 -15.1813
  1104 310.616 -33.2080 -7.61651
  1105 181.540 -8.69767 32.9128
  1106 313.496 -28.5721 -0.396093
  1107 390.634 -5.61160 11.1315
  1108 281.189 17.7804 23.6244
  1109 194.919 -14.3283 -26.5654
  1110 588.894 85.1976 -36.1177
  1111 443.658 20.3039 49.3813
  1112 332.155 41.5792 5.78415
  1113 427.522 0.0388303 1.76386
  1114 169.289 -10.5784 -20.3794
  1115 115.472 71.6725 -106.776
  1116 206.295 5.63049 -76.8928
  1117 236.665 -18.2040 12.9526
  1118 200.023 -14.9740 24.9184
  1119 168.886 -10.0619 20.5854
  1120 355.927 3.15066 58.2139
  1121 268.801 -9.46776 -0.835671
  1122 421.566 -3.14370 4.54991
  1123 -3.28675 -0.211029 13.3172
  1124 -3.23614 -0.167982 -13.2834
  1125 281.489 -8.15298 0.271031
  1126 -0.185076 3.27713 11.9805
  1127 -0.0935606 3.33349 -11.9161
  1128 158.591 -5.03403 3.57569
  1129 158.603 -5.11298 -3.58007
  1130 397.480 -2.14923 10.3805
  1131 319.683 -19.6308 -4.99186
  1132 299.504 -16.0871 -1.21686
  1133 334.873 -23.4916 10.6303
  1134 102.439 51.0777 -79.7428
  1135 328.230 -12.5173 4.29131
  1136 49.5591 0.898575 -14.1268
  1137 49.6892 0.874205 14.1164
  1138 68.6817 44.3653 -56.2658
  1139 524.226 69.3857 15.0999
  1140 38.2544 -1.74587 8.25062
  1141 38.1316 -1.73169 -8.26363
  1142 69.9201 43.6909 54.3548
  1143 300.694 -25.2055 -0.490106
  1144 152.757 -7.15843 7.84573
  1145 152.781 -7.19113 -7.97196
  1146 612.454 129.815 -34.9895
  1147 331.201 -33.1822 1.68430
  1148 113.731 67.1057 106.558
  1149 9.81728 -1.70918 -9.21012
  1150 10.5724 -1.58068 10.0987
  1151 349.599 43.8242 29.2277
  1152 26.4641 14.2161 -6.52130
  1153 26.6767 14.2205 6.58285
  1154 333.376 -29.0197 -8.24465
  1155 -0.152427 -32.3129 -6.36251
  1156 -0.167555 -32.3176 6.39150
  1157 356.270 -30.0762 -18.7822
  1158 -4.65336 0.430591 2.74724
  1159 -4.83249 0.433335 -2.75344
  1160 54.9243 20.3762 -22.2243
  1161 55.2216 20.4643 22.0258
  1162 -17.5557 0.0405371 -3.36449
  1163 -17.3699 0.0392068 3.36783
  1164 355.696 -4.02010 -0.449163
  1165 -35.2551 1.04555 0.505374
  1166 -35.1572 1.04501 -0.482114
  1167 188.564 -14.8183 -19.6869
  1168 5.03698 -45.6910 -5.01607
  1169 95.1959 -2.71161 5.96468
  1170 95.1616 -2.72108 -6.02970
  1171 302.497 -5.93040 0.470499
  1172 303.069 -5.77964 -0.411667
  1173 5.41005 -43.5100 6.11273
  1174 358.575 -18.7600 -18.6834
  1175 409.135 -1.92351 7.61946
  1176 364.340 -23.3630 -27.4561
  1177 318.696 2.38627 45.5857
  1178 1.73724 -12.7757 9.68255
  1179 1.89380 -12.6775 -9.51998
  1180 233.382 -17.0119 10.3625
  1181 -15.8741 1.47667 8.61110
  1182 -15.8446 1.48916 -8.58515
  1183 604.290 96.0273 6.50940
  1184 704.264 222.295 -156.444
  1185 372.463 -36.1554 23.3082
  1186 154.578 -4.55434 -0.520558
  1187 154.588 -4.49933 0.521017
  1188 760.688 73.8255 -68.1840
  1189 55.3615 -1.44053 8.56621
  1190 55.2618 -1.41865 -8.59841
  1191 348.343 -1.13677 -18.0466
  1192 223.917 -18.1175 22.2554
  1193 368.432 -36.0727 -16.7980
  1194 356.616 -25.9488 -21.3262
  1195 218.045 -7.64366 56.8300
  1196 81.1059 15.0339 -30.5437
  1197 81.0628 14.9005 30.3729
  1198 106.643 39.5516 -67.8223
  1199 106.788 36.6096 67.8255
  1200 30.8492 8.87627 -10.6500
  1201 31.0314 8.84992 10.7139
  1202 440.054 76.3448 -33.7744
  1203 22.9840 21.0667 -9.70972
  1204 23.5168 21.0985 9.87003
  1205 317.405 -24.3587 4.16772
  1206 591.645 88.2837 40.4846
  1207 76.4214 -3.17983 -5.87834
  1208 76.4775 -3.17867 5.82083
  1209 383.917 271.327 -231.489
  1210 297.927 17.7010 -36.4459
  1211 273.866 20.9843 14.8890
  1212 38.2367 15.9847 -12.5943
  1213 38.4180 15.9850 12.6635
  1214 8.81864 -0.0759779 2.00947
  1215 8.69762 -0.0758537 -2.02671
  1216 351.492 -28.2477 17.5221
  1217 345.582 -13.9424 9.22436
  1218 236.825 67.8103 -166.169
  1219 544.740 118.986 -6.33093
  1220 234.605 -7.06424 -62.5602
  1221 303.702 -9.48797 0.424174
  1222 16.7417 -1.50540 -0.464649
  1223 16.7749 -1.50429 0.461974
  1224 -7.35514 2.38276 -4.64109
  1225 -7.20694 2.37292 4.67625
  1226 204.042 2.27589 -65.7426
  1227 374.889 -8.33166 10.4640
  1228 244.217 4.63698 89.6914
  1229 330.496 -16.4447 -6.88707
  1230 170.913 61.2234 -130.921
  1231 265.378 -12.8293 -67.5289
  1232 315.886 -33.7274 5.84522
  1233 386.406 -6.16130 16.8544
  1234 338.963 -7.24351 -2.45031
  1235 187.774 -13.9121 19.7995
  1236 425.116 -23.6996 -30.4522
  1237 403.780 35.1521 56.5159
  1238 176.231 0.840622 -52.0124
  1239 401.256 -2.60525 1.27186
  1240 323.912 40.2638 -8.25769
  1241 140.900 -4.95271 -5.84554
  1242 140.874 -4.90131 5.78177
  1243 614.740 142.997 35.9352
  1244 838.566 22.2807 38.9047
  1245 0.758880 -39.4293 -6.31490
  1246 0.734507 -39.4733 6.36391
  1247 91.2507 48.3763 74.6257
  1248 217.921 -6.49041 -1.23568
  1249 217.968 -6.45173 1.31662
  1250 298.078 -30.0101 -8.24864
  1251 355.855 29.2154 50.4137
  1252 371.841 -7.44076 -6.67032
  1253 431.461 -1.18551 -0.376650
  1254 746.894 166.154 -104.920
  1255 117.254 -4.43945 6.05424
  1256 117.241 -4.44909 -6.13290
  1257 356.636 -33.1056 17.9278
  1258 625.049 153.830 -48.3145
  1259 345.809 -15.1922 -10.4187
  1260 252.929 -17.6581 -7.20817
  1261 310.385 -33.7197 15.4906
  1262 303.489 -15.2923 1.90012
  1263 11.3570 3.20372 -14.4930
  1264 414.745 -25.0483 36.4677
  1265 336.154 -22.0612 -10.3818
  1266 12.5079 3.78552 16.0111
  1267 345.582 -27.4136 -63.4250
  1268 326.648 20.7832 -135.924
  1269 537.120 69.1522 -9.88513
  1270 433.126 -0.352643 -0.132259
  1271 432.366 -0.752277 0.383658
  1272 341.914 -20.0309 11.3231
  1273 132.073 15.7403 -51.2356
  1274 389.399 -34.5530 29.3978
  1275 661.165 151.368 69.8148
  1276 163.969 56.6584 127.567
  1277 4.66236 0.735026 9.83677
  1278 4.83521 0.819756 -9.71745
  1279 408.885 -32.7181 -34.3651
  1280 165.170 -9.04768 -9.38711
  1281 165.142 -9.07105 9.21907
  1282 381.094 -25.0700 45.3071
  1283 14.4491 0.0945716 8.99326
  1284 14.2986 0.102050 -8.98977
  1285 -2.07317 -7.94125 11.0132
  1286 -2.05898 -7.92419 -11.0151
  1287 68.4556 -2.35770 -7.81239
  1288 68.5312 -2.37158 7.76292
  1289 200.738 -13.4093 -30.1699
  1290 202.275 -6.77278 1.81968
  1291 202.268 -6.91850 -1.74375
  1292 431.612 -0.342467 0.0719170
  1293 384.111 -5.94931 -18.9745
  1294 31.7340 1.41125 -11.3132
  1295 31.8800 1.38965 11.3179
  1296 201.539 -14.1833 29.9318
  1297 435.721 -0.476348 0.166298
  1298 411.861 -0.470842 -0.463278
  1299 411.844 -0.718700 0.358653
  1300 544.698 115.240 4.96057
  1301 401.512 -2.82111 -2.92489
  1302 356.774 -3.80216 0.322500
  1303 395.226 -6.05653 -9.84114
  1304 429.417 -1.42025 1.35921
  1305 448.492 46.4310 48.9366
  1306 519.461 108.133 11.9732
  1307 417.507 -1.68740 -5.03404
  1308 -3.44130 -0.874070 3.08862
  1309 -3.45508 -0.873440 -3.09807
  1310 232.507 -14.7258 7.13405
  1311 232.462 -14.0807 -6.92966
  1312 452.571 51.4807 -46.5072
  1313 94.6352 32.6628 -56.0840
  1314 95.2447 31.7712 55.4807
  1315 306.218 0.0332053 -22.7953
  1316 314.192 -5.20500 -0.312544
  1317 313.807 -5.16394 0.247089
  1318 -7.53818 -1.23568 11.2055
  1319 -7.52440 -1.21525 -11.2012
  1320 349.392 -0.909282 18.0150
  1321 530.654 105.500 -1.67202
  1322 38.4011 -1.43815 -4.92328
  1323 38.4969 -1.44150 4.88465
  1324 391.947 -37.5616 15.8153
  1325 0.780641 6.55954 9.45181
  1326 0.895200 6.59931 -9.37782
  1327 73.1797 -1.66476 -1.63203
  1328 73.2090 -1.63907 1.60623
  1329 306.295 -0.444547 23.1430
  1330 13.2979 0.655510 -0.754112
  1331 13.3573 0.658017 0.741105
  1332 398.513 -4.70764 6.32282
  1333 555.599 101.129 5.41061
</Section>

newXOutput 51

<Section columns = "stress_xx | stress_yy | stress_xy">
  1 450.997 -1.20181 0.820446
  2 451.704 -1.54076 -1.06558
  3 9.21226 0.421617 -1.16647
  4 -0.324646 -0.491770 -0.321847
  5 825.567 332.159 270.532
  6 838.288 380.103 -273.355
  7 -0.321096 -0.488662 0.317253
  8 9.17876 0.419250 1.16373
  9 454.059 -0.851695 -0.746850
  10 450.721 -1.57126 -1.08189
  11 451.066 -1.22844 0.986275
  12 448.879 -0.661844 0.421154
  13 448.017 -1.47498 -0.293256
  14 447.347 -1.41865 1.75770
  15 440.917 -1.00240 1.67838
  16 442.671 -3.19450 2.57093
  17 428.979 -2.65192 5.54897
  18 420.309 -1.17967 6.67593
  19 408.339 -1.44822 7.20816
  20 387.515 -1.28407 10.0944
  21 364.811 -1.09397 11.7331
  22 336.440 1.48221 16.1092
  23 297.552 2.29552 14.5962
  24 281.932 -0.131551 20.9074
  25 233.367 3.32283 14.8787
  26 203.816 4.37238 11.6654
  27 196.117 2.12700 8.60414
  28 187.862 6.39322 0.636507
  29 192.381 6.89720 -11.5075
  30 201.462 1.97987 -14.4450
  31 237.782 0.861968 -19.2809
  32 274.386 -1.82408 -20.0061
  33 298.945 1.90272 -14.5710
  34 336.858 1.68663 -16.1128
  35 363.870 -1.29804 -12.5769
  36 389.807 -1.45440 -9.52283
  37 406.722 -1.05483 -7.32126
  38 419.049 -1.25256 -6.11981
  39 432.266 -1.53696 -3.53892
  40 437.398 -1.56835 -3.38026
  41 442.408 -1.48298 -2.98076
  42 447.493 -1.68983 -0.571830
  43 449.436 -2.14580 -1.22162
  44 446.816 0.124277 -0.0591850
  45 450.545 -1.12086 -1.11547
  46 452.456 -2.30890 1.17974
  47 454.613 -1.32561 -0.0545294
  48 431.843 0.244533 -0.681153
  49 406.321 -1.76731 -1.27836
  50 377.427 -4.01978 -1.83341
  51 347.523 -3.38373 -1.33081
  52 321.444 -5.44185 -1.22325
  53 293.920 -5.90745 -1.11553
  54 266.163 -5.17774 -0.545064
  55 236.979 -5.54237 -0.751848
  56 212.305 -5.89137 -0.991469
  57 179.488 -5.63217 -0.805805
  58 145.722 -3.54921 -0.515795
  59 117.805 -2.28010 -0.408783
  60 83.3473 -1.43798 -0.162378
  61 58.3234 -1.39135 -1.71825
  62 35.0820 -1.91238 -0.563908
  63 11.6394 0.217327 1.06601
  64 5.53759 1.63481 0.419409
  65 3.78838 0.664338 1.12487
  66 4.59620 0.299667 1.11739
  67 -0.305685 0.940402 0.517148
  68 -2.24034 1.23168 2.32478
  69 -3.12194 0.431632 0.875161
  70 -11.4154 0.915076 0.957242
  71 -15.3590 0.632686 2.24315
  72 -17.0317 0.210031 2.36019
  73 -26.1620 0.858618 1.86880
  74 -29.6654 1.28583 3.47284
  75 -33.5993 0.780235 1.32715
  76 -38.1067 0.568047 1.91383
  77 -40.0288 0.606130 0.821687
  78 -44.4192 1.47232 -0.894469
  79 -45.0675 1.00900 -0.660318
  80 -41.1930 0.761533 -1.35445
  81 -35.4752 0.998532 -2.67343
  82 -28.9006 0.445799 -4.12012
  83 -21.5862 0.246572 -4.31465
  84 -12.9758 -0.432526 -4.53396
  85 -5.65834 -0.347427 -2.65691
  86 -2.37901 -0.937899 -1.66218
  87 -0.395028 -2.39033 -1.44155
  88 -0.662218 -6.10773 -2.55683
  89 -0.755206 -11.9201 -4.47654
  90 -0.144831 -22.2986 -4.82157
  91 0.274364 -30.7857 -6.04069
  92 0.634863 -44.2266 -4.92183
  93 1.91281 -52.4021 -5.78689
  94 0.342248 -56.2477 -4.73237
  95 -0.0677992 -64.2592 -2.73698
  96 1.79761 -61.8240 -0.449029
  97 7.30357 -79.9401 3.75741
  98 6.60469 -41.3641 11.9208
  99 15.6254 -15.2541 25.9269
  100 46.6500 81.2267 79.6491
  101 196.889 260.265 223.569
  102 1081.49 115.884 160.351
  103 905.781 32.0605 57.5257
  104 862.591 13.6748 19.7974
  105 838.660 8.95136 -0.106945
  106 853.915 13.0251 -16.2720
  107 914.194 27.3729 -47.6150
  108 1070.19 91.9273 -149.250
  109 127.833 294.988 -185.029
  110 32.7820 60.6448 -61.7225
  111 11.5192 -22.9522 -21.5970
  112 5.98493 -45.8853 -10.2868
  113 7.26357 -83.1707 -2.96662
  114 1.71769 -63.2562 1.00816
  115 -0.173803 -64.9758 3.02837
  116 0.274699 -56.5243 4.88853
  117 1.87599 -52.4667 5.85290
  118 0.620714 -44.2014 4.94622
  119 0.263641 -30.7417 6.04945
  120 -0.150072 -22.2431 4.81865
  121 -0.755874 -11.8846 4.46700
  122 -0.663652 -6.07724 2.54789
  123 -0.394755 -2.37890 1.43364
  124 -2.36528 -0.936597 1.65557
  125 -5.63398 -0.348985 2.64978
  126 -12.9446 -0.436204 4.52972
  127 -21.5503 0.242524 4.31566
  128 -28.8808 0.441385 4.12788
  129 -35.4844 0.995402 2.68858
  130 -41.2319 0.761301 1.37072
  131 -45.1448 1.00812 0.676178
  132 -44.5282 1.47220 0.910951
  133 -40.1737 0.607726 -0.807371
  134 -38.2785 0.570006 -1.90328
  135 -33.7844 0.782462 -1.31884
  136 -29.8654 1.28847 -3.46952
  137 -26.3674 0.861082 -1.86603
  138 -17.2341 0.211531 -2.36079
  139 -15.5616 0.635273 -2.24647
  140 -11.6085 0.918715 -0.962154
  141 -3.29166 0.434055 -0.884362
  142 -2.38631 1.23415 -2.33846
  143 -0.430647 0.941071 -0.529270
  144 4.50346 0.299190 -1.12915
  145 3.71955 0.663151 -1.13431
  146 5.48464 1.63273 -0.427617
  147 11.6001 0.215969 -1.07081
  148 35.0460 -1.91937 0.558960
  149 58.2901 -1.40902 1.71280
  150 83.3227 -1.46938 0.155198
  151 117.792 -2.32554 0.405045
  152 145.710 -3.60193 0.515195
  153 179.466 -5.67777 0.812935
  154 212.251 -5.91399 1.00639
  155 236.891 -5.51368 0.787183
  156 266.038 -5.07310 0.585746
  157 293.747 -5.66083 1.05397
  158 321.582 -5.51241 1.07349
  159 347.628 -3.82133 1.40504
  160 377.723 -3.93935 1.66780
  161 407.129 -1.53287 1.29604
  162 431.133 0.218348 0.662291
  163 251.623 -22.7083 -21.2049
  164 250.615 -23.1212 21.1549
  165 75.8589 20.9108 -30.6663
  166 76.6077 20.9871 30.5351
  167 296.751 -14.0458 77.2848
  168 311.047 -15.8939 -75.2147
  169 146.106 -7.71037 9.80279
  170 146.090 -7.63440 -9.94108
  171 316.964 -11.2234 1.49238
  172 310.633 -11.2553 -1.38246
  173 423.009 76.1969 -10.5569
  174 428.682 3.21726 -53.8255
  175 420.219 6.48962 57.9595
  176 101.641 -3.85917 -20.6302
  177 101.648 -3.83093 20.5892
  178 370.513 -36.6706 18.8715
  179 370.136 -28.5007 -26.7792
  180 5.23186 8.70222 8.78930
  181 5.38505 8.75813 -8.69820
  182 506.157 103.070 15.4995
  183 97.9198 43.8906 -69.1570
  184 105.056 44.3023 74.1440
  185 358.281 -16.8156 12.4725
  186 537.298 112.954 -6.52653
  187 232.559 -8.57272 -2.87422
  188 232.185 -8.79261 2.84999
  189 368.299 -11.7205 -11.4019
  190 490.090 -2.53920 -7.74370
  191 91.7918 -2.76376 3.75047
  192 91.7625 -2.78752 -3.80313
  193 39.4406 4.95650 -13.9482
  194 39.6193 4.90564 13.9806
  195 207.392 -7.92153 -48.5263
  196 206.582 -8.35461 49.1486
  197 247.611 -16.1467 -7.53851
  198 248.104 -16.0564 8.02073
  199 65.2657 -2.28410 10.9834
  200 65.1712 -2.25327 -11.0077
  201 484.744 -7.96991 32.6881
  202 396.759 -38.9680 -7.40133
  203 376.683 -3.98786 -1.70439
  204 368.329 -4.82649 1.73187
  205 374.935 44.0035 41.0395
  206 16.1741 14.0336 -5.54888
  207 16.7588 14.0067 5.80921
  208 373.471 -14.9953 47.7293
  209 344.341 26.3270 -47.0373
  210 244.606 55.8890 -158.198
  211 257.204 47.2165 146.995
  212 6.80789 8.27425 -1.19645
  213 6.95405 8.27254 1.26637
  214 372.295 -13.2142 -49.3314
  215 645.993 90.3867 -6.18898
  216 309.408 -33.6838 27.9352
  217 311.729 -33.4959 -26.4399
  218 309.226 -22.1667 -1.40701
  219 382.874 -6.19271 6.04656
  220 186.219 -12.7977 -18.0990
  221 183.312 -12.7467 18.6531
  222 112.144 2.26761 -31.0604
  223 112.304 2.22438 30.8004
  224 393.117 -41.3712 -5.14043
  225 306.666 -23.5573 0.0816657
  226 381.500 -6.05189 -4.71016
  227 297.544 -7.84992 -0.0413982
  228 300.120 -7.33333 0.602131
  229 376.894 -16.8642 27.3701
  230 33.3043 0.292991 -11.7188
  231 33.4441 0.277863 11.7175
  232 -4.71333 -3.14738 -12.7344
  233 -4.73785 -3.17774 12.7448
  234 58.9114 -2.54012 -6.36817
  235 58.9916 -2.54624 6.31801
  236 160.220 -4.85744 4.36553
  237 160.256 -4.94196 -4.39922
  238 183.872 12.7938 -70.8255
  239 183.894 10.6806 70.0277
  240 382.180 -11.9732 -23.4099
  241 180.232 -10.5324 -29.4217
  242 180.386 -10.8531 29.0101
  243 337.843 5.24457 53.2236
  244 296.172 25.4175 3.22463
  245 328.246 -32.7337 -0.699247
  246 1.53374 -7.81225 -11.4701
  247 1.42346 -7.89988 11.5661
  248 21.3607 22.2733 -24.1722
  249 22.7254 21.5193 25.3808
  250 322.786 -32.0255 -1.44733
  251 580.720 109.801 -9.41862
  252 30.6850 20.6625 -10.4269
  253 31.0514 20.6545 10.5474
  254 -12.2171 2.74135 8.57345
  255 -12.1536 2.75563 -8.52952
  256 583.606 102.962 12.7330
  257 205.271 -9.97784 -7.16535
  258 205.116 -9.82029 7.02565
  259 400.628 -26.9315 43.9495
  260 721.362 117.431 73.0024
  261 120.750 -6.37668 -16.9616
  262 120.727 -6.42154 16.9452
  263 409.124 61.2566 -39.1385
  264 696.384 132.438 -66.6547
  265 487.670 49.2960 36.9511
  266 528.575 34.6967 -99.9451
  267 328.213 -15.6769 4.62905
  268 373.819 1.88702 -59.5864
  269 353.573 -25.0371 -15.1193
  270 393.736 -7.14767 14.7989
  271 0.627494 3.77460 -4.38716
  272 0.774172 3.76272 4.43702
  273 389.826 -12.3728 -96.5175
  274 42.5739 12.9196 -14.1144
  275 42.7765 12.8966 14.1905
  276 378.143 -9.16324 -30.1325
  277 54.7159 57.2171 -71.8814
  278 46.7793 -0.227275 -1.47582
  279 46.8226 -0.217401 1.45405
  280 399.197 -24.6664 -45.8939
  281 70.7936 31.7970 -38.6231
  282 71.8131 31.6272 38.7318
  283 21.3027 -0.639367 8.17640
  284 21.1557 -0.631564 -8.18211
  285 327.723 -14.8995 -4.51469
  286 55.0996 56.6101 73.7930
  287 519.781 41.4345 116.971
  288 143.710 -5.75117 -5.94885
  289 143.685 -5.71512 5.86618
  290 262.299 -11.0482 -2.65719
  291 262.171 -11.9408 2.95877
  292 223.923 21.8086 -107.324
  293 360.404 -39.4111 -5.18979
  294 409.576 -2.65120 2.65280
  295 215.706 21.8122 103.865
  296 251.211 -7.04095 -0.896526
  297 251.116 -7.03634 1.11094
  298 354.148 -26.0427 15.4027
  299 406.291 -4.42763 -6.90181
  300 -1.96239 1.50964 -6.41823
  301 -1.80038 1.49833 6.44192
  302 511.391 101.584 -4.11588
  303 447.388 -20.4568 22.9104
  304 403.475 -2.27665 -0.676971
  305 410.463 -1.98636 0.613186
  306 403.051 -35.1201 35.1910
  307 497.052 52.6201 -34.1752
  308 435.565 80.9681 22.3629
  309 196.073 -12.0988 -11.4561
  310 194.307 -12.3176 11.6750
  311 409.084 -2.58650 -1.74300
  312 269.442 -20.2761 -53.1570
  313 265.185 -21.0173 9.56659
  314 252.814 -13.7006 60.5313
  315 402.887 -4.97160 8.27311
  316 92.5795 -4.25187 -10.6013
  317 92.6418 -4.28284 10.5556
  318 371.590 -11.8909 95.3791
  319 236.642 -18.7899 -14.2563
  320 434.569 55.9520 48.9147
  321 139.020 9.75678 -46.0837
  322 133.877 10.2026 45.7112
  323 41.6577 -0.859583 -2.67835
  324 41.7255 -0.853908 2.64373
  325 356.119 -7.44449 3.40705
  326 341.572 -5.15288 0.404306
  327 339.669 -5.61712 -0.519509
  328 375.396 -9.64828 31.9399
  329 33.5529 -1.21956 6.11702
  330 33.4278 -1.20827 -6.14439
  331 110.490 -2.66898 -2.22532
  332 110.500 -2.62593 2.20228
  333 3.67108 -16.6070 -6.22355
  334 3.43297 -16.7448 6.50738
  335 293.175 12.7152 36.1715
  336 451.689 -19.0867 -18.3984
  337 292.831 -15.7540 0.569436
  338 330.681 -6.94796 -1.63131
  339 347.211 43.1246 -22.0847
  340 68.6568 -2.21012 -15.3177
  341 68.7468 -2.21185 15.3050
  342 284.790 -14.8711 0.908486
  343 81.3252 2.69586 -22.0021
  344 81.4804 2.62622 21.9357
  345 16.0494 13.3077 -0.546938
  346 16.2428 13.3060 0.629506
  347 345.927 -36.9442 35.8265
  348 763.102 50.2938 19.5971
  349 308.956 4.72707 -42.8106
  350 257.720 -23.0893 32.8241
  351 256.410 -22.6198 -33.8045
  352 379.931 -6.32083 58.9471
  353 338.363 -2.41106 42.2304
  354 341.459 -35.7195 -36.9664
  355 204.127 -5.39609 0.439187
  356 204.095 -5.45668 -0.388813
  357 377.716 -24.6467 35.8666
  358 517.286 102.850 2.02268
  359 404.994 -4.69796 -10.9361
  360 105.241 -4.05355 -7.69484
  361 105.286 -4.05715 7.61954
  362 381.604 -35.8913 -44.4109
  363 401.555 28.1837 -58.6951
  364 270.352 14.5333 -23.2335
  365 380.411 -25.3505 -41.0951
  366 -12.3351 0.465089 -9.81708
  367 -12.3486 0.449758 9.82979
  368 319.510 -7.88035 0.841871
  369 -4.54161 -2.69940 -5.90347
  370 -4.53600 -2.70025 5.89111
  371 246.730 124.896 -192.281
  372 10.1200 9.05284 5.78232
  373 10.3676 9.12383 -5.64954
  374 335.816 -2.54491 -41.8841
  375 185.593 -8.03866 5.40415
  376 185.723 -8.14414 -5.46217
  377 -1.22402 -13.3522 11.1876
  378 -1.20333 -13.3277 -11.1761
  379 200.811 130.869 181.121
  380 152.103 -8.12911 -23.0402
  381 152.225 -7.78438 23.0578
  382 48.7077 36.0360 -35.8125
  383 49.7255 35.9400 35.6104
  384 -18.5739 2.92016 3.32173
  385 -18.4868 2.92486 -3.27455
  386 387.582 25.9544 58.8813
  387 297.123 -31.1055 15.8677
  388 297.438 -27.1938 6.56493
  389 360.000 -40.7846 -5.67408
  390 90.8716 11.2745 -30.4644
  391 91.1747 11.2547 30.4192
  392 8.16522 -10.9794 1.33699
  393 7.72693 -11.1684 -0.712015
  394 365.648 52.1850 14.5041
  395 366.907 -10.7251 9.29052
  396 210.710 -16.4013 21.2751
  397 130.770 -3.34958 -27.5234
  398 130.821 -3.37402 27.3209
  399 268.212 -8.38945 -1.16200
  400 267.925 -7.40084 0.934583
  401 208.953 -16.8375 -22.5611
  402 163.581 -2.80551 -37.1329
  403 163.559 -3.03015 37.4264
  404 382.651 -34.9991 -24.7091
  405 222.904 -17.2357 13.4907
  406 348.054 -10.8705 5.38285
  407 347.391 -9.93766 -4.44978
  408 291.990 -26.9973 -7.60818
  409 417.598 -1.99361 -2.81841
  410 141.231 57.5900 -109.079
  411 393.623 -5.78968 18.2608
  412 416.441 -2.34340 4.25956
  413 149.745 -8.07626 13.9359
  414 149.807 -7.96748 -13.9251
  415 295.792 -30.7343 -16.3800
  416 42.7786 18.8932 15.2121
  417 42.5492 18.8794 -15.2238
  418 770.849 50.2564 -40.0172
  419 341.276 -19.6629 -8.43412
  420 420.355 -1.64383 1.62307
  421 133.420 53.8095 103.938
  422 621.328 104.521 20.5129
  423 365.650 -5.84280 -2.69845
  424 274.165 -20.0394 -5.98236
  425 114.852 22.1680 -52.0310
  426 122.357 20.5412 51.7202
  427 337.232 -21.5422 8.48495
  428 358.048 -4.61073 -31.0017
  429 -1.55988 -0.341890 6.13795
  430 -1.73034 -0.338127 -6.13369
  431 129.696 31.3052 -69.6360
  432 130.110 31.4175 69.4235
  433 15.9670 7.17070 -6.66983
  434 16.1294 7.15517 6.73204
  435 302.663 -6.18810 0.484819
  436 302.299 -6.03535 -0.383361
  437 376.361 -17.2386 -28.6296
  438 -0.893602 -0.908911 13.5898
  439 -0.826059 -0.848804 -13.5392
  440 387.609 -38.0817 21.4415
  441 366.426 -10.0434 -8.17444
  442 591.856 113.230 -18.3246
  443 25.2402 -1.08780 2.90144
  444 25.1315 -1.08800 -2.93151
  445 710.726 202.069 91.5201
  446 14.5566 7.60615 -21.9022
  447 45.1140 2.09546 -14.9643
  448 45.2630 2.06118 14.9630
  449 709.053 206.791 -88.3959
  450 15.4317 9.20294 24.0481
  451 -17.7479 2.24239 0.706198
  452 -17.6353 2.23888 -0.661462
  453 40.1717 27.5080 -21.2016
  454 40.8604 27.5208 21.3156
  455 463.520 72.9380 -39.8708
  456 372.006 -14.6948 -18.3005
  457 418.150 -1.72910 -1.42016
  458 388.727 -6.02246 -21.4661
  459 -4.34176 2.95082 12.4108
  460 -4.27295 2.98954 -12.3631
  461 375.882 -15.2863 21.3983
  462 244.925 -13.9617 -6.00286
  463 244.179 -14.1019 5.18766
  464 331.779 -36.5539 -6.36807
  465 237.091 -3.10091 -74.1098
  466 361.543 -5.52976 31.6622
  467 295.605 -9.85883 0.298378
  468 433.323 -31.9288 -6.42545
  469 229.704 2.27041 79.4301
  470 18.9204 -0.347494 5.92663
  471 18.7707 -0.340633 -5.93929
  472 476.446 94.1521 -17.6338
  473 380.182 -3.11415 0.131383
  474 378.890 -3.49054 -0.473789
  475 287.872 -19.3923 2.67656
  476 126.892 -4.34768 -4.32329
  477 126.886 -4.29764 4.27187
  478 75.1136 -0.943532 -18.1402
  479 75.2023 -0.958361 18.1053
  480 243.936 9.44067 13.9065
  481 62.2569 -2.07917 8.78277
  482 62.1668 -2.05952 -8.82578
  483 65.9149 6.20449 20.4559
  484 65.6967 6.29641 -20.4381
  485 369.486 -28.6279 25.7084
  486 207.474 -12.9250 -34.9398
  487 191.782 -6.37193 2.84770
  488 191.850 -6.52388 -2.85220
  489 209.654 -13.3288 34.9333
  490 576.361 137.370 -13.6502
  491 -9.21293 -1.37528 -7.63390
  492 -9.20781 -1.38259 7.62951
  493 146.265 -4.19836 -1.80455
  494 146.266 -4.13650 1.79732
  495 0.203269 -24.5826 -9.25068
  496 0.142839 -24.6633 9.33343
  497 337.173 -5.37986 0.863728
  498 242.478 11.4923 -6.91906
  499 324.560 33.9791 19.8761
  500 206.082 -1.89435 -59.1922
  501 101.845 -5.23188 13.2965
  502 101.832 -5.18790 -13.3188
  503 -24.9931 0.818881 -2.17401
  504 -24.8382 0.813895 2.19462
  505 399.109 -7.23424 -58.2805
  506 33.7800 0.178929 -1.95198
  507 33.8380 0.184016 1.92711
  508 332.247 -26.2959 -6.64150
  509 353.956 -30.2047 -14.4878
  510 73.0207 56.1437 -74.2255
  511 297.524 8.67760 -116.354
  512 4.25144 9.05920 5.53573
  513 4.39475 9.07868 -5.45591
  514 182.849 -8.57541 -7.74700
  515 182.759 -8.49890 7.58625
  516 509.923 22.4127 -10.0340
  517 367.959 -21.8204 -23.3649
  518 71.2039 53.1592 73.1957
  519 364.546 -41.1248 11.3642
  520 350.715 -33.3536 10.9747
  521 76.1220 -1.85307 -5.77442
  522 76.1719 -1.84581 5.71857
  523 289.835 3.19377 33.1658
  524 209.118 -15.4919 -14.2441
  525 387.685 -8.78477 13.2746
  526 -1.57011 -9.42475 -7.42247
  527 -1.57401 -9.41723 7.41164
  528 272.518 -24.0347 39.1401
  529 413.598 -31.3496 -29.4346
  530 538.197 38.9757 -21.0118
  531 292.078 -10.2012 -0.179866
  532 88.3089 -1.66395 -1.67870
  533 88.3309 -1.63250 1.66341
  534 185.440 1.58862 57.0504
  535 515.188 87.0765 25.7206
  536 521.412 105.778 -183.652
  537 469.344 3.29373 27.6144
  538 338.324 -37.5433 4.57375
  539 794.636 63.2210 53.6883
  540 590.026 143.857 19.2660
  541 84.7658 -3.54879 14.5057
  542 84.7008 -3.51354 -14.5294
  543 325.315 -27.0629 4.59533
  544 24.9279 11.7284 -6.28149
  545 25.1124 11.7220 6.35492
  546 408.547 -33.6949 29.4740
  547 335.554 18.2035 48.8695
  548 410.985 -2.73594 7.41743
  549 304.595 -18.4587 1.59177
  550 425.483 4.71394 -122.655
  551 673.047 176.703 121.525
  552 329.805 -6.78370 -0.706142
  553 403.926 -4.21437 -12.0389
  554 64.3701 26.7571 -29.0294
  555 64.8354 26.4361 28.9028
  556 232.006 -9.51758 -3.94133
  557 231.901 -9.29687 4.01698
  558 2.79227 -28.4869 -3.76174
  559 412.596 -14.4432 51.6722
  560 16.2702 14.5518 1.00349
  561 16.5224 14.5922 -0.884424
  562 3.25872 -27.4764 4.64447
  563 375.774 -17.1091 -42.0198
  564 432.293 27.6082 -55.8489
  565 430.815 31.2669 55.8753
  566 21.0667 18.4062 16.2477
  567 20.0205 18.8248 -15.9044
  568 -10.8721 0.385825 4.65300
  569 -11.0468 0.389871 -4.64392
  570 396.560 11.0795 126.401
  571 218.247 -12.2173 7.79462
  572 218.465 -12.1742 -7.93829
  573 477.892 -7.48483 -65.3300
  574 63.6033 -0.890778 3.34838
  575 63.5600 -0.904836 -3.38582
  576 30.5536 -0.760371 -0.785733
  577 30.5941 -0.755404 0.777017
  578 525.362 96.3355 -20.3497
  579 50.5190 76.4640 -81.8246
  580 277.351 5.61162 -28.1102
  581 390.352 62.2979 -24.6362
  582 5.93867 0.214668 8.06204
  583 6.17536 0.300523 -7.90318
  584 392.305 183.610 215.567
  585 334.810 -9.57907 -2.78296
  586 12.6563 3.40934 -7.91566
  587 12.8161 3.38471 7.95412
  588 386.836 -31.0154 35.7021
  589 59.7034 74.1293 83.3188
  590 279.255 -6.15850 0.411550
  591 279.331 -6.10878 -0.412646
  592 -0.262022 -19.6060 9.66206
  593 -0.231852 -19.5739 -9.63011
  594 476.037 92.6186 -0.762198
  595 302.259 -24.1519 55.4031
  596 288.626 -12.5711 -0.688236
  597 290.197 13.6983 122.726
  598 -23.8674 1.24940 5.77030
  599 -23.8433 1.25619 -5.74642
  600 475.101 6.81536 -29.7382
  601 631.323 108.218 -87.2094
  602 181.341 18.6114 -82.0132
  603 98.7232 -4.15679 -17.6656
  604 98.8166 -4.15782 17.6686
  605 429.329 -1.47231 2.02376
  606 285.802 -12.8366 0.336775
  607 382.001 -5.41881 4.41103
  608 375.789 -17.1211 41.0195
  609 17.3418 -0.627204 2.96316
  610 17.2094 -0.624542 -2.98543
  611 223.125 -7.95926 -2.30197
  612 223.095 -7.74734 2.23302
  613 139.483 3.03336 -38.2902
  614 138.591 3.07328 38.1248
  615 541.342 33.3055 33.6800
  616 880.909 66.3979 -96.2506
  617 -5.70835 -0.550567 4.05903
  618 -5.88935 -0.548749 -4.05796
  619 132.118 -5.59859 7.96057
  620 132.108 -5.59180 -8.06448
  621 504.921 28.3257 16.9372
  622 424.318 -1.61179 -0.642260
  623 423.396 -2.27160 0.254259
  624 309.115 -0.0657892 32.8278
  625 444.119 -25.5568 -40.2643
  626 241.861 -19.8971 16.9908
  627 -5.19678 5.51183 -5.15708
  628 -5.30413 5.50307 5.21937
  629 387.375 8.04147 61.4010
  630 154.048 -8.88771 -18.4818
  631 153.902 -9.03462 18.5172
  632 315.379 -18.4055 -2.76074
  633 389.431 -8.62882 -12.0009
  634 222.873 -17.7774 -25.4284
  635 365.484 44.0776 -37.3260
  636 246.360 -16.9594 -45.2280
  637 91.4531 -2.45661 -3.00352
  638 91.4752 -2.42783 2.96485
  639 225.175 -18.0919 25.5392
  640 482.912 78.2774 35.4948
  641 384.385 -18.6140 51.7062
  642 314.696 -14.2137 2.63394
  643 225.518 -6.19086 1.47052
  644 225.462 -6.20394 -1.42768
  645 170.326 -6.44727 -5.68454
  646 170.265 -6.37839 5.62585
  647 369.915 -33.9177 -20.3062
  648 187.879 -10.7084 9.93819
  649 188.080 -10.6658 -10.1329
  650 371.763 57.2909 -4.99649
  651 341.861 -18.1080 8.55693
  652 427.079 -2.03796 -3.17593
  653 363.861 -6.62598 -54.1500
  654 53.3592 -2.34800 11.6515
  655 53.2512 -2.33143 -11.6613
  656 416.831 -2.35951 -6.72382
  657 74.8516 38.6825 -52.3335
  658 76.1308 38.5899 52.5893
  659 425.264 -25.2783 55.3054
  660 146.839 36.7463 86.3751
  661 36.8219 -0.240731 11.6543
  662 36.6930 -0.232344 -11.6595
  663 362.388 -23.1775 71.3348
  664 356.804 51.4243 -167.008
  665 348.707 11.0309 -54.1042
  666 458.702 83.0546 30.7807
  667 309.317 -13.9247 -1.25783
  668 555.839 99.8500 -2.42672
  669 -26.3030 1.27413 -1.41220
  670 -26.1721 1.27084 1.44118
  671 246.891 1.24483 -86.7604
  672 18.6429 -0.368656 2.27863
  673 18.5458 -0.369587 -2.30164
  674 309.589 -25.9840 -54.7788
  675 103.020 14.1131 -36.9529
  676 102.205 14.1646 36.9342
  677 2.56985 5.18211 -2.50707
  678 2.71239 5.17536 2.56841
  679 263.296 -22.8032 -12.8425
  680 372.621 -3.67331 -20.7655
  681 178.171 -5.61573 -2.04146
  682 178.181 -5.55443 2.05700
  683 129.207 -6.62976 -11.8738
  684 129.310 -6.72143 11.8311
  685 24.5904 20.2217 -7.39817
  686 24.9973 20.2661 7.53639
  687 381.305 -4.71763 2.13428
  688 170.239 -10.8541 15.4326
  689 171.324 -10.6657 -15.4194
  690 422.359 -33.6325 -4.10176
  691 348.320 -35.0244 -7.20057
  692 274.048 -7.93899 -0.399382
  693 273.086 -7.41737 0.532010
  694 383.543 -40.4169 21.5749
  695 622.015 125.608 33.5499
  696 337.064 -14.7750 -88.4444
  697 385.896 -10.8346 21.5103
  698 383.610 -14.2229 -55.5367
  699 120.325 -3.77271 -5.60070
  700 120.328 -3.74481 5.53199
  701 299.800 -4.90451 99.1401
  702 833.940 107.115 98.1853
  703 58.0884 16.8530 -21.4136
  704 58.1755 16.9659 21.4838
  705 380.035 -3.85850 -1.06682
  706 383.030 -3.47317 1.09127
  707 161.938 82.4995 -139.993
  708 403.970 -2.23801 12.0507
  709 349.344 -6.18514 1.62617
  710 461.198 91.2887 -11.3117
  711 47.5975 8.41366 -15.5442
  712 47.8048 8.36086 15.6021
  713 432.943 -1.13567 0.329454
  714 351.447 -13.6937 -8.44262
  715 438.132 -6.46801 44.9927
  716 179.971 -12.6217 -24.1045
  717 180.422 -12.0829 23.8806
  718 41.8197 -1.43003 8.81819
  719 41.6999 -1.41225 -8.84139
  720 397.084 -2.83261 -2.02791
  721 342.436 68.1134 177.164
  722 2.66009 2.84344 11.1765
  723 2.78819 2.92034 -11.0884
  724 398.166 -4.41348 -5.45999
  725 386.795 -7.23253 7.81244
  726 307.661 0.270707 -35.2094
  727 2.95460 -34.9331 -4.40016
  728 2.76398 -35.2808 4.75007
  729 141.271 37.8854 -86.3852
  730 309.034 -30.9538 -39.6326
  731 160.797 81.7429 141.308
  732 427.424 -1.14823 1.19816
  733 413.955 61.9766 39.2948
  734 302.761 27.4422 -13.8503
  735 541.253 109.065 1.16568
  736 422.350 -1.84565 4.32029
  737 -24.6420 0.618082 3.29676
  738 -24.8132 0.621475 -3.28354
  739 449.778 -25.3816 12.7028
  740 291.533 -8.58424 -0.526643
  741 106.494 0.135424 -26.3957
  742 106.636 0.0297871 26.2477
  743 386.675 -4.67726 -3.10283
  744 682.321 96.5589 -35.2148
  745 46.9955 -1.37356 -5.56240
  746 47.0964 -1.38156 5.52326
  747 430.412 -1.24055 -1.97930
  748 86.7874 -3.87164 -7.75415
  749 86.8465 -3.88529 7.69604
  750 421.861 -16.7215 -46.4901
  751 389.792 -4.11389 16.6910
  752 350.244 -2.26626 53.5811
  753 430.988 -1.28930 0.0258605
  754 402.776 -3.18506 4.15190
  755 264.062 -14.3236 -3.16464
  756 330.558 -8.86825 2.02179
  757 375.888 -23.1641 -34.8687
  758 366.592 -23.1059 22.5045
  759 429.922 52.0500 -49.4950
  760 361.532 -20.3703 16.5699
  761 382.057 -22.6207 44.7114
  762 221.958 -15.0861 10.4194
  763 8.10829 -1.82293 -0.337717
  764 7.68297 -1.85101 0.740849
  765 334.535 -5.23677 -0.0400335
  766 333.829 -5.20129 -0.0834755
  767 400.645 -1.94752 -0.210887
  768 402.018 -1.86910 0.303996
  769 382.379 -10.7762 26.4349
  770 352.915 -32.3180 51.7959
  771 290.126 -23.6130 4.87551
  772 257.839 -15.4848 5.11915
  773 695.909 89.1075 40.8108
  774 386.393 -9.89370 -16.8924
  775 226.854 39.7500 -131.223
  776 359.202 -17.8539 -14.2939
  777 15.0110 0.278564 -8.42531
  778 15.1682 0.265425 8.43709
  779 322.083 28.2325 -31.0406
  780 811.117 24.6128 -10.5513
  781 404.552 10.4682 -59.9787
  782 16.3170 11.1435 -32.3948
  783 416.802 74.9019 10.0366
  784 324.787 -20.7640 4.61866
  785 365.221 -9.11992 52.5257
  786 307.467 -32.2831 39.8510
  787 490.636 -2.16601 80.2540
  788 17.5809 14.9009 34.5711
  789 222.555 -1.29041 67.7297
  790 310.484 -8.19726 -0.590937
  791 346.079 -30.9484 -52.4239
  792 212.883 -16.6156 -17.8827
  793 168.232 8.04587 -59.2586
  794 400.974 -6.20156 58.7665
  795 257.487 -17.6405 8.17849
  796 50.4526 -1.42641 4.94724
  797 50.3760 -1.42808 -4.99182
  798 373.770 -2.06532 18.3881
  799 339.417 1.72507 -52.1067
  800 -29.4436 1.35277 3.55279
  801 -29.3990 1.35536 -3.52662
  802 250.570 -8.02077 -1.15464
  803 249.849 -7.59554 1.07390
  804 186.004 20.8419 83.1904
  805 166.251 -9.76268 11.6481
  806 166.479 -9.52719 -11.7668
  807 430.140 -0.914739 -1.06070
  808 151.505 12.0122 57.7692
  809 5.91092 -0.143670 3.15215
  810 5.74846 -0.140522 -3.16516
  811 369.294 -11.4145 40.5811
  812 393.658 -3.50849 1.58865
  813 -21.0404 0.264371 5.78048
  814 -21.0443 0.271235 -5.76881
  815 243.126 -15.2452 50.7396
  816 47.2951 39.8742 -44.4443
  817 47.8714 38.0606 43.7838
  818 231.341 10.2031 5.77540
  819 -3.11707 -0.250404 -3.61273
  820 -2.93518 -0.252799 3.60946
  821 279.398 -26.5170 -37.3492
  822 380.859 -39.8948 -11.9132
  823 -1.90327 -1.80711 -2.39845
  824 -1.89760 -1.80282 2.38949
  825 21.6321 0.640308 -0.750323
  826 21.6821 0.643900 0.737133
  827 338.890 -30.2028 7.76346
  828 285.512 -29.2218 26.2107
  829 315.954 -5.56281 0.669644
  830 284.782 -23.0437 -5.93795
  831 105.291 -1.78940 -0.600589
  832 105.306 -1.74806 0.591001
  833 -33.2147 0.709113 2.01862
  834 -33.1419 0.708206 -1.99286
  835 356.521 -4.84373 -1.39644
  836 316.740 12.4792 -44.3738
  837 360.577 -7.36281 -4.37851
  838 213.333 -16.3331 17.0530
  839 357.414 -6.25781 -42.9606
  840 381.956 -11.7018 -27.3103
  841 357.950 -4.19314 1.24718
  842 261.742 -9.92119 69.4518
  843 279.635 -27.3441 -15.0297
  844 168.821 -1.26279 -45.4995
  845 169.747 -0.0902888 45.7367
  846 238.568 -17.9396 -11.2955
  847 395.660 42.9367 51.3325
  848 375.008 -38.9272 -29.0129
  849 135.981 -4.35331 -2.82926
  850 135.972 -4.28994 2.80118
  851 286.854 -6.74988 0.327042
  852 286.866 -6.80357 -0.259228
  853 341.881 -2.57200 -28.1097
  854 115.987 -4.92639 -9.59149
  855 116.051 -4.96323 9.51254
  856 1.40716 -35.4077 -6.95055
  857 1.33283 -35.5607 7.09641
  858 59.3141 -0.879320 -0.218905
  859 59.2807 -0.896863 0.207411
  860 353.888 -5.77737 -1.95334
  861 269.191 -25.6652 23.7202
  862 417.288 -35.6033 12.4565
  863 246.351 5.16179 22.1163
  864 361.863 -8.72614 5.03461
  865 395.260 -35.3523 -27.4631
  866 57.6440 3.59676 -17.7222
  867 57.8142 3.53668 17.7141
  868 314.354 -5.95008 -0.609645
  869 253.572 -8.99785 -2.35554
  870 252.698 -8.92088 2.58164
  871 391.401 60.9047 27.7596
  872 136.440 -1.38645 -31.8233
  873 136.316 -1.54475 31.6878
  874 271.700 -24.6040 12.0461
  875 26.5879 17.1772 -6.41054
  876 26.8481 17.1446 6.48555
  877 229.955 -16.3543 41.3909
  878 275.535 -17.6900 -3.39163
  879 343.847 -2.66383 28.4032
  880 338.062 -38.0048 13.4699
  881 387.348 -29.4277 -38.5874
  882 268.533 -25.8746 -24.0460
  883 223.553 -15.0252 -9.99812
  884 726.595 59.6555 -11.2343
  885 354.079 -37.4928 4.96522
  886 10.4102 11.7463 3.87090
  887 10.5959 11.7695 -3.77343
  888 307.922 -30.8737 6.80422
  889 337.556 -37.9288 -23.0612
  890 11.1648 10.2183 0.0571074
  891 11.3281 10.2215 0.0176467
  892 127.773 -4.56654 24.1798
  893 127.847 -4.70278 -24.3201
  894 154.589 -7.83678 26.5201
  895 154.531 -8.02119 -26.6988
  896 487.210 97.6912 13.7991
  897 -0.712274 -15.0659 -7.19024
  898 -0.717445 -15.0474 7.18499
  899 112.501 9.46698 -35.1577
  900 111.954 9.27498 34.8188
  901 838.447 27.1631 -42.2930
  902 17.2969 -0.0899532 1.28250
  903 17.2208 -0.0926918 -1.30058
  904 1.49345 -40.1724 2.09845
  905 1.73905 -39.4865 -1.51920
  906 -16.1248 -0.193239 5.95650
  907 -16.1431 -0.188203 -5.95464
  908 89.9464 26.4090 -41.3789
  909 91.3366 25.5325 40.8004
  910 -6.96886 0.384574 -12.5086
  911 -7.00407 0.356085 12.5309
  912 26.3372 2.29778 -11.5741
  913 26.4982 2.26803 11.5916
  914 98.2296 -1.15864 22.2852
  915 98.1592 -1.15372 -22.3947
  916 80.3570 -2.76161 -17.9846
  917 80.4404 -2.75666 17.9572
  918 418.804 -1.59403 -6.63857
  919 204.535 43.9036 122.068
  920 282.413 -27.8724 14.1068
  921 200.953 -14.4239 13.7409
  922 386.966 39.8991 -50.7486
  923 824.540 17.6574 16.8897
  924 457.790 21.1587 -47.6631
  925 76.7780 -2.94293 11.2368
  926 76.6987 -2.90967 -11.2783
  927 14.2214 -0.442188 -8.27532
  928 14.3758 -0.446457 8.27555
  929 -0.216010 -7.02931 -13.5778
  930 -0.276291 -7.08897 13.6235
  931 207.689 -9.22046 6.12279
  932 207.795 -9.39849 -6.15266
  933 25.4961 6.76322 -10.3196
  934 25.6686 6.73295 10.3737
  935 126.857 -5.66843 -20.5345
  936 126.943 -5.66879 20.5217
  937 273.868 -1.16297 -26.0174
  938 130.933 -7.12771 -14.2655
  939 130.846 -7.05159 14.3121
  940 316.647 -9.01079 -0.746675
  941 383.203 -21.9146 -48.0736
  942 167.999 -6.84575 6.54178
  943 168.076 -6.90822 -6.62853
  944 -6.95194 -0.741287 -4.21417
  945 -6.93288 -0.743062 4.20510
  946 389.981 -29.8051 -64.1021
  947 373.645 -21.9363 30.2712
  948 327.868 -22.9725 -6.09849
  949 320.722 10.9994 46.7488
  950 145.989 -8.21735 -16.0583
  951 145.992 -8.06210 16.1077
  952 357.913 13.7558 56.4324
  953 334.534 29.1803 37.1680
  954 679.081 81.5732 14.3291
  955 348.588 -12.6119 6.12334
  956 184.189 -5.54150 -2.94246
  957 184.168 -5.43389 2.96695
  958 312.448 -25.6433 -0.622077
  959 432.773 79.3665 -23.4667
  960 381.396 -4.23325 -2.17362
  961 251.148 -6.26182 0.969182
  962 251.052 -6.21443 -0.897739
  963 32.1366 27.2118 -19.5371
  964 32.9466 27.1659 19.6841
  965 60.3397 155.769 -136.070
  966 358.275 -8.45124 42.7220
  967 445.379 -8.05946 -39.9103
  968 -7.20414 4.31877 2.15807
  969 -7.08644 4.31812 -2.09922
  970 901.172 214.658 -171.106
  971 381.447 -41.3699 3.59802
  972 406.652 -37.3984 -17.0819
  973 375.626 -32.1634 27.3457
  974 465.010 91.4446 9.60896
  975 33.8218 35.8531 -41.4468
  976 85.6869 134.870 133.722
  977 -2.19821 -5.15908 13.5984
  978 -2.16079 -5.11533 -13.5752
  979 365.253 -9.44259 6.33482
  980 586.302 103.653 -12.7360
  981 34.8043 35.0516 43.0746
  982 -1.61202 -5.43247 -4.68611
  983 -1.61232 -5.41741 4.67391
  984 313.585 -7.43184 0.184754
  985 234.460 -18.6450 -18.6603
  986 378.574 -29.8960 -32.6226
  987 107.929 29.0432 -54.5923
  988 109.654 29.5210 54.7340
  989 367.996 -9.12691 -38.0622
  990 370.310 -11.8097 12.0008
  991 -9.76626 2.55818 10.9644
  992 -9.71662 2.58354 -10.9283
  993 223.911 -14.7445 -38.9433
  994 371.577 23.7885 -56.5775
  995 276.036 -10.4374 1.22685
  996 198.977 -5.73866 0.521167
  997 198.939 -5.77591 -0.498498
  998 -4.16331 -4.72875 -9.75326
  999 -4.16925 -4.73898 9.74522
  1000 375.322 -13.4385 -14.8514
  1001 357.192 -4.11172 0.364579
  1002 356.860 -4.11650 -0.219922
  1003 493.983 81.0040 -32.5854
  1004 89.5781 7.72837 -27.7602
  1005 89.8011 7.57408 27.7000
  1006 57.5082 -0.560956 -14.9220
  1007 57.6171 -0.572502 14.9051
  1008 407.252 21.8863 60.6760
  1009 384.757 -7.31821 -8.20317
  1010 68.3914 10.7365 -22.6440
  1011 68.6621 10.6564 22.7271
  1012 401.099 -2.23527 -1.30195
  1013 375.090 -16.2423 -22.7427
  1014 366.291 -41.2502 -16.2948
  1015 14.1480 12.2484 0.195392
  1016 13.7579 12.1898 -0.0179289
  1017 -17.5814 2.92705 6.45578
  1018 -17.5171 2.93522 -6.41265
  1019 223.599 8.38044 -9.65919
  1020 632.818 157.439 -44.0002
  1021 289.756 -21.1608 -2.18121
  1022 191.917 -8.38306 -40.0666
  1023 464.028 -18.2712 3.08357
  1024 192.671 -8.37336 40.6244
  1025 333.002 -38.6657 26.8440
  1026 377.469 -15.6206 -34.4470
  1027 130.209 -3.06286 -0.904951
  1028 130.220 -3.00983 0.899085
  1029 258.059 -20.1890 -9.88148
  1030 158.463 -5.92869 -31.2635
  1031 158.406 -5.97369 31.1073
  1032 52.6483 34.4917 -33.8966
  1033 53.4811 34.3950 33.9985
  1034 109.687 -3.49621 -3.21333
  1035 109.696 -3.45348 3.17276
  1036 335.656 -10.7425 3.15845
  1037 283.455 1.37734 -100.338
  1038 347.876 -11.3922 -6.10311
  1039 314.463 -34.7503 -16.3264
  1040 207.169 -8.79149 4.21170
  1041 207.338 -8.85672 -4.22469
  1042 406.543 -2.57472 1.64237
  1043 363.861 -8.74479 -5.93392
  1044 235.717 5.74692 18.2272
  1045 390.292 -3.86638 -15.5296
  1046 151.474 44.4052 97.9061
  1047 401.643 -3.73829 -12.7059
  1048 105.379 17.7103 -41.1914
  1049 102.249 17.9087 39.5277
  1050 479.526 -7.74856 -4.98386
  1051 43.7261 22.7566 -17.7661
  1052 44.1273 22.5941 17.7637
  1053 7.48345 -0.254539 4.01848
  1054 7.85414 -0.185430 -3.77425
  1055 63.1195 -1.67591 3.86061
  1056 63.0636 -1.68670 -3.90744
  1057 172.256 44.9385 -108.420
  1058 929.735 243.512 184.165
  1059 374.115 -13.4306 15.2323
  1060 335.970 -37.6994 -12.1622
  1061 233.793 -19.2189 -30.1798
  1062 -4.64583 5.21338 9.44189
  1063 -4.55573 5.24198 -9.38134
  1064 263.753 -13.6411 2.54433
  1065 290.768 -10.8861 0.278919
  1066 -0.137822 -21.3436 6.92721
  1067 -0.130570 -21.3649 -6.92541
  1068 43.9699 27.2449 -21.1060
  1069 44.4907 27.1954 21.2314
  1070 260.252 -12.5491 -2.42948
  1071 20.8317 9.51360 6.60091
  1072 20.6607 9.52629 -6.53176
  1073 397.125 -15.6059 55.7556
  1074 287.650 -29.7596 -26.0787
  1075 235.182 -19.5279 30.1790
  1076 378.424 -7.52203 -58.8157
  1077 398.653 -4.42767 5.94918
  1078 144.975 22.3403 65.7989
  1079 146.014 21.3799 -64.7062
  1080 233.462 -11.2733 -55.4093
  1081 330.118 -11.9154 -3.18486
  1082 268.657 -16.2047 4.76238
  1083 314.561 -29.3978 -1.54982
  1084 430.705 -1.55602 -3.40755
  1085 233.284 -10.7878 4.54165
  1086 233.183 -11.4016 -4.67124
  1087 7.99825 9.33632 7.52042
  1088 8.19038 9.40486 -7.40989
  1089 381.581 14.1550 -60.8056
  1090 86.0827 4.32572 -24.5343
  1091 86.3125 4.22987 24.4687
  1092 64.8235 1.22428 -17.6268
  1093 64.9638 1.18846 17.5963
  1094 434.476 -16.8743 80.5333
  1095 376.993 -17.3742 33.9275
  1096 184.948 -8.49494 -34.0374
  1097 437.481 -1.75287 -2.03321
  1098 491.900 93.1050 -24.5507
  1099 397.876 -3.87586 -3.70958
  1100 373.432 -40.1954 11.7133
  1101 276.657 -20.9634 48.6717
  1102 440.214 -0.574540 0.358349
  1103 235.278 7.32309 -15.4534
  1104 316.750 -33.8641 -7.89413
  1105 185.246 -8.87959 33.6720
  1106 319.683 -29.1462 -0.283521
  1107 398.208 -5.74036 11.2905
  1108 287.032 18.1495 24.0414
  1109 198.886 -14.6260 -27.1943
  1110 600.068 87.0995 -37.1109
  1111 452.317 20.7676 50.1250
  1112 338.931 42.4180 5.88399
  1113 435.684 0.0294235 1.78233
  1114 172.776 -10.8046 -20.8766
  1115 117.832 73.2261 -109.031
  1116 210.445 5.76559 -78.5298
  1117 241.425 -18.5847 13.3050
  1118 204.088 -15.2845 25.5162
  1119 172.366 -10.2780 21.0867
  1120 363.037 3.23561 59.2096
  1121 274.148 -9.69001 -0.903125
  1122 429.654 -3.21316 4.61474
  1123 -3.33168 -0.197664 13.5580
  1124 -3.28007 -0.153709 -13.5236
  1125 287.065 -8.35129 0.318747
  1126 -0.157798 3.36716 12.1804
  1127 -0.0644426 3.42473 -12.1147
  1128 161.911 -5.15442 3.66577
  1129 161.923 -5.23484 -3.67020
  1130 405.218 -2.19660 10.5461
  1131 325.976 -20.0408 -4.99037
  1132 305.422 -16.4334 -1.15433
  1133 341.453 -23.9698 10.7242
  1134 104.555 52.1766 -81.4611
  1135 334.664 -12.7954 4.30123
  1136 50.7144 0.910057 -14.4762
  1137 50.8475 0.885199 14.4657
  1138 70.1285 45.3263 -57.5174
  1139 534.339 70.8759 15.1266
  1140 39.2409 -1.78477 8.45838
  1141 39.1151 -1.77030 -8.47152
  1142 71.3925 44.6403 55.5691
  1143 306.643 -25.7190 -0.612114
  1144 155.957 -7.31979 8.05589
  1145 155.981 -7.35303 -8.18445
  1146 624.266 132.352 -35.8106
  1147 337.718 -33.8362 1.58418
  1148 116.061 68.5704 108.811
  1149 10.0387 -1.59422 -9.48031
  1150 10.8092 -1.46290 10.3864
  1151 356.675 44.7091 29.7217
  1152 27.0786 14.5149 -6.73169
  1153 27.2957 14.5195 6.79463
  1154 339.933 -29.5999 -8.28059
  1155 -0.154997 -32.9351 -6.48003
  1156 -0.170417 -32.9397 6.50956
  1157 363.257 -30.6683 -19.0112
  1158 -4.47977 0.437902 2.81515
  1159 -4.66309 0.440701 -2.82143
  1160 56.1178 20.8006 -22.7696
  1161 56.4215 20.8906 22.5673
  1162 -17.7041 0.0407364 -3.44763
  1163 -17.5141 0.0393828 3.45109
  1164 362.585 -4.13540 -0.442218
  1165 -35.8780 1.06622 0.499982
  1166 -35.7780 1.06568 -0.476217
  1167 192.416 -15.1287 -20.1734
  1168 5.14525 -46.3896 -5.17387
  1169 97.3195 -2.77554 6.11992
  1170 97.2840 -2.78516 -6.18612
  1171 308.445 -6.08724 0.487178
  1172 309.029 -5.93368 -0.427258
  1173 5.52646 -44.1652 6.29275
  1174 365.593 -19.1443 -18.9387
  1175 417.042 -1.97002 7.73457
  1176 371.485 -23.8270 -27.8629
  1177 325.157 2.44331 46.3814
  1178 1.78177 -12.9744 9.83466
  1179 1.94145 -12.8743 -9.66889
  1180 238.082 -17.3716 10.6581
  1181 -16.1641 1.51021 8.76578
  1182 -16.1341 1.52298 -8.73931
  1183 615.968 97.8516 6.65734
  1184 717.385 226.942 -159.698
  1185 379.758 -36.8503 23.6060
  1186 157.824 -4.66428 -0.537898
  1187 157.835 -4.60826 0.538376
  1188 774.987 75.2170 -69.4927
  1189 56.6946 -1.47387 8.78133
  1190 56.5923 -1.45154 -8.81404
  1191 355.295 -1.15913 -18.3542
  1192 228.434 -18.4903 22.8011
  1193 375.645 -36.7668 -16.9721
  1194 363.609 -26.4645 -21.6126
  1195 222.431 -7.78641 58.0686
  1196 82.8348 15.3402 -31.2569
  1197 82.7912 15.2041 31.0829
  1198 108.853 40.3867 -69.2977
  1199 109.001 37.3849 69.3013
  1200 31.5794 9.05548 -10.9382
  1201 31.7654 9.02868 11.0037
  1202 448.753 77.8715 -34.2713
  1203 23.4965 21.5481 -10.0010
  1204 24.0400 21.5809 10.1647
  1205 323.661 -24.8570 4.13983
  1206 602.855 90.2586 41.5733
  1207 78.1850 -3.24999 -6.03156
  1208 78.2429 -3.24883 5.97303
  1209 391.000 277.197 -236.047
  1210 304.061 18.0719 -37.0851
  1211 279.586 21.4137 15.1529
  1212 39.0982 16.3158 -12.9332
  1213 39.2834 16.3163 13.0040
  1214 9.30815 -0.0782994 2.05867
  1215 9.18395 -0.0781726 -2.07623
  1216 358.389 -28.8085 17.7335
  1217 352.340 -14.2430 9.31910
  1218 241.491 69.3178 -169.554
  1219 555.347 121.325 -6.62673
  1220 239.299 -7.18945 -63.9120
  1221 309.684 -9.71154 0.375307
  1222 17.4266 -1.53349 -0.474486
  1223 17.4614 -1.53236 0.471760
  1224 -7.37383 2.43025 -4.77412
  1225 -7.22246 2.42024 4.81010
  1226 208.154 2.33648 -67.1595
  1227 382.170 -8.51999 10.6001
  1228 249.078 4.76896 91.5770
  1229 336.983 -16.7945 -6.92947
  1230 174.346 62.5417 -133.634
  1231 270.648 -13.0564 -68.9792
  1232 322.119 -34.3925 6.08897
  1233 393.932 -6.29578 17.1160
  1234 345.572 -7.42249 -2.45048
  1235 191.612 -14.2049 20.2882
  1236 433.385 -24.1058 -30.8488
  1237 411.773 35.8833 57.4404
  1238 179.819 0.860589 -53.1566
  1239 408.933 -2.68081 1.28215
  1240 330.538 41.0758 -8.40100
  1241 143.886 -5.06816 -5.99702
  1242 143.860 -5.01581 5.93209
  1243 626.468 146.005 36.9527
  1244 854.070 22.6913 39.6106
  1245 0.775619 -40.1829 -6.43014
  1246 0.750760 -40.2275 6.48008
  1247 93.1461 49.4287 76.2463
  1248 222.337 -6.65028 -1.28308
  1249 222.385 -6.61090 1.36551
  1250 303.980 -30.6097 -8.53185
  1251 363.008 29.8197 51.2712
  1252 379.050 -7.61546 -6.74365
  1253 439.641 -1.21850 -0.387109
  1254 761.009 169.365 -107.001
  1255 119.791 -4.54001 6.21756
  1256 119.778 -4.54979 -6.29765
  1257 363.631 -33.7537 18.1361
  1258 636.963 157.058 -49.5629
  1259 352.576 -15.5163 -10.5302
  1260 257.992 -18.0311 -7.44337
  1261 316.513 -34.3800 15.9241
  1262 309.479 -15.6232 1.85203
  1263 11.6115 3.45092 -14.8786
  1264 422.831 -25.4934 36.9861
  1265 342.755 -22.5140 -10.4756
  1266 12.7861 4.04420 16.4268
  1267 352.341 -27.8956 -64.8037
  1268 333.007 21.2994 -138.698
  1269 547.455 70.6479 -9.80054
  1270 441.330 -0.370875 -0.133793
  1271 440.558 -0.777862 0.389721
  1272 348.619 -20.4451 11.4400
  1273 134.800 16.0650 -52.3694
  1274 397.013 -35.2026 29.8001
  1275 673.829 154.326 71.3049
  1276 167.282 57.8852 130.217
  1277 4.78037 0.796318 9.98138
  1278 4.95668 0.882874 -9.85968
  1279 416.810 -33.2881 -35.1978
  1280 168.599 -9.24748 -9.63586
  1281 168.571 -9.27142 9.46469
  1282 388.577 -25.5452 46.0268
  1283 14.9260 0.0936547 9.21481
  1284 14.7721 0.101280 -9.21111
  1285 -2.10784 -8.08883 11.2247
  1286 -2.09338 -8.07145 -11.2267
  1287 70.0567 -2.41153 -8.00839
  1288 70.1344 -2.42570 7.95807
  1289 204.812 -13.6858 -30.8738
  1290 206.403 -6.93517 1.88257
  1291 206.396 -7.08360 -1.80522
  1292 439.804 -0.360250 0.0796826
  1293 391.606 -6.07743 -19.2724
  1294 32.5317 1.43377 -11.5998
  1295 32.6809 1.41174 11.6048
  1296 205.629 -14.4749 30.6318
  1297 443.970 -0.493239 0.172105
  1298 419.710 -0.501613 -0.472711
  1299 419.691 -0.754334 0.366371
  1300 555.237 117.592 4.79694
  1301 409.214 -2.90042 -2.95385
  1302 363.681 -3.91336 0.313236
  1303 402.868 -6.19394 -9.98143
  1304 437.586 -1.45792 1.37352
  1305 457.275 47.4028 49.6722
  1306 529.583 110.311 11.9827
  1307 425.538 -1.72906 -5.10720
  1308 -3.51228 -0.890788 3.15147
  1309 -3.52636 -0.890149 -3.16113
  1310 237.191 -15.0436 7.35430
  1311 237.145 -14.3858 -7.14533
  1312 461.432 52.5521 -47.1923
  1313 96.6109 33.3529 -57.3245
  1314 97.2331 32.4437 56.7097
  1315 312.463 0.0370914 -23.1938
  1316 320.349 -5.34806 -0.333178
  1317 319.958 -5.30625 0.266397
  1318 -7.67635 -1.25258 11.4191
  1319 -7.66233 -1.23173 -11.4147
  1320 356.362 -0.928063 18.3218
  1321 541.024 107.556 -1.82668
  1322 39.4414 -1.46835 -5.04643
  1323 39.5398 -1.47177 5.00711
  1324 399.594 -38.2640 15.9539
  1325 0.838913 6.71041 9.59349
  1326 0.955795 6.75107 -9.51797
  1327 74.9069 -1.70427 -1.67718
  1328 74.9374 -1.67810 1.65092
  1329 312.541 -0.449009 23.5480
  1330 13.9064 0.666832 -0.774200
  1331 13.9679 0.669382 0.760954
  1332 406.192 -4.81968 6.40396
  1333 566.424 103.063 5.57328
</Section>

newXOutput 52

<Section columns = "stress_xx | stress_yy | stress_xy">
  1 459.333 -1.23295 0.835863
  2 460.051 -1.57743 -1.08556
  3 9.76293 0.428763 -1.18669
  4 -0.331965 -0.502142 -0.329535
  5 840.091 338.855 275.553
  6 853.034 387.703 -278.416
  7 -0.328343 -0.498969 0.324848
  8 9.72780 0.426354 1.18391
  9 462.445 -0.874373 -0.760631
  10 459.058 -1.60708 -1.10310
  11 459.416 -1.25795 0.999896
  12 457.203 -0.683112 0.422552
  13 456.336 -1.50889 -0.305002
  14 455.672 -1.45207 1.78065
  15 449.154 -1.02920 1.69600
  16 450.956 -3.25696 2.60569
  17 437.057 -2.70607 5.63217
  18 428.266 -1.20882 6.77732
  19 416.120 -1.48028 7.31994
  20 394.977 -1.31283 10.2580
  21 371.913 -1.11639 11.9272
  22 343.081 1.50892 16.3818
  23 303.551 2.33763 14.8463
  24 287.663 -0.127921 21.2694
  25 238.275 3.39147 15.1386
  26 208.210 4.45926 11.8714
  27 200.377 2.17793 8.75700
  28 191.978 6.52202 0.648814
  29 196.577 7.03285 -11.7126
  30 205.813 2.02250 -14.7016
  31 242.763 0.886503 -19.6201
  32 279.991 -1.85183 -20.3519
  33 304.965 1.93789 -14.8201
  34 343.506 1.71665 -16.3850
  35 370.957 -1.32414 -12.7855
  36 397.302 -1.48443 -9.67630
  37 414.478 -1.08001 -7.43513
  38 426.984 -1.28402 -6.21110
  39 440.397 -1.56955 -3.58937
  40 445.593 -1.60553 -3.42681
  41 450.669 -1.51755 -3.02314
  42 455.818 -1.72812 -0.574197
  43 457.780 -2.19246 -1.23638
  44 455.105 0.116630 -0.0539561
  45 458.885 -1.14903 -1.13167
  46 460.818 -2.35806 1.20288
  47 463.007 -1.35557 -0.0548188
  48 439.869 0.232255 -0.693806
  49 413.928 -1.82697 -1.30114
  50 384.550 -4.13043 -1.86281
  51 354.139 -3.48869 -1.35157
  52 327.609 -5.58727 -1.24208
  53 299.605 -6.06174 -1.13184
  54 271.359 -5.31610 -0.550233
  55 241.656 -5.68505 -0.760585
  56 216.539 -6.03484 -1.00427
  57 183.130 -5.76514 -0.814889
  58 148.752 -3.63679 -0.521612
  59 120.327 -2.33748 -0.412709
  60 85.2414 -1.47404 -0.161233
  61 59.7623 -1.42186 -1.74745
  62 36.0997 -1.94895 -0.572008
  63 12.2314 0.221168 1.08761
  64 6.01294 1.66390 0.430617
  65 4.22462 0.675852 1.14955
  66 5.03464 0.304744 1.14364
  67 0.0260468 0.956932 0.534200
  68 -1.95865 1.25381 2.37703
  69 -2.88039 0.439723 0.901528
  70 -11.3511 0.932224 0.985181
  71 -15.3882 0.643745 2.29525
  72 -17.1190 0.212901 2.41608
  73 -26.4539 0.874071 1.91710
  74 -30.0465 1.30970 3.55315
  75 -34.0895 0.794729 1.36683
  76 -38.7064 0.578890 1.96377
  77 -40.6948 0.617388 0.850158
  78 -45.2005 1.50179 -0.900594
  79 -45.8824 1.02916 -0.663962
  80 -41.9546 0.776055 -1.37225
  81 -36.1419 1.01900 -2.71767
  82 -29.4548 0.455960 -4.19569
  83 -22.0079 0.252598 -4.39648
  84 -13.2320 -0.439588 -4.62141
  85 -5.77382 -0.353454 -2.70969
  86 -2.42871 -0.956048 -1.69587
  87 -0.402505 -2.43935 -1.47140
  88 -0.674047 -6.23301 -2.60781
  89 -0.769034 -12.1561 -4.56344
  90 -0.146182 -22.7356 -4.91281
  91 0.280895 -31.3796 -6.15262
  92 0.648435 -45.0741 -5.01187
  93 1.95289 -53.3940 -5.89052
  94 0.351638 -57.2844 -4.80981
  95 -0.0670916 -65.4145 -2.76880
  96 1.83207 -62.8758 -0.424571
  97 7.44774 -81.2746 3.87054
  98 6.74820 -41.8610 12.2239
  99 15.9504 -15.1064 26.5366
  100 47.5737 83.4885 81.3213
  101 200.489 266.022 227.850
  102 1100.49 118.043 163.121
  103 922.012 32.6423 58.5238
  104 878.112 13.9228 20.1377
  105 853.803 9.11006 -0.109120
  106 869.306 13.2612 -16.5544
  107 930.554 27.8686 -48.4352
  108 1089.00 93.6162 -151.806
  109 130.191 301.489 -188.573
  110 33.4346 62.5086 -63.0428
  111 11.7604 -22.9581 -22.1187
  112 6.11529 -46.4714 -10.5567
  113 7.40660 -84.5687 -3.06387
  114 1.75041 -64.3357 0.994648
  115 -0.175173 -66.1447 3.06584
  116 0.282783 -57.5660 4.96897
  117 1.91535 -53.4595 5.95777
  118 0.634009 -45.0481 5.03671
  119 0.269965 -31.3346 6.16151
  120 -0.151523 -22.6789 4.90981
  121 -0.769710 -12.1199 4.55368
  122 -0.675507 -6.20188 2.59868
  123 -0.402224 -2.42768 1.46332
  124 -2.41469 -0.954715 1.68911
  125 -5.74894 -0.355041 2.70241
  126 -13.2001 -0.443338 4.61706
  127 -21.9711 0.248466 4.39750
  128 -29.4345 0.451454 4.20360
  129 -36.1512 1.01580 2.73313
  130 -41.9942 0.775814 1.38887
  131 -45.9612 1.02825 0.680156
  132 -45.3116 1.50166 0.917428
  133 -40.8427 0.619010 -0.835523
  134 -38.8818 0.580881 -1.95297
  135 -34.2784 0.796995 -1.35831
  136 -30.2508 1.31239 -3.54972
  137 -26.6637 0.876582 -1.91424
  138 -17.3258 0.214429 -2.41665
  139 -15.5954 0.646383 -2.29860
  140 -11.5486 0.935933 -0.990159
  141 -3.05414 0.442191 -0.910878
  142 -2.10825 1.25634 -2.39096
  143 -0.102192 0.957618 -0.546533
  144 4.93921 0.304259 -1.15562
  145 4.15352 0.674645 -1.15917
  146 5.95800 1.66179 -0.438973
  147 12.1904 0.219785 -1.09250
  148 36.0622 -1.95608 0.566975
  149 59.7276 -1.43986 1.74191
  150 85.2157 -1.50600 0.153930
  151 120.314 -2.38374 0.408911
  152 148.740 -3.69045 0.521010
  153 183.107 -5.81154 0.822160
  154 216.485 -6.05783 1.01947
  155 241.566 -5.65577 0.796564
  156 271.232 -5.20948 0.591632
  157 299.429 -5.81057 1.06925
  158 327.751 -5.65925 1.08976
  159 354.245 -3.93453 1.42707
  160 384.851 -4.04853 1.69415
  161 414.749 -1.58828 1.31915
  162 439.149 0.205535 0.674694
  163 256.562 -23.1597 -21.7277
  164 255.535 -23.5809 21.6765
  165 77.4461 21.3342 -31.3743
  166 78.2100 21.4118 31.2407
  167 302.486 -14.2766 78.8977
  168 317.042 -16.1579 -76.7871
  169 149.124 -7.87722 10.0543
  170 149.107 -7.79974 -10.1951
  171 323.069 -11.4753 1.45542
  172 316.627 -11.5078 -1.34274
  173 431.282 77.6643 -10.7179
  174 436.903 3.33243 -54.6468
  175 428.297 6.66085 58.8680
  176 103.786 -3.94590 -21.1161
  177 103.793 -3.91717 21.0746
  178 377.622 -37.3662 19.0793
  179 377.244 -29.0483 -27.1489
  180 5.37657 8.90196 8.90487
  181 5.53279 8.95911 -8.81194
  182 515.870 105.072 15.6159
  183 99.9161 44.8100 -70.6377
  184 107.188 45.2289 75.7207
  185 365.143 -17.1624 12.6143
  186 547.543 115.167 -6.43728
  187 237.157 -8.77091 -2.97453
  188 236.776 -8.99495 2.94996
  189 375.327 -11.9716 -11.5377
  190 499.317 -2.46289 -8.11094
  191 93.8275 -2.82637 3.85199
  192 93.7972 -2.85056 -3.90558
  193 40.3500 5.05039 -14.2959
  194 40.5325 4.99857 14.3292
  195 211.500 -8.07408 -49.5821
  196 210.674 -8.51480 50.2172
  197 252.480 -16.4853 -7.77173
  198 252.983 -16.3932 8.26319
  199 66.7571 -2.33591 11.2510
  200 66.6603 -2.30445 -11.2755
  201 493.859 -7.98383 33.5138
  202 404.337 -39.6788 -7.37313
  203 383.804 -4.09759 -1.71088
  204 375.308 -4.95453 1.73628
  205 382.315 44.8787 41.7097
  206 16.5315 14.3880 -5.74888
  207 17.1276 14.3610 6.01437
  208 380.700 -15.2754 48.5045
  209 351.168 26.8601 -47.8274
  210 249.322 57.0987 -161.360
  211 262.164 48.2418 149.939
  212 7.02880 8.44284 -1.27982
  213 7.17796 8.44116 1.35124
  214 379.510 -13.4583 -50.1370
  215 658.146 92.0603 -6.32212
  216 315.398 -34.3234 28.6041
  217 317.759 -34.1327 -27.0798
  218 315.211 -22.6168 -1.32908
  219 390.129 -6.34091 6.10970
  220 189.960 -13.0645 -18.5424
  221 187.000 -13.0127 19.1069
  222 114.460 2.30572 -31.7681
  223 114.624 2.26175 31.5033
  224 400.620 -42.1246 -5.40380
  225 312.605 -24.0337 -0.0227208
  226 388.727 -6.19861 -4.75126
  227 303.296 -8.04042 -0.0752864
  228 305.917 -7.51435 0.645971
  229 384.123 -17.1977 27.7790
  230 34.1363 0.294235 -12.0054
  231 34.2792 0.278811 12.0041
  232 -4.79214 -3.19601 -12.9693
  233 -4.81712 -3.22698 12.9799
  234 60.3207 -2.59491 -6.52740
  235 60.4030 -2.60116 6.47638
  236 163.510 -4.97259 4.48000
  237 163.546 -5.05864 -4.51427
  238 187.525 13.0617 -72.3187
  239 187.547 10.9066 71.5052
  240 389.496 -12.2167 -23.7605
  241 183.848 -10.7494 -30.0972
  242 184.006 -11.0764 29.6782
  243 344.524 5.36320 54.1273
  244 302.191 25.9286 3.28008
  245 334.581 -33.3707 -0.583062
  246 1.57794 -7.92077 -11.6569
  247 1.46551 -8.01017 11.7547
  248 21.8216 22.8545 -24.7616
  249 23.2133 22.0862 25.9936
  250 329.021 -32.6495 -1.60318
  251 591.624 112.070 -9.89218
  252 31.3593 21.1004 -10.7256
  253 31.7331 21.0925 10.8488
  254 -12.4140 2.80082 8.71327
  255 -12.3493 2.81541 -8.66847
  256 594.534 105.120 13.2790
  257 209.374 -10.1969 -7.37001
  258 209.216 -10.0365 7.22786
  259 408.309 -27.4208 44.6104
  260 734.763 119.627 74.4317
  261 123.275 -6.51457 -17.3683
  262 123.252 -6.56039 17.3519
  263 417.109 62.4613 -39.7508
  264 709.382 134.938 -68.0037
  265 496.949 50.3346 37.4098
  266 538.386 35.6198 -102.043
  267 334.529 -16.0078 4.63014
  268 381.101 1.94944 -60.5709
  269 360.365 -25.5326 -15.2874
  270 401.230 -7.30114 15.0131
  271 0.754981 3.84836 -4.52317
  272 0.904708 3.83628 4.57414
  273 397.219 -12.5052 -98.5011
  274 43.5175 13.1783 -14.4765
  275 43.7243 13.1549 14.5544
  276 385.431 -9.34255 -30.6144
  277 55.8434 58.5494 -73.4296
  278 48.0027 -0.234235 -1.51391
  279 48.0476 -0.224180 1.49176
  280 406.861 -25.1108 -46.5918
  281 72.2661 32.4587 -39.4966
  282 73.3059 32.2861 39.6079
  283 21.9444 -0.654225 8.37361
  284 21.7940 -0.646270 -8.37930
  285 334.028 -15.2171 -4.51719
  286 56.2355 57.9299 75.3774
  287 529.421 42.5165 119.386
  288 146.692 -5.88006 -6.10999
  289 146.667 -5.84339 6.02584
  290 267.430 -11.2955 -2.76937
  291 267.301 -12.2047 3.07769
  292 228.303 22.2814 -109.516
  293 367.324 -40.1564 -5.13993
  294 417.262 -2.72521 2.67728
  295 219.932 22.2891 105.993
  296 256.142 -7.21289 -0.937421
  297 256.045 -7.20825 1.15564
  298 360.952 -26.5557 15.5732
  299 413.960 -4.53194 -6.98913
  300 -1.84766 1.53711 -6.58502
  301 -1.68222 1.52559 6.60930
  302 521.235 103.509 -4.12641
  303 455.884 -20.7813 23.1426
  304 411.037 -2.34785 -0.678803
  305 418.142 -2.04908 0.614877
  306 410.717 -35.7259 36.0247
  307 506.491 53.7285 -34.5715
  308 444.048 82.5346 22.6847
  309 200.003 -12.3557 -11.7580
  310 198.205 -12.5787 11.9813
  311 416.755 -2.66031 -1.75254
  312 274.691 -20.6539 -54.3048
  313 270.374 -21.4446 9.85470
  314 257.757 -13.9500 61.8200
  315 410.508 -5.08630 8.38189
  316 94.6009 -4.34440 -10.8602
  317 94.6650 -4.37600 10.8138
  318 378.662 -12.0273 97.3381
  319 241.310 -19.1735 -14.6323
  320 442.971 57.0706 49.6603
  321 141.834 9.95085 -47.0942
  322 136.593 10.4060 46.7152
  323 42.7728 -0.878454 -2.74713
  324 42.8427 -0.872676 2.71190
  325 362.901 -7.62260 3.42268
  326 348.087 -5.29161 0.393637
  327 346.151 -5.76478 -0.510722
  328 382.644 -9.83664 32.4534
  329 34.4669 -1.24639 6.26904
  330 34.3388 -1.23488 -6.29684
  331 112.876 -2.73204 -2.28267
  332 112.887 -2.68821 2.25922
  333 3.75514 -16.8543 -6.29474
  334 3.51239 -16.9949 6.58409
  335 299.114 12.9804 36.7947
  336 460.260 -19.3706 -18.5402
  337 298.515 -16.0887 0.494805
  338 337.017 -7.12062 -1.61876
  339 354.124 43.9764 -22.4512
  340 70.1877 -2.26173 -15.6828
  341 70.2800 -2.26354 15.6701
  342 290.329 -15.1891 1.00932
  343 83.0609 2.74087 -22.5199
  344 83.2196 2.66989 22.4525
  345 16.4376 13.5865 -0.629698
  346 16.6349 13.5848 0.714017
  347 352.570 -37.6254 36.6534
  348 777.126 51.2102 19.9609
  349 315.151 4.83641 -43.5446
  350 262.766 -23.5388 33.5771
  351 261.430 -23.0593 -34.5765
  352 387.301 -6.42029 59.9131
  353 345.035 -2.44884 42.9436
  354 348.022 -36.3778 -37.8149
  355 208.214 -5.52984 0.467126
  356 208.181 -5.59150 -0.415818
  357 384.976 -25.1168 36.4072
  358 527.233 104.797 1.99343
  359 412.669 -4.80500 -11.0939
  360 107.510 -4.14350 -7.88948
  361 107.556 -4.14721 7.81285
  362 388.883 -36.5233 -45.4124
  363 409.352 28.7628 -59.6418
  364 275.907 14.8312 -23.6369
  365 387.729 -25.8284 -41.7285
  366 -12.5599 0.479334 -9.99693
  367 -12.5736 0.463687 10.0099
  368 325.652 -8.07059 0.811780
  369 -4.62854 -2.75030 -6.01897
  370 -4.62280 -2.75115 6.00634
  371 251.406 127.588 -196.078
  372 10.3575 9.27648 5.82822
  373 10.6100 9.34907 -5.69278
  374 342.446 -2.58467 -42.5920
  375 189.340 -8.21896 5.55977
  376 189.472 -8.32640 -5.61884
  377 -1.24186 -13.5960 11.3937
  378 -1.22077 -13.5711 -11.3820
  379 204.661 133.676 184.713
  380 155.203 -8.30153 -23.5819
  381 155.327 -7.95029 23.6000
  382 49.7312 36.8215 -36.6369
  383 50.7690 36.7243 36.4310
  384 -18.8716 2.98042 3.35605
  385 -18.7827 2.98524 -3.30788
  386 395.138 26.4866 59.8445
  387 302.892 -31.7099 16.2982
  388 303.214 -27.7326 6.80843
  389 366.909 -41.5500 -5.93215
  390 92.7665 11.4961 -31.1628
  391 93.0760 11.4761 31.1170
  392 8.34383 -11.0764 1.43593
  393 7.89704 -11.2693 -0.798821
  394 372.894 53.2082 14.7387
  395 373.904 -10.9591 9.39346
  396 214.899 -16.7356 21.7906
  397 133.454 -3.42582 -28.1572
  398 133.507 -3.45078 27.9511
  399 273.448 -8.58790 -1.22839
  400 273.156 -7.58074 0.996579
  401 213.109 -17.1798 -23.1013
  402 166.876 -2.86699 -37.9633
  403 166.854 -3.09594 38.2628
  404 389.986 -35.6557 -25.0199
  405 227.322 -17.5913 13.8453
  406 354.710 -11.1117 5.41742
  407 354.031 -10.1622 -4.47094
  408 297.666 -27.5328 -7.87057
  409 425.428 -2.05343 -2.84563
  410 144.044 58.8029 -111.330
  411 401.148 -5.91288 18.5429
  412 424.265 -2.40794 4.30969
  413 152.820 -8.25026 14.2818
  414 152.882 -8.13931 -14.2708
  415 301.536 -31.3317 -16.8200
  416 43.7105 19.2805 15.6045
  417 43.4763 19.2663 -15.6164
  418 785.000 51.1721 -40.7531
  419 347.835 -20.0649 -8.49384
  420 428.205 -1.69725 1.63864
  421 136.089 54.9524 106.094
  422 633.067 106.479 20.9644
  423 372.592 -5.98954 -2.70828
  424 279.516 -20.4502 -6.19676
  425 117.192 22.6183 -53.1639
  426 124.845 20.9573 52.8462
  427 343.721 -21.9780 8.54028
  428 365.032 -4.69802 -31.5160
  429 -1.38787 -0.350254 6.28774
  430 -1.56207 -0.346422 -6.28329
  431 132.313 31.9503 -71.1162
  432 132.735 32.0646 70.8996
  433 16.3913 7.31264 -6.86649
  434 16.5570 7.29685 6.93009
  435 308.502 -6.34828 0.476782
  436 308.132 -6.19267 -0.373580
  437 383.584 -17.5784 -29.0593
  438 -0.890511 -0.900877 13.8239
  439 -0.821650 -0.839529 -13.7723
  440 395.030 -38.7902 21.6854
  441 373.410 -10.2657 -8.26013
  442 603.093 115.370 -18.7876
  443 26.0329 -1.11057 2.97648
  444 25.9214 -1.11077 -3.00708
  445 723.944 206.022 93.4561
  446 14.8668 7.99728 -22.4349
  447 46.1580 2.13149 -15.3267
  448 46.3103 2.09656 15.3256
  449 722.281 210.851 -90.3178
  450 15.7603 9.62446 24.6227
  451 -18.0071 2.28564 0.686675
  452 -17.8922 2.28208 -0.640985
  453 41.0298 28.0985 -21.7264
  454 41.7321 28.1120 21.8429
  455 472.443 74.3862 -40.4265
  456 379.122 -14.9956 -18.5513
  457 425.965 -1.78227 -1.43175
  458 396.180 -6.14521 -21.8036
  459 -4.39534 3.02426 12.6213
  460 -4.32517 3.06380 -12.5726
  461 383.077 -15.5955 21.7042
  462 249.746 -14.2609 -6.19290
  463 248.987 -14.4035 5.36313
  464 338.178 -37.2541 -6.62670
  465 241.736 -3.13884 -75.6614
  466 368.582 -5.63419 32.1850
  467 301.327 -10.0865 0.355790
  468 441.546 -32.4660 -6.73613
  469 234.210 2.34263 81.0859
  470 19.5407 -0.356849 6.07125
  471 19.3875 -0.349852 -6.08406
  472 485.654 95.9656 -17.8413
  473 387.354 -3.20775 0.124243
  474 386.040 -3.59143 -0.472555
  475 293.470 -19.7925 2.82501
  476 129.573 -4.44647 -4.43710
  477 129.567 -4.39552 4.38478
  478 76.7467 -0.971103 -18.5715
  479 76.8376 -0.986242 18.5361
  480 249.033 9.63693 14.1501
  481 63.7126 -2.12557 8.99749
  482 63.6202 -2.10552 -9.04120
  483 67.3374 6.32293 20.9448
  484 67.1146 6.41661 -20.9265
  485 376.581 -29.1800 26.0602
  486 211.592 -13.1835 -35.7289
  487 195.645 -6.52201 2.93771
  488 195.714 -6.67674 -2.94222
  489 213.813 -13.5949 35.7227
  490 587.297 140.052 -14.1275
  491 -9.38714 -1.39906 -7.77946
  492 -9.38188 -1.40651 7.77495
  493 149.304 -4.29838 -1.85359
  494 149.305 -4.23540 1.84625
  495 0.211323 -25.0216 -9.40869
  496 0.149726 -25.1038 9.49301
  497 343.618 -5.52263 0.848809
  498 247.553 11.7247 -7.03961
  499 331.073 34.6549 20.2112
  500 210.159 -1.92307 -60.4562
  501 104.027 -5.34488 13.6187
  502 104.013 -5.30000 -13.6412
  503 -25.3486 0.832862 -2.23931
  504 -25.1906 0.827783 2.26039
  505 406.803 -7.33982 -59.2111
  506 34.7609 0.180549 -2.00038
  507 34.8208 0.185728 1.97506
  508 338.651 -26.8180 -6.65065
  509 360.759 -30.7922 -14.6321
  510 74.5197 57.3678 -75.8169
  511 303.251 8.91622 -118.708
  512 4.39414 9.25229 5.58778
  513 4.54034 9.27225 -5.50630
  514 186.543 -8.76470 -7.95624
  515 186.453 -8.68683 7.79255
  516 519.531 22.9795 -9.97252
  517 375.019 -22.2512 -23.6898
  518 72.6678 54.3272 74.7673
  519 371.536 -41.8897 11.7330
  520 357.460 -33.9971 11.0475
  521 77.8632 -1.89564 -5.91698
  522 77.9147 -1.88826 5.86014
  523 295.706 3.26707 33.7369
  524 213.283 -15.8131 -14.6107
  525 395.059 -8.97572 13.4541
  526 -1.59780 -9.60511 -7.56520
  527 -1.60176 -9.59739 7.55412
  528 277.831 -24.4928 40.0189
  529 421.496 -31.9076 -29.8103
  530 548.278 39.9067 -21.6685
  531 297.739 -10.4348 -0.239531
  532 90.2921 -1.70408 -1.71865
  533 90.3151 -1.67206 1.70308
  534 189.130 1.62672 58.2739
  535 524.989 88.8386 25.9551
  536 531.005 108.198 -187.279
  537 478.254 3.44988 27.9143
  538 344.841 -38.2604 4.80012
  539 809.181 64.3823 54.6835
  540 601.156 146.713 19.8899
  541 86.6140 -3.62821 14.8551
  542 86.5472 -3.59224 -14.8791
  543 331.595 -27.5993 4.56421
  544 25.5098 11.9664 -6.48052
  545 25.6981 11.9600 6.55555
  546 416.352 -34.3039 29.8542
  547 342.221 18.5803 49.6977
  548 418.758 -2.80047 7.52101
  549 310.493 -18.8420 1.52734
  550 433.484 4.97002 -125.135
  551 685.407 180.391 124.107
  552 336.120 -6.95374 -0.687102
  553 411.604 -4.30704 -12.2188
  554 65.7242 27.3074 -29.7074
  555 66.1990 26.9800 29.5786
  556 236.594 -9.73301 -4.07193
  557 236.487 -9.50822 4.14919
  558 2.85801 -28.8730 -3.89647
  559 420.512 -14.6801 52.4666
  560 16.6464 14.8710 0.947302
  561 16.9035 14.9124 -0.825778
  562 3.33397 -27.8429 4.79644
  563 383.027 -17.4336 -42.6901
  564 440.611 28.1912 -56.7096
  565 439.114 31.9221 56.7392
  566 21.5210 18.8749 16.6699
  567 20.4542 19.3013 -16.3199
  568 -10.9036 0.391679 4.76998
  569 -11.0821 0.395800 -4.76064
  570 404.048 11.4409 128.947
  571 222.585 -12.4799 8.02081
  572 222.806 -12.4359 -8.16669
  573 486.856 -7.46925 -66.7579
  574 65.1282 -0.912716 3.43066
  575 65.0834 -0.927027 -3.46878
  576 31.4863 -0.775251 -0.804277
  577 31.5285 -0.770189 0.795404
  578 535.345 98.2772 -20.4763
  579 51.5399 78.3318 -83.5500
  580 283.015 5.73553 -28.5967
  581 398.028 63.5120 -25.0271
  582 6.07976 0.276006 8.16224
  583 6.32108 0.363698 -8.00028
  584 399.477 187.571 219.762
  585 341.226 -9.79918 -2.77691
  586 13.0397 3.47360 -8.12843
  587 13.2029 3.44851 8.16781
  588 394.259 -31.5947 36.2200
  589 60.9027 75.9483 85.0756
  590 284.682 -6.31695 0.430784
  591 284.760 -6.26629 -0.431898
  592 -0.262718 -19.9645 9.83545
  593 -0.231970 -19.9319 -9.80292
  594 485.261 94.3807 -0.776979
  595 308.106 -24.5914 56.5968
  596 294.230 -12.8479 -0.771743
  597 295.782 14.0471 125.204
  598 -24.3039 1.27622 5.86877
  599 -24.2794 1.28315 -5.84442
  600 484.111 7.04488 -30.0705
  601 642.923 110.618 -89.1389
  602 184.938 19.0045 -83.7250
  603 100.824 -4.24931 -18.0865
  604 100.919 -4.25042 18.0898
  605 437.352 -1.51283 2.04496
  606 291.356 -13.1183 0.414569
  607 389.230 -5.55365 4.45123
  608 383.040 -17.4476 41.6722
  609 17.9740 -0.640201 3.03803
  610 17.8383 -0.637489 -3.06068
  611 227.553 -8.14449 -2.38058
  612 227.523 -7.92865 2.31033
  613 142.317 3.08877 -39.1442
  614 141.407 3.12958 38.9761
  615 551.462 34.1491 34.5746
  616 896.842 67.6002 -97.9721
  617 -5.59634 -0.562036 4.15913
  618 -5.78136 -0.560185 -4.15797
  619 134.883 -5.72196 8.16641
  620 134.873 -5.71498 -8.27218
  621 514.458 28.9998 17.0061
  622 432.223 -1.66237 -0.648918
  623 431.285 -2.33383 0.254347
  624 315.305 -0.0589241 33.3906
  625 452.508 -25.9454 -41.2087
  626 246.624 -20.2998 17.4248
  627 -5.23573 5.62660 -5.21405
  628 -5.34524 5.61762 5.27763
  629 394.898 8.22781 62.4045
  630 157.191 -9.07663 -18.9283
  631 157.042 -9.22641 18.9645
  632 321.469 -18.7873 -2.71850
  633 396.830 -8.81519 -12.1615
  634 227.283 -18.1352 -26.0294
  635 372.701 44.9507 -37.9379
  636 251.191 -17.2849 -46.2208
  637 93.4885 -2.51197 -3.08132
  638 93.5117 -2.48267 3.04197
  639 229.627 -18.4551 26.1441
  640 492.167 79.8380 35.9518
  641 391.803 -18.9543 52.5311
  642 320.766 -14.5201 2.60638
  643 229.990 -6.34340 1.51060
  644 229.932 -6.35667 -1.46698
  645 173.797 -6.59490 -5.83623
  646 173.735 -6.52477 5.77650
  647 377.016 -34.5629 -20.5439
  648 191.663 -10.9392 10.2004
  649 191.867 -10.8957 -10.3986
  650 379.122 58.4087 -5.07659
  651 348.429 -18.4811 8.62285
  652 435.079 -2.08910 -3.21394
  653 370.958 -6.73783 -55.0490
  654 54.6115 -2.39962 11.9332
  655 54.5008 -2.38271 -11.9430
  656 424.689 -2.41751 -6.81862
  657 76.3970 39.4957 -53.4827
  658 77.7015 39.4017 53.7439
  659 433.315 -25.6653 56.5239
  660 149.776 37.5073 88.1788
  661 37.7408 -0.250334 11.9354
  662 37.6090 -0.241774 -11.9406
  663 369.310 -23.5584 72.8400
  664 363.541 52.6137 -170.320
  665 355.584 11.2692 -55.0141
  666 467.570 84.6779 31.2050
  667 315.292 -14.2261 -1.20418
  668 566.464 101.716 -2.47234
  669 -26.7095 1.29901 -1.46446
  670 -26.5759 1.29567 1.49407
  671 251.709 1.30303 -88.5544
  672 19.3289 -0.376614 2.33409
  673 19.2291 -0.377562 -2.35751
  674 315.569 -26.4573 -55.9618
  675 105.145 14.3927 -37.7836
  676 104.315 14.4455 37.7647
  677 2.72012 5.28611 -2.61022
  678 2.86560 5.27928 2.67289
  679 268.450 -23.2608 -13.1998
  680 379.838 -3.74526 -21.1054
  681 181.789 -5.74790 -2.09365
  682 181.799 -5.68550 2.10949
  683 131.905 -6.77337 -12.1703
  684 132.010 -6.86687 12.1270
  685 25.1317 20.6651 -7.63568
  686 25.5467 20.7107 7.77678
  687 388.511 -4.84027 2.14207
  688 173.690 -11.0838 15.8148
  689 174.794 -10.8919 -15.8014
  690 430.393 -34.2174 -3.99667
  691 355.022 -35.6989 -7.20015
  692 279.385 -8.12984 -0.441965
  693 278.406 -7.59856 0.576529
  694 390.869 -41.1481 22.1449
  695 633.752 128.006 34.3240
  696 343.522 -14.9936 -90.2702
  697 393.275 -11.0548 21.8330
  698 391.027 -14.4756 -56.4344
  699 122.881 -3.85943 -5.74658
  700 122.884 -3.83105 5.67665
  701 305.577 -4.93843 101.170
  702 849.153 109.110 100.003
  703 59.3316 17.1929 -21.9312
  704 59.4207 17.3082 22.0030
  705 387.207 -3.96619 -1.06887
  706 390.253 -3.57227 1.09381
  707 165.112 84.2746 -142.834
  708 411.657 -2.29219 12.2346
  709 356.003 -6.34134 1.61729
  710 470.150 93.0363 -11.4563
  711 48.6535 8.57776 -15.9316
  712 48.8651 8.52400 15.9909
  713 440.995 -1.17004 0.328951
  714 358.175 -13.9861 -8.51999
  715 446.495 -6.53211 45.6413
  716 183.588 -12.8818 -24.6726
  717 184.048 -12.3327 24.4446
  718 42.8771 -1.46123 9.03111
  719 42.7545 -1.44309 -9.05463
  720 404.551 -2.91584 -2.04260
  721 348.904 69.6171 180.657
  722 2.73924 2.93607 11.3476
  723 2.86985 3.01460 -11.2579
  724 405.683 -4.52310 -5.52103
  725 394.128 -7.39785 7.90300
  726 313.827 0.285468 -35.8130
  727 3.02019 -35.5230 -4.44692
  728 2.82586 -35.8774 4.80362
  729 144.101 38.6731 -88.1910
  730 315.011 -31.5338 -40.5253
  731 163.960 83.4984 144.171
  732 435.399 -1.18561 1.20714
  733 422.026 63.1950 39.9064
  734 308.892 27.9918 -14.0851
  735 551.602 111.146 1.31843
  736 430.283 -1.89436 4.37559
  737 -24.9671 0.629350 3.38166
  738 -25.1419 0.632804 -3.36811
  739 458.287 -25.7755 13.1371
  740 297.181 -8.78780 -0.580244
  741 108.711 0.129180 -27.0066
  742 108.856 0.0215029 26.8560
  743 393.978 -4.79662 -3.12441
  744 695.069 98.3543 -35.9267
  745 48.1747 -1.40415 -5.70371
  746 48.2782 -1.41231 5.66392
  747 438.444 -1.27785 -2.00129
  748 88.7101 -3.95569 -7.94979
  749 88.7708 -3.96964 7.89069
  750 429.929 -16.9949 -47.1798
  751 397.275 -4.19860 16.9563
  752 357.122 -2.29311 54.4798
  753 439.006 -1.32784 0.0329267
  754 410.362 -3.27211 4.19456
  755 269.229 -14.6304 -3.30686
  756 336.897 -9.07594 2.00632
  757 383.115 -23.6094 -35.3968
  758 373.628 -23.5604 22.8107
  759 438.241 53.0935 -50.2556
  760 368.463 -20.7794 16.7757
  761 389.416 -23.0449 45.4106
  762 226.361 -15.4025 10.7070
  763 8.28853 -1.76376 -0.272565
  764 7.85493 -1.79258 0.683594
  765 340.928 -5.37805 -0.0486319
  766 340.209 -5.34195 -0.0771115
  767 408.157 -2.01290 -0.210533
  768 409.554 -1.93331 0.305214
  769 389.720 -10.9914 26.8460
  770 359.675 -32.8946 52.9287
  771 295.768 -24.0885 5.07826
  772 262.893 -15.8133 5.29898
  773 708.879 90.7568 41.6124
  774 393.761 -10.1013 -17.1338
  775 231.270 40.5996 -133.873
  776 366.084 -18.2185 -14.4653
  777 15.4759 0.280880 -8.63836
  778 15.6366 0.267492 8.65052
  779 328.540 28.7997 -31.5655
  780 825.866 25.0586 -10.7375
  781 412.373 10.7082 -60.9405
  782 16.6599 11.6983 -33.1359
  783 424.965 76.3472 10.1894
  784 331.050 -21.1881 4.60547
  785 372.332 -9.28251 53.3947
  786 313.416 -32.8875 40.7483
  787 499.816 -2.02335 81.9548
  788 17.9497 15.5270 35.3554
  789 226.935 -1.29950 69.1584
  790 316.466 -8.39399 -0.558708
  791 352.720 -31.5013 -53.5688
  792 217.114 -16.9559 -18.3280
  793 171.594 8.21314 -60.5274
  794 408.706 -6.28728 59.7073
  795 262.536 -18.0063 8.43149
  796 51.7174 -1.45769 5.06832
  797 51.6387 -1.45938 -5.11368
  798 381.007 -2.10831 18.6879
  799 346.118 1.77463 -52.9884
  800 -29.9754 1.38019 3.60700
  801 -29.9299 1.38283 -3.58030
  802 255.490 -8.21055 -1.21613
  803 254.757 -7.77736 1.13367
  804 189.687 21.2789 84.9236
  805 169.635 -9.97185 11.9460
  806 169.867 -9.73181 -12.0669
  807 438.158 -0.945698 -1.06886
  808 154.550 12.2578 59.0107
  809 6.30728 -0.146614 3.22935
  810 6.14100 -0.143409 -3.24256
  811 376.452 -11.6307 41.2433
  812 401.066 -3.60370 1.59741
  813 -21.4370 0.271881 5.88534
  814 -21.4410 0.278886 -5.87345
  815 247.894 -15.5334 51.8396
  816 48.2870 40.7651 -45.4459
  817 48.8745 38.9170 44.7725
  818 236.220 10.4121 5.87646
  819 -2.92850 -0.257385 -3.70040
  820 -2.74251 -0.259829 3.69713
  821 284.837 -27.0226 -38.1937
  822 388.151 -40.6386 -11.9802
  823 -1.94095 -1.84272 -2.44671
  824 -1.93515 -1.83833 2.43757
  825 22.3987 0.651082 -0.770198
  826 22.4505 0.654738 0.756772
  827 345.418 -30.7932 7.78432
  828 291.067 -29.7852 26.8410
  829 322.027 -5.71077 0.656358
  830 290.327 -23.5088 -6.15927
  831 107.584 -1.83563 -0.618716
  832 107.600 -1.79354 0.608962
  833 -33.8012 0.722167 2.04232
  834 -33.7271 0.721247 -2.01602
  835 363.295 -4.97409 -1.39772
  836 323.080 12.7420 -45.1322
  837 367.440 -7.53809 -4.40960
  838 217.573 -16.6690 17.4811
  839 364.390 -6.37262 -43.6754
  840 389.288 -11.9348 -27.7345
  841 364.749 -4.31127 1.24742
  842 266.845 -10.0887 70.9134
  843 285.085 -27.8830 -15.4373
  844 172.207 -1.28893 -46.4962
  845 173.150 -0.0929980 46.7385
  846 243.273 -18.3099 -11.6069
  847 403.383 43.7975 52.1586
  848 382.176 -39.6322 -29.7206
  849 138.830 -4.45387 -2.90642
  850 138.821 -4.38935 2.87785
  851 292.416 -6.91968 0.357080
  852 292.429 -6.97439 -0.288321
  853 348.609 -2.61777 -28.5821
  854 118.448 -5.03490 -9.83211
  855 118.514 -5.07249 9.75178
  856 1.43819 -36.0419 -7.06244
  857 1.36241 -36.1977 7.21111
  858 60.7700 -0.900362 -0.216952
  859 60.7352 -0.918226 0.205258
  860 360.624 -5.92511 -1.95419
  861 274.450 -26.1679 24.2971
  862 425.236 -36.2348 12.5100
  863 251.480 5.26796 22.5026
  864 368.754 -8.92586 5.07305
  865 402.827 -36.0032 -27.8150
  866 58.9182 3.66242 -18.1486
  867 59.0921 3.60118 18.1405
  868 320.399 -6.10543 -0.597062
  869 258.547 -9.20611 -2.45054
  870 257.657 -9.12780 2.68111
  871 399.093 62.0957 28.2013
  872 139.225 -1.42207 -32.5464
  873 139.098 -1.58340 32.4086
  874 277.008 -25.0955 12.3901
  875 27.1859 17.5371 -6.62119
  876 27.4513 17.5040 6.69785
  877 234.486 -16.6728 42.3082
  878 280.910 -18.0586 -3.54923
  879 350.607 -2.71140 28.8804
  880 344.573 -38.7240 13.8688
  881 394.784 -29.9760 -39.1593
  882 273.779 -26.3814 -24.6288
  883 227.985 -15.3407 -10.2762
  884 740.047 60.7451 -11.4493
  885 360.885 -38.2067 4.91541
  886 10.6725 11.9995 3.88099
  887 10.8620 12.0233 -3.78151
  888 313.888 -31.4774 7.05951
  889 344.054 -38.6397 -23.6439
  890 11.4609 10.4293 -0.00729846
  891 11.6275 10.4327 0.0836398
  892 130.410 -4.66789 24.7434
  893 130.485 -4.80669 -24.8861
  894 157.728 -8.00216 27.1353
  895 157.668 -8.19002 -27.3171
  896 496.613 99.5702 13.9390
  897 -0.724002 -15.3557 -7.32649
  898 -0.729268 -15.3368 7.32111
  899 114.815 9.65130 -35.9499
  900 114.258 9.45580 35.6049
  901 853.646 27.6541 -43.0445
  902 17.9721 -0.0929865 1.31524
  903 17.8937 -0.0957750 -1.33363
  904 1.52812 -40.8315 2.09391
  905 1.77861 -40.1323 -1.50344
  906 -16.4348 -0.195309 6.06864
  907 -16.4535 -0.190172 -6.06677
  908 91.8033 26.9471 -42.3032
  909 93.2215 26.0526 41.7137
  910 -7.08451 0.402789 -12.7341
  911 -7.12040 0.373711 12.7568
  912 27.0067 2.33877 -11.8629
  913 27.1712 2.30846 11.8809
  914 100.298 -1.19116 22.8087
  915 100.226 -1.18612 -22.9201
  916 82.1017 -2.82522 -18.4102
  917 82.1871 -2.82021 18.3825
  918 426.722 -1.63288 -6.73603
  919 208.544 44.8331 124.549
  920 287.915 -28.4212 14.4974
  921 204.970 -14.7244 14.0968
  922 394.537 40.6988 -51.5734
  923 839.495 17.9715 17.1946
  924 466.527 21.6383 -48.3443
  925 78.4976 -3.00810 11.5083
  926 78.4162 -2.97416 -11.5504
  927 14.7072 -0.453247 -8.47472
  928 14.8650 -0.457599 8.47506
  929 -0.206594 -7.13903 -13.8168
  930 -0.268045 -7.19988 13.8633
  931 211.837 -9.42614 6.29805
  932 211.945 -9.60747 -6.32840
  933 26.1210 6.89498 -10.5917
  934 26.2971 6.86416 10.6470
  935 129.485 -5.79224 -21.0202
  936 129.574 -5.79270 21.0074
  937 279.465 -1.17444 -26.4693
  938 133.656 -7.28091 -14.6156
  939 133.567 -7.20348 14.6632
  940 322.742 -9.22210 -0.707069
  941 390.588 -22.3206 -48.8339
  942 171.425 -6.99966 6.71909
  943 171.504 -7.06325 -6.80742
  944 -7.08945 -0.754830 -4.29704
  945 -7.06998 -0.756637 4.28777
  946 397.399 -30.3004 -65.4754
  947 380.821 -22.3632 30.7180
  948 334.190 -23.4356 -6.10593
  949 327.127 11.2340 47.5458
  950 148.988 -8.39338 -16.4497
  951 148.992 -8.23525 16.5001
  952 364.950 14.0476 57.3778
  953 341.205 29.7683 37.7930
  954 691.777 83.0753 14.6077
  955 355.260 -12.8847 6.16363
  956 187.915 -5.67412 -3.02345
  957 187.894 -5.56456 3.04841
  958 318.494 -26.1553 -0.519606
  959 441.203 80.9035 -23.8080
  960 388.603 -4.34649 -2.18311
  961 256.077 -6.41963 0.996726
  962 255.980 -6.37131 -0.924000
  963 32.8265 27.8167 -20.0302
  964 33.6525 27.7704 20.1802
  965 61.4982 159.363 -138.811
  966 365.264 -8.60616 43.4311
  967 453.868 -8.14274 -40.4566
  968 -7.26434 4.40554 2.15637
  969 -7.14425 4.40491 -2.09627
  970 917.424 218.738 -174.286
  971 388.746 -42.1372 3.50626
  972 414.391 -38.0593 -17.5777
  973 382.836 -32.7746 27.7159
  974 474.032 93.1948 9.72300
  975 34.5342 36.7251 -42.3890
  976 87.3603 138.034 136.458
  977 -2.22749 -5.24039 13.8447
  978 -2.18935 -5.19576 -13.8211
  979 372.211 -9.65431 6.39065
  980 597.446 105.593 -13.0390
  981 35.5359 35.9083 44.0478
  982 -1.64188 -5.54004 -4.77828
  983 -1.64217 -5.52465 4.76581
  984 319.620 -7.61433 0.151763
  985 239.086 -19.0222 -19.1278
  986 385.844 -30.4626 -33.0926
  987 110.130 29.6386 -55.7788
  988 111.889 30.1258 55.9234
  989 375.134 -9.30094 -38.6848
  990 377.377 -12.0615 12.1475
  991 -9.92650 2.61775 11.1541
  992 -9.87589 2.64365 -11.1173
  993 228.330 -15.0338 -39.8125
  994 378.862 24.2778 -57.5127
  995 281.412 -10.6748 1.30297
  996 202.971 -5.87787 0.540697
  997 202.932 -5.91575 -0.517606
  998 -4.23862 -4.81486 -9.93928
  999 -4.24466 -4.82528 9.93104
  1000 382.486 -13.7180 -15.0469
  1001 363.973 -4.22878 0.362881
  1002 363.636 -4.23370 -0.215750
  1003 503.429 82.6225 -32.9738
  1004 91.4554 7.87693 -28.4014
  1005 91.6831 7.71970 28.3403
  1006 58.8126 -0.578851 -15.2801
  1007 58.9242 -0.590637 15.2630
  1008 415.133 22.3488 61.6491
  1009 392.058 -7.48546 -8.29838
  1010 69.8491 10.9481 -23.1826
  1011 70.1254 10.8665 23.2676
  1012 408.626 -2.30570 -1.30923
  1013 382.274 -16.5690 -23.0701
  1014 373.309 -42.0131 -16.7578
  1015 14.4657 12.5528 0.280555
  1016 14.0680 12.4928 -0.0995595
  1017 -17.8768 2.98820 6.55496
  1018 -17.8112 2.99655 -6.51095
  1019 228.341 8.54872 -9.82796
  1020 644.719 160.523 -45.0607
  1021 295.389 -21.5935 -2.32356
  1022 195.742 -8.55111 -40.9561
  1023 472.803 -18.5296 2.93657
  1024 196.510 -8.54074 41.5253
  1025 339.418 -39.3909 27.4977
  1026 384.732 -15.9240 -34.9858
  1027 132.957 -3.13814 -0.929537
  1028 132.967 -3.08415 0.923572
  1029 263.119 -20.6011 -10.1729
  1030 161.668 -6.05485 -31.9753
  1031 161.610 -6.10080 31.8164
  1032 53.7556 35.2273 -34.6797
  1033 54.6049 35.1293 34.7840
  1034 112.055 -3.57568 -3.29896
  1035 112.065 -3.53217 3.25767
  1036 342.090 -10.9839 3.15472
  1037 288.936 1.45300 -102.387
  1038 354.533 -11.6429 -6.14652
  1039 320.546 -35.4175 -16.7714
  1040 211.309 -8.98905 4.33843
  1041 211.480 -9.05548 -4.35160
  1042 414.170 -2.64884 1.65174
  1043 370.790 -8.94465 -5.98541
  1044 240.665 5.87078 18.5473
  1045 397.784 -3.94319 -15.7774
  1046 154.492 45.3352 99.9363
  1047 409.304 -3.81601 -12.9039
  1048 107.542 18.0664 -42.1086
  1049 104.353 18.2684 40.4121
  1050 488.583 -7.78628 -4.85626
  1051 44.6694 23.2280 -18.2145
  1052 45.0787 23.0625 18.2124
  1053 7.65584 -0.184590 4.03018
  1054 8.03378 -0.113956 -3.78118
  1055 64.6262 -1.71375 3.96025
  1056 64.5686 -1.72472 -4.00792
  1057 175.665 45.8774 -110.647
  1058 946.404 248.204 187.591
  1059 381.261 -13.7095 15.4325
  1060 342.442 -38.4149 -12.5346
  1061 238.400 -19.5994 -30.8776
  1062 -4.69181 5.32855 9.58730
  1063 -4.59992 5.35778 -9.52552
  1064 268.912 -13.9360 2.66691
  1065 296.407 -11.1322 0.345261
  1066 -0.138955 -21.7521 7.05643
  1067 -0.131567 -21.7739 -7.05464
  1068 44.9106 27.8165 -21.6256
  1069 45.4418 27.7662 21.7538
  1070 265.348 -12.8237 -2.54794
  1071 21.3428 9.70454 6.80149
  1072 21.1682 9.71741 -6.73081
  1073 404.770 -15.8785 56.6413
  1074 293.243 -30.3337 -26.7058
  1075 239.815 -19.9144 30.8768
  1076 385.769 -7.64197 -59.7776
  1077 406.180 -4.53792 6.01754
  1078 147.889 22.7976 67.1995
  1079 148.948 21.8171 -66.0849
  1080 238.050 -11.4843 -56.5984
  1081 336.459 -12.1787 -3.17502
  1082 273.908 -16.5455 4.94365
  1083 320.647 -29.9764 -1.70134
  1084 438.778 -1.59593 -3.45025
  1085 237.895 -11.0266 4.69621
  1086 237.792 -11.6520 -4.82791
  1087 8.19628 9.55642 7.60534
  1088 8.39219 9.62647 -7.49259
  1089 389.016 14.4585 -61.8071
  1090 87.9009 4.40421 -25.1066
  1091 88.1355 4.30654 25.0401
  1092 66.2474 1.24066 -18.0500
  1093 66.3909 1.20414 18.0191
  1094 442.678 -17.0639 82.2287
  1095 384.242 -17.7119 34.4527
  1096 188.647 -8.66950 -34.8063
  1097 445.638 -1.79424 -2.05807
  1098 501.352 94.9245 -24.8305
  1099 405.376 -3.97604 -3.74423
  1100 380.591 -40.9506 11.7810
  1101 282.042 -21.3540 49.7343
  1102 448.391 -0.596244 0.357818
  1103 240.219 7.47346 -15.7241
  1104 322.877 -34.5193 -8.17620
  1105 188.952 -9.06164 34.4345
  1106 325.863 -29.7198 -0.166552
  1107 405.766 -5.86962 11.4472
  1108 292.879 18.5190 24.4559
  1109 202.853 -14.9238 -27.8265
  1110 611.210 89.0075 -38.1130
  1111 460.962 21.2333 50.8590
  1112 345.706 43.2564 5.98313
  1113 443.825 0.0196550 1.80018
  1114 176.264 -11.0311 -21.3768
  1115 120.191 74.7830 -111.289
  1116 214.591 5.90146 -80.1691
  1117 246.181 -18.9658 13.6605
  1118 208.151 -15.5951 26.1172
  1119 175.847 -10.4944 21.5909
  1120 370.142 3.32145 60.1981
  1121 279.490 -9.91324 -0.972394
  1122 437.724 -3.28280 4.67858
  1123 -3.37576 -0.183615 13.7977
  1124 -3.32314 -0.138752 -13.7626
  1125 292.635 -8.55069 0.367978
  1126 -0.129314 3.45808 12.3786
  1127 -0.0341206 3.51687 -12.3116
  1128 165.234 -5.27538 3.75646
  1129 165.245 -5.35725 -3.76095
  1130 412.941 -2.24409 10.7101
  1131 332.261 -20.4512 -4.98514
  1132 311.332 -16.7802 -1.08865
  1133 348.024 -24.4478 10.8137
  1134 106.672 53.2775 -83.1826
  1135 341.088 -13.0742 4.30837
  1136 51.8750 0.921297 -14.8278
  1137 52.0111 0.895952 14.8173
  1138 71.5770 46.2894 -58.7727
  1139 544.430 72.3689 15.1432
  1140 40.2351 -1.82376 8.66760
  1141 40.1064 -1.80900 -8.68086
  1142 72.8665 45.5917 56.7872
  1143 312.584 -26.2324 -0.738198
  1144 159.159 -7.48164 8.26786
  1145 159.183 -7.51542 -8.39876
  1146 636.052 134.885 -36.6350
  1147 344.226 -34.4894 1.47915
  1148 118.391 70.0385 111.066
  1149 10.2610 -1.47351 -9.75366
  1150 11.0467 -1.33936 10.6773
  1151 363.747 45.5936 30.2119
  1152 27.6960 14.8140 -6.94502
  1153 27.9175 14.8188 7.00936
  1154 346.480 -30.1796 -8.31170
  1155 -0.157545 -33.5558 -6.59706
  1156 -0.173257 -33.5603 6.62712
  1157 370.234 -31.2595 -19.2344
  1158 -4.29592 0.445165 2.88350
  1159 -4.48344 0.448019 -2.88986
  1160 57.3141 21.2253 -23.3183
  1161 57.6240 21.3173 23.1123
  1162 -17.8443 0.0409178 -3.53131
  1163 -17.6502 0.0395412 3.53490
  1164 369.460 -4.25184 -0.434704
  1165 -36.4970 1.08687 0.493982
  1166 -36.3951 1.08633 -0.469711
  1167 196.268 -15.4393 -20.6630
  1168 5.25374 -47.0791 -5.33381
  1169 99.4496 -2.83973 6.27639
  1170 99.4129 -2.84950 -6.34376
  1171 314.384 -6.24530 0.504108
  1172 314.979 -6.08894 -0.443105
  1173 5.64312 -44.8113 6.47490
  1174 372.599 -19.5286 -19.1893
  1175 424.931 -2.01678 7.84824
  1176 378.618 -24.2905 -28.2641
  1177 331.616 2.50073 47.1720
  1178 1.82667 -13.1707 9.98500
  1179 1.98946 -13.0686 -9.81603
  1180 242.778 -17.7317 10.9567
  1181 -16.4527 1.54389 8.91964
  1182 -16.4222 1.55693 -8.89266
  1183 627.621 99.6709 6.80574
  1184 730.459 231.593 -162.954
  1185 387.040 -37.5436 23.8972
  1186 161.074 -4.77476 -0.555483
  1187 161.085 -4.71773 0.555979
  1188 789.239 76.6043 -70.7980
  1189 58.0352 -1.50732 8.99794
  1190 57.9304 -1.48455 -9.03114
  1191 362.241 -1.18146 -18.6596
  1192 232.948 -18.8631 23.3502
  1193 382.846 -37.4593 -17.1401
  1194 370.591 -26.9797 -21.8935
  1195 226.813 -7.92865 59.3099
  1196 84.5663 15.6465 -31.9734
  1197 84.5222 15.5078 31.7961
  1198 111.064 41.2228 -70.7764
  1199 111.216 38.1613 70.7804
  1200 32.3134 9.23461 -11.2292
  1201 32.5033 9.20736 11.2961
  1202 457.441 79.3970 -34.7611
  1203 24.0107 22.0315 -10.2958
  1204 24.5649 22.0653 10.4628
  1205 329.908 -25.3553 4.10783
  1206 614.034 92.2400 42.6711
  1207 79.9563 -3.32029 -6.18600
  1208 80.0158 -3.31914 6.12645
  1209 398.054 283.079 -240.597
  1210 310.195 18.4432 -37.7203
  1211 285.310 21.8431 15.4153
  1212 39.9627 16.6471 -13.2752
  1213 40.1517 16.6476 13.3475
  1214 9.80941 -0.0806387 2.10818
  1215 9.68201 -0.0805093 -2.12604
  1216 365.275 -29.3685 17.9395
  1217 359.087 -14.5441 9.41048
  1218 246.150 70.8298 -172.938
  1219 565.935 123.661 -6.92830
  1220 243.989 -7.31391 -65.2664
  1221 315.657 -9.93613 0.324378
  1222 18.1245 -1.56147 -0.484335
  1223 18.1609 -1.56031 0.481558
  1224 -7.38745 2.47771 -4.90860
  1225 -7.23292 2.46752 4.94541
  1226 212.265 2.39761 -68.5790
  1227 389.436 -8.70895 10.7335
  1228 253.933 4.90237 93.4645
  1229 343.460 -17.1447 -6.96833
  1230 177.776 63.8625 -136.349
  1231 275.912 -13.2822 -70.4319
  1232 328.343 -35.0566 6.33727
  1233 401.444 -6.43056 17.3746
  1234 352.170 -7.60253 -2.44887
  1235 195.449 -14.4979 20.7799
  1236 441.638 -24.5090 -31.2370
  1237 419.756 36.6151 58.3564
  1238 183.407 0.880664 -54.3037
  1239 416.591 -2.75715 1.29188
  1240 337.164 41.8875 -8.54336
  1241 146.875 -5.18406 -6.14967
  1242 146.849 -5.13077 6.08358
  1243 638.164 149.016 37.9800
  1244 869.515 23.1004 40.3132
  1245 0.792407 -40.9344 -6.54484
  1246 0.767063 -40.9797 6.59572
  1247 95.0424 50.4835 77.8704
  1248 226.751 -6.81105 -1.33127
  1249 226.800 -6.77098 1.41520
  1250 309.874 -31.2087 -8.81925
  1251 370.156 30.4244 52.1222
  1252 386.244 -7.79095 -6.81474
  1253 447.796 -1.25180 -0.397659
  1254 775.081 172.569 -109.079
  1255 122.333 -4.64087 6.38232
  1256 122.319 -4.65079 -6.46384
  1257 370.615 -34.4007 18.3386
  1258 648.845 160.289 -50.8202
  1259 359.332 -15.8408 -10.6380
  1260 263.050 -18.4044 -7.68176
  1261 322.633 -35.0391 16.3619
  1262 315.461 -15.9547 1.80082
  1263 11.8669 3.70508 -15.2677
  1264 430.901 -25.9358 37.4962
  1265 349.346 -22.9667 -10.5650
  1266 13.0652 4.30982 16.8459
  1267 359.088 -28.3746 -66.1854
  1268 339.354 21.8191 -141.471
  1269 557.765 72.1467 -9.70567
  1270 449.511 -0.389487 -0.135284
  1271 448.727 -0.803797 0.395719
  1272 355.313 -20.8593 11.5527
  1273 137.528 16.3899 -53.5063
  1274 404.614 -35.8499 30.1951
  1275 686.460 157.279 72.7966
  1276 170.592 59.1145 132.869
  1277 4.89926 0.859393 10.1238
  1278 5.07903 0.947779 -9.99973
  1279 424.719 -33.8543 -36.0353
  1280 172.030 -9.44777 -9.88669
  1281 172.002 -9.47228 9.71241
  1282 396.048 -26.0189 46.7389
  1283 15.4099 0.0926460 9.43777
  1284 15.2526 0.100417 -9.43386
  1285 -2.14220 -8.23583 11.4357
  1286 -2.12748 -8.21814 -11.4378
  1287 71.6654 -2.46552 -8.20573
  1288 71.7452 -2.47998 8.15455
  1289 208.884 -13.9625 -31.5809
  1290 210.530 -7.09835 1.94640
  1291 210.523 -7.24948 -1.86762
  1292 447.973 -0.378408 0.0876649
  1293 399.087 -6.20577 -19.5670
  1294 33.3350 1.45606 -11.8885
  1295 33.4875 1.43362 11.8937
  1296 209.718 -14.7666 31.3351
  1297 452.195 -0.510376 0.177994
  1298 427.539 -0.533117 -0.482142
  1299 427.518 -0.790691 0.374102
  1300 565.755 119.944 4.62391
  1301 416.896 -2.98049 -2.98172
  1302 370.574 -4.02572 0.303412
  1303 410.493 -6.33181 -10.1196
  1304 445.733 -1.49589 1.38737
  1305 466.044 48.3757 50.3981
  1306 539.686 112.488 11.9838
  1307 433.551 -1.77098 -5.17930
  1308 -3.58328 -0.907462 3.21431
  1309 -3.59766 -0.906814 -3.22418
  1310 241.872 -15.3619 7.57726
  1311 241.825 -14.6915 -7.36369
  1312 470.279 53.6245 -47.8677
  1313 98.5881 34.0438 -58.5685
  1314 99.2228 33.1171 57.9421
  1315 318.707 0.0411184 -23.5899
  1316 326.497 -5.49238 -0.354318
  1317 326.098 -5.44982 0.286211
  1318 -7.81390 -1.26916 11.6320
  1319 -7.79964 -1.24788 -11.6276
  1320 363.325 -0.946845 18.6263
  1321 551.376 109.608 -1.98554
  1322 40.4913 -1.49856 -5.17041
  1323 40.5923 -1.50204 5.13041
  1324 407.227 -38.9639 16.0857
  1325 0.898825 6.86193 9.73318
  1326 1.01803 6.90348 -9.65614
  1327 76.6428 -1.74393 -1.72276
  1328 76.6746 -1.71729 1.69604
  1329 318.786 -0.453277 23.9505
  1330 14.5277 0.678087 -0.794457
  1331 14.5912 0.680682 0.780973
  1332 413.853 -4.93227 6.48340
  1333 577.228 104.992 5.73771
</Section>

newXOutput 53

<Section columns = "stress_xx | stress_yy | stress_xy">
  1 467.645 -1.26433 0.851239
  2 468.373 -1.61428 -1.10549
  3 10.3272 0.435874 -1.20679
  4 -0.339315 -0.512533 -0.337270
  5 854.544 345.550 280.557
  6 867.708 395.300 -283.460
  7 -0.335620 -0.509296 0.332489
  8 10.2904 0.433424 1.20397
  9 470.806 -0.897239 -0.774369
  10 467.370 -1.64304 -1.12430
  11 467.742 -1.28763 1.01331
  12 465.503 -0.704651 0.423712
  13 464.631 -1.54295 -0.316943
  14 463.974 -1.48567 1.80318
  15 457.370 -1.05623 1.71308
  16 459.220 -3.31935 2.63988
  17 445.116 -2.76025 5.71440
  18 436.205 -1.23816 6.87758
  19 423.887 -1.51245 7.43058
  20 402.427 -1.34170 10.4203
  21 379.008 -1.13882 12.1197
  22 349.719 1.53553 16.6526
  23 309.550 2.37961 15.0948
  24 293.398 -0.124035 21.6292
  25 243.191 3.46022 15.3970
  26 212.615 4.54615 12.0765
  27 204.648 2.22920 8.90911
  28 196.106 6.65089 0.661105
  29 200.785 7.16844 -11.9168
  30 210.175 2.06528 -14.9569
  31 247.752 0.911338 -19.9576
  32 285.599 -1.87924 -20.6956
  33 310.987 1.97296 -15.0676
  34 350.150 1.74654 -16.6553
  35 378.036 -1.35024 -12.9925
  36 404.785 -1.51450 -9.82846
  37 422.220 -1.10534 -7.54787
  38 434.902 -1.31571 -6.30130
  39 448.509 -1.60220 -3.63911
  40 453.768 -1.64290 -3.47264
  41 458.908 -1.55228 -3.06492
  42 464.119 -1.76655 -0.576257
  43 466.101 -2.23924 -1.25082
  44 463.371 0.108636 -0.0485120
  45 467.200 -1.17740 -1.14766
  46 469.155 -2.40732 1.22600
  47 471.377 -1.38565 -0.0550805
  48 447.872 0.219393 -0.706419
  49 421.515 -1.88745 -1.32381
  50 391.658 -4.24209 -1.89196
  51 360.741 -3.59491 -1.37213
  52 333.764 -5.73392 -1.26071
  53 305.283 -6.21724 -1.14794
  54 276.550 -5.45560 -0.555199
  55 246.330 -5.82877 -0.769097
  56 220.773 -6.17913 -1.01681
  57 186.773 -5.89875 -0.823719
  58 151.786 -3.72489 -0.527267
  59 122.856 -2.39521 -0.416482
  60 87.1438 -1.51030 -0.159932
  61 61.2111 -1.45242 -1.77647
  62 37.1291 -1.98543 -0.579993
  63 12.8367 0.225002 1.10922
  64 6.50181 1.69286 0.441924
  65 4.67424 0.687308 1.17431
  66 5.48595 0.309798 1.17003
  67 0.370359 0.973387 0.551495
  68 -1.66477 1.27586 2.42949
  69 -2.62749 0.447803 0.928218
  70 -11.2758 0.949336 1.01344
  71 -15.4070 0.654752 2.34761
  72 -17.1967 0.215729 2.47228
  73 -26.7370 0.889465 1.96581
  74 -30.4197 1.33351 3.63385
  75 -34.5727 0.809186 1.40700
  76 -39.2999 0.589717 2.01414
  77 -41.3556 0.628616 0.879081
  78 -45.9776 1.53127 -0.906272
  79 -46.6939 1.04931 -0.667242
  80 -42.7139 0.790549 -1.38970
  81 -36.8070 1.03948 -2.76155
  82 -30.0080 0.466167 -4.27100
  83 -22.4292 0.258664 -4.47815
  84 -13.4881 -0.446590 -4.70873
  85 -5.88939 -0.359445 -2.76247
  86 -2.47849 -0.974173 -1.72957
  87 -0.409966 -2.48842 -1.50127
  88 -0.685822 -6.35840 -2.65878
  89 -0.782812 -12.3921 -4.65023
  90 -0.147473 -23.1724 -5.00385
  91 0.287465 -31.9727 -6.26420
  92 0.662040 -45.9201 -5.10159
  93 1.99305 -54.3837 -5.99367
  94 0.361127 -58.3176 -4.88658
  95 -0.0662981 -66.5648 -2.79974
  96 1.86649 -63.9204 -0.398833
  97 7.59184 -82.5989 3.98512
  98 6.89215 -42.3452 12.5294
  99 16.2758 -14.9416 27.1496
  100 48.4969 85.7734 82.9957
  101 204.077 271.798 232.122
  102 1119.40 120.196 165.876
  103 938.176 33.2221 59.5166
  104 893.572 14.1700 20.4761
  105 868.887 9.26809 -0.111291
  106 884.636 13.4966 -16.8353
  107 946.846 28.3625 -49.2508
  108 1107.71 95.2997 -154.347
  109 132.541 308.010 -192.109
  110 34.0870 64.3963 -64.3658
  111 12.0020 -22.9468 -22.6436
  112 6.24607 -47.0448 -10.8291
  113 7.54954 -85.9564 -3.16258
  114 1.78308 -65.4079 0.979842
  115 -0.176455 -67.3086 3.10241
  116 0.290970 -58.6043 5.04874
  117 1.95478 -54.4501 6.06216
  118 0.647337 -45.8934 5.12686
  119 0.276329 -31.9266 6.27322
  120 -0.152915 -23.1144 5.00076
  121 -0.783496 -12.3551 4.64027
  122 -0.687307 -6.32664 2.64946
  123 -0.409678 -2.47651 1.49303
  124 -2.46418 -0.972809 1.72267
  125 -5.86399 -0.361062 2.75503
  126 -13.4555 -0.450411 4.70428
  127 -22.3916 0.254449 4.47917
  128 -29.9872 0.461569 4.27905
  129 -36.8163 1.03621 2.77732
  130 -42.7541 0.790300 1.40665
  131 -46.7742 1.04837 0.683771
  132 -46.0909 1.53113 0.923460
  133 -41.5065 0.630263 -0.864127
  134 -39.4789 0.591740 -2.00310
  135 -34.7655 0.811490 -1.39827
  136 -30.6283 1.33624 -3.63031
  137 -26.9513 0.892022 -1.96285
  138 -17.4081 0.217286 -2.47283
  139 -15.6188 0.657440 -2.35100
  140 -11.4778 0.953114 -1.01848
  141 -2.80529 0.450316 -0.937715
  142 -1.81804 1.27844 -2.44365
  143 0.238822 0.974091 -0.564039
  144 5.38781 0.309305 -1.18222
  145 4.60085 0.686083 -1.18411
  146 6.44486 1.69071 -0.450427
  147 12.7940 0.223595 -1.11419
  148 37.0900 -1.99270 0.574876
  149 61.1751 -1.47074 1.77084
  150 87.1170 -1.54283 0.152505
  151 122.841 -2.44229 0.412625
  152 151.773 -3.77949 0.526663
  153 186.750 -5.94594 0.831132
  154 220.717 -6.20248 1.03230
  155 246.239 -5.79889 0.805718
  156 276.421 -5.34701 0.597312
  157 305.105 -5.96152 1.08432
  158 333.909 -5.80732 1.10585
  159 360.850 -4.04896 1.44890
  160 391.964 -4.15873 1.72024
  161 422.350 -1.64453 1.34216
  162 447.142 0.192139 0.687062
  163 261.496 -23.6109 -22.2541
  164 260.452 -24.0405 22.2015
  165 79.0357 21.7577 -32.0859
  166 79.8149 21.8366 31.9498
  167 308.214 -14.5055 80.5128
  168 323.028 -16.4199 -78.3618
  169 152.144 -8.04446 10.3078
  170 152.126 -7.96546 -10.4511
  171 329.165 -11.7281 1.41612
  172 322.612 -11.7613 -1.30066
  173 439.548 79.1297 -10.8770
  174 445.109 3.44965 -55.4589
  175 436.363 6.83377 59.7673
  176 105.934 -4.03295 -21.6047
  177 105.943 -4.00373 21.5627
  178 384.720 -38.0603 19.2810
  179 384.341 -29.5950 -27.5127
  180 5.52280 9.10266 9.01816
  181 5.68205 9.16106 -8.92339
  182 525.568 107.072 15.7255
  183 101.913 45.7309 -72.1218
  184 109.321 46.1569 77.3006
  185 371.993 -17.5094 12.7522
  186 557.770 117.379 -6.34041
  187 241.752 -8.96996 -3.07636
  188 241.365 -9.19815 3.05146
  189 382.343 -12.2232 -11.6701
  190 508.522 -2.38171 -8.48572
  191 95.8704 -2.88919 3.95447
  192 95.8389 -2.91380 -4.00898
  193 41.2639 5.14409 -14.6461
  194 41.4502 5.09131 14.6803
  195 215.605 -8.22639 -50.6410
  196 214.764 -8.67472 51.2888
  197 257.346 -16.8244 -8.00788
  198 257.859 -16.7305 8.50857
  199 68.2553 -2.38791 11.5202
  200 68.1560 -2.35583 -11.5451
  201 502.951 -7.99221 34.3455
  202 411.901 -40.3869 -7.33859
  203 390.909 -4.20832 -1.71641
  204 382.274 -5.08364 1.73965
  205 389.689 45.7536 42.3743
  206 16.8901 14.7451 -5.95221
  207 17.4976 14.7179 6.22285
  208 387.919 -15.5547 49.2733
  209 357.992 27.3935 -48.6119
  210 254.031 58.3119 -164.521
  211 267.116 49.2702 152.883
  212 7.25290 8.61154 -1.36542
  213 7.40505 8.60990 1.43833
  214 386.715 -13.7016 -50.9360
  215 670.268 93.7290 -6.45552
  216 321.379 -34.9616 29.2769
  217 323.781 -34.7682 -27.7236
  218 321.188 -23.0671 -1.24738
  219 397.368 -6.48992 6.17082
  220 193.701 -13.3317 -18.9888
  221 190.688 -13.2790 19.5636
  222 116.778 2.34356 -32.4790
  223 116.946 2.29885 32.2095
  224 408.110 -42.8751 -5.67292
  225 318.536 -24.5103 -0.130873
  226 395.938 -6.34620 -4.79051
  227 309.041 -8.23202 -0.110333
  228 311.706 -7.69650 0.690922
  229 391.341 -17.5311 28.1830
  230 34.9743 0.295325 -12.2938
  231 35.1204 0.279607 12.2927
  232 -4.87037 -3.24409 -13.2034
  233 -4.89580 -3.27566 13.2141
  234 61.7384 -2.64981 -6.68777
  235 61.8229 -2.65619 6.63589
  236 166.802 -5.08830 4.59543
  237 166.839 -5.17588 -4.63028
  238 191.176 13.3301 -73.8146
  239 191.199 11.1331 72.9854
  240 396.800 -12.4602 -24.1069
  241 187.465 -10.9666 -30.7757
  242 187.626 -11.3000 30.3495
  243 351.201 5.48242 55.0249
  244 308.214 26.4397 3.33520
  245 340.908 -34.0070 -0.462228
  246 1.62266 -8.02747 -11.8421
  247 1.50808 -8.11864 11.9417
  248 22.2838 23.4408 -25.3550
  249 23.7025 22.6581 26.6102
  250 335.249 -33.2729 -1.76357
  251 602.502 114.342 -10.3756
  252 32.0359 21.5392 -11.0277
  253 32.4170 21.5313 11.1535
  254 -12.6092 2.86047 8.85190
  255 -12.5432 2.87537 -8.80621
  256 605.434 107.282 13.8350
  257 213.476 -10.4167 -7.57684
  258 213.315 -10.2534 7.43225
  259 415.978 -27.9081 45.2635
  260 748.126 121.817 75.8593
  261 125.804 -6.65278 -17.7775
  262 125.781 -6.69958 17.7609
  263 425.087 63.6652 -40.3568
  264 722.344 137.432 -69.3526
  265 506.211 51.3752 37.8584
  266 548.168 36.5515 -104.143
  267 340.836 -16.3393 4.62801
  268 388.376 2.01290 -61.5477
  269 367.146 -26.0278 -15.4508
  270 408.709 -7.45496 15.2243
  271 0.886791 3.92206 -4.66098
  272 1.03957 3.90978 4.71307
  273 404.596 -12.6332 -100.486
  274 44.4645 13.4369 -14.8417
  275 44.6756 13.4132 14.9212
  276 392.708 -9.52168 -31.0920
  277 56.9720 59.8886 -74.9817
  278 49.2366 -0.241248 -1.55231
  279 49.2831 -0.231013 1.52977
  280 414.513 -25.5532 -47.2817
  281 73.7405 33.1214 -40.3738
  282 74.8006 32.9458 40.4876
  283 22.5941 -0.669139 8.57203
  284 22.4403 -0.661030 -8.57772
  285 340.324 -15.5354 -4.51660
  286 57.3725 59.2564 76.9655
  287 539.033 43.6079 121.803
  288 149.677 -6.00938 -6.27263
  289 149.652 -5.97209 6.18700
  290 272.557 -11.5435 -2.88363
  291 272.426 -12.4695 3.19872
  292 232.679 22.7556 -111.710
  293 374.233 -40.9001 -5.08455
  294 424.930 -2.79993 2.70078
  295 224.155 22.7674 108.123
  296 261.068 -7.38584 -0.979123
  297 260.970 -7.38118 1.20112
  298 367.746 -27.0683 15.7389
  299 421.612 -4.63678 -7.07468
  300 -1.72714 1.56449 -6.75322
  301 -1.55826 1.55276 6.77810
  302 531.063 105.429 -4.13446
  303 464.362 -21.1024 23.3667
  304 418.580 -2.41991 -0.680234
  305 425.801 -2.11257 0.616207
  306 418.368 -36.3279 36.8630
  307 515.910 54.8391 -34.9576
  308 452.521 84.0991 23.0020
  309 203.933 -12.6130 -12.0626
  310 202.102 -12.8403 12.2901
  311 424.408 -2.73487 -1.76122
  312 279.935 -21.0305 -55.4556
  313 275.558 -21.8720 10.1462
  314 262.696 -14.1985 63.1115
  315 418.112 -5.20152 8.48869
  316 96.6284 -4.43715 -11.1208
  317 96.6942 -4.46938 11.0736
  318 385.721 -12.1600 99.2987
  319 245.976 -19.5573 -15.0114
  320 451.362 58.1893 50.3975
  321 144.649 10.1449 -48.1079
  322 139.310 10.6094 47.7224
  323 43.8983 -0.897353 -2.81646
  324 43.9702 -0.891471 2.78062
  325 369.670 -7.80169 3.43648
  326 354.591 -5.43152 0.382316
  327 352.621 -5.91362 -0.501269
  328 389.881 -10.0248 32.9623
  329 35.3899 -1.27328 6.42213
  330 35.2588 -1.26155 -6.45035
  331 115.269 -2.79539 -2.34047
  332 115.281 -2.75078 2.31662
  333 3.83961 -17.0984 -6.36390
  334 3.59222 -17.2416 6.65877
  335 305.055 13.2460 37.4142
  336 468.814 -19.6508 -18.6739
  337 304.192 -16.4239 0.417131
  338 343.342 -7.29441 -1.60462
  339 361.034 44.8279 -22.8149
  340 71.7244 -2.31359 -16.0501
  341 71.8188 -2.31547 16.0373
  342 295.862 -15.5078 1.11309
  343 84.8005 2.78555 -23.0405
  344 84.9627 2.71323 22.9721
  345 16.8283 13.8658 -0.715149
  346 17.0295 13.8641 0.801220
  347 359.202 -38.3044 37.4843
  348 791.104 52.1234 20.3237
  349 321.346 4.94637 -44.2740
  350 267.807 -23.9878 34.3335
  351 266.446 -23.4983 -35.3520
  352 394.661 -6.51864 60.8712
  353 351.703 -2.48619 43.6521
  354 354.575 -37.0339 -38.6673
  355 212.300 -5.66443 0.495745
  356 212.267 -5.72716 -0.443506
  357 392.225 -25.5860 36.9414
  358 537.165 106.740 1.96177
  359 420.328 -4.91249 -11.2495
  360 109.785 -4.23370 -8.08557
  361 109.833 -4.23753 8.00762
  362 396.148 -37.1521 -46.4179
  363 417.139 29.3426 -60.5802
  364 281.466 15.1294 -24.0380
  365 395.036 -26.3051 -42.3552
  366 -12.7838 0.493765 -10.1761
  367 -12.7978 0.477801 10.1893
  368 331.784 -8.26192 0.780047
  369 -4.71532 -2.80109 -6.13437
  370 -4.70944 -2.80194 6.12146
  371 256.071 130.287 -199.873
  372 10.5964 9.50171 5.87148
  373 10.8538 9.57590 -5.73340
  374 349.072 -2.62396 -43.2951
  375 193.088 -8.39988 5.71707
  376 193.222 -8.50926 -5.77718
  377 -1.25944 -13.8389 11.5991
  378 -1.23796 -13.8136 -11.5873
  379 208.505 136.490 188.303
  380 158.304 -8.47427 -24.1265
  381 158.431 -8.11653 24.1450
  382 50.7564 37.6093 -37.4652
  383 51.8142 37.5109 37.2556
  384 -19.1664 3.04076 3.38915
  385 -19.0758 3.04570 -3.34000
  386 402.685 27.0194 60.7998
  387 308.654 -32.3136 16.7328
  388 308.982 -28.2712 7.05593
  389 373.807 -42.3133 -6.19541
  390 94.6641 11.7175 -31.8645
  391 94.9799 11.6973 31.8181
  392 8.52303 -11.1688 1.53761
  393 8.06774 -11.3655 -0.888376
  394 380.136 54.2306 14.9713
  395 380.889 -11.1937 9.49350
  396 219.087 -17.0701 22.3092
  397 136.141 -3.50237 -28.7940
  398 136.195 -3.52787 28.5844
  399 278.678 -8.78737 -1.29630
  400 278.381 -7.76170 1.06010
  401 217.264 -17.5223 -23.6447
  402 170.171 -2.92865 -38.7968
  403 170.149 -3.16190 39.1024
  404 397.309 -36.3105 -25.3241
  405 231.739 -17.9473 14.2028
  406 361.355 -11.3536 5.44943
  407 360.660 -10.3877 -4.48973
  408 303.336 -28.0681 -8.13689
  409 433.238 -2.11393 -2.87186
  410 146.857 60.0180 -113.582
  411 408.659 -6.03633 18.8220
  412 432.071 -2.47308 4.35861
  413 155.897 -8.42466 14.6302
  414 155.960 -8.31155 -14.6189
  415 307.273 -31.9285 -17.2639
  416 44.6451 19.6681 16.0003
  417 44.4062 19.6535 -16.0122
  418 799.104 52.0847 -41.4866
  419 354.383 -20.4671 -8.54969
  420 436.035 -1.75137 1.65364
  421 138.757 56.0976 108.252
  422 644.780 108.431 21.4172
  423 379.520 -6.13728 -2.71658
  424 284.863 -20.8613 -6.41452
  425 119.535 23.0688 -54.3000
  426 127.333 21.3735 53.9754
  427 350.201 -22.4138 8.59156
  428 372.010 -4.78511 -32.0264
  429 -1.20824 -0.358661 6.43851
  430 -1.38619 -0.354759 -6.43389
  431 134.930 32.5960 -72.5995
  432 135.360 32.7123 72.3787
  433 16.8194 7.45451 -7.06550
  434 16.9886 7.43848 7.13049
  435 314.334 -6.50967 0.468125
  436 313.956 -6.35120 -0.363187
  437 390.796 -17.9181 -29.4838
  438 -0.886620 -0.891850 14.0565
  439 -0.816444 -0.829260 -14.0040
  440 402.439 -39.4965 21.9225
  441 380.381 -10.4888 -8.34310
  442 614.308 117.506 -19.2536
  443 26.8363 -1.13335 3.05213
  444 26.7219 -1.13355 -3.08325
  445 737.124 209.971 95.3948
  446 15.1777 8.39737 -22.9710
  447 47.2072 2.16732 -15.6914
  448 47.3628 2.13173 15.6905
  449 735.473 214.906 -92.2440
  450 16.0897 10.0549 25.2008
  451 -18.2626 2.32884 0.665884
  452 -18.1454 2.32523 -0.619237
  453 41.8899 28.6904 -22.2549
  454 42.6058 28.7047 22.3739
  455 481.352 75.8340 -40.9736
  456 386.227 -15.2966 -18.7980
  457 433.760 -1.83607 -1.44276
  458 403.620 -6.26802 -22.1377
  459 -4.44765 3.09823 12.8303
  460 -4.37613 3.13860 -12.7807
  461 390.259 -15.9048 22.0057
  462 254.563 -14.5607 -6.38543
  463 253.791 -14.7058 5.54114
  464 344.568 -37.9531 -6.89003
  465 246.377 -3.17585 -77.2153
  466 375.613 -5.73836 32.7038
  467 307.042 -10.3152 0.415009
  468 449.753 -32.9992 -7.05333
  469 238.712 2.41586 82.7439
  470 20.1701 -0.366272 6.21681
  471 20.0134 -0.359139 -6.22978
  472 494.848 97.7764 -18.0436
  473 394.509 -3.30240 0.116768
  474 393.173 -3.69337 -0.470951
  475 299.061 -20.1930 2.97683
  476 132.258 -4.54561 -4.55189
  477 132.253 -4.49377 4.49867
  478 78.3846 -0.998972 -19.0053
  479 78.4776 -1.01442 18.9695
  480 254.137 9.83351 14.3925
  481 65.1759 -2.17210 9.21362
  482 65.0812 -2.15165 -9.25802
  483 68.7636 6.44116 21.4367
  484 68.5363 6.53659 -21.4178
  485 383.665 -29.7313 26.4061
  486 215.708 -13.4419 -36.5212
  487 199.508 -6.67282 3.02889
  488 199.578 -6.83031 -3.03342
  489 217.971 -13.8610 36.5153
  490 598.211 142.731 -14.6117
  491 -9.56096 -1.42270 -7.92474
  492 -9.55555 -1.43029 7.92012
  493 152.346 -4.39889 -1.90309
  494 152.348 -4.33479 1.89563
  495 0.219532 -25.4586 -9.56567
  496 0.156771 -25.5423 9.65156
  497 350.051 -5.66659 0.832770
  498 252.635 11.9573 -7.15949
  499 337.586 35.3305 20.5439
  500 214.233 -1.95143 -61.7229
  501 106.215 -5.45814 13.9429
  502 106.200 -5.41235 -13.9657
  503 -25.6987 0.846758 -2.30542
  504 -25.5374 0.841587 2.32698
  505 414.486 -7.44380 -60.1331
  506 35.7530 0.182124 -2.04910
  507 35.8149 0.187395 2.02334
  508 345.046 -27.3399 -6.65540
  509 367.551 -31.3791 -14.7713
  510 76.0198 58.5955 -77.4120
  511 308.968 9.15731 -121.062
  512 4.53903 9.44582 5.63761
  513 4.68811 9.46626 -5.55449
  514 190.239 -8.95456 -8.16740
  515 190.147 -8.87533 8.00078
  516 529.117 23.5509 -9.90172
  517 382.067 -22.6816 -24.0097
  518 74.1329 55.4989 76.3427
  519 378.514 -42.6524 12.1070
  520 364.195 -34.6397 11.1150
  521 79.6123 -1.93836 -6.06051
  522 79.6654 -1.93086 6.00269
  523 301.580 3.34075 34.3044
  524 217.447 -16.1345 -14.9802
  525 402.419 -9.16718 13.6305
  526 -1.62534 -9.78516 -7.70771
  527 -1.62937 -9.77724 7.69637
  528 283.139 -24.9500 40.9012
  529 429.379 -32.4628 -30.1784
  530 558.333 40.8434 -22.3334
  531 303.393 -10.6693 -0.301168
  532 92.2831 -1.74439 -1.75882
  533 92.3071 -1.71180 1.74298
  534 192.819 1.66505 59.5003
  535 534.770 90.6015 26.1797
  536 540.566 110.629 -190.904
  537 487.145 3.60954 28.2052
  538 351.349 -38.9762 5.03131
  539 823.677 65.5400 55.6757
  540 612.260 149.568 20.5219
  541 88.4676 -3.70790 15.2066
  542 88.3991 -3.67121 -15.2309
  543 337.867 -28.1355 4.52871
  544 26.0947 12.2046 -6.68229
  545 26.2869 12.1981 6.75891
  546 424.143 -34.9104 30.2268
  547 348.887 18.9577 50.5203
  548 426.514 -2.86533 7.62302
  549 316.384 -19.2257 1.45949
  550 441.466 5.23226 -127.617
  551 697.726 184.085 126.693
  552 342.425 -7.12493 -0.666907
  553 419.267 -4.39999 -12.3965
  554 67.0807 27.8582 -30.3890
  555 67.5649 27.5244 30.2580
  556 241.180 -9.94926 -4.20436
  557 241.071 -9.72039 4.28322
  558 2.92414 -29.2521 -4.03346
  559 428.415 -14.9149 53.2523
  560 17.0245 15.1913 0.888255
  561 17.2866 15.2336 -0.764269
  562 3.40961 -28.2024 4.95065
  563 390.269 -17.7575 -43.3542
  564 448.916 28.7755 -57.5611
  565 447.400 32.5786 57.5939
  566 21.9765 19.3473 17.0957
  567 20.8892 19.7815 -16.7390
  568 -10.9282 0.397473 4.88784
  569 -11.1104 0.401668 -4.87824
  570 411.518 11.8077 131.494
  571 226.920 -12.7430 8.24950
  572 227.145 -12.6983 -8.39757
  573 495.796 -7.44739 -68.1899
  574 66.6623 -0.934756 3.51349
  575 66.6159 -0.949320 -3.55227
  576 32.4309 -0.790094 -0.822923
  577 32.4747 -0.784936 0.813893
  578 545.307 100.219 -20.5931
  579 52.5610 80.2120 -85.2783
  580 288.682 5.85991 -29.0803
  581 405.700 64.7250 -25.4143
  582 6.22169 0.339497 8.26013
  583 6.46764 0.429027 -8.09507
  584 406.624 191.542 223.951
  585 347.632 -10.0202 -2.76871
  586 13.4280 3.53772 -8.34323
  587 13.5946 3.51218 8.38353
  588 401.671 -32.1723 36.7308
  589 62.1019 77.7796 86.8352
  590 290.103 -6.47656 0.450403
  591 290.183 -6.42497 -0.451534
  592 -0.263240 -20.3218 10.0081
  593 -0.231913 -20.2887 -9.97497
  594 494.472 96.1394 -0.791741
  595 313.944 -25.0292 57.7935
  596 299.827 -13.1255 -0.857709
  597 301.358 14.3987 127.682
  598 -24.7389 1.30311 5.96660
  599 -24.7140 1.31018 -5.94177
  600 493.101 7.27803 -30.3933
  601 654.485 113.027 -91.0745
  602 188.533 19.3983 -85.4393
  603 102.928 -4.34214 -18.5098
  604 103.026 -4.34333 18.5133
  605 445.355 -1.55373 2.06550
  606 296.903 -13.4008 0.494870
  607 396.443 -5.68939 4.48975
  608 390.281 -17.7733 42.3187
  609 18.6168 -0.653197 3.11347
  610 18.4778 -0.650434 -3.13650
  611 231.979 -8.33055 -2.46034
  612 231.948 -8.11080 2.38880
  613 145.151 3.14399 -40.0013
  614 144.226 3.18569 39.8304
  615 561.555 34.9994 35.4769
  616 912.713 68.7980 -99.6860
  617 -5.47585 -0.573510 4.25993
  618 -5.66488 -0.571627 -4.25868
  619 137.653 -5.84567 8.37391
  620 137.641 -5.83850 -8.48152
  621 523.974 29.6780 17.0653
  622 440.106 -1.71356 -0.655364
  623 439.154 -2.39661 0.254265
  624 321.494 -0.0517230 33.9500
  625 460.879 -26.3293 -42.1579
  626 251.383 -20.7025 17.8621
  627 -5.27222 5.74154 -5.26927
  628 -5.38388 5.73233 5.33414
  629 402.412 8.41524 63.3999
  630 160.335 -9.26590 -19.3776
  631 160.185 -9.41856 19.4146
  632 327.552 -19.1695 -2.67281
  633 404.214 -9.00202 -12.3194
  634 231.691 -18.4929 -26.6336
  635 379.913 45.8236 -38.5448
  636 256.018 -17.6098 -47.2166
  637 95.5314 -2.56750 -3.15976
  638 95.5555 -2.53767 3.11973
  639 234.077 -18.8182 26.7522
  640 501.407 81.3984 36.3999
  641 399.211 -19.2934 53.3485
  642 326.828 -14.8273 2.57599
  643 234.459 -6.49687 1.55105
  644 234.400 -6.51033 -1.50665
  645 177.270 -6.74312 -5.98926
  646 177.207 -6.67174 5.92850
  647 384.105 -35.2068 -20.7755
  648 195.447 -11.1705 10.4650
  649 195.654 -11.1260 -10.6666
  650 386.477 59.5255 -5.15597
  651 354.985 -18.8546 8.68505
  652 443.059 -2.14059 -3.25108
  653 378.047 -6.84883 -55.9412
  654 55.8705 -2.45138 12.2167
  655 55.7573 -2.43413 -12.2265
  656 432.530 -2.47587 -6.91204
  657 77.9441 40.3103 -54.6356
  658 79.2739 40.2150 54.9022
  659 441.348 -26.0477 57.7463
  660 152.714 38.2693 89.9850
  661 38.6665 -0.260090 12.2183
  662 38.5317 -0.251358 -12.2233
  663 376.219 -23.9361 74.3479
  664 370.262 53.8092 -173.630
  665 362.457 11.5082 -55.9175
  666 476.425 86.2998 31.6223
  667 321.259 -14.5282 -1.14775
  668 577.069 103.577 -2.51785
  669 -27.1113 1.32387 -1.51762
  670 -26.9751 1.32048 1.54787
  671 256.522 1.36248 -90.3504
  672 20.0265 -0.384575 2.38990
  673 19.9240 -0.385541 -2.41372
  674 321.540 -26.9289 -57.1477
  675 107.272 14.6722 -38.6175
  676 106.427 14.7264 38.5985
  677 2.87411 5.39012 -2.71536
  678 3.02252 5.38320 2.77936
  679 273.600 -23.7183 -13.5607
  680 387.045 -3.81715 -21.4426
  681 185.409 -5.88069 -2.14624
  682 185.420 -5.81720 2.16237
  683 134.607 -6.91732 -12.4689
  684 134.714 -7.01264 12.4249
  685 25.6748 21.1100 -7.87652
  686 26.0978 21.1568 8.02051
  687 395.700 -4.96387 2.14865
  688 177.142 -11.3140 16.1995
  689 178.266 -11.1185 -16.1861
  690 438.410 -34.7989 -3.88486
  691 361.713 -36.3722 -7.19456
  692 284.717 -8.32173 -0.485765
  693 283.721 -7.78083 0.622238
  694 398.181 -41.8763 22.7198
  695 645.462 130.399 35.1013
  696 349.968 -15.2092 -92.0978
  697 400.641 -11.2751 22.1518
  698 398.433 -14.7270 -57.3243
  699 125.442 -3.94649 -5.89366
  700 125.446 -3.91762 5.82251
  701 311.345 -4.96992 103.202
  702 864.313 111.099 101.816
  703 60.5777 17.5329 -22.4521
  704 60.6688 17.6506 22.5255
  705 394.362 -4.07491 -1.07025
  706 397.460 -3.67238 1.09569
  707 168.283 86.0540 -145.677
  708 419.329 -2.34670 12.4166
  709 362.649 -6.49864 1.60697
  710 479.092 94.7809 -11.5980
  711 49.7133 8.74171 -16.3219
  712 49.9292 8.68698 16.3826
  713 449.025 -1.20480 0.328206
  714 364.892 -14.2791 -8.59414
  715 454.843 -6.59362 46.2808
  716 187.205 -13.1422 -25.2437
  717 187.674 -12.5828 25.0117
  718 43.9427 -1.49249 9.24533
  719 43.8172 -1.47400 -9.26918
  720 411.999 -2.99996 -2.05639
  721 355.357 71.1260 184.147
  722 2.81939 3.03006 11.5168
  723 2.95251 3.11022 -11.4253
  724 413.184 -4.63345 -5.58040
  725 401.446 -7.56388 7.99128
  726 319.991 0.300615 -36.4129
  727 3.08604 -36.1087 -4.49210
  728 2.88800 -36.4698 4.85558
  729 146.930 39.4618 -89.9994
  730 320.979 -32.1124 -41.4216
  731 167.122 85.2583 147.035
  732 443.353 -1.22348 1.21562
  733 430.088 64.4126 40.5115
  734 315.025 28.5414 -14.3184
  735 561.934 113.223 1.47560
  736 438.198 -1.94348 4.42982
  737 -25.2859 0.640581 3.46726
  738 -25.4642 0.644095 -3.45339
  739 466.777 -26.1650 13.5778
  740 302.823 -8.99241 -0.635356
  741 110.931 0.122619 -27.6204
  742 111.078 0.0129064 27.4673
  743 401.266 -4.91685 -3.14458
  744 707.783 100.145 -36.6387
  745 49.3626 -1.43481 -5.84611
  746 49.4687 -1.44314 5.80566
  747 446.454 -1.31557 -2.02266
  748 90.6394 -4.03994 -8.14688
  749 90.7019 -4.05417 8.08679
  750 437.984 -17.2659 -47.8608
  751 404.745 -4.28338 17.2192
  752 363.995 -2.31919 55.3720
  753 447.002 -1.36681 0.0402137
  754 417.930 -3.35997 4.23582
  755 274.391 -14.9378 -3.45187
  756 343.225 -9.28463 1.98890
  757 390.331 -24.0540 -35.9189
  758 380.651 -24.0145 23.1118
  759 446.548 54.1372 -51.0078
  760 375.383 -21.1884 16.9770
  761 396.764 -23.4679 46.1026
  762 230.762 -15.7194 10.9975
  763 8.46946 -1.70100 -0.204695
  764 8.02759 -1.73055 0.623612
  765 347.309 -5.52054 -0.0575009
  766 346.578 -5.48383 -0.0704682
  767 415.652 -2.07917 -0.210022
  768 417.071 -1.99843 0.306264
  769 397.049 -11.2066 27.2530
  770 366.424 -33.4685 54.0648
  771 301.403 -24.5641 5.28474
  772 267.943 -16.1424 5.48156
  773 721.814 92.4013 42.4130
  774 401.117 -10.3092 -17.3717
  775 235.680 41.4513 -136.523
  776 372.955 -18.5833 -14.6327
  777 15.9471 0.283091 -8.85304
  778 16.1111 0.269453 8.86559
  779 334.997 29.3672 -32.0868
  780 840.562 25.5029 -10.9228
  781 420.184 10.9496 -61.8936
  782 17.0034 12.2655 -33.8803
  783 433.120 77.7906 10.3404
  784 337.303 -21.6125 4.58853
  785 379.435 -9.44428 54.2571
  786 319.357 -33.4904 41.6491
  787 508.972 -1.87363 83.6587
  788 18.3191 16.1654 36.1431
  789 231.311 -1.30796 70.5895
  790 322.440 -8.59181 -0.524937
  791 359.349 -32.0517 -54.7172
  792 221.344 -17.2964 -18.7764
  793 174.956 8.38064 -61.7991
  794 416.427 -6.37143 60.6395
  795 267.581 -18.3725 8.68767
  796 52.9916 -1.48903 5.19019
  797 52.9107 -1.49075 -5.23633
  798 388.235 -2.15135 18.9853
  799 352.816 1.82484 -53.8641
  800 -30.5049 1.40761 3.66057
  801 -30.4586 1.41032 -3.63333
  802 260.407 -8.40130 -1.27897
  803 259.660 -7.96016 1.19478
  804 193.369 21.7167 86.6591
  805 173.021 -10.1814 12.2463
  806 173.256 -9.93687 -12.3694
  807 446.155 -0.977085 -1.07657
  808 157.595 12.5036 60.2551
  809 6.71401 -0.149549 3.30705
  810 6.54389 -0.146286 -3.32046
  811 383.600 -11.8464 41.9001
  812 408.456 -3.69974 1.60537
  813 -21.8326 0.279474 5.98978
  814 -21.8368 0.286621 -5.97768
  815 252.658 -15.8209 52.9425
  816 49.2805 41.6593 -46.4516
  817 49.8793 39.7769 45.7652
  818 241.109 10.6214 5.97696
  819 -2.73054 -0.264428 -3.78863
  820 -2.54043 -0.266920 3.78535
  821 290.269 -27.5273 -39.0417
  822 395.432 -41.3802 -12.0411
  823 -1.97860 -1.87831 -2.49498
  824 -1.97269 -1.87382 2.48565
  825 23.1776 0.661799 -0.790246
  826 23.2313 0.665518 0.776585
  827 351.936 -31.3831 7.80038
  828 296.617 -30.3477 27.4750
  829 328.091 -5.85997 0.642140
  830 295.865 -23.9739 -6.38424
  831 109.884 -1.88218 -0.637061
  832 109.901 -1.83934 0.627141
  833 -34.3848 0.735179 2.06539
  834 -34.3092 0.734247 -2.03855
  835 370.057 -5.10556 -1.39807
  836 329.419 13.0053 -45.8858
  837 374.290 -7.71430 -4.43871
  838 221.812 -17.0052 17.9122
  839 371.358 -6.48699 -44.3850
  840 396.609 -12.1677 -28.1543
  841 371.534 -4.43055 1.24679
  842 271.941 -10.2549 72.3773
  843 290.530 -28.4215 -15.8486
  844 175.592 -1.31509 -47.4959
  845 176.554 -0.0957329 47.7434
  846 247.974 -18.6806 -11.9214
  847 411.098 44.6584 52.9772
  848 389.332 -40.3343 -30.4329
  849 141.684 -4.55483 -2.98431
  850 141.675 -4.48917 2.95526
  851 297.972 -7.09063 0.387942
  852 297.986 -7.14635 -0.318252
  853 355.331 -2.66330 -29.0512
  854 120.914 -5.14371 -10.0745
  855 120.982 -5.18205 9.99277
  856 1.46933 -36.6732 -7.17328
  857 1.39211 -36.8319 7.32475
  858 62.2358 -0.921483 -0.214771
  859 62.1996 -0.939668 0.202878
  860 367.347 -6.07393 -1.95371
  861 279.703 -26.6703 24.8776
  862 433.169 -36.8631 12.5565
  863 256.617 5.37426 22.8868
  864 375.631 -9.12642 5.10932
  865 410.382 -36.6519 -28.1597
  866 60.1968 3.72785 -18.5775
  867 60.3745 3.66547 18.5696
  868 326.434 -6.26199 -0.583613
  869 263.517 -9.41528 -2.54723
  870 262.612 -9.33564 2.78226
  871 406.778 63.2856 28.6388
  872 142.011 -1.45796 -33.2726
  873 141.882 -1.62233 33.1326
  874 282.310 -25.5868 12.7378
  875 27.7863 17.8976 -6.83491
  876 28.0570 17.8641 6.91323
  877 239.014 -16.9911 43.2287
  878 286.279 -18.4276 -3.71001
  879 357.361 -2.75873 29.3543
  880 351.074 -39.4415 14.2723
  881 402.208 -30.5227 -39.7239
  882 279.019 -26.8878 -25.2153
  883 232.415 -15.6566 -10.5570
  884 753.458 61.8310 -11.6639
  885 367.680 -38.9192 4.86025
  886 10.9370 12.2533 3.88855
  887 11.1301 12.2777 -3.78705
  888 319.847 -32.0805 7.31905
  889 350.542 -39.3487 -24.2309
  890 11.7598 10.6406 -0.0741628
  891 11.9297 10.6442 0.152093
  892 133.049 -4.76957 25.3098
  893 133.125 -4.91094 -25.4550
  894 160.868 -8.16782 27.7536
  895 160.807 -8.35913 -27.9384
  896 506.002 101.446 14.0740
  897 -0.735633 -15.6451 -7.46246
  898 -0.740993 -15.6257 7.45693
  899 117.131 9.83543 -36.7454
  900 116.565 9.63644 36.3942
  901 868.788 28.1433 -43.7925
  902 18.6594 -0.0960494 1.34822
  903 18.5787 -0.0988875 -1.36694
  904 1.56298 -41.4851 2.08760
  905 1.81836 -40.7726 -1.48592
  906 -16.7442 -0.197312 6.18052
  907 -16.7634 -0.192073 -6.17863
  908 93.6621 27.4854 -43.2311
  909 95.1084 26.5729 42.6304
  910 -7.19925 0.421402 -12.9586
  911 -7.23581 0.391735 12.9817
  912 27.6814 2.37958 -12.1538
  913 27.8494 2.34871 12.1723
  914 102.371 -1.22400 23.3349
  915 102.297 -1.21883 -23.4482
  916 83.8512 -2.88910 -18.8382
  917 83.9388 -2.88404 18.8102
  918 434.622 -1.67197 -6.83225
  919 212.549 45.7643 127.032
  920 293.411 -28.9696 14.8920
  921 208.985 -15.0252 14.4556
  922 402.101 41.4986 -52.3912
  923 854.395 18.2842 17.4983
  924 475.247 22.1201 -49.0157
  925 80.2238 -3.07345 11.7814
  926 80.1403 -3.03883 -11.8241
  927 15.2004 -0.464370 -8.67534
  928 15.3617 -0.468805 8.67582
  929 -0.196653 -7.24758 -14.0545
  930 -0.259272 -7.30962 14.1019
  931 215.984 -9.63250 6.47518
  932 216.094 -9.81711 -6.50599
  933 26.7502 7.02661 -10.8662
  934 26.9299 6.99525 10.9228
  935 132.117 -5.91639 -21.5086
  936 132.208 -5.91695 21.4957
  937 285.066 -1.18544 -26.9187
  938 136.382 -7.43444 -14.9680
  939 136.293 -7.35570 15.0166
  940 328.827 -9.43445 -0.665553
  941 397.963 -22.7253 -49.5869
  942 174.853 -7.15411 6.89805
  943 174.933 -7.21880 -6.98795
  944 -7.22690 -0.768323 -4.37985
  945 -7.20701 -0.770163 4.37038
  946 404.803 -30.7919 -66.8518
  947 387.986 -22.7895 31.1591
  948 340.503 -23.8987 -6.10930
  949 333.530 11.4693 48.3376
  950 151.991 -8.56977 -16.8437
  951 151.995 -8.40877 16.8951
  952 371.982 14.3400 58.3165
  953 347.875 30.3566 38.4136
  954 704.439 84.5727 14.8860
  955 361.920 -13.1582 6.20104
  956 191.643 -5.80742 -3.10522
  957 191.621 -5.69592 3.13064
  958 324.532 -26.6672 -0.413047
  959 449.624 82.4387 -24.1447
  960 395.795 -4.46070 -2.19142
  961 261.003 -6.57851 1.02456
  962 260.903 -6.52926 -0.950552
  963 33.5181 28.4237 -20.5270
  964 34.3602 28.3771 20.6801
  965 62.6546 162.974 -141.551
  966 372.247 -8.76051 44.1349
  967 462.340 -8.22295 -40.9938
  968 -7.32137 4.49233 2.15297
  969 -7.19888 4.49172 -2.09163
  970 933.611 222.809 -177.457
  971 396.032 -42.9022 3.40861
  972 422.115 -38.7168 -18.0789
  973 390.034 -33.3845 28.0798
  974 483.044 94.9421 9.83427
  975 35.2478 37.6027 -43.3353
  976 89.0317 141.215 139.194
  977 -2.25621 -5.32086 14.0901
  978 -2.21735 -5.27535 -14.0661
  979 379.155 -9.86680 6.44399
  980 608.568 107.528 -13.3435
  981 36.2687 36.7707 45.0251
  982 -1.67165 -5.64756 -4.87038
  983 -1.67194 -5.63184 4.85765
  984 325.646 -7.79795 0.117490
  985 243.709 -19.3995 -19.5986
  986 393.102 -31.0279 -33.5560
  987 112.332 30.2345 -56.9687
  988 114.125 30.7310 57.1161
  989 382.263 -9.47461 -39.3024
  990 384.431 -12.3139 12.2910
  991 -10.0854 2.67763 11.3427
  992 -10.0338 2.70407 -11.3052
  993 232.748 -15.3229 -40.6849
  994 386.141 24.7677 -58.4407
  995 286.782 -10.9132 1.38089
  996 206.966 -6.01785 0.560549
  997 206.926 -6.05637 -0.537038
  998 -4.31362 -4.90065 -10.1249
  999 -4.31976 -4.91125 10.1165
  1000 389.637 -13.9978 -15.2387
  1001 370.741 -4.34701 0.360871
  1002 370.397 -4.35208 -0.211281
  1003 512.858 84.2410 -33.3529
  1004 93.3356 8.02527 -29.0457
  1005 93.5680 7.86510 28.9837
  1006 60.1227 -0.596970 -15.6403
  1007 60.2368 -0.608995 15.6231
  1008 423.004 22.8123 62.6134
  1009 399.344 -7.65341 -8.39119
  1010 71.3100 11.1596 -23.7244
  1011 71.5919 11.0766 23.8113
  1012 416.136 -2.37699 -1.31586
  1013 389.445 -16.8956 -23.3928
  1014 380.314 -42.7736 -17.2257
  1015 14.7847 12.8594 0.368770
  1016 14.3793 12.7980 -0.184247
  1017 -18.1700 3.04944 6.65301
  1018 -18.1031 3.05798 -6.60812
  1019 233.092 8.71704 -9.99577
  1020 656.591 163.605 -46.1269
  1021 301.016 -22.0265 -2.46941
  1022 199.565 -8.71915 -41.8488
  1023 481.558 -18.7839 2.78211
  1024 200.349 -8.70809 42.4292
  1025 345.825 -40.1143 28.1556
  1026 391.984 -16.2270 -35.5193
  1027 135.709 -3.21385 -0.954354
  1028 135.720 -3.15891 0.948291
  1029 268.174 -21.0133 -10.4677
  1030 164.874 -6.18126 -32.6901
  1031 164.815 -6.22815 32.5287
  1032 54.8649 35.9646 -35.4667
  1033 55.7307 35.8654 35.5733
  1034 114.429 -3.65541 -3.38534
  1035 114.439 -3.61114 3.34335
  1036 348.513 -11.2262 3.14864
  1037 294.409 1.53048 -104.437
  1038 361.178 -11.8944 -6.18717
  1039 326.621 -36.0835 -17.2206
  1040 215.448 -9.18730 4.46668
  1041 215.623 -9.25493 -4.48001
  1042 421.778 -2.72372 1.66030
  1043 377.706 -9.14535 -6.03456
  1044 245.621 5.99501 18.8658
  1045 405.263 -4.01998 -16.0229
  1046 157.509 46.2666 101.969
  1047 416.951 -3.89382 -13.0998
  1048 109.707 18.4225 -43.0293
  1049 106.459 18.6281 41.3000
  1050 497.620 -7.81947 -4.72055
  1051 45.6152 23.7000 -18.6664
  1052 46.0326 23.5314 18.6645
  1053 7.82909 -0.111812 4.03928
  1054 8.21428 -0.0396501 -3.78550
  1055 66.1418 -1.75169 4.06070
  1056 66.0825 -1.76285 -4.10919
  1057 179.071 46.8177 -112.876
  1058 963.003 252.888 191.007
  1059 388.394 -13.9887 15.6290
  1060 348.905 -39.1289 -12.9117
  1061 243.004 -19.9797 -31.5787
  1062 -4.73600 5.44412 9.73105
  1063 -4.64233 5.47398 -9.66805
  1064 274.067 -14.2317 2.79202
  1065 302.039 -11.3792 0.413741
  1066 -0.140027 -22.1598 7.18529
  1067 -0.132502 -22.1822 -7.18350
  1068 45.8535 28.3889 -22.1487
  1069 46.3950 28.3379 22.2797
  1070 270.441 -13.0991 -2.66888
  1071 21.8573 9.89551 7.00461
  1072 21.6792 9.90854 -6.93241
  1073 412.404 -16.1494 57.5187
  1074 298.830 -30.9069 -27.3366
  1075 244.445 -20.3006 31.5780
  1076 393.106 -7.76066 -60.7316
  1077 413.691 -4.64892 6.08413
  1078 150.803 23.2552 68.6031
  1079 151.882 22.2545 -67.4665
  1080 242.635 -11.6948 -57.7903
  1081 342.789 -12.4428 -3.16259
  1082 279.153 -16.8869 5.12796
  1083 326.725 -30.5545 -1.85716
  1084 446.832 -1.63614 -3.49207
  1085 242.503 -11.2660 4.85304
  1086 242.398 -11.9032 -4.98683
  1087 8.39575 9.77776 7.68778
  1088 8.59545 9.84933 -7.57281
  1089 396.443 14.7628 -62.8008
  1090 89.7224 4.48241 -25.6820
  1091 89.9620 4.38292 25.6144
  1092 67.6760 1.25676 -18.4757
  1093 67.8226 1.21954 18.4445
  1094 450.862 -17.2478 83.9269
  1095 391.481 -18.0491 34.9725
  1096 192.346 -8.84419 -35.5785
  1097 453.774 -1.83581 -2.08239
  1098 510.789 96.7423 -25.1028
  1099 412.860 -4.07699 -3.77752
  1100 387.738 -41.7040 11.8426
  1101 287.421 -21.7436 50.7999
  1102 456.545 -0.618293 0.357025
  1103 245.167 7.62401 -15.9933
  1104 328.995 -35.1737 -8.46272
  1105 192.658 -9.24383 35.2001
  1106 332.034 -30.2931 -0.0452102
  1107 413.309 -5.99937 11.6014
  1108 298.729 18.8887 24.8680
  1109 206.819 -15.2218 -28.4618
  1110 622.321 90.9216 -39.1239
  1111 469.591 21.7010 51.5832
  1112 352.480 44.0945 6.08158
  1113 451.945 0.00952717 1.81743
  1114 179.753 -11.2579 -21.8800
  1115 122.550 76.3431 -113.550
  1116 218.735 6.03808 -81.8108
  1117 250.934 -19.3471 14.0191
  1118 212.214 -15.9059 26.7214
  1119 179.329 -10.7112 22.0980
  1120 377.240 3.40819 61.1793
  1121 284.826 -10.1374 -1.04347
  1122 445.773 -3.35261 4.74142
  1123 -3.41897 -0.168884 14.0361
  1124 -3.36536 -0.123112 -14.0004
  1125 298.197 -8.75116 0.418715
  1126 -0.0996254 3.54988 12.5750
  1127 -0.00259664 3.60990 -12.5068
  1128 168.559 -5.39689 3.84775
  1129 168.570 -5.48021 -3.85231
  1130 420.649 -2.29170 10.8724
  1131 338.536 -20.8619 -4.97619
  1132 317.234 -17.1277 -1.01982
  1133 354.584 -24.9257 10.8987
  1134 108.789 54.3803 -84.9072
  1135 347.501 -13.3538 4.31273
  1136 53.0410 0.932298 -15.1816
  1137 53.1801 0.906467 15.1712
  1138 73.0270 47.2544 -60.0318
  1139 554.499 73.8647 15.1497
  1140 41.2371 -1.86284 8.87826
  1141 41.1053 -1.84779 -8.89163
  1142 74.3420 46.5452 58.0091
  1143 318.518 -26.7457 -0.868336
  1144 162.364 -7.64397 8.48164
  1145 162.389 -7.67828 -8.61486
  1146 647.810 137.414 -37.4628
  1147 350.724 -35.1415 1.36923
  1148 120.721 71.5100 113.324
  1149 10.4841 -1.34705 -10.0301
  1150 11.2851 -1.21008 10.9712
  1151 370.817 46.4778 30.6981
  1152 28.3161 15.1134 -7.16128
  1153 28.5421 15.1185 7.22701
  1154 353.017 -30.7587 -8.33801
  1155 -0.160071 -34.1750 -6.71360
  1156 -0.176074 -34.1794 6.74420
  1157 377.199 -31.8498 -19.4521
  1158 -4.10184 0.452381 2.95228
  1159 -4.29357 0.455289 -2.95871
  1160 58.5130 21.6503 -23.8705
  1161 58.8292 21.7442 23.6607
  1162 -17.9764 0.0410817 -3.61553
  1163 -17.7782 0.0396821 3.61924
  1164 376.320 -4.36941 -0.426626
  1165 -37.1123 1.10749 0.487377
  1166 -37.0084 1.10695 -0.462599
  1167 200.120 -15.7501 -21.1556
  1168 5.36246 -47.7595 -5.49588
  1169 101.586 -2.90418 6.43407
  1170 101.548 -2.91409 -6.50260
  1171 320.315 -6.40456 0.521287
  1172 320.920 -6.24542 -0.459205
  1173 5.76003 -45.4483 6.65916
  1174 379.594 -19.9128 -19.4354
  1175 432.803 -2.06379 7.96048
  1176 385.740 -24.7535 -28.6596
  1177 338.073 2.55853 47.9575
  1178 1.87192 -13.3646 10.1336
  1179 2.03782 -13.2605 -9.96140
  1180 247.472 -18.0921 11.2584
  1181 -16.7401 1.57770 9.07268
  1182 -16.7090 1.59101 -9.04518
  1183 639.247 101.485 6.95459
  1184 743.485 236.246 -166.209
  1185 394.310 -38.2351 24.1819
  1186 164.326 -4.88576 -0.573311
  1187 164.338 -4.82774 0.573825
  1188 803.445 77.9874 -72.0998
  1189 59.3834 -1.54088 9.21601
  1190 59.2760 -1.51766 -9.24971
  1191 369.179 -1.20375 -18.9628
  1192 237.460 -19.2360 23.9025
  1193 390.035 -38.1500 -17.3019
  1194 377.562 -27.4942 -22.1689
  1195 231.192 -8.07036 60.5541
  1196 86.3003 15.9527 -32.6932
  1197 86.2558 15.8114 32.5127
  1198 113.276 42.0598 -72.2582
  1199 113.432 38.9386 72.2628
  1200 33.0511 9.41366 -11.5228
  1201 33.2449 9.38596 11.5912
  1202 466.118 80.9213 -35.2439
  1203 24.5264 22.5167 -10.5942
  1204 25.0913 22.5517 10.7645
  1205 336.146 -25.8535 4.07174
  1206 625.179 94.2279 43.7780
  1207 81.7350 -3.39073 -6.34165
  1208 81.7963 -3.38958 6.28109
  1209 405.081 288.970 -245.138
  1210 316.331 18.8150 -38.3515
  1211 291.038 22.2726 15.6761
  1212 40.8303 16.9784 -13.6202
  1213 41.0232 16.9792 13.6942
  1214 10.3224 -0.0829951 2.15798
  1215 10.1917 -0.0828630 -2.17615
  1216 372.151 -29.9279 18.1402
  1217 365.823 -14.8457 9.49851
  1218 250.801 72.3464 -176.321
  1219 576.502 125.993 -7.23559
  1220 248.675 -7.43763 -66.6235
  1221 321.621 -10.1617 0.271399
  1222 18.8353 -1.58934 -0.494197
  1223 18.8733 -1.58815 0.491370
  1224 -7.39602 2.52512 -5.04454
  1225 -7.23832 2.51476 5.08218
  1226 216.372 2.45928 -70.0011
  1227 396.688 -8.89854 10.8641
  1228 258.784 5.03721 95.3537
  1229 349.927 -17.4954 -7.00366
  1230 181.204 65.1857 -139.064
  1231 281.170 -13.5067 -71.8872
  1232 334.558 -35.7198 6.59009
  1233 408.943 -6.56563 17.6302
  1234 358.756 -7.78362 -2.44549
  1235 199.287 -14.7912 21.2747
  1236 449.876 -24.9091 -31.6171
  1237 427.729 37.3475 59.2639
  1238 186.993 0.900849 -55.4538
  1239 424.230 -2.83425 1.30106
  1240 343.790 42.6988 -8.68475
  1241 149.868 -5.30041 -6.30347
  1242 149.842 -5.24618 6.23623
  1243 649.829 152.030 39.0170
  1244 884.900 23.5080 41.0126
  1245 0.809244 -41.6839 -6.65900
  1246 0.783415 -41.7298 6.71081
  1247 96.9397 51.5406 79.4979
  1248 231.164 -6.97273 -1.38027
  1249 231.213 -6.93197 1.46567
  1250 315.760 -31.8071 -9.11081
  1251 377.300 31.0294 52.9668
  1252 393.425 -7.96721 -6.88361
  1253 455.929 -1.28539 -0.408300
  1254 789.109 175.765 -111.154
  1255 124.880 -4.74203 6.54853
  1256 124.866 -4.75208 -6.63146
  1257 377.588 -35.0466 18.5353
  1258 660.694 163.523 -52.0862
  1259 366.077 -16.1659 -10.7422
  1260 268.104 -18.7781 -7.92333
  1261 328.745 -35.6971 16.8039
  1262 321.435 -16.2868 1.74648
  1263 12.1232 3.96619 -15.6601
  1264 438.957 -26.3756 37.9980
  1265 355.927 -23.4195 -10.6502
  1266 13.3452 4.58236 17.2684
  1267 365.824 -28.8507 -67.5700
  1268 345.689 22.3423 -144.244
  1269 568.052 73.6488 -9.60059
  1270 457.668 -0.408477 -0.136733
  1271 456.873 -0.830079 0.401653
  1272 361.997 -21.2737 11.6614
  1273 140.257 16.7148 -54.6465
  1274 412.203 -36.4950 30.5828
  1275 699.060 160.227 74.2898
  1276 173.901 60.3464 135.522
  1277 5.01905 0.924249 10.2641
  1278 5.20226 1.01447 -10.1376
  1279 432.612 -34.4166 -36.8775
  1280 175.463 -9.64854 -10.1396
  1281 175.434 -9.67361 9.96220
  1282 403.507 -26.4911 47.4435
  1283 15.9007 0.0915466 9.66214
  1284 15.7400 0.0994625 -9.65802
  1285 -2.17627 -8.38227 11.6462
  1286 -2.16128 -8.36426 -11.6483
  1287 73.2817 -2.51967 -8.40440
  1288 73.3635 -2.53443 8.35238
  1289 212.956 -14.2391 -32.2911
  1290 214.657 -7.26232 2.01116
  1291 214.649 -7.41614 -1.93095
  1292 456.119 -0.396939 0.0958622
  1293 406.555 -6.33434 -19.8584
  1294 34.1440 1.47814 -12.1792
  1295 34.2998 1.45527 12.1848
  1296 213.805 -15.0584 32.0416
  1297 460.396 -0.527756 0.183961
  1298 435.346 -0.565347 -0.491574
  1299 435.324 -0.827767 0.381848
  1300 576.250 122.295 4.44154
  1301 424.561 -3.06130 -3.00852
  1302 377.453 -4.13922 0.293033
  1303 418.103 -6.47016 -10.2555
  1304 453.858 -1.53415 1.40075
  1305 474.799 49.3496 51.1144
  1306 549.770 114.663 11.9766
  1307 441.545 -1.81315 -5.25036
  1308 -3.65431 -0.924092 3.27714
  1309 -3.66899 -0.923436 -3.28722
  1310 246.550 -15.6807 7.80290
  1311 246.503 -14.9978 -7.58473
  1312 479.111 54.6977 -48.5334
  1313 100.567 34.7356 -59.8159
  1314 101.214 33.7913 59.1780
  1315 324.950 0.0452867 -23.9834
  1316 332.635 -5.63796 -0.375961
  1317 332.229 -5.59464 0.306529
  1318 -7.95084 -1.28541 11.8444
  1319 -7.93633 -1.26372 -11.8399
  1320 370.282 -0.965629 18.9286
  1321 561.710 111.656 -2.14858
  1322 41.5509 -1.52875 -5.29522
  1323 41.6545 -1.53230 5.25454
  1324 414.847 -39.6612 16.2108
  1325 0.960374 7.01409 9.87089
  1326 1.08190 7.05655 -9.79233
  1327 78.3873 -1.78373 -1.76878
  1328 78.4203 -1.75661 1.74159
  1329 325.030 -0.457351 24.3504
  1330 15.1616 0.689279 -0.814883
  1331 15.2273 0.691916 0.801163
  1332 421.498 -5.04541 6.56116
  1333 588.012 106.917 5.90390
</Section>

newXOutput 54

<Section columns = "stress_xx | stress_yy | stress_xy">
  1 475.931 -1.29594 0.866573
  2 476.670 -1.65132 -1.12536
  3 10.9049 0.442951 -1.22678
  4 -0.346696 -0.522943 -0.345052
  5 868.926 352.246 285.546
  6 882.311 402.895 -288.488
  7 -0.342929 -0.519642 0.340178
  8 10.8665 0.440459 1.22391
  9 479.143 -0.920291 -0.788063
  10 475.657 -1.67915 -1.14548
  11 476.043 -1.31747 1.02650
  12 473.779 -0.726460 0.424635
  13 472.903 -1.57715 -0.329076
  14 472.253 -1.51943 1.82529
  15 465.565 -1.08350 1.72962
  16 467.463 -3.38169 2.67349
  17 453.156 -2.81445 5.79567
  18 444.128 -1.26770 6.97672
  19 431.638 -1.54473 7.54010
  20 409.866 -1.37068 10.5812
  21 386.095 -1.16127 12.3108
  22 356.353 1.56204 16.9216
  23 315.549 2.42147 15.3417
  24 299.134 -0.119893 21.9870
  25 248.114 3.52907 15.6541
  26 217.031 4.63303 12.2804
  27 208.931 2.28081 9.06048
  28 200.247 6.77982 0.673379
  29 205.005 7.30398 -12.1200
  30 214.548 2.10819 -15.2110
  31 252.748 0.936470 -20.2933
  32 291.210 -1.90629 -21.0373
  33 317.009 2.00794 -15.3136
  34 356.789 1.77630 -16.9239
  35 385.108 -1.37634 -13.1980
  36 412.256 -1.54459 -9.97931
  37 429.947 -1.13080 -7.65946
  38 442.803 -1.34762 -6.39043
  39 456.601 -1.63492 -3.68816
  40 461.922 -1.68048 -3.51775
  41 467.125 -1.58717 -3.10612
  42 472.397 -1.80514 -0.578012
  43 474.398 -2.28614 -1.26492
  44 471.613 0.100296 -0.0428547
  45 475.491 -1.20596 -1.16343
  46 477.467 -2.45667 1.24910
  47 479.721 -1.41583 -0.0553147
  48 455.852 0.205953 -0.718993
  49 429.083 -1.94874 -1.34638
  50 398.749 -4.35475 -1.92084
  51 367.331 -3.70237 -1.39248
  52 339.909 -5.88177 -1.27914
  53 310.953 -6.37392 -1.16382
  54 281.736 -5.59624 -0.559964
  55 251.001 -5.97352 -0.777386
  56 225.006 -6.32424 -1.02911
  57 190.419 -6.03298 -0.832298
  58 154.824 -3.81349 -0.532761
  59 125.390 -2.45329 -0.420103
  60 89.0543 -1.54676 -0.158474
  61 62.6699 -1.48303 -1.80530
  62 38.1700 -2.02182 -0.587863
  63 13.4552 0.228830 1.13084
  64 7.00417 1.72169 0.453330
  65 5.13721 0.698709 1.19915
  66 5.95009 0.314830 1.19656
  67 0.727214 0.989768 0.569032
  68 -1.35876 1.29783 2.48214
  69 -2.36328 0.455874 0.955228
  70 -11.1895 0.966411 1.04202
  71 -15.4154 0.665706 2.40023
  72 -17.2649 0.218516 2.52879
  73 -27.0114 0.904801 2.01491
  74 -30.7848 1.35725 3.71495
  75 -35.0490 0.823606 1.44766
  76 -39.8872 0.600527 2.06495
  77 -42.0113 0.639815 0.908456
  78 -46.7507 1.56075 -0.911504
  79 -47.5022 1.06946 -0.670159
  80 -43.4707 0.805017 -1.40680
  81 -37.4704 1.05998 -2.80508
  82 -30.5603 0.476421 -4.34604
  83 -22.8500 0.264772 -4.55964
  84 -13.7441 -0.453531 -4.79592
  85 -6.00503 -0.365402 -2.81522
  86 -2.52835 -0.992274 -1.76328
  87 -0.417411 -2.53753 -1.53119
  88 -0.697543 -6.48390 -2.70975
  89 -0.796542 -12.6279 -4.73692
  90 -0.148706 -23.6087 -5.09469
  91 0.294074 -32.5649 -6.37543
  92 0.675677 -46.7647 -5.19097
  93 2.03327 -55.3711 -6.09634
  94 0.370716 -59.3473 -4.96269
  95 -0.0654184 -67.7100 -2.82978
  96 1.90086 -64.9579 -0.371817
  97 7.73585 -83.9128 4.10112
  98 7.03652 -42.8168 12.8372
  99 16.6017 -14.7598 27.7658
  100 49.4194 88.0813 84.6723
  101 207.651 277.591 236.385
  102 1138.22 122.343 168.614
  103 954.273 33.7998 60.5040
  104 908.969 14.4163 20.8127
  105 883.912 9.42545 -0.113456
  106 899.906 13.7311 -17.1148
  107 963.069 28.8547 -50.0618
  108 1126.33 96.9779 -156.873
  109 134.883 314.550 -195.638
  110 34.7392 66.3077 -65.6913
  111 12.2441 -22.9183 -23.1718
  112 6.37726 -47.6056 -11.1038
  113 7.69239 -87.3337 -3.26272
  114 1.81570 -66.4730 0.963746
  115 -0.177648 -68.4674 3.13809
  116 0.299258 -59.6391 5.12784
  117 1.99428 -55.4384 6.16608
  118 0.660698 -46.7372 5.21668
  119 0.282734 -32.5177 6.38458
  120 -0.154248 -23.5495 5.09151
  121 -0.797233 -12.5902 4.72674
  122 -0.699053 -6.45150 2.70024
  123 -0.417115 -2.52538 1.52278
  124 -2.51375 -0.990879 1.75625
  125 -5.97912 -0.367048 2.80763
  126 -13.7108 -0.457425 4.79137
  127 -22.8116 0.260473 4.56066
  128 -30.5390 0.471730 4.35424
  129 -37.4798 1.05664 2.82115
  130 -43.5116 0.804759 1.42409
  131 -47.5839 1.06850 0.687023
  132 -46.8661 1.56059 0.929046
  133 -42.1651 0.641488 -0.893181
  134 -40.0698 0.602582 -2.05366
  135 -35.2457 0.825948 -1.43872
  136 -30.9977 1.36003 -3.71130
  137 -27.2301 0.907405 -2.01186
  138 -17.4808 0.220101 -2.52932
  139 -15.6318 0.668444 -2.40366
  140 -11.3960 0.970258 -1.04713
  141 -2.54514 0.458431 -0.964871
  142 -1.51571 1.30046 -2.49655
  143 0.592358 0.990489 -0.581784
  144 5.84922 0.314329 -1.20896
  145 5.06149 0.697466 -1.20911
  146 6.94518 1.71952 -0.461980
  147 13.4107 0.227397 -1.13590
  148 38.1293 -2.02923 0.582663
  149 62.6324 -1.50168 1.79958
  150 89.0264 -1.57985 0.150925
  151 125.374 -2.50118 0.416187
  152 154.810 -3.86903 0.532156
  153 190.395 -6.08097 0.839852
  154 224.949 -6.34795 1.04487
  155 250.908 -5.94305 0.814646
  156 281.604 -5.48568 0.602787
  157 310.772 -6.11367 1.09918
  158 340.057 -5.95659 1.12175
  159 367.442 -4.16461 1.47051
  160 399.060 -4.26993 1.74610
  161 429.932 -1.70160 1.36506
  162 455.113 0.178165 0.699394
  163 266.427 -24.0619 -22.7839
  164 265.365 -24.4999 22.7300
  165 80.6279 22.1814 -32.8008
  166 81.4222 22.2616 32.6623
  167 313.933 -14.7325 82.1302
  168 329.005 -16.6798 -79.9389
  169 155.168 -8.21208 10.5633
  170 155.149 -8.13157 -10.7091
  171 335.251 -11.9818 1.37449
  172 328.588 -12.0157 -1.25622
  173 447.805 80.5930 -11.0343
  174 453.303 3.56893 -56.2617
  175 444.416 7.00839 60.6576
  176 108.087 -4.12032 -22.0959
  177 108.096 -4.09060 22.0533
  178 391.806 -38.7528 19.4767
  179 391.426 -30.1408 -27.8706
  180 5.67054 9.30432 9.12918
  181 5.83282 9.36396 -9.03257
  182 535.250 109.070 15.8284
  183 103.912 46.6531 -73.6094
  184 111.455 47.0862 78.8837
  185 378.832 -17.8568 12.8864
  186 567.977 119.589 -6.23597
  187 246.345 -9.16987 -3.17969
  188 245.951 -9.40220 3.15446
  189 389.346 -12.4754 -11.7994
  190 517.706 -2.29566 -8.86798
  191 97.9205 -2.95220 4.05788
  192 97.8878 -2.97723 -4.11332
  193 42.1822 5.23760 -14.9989
  194 42.3723 5.18387 15.0339
  195 219.709 -8.37847 -51.7028
  196 218.852 -8.83436 52.3635
  197 262.209 -17.1641 -8.24693
  198 262.731 -17.0682 8.75683
  199 69.7601 -2.44009 11.7912
  200 69.6586 -2.40739 -11.8164
  201 512.022 -7.99504 35.1832
  202 419.451 -41.0923 -7.29774
  203 397.999 -4.32006 -1.72099
  204 389.225 -5.21379 1.74197
  205 397.058 46.6285 43.0335
  206 17.2500 15.1050 -6.15888
  207 17.8690 15.0776 6.43466
  208 395.129 -15.8332 50.0355
  209 364.813 27.9272 -49.3909
  210 258.733 59.5283 -167.682
  211 272.061 50.3015 155.826
  212 7.48018 8.78035 -1.45324
  213 7.63532 8.77875 1.52765
  214 393.912 -13.9440 -51.7285
  215 682.362 95.3929 -6.58918
  216 327.353 -35.5985 29.9536
  217 329.795 -35.4024 -28.3714
  218 327.157 -23.5175 -1.16193
  219 404.593 -6.63976 6.22994
  220 197.442 -13.5991 -19.4381
  221 194.377 -13.5456 20.0231
  222 119.099 2.38115 -33.1929
  223 119.270 2.33571 32.9187
  224 415.586 -43.6228 -5.94777
  225 324.459 -24.9869 -0.242769
  226 403.134 -6.49465 -4.82793
  227 314.778 -8.42472 -0.146530
  228 317.487 -7.87979 0.736976
  229 398.547 -17.8643 28.5821
  230 35.8184 0.296265 -12.5841
  231 35.9676 0.280253 12.5832
  232 -4.94800 -3.29163 -13.4368
  233 -4.97389 -3.32381 13.4477
  234 63.1645 -2.70480 -6.84928
  235 63.2512 -2.71131 6.79654
  236 170.098 -5.20457 4.71181
  237 170.135 -5.29367 -4.74724
  238 194.826 13.5989 -75.3130
  239 194.849 11.3600 74.4682
  240 404.092 -12.7039 -24.4491
  241 191.082 -11.1840 -31.4574
  242 191.247 -11.5237 31.0239
  243 357.875 5.60223 55.9166
  244 314.238 26.9511 3.38998
  245 347.225 -34.6425 -0.336768
  246 1.66790 -8.13237 -12.0256
  247 1.55118 -8.22530 12.1271
  248 22.7473 24.0320 -25.9522
  249 24.1929 23.2350 27.2307
  250 341.467 -33.8955 -1.92846
  251 613.354 116.616 -10.8687
  252 32.7147 21.9789 -11.3332
  253 33.1031 21.9711 11.4615
  254 -12.8025 2.92028 8.98931
  255 -12.7353 2.93550 -8.94275
  256 616.306 109.448 14.4009
  257 217.577 -10.6370 -7.78583
  258 217.414 -10.4708 7.63882
  259 423.635 -28.3934 45.9087
  260 761.450 124.002 77.2851
  261 128.336 -6.79132 -18.1891
  262 128.313 -6.83909 18.1724
  263 433.056 64.8685 -40.9566
  264 735.271 139.921 -70.7014
  265 515.454 52.4179 38.2970
  266 557.922 37.4917 -106.247
  267 347.133 -16.6714 4.62266
  268 395.643 2.07740 -62.5170
  269 373.917 -26.5227 -15.6094
  270 416.174 -7.60913 15.4328
  271 1.02291 3.99569 -4.80059
  272 1.17874 3.98321 4.85379
  273 411.958 -12.7569 -102.473
  274 45.4149 13.6955 -15.2097
  275 45.6302 13.6715 15.2910
  276 399.975 -9.70063 -31.5652
  277 58.1017 61.2345 -76.5375
  278 50.4810 -0.248311 -1.59101
  279 50.5292 -0.237897 1.56809
  280 422.152 -25.9937 -47.9637
  281 75.2168 33.7849 -41.2547
  282 76.2973 33.6065 41.3710
  283 23.2517 -0.684105 8.77167
  284 23.0946 -0.675844 -8.77734
  285 346.610 -15.8543 -4.51293
  286 58.5105 60.5897 78.5574
  287 548.617 44.7088 124.221
  288 152.666 -6.13912 -6.43676
  289 152.641 -6.10121 6.34966
  290 277.680 -11.7924 -2.99996
  291 277.546 -12.7350 3.32185
  292 237.051 23.2310 -113.904
  293 381.131 -41.6421 -5.02368
  294 432.579 -2.87536 2.72329
  295 228.374 23.2472 110.255
  296 265.991 -7.55981 -1.02163
  297 265.891 -7.55513 1.24739
  298 374.529 -27.5806 15.8997
  299 429.247 -4.74216 -7.15848
  300 -1.60085 1.59177 -6.92284
  301 -1.42852 1.57984 6.94832
  302 540.876 107.346 -4.14002
  303 472.824 -21.4203 23.5827
  304 426.105 -2.49282 -0.681267
  305 433.440 -2.17683 0.617179
  306 426.004 -36.9263 37.7058
  307 525.311 55.9519 -35.3335
  308 460.985 85.6616 23.3148
  309 207.863 -12.8708 -12.3697
  310 206.000 -13.1023 12.6016
  311 432.042 -2.81017 -1.76903
  312 285.174 -21.4061 -56.6093
  313 280.738 -22.2996 10.4412
  314 267.629 -14.4460 64.4056
  315 425.700 -5.31725 8.59353
  316 98.6620 -4.53011 -11.3831
  317 98.7295 -4.56297 11.3352
  318 392.765 -12.2887 101.261
  319 250.638 -19.9413 -15.3938
  320 459.741 59.3080 51.1262
  321 147.464 10.3388 -49.1246
  322 142.028 10.8128 48.7328
  323 45.0341 -0.916279 -2.88632
  324 45.1081 -0.910293 2.84988
  325 376.426 -7.98174 3.44845
  326 361.082 -5.57262 0.370350
  327 359.080 -6.06362 -0.491153
  328 397.108 -10.2127 33.4667
  329 36.3219 -1.30023 6.57627
  330 36.1877 -1.28827 -6.60492
  331 117.668 -2.85901 -2.39872
  332 117.680 -2.81363 2.37447
  333 3.92448 -17.3392 -6.43102
  334 3.67247 -17.4852 6.73140
  335 310.998 13.5120 38.0300
  336 477.350 -19.9271 -18.7995
  337 309.862 -16.7598 0.336430
  338 349.656 -7.46932 -1.58892
  339 367.943 45.6789 -23.1758
  340 73.2667 -2.36569 -16.4194
  341 73.3634 -2.36763 16.4066
  342 301.390 -15.8271 1.21975
  343 86.5440 2.82992 -23.5639
  344 86.7096 2.75626 23.4946
  345 17.2215 14.1455 -0.803283
  346 17.4267 14.1439 0.891108
  347 365.824 -38.9811 38.3190
  348 805.037 53.0336 20.6853
  349 327.541 5.05693 -44.9989
  350 272.843 -24.4363 35.0932
  351 271.458 -23.9367 -36.1308
  352 402.013 -6.61586 61.8216
  353 358.366 -2.52311 44.3557
  354 361.118 -37.6879 -39.5236
  355 216.387 -5.79984 0.525040
  356 216.352 -5.86363 -0.471874
  357 399.462 -26.0543 37.4692
  358 547.081 108.680 1.92773
  359 427.971 -5.02042 -11.4031
  360 112.066 -4.32416 -8.28310
  361 112.115 -4.32810 8.20385
  362 403.400 -37.7775 -47.4273
  363 424.916 29.9231 -61.5103
  364 287.029 15.4279 -24.4367
  365 402.332 -26.7806 -42.9750
  366 -13.0069 0.508383 -10.3547
  367 -13.0211 0.492102 10.3681
  368 337.907 -8.45433 0.746684
  369 -4.80195 -2.85175 -6.24967
  370 -4.79593 -2.85260 6.23648
  371 260.725 132.992 -203.664
  372 10.8365 9.72852 5.91211
  373 11.0988 9.80433 -5.77138
  374 355.694 -2.66278 -43.9934
  375 196.837 -8.58141 5.87604
  376 196.973 -8.69272 -5.93720
  377 -1.27677 -14.0809 11.8039
  378 -1.25490 -14.0552 -11.7918
  379 212.342 139.311 191.891
  380 161.407 -8.64732 -24.6739
  381 161.536 -8.28310 24.6929
  382 51.7834 38.3995 -38.2974
  383 52.8612 38.2999 38.0841
  384 -19.4584 3.10116 3.42104
  385 -19.3660 3.10622 -3.37090
  386 410.225 27.5527 61.7472
  387 314.410 -32.9166 17.1713
  388 314.744 -28.8094 7.30740
  389 380.693 -43.0747 -6.46382
  390 96.5644 11.9388 -32.5694
  391 96.8866 11.9184 32.5224
  392 8.70282 -11.2566 1.64201
  393 8.23905 -11.4571 -0.980675
  394 387.374 55.2523 15.2019
  395 387.860 -11.4290 9.59064
  396 223.274 -17.4048 22.8311
  397 138.829 -3.57924 -29.4338
  398 138.885 -3.60527 29.2206
  399 283.903 -8.98783 -1.36573
  400 283.602 -7.94369 1.12513
  401 221.417 -17.8649 -24.1913
  402 173.467 -2.99049 -39.6334
  403 173.445 -3.22804 39.9450
  404 404.620 -36.9637 -25.6216
  405 236.154 -18.3036 14.5633
  406 367.989 -11.5964 5.47890
  407 367.277 -10.6139 -4.50616
  408 308.999 -28.6032 -8.40712
  409 441.029 -2.17511 -2.89708
  410 149.669 61.2352 -115.837
  411 416.157 -6.16002 19.0982
  412 439.857 -2.53883 4.40632
  413 158.976 -8.59945 14.9809
  414 159.040 -8.48416 -14.9694
  415 313.004 -32.5245 -17.7118
  416 45.5826 20.0561 16.3993
  417 45.3389 20.0411 -16.4112
  418 813.162 52.9941 -42.2176
  419 360.920 -20.8696 -8.60171
  420 443.845 -1.80617 1.66806
  421 141.425 57.2451 110.412
  422 656.466 110.378 21.8711
  423 386.434 -6.28602 -2.72335
  424 290.204 -21.2727 -6.63562
  425 121.879 23.5196 -55.4393
  426 129.823 21.7899 55.1079
  427 356.671 -22.8497 8.63881
  428 378.980 -4.87200 -32.5330
  429 -1.02101 -0.367109 6.59027
  430 -1.20272 -0.363138 -6.58546
  431 137.547 33.2423 -74.0859
  432 137.986 33.3607 73.8609
  433 17.2515 7.59633 -7.26686
  434 17.4240 7.58005 7.33324
  435 320.157 -6.67226 0.458849
  436 319.772 -6.51093 -0.352186
  437 397.997 -18.2575 -29.9032
  438 -0.881930 -0.881831 14.2876
  439 -0.810440 -0.817999 -14.2342
  440 409.835 -40.2008 22.1531
  441 387.339 -10.7126 -8.42335
  442 625.499 119.637 -19.7227
  443 27.6502 -1.15614 3.12839
  444 27.5329 -1.15634 -3.16003
  445 750.267 213.916 97.3363
  446 15.4893 8.80639 -23.5106
  447 48.2616 2.20295 -16.0584
  448 48.4204 2.16670 16.0577
  449 748.629 218.959 -94.1745
  450 16.4197 10.4941 25.7823
  451 -18.5145 2.37198 0.643826
  452 -18.3950 2.36832 -0.596222
  453 42.7519 29.2838 -22.7872
  454 43.4814 29.2988 22.9086
  455 490.248 77.2815 -41.5119
  456 393.319 -15.5977 -19.0407
  457 441.535 -1.89049 -1.45321
  458 411.048 -6.39089 -22.4686
  459 -4.49869 3.17275 13.0379
  460 -4.42583 3.21394 -12.9873
  461 397.429 -16.2141 22.3030
  462 259.378 -14.8611 -6.58041
  463 258.592 -15.0087 5.72168
  464 350.949 -38.6509 -7.15803
  465 251.014 -3.21195 -78.7715
  466 382.637 -5.84227 33.2186
  467 312.749 -10.5448 0.476023
  468 457.943 -33.5286 -7.37700
  469 243.211 2.49010 84.4042
  470 20.8083 -0.375761 6.36331
  471 20.6481 -0.368494 -6.37643
  472 504.029 99.5847 -18.2408
  473 401.649 -3.39809 0.108961
  474 400.290 -3.79634 -0.468982
  475 304.647 -20.5939 3.13199
  476 134.948 -4.64510 -4.66764
  477 134.944 -4.59235 4.61352
  478 80.0271 -1.02714 -19.4416
  479 80.1223 -1.04289 19.4053
  480 259.249 10.0304 14.6336
  481 66.6469 -2.21876 9.43113
  482 66.5498 -2.19791 -9.47623
  483 70.1936 6.55919 21.9315
  484 69.9616 6.65636 -21.9119
  485 390.738 -30.2818 26.7462
  486 219.823 -13.7003 -37.3167
  487 203.372 -6.82435 3.12124
  488 203.442 -6.98458 -3.12578
  489 222.127 -14.1270 37.3111
  490 609.102 145.407 -15.1027
  491 -9.73439 -1.44620 -8.06975
  492 -9.72884 -1.45393 8.06500
  493 155.392 -4.49988 -1.95304
  494 155.394 -4.43468 1.94547
  495 0.227896 -25.8935 -9.72161
  496 0.163973 -25.9787 9.80906
  497 356.472 -5.81171 0.815618
  498 257.725 12.1900 -7.27868
  499 344.098 36.0061 20.8743
  500 218.306 -1.97945 -62.9925
  501 108.407 -5.57164 14.2691
  502 108.391 -5.52494 -14.2921
  503 -26.0433 0.860569 -2.37234
  504 -25.8788 0.855305 2.39438
  505 422.157 -7.54618 -61.0466
  506 36.7564 0.183655 -2.09816
  507 36.8202 0.189018 2.07196
  508 351.432 -27.8616 -6.65576
  509 374.333 -31.9653 -14.9052
  510 77.5212 59.8269 -79.0107
  511 314.677 9.40084 -123.417
  512 4.68609 9.63979 5.68523
  513 4.83804 9.66071 -5.60046
  514 193.935 -9.14496 -8.38048
  515 193.842 -9.06439 8.21094
  516 538.680 24.1268 -9.82167
  517 389.104 -23.1118 -24.3245
  518 75.5993 56.6743 77.9218
  519 385.480 -43.4129 12.4860
  520 370.919 -35.2813 11.1774
  521 81.3693 -1.98123 -6.20499
  522 81.4241 -1.97361 6.14620
  523 307.455 3.41483 34.8685
  524 221.611 -16.4563 -15.3525
  525 409.764 -9.35915 13.8040
  526 -1.65274 -9.96488 -7.84999
  527 -1.65685 -9.95677 7.83840
  528 288.441 -25.4063 41.7869
  529 437.249 -33.0154 -30.5388
  530 568.363 41.7858 -23.0066
  531 309.041 -10.9048 -0.364764
  532 94.2818 -1.78489 -1.79921
  533 94.3070 -1.75173 1.78310
  534 196.506 1.70362 60.7296
  535 544.532 92.3652 26.3945
  536 550.096 113.071 -194.526
  537 496.019 3.77272 28.4870
  538 357.847 -39.6906 5.26731
  539 838.123 66.6940 56.6648
  540 623.340 152.422 21.1618
  541 90.3268 -3.78786 15.5602
  542 90.2565 -3.75044 -15.5848
  543 344.130 -28.6714 4.48884
  544 26.6828 12.4428 -6.88677
  545 26.8787 12.4364 6.96500
  546 431.921 -35.5143 30.5919
  547 355.549 19.3357 51.3374
  548 434.253 -2.93053 7.72348
  549 322.266 -19.6099 1.38825
  550 449.429 5.50064 -130.098
  551 710.004 187.783 129.283
  552 348.719 -7.29725 -0.645563
  553 426.915 -4.49323 -12.5720
  554 68.4395 28.4095 -31.0741
  555 68.9332 28.0693 30.9410
  556 245.762 -10.1663 -4.33861
  557 245.652 -9.93337 4.41908
  558 2.99067 -29.6242 -4.17270
  559 436.305 -15.1476 54.0293
  560 17.4044 15.5126 0.826352
  561 17.6716 15.5559 -0.699904
  562 3.48566 -28.5549 5.10708
  563 397.500 -18.0806 -44.0122
  564 457.208 29.3610 -58.4033
  565 455.674 33.2362 58.4394
  566 22.4332 19.8234 17.5251
  567 21.3255 20.2654 -17.1618
  568 -10.9458 0.403206 5.00658
  569 -11.1318 0.407476 -4.99671
  570 418.972 12.1798 134.041
  571 231.255 -13.0068 8.48066
  572 231.483 -12.9611 -8.63089
  573 504.715 -7.41925 -69.6260
  574 68.2055 -0.956896 3.59687
  575 68.1576 -0.971712 -3.63630
  576 33.3873 -0.804899 -0.841669
  577 33.4328 -0.799646 0.832483
  578 555.250 102.162 -20.7000
  579 53.5823 82.1044 -87.0093
  580 294.352 5.98476 -29.5611
  581 413.365 65.9368 -25.7978
  582 6.36448 0.405136 8.35569
  583 6.61505 0.496507 -8.18755
  584 413.746 195.523 228.134
  585 354.027 -10.2422 -2.75836
  586 13.8212 3.60170 -8.56003
  587 13.9911 3.57570 8.60126
  588 409.071 -32.7484 37.2346
  589 63.3010 79.6231 88.5977
  590 295.518 -6.63734 0.470404
  591 295.599 -6.58481 -0.471553
  592 -0.263586 -20.6778 10.1799
  593 -0.231683 -20.6441 -10.1463
  594 503.671 97.8947 -0.806484
  595 319.775 -25.4653 58.9932
  596 305.417 -13.4039 -0.946120
  597 306.925 14.7531 130.160
  598 -25.1722 1.33006 6.06377
  599 -25.1469 1.33729 -6.03847
  600 502.073 7.51481 -30.7068
  601 666.010 115.444 -93.0160
  602 192.127 19.7929 -87.1560
  603 105.037 -4.43526 -18.9355
  604 105.138 -4.43654 18.9393
  605 453.337 -1.59499 2.08539
  606 302.444 -13.6841 0.577663
  607 403.640 -5.82601 4.52662
  608 397.511 -18.0985 42.9592
  609 19.2701 -0.666188 3.18947
  610 19.1278 -0.663376 -3.21287
  611 236.403 -8.51744 -2.54124
  612 236.372 -8.29380 2.46841
  613 147.987 3.19902 -40.8616
  614 147.045 3.24161 40.6879
  615 571.623 35.8564 36.3868
  616 928.524 69.9913 -101.392
  617 -5.34690 -0.584988 4.36141
  618 -5.53995 -0.583072 -4.36006
  619 140.426 -5.96972 8.58306
  620 140.414 -5.96235 -8.69252
  621 533.469 30.3604 17.1150
  622 447.968 -1.76537 -0.661598
  623 447.001 -2.45994 0.254014
  624 327.683 -0.0441852 34.5058
  625 469.232 -26.7085 -43.1120
  626 256.139 -21.1053 18.3027
  627 -5.30625 5.85665 -5.32276
  628 -5.42007 5.84722 5.38892
  629 409.918 8.60374 64.3870
  630 163.482 -9.45552 -19.8297
  631 163.330 -9.61106 19.8674
  632 333.626 -19.5522 -2.62369
  633 411.583 -9.18930 -12.4745
  634 236.097 -18.8507 -27.2411
  635 387.122 46.6961 -39.1467
  636 260.840 -17.9342 -48.2155
  637 97.5816 -2.62319 -3.23882
  638 97.6068 -2.59284 3.19811
  639 238.524 -19.1814 27.3637
  640 510.631 82.9588 36.8389
  641 406.608 -19.6311 54.1583
  642 332.881 -15.1352 2.54280
  643 238.927 -6.65126 1.59187
  644 238.866 -6.66491 -1.54670
  645 180.744 -6.89192 -6.14363
  646 180.680 -6.81929 6.08184
  647 391.183 -35.8495 -21.0012
  648 199.232 -11.4024 10.7317
  649 199.442 -11.3570 -10.9368
  650 393.829 60.6413 -5.23462
  651 361.531 -19.2284 8.74354
  652 451.018 -2.19244 -3.28734
  653 385.129 -6.95896 -56.8268
  654 57.1363 -2.50328 12.5019
  655 57.0204 -2.48569 -12.5118
  656 440.353 -2.53461 -7.00408
  657 79.4927 41.1262 -55.7921
  658 80.8479 41.0296 56.0641
  659 449.364 -26.4256 58.9726
  660 155.651 39.0322 91.7938
  661 39.5989 -0.269998 12.5029
  662 39.4611 -0.261094 -12.5078
  663 383.115 -24.3107 75.8585
  664 376.967 55.0107 -176.939
  665 369.325 11.7479 -56.8147
  666 485.269 87.9203 32.0329
  667 327.218 -14.8311 -1.08856
  668 587.656 105.434 -2.56324
  669 -27.5087 1.34871 -1.57168
  670 -27.3698 1.34526 1.60257
  671 261.330 1.42318 -92.1483
  672 20.7356 -0.392538 2.44607
  673 20.6304 -0.393521 -2.47029
  674 327.502 -27.3986 -58.3368
  675 109.402 14.9515 -39.4548
  676 108.541 15.0072 39.4356
  677 3.03180 5.49415 -2.82247
  678 3.18316 5.48714 2.88781
  679 278.745 -24.1758 -13.9252
  680 394.243 -3.88897 -21.7771
  681 189.030 -6.01410 -2.19923
  682 189.041 -5.94951 2.21566
  683 137.312 -7.06160 -12.7696
  684 137.422 -7.15874 12.7249
  685 26.2197 21.5563 -8.12068
  686 26.6508 21.6044 8.26757
  687 402.874 -5.08841 2.15404
  688 180.595 -11.5445 16.5869
  689 181.738 -11.3455 -16.5733
  690 446.412 -35.3771 -3.76638
  691 368.394 -37.0446 -7.18383
  692 290.043 -8.51468 -0.530774
  693 289.030 -7.96418 0.669132
  694 405.479 -42.6015 23.2996
  695 657.145 132.789 35.8818
  696 356.404 -15.4218 -93.9272
  697 407.994 -11.4955 22.4669
  698 405.829 -14.9771 -58.2064
  699 128.009 -4.03387 -6.04194
  700 128.013 -4.00453 5.96958
  701 317.104 -4.99897 105.235
  702 879.418 113.083 103.622
  703 61.8268 17.8730 -22.9762
  704 61.9199 17.9930 23.0512
  705 401.501 -4.18464 -1.07097
  706 404.651 -3.77347 1.09690
  707 171.451 87.8379 -148.520
  708 426.986 -2.40153 12.5965
  709 369.284 -6.65702 1.59523
  710 488.022 96.5227 -11.7368
  711 50.7768 8.90549 -16.7150
  712 50.9971 8.84981 16.7770
  713 457.033 -1.23995 0.327222
  714 371.597 -14.5728 -8.66509
  715 463.176 -6.65253 46.9112
  716 190.823 -13.4027 -25.8179
  717 191.300 -12.8331 25.5819
  718 45.0164 -1.52382 9.46087
  719 44.8879 -1.50498 -9.48503
  720 419.431 -3.08498 -2.06929
  721 361.795 72.6401 187.635
  722 2.90052 3.12538 11.6840
  723 3.03615 3.20717 -11.5908
  724 420.667 -4.74453 -5.63811
  725 408.749 -7.73059 8.07728
  726 326.156 0.316149 -37.0091
  727 3.15213 -36.6903 -4.53571
  728 2.95039 -37.0580 4.90595
  729 149.759 40.2515 -91.8105
  730 326.939 -32.6894 -42.3214
  731 170.280 87.0224 149.900
  732 451.285 -1.26184 1.22358
  733 438.142 65.6295 41.1104
  734 321.160 29.0911 -14.5500
  735 572.246 115.297 1.63714
  736 446.093 -1.99300 4.48298
  737 -25.5983 0.651776 3.55357
  738 -25.7803 0.655349 -3.53936
  739 475.249 -26.5501 14.0249
  740 308.457 -9.19807 -0.691969
  741 113.153 0.115744 -28.2372
  742 113.304 0.00399940 28.0816
  743 408.537 -5.03795 -3.16336
  744 720.462 101.930 -37.3505
  745 50.5593 -1.46555 -5.98957
  746 50.6680 -1.47404 5.94847
  747 454.443 -1.35371 -2.04344
  748 92.5755 -4.12436 -8.34541
  749 92.6397 -4.13888 8.28434
  750 446.025 -17.5345 -48.5331
  751 412.202 -4.36823 17.4796
  752 370.863 -2.34450 56.2579
  753 454.976 -1.40620 0.0477196
  754 425.481 -3.44861 4.27569
  755 279.548 -15.2459 -3.59967
  756 349.543 -9.49433 1.96953
  757 397.536 -24.4979 -36.4348
  758 387.663 -24.4682 23.4077
  759 454.845 55.1810 -51.7518
  760 382.292 -21.5975 17.1739
  761 404.101 -23.8897 46.7877
  762 235.161 -16.0367 11.2907
  763 8.65108 -1.63464 -0.134114
  764 8.20095 -1.66493 0.560909
  765 353.679 -5.66424 -0.0666387
  766 352.935 -5.62692 -0.0635474
  767 423.128 -2.14632 -0.209354
  768 424.570 -2.06445 0.307148
  769 404.366 -11.4217 27.6558
  770 373.162 -34.0398 55.2044
  771 307.032 -25.0397 5.49494
  772 272.989 -16.4721 5.66687
  773 734.713 94.0411 43.2128
  774 408.458 -10.5175 -17.6063
  775 240.086 42.3049 -139.173
  776 379.814 -18.9483 -14.7960
  777 16.4243 0.285196 -9.06936
  778 16.5918 0.271309 9.08230
  779 341.454 29.9347 -32.6045
  780 855.204 25.9456 -11.1073
  781 427.984 11.1922 -62.8381
  782 17.3475 12.8450 -34.6281
  783 441.268 79.2320 10.4898
  784 343.548 -22.0371 4.56787
  785 386.530 -9.60524 55.1129
  786 325.290 -34.0916 42.5535
  787 518.105 -1.71689 85.3658
  788 18.6891 16.8160 36.9340
  789 235.684 -1.31579 72.0231
  790 328.404 -8.79071 -0.489634
  791 365.968 -32.5995 -55.8688
  792 225.572 -17.6371 -19.2278
  793 178.317 8.54836 -63.0737
  794 424.137 -6.45401 61.5632
  795 272.622 -18.7390 8.94700
  796 54.2751 -1.52044 5.31284
  797 54.1921 -1.52218 -5.35976
  798 395.454 -2.19444 19.2802
  799 359.509 1.87568 -54.7339
  800 -31.0323 1.43505 3.71349
  801 -30.9851 1.43782 -3.68572
  802 265.319 -8.59299 -1.34316
  803 264.560 -8.14393 1.25724
  804 197.049 22.1552 88.3969
  805 176.408 -10.3915 12.5488
  806 176.647 -10.1424 -12.6741
  807 454.131 -1.00890 -1.08383
  808 160.641 12.7496 61.5026
  809 7.13106 -0.152475 3.38526
  810 6.95710 -0.149154 -3.39887
  811 390.739 -12.0616 42.5515
  812 415.828 -3.79662 1.61254
  813 -22.2272 0.287151 6.09381
  814 -22.2316 0.294440 -6.08149
  815 257.418 -16.1077 54.0485
  816 50.2757 42.5569 -47.4613
  817 50.8856 40.6403 46.7621
  818 246.006 10.8309 6.07690
  819 -2.52321 -0.271531 -3.87742
  820 -2.32897 -0.274072 3.87413
  821 295.696 -28.0310 -39.8931
  822 402.700 -42.1197 -12.0958
  823 -2.01624 -1.91387 -2.54326
  824 -2.01020 -1.90929 2.53374
  825 23.9688 0.672459 -0.810467
  826 24.0244 0.676240 0.796572
  827 358.445 -31.9724 7.81167
  828 302.160 -30.9094 28.1127
  829 334.146 -6.01038 0.626997
  830 301.398 -24.4391 -6.61283
  831 112.190 -1.92902 -0.655622
  832 112.208 -1.88544 0.645538
  833 -34.9654 0.748150 2.08782
  834 -34.8884 0.747205 -2.06044
  835 376.804 -5.23815 -1.39751
  836 335.757 13.2692 -46.6345
  837 381.126 -7.89145 -4.46587
  838 226.050 -17.3416 18.3464
  839 378.320 -6.60092 -45.0893
  840 403.917 -12.4006 -28.5697
  841 378.305 -4.55097 1.24532
  842 277.032 -10.4200 73.8438
  843 295.969 -28.9596 -16.2638
  844 178.978 -1.34127 -48.4987
  845 179.957 -0.0984932 48.7514
  846 252.673 -19.0515 -12.2389
  847 418.805 45.5194 53.7885
  848 396.475 -41.0337 -31.1497
  849 144.542 -4.65620 -3.06293
  850 144.534 -4.58939 3.03339
  851 303.521 -7.26272 0.419621
  852 303.535 -7.31946 -0.349015
  853 362.049 -2.70860 -29.5171
  854 123.386 -5.25281 -10.3185
  855 123.455 -5.29191 10.2355
  856 1.50059 -37.3017 -7.28308
  857 1.42192 -37.4632 7.43735
  858 63.7114 -0.942680 -0.212363
  859 63.6738 -0.961185 0.200272
  860 374.056 -6.22382 -1.95190
  861 284.952 -27.1722 25.4617
  862 441.087 -37.4884 12.5960
  863 261.759 5.48070 23.2689
  864 382.494 -9.32782 5.14343
  865 417.923 -37.2984 -28.4973
  866 61.4799 3.79305 -19.0091
  867 61.6612 3.72953 19.0012
  868 332.460 -6.41974 -0.569304
  869 268.484 -9.62538 -2.64560
  870 267.563 -9.54442 2.88509
  871 414.458 64.4746 29.0722
  872 144.798 -1.49412 -34.0018
  873 144.668 -1.66152 33.8596
  874 287.607 -26.0781 13.0891
  875 28.3892 18.2587 -7.05170
  876 28.6651 18.2247 7.13166
  877 243.539 -17.3089 44.1523
  878 291.643 -18.7971 -3.87396
  879 364.109 -2.80583 29.8248
  880 357.565 -40.1575 14.6804
  881 409.620 -31.0678 -40.2814
  882 284.255 -27.3936 -25.8053
  883 236.843 -15.9730 -10.8406
  884 766.829 62.9133 -11.8780
  885 374.465 -39.6303 4.79977
  886 11.2034 12.5078 3.89358
  887 11.4003 12.5328 -3.79006
  888 325.798 -32.6830 7.58282
  889 357.021 -40.0559 -24.8222
  890 12.0613 10.8522 -0.143479
  891 12.2345 10.8558 0.222999
  892 135.692 -4.87158 25.8790
  893 135.768 -5.01551 -26.0266
  894 164.010 -8.33377 28.3748
  895 163.947 -8.52851 -28.5627
  896 515.378 103.320 14.2044
  897 -0.747168 -15.9340 -7.59813
  898 -0.752623 -15.9142 7.59245
  899 119.450 10.0194 -37.5440
  900 118.873 9.81689 37.1867
  901 883.873 28.6307 -44.5372
  902 19.3589 -0.0991409 1.38146
  903 19.2758 -0.102029 -1.40050
  904 1.59804 -42.1331 2.07951
  905 1.85831 -41.4074 -1.46664
  906 -17.0532 -0.199247 6.29212
  907 -17.0728 -0.193906 -6.29022
  908 95.5229 28.0241 -44.1624
  909 96.9972 27.0936 43.5506
  910 -7.31309 0.440412 -13.1822
  911 -7.35031 0.410156 13.2058
  912 28.3615 2.42022 -12.4467
  913 28.5329 2.38879 12.4658
  914 104.447 -1.25715 23.8640
  915 104.371 -1.25187 -23.9790
  916 85.6057 -2.95327 -19.2685
  917 85.6954 -2.94815 19.2402
  918 442.505 -1.71130 -6.92725
  919 216.550 46.6974 129.515
  920 298.901 -29.5176 15.2903
  921 213.000 -15.3264 14.8172
  922 409.658 42.2985 -53.2020
  923 869.240 18.5957 17.8008
  924 483.952 22.6041 -49.6773
  925 81.9567 -3.13898 12.0562
  926 81.8711 -3.10369 -12.0996
  927 15.7011 -0.475557 -8.87720
  928 15.8659 -0.480074 8.87781
  929 -0.186188 -7.35495 -14.2910
  930 -0.249973 -7.41818 14.3393
  931 220.131 -9.83953 6.65417
  932 220.243 -10.0274 -6.68545
  933 27.3837 7.15810 -11.1432
  934 27.5670 7.12621 11.2010
  935 134.751 -6.04089 -21.9996
  936 134.845 -6.04154 21.9867
  937 290.670 -1.19597 -27.3654
  938 139.113 -7.58829 -15.3226
  939 139.022 -7.50826 15.3723
  940 334.903 -9.64782 -0.622139
  941 405.327 -23.1287 -50.3326
  942 178.283 -7.30908 7.07865
  943 178.364 -7.37488 -7.17011
  944 -7.36428 -0.781768 -4.46261
  945 -7.34398 -0.783640 4.45294
  946 412.192 -31.2796 -68.2314
  947 395.138 -23.2153 31.5946
  948 346.806 -24.3618 -6.10861
  949 339.932 11.7052 49.1242
  950 154.996 -8.74653 -17.2401
  951 155.001 -8.58267 17.2925
  952 379.008 14.6332 59.2484
  953 354.543 30.9451 39.0297
  954 717.067 86.0656 15.1638
  955 368.569 -13.4324 6.23558
  956 195.371 -5.94141 -3.18776
  957 195.349 -5.82797 3.21366
  958 330.563 -27.1790 -0.302421
  959 458.037 83.9719 -24.4767
  960 402.970 -4.57586 -2.19857
  961 265.924 -6.73845 1.05267
  962 265.823 -6.68828 -0.977392
  963 34.2115 29.0330 -21.0276
  964 35.0696 28.9861 21.1837
  965 63.8089 166.602 -144.291
  966 379.222 -8.91429 44.8334
  967 470.797 -8.30009 -41.5219
  968 -7.37522 4.57912 2.14789
  969 -7.25034 4.57854 -2.08530
  970 949.734 226.871 -180.619
  971 403.305 -43.6649 3.30511
  972 429.825 -39.3709 -18.5857
  973 397.220 -33.9932 28.4373
  974 492.044 96.6864 9.94278
  975 35.9627 38.4860 -44.2857
  976 90.7010 144.412 141.932
  977 -2.28437 -5.40049 14.3345
  978 -2.24479 -5.35412 -14.3101
  979 386.086 -10.0800 6.49487
  980 619.667 109.458 -13.6496
  981 37.0028 37.6388 46.0063
  982 -1.70132 -5.75503 -4.96242
  983 -1.70161 -5.73899 4.94942
  984 331.662 -7.98269 0.0819446
  985 248.330 -19.7769 -20.0727
  986 400.349 -31.5919 -34.0128
  987 114.535 30.8309 -58.1619
  988 116.362 31.3367 58.3122
  989 389.383 -9.64793 -39.9149
  990 391.472 -12.5667 12.4312
  991 -10.2429 2.73782 11.5301
  992 -10.1904 2.76480 -11.4919
  993 237.162 -15.6118 -41.5605
  994 393.413 25.2582 -59.3615
  995 292.146 -11.1526 1.46063
  996 210.960 -6.15861 0.580722
  997 210.920 -6.19775 -0.556793
  998 -4.38832 -4.98611 -10.3103
  999 -4.39455 -4.99690 10.3016
  1000 396.774 -14.2779 -15.4271
  1001 377.495 -4.46640 0.358552
  1002 377.146 -4.47162 -0.206518
  1003 522.270 85.8594 -33.7226
  1004 95.2189 8.17337 -29.6931
  1005 95.4560 8.01028 29.6303
  1006 61.4384 -0.615309 -16.0026
  1007 61.5551 -0.627574 15.9853
  1008 430.864 23.2768 63.5689
  1009 406.615 -7.82206 -8.48161
  1010 72.7741 11.3709 -24.2692
  1011 73.0616 11.2865 24.3580
  1012 423.626 -2.44915 -1.32185
  1013 396.604 -17.2223 -23.7111
  1014 387.308 -43.5317 -17.6984
  1015 15.1051 13.1682 0.460031
  1016 14.6920 13.1054 -0.271984
  1017 -18.4610 3.11079 6.74992
  1018 -18.3929 3.11952 -6.70415
  1019 237.853 8.88542 -10.1626
  1020 668.435 166.683 -47.1988
  1021 306.636 -22.4597 -2.61874
  1022 203.388 -8.88717 -42.7446
  1023 490.295 -19.0340 2.62023
  1024 204.187 -8.87541 43.3363
  1025 352.222 -40.8358 28.8176
  1026 399.226 -16.5297 -36.0473
  1027 138.466 -3.28998 -0.979400
  1028 138.478 -3.23409 0.973240
  1029 273.225 -21.4259 -10.7658
  1030 168.081 -6.30792 -33.4081
  1031 168.022 -6.35576 33.2440
  1032 55.9761 36.7035 -36.2575
  1033 56.8584 36.6030 36.3665
  1034 116.809 -3.73541 -3.47249
  1035 116.821 -3.69037 3.42978
  1036 354.926 -11.4694 3.14023
  1037 299.875 1.60978 -106.488
  1038 367.811 -12.1466 -6.22508
  1039 332.687 -36.7485 -17.6740
  1040 219.587 -9.38624 4.59641
  1041 219.764 -9.45505 -4.60991
  1042 429.368 -2.79936 1.66807
  1043 384.608 -9.34688 -6.08137
  1044 250.585 6.11961 19.1825
  1045 412.731 -4.09674 -16.2661
  1046 160.525 47.1995 104.004
  1047 424.584 -3.97173 -13.2938
  1048 111.873 18.7787 -43.9532
  1049 108.566 18.9877 42.1912
  1050 506.637 -7.84815 -4.57679
  1051 46.5635 24.1725 -19.1216
  1052 46.9890 24.0009 19.1200
  1053 8.00321 -0.0362121 4.04577
  1054 8.39564 0.0374804 -3.78724
  1055 67.6662 -1.78974 4.16194
  1056 67.6052 -1.80109 -4.21125
  1057 182.476 47.7594 -115.108
  1058 979.532 257.565 194.413
  1059 395.514 -14.2682 15.8218
  1060 355.359 -39.8414 -13.2933
  1061 247.605 -20.3598 -32.2831
  1062 -4.77842 5.56010 9.87315
  1063 -4.68296 5.59060 -9.80893
  1064 279.218 -14.5281 2.91965
  1065 307.665 -11.6272 0.484346
  1066 -0.141037 -22.5668 7.31379
  1067 -0.133376 -22.5897 -7.31200
  1068 46.7986 28.9623 -22.6754
  1069 47.3505 28.9106 22.8092
  1070 275.529 -13.3753 -2.79227
  1071 22.3753 10.0865 7.21028
  1072 22.1937 10.0997 -7.13655
  1073 420.026 -16.4187 58.3877
  1074 304.411 -31.4793 -27.9712
  1075 249.072 -20.6867 32.2826
  1076 400.434 -7.87809 -61.6778
  1077 421.186 -4.76065 6.14898
  1078 153.717 23.7132 70.0096
  1079 154.817 22.6923 -68.8511
  1080 247.216 -11.9047 -58.9851
  1081 349.109 -12.7078 -3.14759
  1082 284.394 -17.2288 5.31530
  1083 332.795 -31.1321 -2.01725
  1084 454.865 -1.67664 -3.53303
  1085 247.108 -11.5062 5.01211
  1086 247.001 -12.1550 -5.14797
  1087 8.59665 10.0003 7.76774
  1088 8.80013 10.0734 -7.65055
  1089 403.862 15.0680 -63.7865
  1090 91.5474 4.56031 -26.2603
  1091 91.7918 4.45901 26.1917
  1092 69.1092 1.27258 -18.9040
  1093 69.2590 1.23466 18.8725
  1094 459.027 -17.4261 85.6279
  1095 398.708 -18.3859 35.4868
  1096 196.045 -9.01903 -36.3537
  1097 461.888 -1.87760 -2.10616
  1098 520.210 98.5586 -25.3676
  1099 420.326 -4.17870 -3.80945
  1100 394.873 -42.4554 11.8983
  1101 292.795 -22.1320 51.8687
  1102 464.676 -0.640686 0.355972
  1103 250.122 7.77473 -16.2611
  1104 335.105 -35.8271 -8.75364
  1105 196.363 -9.42614 35.9688
  1106 338.196 -30.8659 0.0804801
  1107 420.837 -6.12961 11.7531
  1108 304.582 19.2586 25.2775
  1109 210.784 -15.5200 -29.1001
  1110 633.400 92.8417 -40.1437
  1111 478.205 22.1707 52.2978
  1112 359.253 44.9322 6.17934
  1113 460.043 -0.000957398 1.83407
  1114 183.242 -11.4851 -22.3861
  1115 124.909 77.9065 -115.813
  1116 222.876 6.17547 -83.4547
  1117 255.684 -19.7286 14.3810
  1118 216.275 -16.2168 27.3288
  1119 182.812 -10.9283 22.6081
  1120 384.331 3.49581 62.1533
  1121 290.157 -10.3626 -1.11633
  1122 453.804 -3.42261 4.80329
  1123 -3.46132 -0.153472 14.2733
  1124 -3.40671 -0.106791 -14.2369
  1125 303.753 -8.95269 0.470946
  1126 -0.0687348 3.64258 12.7698
  1127 0.0301269 3.70381 -12.7002
  1128 171.887 -5.51895 3.93966
  1129 171.898 -5.60372 -3.94427
  1130 428.343 -2.33942 11.0331
  1131 344.801 -21.2728 -4.96354
  1132 323.128 -17.4757 -0.947882
  1133 361.135 -25.4034 10.9793
  1134 110.907 55.4852 -86.6350
  1135 353.904 -13.6341 4.31433
  1136 54.2124 0.943060 -15.5377
  1137 54.3545 0.916744 15.5274
  1138 74.4785 48.2214 -61.2946
  1139 564.545 75.3633 15.1462
  1140 42.2467 -1.90201 9.09037
  1141 42.1120 -1.88667 -9.10385
  1142 75.8190 47.5008 59.2348
  1143 324.444 -27.2589 -1.00251
  1144 165.572 -7.80677 8.69721
  1145 165.597 -7.84161 -8.83275
  1146 659.542 139.938 -38.2939
  1147 357.213 -35.7928 1.25445
  1148 123.051 72.9849 115.585
  1149 10.7081 -1.21486 -10.3098
  1150 11.5243 -1.07506 11.2683
  1151 377.883 47.3617 31.1805
  1152 28.9391 15.4132 -7.38046
  1153 29.1695 15.4184 7.44759
  1154 359.545 -31.3372 -8.35955
  1155 -0.162574 -34.7927 -6.82966
  1156 -0.178868 -34.7970 6.86079
  1157 384.153 -32.4392 -19.6641
  1158 -3.89756 0.459549 3.02149
  1159 -4.09351 0.462512 -3.02800
  1160 59.7145 22.0756 -24.4260
  1161 60.0370 22.1715 24.2125
  1162 -18.1005 0.0412284 -3.70029
  1163 -17.8982 0.0398061 3.70413
  1164 383.166 -4.48810 -0.417986
  1165 -37.7239 1.12809 0.480166
  1166 -37.6180 1.12755 -0.454882
  1167 203.971 -16.0611 -21.6512
  1168 5.47141 -48.4306 -5.66009
  1169 103.730 -2.96887 6.59296
  1170 103.690 -2.97892 -6.66264
  1171 326.237 -6.56502 0.538714
  1172 326.852 -6.40311 -0.475557
  1173 5.87717 -46.0762 6.84555
  1174 386.577 -20.2971 -19.6770
  1175 440.659 -2.11106 8.07129
  1176 392.850 -25.2159 -29.0497
  1177 344.527 2.61671 48.7379
  1178 1.91753 -13.5561 10.2804
  1179 2.08653 -13.4500 -10.1050
  1180 252.162 -18.4530 11.5631
  1181 -17.0261 1.61164 9.22489
  1182 -16.9944 1.62523 -9.19688
  1183 650.848 103.295 7.10388
  1184 756.465 240.902 -169.466
  1185 401.568 -38.9249 24.4601
  1186 167.582 -4.99729 -0.591380
  1187 167.594 -4.93827 0.591913
  1188 817.605 79.3662 -73.3983
  1189 60.7391 -1.57455 9.43555
  1190 60.6291 -1.55088 -9.46974
  1191 376.111 -1.22600 -19.2638
  1192 241.970 -19.6090 24.4582
  1193 397.211 -38.8391 -17.4575
  1194 384.522 -28.0082 -22.4390
  1195 235.568 -8.21155 61.8010
  1196 88.0370 16.2590 -33.4164
  1197 87.9921 16.1150 33.2326
  1198 115.489 42.8978 -73.7433
  1199 115.649 39.7169 73.7483
  1200 33.7926 9.59263 -11.8190
  1201 33.9903 9.56449 11.8889
  1202 474.783 82.4444 -35.7197
  1203 25.0439 23.0039 -10.8960
  1204 25.6194 23.0399 11.0697
  1205 342.375 -26.3517 4.03161
  1206 636.292 96.2222 44.8939
  1207 83.5212 -3.46131 -6.49849
  1208 83.5842 -3.46015 6.43692
  1209 412.079 294.872 -249.671
  1210 322.468 19.1871 -38.9787
  1211 296.770 22.7023 15.9354
  1212 41.7009 17.3100 -13.9683
  1213 41.8976 17.3109 14.0438
  1214 10.8470 -0.0853679 2.20807
  1215 10.7131 -0.0852332 -2.22655
  1216 379.015 -30.4866 18.3356
  1217 372.547 -15.1478 9.58321
  1218 255.446 73.8676 -179.702
  1219 587.050 128.322 -7.54855
  1220 253.357 -7.56061 -67.9832
  1221 327.578 -10.3883 0.216383
  1222 19.5590 -1.61709 -0.504071
  1223 19.5986 -1.61587 0.501194
  1224 -7.39955 2.57250 -5.18193
  1225 -7.23869 2.56197 5.22040
  1226 220.477 2.52148 -71.4259
  1227 403.926 -9.08875 10.9920
  1228 263.629 5.17347 97.2448
  1229 356.384 -17.8466 -7.03549
  1230 184.628 66.5114 -141.781
  1231 286.422 -13.7298 -73.3450
  1232 340.765 -36.3820 6.84740
  1233 416.427 -6.70099 17.8829
  1234 365.329 -7.96577 -2.44037
  1235 203.124 -15.0848 21.7725
  1236 458.097 -25.3060 -31.9889
  1237 435.692 38.0806 60.1628
  1238 190.579 0.921142 -56.6069
  1239 431.849 -2.91210 1.30970
  1240 350.415 43.5098 -8.82520
  1241 152.865 -5.41719 -6.45843
  1242 152.839 -5.36203 6.39004
  1243 661.463 155.047 40.0636
  1244 900.227 23.9140 41.7088
  1245 0.826130 -42.4313 -6.77262
  1246 0.799816 -42.4779 6.82535
  1247 98.8380 52.6000 81.1288
  1248 235.575 -7.13529 -1.43005
  1249 235.625 -7.09385 1.51693
  1250 321.639 -32.4050 -9.40652
  1251 384.438 31.6349 53.8049
  1252 400.590 -8.14425 -6.95027
  1253 464.038 -1.31927 -0.419031
  1254 803.095 178.955 -113.225
  1255 127.433 -4.84347 6.71617
  1256 127.417 -4.85366 -6.80051
  1257 384.550 -35.6913 18.7264
  1258 672.512 166.759 -53.3610
  1259 372.811 -16.4913 -10.8428
  1260 273.153 -19.1522 -8.16807
  1261 334.849 -36.3540 17.2502
  1262 327.400 -16.6195 1.68904
  1263 12.3804 4.23423 -16.0560
  1264 446.998 -26.8127 38.4916
  1265 362.497 -23.8722 -10.7311
  1266 13.6261 4.86181 17.6942
  1267 372.548 -29.3236 -68.9576
  1268 352.011 22.8691 -147.016
  1269 578.315 75.1542 -9.48536
  1270 465.801 -0.427841 -0.138140
  1271 464.996 -0.856706 0.407524
  1272 368.670 -21.6883 11.7659
  1273 142.987 17.0399 -55.7898
  1274 419.778 -37.1379 30.9632
  1275 711.627 163.170 75.7845
  1276 177.207 61.5808 138.176
  1277 5.13972 0.990881 10.4021
  1278 5.32638 1.08293 -10.2733
  1279 440.489 -34.9751 -37.7243
  1280 178.898 -9.84978 -10.3945
  1281 178.869 -9.87541 10.2141
  1282 410.955 -26.9618 48.1405
  1283 16.3984 0.0903577 9.88792
  1284 16.2342 0.0984186 -9.88358
  1285 -2.21005 -8.52814 11.8561
  1286 -2.19478 -8.50982 -11.8584
  1287 74.9054 -2.57399 -8.60438
  1288 74.9894 -2.58904 8.55153
  1289 217.026 -14.5159 -33.0046
  1290 218.783 -7.42706 2.07684
  1291 218.775 -7.58356 -1.99521
  1292 464.242 -0.415839 0.104272
  1293 414.010 -6.46313 -20.1465
  1294 34.9587 1.49999 -12.4720
  1295 35.1177 1.47670 12.4779
  1296 217.891 -15.3502 32.7513
  1297 468.574 -0.545377 0.190008
  1298 443.133 -0.598297 -0.501004
  1299 443.109 -0.865554 0.389607
  1300 586.722 124.647 4.24992
  1301 432.207 -3.14286 -3.03425
  1302 384.317 -4.25386 0.282103
  1303 425.696 -6.60897 -10.3894
  1304 461.961 -1.57271 1.41366
  1305 483.539 50.3245 51.8211
  1306 559.835 116.838 11.9611
  1307 449.521 -1.85558 -5.32038
  1308 -3.72537 -0.940678 3.33996
  1309 -3.74034 -0.940014 -3.35025
  1310 251.226 -16.0001 8.03122
  1311 251.178 -15.3047 -7.80842
  1312 487.928 55.7719 -49.1895
  1313 102.547 35.4282 -61.0668
  1314 103.207 34.4663 60.4174
  1315 331.192 0.0495971 -24.3744
  1316 338.763 -5.78476 -0.398102
  1317 338.350 -5.74070 0.327347
  1318 -8.08717 -1.30134 12.0561
  1319 -8.07242 -1.27923 -12.0517
  1320 377.231 -0.984414 19.2287
  1321 572.025 113.701 -2.31574
  1322 42.6200 -1.55895 -5.42084
  1323 42.7262 -1.56256 5.37950
  1324 422.452 -40.3560 16.3292
  1325 1.02356 7.16690 10.0066
  1326 1.14739 7.21025 -9.92655
  1327 80.1404 -1.82367 -1.81522
  1328 80.1747 -1.79608 1.78757
  1329 331.272 -0.461230 24.7478
  1330 15.8083 0.700406 -0.835476
  1331 15.8761 0.703086 0.821520
  1332 429.125 -5.15909 6.63723
  1333 598.776 108.836 6.07183
</Section>

newXOutput 55

<Section columns = "stress_xx | stress_yy | stress_xy">
  1 484.193 -1.32779 0.881866
  2 484.942 -1.68855 -1.14517
  3 11.4962 0.449995 -1.24665
  4 -0.354108 -0.533374 -0.352881
  5 883.237 358.941 290.519
  6 896.841 410.485 -293.499
  7 -0.350268 -0.530008 0.347913
  8 11.4560 0.447461 1.24374
  9 487.454 -0.943527 -0.801714
  10 483.920 -1.71539 -1.16663
  11 484.320 -1.34747 1.03949
  12 482.031 -0.748535 0.425324
  13 481.152 -1.61150 -0.341401
  14 480.510 -1.55336 1.84699
  15 473.738 -1.11099 1.74563
  16 475.685 -3.44397 2.70655
  17 461.177 -2.86869 5.87598
  18 452.034 -1.29742 7.07476
  19 439.375 -1.57711 7.64848
  20 417.294 -1.39976 10.7407
  21 393.174 -1.18373 12.5004
  22 362.982 1.58844 17.1888
  23 321.549 2.46320 15.5871
  24 304.873 -0.115496 22.3427
  25 253.046 3.59802 15.9096
  26 221.458 4.71992 12.4833
  27 213.226 2.33278 9.21109
  28 204.401 6.90882 0.685636
  29 209.237 7.43945 -12.3222
  30 218.932 2.15125 -15.4638
  31 257.751 0.961902 -20.6272
  32 296.824 -1.93300 -21.3769
  33 323.031 2.04282 -15.5580
  34 363.424 1.80593 -17.1906
  35 392.171 -1.40244 -13.4019
  36 419.715 -1.57472 -10.1289
  37 437.660 -1.15642 -7.76992
  38 450.687 -1.37975 -6.47848
  39 464.675 -1.66769 -3.73651
  40 470.056 -1.71824 -3.56214
  41 475.321 -1.62222 -3.14673
  42 480.653 -1.84387 -0.579465
  43 482.672 -2.33315 -1.27870
  44 479.831 0.0916137 -0.0369860
  45 483.758 -1.23471 -1.17900
  46 485.754 -2.50611 1.27218
  47 488.040 -1.44612 -0.0555215
  48 463.811 0.191940 -0.731526
  49 436.632 -2.01083 -1.36885
  50 405.825 -4.46841 -1.94947
  51 373.909 -3.81106 -1.41262
  52 346.045 -6.03081 -1.29737
  53 316.615 -6.53178 -1.17949
  54 286.916 -5.73801 -0.564528
  55 255.669 -6.11930 -0.785454
  56 229.238 -6.47015 -1.04115
  57 194.065 -6.16783 -0.840627
  58 157.866 -3.90259 -0.538096
  59 127.929 -2.51170 -0.423573
  60 90.9729 -1.58341 -0.156860
  61 64.1384 -1.51368 -1.83394
  62 39.2224 -2.05811 -0.595618
  63 14.0869 0.232652 1.15246
  64 7.51996 1.75040 0.464834
  65 5.61347 0.710055 1.22406
  66 6.42702 0.319841 1.22322
  67 1.09657 1.00607 0.586809
  68 -1.04065 1.31972 2.53500
  69 -2.08778 0.463935 0.982558
  70 -11.0924 0.983450 1.07092
  71 -15.4133 0.676608 2.45311
  72 -17.3237 0.221263 2.58562
  73 -27.2771 0.920079 2.06441
  74 -31.1419 1.38092 3.79645
  75 -35.5184 0.837989 1.48880
  76 -40.4683 0.611321 2.11620
  77 -42.6619 0.650984 0.938282
  78 -47.5196 1.59023 -0.916292
  79 -48.3071 1.08961 -0.672714
  80 -44.2251 0.819457 -1.42354
  81 -38.1321 1.08050 -2.84826
  82 -31.1117 0.486720 -4.42082
  83 -23.2705 0.270919 -4.64096
  84 -13.9999 -0.460412 -4.88299
  85 -6.12076 -0.371323 -2.86796
  86 -2.57828 -1.01035 -1.79702
  87 -0.424839 -2.58668 -1.56114
  88 -0.709210 -6.60952 -2.76071
  89 -0.810222 -12.8637 -4.82351
  90 -0.149880 -24.0447 -5.18533
  91 0.300723 -33.1562 -6.48632
  92 0.689347 -47.6079 -5.28003
  93 2.07357 -56.3564 -6.19855
  94 0.380405 -60.3736 -5.03812
  95 -0.0644523 -68.8501 -2.85894
  96 1.93518 -65.9882 -0.343525
  97 7.87978 -85.2165 4.21856
  98 7.18133 -43.2758 13.1475
  99 16.9280 -14.5608 28.3852
  100 50.3414 90.4119 86.3510
  101 211.214 283.402 240.640
  102 1156.94 124.485 171.337
  103 970.304 34.3754 61.4861
  104 924.306 14.6618 21.1473
  105 898.880 9.58215 -0.115614
  106 915.116 13.9649 -17.3928
  107 979.224 29.3450 -50.8683
  108 1144.86 98.6507 -159.383
  109 137.218 321.108 -199.159
  110 35.3911 68.2428 -67.0194
  111 12.4866 -22.8726 -23.7032
  112 6.50888 -48.1536 -11.3809
  113 7.83515 -88.7006 -3.36431
  114 1.84827 -67.5309 0.946360
  115 -0.178752 -69.6210 3.17288
  116 0.307649 -60.6704 5.20626
  117 2.03385 -56.4246 6.26952
  118 0.674091 -47.5795 5.30618
  119 0.289178 -33.1080 6.49560
  120 -0.155522 -23.9842 5.18206
  121 -0.810922 -12.8252 4.81311
  122 -0.710745 -6.57648 2.75100
  123 -0.424535 -2.57429 1.55257
  124 -2.56340 -1.00892 1.78984
  125 -6.09433 -0.372999 2.86021
  126 -13.9659 -0.464378 4.87833
  127 -23.2313 0.266538 4.64198
  128 -31.0898 0.481937 4.42916
  129 -38.1416 1.07709 2.86463
  130 -44.2667 0.819191 1.44117
  131 -48.3902 1.08862 0.689912
  132 -47.6372 1.59006 0.934187
  133 -42.8187 0.652682 -0.922685
  134 -40.6545 0.613407 -2.10465
  135 -35.7190 0.840370 -1.47965
  136 -31.3591 1.38375 -3.79268
  137 -27.5003 0.922729 -2.06127
  138 -17.5440 0.222876 -2.58612
  139 -15.6344 0.679397 -2.45657
  140 -11.3033 0.987366 -1.07609
  141 -2.27372 0.466537 -0.992346
  142 -1.20131 1.32239 -2.54964
  143 0.958375 1.00681 -0.599770
  144 6.32339 0.319332 -1.23584
  145 5.53540 0.708793 -1.23419
  146 7.45891 1.74820 -0.473630
  147 14.0407 0.231195 -1.15761
  148 39.1802 -2.06566 0.590335
  149 64.0995 -1.53265 1.82814
  150 90.9438 -1.61707 0.149189
  151 127.913 -2.56040 0.419598
  152 157.851 -3.95906 0.537490
  153 194.041 -6.21661 0.848321
  154 229.180 -6.49421 1.05719
  155 255.575 -6.08823 0.823351
  156 286.783 -5.62548 0.608057
  157 316.432 -6.26701 1.11384
  158 346.195 -6.10705 1.13747
  159 374.022 -4.28148 1.49190
  160 406.141 -4.38213 1.77170
  161 437.494 -1.75949 1.38786
  162 463.062 0.163617 0.711690
  163 271.354 -24.5127 -23.3173
  164 270.274 -24.9591 23.2619
  165 82.2224 22.6052 -33.5192
  166 83.0319 22.6867 33.3782
  167 319.645 -14.9576 83.7498
  168 334.973 -16.9376 -81.5181
  169 158.194 -8.38007 10.8208
  170 158.175 -8.29804 -10.9689
  171 341.329 -12.2364 1.33054
  172 334.556 -12.2710 -1.20944
  173 456.054 82.0541 -11.1898
  174 461.482 3.69026 -57.0553
  175 452.456 7.18471 61.5388
  176 110.243 -4.20800 -22.5897
  177 110.253 -4.17780 22.5466
  178 398.881 -39.4439 19.6663
  179 398.501 -30.6857 -28.2225
  180 5.81980 9.50693 9.23792
  181 5.98510 9.56782 -9.13948
  182 544.916 111.066 15.9245
  183 105.912 47.5768 -75.1002
  184 113.590 48.0170 80.4701
  185 385.659 -18.2044 13.0168
  186 578.164 121.797 -6.12402
  187 250.936 -9.37063 -3.28452
  188 250.535 -9.60708 3.25896
  189 396.336 -12.7282 -11.9254
  190 526.868 -2.20474 -9.25768
  191 99.9777 -3.01541 4.16223
  192 99.9438 -3.04086 -4.21858
  193 43.1049 5.33092 -15.3542
  194 43.2988 5.27624 15.3901
  195 223.810 -8.53030 -52.7676
  196 222.938 -8.99372 53.4410
  197 267.068 -17.5041 -8.48887
  198 267.599 -17.4064 9.00797
  199 71.2717 -2.49245 12.0638
  200 71.1678 -2.45912 -12.0893
  201 521.071 -7.99234 36.0269
  202 426.988 -41.7951 -7.25062
  203 405.074 -4.43279 -1.72464
  204 396.161 -5.34498 1.74326
  205 404.421 47.5032 43.6871
  206 17.6111 15.4676 -6.36886
  207 18.2415 15.4401 6.64977
  208 402.329 -16.1108 50.7913
  209 371.631 28.4612 -50.1642
  210 263.428 60.7482 -170.842
  211 276.998 51.3358 158.769
  212 7.71062 8.94927 -1.54327
  213 7.86876 8.94772 1.61919
  214 401.099 -14.1856 -52.5144
  215 694.426 97.0520 -6.72308
  216 333.319 -36.2341 30.6341
  217 335.801 -36.0354 -29.0231
  218 333.118 -23.9681 -1.07276
  219 411.802 -6.79040 6.28708
  220 201.184 -13.8669 -19.8902
  221 198.065 -13.8126 20.4854
  222 121.422 2.41848 -33.9099
  223 121.597 2.37230 33.6310
  224 423.049 -44.3675 -6.22832
  225 330.375 -25.4636 -0.358387
  226 410.314 -6.64395 -4.86352
  227 320.507 -8.61851 -0.183870
  228 323.261 -8.06419 0.784128
  229 405.741 -18.1972 28.9763
  230 36.6687 0.297056 -12.8763
  231 36.8210 0.280750 12.8756
  232 -5.02504 -3.33862 -13.6694
  233 -5.05139 -3.37140 13.6804
  234 64.5990 -2.75988 -7.01191
  235 64.6879 -2.76652 6.95833
  236 173.396 -5.32138 4.82915
  237 173.433 -5.41200 -4.86515
  238 198.474 13.8681 -76.8141
  239 198.498 11.5874 75.9536
  240 411.371 -12.9477 -24.7872
  241 194.699 -11.4016 -32.1421
  242 194.867 -11.7476 31.7013
  243 364.545 5.72263 56.8024
  244 320.266 27.4625 3.44441
  245 353.534 -35.2774 -0.206709
  246 1.71365 -8.23545 -12.2075
  247 1.59479 -8.33016 12.3109
  248 23.2120 24.6283 -26.5533
  249 24.6845 23.8170 27.8551
  250 347.677 -34.5175 -2.09784
  251 624.178 118.893 -11.3716
  252 33.3957 22.4194 -11.6420
  253 33.7914 22.4117 11.7729
  254 -12.9941 2.98028 9.12553
  255 -12.9256 2.99581 -9.07809
  256 627.151 111.617 14.9768
  257 221.678 -10.8580 -7.99698
  258 221.513 -10.6889 7.84755
  259 431.278 -28.8767 46.5461
  260 774.736 126.182 78.7092
  261 130.872 -6.93018 -18.6030
  262 130.849 -6.97892 18.5863
  263 441.018 66.0710 -41.5503
  264 748.164 142.404 -72.0501
  265 524.680 53.4627 38.7257
  266 567.648 38.4404 -108.354
  267 353.421 -17.0040 4.61413
  268 402.902 2.14294 -63.4787
  269 380.676 -27.0174 -15.7633
  270 423.625 -7.76364 15.6383
  271 1.16334 4.06926 -4.94198
  272 1.32222 4.05658 4.99631
  273 419.305 -12.8761 -104.462
  274 46.3687 13.9541 -15.5807
  275 46.5881 13.9298 15.6637
  276 407.231 -9.87939 -32.0342
  277 59.2323 62.5872 -78.0971
  278 51.7359 -0.255422 -1.63001
  279 51.7858 -0.244829 1.60671
  280 429.779 -26.4323 -48.6378
  281 76.6952 34.4494 -42.1391
  282 77.7959 34.2681 42.2580
  283 23.9173 -0.699123 8.97252
  284 23.7568 -0.690709 -8.97817
  285 352.886 -16.1738 -4.50620
  286 59.6496 61.9297 80.1529
  287 558.173 45.8190 126.642
  288 155.659 -6.26927 -6.60237
  289 155.633 -6.23075 6.51382
  290 282.798 -12.0422 -3.11835
  291 282.661 -13.0013 3.44705
  292 241.418 23.7078 -116.100
  293 388.017 -42.3823 -4.95736
  294 440.209 -2.95149 2.74484
  295 232.589 23.7285 112.388
  296 270.909 -7.73477 -1.06493
  297 270.808 -7.73007 1.29444
  298 381.301 -28.0925 16.0557
  299 436.865 -4.84806 -7.24054
  300 -1.46880 1.61897 -7.09388
  301 -1.29302 1.60682 7.11996
  302 550.674 109.258 -4.14314
  303 481.268 -21.7348 23.7907
  304 433.611 -2.56658 -0.681905
  305 441.060 -2.24185 0.617796
  306 433.625 -37.5209 38.5532
  307 534.693 57.0668 -35.6992
  308 469.439 87.2222 23.6231
  309 211.792 -13.1291 -12.6793
  310 209.898 -13.3647 12.9155
  311 439.657 -2.88620 -1.77599
  312 290.407 -21.7806 -57.7660
  313 285.912 -22.7274 10.7396
  314 272.558 -14.6926 65.7024
  315 433.271 -5.43349 8.69642
  316 100.702 -4.62329 -11.6470
  317 100.771 -4.65678 11.5983
  318 399.796 -12.4136 103.225
  319 255.298 -20.3255 -15.7794
  320 468.109 60.4268 51.8466
  321 150.281 10.5327 -50.1445
  322 144.747 11.0161 49.7463
  323 46.1802 -0.935228 -2.95673
  324 46.2563 -0.929139 2.91968
  325 383.170 -8.16276 3.45862
  326 367.562 -5.71489 0.357740
  327 365.527 -6.21479 -0.480380
  328 404.325 -10.4004 33.9667
  329 37.2627 -1.32723 6.73148
  330 37.1254 -1.31506 -6.76054
  331 120.073 -2.92290 -2.45743
  332 120.086 -2.87674 2.43278
  333 4.00977 -17.5768 -6.49612
  334 3.75314 -17.7255 6.80200
  335 316.943 13.7786 38.6419
  336 485.868 -20.1997 -18.9171
  337 315.526 -17.0963 0.252722
  338 355.960 -7.64534 -1.57166
  339 374.849 46.5296 -23.5340
  340 74.8147 -2.41802 -16.7908
  341 74.9136 -2.42004 16.7780
  342 306.910 -16.1471 1.32931
  343 88.2913 2.87398 -24.0901
  344 88.4604 2.79898 24.0198
  345 17.6172 14.4256 -0.894094
  346 17.8263 14.4242 0.983674
  347 372.435 -39.6556 39.1576
  348 818.924 53.9406 21.0459
  349 333.735 5.16810 -45.7191
  350 277.875 -24.8842 35.8564
  351 276.464 -24.3746 -36.9130
  352 409.356 -6.71196 62.7643
  353 365.025 -2.55959 45.0545
  354 367.650 -38.3397 -40.3836
  355 220.473 -5.93606 0.555008
  356 220.438 -6.00091 -0.500918
  357 406.688 -26.5216 37.9908
  358 556.981 110.615 1.89132
  359 435.599 -5.12878 -11.5545
  360 114.353 -4.41487 -8.48207
  361 114.403 -4.41892 8.40151
  362 410.638 -38.3996 -48.4407
  363 432.685 30.5043 -62.4322
  364 292.598 15.7267 -24.8331
  365 409.617 -27.2549 -43.5881
  366 -13.2291 0.523186 -10.5327
  367 -13.2435 0.506589 10.5463
  368 344.020 -8.64780 0.711700
  369 -4.88842 -2.90229 -6.36486
  370 -4.88227 -2.90315 6.35140
  371 265.369 135.704 -207.453
  372 11.0780 9.95692 5.95011
  373 11.3451 10.0343 -5.80675
  374 362.312 -2.70115 -44.6870
  375 200.587 -8.76353 6.03668
  376 200.725 -8.87678 -6.09888
  377 -1.29384 -14.3220 12.0079
  378 -1.27158 -14.2958 -11.9957
  379 216.172 142.138 195.477
  380 164.511 -8.82069 -25.2243
  381 164.644 -8.45000 25.2436
  382 52.8122 39.1919 -39.1335
  383 53.9098 39.0913 38.9165
  384 -19.7476 3.16163 3.45171
  385 -19.6535 3.16681 -3.40059
  386 417.757 28.0867 62.6869
  387 320.158 -33.5189 17.6139
  388 320.499 -29.3475 7.56281
  389 387.568 -43.8342 -6.73735
  390 98.4673 12.1599 -33.2775
  391 98.7959 12.1394 33.2299
  392 8.88319 -11.3397 1.74912
  393 8.41096 -11.5441 -1.07571
  394 394.610 56.2732 15.4304
  395 394.818 -11.6649 9.68491
  396 227.459 -17.7397 23.3561
  397 141.520 -3.65643 -30.0765
  398 141.578 -3.68298 29.8598
  399 289.123 -9.18929 -1.43665
  400 288.816 -8.12673 1.19167
  401 225.569 -18.2076 -24.7410
  402 176.763 -3.05250 -40.4730
  403 176.741 -3.29434 40.7908
  404 411.919 -37.6151 -25.9127
  405 240.566 -18.6602 14.9268
  406 374.610 -11.8399 5.50583
  407 373.882 -10.8410 -4.52024
  408 314.655 -29.1380 -8.68122
  409 448.801 -2.23696 -2.92132
  410 152.480 62.4544 -118.095
  411 423.641 -6.28395 19.3715
  412 447.625 -2.60517 4.45284
  413 162.058 -8.77461 15.3340
  414 162.123 -8.65716 -15.3223
  415 318.727 -33.1198 -18.1637
  416 46.5228 20.4444 16.8015
  417 46.2744 20.4289 -16.8134
  418 827.173 53.9005 -42.9461
  419 367.448 -21.2723 -8.64992
  420 451.634 -1.86166 1.68190
  421 144.092 58.3949 112.575
  422 668.126 112.321 22.3262
  423 393.334 -6.43575 -2.72862
  424 295.539 -21.6844 -6.86004
  425 124.224 23.9705 -56.5819
  426 132.313 22.2064 56.2435
  427 363.132 -23.2857 8.68204
  428 385.942 -4.95867 -33.0357
  429 -0.826207 -0.375598 6.74302
  430 -1.01167 -0.371558 -6.73801
  431 140.165 33.8892 -75.5752
  432 140.612 34.0097 75.3460
  433 17.6874 7.73809 -7.47055
  434 17.8633 7.72157 7.53833
  435 325.972 -6.83603 0.448961
  436 325.580 -6.67187 -0.340582
  437 405.185 -18.5967 -30.3175
  438 -0.876441 -0.870823 14.5173
  439 -0.803640 -0.805748 -14.4629
  440 417.218 -40.9030 22.3770
  441 394.284 -10.9370 -8.50091
  442 636.667 121.764 -20.1949
  443 28.4748 -1.17893 3.20526
  444 28.3546 -1.17914 -3.23740
  445 763.372 217.857 99.2803
  446 15.8016 9.22431 -24.0536
  447 49.3211 2.23837 -16.4277
  448 49.4833 2.20147 16.4272
  449 761.748 223.007 -96.1091
  450 16.7506 10.9422 26.3672
  451 -18.7627 2.41506 0.620505
  452 -18.6410 2.41136 -0.571942
  453 43.6159 29.8787 -23.3231
  454 44.3591 29.8944 23.4471
  455 499.130 78.7287 -42.0417
  456 400.398 -15.8991 -19.2793
  457 449.289 -1.94552 -1.46308
  458 418.463 -6.51382 -22.7963
  459 -4.54847 3.24781 13.2440
  460 -4.47426 3.28982 -13.1926
  461 404.587 -16.5234 22.5959
  462 264.189 -15.1621 -6.77784
  463 263.390 -15.3122 5.90472
  464 357.320 -39.3474 -7.43068
  465 255.647 -3.24715 -80.3301
  466 389.653 -5.94594 33.7294
  467 318.449 -10.7755 0.538820
  468 466.116 -34.0540 -7.70712
  469 247.705 2.56534 86.0667
  470 21.4555 -0.385316 6.51075
  471 21.2918 -0.377914 -6.52400
  472 513.198 101.390 -18.4329
  473 408.772 -3.49482 0.100824
  474 407.392 -3.90034 -0.466649
  475 310.225 -20.9952 3.29048
  476 137.644 -4.74493 -4.78435
  477 137.639 -4.69129 4.72933
  478 81.6743 -1.05559 -19.8803
  479 81.7717 -1.07166 19.8436
  480 264.367 10.2276 14.8733
  481 68.1255 -2.26555 9.65002
  482 68.0261 -2.24430 -9.69581
  483 71.6273 6.67701 22.4292
  484 71.3907 6.77591 -22.4090
  485 397.799 -30.8314 27.0806
  486 223.936 -13.9586 -38.1153
  487 207.236 -6.97658 3.21474
  488 207.308 -7.13955 -3.21929
  489 226.282 -14.3929 38.1100
  490 619.970 148.081 -15.6005
  491 -9.90743 -1.46955 -8.21448
  492 -9.90173 -1.47742 8.20961
  493 158.442 -4.60135 -2.00345
  494 158.444 -4.53505 1.99577
  495 0.236416 -26.3265 -9.87651
  496 0.171332 -26.4131 9.96551
  497 362.882 -5.95799 0.797361
  498 262.822 12.4228 -7.39719
  499 350.611 36.6815 21.2024
  500 222.376 -2.00712 -64.2647
  501 110.605 -5.68540 14.5973
  502 110.588 -5.63778 -14.6206
  503 -26.3824 0.874296 -2.44008
  504 -26.2147 0.868940 2.46259
  505 429.818 -7.64696 -61.9515
  506 37.7709 0.185145 -2.14754
  507 37.8367 0.190599 2.12090
  508 357.809 -28.3830 -6.65178
  509 381.104 -32.5508 -15.0340
  510 79.0238 61.0618 -80.6131
  511 320.377 9.64683 -125.772
  512 4.83531 9.83419 5.73065
  513 4.99015 9.85560 -5.64423
  514 197.633 -9.33591 -8.59546
  515 197.538 -9.25400 8.42301
  516 548.222 24.7073 -9.73243
  517 396.129 -23.5417 -24.6343
  518 77.0669 57.8535 79.5045
  519 392.434 -44.1712 12.8700
  520 377.633 -35.9220 11.2345
  521 83.1342 -2.02423 -6.35043
  522 83.1905 -2.01650 6.29066
  523 313.333 3.48930 35.4292
  524 225.773 -16.7785 -15.7278
  525 417.095 -9.55161 13.9745
  526 -1.68001 -10.1443 -7.99204
  527 -1.68417 -10.1360 7.98020
  528 293.737 -25.8617 42.6759
  529 445.104 -33.5652 -30.8915
  530 578.368 42.7339 -23.6878
  531 314.681 -11.1412 -0.430308
  532 96.2883 -1.82556 -1.83983
  533 96.3145 -1.79184 1.82345
  534 200.193 1.74243 61.9617
  535 554.276 94.1296 26.5995
  536 559.595 115.525 -198.145
  537 504.874 3.93941 28.7598
  538 364.335 -40.4037 5.50808
  539 852.519 67.8443 57.6508
  540 634.394 155.275 21.8097
  541 92.1913 -3.86807 15.9160
  542 92.1193 -3.82993 -15.9408
  543 350.383 -29.2071 4.44464
  544 27.2739 12.6812 -7.09397
  545 27.4737 12.6748 7.17381
  546 439.684 -36.1157 30.9495
  547 362.210 19.7141 52.1489
  548 441.976 -2.99606 7.82240
  549 328.142 -19.9945 1.31364
  550 457.372 5.77515 -132.581
  551 722.241 191.486 131.877
  552 355.003 -7.47070 -0.623080
  553 434.547 -4.58674 -12.7455
  554 69.8007 28.9613 -31.7628
  555 70.3039 28.6147 31.6275
  556 250.343 -10.3842 -4.47467
  557 250.231 -10.1472 4.55675
  558 3.05760 -29.9892 -4.31418
  559 444.181 -15.3783 54.7978
  560 17.7863 15.8349 0.761601
  561 18.0585 15.8792 -0.632691
  562 3.56209 -28.9004 5.26574
  563 404.722 -18.4029 -44.6641
  564 465.487 29.9479 -59.2363
  565 463.935 33.8952 59.2757
  566 22.8912 20.3033 17.9581
  567 21.7629 20.7530 -17.5881
  568 -10.9564 0.408880 5.12619
  569 -11.1462 0.413224 -5.11605
  570 426.409 12.5571 136.588
  571 235.587 -13.2711 8.71428
  572 235.820 -13.2246 -8.86666
  573 513.611 -7.38485 -71.0662
  574 69.7579 -0.979133 3.68077
  575 69.7084 -0.994200 -3.72087
  576 34.3555 -0.819664 -0.860516
  577 34.4027 -0.814316 0.851175
  578 565.173 104.105 -20.7971
  579 54.6037 84.0091 -88.7431
  580 300.026 6.11009 -30.0389
  581 421.024 67.1475 -26.1776
  582 6.50811 0.472917 8.44895
  583 6.76330 0.566131 -8.27772
  584 420.843 199.513 232.312
  585 360.411 -10.4652 -2.74587
  586 14.2192 3.66555 -8.77883
  587 14.3925 3.63909 8.82100
  588 416.459 -33.3228 37.7314
  589 64.4999 81.4787 90.3630
  590 300.926 -6.79926 0.490786
  591 301.009 -6.74579 -0.491952
  592 -0.263758 -21.0325 10.3510
  593 -0.231280 -20.9982 -10.3168
  594 512.859 99.6467 -0.821208
  595 325.598 -25.8998 60.1958
  596 311.000 -13.6831 -1.03696
  597 312.483 15.1103 132.639
  598 -25.6040 1.35709 6.16030
  599 -25.5783 1.36446 -6.13453
  600 511.027 7.75521 -31.0109
  601 677.497 117.870 -94.9633
  602 195.719 20.1882 -88.8750
  603 107.151 -4.52869 -19.3636
  604 107.253 -4.53006 19.3677
  605 461.298 -1.63663 2.10462
  606 307.979 -13.9683 0.662934
  607 410.823 -5.96351 4.56184
  608 404.731 -18.4229 43.5938
  609 19.9340 -0.679174 3.26603
  610 19.7884 -0.676312 -3.28979
  611 240.826 -8.70515 -2.62328
  612 240.794 -8.47762 2.54916
  613 150.825 3.25386 -41.7249
  614 149.866 3.29734 41.5486
  615 581.664 36.7200 37.3042
  616 944.274 71.1800 -103.091
  617 -5.20950 -0.596469 4.46358
  618 -5.40658 -0.594522 -4.46214
  619 143.204 -6.09410 8.79385
  620 143.191 -6.08653 -8.90514
  621 542.944 31.0468 17.1551
  622 455.810 -1.81778 -0.667623
  623 454.827 -2.52383 0.253596
  624 333.870 -0.0363100 35.0582
  625 477.565 -27.0830 -44.0710
  626 260.892 -21.5083 18.7466
  627 -5.33783 5.97193 -5.37450
  628 -5.45381 5.96227 5.44195
  629 417.414 8.79333 65.3659
  630 166.631 -9.64549 -20.2844
  631 166.476 -9.80390 20.3229
  632 339.691 -19.9352 -2.57116
  633 418.938 -9.37703 -12.6268
  634 240.500 -19.2084 -27.8519
  635 394.326 47.5684 -39.7437
  636 265.659 -18.2580 -49.2175
  637 99.6391 -2.67903 -3.31850
  638 99.6654 -2.64816 3.27712
  639 242.969 -19.5445 27.9785
  640 519.840 84.5190 37.2690
  641 413.994 -19.9676 54.9605
  642 338.925 -15.4438 2.50681
  643 243.392 -6.80657 1.63306
  644 243.331 -6.82040 -1.58712
  645 184.221 -7.04130 -6.29932
  646 184.156 -6.96743 6.23652
  647 398.250 -36.4908 -21.2208
  648 203.017 -11.6347 11.0007
  649 203.231 -11.5884 -11.2092
  650 401.177 61.7559 -5.31255
  651 368.067 -19.6025 8.79836
  652 458.958 -2.24463 -3.32273
  653 392.203 -7.06823 -57.7056
  654 58.4088 -2.55530 12.7889
  655 58.2903 -2.53738 -12.7988
  656 448.157 -2.59370 -7.09475
  657 81.0429 41.9435 -56.9522
  658 82.4234 41.8456 57.2296
  659 457.363 -26.7989 60.2027
  660 158.587 39.7959 93.6050
  661 40.5380 -0.280057 12.7892
  662 40.3972 -0.270980 -12.7941
  663 389.998 -24.6821 77.3717
  664 383.658 56.2181 -180.246
  665 376.189 11.9884 -57.7054
  666 494.100 89.5394 32.4367
  667 333.168 -15.1347 -1.02662
  668 598.223 107.286 -2.60852
  669 -27.9015 1.37353 -1.62663
  670 -27.7599 1.37003 1.65817
  671 266.133 1.48513 -93.9481
  672 21.4563 -0.400502 2.50258
  673 21.3483 -0.401502 -2.52721
  674 333.457 -27.8666 -59.5288
  675 111.533 15.2308 -40.2953
  676 110.657 15.2878 40.2760
  677 3.19320 5.59819 -2.93156
  678 3.34750 5.59110 2.99823
  679 283.885 -24.6333 -14.2931
  680 401.431 -3.96071 -22.1089
  681 192.653 -6.14810 -2.25261
  682 192.665 -6.08244 2.26933
  683 140.022 -7.20620 -13.0723
  684 140.134 -7.30516 13.0270
  685 26.7665 22.0041 -8.36817
  686 27.2056 22.0533 8.51795
  687 410.032 -5.21389 2.15823
  688 184.050 -11.7754 16.9768
  689 185.213 -11.5729 -16.9632
  690 454.399 -35.9518 -3.64124
  691 375.064 -37.7159 -7.16798
  692 295.363 -8.70865 -0.576985
  693 294.333 -8.14858 0.717201
  694 412.765 -43.3238 23.8843
  695 668.801 135.173 36.6654
  696 362.828 -15.6316 -95.7585
  697 415.334 -11.7159 22.7782
  698 413.215 -15.2258 -59.0808
  699 130.580 -4.12158 -6.19141
  700 130.586 -4.09177 6.11785
  701 322.854 -5.02559 107.269
  702 894.471 115.061 105.423
  703 63.0787 18.2131 -23.5036
  704 63.1738 18.3355 23.5801
  705 408.624 -4.29538 -1.07104
  706 411.825 -3.87554 1.09746
  707 174.616 89.6262 -151.365
  708 434.628 -2.45668 12.7744
  709 375.905 -6.81647 1.58205
  710 496.941 98.2615 -11.8728
  711 51.8442 9.06912 -17.1109
  712 52.0688 9.01249 17.1743
  713 465.019 -1.27548 0.326000
  714 378.291 -14.8670 -8.73286
  715 471.494 -6.70885 47.5326
  716 194.441 -13.6635 -26.3952
  717 194.927 -13.0837 26.1551
  718 46.0981 -1.55520 9.67770
  719 45.9667 -1.53601 -9.70218
  720 426.844 -3.17087 -2.08132
  721 368.218 74.1594 191.120
  722 2.98264 3.22205 11.8492
  723 3.12076 3.30548 -11.7543
  724 428.134 -4.85631 -5.69417
  725 416.037 -7.89799 8.16102
  726 332.320 0.332070 -37.6015
  727 3.21848 -37.2677 -4.57774
  728 3.01305 -37.6421 4.95474
  729 152.588 41.0422 -93.6241
  730 332.891 -33.2649 -43.2247
  731 173.436 88.7908 152.766
  732 459.197 -1.30067 1.23103
  733 446.187 66.8456 41.7029
  734 327.297 29.6408 -14.7801
  735 582.540 117.366 1.80304
  736 453.969 -2.04291 4.53508
  737 -25.9044 0.662935 3.64057
  738 -26.0900 0.666568 -3.62604
  739 483.702 -26.9308 14.4783
  740 314.084 -9.40476 -0.750075
  741 115.379 0.108556 -28.8569
  742 115.533 -0.00521622 28.6988
  743 415.792 -5.15990 -3.18076
  744 733.108 103.711 -38.0623
  745 51.7647 -1.49637 -6.13410
  746 51.8761 -1.50502 6.09237
  747 462.411 -1.39226 -2.06362
  748 94.5182 -4.20896 -8.54538
  749 94.5841 -4.22378 8.48333
  750 454.052 -17.8007 -49.1968
  751 419.648 -4.45315 17.7376
  752 377.726 -2.36904 57.1375
  753 462.929 -1.44601 0.0554427
  754 433.015 -3.53803 4.31418
  755 284.700 -15.5545 -3.75023
  756 355.851 -9.70502 1.94823
  757 404.730 -24.9410 -36.9448
  758 394.664 -24.9216 23.6986
  759 463.131 56.2251 -52.4874
  760 389.189 -22.0065 17.3663
  761 411.428 -24.3104 47.4657
  762 239.559 -16.3545 11.5868
  763 8.83339 -1.56469 -0.0608282
  764 8.37500 -1.59573 0.495489
  765 360.037 -5.80914 -0.0760432
  766 359.281 -5.77121 -0.0563511
  767 430.585 -2.21435 -0.208531
  768 432.050 -2.13135 0.307867
  769 411.671 -11.6368 28.0544
  770 379.888 -34.6083 56.3473
  771 312.655 -25.5153 5.70885
  772 278.031 -16.8023 5.85489
  773 747.576 95.6760 44.0117
  774 415.786 -10.7260 -17.8375
  775 244.487 43.1606 -141.825
  776 386.661 -19.3135 -14.9553
  777 16.9077 0.287198 -9.28730
  778 17.0786 0.273062 9.30064
  779 347.910 30.5025 -33.1187
  780 869.793 26.3867 -11.2908
  781 435.773 11.4361 -63.7739
  782 17.6922 13.4370 -35.3791
  783 449.409 80.6714 10.6374
  784 349.783 -22.4620 4.54351
  785 393.617 -9.76537 55.9621
  786 331.215 -34.6912 43.4613
  787 527.214 -1.55312 87.0760
  788 19.0597 17.4788 37.7281
  789 240.054 -1.32299 73.4593
  790 334.360 -8.99067 -0.452808
  791 372.575 -33.1448 -57.0238
  792 229.799 -17.9781 -19.6824
  793 181.678 8.71631 -64.3512
  794 431.836 -6.53502 62.4784
  795 277.659 -19.1060 9.20947
  796 55.5679 -1.55190 5.43627
  797 55.4827 -1.55366 -5.48396
  798 402.663 -2.23758 19.5726
  799 366.198 1.92716 -55.5979
  800 -31.5574 1.46250 3.76578
  801 -31.5095 1.46533 -3.73747
  802 270.228 -8.78563 -1.40869
  803 269.457 -8.32865 1.32104
  804 200.727 22.5944 90.1370
  805 179.797 -10.6019 12.8537
  806 180.040 -10.3483 -12.9811
  807 462.085 -1.04113 -1.09065
  808 163.687 12.9958 62.7530
  809 7.55842 -0.155389 3.46397
  810 7.38059 -0.152012 -3.47778
  811 397.869 -12.2764 43.1975
  812 423.184 -3.89433 1.61893
  813 -22.6210 0.294912 6.19743
  814 -22.6255 0.302343 -6.18489
  815 262.174 -16.3940 55.1573
  816 51.2724 43.4579 -48.4751
  817 51.8936 41.5070 47.7629
  818 250.911 11.0405 6.17629
  819 -2.30652 -0.278695 -3.96676
  820 -2.10815 -0.281284 3.96347
  821 301.116 -28.5337 -40.7478
  822 409.955 -42.8571 -12.1444
  823 -2.05387 -1.94941 -2.59155
  824 -2.04770 -1.94473 2.58184
  825 24.7723 0.683063 -0.830859
  826 24.8298 0.686907 0.816731
  827 364.944 -32.5611 7.81820
  828 307.697 -31.4702 28.7541
  829 340.191 -6.16199 0.610933
  830 306.925 -24.9044 -6.84503
  831 114.503 -1.97616 -0.674399
  832 114.522 -1.93184 0.664152
  833 -35.5430 0.761080 2.10962
  834 -35.4646 0.760123 -2.08171
  835 383.539 -5.37184 -1.39603
  836 342.095 13.5337 -47.3784
  837 387.950 -8.06953 -4.49108
  838 230.286 -17.6783 18.7836
  839 385.275 -6.71441 -45.7883
  840 411.214 -12.6333 -28.9809
  841 385.063 -4.67252 1.24300
  842 282.118 -10.5840 75.3126
  843 301.403 -29.4974 -16.6828
  844 182.364 -1.36748 -49.5045
  845 183.360 -0.101279 49.7624
  846 257.369 -19.4228 -12.5594
  847 426.504 46.3806 54.5925
  848 403.605 -41.7302 -31.8710
  849 147.404 -4.75795 -3.14227
  850 147.397 -4.69000 3.11225
  851 309.063 -7.43595 0.452113
  852 309.077 -7.49369 -0.380606
  853 368.761 -2.75367 -29.9797
  854 125.862 -5.36220 -10.5644
  855 125.933 -5.40206 10.4799
  856 1.53196 -37.9274 -7.39184
  857 1.45184 -38.0917 7.54890
  858 65.1967 -0.963951 -0.209729
  859 65.1577 -0.982774 0.197441
  860 380.753 -6.37477 -1.94879
  861 290.195 -27.6736 26.0495
  862 448.990 -38.1105 12.6285
  863 266.909 5.58727 23.6488
  864 389.345 -9.53004 5.17540
  865 425.452 -37.9426 -28.8279
  866 62.7673 3.85804 -19.4432
  867 62.9523 3.79338 19.4355
  868 338.477 -6.57869 -0.554140
  869 273.447 -9.83638 -2.74564
  870 272.511 -9.75410 2.98958
  871 422.132 65.6625 29.5014
  872 147.588 -1.53056 -34.7341
  873 147.456 -1.70098 34.5897
  874 292.899 -26.5692 13.4440
  875 28.9945 18.6204 -7.27153
  876 29.2757 18.5859 7.35316
  877 248.061 -17.6264 45.0791
  878 297.002 -19.1670 -4.04106
  879 370.853 -2.85269 30.2921
  880 364.046 -40.8719 15.0931
  881 417.020 -31.6112 -40.8317
  882 289.486 -27.8990 -26.3989
  883 241.270 -16.2899 -11.1269
  884 780.160 63.9920 -12.0918
  885 381.239 -40.3400 4.73400
  886 11.4719 12.7630 3.89609
  887 11.6725 12.7886 -3.79055
  888 331.741 -33.2849 7.85079
  889 363.489 -40.7613 -25.4178
  890 12.3656 11.0639 -0.215241
  891 12.5421 11.0678 0.296353
  892 138.337 -4.97393 26.4511
  893 138.414 -5.12041 -26.6011
  894 167.153 -8.49998 28.9991
  895 167.088 -8.69816 -29.1900
  896 524.740 105.191 14.3299
  897 -0.758607 -16.2225 -7.73351
  898 -0.764156 -16.2022 7.72769
  899 121.771 10.2031 -38.3458
  900 121.184 9.99716 37.9824
  901 898.902 29.1163 -45.2785
  902 20.0705 -0.102260 1.41494
  903 19.9851 -0.105197 -1.43430
  904 1.63330 -42.7756 2.06964
  905 1.89845 -42.0367 -1.44560
  906 -17.3617 -0.201115 6.40345
  907 -17.3817 -0.195672 -6.40154
  908 97.3856 28.5632 -45.0971
  909 98.8880 27.6146 44.4742
  910 -7.42602 0.459819 -13.4049
  911 -7.46391 0.428973 13.4288
  912 29.0468 2.46069 -12.7418
  913 29.2217 2.42870 12.7614
  914 106.527 -1.29063 24.3958
  915 106.449 -1.28522 -24.5127
  916 87.3651 -3.01770 -19.7012
  917 87.4569 -3.01253 19.6727
  918 450.371 -1.75086 -7.02103
  919 220.547 47.6324 131.999
  920 304.385 -30.0652 15.6925
  921 217.015 -15.6280 15.1817
  922 417.208 43.0986 -54.0059
  923 884.030 18.9058 18.1021
  924 492.640 23.0905 -50.3292
  925 83.6961 -3.20468 12.3326
  926 83.6084 -3.16873 -12.3766
  927 16.2093 -0.486806 -9.08027
  928 16.3776 -0.491405 9.08102
  929 -0.175199 -7.46116 -14.5263
  930 -0.240148 -7.52557 14.5753
  931 224.277 -10.0472 6.83501
  932 224.390 -10.2384 -6.86674
  933 28.0213 7.28947 -11.4225
  934 28.2083 7.25704 11.4816
  935 137.389 -6.16571 -22.4933
  936 137.485 -6.16647 22.4804
  937 296.277 -1.20603 -27.8096
  938 141.846 -7.74246 -15.6796
  939 141.754 -7.66114 15.7303
  940 340.970 -9.86221 -0.576840
  941 412.680 -23.5308 -51.0710
  942 181.716 -7.46457 7.26088
  943 181.797 -7.53147 -7.35390
  944 -7.50160 -0.795164 -4.54531
  945 -7.48088 -0.797067 4.53543
  946 419.567 -31.7634 -69.6140
  947 402.280 -23.6406 32.0245
  948 353.101 -24.8250 -6.10391
  949 346.333 11.9417 49.9058
  950 158.003 -8.92365 -17.6390
  951 158.009 -8.75694 17.6924
  952 386.030 14.9272 60.1736
  953 361.209 31.5339 39.6415
  954 729.662 87.5538 15.4413
  955 375.207 -13.7072 6.26727
  956 199.100 -6.07607 -3.27108
  957 199.078 -5.96070 3.29744
  958 336.585 -27.6906 -0.187751
  959 466.439 85.5033 -24.8042
  960 410.130 -4.69197 -2.20456
  961 270.842 -6.89944 1.08106
  962 270.739 -6.84833 -1.00452
  963 34.9066 29.6444 -21.5319
  964 35.7806 29.5972 21.6911
  965 64.9609 170.247 -147.030
  966 386.190 -9.06749 45.5266
  967 479.237 -8.37417 -42.0411
  968 -7.42591 4.66594 2.14112
  969 -7.29865 4.66539 -2.07729
  970 965.793 230.925 -183.771
  971 410.566 -44.4252 3.19579
  972 437.519 -40.0217 -19.0978
  973 404.395 -34.6006 28.7885
  974 501.033 98.4279 10.0485
  975 36.6789 39.3749 -45.2401
  976 92.3683 147.625 144.672
  977 -2.31197 -5.47929 14.5779
  978 -2.27167 -5.43205 -14.5531
  979 393.004 -10.2940 6.54331
  980 630.743 111.383 -13.9571
  981 37.7381 38.5125 46.9916
  982 -1.73091 -5.86246 -5.05439
  983 -1.73119 -5.84609 5.04112
  984 337.670 -8.16853 0.0451341
  985 252.948 -20.1544 -20.5501
  986 407.584 -32.1547 -34.4631
  987 116.740 31.4278 -59.3584
  988 118.601 31.9429 59.5117
  989 396.494 -9.82088 -40.5225
  990 398.501 -12.8200 12.5681
  991 -10.3992 2.79834 11.7164
  992 -10.3457 2.82585 -11.6775
  993 241.574 -15.9004 -42.4392
  994 400.679 25.7493 -60.2751
  995 297.505 -11.3928 1.54215
  996 214.955 -6.30012 0.601213
  997 214.913 -6.33990 -0.576867
  998 -4.46271 -5.07125 -10.4952
  999 -4.46904 -5.08222 10.4864
  1000 403.899 -14.5584 -15.6118
  1001 384.236 -4.58693 0.355926
  1002 383.880 -4.59230 -0.201461
  1003 531.665 87.4778 -34.0831
  1004 97.1051 8.32125 -30.3436
  1005 97.3470 8.15523 30.2799
  1006 62.7597 -0.633868 -16.3671
  1007 62.8790 -0.646372 16.3497
  1008 438.714 23.7424 64.5157
  1009 413.872 -7.99141 -8.56966
  1010 74.2413 11.5822 -24.8172
  1011 74.5345 11.4962 24.9079
  1012 431.099 -2.52216 -1.32721
  1013 403.751 -17.5490 -24.0249
  1014 394.290 -44.2874 -18.1760
  1015 15.4267 13.4793 0.554329
  1016 15.0060 13.4149 -0.362764
  1017 -18.7499 3.17222 6.84569
  1018 -18.6805 3.18114 -6.79904
  1019 242.622 9.05385 -10.3285
  1020 680.250 169.759 -48.2764
  1021 312.250 -22.8932 -2.77154
  1022 207.210 -9.05518 -43.6434
  1023 499.012 -19.2800 2.45098
  1024 208.023 -9.04270 44.2465
  1025 358.610 -41.5554 29.4837
  1026 406.456 -16.8320 -36.5700
  1027 141.228 -3.36652 -1.00467
  1028 141.240 -3.30968 0.998417
  1029 278.272 -21.8386 -11.0672
  1030 171.289 -6.43483 -34.1290
  1031 171.229 -6.48362 33.9624
  1032 57.0893 37.4440 -37.0520
  1033 57.9880 37.3423 37.1634
  1034 119.196 -3.81568 -3.56038
  1035 119.208 -3.76987 3.51697
  1036 361.328 -11.7135 3.12951
  1037 305.332 1.69089 -108.540
  1038 374.433 -12.3996 -6.26025
  1039 338.745 -37.4124 -18.1316
  1040 223.725 -9.58584 4.72763
  1041 223.905 -9.65584 -4.74129
  1042 436.940 -2.87575 1.67504
  1043 391.498 -9.54922 -6.12587
  1044 255.556 6.24457 19.4975
  1045 420.186 -4.17346 -16.5072
  1046 163.540 48.1339 106.041
  1047 432.203 -4.04972 -13.4858
  1048 114.042 19.1350 -44.8805
  1049 110.676 19.3475 43.0857
  1050 515.634 -7.87232 -4.42502
  1051 47.5143 24.6457 -19.5803
  1052 47.9479 24.4710 19.5789
  1053 8.17819 0.0422039 4.04968
  1054 8.57785 0.117429 -3.78639
  1055 69.1995 -1.82788 4.26398
  1056 69.1367 -1.83942 -4.31410
  1057 185.878 48.7024 -117.340
  1058 995.992 262.235 197.808
  1059 402.622 -14.5481 16.0111
  1060 361.803 -40.5524 -13.6795
  1061 252.204 -20.7398 -32.9908
  1062 -4.81906 5.67649 10.0136
  1063 -4.72181 5.70762 -9.94817
  1064 284.364 -14.8252 3.04979
  1065 313.283 -11.8761 0.557063
  1066 -0.141985 -22.9731 7.44192
  1067 -0.134188 -22.9966 -7.44015
  1068 47.7459 29.5366 -23.2057
  1069 48.3082 29.4843 23.3423
  1070 280.613 -13.6522 -2.91810
  1071 22.8969 10.2775 7.41847
  1072 22.7116 10.2909 -7.34321
  1073 427.637 -16.6863 59.2484
  1074 309.985 -32.0508 -28.6094
  1075 253.696 -21.0725 32.9904
  1076 407.752 -7.99426 -62.6162
  1077 428.663 -4.87311 6.21209
  1078 156.631 24.1715 71.4189
  1079 157.752 23.1304 -70.2385
  1080 251.793 -12.1140 -60.1826
  1081 355.419 -12.9735 -3.13005
  1082 289.630 -17.5712 5.50566
  1083 338.857 -31.7094 -2.18159
  1084 462.879 -1.71745 -3.57311
  1085 251.711 -11.7471 5.17341
  1086 251.602 -12.4075 -5.31132
  1087 8.79899 10.2242 7.84524
  1088 9.00624 10.2988 -7.72583
  1089 411.274 15.3741 -64.7645
  1090 93.3757 4.63793 -26.8415
  1091 93.6250 4.53482 26.7720
  1092 70.5469 1.28811 -19.3348
  1093 70.6999 1.24950 19.3030
  1094 467.174 -17.5988 87.3316
  1095 405.923 -18.7223 35.9956
  1096 199.743 -9.19400 -37.1320
  1097 469.980 -1.91958 -2.12940
  1098 529.617 100.373 -25.6251
  1099 427.776 -4.28116 -3.84003
  1100 401.996 -43.2049 11.9481
  1101 298.162 -22.5193 52.9405
  1102 472.784 -0.663419 0.354663
  1103 255.086 7.92564 -16.5273
  1104 341.207 -36.4796 -9.04895
  1105 200.068 -9.60859 36.7407
  1106 344.351 -31.4383 0.210495
  1107 428.349 -6.26032 11.9025
  1108 310.438 19.6289 25.6845
  1109 214.748 -15.8183 -29.7416
  1110 644.447 94.7678 -41.1722
  1111 486.803 22.6425 53.0028
  1112 366.025 45.7696 6.27641
  1113 468.121 -0.0117962 1.85011
  1114 186.733 -11.7125 -22.8951
  1115 127.268 79.4730 -118.078
  1116 227.014 6.31361 -85.1009
  1117 260.431 -20.1105 14.7459
  1118 220.335 -16.5278 27.9393
  1119 186.295 -11.1457 23.1211
  1120 391.416 3.58433 63.1201
  1121 295.482 -10.5887 -1.19098
  1122 461.815 -3.49278 4.86418
  1123 -3.50281 -0.137380 14.5093
  1124 -3.44721 -0.0897900 -14.4723
  1125 309.302 -9.15527 0.524664
  1126 -0.0366444 3.73615 12.9628
  1127 0.0640479 3.79861 -12.8919
  1128 175.217 -5.64155 4.03216
  1129 175.228 -5.72776 -4.03683
  1130 436.023 -2.38726 11.1921
  1131 351.058 -21.6839 -4.94721
  1132 329.015 -17.8242 -0.872841
  1133 367.675 -25.8811 11.0555
  1134 113.026 56.5920 -88.3659
  1135 360.297 -13.9152 4.31320
  1136 55.3890 0.953587 -15.8961
  1137 55.5342 0.926786 15.8858
  1138 75.9315 49.1904 -62.5611
  1139 574.569 76.8648 15.1327
  1140 43.2640 -1.94126 9.30390
  1141 43.1263 -1.92563 -9.31749
  1142 77.2976 48.4584 60.4642
  1143 330.363 -27.7719 -1.14068
  1144 168.783 -7.97004 8.91457
  1145 168.807 -8.00541 -9.05242
  1146 671.248 142.458 -39.1282
  1147 363.692 -36.4430 1.13483
  1148 125.380 74.4632 117.848
  1149 10.9328 -1.07695 -10.5925
  1150 11.7643 -0.934326 11.5685
  1151 384.946 48.2453 31.6590
  1152 29.5648 15.7132 -7.60255
  1153 29.7997 15.7187 7.67108
  1154 366.063 -31.9153 -8.37633
  1155 -0.165055 -35.4090 -6.94523
  1156 -0.181639 -35.4132 6.97689
  1157 391.096 -33.0277 -19.8706
  1158 -3.68310 0.466671 3.09113
  1159 -3.88328 0.469688 -3.09772
  1160 60.9187 22.5012 -24.9850
  1161 61.2475 22.5990 24.7677
  1162 -18.2166 0.0413584 -3.78559
  1163 -18.0101 0.0399135 3.78955
  1164 389.998 -4.60790 -0.408789
  1165 -38.3316 1.14867 0.472352
  1166 -38.2238 1.14812 -0.446561
  1167 207.822 -16.3724 -22.1499
  1168 5.58058 -49.0927 -5.82643
  1169 105.879 -3.03380 6.75305
  1170 105.839 -3.04400 -6.82388
  1171 332.149 -6.72666 0.556386
  1172 332.776 -6.56199 -0.492158
  1173 5.99456 -46.6951 7.03404
  1174 393.548 -20.6814 -19.9141
  1175 448.497 -2.15857 8.18068
  1176 399.949 -25.6778 -29.4341
  1177 350.978 2.67527 49.5133
  1178 1.96350 -13.7452 10.4254
  1179 2.13561 -13.6371 -10.2468
  1180 256.850 -18.8142 11.8708
  1181 -17.3108 1.64572 9.37629
  1182 -17.2786 1.65957 -9.34777
  1183 662.424 105.099 7.25361
  1184 769.398 245.561 -172.722
  1185 408.814 -39.6129 24.7319
  1186 170.840 -5.10933 -0.609689
  1187 170.853 -5.04932 0.610241
  1188 831.719 80.7409 -74.6933
  1189 62.1022 -1.60832 9.65655
  1190 61.9897 -1.58421 -9.69122
  1191 383.036 -1.24821 -19.5625
  1192 246.476 -19.9820 25.0171
  1193 404.376 -39.5265 -17.6070
  1194 391.471 -28.5215 -22.7038
  1195 239.941 -8.35223 63.0506
  1196 89.7763 16.5651 -34.1428
  1197 89.7309 16.4185 33.9558
  1198 117.703 43.7367 -75.2316
  1199 117.867 40.4962 75.2371
  1200 34.5379 9.77153 -12.1179
  1201 34.7395 9.74294 12.1893
  1202 483.436 83.9664 -36.1884
  1203 25.5629 23.4929 -11.2014
  1204 26.1492 23.5301 11.3784
  1205 348.596 -26.8498 3.98743
  1206 647.373 98.2229 46.0187
  1207 85.3148 -3.53201 -6.65653
  1208 85.3795 -3.53086 6.59396
  1209 419.050 300.783 -254.196
  1210 328.606 19.5597 -39.6018
  1211 302.506 23.1319 16.1931
  1212 42.5745 17.6417 -14.3195
  1213 42.7751 17.6428 14.3966
  1214 11.3832 -0.0877565 2.25846
  1215 11.2461 -0.0876192 -2.27724
  1216 385.869 -31.0446 18.5258
  1217 379.260 -15.4505 9.66461
  1218 260.083 75.3934 -183.083
  1219 597.577 130.647 -7.86715
  1220 258.035 -7.68286 -69.3455
  1221 333.525 -10.6159 0.159344
  1222 20.2955 -1.64473 -0.513959
  1223 20.3368 -1.64347 0.511032
  1224 -7.39806 2.61984 -5.32076
  1225 -7.23403 2.60913 5.36007
  1226 224.580 2.58422 -72.8532
  1227 411.150 -9.27956 11.1172
  1228 268.469 5.31116 99.1376
  1229 362.831 -18.1982 -7.06384
  1230 188.051 67.8396 -144.498
  1231 291.668 -13.9516 -74.8052
  1232 346.963 -37.0433 7.10919
  1233 423.897 -6.83665 18.1327
  1234 371.891 -8.14896 -2.43350
  1235 206.962 -15.3786 22.2734
  1236 466.304 -25.6999 -32.3525
  1237 443.645 38.8143 61.0534
  1238 194.165 0.941544 -57.7628
  1239 439.449 -2.99070 1.31780
  1240 357.040 44.3204 -8.96469
  1241 155.865 -5.53441 -6.61453
  1242 155.839 -5.47831 6.54500
  1243 673.066 158.067 41.1197
  1244 915.495 24.3185 42.4018
  1245 0.843064 -43.1767 -6.88570
  1246 0.816267 -43.2239 6.93936
  1247 100.737 53.6618 82.7630
  1248 239.984 -7.29873 -1.48063
  1249 240.036 -7.25661 1.56898
  1250 327.511 -33.0024 -9.70634
  1251 391.572 32.2407 54.6366
  1252 407.741 -8.32206 -7.01473
  1253 472.124 -1.35345 -0.429851
  1254 817.038 182.137 -115.294
  1255 129.990 -4.94520 6.88523
  1256 129.974 -4.95552 -6.97097
  1257 391.501 -36.3350 18.9117
  1258 684.297 169.999 -54.6444
  1259 379.533 -16.8173 -10.9398
  1260 278.199 -19.5267 -8.41594
  1261 340.944 -37.0098 17.7007
  1262 333.358 -16.9529 1.62852
  1263 12.6384 4.50918 -16.4553
  1264 455.025 -27.2471 38.9769
  1265 369.058 -24.3250 -10.8078
  1266 13.9079 5.14814 18.1234
  1267 379.260 -29.7936 -70.3481
  1268 358.321 23.3994 -149.788
  1269 588.554 76.6627 -9.36005
  1270 473.911 -0.447576 -0.139504
  1271 473.095 -0.883673 0.413331
  1272 375.332 -22.1029 11.8664
  1273 145.718 17.3650 -56.9362
  1274 427.340 -37.7785 31.3365
  1275 724.162 166.107 77.2807
  1276 180.512 62.8178 140.831
  1277 5.26128 1.05929 10.5380
  1278 5.45137 1.15317 -10.4069
  1279 448.350 -35.5298 -38.5759
  1280 182.334 -10.0515 -10.6515
  1281 182.305 -10.0777 10.4680
  1282 418.391 -27.4310 48.8300
  1283 16.9029 0.0890805 10.1151
  1284 16.7353 0.0972861 -10.1105
  1285 -2.24352 -8.67345 12.0656
  1286 -2.22799 -8.65481 -12.0679
  1287 76.5367 -2.62846 -8.80569
  1288 76.6227 -2.64380 8.75199
  1289 221.094 -14.7927 -33.7211
  1290 222.909 -7.59257 2.14343
  1291 222.901 -7.75173 -2.06039
  1292 472.343 -0.435106 0.112894
  1293 421.451 -6.59214 -20.4315
  1294 35.7789 1.52163 -12.7669
  1295 35.9413 1.49791 12.7730
  1296 221.975 -15.6420 33.4642
  1297 476.728 -0.563237 0.196133
  1298 450.900 -0.631961 -0.510434
  1299 450.874 -0.904047 0.397379
  1300 597.173 126.998 4.04909
  1301 439.834 -3.22515 -3.05892
  1302 391.167 -4.36963 0.270626
  1303 433.273 -6.74825 -10.5211
  1304 470.041 -1.61156 1.42612
  1305 492.264 51.3005 52.5182
  1306 569.881 119.011 11.9374
  1307 457.478 -1.89825 -5.38937
  1308 -3.79645 -0.957220 3.40277
  1309 -3.81172 -0.956548 -3.41328
  1310 255.898 -16.3200 8.26220
  1311 255.850 -15.6121 -8.03476
  1312 496.730 56.8469 -49.8360
  1313 104.528 36.1215 -62.3210
  1314 105.201 35.1422 61.6602
  1315 337.433 0.0540501 -24.7630
  1316 344.881 -5.93280 -0.420740
  1317 344.460 -5.88799 0.348661
  1318 -8.22289 -1.31695 12.2673
  1319 -8.20790 -1.29442 -12.2628
  1320 384.174 -1.00320 19.5265
  1321 582.322 115.742 -2.48701
  1322 43.6987 -1.58914 -5.54728
  1323 43.8075 -1.59282 5.50527
  1324 430.044 -41.0483 16.4409
  1325 1.08837 7.32035 10.1404
  1326 1.21452 7.36461 -10.0588
  1327 81.9021 -1.86376 -1.86208
  1328 81.9376 -1.83569 1.83398
  1329 337.513 -0.464913 25.1427
  1330 16.4675 0.711469 -0.856236
  1331 16.5375 0.714193 0.842045
  1332 436.735 -5.27330 6.71163
  1333 609.519 110.751 6.24147
</Section>

newXOutput 56

<Section columns = "stress_xx | stress_yy | stress_xy">
  1 492.431 -1.35986 0.897118
  2 493.189 -1.72597 -1.16493
  3 12.1009 0.457006 -1.26641
  4 -0.361550 -0.543824 -0.360757
  5 897.478 365.635 295.476
  6 911.301 418.072 -298.493
  7 -0.357638 -0.540393 0.355695
  8 12.0590 0.454431 1.26346
  9 495.740 -0.966945 -0.815323
  10 492.159 -1.75177 -1.18777
  11 492.572 -1.37762 1.05228
  12 490.260 -0.770875 0.425781
  13 489.378 -1.64599 -0.353915
  14 488.744 -1.58746 1.86827
  15 481.890 -1.13871 1.76111
  16 483.886 -3.50618 2.73904
  17 469.180 -2.92295 5.95534
  18 459.923 -1.32733 7.17169
  19 447.097 -1.60960 7.75575
  20 424.711 -1.42894 10.8989
  21 400.245 -1.20621 12.6886
  22 369.607 1.61474 17.4542
  23 327.550 2.50480 15.8309
  24 310.615 -0.110842 22.6962
  25 257.985 3.66707 16.1638
  26 225.895 4.80680 12.6852
  27 217.532 2.38509 9.36095
  28 208.567 7.03789 0.697876
  29 213.481 7.57487 -12.5234
  30 223.327 2.19446 -15.7154
  31 262.762 0.987633 -20.9593
  32 302.442 -1.95936 -21.7145
  33 329.054 2.07761 -15.8009
  34 370.055 1.83543 -17.4555
  35 399.226 -1.42853 -13.6043
  36 427.163 -1.60487 -10.2771
  37 445.358 -1.18217 -7.87926
  38 458.555 -1.41210 -6.56547
  39 472.730 -1.70052 -3.78417
  40 478.170 -1.75621 -3.60582
  41 483.495 -1.65744 -3.18675
  42 488.886 -1.88274 -0.580619
  43 490.923 -2.38028 -1.29215
  44 488.026 0.0825918 -0.0309078
  45 492.001 -1.26364 -1.19435
  46 494.017 -2.55563 1.29523
  47 496.334 -1.47652 -0.0557012
  48 471.747 0.177357 -0.744018
  49 444.162 -2.07371 -1.39121
  50 412.884 -4.58304 -1.97785
  51 380.473 -3.92097 -1.43255
  52 352.170 -6.18104 -1.31541
  53 322.270 -6.69080 -1.19495
  54 292.092 -5.88090 -0.568893
  55 260.335 -6.26609 -0.793301
  56 233.469 -6.61685 -1.05295
  57 197.713 -6.30329 -0.848706
  58 160.911 -3.99218 -0.543272
  59 130.475 -2.57045 -0.426892
  60 92.8996 -1.62025 -0.155091
  61 65.6168 -1.54437 -1.86240
  62 40.2864 -2.09431 -0.603260
  63 14.7319 0.236468 1.17410
  64 8.04915 1.77899 0.476435
  65 6.10299 0.721345 1.24903
  66 6.91669 0.324830 1.25003
  67 1.47839 1.02231 0.604825
  68 -0.710477 1.34152 2.58805
  69 -1.80103 0.471987 1.01021
  70 -10.9843 1.00045 1.10013
  71 -15.4010 0.687459 2.50624
  72 -17.3729 0.223970 2.64275
  73 -27.5340 0.935300 2.11431
  74 -31.4911 1.40454 3.87833
  75 -35.9809 0.852337 1.53042
  76 -41.0433 0.622100 2.16787
  77 -43.3074 0.662125 0.968557
  78 -48.2844 1.61972 -0.920635
  79 -49.1086 1.10976 -0.674907
  80 -44.9771 0.833871 -1.43994
  81 -38.7922 1.10103 -2.89109
  82 -31.6621 0.497066 -4.49534
  83 -23.6906 0.277108 -4.72210
  84 -14.2556 -0.467234 -4.96994
  85 -6.23657 -0.377210 -2.92069
  86 -2.62829 -1.02840 -1.83076
  87 -0.432251 -2.63588 -1.59113
  88 -0.720823 -6.73525 -2.81166
  89 -0.823854 -13.0994 -4.90999
  90 -0.150996 -24.4803 -5.27576
  91 0.307411 -33.7467 -6.59686
  92 0.703049 -48.4496 -5.36876
  93 2.11393 -57.3394 -6.30028
  94 0.390194 -61.3965 -5.11289
  95 -0.0633995 -69.9852 -2.88722
  96 1.96945 -67.0114 -0.313960
  97 8.02363 -86.5099 4.33743
  98 7.32657 -43.7223 13.4601
  99 17.2546 -14.3449 29.0078
  100 51.2628 92.7652 88.0319
  101 214.763 289.231 244.885
  102 1175.57 126.620 174.045
  103 986.268 34.9490 62.4630
  104 939.581 14.9064 21.4800
  105 913.790 9.73820 -0.117767
  106 930.267 14.1978 -17.6693
  107 995.312 29.8336 -51.6703
  108 1163.30 100.318 -161.879
  109 139.545 327.684 -202.672
  110 36.0427 70.2015 -68.3501
  111 12.7294 -22.8098 -24.2378
  112 6.64090 -48.6889 -11.6604
  113 7.97782 -90.0572 -3.46734
  114 1.88078 -68.5815 0.927686
  115 -0.179766 -70.7696 3.20677
  116 0.316142 -61.6982 5.28400
  117 2.07348 -57.4085 6.37248
  118 0.687518 -48.4204 5.39534
  119 0.295662 -33.6974 6.60627
  120 -0.156738 -24.4186 5.27241
  121 -0.824561 -13.0601 4.89938
  122 -0.722383 -6.70156 2.80176
  123 -0.431940 -2.62325 1.58239
  124 -2.61312 -1.02695 1.82344
  125 -6.20962 -0.378915 2.91278
  126 -14.2209 -0.471271 4.96517
  127 -23.6505 0.272643 4.72313
  128 -31.6397 0.492191 4.50382
  129 -38.8017 1.09755 2.90776
  130 -45.0193 0.833595 1.45790
  131 -49.1932 1.10875 0.692441
  132 -48.4041 1.61953 0.938886
  133 -43.4671 0.663848 -0.952638
  134 -41.2330 0.624217 -2.15607
  135 -36.1854 0.854755 -1.52106
  136 -31.7126 1.40741 -3.87445
  137 -27.7618 0.937996 -2.11107
  138 -17.5978 0.225611 -2.64324
  139 -15.6266 0.690298 -2.50973
  140 -11.1997 1.00444 -1.10536
  141 -1.99106 0.474633 -1.02014
  142 -0.874851 1.34425 -2.60293
  143 1.33684 1.02306 -0.617993
  144 6.81029 0.324314 -1.26285
  145 6.02255 0.720065 -1.25934
  146 7.98601 1.77676 -0.485377
  147 14.6838 0.234986 -1.17934
  148 40.2425 -2.10199 0.597895
  149 65.5765 -1.56367 1.85652
  150 92.8694 -1.65448 0.147300
  151 130.458 -2.61996 0.422859
  152 160.896 -4.04958 0.542664
  153 197.688 -6.35286 0.856541
  154 233.410 -6.64127 1.06927
  155 260.239 -6.23443 0.831832
  156 291.957 -5.76641 0.613125
  157 322.084 -6.42153 1.12830
  158 352.323 -6.25870 1.15300
  159 380.589 -4.39954 1.51308
  160 413.206 -4.49531 1.79707
  161 445.037 -1.81819 1.41055
  162 470.989 0.148501 0.723949
  163 276.276 -24.9633 -23.8540
  164 275.179 -25.4181 23.7973
  165 83.8193 23.0291 -34.2409
  166 84.6440 23.1120 34.0975
  167 325.349 -15.1808 85.3717
  168 340.933 -17.1935 -83.0996
  169 161.224 -8.54844 11.0801
  170 161.204 -8.46489 -11.2308
  171 347.397 -12.4918 1.28428
  172 340.516 -12.5271 -1.16034
  173 464.296 83.5132 -11.3436
  174 469.649 3.81366 -57.8397
  175 460.484 7.36273 62.4110
  176 112.403 -4.29599 -23.0861
  177 112.414 -4.26530 23.0425
  178 405.944 -40.1335 19.8499
  179 405.564 -31.2298 -28.5686
  180 5.97056 9.71050 9.34440
  181 6.13888 9.77263 -9.24413
  182 554.566 113.059 16.0140
  183 107.912 48.5019 -76.5944
  184 115.725 48.9491 82.0596
  185 392.474 -18.5524 13.1435
  186 588.333 124.003 -6.00461
  187 255.523 -9.57222 -3.39083
  188 255.117 -9.81280 3.36495
  189 403.313 -12.9814 -12.0483
  190 536.009 -2.10896 -9.65478
  191 102.042 -3.07881 4.26751
  192 102.007 -3.10467 -4.32477
  193 44.0320 5.42405 -15.7120
  194 44.2297 5.36842 15.7487
  195 227.910 -8.68189 -53.8353
  196 227.022 -9.15280 54.5216
  197 271.923 -17.8447 -8.73369
  198 272.464 -17.7451 9.26197
  199 72.7900 -2.54499 12.3382
  200 72.6836 -2.51104 -12.3640
  201 530.098 -7.98411 36.8765
  202 434.511 -42.4953 -7.19727
  203 412.133 -4.54649 -1.72734
  204 403.083 -5.47720 1.74352
  205 411.780 48.3778 44.3352
  206 17.9735 15.8329 -6.58216
  207 18.6154 15.8053 6.86820
  208 409.519 -16.3877 51.5406
  209 378.446 28.9956 -50.9320
  210 268.115 61.9714 -174.001
  211 281.928 52.3731 161.712
  212 7.94421 9.11830 -1.63552
  213 8.10535 9.11679 1.71294
  214 408.277 -14.4264 -53.2938
  215 706.461 98.7062 -6.85724
  216 339.276 -36.8683 31.3185
  217 341.798 -36.6670 -29.6787
  218 339.071 -24.4189 -0.979892
  219 418.997 -6.94185 6.34224
  220 204.925 -14.1351 -20.3452
  221 201.755 -14.0799 20.9506
  222 123.748 2.45554 -34.6300
  223 123.926 2.40865 34.3464
  224 430.498 -45.1095 -6.51453
  225 336.283 -25.9405 -0.477706
  226 417.480 -6.79410 -4.89731
  227 326.228 -8.81337 -0.222346
  228 329.026 -8.24971 0.832368
  229 412.923 -18.5300 29.3656
  230 37.5250 0.297698 -13.1704
  231 37.6805 0.281100 13.1698
  232 -5.10149 -3.38507 -13.9012
  233 -5.12830 -3.41846 13.9124
  234 66.0418 -2.81505 -7.17566
  235 66.1330 -2.82183 7.12124
  236 176.696 -5.43874 4.94742
  237 176.734 -5.53086 -4.98399
  238 202.121 14.1378 -78.3177
  239 202.146 11.8152 77.4416
  240 418.637 -13.1916 -25.1212
  241 198.316 -11.6194 -32.8299
  242 198.487 -11.9717 32.3819
  243 371.211 5.84364 57.6822
  244 326.296 27.9741 3.49851
  245 359.834 -35.9114 -0.0720756
  246 1.75992 -8.33674 -12.3878
  247 1.63892 -8.43320 12.4930
  248 23.6779 25.2295 -27.1582
  249 25.1773 24.4039 28.4832
  250 353.878 -35.1388 -2.27168
  251 634.977 121.173 -11.8841
  252 34.0789 22.8609 -11.9540
  253 34.4819 22.8532 12.0876
  254 -13.1838 3.04044 9.26054
  255 -13.1142 3.05629 -9.21222
  256 637.968 113.790 15.5626
  257 225.779 -11.0795 -8.21026
  258 225.611 -10.9077 8.05843
  259 438.909 -29.3581 47.1757
  260 787.984 128.355 80.1316
  261 133.412 -7.06936 -19.0193
  262 133.389 -7.11908 19.0025
  263 448.971 67.2728 -42.1378
  264 761.021 144.881 -73.3985
  265 533.887 54.5095 39.1445
  266 577.345 39.3977 -110.463
  267 359.699 -17.3372 4.60242
  268 410.153 2.20952 -64.4329
  269 387.425 -27.5117 -15.9124
  270 431.061 -7.91850 15.8411
  271 1.30805 4.14277 -5.08517
  272 1.46998 4.12990 5.14062
  273 426.636 -12.9910 -106.452
  274 47.3257 14.2128 -15.9546
  275 47.5494 14.1881 16.0393
  276 414.477 -10.0580 -32.4988
  277 60.3640 63.9466 -79.6604
  278 53.0012 -0.262579 -1.66932
  279 53.0527 -0.251808 1.64563
  280 437.394 -26.8689 -49.3040
  281 78.1754 35.1147 -43.0272
  282 79.2965 34.9305 43.1486
  283 24.5909 -0.714192 9.17457
  284 24.4269 -0.705626 -9.18020
  285 359.153 -16.4939 -4.49644
  286 60.7897 63.2765 81.7520
  287 567.702 46.9385 129.065
  288 158.655 -6.39982 -6.76946
  289 158.629 -6.36069 6.67945
  290 287.911 -12.2928 -3.23878
  291 287.772 -13.2684 3.57432
  292 245.782 24.1860 -118.298
  293 394.893 -43.1210 -4.88561
  294 447.820 -3.02831 2.76542
  295 236.800 24.2113 114.523
  296 275.824 -7.91072 -1.10903
  297 275.721 -7.90599 1.34226
  298 388.062 -28.6041 16.2068
  299 444.466 -4.95449 -7.32087
  300 -1.33100 1.64607 -7.26632
  301 -1.15177 1.63372 7.29301
  302 560.457 111.167 -4.14381
  303 489.696 -22.0460 23.9907
  304 441.098 -2.64119 -0.682152
  305 448.660 -2.30762 0.618060
  306 441.231 -38.1119 39.4051
  307 544.057 58.1839 -36.0549
  308 477.884 88.7808 23.9270
  309 215.722 -13.3878 -12.9915
  310 213.796 -13.6276 13.2320
  311 447.254 -2.96297 -1.78209
  312 295.634 -22.1540 -58.9255
  313 291.083 -23.1553 11.0413
  314 277.482 -14.9383 67.0018
  315 440.826 -5.55024 8.79736
  316 102.747 -4.71667 -11.9125
  317 102.818 -4.75079 11.8632
  318 406.813 -12.5347 105.190
  319 259.954 -20.7099 -16.1682
  320 476.465 61.5457 52.5586
  321 153.099 10.7266 -51.1675
  322 147.468 11.2193 50.7630
  323 47.3365 -0.954199 -3.02766
  324 47.4147 -0.948008 2.99001
  325 389.901 -8.34473 3.46699
  326 374.029 -5.85832 0.344494
  327 371.962 -6.36710 -0.468954
  328 411.532 -10.5880 34.4622
  329 38.2124 -1.35429 6.88773
  330 38.0721 -1.34189 -6.91721
  331 122.484 -2.98705 -2.51658
  332 122.498 -2.94013 2.49153
  333 4.09547 -17.8112 -6.55920
  334 3.83422 -17.9626 6.87057
  335 322.890 14.0456 39.2502
  336 494.370 -20.4684 -19.0266
  337 321.182 -17.4333 0.166023
  338 362.254 -7.82246 -1.55286
  339 381.754 47.3798 -23.8894
  340 76.3683 -2.47059 -17.1644
  341 76.4695 -2.47268 17.1515
  342 312.425 -16.4678 1.44175
  343 90.0425 2.91771 -24.6191
  344 90.2151 2.84139 24.5478
  345 18.0154 14.7062 -0.987574
  346 18.2284 14.7049 1.07891
  347 379.035 -40.3279 40.0000
  348 832.766 54.8445 21.4054
  349 339.929 5.27989 -46.4349
  350 282.903 -25.3317 36.6228
  351 281.467 -24.8120 -37.6985
  352 416.690 -6.80694 63.6992
  353 371.680 -2.59563 45.7485
  354 374.172 -38.9893 -41.2475
  355 224.558 -6.07309 0.585644
  356 224.523 -6.13899 -0.530633
  357 413.903 -26.9880 38.5060
  358 566.865 112.546 1.85255
  359 443.210 -5.23759 -11.7039
  360 116.645 -4.50582 -8.68246
  361 116.697 -4.50999 8.60061
  362 417.863 -39.0185 -49.4580
  363 440.444 31.0863 -63.3458
  364 298.170 16.0259 -25.2272
  365 416.890 -27.7281 -44.1945
  366 -13.4505 0.538175 -10.7100
  367 -13.4652 0.521260 10.7238
  368 350.123 -8.84233 0.675107
  369 -4.97475 -2.95271 -6.47995
  370 -4.96846 -2.95358 6.46621
  371 270.003 138.423 -211.238
  372 11.3208 10.1869 5.98550
  373 11.5928 10.2659 -5.83950
  374 368.925 -2.73905 -45.3759
  375 204.338 -8.94625 6.19898
  376 204.478 -9.06143 -6.26222
  377 -1.31066 -14.5622 12.2113
  378 -1.28802 -14.5357 -12.1990
  379 219.996 144.972 199.061
  380 167.617 -8.99437 -25.7774
  381 167.753 -8.61722 25.7972
  382 53.8426 39.9866 -39.9735
  383 54.9602 39.8849 39.7528
  384 -20.0340 3.22217 3.48117
  385 -19.9382 3.22748 -3.42907
  386 425.281 28.6213 63.6187
  387 325.899 -34.1204 18.0604
  388 326.247 -29.8852 7.82216
  389 394.432 -44.5917 -7.01599
  390 100.373 12.3808 -33.9888
  391 100.708 12.3601 33.9406
  392 9.06414 -11.4182 1.85895
  393 8.58346 -11.6265 -1.17348
  394 401.841 57.2934 15.6569
  395 401.764 -11.9014 9.77633
  396 231.643 -18.0747 23.8843
  397 144.213 -3.73392 -30.7222
  398 144.272 -3.76100 30.5020
  399 294.337 -9.39172 -1.50906
  400 294.026 -8.31078 1.25971
  401 229.719 -18.5505 -25.2937
  402 180.060 -3.11470 -41.3157
  403 180.038 -3.36082 41.6396
  404 419.205 -38.2648 -26.1972
  405 244.977 -19.0171 15.2932
  406 381.220 -12.0841 5.53025
  407 380.476 -11.0690 -4.53200
  408 320.305 -29.6726 -8.95919
  409 456.553 -2.29948 -2.94457
  410 155.291 63.6758 -120.354
  411 431.112 -6.40812 19.6420
  412 455.375 -2.67210 4.49817
  413 165.143 -8.95016 15.6894
  414 165.208 -8.83054 -15.6775
  415 324.444 -33.7144 -18.6195
  416 47.4657 20.8330 17.2069
  417 47.2126 20.8171 -17.2189
  418 841.138 54.8037 -43.6723
  419 373.965 -21.6753 -8.69433
  420 459.403 -1.91783 1.69518
  421 146.759 59.5471 114.741
  422 679.760 114.259 22.7824
  423 400.221 -6.58645 -2.73238
  424 300.869 -22.0963 -7.08777
  425 126.570 24.4217 -57.7277
  426 134.805 22.6231 57.3824
  427 369.582 -23.7218 8.72128
  428 392.898 -5.04514 -33.5347
  429 -0.623845 -0.384126 6.89674
  430 -0.813079 -0.380018 -6.89154
  431 142.783 34.5368 -77.0675
  432 143.239 34.6593 76.8341
  433 18.1272 7.87980 -7.67658
  434 18.3065 7.86304 7.74576
  435 331.778 -7.00099 0.438463
  436 331.380 -6.83398 -0.328379
  437 412.362 -18.9356 -30.7269
  438 -0.870156 -0.858827 14.7456
  439 -0.796046 -0.792509 -14.6903
  440 424.589 -41.6031 22.5944
  441 401.215 -11.1622 -8.57580
  442 647.812 123.886 -20.6700
  443 29.3098 -1.20174 3.28272
  444 29.1867 -1.20195 -3.31538
  445 776.440 221.795 101.227
  446 16.1146 9.65113 -24.6001
  447 50.3858 2.27359 -16.7992
  448 50.5513 2.23604 16.7989
  449 774.832 227.052 -98.0477
  450 17.0821 11.3992 26.9555
  451 -19.0074 2.45809 0.595923
  452 -18.8834 2.45434 -0.546401
  453 44.4819 30.4750 -23.8626
  454 45.2386 30.4915 23.9891
  455 507.998 80.1755 -42.5629
  456 407.466 -16.2006 -19.5139
  457 457.024 -2.00116 -1.47239
  458 425.866 -6.63680 -23.1208
  459 -4.59698 3.32341 13.4487
  460 -4.52144 3.36624 -13.3963
  461 411.733 -16.8329 22.8846
  462 268.997 -15.4638 -6.97770
  463 268.185 -15.6163 6.09026
  464 363.683 -40.0428 -7.70794
  465 260.275 -3.28144 -81.8909
  466 396.661 -6.04934 34.2363
  467 324.141 -11.0071 0.603388
  468 474.272 -34.5755 -8.04364
  469 252.196 2.64157 87.7314
  470 22.1116 -0.394936 6.65911
  471 21.9444 -0.387398 -6.67251
  472 522.354 103.194 -18.6199
  473 415.879 -3.59257 0.0923595
  474 414.477 -4.00535 -0.463956
  475 315.798 -21.3968 3.45228
  476 140.344 -4.84509 -4.90202
  477 140.340 -4.79055 4.84611
  478 83.3261 -1.08434 -20.3214
  479 83.4258 -1.10072 20.2844
  480 269.493 10.4251 15.1117
  481 69.6117 -2.31246 9.87029
  482 69.5099 -2.29082 -9.91677
  483 73.0647 6.79462 22.9297
  484 72.8235 6.89526 -22.9089
  485 404.849 -31.3801 27.4092
  486 228.048 -14.2169 -38.9170
  487 211.100 -7.12950 3.30939
  488 211.173 -7.29521 -3.31395
  489 230.434 -14.6588 38.9122
  490 630.816 150.752 -16.1049
  491 -10.0801 -1.49276 -8.35893
  492 -10.0742 -1.50078 8.35393
  493 161.495 -4.70329 -2.05431
  494 161.498 -4.63589 2.04652
  495 0.245091 -26.7574 -10.0304
  496 0.178848 -26.8455 10.1209
  497 369.281 -6.10543 0.778006
  498 267.927 12.6557 -7.51503
  499 357.123 37.3567 21.5282
  500 226.444 -2.03444 -65.5397
  501 112.807 -5.79939 14.9274
  502 112.790 -5.75087 -14.9510
  503 -26.7160 0.887940 -2.50862
  504 -26.5451 0.882491 2.53161
  505 437.467 -7.74612 -62.8480
  506 38.7965 0.186594 -2.19725
  507 38.8643 0.192140 2.17017
  508 364.176 -28.9043 -6.64346
  509 387.865 -33.1356 -15.1577
  510 80.5275 62.3002 -82.2192
  511 326.068 9.89527 -128.128
  512 4.98670 10.0290 5.77387
  513 5.14441 10.0509 -5.68580
  514 201.331 -9.52740 -8.81233
  515 201.235 -9.44416 8.63699
  516 557.741 25.2923 -9.63404
  517 403.142 -23.9713 -24.9391
  518 78.5357 59.0363 81.0909
  519 399.377 -44.9272 13.2589
  520 384.336 -36.5618 11.2865
  521 84.9068 -2.06738 -6.49681
  522 84.9648 -2.05953 6.43608
  523 319.212 3.56416 35.9864
  524 229.934 -17.1009 -16.1059
  525 424.412 -9.74457 14.1420
  526 -1.70713 -10.3234 -8.13388
  527 -1.71136 -10.3149 8.12177
  528 299.028 -26.3162 43.5682
  529 452.945 -34.1124 -31.2367
  530 588.347 43.6876 -24.3771
  531 320.314 -11.3786 -0.497787
  532 98.3025 -1.86641 -1.88067
  533 98.3298 -1.83212 1.86402
  534 203.878 1.78147 63.1966
  535 564.000 95.8948 26.7947
  536 569.064 117.989 -201.761
  537 513.712 4.10962 29.0238
  538 370.814 -41.1155 5.75360
  539 866.867 68.9910 58.6338
  540 645.422 158.127 22.4654
  541 94.0613 -3.94855 16.2738
  542 93.9874 -3.90968 -16.2989
  543 356.628 -29.7425 4.39613
  544 27.8681 12.9198 -7.30388
  545 28.0717 12.9133 7.38533
  546 447.434 -36.7146 31.2996
  547 368.868 20.0932 52.9549
  548 449.682 -3.06192 7.91979
  549 334.009 -20.3796 1.23568
  550 465.297 6.05577 -135.064
  551 734.438 195.194 134.475
  552 361.275 -7.64526 -0.599465
  553 442.165 -4.68053 -12.9168
  554 71.1642 29.5136 -32.4549
  555 71.6768 29.1607 32.3174
  556 254.921 -10.6028 -4.61252
  557 254.807 -10.3617 4.69622
  558 3.12491 -30.3474 -4.45791
  559 452.046 -15.6068 55.5576
  560 18.1700 16.1583 0.694009
  561 18.4472 16.2036 -0.562637
  562 3.63892 -29.2390 5.42662
  563 411.933 -18.7246 -45.3099
  564 473.753 30.5361 -60.0601
  565 472.184 34.5553 60.1030
  566 23.3503 20.7868 18.3946
  567 22.2016 21.2442 -18.0180
  568 -10.9600 0.414495 5.24668
  569 -11.1536 0.418913 -5.23627
  570 433.828 12.9397 139.136
  571 239.919 -13.5360 8.95035
  572 240.155 -13.4886 -9.10485
  573 522.486 -7.34419 -72.5104
  574 71.3193 -1.00146 3.76522
  575 71.2683 -1.01678 -3.80597
  576 35.3354 -0.834389 -0.879463
  577 35.3843 -0.828946 0.869967
  578 575.075 106.049 -20.8846
  579 55.6252 85.9259 -90.4796
  580 305.703 6.23590 -30.5140
  581 428.678 68.3569 -26.5537
  582 6.65259 0.542837 8.53990
  583 6.91239 0.637896 -8.36559
  584 427.915 203.513 236.484
  585 366.785 -10.6890 -2.73127
  586 14.6220 3.72925 -8.99964
  587 14.7987 3.70234 9.04274
  588 423.835 -33.8955 38.2211
  589 65.6987 83.3464 92.1310
  590 306.328 -6.96231 0.511545
  591 306.413 -6.90792 -0.512728
  592 -0.263756 -21.3859 10.5213
  593 -0.230704 -21.3511 -10.4865
  594 522.034 101.395 -0.835914
  595 331.414 -26.3326 61.4013
  596 316.576 -13.9631 -1.13021
  597 318.033 15.4704 135.119
  598 -26.0343 1.38418 6.25619
  599 -26.0082 1.39170 -6.22994
  600 519.962 7.99924 -31.3057
  601 688.947 120.304 -96.9163
  602 199.309 20.5842 -90.5964
  603 109.269 -4.62242 -19.7941
  604 109.374 -4.62387 19.7985
  605 469.239 -1.67864 2.12320
  606 313.507 -14.2532 0.750668
  607 417.990 -6.10188 4.59542
  608 411.941 -18.7467 44.2223
  609 20.6083 -0.692155 3.34313
  610 20.4594 -0.689243 -3.36727
  611 245.246 -8.89367 -2.70645
  612 245.215 -8.66227 2.63105
  613 153.663 3.30851 -42.5914
  614 152.688 3.35290 42.4123
  615 591.678 37.5903 38.2291
  616 959.963 72.3642 -104.783
  617 -5.06368 -0.607954 4.56643
  618 -5.26480 -0.605975 -4.56489
  619 145.986 -6.21881 9.00627
  620 145.972 -6.21104 -9.11939
  621 552.397 31.7374 17.1858
  622 463.629 -1.87079 -0.673440
  623 462.633 -2.58826 0.253013
  624 340.057 -0.0280968 35.6071
  625 485.880 -27.4528 -45.0347
  626 265.642 -21.9113 19.1938
  627 -5.36696 6.08737 -5.42451
  628 -5.48509 6.07748 5.49326
  629 424.901 8.98402 66.3368
  630 169.781 -9.83580 -20.7418
  631 169.625 -9.99708 20.7812
  632 345.748 -20.3187 -2.51524
  633 426.278 -9.56520 -12.7764
  634 244.901 -19.5662 -28.4658
  635 401.525 48.4404 -40.3358
  636 270.473 -18.5813 -50.2225
  637 101.704 -2.73502 -3.39880
  638 101.731 -2.70363 3.35675
  639 247.412 -19.9076 28.5966
  640 529.033 86.0790 37.6903
  641 421.370 -20.3027 55.7552
  642 344.961 -15.7531 2.46804
  643 247.856 -6.96278 1.67462
  644 247.793 -6.97679 -1.62791
  645 187.699 -7.19124 -6.45634
  646 187.634 -7.11613 6.39252
  647 405.305 -37.1307 -21.4345
  648 206.803 -11.8676 11.2719
  649 207.020 -11.8203 -11.4838
  650 408.521 62.8696 -5.38976
  651 374.593 -19.9769 8.84951
  652 466.878 -2.29716 -3.35727
  653 399.271 -7.17664 -58.5777
  654 59.6880 -2.60747 13.0776
  655 59.5668 -2.58920 -13.0875
  656 455.945 -2.65316 -7.18407
  657 82.5947 42.7622 -58.1159
  658 84.0005 42.6630 58.3987
  659 465.344 -27.1677 61.4367
  660 161.524 40.5606 95.4188
  661 41.4838 -0.290264 13.0772
  662 41.3400 -0.281016 -13.0820
  663 396.869 -25.0503 78.8875
  664 390.332 57.4315 -183.551
  665 383.049 12.2296 -58.5899
  666 502.919 91.1572 32.8337
  667 339.111 -15.4391 -0.961963
  668 608.770 109.133 -2.65368
  669 -28.2897 1.39833 -1.68249
  670 -28.1455 1.39478 1.71466
  671 270.931 1.54832 -95.7497
  672 22.1884 -0.408465 2.55944
  673 22.0777 -0.409483 -2.58446
  674 339.402 -28.3328 -60.7237
  675 113.667 15.5099 -41.1390
  676 112.776 15.5684 41.1196
  677 3.35829 5.70224 -3.04261
  678 3.51552 5.69506 3.11062
  679 289.020 -25.0908 -14.6646
  680 408.610 -4.03238 -22.4381
  681 196.277 -6.28271 -2.30639
  682 196.289 -6.21596 2.32340
  683 142.735 -7.35113 -13.3772
  684 142.850 -7.45192 13.3312
  685 27.3150 22.4532 -8.61896
  686 27.7622 22.5037 8.77163
  687 417.174 -5.34030 2.16124
  688 187.506 -12.0067 17.3693
  689 188.688 -11.8007 -17.3556
  690 462.370 -36.5231 -3.50950
  691 381.725 -38.3861 -7.14705
  692 300.678 -8.90365 -0.624390
  693 299.631 -8.33404 0.766439
  694 420.037 -44.0431 24.4739
  695 680.430 137.554 37.4521
  696 369.241 -15.8384 -97.5915
  697 422.661 -11.9365 23.0857
  698 420.591 -15.4733 -59.9476
  699 133.157 -4.20961 -6.34207
  700 133.163 -4.17932 6.26731
  701 328.596 -5.04979 109.305
  702 909.470 117.034 107.219
  703 64.3336 18.5533 -24.0341
  704 64.4307 18.6781 24.1123
  705 415.732 -4.40711 -1.07045
  706 418.984 -3.97858 1.09737
  707 177.779 91.4188 -154.210
  708 442.256 -2.51215 12.9504
  709 382.515 -6.97699 1.56747
  710 505.850 99.9975 -12.0058
  711 52.9153 9.23259 -17.5096
  712 53.1443 9.17501 17.5743
  713 472.983 -1.31140 0.324542
  714 384.973 -15.1618 -8.79747
  715 479.797 -6.76257 48.1451
  716 198.058 -13.9245 -26.9754
  717 198.554 -13.3345 26.7313
  718 47.1879 -1.58664 9.89583
  719 47.0536 -1.56710 -9.92062
  720 434.240 -3.25764 -2.09248
  721 374.626 75.6839 194.603
  722 3.06574 3.32005 12.0124
  723 3.20636 3.40512 -11.9158
  724 435.584 -4.96881 -5.74860
  725 423.310 -8.06607 8.24251
  726 338.483 0.348381 -38.1903
  727 3.28508 -37.8409 -4.61821
  728 3.07596 -38.2219 5.00194
  729 155.417 41.8340 -95.4403
  730 338.835 -33.8389 -44.1314
  731 176.590 90.5634 155.632
  732 467.088 -1.33999 1.23799
  733 454.224 68.0610 42.2892
  734 333.435 30.1906 -15.0086
  735 592.816 119.432 1.97324
  736 461.826 -2.09323 4.58612
  737 -26.2041 0.674057 3.72827
  738 -26.3933 0.677750 -3.71340
  739 492.138 -27.3072 14.9381
  740 319.703 -9.61247 -0.809662
  741 117.607 0.101058 -29.4796
  742 117.765 -0.0147387 29.3190
  743 423.031 -5.28270 -3.19679
  744 745.720 105.487 -38.7740
  745 52.9788 -1.52726 -6.27970
  746 53.0928 -1.53607 6.23732
  747 470.358 -1.43123 -2.08321
  748 96.4675 -4.29374 -8.74677
  749 96.5352 -4.30884 8.68376
  750 462.065 -18.0644 -49.8520
  751 427.082 -4.53814 17.9933
  752 384.582 -2.39280 58.0108
  753 470.859 -1.48624 0.0633810
  754 440.531 -3.62824 4.35131
  755 289.848 -15.8638 -3.90354
  756 362.148 -9.91669 1.92501
  757 411.912 -25.3834 -37.4487
  758 401.654 -25.3747 23.9844
  759 471.405 57.2693 -53.2149
  760 396.074 -22.4156 17.5544
  761 418.743 -24.7300 48.1368
  762 243.955 -16.6727 11.8856
  763 9.01639 -1.49117 0.0151568
  764 8.54976 -1.52295 0.427360
  765 366.385 -5.95523 -0.0857128
  766 365.616 -5.91668 -0.0488812
  767 438.025 -2.28324 -0.207554
  768 439.512 -2.19913 0.308422
  769 418.965 -11.8518 28.4489
  770 386.602 -35.1742 57.4935
  771 318.271 -25.9910 5.92643
  772 283.068 -17.1332 6.04560
  773 760.404 97.3062 44.8098
  774 423.100 -10.9348 -18.0653
  775 248.882 44.0181 -144.476
  776 393.497 -19.6789 -15.1106
  777 17.3971 0.289096 -9.50686
  778 17.5715 0.274714 9.52060
  779 354.366 31.0703 -33.6292
  780 884.329 26.8262 -11.4735
  781 443.552 11.6813 -64.7011
  782 18.0375 14.0413 -36.1335
  783 457.542 82.1088 10.7833
  784 356.010 -22.8871 4.51547
  785 400.697 -9.92467 56.8047
  786 337.132 -35.2893 44.3727
  787 536.299 -1.38235 88.7893
  788 19.4309 18.1537 38.5255
  789 244.421 -1.32956 74.8979
  790 340.306 -9.19169 -0.414470
  791 379.172 -33.6876 -58.1821
  792 234.024 -18.3193 -20.1400
  793 185.039 8.88448 -65.6316
  794 439.523 -6.61445 63.3851
  795 282.692 -19.4733 9.47505
  796 56.8699 -1.58341 5.56047
  797 56.7825 -1.58519 -5.60893
  798 409.862 -2.28077 19.8627
  799 372.884 1.97928 -56.4559
  800 -32.0804 1.48997 3.81742
  801 -32.0316 1.49286 -3.78858
  802 275.133 -8.97919 -1.47555
  803 274.349 -8.51433 1.38616
  804 204.403 23.0343 91.8793
  805 183.188 -10.8128 13.1608
  806 183.434 -10.5546 -13.2904
  807 470.018 -1.07378 -1.09704
  808 166.733 13.2422 64.0064
  809 7.99604 -0.158293 3.54319
  810 7.81434 -0.154859 -3.55719
  811 404.991 -12.4906 43.8382
  812 430.522 -3.99285 1.62455
  813 -23.0137 0.302756 6.30063
  814 -23.0185 0.310329 -6.28788
  815 266.926 -16.6795 56.2691
  816 52.2707 44.3622 -49.4929
  817 52.9030 42.3772 48.7677
  818 255.825 11.2504 6.27513
  819 -2.08052 -0.285917 -4.05665
  820 -1.87801 -0.288555 4.05336
  821 306.530 -29.0355 -41.6060
  822 417.199 -43.5924 -12.1870
  823 -2.09147 -1.98493 -2.63985
  824 -2.08519 -1.98016 2.62995
  825 25.5880 0.693612 -0.851422
  826 25.6474 0.697518 0.837061
  827 371.433 -33.1492 7.82002
  828 313.227 -32.0302 29.3993
  829 346.226 -6.31480 0.593955
  830 312.445 -25.3698 -7.08081
  831 116.823 -2.02359 -0.693391
  832 116.842 -1.97853 0.682980
  833 -36.1176 0.773969 2.13080
  834 -36.0379 0.772999 -2.10234
  835 390.260 -5.50663 -1.39364
  836 348.431 13.7987 -48.1175
  837 394.760 -8.24851 -4.51436
  838 234.521 -18.0153 19.2239
  839 392.222 -6.82747 -46.4822
  840 418.498 -12.8660 -29.3877
  841 391.808 -4.79520 1.23984
  842 287.198 -10.7467 76.7839
  843 306.831 -30.0348 -17.1055
  844 185.749 -1.39372 -50.5133
  845 186.763 -0.104089 50.7763
  846 262.062 -19.7944 -12.8829
  847 434.195 47.2420 55.3893
  848 410.722 -42.4238 -32.5968
  849 150.271 -4.86009 -3.22232
  850 150.264 -4.79101 3.19183
  851 314.598 -7.61029 0.485413
  852 314.613 -7.66904 -0.413020
  853 375.469 -2.79851 -30.4390
  854 128.343 -5.47188 -10.8119
  855 128.416 -5.51249 10.7261
  856 1.56344 -38.5502 -7.49956
  857 1.48188 -38.7173 7.65940
  858 66.6917 -0.985293 -0.206869
  859 66.6512 -1.00443 0.194386
  860 387.437 -6.52678 -1.94438
  861 295.434 -28.1746 26.6408
  862 456.878 -38.7295 12.6541
  863 272.065 5.69399 24.0266
  864 396.183 -9.73308 5.20523
  865 432.967 -38.5847 -29.1515
  866 64.0591 3.92280 -19.8800
  867 64.2478 3.85700 19.8724
  868 344.484 -6.73882 -0.538127
  869 278.405 -10.0483 -2.84733
  870 277.454 -9.96469 3.09573
  871 429.800 66.8494 29.9265
  872 150.379 -1.56727 -35.4695
  873 150.245 -1.74070 35.3229
  874 298.185 -27.0602 13.8026
  875 29.6023 18.9826 -7.49441
  876 29.8887 18.9476 7.57770
  877 252.580 -17.9436 46.0089
  878 302.355 -19.5374 -4.21129
  879 377.591 -2.89933 30.7560
  880 370.518 -41.5846 15.5103
  881 424.408 -32.1531 -41.3748
  882 294.711 -28.4040 -26.9961
  883 245.694 -16.6072 -11.4159
  884 793.451 65.0671 -12.3051
  885 388.002 -41.0482 4.66297
  886 11.7424 13.0188 3.89608
  887 11.9467 13.0450 -3.78852
  888 337.677 -33.8862 8.12295
  889 369.948 -41.4648 -26.0176
  890 12.6726 11.2759 -0.289442
  891 12.8524 11.2799 0.372147
  892 140.984 -5.07660 27.0260
  893 141.063 -5.22563 -27.1784
  894 170.298 -8.66647 29.6263
  895 170.231 -8.86807 -29.8203
  896 534.089 107.059 14.4508
  897 -0.769950 -16.5105 -7.86859
  898 -0.775593 -16.4898 7.86262
  899 124.093 10.3866 -39.1508
  900 123.497 10.1773 38.7813
  901 913.875 29.6002 -46.0165
  902 20.7942 -0.105406 1.44868
  903 20.7063 -0.108393 -1.46835
  904 1.66876 -43.4125 2.05801
  905 1.93879 -42.6604 -1.42281
  906 -17.6697 -0.202914 6.51451
  907 -17.6901 -0.197370 -6.51259
  908 99.2503 29.1025 -46.0353
  909 100.781 28.1359 45.4013
  910 -7.53805 0.479621 -13.6266
  911 -7.57660 0.448185 13.6509
  912 29.7373 2.50099 -13.0389
  913 29.9157 2.46844 13.0591
  914 108.610 -1.32442 24.9304
  915 108.530 -1.31889 -25.0490
  916 89.1293 -3.08241 -20.1363
  917 89.2233 -3.07718 20.1074
  918 458.220 -1.79066 -7.11360
  919 224.541 48.5691 134.485
  920 309.863 -30.6125 16.0985
  921 221.029 -15.9298 15.5490
  922 424.751 43.8989 -54.8029
  923 898.764 19.2146 18.4022
  924 501.313 23.5790 -50.9714
  925 85.4421 -3.27057 12.6107
  926 85.3523 -3.23394 -12.6553
  927 16.7249 -0.498116 -9.28457
  928 16.8967 -0.502798 9.28546
  929 -0.163687 -7.56618 -14.7603
  930 -0.229798 -7.63179 14.8102
  931 228.422 -10.2556 7.01768
  932 228.537 -10.4500 -7.04987
  933 28.6633 7.42070 -11.7043
  934 28.8538 7.38774 11.7646
  935 140.030 -6.29087 -22.9896
  936 140.127 -6.29174 22.9767
  937 301.888 -1.21562 -28.2512
  938 144.583 -7.89695 -16.0388
  939 144.490 -7.81435 16.0906
  940 347.027 -10.0776 -0.529669
  941 420.023 -23.9316 -51.8023
  942 185.150 -7.62057 7.44473
  943 185.232 -7.68856 -7.53931
  944 -7.63886 -0.808510 -4.62795
  945 -7.61772 -0.810445 4.61787
  946 426.926 -32.2433 -70.9997
  947 409.410 -24.0654 32.4488
  948 359.387 -25.2882 -6.09521
  949 352.732 12.1789 50.6822
  950 161.013 -9.10113 -18.0403
  951 161.020 -8.93156 18.0948
  952 393.046 15.2218 61.0921
  953 367.873 32.1228 40.2489
  954 742.224 89.0375 15.7183
  955 381.833 -13.9827 6.29612
  956 202.831 -6.21140 -3.35517
  957 202.809 -6.09410 3.38200
  958 342.599 -28.2022 -0.0690610
  959 474.833 87.0329 -25.1271
  960 417.274 -4.80902 -2.20940
  961 275.755 -7.06146 1.10973
  962 275.651 -7.00943 -1.03193
  963 35.6034 30.2580 -22.0400
  964 36.4934 30.2106 22.2022
  965 66.1109 173.908 -149.768
  966 393.151 -9.22012 46.2146
  967 487.662 -8.44518 -42.5513
  968 -7.47345 4.75277 2.13267
  969 -7.34380 4.75224 -2.06759
  970 981.788 234.971 -186.913
  971 417.814 -45.1832 3.08067
  972 445.199 -40.6692 -19.6154
  973 411.558 -35.2066 29.1335
  974 510.010 100.166 10.1516
  975 37.3964 40.2694 -46.1986
  976 94.0335 150.855 147.412
  977 -2.33901 -5.55727 14.8203
  978 -2.29800 -5.50915 -14.7952
  979 399.909 -10.5088 6.58931
  980 641.797 113.304 -14.2661
  981 38.4746 39.3919 47.9808
  982 -1.76040 -5.96985 -5.14630
  983 -1.76068 -5.95314 5.13276
  984 343.668 -8.35547 0.00706724
  985 257.563 -20.5320 -21.0309
  986 414.807 -32.7162 -34.9070
  987 118.946 32.0251 -60.5583
  988 120.841 32.5496 60.7144
  989 403.596 -9.99347 -41.1251
  990 405.517 -13.0739 12.7019
  991 -10.5540 2.85916 11.9016
  992 -10.4996 2.88722 -11.8620
  993 245.983 -16.1887 -43.3211
  994 407.939 26.2410 -61.1815
  995 302.857 -11.6340 1.62546
  996 218.949 -6.44239 0.622022
  997 218.907 -6.48280 -0.597260
  998 -4.53680 -5.15606 -10.6798
  999 -4.54322 -5.16722 10.6708
  1000 411.010 -14.8392 -15.7931
  1001 390.962 -4.70860 0.352995
  1002 390.601 -4.71412 -0.196114
  1003 541.044 89.0962 -34.4344
  1004 98.9942 8.46890 -30.9972
  1005 99.2409 8.29997 30.9326
  1006 64.0865 -0.652643 -16.7338
  1007 64.2084 -0.665387 16.7162
  1008 446.554 24.2091 65.4539
  1009 421.113 -8.16144 -8.65535
  1010 75.7118 11.7932 -25.3683
  1011 76.0105 11.7059 25.4609
  1012 438.554 -2.59602 -1.33194
  1013 410.886 -17.8757 -24.3342
  1014 401.260 -45.0407 -18.6584
  1015 15.7496 13.7925 0.651657
  1016 15.3213 13.7267 -0.456577
  1017 -19.0366 3.23376 6.94033
  1018 -18.9660 3.24287 -6.89280
  1019 247.400 9.22234 -10.4935
  1020 692.036 172.833 -49.3595
  1021 317.857 -23.3269 -2.92779
  1022 211.031 -9.22318 -44.5453
  1023 507.711 -19.5218 2.27439
  1024 211.859 -9.20995 45.1598
  1025 364.988 -42.2732 30.1538
  1026 413.675 -17.1338 -37.0874
  1027 143.994 -3.44347 -1.03017
  1028 144.008 -3.38569 1.02382
  1029 283.315 -22.2515 -11.3719
  1030 174.497 -6.56198 -34.8530
  1031 174.437 -6.61172 34.6839
  1032 58.2043 38.1862 -37.8504
  1033 59.1194 38.0832 37.9642
  1034 121.589 -3.89620 -3.64902
  1035 121.601 -3.84963 3.60491
  1036 367.719 -11.9584 3.11649
  1037 310.783 1.77381 -110.594
  1038 381.044 -12.6532 -6.29272
  1039 344.796 -38.0752 -18.5934
  1040 227.862 -9.78611 4.86033
  1041 228.045 -9.85730 -4.87415
  1042 444.493 -2.95289 1.68122
  1043 398.374 -9.75239 -6.16806
  1044 260.536 6.36990 19.8109
  1045 427.629 -4.25015 -16.7460
  1046 166.555 49.0697 108.080
  1047 439.807 -4.12780 -13.6758
  1048 116.212 19.4912 -45.8110
  1049 112.788 19.7072 43.9835
  1050 524.611 -7.89198 -4.26529
  1051 48.4676 25.1194 -20.0424
  1052 48.9093 24.9416 20.0412
  1053 8.35403 0.123429 4.05100
  1054 8.76092 0.200189 -3.78296
  1055 70.7415 -1.86613 4.36680
  1056 70.6769 -1.87786 -4.41773
  1057 189.279 49.6468 -119.575
  1058 1012.38 266.897 201.193
  1059 409.717 -14.8283 16.1966
  1060 368.237 -41.2619 -14.0702
  1061 256.799 -21.1195 -33.7017
  1062 -4.85792 5.79328 10.1524
  1063 -4.75890 5.82504 -10.0858
  1064 289.504 -15.1230 3.18242
  1065 318.895 -12.1259 0.631880
  1066 -0.142871 -23.3787 7.56970
  1067 -0.134939 -23.4027 -7.56793
  1068 48.6954 30.1119 -23.7395
  1069 49.2680 30.0588 23.8789
  1070 285.692 -13.9299 -3.04637
  1071 23.4219 10.4685 7.62920
  1072 23.2331 10.4820 -7.55240
  1073 435.236 -16.9524 60.1009
  1074 315.553 -32.6215 -29.2514
  1075 258.317 -21.4582 33.7015
  1076 415.062 -8.10917 -63.5469
  1077 436.124 -4.98628 6.27348
  1078 159.545 24.6301 72.8312
  1079 160.686 23.5688 -71.6288
  1080 256.367 -12.3228 -61.3829
  1081 361.719 -13.2401 -3.10997
  1082 294.861 -17.9141 5.69901
  1083 344.910 -32.2862 -2.35016
  1084 470.873 -1.75854 -3.61234
  1085 256.311 -11.9888 5.33693
  1086 256.201 -12.6608 -5.47687
  1087 9.00275 10.4492 7.92028
  1088 9.21378 10.5254 -7.79866
  1089 418.677 15.6811 -65.7346
  1090 95.2074 4.71525 -27.4256
  1091 95.4616 4.61034 27.3551
  1092 71.9893 1.30337 -19.7682
  1093 72.1454 1.26407 19.7360
  1094 475.302 -17.7659 89.0381
  1095 413.128 -19.0583 36.4991
  1096 203.441 -9.36910 -37.9134
  1097 478.051 -1.96178 -2.15211
  1098 539.008 102.187 -25.8752
  1099 435.209 -4.38438 -3.86927
  1100 409.107 -43.9526 11.9920
  1101 303.523 -22.9055 54.0154
  1102 480.870 -0.686489 0.353098
  1103 260.057 8.07672 -16.7921
  1104 347.301 -37.1313 -9.34863
  1105 203.772 -9.79116 37.5156
  1106 350.496 -32.0103 0.344812
  1107 435.847 -6.39152 12.0495
  1108 316.297 19.9995 26.0890
  1109 218.711 -16.1167 -30.3862
  1110 655.462 96.7000 -42.2094
  1111 495.386 23.1163 53.6981
  1112 372.795 46.6066 6.37279
  1113 476.177 -0.0229869 1.86557
  1114 190.224 -11.9403 -23.4070
  1115 129.626 81.0427 -120.345
  1116 231.150 6.45251 -86.7494
  1117 265.175 -20.4926 15.1140
  1118 224.394 -16.8390 28.5531
  1119 189.779 -11.3635 23.6369
  1120 398.494 3.67374 64.0798
  1121 300.801 -10.8157 -1.26740
  1122 469.806 -3.56312 4.92410
  1123 -3.54344 -0.120611 14.7441
  1124 -3.48685 -0.0721108 -14.7065
  1125 314.845 -9.35889 0.579858
  1126 -0.00335628 3.83061 13.1540
  1127 0.0991640 3.89429 -13.0819
  1128 178.551 -5.76467 4.12527
  1129 178.562 -5.85232 -4.12999
  1130 443.688 -2.43521 11.3496
  1131 357.306 -22.0954 -4.92722
  1132 334.894 -18.1734 -0.794718
  1133 374.206 -26.3586 11.1274
  1134 115.145 57.7008 -90.0998
  1135 366.679 -14.1970 4.30935
  1136 56.5710 0.963879 -16.2567
  1137 56.7192 0.936594 16.2464
  1138 77.3860 50.1613 -63.8312
  1139 584.570 78.3690 15.1092
  1140 44.2890 -1.98060 9.51887
  1141 44.1482 -1.96468 -9.53256
  1142 78.7776 49.4181 61.6973
  1143 336.274 -28.2848 -1.28285
  1144 171.996 -8.13377 9.13371
  1145 172.020 -8.16966 -9.27386
  1146 682.926 144.973 -39.9657
  1147 370.162 -37.0924 1.01040
  1148 127.710 75.9448 120.113
  1149 11.1584 -0.933348 -10.8784
  1150 12.0051 -0.787892 11.8717
  1151 392.006 49.1285 32.1337
  1152 30.1934 16.0136 -7.82754
  1153 30.4327 16.0193 7.89747
  1154 372.571 -32.4928 -8.38839
  1155 -0.167514 -36.0237 -7.06031
  1156 -0.184386 -36.0278 7.09250
  1157 398.028 -33.6153 -20.0716
  1158 -3.45850 0.473747 3.16120
  1159 -3.66293 0.476818 -3.16786
  1160 62.1255 22.9270 -25.5473
  1161 62.4606 23.0268 25.3262
  1162 -18.3247 0.0414720 -3.87141
  1163 -18.1140 0.0400047 3.87551
  1164 396.816 -4.72880 -0.399040
  1165 -38.9356 1.16922 0.463936
  1166 -38.8258 1.16867 -0.437636
  1167 211.673 -16.6839 -22.6516
  1168 5.68999 -49.7456 -5.99489
  1169 108.036 -3.09897 6.91433
  1170 107.994 -3.10931 -6.98631
  1171 338.053 -6.88947 0.574303
  1172 338.690 -6.72206 -0.509008
  1173 6.11219 -47.3048 7.22463
  1174 400.508 -21.0656 -20.1467
  1175 456.319 -2.20634 8.28866
  1176 407.036 -26.1391 -29.8131
  1177 357.427 2.73422 50.2836
  1178 2.00984 -13.9319 10.5686
  1179 2.18503 -13.8218 -10.3869
  1180 261.535 -19.1757 12.1815
  1181 -17.5941 1.67992 9.52686
  1182 -17.5614 1.69404 -9.49783
  1183 673.973 106.898 7.40377
  1184 782.285 250.224 -175.979
  1185 416.048 -40.2993 24.9973
  1186 174.102 -5.22188 -0.628237
  1187 174.115 -5.16087 0.628809
  1188 845.787 82.1113 -75.9849
  1189 63.4729 -1.64219 9.87899
  1190 63.3578 -1.61763 -9.91414
  1191 389.954 -1.27038 -19.8590
  1192 250.981 -20.3550 25.5793
  1193 411.529 -40.2122 -17.7505
  1194 398.408 -29.0343 -22.9632
  1195 244.311 -8.49238 64.3030
  1196 91.5182 16.8712 -34.8725
  1197 91.4723 16.7220 34.6822
  1198 119.918 44.5766 -76.7230
  1199 120.086 41.2764 76.7290
  1200 35.2870 9.95034 -12.4195
  1201 35.4924 9.92131 12.4924
  1202 492.079 85.4872 -36.6503
  1203 26.0836 23.9839 -11.5103
  1204 26.6805 24.0222 11.6906
  1205 354.807 -27.3479 3.93925
  1206 658.422 100.230 47.1523
  1207 87.1158 -3.60285 -6.81576
  1208 87.1823 -3.60170 6.75219
  1209 425.993 306.705 -258.713
  1210 334.745 19.9327 -40.2210
  1211 308.246 23.5617 16.4493
  1212 43.4511 17.9736 -14.6737
  1213 43.6555 17.9748 14.7524
  1214 11.9311 -0.0901601 2.30914
  1215 11.7907 -0.0900203 -2.32822
  1216 392.711 -31.6020 18.7107
  1217 385.961 -15.7536 9.74271
  1218 264.712 76.9237 -186.463
  1219 608.084 132.969 -8.19131
  1220 262.709 -7.80437 -70.7103
  1221 339.464 -10.8445 0.100294
  1222 21.0448 -1.67225 -0.523859
  1223 21.0878 -1.67096 0.520882
  1224 -7.39155 2.66714 -5.46103
  1225 -7.22435 2.65626 5.50118
  1226 228.680 2.64749 -74.2831
  1227 418.359 -9.47099 11.2396
  1228 273.303 5.45026 101.032
  1229 369.267 -18.5502 -7.08873
  1230 191.470 69.1702 -147.216
  1231 296.907 -14.1720 -76.2679
  1232 353.153 -37.7036 7.37542
  1233 431.354 -6.97259 18.3796
  1234 378.441 -8.33318 -2.42490
  1235 210.798 -15.6727 22.7772
  1236 474.494 -26.0907 -32.7080
  1237 451.588 39.5486 61.9355
  1238 197.749 0.962053 -58.9216
  1239 447.031 -3.07005 1.32537
  1240 363.664 45.1307 -9.10323
  1241 158.870 -5.65205 -6.77176
  1242 158.843 -5.59502 6.70110
  1243 684.638 161.090 42.1852
  1244 930.704 24.7215 43.0916
  1245 0.860047 -43.9201 -6.99824
  1246 0.832767 -43.9679 7.05283
  1247 102.637 54.7258 84.4006
  1248 244.392 -7.46304 -1.53198
  1249 244.444 -7.42025 1.62179
  1250 333.376 -33.5991 -10.0103
  1251 398.700 32.8469 55.4619
  1252 414.877 -8.50063 -7.07701
  1253 480.188 -1.38792 -0.440759
  1254 830.938 185.312 -117.359
  1255 132.553 -5.04721 7.05571
  1256 132.536 -5.05766 -7.14285
  1257 398.441 -36.9775 19.0914
  1258 696.051 173.241 -55.9364
  1259 386.243 -17.1436 -11.0332
  1260 283.240 -19.9015 -8.66694
  1261 347.031 -37.6644 18.1553
  1262 339.307 -17.2868 1.56495
  1263 12.8974 4.79103 -16.8579
  1264 463.037 -27.6789 39.4540
  1265 375.608 -24.7778 -10.8803
  1266 14.1905 5.44135 18.5559
  1267 385.961 -30.2606 -71.7414
  1268 364.619 23.9333 -152.559
  1269 598.770 78.1744 -9.22472
  1270 481.998 -0.467679 -0.140827
  1271 481.171 -0.910979 0.419076
  1272 381.984 -22.5177 11.9628
  1273 148.449 17.6903 -58.0857
  1274 434.890 -38.4169 31.7026
  1275 736.665 169.039 78.7782
  1276 183.815 64.0573 143.487
  1277 5.38372 1.12946 10.6718
  1278 5.57725 1.22518 -10.5382
  1279 456.194 -36.0807 -39.4320
  1280 185.772 -10.2536 -10.9105
  1281 185.743 -10.2804 10.7239
  1282 425.815 -27.8986 49.5121
  1283 17.4143 0.0877162 10.3437
  1284 17.2433 0.0960660 -10.3389
  1285 -2.27670 -8.81819 12.2745
  1286 -2.26090 -8.79924 -12.2769
  1287 78.1753 -2.68309 -9.00829
  1288 78.2635 -2.69873 8.95378
  1289 225.162 -15.0696 -34.4408
  1290 227.035 -7.75883 2.21094
  1291 227.026 -7.92065 -2.12649
  1292 480.420 -0.454736 0.121725
  1293 428.879 -6.72136 -20.7134
  1294 36.6047 1.54305 -13.0638
  1295 36.7704 1.51891 13.0703
  1296 226.058 -15.9338 34.1803
  1297 484.858 -0.581334 0.202334
  1298 458.645 -0.666333 -0.519863
  1299 458.618 -0.943239 0.405165
  1300 607.601 129.349 3.83913
  1301 447.443 -3.30818 -3.08253
  1302 398.003 -4.48650 0.258605
  1303 440.834 -6.88798 -10.6507
  1304 478.100 -1.65070 1.43811
  1305 500.975 52.2775 53.2058
  1306 579.909 121.183 11.9055
  1307 465.417 -1.94117 -5.45734
  1308 -3.86755 -0.973719 3.46558
  1309 -3.88313 -0.973038 -3.47629
  1310 260.568 -16.6405 8.49582
  1311 260.519 -15.9201 -8.26373
  1312 505.518 57.9229 -50.4730
  1313 106.511 36.8157 -63.5787
  1314 107.196 35.8188 62.9064
  1315 343.673 0.0586462 -25.1490
  1316 350.990 -6.08205 -0.443870
  1317 350.561 -6.03650 0.370468
  1318 -8.35799 -1.33224 12.4778
  1319 -8.34276 -1.30929 -12.4733
  1320 391.109 -1.02199 19.8221
  1321 592.600 117.779 -2.66234
  1322 44.7869 -1.61931 -5.67454
  1323 44.8983 -1.62306 5.63186
  1324 437.623 -41.7380 16.5459
  1325 1.15481 7.47445 10.2722
  1326 1.28327 7.51961 -10.1891
  1327 83.6722 -1.90397 -1.90937
  1328 83.7090 -1.87543 1.88081
  1329 343.753 -0.468401 25.5351
  1330 17.1394 0.722471 -0.877161
  1331 17.2115 0.725237 0.862737
  1332 444.327 -5.38805 6.78439
  1333 620.242 112.661 6.41282
</Section>

newXOutput 57

<Section columns = "stress_xx | stress_yy | stress_xy">
  1 500.644 -1.39215 0.912327
  2 501.412 -1.76356 -1.18464
  3 12.7190 0.463985 -1.28606
  4 -0.369024 -0.554294 -0.368679
  5 911.650 372.329 300.418
  6 925.690 425.656 -303.470
  7 -0.365039 -0.550798 0.363524
  8 12.6753 0.461369 1.28306
  9 504.001 -0.990544 -0.828888
  10 500.373 -1.78829 -1.20888
  11 500.801 -1.40794 1.06485
  12 498.465 -0.793477 0.426008
  13 497.581 -1.68063 -0.366617
  14 496.955 -1.62172 1.88915
  15 490.021 -1.16665 1.77606
  16 492.066 -3.56834 2.77097
  17 477.164 -2.97724 6.03376
  18 467.795 -1.35743 7.26752
  19 454.805 -1.64219 7.86191
  20 432.116 -1.45823 11.0558
  21 407.307 -1.22869 12.8753
  22 376.228 1.64094 17.7178
  23 333.552 2.54628 16.0732
  24 316.359 -0.105931 23.0477
  25 262.932 3.73623 16.4165
  26 230.344 4.89370 12.8860
  27 221.850 2.43775 9.51006
  28 212.745 7.16702 0.710099
  29 217.737 7.71024 -12.7237
  30 227.733 2.23781 -15.9657
  31 267.780 1.01366 -21.2897
  32 308.063 -1.98538 -22.0501
  33 335.077 2.11232 -16.0422
  34 376.682 1.86480 -17.7186
  35 406.273 -1.45461 -13.8052
  36 434.599 -1.63506 -10.4241
  37 453.042 -1.20806 -7.98749
  38 466.406 -1.44467 -6.65140
  39 480.765 -1.73341 -3.83115
  40 486.263 -1.79436 -3.64879
  41 491.648 -1.69281 -3.22620
  42 497.097 -1.92176 -0.581475
  43 499.151 -2.42753 -1.30527
  44 496.198 0.0732328 -0.0246219
  45 500.219 -1.29276 -1.20950
  46 502.255 -2.60525 1.31825
  47 504.604 -1.50702 -0.0558539
  48 479.662 0.162210 -0.756471
  49 451.673 -2.13738 -1.41347
  50 419.929 -4.69865 -2.00597
  51 387.025 -4.03208 -1.45229
  52 358.285 -6.33244 -1.33325
  53 327.917 -6.85097 -1.21020
  54 297.262 -6.02490 -0.573059
  55 264.997 -6.41388 -0.800929
  56 237.699 -6.76434 -1.06450
  57 201.363 -6.43935 -0.856538
  58 163.961 -4.08225 -0.548290
  59 133.026 -2.62952 -0.430062
  60 94.8343 -1.65728 -0.153169
  61 67.1050 -1.57511 -1.89068
  62 41.3618 -2.13041 -0.610789
  63 15.3899 0.240280 1.19574
  64 8.59168 1.80746 0.488133
  65 6.60571 0.732582 1.27409
  66 7.41907 0.329800 1.27696
  67 1.87263 1.03847 0.623079
  68 -0.368279 1.36324 2.64131
  69 -1.50306 0.480031 1.03817
  70 -10.8654 1.01742 1.12966
  71 -15.3783 0.698259 2.55963
  72 -17.4127 0.226638 2.70020
  73 -27.7823 0.950464 2.16461
  74 -31.8322 1.42808 3.96061
  75 -36.4366 0.866648 1.57253
  76 -41.6121 0.632863 2.21998
  77 -43.9477 0.673236 0.999280
  78 -49.0451 1.64920 -0.924536
  79 -49.9069 1.12990 -0.676739
  80 -45.7267 0.848258 -1.45598
  81 -39.4506 1.12158 -2.93356
  82 -32.2116 0.507457 -4.56959
  83 -24.1102 0.283337 -4.80307
  84 -14.5112 -0.473995 -5.05675
  85 -6.35246 -0.383061 -2.97340
  86 -2.67837 -1.04643 -1.86452
  87 -0.439647 -2.68512 -1.62116
  88 -0.732383 -6.86109 -2.86260
  89 -0.837437 -13.3349 -4.99637
  90 -0.152054 -24.9156 -5.36600
  91 0.314139 -34.3363 -6.70706
  92 0.716784 -49.2898 -5.45716
  93 2.15435 -58.3203 -6.40154
  94 0.400084 -62.4159 -5.18699
  95 -0.0622597 -71.1152 -2.91461
  96 2.00368 -68.0274 -0.283124
  97 8.16740 -87.7930 4.45773
  98 7.47223 -44.1562 13.7752
  99 17.5817 -14.1120 29.6335
  100 52.1835 95.1411 89.7148
  101 218.300 295.076 249.122
  102 1194.11 128.750 176.736
  103 1002.17 35.5205 63.4347
  104 954.796 15.1502 21.8109
  105 928.642 9.89360 -0.119913
  106 945.358 14.4300 -17.9444
  107 1011.33 30.3205 -52.4678
  108 1181.65 101.980 -164.360
  109 141.864 334.278 -206.177
  110 36.6941 72.1836 -69.6832
  111 12.9727 -22.7299 -24.7755
  112 6.77334 -49.2116 -11.9423
  113 8.12040 -91.4034 -3.57180
  114 1.91325 -69.6250 0.907727
  115 -0.180692 -71.9131 3.23977
  116 0.324737 -62.7226 5.36107
  117 2.11318 -58.3902 6.47497
  118 0.700977 -49.2598 5.48418
  119 0.302185 -34.2859 6.71660
  120 -0.157895 -24.8527 5.36255
  121 -0.838151 -13.2949 4.98554
  122 -0.733967 -6.82676 2.85251
  123 -0.439328 -2.67224 1.61225
  124 -2.66292 -1.04494 1.85706
  125 -6.32499 -0.384795 2.96533
  126 -14.4758 -0.478104 5.05187
  127 -24.0693 0.278789 4.80410
  128 -32.1887 0.502490 4.57822
  129 -39.4602 1.11804 2.95054
  130 -45.7696 0.847973 1.47427
  131 -49.9929 1.12887 0.694608
  132 -49.1670 1.64900 0.943142
  133 -44.1103 0.674984 -0.983039
  134 -41.8054 0.635010 -2.20792
  135 -36.6450 0.869103 -1.56296
  136 -32.0581 1.43100 -3.95662
  137 -28.0146 0.953206 -2.16127
  138 -17.6422 0.228307 -2.70066
  139 -15.6085 0.701148 -2.56315
  140 -11.0853 1.02148 -1.13495
  141 -1.69720 0.482721 -1.04825
  142 -0.536389 1.36602 -2.65643
  143 1.72770 1.03924 -0.636454
  144 7.30986 0.329275 -1.28999
  145 6.52287 0.731284 -1.28456
  146 8.52643 1.80520 -0.497220
  147 15.3400 0.238773 -1.20107
  148 41.3163 -2.13823 0.605341
  149 67.0632 -1.59472 1.88471
  150 94.8029 -1.69206 0.145257
  151 133.008 -2.67984 0.425971
  152 163.945 -4.14058 0.547682
  153 201.337 -6.48971 0.864513
  154 237.638 -6.78911 1.08110
  155 264.900 -6.38162 0.840092
  156 297.125 -5.90845 0.617990
  157 327.729 -6.57721 1.14255
  158 358.441 -6.41153 1.16836
  159 387.143 -4.51880 1.53406
  160 420.255 -4.60948 1.82219
  161 452.561 -1.87770 1.43313
  162 478.895 0.132820 0.736173
  163 281.195 -25.4138 -24.3942
  164 280.080 -25.8770 24.3361
  165 85.4187 23.4532 -34.9660
  166 86.2586 23.5374 34.8202
  167 331.044 -15.4020 86.9956
  168 346.883 -17.4472 -84.6834
  169 164.257 -8.71716 11.3414
  170 164.236 -8.63210 -11.4945
  171 353.457 -12.7482 1.23574
  172 346.467 -12.7842 -1.10892
  173 472.529 84.9702 -11.4955
  174 477.801 3.93911 -58.6151
  175 468.500 7.54246 63.2742
  176 114.567 -4.38429 -23.5851
  177 114.578 -4.35311 23.5410
  178 412.996 -40.8216 20.0275
  179 412.615 -31.7728 -28.9089
  180 6.12283 9.91501 9.44861
  181 6.29417 9.97840 -9.34651
  182 564.200 115.051 16.0969
  183 109.914 49.4283 -78.0920
  184 117.862 49.8826 83.6523
  185 399.278 -18.9007 13.2665
  186 598.482 126.207 -5.87780
  187 260.109 -9.77465 -3.49862
  188 259.696 -10.0193 3.47243
  189 410.278 -13.2352 -12.1680
  190 545.128 -2.00833 -10.0592
  191 104.113 -3.14239 4.37372
  192 104.077 -3.16867 -4.43189
  193 44.9634 5.51699 -16.0722
  194 45.1650 5.46042 16.1099
  195 232.008 -8.83324 -54.9060
  196 231.104 -9.31160 55.6050
  197 276.775 -18.1857 -8.98136
  198 277.325 -18.0842 9.51881
  199 74.3149 -2.59770 12.6142
  200 74.2061 -2.56312 -12.6403
  201 539.104 -7.97037 37.7319
  202 442.021 -43.1927 -7.13770
  203 419.177 -4.66117 -1.72912
  204 409.990 -5.61045 1.74276
  205 419.133 49.2522 44.9779
  206 18.3372 16.2010 -6.79875
  207 18.9904 16.1731 7.08991
  208 416.701 -16.6637 52.2835
  209 385.258 29.5303 -51.6943
  210 272.795 63.1979 -177.159
  211 286.850 53.4134 164.654
  212 8.18096 9.28744 -1.72997
  213 8.34509 9.28598 1.80889
  214 415.446 -14.6663 -54.0668
  215 718.467 100.356 -6.99163
  216 345.226 -37.5013 32.0067
  217 347.788 -37.2974 -30.3381
  218 345.017 -24.8697 -0.883340
  219 426.176 -7.09409 6.39545
  220 208.666 -14.4035 -20.8030
  221 205.444 -14.3475 21.4186
  222 126.075 2.49235 -35.3532
  223 126.257 2.44474 35.0648
  224 437.933 -45.8486 -6.80638
  225 342.184 -26.4174 -0.600705
  226 424.631 -6.94510 -4.92931
  227 331.941 -9.00930 -0.261950
  228 334.783 -8.43632 0.881691
  229 420.093 -18.8626 29.7501
  230 38.3873 0.298195 -13.4664
  231 38.5460 0.281303 13.4660
  232 -5.17735 -3.43098 -14.1323
  233 -5.20461 -3.46497 14.1436
  234 67.4930 -2.87032 -7.34053
  235 67.5863 -2.87723 7.28527
  236 180.000 -5.55662 5.06664
  237 180.038 -5.65026 -5.10377
  238 205.766 14.4078 -79.8239
  239 205.792 12.0435 78.9321
  240 425.891 -13.4356 -25.4511
  241 201.933 -11.8374 -33.5207
  242 202.108 -12.1959 33.0655
  243 377.874 5.96524 58.5562
  244 332.328 28.4858 3.55226
  245 366.125 -36.5448 0.0671083
  246 1.80670 -8.43622 -12.5665
  247 1.68358 -8.53444 12.6735
  248 24.1451 25.8357 -27.7670
  249 25.6713 24.9958 29.1152
  250 360.071 -35.7594 -2.44995
  251 645.749 123.455 -12.4062
  252 34.7644 23.3032 -12.2694
  253 35.1747 23.2956 12.4056
  254 -13.3718 3.10078 9.39436
  255 -13.3009 3.11695 -9.34516
  256 648.758 115.966 16.1581
  257 229.879 -11.3017 -8.42566
  258 229.708 -11.1270 8.27145
  259 446.528 -29.8375 47.7975
  260 801.193 130.523 81.5521
  261 135.956 -7.20885 -19.4380
  262 135.933 -7.25954 19.4212
  263 456.916 68.4739 -42.7192
  264 773.843 147.353 -74.7467
  265 543.077 55.5584 39.5535
  266 587.015 40.3634 -112.576
  267 365.967 -17.6709 4.58756
  268 417.396 2.27716 -65.3796
  269 394.163 -28.0058 -16.0569
  270 438.483 -8.07368 16.0410
  271 1.45705 4.21622 -5.23013
  272 1.62203 4.20315 5.28671
  273 433.952 -13.1016 -108.444
  274 48.2861 14.4714 -16.3314
  275 48.5140 14.4464 16.4178
  276 421.712 -10.2364 -32.9592
  277 61.4968 65.3128 -81.2274
  278 54.2769 -0.269780 -1.70892
  279 54.3301 -0.258831 1.68485
  280 444.996 -27.3035 -49.9624
  281 79.6576 35.7809 -43.9188
  282 80.7989 35.5939 44.0429
  283 25.2723 -0.729311 9.37782
  284 25.1049 -0.720592 -9.38343
  285 365.410 -16.8146 -4.48365
  286 61.9308 64.6299 83.3547
  287 577.202 48.0673 131.490
  288 161.654 -6.53077 -6.93801
  289 161.629 -6.49103 6.84655
  290 293.019 -12.5442 -3.36125
  291 292.878 -13.5363 3.70365
  292 250.141 24.6654 -120.496
  293 401.757 -43.8579 -4.80845
  294 455.413 -3.10581 2.78504
  295 241.007 24.6956 116.660
  296 280.735 -8.08765 -1.15392
  297 280.630 -8.08290 1.39086
  298 394.813 -29.1153 16.3531
  299 452.050 -5.06143 -7.39948
  300 -1.18747 1.67308 -7.44017
  301 -1.00478 1.66053 7.46746
  302 570.224 113.071 -4.14206
  303 498.106 -22.3539 24.1827
  304 448.567 -2.71662 -0.682009
  305 456.242 -2.37414 0.617975
  306 448.822 -38.6991 40.2614
  307 553.401 59.3032 -36.4005
  308 486.319 90.3374 24.2264
  309 219.651 -13.6469 -13.3062
  310 217.694 -13.8910 13.5511
  311 454.832 -3.04045 -1.78735
  312 300.855 -22.5263 -60.0879
  313 296.248 -23.5834 11.3464
  314 282.401 -15.1830 68.3039
  315 448.365 -5.66749 8.89638
  316 104.799 -4.81026 -12.1797
  317 104.872 -4.84501 12.1296
  318 413.815 -12.6519 107.157
  319 264.608 -21.0945 -16.5601
  320 484.810 62.6646 53.2624
  321 155.917 10.9204 -52.1936
  322 150.189 11.4225 51.7828
  323 48.5030 -0.973191 -3.09913
  324 48.5834 -0.966897 3.06088
  325 396.619 -8.52765 3.47358
  326 380.485 -6.00290 0.330614
  327 378.385 -6.52054 -0.456880
  328 418.728 -10.7753 34.9533
  329 39.1710 -1.38140 7.04503
  330 39.0275 -1.36878 -7.07493
  331 124.901 -3.05146 -2.57617
  332 124.916 -3.00377 2.55073
  333 4.18158 -18.0424 -6.62026
  334 3.91572 -18.1965 6.93711
  335 328.838 14.3130 39.8546
  336 502.854 -20.7334 -19.1282
  337 326.832 -17.7710 0.0763513
  338 368.536 -8.00066 -1.53251
  339 388.656 48.2297 -24.2420
  340 77.9275 -2.52339 -17.5400
  341 78.0311 -2.52555 17.5271
  342 317.933 -16.7890 1.55703
  343 91.7975 2.96114 -25.1509
  344 91.9736 2.88349 25.0786
  345 18.4161 14.9873 -1.08372
  346 18.6330 14.9861 1.17681
  347 385.624 -40.9980 40.8462
  348 846.563 55.7454 21.7637
  349 346.123 5.39230 -47.1461
  350 287.926 -25.7786 37.3927
  351 286.464 -25.2488 -38.4874
  352 424.014 -6.90078 64.6265
  353 378.330 -2.63122 46.4377
  354 380.683 -39.6368 -42.1151
  355 228.644 -6.21091 0.616945
  356 228.607 -6.27787 -0.561015
  357 421.106 -27.4535 39.0151
  358 576.733 114.474 1.81145
  359 450.806 -5.34682 -11.8511
  360 118.943 -4.59702 -8.88428
  361 118.996 -4.60130 8.80113
  362 425.074 -39.6341 -50.4792
  363 448.193 31.6689 -64.2513
  364 303.747 16.3253 -25.6190
  365 424.152 -28.2000 -44.7943
  366 -13.6711 0.553349 -10.8867
  367 -13.6860 0.536117 10.9007
  368 356.217 -9.03791 0.636914
  369 -5.06092 -3.00302 -6.59494
  370 -5.05450 -3.00389 6.58092
  371 274.627 141.149 -215.021
  372 11.5650 10.4184 6.01827
  373 11.8418 10.4991 -5.86964
  374 375.535 -2.77648 -46.0600
  375 208.089 -9.12956 6.36292
  376 208.231 -9.24665 -6.42719
  377 -1.32723 -14.8015 12.4140
  378 -1.30419 -14.7746 -12.4015
  379 223.812 147.813 202.642
  380 170.725 -9.16835 -26.3334
  381 170.864 -8.78476 26.3536
  382 54.8748 40.7836 -40.8173
  383 56.0122 40.6809 40.5929
  384 -20.3176 3.28278 3.50943
  385 -20.2201 3.28821 -3.45634
  386 432.797 29.1565 64.5428
  387 331.634 -34.7212 18.5108
  388 331.988 -30.4227 8.08541
  389 401.285 -45.3472 -7.29970
  390 102.281 12.6016 -34.7032
  391 102.622 12.5808 34.6544
  392 9.24567 -11.4921 1.97149
  393 8.75655 -11.7043 -1.27398
  394 409.069 58.3128 15.8814
  395 408.697 -12.1386 9.86491
  396 235.825 -18.4098 24.4156
  397 146.908 -3.81173 -31.3707
  398 146.969 -3.83933 31.1471
  399 299.547 -9.59513 -1.58295
  400 299.231 -8.49585 1.32923
  401 233.868 -18.8936 -25.8496
  402 183.357 -3.17707 -42.1615
  403 183.335 -3.42746 42.4915
  404 426.480 -38.9129 -26.4752
  405 249.386 -19.3744 15.6626
  406 387.819 -12.3291 5.55218
  407 387.058 -11.2978 -4.54144
  408 325.949 -30.2069 -9.24099
  409 464.287 -2.36267 -2.96685
  410 158.100 64.8993 -122.615
  411 438.570 -6.53252 19.9095
  412 463.106 -2.73961 4.54232
  413 168.230 -9.12607 16.0472
  414 168.296 -9.00429 -16.0351
  415 330.154 -34.3083 -19.0793
  416 48.4114 21.2219 17.6156
  417 48.1535 21.2055 -17.6276
  418 855.057 55.7039 -44.3960
  419 380.472 -22.0784 -8.73498
  420 467.151 -1.97467 1.70789
  421 149.425 60.7016 116.909
  422 691.367 116.192 23.2398
  423 407.093 -6.73813 -2.73465
  424 306.194 -22.5085 -7.31879
  425 128.917 24.8730 -58.8766
  426 137.299 23.0400 58.5244
  427 376.023 -24.1580 8.75655
  428 399.846 -5.13140 -34.0298
  429 -0.413948 -0.392693 7.05143
  430 -0.606955 -0.388517 -7.04604
  431 145.402 35.1849 -78.5627
  432 145.866 35.3096 78.3252
  433 18.5709 8.02144 -7.88493
  434 18.7536 8.00444 7.95551
  435 337.576 -7.16710 0.427360
  436 337.171 -6.99726 -0.315580
  437 419.528 -19.2743 -31.1312
  438 -0.863076 -0.845845 14.9725
  439 -0.787659 -0.778285 -14.9161
  440 431.947 -42.3011 22.8053
  441 408.134 -11.3881 -8.64803
  442 658.934 126.003 -21.1481
  443 30.1553 -1.22454 3.36078
  444 30.0293 -1.22475 -3.39395
  445 789.470 225.728 103.176
  446 16.4283 10.0868 -25.1501
  447 51.4556 2.30861 -17.1730
  448 51.6244 2.27041 17.1730
  449 787.880 231.094 -99.9903
  450 17.4144 11.8649 27.5471
  451 -19.2484 2.50106 0.570084
  452 -19.1221 2.49726 -0.519602
  453 45.3499 31.0727 -24.4059
  454 46.1202 31.0900 24.5349
  455 516.853 81.6220 -43.0757
  456 414.521 -16.5023 -19.7445
  457 464.739 -2.05741 -1.48114
  458 433.257 -6.75985 -23.4420
  459 -4.64424 3.39955 13.6520
  460 -4.56735 3.44321 -13.5987
  461 418.866 -17.1424 23.1690
  462 273.801 -15.7660 -7.17998
  463 272.976 -15.9210 6.27828
  464 370.036 -40.7369 -7.98980
  465 264.900 -3.31482 -83.4540
  466 403.661 -6.15249 34.7392
  467 329.826 -11.2397 0.669718
  468 482.412 -35.0932 -8.38652
  469 256.683 2.71880 89.3982
  470 22.7766 -0.404618 6.80839
  471 22.6058 -0.396946 -6.82193
  472 531.496 104.994 -18.8020
  473 422.971 -3.69133 0.0835699
  474 421.547 -4.11136 -0.460905
  475 321.364 -21.7988 3.61736
  476 143.049 -4.94557 -5.02063
  477 143.045 -4.89015 4.96384
  478 84.9825 -1.11337 -20.7650
  479 85.0844 -1.13006 20.7275
  480 274.625 10.6230 15.3488
  481 71.1053 -2.35950 10.0919
  482 71.0012 -2.33746 -10.1391
  483 74.5058 6.91202 23.4331
  484 74.2599 7.01439 -23.4116
  485 411.888 -31.9281 27.7322
  486 232.158 -14.4751 -39.7219
  487 214.966 -7.28311 3.40519
  488 215.039 -7.45154 -3.40976
  489 234.585 -14.9247 39.7174
  490 641.639 153.420 -16.6160
  491 -10.2523 -1.51583 -8.50311
  492 -10.2463 -1.52399 8.49798
  493 164.553 -4.80570 -2.10562
  494 164.556 -4.73720 2.09772
  495 0.253921 -27.1863 -10.1832
  496 0.186521 -27.2758 10.2753
  497 375.668 -6.25400 0.757561
  498 273.038 12.8888 -7.63219
  499 363.635 38.0319 21.8516
  500 230.510 -2.06141 -66.8174
  501 115.015 -5.91362 15.2596
  502 114.997 -5.86419 -15.2834
  503 -27.0443 0.901500 -2.57797
  504 -26.8702 0.895959 2.60144
  505 445.105 -7.84368 -63.7361
  506 39.8332 0.188005 -2.24728
  507 39.9031 0.193641 2.21977
  508 370.534 -29.4253 -6.63083
  509 394.615 -33.7198 -15.2763
  510 82.0325 63.5422 -83.8288
  511 331.749 10.1461 -130.485
  512 5.14025 10.2243 5.81489
  513 5.30083 10.2467 -5.72518
  514 205.030 -9.71942 -9.03109
  515 204.933 -9.63485 8.85285
  516 567.238 25.8818 -9.52657
  517 410.145 -24.4007 -25.2390
  518 80.0057 60.2229 82.6810
  519 406.309 -45.6811 13.6529
  520 391.030 -37.2006 11.3333
  521 86.6873 -2.11066 -6.64413
  522 86.7469 -2.10270 6.58244
  523 325.092 3.63942 36.5401
  524 234.093 -17.4237 -16.4868
  525 431.714 -9.93801 14.3066
  526 -1.73411 -10.5022 -8.27549
  527 -1.73840 -10.4934 8.26312
  528 304.313 -26.7698 44.4638
  529 460.772 -34.6568 -31.5744
  530 598.300 44.6470 -25.0745
  531 325.939 -11.6169 -0.567188
  532 100.324 -1.90743 -1.92172
  533 100.353 -1.87258 1.90481
  534 207.562 1.82074 64.4344
  535 573.705 97.6608 26.9803
  536 578.501 120.464 -205.374
  537 522.531 4.28333 29.2788
  538 377.283 -41.8260 6.00384
  539 881.166 70.1341 59.6138
  540 656.426 160.978 23.1288
  541 95.9367 -4.02928 16.6337
  542 95.8610 -3.98969 -16.6590
  543 362.865 -30.2777 4.34332
  544 28.4654 13.1584 -7.51649
  545 28.6727 13.1519 7.59955
  546 455.169 -37.3109 31.6423
  547 375.523 20.4728 53.7554
  548 457.372 -3.12810 8.01565
  549 339.869 -20.7650 1.15438
  550 473.202 6.34250 -137.547
  551 746.595 198.907 137.076
  552 367.537 -7.82093 -0.574725
  553 449.767 -4.77460 -13.0860
  554 72.5301 30.0664 -33.1506
  555 73.0521 29.7071 33.0109
  556 259.497 -10.8222 -4.75217
  557 259.381 -10.5771 4.83747
  558 3.19263 -30.6985 -4.60387
  559 459.897 -15.8333 56.3089
  560 18.5556 16.4826 0.623584
  561 18.8378 16.5290 -0.489750
  562 3.71615 -29.5707 5.58971
  563 419.134 -19.0455 -45.9497
  564 482.007 31.1255 -60.8748
  565 480.421 35.2167 60.9212
  566 23.8107 21.2740 18.8347
  567 22.6416 21.7391 -18.4515
  568 -10.9568 0.420052 5.36803
  569 -11.1541 0.424543 -5.35735
  570 441.231 13.3276 141.684
  571 244.248 -13.8014 9.18886
  572 244.488 -13.7532 -9.34545
  573 531.338 -7.29731 -73.9586
  574 72.8898 -1.02389 3.85019
  575 72.8371 -1.03945 -3.89160
  576 36.3269 -0.849071 -0.898509
  577 36.3776 -0.843533 0.888860
  578 584.958 107.994 -20.9624
  579 56.6469 87.8548 -92.2188
  580 311.384 6.36219 -30.9861
  581 436.326 69.5652 -26.9261
  582 6.79791 0.614889 8.62854
  583 7.06232 0.711795 -8.45116
  584 434.963 207.521 240.650
  585 373.148 -10.9138 -2.71456
  586 15.0296 3.79281 -9.22243
  587 15.2097 3.76546 9.26647
  588 431.198 -34.4667 38.7039
  589 66.8974 85.2262 93.9017
  590 311.724 -7.12648 0.532679
  591 311.810 -7.07116 -0.533879
  592 -0.263579 -21.7380 10.6909
  593 -0.229955 -21.7027 -10.6555
  594 531.197 103.141 -0.850600
  595 337.221 -26.7637 62.6097
  596 322.146 -14.2440 -1.22587
  597 323.574 15.8332 137.598
  598 -26.4629 1.41134 6.35143
  599 -26.4364 1.41900 -6.32471
  600 528.878 8.24689 -31.5914
  601 700.359 122.746 -98.8751
  602 202.898 20.9810 -92.3202
  603 111.391 -4.71643 -20.2270
  604 111.498 -4.71798 20.2317
  605 477.160 -1.72101 2.14113
  606 319.029 -14.5389 0.840849
  607 425.141 -6.24111 4.62739
  608 419.141 -19.0699 44.8449
  609 21.2931 -0.705129 3.42079
  610 21.1408 -0.702167 -3.44529
  611 249.665 -9.08299 -2.79074
  612 249.633 -8.84773 2.71406
  613 156.503 3.36298 -43.4609
  614 155.511 3.40826 43.2792
  615 601.667 38.4672 39.1614
  616 975.592 73.5440 -106.467
  617 -4.90947 -0.619441 4.66995
  618 -5.11464 -0.617430 -4.66832
  619 148.772 -6.34384 9.22031
  620 148.757 -6.33587 -9.33525
  621 561.829 32.4321 17.2072
  622 471.428 -1.92439 -0.679050
  623 470.417 -2.65323 0.252265
  624 346.243 -0.0195450 36.1526
  625 494.177 -27.8179 -46.0031
  626 270.388 -22.3144 19.6443
  627 -5.39366 6.20298 -5.47279
  628 -5.51394 6.19286 5.54283
  629 432.380 9.17579 67.2995
  630 172.934 -10.0264 -21.2020
  631 172.775 -10.1906 21.2421
  632 351.797 -20.7025 -2.45596
  633 433.603 -9.75381 -12.9233
  634 249.300 -19.9241 -29.0830
  635 408.721 49.3122 -40.9230
  636 275.283 -18.9041 -51.2305
  637 103.776 -2.79115 -3.47972
  638 103.804 -2.75926 3.43699
  639 251.852 -20.2707 29.2179
  640 538.211 87.6389 38.1027
  641 428.736 -20.6365 56.5425
  642 350.988 -16.0631 2.42651
  643 252.317 -7.11988 1.71654
  644 252.254 -7.13407 -1.66906
  645 191.179 -7.34174 -6.61467
  646 191.113 -7.26539 6.54984
  647 412.349 -37.7694 -21.6422
  648 210.589 -12.1010 11.5453
  649 210.810 -12.0527 -11.7606
  650 415.861 63.9822 -5.46625
  651 381.108 -20.3517 8.89703
  652 474.778 -2.35004 -3.39095
  653 406.330 -7.28418 -59.4433
  654 60.9738 -2.65976 13.3680
  655 60.8500 -2.64115 -13.3779
  656 463.714 -2.71298 -7.27205
  657 84.1481 43.5822 -59.2832
  658 85.5792 43.4818 59.5715
  659 473.309 -27.5321 62.6744
  660 164.459 41.3260 97.2350
  661 42.4362 -0.300619 13.3669
  662 42.2894 -0.291198 -13.3716
  663 403.727 -25.4154 80.4058
  664 396.992 58.6509 -186.855
  665 389.904 12.4716 -59.4680
  666 511.726 92.7736 33.2240
  667 345.045 -15.7441 -0.894593
  668 619.299 110.975 -2.69872
  669 -28.6735 1.42311 -1.73923
  670 -28.5266 1.41951 1.77205
  671 275.724 1.61276 -97.5532
  672 22.9320 -0.416427 2.61664
  673 22.8185 -0.417463 -2.64207
  674 345.340 -28.7973 -61.9217
  675 115.803 15.7889 -41.9860
  676 114.896 15.8488 41.9665
  677 3.52706 5.80630 -3.15563
  678 3.68723 5.79905 3.22499
  679 294.151 -25.5482 -15.0396
  680 415.779 -4.10398 -22.7645
  681 199.903 -6.41790 -2.36055
  682 199.916 -6.35008 2.37785
  683 145.452 -7.49638 -13.6841
  684 145.569 -7.59898 13.6374
  685 27.8654 22.9038 -8.87305
  686 28.3206 22.9555 9.02862
  687 424.301 -5.46763 2.16308
  688 190.963 -12.2383 17.7644
  689 192.164 -12.0289 -17.7506
  690 470.325 -37.0911 -3.37118
  691 388.375 -39.0553 -7.12105
  692 305.987 -9.09967 -0.672981
  693 304.923 -8.52054 0.816838
  694 427.296 -44.7594 25.0683
  695 692.032 139.930 38.2418
  696 375.643 -16.0423 -99.4263
  697 429.975 -12.1571 23.3895
  698 427.957 -15.7195 -60.8067
  699 135.739 -4.29796 -6.49390
  700 135.746 -4.26720 6.41794
  701 334.329 -5.07157 111.342
  702 924.415 119.001 109.008
  703 65.5913 18.8936 -24.5680
  704 65.6905 19.0208 24.6478
  705 422.823 -4.51984 -1.06922
  706 426.126 -4.08258 1.09663
  707 180.938 93.2157 -157.056
  708 449.868 -2.56793 13.1244
  709 389.112 -7.13855 1.55149
  710 514.747 101.731 -12.1361
  711 53.9901 9.39589 -17.9110
  712 54.2235 9.33737 17.9771
  713 480.925 -1.34769 0.322850
  714 391.644 -15.4572 -8.85893
  715 488.084 -6.81370 48.7486
  716 201.677 -14.1858 -27.5586
  717 202.181 -13.5856 27.3106
  718 48.2857 -1.61814 10.1152
  719 48.1484 -1.59824 -10.1403
  720 441.619 -3.34528 -2.10276
  721 381.020 77.2135 198.083
  722 3.14982 3.41940 12.1736
  723 3.29294 3.50610 -12.0753
  724 443.018 -5.08201 -5.80139
  725 430.568 -8.23482 8.32176
  726 344.646 0.365080 -38.7753
  727 3.35193 -38.4100 -4.65710
  728 3.13913 -38.7976 5.04757
  729 158.245 42.6267 -97.2590
  730 344.771 -34.4114 -45.0416
  731 179.740 92.3402 158.499
  732 474.957 -1.37977 1.24445
  733 462.252 69.2756 42.8692
  734 339.575 30.7405 -15.2356
  735 603.073 121.495 2.14771
  736 469.665 -2.14393 4.63612
  737 -26.4976 0.685145 3.81666
  738 -26.6904 0.688896 -3.80146
  739 500.555 -27.6792 15.4041
  740 325.316 -9.82119 -0.870722
  741 119.839 0.0932514 -30.1052
  742 119.999 -0.0245662 29.9421
  743 430.255 -5.40634 -3.21145
  744 758.299 107.258 -39.4855
  745 54.2016 -1.55821 -6.42635
  746 54.3181 -1.56719 6.38334
  747 478.284 -1.47061 -2.10221
  748 98.4235 -4.37868 -8.94958
  749 98.4928 -4.39408 8.88560
  750 470.063 -18.3257 -50.4985
  751 434.503 -4.62320 18.2465
  752 391.434 -2.41579 58.8778
  753 478.768 -1.52688 0.0715327
  754 448.030 -3.71921 4.38707
  755 294.991 -16.1738 -4.05957
  756 368.435 -10.1293 1.89988
  757 419.083 -25.8250 -37.9467
  758 408.632 -25.8274 24.2652
  759 479.669 58.3137 -53.9342
  760 402.948 -22.8246 17.7381
  761 426.047 -25.1484 48.8009
  762 248.349 -16.9914 12.1871
  763 9.20007 -1.41408 0.0938346
  764 8.72522 -1.44661 0.356527
  765 372.721 -6.10249 -0.0956455
  766 371.940 -6.06334 -0.0411395
  767 445.445 -2.35298 -0.206424
  768 446.955 -2.26779 0.308814
  769 426.247 -12.0667 28.8393
  770 393.305 -35.7375 58.6429
  771 323.880 -26.4667 6.14766
  772 288.101 -17.4646 6.23899
  773 773.196 98.9317 45.6069
  774 430.401 -11.1440 -18.2898
  775 253.272 44.8777 -147.128
  776 400.322 -20.0445 -15.2620
  777 17.8926 0.290893 -9.72804
  778 18.0704 0.276264 9.74218
  779 360.822 31.6383 -34.1363
  780 898.813 27.2642 -11.6553
  781 451.320 11.9278 -65.6198
  782 18.3833 14.6578 -36.8911
  783 465.667 83.5443 10.9274
  784 362.227 -23.3124 4.48378
  785 407.768 -10.0832 57.6408
  786 343.041 -35.8857 45.2874
  787 545.361 -1.20460 90.5057
  788 19.8027 18.8407 39.3262
  789 248.785 -1.33551 76.3390
  790 346.245 -9.39376 -0.374630
  791 385.758 -34.2279 -59.3436
  792 238.248 -18.6607 -20.6007
  793 188.398 9.05286 -66.9148
  794 447.200 -6.69230 64.2835
  795 287.720 -19.8410 9.74374
  796 58.1812 -1.61498 5.68545
  797 58.0916 -1.61678 -5.73467
  798 417.052 -2.32400 20.1504
  799 379.565 2.03205 -57.3080
  800 -32.6012 1.51744 3.86843
  801 -32.5516 1.52040 -3.83905
  802 280.034 -9.17367 -1.54374
  803 279.238 -8.70094 1.45259
  804 208.077 23.4749 93.6239
  805 186.580 -11.0240 13.4702
  806 186.830 -10.7614 -13.6019
  807 477.930 -1.10684 -1.10299
  808 169.779 13.4887 65.2628
  809 8.44391 -0.161185 3.62291
  810 8.25831 -0.157694 -3.63710
  811 412.103 -12.7043 44.4736
  812 437.843 -4.09218 1.62939
  813 -23.4056 0.310683 6.40342
  814 -23.4105 0.318398 -6.39045
  815 271.674 -16.9644 57.3837
  816 53.2706 45.2698 -50.5146
  817 53.9141 43.2507 49.7766
  818 260.747 11.4606 6.37341
  819 -1.84522 -0.293198 -4.14709
  820 -1.63855 -0.295884 4.14380
  821 311.939 -29.5363 -42.4675
  822 424.430 -44.3256 -12.2235
  823 -2.12906 -2.02042 -2.68816
  824 -2.12265 -2.01556 2.67806
  825 26.4159 0.704108 -0.872153
  826 26.4772 0.708076 0.857561
  827 377.913 -33.7368 7.81713
  828 318.752 -32.5894 30.0481
  829 352.253 -6.46879 0.576070
  830 317.959 -25.8352 -7.32015
  831 119.149 -2.07131 -0.712595
  832 119.169 -2.02552 0.702022
  833 -36.6893 0.786817 2.15134
  834 -36.6081 0.785835 -2.12234
  835 396.967 -5.64249 -1.39036
  836 354.767 14.0643 -48.8518
  837 401.557 -8.42841 -4.53573
  838 238.755 -18.3525 19.6672
  839 399.163 -6.94009 -47.1709
  840 425.771 -13.0986 -29.7903
  841 398.538 -4.91899 1.23584
  842 292.273 -10.9083 78.2576
  843 312.253 -30.5718 -17.5319
  844 189.135 -1.41997 -51.5251
  845 190.166 -0.106923 51.7933
  846 266.752 -20.1664 -13.2093
  847 441.879 48.1035 56.1788
  848 417.827 -43.1147 -33.3269
  849 153.142 -4.96261 -3.30309
  850 153.135 -4.89240 3.27213
  851 320.126 -7.78574 0.519514
  852 320.141 -7.84550 -0.446249
  853 382.171 -2.84311 -30.8951
  854 130.829 -5.58185 -11.0611
  855 130.904 -5.62321 10.9740
  856 1.59503 -39.1701 -7.60624
  857 1.51204 -39.3400 7.76886
  858 68.1964 -1.00670 -0.203786
  859 68.1544 -1.02616 0.191108
  860 394.108 -6.67982 -1.93867
  861 300.667 -28.6751 27.2356
  862 464.751 -39.3453 12.6728
  863 277.227 5.80085 24.4023
  864 403.007 -9.93694 5.23294
  865 440.470 -39.2246 -29.4680
  866 65.3552 3.98734 -20.3193
  867 65.5477 3.92040 20.3118
  868 350.482 -6.90011 -0.521271
  869 283.360 -10.2611 -2.95067
  870 282.393 -10.1762 3.20353
  871 437.462 68.0354 30.3475
  872 153.172 -1.60424 -36.2079
  873 153.036 -1.78068 36.0591
  874 303.467 -27.5511 14.1647
  875 30.2124 19.3455 -7.72032
  876 30.5041 19.3100 7.80527
  877 257.096 -18.2604 46.9418
  878 307.702 -19.9082 -4.38463
  879 384.324 -2.94573 31.2167
  880 376.979 -42.2958 15.9321
  881 431.784 -32.6933 -41.9109
  882 299.931 -28.9085 -27.5968
  883 250.116 -16.9249 -11.7077
  884 806.702 66.1386 -12.5180
  885 394.755 -41.7551 4.58669
  886 12.0149 13.2753 3.89355
  887 12.2229 13.3021 -3.78398
  888 343.605 -34.4869 8.39927
  889 376.396 -42.1665 -26.6217
  890 12.9822 11.4882 -0.366076
  891 13.1654 11.4923 0.450375
  892 143.635 -5.17959 27.6038
  893 143.714 -5.33117 -27.7585
  894 173.443 -8.83324 30.2565
  895 173.375 -9.03825 -30.4535
  896 543.424 108.924 14.5670
  897 -0.781198 -16.7981 -8.00338
  898 -0.786933 -16.7769 7.99727
  899 126.418 10.5700 -39.9589
  900 125.812 10.3572 39.5833
  901 928.792 30.0822 -46.7511
  902 21.5299 -0.108578 1.48265
  903 21.4395 -0.111614 -1.50265
  904 1.70441 -44.0440 2.04460
  905 1.97932 -43.2787 -1.39827
  906 -17.9772 -0.204646 6.62530
  907 -17.9981 -0.199001 -6.62337
  908 101.117 29.6421 -46.9768
  909 102.675 28.6575 46.3319
  910 -7.64918 0.499819 -13.8474
  911 -7.68839 0.467792 13.8721
  912 30.4331 2.54112 -13.3382
  913 30.6149 2.50801 13.3589
  914 110.697 -1.35852 25.4677
  915 110.615 -1.35287 -25.5882
  916 90.8984 -3.14738 -20.5736
  917 90.9945 -3.14210 20.5445
  918 466.052 -1.83070 -7.20498
  919 228.531 49.5077 136.971
  920 315.335 -31.1593 16.5082
  921 225.042 -16.2321 15.9191
  922 432.287 44.6993 -55.5929
  923 913.444 19.5221 18.7011
  924 509.970 24.0698 -51.6040
  925 87.1946 -3.33663 12.8904
  926 87.1027 -3.29932 -12.9357
  927 17.2480 -0.509487 -9.49007
  928 17.4232 -0.514250 9.49111
  929 -0.151653 -7.67005 -14.9930
  930 -0.218925 -7.73683 15.0438
  931 232.567 -10.4646 7.20217
  932 232.684 -10.6623 -7.23481
  933 29.3094 7.55180 -11.9885
  934 29.5036 7.51831 12.0501
  935 142.674 -6.41636 -23.4886
  936 142.773 -6.41734 23.4757
  937 307.501 -1.22474 -28.6903
  938 147.324 -8.05175 -16.4003
  939 147.230 -7.96787 16.4531
  940 353.075 -10.2940 -0.480636
  941 427.354 -24.3310 -52.5264
  942 188.586 -7.77708 7.63019
  943 188.670 -7.84615 -7.72631
  944 -7.77605 -0.821808 -4.71053
  945 -7.75449 -0.823775 4.70025
  946 434.272 -32.7194 -72.3885
  947 416.529 -24.4897 32.8674
  948 365.663 -25.7515 -6.08253
  949 359.130 12.4166 51.4534
  950 164.026 -9.27895 -18.4441
  951 164.034 -9.10655 18.4996
  952 400.057 15.5172 62.0038
  953 374.536 32.7120 40.8519
  954 754.752 90.5166 15.9950
  955 388.448 -14.2589 6.32216
  956 206.562 -6.34738 -3.44001
  957 206.540 -6.22817 3.46731
  958 348.606 -28.7136 0.0536274
  959 483.217 88.5605 -25.4455
  960 424.402 -4.92700 -2.21310
  961 280.665 -7.22451 1.13868
  962 280.559 -7.17155 -1.05962
  963 36.3019 30.8738 -22.5518
  964 37.2078 30.8262 22.7170
  965 67.2586 177.585 -152.507
  966 400.104 -9.37217 46.8973
  967 496.071 -8.51312 -43.0525
  968 -7.51784 4.83961 2.12254
  969 -7.38580 4.83911 -2.05622
  970 997.719 239.008 -190.045
  971 425.049 -45.9389 2.95980
  972 452.863 -41.3133 -20.1383
  973 418.709 -35.8115 29.4722
  974 518.976 101.902 10.2519
  975 38.1151 41.1695 -47.1610
  976 95.6966 154.100 150.153
  977 -2.36549 -5.63441 15.0618
  978 -2.32377 -5.58543 -15.0362
  979 406.800 -10.7243 6.63290
  980 652.828 115.219 -14.5766
  981 39.2123 40.2769 48.9740
  982 -1.78980 -6.07718 -5.23815
  983 -1.79008 -6.06015 5.22434
  984 349.657 -8.54349 -0.0322476
  985 262.175 -20.9096 -21.5148
  986 422.019 -33.2765 -35.3444
  987 121.153 32.6229 -61.7614
  988 123.082 33.1567 61.9204
  989 410.690 -10.1657 -41.7228
  990 412.519 -13.3282 12.8324
  991 -10.7076 2.92030 12.0856
  992 -10.6522 2.94890 -12.0453
  993 250.390 -16.4768 -44.2060
  994 415.193 26.7333 -62.0808
  995 308.204 -11.8760 1.71054
  996 222.944 -6.58541 0.643145
  997 222.901 -6.62643 -0.617969
  998 -4.61058 -5.24055 -10.8641
  999 -4.61709 -5.25189 10.8548
  1000 418.109 -15.1203 -15.9709
  1001 397.676 -4.83139 0.349761
  1002 397.309 -4.83706 -0.190479
  1003 550.406 90.7146 -34.7765
  1004 100.886 8.61632 -31.6539
  1005 101.138 8.44448 31.5884
  1006 65.4189 -0.671634 -17.1025
  1007 65.5434 -0.684617 17.0849
  1008 454.384 24.6768 66.3834
  1009 428.340 -8.33216 -8.73870
  1010 77.1854 12.0042 -25.9224
  1011 77.4897 11.9154 26.0169
  1012 445.990 -2.67071 -1.33604
  1013 418.009 -18.2024 -24.6391
  1014 408.218 -45.7916 -19.1456
  1015 16.0738 14.1079 0.752008
  1016 15.6379 14.0406 -0.553417
  1017 -19.3212 3.29539 7.03383
  1018 -19.2494 3.30469 -6.98543
  1019 252.187 9.39088 -10.6575
  1020 703.794 175.903 -50.4480
  1021 323.458 -23.7609 -3.08746
  1022 214.852 -9.39115 -45.4503
  1023 516.390 -19.7596 2.09051
  1024 215.693 -9.37717 46.0761
  1025 371.356 -42.9892 30.8281
  1026 420.883 -17.4353 -37.5995
  1027 146.766 -3.52081 -1.05590
  1028 146.780 -3.46209 1.04945
  1029 288.353 -22.6646 -11.6798
  1030 177.707 -6.68938 -35.5800
  1031 177.646 -6.74007 35.4083
  1032 59.3212 38.9299 -38.6525
  1033 60.2528 38.8258 38.7687
  1034 123.987 -3.97697 -3.73841
  1035 124.000 -3.92964 3.69360
  1036 374.099 -12.2041 3.10118
  1037 316.225 1.85853 -112.649
  1038 387.643 -12.9077 -6.32250
  1039 350.838 -38.7369 -19.0592
  1040 231.999 -9.98704 4.99449
  1041 232.185 -10.0594 -5.00847
  1042 452.027 -3.03076 1.68661
  1043 405.237 -9.95636 -6.20796
  1044 265.523 6.49561 20.1225
  1045 435.060 -4.32680 -16.9827
  1046 169.568 50.0069 110.122
  1047 447.398 -4.20598 -13.8639
  1048 118.384 19.8475 -46.7449
  1049 114.901 20.0670 44.8847
  1050 533.568 -7.90714 -4.09763
  1051 49.4234 25.5936 -20.5079
  1052 49.8731 25.4128 20.5070
  1053 8.53074 0.207457 4.04973
  1054 8.94484 0.285754 -3.77696
  1055 72.2923 -1.90447 4.47041
  1056 72.2259 -1.91638 -4.52215
  1057 192.678 50.5926 -121.812
  1058 1028.71 271.551 204.568
  1059 416.799 -15.1087 16.3786
  1060 374.662 -41.9699 -14.4655
  1061 261.391 -21.4990 -34.4159
  1062 -4.89501 5.91048 10.2896
  1063 -4.79421 5.94287 -10.2217
  1064 294.641 -15.4214 3.31752
  1065 324.499 -12.3766 0.708782
  1066 -0.143696 -23.7836 7.69711
  1067 -0.135629 -23.8081 -7.69536
  1068 49.6471 30.6881 -24.2769
  1069 50.2301 30.6344 24.4191
  1070 290.766 -14.2083 -3.17705
  1071 23.9503 10.6595 7.84244
  1072 23.7580 10.6732 -7.76410
  1073 442.824 -17.2168 60.9452
  1074 321.114 -33.1914 -29.8970
  1075 262.935 -21.8436 34.4158
  1076 422.363 -8.22282 -64.4698
  1077 443.569 -5.10018 6.33317
  1078 162.460 25.0891 74.2463
  1079 163.621 24.0075 -73.0220
  1080 260.938 -12.5311 -62.5859
  1081 368.009 -13.5074 -3.08737
  1082 300.087 -18.2575 5.89533
  1083 350.956 -32.8626 -2.52293
  1084 478.847 -1.79994 -3.65072
  1085 260.909 -12.2311 5.50265
  1086 260.796 -12.9147 -5.64462
  1087 9.20795 10.6755 7.99286
  1088 9.42275 10.7532 -7.86902
  1089 426.073 15.9890 -66.6970
  1090 97.0425 4.79229 -28.0126
  1091 97.3016 4.68557 27.9412
  1092 73.4361 1.31835 -20.2041
  1093 73.5954 1.27836 20.1716
  1094 483.412 -17.9274 90.7474
  1095 420.321 -19.3939 36.9971
  1096 207.138 -9.54434 -38.6978
  1097 486.100 -2.00417 -2.17429
  1098 548.384 103.998 -26.1180
  1099 442.625 -4.48834 -3.89718
  1100 416.206 -44.6983 12.0299
  1101 308.878 -23.2906 55.0933
  1102 488.933 -0.709894 0.351280
  1103 265.036 8.22799 -17.0554
  1104 353.386 -37.7820 -9.65264
  1105 207.476 -9.97385 38.2937
  1106 356.634 -32.5818 0.483405
  1107 443.329 -6.52319 12.1942
  1108 322.159 20.3703 26.4910
  1109 222.673 -16.4152 -31.0338
  1110 666.446 98.6381 -43.2552
  1111 503.954 23.5921 54.3840
  1112 379.564 47.4432 6.46849
  1113 484.213 -0.0345269 1.88043
  1114 193.715 -12.1684 -23.9218
  1115 131.983 82.6156 -122.615
  1116 235.282 6.59216 -88.4001
  1117 269.916 -20.8749 15.4852
  1118 228.452 -17.1502 29.1700
  1119 193.265 -11.5816 24.1556
  1120 405.566 3.76406 65.0324
  1121 306.114 -11.0437 -1.34558
  1122 477.779 -3.63363 4.98306
  1123 -3.58322 -0.103164 14.9777
  1124 -3.52563 -0.0537546 -14.9394
  1125 320.380 -9.56353 0.636519
  1126 0.0311273 3.92595 13.3436
  1127 0.135473 3.99086 -13.2702
  1128 181.887 -5.88832 4.21897
  1129 181.897 -5.97740 -4.22375
  1130 451.338 -2.48328 11.5054
  1131 363.544 -22.5071 -4.90359
  1132 340.765 -18.5230 -0.713532
  1133 380.726 -26.8359 11.1949
  1134 117.265 58.8115 -91.8368
  1135 373.051 -14.4795 4.30279
  1136 57.7582 0.973938 -16.6195
  1137 57.9094 0.946171 16.6093
  1138 78.8420 51.1342 -65.1050
  1139 594.550 79.8761 15.0760
  1140 45.3215 -2.02003 9.73525
  1141 45.1777 -2.00381 -9.74904
  1142 80.2591 50.3798 62.9342
  1143 342.177 -28.7976 -1.42898
  1144 175.212 -8.29795 9.35461
  1145 175.236 -8.33437 -9.49705
  1146 694.578 147.484 -40.8064
  1147 376.622 -37.7407 0.881180
  1148 130.039 77.4298 122.380
  1149 11.3848 -0.784055 -11.1674
  1150 12.2467 -0.635771 12.1781
  1151 399.063 50.0113 32.6046
  1152 30.8247 16.3143 -8.05542
  1153 31.0684 16.3202 8.12676
  1154 379.069 -33.0697 -8.39575
  1155 -0.169950 -36.6370 -7.17491
  1156 -0.187111 -36.6410 7.20762
  1157 404.949 -34.2021 -20.2670
  1158 -3.22378 0.480778 3.23169
  1159 -3.43247 0.483904 -3.23843
  1160 63.3349 23.3532 -26.1130
  1161 63.6763 23.4549 25.8882
  1162 -18.4247 0.0415696 -3.95777
  1163 -18.2099 0.0400800 3.96200
  1164 403.620 -4.85080 -0.388741
  1165 -39.5359 1.18975 0.454920
  1166 -39.4241 1.18919 -0.428111
  1167 215.523 -16.9956 -23.1563
  1168 5.79963 -50.3893 -6.16547
  1169 110.198 -3.16438 7.07680
  1170 110.155 -3.17486 -7.14992
  1171 343.949 -7.05344 0.592462
  1172 344.596 -6.88329 -0.526103
  1173 6.23006 -47.9055 7.41733
  1174 407.456 -21.4498 -20.3748
  1175 464.124 -2.25435 8.39525
  1176 414.112 -26.5999 -30.1866
  1177 363.874 2.79355 51.0489
  1178 2.05653 -14.1162 10.7101
  1179 2.23482 -14.0041 -10.5252
  1180 266.217 -19.5376 12.4952
  1181 -17.8761 1.71424 9.67662
  1182 -17.8429 1.72864 -9.64708
  1183 685.497 108.693 7.55435
  1184 795.125 254.888 -179.237
  1185 423.271 -40.9839 25.2562
  1186 177.366 -5.33493 -0.647023
  1187 177.380 -5.27294 0.647614
  1188 859.809 83.4776 -77.2730
  1189 64.8509 -1.67616 10.1029
  1190 64.7333 -1.65116 -10.1385
  1191 396.866 -1.29252 -20.1533
  1192 255.483 -20.7281 26.1447
  1193 418.670 -40.8962 -17.8879
  1194 405.335 -29.5465 -23.2173
  1195 248.679 -8.63202 65.5581
  1196 93.2626 17.1773 -35.6054
  1197 93.2163 17.0255 35.4119
  1198 122.134 45.4174 -78.2176
  1199 122.306 42.0576 78.2241
  1200 36.0397 10.1291 -12.7237
  1201 36.2491 10.0996 12.7981
  1202 500.709 87.0069 -37.1053
  1203 26.6059 24.4768 -11.8226
  1204 27.2134 24.5162 12.0063
  1205 361.010 -27.8460 3.88707
  1206 669.438 102.243 48.2947
  1207 88.9242 -3.67381 -6.97617
  1208 88.9925 -3.67266 6.91161
  1209 432.908 312.636 -263.221
  1210 340.885 20.3062 -40.8363
  1211 313.990 23.9916 16.7040
  1212 44.3307 18.3056 -15.0310
  1213 44.5390 18.3070 15.1113
  1214 12.4905 -0.0925782 2.36011
  1215 12.3468 -0.0924358 -2.37950
  1216 399.543 -32.1586 18.8904
  1217 392.650 -16.0573 9.81754
  1218 269.335 78.4584 -189.842
  1219 618.571 135.287 -8.52102
  1220 267.378 -7.92514 -72.0777
  1221 345.394 -11.0741 0.0392466
  1222 21.8068 -1.69965 -0.533772
  1223 21.8516 -1.69834 0.530746
  1224 -7.38004 2.71441 -5.60274
  1225 -7.20967 2.70336 5.64373
  1226 232.778 2.71129 -75.7155
  1227 425.554 -9.66302 11.3594
  1228 278.132 5.59079 102.928
  1229 375.694 -18.9026 -7.11018
  1230 194.887 70.5032 -149.935
  1231 302.141 -14.3911 -77.7329
  1232 359.335 -38.3630 7.64607
  1233 438.796 -7.10882 18.6236
  1234 384.979 -8.51842 -2.41458
  1235 214.635 -15.9670 23.2840
  1236 482.669 -26.4783 -33.0554
  1237 459.521 40.2836 62.8092
  1238 201.333 0.982670 -60.0833
  1239 454.593 -3.15013 1.33240
  1240 370.288 45.9406 -9.24083
  1241 161.878 -5.77011 -6.93012
  1242 161.851 -5.71216 6.85833
  1243 696.179 164.116 43.2600
  1244 945.856 25.1229 43.7782
  1245 0.877079 -44.6615 -7.11025
  1246 0.849316 -44.7099 7.16575
  1247 104.538 55.7921 86.0415
  1248 248.798 -7.62822 -1.58411
  1249 248.851 -7.58474 1.67538
  1250 339.233 -34.1954 -10.3182
  1251 405.823 33.4535 56.2808
  1252 422.000 -8.67996 -7.13712
  1253 488.228 -1.42267 -0.451754
  1254 844.795 188.481 -119.422
  1255 135.120 -5.14949 7.22760
  1256 135.102 -5.16007 -7.31613
  1257 405.369 -37.6189 19.2654
  1258 707.772 176.486 -57.2368
  1259 392.943 -17.4704 -11.1231
  1260 288.277 -20.2767 -8.92104
  1261 353.110 -38.3179 18.6141
  1262 345.249 -17.6213 1.49832
  1263 13.1572 5.07975 -17.2639
  1264 471.034 -28.1080 39.9230
  1265 382.148 -25.2306 -10.9487
  1266 14.4740 5.74140 18.9918
  1267 392.650 -30.7246 -73.1376
  1268 370.905 24.4707 -155.329
  1269 608.961 79.6893 -9.07944
  1270 490.062 -0.488146 -0.142108
  1271 489.224 -0.938619 0.424757
  1272 388.625 -22.9326 12.0553
  1273 151.182 18.0157 -59.2383
  1274 442.427 -39.0531 32.0616
  1275 749.137 171.966 80.2771
  1276 187.116 65.2993 146.145
  1277 5.50704 1.20139 10.8034
  1278 5.70400 1.29895 -10.6675
  1279 464.022 -36.6278 -40.2928
  1280 189.211 -10.4562 -11.1715
  1281 189.182 -10.4836 10.9819
  1282 433.228 -28.3648 50.1868
  1283 17.9325 0.0862658 10.5736
  1284 17.7580 0.0947596 -10.5686
  1285 -2.30958 -8.96236 12.4828
  1286 -2.29351 -8.94311 -12.4854
  1287 79.8214 -2.73787 -9.21220
  1288 79.9117 -2.75380 9.15686
  1289 229.228 -15.3465 -35.1636
  1290 231.160 -7.92584 2.27934
  1291 231.150 -8.09031 -2.19349
  1292 488.476 -0.474727 0.130763
  1293 436.294 -6.85079 -20.9921
  1294 37.4361 1.56426 -13.3627
  1295 37.6051 1.53969 13.3695
  1296 230.140 -16.2257 34.8994
  1297 492.965 -0.599666 0.208612
  1298 466.370 -0.701407 -0.529292
  1299 466.341 -0.983125 0.412965
  1300 618.007 131.700 3.62010
  1301 455.034 -3.39192 -3.10510
  1302 404.825 -4.60449 0.246046
  1303 448.379 -7.02817 -10.7782
  1304 486.137 -1.69012 1.44966
  1305 509.672 53.2555 53.8838
  1306 589.917 123.354 11.8655
  1307 473.338 -1.98434 -5.52429
  1308 -3.93868 -0.990174 3.52837
  1309 -3.95456 -0.989485 -3.53929
  1310 265.235 -16.9614 8.73206
  1311 265.185 -16.2286 -8.49531
  1312 514.291 58.9998 -51.1004
  1313 108.495 37.5106 -64.8397
  1314 109.193 36.4963 64.1560
  1315 349.911 0.0633861 -25.5326
  1316 357.088 -6.23250 -0.467489
  1317 356.652 -6.18621 0.392765
  1318 -8.49249 -1.34721 12.6878
  1319 -8.47702 -1.32384 -12.6833
  1320 398.038 -1.04077 20.1155
  1321 602.860 119.813 -2.84170
  1322 45.8845 -1.64948 -5.80259
  1323 45.9986 -1.65330 5.75925
  1324 445.187 -42.4251 16.6443
  1325 1.22287 7.62918 10.4020
  1326 1.35365 7.67525 -10.3174
  1327 85.4508 -1.94431 -1.95708
  1328 85.4889 -1.91531 1.92806
  1329 349.992 -0.471693 25.9249
  1330 17.8237 0.733411 -0.898251
  1331 17.8981 0.736220 0.883593
  1332 451.903 -5.50333 6.85549
  1333 630.944 114.566 6.58585
</Section>

newXOutput 58

<Section columns = "stress_xx | stress_yy | stress_xy">
  1 508.832 -1.42467 0.927495
  2 509.611 -1.80134 -1.20428
  3 13.3504 0.470933 -1.30559
  4 -0.376527 -0.564783 -0.376647
  5 925.753 379.022 305.343
  6 940.008 433.235 -308.431
  7 -0.372470 -0.561222 0.371399
  8 13.3050 0.468277 1.30256
  9 512.238 -1.01432 -0.842411
  10 508.563 -1.82494 -1.22997
  11 509.006 -1.43841 1.07722
  12 506.647 -0.816340 0.426006
  13 505.760 -1.71540 -0.379504
  14 505.144 -1.65614 1.90962
  15 498.131 -1.19482 1.79049
  16 500.226 -3.63043 2.80235
  17 485.130 -3.03156 6.11123
  18 475.650 -1.38771 7.36227
  19 462.498 -1.67488 7.96697
  20 439.510 -1.48761 11.2113
  21 414.362 -1.25118 13.0606
  22 382.844 1.66704 17.9797
  23 339.553 2.58763 16.3140
  24 322.104 -0.100763 23.3971
  25 267.887 3.80549 16.6677
  26 234.803 4.98059 13.0857
  27 226.180 2.49077 9.65843
  28 216.936 7.29622 0.722306
  29 222.005 7.84555 -12.9230
  30 232.149 2.28130 -16.2148
  31 272.805 1.04000 -21.6183
  32 313.686 -2.01104 -22.3837
  33 341.100 2.14693 -16.2820
  34 383.304 1.89405 -17.9799
  35 413.313 -1.48070 -14.0046
  36 442.023 -1.66527 -10.5698
  37 460.712 -1.23410 -8.09460
  38 474.241 -1.47745 -6.73628
  39 488.782 -1.76635 -3.87745
  40 494.337 -1.83271 -3.69106
  41 499.780 -1.72835 -3.26507
  42 505.285 -1.96092 -0.582037
  43 507.355 -2.47489 -1.31808
  44 504.347 0.0635390 -0.0181300
  45 508.414 -1.32206 -1.22444
  46 510.469 -2.65494 1.34126
  47 512.848 -1.53763 -0.0559799
  48 487.554 0.146504 -0.768882
  49 459.165 -2.20184 -1.43563
  50 426.957 -4.81522 -2.03385
  51 393.565 -4.14440 -1.47182
  52 364.390 -6.48501 -1.35089
  53 333.557 -7.01229 -1.22525
  54 302.427 -6.16999 -0.577028
  55 269.657 -6.56266 -0.808338
  56 241.928 -6.91260 -1.07581
  57 205.014 -6.57601 -0.864122
  58 167.014 -4.17281 -0.553150
  59 135.583 -2.68892 -0.433082
  60 96.7771 -1.69449 -0.151094
  61 68.6028 -1.60588 -1.91877
  62 42.4486 -2.16641 -0.618205
  63 16.0610 0.244088 1.21739
  64 9.14751 1.83580 0.499928
  65 7.12160 0.743766 1.29921
  66 7.93411 0.334750 1.30403
  67 2.27926 1.05456 0.641571
  68 -0.0140927 1.38488 2.69476
  69 -1.19391 0.488067 1.06645
  70 -10.7357 1.03436 1.15950
  71 -15.3453 0.709009 2.61327
  72 -17.4431 0.229266 2.75795
  73 -28.0220 0.965571 2.21530
  74 -32.1654 1.45157 4.04328
  75 -36.8854 0.880924 1.61512
  76 -42.1748 0.643610 2.27251
  77 -44.5829 0.684320 1.03045
  78 -49.8018 1.67869 -0.927994
  79 -50.7018 1.15005 -0.678211
  80 -46.4740 0.862617 -1.47166
  81 -40.1074 1.14215 -2.97569
  82 -32.7602 0.517894 -4.64358
  83 -24.5295 0.289606 -4.88387
  84 -14.7666 -0.480697 -5.14344
  85 -6.46843 -0.388878 -3.02609
  86 -2.72854 -1.06444 -1.89830
  87 -0.447026 -2.73440 -1.65122
  88 -0.743888 -6.98704 -2.91353
  89 -0.850972 -13.5704 -5.08264
  90 -0.153053 -25.3505 -5.45603
  91 0.320906 -34.9250 -6.81692
  92 0.730551 -50.1286 -5.54524
  93 2.19485 -59.2989 -6.50233
  94 0.410073 -63.4319 -5.26042
  95 -0.0610328 -72.2402 -2.94112
  96 2.03786 -69.0363 -0.251018
  97 8.31109 -89.0659 4.57945
  98 7.61833 -44.5775 14.0925
  99 17.9092 -13.8623 30.2624
  100 53.1036 97.5394 91.3997
  101 221.824 300.938 253.349
  102 1212.56 130.874 179.413
  103 1018.00 36.0900 64.4011
  104 969.950 15.3932 22.1399
  105 943.437 10.0483 -0.122052
  106 960.391 14.6614 -18.2180
  107 1027.29 30.8056 -53.2608
  108 1199.91 103.637 -166.825
  109 144.176 340.890 -209.674
  110 37.3453 74.1890 -71.0188
  111 13.2164 -22.6330 -25.3164
  112 6.90620 -49.7217 -12.2266
  113 8.26289 -92.7393 -3.67769
  114 1.94567 -70.6613 0.886485
  115 -0.181527 -73.0516 3.27187
  116 0.333435 -63.7436 5.43748
  117 2.15295 -59.3697 6.57699
  118 0.714469 -50.0978 5.57269
  119 0.308748 -34.8736 6.82658
  120 -0.158994 -25.2863 5.45249
  121 -0.851693 -13.5295 5.07160
  122 -0.745497 -6.95206 2.90324
  123 -0.446699 -2.72128 1.64215
  124 -2.71279 -1.06292 1.89070
  125 -6.44044 -0.390641 3.01787
  126 -14.7305 -0.484877 5.13845
  127 -24.4877 0.284975 4.88490
  128 -32.7367 0.512835 4.65235
  129 -40.1170 1.13854 2.99297
  130 -46.5175 0.862324 1.49030
  131 -50.7893 1.14899 0.696416
  132 -49.9258 1.67848 0.946956
  133 -44.7485 0.686092 -1.01389
  134 -42.3717 0.645788 -2.26020
  135 -37.0977 0.883417 -1.60533
  136 -32.3956 1.45454 -4.03917
  137 -28.2587 0.968359 -2.21186
  138 -17.6771 0.230963 -2.75838
  139 -15.5802 0.711948 -2.61683
  140 -10.9601 1.03848 -1.16485
  141 -1.39217 0.490801 -1.07667
  142 -0.185956 1.38772 -2.71011
  143 2.13093 1.05535 -0.655150
  144 7.82208 0.334218 -1.31727
  145 7.03634 0.742450 -1.30985
  146 9.08012 1.83351 -0.509158
  147 16.0092 0.242557 -1.22281
  148 42.4014 -2.17437 0.612676
  149 68.5595 -1.62582 1.91272
  150 96.7444 -1.72983 0.143062
  151 135.564 -2.74004 0.428934
  152 166.997 -4.23205 0.552542
  153 204.987 -6.62715 0.872238
  154 241.866 -6.93772 1.09268
  155 269.558 -6.52980 0.848132
  156 302.288 -6.05159 0.622656
  157 333.367 -6.73406 1.15661
  158 364.549 -6.56551 1.18353
  159 393.685 -4.63924 1.55482
  160 427.289 -4.72461 1.84707
  161 460.067 -1.93800 1.45562
  162 486.778 0.116581 0.748360
  163 286.110 -25.8641 -24.9378
  164 284.977 -26.3357 24.8783
  165 87.0205 23.8775 -35.6945
  166 87.8755 23.9629 35.5463
  167 336.732 -15.6214 88.6218
  168 352.824 -17.6989 -86.2693
  169 167.293 -8.88624 11.6046
  170 167.271 -8.79967 -11.7601
  171 359.507 -13.0054 1.18493
  172 352.410 -13.0421 -1.05522
  173 480.754 86.4250 -11.6457
  174 485.941 4.06662 -59.3814
  175 476.503 7.72389 64.1285
  176 116.735 -4.47290 -24.0867
  177 116.747 -4.44124 24.0421
  178 420.036 -41.5082 20.1991
  179 419.656 -32.3150 -29.2434
  180 6.27660 10.1205 9.55057
  181 6.45095 10.1851 -9.44664
  182 573.817 117.040 16.1732
  183 111.917 50.3562 -79.5928
  184 119.999 50.8174 85.2481
  185 406.071 -19.2492 13.3858
  186 608.612 128.410 -5.74363
  187 264.692 -9.97789 -3.60788
  188 264.272 -10.2267 3.58137
  189 417.230 -13.4895 -12.2845
  190 554.226 -1.90285 -10.4710
  191 106.191 -3.20616 4.48084
  192 106.154 -3.23285 -4.53992
  193 45.8992 5.60974 -16.4350
  194 46.1046 5.55223 16.4735
  195 236.103 -8.98435 -55.9795
  196 235.184 -9.47012 56.6914
  197 281.623 -18.5272 -9.23188
  198 282.182 -18.4238 9.77847
  199 75.8464 -2.65058 12.8919
  200 75.7352 -2.61538 -12.9183
  201 548.089 -7.95113 38.5932
  202 449.517 -43.8876 -7.07196
  203 426.206 -4.77682 -1.72998
  204 416.884 -5.74471 1.74099
  205 426.480 50.1265 45.6150
  206 18.7021 16.5717 -7.01864
  207 19.3667 16.5437 7.31491
  208 423.872 -16.9389 53.0201
  209 392.067 30.0653 -52.4510
  210 277.468 64.4277 -180.317
  211 291.765 54.4566 167.596
  212 8.42086 9.45669 -1.82661
  213 8.58798 9.45528 1.90704
  214 422.606 -14.9054 -54.8333
  215 730.443 102.001 -7.12626
  216 351.169 -38.1328 32.6988
  217 353.769 -37.9265 -31.0014
  218 350.954 -25.3208 -0.783128
  219 433.341 -7.24712 6.44671
  220 212.408 -14.6723 -21.2636
  221 209.134 -14.6155 21.8894
  222 128.406 2.52891 -36.0793
  223 128.591 2.48058 35.7863
  224 445.354 -46.5848 -7.10384
  225 348.076 -26.8944 -0.727363
  226 431.767 -7.09692 -4.95951
  227 337.647 -9.20628 -0.302675
  228 340.532 -8.62401 0.932089
  229 427.252 -19.1950 30.1298
  230 39.2557 0.298546 -13.7642
  231 39.4175 0.281363 13.7640
  232 -5.25263 -3.47634 -14.3626
  233 -5.28034 -3.51094 14.3741
  234 68.9523 -2.92566 -7.50650
  235 69.0479 -2.93271 7.45041
  236 183.306 -5.67504 5.18678
  237 183.344 -5.77017 -5.22448
  238 209.410 14.6783 -81.3326
  239 209.436 12.2722 80.4252
  240 433.133 -13.6797 -25.7770
  241 205.549 -12.0555 -34.2144
  242 205.728 -12.4204 33.7521
  243 384.532 6.08744 59.4242
  244 338.363 28.9976 3.60568
  245 372.406 -37.1774 0.210818
  246 1.85400 -8.53390 -12.7436
  247 1.72874 -8.63389 12.8523
  248 24.6135 26.4468 -28.3797
  249 26.1665 25.5927 29.7510
  250 366.255 -36.3793 -2.63263
  251 656.494 125.739 -12.9377
  252 35.4520 23.7464 -12.5881
  253 35.8696 23.7389 12.7269
  254 -13.5579 3.16129 9.52697
  255 -13.4858 3.17777 -9.47690
  256 659.520 118.145 16.7633
  257 233.978 -11.5244 -8.64318
  258 233.804 -11.3469 8.48659
  259 454.134 -30.3149 48.4116
  260 814.365 132.686 82.9709
  261 138.503 -7.34865 -19.8590
  262 138.481 -7.40032 19.8421
  263 464.852 69.6743 -43.2945
  264 786.630 149.819 -76.0947
  265 552.249 56.6093 39.9527
  266 596.656 41.3377 -114.691
  267 372.226 -18.0051 4.56957
  268 424.632 2.34584 -66.3188
  269 400.891 -28.4997 -16.1968
  270 445.891 -8.22920 16.2381
  271 1.61031 4.28961 -5.37687
  272 1.77835 4.27634 5.43457
  273 441.252 -13.2077 -110.437
  274 49.2499 14.7300 -16.7111
  275 49.4819 14.7047 16.7992
  276 428.936 -10.4146 -33.4154
  277 62.6305 66.6855 -82.7980
  278 55.5629 -0.277023 -1.74882
  279 55.6179 -0.265897 1.72438
  280 452.586 -27.7362 -50.6129
  281 81.1416 36.4479 -44.8140
  282 82.3032 36.2581 44.9406
  283 25.9616 -0.744477 9.58226
  284 25.7908 -0.735606 -9.58784
  285 371.658 -17.1360 -4.46786
  286 63.0729 65.9900 84.9610
  287 586.674 49.2055 133.917
  288 164.657 -6.66211 -7.10802
  289 164.632 -6.62177 7.01512
  290 298.123 -12.7964 -3.48573
  291 297.980 -13.8050 3.83503
  292 254.495 25.1462 -122.696
  293 408.611 -44.5932 -4.72592
  294 462.988 -3.18400 2.80371
  295 245.211 25.1813 118.798
  296 285.642 -8.26554 -1.19959
  297 285.535 -8.26078 1.44022
  298 401.553 -29.6261 16.4947
  299 459.617 -5.16889 -7.47638
  300 -1.03822 1.70000 -7.61541
  301 -0.852081 1.68725 7.64332
  302 579.976 114.972 -4.13790
  303 506.500 -22.6585 24.3667
  304 456.018 -2.79289 -0.681481
  305 463.804 -2.44140 0.617542
  306 456.398 -39.2827 41.1222
  307 562.726 60.4246 -36.7362
  308 494.745 91.8922 24.5214
  309 223.580 -13.9065 -13.6235
  310 221.591 -14.1547 13.8726
  311 462.391 -3.11866 -1.79178
  312 306.070 -22.8976 -61.2531
  313 301.409 -24.0116 11.6549
  314 287.315 -15.4267 69.6085
  315 455.888 -5.78524 8.99348
  316 106.856 -4.90405 -12.4485
  317 106.931 -4.93943 12.3978
  318 420.805 -12.7653 109.125
  319 269.259 -21.4792 -16.9551
  320 493.143 63.7837 53.9579
  321 158.737 11.1141 -53.2227
  322 152.911 11.6257 52.8057
  323 49.6797 -0.992201 -3.17113
  324 49.7622 -0.985804 3.13228
  325 403.324 -8.71150 3.47840
  326 386.929 -6.14862 0.316105
  327 384.796 -6.67511 -0.444161
  328 425.914 -10.9624 35.4400
  329 40.1383 -1.40856 7.20337
  330 39.9917 -1.39571 -7.23368
  331 127.324 -3.11613 -2.63621
  332 127.340 -3.06767 2.61038
  333 4.26810 -18.2704 -6.67931
  334 3.99764 -18.4272 7.00162
  335 334.789 14.5810 40.4553
  336 511.321 -20.9945 -19.2219
  337 332.475 -18.1093 -0.0162750
  338 374.809 -8.17994 -1.51064
  339 395.556 49.0793 -24.5918
  340 79.4924 -2.57642 -17.9176
  341 79.5982 -2.57865 17.9047
  342 323.435 -17.1109 1.67516
  343 93.5563 3.00426 -25.6854
  344 93.7359 2.92528 25.6122
  345 18.8192 15.2688 -1.18251
  346 19.0401 15.2677 1.27736
  347 392.203 -41.6659 41.6963
  348 860.315 56.6432 22.1210
  349 352.316 5.50532 -47.8528
  350 292.944 -26.2250 38.1658
  351 291.458 -25.6851 -39.2795
  352 431.330 -6.99349 65.5461
  353 384.976 -2.66638 47.1222
  354 387.184 -40.2822 -42.9865
  355 232.729 -6.34952 0.648907
  356 232.691 -6.41752 -0.592062
  357 428.298 -27.9180 39.5179
  358 586.586 116.397 1.76803
  359 458.386 -5.45648 -11.9963
  360 121.247 -4.68845 -9.08750
  361 121.301 -4.69285 9.00306
  362 432.272 -40.2465 -51.5042
  363 455.934 32.2522 -65.1486
  364 309.328 16.6251 -26.0085
  365 431.404 -28.6709 -45.3873
  366 -13.8909 0.568708 -11.0627
  367 -13.9059 0.551158 11.0770
  368 362.302 -9.23453 0.597133
  369 -5.14694 -3.05321 -6.70982
  370 -5.14038 -3.05407 6.69552
  371 279.240 143.881 -218.801
  372 11.8104 10.6516 6.04843
  373 12.0921 10.7339 -5.89717
  374 382.141 -2.81344 -46.7394
  375 211.841 -9.31345 6.52850
  376 211.985 -9.43245 -6.59380
  377 -1.34354 -15.0400 12.6161
  378 -1.32012 -15.0126 -12.6034
  379 227.621 150.660 206.222
  380 173.835 -9.34263 -26.8922
  381 173.976 -8.95261 26.9128
  382 55.9086 41.5829 -41.6650
  383 57.0660 41.4792 41.4369
  384 -20.5984 3.34346 3.53648
  385 -20.4991 3.34901 -3.48240
  386 440.305 29.6923 65.4591
  387 337.361 -35.3213 18.9652
  388 337.722 -30.9599 8.35255
  389 408.127 -46.1008 -7.58845
  390 104.192 12.8222 -35.4208
  391 104.540 12.8012 35.3714
  392 9.42779 -11.5614 2.08673
  393 8.93025 -11.7775 -1.37719
  394 416.294 59.3314 16.1039
  395 415.617 -12.3763 9.95067
  396 240.006 -18.7452 24.9500
  397 149.606 -3.88983 -32.0222
  398 149.668 -3.91796 31.7951
  399 304.751 -9.79949 -1.65832
  400 304.430 -8.68192 1.40023
  401 238.016 -19.2367 -26.4086
  402 186.654 -3.23962 -43.0103
  403 186.633 -3.49428 43.3464
  404 433.742 -39.5592 -26.7468
  405 253.793 -19.7319 16.0349
  406 394.406 -12.5749 5.57162
  407 393.628 -11.5274 -4.54858
  408 331.585 -30.7410 -9.52661
  409 472.001 -2.42651 -2.98816
  410 160.908 66.1249 -124.878
  411 446.015 -6.65717 20.1741
  412 470.818 -2.80771 4.58531
  413 171.320 -9.30235 16.4073
  414 171.386 -9.17841 -16.3949
  415 335.857 -34.9015 -19.5429
  416 49.3599 21.6111 18.0274
  417 49.0972 21.5943 -18.0394
  418 868.930 56.6010 -45.1172
  419 386.968 -22.4819 -8.77188
  420 474.879 -2.03217 1.72005
  421 152.091 61.8583 119.079
  422 702.948 118.120 23.6982
  423 413.952 -6.89076 -2.73543
  424 311.514 -22.9209 -7.55307
  425 131.266 25.3246 -60.0288
  426 139.793 23.4569 59.6696
  427 382.453 -24.5943 8.78788
  428 406.787 -5.21745 -34.5213
  429 -0.196535 -0.401298 7.20709
  430 -0.393321 -0.397054 -7.20150
  431 148.021 35.8337 -80.0609
  432 148.493 35.9604 79.8192
  433 19.0184 8.16303 -8.09560
  434 19.2045 8.14579 8.16759
  435 343.366 -7.33438 0.415655
  436 342.954 -7.16171 -0.302190
  437 426.681 -19.6128 -31.5306
  438 -0.855202 -0.831881 15.1979
  439 -0.778481 -0.763077 -15.1406
  440 439.292 -42.9971 23.0096
  441 415.040 -11.6146 -8.71761
  442 670.032 128.116 -21.6292
  443 31.0113 -1.24735 3.43944
  444 30.8824 -1.24756 -3.47311
  445 802.464 229.657 105.127
  446 16.7428 10.5313 -25.7034
  447 52.5305 2.34343 -17.5491
  448 52.7026 2.30458 17.5493
  449 800.893 235.131 -101.937
  450 17.7474 12.3393 28.1421
  451 -19.4858 2.54397 0.542991
  452 -19.3573 2.54013 -0.491546
  453 46.2198 31.6718 -24.9527
  454 47.0036 31.6899 25.0843
  455 525.694 83.0682 -43.5799
  456 421.563 -16.8042 -19.9711
  457 472.434 -2.11426 -1.48933
  458 440.635 -6.88294 -23.7601
  459 -4.69024 3.47623 13.8539
  460 -4.61201 3.52071 -13.7996
  461 425.986 -17.4520 23.4493
  462 278.602 -16.0689 -7.38467
  463 277.764 -16.2263 6.46877
  464 376.380 -41.4298 -8.27623
  465 269.520 -3.34731 -85.0194
  466 410.653 -6.25539 35.2383
  467 335.504 -11.4733 0.737796
  468 490.535 -35.6069 -8.73575
  469 261.167 2.79703 91.0673
  470 23.4504 -0.414362 6.95858
  471 23.2760 -0.406555 -6.97226
  472 540.626 106.792 -18.9790
  473 430.046 -3.79110 0.0744578
  474 428.601 -4.21837 -0.457499
  475 326.924 -22.2011 3.78572
  476 145.759 -5.04638 -5.14019
  477 145.755 -4.99007 5.08251
  478 86.6436 -1.14269 -21.2110
  479 86.7477 -1.15969 21.1731
  480 279.765 10.8211 15.5845
  481 72.6065 -2.40665 10.3149
  482 72.5000 -2.38422 -10.3628
  483 75.9505 7.02921 23.9394
  484 75.7000 7.13331 -23.9172
  485 418.915 -32.4752 28.0494
  486 236.266 -14.7333 -40.5299
  487 218.831 -7.43741 3.50212
  488 218.906 -7.60855 -3.50670
  489 238.734 -15.1905 40.5258
  490 652.440 156.085 -17.1337
  491 -10.4242 -1.53877 -8.64700
  492 -10.4181 -1.54706 8.64175
  493 167.614 -4.90857 -2.15737
  494 167.618 -4.83898 2.14936
  495 0.262905 -27.6131 -10.3350
  496 0.194352 -27.7041 10.4287
  497 382.044 -6.40370 0.736033
  498 278.157 13.1220 -7.74867
  499 370.146 38.7070 22.1728
  500 234.574 -2.08804 -68.0978
  501 117.228 -6.02809 15.5937
  502 117.208 -5.97774 -15.6177
  503 -27.3670 0.914977 -2.64813
  504 -27.1897 0.909345 2.67208
  505 452.732 -7.93963 -64.6158
  506 40.8809 0.189379 -2.29764
  507 40.9528 0.195105 2.26969
  508 376.882 -29.9461 -6.61393
  509 401.354 -34.3032 -15.3898
  510 83.5385 64.7876 -85.4420
  511 337.422 10.3994 -132.842
  512 5.29594 10.4200 5.85373
  513 5.45940 10.4429 -5.76236
  514 208.730 -9.91197 -9.25171
  515 208.632 -9.82608 9.07060
  516 576.714 26.4758 -9.41007
  517 417.136 -24.8297 -25.5339
  518 81.4768 61.4130 84.2746
  519 413.229 -46.4327 14.0517
  520 397.713 -37.8384 11.3750
  521 88.4755 -2.15407 -6.79239
  522 88.5368 -2.14600 6.72974
  523 330.975 3.71508 37.0905
  524 238.252 -17.7468 -16.8706
  525 439.002 -10.1319 14.4682
  526 -1.76094 -10.6806 -8.41687
  527 -1.76531 -10.6717 8.40425
  528 309.592 -27.2225 45.3627
  529 468.585 -35.1985 -31.9045
  530 608.229 45.6121 -25.7798
  531 331.558 -11.8561 -0.638501
  532 102.354 -1.94861 -1.96300
  533 102.383 -1.91320 1.94582
  534 211.245 1.86025 65.6749
  535 583.391 99.4275 27.1563
  536 587.908 122.949 -208.985
  537 531.333 4.46055 29.5250
  538 383.742 -42.5351 6.25878
  539 895.416 71.2735 60.5907
  540 667.404 163.828 23.8000
  541 97.8173 -4.11027 16.9957
  542 97.7398 -4.06995 -17.0212
  543 369.092 -30.8126 4.28626
  544 29.0657 13.3971 -7.73178
  545 29.2768 13.3906 7.81646
  546 462.891 -37.9046 31.9776
  547 382.176 20.8529 54.5504
  548 465.044 -3.19461 8.11000
  549 345.721 -21.1508 1.06977
  550 481.087 6.63532 -140.031
  551 758.711 202.624 139.682
  552 373.789 -7.99770 -0.548868
  553 457.355 -4.86893 -13.2532
  554 73.8982 30.6197 -33.8497
  555 74.4297 30.2540 33.7079
  556 264.070 -11.0424 -4.89358
  557 263.952 -10.7933 4.98050
  558 3.26074 -31.0427 -4.75207
  559 467.735 -16.0576 57.0518
  560 18.9431 16.8080 0.550333
  561 19.2303 16.8554 -0.414038
  562 3.79377 -29.8954 5.75500
  563 426.324 -19.3657 -46.5835
  564 490.249 31.7163 -61.6803
  565 488.646 35.8794 61.7303
  566 24.2722 21.7649 19.2784
  567 23.0827 22.2376 -18.8885
  568 -10.9466 0.425551 5.49025
  569 -11.1477 0.430116 -5.47929
  570 448.617 13.7207 144.232
  571 248.576 -14.0673 9.42979
  572 248.820 -14.0183 -9.58846
  573 540.168 -7.24419 -75.4108
  574 74.4693 -1.04640 3.93569
  575 74.4150 -1.06221 -3.97775
  576 37.3301 -0.863711 -0.917655
  577 37.3826 -0.858078 0.907851
  578 594.822 109.938 -21.0307
  579 57.6686 89.7957 -93.9607
  580 317.067 6.48896 -31.4555
  581 443.968 70.7724 -27.2949
  582 6.94408 0.689070 8.71489
  583 7.21309 0.787825 -8.53444
  584 441.986 211.539 244.811
  585 379.500 -11.1395 -2.69576
  586 15.4421 3.85624 -9.44721
  587 15.6256 3.82844 9.49219
  588 438.550 -35.0362 39.1798
  589 68.0959 87.1180 95.6751
  590 317.113 -7.29176 0.554186
  591 317.201 -7.23552 -0.555402
  592 -0.263229 -22.0888 10.8597
  593 -0.229033 -22.0530 -10.8238
  594 540.347 104.883 -0.865268
  595 343.020 -27.1931 63.8210
  596 327.710 -14.5256 -1.32390
  597 329.106 16.1988 140.078
  598 -26.8900 1.43856 6.44602
  599 -26.8632 1.44638 -6.41883
  600 537.776 8.49815 -31.8678
  601 711.734 125.197 -100.839
  602 206.485 21.3785 -94.0462
  603 113.518 -4.81074 -20.6623
  604 113.627 -4.81238 20.6673
  605 485.060 -1.76374 2.15843
  606 324.544 -14.8253 0.933462
  607 432.278 -6.38119 4.65774
  608 426.330 -19.3924 45.4615
  609 21.9882 -0.718095 3.49899
  610 21.8326 -0.715084 -3.52386
  611 254.082 -9.27311 -2.87616
  612 254.050 -9.03399 2.79819
  613 159.344 3.41725 -44.3335
  614 158.336 3.46344 44.1491
  615 611.630 39.3507 40.1011
  616 991.161 74.7193 -108.144
  617 -4.74688 -0.630929 4.77416
  618 -4.95610 -0.628887 -4.77242
  619 151.562 -6.46918 9.43596
  620 151.547 -6.46101 -9.55272
  621 571.240 33.1309 17.2191
  622 479.206 -1.97858 -0.684455
  623 478.180 -2.71873 0.251355
  624 352.429 -0.0106541 36.6946
  625 502.455 -28.1784 -46.9763
  626 275.131 -22.7176 20.0980
  627 -5.41791 6.31876 -5.51935
  628 -5.54034 6.30840 5.59067
  629 439.849 9.36866 68.2541
  630 176.088 -10.2174 -21.6648
  631 175.927 -10.3844 21.7057
  632 357.837 -21.0868 -2.39332
  633 440.914 -9.94285 -13.0675
  634 253.697 -20.2819 -29.7034
  635 415.911 50.1837 -41.5052
  636 280.089 -19.2263 -52.2415
  637 105.855 -2.84743 -3.56125
  638 105.885 -2.81502 3.51786
  639 256.290 -20.6338 29.8425
  640 547.373 89.1986 38.5063
  641 436.091 -20.9691 57.3222
  642 357.006 -16.3738 2.38224
  643 256.777 -7.27786 1.75882
  644 256.712 -7.29223 -1.71058
  645 194.661 -7.49279 -6.77430
  646 194.595 -7.41521 6.70846
  647 419.381 -38.4068 -21.8441
  648 214.375 -12.3348 11.8208
  649 214.600 -12.2856 -12.0395
  650 423.197 65.0938 -5.54202
  651 387.613 -20.7267 8.94094
  652 482.658 -2.40325 -3.42378
  653 413.383 -7.39086 -60.3021
  654 62.2663 -2.71217 13.6601
  655 62.1398 -2.69322 -13.6701
  656 471.466 -2.77315 -7.35868
  657 85.7031 44.4036 -60.4541
  658 87.1594 44.3019 60.7478
  659 481.256 -27.8919 63.9159
  660 167.394 42.0924 99.0537
  661 43.3951 -0.311119 13.6584
  662 43.2453 -0.301526 -13.6630
  663 410.573 -25.7774 81.9268
  664 403.635 59.8761 -190.157
  665 396.755 12.7143 -60.3399
  666 520.521 94.3886 33.6076
  667 350.971 -16.0499 -0.824531
  668 629.808 112.813 -2.74365
  669 -29.0527 1.44787 -1.79687
  670 -28.9031 1.44422 1.83033
  671 280.512 1.67843 -99.3585
  672 23.6869 -0.424387 2.67418
  673 23.5706 -0.425441 -2.70001
  674 351.269 -29.2599 -63.1226
  675 117.941 16.0677 -42.8361
  676 117.019 16.1292 42.8165
  677 3.69950 5.91037 -3.27061
  678 3.86261 5.90304 3.34131
  679 299.277 -26.0056 -15.4181
  680 422.939 -4.17551 -23.0883
  681 203.531 -6.55367 -2.41510
  682 203.543 -6.48478 2.43270
  683 148.173 -7.64194 -13.9930
  684 148.293 -7.74636 13.9457
  685 28.4176 23.3557 -9.13043
  686 28.8808 23.4087 9.28889
  687 431.412 -5.59587 2.16375
  688 194.421 -12.4703 18.1619
  689 195.642 -12.2574 -18.1482
  690 478.264 -37.6557 -3.22631
  691 395.015 -39.7235 -7.09001
  692 311.290 -9.29668 -0.722752
  693 310.209 -8.70806 0.868391
  694 434.542 -45.4728 25.6675
  695 703.608 142.302 39.0344
  696 382.035 -16.2433 -101.263
  697 437.277 -12.3779 23.6896
  698 435.314 -15.9644 -61.6582
  699 138.326 -4.38661 -6.64690
  700 138.333 -4.35538 6.56976
  701 340.053 -5.09093 113.380
  702 939.308 120.963 110.792
  703 66.8519 19.2340 -25.1050
  704 66.9531 19.3636 25.1864
  705 429.899 -4.63354 -1.06735
  706 433.252 -4.18754 1.09525
  707 184.094 95.0170 -159.902
  708 457.466 -2.62403 13.2965
  709 395.697 -7.30117 1.53411
  710 523.633 103.461 -12.2635
  711 55.0687 9.55904 -18.3152
  712 55.3064 9.49958 18.3827
  713 488.845 -1.38436 0.320925
  714 398.303 -15.7532 -8.91727
  715 496.357 -6.86223 49.3432
  716 205.295 -14.4472 -28.1448
  717 205.808 -13.8368 27.8928
  718 49.3915 -1.64969 10.3359
  719 49.2512 -1.62944 -10.3613
  720 448.980 -3.43378 -2.11219
  721 387.398 78.7483 201.561
  722 3.23489 3.52007 12.3329
  723 3.38049 3.60841 -12.2329
  724 450.436 -5.19590 -5.85257
  725 437.810 -8.40424 8.39881
  726 350.808 0.382170 -39.3566
  727 3.41904 -38.9749 -4.69442
  728 3.20255 -39.3692 5.09161
  729 161.073 43.4205 -99.0802
  730 350.699 -34.9823 -45.9552
  731 182.889 94.1213 161.366
  732 482.807 -1.42002 1.25041
  733 470.272 70.4895 43.4430
  734 345.717 31.2904 -15.4609
  735 613.311 123.553 2.32643
  736 477.484 -2.19503 4.68509
  737 -26.7848 0.696197 3.90575
  738 -26.9811 0.700007 -3.89021
  739 508.954 -28.0469 15.8764
  740 330.922 -10.0309 -0.933245
  741 122.073 0.0851372 -30.7338
  742 122.237 -0.0346970 30.5682
  743 437.462 -5.53082 -3.22477
  744 770.843 109.024 -40.1969
  745 55.4329 -1.58924 -6.57406
  746 55.5522 -1.59837 6.53041
  747 486.189 -1.51040 -2.12062
  748 100.386 -4.46379 -9.15379
  749 100.457 -4.47948 9.08886
  750 478.048 -18.5845 -51.1366
  751 441.912 -4.70833 18.4973
  752 398.280 -2.43799 59.7385
  753 486.656 -1.56793 0.0798961
  754 455.512 -3.81095 4.42149
  755 300.129 -16.4843 -4.21832
  756 374.711 -10.3429 1.87286
  757 426.243 -26.2659 -38.4388
  758 415.599 -26.2797 24.5410
  759 487.921 59.3583 -54.6453
  760 409.811 -23.2336 17.9175
  761 433.341 -25.5657 49.4582
  762 252.740 -17.3105 12.4914
  763 9.38444 -1.33343 0.175199
  764 8.90137 -1.36671 0.282995
  765 379.046 -6.25092 -0.105840
  766 378.252 -6.21117 -0.0331279
  767 452.848 -2.42358 -0.205142
  768 454.380 -2.33731 0.309044
  769 433.516 -12.2817 29.2256
  770 399.996 -36.2980 59.7957
  771 329.483 -26.9424 6.37253
  772 293.130 -17.7965 6.43504
  773 785.954 100.552 46.4031
  774 437.688 -11.3534 -18.5110
  775 257.657 45.7392 -149.781
  776 407.135 -20.4103 -15.4095
  777 18.3942 0.292590 -9.95082
  778 18.5754 0.277714 9.96537
  779 367.277 32.2064 -34.6397
  780 913.244 27.7007 -11.8362
  781 459.078 12.1756 -66.5299
  782 18.7297 15.2866 -37.6519
  783 473.786 84.9778 11.0699
  784 368.436 -23.7379 4.44846
  785 414.832 -10.2408 58.4704
  786 348.942 -36.4806 46.2056
  787 554.399 -1.01986 92.2250
  788 20.1750 19.5399 40.1300
  789 253.145 -1.34084 77.7826
  790 352.174 -9.59686 -0.333297
  791 392.333 -34.7656 -60.5084
  792 242.470 -19.0022 -21.0644
  793 191.757 9.22147 -68.2008
  794 454.865 -6.76857 65.1734
  795 292.744 -20.2091 10.0155
  796 59.5017 -1.64659 5.81119
  797 59.4098 -1.64842 -5.86117
  798 424.232 -2.36728 20.4357
  799 386.242 2.08547 -58.1544
  800 -33.1198 1.54493 3.91880
  801 -33.0694 1.54795 -3.88889
  802 284.931 -9.36907 -1.61324
  803 284.122 -8.88848 1.52034
  804 211.749 23.9162 95.3707
  805 189.975 -11.2357 13.7818
  806 190.228 -10.9685 -13.9157
  807 485.821 -1.14032 -1.10851
  808 172.825 13.7354 66.5220
  809 8.90197 -0.164065 3.70312
  810 8.71248 -0.160518 -3.71751
  811 419.205 -12.9176 45.1036
  812 445.147 -4.19232 1.63347
  813 -23.7965 0.318693 6.50580
  814 -23.8016 0.326549 -6.49262
  815 276.418 -17.2487 58.5013
  816 54.2721 46.1807 -51.5403
  817 54.9267 44.1277 50.7894
  818 265.677 11.6709 6.47114
  819 -1.60066 -0.300537 -4.23808
  820 -1.38982 -0.303271 4.23479
  821 317.341 -30.0361 -43.3324
  822 431.648 -45.0567 -12.2540
  823 -2.16663 -2.05590 -2.73647
  824 -2.16010 -2.05093 2.72618
  825 27.2558 0.714551 -0.893053
  826 27.3192 0.718581 0.878231
  827 384.383 -34.3237 7.80958
  828 324.270 -33.1477 30.7006
  829 358.269 -6.62395 0.557283
  830 323.468 -26.3007 -7.56303
  831 121.481 -2.11931 -0.732011
  832 121.503 -2.07279 0.721278
  833 -37.2579 0.799624 2.17125
  834 -37.1754 0.798630 -2.14171
  835 403.662 -5.77943 -1.38618
  836 361.102 14.3304 -49.5814
  837 408.342 -8.60920 -4.55518
  838 242.986 -18.6899 20.1135
  839 406.096 -7.05227 -47.8543
  840 433.033 -13.3311 -30.1887
  841 405.256 -5.04388 1.23102
  842 297.342 -11.0687 79.7336
  843 317.669 -31.1085 -17.9620
  844 192.520 -1.44624 -52.5398
  845 193.569 -0.109782 52.8133
  846 271.439 -20.5386 -13.5387
  847 449.555 48.9652 56.9610
  848 424.919 -43.8027 -34.0615
  849 156.018 -5.06550 -3.38457
  850 156.011 -4.99416 3.35313
  851 325.647 -7.96228 0.554413
  852 325.663 -8.02305 -0.480291
  853 388.869 -2.88749 -31.3480
  854 133.320 -5.69208 -11.3120
  855 133.396 -5.73420 11.2235
  856 1.62673 -39.7872 -7.71187
  857 1.54230 -39.9599 7.87727
  858 69.7107 -1.02818 -0.200480
  859 69.6673 -1.04795 0.187608
  860 400.766 -6.83390 -1.93168
  861 305.895 -29.1751 27.8340
  862 472.609 -39.9581 12.6846
  863 282.395 5.90784 24.7758
  864 409.819 -10.1416 5.25855
  865 447.960 -39.8622 -29.7776
  866 66.6556 4.05165 -20.7612
  867 66.8518 3.98359 20.7538
  868 356.471 -7.06256 -0.503578
  869 288.310 -10.4747 -3.05565
  870 287.329 -10.3885 3.31295
  871 445.118 69.2203 30.7645
  872 155.966 -1.64149 -36.9493
  873 155.829 -1.82093 36.7983
  874 308.743 -28.0419 14.5304
  875 30.8250 19.7089 -7.94925
  876 31.1220 19.6730 8.03587
  877 261.609 -18.5768 47.8778
  878 313.044 -20.2794 -4.56106
  879 391.052 -2.99190 31.6741
  880 383.431 -43.0054 16.3583
  881 439.148 -33.2320 -42.4399
  882 305.147 -29.4125 -28.2010
  883 254.537 -17.2431 -12.0022
  884 819.913 67.2065 -12.7305
  885 401.497 -42.4605 4.50521
  886 12.2894 13.5325 3.88853
  887 12.5011 13.5599 -3.77693
  888 349.526 -35.0870 8.67972
  889 382.835 -42.8663 -27.2300
  890 13.2946 11.7007 -0.445136
  891 13.4811 11.7050 0.531030
  892 146.288 -5.28291 28.1842
  893 146.367 -5.43702 -28.3414
  894 176.590 -9.00026 30.8896
  895 176.520 -9.20868 -31.0896
  896 552.745 110.786 14.6785
  897 -0.792350 -17.0852 -8.13788
  898 -0.798178 -17.0636 8.13162
  899 128.745 10.7531 -40.7701
  900 128.129 10.5369 40.3885
  901 943.654 30.5625 -47.4823
  902 22.2775 -0.111775 1.51688
  903 22.1847 -0.114860 -1.53718
  904 1.74026 -44.6699 2.02943
  905 2.02004 -43.8914 -1.37198
  906 -18.2842 -0.206311 6.73582
  907 -18.3055 -0.200565 -6.73388
  908 102.985 30.1820 -47.9218
  909 104.572 29.1793 47.2658
  910 -7.75940 0.520410 -14.0672
  911 -7.79927 0.487792 14.0923
  912 31.1340 2.58107 -13.6395
  913 31.3194 2.54741 13.6608
  914 112.788 -1.39293 26.0078
  915 112.704 -1.38716 -26.1300
  916 92.6723 -3.21262 -21.0133
  917 92.7706 -3.20729 20.9840
  918 473.867 -1.87096 -7.29516
  919 232.518 50.4481 139.458
  920 320.802 -31.7057 16.9217
  921 229.055 -16.5347 16.2920
  922 439.816 45.4998 -56.3762
  923 928.070 19.8284 18.9989
  924 518.611 24.5629 -52.2270
  925 88.9537 -3.40285 13.1718
  926 88.8596 -3.36487 -13.2176
  927 17.7784 -0.520916 -9.69679
  928 17.9571 -0.525761 9.69797
  929 -0.139099 -7.77274 -15.2246
  930 -0.207528 -7.84071 15.2761
  931 236.711 -10.6742 7.38848
  932 236.829 -10.8751 -7.42157
  933 29.9597 7.68278 -12.2750
  934 30.1575 7.64876 12.3379
  935 145.321 -6.54217 -23.9902
  936 145.422 -6.54326 23.9772
  937 313.119 -1.23339 -29.1268
  938 150.068 -8.20686 -16.7640
  939 149.973 -8.12172 16.8179
  940 359.114 -10.5114 -0.429755
  941 434.675 -24.7292 -53.2433
  942 192.024 -7.93408 7.81725
  943 192.109 -8.00424 -7.91492
  944 -7.91317 -0.835058 -4.79306
  945 -7.89119 -0.837055 4.78257
  946 441.603 -33.1917 -73.7803
  947 423.636 -24.9135 33.2806
  948 371.930 -26.2148 -6.06589
  949 365.527 12.6550 52.2197
  950 167.041 -9.45712 -18.8504
  951 167.050 -9.28189 18.9069
  952 407.062 15.8133 62.9089
  953 381.197 33.3013 41.4505
  954 767.247 91.9912 16.2712
  955 395.051 -14.5357 6.34541
  956 210.295 -6.48402 -3.52562
  957 210.273 -6.36290 3.55338
  958 354.604 -29.2249 0.180291
  959 491.592 90.0864 -25.7593
  960 431.515 -5.04590 -2.21566
  961 285.570 -7.38858 1.16790
  962 285.463 -7.33469 -1.08759
  963 37.0021 31.4917 -23.0673
  964 37.9239 31.4439 23.2355
  965 68.4042 181.279 -155.244
  966 407.051 -9.52364 47.5749
  967 504.465 -8.57800 -43.5449
  968 -7.55908 4.92647 2.11075
  969 -7.42466 4.92600 -2.04317
  970 1013.59 243.036 -193.168
  971 432.272 -46.6923 2.83318
  972 460.513 -41.9541 -20.6666
  973 425.849 -36.4150 29.8048
  974 527.931 103.635 10.3495
  975 38.8350 42.0752 -48.1275
  976 97.3576 157.362 152.895
  977 -2.39141 -5.71073 15.3022
  978 -2.34898 -5.66087 -15.2763
  979 413.679 -10.9405 6.67409
  980 663.837 117.130 -14.8885
  981 39.9513 41.1675 49.9711
  982 -1.81911 -6.18447 -5.32993
  983 -1.81938 -6.16710 5.31585
  984 355.637 -8.73259 -0.0728022
  985 266.784 -21.2873 -22.0021
  986 429.219 -33.8355 -35.7754
  987 123.361 33.2211 -62.9677
  988 125.324 33.7642 63.1296
  989 417.774 -10.3376 -42.3155
  990 419.509 -13.5830 12.9597
  991 -10.8598 2.98175 12.2685
  992 -10.8035 3.01089 -12.2275
  993 254.794 -16.7647 -45.0941
  994 422.441 27.2262 -62.9730
  995 313.545 -12.1190 1.79737
  996 226.939 -6.72916 0.664582
  997 226.894 -6.77080 -0.638992
  998 -4.68406 -5.32472 -11.0480
  999 -4.69066 -5.33624 11.0385
  1000 425.195 -15.4017 -16.1451
  1001 404.376 -4.95530 0.346226
  1002 404.003 -4.96113 -0.184558
  1003 559.752 92.3329 -35.1095
  1004 102.781 8.76352 -32.3135
  1005 103.037 8.58877 32.2473
  1006 66.7567 -0.690837 -17.4734
  1007 66.8838 -0.704060 17.4557
  1008 462.203 25.1456 67.3042
  1009 435.553 -8.50356 -8.81972
  1010 78.6622 12.2150 -26.4796
  1011 78.9721 12.1248 26.5760
  1012 453.409 -2.74624 -1.33951
  1013 425.120 -18.5291 -24.9396
  1014 415.164 -46.5401 -19.6376
  1015 16.3993 14.4255 0.855372
  1016 15.9558 14.3567 -0.653277
  1017 -19.6037 3.35711 7.12621
  1018 -19.5306 3.36661 -7.07692
  1019 256.983 9.55948 -10.8206
  1020 715.524 178.971 -51.5420
  1021 329.053 -24.1951 -3.25053
  1022 218.671 -9.55911 -46.3583
  1023 525.051 -19.9932 1.89937
  1024 219.527 -9.54436 46.9954
  1025 377.715 -43.7033 31.5063
  1026 428.080 -17.7364 -38.1064
  1027 149.542 -3.59855 -1.08185
  1028 149.557 -3.53890 1.07531
  1029 293.387 -23.0780 -11.9910
  1030 180.917 -6.81702 -36.3101
  1031 180.856 -6.86867 36.1358
  1032 60.4400 39.6752 -39.4583
  1033 61.3880 39.5699 39.5770
  1034 126.392 -4.05799 -3.82853
  1035 126.406 -4.00990 3.78303
  1036 380.469 -12.4507 3.08360
  1037 321.660 1.94504 -114.705
  1038 394.230 -13.1628 -6.34960
  1039 356.872 -39.3974 -19.5292
  1040 236.135 -10.1886 5.13011
  1041 236.324 -10.2621 -5.14424
  1042 459.544 -3.10937 1.69123
  1043 412.087 -10.1611 -6.24560
  1044 270.517 6.62168 20.4325
  1045 442.478 -4.40343 -17.2172
  1046 172.581 50.9455 112.166
  1047 454.974 -4.28424 -14.0501
  1048 120.557 20.2039 -47.6820
  1049 117.016 20.4267 45.7891
  1050 542.506 -7.91781 -3.92210
  1051 50.3816 26.0684 -20.9767
  1052 50.8394 25.8846 20.9760
  1053 8.70830 0.294280 4.04589
  1054 9.12961 0.374117 -3.76838
  1055 73.8518 -1.94291 4.57479
  1056 73.7836 -1.95500 -4.62733
  1057 196.074 51.5397 -124.050
  1058 1044.96 276.198 207.932
  1059 423.868 -15.3895 16.5570
  1060 381.077 -42.6764 -14.8652
  1061 265.980 -21.8783 -35.1334
  1062 -4.93033 6.02808 10.4251
  1063 -4.82776 6.06111 -10.3561
  1064 299.772 -15.7206 3.45509
  1065 330.097 -12.6282 0.787757
  1066 -0.144459 -24.1877 7.82417
  1067 -0.136258 -24.2128 -7.82243
  1068 50.6010 31.2652 -24.8178
  1069 51.1943 31.2108 24.9627
  1070 295.836 -14.4874 -3.31013
  1071 24.4823 10.8506 8.05819
  1072 24.2864 10.8644 -7.97831
  1073 450.400 -17.4797 61.7812
  1074 326.669 -33.7604 -30.5462
  1075 267.550 -22.2288 35.1334
  1076 429.656 -8.33520 -65.3850
  1077 450.997 -5.21478 6.39115
  1078 165.374 25.5484 75.6643
  1079 166.556 24.4465 -74.4180
  1080 265.504 -12.7387 -63.7916
  1081 374.289 -13.7756 -3.06227
  1082 305.308 -18.6014 6.09462
  1083 356.994 -33.4385 -2.69988
  1084 486.801 -1.84162 -3.68825
  1085 265.504 -12.4742 5.67056
  1086 265.390 -13.1693 -5.81453
  1087 9.41457 10.9030 8.06299
  1088 9.63313 10.9823 -7.93694
  1089 433.460 16.2978 -67.6516
  1090 98.8808 4.86904 -28.6025
  1091 99.1448 4.76052 28.5302
  1092 74.8875 1.33306 -20.6425
  1093 75.0499 1.29237 20.6097
  1094 491.504 -18.0833 92.4593
  1095 427.503 -19.7290 37.4898
  1096 210.835 -9.71971 -39.4853
  1097 494.128 -2.04676 -2.19594
  1098 557.746 105.808 -26.3535
  1099 450.024 -4.59303 -3.92376
  1100 423.294 -45.4422 12.0621
  1101 314.228 -23.6746 56.1742
  1102 496.974 -0.733630 0.349211
  1103 270.022 8.37943 -17.3173
  1104 359.463 -38.4319 -9.96098
  1105 211.179 -10.1567 39.0748
  1106 362.763 -33.1530 0.626252
  1107 450.795 -6.65533 12.3365
  1108 328.023 20.7414 26.8905
  1109 226.634 -16.7139 -31.6845
  1110 677.399 100.582 -44.3095
  1111 512.507 24.0700 55.0603
  1112 386.332 48.2795 6.56350
  1113 492.228 -0.0464138 1.89471
  1114 197.208 -12.3969 -24.4394
  1115 134.341 84.1915 -124.888
  1116 239.412 6.73256 -90.0530
  1117 274.653 -21.2574 15.8595
  1118 232.508 -17.4616 29.7900
  1119 196.750 -11.8000 24.6772
  1120 412.631 3.85528 65.9778
  1121 311.422 -11.2725 -1.42551
  1122 485.732 -3.70431 5.04107
  1123 -3.62214 -0.0850429 15.2101
  1124 -3.56356 -0.0347229 -15.1712
  1125 325.909 -9.76920 0.694639
  1126 0.0668043 4.02217 13.5314
  1127 0.172973 4.08830 -13.4568
  1128 185.225 -6.01249 4.31325
  1129 185.236 -6.10300 -4.31809
  1130 458.975 -2.53146 11.6595
  1131 369.774 -22.9190 -4.87636
  1132 346.629 -18.8733 -0.629300
  1133 387.237 -27.3132 11.2580
  1134 119.385 59.9242 -93.5769
  1135 379.413 -14.7628 4.29354
  1136 58.9506 0.983767 -16.9845
  1137 59.1049 0.955517 16.9743
  1138 80.2995 52.1090 -66.3825
  1139 604.507 81.3860 15.0330
  1140 46.3616 -2.05953 9.95304
  1141 46.2148 -2.04303 -9.96692
  1142 81.7421 51.3435 64.1747
  1143 348.073 -29.3102 -1.57905
  1144 178.430 -8.46259 9.57726
  1145 178.454 -8.49951 -9.72199
  1146 706.203 149.991 -41.6502
  1147 383.073 -38.3881 0.747202
  1148 132.368 78.9180 124.650
  1149 11.6119 -0.629089 -11.4594
  1150 12.4891 -0.477978 12.4875
  1151 406.116 50.8939 33.0717
  1152 31.4588 16.6152 -8.28619
  1153 31.7070 16.6214 8.35894
  1154 385.558 -33.6462 -8.39843
  1155 -0.172363 -37.2489 -7.28903
  1156 -0.189812 -37.2527 7.32226
  1157 411.859 -34.7879 -20.4570
  1158 -2.97897 0.487764 3.30261
  1159 -3.19193 0.490944 -3.30942
  1160 64.5469 23.7796 -26.6821
  1161 64.8946 23.8833 26.4535
  1162 -18.5168 0.0416516 -4.04466
  1163 -18.2978 0.0401399 4.04902
  1164 410.410 -4.97387 -0.377897
  1165 -40.1324 1.21025 0.445303
  1166 -40.0186 1.20969 -0.417985
  1167 219.373 -17.3075 -23.6640
  1168 5.90950 -51.0240 -6.33816
  1169 112.367 -3.23002 7.24044
  1170 112.323 -3.24064 -7.31470
  1171 349.835 -7.21857 0.610862
  1172 350.493 -7.04569 -0.543444
  1173 6.34818 -48.4971 7.61212
  1174 414.392 -21.8340 -20.5986
  1175 471.912 -2.30261 8.50044
  1176 421.177 -27.0601 -30.5547
  1177 370.317 2.85327 51.8091
  1178 2.10358 -14.2981 10.8498
  1179 2.28495 -14.1840 -10.6618
  1180 270.896 -19.8999 12.8118
  1181 -18.1569 1.74870 9.82556
  1182 -18.1231 1.76337 -9.79551
  1183 696.996 110.482 7.70535
  1184 807.920 259.556 -182.494
  1185 430.481 -41.6668 25.5088
  1186 180.633 -5.44846 -0.666044
  1187 180.648 -5.38549 0.666656
  1188 873.786 84.8398 -78.5578
  1189 66.2364 -1.71023 10.3282
  1190 66.1161 -1.68478 -10.3643
  1191 403.770 -1.31462 -20.4454
  1192 259.982 -21.1012 26.7133
  1193 425.799 -41.5785 -18.0193
  1194 412.250 -30.0580 -23.4662
  1195 253.043 -8.77114 66.8158
  1196 95.0095 17.4833 -36.3415
  1197 94.9628 17.3289 36.1448
  1198 124.351 46.2591 -79.7153
  1199 124.527 42.8397 79.7224
  1200 36.7962 10.3077 -13.0305
  1201 37.0094 10.2778 13.1064
  1202 509.328 88.5255 -37.5533
  1203 27.1298 24.9715 -12.1385
  1204 27.7480 25.0122 12.3255
  1205 367.204 -28.3440 3.83093
  1206 680.422 104.263 49.4458
  1207 90.7399 -3.74488 -7.13775
  1208 90.8100 -3.74374 7.07220
  1209 439.795 318.577 -267.721
  1210 347.026 20.6800 -41.4475
  1211 319.737 24.4215 16.9571
  1212 45.2133 18.6378 -15.3912
  1213 45.4254 18.6394 15.4731
  1214 13.0614 -0.0950100 2.41137
  1215 12.9144 -0.0948652 -2.43106
  1216 406.364 -32.7146 19.0649
  1217 399.329 -16.3614 9.88913
  1218 273.950 79.9977 -193.219
  1219 629.038 137.602 -8.85620
  1220 272.044 -8.04518 -73.4476
  1221 351.316 -11.3046 -0.0237860
  1222 22.5816 -1.72694 -0.543698
  1223 22.6281 -1.72559 0.540622
  1224 -7.36354 2.76164 -5.74588
  1225 -7.18999 2.75041 5.78771
  1226 236.873 2.77563 -77.1505
  1227 432.735 -9.85564 11.4765
  1228 282.956 5.73272 104.826
  1229 382.110 -19.2555 -7.12821
  1230 198.300 71.8387 -152.656
  1231 307.368 -14.6088 -79.2004
  1232 365.507 -39.0214 7.92112
  1233 446.225 -7.24533 18.8647
  1234 391.505 -8.70468 -2.40255
  1235 218.471 -16.2615 23.7939
  1236 490.828 -26.8629 -33.3947
  1237 467.444 41.0192 63.6746
  1238 204.916 1.00339 -61.2478
  1239 462.136 -3.23095 1.33891
  1240 376.911 46.7501 -9.37748
  1241 164.889 -5.88858 -7.08961
  1242 164.863 -5.82971 7.01669
  1243 707.690 167.145 44.3441
  1244 960.949 25.5229 44.4616
  1245 0.894159 -45.4008 -7.22171
  1246 0.865915 -45.4498 7.27813
  1247 106.440 56.8607 87.6858
  1248 253.202 -7.79424 -1.63702
  1249 253.256 -7.75009 1.72973
  1250 345.083 -34.7910 -10.6303
  1251 412.942 34.0606 57.0934
  1252 429.107 -8.86003 -7.19508
  1253 496.246 -1.45770 -0.462835
  1254 858.610 191.642 -121.481
  1255 137.693 -5.25204 7.40089
  1256 137.674 -5.26275 -7.49081
  1257 412.287 -38.2592 19.4338
  1258 719.462 179.733 -58.5456
  1259 399.631 -17.7976 -11.2095
  1260 293.310 -20.6523 -9.17823
  1261 359.181 -38.9703 19.0771
  1262 351.182 -17.9564 1.42867
  1263 13.4179 5.37532 -17.6732
  1264 479.017 -28.5344 40.3838
  1265 388.677 -25.6834 -11.0129
  1266 14.7584 6.04828 19.4309
  1267 399.327 -31.1856 -74.5367
  1268 377.178 25.0115 -158.100
  1269 619.129 81.2074 -8.92427
  1270 498.103 -0.508975 -0.143349
  1271 497.254 -0.966591 0.430377
  1272 395.255 -23.3475 12.1437
  1273 153.915 18.3411 -60.3940
  1274 449.950 -39.6870 32.4135
  1275 761.576 174.888 81.7773
  1276 190.414 66.5438 148.804
  1277 5.63124 1.27509 10.9328
  1278 5.83162 1.37449 -10.7945
  1279 471.835 -37.1711 -41.1581
  1280 192.653 -10.6593 -11.4346
  1281 192.623 -10.6872 11.2419
  1282 440.630 -28.8295 50.8541
  1283 18.4574 0.0847306 10.8050
  1284 18.2796 0.0933679 -10.7997
  1285 -2.34217 -9.10597 12.6907
  1286 -2.32583 -9.08641 -12.6933
  1287 81.4748 -2.79279 -9.41740
  1288 81.5673 -2.80902 9.36124
  1289 233.292 -15.6235 -35.8894
  1290 235.284 -8.09358 2.34865
  1291 235.274 -8.26070 -2.26140
  1292 496.508 -0.495076 0.140008
  1293 443.695 -6.98043 -21.2676
  1294 38.2731 1.58525 -13.6637
  1295 38.4453 1.56026 13.6708
  1296 234.220 -16.5176 35.6217
  1297 501.049 -0.618231 0.214966
  1298 474.075 -0.737177 -0.538720
  1299 474.044 -1.02370 0.420777
  1300 628.391 134.051 3.39206
  1301 462.606 -3.47639 -3.12663
  1302 411.633 -4.72357 0.232951
  1303 455.907 -7.16881 -10.9036
  1304 494.152 -1.72982 1.46076
  1305 518.354 54.2347 54.5525
  1306 599.907 125.523 11.8175
  1307 481.240 -2.02775 -5.59023
  1308 -4.00984 -1.00658 3.59115
  1309 -4.02602 -1.00589 -3.60228
  1310 269.899 -17.2829 8.97092
  1311 269.849 -16.5376 -8.72949
  1312 523.049 60.0776 -51.7185
  1313 110.481 38.2063 -66.1041
  1314 111.191 37.1747 65.4090
  1315 356.148 0.0682702 -25.9136
  1316 363.176 -6.38414 -0.491593
  1317 362.733 -6.33712 0.415549
  1318 -8.62637 -1.36186 12.8972
  1319 -8.61067 -1.33807 -12.8926
  1320 404.959 -1.05956 20.4067
  1321 613.102 121.843 -3.02507
  1322 46.9916 -1.67964 -5.93146
  1323 47.1084 -1.68352 5.88746
  1324 452.739 -43.1097 16.7361
  1325 1.29256 7.78456 10.5299
  1326 1.42564 7.83153 -10.4437
  1327 87.2378 -1.98478 -2.00520
  1328 87.2773 -1.95531 1.97573
  1329 356.229 -0.474789 26.3123
  1330 18.5206 0.744291 -0.919503
  1331 18.5972 0.747142 0.904614
  1332 459.462 -5.61914 6.92496
  1333 641.625 116.467 6.76055
</Section>

newXOutput 59

<Section columns = "stress_xx | stress_yy | stress_xy">
  1 516.997 -1.45741 0.942621
  2 517.785 -1.83929 -1.22387
  3 13.9951 0.477851 -1.32501
  4 -0.384061 -0.575291 -0.384662
  5 939.786 385.714 310.252
  6 954.257 440.811 -313.375
  7 -0.379931 -0.571665 0.379320
  8 13.9479 0.475154 1.32194
  9 520.450 -1.03828 -0.855891
  10 516.730 -1.86173 -1.25104
  11 517.187 -1.46903 1.08939
  12 514.806 -0.839460 0.425777
  13 513.917 -1.75031 -0.392575
  14 513.311 -1.69073 1.92968
  15 506.220 -1.22321 1.80441
  16 508.365 -3.69247 2.83318
  17 493.078 -3.08591 6.18777
  18 483.489 -1.41818 7.45593
  19 470.176 -1.70768 8.07093
  20 446.892 -1.51710 11.3655
  21 421.409 -1.27369 13.2445
  22 389.457 1.69304 18.2397
  23 345.556 2.62886 16.5533
  24 327.853 -0.0953385 23.7445
  25 272.850 3.87486 16.9175
  26 239.272 5.06749 13.2844
  27 230.520 2.54413 9.80604
  28 221.139 7.42550 0.734495
  29 226.284 7.98081 -13.1213
  30 236.577 2.32494 -16.4626
  31 277.837 1.06663 -21.9452
  32 319.313 -2.03636 -22.7152
  33 347.124 2.18145 -16.5202
  34 389.921 1.92317 -18.2394
  35 420.344 -1.50678 -14.2025
  36 449.435 -1.69551 -10.7142
  37 468.367 -1.26027 -8.20061
  38 482.059 -1.51045 -6.82012
  39 496.780 -1.79935 -3.92307
  40 502.390 -1.87124 -3.73264
  41 507.890 -1.76403 -3.30337
  42 513.450 -2.00023 -0.582306
  43 515.536 -2.52236 -1.33057
  44 512.473 0.0535132 -0.0114341
  45 516.585 -1.35154 -1.23918
  46 518.659 -2.70472 1.36423
  47 521.068 -1.56834 -0.0560792
  48 495.425 0.130242 -0.781254
  49 466.638 -2.26706 -1.45768
  50 433.970 -4.93275 -2.06147
  51 400.092 -4.25791 -1.49115
  52 370.484 -6.63873 -1.36834
  53 339.189 -7.17474 -1.24008
  54 307.587 -6.31616 -0.580802
  55 274.314 -6.71241 -0.815531
  56 246.156 -7.06163 -1.08687
  57 208.666 -6.71325 -0.871461
  58 170.071 -4.26383 -0.557855
  59 138.145 -2.74864 -0.435954
  60 98.7278 -1.73188 -0.148866
  61 70.1104 -1.63668 -1.94669
  62 43.5467 -2.20231 -0.625509
  63 16.7451 0.247892 1.23905
  64 9.71659 1.86403 0.511817
  65 7.65060 0.754896 1.32440
  66 8.46177 0.339682 1.33124
  67 2.69823 1.07058 0.660298
  68 0.352045 1.40645 2.74841
  69 -0.873605 0.496095 1.09504
  70 -10.5952 1.05126 1.18965
  71 -15.3020 0.719709 2.66716
  72 -17.4642 0.231857 2.81602
  73 -28.2530 0.980622 2.26638
  74 -32.4907 1.47499 4.12633
  75 -37.3274 0.895164 1.65819
  76 -42.7314 0.654342 2.32547
  77 -45.2130 0.695374 1.06207
  78 -50.5543 1.70818 -0.931011
  79 -51.4934 1.17019 -0.679322
  80 -47.2188 0.876951 -1.48700
  81 -40.7625 1.16274 -3.01746
  82 -33.3079 0.528377 -4.71731
  83 -24.9483 0.295915 -4.96450
  84 -15.0219 -0.487339 -5.23000
  85 -6.58447 -0.394660 -3.07877
  86 -2.77878 -1.08242 -1.93209
  87 -0.454389 -2.78372 -1.68131
  88 -0.755340 -7.11310 -2.96445
  89 -0.864458 -13.8057 -5.16881
  90 -0.153994 -25.7850 -5.54586
  91 0.327712 -35.5129 -6.92643
  92 0.744351 -50.9659 -5.63300
  93 2.23541 -60.2754 -6.60265
  94 0.420162 -64.4444 -5.33319
  95 -0.0597184 -73.3602 -2.96675
  96 2.07199 -70.0381 -0.217644
  97 8.45470 -90.3285 4.70260
  98 7.76485 -44.9863 14.4122
  99 18.2371 -13.5956 30.8944
  100 54.0230 99.9601 93.0865
  101 225.336 306.818 257.568
  102 1230.92 132.993 182.074
  103 1033.77 36.6575 65.3624
  104 985.045 15.6353 22.4670
  105 958.176 10.2025 -0.124184
  106 975.364 14.8920 -18.4902
  107 1043.17 31.2890 -54.0494
  108 1218.08 105.289 -169.276
  109 146.480 347.520 -213.163
  110 37.9961 76.2177 -72.3567
  111 13.4605 -22.5190 -25.8605
  112 7.03947 -50.2191 -12.5132
  113 8.40529 -94.0649 -3.78501
  114 1.97804 -71.6904 0.863960
  115 -0.182273 -74.1849 3.30309
  116 0.342235 -64.7611 5.51320
  117 2.19279 -60.3469 6.67853
  118 0.727993 -50.9342 5.66087
  119 0.315351 -35.4604 6.93621
  120 -0.160034 -25.7196 5.54223
  121 -0.865185 -13.7641 5.15755
  122 -0.756973 -7.07748 2.95397
  123 -0.454054 -2.77037 1.67208
  124 -2.76274 -1.08087 1.92434
  125 -6.55597 -0.396452 3.07038
  126 -14.9851 -0.491590 5.22491
  127 -24.9057 0.291201 4.96553
  128 -33.2838 0.523225 4.72622
  129 -40.7721 1.15905 3.03505
  130 -47.2629 0.876648 1.50597
  131 -51.5823 1.16911 0.697864
  132 -50.6804 1.70795 0.950329
  133 -45.3815 0.697171 -1.04518
  134 -42.9318 0.656550 -2.31290
  135 -37.5436 0.897694 -1.64819
  136 -32.7251 1.47800 -4.12210
  137 -28.4943 0.983456 -2.26284
  138 -17.7027 0.233582 -2.81642
  139 -15.5415 0.722697 -2.67075
  140 -10.8242 1.05545 -1.19506
  141 -1.07601 0.498873 -1.10540
  142 0.176411 1.40933 -2.76400
  143 2.54649 1.07139 -0.674081
  144 8.34690 0.339141 -1.34468
  145 7.56290 0.753563 -1.33522
  146 9.64705 1.86171 -0.521192
  147 16.6914 0.246336 -1.24455
  148 43.4979 -2.21041 0.619899
  149 70.0656 -1.65694 1.94055
  150 98.6939 -1.76778 0.140716
  151 138.126 -2.80056 0.431750
  152 170.054 -4.32399 0.557245
  153 208.639 -6.76517 0.879717
  154 246.093 -7.08710 1.10401
  155 274.213 -6.67896 0.855952
  156 307.446 -6.19582 0.627121
  157 338.997 -6.89204 1.17046
  158 370.646 -6.72065 1.19853
  159 400.215 -4.76084 1.57537
  160 434.307 -4.84071 1.87170
  161 467.553 -1.99910 1.47800
  162 494.640 0.0997859 0.760511
  163 291.021 -26.3142 -25.4848
  164 289.870 -26.7942 25.4238
  165 88.6246 24.3019 -36.4264
  166 89.4948 24.3886 36.2757
  167 342.412 -15.8389 90.2501
  168 358.757 -17.9486 -87.8574
  169 170.332 -9.05567 11.8698
  170 170.309 -8.96759 -12.0277
  171 365.549 -13.2635 1.13186
  172 358.344 -13.3008 -0.999226
  173 488.972 87.8778 -11.7941
  174 494.066 4.19619 -60.1387
  175 484.493 7.90703 64.9738
  176 118.907 -4.56181 -24.5908
  177 118.919 -4.52966 24.5457
  178 427.064 -42.1934 20.3649
  179 426.685 -32.8563 -29.5720
  180 6.43187 10.3269 9.65028
  181 6.60923 10.3928 -9.54452
  182 583.419 119.027 16.2429
  183 113.921 51.2855 -81.0969
  184 122.137 51.7535 86.8470
  185 412.851 -19.5981 13.5014
  186 618.723 130.611 -5.60216
  187 269.272 -10.1819 -3.71859
  188 268.846 -10.4348 3.69178
  189 424.169 -13.7443 -12.3979
  190 563.303 -1.79254 -10.8901
  191 108.277 -3.27010 4.58888
  192 108.238 -3.29720 -4.64886
  193 46.8394 5.70231 -16.8002
  194 47.0486 5.64386 16.8396
  195 240.197 -9.13522 -57.0559
  196 239.261 -9.62836 57.7806
  197 286.468 -18.8691 -9.48522
  198 287.036 -18.7638 10.0409
  199 77.3845 -2.70363 13.1713
  200 77.2709 -2.66781 -13.1979
  201 557.051 -7.92640 39.4603
  202 456.999 -44.5797 -7.00007
  203 433.219 -4.89342 -1.72993
  204 423.762 -5.87997 1.73822
  205 433.822 51.0007 46.2468
  206 19.0683 16.9451 -7.24180
  207 19.7443 16.9170 7.54318
  208 431.035 -17.2133 53.7503
  209 398.872 30.6006 -53.2023
  210 282.133 65.6608 -183.474
  211 296.672 55.5027 170.537
  212 8.66388 9.62605 -1.92545
  213 8.83399 9.62468 2.00739
  214 429.757 -15.1437 -55.5933
  215 742.391 103.641 -7.26112
  216 357.103 -38.7631 33.3946
  217 359.743 -38.5542 -31.6684
  218 356.884 -25.7720 -0.679277
  219 440.490 -7.40093 6.49603
  220 216.150 -14.9413 -21.7271
  221 212.824 -14.8837 22.3629
  222 130.738 2.56520 -36.8085
  223 130.927 2.51617 36.5108
  224 452.762 -47.3182 -7.40687
  225 353.961 -27.3715 -0.857659
  226 438.888 -7.24957 -4.98795
  227 343.345 -9.40431 -0.344514
  228 346.273 -8.81278 0.983555
  229 434.399 -19.5272 30.5047
  230 40.1301 0.298754 -14.0639
  231 40.2951 0.281279 14.0639
  232 -5.32732 -3.52117 -14.5922
  233 -5.35548 -3.55638 14.6038
  234 70.4199 -2.98109 -7.67358
  235 70.5178 -2.98827 7.61666
  236 186.614 -5.79397 5.30785
  237 186.653 -5.89060 -5.34611
  238 213.053 14.9492 -82.8438
  239 213.079 12.5013 81.9208
  240 440.362 -13.9238 -26.0988
  241 209.166 -12.2739 -34.9112
  242 209.348 -12.6450 34.4418
  243 391.187 6.21025 60.2864
  244 344.400 29.5095 3.65876
  245 378.679 -37.8093 0.359028
  246 1.90181 -8.62979 -12.9190
  247 1.77443 -8.73154 13.0296
  248 25.0831 27.0628 -28.9962
  249 26.6629 26.1945 30.3905
  250 372.431 -36.9986 -2.81970
  251 667.214 128.026 -13.4787
  252 36.1418 24.1904 -12.9101
  253 36.5667 24.1831 13.0515
  254 -13.7423 3.22197 9.65840
  255 -13.6689 3.23877 -9.60745
  256 670.255 120.329 17.3782
  257 238.076 -11.7477 -8.86280
  258 237.900 -11.5674 8.70384
  259 461.727 -30.7903 49.0180
  260 827.498 134.842 84.3878
  261 141.054 -7.48876 -20.2824
  262 141.032 -7.54141 20.2654
  263 472.781 70.8740 -43.8637
  264 799.383 152.280 -77.4424
  265 561.403 57.6622 40.3422
  266 606.270 42.3203 -116.810
  267 378.475 -18.3398 4.54847
  268 431.859 2.41558 -67.2505
  269 407.607 -28.9932 -16.3320
  270 453.284 -8.38505 16.4325
  271 1.76784 4.36294 -5.52538
  272 1.93892 4.34947 5.58421
  273 448.537 -13.3096 -112.432
  274 50.2169 14.9886 -17.0937
  275 50.4532 14.9630 17.1836
  276 436.149 -10.5926 -33.8674
  277 63.7652 68.0649 -84.3723
  278 56.8593 -0.284306 -1.78902
  279 56.9160 -0.273003 1.76419
  280 460.164 -28.1669 -51.2557
  281 82.6275 37.1158 -45.7128
  282 83.8094 36.9232 45.8420
  283 26.6587 -0.759690 9.78789
  284 26.4845 -0.750667 -9.79343
  285 377.896 -17.4579 -4.44909
  286 64.2160 67.3568 86.5708
  287 596.119 50.3529 136.345
  288 167.664 -6.79384 -7.27948
  289 167.638 -6.75290 7.18514
  290 303.221 -13.0494 -3.61223
  291 303.077 -14.0744 3.96843
  292 258.846 25.6282 -124.897
  293 415.453 -45.3268 -4.63805
  294 470.544 -3.26287 2.82144
  295 249.410 25.6685 120.937
  296 290.544 -8.44439 -1.24604
  297 290.436 -8.43961 1.49034
  298 408.282 -30.1366 16.6315
  299 467.167 -5.27686 -7.55159
  300 -0.883275 1.72684 -7.79205
  301 -0.693675 1.71388 7.82057
  302 589.713 116.869 -4.13136
  303 514.876 -22.9598 24.5429
  304 463.450 -2.86997 -0.680569
  305 471.347 -2.50939 0.616766
  306 463.959 -39.8626 41.9875
  307 572.033 61.5482 -37.0619
  308 503.162 93.4449 24.8121
  309 227.509 -14.1665 -13.9432
  310 225.489 -14.4189 14.1967
  311 469.932 -3.19757 -1.79537
  312 311.280 -23.2678 -62.4212
  313 306.564 -24.4400 11.9666
  314 292.225 -15.6696 70.9158
  315 463.395 -5.90349 9.08868
  316 108.919 -4.99803 -12.7189
  317 108.996 -5.03405 12.6675
  318 427.780 -12.8749 111.095
  319 273.907 -21.8642 -17.3533
  320 501.465 64.9028 54.6451
  321 161.557 11.3078 -54.2549
  322 155.635 11.8288 53.8316
  323 50.8665 -1.01123 -3.24365
  324 50.9512 -1.00473 3.20421
  325 410.016 -8.89628 3.48146
  326 393.361 -6.29546 0.300971
  327 391.196 -6.83080 -0.430803
  328 433.090 -11.1492 35.9223
  329 41.1144 -1.43577 7.36275
  330 40.9647 -1.42270 -7.39346
  331 129.754 -3.18104 -2.69669
  332 129.770 -3.13182 2.67046
  333 4.35503 -18.4952 -6.73634
  334 4.07997 -18.6547 7.06412
  335 340.740 14.8493 41.0523
  336 519.770 -21.2519 -19.3077
  337 338.111 -18.4481 -0.111839
  338 381.070 -8.36029 -1.48726
  339 402.453 49.9284 -24.9390
  340 81.0628 -2.62967 -18.2974
  341 81.1709 -2.63198 18.2845
  342 328.931 -17.4334 1.79611
  343 95.3188 3.04706 -26.2226
  344 95.5019 2.96676 26.1484
  345 19.2249 15.5508 -1.28396
  346 19.4496 15.5497 1.38057
  347 398.771 -42.3316 42.5500
  348 874.022 57.5379 22.4772
  349 358.509 5.61895 -48.5550
  350 297.958 -26.6709 38.9422
  351 296.446 -26.1209 -40.0749
  352 438.636 -7.08507 66.4581
  353 391.617 -2.70110 47.8019
  354 393.675 -40.9254 -43.8615
  355 236.813 -6.48890 0.681526
  356 236.775 -6.55795 -0.623768
  357 435.479 -28.3816 40.0145
  358 596.422 118.316 1.72231
  359 465.950 -5.56656 -12.1395
  360 123.556 -4.78011 -9.29213
  361 123.612 -4.78463 9.20641
  362 439.456 -40.8555 -52.5331
  363 463.665 32.8363 -66.0377
  364 314.914 16.9252 -26.3957
  365 438.644 -29.1405 -45.9738
  366 -14.1097 0.584251 -11.2382
  367 -14.1250 0.566384 11.2526
  368 368.377 -9.43218 0.555773
  369 -5.23281 -3.10327 -6.82460
  370 -5.22611 -3.10414 6.81002
  371 283.843 146.620 -222.578
  372 12.0572 10.8862 6.07600
  373 12.3437 10.9702 -5.92211
  374 388.742 -2.84994 -47.4142
  375 215.594 -9.49790 6.69571
  376 215.740 -9.61882 -6.76203
  377 -1.35960 -15.2775 12.8174
  378 -1.33580 -15.2497 -12.8046
  379 231.424 153.513 209.799
  380 176.946 -9.51721 -27.4538
  381 177.091 -9.12078 27.4749
  382 56.9442 42.3845 -42.5166
  383 58.1213 42.2797 42.2848
  384 -20.8764 3.40421 3.56232
  385 -20.7755 3.40988 -3.50726
  386 447.805 30.2287 66.3677
  387 343.082 -35.9206 19.4234
  388 343.449 -31.4968 8.62355
  389 414.957 -46.8525 -7.88222
  390 106.105 13.0426 -36.1415
  391 106.459 13.0216 36.0916
  392 9.61048 -11.6262 2.20466
  393 9.10453 -11.8461 -1.48312
  394 423.514 60.3493 16.3243
  395 422.524 -12.6147 10.0336
  396 244.185 -19.0806 25.4874
  397 152.305 -3.96825 -32.6766
  398 152.370 -3.99690 32.4460
  399 309.950 -10.0048 -1.73515
  400 309.624 -8.86899 1.47270
  401 242.163 -19.5800 -26.9706
  402 189.952 -3.30234 -43.8621
  403 189.931 -3.56126 44.2043
  404 440.993 -40.2038 -27.0120
  405 258.197 -20.0897 16.4101
  406 400.981 -12.8214 5.58859
  407 400.187 -11.7578 -4.55343
  408 337.216 -31.2748 -9.81603
  409 479.697 -2.49100 -3.00851
  410 163.715 67.3525 -127.144
  411 453.446 -6.78204 20.4359
  412 478.512 -2.87638 4.62713
  413 174.412 -9.47899 16.7697
  414 174.479 -9.35288 -16.7572
  415 341.554 -35.4940 -20.0104
  416 50.3110 22.0006 18.4424
  417 50.0436 21.9834 -18.4544
  418 882.757 57.4951 -45.8361
  419 393.455 -22.8855 -8.80506
  420 482.588 -2.09034 1.73164
  421 154.756 63.0174 121.251
  422 714.502 120.043 24.1578
  423 420.797 -7.04436 -2.73475
  424 316.828 -23.3336 -7.79060
  425 133.617 25.7763 -61.1841
  426 142.288 23.8740 60.8178
  427 388.874 -25.0307 8.81529
  428 413.720 -5.30329 -35.0089
  429 0.0283735 -0.409940 7.36372
  430 -0.172197 -0.405628 -7.35793
  431 150.640 36.4831 -81.5620
  432 151.121 36.6118 81.3161
  433 19.4698 8.30456 -8.30857
  434 19.6593 8.28709 8.38198
  435 349.148 -7.50279 0.403352
  436 348.729 -7.32730 -0.288211
  437 433.824 -19.9510 -31.9250
  438 -0.846535 -0.816934 15.4219
  439 -0.768511 -0.746887 -15.3636
  440 446.625 -43.6910 23.2074
  441 421.933 -11.8419 -8.78457
  442 681.108 130.224 -22.1131
  443 31.8777 -1.27015 3.51868
  444 31.7458 -1.27037 -3.55286
  445 815.421 233.583 107.081
  446 17.0579 10.9846 -26.2601
  447 53.6105 2.37805 -17.9274
  448 53.7859 2.33856 17.9278
  449 813.869 239.165 -103.887
  450 18.0811 12.8225 28.7404
  451 -19.7196 2.58683 0.514646
  452 -19.5888 2.58294 -0.462239
  453 47.0916 32.2723 -25.5032
  454 47.8890 32.2913 25.6373
  455 534.522 84.5140 -44.0757
  456 428.594 -17.1063 -20.1938
  457 480.109 -2.17171 -1.49697
  458 448.001 -7.00609 -24.0750
  459 -4.73498 3.55344 14.0543
  460 -4.65542 3.59875 -13.9991
  461 433.095 -17.7616 23.7253
  462 283.400 -16.3723 -7.59174
  463 282.549 -16.5322 6.66171
  464 382.715 -42.1214 -8.56720
  465 274.136 -3.37890 -86.5870
  466 417.638 -6.35803 35.7334
  467 341.174 -11.7078 0.807613
  468 498.642 -36.1167 -9.09128
  469 265.646 2.87624 92.7384
  470 24.1330 -0.424166 7.10970
  471 23.9550 -0.416224 -7.12351
  472 549.743 108.588 -19.1510
  473 437.106 -3.89187 0.0650256
  474 435.639 -4.32637 -0.453740
  475 332.477 -22.6037 3.95732
  476 148.473 -5.14750 -5.26069
  477 148.470 -5.09031 5.20212
  478 88.3092 -1.17230 -21.6594
  479 88.4156 -1.18961 21.6212
  480 284.911 11.0196 15.8190
  481 74.1152 -2.45393 10.5393
  482 74.0063 -2.43109 -10.5878
  483 77.3989 7.14620 24.4485
  484 77.1438 7.25202 -24.4257
  485 425.932 -33.0214 28.3610
  486 240.373 -14.9915 -41.3410
  487 222.697 -7.59237 3.60019
  488 222.773 -7.76622 -3.60477
  489 242.881 -15.4562 41.3373
  490 663.218 158.748 -17.6580
  491 -10.5957 -1.56155 -8.79063
  492 -10.5894 -1.56999 8.78525
  493 170.678 -5.01188 -2.20957
  494 170.683 -4.94121 2.20145
  495 0.272045 -28.0380 -10.4858
  496 0.202339 -28.1304 10.5810
  497 388.409 -6.55452 0.713430
  498 283.283 13.3554 -7.86447
  499 376.657 39.3819 22.4916
  500 238.635 -2.11433 -69.3809
  501 119.445 -6.14278 15.9297
  502 119.425 -6.09153 -15.9539
  503 -27.6844 0.928371 -2.71908
  504 -27.5039 0.922649 2.74351
  505 460.347 -8.03397 -65.4871
  506 41.9397 0.190717 -2.34832
  507 42.0136 0.196533 2.31994
  508 383.222 -30.4666 -6.59276
  509 408.083 -34.8860 -15.4983
  510 85.0457 66.0366 -87.0587
  511 343.086 10.6552 -135.200
  512 5.45379 10.6162 5.89038
  513 5.62011 10.6395 -5.79736
  514 212.431 -10.1050 -9.47419
  515 212.331 -10.0178 9.29021
  516 586.168 27.0744 -9.28458
  517 424.115 -25.2585 -25.8239
  518 82.9492 62.6068 85.8719
  519 420.137 -47.1821 14.4555
  520 404.385 -38.4753 11.4116
  521 90.2714 -2.19761 -6.94157
  522 90.3343 -2.18942 6.87797
  523 336.858 3.79113 37.6374
  524 242.410 -18.0702 -17.2571
  525 446.276 -10.3264 14.6270
  526 -1.78764 -10.8588 -8.55803
  527 -1.79207 -10.8496 8.54515
  528 314.866 -27.6743 46.2649
  529 476.383 -35.7375 -32.2271
  530 618.132 46.5828 -26.4931
  531 337.170 -12.0963 -0.711712
  532 104.391 -1.98995 -2.00448
  533 104.422 -1.95398 1.98704
  534 214.927 1.89998 66.9182
  535 593.058 101.195 27.3227
  536 597.284 125.446 -212.593
  537 540.117 4.64128 29.7624
  538 390.192 -43.2430 6.51840
  539 909.617 72.4094 61.5645
  540 678.357 166.676 24.4789
  541 99.7033 -4.19150 17.3598
  542 99.6240 -4.15046 -17.3855
  543 375.311 -31.3472 4.22495
  544 29.6690 13.6360 -7.94976
  545 29.8840 13.6295 8.03606
  546 470.599 -38.4958 32.3056
  547 388.826 21.2337 55.3399
  548 472.701 -3.26144 8.20285
  549 351.566 -21.5371 0.981869
  550 488.954 6.93422 -142.516
  551 770.787 206.346 142.291
  552 380.029 -8.17554 -0.521902
  553 464.927 -4.96354 -13.4183
  554 75.2686 31.1735 -34.5523
  555 75.8096 30.8014 34.4083
  556 268.640 -11.2633 -5.03676
  557 268.521 -11.0102 5.12530
  558 3.32924 -31.3799 -4.90249
  559 475.561 -16.2799 57.7861
  560 19.3325 17.1344 0.474263
  561 19.6247 17.1828 -0.335507
  562 3.87179 -30.2133 5.92251
  563 433.505 -19.6852 -47.2113
  564 498.477 32.3084 -62.4768
  565 496.858 36.5433 62.5305
  566 24.7350 22.2594 19.7256
  567 23.5251 22.7397 -19.3291
  568 -10.9295 0.430993 5.61333
  569 -11.1344 0.435631 -5.60209
  570 455.986 14.1190 146.780
  571 252.903 -14.3338 9.67313
  572 253.150 -14.2839 -9.83384
  573 548.976 -7.18487 -76.8669
  574 76.0578 -1.06899 4.02171
  575 76.0018 -1.08505 -4.06442
  576 38.3449 -0.878307 -0.936898
  577 38.3991 -0.872579 0.926942
  578 604.665 111.884 -21.0895
  579 58.6904 91.7487 -95.7051
  580 322.754 6.61620 -31.9220
  581 451.604 71.9784 -27.6600
  582 7.09109 0.765373 8.79894
  583 7.36469 0.865979 -8.61544
  584 448.984 215.566 248.965
  585 385.841 -11.3660 -2.67489
  586 15.8593 3.91953 -9.67396
  587 16.0462 3.89129 9.71990
  588 445.890 -35.6041 39.6488
  589 69.2942 89.0218 97.4511
  590 322.497 -7.45815 0.576063
  591 322.586 -7.40098 -0.577296
  592 -0.262705 -22.4383 11.0277
  593 -0.227938 -22.4020 -10.9913
  594 549.486 106.621 -0.879916
  595 348.812 -27.6209 65.0352
  596 333.266 -14.8080 -1.42431
  597 334.629 16.5672 142.559
  598 -27.3156 1.46585 6.53998
  599 -27.2883 1.47382 -6.51232
  600 546.656 8.75303 -32.1352
  601 723.073 127.656 -102.809
  602 210.070 21.7767 -95.7745
  603 115.649 -4.90534 -21.0999
  604 115.761 -4.90707 21.1052
  605 492.939 -1.80683 2.17510
  606 330.053 -15.1126 1.02849
  607 439.399 -6.52213 4.68649
  608 433.509 -19.7142 46.0723
  609 22.6938 -0.731053 3.57774
  610 22.5347 -0.727992 -3.60297
  611 258.498 -9.46400 -2.96268
  612 258.465 -9.22105 2.88343
  613 162.186 3.47133 -45.2091
  614 161.162 3.51844 45.0221
  615 621.567 40.2407 41.0481
  616 1006.67 75.8901 -109.813
  617 -4.57594 -0.642418 4.87903
  618 -4.78922 -0.640345 -4.87719
  619 154.356 -6.59483 9.65322
  620 154.340 -6.58645 -9.77178
  621 580.631 33.8338 17.2218
  622 486.963 -2.03335 -0.689657
  623 485.923 -2.78476 0.250283
  624 358.613 -0.00142353 37.2332
  625 510.715 -28.5343 -47.9542
  626 279.871 -23.1209 20.5550
  627 -5.43974 6.43470 -5.56418
  628 -5.56431 6.42410 5.63680
  629 447.309 9.56263 69.2006
  630 179.244 -10.4087 -22.1302
  631 179.081 -10.5786 22.1719
  632 363.868 -21.4714 -2.32736
  633 448.210 -10.1323 -13.2090
  634 258.091 -20.6397 -30.3269
  635 423.098 51.0549 -42.0826
  636 284.891 -19.5479 -53.2555
  637 107.942 -2.90385 -3.64338
  638 107.972 -2.87093 3.59933
  639 260.725 -20.9968 30.4703
  640 556.520 90.7583 38.9012
  641 443.435 -21.3003 58.0946
  642 363.016 -16.6851 2.33524
  643 261.235 -7.43672 1.80146
  644 261.169 -7.45126 -1.75246
  645 198.145 -7.64438 -6.93524
  646 198.078 -7.56558 6.86839
  647 426.402 -39.0428 -22.0400
  648 218.162 -12.5692 12.0986
  649 218.390 -12.5190 -12.3206
  650 430.530 66.2043 -5.61708
  651 394.107 -21.1021 8.98125
  652 490.519 -2.45680 -3.45577
  653 420.427 -7.49666 -61.1544
  654 63.5654 -2.76472 13.9540
  655 63.4363 -2.74542 -13.9639
  656 479.201 -2.83367 -7.44399
  657 87.2596 45.2263 -61.6285
  658 88.7411 45.1234 61.9276
  659 489.186 -28.2473 65.1612
  660 170.329 42.8596 100.875
  661 44.3607 -0.321762 13.9515
  662 44.2079 -0.311997 -13.9560
  663 417.406 -26.1362 83.4502
  664 410.264 61.1073 -193.457
  665 403.601 12.9578 -61.2055
  666 529.304 96.0022 33.9845
  667 356.888 -16.3563 -0.751792
  668 640.297 114.646 -2.78847
  669 -29.4274 1.47261 -1.85539
  670 -29.2752 1.46891 1.88950
  671 285.295 1.74534 -101.166
  672 24.4532 -0.432345 2.73207
  673 24.3341 -0.433416 -2.75829
  674 357.189 -29.7208 -64.3264
  675 120.081 16.3465 -43.6895
  676 119.144 16.4094 43.6698
  677 3.87560 6.01446 -3.38754
  678 4.04165 6.00705 3.45958
  679 304.399 -26.4629 -15.8000
  680 430.090 -4.24696 -23.4095
  681 207.159 -6.69002 -2.47004
  682 207.173 -6.62006 2.48792
  683 150.898 -7.78782 -14.3040
  684 151.020 -7.89405 14.2561
  685 28.9716 23.8091 -9.39108
  686 29.4428 23.8633 9.55243
  687 438.508 -5.72501 2.16327
  688 197.881 -12.7027 18.5621
  689 199.120 -12.4863 -18.5483
  690 486.189 -38.2169 -3.07493
  691 401.645 -40.3906 -7.05397
  692 316.587 -9.49469 -0.773695
  693 315.489 -8.89661 0.921091
  694 441.775 -46.1833 26.2715
  695 715.157 144.669 39.8301
  696 388.415 -16.4414 -103.101
  697 444.565 -12.5987 23.9860
  698 442.660 -16.2079 -62.5022
  699 140.918 -4.47557 -6.80107
  700 140.926 -4.44388 6.72274
  701 345.769 -5.10789 115.420
  702 954.148 122.919 112.570
  703 68.1154 19.5744 -25.6452
  704 68.2186 19.7065 25.7282
  705 436.959 -4.74822 -1.06483
  706 440.362 -4.29344 1.09323
  707 187.246 96.8226 -162.750
  708 465.049 -2.68044 13.4666
  709 402.269 -7.46482 1.51535
  710 532.507 105.188 -12.3881
  711 56.1510 9.72204 -18.7221
  712 56.3930 9.66164 18.7911
  713 496.744 -1.42140 0.318771
  714 404.951 -16.0497 -8.97250
  715 504.614 -6.90817 49.9290
  716 208.913 -14.7089 -28.7340
  717 209.435 -14.0883 28.4780
  718 50.5052 -1.68129 10.5579
  719 50.3620 -1.66070 -10.5836
  720 456.324 -3.52313 -2.12077
  721 393.762 80.2882 205.036
  722 3.32093 3.62207 12.4902
  723 3.46902 3.71206 -12.3884
  724 457.837 -5.31049 -5.90214
  725 445.038 -8.57433 8.47364
  726 356.969 0.399651 -39.9343
  727 3.48639 -39.5356 -4.73018
  728 3.26623 -39.9365 5.13408
  729 163.901 44.2152 -100.904
  730 356.619 -35.5518 -46.8722
  731 186.034 95.9064 164.234
  732 490.635 -1.46074 1.25588
  733 478.283 71.7026 44.0106
  734 351.861 31.8403 -15.6847
  735 623.531 125.608 2.50936
  736 485.285 -2.24651 4.73302
  737 -27.0656 0.707215 3.99552
  738 -27.2656 0.711083 -3.97965
  739 517.334 -28.4102 16.3549
  740 336.520 -10.2416 -0.997222
  741 124.310 0.0767176 -31.3652
  742 124.477 -0.0451293 31.1972
  743 444.654 -5.65612 -3.23673
  744 783.355 110.785 -40.9082
  745 56.6728 -1.62033 -6.72280
  746 56.7947 -1.62963 6.67853
  747 494.074 -1.55058 -2.13845
  748 102.355 -4.54907 -9.35941
  749 102.428 -4.56505 9.29352
  750 486.019 -18.8409 -51.7662
  751 449.309 -4.79352 18.7458
  752 405.120 -2.45942 60.5929
  753 494.521 -1.60939 0.0884693
  754 462.977 -3.90345 4.45457
  755 305.262 -16.7954 -4.37977
  756 380.977 -10.5575 1.84396
  757 433.392 -26.7060 -38.9249
  758 422.554 -26.7317 24.8118
  759 496.163 60.4031 -55.3483
  760 416.662 -23.6425 18.0926
  761 440.623 -25.9818 50.1085
  762 257.131 -17.6300 12.7984
  763 9.56948 -1.24923 0.259244
  764 9.07821 -1.28327 0.206772
  765 385.359 -6.40050 -0.116293
  766 384.553 -6.36015 -0.0248482
  767 460.233 -2.49502 -0.203710
  768 461.787 -2.40769 0.309114
  769 440.774 -12.4965 29.6078
  770 406.676 -36.8560 60.9517
  771 335.080 -27.4181 6.60102
  772 298.155 -18.1291 6.63373
  773 798.675 102.168 47.1983
  774 444.962 -11.5632 -18.7290
  775 262.037 46.6026 -152.433
  776 413.936 -20.7763 -15.5530
  777 18.9018 0.294187 -10.1752
  778 19.0865 0.279065 10.1902
  779 373.732 32.7747 -35.1397
  780 927.623 28.1356 -12.0163
  781 466.825 12.4246 -67.4316
  782 19.0767 15.9277 -38.4160
  783 481.896 86.4094 11.2107
  784 374.635 -24.1636 4.40952
  785 421.888 -10.3976 59.2935
  786 354.836 -37.0739 47.1273
  787 563.414 -0.828174 93.9474
  788 20.5480 20.2510 40.9370
  789 257.502 -1.34554 79.2285
  790 358.094 -9.80100 -0.290481
  791 398.897 -35.3009 -61.6765
  792 246.691 -19.3440 -21.5311
  793 195.116 9.39030 -69.4896
  794 462.519 -6.84326 66.0550
  795 297.764 -20.5775 10.2903
  796 60.8312 -1.67825 5.93769
  797 60.7371 -1.68010 -5.98843
  798 431.403 -2.41061 20.7187
  799 392.915 2.13954 -58.9948
  800 -33.6362 1.57244 3.96853
  801 -33.5850 1.57552 -3.93809
  802 289.825 -9.56536 -1.68404
  803 289.003 -9.07694 1.58940
  804 215.419 24.3582 97.1197
  805 193.370 -11.4478 14.0956
  806 193.628 -11.1761 -14.2316
  807 493.691 -1.17420 -1.11361
  808 175.871 13.9823 67.7842
  809 9.37021 -0.166932 3.78383
  810 9.17680 -0.163328 -3.79840
  811 426.299 -13.1303 45.7284
  812 452.434 -4.29326 1.63678
  813 -24.1865 0.326786 6.60777
  814 -24.1917 0.334784 -6.59438
  815 281.158 -17.5323 59.6217
  816 55.2752 47.0948 -52.5700
  817 55.9408 45.0080 51.8062
  818 270.615 11.8815 6.56832
  819 -1.34685 -0.307932 -4.32960
  820 -1.13183 -0.310714 4.32632
  821 322.737 -30.5349 -44.2005
  822 438.854 -45.7857 -12.2786
  823 -2.20419 -2.09135 -2.78480
  824 -2.19753 -2.08629 2.77431
  825 28.1079 0.724943 -0.914121
  826 28.1733 0.729034 0.899069
  827 390.843 -34.9101 7.79737
  828 329.782 -33.7051 31.3567
  829 364.277 -6.78027 0.537601
  830 328.970 -26.7662 -7.80944
  831 123.820 -2.16759 -0.751638
  832 123.843 -2.12034 0.740744
  833 -37.8237 0.812391 2.19053
  834 -37.7398 0.811385 -2.16046
  835 410.343 -5.91743 -1.38111
  836 367.436 14.5971 -50.3062
  837 415.113 -8.79089 -4.57275
  838 247.217 -19.0276 20.5628
  839 413.022 -7.16400 -48.5327
  840 440.282 -13.5635 -30.5828
  841 411.960 -5.16986 1.22538
  842 302.406 -11.2279 81.2120
  843 323.079 -31.6447 -18.3958
  844 195.905 -1.47254 -53.5575
  845 196.971 -0.112664 53.8362
  846 276.123 -20.9112 -13.8711
  847 457.223 49.8271 57.7361
  848 431.998 -44.4880 -34.8004
  849 158.898 -5.16876 -3.46675
  850 158.891 -5.09630 3.43485
  851 331.161 -8.13991 0.590104
  852 331.178 -8.20168 -0.515138
  853 395.561 -2.93163 -31.7977
  854 135.815 -5.80259 -11.5646
  855 135.894 -5.84546 11.4748
  856 1.65855 -40.4015 -7.81647
  857 1.57269 -40.5770 7.98464
  858 71.2345 -1.04972 -0.196953
  859 71.1897 -1.06980 0.183888
  860 407.412 -6.98900 -1.92341
  861 311.118 -29.6747 28.4359
  862 480.451 -40.5677 12.6896
  863 287.570 6.01499 25.1473
  864 416.617 -10.3470 5.28208
  865 455.438 -40.4977 -30.0803
  866 67.9604 4.11575 -21.2056
  867 68.1603 4.04656 21.1984
  868 362.450 -7.22615 -0.485052
  869 293.257 -10.6893 -3.16226
  870 292.260 -10.6018 3.42400
  871 452.767 70.4043 31.1773
  872 158.762 -1.67900 -37.6937
  873 158.624 -1.86144 37.5406
  874 314.014 -28.5326 14.8996
  875 31.4400 20.0729 -8.18120
  876 31.7422 20.0365 8.26948
  877 266.119 -18.8929 48.8168
  878 318.380 -20.6510 -4.74056
  879 397.775 -3.03784 32.1282
  880 389.874 -43.7134 16.7891
  881 446.501 -33.7690 -42.9619
  882 310.357 -29.9160 -28.8087
  883 258.955 -17.5617 -12.2993
  884 833.085 68.2709 -12.9426
  885 408.228 -43.1645 4.41855
  886 12.5660 13.7903 3.88100
  887 12.7814 13.8183 -3.76739
  888 355.439 -35.6865 8.96429
  889 389.264 -43.5643 -27.8424
  890 13.6097 11.9134 -0.526616
  891 13.7995 11.9179 0.614105
  892 148.943 -5.38655 28.7675
  893 149.023 -5.54319 -28.9270
  894 179.739 -9.16756 31.5256
  895 179.666 -9.37938 -31.7286
  896 562.053 112.646 14.7854
  897 -0.803407 -17.3719 -8.27209
  898 -0.809327 -17.3498 8.26567
  899 131.074 10.9361 -41.5844
  900 130.448 10.7164 41.1967
  901 958.459 31.0411 -48.2103
  902 23.0371 -0.114996 1.55134
  903 22.9418 -0.118130 -1.57196
  904 1.77632 -45.2902 2.01249
  905 2.06096 -44.4986 -1.34395
  906 -18.5907 -0.207909 6.84607
  907 -18.6125 -0.202061 -6.84412
  908 104.856 30.7222 -48.8701
  909 106.470 29.7015 48.2031
  910 -7.86873 0.541394 -14.2861
  911 -7.90925 0.508185 14.3116
  912 31.8402 2.62087 -13.9428
  913 32.0290 2.58664 13.9647
  914 114.882 -1.42765 26.5506
  915 114.796 -1.42176 -26.6746
  916 94.4510 -3.27813 -21.4553
  917 94.5514 -3.27274 21.4257
  918 481.664 -1.91146 -7.38415
  919 236.500 51.3902 141.946
  920 326.262 -32.2517 17.3390
  921 233.067 -16.8376 16.6678
  922 447.338 46.3005 -57.1525
  923 942.641 20.1333 19.2955
  924 527.236 25.0583 -52.8404
  925 90.7191 -3.46925 13.4547
  926 90.6229 -3.43059 -13.5012
  927 18.3162 -0.532403 -9.90470
  928 18.4984 -0.537330 9.90604
  929 -0.126024 -7.87427 -15.4548
  930 -0.195609 -7.94342 15.5072
  931 240.854 -10.8845 7.57659
  932 240.974 -11.0886 -7.61012
  933 30.6142 7.81362 -12.5639
  934 30.8157 7.77907 12.6281
  935 147.970 -6.66831 -24.4944
  936 148.074 -6.66951 24.4814
  937 318.739 -1.24158 -29.5608
  938 152.815 -8.36227 -17.1300
  939 152.719 -8.27587 17.1850
  940 365.144 -10.7297 -0.377036
  941 441.985 -25.1261 -53.9532
  942 195.464 -8.09157 8.00590
  943 195.549 -8.16281 -8.10511
  944 -8.05023 -0.848258 -4.87553
  945 -8.02783 -0.850287 4.86484
  946 448.919 -33.6602 -75.1751
  947 430.732 -25.3368 33.6882
  948 378.188 -26.6781 -6.04533
  949 371.922 12.8940 52.9808
  950 170.059 -9.63563 -19.2590
  951 170.068 -9.45757 19.3166
  952 414.062 16.1101 63.8074
  953 387.857 33.8909 42.0448
  954 779.709 93.4612 16.5470
  955 401.643 -14.8131 6.36587
  956 214.028 -6.62129 -3.61198
  957 214.006 -6.49827 3.64020
  958 360.595 -29.7360 0.310909
  959 499.957 91.6104 -26.0687
  960 438.613 -5.16571 -2.21710
  961 290.472 -7.55364 1.19740
  962 290.363 -7.49884 -1.11585
  963 37.7040 32.1118 -23.5865
  964 38.6417 32.0638 23.7578
  965 69.5476 184.990 -157.981
  966 413.990 -9.67453 48.2472
  967 512.842 -8.63981 -44.0284
  968 -7.59719 5.01334 2.09728
  969 -7.46038 5.01291 -2.02845
  970 1029.39 247.056 -196.281
  971 439.483 -47.4433 2.70087
  972 468.148 -42.5915 -21.2002
  973 432.978 -37.0172 30.1311
  974 536.874 105.364 10.4445
  975 39.5562 42.9864 -49.0980
  976 99.0164 160.640 155.639
  977 -2.41678 -5.78622 15.5417
  978 -2.37364 -5.73550 -15.5154
  979 420.545 -11.1574 6.71290
  980 674.823 119.036 -15.2019
  981 40.6914 42.0637 50.9721
  982 -1.84833 -6.29171 -5.42165
  983 -1.84860 -6.27401 5.40730
  984 361.608 -8.92275 -0.114588
  985 271.390 -21.6651 -22.4926
  986 436.408 -34.3933 -36.2000
  987 125.571 33.8198 -64.1773
  988 127.567 34.3722 64.3421
  989 424.850 -10.5090 -42.9034
  990 426.487 -13.8383 13.0839
  991 -11.0107 3.04351 12.4503
  992 -10.9534 3.07320 -12.4086
  993 259.195 -17.0523 -45.9853
  994 429.682 27.7198 -63.8581
  995 318.880 -12.3628 1.88596
  996 230.933 -6.87363 0.686330
  997 230.888 -6.91589 -0.660328
  998 -4.75724 -5.40856 -11.2316
  999 -4.76393 -5.42026 11.2219
  1000 432.267 -15.6835 -16.3160
  1001 411.062 -5.08032 0.342392
  1002 410.683 -5.08630 -0.178351
  1003 569.081 93.9513 -35.4334
  1004 104.679 8.91049 -32.9762
  1005 104.940 8.73285 32.9091
  1006 68.1001 -0.710252 -17.8463
  1007 68.2298 -0.723714 17.8286
  1008 470.012 25.6155 68.2165
  1009 442.750 -8.67563 -8.89843
  1010 80.1420 12.4257 -27.0398
  1011 80.4576 12.3341 27.1382
  1012 460.809 -2.82259 -1.34237
  1013 432.218 -18.8557 -25.2357
  1014 422.099 -47.2863 -20.1343
  1015 16.7260 14.7452 0.961743
  1016 16.2749 14.6750 -0.756148
  1017 -19.8840 3.41894 7.21745
  1018 -19.8097 3.42863 -7.16730
  1019 261.788 9.72814 -10.9828
  1020 727.225 182.036 -52.6414
  1021 334.641 -24.6296 -3.41700
  1022 222.489 -9.72705 -47.2693
  1023 533.693 -20.2227 1.70101
  1024 223.360 -9.71150 47.9177
  1025 384.065 -44.4155 32.1886
  1026 435.266 -18.0371 -38.6080
  1027 152.324 -3.67668 -1.10802
  1028 152.339 -3.61609 1.10138
  1029 298.417 -23.4915 -12.3053
  1030 184.128 -6.94491 -37.0431
  1031 184.067 -6.99750 36.8663
  1032 61.5607 40.4221 -40.2679
  1033 62.5251 40.3157 40.3890
  1034 128.802 -4.13924 -3.91939
  1035 128.817 -4.09040 3.87319
  1036 386.828 -12.6981 3.06377
  1037 327.088 2.03336 -116.762
  1038 400.807 -13.4186 -6.37404
  1039 362.897 -40.0569 -20.0033
  1040 240.271 -10.3908 5.26718
  1041 240.462 -10.4655 -5.28147
  1042 467.041 -3.18870 1.69507
  1043 418.924 -10.3667 -6.28097
  1044 275.519 6.74812 20.7407
  1045 449.885 -4.48001 -17.4495
  1046 175.592 51.8855 114.212
  1047 462.536 -4.36258 -14.2344
  1048 122.733 20.5602 -48.6223
  1049 119.133 20.7865 46.6968
  1050 551.423 -7.92398 -3.73873
  1051 51.3422 26.5438 -21.4489
  1052 51.8081 26.3569 21.4485
  1053 8.88673 0.383893 4.03948
  1054 9.31523 0.465270 -3.75725
  1055 75.4200 -1.98143 4.67995
  1056 75.3499 -1.99371 -4.73329
  1057 199.469 52.4882 -126.289
  1058 1061.14 280.838 211.286
  1059 430.925 -15.6706 16.7319
  1060 387.482 -43.3814 -15.2695
  1061 270.565 -22.2574 -35.8541
  1062 -4.96389 6.14608 10.5590
  1063 -4.85954 6.17975 -10.4888
  1064 304.899 -16.0203 3.59511
  1065 335.687 -12.8807 0.868791
  1066 -0.145161 -24.5911 7.95086
  1067 -0.136826 -24.6168 -7.94914
  1068 51.5570 31.8432 -25.3621
  1069 52.1606 31.7882 25.5099
  1070 300.902 -14.7673 -3.44559
  1071 25.0177 11.0417 8.27644
  1072 24.8183 11.0557 -8.19501
  1073 457.965 -17.7409 62.6092
  1074 332.218 -34.3285 -31.1991
  1075 272.161 -22.6139 35.8543
  1076 436.939 -8.44631 -66.2926
  1077 458.409 -5.33009 6.44745
  1078 168.289 26.0080 77.0851
  1079 169.491 24.8858 -75.8169
  1080 270.068 -12.9458 -65.0000
  1081 380.559 -14.0445 -3.03468
  1082 310.523 -18.9457 6.29685
  1083 363.023 -34.0140 -2.88099
  1084 494.736 -1.88358 -3.72494
  1085 270.097 -12.7179 5.84065
  1086 269.980 -13.4246 -5.98661
  1087 9.62261 11.1318 8.13067
  1088 9.84493 11.2126 -8.00241
  1089 440.840 16.6075 -68.5985
  1090 100.722 4.94550 -29.1953
  1091 100.991 4.83519 29.1221
  1092 76.3433 1.34749 -21.0833
  1093 76.5090 1.30612 21.0503
  1094 499.577 -18.2336 94.1739
  1095 434.674 -20.0637 37.9771
  1096 214.531 -9.89521 -40.2758
  1097 502.134 -2.08956 -2.21708
  1098 567.092 107.617 -26.5819
  1099 457.406 -4.69846 -3.94904
  1100 430.370 -46.1841 12.0884
  1101 319.571 -24.0574 57.2582
  1102 504.992 -0.757695 0.346892
  1103 275.016 8.53106 -17.5777
  1104 365.532 -39.0809 -10.2736
  1105 214.882 -10.3396 39.8589
  1106 368.883 -33.7237 0.773329
  1107 458.247 -6.78794 12.4764
  1108 333.891 21.1129 27.2876
  1109 230.595 -17.0127 -32.3382
  1110 688.321 102.532 -45.3722
  1111 521.044 24.5499 55.7272
  1112 393.099 49.1154 6.65784
  1113 500.222 -0.0586452 1.90841
  1114 200.701 -12.6256 -24.9599
  1115 136.698 85.7706 -127.162
  1116 243.538 6.87370 -91.7082
  1117 279.387 -21.6403 16.2368
  1118 236.564 -17.7731 30.4132
  1119 200.237 -12.0187 25.2016
  1120 419.690 3.94740 66.9163
  1121 316.724 -11.5023 -1.50717
  1122 493.666 -3.77517 5.09813
  1123 -3.66021 -0.0662476 15.4413
  1124 -3.60064 -0.0150171 -15.4017
  1125 331.431 -9.97587 0.754206
  1126 0.103672 4.11926 13.7176
  1127 0.211661 4.18662 -13.6416
  1128 188.566 -6.13717 4.40813
  1129 188.576 -6.22910 -4.41302
  1130 466.596 -2.57975 11.8121
  1131 375.994 -23.3312 -4.84553
  1132 352.484 -19.2240 -0.542043
  1133 393.737 -27.7902 11.3168
  1134 121.506 61.0388 -95.3199
  1135 385.764 -15.0467 4.28162
  1136 60.1483 0.993366 -17.3518
  1137 60.3057 0.964635 17.3416
  1138 81.7584 53.0857 -67.6635
  1139 614.442 82.8986 14.9802
  1140 47.4092 -2.09911 10.1722
  1141 47.2594 -2.08232 -10.1862
  1142 83.2266 52.3092 65.4190
  1143 353.962 -29.8228 -1.73304
  1144 181.651 -8.62766 9.80166
  1145 181.675 -8.66510 -9.94867
  1146 717.801 152.493 -42.4971
  1147 389.514 -39.0346 0.608489
  1148 134.697 80.4096 126.923
  1149 11.8399 -0.468465 -11.7546
  1150 12.7323 -0.314527 12.7999
  1151 413.166 51.7761 33.5350
  1152 32.0956 16.9165 -8.51983
  1153 32.3482 16.9229 8.59399
  1154 392.037 -34.2220 -8.39647
  1155 -0.174755 -37.8592 -7.40266
  1156 -0.192490 -37.8629 7.43641
  1157 418.757 -35.3728 -20.6415
  1158 -2.72410 0.494706 3.37395
  1159 -2.94134 0.497940 -3.38083
  1160 65.7615 24.2063 -27.2545
  1161 66.1155 24.3120 27.0222
  1162 -18.6009 0.0417184 -4.13208
  1163 -18.3778 0.0401847 4.13657
  1164 417.186 -5.09802 -0.366512
  1165 -40.7251 1.23073 0.435088
  1166 -40.6094 1.23017 -0.407260
  1167 223.223 -17.6197 -24.1746
  1168 6.01960 -51.6495 -6.51296
  1169 114.543 -3.29588 7.40526
  1170 114.497 -3.30664 -7.48065
  1171 355.712 -7.38483 0.629500
  1172 356.381 -7.20924 -0.561027
  1173 6.46654 -49.0797 7.80900
  1174 421.317 -22.2181 -20.8179
  1175 479.683 -2.35111 8.60426
  1176 428.231 -27.5197 -30.9173
  1177 376.759 2.91337 52.5644
  1178 2.15098 -14.4777 10.9878
  1179 2.33544 -14.3616 -10.7966
  1180 275.572 -20.2625 13.1313
  1181 -18.4362 1.78329 9.97368
  1182 -18.4019 1.79823 -9.94313
  1183 708.469 112.267 7.85675
  1184 820.668 264.226 -185.752
  1185 437.679 -42.3480 25.7551
  1186 183.904 -5.56249 -0.685301
  1187 183.919 -5.49854 0.685932
  1188 887.718 86.1979 -79.8391
  1189 67.6292 -1.74439 10.5549
  1190 67.5063 -1.71850 -10.5915
  1191 410.668 -1.33667 -20.7354
  1192 264.479 -21.4743 27.2851
  1193 432.917 -42.2591 -18.1447
  1194 419.154 -30.5690 -23.7098
  1195 257.404 -8.90974 68.0762
  1196 96.7589 17.7893 -37.0809
  1197 96.7119 17.6322 36.8810
  1198 126.568 47.1017 -81.2161
  1199 126.748 43.6228 81.2237
  1200 37.5564 10.4863 -13.3399
  1201 37.7735 10.4560 13.4173
  1202 517.936 90.0429 -37.9946
  1203 27.6553 25.4681 -12.4578
  1204 28.2842 25.5100 12.6481
  1205 373.389 -28.8419 3.77085
  1206 691.375 106.289 50.6055
  1207 92.5629 -3.81608 -7.30050
  1208 92.6348 -3.81494 7.23397
  1209 446.655 324.527 -272.212
  1210 353.167 21.0543 -42.0549
  1211 325.488 24.8515 17.2087
  1212 46.0988 18.9702 -15.7545
  1213 46.3148 18.9719 15.8380
  1214 13.6438 -0.0974550 2.46292
  1215 13.4934 -0.0973077 -2.48290
  1216 413.175 -33.2700 19.2343
  1217 405.996 -16.6661 9.95748
  1218 278.558 81.5415 -196.596
  1219 639.485 139.914 -9.19682
  1220 276.705 -8.16449 -74.8200
  1221 357.229 -11.5360 -0.0887908
  1222 23.3689 -1.75411 -0.553636
  1223 23.4172 -1.75273 0.550510
  1224 -7.34205 2.80883 -5.89045
  1225 -7.16534 2.79744 5.93312
  1226 240.966 2.84049 -78.5879
  1227 439.902 -10.0489 11.5910
  1228 287.775 5.87606 106.726
  1229 388.516 -19.6088 -7.14284
  1230 201.712 73.1765 -155.377
  1231 312.589 -14.8252 -80.6703
  1232 371.671 -39.6789 8.20055
  1233 453.640 -7.38213 19.1029
  1234 398.019 -8.89194 -2.38882
  1235 222.307 -16.5564 24.3066
  1236 498.972 -27.2444 -33.7260
  1237 475.357 41.7555 64.5317
  1238 208.498 1.02422 -62.4151
  1239 469.661 -3.31249 1.34489
  1240 383.534 47.5593 -9.51319
  1241 167.904 -6.00746 -7.25021
  1242 167.878 -5.94768 7.17617
  1243 719.169 170.177 45.4373
  1244 975.985 25.9213 45.1420
  1245 0.911287 -46.1381 -7.33264
  1246 0.882562 -46.1877 7.38998
  1247 108.343 57.9316 89.3333
  1248 257.604 -7.96110 -1.69069
  1249 257.659 -7.91629 1.78485
  1250 350.925 -35.3861 -10.9463
  1251 420.055 34.6680 57.8997
  1252 436.200 -9.04084 -7.25091
  1253 504.241 -1.49302 -0.474001
  1254 872.383 194.796 -123.536
  1255 140.270 -5.35485 7.57557
  1256 140.251 -5.36569 -7.66687
  1257 419.194 -38.8983 19.5967
  1258 731.120 182.983 -59.8626
  1259 406.308 -18.1252 -11.2924
  1260 298.338 -21.0282 -9.43848
  1261 365.243 -39.6216 19.5441
  1262 357.107 -18.2920 1.35602
  1263 13.6794 5.67773 -18.0859
  1264 486.985 -28.9582 40.8366
  1265 395.197 -26.1362 -11.0729
  1266 15.0436 6.36197 19.8733
  1267 405.993 -31.6436 -75.9385
  1268 383.439 25.5559 -160.869
  1269 629.273 82.7287 -8.75927
  1270 506.120 -0.530163 -0.144548
  1271 505.261 -0.994891 0.435934
  1272 401.875 -23.7626 12.2281
  1273 156.649 18.6666 -61.5528
  1274 457.461 -40.3188 32.7583
  1275 773.984 177.804 83.2787
  1276 193.711 67.7907 151.463
  1277 5.75632 1.35054 11.0601
  1278 5.96012 1.45178 -10.9195
  1279 479.631 -37.7106 -42.0279
  1280 196.096 -10.8628 -11.6996
  1281 196.066 -10.8913 11.5038
  1282 448.020 -29.2927 51.5140
  1283 18.9892 0.0831116 11.0377
  1284 18.8079 0.0918921 -11.0322
  1285 -2.37446 -9.24901 12.8980
  1286 -2.35786 -9.22915 -12.9008
  1287 83.1356 -2.84787 -9.62389
  1288 83.2302 -2.86439 9.56691
  1289 237.355 -15.9005 -36.6184
  1290 239.407 -8.26206 2.41885
  1291 239.398 -8.43181 -2.33021
  1292 504.519 -0.515779 0.149456
  1293 451.083 -7.11029 -21.5401
  1294 39.1155 1.60603 -13.9668
  1295 39.2911 1.58062 13.9742
  1296 238.299 -16.8096 36.3472
  1297 509.110 -0.637026 0.221394
  1298 481.760 -0.773637 -0.548147
  1299 481.727 -1.06496 0.428603
  1300 638.753 136.402 3.15508
  1301 470.160 -3.56157 -3.14713
  1302 418.426 -4.84373 0.219324
  1303 463.420 -7.30990 -11.0270
  1304 502.145 -1.76980 1.47141
  1305 527.022 55.2148 55.2118
  1306 609.879 127.692 11.7615
  1307 489.124 -2.07140 -5.65516
  1308 -4.08102 -1.02295 3.65392
  1309 -4.09750 -1.02225 -3.66526
  1310 274.560 -17.6049 9.21237
  1311 274.509 -16.8472 -8.96625
  1312 531.793 61.1563 -52.3271
  1313 112.468 38.9028 -67.3718
  1314 113.191 37.8538 66.6654
  1315 362.383 0.0732991 -26.2923
  1316 369.255 -6.53697 -0.516179
  1317 368.804 -6.48921 0.438815
  1318 -8.75965 -1.37619 13.1060
  1319 -8.74371 -1.35198 -13.1014
  1320 411.874 -1.07834 20.6958
  1321 623.325 123.870 -3.21241
  1322 48.1081 -1.70979 -6.06112
  1323 48.2275 -1.71373 6.01646
  1324 460.276 -43.7918 16.8214
  1325 1.36386 7.94056 10.6558
  1326 1.49924 7.98845 -10.5681
  1327 89.0331 -2.02538 -2.05374
  1328 89.0740 -1.99544 2.02382
  1329 362.465 -0.477687 26.6972
  1330 19.2299 0.755111 -0.940918
  1331 19.3088 0.758003 0.925798
  1332 467.003 -5.73546 6.99282
  1333 652.286 118.362 6.93690
</Section>

newXOutput 60

<Section columns = "stress_xx | stress_yy | stress_xy">
  1 525.137 -1.49037 0.957704
  2 525.935 -1.87743 -1.24341
  3 14.6531 0.484740 -1.34432
  4 -0.391626 -0.585819 -0.392723
  5 953.751 392.405 315.146
  6 968.435 448.382 -318.303
  7 -0.387423 -0.582128 0.387288
  8 14.6040 0.482002 1.34121
  9 528.638 -1.06241 -0.869329
  10 524.872 -1.89865 -1.27209
  11 525.344 -1.49980 1.10135
  12 522.941 -0.862837 0.425324
  13 522.051 -1.78536 -0.405828
  14 521.456 -1.72547 1.94935
  15 514.288 -1.25182 1.81781
  16 516.483 -3.75444 2.86347
  17 501.007 -3.14028 6.26339
  18 491.311 -1.44883 7.54852
  19 477.840 -1.74058 8.17380
  20 454.263 -1.54669 11.5184
  21 428.447 -1.29621 13.4270
  22 396.064 1.71895 18.4980
  23 351.558 2.66997 16.7910
  24 333.603 -0.0896558 24.0897
  25 277.820 3.94433 17.1659
  26 243.752 5.15440 13.4820
  27 234.872 2.59785 9.95291
  28 225.353 7.55485 0.746668
  29 230.575 8.11602 -13.3187
  30 241.015 2.36873 -16.7092
  31 282.876 1.09356 -22.2703
  32 324.943 -2.06133 -23.0448
  33 353.148 2.21589 -16.7569
  34 396.535 1.95216 -18.4971
  35 427.368 -1.53285 -14.3988
  36 456.836 -1.72579 -10.8573
  37 476.008 -1.28658 -8.30553
  38 489.860 -1.54366 -6.90292
  39 504.759 -1.83241 -3.96803
  40 510.423 -1.90996 -3.77352
  41 515.980 -1.79988 -3.34111
  42 521.594 -2.03967 -0.582286
  43 523.695 -2.56994 -1.34274
  44 520.576 0.0431578 -0.00453593
  45 524.732 -1.38120 -1.25371
  46 526.824 -2.75459 1.38718
  47 529.263 -1.59915 -0.0561521
  48 503.274 0.113430 -0.793584
  49 474.093 -2.33306 -1.47963
  50 440.967 -5.05123 -2.08885
  51 406.607 -4.37259 -1.51027
  52 376.569 -6.79358 -1.38559
  53 344.814 -7.33830 -1.25471
  54 312.741 -6.46341 -0.584380
  55 278.968 -6.86314 -0.822508
  56 250.383 -7.21141 -1.09769
  57 212.320 -6.85107 -0.878557
  58 173.131 -4.35531 -0.562403
  59 140.714 -2.80866 -0.438679
  60 100.686 -1.76944 -0.146488
  61 71.6276 -1.66752 -1.97442
  62 44.6562 -2.23811 -0.632701
  63 17.4422 0.251693 1.26071
  64 10.2989 1.89213 0.523802
  65 8.19268 0.765975 1.34966
  66 9.00201 0.344595 1.35858
  67 3.12951 1.08653 0.679259
  68 0.730095 1.42793 2.80225
  69 -0.542186 0.504116 1.12395
  70 -10.4439 1.06812 1.22012
  71 -15.2484 0.730360 2.72131
  72 -17.4758 0.234410 2.87438
  73 -28.4754 0.995618 2.31785
  74 -32.8080 1.49835 4.20977
  75 -37.7625 0.909370 1.70174
  76 -43.2818 0.665059 2.37886
  77 -45.8380 0.706401 1.09413
  78 -51.3028 1.73767 -0.933588
  79 -52.2817 1.19034 -0.680075
  80 -47.9612 0.891257 -1.50199
  81 -41.4160 1.18334 -3.05888
  82 -33.8546 0.538905 -4.79078
  83 -25.3668 0.302264 -5.04496
  84 -15.2770 -0.493921 -5.31644
  85 -6.70060 -0.400408 -3.13143
  86 -2.82909 -1.10038 -1.96589
  87 -0.461736 -2.83309 -1.71145
  88 -0.766739 -7.23926 -3.01537
  89 -0.877895 -14.0410 -5.25488
  90 -0.154878 -26.2192 -5.63549
  91 0.334557 -36.1000 -7.03560
  92 0.758182 -51.8018 -5.72042
  93 2.27604 -61.2496 -6.70249
  94 0.430352 -65.4535 -5.40529
  95 -0.0583164 -74.4750 -2.99149
  96 2.10609 -71.0327 -0.183006
  97 8.59823 -91.5808 4.82716
  98 7.91179 -45.3826 14.7343
  99 18.5654 -13.3121 31.5295
  100 54.9418 102.403 94.7752
  101 228.836 312.713 261.777
  102 1249.19 135.106 184.720
  103 1049.47 37.2230 66.3185
  104 1000.08 15.8766 22.7924
  105 972.858 10.3559 -0.126308
  106 990.279 15.1218 -18.7610
  107 1058.99 31.7707 -54.8336
  108 1236.16 106.936 -171.713
  109 148.776 354.167 -216.644
  110 38.6467 78.2696 -73.6970
  111 13.7050 -22.3880 -26.4077
  112 7.17315 -50.7039 -12.8021
  113 8.54759 -95.3801 -3.89376
  114 2.01036 -72.7123 0.840156
  115 -0.182928 -75.3132 3.33341
  116 0.351137 -65.7751 5.58826
  117 2.23270 -61.3220 6.77959
  118 0.741550 -51.7692 5.74872
  119 0.321993 -36.0463 7.04550
  120 -0.161016 -26.1525 5.63177
  121 -0.878629 -13.9986 5.24340
  122 -0.768396 -7.20300 3.00469
  123 -0.461393 -2.81949 1.70204
  124 -2.81277 -1.09879 1.95801
  125 -6.67158 -0.402228 3.12288
  126 -15.2395 -0.498244 5.31123
  127 -25.3234 0.297467 5.04599
  128 -33.8300 0.533660 4.79983
  129 -41.4256 1.17958 3.07678
  130 -48.0060 0.890945 1.52130
  131 -52.3721 1.18922 0.698953
  132 -51.4310 1.73742 0.953262
  133 -46.0095 0.708221 -1.07691
  134 -43.4858 0.667297 -2.36603
  135 -37.9827 0.911937 -1.69152
  136 -33.0468 1.50141 -4.20543
  137 -28.7212 0.998497 -2.31421
  138 -17.7189 0.236162 -2.87476
  139 -15.4927 0.733398 -2.72493
  140 -10.6774 1.07238 -1.22559
  141 -0.748739 0.506938 -1.13444
  142 0.550676 1.43087 -2.81807
  143 2.97433 1.08735 -0.693246
  144 8.88428 0.344046 -1.37222
  145 8.10252 0.764623 -1.36065
  146 10.2272 1.88979 -0.533319
  147 17.3866 0.250113 -1.26631
  148 44.6056 -2.24634 0.627010
  149 71.5813 -1.68810 1.96821
  150 100.651 -1.80590 0.138218
  151 140.693 -2.86138 0.434418
  152 173.114 -4.41638 0.561794
  153 212.292 -6.90377 0.886952
  154 250.319 -7.23723 1.11510
  155 278.866 -6.82910 0.863554
  156 312.599 -6.34113 0.631389
  157 344.619 -7.05116 1.18412
  158 376.734 -6.87693 1.21335
  159 406.731 -4.88360 1.59572
  160 441.309 -4.95776 1.89611
  161 475.020 -2.06098 1.50027
  162 502.480 0.0824410 0.772625
  163 295.927 -26.7641 -26.0351
  164 294.759 -27.2525 25.9728
  165 90.2310 24.7264 -37.1615
  166 91.1164 24.8144 37.0084
  167 348.083 -16.0545 91.8805
  168 364.680 -18.1963 -89.4476
  169 173.374 -9.22545 12.1368
  170 173.350 -9.13586 -12.2971
  171 371.581 -13.5224 1.07655
  172 364.269 -13.5604 -0.940971
  173 497.181 89.3285 -11.9407
  174 502.179 4.32783 -60.8870
  175 492.471 8.09188 65.8103
  176 121.082 -4.65101 -25.0974
  177 121.095 -4.61839 25.0519
  178 434.082 -42.8770 20.5247
  179 433.703 -33.3967 -29.8950
  180 6.58864 10.5342 9.74774
  181 6.76900 10.6014 -9.64015
  182 593.005 121.011 16.3062
  183 115.926 52.2161 -82.6042
  184 124.276 52.6910 88.4490
  185 419.621 -19.9472 13.6133
  186 628.814 132.810 -5.45344
  187 273.850 -10.3868 -3.83076
  188 273.418 -10.6438 3.80364
  189 431.095 -13.9997 -12.5082
  190 572.358 -1.67740 -11.3163
  191 110.369 -3.33422 4.69783
  192 110.329 -3.36173 -4.75870
  193 47.7839 5.79469 -17.1678
  194 47.9969 5.73530 17.2081
  195 244.288 -9.28585 -58.1352
  196 243.337 -9.78632 58.8728
  197 291.309 -19.2115 -9.74136
  198 291.886 -19.1043 10.3062
  199 78.9292 -2.75685 13.4524
  200 78.8132 -2.72041 -13.4793
  201 565.993 -7.89618 40.3331
  202 464.468 -45.2692 -6.92206
  203 440.218 -5.01097 -1.72896
  204 430.627 -6.01622 1.73445
  205 441.159 51.8748 46.8731
  206 19.4357 17.3212 -7.46824
  207 20.1231 17.2930 7.77472
  208 438.187 -17.4869 54.4742
  209 405.674 31.1363 -53.9480
  210 286.791 66.8972 -186.630
  211 301.571 56.5517 173.478
  212 8.91003 9.79551 -2.02648
  213 9.08313 9.79420 2.10993
  214 436.899 -15.3811 -56.3470
  215 754.309 105.276 -7.39620
  216 363.029 -39.3920 34.0941
  217 365.708 -39.1807 -32.3393
  218 362.806 -26.2233 -0.571809
  219 447.625 -7.55552 6.54344
  220 219.892 -15.2107 -22.1933
  221 216.515 -15.1523 22.8392
  222 133.073 2.60124 -37.5407
  223 133.266 2.55151 37.2384
  224 460.157 -48.0487 -7.71546
  225 359.839 -27.8487 -0.991572
  226 445.994 -7.40304 -5.01463
  227 349.035 -9.60337 -0.387460
  228 352.007 -9.00262 1.03608
  229 441.534 -19.8591 30.8748
  230 41.0104 0.298820 -14.3654
  231 41.1786 0.281054 14.3656
  232 -5.40142 -3.56546 -14.8210
  233 -5.43003 -3.60127 14.8327
  234 71.8957 -3.03660 -7.84176
  235 71.9959 -3.04391 7.78402
  236 189.925 -5.91342 5.42983
  237 189.964 -6.01154 -5.46865
  238 216.694 15.2205 -84.3575
  239 216.721 12.7308 83.4189
  240 447.579 -14.1681 -26.4165
  241 212.783 -12.4924 -35.6110
  242 212.969 -12.8698 35.1344
  243 397.839 6.33366 61.1428
  244 350.439 30.0216 3.71151
  245 384.943 -38.4405 0.511714
  246 1.95014 -8.72388 -13.0928
  247 1.82063 -8.82739 13.2052
  248 25.5540 27.6838 -29.6164
  249 27.1606 26.8013 31.0338
  250 378.598 -37.6171 -3.01113
  251 677.907 130.316 -14.0289
  252 36.8338 24.6354 -13.2353
  253 37.2660 24.6281 13.3794
  254 -13.9249 3.28282 9.78863
  255 -13.8503 3.29994 -9.73681
  256 680.962 122.515 18.0026
  257 242.174 -11.9716 -9.08450
  258 241.996 -11.7884 8.92320
  259 469.308 -31.2638 49.6167
  260 840.593 136.994 85.8029
  261 143.608 -7.62917 -20.7081
  262 143.586 -7.68281 20.6911
  263 480.701 72.0730 -44.4269
  264 812.101 154.735 -78.7897
  265 570.539 58.7172 40.7220
  266 615.856 43.3114 -118.931
  267 384.715 -18.6750 4.52427
  268 439.079 2.48637 -68.1748
  269 414.313 -29.4864 -16.4626
  270 460.663 -8.54123 16.6240
  271 1.92961 4.43620 -5.67565
  272 2.10375 4.42255 5.73562
  273 455.807 -13.4071 -114.429
  274 51.1872 15.2471 -17.4791
  275 51.4277 15.2213 17.5707
  276 443.351 -10.7704 -34.3152
  277 64.9009 69.4509 -85.9502
  278 58.1658 -0.291627 -1.82951
  279 58.2243 -0.280147 1.80431
  280 467.730 -28.5956 -51.8908
  281 84.1153 37.7846 -46.6151
  282 85.3175 37.5892 46.7469
  283 27.3637 -0.774948 9.99470
  284 27.1861 -0.765774 -10.0002
  285 384.124 -17.7804 -4.42735
  286 65.3601 68.7301 88.1842
  287 605.536 51.5095 138.776
  288 170.674 -6.92595 -7.45238
  289 170.648 -6.88441 7.35661
  290 308.315 -13.3032 -3.74071
  291 308.169 -14.3445 4.10385
  292 263.192 26.1116 -127.100
  293 422.284 -46.0587 -4.54485
  294 478.082 -3.34240 2.83823
  295 253.605 26.1571 123.078
  296 295.443 -8.62418 -1.29326
  297 295.333 -8.61939 1.54122
  298 415.001 -30.6466 16.7636
  299 474.700 -5.38533 -7.62512
  300 -0.722639 1.75358 -7.97008
  301 -0.529580 1.74042 7.99921
  302 599.434 118.762 -4.12245
  303 523.236 -23.2578 24.7112
  304 470.864 -2.94786 -0.679278
  305 478.870 -2.57811 0.615648
  306 471.505 -40.4388 42.8571
  307 581.321 62.6740 -37.3778
  308 511.569 94.9957 25.0983
  309 231.438 -14.4269 -14.2654
  310 229.386 -14.6835 14.5232
  311 477.454 -3.27719 -1.79813
  312 316.484 -23.6369 -63.5921
  313 311.716 -24.8686 12.2817
  314 297.130 -15.9115 72.2256
  315 470.885 -6.02223 9.18199
  316 110.989 -5.09221 -12.9910
  317 111.067 -5.12886 12.9388
  318 434.741 -12.9807 113.066
  319 278.552 -22.2493 -17.7545
  320 509.776 66.0220 55.3242
  321 164.378 11.5014 -55.2901
  322 158.359 12.0319 54.8606
  323 52.0634 -1.03027 -3.31670
  324 52.1503 -1.02367 3.27667
  325 416.696 -9.08198 3.48277
  326 399.781 -6.44343 0.285218
  327 397.584 -6.98759 -0.416810
  328 440.256 -11.3359 36.4002
  329 42.0993 -1.46302 7.52316
  330 41.9464 -1.44973 -7.55426
  331 132.189 -3.24620 -2.75760
  332 132.206 -3.19622 2.73098
  333 4.44236 -18.7168 -6.79136
  334 4.16271 -18.8790 7.12459
  335 346.694 15.1182 41.6456
  336 528.202 -21.5055 -19.3857
  337 343.740 -18.7876 -0.210322
  338 387.321 -8.54171 -1.46237
  339 409.348 50.7772 -25.2833
  340 82.6387 -2.68315 -18.6791
  341 82.7492 -2.68553 18.6662
  342 334.421 -17.7565 1.91986
  343 97.0851 3.08956 -26.7626
  344 97.2717 3.00794 26.6875
  345 19.6330 15.8332 -1.38804
  346 19.8616 15.8323 1.48641
  347 405.329 -42.9951 43.4076
  348 887.685 58.4297 22.8323
  349 364.701 5.73321 -49.2527
  350 302.967 -27.1163 39.7219
  351 301.430 -26.5561 -40.8736
  352 445.933 -7.17551 67.3625
  353 398.254 -2.73537 48.4769
  354 400.156 -41.5664 -44.7403
  355 240.897 -6.62906 0.714798
  356 240.858 -6.69914 -0.656131
  357 442.648 -28.8443 40.5050
  358 606.243 120.231 1.67431
  359 473.498 -5.67707 -12.2806
  360 125.871 -4.87200 -9.49815
  361 125.929 -4.87664 9.41116
  362 446.627 -41.4613 -53.5658
  363 471.386 33.4211 -66.9188
  364 320.504 17.2256 -26.7805
  365 445.873 -29.6089 -46.5536
  366 -14.3278 0.599977 -11.4130
  367 -14.3433 0.581793 11.4276
  368 374.442 -9.63085 0.512846
  369 -5.31853 -3.15322 -6.93928
  370 -5.31169 -3.15409 6.92441
  371 288.435 149.365 -226.352
  372 12.3052 11.1225 6.10096
  373 12.5965 11.2081 -5.94446
  374 395.339 -2.88597 -48.0842
  375 219.348 -9.68292 6.86453
  376 219.496 -9.80574 -6.93188
  377 -1.37541 -15.5142 13.0181
  378 -1.35122 -15.4860 -13.0051
  379 235.220 156.373 213.374
  380 180.059 -9.69208 -28.0182
  381 180.207 -9.28925 28.0396
  382 57.9814 43.1883 -43.3719
  383 59.1784 43.0826 43.1364
  384 -21.1517 3.46502 3.58696
  385 -21.0490 3.47082 -3.53092
  386 455.296 30.7657 67.2686
  387 348.796 -36.5192 19.8855
  388 349.169 -32.0334 8.89839
  389 421.776 -47.6022 -8.18098
  390 108.021 13.2629 -36.8653
  391 108.382 13.2417 36.8148
  392 9.79376 -11.6863 2.32527
  393 9.27941 -11.9101 -1.59176
  394 430.732 61.3665 16.5428
  395 429.418 -12.8537 10.1138
  396 248.363 -19.4162 26.0280
  397 155.007 -4.04696 -33.3338
  398 155.073 -4.07614 33.0998
  399 315.143 -10.2111 -1.81343
  400 314.813 -9.05703 1.54663
  401 246.308 -19.9234 -27.5356
  402 193.250 -3.36523 -44.7169
  403 193.229 -3.62840 45.0652
  404 448.231 -40.8466 -27.2708
  405 262.600 -20.4478 16.7882
  406 407.545 -13.0687 5.60312
  407 406.734 -11.9890 -4.55602
  408 342.839 -31.8084 -10.1092
  409 487.373 -2.55614 -3.02791
  410 166.522 68.5821 -129.411
  411 460.864 -6.90714 20.6949
  412 486.188 -2.94562 4.66780
  413 177.506 -9.65598 17.1344
  414 177.574 -9.52772 -17.1217
  415 347.243 -36.0858 -20.4817
  416 51.2648 22.3905 18.8606
  417 50.9927 22.3728 -18.8727
  418 896.539 58.3861 -46.5526
  419 399.931 -23.2893 -8.83453
  420 490.276 -2.14916 1.74269
  421 157.421 64.1787 123.426
  422 726.031 121.962 24.6184
  423 427.628 -7.19889 -2.73261
  424 322.137 -23.7466 -8.03136
  425 135.968 26.2282 -62.3425
  426 144.784 24.2913 61.9692
  427 395.286 -25.4671 8.83880
  428 420.646 -5.38892 -35.4929
  429 0.260756 -0.418618 7.52131
  430 0.0563961 -0.414239 -7.51531
  431 153.260 37.1331 -83.0659
  432 153.750 37.2639 82.8159
  433 19.9251 8.44603 -8.52385
  434 20.1179 8.42833 8.59867
  435 354.921 -7.67234 0.390456
  436 354.495 -7.49404 -0.273648
  437 440.954 -20.2889 -32.3144
  438 -0.837077 -0.801009 15.6444
  439 -0.757753 -0.729718 -15.5853
  440 453.945 -44.3828 23.3988
  441 428.813 -12.0698 -8.84893
  442 692.160 132.328 -22.5999
  443 32.7545 -1.29296 3.59852
  444 32.6197 -1.29318 -3.63320
  445 828.340 237.504 109.037
  446 17.3738 11.4467 -26.8202
  447 54.6955 2.41248 -18.3080
  448 54.8742 2.37234 18.3086
  449 826.810 243.196 -105.841
  450 18.4155 13.3144 29.3421
  451 -19.9499 2.62963 0.485052
  452 -19.8168 2.62570 -0.431681
  453 47.9653 32.8743 -26.0573
  454 48.7763 32.8940 26.1939
  455 543.336 85.9596 -44.5632
  456 435.612 -17.4085 -20.4126
  457 487.765 -2.22974 -1.50406
  458 455.354 -7.12929 -24.3868
  459 -4.77847 3.63118 14.2533
  460 -4.69758 3.67732 -14.1972
  461 440.191 -18.0712 23.9972
  462 288.194 -16.6763 -7.80118
  463 287.330 -16.8386 6.85708
  464 389.040 -42.8119 -8.86269
  465 278.748 -3.40959 -88.1568
  466 424.614 -6.46041 36.2246
  467 346.837 -11.9432 0.879158
  468 506.732 -36.6227 -9.45307
  469 270.121 2.95645 94.4117
  470 24.8243 -0.434029 7.26172
  471 24.6428 -0.425953 -7.27566
  472 558.848 110.381 -19.3181
  473 444.150 -3.99363 0.0552758
  474 442.661 -4.43534 -0.449630
  475 338.024 -23.0067 4.13216
  476 151.192 -5.24894 -5.38211
  477 151.190 -5.19087 5.32267
  478 89.9794 -1.20218 -22.1102
  479 90.0880 -1.21980 22.0716
  480 290.064 11.2184 16.0521
  481 75.6313 -2.50132 10.7650
  482 75.5200 -2.47809 -10.8141
  483 78.8509 7.26298 24.9604
  484 78.5911 7.37052 -24.9369
  485 432.937 -33.5668 28.6670
  486 244.478 -15.2496 -42.1551
  487 226.563 -7.74800 3.69938
  488 226.640 -7.92454 -3.70396
  489 247.027 -15.7218 42.1518
  490 673.973 161.409 -18.1886
  491 -10.7668 -1.58420 -8.93397
  492 -10.7603 -1.59278 8.92846
  493 173.746 -5.11564 -2.26220
  494 173.751 -5.04388 2.25397
  495 0.281340 -28.4608 -10.6355
  496 0.210484 -28.5547 10.7322
  497 394.762 -6.70645 0.689759
  498 288.417 13.5888 -7.97960
  499 383.168 40.0568 22.8082
  500 242.694 -2.14027 -70.6666
  501 121.668 -6.25771 16.2677
  502 121.647 -6.20554 -16.2921
  503 -27.9964 0.941684 -2.79083
  504 -27.8126 0.935871 2.81575
  505 467.952 -8.12669 -66.3500
  506 43.0093 0.192020 -2.39931
  507 43.0854 0.197927 2.37050
  508 389.552 -30.9870 -6.56736
  509 414.801 -35.4680 -15.6018
  510 86.5540 67.2891 -88.6790
  511 348.741 10.9133 -137.559
  512 5.61378 10.8127 5.92485
  513 5.78297 10.8366 -5.83019
  514 216.133 -10.2986 -9.69852
  515 216.032 -10.2101 9.51168
  516 595.600 27.6774 -9.15017
  517 431.083 -25.6870 -26.1089
  518 84.4227 63.8042 87.4726
  519 427.034 -47.9293 14.8641
  520 411.047 -39.1113 11.4431
  521 92.0749 -2.24128 -7.09168
  522 92.1395 -2.23298 7.02713
  523 342.744 3.86758 38.1809
  524 246.566 -18.3939 -17.6465
  525 453.535 -10.5213 14.7828
  526 -1.81420 -11.0366 -8.69897
  527 -1.81869 -11.0273 8.68582
  528 320.134 -28.1253 47.1703
  529 484.168 -36.2738 -32.5423
  530 628.010 47.5590 -27.2142
  531 342.774 -12.3374 -0.786811
  532 106.435 -2.03145 -2.04619
  533 106.467 -1.99493 2.02848
  534 218.608 1.93995 68.1642
  535 602.706 102.963 27.4796
  536 606.629 127.953 -216.198
  537 548.883 4.82550 29.9911
  538 396.632 -43.9494 6.78266
  539 923.770 73.5417 62.5353
  540 689.286 169.524 25.1653
  541 101.595 -4.27298 17.7259
  542 101.513 -4.23121 -17.7519
  543 381.521 -31.8815 4.15942
  544 30.2754 13.8749 -8.17041
  545 30.4941 13.8684 8.25833
  546 478.294 -39.0845 32.6263
  547 395.473 21.6149 56.1240
  548 480.340 -3.32859 8.29421
  549 357.403 -21.9237 0.890690
  550 496.802 7.23919 -145.001
  551 782.824 210.073 144.904
  552 386.259 -8.35446 -0.493833
  553 472.484 -5.05842 -13.5814
  554 76.6413 31.7277 -35.2583
  555 77.1918 31.3493 35.1122
  556 273.209 -11.4850 -5.18170
  557 273.088 -11.2279 5.27186
  558 3.39814 -31.7102 -5.05514
  559 483.373 -16.5001 58.5120
  560 19.7237 17.4618 0.395382
  561 20.0209 17.5113 -0.254166
  562 3.95020 -30.5242 6.09220
  563 440.675 -20.0039 -47.8332
  564 506.693 32.9018 -63.2643
  565 505.058 37.2085 63.3218
  566 25.1989 22.7576 20.1763
  567 23.9687 23.2455 -19.7732
  568 -10.9055 0.436378 5.73727
  569 -11.1142 0.441089 -5.72575
  570 463.338 14.5226 149.328
  571 257.228 -14.6008 9.91885
  572 257.479 -14.5501 -10.0816
  573 557.762 -7.11934 -78.3270
  574 77.6551 -1.09167 4.10826
  575 77.5976 -1.10798 -4.15161
  576 39.3712 -0.892857 -0.956239
  577 39.4273 -0.887035 0.946131
  578 614.489 113.829 -21.1388
  579 59.7123 93.7135 -97.4521
  580 328.444 6.74392 -32.3857
  581 459.234 73.1832 -28.0215
  582 7.23893 0.843795 8.88070
  583 7.51713 0.946253 -8.69414
  584 455.959 219.602 253.114
  585 392.172 -11.5935 -2.65195
  586 16.2813 3.98269 -9.90269
  587 16.4716 3.95400 9.94957
  588 453.218 -36.1703 40.1109
  589 70.4923 90.9374 99.2297
  590 327.874 -7.62562 0.598308
  591 327.965 -7.56754 -0.599557
  592 -0.262007 -22.7866 11.1950
  593 -0.226671 -22.7497 -11.1580
  594 558.612 108.357 -0.894546
  595 354.595 -28.0470 66.2522
  596 338.816 -15.0912 -1.52707
  597 340.143 16.9384 145.040
  598 -27.7396 1.49321 6.63329
  599 -27.7119 1.50133 -6.60516
  600 555.518 9.01153 -32.3934
  601 734.374 130.123 -104.785
  602 213.654 22.1756 -97.5051
  603 117.784 -5.00022 -21.5398
  604 117.898 -5.00204 21.5454
  605 500.799 -1.85027 2.19113
  606 335.555 -15.4005 1.12593
  607 446.505 -6.66390 4.71365
  608 440.678 -20.0353 46.6772
  609 23.4097 -0.744000 3.65703
  610 23.2472 -0.740890 -3.68261
  611 262.911 -9.65567 -3.05030
  612 262.878 -9.40889 2.96978
  613 165.029 3.52523 -46.0878
  614 163.989 3.57326 45.8981
  615 631.478 41.1374 42.0024
  616 1022.12 77.0565 -111.475
  617 -4.39667 -0.653908 4.98458
  618 -4.61402 -0.651803 -4.98263
  619 157.154 -6.72078 9.87207
  620 157.137 -6.71220 -9.99243
  621 590.000 34.5407 17.2153
  622 494.700 -2.08870 -0.694657
  623 493.645 -2.85132 0.249050
  624 364.797 0.00814735 37.7683
  625 518.957 -28.8855 -48.9368
  626 284.608 -23.5242 21.0152
  627 -5.45914 6.55080 -5.60729
  628 -5.58586 6.53997 5.68120
  629 454.761 9.75770 70.1392
  630 182.402 -10.6004 -22.5983
  631 182.237 -10.7731 22.6408
  632 369.891 -21.8564 -2.25808
  633 455.491 -10.3222 -13.3479
  634 262.483 -20.9975 -30.9536
  635 430.280 51.9259 -42.6551
  636 289.689 -19.8690 -54.2725
  637 110.035 -2.96040 -3.72613
  638 110.067 -2.92697 3.68141
  639 265.158 -21.3598 31.1013
  640 565.651 92.3178 39.2874
  641 450.769 -21.6302 58.8596
  642 369.017 -16.9971 2.28554
  643 265.690 -7.59644 1.84446
  644 265.624 -7.61115 -1.79471
  645 201.631 -7.79651 -7.09746
  646 201.563 -7.71648 7.02961
  647 433.412 -39.6775 -22.2302
  648 221.950 -12.8040 12.3785
  649 222.181 -12.7528 -12.6039
  650 437.858 67.3138 -5.69143
  651 400.591 -21.4777 9.01799
  652 498.360 -2.51069 -3.48693
  653 427.465 -7.60159 -62.0002
  654 64.8710 -2.81738 14.2495
  655 64.7392 -2.79775 -14.2594
  656 486.918 -2.89455 -7.52798
  657 88.8176 46.0502 -62.8064
  658 90.3244 45.9462 63.1110
  659 497.100 -28.5981 66.4101
  660 173.263 43.6277 102.698
  661 45.3329 -0.332548 14.2463
  662 45.1770 -0.322610 -14.2507
  663 424.227 -26.4920 84.9762
  664 416.877 62.3444 -196.755
  665 410.443 13.2021 -62.0648
  666 538.074 97.6144 34.3548
  667 362.798 -16.6635 -0.676393
  668 650.768 116.474 -2.83317
  669 -29.7976 1.49733 -1.91480
  670 -29.6427 1.49358 1.94956
  671 290.073 1.81348 -102.975
  672 25.2308 -0.440298 2.79029
  673 25.1089 -0.441386 -2.81690
  674 363.102 -30.1800 -65.5331
  675 122.223 16.6251 -44.5460
  676 121.271 16.6895 44.5262
  677 4.05536 6.11856 -3.50642
  678 4.22435 6.11108 3.57980
  679 309.516 -26.9202 -16.1854
  680 437.231 -4.31834 -23.7280
  681 210.789 -6.82693 -2.52536
  682 210.803 -6.75590 2.54353
  683 153.626 -7.93399 -14.6170
  684 153.751 -8.04204 14.5684
  685 29.5274 24.2638 -9.65501
  686 30.0065 24.3193 9.81925
  687 445.588 -5.85505 2.16164
  688 201.341 -12.9355 18.9647
  689 202.600 -12.7156 -18.9508
  690 494.097 -38.7747 -2.91708
  691 408.264 -41.0566 -7.01294
  692 321.878 -9.69368 -0.825801
  693 320.764 -9.08617 0.974930
  694 448.995 -46.8908 26.8802
  695 726.679 147.033 40.6286
  696 394.784 -16.6365 -104.941
  697 451.841 -12.8195 24.2788
  698 449.996 -16.4502 -63.3386
  699 143.515 -4.56483 -6.95639
  700 143.524 -4.53267 6.87688
  701 351.475 -5.12244 117.461
  702 968.936 124.869 114.342
  703 69.3817 19.9149 -26.1886
  704 69.4869 20.0494 26.2732
  705 444.003 -4.86385 -1.06169
  706 447.456 -4.40027 1.09057
  707 190.396 98.6324 -165.598
  708 472.617 -2.73717 13.6347
  709 408.830 -7.62949 1.49521
  710 541.371 106.912 -12.5099
  711 57.2369 9.88487 -19.1318
  712 57.4833 9.82354 19.2021
  713 504.621 -1.45881 0.316388
  714 411.588 -16.3468 -9.02466
  715 512.857 -6.95151 50.5059
  716 212.532 -14.9707 -29.3261
  717 213.063 -14.3401 29.0662
  718 51.6268 -1.71295 10.7812
  719 51.4806 -1.69200 -10.8071
  720 463.650 -3.61332 -2.12849
  721 400.111 81.8332 208.508
  722 3.40794 3.72540 12.6455
  723 3.55852 3.81703 -12.5421
  724 465.221 -5.42576 -5.95012
  725 452.251 -8.74507 8.54629
  726 363.130 0.417523 -40.5082
  727 3.55400 -40.0922 -4.76438
  728 3.33017 -40.4997 5.17498
  729 166.728 45.0109 -102.730
  730 362.530 -36.1198 -47.7926
  731 189.177 97.6958 167.103
  732 498.443 -1.50192 1.26087
  733 486.285 72.9151 44.5721
  734 358.006 32.3904 -15.9070
  735 633.732 127.660 2.69645
  736 493.067 -2.29837 4.77992
  737 -27.3402 0.718198 4.08599
  738 -27.5438 0.722124 -4.06978
  739 525.697 -28.7692 16.8395
  740 342.111 -10.4533 -1.06264
  741 126.550 0.0679943 -31.9995
  742 126.721 -0.0558613 31.8290
  743 451.830 -5.78225 -3.24737
  744 795.832 112.542 -41.6193
  745 57.9213 -1.65148 -6.87259
  746 58.0459 -1.66094 6.82770
  747 501.937 -1.59117 -2.15571
  748 104.330 -4.63450 -9.56642
  749 104.405 -4.65077 9.49959
  750 493.976 -19.0949 -52.3873
  751 456.695 -4.87877 18.9920
  752 411.955 -2.48006 61.4411
  753 502.366 -1.65125 0.0972506
  754 470.424 -3.99671 4.48632
  755 310.391 -17.1072 -4.54390
  756 387.232 -10.7730 1.81319
  757 440.530 -27.1454 -39.4052
  758 429.498 -27.1833 25.0777
  759 504.393 61.4481 -56.0433
  760 423.502 -24.0515 18.2634
  761 447.895 -26.3968 50.7520
  762 261.519 -17.9499 13.1082
  763 9.75521 -1.16149 0.345964
  764 9.25575 -1.19628 0.127862
  765 391.662 -6.55123 -0.127004
  766 390.843 -6.51027 -0.0163023
  767 467.599 -2.56730 -0.202127
  768 469.175 -2.47891 0.309025
  769 448.021 -12.7113 29.9860
  770 413.345 -37.4112 62.1110
  771 340.670 -27.8939 6.83310
  772 303.175 -18.4621 6.83506
  773 811.362 103.780 47.9926
  774 452.222 -11.7732 -18.9436
  775 266.412 47.4680 -155.086
  776 420.726 -21.1425 -15.6926
  777 19.4154 0.295686 -10.4012
  778 19.6035 0.280319 10.4166
  779 380.186 33.3431 -35.6361
  780 941.950 28.5690 -12.1955
  781 474.562 12.6750 -68.3248
  782 19.4243 16.5809 -39.1833
  783 489.999 87.8390 11.3498
  784 380.825 -24.5896 4.36700
  785 428.936 -10.5536 60.1101
  786 360.721 -37.6656 48.0523
  787 572.406 -0.629541 95.6727
  788 20.9214 20.9742 41.7472
  789 261.856 -1.34963 80.6768
  790 364.006 -10.0061 -0.246191
  791 405.450 -35.8336 -62.8478
  792 250.911 -19.6860 -22.0008
  793 198.474 9.55934 -70.7812
  794 470.162 -6.91636 66.9282
  795 302.780 -20.9463 10.5682
  796 62.1699 -1.70996 6.06495
  797 62.0735 -1.71183 -6.11644
  798 438.564 -2.45398 20.9992
  799 399.584 2.19425 -59.8295
  800 -34.1504 1.59995 4.01763
  801 -34.0984 1.60310 -3.98665
  802 294.714 -9.76254 -1.75614
  803 293.880 -9.26631 1.65974
  804 219.088 24.8009 98.8708
  805 196.768 -11.6602 14.4117
  806 197.029 -11.3841 -14.5498
  807 501.540 -1.20848 -1.11828
  808 178.917 14.2294 69.0492
  809 9.84860 -0.169786 3.86502
  810 9.65126 -0.166126 -3.87979
  811 433.384 -13.3425 46.3480
  812 459.704 -4.39498 1.63935
  813 -24.5755 0.334961 6.70933
  814 -24.5810 0.343101 -6.69573
  815 285.893 -17.8152 60.7449
  816 56.2798 48.0123 -53.6036
  817 56.9565 45.8916 52.8269
  818 275.562 12.0923 6.66495
  819 -1.08382 -0.315383 -4.42167
  820 -0.864624 -0.318214 4.41840
  821 328.127 -31.0328 -45.0720
  822 446.048 -46.5126 -12.2972
  823 -2.24173 -2.12678 -2.83313
  824 -2.23495 -2.12162 2.82245
  825 28.9720 0.735285 -0.935354
  826 29.0394 0.739437 0.920074
  827 397.294 -35.4958 7.78055
  828 335.288 -34.2617 32.0165
  829 370.275 -6.93775 0.517028
  830 334.466 -27.2318 -8.05935
  831 126.166 -2.21614 -0.771475
  832 126.189 -2.16816 0.760421
  833 -38.3865 0.825117 2.20919
  834 -38.3012 0.824100 -2.17858
  835 417.011 -6.05648 -1.37516
  836 373.770 14.8644 -51.0262
  837 421.871 -8.97345 -4.58843
  838 251.446 -19.3656 21.0151
  839 419.941 -7.27530 -49.2059
  840 447.520 -13.7959 -30.9728
  841 418.651 -5.29692 1.21892
  842 307.464 -11.3860 82.6928
  843 328.484 -32.1806 -18.8333
  844 199.290 -1.49886 -54.5782
  845 200.373 -0.115570 54.8621
  846 280.804 -21.2840 -14.2063
  847 464.883 50.6891 58.5040
  848 439.065 -45.1704 -35.5437
  849 161.782 -5.27238 -3.54963
  850 161.776 -5.19880 3.51726
  851 336.669 -8.31862 0.626582
  852 336.686 -8.38140 -0.550787
  853 402.248 -2.97553 -32.2442
  854 138.316 -5.91336 -11.8188
  855 138.396 -5.95699 11.7277
  856 1.69048 -41.0129 -7.92004
  857 1.60318 -41.1911 8.09096
  858 72.7680 -1.07131 -0.193205
  859 72.7216 -1.09172 0.179948
  860 414.045 -7.14512 -1.91387
  861 316.336 -30.1738 29.0413
  862 488.279 -41.1742 12.6878
  863 292.751 6.12227 25.5166
  864 423.403 -10.5533 5.30352
  865 462.902 -41.1309 -30.3760
  866 69.2694 4.17964 -21.6526
  867 69.4730 4.10931 21.6455
  868 368.420 -7.39088 -0.465699
  869 298.199 -10.9047 -3.27048
  870 297.187 -10.8159 3.53667
  871 460.411 71.5873 31.5861
  872 161.560 -1.71677 -38.4411
  873 161.420 -1.90220 38.2858
  874 319.280 -29.0232 15.2724
  875 32.0574 20.4375 -8.41616
  876 32.3649 20.4006 8.50611
  877 270.625 -19.2086 49.7588
  878 323.711 -21.0231 -4.92312
  879 404.492 -3.08354 32.5791
  880 396.307 -44.4198 17.2243
  881 453.842 -34.3045 -43.4769
  882 315.562 -30.4191 -29.4199
  883 263.371 -17.8807 -12.5991
  884 846.217 69.3318 -13.1542
  885 414.949 -43.8671 4.32672
  886 12.8445 14.0488 3.87099
  887 13.0636 14.0774 -3.75536
  888 361.344 -36.2855 9.25295
  889 395.683 -44.2605 -28.4590
  890 13.9274 12.1263 -0.610509
  891 14.1205 12.1310 0.699595
  892 151.602 -5.49051 29.3535
  893 151.682 -5.64968 -29.5154
  894 182.888 -9.33511 32.1646
  895 182.814 -9.55032 -32.3705
  896 571.347 114.502 14.8877
  897 -0.814368 -17.6581 -8.40601
  898 -0.820380 -17.6356 8.39943
  899 133.405 11.1188 -42.4018
  900 132.769 10.8958 42.0081
  901 973.210 31.5179 -48.9349
  902 23.8085 -0.118240 1.58605
  903 23.7108 -0.121422 -1.60698
  904 1.81257 -45.9051 1.99379
  905 2.10208 -45.1004 -1.31418
  906 -18.8967 -0.209440 6.95606
  907 -18.9190 -0.203491 -6.95410
  908 106.728 31.2627 -49.8218
  909 108.370 30.2239 49.1438
  910 -7.97715 0.562770 -14.5041
  911 -8.01833 0.528971 14.5300
  912 32.5515 2.66049 -14.2482
  913 32.7439 2.62571 14.2706
  914 116.979 -1.46268 27.0961
  915 116.892 -1.45667 -27.2218
  916 96.2344 -3.34389 -21.8996
  917 96.3370 -3.33846 21.8697
  918 489.445 -1.95218 -7.47197
  919 240.479 52.3342 144.435
  920 331.716 -32.7973 17.7600
  921 237.079 -17.1408 17.0463
  922 454.852 47.1014 -57.9221
  923 957.159 20.4371 19.5910
  924 535.845 25.5558 -53.4444
  925 92.4910 -3.53580 13.7393
  926 92.3926 -3.49648 -13.7864
  927 18.8613 -0.543947 -10.1138
  928 19.0471 -0.548955 10.1153
  929 -0.112429 -7.97464 -15.6839
  930 -0.183168 -8.04497 15.7370
  931 244.996 -11.0954 7.76649
  932 245.118 -11.3028 -7.80046
  933 31.2728 7.94433 -12.8552
  934 31.4780 7.90927 12.9207
  935 150.623 -6.79476 -25.0011
  936 150.729 -6.79609 24.9882
  937 324.362 -1.24929 -29.9922
  938 155.566 -8.51799 -17.4982
  939 155.469 -8.43033 17.5542
  940 371.165 -10.9491 -0.322494
  941 449.284 -25.5216 -54.6559
  942 198.906 -8.24954 8.19613
  943 198.992 -8.32186 -8.29688
  944 -8.18722 -0.861411 -4.95794
  945 -8.16440 -0.863470 4.94704
  946 456.221 -34.1249 -76.5729
  947 437.816 -25.7595 34.0904
  948 384.437 -27.1415 -6.02085
  949 378.316 13.1336 53.7368
  950 173.079 -9.81448 -19.6701
  951 173.089 -9.63360 19.7287
  952 421.057 16.4076 64.6992
  953 394.514 34.4808 42.6348
  954 792.138 94.9268 16.8224
  955 408.224 -15.0912 6.38358
  956 217.763 -6.75920 -3.69909
  957 217.741 -6.63428 3.72777
  958 366.578 -30.2470 0.445457
  959 508.313 93.1325 -26.3736
  960 445.695 -5.28643 -2.21741
  961 295.370 -7.71971 1.22717
  962 295.260 -7.66398 -1.14438
  963 38.4076 32.7341 -24.1094
  964 39.3612 32.6859 24.2837
  965 70.6887 188.716 -160.717
  966 420.921 -9.82485 48.9144
  967 521.204 -8.69856 -44.5032
  968 -7.63217 5.10022 2.08215
  969 -7.49298 5.09983 -2.01207
  970 1045.13 251.068 -199.385
  971 446.681 -48.1921 2.56288
  972 475.768 -43.2256 -21.7391
  973 440.095 -37.6182 30.4513
  974 545.806 107.091 10.5367
  975 40.2787 43.9031 -50.0724
  976 100.673 163.933 158.383
  977 -2.44160 -5.86088 15.7802
  978 -2.39774 -5.80929 -15.7535
  979 427.397 -11.3751 6.74934
  980 685.786 120.938 -15.5166
  981 41.4328 42.9654 51.9770
  982 -1.87746 -6.39891 -5.51330
  983 -1.87772 -6.38087 5.49868
  984 367.570 -9.11396 -0.157598
  985 275.993 -22.0430 -22.9863
  986 443.586 -34.9498 -36.6183
  987 127.781 34.4189 -65.3901
  988 129.812 34.9806 65.5578
  989 431.917 -10.6802 -43.4864
  990 433.451 -14.0940 13.2050
  991 -11.1603 3.10559 12.6310
  992 -11.1021 3.13582 -12.5886
  993 263.593 -17.3397 -46.8794
  994 436.917 28.2139 -64.7361
  995 324.209 -12.6075 1.97628
  996 234.928 -7.01882 0.708387
  997 234.882 -7.06169 -0.681975
  998 -4.83011 -5.49209 -11.4148
  999 -4.83689 -5.50397 11.4048
  1000 439.327 -15.9655 -16.4834
  1001 417.735 -5.20643 0.338262
  1002 417.350 -5.21256 -0.171863
  1003 578.393 95.5696 -35.7483
  1004 106.580 9.05723 -33.6419
  1005 106.846 8.87670 33.5740
  1006 69.4489 -0.729876 -18.2214
  1007 69.5813 -0.743578 18.2035
  1008 477.810 26.0864 69.1203
  1009 449.933 -8.84836 -8.97484
  1010 81.6250 12.6363 -27.6031
  1011 81.9461 12.5432 27.7034
  1012 468.192 -2.89976 -1.34462
  1013 439.305 -19.1824 -25.5275
  1014 429.022 -48.0300 -20.6357
  1015 17.0541 15.0672 1.07111
  1016 16.5954 14.9954 -0.862022
  1017 -20.1622 3.48085 7.30757
  1018 -20.0867 3.49074 -7.25654
  1019 266.602 9.89686 -11.1439
  1020 738.898 185.098 -53.7461
  1021 340.222 -25.0643 -3.58683
  1022 226.306 -9.89497 -48.1832
  1023 542.316 -20.4481 1.49547
  1024 227.191 -9.87861 48.8431
  1025 390.405 -45.1259 32.8749
  1026 442.441 -18.3374 -39.1044
  1027 155.109 -3.75518 -1.13441
  1028 155.126 -3.69367 1.12768
  1029 303.442 -23.9052 -12.6229
  1030 187.340 -7.07303 -37.7790
  1031 187.279 -7.12657 37.5998
  1032 62.6833 41.1705 -41.0812
  1033 63.6640 41.0630 41.2048
  1034 131.219 -4.22074 -4.01098
  1035 131.235 -4.17114 3.96409
  1036 393.177 -12.9464 3.04169
  1037 332.508 2.12346 -118.821
  1038 407.372 -13.6752 -6.39584
  1039 368.915 -40.7153 -20.4814
  1040 244.406 -10.5937 5.40570
  1041 244.599 -10.6695 -5.42013
  1042 474.521 -3.26875 1.69815
  1043 425.748 -10.5730 -6.31411
  1044 280.528 6.87493 21.0473
  1045 457.279 -4.55657 -17.6797
  1046 178.602 52.8269 116.260
  1047 470.084 -4.44101 -14.4167
  1048 124.910 20.9166 -49.5659
  1049 121.252 21.1463 47.6077
  1050 560.321 -7.92567 -3.54758
  1051 52.3053 27.0196 -21.9244
  1052 52.7793 26.8297 21.9243
  1053 9.06601 0.476288 4.03050
  1054 9.50170 0.559208 -3.74356
  1055 76.9968 -2.02004 4.78588
  1056 76.9248 -2.03250 -4.84002
  1057 202.862 53.4380 -128.531
  1058 1077.26 285.470 214.629
  1059 437.969 -15.9520 16.9032
  1060 393.878 -44.0849 -15.6781
  1061 275.148 -22.6363 -36.5780
  1062 -4.99569 6.26448 10.6913
  1063 -4.88957 6.29879 -10.6198
  1064 310.020 -16.3208 3.73755
  1065 341.271 -13.1341 0.951873
  1066 -0.145802 -24.9938 8.07720
  1067 -0.137332 -25.0200 -8.07549
  1068 52.5152 32.4221 -25.9100
  1069 53.1291 32.3665 26.0606
  1070 305.963 -15.0478 -3.58343
  1071 25.5565 11.2327 8.49718
  1072 25.3535 11.2469 -8.41421
  1073 465.519 -18.0004 63.4290
  1074 337.760 -34.8959 -31.8556
  1075 276.769 -22.9986 36.5783
  1076 444.213 -8.55615 -67.1925
  1077 465.804 -5.44609 6.50207
  1078 171.203 26.4680 78.5087
  1079 172.426 25.3254 -77.2185
  1080 274.627 -13.1524 -66.2111
  1081 386.819 -14.3142 -3.00462
  1082 315.734 -19.2906 6.50200
  1083 369.045 -34.5891 -3.06624
  1084 502.651 -1.92584 -3.76080
  1085 274.686 -12.9623 6.01291
  1086 274.568 -13.6805 -6.16084
  1087 9.83207 11.3617 8.19591
  1088 10.0581 11.4441 -8.06545
  1089 448.211 16.9180 -69.5376
  1090 102.567 5.02167 -29.7910
  1091 102.841 4.90958 29.7168
  1092 77.8037 1.36166 -21.5267
  1093 77.9725 1.31959 21.4933
  1094 507.632 -18.3784 95.8912
  1095 441.834 -20.3979 38.4591
  1096 218.227 -10.0708 -41.0693
  1097 510.120 -2.13255 -2.23769
  1098 576.423 109.423 -26.8030
  1099 464.772 -4.80460 -3.97301
  1100 437.434 -46.9242 12.1090
  1101 324.908 -24.4392 58.3451
  1102 512.988 -0.782087 0.344327
  1103 280.017 8.68288 -17.8366
  1104 371.593 -39.7289 -10.5905
  1105 218.584 -10.5227 40.6461
  1106 374.996 -34.2939 0.924613
  1107 465.684 -6.92101 12.6141
  1108 339.761 21.4846 27.6822
  1109 234.554 -17.3117 -32.9949
  1110 699.211 104.488 -46.4433
  1111 529.566 25.0318 56.3848
  1112 399.865 49.9509 6.75149
  1113 508.196 -0.0712188 1.92153
  1114 204.195 -12.8546 -25.4832
  1115 139.054 87.3528 -129.439
  1116 247.662 7.01559 -93.3655
  1117 284.118 -22.0233 16.6172
  1118 240.618 -18.0847 31.0394
  1119 203.724 -12.2378 25.7289
  1120 426.742 4.04043 67.8476
  1121 322.021 -11.7330 -1.59057
  1122 501.581 -3.84618 5.15424
  1123 -3.69743 -0.0467796 15.6713
  1124 -3.63687 0.00536138 -15.6311
  1125 336.946 -10.1835 0.815213
  1126 0.141729 4.21722 13.9020
  1127 0.251535 4.28581 -13.8248
  1128 191.910 -6.26235 4.50359
  1129 191.920 -6.35569 -4.50854
  1130 474.204 -2.62815 11.9632
  1131 382.205 -23.7436 -4.81112
  1132 358.332 -19.5753 -0.451777
  1133 400.228 -28.2672 11.3714
  1134 123.628 62.1552 -97.0659
  1135 392.106 -15.3314 4.26705
  1136 61.3512 1.00274 -17.7212
  1137 61.5116 0.973525 17.7111
  1138 83.2188 54.0643 -68.9481
  1139 624.354 84.4140 14.9178
  1140 48.4644 -2.13877 10.3928
  1141 48.3115 -2.12168 -10.4069
  1142 84.7124 53.2769 66.6668
  1143 359.843 -30.3351 -1.89093
  1144 184.874 -8.79317 10.0278
  1145 184.899 -8.83111 -10.1771
  1146 729.373 154.991 -43.3470
  1147 395.945 -39.6801 0.465068
  1148 137.026 81.9045 129.197
  1149 12.0687 -0.302196 -12.0528
  1150 12.9763 -0.145433 13.1154
  1151 420.212 52.6580 33.9945
  1152 32.7352 17.2181 -8.75633
  1153 32.9922 17.2247 8.83191
  1154 398.506 -34.7974 -8.38988
  1155 -0.177123 -38.4681 -7.51580
  1156 -0.195145 -38.4716 7.55007
  1157 425.645 -35.9568 -20.8206
  1158 -2.45921 0.501604 3.44571
  1159 -2.68074 0.504892 -3.45265
  1160 66.9787 24.6332 -27.8302
  1161 67.3390 24.7409 27.5942
  1162 -18.6771 0.0417703 -4.22002
  1163 -18.4498 0.0402148 4.22464
  1164 423.947 -5.22322 -0.354590
  1165 -41.3142 1.25118 0.424277
  1166 -41.1965 1.25062 -0.395938
  1167 227.072 -17.9320 -24.6882
  1168 6.12993 -52.2660 -6.68987
  1169 116.725 -3.36197 7.57125
  1170 116.677 -3.37286 -7.64777
  1171 361.581 -7.55222 0.648376
  1172 362.260 -7.37392 -0.578852
  1173 6.58514 -49.6533 8.00796
  1174 428.230 -22.6023 -21.0328
  1175 487.438 -2.39985 8.70671
  1176 435.273 -27.9788 -31.2746
  1177 383.197 2.97387 53.3147
  1178 2.19875 -14.6548 11.1240
  1179 2.38629 -14.5367 -10.9297
  1180 280.245 -20.6255 13.4538
  1181 -18.7143 1.81800 10.1210
  1182 -18.6795 1.83322 -10.0899
  1183 719.916 114.047 8.00856
  1184 833.371 268.899 -189.010
  1185 444.866 -43.0275 25.9951
  1186 187.177 -5.67699 -0.704790
  1187 187.192 -5.61207 0.705442
  1188 901.604 87.5518 -81.1170
  1189 69.0294 -1.77865 10.7831
  1190 68.9039 -1.75231 -10.8201
  1191 417.558 -1.35869 -21.0232
  1192 268.973 -21.8475 27.8601
  1193 440.022 -42.9381 -18.2642
  1194 426.047 -31.0793 -23.9482
  1195 261.762 -9.04783 69.3393
  1196 98.5109 18.0952 -37.8235
  1197 98.4634 17.9355 37.6204
  1198 128.787 47.9452 -82.7200
  1199 128.971 44.4068 82.7281
  1200 38.3203 10.6648 -13.6519
  1201 38.5413 10.6340 13.7309
  1202 526.532 91.5591 -38.4290
  1203 28.1825 25.9666 -12.7806
  1204 28.8219 26.0097 12.9742
  1205 379.566 -29.3398 3.70684
  1206 702.296 108.321 51.7737
  1207 94.3932 -3.88739 -7.46441
  1208 94.4669 -3.88625 7.39691
  1209 453.488 330.486 -276.695
  1210 359.309 21.4291 -42.6582
  1211 331.243 25.2816 17.4588
  1212 46.9873 19.3027 -16.1208
  1213 47.2071 19.3046 16.2059
  1214 14.2376 -0.0999125 2.51475
  1215 14.0839 -0.0997627 -2.53503
  1216 419.974 -33.8246 19.3986
  1217 412.651 -16.9712 10.0226
  1218 283.159 83.0897 -199.971
  1219 649.912 142.222 -9.54283
  1220 281.362 -8.28307 -76.1949
  1221 363.134 -11.7685 -0.155755
  1222 24.1689 -1.78116 -0.563586
  1223 24.2190 -1.77976 0.560411
  1224 -7.31560 2.85598 -6.03644
  1225 -7.13572 2.84442 6.07996
  1226 245.056 2.90587 -80.0279
  1227 447.055 -10.2427 11.7028
  1228 292.588 6.02081 108.627
  1229 394.913 -19.9625 -7.15409
  1230 205.120 74.5167 -158.098
  1231 317.804 -15.0402 -82.1425
  1232 377.827 -40.3354 8.48432
  1233 461.041 -7.51920 19.3383
  1234 404.522 -9.08019 -2.37341
  1235 226.143 -16.8514 24.8223
  1236 507.100 -27.6228 -34.0494
  1237 483.260 42.4925 65.3805
  1238 212.079 1.04516 -63.5853
  1239 477.166 -3.39474 1.35036
  1240 390.156 48.3682 -9.64797
  1241 170.923 -6.12674 -7.41192
  1242 170.897 -6.06604 7.33676
  1243 730.618 173.211 46.5397
  1244 990.964 26.3183 45.8192
  1245 0.928464 -46.8734 -7.44304
  1246 0.899259 -46.9236 7.50128
  1247 110.246 59.0046 90.9840
  1248 262.005 -8.12880 -1.74512
  1249 262.061 -8.08332 1.84072
  1250 356.761 -35.9805 -11.2664
  1251 427.163 35.2758 58.6996
  1252 443.279 -9.22239 -7.30460
  1253 512.213 -1.52862 -0.485251
  1254 886.113 197.943 -125.589
  1255 142.852 -5.45792 7.75164
  1256 142.832 -5.46888 -7.84431
  1257 426.089 -39.5363 19.7540
  1258 742.746 186.236 -61.1879
  1259 412.974 -18.4532 -11.3718
  1260 303.362 -21.4044 -9.70179
  1261 371.297 -40.2717 20.0153
  1262 363.024 -18.6282 1.28038
  1263 13.9419 5.98695 -18.5020
  1264 494.938 -29.3793 41.2813
  1265 401.706 -26.5890 -11.1289
  1266 15.3298 6.68245 20.3191
  1267 412.647 -32.0986 -77.3432
  1268 389.688 26.1038 -163.638
  1269 639.394 84.2531 -8.58451
  1270 514.115 -0.551705 -0.145706
  1271 513.245 -1.02352 0.441430
  1272 408.484 -24.1778 12.3086
  1273 159.383 18.9923 -62.7145
  1274 464.959 -40.9483 33.0962
  1275 786.360 180.715 84.7813
  1276 197.005 69.0401 154.124
  1277 5.88227 1.42775 11.1852
  1278 6.08949 1.53083 -11.0422
  1279 487.411 -38.2463 -42.9023
  1280 199.540 -11.0667 -11.9666
  1281 199.511 -11.0958 11.7678
  1282 455.398 -29.7544 52.1666
  1283 19.5277 0.0814101 11.2718
  1284 19.3430 0.0903334 -11.2661
  1285 -2.40646 -9.39149 13.1048
  1286 -2.38959 -9.37132 -13.1077
  1287 84.8037 -2.90308 -9.83165
  1288 84.9005 -2.91990 9.77387
  1289 241.417 -16.1776 -37.3503
  1290 243.530 -8.43125 2.48994
  1291 243.520 -8.60363 -2.39992
  1292 512.507 -0.536835 0.159107
  1293 458.457 -7.24035 -21.8094
  1294 39.9635 1.62660 -14.2718
  1295 40.1424 1.60077 14.2796
  1296 242.377 -17.1015 37.0756
  1297 517.147 -0.656049 0.227897
  1298 489.424 -0.810782 -0.557574
  1299 489.389 -1.10689 0.436442
  1300 649.093 138.753 2.90923
  1301 477.696 -3.64746 -3.16660
  1302 425.206 -4.96497 0.205170
  1303 470.917 -7.45143 -11.1483
  1304 510.117 -1.81006 1.48162
  1305 535.676 56.1960 55.8617
  1306 619.831 129.859 11.6976
  1307 496.990 -2.11529 -5.71910
  1308 -4.15222 -1.03928 3.71667
  1309 -4.16900 -1.03856 -3.72823
  1310 279.219 -17.9274 9.45640
  1311 279.167 -17.1573 -9.20557
  1312 540.522 62.2359 -52.9264
  1313 114.456 39.6001 -68.6428
  1314 115.192 38.5337 67.9251
  1315 368.617 0.0784733 -26.6684
  1316 375.323 -6.69097 -0.541244
  1317 374.865 -6.64248 0.462561
  1318 -8.89231 -1.39021 13.3142
  1319 -8.87615 -1.36558 -13.3095
  1320 418.781 -1.09713 20.9826
  1321 633.530 125.892 -3.40368
  1322 49.2339 -1.73992 -6.19157
  1323 49.3561 -1.74393 6.14627
  1324 467.800 -44.4713 16.9002
  1325 1.43678 8.09721 10.7798
  1326 1.57446 8.14601 -10.6906
  1327 90.8368 -2.06609 -2.10269
  1328 90.8791 -2.03569 2.07232
  1329 368.699 -0.480388 27.0796
  1330 19.9516 0.765871 -0.962494
  1331 20.0328 0.768806 0.947144
  1332 474.528 -5.85230 7.05906
  1333 662.927 120.253 7.11488
</Section>

newXOutput 61

<Section columns = "stress_xx | stress_yy | stress_xy">
  1 533.253 -1.52354 0.972746
  2 534.061 -1.91573 -1.26289
  3 15.3242 0.491599 -1.36352
  4 -0.399221 -0.596366 -0.400830
  5 967.648 399.095 320.023
  6 982.545 455.950 -323.213
  7 -0.394946 -0.592610 0.395301
  8 15.2733 0.488821 1.36036
  9 536.802 -1.08671 -0.882724
  10 532.990 -1.93570 -1.29312
  11 533.478 -1.53073 1.11312
  12 531.053 -0.886466 0.424647
  13 530.162 -1.82055 -0.419262
  14 529.578 -1.76037 1.96862
  15 522.335 -1.28064 1.83070
  16 524.581 -3.81635 2.89322
  17 508.918 -3.19467 6.33808
  18 499.116 -1.47966 7.64004
  19 485.489 -1.77358 8.27559
  20 461.623 -1.57638 11.6700
  21 435.477 -1.31873 13.6081
  22 402.668 1.74475 18.7546
  23 357.561 2.71096 17.0272
  24 339.355 -0.0837150 24.4329
  25 282.797 4.01391 17.4129
  26 248.243 5.24131 13.6786
  27 239.235 2.65191 10.0990
  28 229.580 7.68427 0.758823
  29 234.878 8.25119 -13.5151
  30 245.463 2.41267 -16.9545
  31 287.922 1.12080 -22.5937
  32 330.575 -2.08595 -23.3723
  33 359.172 2.25024 -16.9921
  34 403.143 1.98103 -18.7531
  35 434.383 -1.55892 -14.5937
  36 464.225 -1.75609 -10.9992
  37 483.635 -1.31303 -8.40935
  38 497.645 -1.57709 -6.98469
  39 512.720 -1.86553 -4.01232
  40 518.436 -1.94887 -3.81371
  41 524.048 -1.83588 -3.37828
  42 529.715 -2.07925 -0.581978
  43 531.831 -2.61763 -1.35460
  44 528.656 0.0324754 0.00256280
  45 532.856 -1.41104 -1.26804
  46 534.965 -2.80453 1.41011
  47 537.434 -1.63006 -0.0561988
  48 511.101 0.0960712 -0.805874
  49 481.529 -2.39981 -1.50148
  50 447.949 -5.17064 -2.11598
  51 413.109 -4.48843 -1.52920
  52 382.644 -6.94957 -1.40266
  53 350.431 -7.50298 -1.26914
  54 317.891 -6.61171 -0.587765
  55 283.619 -7.01483 -0.829271
  56 254.609 -7.36195 -1.10826
  57 215.974 -6.98946 -0.885409
  58 176.195 -4.44725 -0.566797
  59 143.287 -2.86899 -0.441256
  60 102.653 -1.80717 -0.143958
  61 73.1544 -1.69839 -2.00197
  62 45.7769 -2.27381 -0.639782
  63 18.1522 0.255492 1.28239
  64 10.8943 1.92012 0.535881
  65 8.74779 0.777002 1.37500
  66 9.55478 0.349490 1.38605
  67 3.57305 1.10241 0.698454
  68 1.12002 1.44934 2.85628
  69 -0.199686 0.512131 1.15316
  70 -10.2819 1.08495 1.25089
  71 -15.1847 0.740961 2.77570
  72 -17.4781 0.236925 2.93305
  73 -28.6892 1.01056 2.36971
  74 -33.1174 1.52165 4.29359
  75 -38.1909 0.923541 1.74577
  76 -43.8261 0.675761 2.43267
  77 -46.4580 0.717400 1.12663
  78 -52.0471 1.76716 -0.935725
  79 -53.0667 1.21048 -0.680469
  80 -48.7013 0.905536 -1.51663
  81 -42.0678 1.20396 -3.09996
  82 -34.4003 0.549478 -4.86399
  83 -25.7848 0.308654 -5.12524
  84 -15.5320 -0.500444 -5.40275
  85 -6.81681 -0.406120 -3.18407
  86 -2.87948 -1.11831 -1.99971
  87 -0.469067 -2.88250 -1.74162
  88 -0.778084 -7.36554 -3.06627
  89 -0.891284 -14.2761 -5.34084
  90 -0.155703 -26.6530 -5.72492
  91 0.341441 -36.6861 -7.14443
  92 0.772046 -52.6362 -5.80752
  93 2.31674 -62.2216 -6.80187
  94 0.440641 -66.4592 -5.47672
  95 -0.0568264 -75.5849 -3.01535
  96 2.14013 -72.0203 -0.147105
  97 8.74167 -92.8230 4.95313
  98 8.05917 -45.7665 15.0586
  99 18.8941 -13.0118 32.1677
  100 55.8600 104.868 96.4658
  101 232.322 318.625 265.977
  102 1267.37 137.213 187.351
  103 1065.11 37.7864 67.2696
  104 1015.05 16.1170 23.1159
  105 987.483 10.5088 -0.128425
  106 1005.14 15.3509 -19.0304
  107 1074.75 32.2506 -55.6135
  108 1254.15 108.577 -174.135
  109 151.065 360.831 -220.117
  110 39.2970 80.3445 -75.0397
  111 13.9498 -22.2401 -26.9580
  112 7.30725 -51.1761 -13.0934
  113 8.68981 -96.6850 -4.00394
  114 2.04264 -73.7271 0.815073
  115 -0.183493 -76.4363 3.36284
  116 0.360141 -66.7856 5.66265
  117 2.27268 -62.2948 6.88019
  118 0.755140 -52.6028 5.83625
  119 0.328675 -36.6314 7.15444
  120 -0.161940 -26.5851 5.72110
  121 -0.892025 -14.2330 5.32914
  122 -0.779764 -7.32863 3.05540
  123 -0.468716 -2.86866 1.73205
  124 -2.86287 -1.11670 1.99168
  125 -6.78726 -0.407970 3.17537
  126 -15.4938 -0.504838 5.39743
  127 -25.7406 0.303773 5.12627
  128 -34.3752 0.544141 4.87318
  129 -42.0774 1.20013 3.11815
  130 -48.7467 0.905215 1.53628
  131 -53.1585 1.20934 0.699684
  132 -52.1775 1.76690 0.955756
  133 -46.6324 0.719244 -1.10909
  134 -44.0336 0.678029 -2.41959
  135 -38.4149 0.926144 -1.73533
  136 -33.3606 1.52475 -4.28913
  137 -28.9395 1.01348 -2.36597
  138 -17.7257 0.238705 -2.93340
  139 -15.4336 0.744049 -2.77935
  140 -10.5200 1.08928 -1.25642
  141 -0.410401 0.514997 -1.16380
  142 0.936801 1.45232 -2.87234
  143 3.41442 1.10325 -0.712643
  144 9.43417 0.348934 -1.39990
  145 8.65514 0.775633 -1.38615
  146 10.8204 1.91775 -0.545541
  147 18.0947 0.253888 -1.28807
  148 45.7246 -2.28218 0.634011
  149 73.1065 -1.71928 1.99568
  150 102.617 -1.84418 0.135571
  151 143.266 -2.92250 0.436940
  152 176.177 -4.50923 0.566188
  153 215.946 -7.04293 0.893944
  154 254.544 -7.38810 1.12595
  155 283.515 -6.98019 0.870939
  156 317.747 -6.48750 0.635459
  157 350.234 -7.21141 1.19757
  158 382.812 -7.03434 1.22799
  159 413.236 -5.00751 1.61586
  160 448.296 -5.07575 1.92027
  161 482.469 -2.12363 1.52244
  162 510.299 0.0645503 0.784702
  163 300.830 -27.2139 -26.5888
  164 299.644 -27.7106 26.5250
  165 91.8398 25.1511 -37.9000
  166 92.7404 25.2403 37.7445
  167 353.747 -16.2682 93.5130
  168 370.595 -18.4419 -91.0400
  169 176.419 -9.39557 12.4057
  170 176.394 -9.30447 -12.5684
  171 377.604 -13.7821 1.01900
  172 370.187 -13.8209 -0.880465
  173 505.382 90.7772 -12.0856
  174 510.278 4.46154 -61.6263
  175 500.436 8.27845 66.6380
  176 123.261 -4.74052 -25.6066
  177 123.275 -4.70742 25.5606
  178 441.087 -43.5591 20.6787
  179 440.710 -33.9361 -30.2122
  180 6.74689 10.7425 9.84295
  181 6.93026 10.8109 -9.73355
  182 602.575 122.994 16.3630
  183 117.932 53.1480 -84.1147
  184 126.415 53.6298 90.0540
  185 426.378 -20.2966 13.7216
  186 638.887 135.008 -5.29753
  187 278.425 -10.5925 -3.94436
  188 277.987 -10.8535 3.91695
  189 438.009 -14.2555 -12.6154
  190 581.393 -1.55744 -11.7498
  191 112.468 -3.39850 4.80768
  192 112.426 -3.42642 -4.86945
  193 48.7327 5.88689 -17.5379
  194 48.9495 5.82656 17.5792
  195 248.377 -9.43623 -59.2174
  196 247.411 -9.94400 59.9677
  197 296.147 -19.5543 -10.0003
  198 296.733 -19.4452 10.5742
  199 80.4804 -2.81023 13.7350
  200 80.3619 -2.77316 -13.7622
  201 574.913 -7.86049 41.2116
  202 471.924 -45.9561 -6.83798
  203 447.201 -5.12945 -1.72710
  204 437.477 -6.15346 1.72969
  205 448.491 52.7487 47.4941
  206 19.8044 17.7000 -7.69795
  207 20.5031 17.6717 8.00951
  208 445.330 -17.7596 55.1918
  209 412.473 31.6723 -54.6883
  210 291.442 68.1369 -189.785
  211 306.463 57.6037 176.418
  212 9.15931 9.96508 -2.12968
  213 9.33539 9.96382 2.21464
  214 444.031 -15.6177 -57.0943
  215 766.199 106.907 -7.53150
  216 368.948 -40.0197 34.7974
  217 371.666 -39.8059 -33.0139
  218 368.720 -26.6747 -0.460744
  219 454.745 -7.71088 6.58894
  220 223.633 -15.4803 -22.6623
  221 220.205 -15.4211 23.3183
  222 135.410 2.63703 -38.2759
  223 135.607 2.58661 37.9689
  224 467.538 -48.7764 -8.02956
  225 365.709 -28.3260 -1.12908
  226 453.085 -7.55732 -5.03956
  227 354.717 -9.80345 -0.431505
  228 357.732 -9.19351 1.08966
  229 448.657 -20.1909 31.2402
  230 41.8967 0.298745 -14.6688
  231 42.0681 0.280689 14.6692
  232 -5.47494 -3.60921 -15.0490
  233 -5.50400 -3.64562 15.0609
  234 73.3796 -3.09219 -8.01103
  235 73.4821 -3.09963 7.95246
  236 193.239 -6.03337 5.55273
  237 193.278 -6.13297 -5.59211
  238 220.333 15.4922 -85.8737
  239 220.361 12.9608 84.9195
  240 454.783 -14.4124 -26.7303
  241 216.399 -12.7111 -36.3137
  242 216.589 -13.0948 35.8301
  243 404.486 6.45768 61.9933
  244 356.481 30.5338 3.76392
  245 391.199 -39.0709 0.668852
  246 1.99898 -8.81619 -13.2651
  247 1.86735 -8.92146 13.3792
  248 26.0261 28.3096 -30.2405
  249 27.6594 27.4129 31.6809
  250 384.756 -38.2349 -3.20690
  251 688.574 132.608 -14.5885
  252 37.5280 25.0811 -13.5639
  253 37.9675 25.0740 13.7106
  254 -14.1057 3.34384 9.91767
  255 -14.0299 3.36129 -9.86498
  256 691.642 124.705 18.6364
  257 246.271 -12.1960 -9.30828
  258 246.090 -12.0101 9.14463
  259 476.876 -31.7353 50.2078
  260 853.651 139.139 87.2161
  261 146.166 -7.76988 -21.1360
  262 146.145 -7.82450 21.1190
  263 488.614 73.2712 -44.9841
  264 824.784 157.184 -80.1367
  265 579.658 59.7743 41.0922
  266 625.414 44.3108 -121.055
  267 390.945 -19.0108 4.49700
  268 446.291 2.55822 -69.0917
  269 421.009 -29.9794 -16.5886
  270 468.028 -8.69773 16.8129
  271 2.09562 4.50941 -5.82768
  272 2.27281 4.49556 5.88878
  273 463.061 -13.5003 -116.426
  274 52.1608 15.5057 -17.8674
  275 52.4055 15.4795 17.9608
  276 450.543 -10.9481 -34.7589
  277 66.0375 70.8435 -87.5317
  278 59.4826 -0.298984 -1.87029
  279 59.5429 -0.287328 1.84472
  280 475.284 -29.0224 -52.5181
  281 85.6050 38.4542 -47.5209
  282 86.8274 38.2560 47.6553
  283 28.0765 -0.790250 10.2027
  284 27.8954 -0.780925 -10.2081
  285 390.343 -18.1035 -4.40267
  286 66.5051 70.1099 89.8010
  287 614.926 52.6752 141.208
  288 173.687 -7.05844 -7.62671
  289 173.662 -7.01630 7.52951
  290 313.405 -13.5578 -3.87118
  291 313.256 -14.6155 4.24128
  292 267.533 26.5963 -129.303
  293 429.105 -46.7889 -4.44637
  294 485.602 -3.42260 2.85409
  295 257.797 26.6472 125.220
  296 300.338 -8.80491 -1.34126
  297 300.226 -8.80011 1.59285
  298 421.709 -31.1563 16.8910
  299 482.217 -5.49431 -7.69698
  300 -0.556330 1.78024 -8.14948
  301 -0.359810 1.76687 8.17924
  302 609.140 120.651 -4.11118
  303 531.579 -23.5525 24.8717
  304 478.259 -3.02656 -0.677610
  305 486.375 -2.64756 0.614191
  306 479.036 -41.0114 43.7311
  307 590.590 63.8019 -37.6838
  308 519.966 96.5446 25.3802
  309 235.366 -14.6877 -14.5901
  310 233.283 -14.9485 14.8522
  311 484.958 -3.35751 -1.80008
  312 321.683 -24.0050 -64.7658
  313 316.862 -25.2973 12.6000
  314 302.030 -16.1524 73.5379
  315 478.359 -6.14145 9.27342
  316 113.064 -5.18658 -13.2646
  317 113.144 -5.22386 13.2118
  318 441.689 -13.0827 115.039
  319 283.194 -22.6347 -18.1589
  320 518.075 67.1412 55.9952
  321 167.199 11.6950 -56.3283
  322 161.084 12.2350 55.8927
  323 53.2703 -1.04932 -3.39026
  324 53.3594 -1.04262 3.34964
  325 423.363 -9.26859 3.48235
  326 406.189 -6.59250 0.268848
  327 403.961 -7.14548 -0.402185
  328 447.412 -11.5223 36.8738
  329 43.0928 -1.49032 7.68459
  330 42.9369 -1.47680 -7.71609
  331 134.630 -3.31159 -2.81895
  332 134.648 -3.26085 2.79194
  333 4.53011 -18.9352 -6.84438
  334 4.24587 -19.1000 7.18306
  335 352.649 15.3875 42.2352
  336 536.617 -21.7554 -19.4559
  337 349.362 -19.1275 -0.311707
  338 393.562 -8.72417 -1.43598
  339 416.241 51.6256 -25.6250
  340 84.2202 -2.73685 -19.0630
  341 84.3329 -2.73931 19.0500
  342 339.904 -18.0802 2.04640
  343 98.8552 3.13175 -27.3052
  344 99.0453 3.04881 27.2292
  345 20.0435 16.1160 -1.49476
  346 20.2761 16.1152 1.59489
  347 411.876 -43.6563 44.2688
  348 901.303 59.3185 23.1863
  349 370.892 5.84808 -49.9460
  350 307.972 -27.5611 40.5049
  351 306.410 -26.9908 -41.6755
  352 453.222 -7.26481 68.2594
  353 404.886 -2.76920 49.1472
  354 406.626 -42.2053 -45.6228
  355 244.981 -6.76997 0.748719
  356 244.941 -6.84108 -0.689146
  357 449.807 -29.3060 40.9893
  358 616.048 122.143 1.62404
  359 481.030 -5.78799 -12.4196
  360 128.192 -4.96411 -9.70556
  361 128.251 -4.96887 9.61730
  362 453.784 -42.0639 -54.6022
  363 479.098 34.0066 -67.7918
  364 326.097 17.5263 -27.1631
  365 453.090 -30.0762 -47.1269
  366 -14.5450 0.615887 -11.5871
  367 -14.5607 0.597385 11.6020
  368 380.498 -9.83053 0.468361
  369 -5.40410 -3.20305 -7.05385
  370 -5.39712 -3.20392 7.03870
  371 293.017 152.117 -230.123
  372 12.5546 11.3603 6.12334
  373 12.8507 11.4475 -5.96422
  374 401.932 -2.92153 -48.7496
  375 223.102 -9.86849 7.03496
  376 223.252 -9.99321 -7.10333
  377 -1.39097 -15.7500 13.2181
  378 -1.36640 -15.7214 -13.2050
  379 239.009 159.239 216.946
  380 183.174 -9.86724 -28.5853
  381 183.324 -9.45803 28.6072
  382 59.0203 43.9943 -44.2310
  383 60.2371 43.8876 43.9919
  384 -21.4241 3.52590 3.61041
  385 -21.3197 3.53183 -3.55338
  386 462.780 31.3034 68.1619
  387 354.503 -37.1171 20.3515
  388 354.883 -32.5697 9.17704
  389 428.584 -48.3499 -8.48471
  390 109.940 13.4830 -37.5922
  391 110.307 13.4617 37.5412
  392 9.97761 -11.7419 2.44857
  393 9.45489 -11.9696 -1.70310
  394 437.945 62.3828 16.7592
  395 436.300 -13.0932 10.1912
  396 252.540 -19.7520 26.5716
  397 157.711 -4.12597 -33.9939
  398 157.778 -4.15567 33.7565
  399 320.332 -10.4182 -1.89316
  400 319.997 -9.24605 1.62200
  401 250.451 -20.2669 -28.1037
  402 196.549 -3.42829 -45.5746
  403 196.528 -3.69571 45.9290
  404 455.457 -41.4878 -27.5232
  405 267.001 -20.8062 17.1692
  406 414.098 -13.3166 5.61521
  407 413.269 -12.2210 -4.55635
  408 348.457 -32.3417 -10.4062
  409 495.031 -2.62192 -3.04635
  410 169.327 69.8138 -131.680
  411 468.269 -7.03247 20.9511
  412 493.845 -3.01544 4.70732
  413 180.603 -9.83333 17.5014
  414 180.671 -9.70291 -17.4885
  415 352.925 -36.6768 -20.9569
  416 52.2214 22.7806 19.2820
  417 51.9445 22.7625 -19.2940
  418 910.275 59.2742 -47.2666
  419 406.397 -23.6934 -8.86032
  420 497.945 -2.20862 1.75318
  421 160.085 65.3422 125.603
  422 737.533 123.876 25.0801
  423 434.446 -7.35436 -2.72901
  424 327.440 -24.1598 -8.27533
  425 138.321 26.6804 -63.5041
  426 147.282 24.7087 63.1237
  427 401.687 -25.9036 8.85844
  428 427.565 -5.47434 -35.9731
  429 0.500592 -0.427331 7.67985
  430 0.292438 -0.422885 -7.67364
  431 155.880 37.7836 -84.5728
  432 156.378 37.9165 84.3186
  433 20.3841 8.58745 -8.74143
  434 20.5803 8.56952 8.81766
  435 360.686 -7.84301 0.376969
  436 360.254 -7.66190 -0.258505
  437 448.073 -20.6266 -32.6990
  438 -0.826829 -0.784106 15.8655
  439 -0.746207 -0.711571 -15.8054
  440 461.253 -45.0725 23.5838
  441 435.680 -12.2983 -8.91069
  442 703.190 134.427 -23.0895
  443 33.6417 -1.31576 3.67894
  444 33.5038 -1.31599 -3.71412
  445 841.223 241.422 110.996
  446 17.6904 11.9176 -27.3837
  447 55.7856 2.44671 -18.6907
  448 55.9677 2.40592 18.6916
  449 839.715 247.222 -107.799
  450 18.7506 13.8150 29.9471
  451 -20.1765 2.67238 0.454213
  452 -20.0411 2.66840 -0.399877
  453 48.8410 33.4776 -26.6151
  454 49.6655 33.4982 26.7542
  455 552.137 87.4048 -45.0423
  456 442.618 -17.7109 -20.6275
  457 495.401 -2.28836 -1.51061
  458 462.695 -7.25253 -24.6954
  459 -4.82071 3.70946 14.4508
  460 -4.73849 3.75643 -14.3938
  461 447.275 -18.3810 24.2649
  462 292.984 -16.9809 -8.01299
  463 292.108 -17.1456 7.05487
  464 395.356 -43.5011 -9.16268
  465 283.355 -3.43938 -89.7288
  466 431.583 -6.56253 36.7120
  467 352.492 -12.1796 0.952418
  468 514.806 -37.1248 -9.82110
  469 274.593 3.03763 96.0871
  470 25.5245 -0.443949 7.41464
  471 25.3394 -0.435739 -7.42871
  472 567.939 112.171 -19.4803
  473 451.178 -4.09637 0.0452107
  474 449.668 -4.54529 -0.445173
  475 343.565 -23.4100 4.31020
  476 153.916 -5.35067 -5.50446
  477 153.915 -5.29173 5.44415
  478 91.6540 -1.23235 -22.5634
  479 91.7650 -1.25028 22.5244
  480 295.224 11.4175 16.2840
  481 77.1548 -2.54882 10.9920
  482 77.0410 -2.52519 -11.0418
  483 80.3065 7.37955 25.4751
  484 80.0421 7.48881 -25.4510
  485 439.930 -34.1114 28.9673
  486 248.581 -15.5076 -42.9723
  487 230.430 -7.90429 3.79968
  488 230.507 -8.08351 -3.80426
  489 251.170 -15.9874 42.9694
  490 684.707 164.066 -18.7257
  491 -10.9375 -1.60671 -9.07704
  492 -10.9309 -1.61542 9.07140
  493 176.818 -5.21984 -2.31527
  494 176.823 -5.14700 2.30694
  495 0.290790 -28.8817 -10.7842
  496 0.218785 -28.9770 10.8825
  497 401.105 -6.85948 0.665027
  498 293.557 13.8224 -8.09406
  499 389.679 40.7315 23.1224
  500 246.751 -2.16587 -71.9549
  501 123.895 -6.37286 16.6076
  502 123.873 -6.31977 -16.6323
  503 -28.3029 0.954916 -2.86338
  504 -28.1160 0.949012 2.88879
  505 475.545 -8.21779 -67.2047
  506 44.0899 0.193291 -2.45062
  507 44.1681 0.199288 2.42138
  508 395.872 -31.5070 -6.53775
  509 421.509 -36.0494 -15.7003
  510 88.0634 68.5449 -90.3027
  511 354.387 11.1739 -139.917
  512 5.77591 11.0097 5.95715
  513 5.94795 11.0341 -5.86084
  514 219.835 -10.4927 -9.92469
  515 219.733 -10.4029 9.73500
  516 605.010 28.2849 -9.00687
  517 438.040 -26.1152 -26.3892
  518 85.8973 65.0052 89.0769
  519 433.919 -48.6743 15.2776
  520 417.699 -39.7462 11.4696
  521 93.8861 -2.28507 -7.24271
  522 93.9524 -2.27665 7.17722
  523 348.631 3.94443 38.7211
  524 250.721 -18.7179 -18.0386
  525 460.781 -10.7166 14.9358
  526 -1.84061 -11.2141 -8.83969
  527 -1.84516 -11.2046 8.82627
  528 325.396 -28.5753 48.0789
  529 491.939 -36.8075 -32.8502
  530 637.864 48.5409 -27.9431
  531 348.372 -12.5793 -0.863784
  532 108.487 -2.07311 -2.08811
  533 108.520 -2.03603 2.07014
  534 222.287 1.98015 69.4129
  535 612.335 104.732 27.6270
  536 615.944 130.471 -219.800
  537 557.631 5.01322 30.2111
  538 403.063 -44.6546 7.05155
  539 937.875 74.6705 63.5031
  540 700.189 172.370 25.8592
  541 103.491 -4.35470 18.0940
  542 103.408 -4.31221 -18.1202
  543 387.722 -32.4156 4.08970
  544 30.8848 14.1140 -8.39372
  545 31.1073 14.1075 8.48327
  546 485.974 -39.6707 32.9396
  547 402.118 21.9968 56.9027
  548 487.964 -3.39606 8.38408
  549 363.232 -22.3107 0.796256
  550 504.630 7.55022 -147.486
  551 794.820 213.804 147.520
  552 392.479 -8.53445 -0.464671
  553 480.027 -5.15356 -13.7424
  554 78.0163 32.2825 -35.9677
  555 78.5762 31.8977 35.8195
  556 277.774 -11.7074 -5.32837
  557 277.652 -11.4463 5.42015
  558 3.46744 -32.0336 -5.21000
  559 491.173 -16.7181 59.2296
  560 20.1168 17.7903 0.313698
  561 20.4189 17.8408 -0.170022
  562 4.02901 -30.8283 6.26410
  563 447.834 -20.3219 -48.4491
  564 514.896 33.4965 -64.0427
  565 513.245 37.8749 64.1041
  566 25.6641 23.2593 20.6305
  567 24.4134 23.7549 -20.2209
  568 -10.8746 0.441708 5.86206
  569 -11.0871 0.446491 -5.85025
  570 470.674 14.9313 151.876
  571 261.551 -14.8684 10.1670
  572 261.806 -14.8167 -10.3317
  573 566.526 -7.04763 -79.7909
  574 79.2614 -1.11443 4.19533
  575 79.2021 -1.13098 -4.23932
  576 40.4091 -0.907361 -0.975678
  577 40.4669 -0.901445 0.965418
  578 624.293 115.776 -21.1787
  579 60.7343 95.6903 -99.2017
  580 334.136 6.87213 -32.8465
  581 466.859 74.3869 -28.3794
  582 7.38762 0.924330 8.96018
  583 7.67039 1.02864 -8.77057
  584 462.908 223.647 257.256
  585 398.493 -11.8218 -2.62696
  586 16.7081 4.04571 -10.1334
  587 16.9017 4.01658 10.1812
  588 460.534 -36.7350 40.5663
  589 71.6902 92.8648 101.011
  590 333.244 -7.79417 0.620919
  591 333.337 -7.73517 -0.622184
  592 -0.261136 -23.1335 11.3615
  593 -0.225232 -23.0962 -11.3240
  594 567.726 110.089 -0.909157
  595 360.371 -28.4715 67.4720
  596 344.359 -15.3751 -1.63218
  597 345.649 17.3123 147.521
  598 -28.1620 1.52064 6.72596
  599 -28.1340 1.52890 -6.69736
  600 564.361 9.27363 -32.6426
  601 745.639 132.598 -106.766
  602 217.236 22.5753 -99.2379
  603 119.923 -5.09538 -21.9821
  604 120.040 -5.09730 21.9880
  605 508.638 -1.89406 2.20654
  606 341.051 -15.6893 1.22575
  607 453.596 -6.80651 4.73923
  608 447.836 -20.3558 47.2763
  609 24.1359 -0.756937 3.73686
  610 23.9700 -0.753778 -3.76280
  611 267.323 -9.84811 -3.13902
  612 267.289 -9.59750 3.05723
  613 167.874 3.57894 -46.9694
  614 166.817 3.62789 46.7771
  615 641.363 42.0406 42.9638
  616 1037.51 78.2185 -113.130
  617 -4.20910 -0.665398 5.09079
  618 -4.43052 -0.663262 -5.08874
  619 159.956 -6.84704 10.0925
  620 159.938 -6.83825 -10.2147
  621 599.349 35.2518 17.1996
  622 502.415 -2.14462 -0.699457
  623 501.347 -2.91839 0.247658
  624 370.979 0.0180590 38.3001
  625 527.180 -29.2320 -49.9239
  626 289.341 -23.9276 21.4785
  627 -5.47612 6.66706 -5.64869
  628 -5.60498 6.65599 5.72389
  629 462.203 9.95388 71.0698
  630 185.562 -10.7923 -23.0690
  631 185.395 -10.9679 23.1123
  632 375.906 -22.2418 -2.18552
  633 462.758 -10.5125 -13.4841
  634 266.872 -21.3554 -31.5834
  635 437.457 52.7966 -43.2228
  636 294.483 -20.1896 -55.2923
  637 112.136 -3.01708 -3.80947
  638 112.169 -2.98314 3.76410
  639 269.588 -21.7228 31.7355
  640 574.767 93.8771 39.6649
  641 458.093 -21.9588 59.6172
  642 375.009 -17.3098 2.23314
  643 270.144 -7.75701 1.88781
  644 270.076 -7.77189 -1.83730
  645 205.119 -7.94917 -7.26096
  646 205.050 -7.86792 7.19212
  647 440.410 -40.3109 -22.4145
  648 225.738 -13.0392 12.6605
  649 225.972 -12.9871 -12.8893
  650 445.182 68.4222 -5.76507
  651 407.065 -21.8537 9.05118
  652 506.182 -2.56490 -3.51725
  653 434.495 -7.70565 -62.8394
  654 66.1832 -2.87016 14.5468
  655 66.0488 -2.85019 -14.5566
  656 494.617 -2.95577 -7.61065
  657 90.3772 46.8756 -63.9879
  658 91.9091 46.7703 64.2979
  659 504.996 -28.9445 67.6628
  660 176.197 44.3966 104.524
  661 46.3115 -0.343474 14.5428
  662 46.1526 -0.333364 -14.5471
  663 431.035 -26.8446 86.5047
  664 423.474 63.5873 -200.052
  665 417.280 13.4471 -62.9180
  666 546.832 99.2253 34.7185
  667 368.699 -16.9713 -0.598351
  668 661.219 118.298 -2.87776
  669 -30.1633 1.52203 -1.97510
  670 -30.0058 1.51823 2.01051
  671 294.845 1.88286 -104.785
  672 26.0197 -0.448246 2.84885
  673 25.8949 -0.449352 -2.87586
  674 369.005 -30.6373 -66.7427
  675 124.367 16.9036 -45.4057
  676 123.400 16.9695 45.3858
  677 4.23876 6.22267 -3.62723
  678 4.41068 6.21511 3.70197
  679 314.628 -27.3775 -16.5741
  680 444.362 -4.38964 -24.0439
  681 214.421 -6.96439 -2.58105
  682 214.435 -6.89231 2.59952
  683 156.358 -8.08047 -14.9320
  684 156.485 -8.19033 14.8828
  685 30.0850 24.7199 -9.92218
  686 30.5721 24.7767 10.0893
  687 452.653 -5.98598 2.15887
  688 204.803 -13.1686 19.3698
  689 206.081 -12.9453 -19.3559
  690 501.990 -39.3292 -2.75278
  691 414.874 -41.7216 -6.96696
  692 327.164 -9.89365 -0.879065
  693 326.033 -9.27673 1.02990
  694 456.202 -47.5954 27.4936
  695 738.175 149.392 41.4299
  696 401.141 -16.8288 -106.783
  697 459.104 -13.0405 24.5679
  698 457.322 -16.6911 -64.1675
  699 146.117 -4.65438 -7.11287
  700 146.126 -4.62176 7.03218
  701 357.173 -5.13459 119.504
  702 983.671 126.815 116.109
  703 70.6508 20.2555 -26.7351
  704 70.7581 20.3924 26.8214
  705 451.032 -4.98044 -1.05792
  706 454.534 -4.50804 1.08729
  707 193.543 100.446 -168.446
  708 480.170 -2.79419 13.8010
  709 415.378 -7.79518 1.47371
  710 550.223 108.634 -12.6289
  711 58.3266 10.0475 -19.5442
  712 58.5774 9.98529 19.6159
  713 512.476 -1.49658 0.313778
  714 418.213 -16.6445 -9.07374
  715 521.084 -6.99225 51.0741
  716 216.151 -15.2328 -29.9211
  717 216.690 -14.5920 29.6573
  718 52.7563 -1.74465 11.0057
  719 52.6072 -1.72335 -11.0319
  720 470.960 -3.70436 -2.13538
  721 406.446 83.3833 211.978
  722 3.49593 3.83005 12.7989
  723 3.64899 3.92332 -12.6937
  724 472.590 -5.54171 -5.99652
  725 459.449 -8.91647 8.61677
  726 369.289 0.435787 -41.0785
  727 3.62186 -40.6447 -4.79702
  728 3.39437 -41.0588 5.21430
  729 169.555 45.8076 -104.559
  730 368.434 -36.6863 -48.7163
  731 192.317 99.4892 169.972
  732 506.231 -1.54356 1.26538
  733 494.279 74.1268 45.1274
  734 364.153 32.9405 -16.1277
  735 643.915 129.707 2.88769
  736 500.831 -2.35061 4.82581
  737 -27.6086 0.729147 4.17714
  738 -27.8158 0.733130 -4.16059
  739 534.041 -29.1239 17.3303
  740 347.695 -10.6660 -1.12950
  741 128.793 0.0589689 -32.6366
  742 128.967 -0.0668914 32.4638
  743 458.990 -5.90918 -3.25668
  744 808.276 114.293 -42.3301
  745 59.1783 -1.68269 -7.02341
  746 59.3056 -1.69232 6.97790
  747 509.781 -1.63215 -2.17240
  748 106.312 -4.72009 -9.77482
  749 106.389 -4.73666 9.70704
  750 501.919 -19.3465 -53.0001
  751 464.067 -4.96409 19.2358
  752 418.784 -2.49992 62.2832
  753 510.189 -1.69351 0.106238
  754 477.855 -4.09071 4.51674
  755 315.515 -17.4195 -4.71069
  756 393.478 -10.9895 1.78057
  757 447.657 -27.5841 -39.8796
  758 436.431 -27.6345 25.3386
  759 512.612 62.4933 -56.7302
  760 430.331 -24.4604 18.4299
  761 455.156 -26.8106 51.3887
  762 265.905 -18.2702 13.4205
  763 9.94163 -1.07022 0.435352
  764 9.43398 -1.10577 0.0462726
  765 397.953 -6.70308 -0.137971
  766 397.122 -6.66153 -0.00749211
  767 474.948 -2.64040 -0.200397
  768 476.545 -2.55098 0.308778
  769 455.255 -12.9260 30.3602
  770 420.002 -37.9639 63.2734
  771 346.254 -28.3697 7.06876
  772 308.191 -18.7957 7.03900
  773 824.014 105.386 48.7860
  774 459.469 -11.9835 -19.1550
  775 270.781 48.3353 -157.740
  776 427.505 -21.5088 -15.8283
  777 19.9350 0.297087 -10.6287
  778 20.1266 0.281476 10.6445
  779 386.639 33.9117 -36.1290
  780 956.226 29.0009 -12.3739
  781 482.288 12.9268 -69.2096
  782 19.7724 17.2463 -39.9538
  783 498.094 89.2667 11.4872
  784 387.007 -25.0158 4.32090
  785 435.976 -10.7088 60.9203
  786 366.598 -38.2557 48.9807
  787 581.374 -0.423980 97.4009
  788 21.2955 21.7094 42.5605
  789 266.206 -1.35309 82.1276
  790 369.909 -10.2123 -0.200438
  791 411.992 -36.3638 -64.0222
  792 255.128 -20.0282 -22.4735
  793 201.831 9.72859 -72.0756
  794 477.794 -6.98787 67.7932
  795 307.791 -21.3155 10.8491
  796 63.5177 -1.74171 6.19297
  797 63.4189 -1.74361 -6.24521
  798 445.716 -2.49739 21.2775
  799 406.249 2.24962 -60.6584
  800 -34.6624 1.62748 4.06610
  801 -34.6097 1.63069 -4.03458
  802 299.599 -9.96061 -1.82953
  803 298.754 -9.45658 1.73137
  804 222.754 25.2443 100.624
  805 200.167 -11.8731 14.7300
  806 200.431 -11.5924 -14.8702
  807 509.368 -1.24317 -1.12253
  808 181.964 14.4766 70.3171
  809 10.3371 -0.172625 3.94671
  810 10.1358 -0.168910 -3.96166
  811 440.460 -13.5542 46.9623
  812 466.958 -4.49749 1.64116
  813 -24.9636 0.343218 6.81048
  814 -24.9693 0.351500 -6.79666
  815 290.625 -18.0975 61.8710
  816 57.2859 48.9330 -54.6410
  817 57.9737 46.7785 53.8515
  818 280.516 12.3033 6.76103
  819 -0.811600 -0.322889 -4.51428
  820 -0.588215 -0.325768 4.51101
  821 333.511 -31.5297 -45.9468
  822 453.230 -47.2374 -12.3098
  823 -2.27925 -2.16219 -2.88146
  824 -2.27234 -2.15693 2.87060
  825 29.8481 0.745576 -0.956753
  826 29.9175 0.749790 0.941245
  827 403.735 -36.0810 7.75912
  828 340.787 -34.8175 32.6798
  829 376.263 -7.09636 0.495572
  830 339.956 -27.6974 -8.31273
  831 128.517 -2.26495 -0.791519
  832 128.542 -2.21625 0.780307
  833 -38.9463 0.837803 2.22723
  834 -38.8597 0.836775 -2.19607
  835 423.666 -6.19658 -1.36834
  836 380.102 15.1322 -51.7415
  837 428.616 -9.15689 -4.60224
  838 255.673 -19.7037 21.4703
  839 426.852 -7.38614 -49.8740
  840 454.745 -14.0281 -31.3585
  841 425.328 -5.42506 1.21165
  842 312.517 -11.5428 84.1758
  843 333.883 -32.7161 -19.2744
  844 202.675 -1.52520 -55.6017
  845 203.775 -0.118498 55.8909
  846 285.482 -21.6572 -14.5444
  847 472.535 51.5513 59.2648
  848 446.119 -45.8500 -36.2913
  849 164.670 -5.37636 -3.63321
  850 164.664 -5.30166 3.60038
  851 342.169 -8.49839 0.663841
  852 342.187 -8.56217 -0.587231
  853 408.930 -3.01921 -32.6875
  854 140.821 -6.02440 -12.0747
  855 140.903 -6.06878 11.9823
  856 1.72252 -41.6216 -8.02257
  857 1.63379 -41.8025 8.19625
  858 74.3109 -1.09297 -0.189237
  859 74.2629 -1.11368 0.175790
  860 420.665 -7.30224 -1.90308
  861 321.548 -30.6725 29.6501
  862 496.092 -41.7776 12.6792
  863 297.938 6.22970 25.8838
  864 430.176 -10.7603 5.32290
  865 470.354 -41.7620 -30.6650
  866 70.5827 4.24330 -22.1021
  867 70.7900 4.17185 22.0952
  868 374.381 -7.55673 -0.445525
  869 303.137 -11.1209 -3.38031
  870 302.110 -11.0309 3.65093
  871 468.048 72.7693 31.9909
  872 164.359 -1.75480 -39.1915
  873 164.217 -1.94322 39.0340
  874 324.540 -29.5136 15.6486
  875 32.6772 20.8026 -8.65411
  876 32.9899 20.7653 8.74573
  877 275.129 -19.5240 50.7038
  878 329.037 -21.3955 -5.10872
  879 411.203 -3.12901 33.0268
  880 402.730 -45.1247 17.6639
  881 461.170 -34.8383 -43.9849
  882 320.761 -30.9217 -30.0345
  883 267.786 -18.2001 -12.9015
  884 859.310 70.3892 -13.3654
  885 421.659 -44.5683 4.22977
  886 13.1250 14.3079 3.85849
  887 13.3478 14.3372 -3.74084
  888 367.242 -36.8838 9.54567
  889 402.093 -44.9548 -29.0798
  890 14.2478 12.3395 -0.696809
  891 14.4442 12.3444 0.787492
  892 154.262 -5.59477 29.9423
  893 154.344 -5.75647 -30.1065
  894 186.039 -9.50292 32.8064
  895 185.963 -9.72152 -33.0153
  896 580.628 116.357 14.9854
  897 -0.825235 -17.9439 -8.53963
  898 -0.831338 -17.9209 8.53290
  899 135.738 11.3014 -43.2222
  900 135.092 11.0749 42.8226
  901 987.906 31.9930 -49.6563
  902 24.5918 -0.121506 1.62100
  903 24.4916 -0.124737 -1.64224
  904 1.84902 -46.5145 1.97334
  905 2.14338 -45.6967 -1.28266
  906 -19.2023 -0.210904 7.06577
  907 -19.2250 -0.204853 -7.06381
  908 108.602 31.8035 -50.7768
  909 110.272 30.7466 50.0879
  910 -8.08468 0.584538 -14.7211
  911 -8.12652 0.550148 14.7474
  912 33.2680 2.69995 -14.5556
  913 33.4638 2.66462 14.5786
  914 119.080 -1.49802 27.6443
  915 118.991 -1.49188 -27.7717
  916 98.0226 -3.40991 -22.3462
  917 98.1274 -3.40443 22.3161
  918 497.209 -1.99313 -7.55862
  919 244.454 53.2800 146.925
  920 337.165 -33.3425 18.1846
  921 241.089 -17.4444 17.4275
  922 462.360 47.9024 -58.6849
  923 971.623 20.7395 19.8853
  924 544.439 26.0557 -54.0389
  925 94.2693 -3.60252 14.0255
  926 94.1688 -3.56252 -14.0732
  927 19.4137 -0.555547 -10.3241
  928 19.6030 -0.560636 10.3258
  929 -0.0983160 -8.07384 -15.9117
  930 -0.170207 -8.14535 15.9657
  931 249.138 -11.3069 7.95817
  932 249.261 -11.5175 -7.99258
  933 31.9357 8.07491 -13.1489
  934 32.1444 8.03933 13.2156
  935 153.278 -6.92153 -25.5105
  936 153.387 -6.92298 25.4975
  937 329.989 -1.25653 -30.4211
  938 158.320 -8.67399 -17.8686
  939 158.222 -8.58509 17.9257
  940 377.177 -11.1694 -0.266138
  941 456.573 -25.9158 -55.3517
  942 202.349 -8.40799 8.38794
  943 202.437 -8.48139 -8.49021
  944 -8.32415 -0.874514 -5.04029
  945 -8.30090 -0.876604 5.02918
  946 463.508 -34.5858 -77.9736
  947 444.890 -26.1818 34.4871
  948 390.677 -27.6049 -5.99249
  949 384.709 13.3739 54.4879
  950 176.101 -9.99366 -20.0836
  951 176.112 -9.80998 20.1431
  952 428.046 16.7059 65.5844
  953 401.170 35.0708 43.2205
  954 804.534 96.3880 17.0974
  955 414.793 -15.3699 6.39853
  956 221.498 -6.89774 -3.78694
  957 221.476 -6.77093 3.81609
  958 372.552 -30.7579 0.583914
  959 516.660 94.6528 -26.6740
  960 452.761 -5.40805 -2.21662
  961 300.263 -7.88675 1.25720
  962 300.152 -7.83010 -1.17318
  963 39.1129 33.3585 -24.6360
  964 40.0823 33.3101 24.8133
  965 71.8277 192.459 -163.452
  966 427.846 -9.97459 49.5765
  967 529.550 -8.75425 -44.9691
  968 -7.66403 5.18712 2.06535
  969 -7.52246 5.18676 -1.99402
  970 1060.81 255.071 -202.479
  971 453.866 -48.9385 2.41924
  972 483.373 -43.8564 -22.2832
  973 447.200 -38.2179 30.7654
  974 554.727 108.815 10.6263
  975 41.0023 44.8254 -51.0507
  976 102.327 167.243 161.128
  977 -2.46586 -5.93472 16.0178
  978 -2.42129 -5.88227 -15.9907
  979 434.237 -11.5934 6.78343
  980 696.727 122.834 -15.8328
  981 42.1753 43.8727 52.9857
  982 -1.90650 -6.50605 -5.60489
  983 -1.90675 -6.48769 5.59000
  984 373.523 -9.30622 -0.201822
  985 280.594 -22.4209 -23.4832
  986 450.751 -35.5051 -37.0302
  987 129.993 35.0185 -66.6061
  988 132.058 35.5895 66.7767
  989 438.974 -10.8509 -44.0646
  990 440.403 -14.3503 13.3229
  991 -11.3085 3.16797 12.8105
  992 -11.2494 3.19875 -12.7675
  993 267.989 -17.6268 -47.7767
  994 444.146 28.7087 -65.6070
  995 329.533 -12.8531 2.06833
  996 238.922 -7.16472 0.730752
  997 238.875 -7.20820 -0.703931
  998 -4.90268 -5.57529 -11.5976
  999 -4.90955 -5.58735 11.5875
  1000 446.374 -16.2479 -16.6473
  1001 424.395 -5.33362 0.333837
  1002 424.004 -5.33992 -0.165094
  1003 587.689 97.1879 -36.0543
  1004 108.483 9.20375 -34.3106
  1005 108.754 9.02033 34.2419
  1006 70.8032 -0.749707 -18.5985
  1007 70.9382 -0.763648 18.5806
  1008 485.598 26.5584 70.0155
  1009 457.102 -9.02175 -9.04897
  1010 83.1111 12.8467 -28.1694
  1011 83.4378 12.7522 28.2717
  1012 475.556 -2.97774 -1.34626
  1013 446.379 -19.5090 -25.8149
  1014 435.933 -48.7714 -21.1418
  1015 17.3834 15.3912 1.18347
  1016 16.9172 15.3180 -0.970893
  1017 -20.4383 3.54286 7.39657
  1018 -20.3615 3.55294 -7.34466
  1019 271.424 10.0656 -11.3042
  1020 750.543 188.157 -54.8559
  1021 345.797 -25.4992 -3.76000
  1022 230.121 -10.0629 -49.1002
  1023 550.921 -20.6693 1.28280
  1024 231.021 -10.0457 49.7714
  1025 396.735 -45.8344 33.5651
  1026 449.605 -18.6373 -39.5957
  1027 157.900 -3.83407 -1.16103
  1028 157.917 -3.77163 1.15420
  1029 308.464 -24.3191 -12.9437
  1030 190.553 -7.20138 -38.5179
  1031 190.491 -7.25588 38.3362
  1032 63.8077 41.9205 -41.8982
  1033 64.8047 41.8119 42.0242
  1034 133.641 -4.30246 -4.10329
  1035 133.658 -4.25211 4.05572
  1036 399.515 -13.1954 3.01739
  1037 337.920 2.21535 -120.880
  1038 413.925 -13.9324 -6.41501
  1039 374.925 -41.3726 -20.9636
  1040 248.540 -10.7971 5.54564
  1041 248.736 -10.8742 -5.56022
  1042 481.983 -3.34952 1.70047
  1043 432.560 -10.7802 -6.34501
  1044 285.544 7.00211 21.3521
  1045 464.662 -4.63308 -17.9077
  1046 181.612 53.7697 118.310
  1047 477.618 -4.51953 -14.5972
  1048 127.089 21.2730 -50.5126
  1049 123.373 21.5061 48.5219
  1050 569.199 -7.92289 -3.34868
  1051 53.2708 27.4961 -22.4033
  1052 53.7529 27.3032 22.4034
  1053 9.24614 0.571459 4.01896
  1054 9.68901 0.655923 -3.72731
  1055 78.5822 -2.05873 4.89257
  1056 78.5083 -2.07138 -4.94750
  1057 206.253 54.3892 -130.774
  1058 1093.31 290.094 217.962
  1059 445.000 -16.2337 17.0710
  1060 400.264 -44.7869 -16.0912
  1061 279.728 -23.0150 -37.3051
  1062 -5.02573 6.38327 10.8220
  1063 -4.91784 6.41822 -10.7493
  1064 315.137 -16.6219 3.88241
  1065 346.848 -13.3883 1.03699
  1066 -0.146381 -25.3958 8.20317
  1067 -0.137778 -25.4226 -8.20148
  1068 53.4755 33.0019 -26.4613
  1069 54.0998 32.9457 26.6148
  1070 311.019 -15.3291 -3.72362
  1071 26.0987 11.4239 8.72041
  1072 25.8922 11.4381 -8.63589
  1073 473.061 -18.2583 64.2408
  1074 343.295 -35.4623 -32.5156
  1075 281.374 -23.3832 37.3055
  1076 451.479 -8.66472 -68.0849
  1077 473.184 -5.56279 6.55503
  1078 174.118 26.9282 79.9351
  1079 175.360 25.7653 -78.6229
  1080 279.183 -13.3584 -67.4249
  1081 393.069 -14.5846 -2.97211
  1082 320.939 -19.6359 6.71006
  1083 375.058 -35.1637 -3.25559
  1084 510.547 -1.96838 -3.79583
  1085 279.274 -13.2074 6.18732
  1086 279.154 -13.9371 -6.33720
  1087 10.0429 11.5929 8.25872
  1088 10.2728 11.6768 -8.12605
  1089 455.575 17.2295 -70.4692
  1090 104.415 5.09756 -30.3895
  1091 104.694 4.98369 30.3144
  1092 79.2684 1.37555 -21.9726
  1093 79.4405 1.33280 21.9389
  1094 515.669 -18.5177 97.6110
  1095 448.983 -20.7318 38.9358
  1096 221.922 -10.2466 -41.8657
  1097 518.084 -2.17573 -2.25779
  1098 585.739 111.229 -27.0170
  1099 472.121 -4.91147 -3.99569
  1100 444.486 -47.6624 12.1237
  1101 330.239 -24.8199 59.4350
  1102 520.962 -0.806802 0.341516
  1103 285.025 8.83488 -18.0940
  1104 377.646 -40.3761 -10.9116
  1105 222.286 -10.7058 41.4363
  1106 381.100 -34.8638 1.08008
  1107 473.105 -7.05454 12.7494
  1108 345.633 21.8565 28.0743
  1109 238.512 -17.6108 -33.6546
  1110 710.070 106.450 -47.5228
  1111 538.073 25.5158 57.0329
  1112 406.629 50.7861 6.84447
  1113 516.149 -0.0841320 1.93408
  1114 207.689 -13.0839 -26.0094
  1115 141.410 88.9380 -131.717
  1116 251.783 7.15822 -95.0249
  1117 288.845 -22.4066 17.0006
  1118 244.670 -18.3964 31.6687
  1119 207.212 -12.4572 26.2589
  1120 433.787 4.13437 68.7720
  1121 327.311 -11.9646 -1.67567
  1122 509.477 -3.91737 5.20942
  1123 -3.73379 -0.0266406 15.9001
  1124 -3.67226 0.0264112 -15.8593
  1125 342.454 -10.3922 0.877650
  1126 0.180973 4.31606 14.0847
  1127 0.292594 4.38588 -14.0062
  1128 195.256 -6.38802 4.59963
  1129 195.266 -6.48277 -4.60463
  1130 481.796 -2.67665 12.1126
  1131 388.407 -24.1562 -4.77317
  1132 364.172 -19.9272 -0.358521
  1133 406.709 -28.7440 11.4217
  1134 125.750 63.2736 -98.8149
  1135 398.436 -15.6167 4.24984
  1136 62.5593 1.01188 -18.0928
  1137 62.7228 0.982191 18.0828
  1138 84.6806 55.0448 -70.2362
  1139 634.245 85.9322 14.8458
  1140 49.5270 -2.17850 10.6148
  1141 49.3711 -2.16113 -10.6290
  1142 86.1998 54.2466 67.9183
  1143 365.716 -30.8474 -2.05269
  1144 188.100 -8.95911 10.2557
  1145 188.125 -8.99756 -10.4072
  1146 740.919 157.485 -44.1998
  1147 402.367 -40.3247 0.316962
  1148 139.354 83.4026 131.474
  1149 12.2984 -0.130297 -12.3542
  1150 13.2211 0.0292894 13.4340
  1151 427.256 53.5396 34.4503
  1152 33.3775 17.5200 -8.99570
  1153 33.6390 17.5268 9.07268
  1154 404.966 -35.3722 -8.37869
  1155 -0.179469 -39.0755 -7.62846
  1156 -0.197776 -39.0789 7.66324
  1157 432.522 -36.5399 -20.9943
  1158 -2.18431 0.508460 3.51789
  1159 -2.41014 0.511802 -3.52490
  1160 68.1984 25.0604 -28.4092
  1161 68.5650 25.1702 28.1695
  1162 -18.7453 0.0418077 -4.30848
  1163 -18.5139 0.0402305 4.31324
  1164 430.696 -5.34948 -0.342135
  1165 -41.8994 1.27161 0.412869
  1166 -41.7798 1.27105 -0.384020
  1167 230.921 -18.2445 -25.2047
  1168 6.24050 -52.8734 -6.86887
  1169 118.913 -3.42827 7.73840
  1170 118.864 -3.43930 -7.81603
  1171 367.441 -7.72072 0.667487
  1172 368.130 -7.53973 -0.596915
  1173 6.70398 -50.2179 8.20899
  1174 435.131 -22.9863 -21.2434
  1175 495.176 -2.44883 8.80779
  1176 442.303 -28.4373 -31.6265
  1177 389.633 3.03477 54.0600
  1178 2.24687 -14.8296 11.2585
  1179 2.43749 -14.7095 -11.0610
  1180 284.915 -20.9888 13.7791
  1181 -18.9911 1.85285 10.2675
  1182 -18.9557 1.86834 -10.2359
  1183 731.338 115.822 8.16075
  1184 846.028 273.574 -192.268
  1185 452.041 -43.7052 26.2288
  1186 190.452 -5.79196 -0.724512
  1187 190.469 -5.72607 0.725184
  1188 915.445 88.9017 -82.3914
  1189 70.4369 -1.81299 11.0127
  1190 70.3087 -1.78621 -11.0502
  1191 424.442 -1.38067 -21.3088
  1192 273.464 -22.2207 28.4382
  1193 447.115 -43.6153 -18.3777
  1194 432.930 -31.5890 -24.1814
  1195 266.117 -9.18540 70.6049
  1196 100.265 18.4010 -38.5693
  1197 100.217 18.2388 38.3629
  1198 131.006 48.7896 -84.2269
  1199 131.194 45.1917 84.2356
  1200 39.0878 10.8432 -13.9666
  1201 39.3127 10.8120 14.0470
  1202 535.117 93.0742 -38.8567
  1203 28.7112 26.4670 -13.1068
  1204 29.3612 26.5112 13.3038
  1205 385.733 -29.8376 3.63894
  1206 713.184 110.360 52.9504
  1207 96.2307 -3.95881 -7.62948
  1208 96.3062 -3.95768 7.56100
  1209 460.293 336.454 -281.168
  1210 365.452 21.8042 -43.2577
  1211 337.002 25.7118 17.7074
  1212 47.8787 19.6353 -16.4901
  1213 48.1024 19.6374 16.5768
  1214 14.8428 -0.102382 2.56686
  1215 14.6858 -0.102230 -2.58744
  1216 426.763 -34.3786 19.5577
  1217 419.296 -17.2768 10.0846
  1218 287.752 84.6424 -203.345
  1219 660.319 144.527 -9.89418
  1220 286.015 -8.40092 -77.5722
  1221 369.030 -12.0018 -0.224666
  1222 24.9814 -1.80810 -0.573549
  1223 25.0333 -1.80666 0.570325
  1224 -7.28419 2.90310 -6.18385
  1225 -7.10114 2.89137 6.22822
  1226 249.143 2.97178 -81.4703
  1227 454.194 -10.4370 11.8120
  1228 297.396 6.16695 110.530
  1229 401.299 -20.3166 -7.16198
  1230 208.525 75.8593 -160.821
  1231 323.013 -15.2540 -83.6171
  1232 383.974 -40.9910 8.77242
  1233 468.428 -7.65654 19.5709
  1234 411.013 -9.26942 -2.35633
  1235 229.978 -17.1467 25.3410
  1236 515.213 -27.9981 -34.3648
  1237 491.153 43.2301 66.2211
  1238 215.659 1.06621 -64.7583
  1239 484.653 -3.47771 1.35530
  1240 396.777 49.1767 -9.78181
  1241 173.945 -6.24641 -7.57474
  1242 173.919 -6.18480 7.49846
  1243 742.037 176.249 47.6510
  1244 1005.89 26.7138 46.4932
  1245 0.945689 -47.6067 -7.55289
  1246 0.916005 -47.6574 7.61204
  1247 112.151 60.0799 92.6380
  1248 266.404 -8.29732 -1.80032
  1249 266.461 -8.25117 1.89735
  1250 362.588 -36.5745 -11.5905
  1251 434.266 35.8840 59.4933
  1252 450.344 -9.40467 -7.35619
  1253 520.163 -1.56449 -0.496585
  1254 899.801 201.083 -127.638
  1255 145.439 -5.56124 7.92908
  1256 145.418 -5.57233 -8.02312
  1257 432.974 -40.1732 19.9058
  1258 754.341 189.491 -62.5212
  1259 419.629 -18.7817 -11.4477
  1260 308.382 -21.7810 -9.96814
  1261 377.343 -40.9207 20.4905
  1262 368.933 -18.9650 1.20176
  1263 14.2052 6.30298 -18.9213
  1264 502.878 -29.7977 41.7181
  1265 408.206 -27.0418 -11.1808
  1266 15.6167 7.00971 20.7681
  1267 419.290 -32.5506 -78.7506
  1268 395.924 26.6551 -166.407
  1269 649.491 85.7807 -8.40005
  1270 522.087 -0.573600 -0.146823
  1271 521.207 -1.05247 0.446864
  1272 415.082 -24.5931 12.3852
  1273 162.119 19.3180 -63.8793
  1274 472.444 -41.5755 33.4270
  1275 798.704 183.621 86.2851
  1276 200.298 70.2920 156.786
  1277 6.00910 1.50670 11.3081
  1278 6.21973 1.61163 -11.1629
  1279 495.175 -38.7782 -43.7812
  1280 202.986 -11.2711 -12.2356
  1281 202.957 -11.3007 12.0338
  1282 462.765 -30.2146 52.8119
  1283 20.0730 0.0796270 11.5073
  1284 19.8848 0.0886927 -11.5013
  1285 -2.43816 -9.53341 13.3111
  1286 -2.42103 -9.51294 -13.3141
  1287 86.4790 -2.95844 -10.0407
  1288 86.5780 -2.97555 9.98210
  1289 245.477 -16.4547 -38.0853
  1290 247.653 -8.60116 2.56192
  1291 247.642 -8.77615 -2.47051
  1292 520.473 -0.558239 0.168958
  1293 465.819 -7.37061 -22.0757
  1294 40.8170 1.64696 -14.5788
  1295 40.9992 1.62072 14.5869
  1296 246.453 -17.3935 37.8072
  1297 525.161 -0.675299 0.234472
  1298 497.068 -0.848605 -0.567000
  1299 497.031 -1.14949 0.444294
  1300 659.411 141.103 2.65457
  1301 485.213 -3.73405 -3.18506
  1302 431.971 -5.08728 0.190492
  1303 478.398 -7.59340 -11.2675
  1304 518.068 -1.85060 1.49139
  1305 544.315 57.1783 56.5024
  1306 629.765 132.025 11.6258
  1307 504.837 -2.15942 -5.78205
  1308 -4.22345 -1.05556 3.77942
  1309 -4.24053 -1.05484 -3.79119
  1310 283.874 -18.2504 9.70300
  1311 283.822 -17.4679 -9.44745
  1312 549.237 63.3164 -53.5164
  1313 116.446 40.2981 -69.9171
  1314 117.194 39.2144 69.1881
  1315 374.849 0.0837934 -27.0421
  1316 381.382 -6.84612 -0.566785
  1317 380.917 -6.79690 0.486783
  1318 -9.02437 -1.40390 13.5218
  1319 -9.00798 -1.37886 -13.5171
  1320 425.682 -1.11591 21.2673
  1321 643.717 127.912 -3.59885
  1322 50.3690 -1.77003 -6.32281
  1323 50.4939 -1.77411 6.27686
  1324 475.311 -45.1483 16.9725
  1325 1.51131 8.25449 10.9018
  1326 1.65128 8.30420 -10.8111
  1327 92.6488 -2.10692 -2.15205
  1328 92.6925 -2.07605 2.12123
  1329 374.932 -0.482892 27.4595
  1330 20.6857 0.776574 -0.984230
  1331 20.7691 0.779550 0.968651
  1332 482.036 -5.96965 7.12370
  1333 673.547 122.140 7.29449
</Section>

newXOutput 62

<Section columns = "stress_xx | stress_yy | stress_xy">
  1 541.346 -1.55693 0.987745
  2 542.163 -1.95421 -1.28231
  3 16.0085 0.498431 -1.38260
  4 -0.406846 -0.606932 -0.408983
  5 981.477 405.784 324.884
  6 996.585 463.512 -328.107
  7 -0.402498 -0.603111 0.403361
  8 15.9558 0.495612 1.37941
  9 544.941 -1.11119 -0.896077
  10 541.085 -1.97288 -1.31412
  11 541.588 -1.56180 1.12468
  12 539.143 -0.910348 0.423750
  13 538.251 -1.85587 -0.432875
  14 537.679 -1.79543 1.98750
  15 530.362 -1.30969 1.84309
  16 532.659 -3.87819 2.92243
  17 516.810 -3.24909 6.41186
  18 506.905 -1.51067 7.73050
  19 493.124 -1.80668 8.37630
  20 468.971 -1.60617 11.8203
  21 442.500 -1.34127 13.7877
  22 409.266 1.77045 19.0094
  23 363.564 2.75184 17.2619
  24 345.109 -0.0775159 24.7740
  25 287.782 4.08359 17.6584
  26 252.743 5.32824 13.8741
  27 243.609 2.70633 10.2444
  28 233.819 7.81376 0.770962
  29 239.192 8.38630 -13.7106
  30 249.922 2.45676 -17.1986
  31 292.974 1.14833 -22.9153
  32 336.211 -2.11022 -23.6979
  33 365.196 2.28451 -17.2258
  34 409.747 2.00977 -19.0073
  35 441.391 -1.58498 -14.7871
  36 471.602 -1.78641 -11.1398
  37 491.247 -1.33962 -8.51210
  38 505.413 -1.61072 -7.06543
  39 520.662 -1.89870 -4.05595
  40 526.430 -1.98796 -3.85322
  41 532.096 -1.87203 -3.41489
  42 537.814 -2.11897 -0.581384
  43 539.944 -2.66542 -1.36615
  44 536.713 0.0214683 0.00986030
  45 540.956 -1.44106 -1.28217
  46 543.082 -2.85456 1.43301
  47 545.581 -1.66107 -0.0562194
  48 518.907 0.0781710 -0.818124
  49 488.946 -2.46732 -1.52323
  50 454.915 -5.29098 -2.14286
  51 419.598 -4.60544 -1.54794
  52 388.709 -7.10667 -1.41953
  53 356.041 -7.66875 -1.28336
  54 323.035 -6.76107 -0.590958
  55 288.267 -7.16747 -0.835821
  56 258.833 -7.51322 -1.11860
  57 219.631 -7.12841 -0.892019
  58 179.263 -4.53964 -0.571036
  59 145.866 -2.92963 -0.443688
  60 104.627 -1.84507 -0.141279
  61 74.6907 -1.72928 -2.02935
  62 46.9088 -2.30941 -0.646752
  63 18.8751 0.259290 1.30407
  64 11.5029 1.94799 0.548053
  65 9.31589 0.787978 1.40040
  66 10.1200 0.354368 1.41365
  67 4.02882 1.11822 0.717882
  68 1.52179 1.47067 2.91051
  69 0.153864 0.520140 1.18269
  70 -10.1092 1.10175 1.28197
  71 -15.1107 0.751514 2.83034
  72 -17.4711 0.239404 2.99203
  73 -28.8945 1.02544 2.42195
  74 -33.4190 1.54488 4.37780
  75 -38.6124 0.937678 1.79027
  76 -44.3643 0.686448 2.48690
  77 -47.0728 0.728371 1.15958
  78 -52.7874 1.79666 -0.937423
  79 -53.8484 1.23062 -0.680506
  80 -49.4390 0.919789 -1.53092
  81 -42.7179 1.22459 -3.14069
  82 -34.9452 0.560097 -4.93694
  83 -26.2025 0.315083 -5.20535
  84 -15.7868 -0.506908 -5.48893
  85 -6.93309 -0.411798 -3.23670
  86 -2.92995 -1.13622 -2.03354
  87 -0.476382 -2.93195 -1.77182
  88 -0.789375 -7.49192 -3.11717
  89 -0.904625 -14.5112 -5.42670
  90 -0.156471 -27.0865 -5.81415
  91 0.348364 -37.2714 -7.25291
  92 0.785941 -53.4691 -5.89430
  93 2.35750 -63.1915 -6.90077
  94 0.451031 -67.4615 -5.54749
  95 -0.0552482 -76.6897 -3.03833
  96 2.17414 -73.0007 -0.109942
  97 8.88504 -94.0548 5.08052
  98 8.20696 -46.1379 15.3853
  99 19.2232 -12.6948 32.8089
  100 56.7774 107.355 98.1582
  101 235.797 324.554 270.168
  102 1285.46 139.314 189.966
  103 1080.68 38.3479 68.2156
  104 1029.97 16.3567 23.4376
  105 1002.05 10.6610 -0.130534
  106 1019.93 15.5792 -19.2984
  107 1090.44 32.7289 -56.3890
  108 1272.06 110.213 -176.542
  109 153.346 367.511 -223.582
  110 39.9470 82.4423 -76.3846
  111 14.1951 -22.0753 -27.5114
  112 7.44176 -51.6358 -13.3870
  113 8.83193 -97.9796 -4.11553
  114 2.07486 -74.7347 0.788715
  115 -0.183966 -77.5545 3.39138
  116 0.369248 -67.7928 5.73636
  117 2.31272 -63.2654 6.98030
  118 0.768762 -53.4348 5.92345
  119 0.335396 -37.2156 7.26304
  120 -0.162806 -27.0173 5.81023
  121 -0.905371 -14.4672 5.41477
  122 -0.791080 -7.45437 3.10611
  123 -0.476022 -2.91786 1.76208
  124 -2.91305 -1.13457 2.02537
  125 -6.90303 -0.413677 3.22784
  126 -15.7479 -0.511372 5.48350
  127 -26.1573 0.310120 5.20637
  128 -34.9195 0.554668 4.94627
  129 -42.7276 1.22070 3.15918
  130 -49.4850 0.919458 1.55090
  131 -53.9416 1.22945 0.700057
  132 -52.9199 1.79638 0.957812
  133 -47.2501 0.730239 -1.14171
  134 -44.5754 0.688746 -2.47357
  135 -38.8403 0.940317 -1.77961
  136 -33.6664 1.54803 -4.37322
  137 -29.1493 1.02841 -2.41811
  138 -17.7233 0.241212 -2.99234
  139 -15.3643 0.754652 -2.83402
  140 -10.3518 1.10615 -1.28756
  141 -0.0610262 0.523049 -1.19346
  142 1.33475 1.47370 -2.92680
  143 3.86672 1.11908 -0.732271
  144 9.99653 0.353804 -1.42770
  145 9.22073 0.786592 -1.41172
  146 11.4268 1.94560 -0.557855
  147 18.8157 0.257660 -1.30984
  148 46.8548 -2.31792 0.640902
  149 74.6413 -1.75050 2.02297
  150 104.590 -1.88263 0.132775
  151 145.844 -2.98393 0.439317
  152 179.244 -4.60253 0.570428
  153 219.601 -7.18265 0.900694
  154 258.768 -7.53971 1.13656
  155 288.162 -7.13223 0.878109
  156 322.889 -6.63493 0.639334
  157 355.841 -7.37276 1.21083
  158 388.880 -7.19287 1.24246
  159 419.728 -5.13256 1.63580
  160 455.267 -5.19468 1.94420
  161 489.899 -2.18706 1.54451
  162 518.096 0.0461184 0.796743
  163 305.729 -27.6634 -27.1459
  164 304.526 -28.1686 27.0806
  165 93.4510 25.5759 -38.6418
  166 94.3667 25.6664 38.4838
  167 359.403 -16.4800 95.1475
  168 376.500 -18.6855 -92.6345
  169 179.467 -9.56603 12.6765
  170 179.441 -9.47341 -12.8416
  171 383.618 -14.0427 0.959245
  172 376.095 -14.0821 -0.817720
  173 513.575 92.2237 -12.2287
  174 518.363 4.59731 -62.3568
  175 508.389 8.46674 67.4569
  176 125.444 -4.83031 -26.1183
  177 125.459 -4.79674 26.0718
  178 448.082 -44.2397 20.8269
  179 447.705 -34.4747 -30.5238
  180 6.90664 10.9517 9.93593
  181 7.09300 11.0214 -9.82470
  182 612.129 124.974 16.4134
  183 119.939 54.0814 -85.6285
  184 128.555 54.5700 91.6621
  185 433.125 -20.6463 13.8263
  186 648.940 137.203 -5.13448
  187 282.998 -10.7989 -4.05940
  188 282.553 -11.0640 4.03170
  189 444.910 -14.5118 -12.7195
  190 590.406 -1.43266 -12.1904
  191 114.573 -3.46295 4.91844
  192 114.531 -3.49127 -4.98109
  193 49.6857 5.97890 -17.9105
  194 49.9064 5.91764 17.9526
  195 252.465 -9.58638 -60.3023
  196 251.483 -10.1014 61.0655
  197 300.980 -19.8975 -10.2620
  198 301.576 -19.7866 10.8450
  199 82.0381 -2.86377 14.0194
  200 81.9172 -2.82608 -14.0468
  201 583.811 -7.81934 42.0959
  202 479.366 -46.6403 -6.74784
  203 454.169 -5.24887 -1.72434
  204 444.313 -6.29168 1.72394
  205 455.816 53.6226 48.1096
  206 20.1743 18.0814 -7.93091
  207 20.8844 18.0531 8.24756
  208 452.464 -18.0315 55.9031
  209 419.268 32.2086 -55.4232
  210 296.085 69.3798 -192.940
  211 311.347 58.6586 179.358
  212 9.41169 10.1348 -2.23506
  213 9.59076 10.1336 2.32153
  214 451.154 -15.8534 -57.8353
  215 778.059 108.533 -7.66702
  216 374.858 -40.6459 35.5044
  217 377.615 -40.4298 -33.6923
  218 374.627 -27.1263 -0.346103
  219 461.850 -7.86699 6.63254
  220 227.375 -15.7503 -23.1340
  221 223.896 -15.6903 23.8000
  222 137.750 2.67257 -39.0140
  223 137.950 2.62146 38.7024
  224 474.905 -49.5013 -8.34915
  225 371.571 -28.8033 -1.27016
  226 460.161 -7.71240 -5.06276
  227 360.392 -10.0045 -0.476642
  228 363.449 -9.38545 1.14429
  229 455.769 -20.5224 31.6008
  230 42.7890 0.298531 -14.9739
  231 42.9636 0.280185 14.9746
  232 -5.54787 -3.65242 -15.2763
  233 -5.57738 -3.68944 15.2883
  234 74.8717 -3.14785 -8.18138
  235 74.9765 -3.15542 8.12200
  236 196.555 -6.15381 5.67654
  237 196.594 -6.25490 -5.71647
  238 223.971 15.7643 -87.3923
  239 223.999 13.1912 86.4226
  240 461.975 -14.6568 -27.0401
  241 220.016 -12.9299 -37.0193
  242 220.209 -13.3199 36.5287
  243 411.130 6.58231 62.8381
  244 362.525 31.0462 3.81599
  245 397.445 -39.7005 0.830417
  246 2.04833 -8.90672 -13.4357
  247 1.91459 -9.01373 13.5517
  248 26.4994 28.9402 -30.8684
  249 28.1593 28.0295 32.3317
  250 390.906 -38.8521 -3.40699
  251 699.215 134.902 -15.1573
  252 38.2243 25.5278 -13.8956
  253 38.6711 25.5207 14.0450
  254 -14.2847 3.40503 10.0455
  255 -14.2077 3.42280 -9.99196
  256 702.295 126.899 19.2797
  257 250.368 -12.4210 -9.53412
  258 250.184 -12.2323 9.36814
  259 484.431 -32.2048 50.7913
  260 866.670 141.279 88.6274
  261 148.728 -7.91088 -21.5663
  262 148.706 -7.96649 21.5493
  263 496.517 74.4688 -45.5353
  264 837.433 159.628 -81.4832
  265 588.759 60.8334 41.4528
  266 634.945 45.3186 -123.181
  267 397.166 -19.3471 4.46666
  268 453.494 2.63113 -70.0013
  269 427.694 -30.4721 -16.7101
  270 475.379 -8.85455 16.9990
  271 2.26585 4.58255 -5.98147
  272 2.44609 4.56852 6.04371
  273 470.300 -13.5891 -118.426
  274 53.1376 15.7643 -18.2586
  275 53.3865 15.7378 18.3537
  276 457.724 -11.1255 -35.1983
  277 67.1751 72.2426 -89.1168
  278 60.8096 -0.306374 -1.91136
  279 60.8716 -0.294543 1.88542
  280 482.825 -29.4473 -53.1378
  281 87.0965 39.1247 -48.4302
  282 88.3391 38.9237 48.5672
  283 28.7970 -0.805595 10.4118
  284 28.6125 -0.796118 -10.4173
  285 396.552 -18.4272 -4.37505
  286 67.6510 71.4963 91.4213
  287 624.288 53.8502 143.642
  288 176.704 -7.19129 -7.80247
  289 176.679 -7.14856 7.70384
  290 318.489 -13.8132 -4.00362
  291 318.338 -14.8871 4.38070
  292 271.871 27.0823 -131.508
  293 435.914 -47.5175 -4.34262
  294 493.104 -3.50346 2.86902
  295 261.985 27.1387 127.363
  296 305.229 -8.98657 -1.39001
  297 305.115 -8.98176 1.64523
  298 428.407 -31.6656 17.0138
  299 489.717 -5.60378 -7.76717
  300 -0.384362 1.80681 -8.33027
  301 -0.184380 1.79324 8.36065
  302 618.830 122.536 -4.09758
  303 539.905 -23.8440 25.0245
  304 485.637 -3.10605 -0.675567
  305 493.861 -2.71772 0.612397
  306 486.552 -41.5803 44.6095
  307 599.840 64.9320 -37.9801
  308 528.354 98.0916 25.6578
  309 239.294 -14.9490 -14.9173
  310 237.180 -15.2139 15.1836
  311 492.444 -3.43852 -1.80121
  312 326.875 -24.3720 -65.9422
  313 322.003 -25.7261 12.9216
  314 306.925 -16.3925 74.8528
  315 485.818 -6.26116 9.36298
  316 115.144 -5.28113 -13.5398
  317 115.226 -5.31905 13.4863
  318 448.623 -13.1808 117.013
  319 287.833 -23.0202 -18.5663
  320 526.363 68.2606 56.6580
  321 170.022 11.8885 -57.3695
  322 163.811 12.4380 56.9278
  323 54.4873 -1.06839 -3.46434
  324 54.5786 -1.06159 3.42313
  325 430.018 -9.45610 3.48020
  326 412.585 -6.74267 0.251868
  327 410.326 -7.30445 -0.386935
  328 454.557 -11.7086 37.3431
  329 44.0951 -1.51766 7.84704
  330 43.9360 -1.50392 -7.87893
  331 137.077 -3.37722 -2.88073
  332 137.097 -3.32573 2.85334
  333 4.61826 -19.1504 -6.89540
  334 4.32944 -19.3179 7.23951
  335 358.605 15.6573 42.8211
  336 545.015 -22.0014 -19.5183
  337 354.977 -19.4681 -0.415978
  338 399.792 -8.90767 -1.40810
  339 423.131 52.4737 -25.9640
  340 85.8071 -2.79077 -19.4488
  341 85.9222 -2.79330 19.4359
  342 345.381 -18.4045 2.17572
  343 100.629 3.17364 -27.8506
  344 100.823 3.08938 27.7737
  345 20.4565 16.3993 -1.60410
  346 20.6930 16.3986 1.70599
  347 418.412 -44.3154 45.1338
  348 914.877 60.2042 23.5392
  349 377.083 5.96358 -50.6347
  350 312.972 -28.0055 41.2910
  351 311.385 -27.4250 -42.4806
  352 460.501 -7.35297 69.1488
  353 411.513 -2.80259 49.8128
  354 413.086 -42.8421 -46.5089
  355 249.064 -6.91163 0.783286
  356 249.024 -6.98377 -0.722809
  357 456.954 -29.7668 41.4676
  358 625.837 124.050 1.57152
  359 488.547 -5.89933 -12.5567
  360 130.518 -5.05644 -9.91435
  361 130.578 -5.06132 9.82482
  362 460.928 -42.6632 -55.6425
  363 486.801 34.5928 -68.6568
  364 331.695 17.8273 -27.5434
  365 460.297 -30.5423 -47.6937
  366 -14.7614 0.631980 -11.7607
  367 -14.7773 0.613161 11.7758
  368 386.544 -10.0312 0.422328
  369 -5.48951 -3.25277 -7.16832
  370 -5.48239 -3.25363 7.15289
  371 297.589 154.875 -233.891
  372 12.8053 11.5996 6.14313
  373 13.1062 11.6885 -5.98140
  374 408.521 -2.95661 -49.4104
  375 226.857 -10.0546 7.20699
  376 227.009 -10.1812 -7.27637
  377 -1.40627 -15.9849 13.4174
  378 -1.38132 -15.9558 -13.4041
  379 242.791 162.111 220.516
  380 186.290 -10.0427 -29.1552
  381 186.443 -9.62711 29.1775
  382 60.0609 44.8026 -45.0939
  383 61.2974 44.6950 44.8511
  384 -21.6938 3.58685 3.63266
  385 -21.5877 3.59290 -3.57464
  386 470.256 31.8417 69.0476
  387 360.203 -37.7142 20.8213
  388 360.589 -33.1058 9.45950
  389 435.381 -49.0957 -8.79338
  390 111.861 13.7030 -38.3222
  391 112.234 13.6816 38.2707
  392 10.1620 -11.7930 2.57455
  393 9.63095 -12.0245 -1.81713
  394 445.155 63.3985 16.9737
  395 443.168 -13.3334 10.2659
  396 256.715 -20.0879 27.1182
  397 160.417 -4.20528 -34.6568
  398 160.486 -4.23551 34.4160
  399 325.515 -10.6263 -1.97432
  400 325.175 -9.43604 1.69882
  401 254.593 -20.6105 -28.6748
  402 199.848 -3.49152 -46.4353
  403 199.827 -3.76318 46.7959
  404 462.671 -42.1273 -27.7693
  405 271.399 -21.1649 17.5531
  406 420.639 -13.5653 5.62488
  407 419.793 -12.4538 -4.55444
  408 354.067 -32.8747 -10.7068
  409 502.670 -2.68833 -3.06386
  410 172.131 71.0475 -133.951
  411 475.661 -7.15803 21.2044
  412 501.484 -3.08581 4.74570
  413 183.702 -10.0110 17.8707
  414 183.771 -9.87844 -17.8575
  415 358.601 -37.2671 -21.4359
  416 53.1806 23.1711 19.7065
  417 52.8990 23.1525 -19.7185
  418 923.967 60.1592 -47.9783
  419 412.853 -24.0977 -8.88246
  420 505.593 -2.26874 1.76314
  421 162.749 66.5080 127.782
  422 749.009 125.785 25.5428
  423 441.249 -7.51076 -2.72398
  424 332.738 -24.5732 -8.52249
  425 140.674 27.1327 -64.6688
  426 149.780 25.1262 64.2813
  427 408.079 -26.3402 8.87422
  428 434.476 -5.55955 -36.4496
  429 0.747862 -0.436078 7.83934
  430 0.535910 -0.431566 -7.83293
  431 158.501 38.4348 -86.0825
  432 159.007 38.5697 85.8241
  433 20.8470 8.72881 -8.96129
  434 21.0466 8.71065 9.03894
  435 366.443 -8.01479 0.362897
  436 366.004 -7.83087 -0.242786
  437 455.180 -20.9640 -33.0787
  438 -0.815792 -0.766227 16.0852
  439 -0.733875 -0.692449 -16.0242
  440 468.549 -45.7601 23.7624
  441 442.534 -12.5276 -8.96988
  442 714.196 136.522 -23.5820
  443 34.5391 -1.33856 3.75994
  444 34.3983 -1.33879 -3.79561
  445 854.069 245.335 112.956
  446 18.0077 12.3972 -27.9506
  447 56.8807 2.48075 -19.0757
  448 57.0661 2.43931 19.0769
  449 852.585 251.245 -109.760
  450 19.0865 14.3243 30.5554
  451 -20.3995 2.71507 0.422130
  452 -20.2619 2.71105 -0.366830
  453 49.7186 34.0824 -27.1764
  454 50.5566 34.1038 27.3180
  455 560.924 88.8497 -45.5132
  456 449.612 -18.0135 -20.8385
  457 503.017 -2.34756 -1.51662
  458 470.024 -7.37583 -25.0010
  459 -4.86169 3.78827 14.6470
  460 -4.77815 3.83607 -14.5891
  461 454.347 -18.6907 24.5285
  462 297.772 -17.2861 -8.22714
  463 296.882 -17.4532 7.25507
  464 401.664 -44.1891 -9.46715
  465 287.958 -3.46829 -91.3030
  466 438.543 -6.66440 37.1955
  467 358.139 -12.4169 1.02738
  468 522.863 -37.6230 -10.1953
  469 279.060 3.11981 97.7645
  470 26.2333 -0.453926 7.56846
  471 26.0446 -0.445582 -7.58266
  472 577.017 113.959 -19.6377
  473 458.190 -4.20007 0.0348327
  474 456.660 -4.65620 -0.440372
  475 349.099 -23.8136 4.49144
  476 156.645 -5.45271 -5.62773
  477 156.644 -5.39290 5.56656
  478 93.3332 -1.26279 -23.0190
  479 93.4465 -1.28103 22.9796
  480 300.390 11.6169 16.5145
  481 78.6857 -2.59643 11.2204
  482 78.5695 -2.57240 -11.2708
  483 81.7656 7.49593 25.9926
  484 81.4966 7.60689 -25.9678
  485 446.913 -34.6551 29.2622
  486 252.682 -15.7656 -43.7925
  487 234.297 -8.06122 3.90110
  488 234.375 -8.24312 -3.90568
  489 255.312 -16.2529 43.7900
  490 695.417 166.721 -19.2692
  491 -11.1078 -1.62908 -9.21984
  492 -11.1011 -1.63793 9.21406
  493 179.893 -5.32447 -2.36878
  494 179.899 -5.25055 2.36034
  495 0.300394 -29.3005 -10.9319
  496 0.227243 -29.3972 11.0317
  497 407.436 -7.01360 0.639242
  498 298.704 14.0562 -8.20785
  499 396.189 41.4061 23.4344
  500 250.806 -2.19113 -73.2459
  501 126.128 -6.48822 16.9494
  502 126.105 -6.43422 -16.9743
  503 -28.6041 0.968066 -2.93673
  504 -28.4139 0.962072 2.96262
  505 483.128 -8.30727 -68.0512
  506 45.1814 0.194531 -2.50225
  507 45.2616 0.200617 2.47258
  508 402.184 -32.0269 -6.50395
  509 428.206 -36.6300 -15.7939
  510 89.5738 69.8043 -91.9299
  511 360.024 11.4369 -142.277
  512 5.94016 11.2072 5.98727
  513 6.11507 11.2320 -5.88932
  514 223.539 -10.6873 -10.1527
  515 223.435 -10.5961 9.96015
  516 614.399 28.8970 -8.85476
  517 444.985 -26.5431 -26.6646
  518 87.3730 66.2097 90.6847
  519 440.793 -49.4170 15.6959
  520 424.341 -40.3803 11.4911
  521 95.7048 -2.32897 -7.39465
  522 95.7729 -2.32045 7.32822
  523 354.519 4.02168 39.2578
  524 254.875 -19.0422 -18.4335
  525 468.012 -10.9125 15.0859
  526 -1.86689 -11.3913 -8.98018
  527 -1.87150 -11.3815 8.96650
  528 330.653 -29.0245 48.9908
  529 499.695 -37.3384 -33.1506
  530 647.692 49.5284 -28.6798
  531 353.962 -12.8222 -0.942620
  532 110.547 -2.11491 -2.13024
  533 110.581 -2.07728 2.11200
  534 225.965 2.02058 70.6644
  535 621.945 106.502 27.7651
  536 625.229 133.000 -223.399
  537 566.361 5.20443 30.4224
  538 409.483 -45.3584 7.32503
  539 951.932 75.7957 64.4678
  540 711.067 175.215 26.5605
  541 105.393 -4.43666 18.4642
  542 105.308 -4.39344 -18.4906
  543 393.914 -32.9493 4.01581
  544 31.4972 14.3532 -8.61970
  545 31.7235 14.3467 8.71086
  546 493.641 -40.2543 33.2458
  547 408.760 22.3792 57.6759
  548 495.571 -3.46384 8.47248
  549 369.054 -22.6981 0.698586
  550 512.440 7.86729 -149.972
  551 806.777 217.539 150.140
  552 398.688 -8.71548 -0.434421
  553 487.555 -5.24896 -13.9013
  554 79.3935 32.8377 -36.6806
  555 79.9629 32.4466 36.5303
  556 282.337 -11.9306 -5.47678
  557 282.213 -11.6655 5.57019
  558 3.53713 -32.3501 -5.36708
  559 498.961 -16.9341 59.9388
  560 20.5118 18.1197 0.229217
  561 20.8189 18.1712 -0.0830830
  562 4.10821 -31.1255 6.43817
  563 454.984 -20.6392 -49.0591
  564 523.087 34.0925 -64.8122
  565 521.421 38.5426 64.8775
  566 26.1304 23.7647 21.0882
  567 24.8594 24.2678 -20.6721
  568 -10.8369 0.446983 5.98770
  569 -11.0532 0.451838 -5.97561
  570 477.992 15.3453 154.424
  571 265.873 -15.1364 10.4174
  572 266.132 -15.0840 -10.5842
  573 575.268 -6.96974 -81.2586
  574 80.8765 -1.13726 4.28290
  575 80.8156 -1.15406 -4.32754
  576 41.4583 -0.921818 -0.995213
  577 41.5180 -0.915807 0.984802
  578 634.077 117.722 -21.2093
  579 61.7563 97.6789 -100.954
  580 339.832 7.00081 -33.3046
  581 474.477 75.5894 -28.7337
  582 7.53715 1.00697 9.03738
  583 7.82449 1.11314 -8.84473
  584 469.834 227.701 261.393
  585 404.802 -12.0511 -2.59993
  586 17.1396 4.10860 -10.3660
  587 17.3366 4.07902 10.4148
  588 467.839 -37.2979 41.0148
  589 72.8878 94.8041 102.795
  590 338.609 -7.96379 0.643892
  591 338.703 -7.90388 -0.645173
  592 -0.260092 -23.4792 11.5273
  593 -0.223622 -23.4413 -11.4892
  594 576.828 111.818 -0.923748
  595 366.138 -28.8943 68.6946
  596 349.895 -15.6598 -1.73961
  597 351.146 17.6891 150.003
  598 -28.5828 1.54813 6.81799
  599 -28.5544 1.55655 -6.78892
  600 573.186 9.53933 -32.8829
  601 756.867 135.081 -108.752
  602 220.816 22.9756 -100.973
  603 122.067 -5.19082 -22.4267
  604 122.186 -5.19284 22.4329
  605 516.457 -1.93821 2.22133
  606 346.540 -15.9787 1.32795
  607 460.672 -6.94994 4.76324
  608 454.984 -20.6756 47.8695
  609 24.8723 -0.769863 3.81722
  610 24.7030 -0.766654 -3.84351
  611 271.732 -10.0413 -3.22883
  612 271.698 -9.78688 3.14577
  613 170.719 3.63247 -47.8541
  614 169.646 3.68235 47.6591
  615 651.222 42.9503 43.9324
  616 1052.84 79.3762 -114.777
  617 -4.01324 -0.676886 5.19766
  618 -4.23874 -0.674720 -5.19550
  619 162.762 -6.97359 10.3145
  620 162.744 -6.96459 -10.4384
  621 608.678 35.9669 17.1747
  622 510.110 -2.20111 -0.704057
  623 509.028 -2.98598 0.246109
  624 377.161 0.0283121 38.8285
  625 535.385 -29.5740 -50.9157
  626 294.071 -24.3311 21.9451
  627 -5.49068 6.78349 -5.68837
  628 -5.62168 6.77218 5.76487
  629 469.637 10.1512 71.9924
  630 188.723 -10.9846 -23.5423
  631 188.554 -11.1630 23.5864
  632 381.913 -22.6275 -2.10968
  633 470.011 -10.7033 -13.6176
  634 271.260 -21.7132 -32.2163
  635 444.630 53.6671 -43.7857
  636 299.272 -20.5096 -56.3152
  637 114.244 -3.07389 -3.89341
  638 114.278 -3.03945 3.84738
  639 274.016 -22.0858 32.3728
  640 583.868 95.4363 40.0338
  641 465.406 -22.2860 60.3676
  642 380.993 -17.6231 2.17807
  643 274.595 -7.91842 1.93152
  644 274.526 -7.93347 -1.88026
  645 208.608 -8.10235 -7.42573
  646 208.538 -8.01989 7.35590
  647 447.397 -40.9430 -22.5930
  648 229.526 -13.2750 12.9447
  649 229.763 -13.2219 -13.1768
  650 452.502 69.5296 -5.83801
  651 413.528 -22.2299 9.08084
  652 513.984 -2.61944 -3.54675
  653 441.518 -7.80884 -63.6720
  654 67.5020 -2.92307 14.8457
  655 67.3648 -2.90275 -14.8555
  656 502.299 -3.01733 -7.69202
  657 91.9382 47.7022 -65.1728
  658 93.4953 47.5958 65.4882
  659 512.875 -29.2864 68.9191
  660 179.130 45.1663 106.352
  661 47.2967 -0.354538 14.8410
  662 47.1348 -0.344256 -14.8451
  663 437.831 -27.1940 88.0357
  664 430.056 64.8361 -203.347
  665 424.113 13.6928 -63.7649
  666 555.579 100.835 35.0757
  667 374.592 -17.2798 -0.517683
  668 671.650 120.117 -2.92223
  669 -30.5246 1.54672 -2.03627
  670 -30.3644 1.54287 2.07233
  671 299.613 1.95345 -106.598
  672 26.8198 -0.456188 2.90774
  673 26.6922 -0.457312 -2.93514
  674 374.901 -31.0929 -67.9551
  675 126.513 17.1819 -46.2686
  676 125.531 17.2493 46.2486
  677 4.42580 6.32679 -3.74999
  678 4.60066 6.31916 3.82608
  679 319.735 -27.8347 -16.9663
  680 451.484 -4.46087 -24.3573
  681 218.054 -7.10240 -2.63713
  682 218.069 -7.02927 2.65588
  683 159.093 -8.22723 -15.2491
  684 159.223 -8.33892 15.1992
  685 30.6443 25.1774 -10.1926
  686 31.1394 25.2355 10.3626
  687 459.703 -6.11779 2.15496
  688 208.266 -13.4020 19.7774
  689 209.562 -13.1753 -19.7635
  690 509.868 -39.8803 -2.58208
  691 421.473 -42.3856 -6.91605
  692 332.444 -10.0946 -0.933479
  693 331.297 -9.46827 1.08600
  694 463.395 -48.2970 28.1118
  695 749.644 151.746 42.2341
  696 407.488 -17.0182 -108.626
  697 466.354 -13.2615 24.8533
  698 464.638 -16.9308 -64.9889
  699 148.724 -4.74422 -7.27048
  700 148.734 -4.71114 7.18862
  701 362.862 -5.14434 121.548
  702 998.355 128.754 117.870
  703 71.9227 20.5961 -27.2848
  704 72.0320 20.7354 27.3728
  705 458.045 -5.09797 -1.05352
  706 461.597 -4.61672 1.08339
  707 196.686 102.265 -171.296
  708 487.709 -2.85153 13.9654
  709 421.913 -7.96188 1.45086
  710 559.065 110.353 -12.7451
  711 59.4199 10.2101 -19.9593
  712 59.6750 10.1469 20.0325
  713 520.310 -1.53472 0.310943
  714 424.827 -16.9427 -9.11978
  715 529.296 -7.03039 51.6336
  716 219.769 -15.4951 -30.5190
  717 220.318 -14.8442 30.2513
  718 53.8937 -1.77639 11.2314
  719 53.7415 -1.75475 -11.2579
  720 478.252 -3.79622 -2.14143
  721 412.765 84.9384 215.445
  722 3.58490 3.93602 12.9502
  723 3.74043 4.03094 -12.8434
  724 479.942 -5.65834 -6.04134
  725 466.633 -9.08851 8.68509
  726 375.448 0.454444 -41.6452
  727 3.68997 -41.1931 -4.82810
  728 3.45882 -41.6137 5.25206
  729 172.382 46.6053 -106.390
  730 374.329 -37.2512 -49.6434
  731 195.454 101.287 172.841
  732 513.998 -1.58564 1.26940
  733 502.264 75.3378 45.6766
  734 370.301 33.4906 -16.3468
  735 654.079 131.751 3.08303
  736 508.576 -2.40324 4.87070
  737 -27.8707 0.740061 4.26897
  738 -28.0815 0.744103 -4.25208
  739 542.368 -29.4742 17.8271
  740 353.272 -10.8797 -1.19778
  741 131.038 0.0496431 -33.2767
  742 131.216 -0.0782179 33.1014
  743 466.134 -6.03693 -3.26467
  744 820.687 116.040 -43.0408
  745 60.4437 -1.71396 -7.17527
  746 60.5737 -1.72375 7.12914
  747 517.603 -1.67353 -2.18851
  748 108.301 -4.80583 -9.98460
  749 108.379 -4.82269 9.91588
  750 509.849 -19.5956 -53.6045
  751 471.428 -5.04947 19.4772
  752 425.608 -2.51899 63.1190
  753 517.990 -1.73616 0.115430
  754 485.268 -4.18545 4.54586
  755 320.634 -17.7324 -4.88014
  756 399.713 -11.2069 1.74610
  757 454.772 -28.0220 -40.3482
  758 443.353 -28.0854 25.5947
  759 520.820 63.5387 -57.4091
  760 437.148 -24.8693 18.5922
  761 462.405 -27.2233 52.0187
  762 270.289 -18.5909 13.7356
  763 10.1287 -0.975421 0.527402
  764 9.61291 -1.01173 -0.0379913
  765 404.233 -6.85606 -0.149192
  766 403.390 -6.81392 0.00158069
  767 482.279 -2.71432 -0.198519
  768 483.898 -2.62389 0.308373
  769 462.478 -13.1407 30.7304
  770 426.647 -38.5138 64.4390
  771 351.831 -28.8454 7.30796
  772 313.202 -19.1299 7.24554
  773 836.630 106.989 49.5784
  774 466.702 -12.1941 -19.3632
  775 275.145 49.2045 -160.394
  776 434.272 -21.8754 -15.9603
  777 20.4606 0.298392 -10.8579
  778 20.6557 0.282538 10.8741
  779 393.092 34.4805 -36.6184
  780 970.450 29.4313 -12.5514
  781 490.003 13.1798 -70.0861
  782 20.1211 17.9238 -40.7275
  783 506.182 90.6924 11.6229
  784 393.179 -25.4422 4.27125
  785 443.008 -10.8631 61.7241
  786 372.468 -38.8442 49.9124
  787 590.319 -0.211507 99.1321
  788 21.6701 22.4564 43.3769
  789 270.554 -1.35594 83.5807
  790 375.803 -10.4195 -0.153230
  791 418.524 -36.8916 -65.1998
  792 259.345 -20.3706 -22.9492
  793 205.187 9.89806 -73.3727
  794 485.414 -7.05780 68.6500
  795 312.798 -21.6850 11.1330
  796 64.8744 -1.77350 6.32173
  797 64.7734 -1.77542 -6.37471
  798 452.858 -2.54085 21.5534
  799 412.909 2.30564 -61.4816
  800 -35.1723 1.65502 4.11393
  801 -35.1188 1.65829 -4.08187
  802 304.481 -10.1595 -1.90421
  803 303.623 -9.64774 1.80428
  804 226.418 25.6884 102.380
  805 203.568 -12.0863 15.0505
  806 203.835 -11.8012 -15.1928
  807 517.176 -1.27825 -1.12636
  808 185.010 14.7239 71.5879
  809 10.8357 -0.175451 4.02889
  810 10.6304 -0.171680 -4.04402
  811 447.526 -13.7654 47.5714
  812 474.194 -4.60077 1.64223
  813 -25.3508 0.351557 6.91122
  814 -25.3566 0.359981 -6.89719
  815 295.352 -18.3791 62.9999
  816 58.2936 49.8569 -55.6824
  817 58.9924 47.6688 54.8800
  818 285.479 12.5146 6.85656
  819 -0.530216 -0.330449 -4.60742
  820 -0.302632 -0.333377 4.60417
  821 338.889 -32.0257 -46.8248
  822 460.399 -47.9601 -12.3166
  823 -2.31676 -2.19757 -2.92981
  824 -2.30972 -2.19222 2.91875
  825 30.7361 0.755820 -0.978316
  826 30.8076 0.760094 0.962582
  827 410.167 -36.6656 7.73313
  828 346.280 -35.3724 33.3467
  829 382.242 -7.25610 0.473237
  830 345.440 -28.1631 -8.56959
  831 130.876 -2.31403 -0.811771
  832 130.901 -2.26461 0.800401
  833 -39.5031 0.850449 2.24464
  834 -39.4152 0.849409 -2.21294
  835 430.307 -6.33771 -1.36065
  836 386.433 15.4006 -52.4521
  837 435.348 -9.34120 -4.61420
  838 259.899 -20.0421 21.9284
  839 433.757 -7.49655 -50.5371
  840 461.959 -14.2602 -31.7401
  841 431.992 -5.55426 1.20358
  842 317.564 -11.6986 85.6612
  843 339.276 -33.2512 -19.7191
  844 206.060 -1.55156 -56.6282
  845 207.177 -0.121450 56.9226
  846 290.157 -22.0307 -14.8855
  847 480.179 52.4137 60.0185
  848 453.161 -46.5269 -37.0432
  849 167.562 -5.48068 -3.71749
  850 167.557 -5.40487 3.68419
  851 347.663 -8.67922 0.701877
  852 347.681 -8.74400 -0.624465
  853 415.607 -3.06265 -33.1276
  854 143.330 -6.13570 -12.3323
  855 143.414 -6.18083 12.2386
  856 1.75467 -42.2273 -8.12406
  857 1.66452 -42.4110 8.30050
  858 75.8632 -1.11468 -0.185052
  859 75.8137 -1.13570 0.171415
  860 427.272 -7.46035 -1.89104
  861 326.756 -31.1707 30.2625
  862 503.891 -42.3778 12.6639
  863 303.131 6.33727 26.2490
  864 436.935 -10.9681 5.34024
  865 477.793 -42.3908 -30.9470
  866 71.9002 4.30675 -22.5541
  867 72.1113 4.23418 22.5474
  868 380.333 -7.72369 -0.424536
  869 308.071 -11.3380 -3.49174
  870 307.029 -11.2467 3.76680
  871 475.680 73.9503 32.3917
  872 167.160 -1.79310 -39.9448
  873 167.016 -1.98450 39.7852
  874 329.796 -30.0039 16.0284
  875 33.2994 21.1683 -8.89504
  876 33.6173 21.1305 8.98834
  877 279.629 -19.8390 51.6518
  878 334.356 -21.7684 -5.29734
  879 417.909 -3.17425 33.4713
  880 409.143 -45.8279 18.1079
  881 468.487 -35.3705 -44.4860
  882 325.956 -31.4238 -30.6526
  883 272.198 -18.5200 -13.2066
  884 872.364 71.4431 -13.5762
  885 428.359 -45.2681 4.12772
  886 13.4076 14.5677 3.84350
  887 13.6341 14.5976 -3.72384
  888 373.133 -37.4816 9.84244
  889 408.492 -45.6473 -29.7046
  890 14.5709 12.5529 -0.785509
  891 14.7706 12.5580 0.877791
  892 156.925 -5.69935 30.5338
  893 157.007 -5.86357 -30.7003
  894 189.191 -9.67099 33.4512
  895 189.113 -9.89297 -33.6630
  896 589.894 118.208 15.0786
  897 -0.836006 -18.2292 -8.67296
  898 -0.842201 -18.2058 8.66607
  899 138.072 11.4838 -44.0457
  900 137.417 11.2539 43.6402
  901 1002.55 32.4663 -50.3745
  902 25.3870 -0.124794 1.65619
  903 25.2842 -0.128074 -1.67774
  904 1.88567 -47.1183 1.95113
  905 2.18489 -46.2875 -1.24941
  906 -19.5073 -0.212301 7.17521
  907 -19.5305 -0.206149 -7.17325
  908 110.477 32.3445 -51.7352
  909 112.176 31.2696 51.0352
  910 -8.19132 0.606696 -14.9372
  911 -8.23380 0.571715 14.9639
  912 33.9896 2.73924 -14.8651
  913 34.1890 2.70336 14.8887
  914 121.185 -1.53365 28.1951
  915 121.093 -1.52740 -28.3243
  916 99.8155 -3.47619 -22.7950
  917 99.9225 -3.47066 22.7647
  918 504.956 -2.03430 -7.64410
  919 248.425 54.2275 149.416
  920 342.607 -33.8873 18.6129
  921 245.099 -17.7482 17.8115
  922 469.860 48.7036 -59.4409
  923 986.033 21.0407 20.1785
  924 553.016 26.5578 -54.6239
  925 96.0540 -3.66939 14.3132
  926 95.9512 -3.62872 -14.3615
  927 19.9735 -0.567201 -10.5356
  928 20.1663 -0.572371 10.5374
  929 -0.0836849 -8.17189 -16.1382
  930 -0.156725 -8.24458 16.1930
  931 253.278 -11.5190 8.15163
  932 253.403 -11.7328 -8.18646
  933 32.6026 8.20537 -13.4449
  934 32.8150 8.16926 13.5129
  935 155.937 -7.04861 -26.0224
  936 156.047 -7.05018 26.0094
  937 335.618 -1.26330 -30.8474
  938 161.077 -8.83029 -18.2412
  939 160.979 -8.74015 18.2993
  940 383.179 -11.3906 -0.207981
  941 463.851 -26.3087 -56.0404
  942 205.795 -8.56691 8.58130
  943 205.883 -8.64137 -8.68510
  944 -8.46101 -0.887569 -5.12258
  945 -8.43733 -0.889690 5.11127
  946 470.781 -35.0428 -79.3772
  947 451.951 -26.6035 34.8784
  948 396.908 -28.0683 -5.96026
  949 391.100 13.6147 55.2339
  950 179.126 -10.1732 -20.4994
  951 179.138 -9.98668 20.5600
  952 435.030 17.0049 66.4630
  953 407.823 35.6611 43.8018
  954 816.897 97.8446 17.3719
  955 421.351 -15.6492 6.41076
  956 225.235 -7.03689 -3.87554
  957 225.212 -6.90819 3.90514
  958 378.519 -31.2687 0.726257
  959 524.998 96.1713 -26.9700
  960 459.813 -5.53056 -2.21473
  961 305.153 -8.05477 1.28751
  962 305.040 -7.99720 -1.20226
  963 39.8198 33.9850 -25.1662
  964 40.8051 33.9365 25.3465
  965 72.9644 196.217 -166.186
  966 434.762 -10.1237 50.2335
  967 537.880 -8.80687 -45.4264
  968 -7.69277 5.27404 2.04690
  969 -7.54882 5.27371 -1.97432
  970 1076.43 259.066 -205.563
  971 461.039 -49.6826 2.26999
  972 490.964 -44.4839 -22.8326
  973 454.294 -38.8163 31.0734
  974 563.636 110.537 10.7133
  975 41.7272 45.7531 -52.0330
  976 103.980 170.568 163.873
  977 -2.48956 -6.00774 16.2543
  978 -2.44429 -5.95442 -16.2269
  979 441.064 -11.8125 6.81517
  980 707.646 124.726 -16.1503
  981 42.9190 44.7855 53.9983
  982 -1.93544 -6.61315 -5.69642
  983 -1.93569 -6.59445 5.68125
  984 379.467 -9.49951 -0.247254
  985 285.192 -22.7989 -23.9833
  986 457.906 -36.0591 -37.4359
  987 132.206 35.6185 -67.8253
  988 134.305 36.1988 67.9987
  989 446.023 -11.0213 -44.6379
  990 447.342 -14.6070 13.4377
  991 -11.4554 3.23066 12.9890
  992 -11.3953 3.26198 -12.9452
  993 272.381 -17.9136 -48.6769
  994 451.368 29.2041 -66.4710
  995 334.850 -13.0995 2.16210
  996 242.916 -7.31132 0.753423
  997 242.869 -7.35540 -0.726194
  998 -4.97495 -5.65817 -11.7801
  999 -4.98191 -5.67040 11.7698
  1000 453.408 -16.5305 -16.8079
  1001 431.041 -5.46189 0.329120
  1002 430.644 -5.46835 -0.158047
  1003 596.969 98.8062 -36.3513
  1004 110.390 9.35004 -34.9823
  1005 110.665 9.16375 34.9128
  1006 72.1629 -0.769743 -18.9777
  1007 72.3005 -0.783923 18.9597
  1008 493.376 27.0315 70.9022
  1009 464.256 -9.19580 -9.12083
  1010 84.6002 13.0571 -28.7387
  1011 84.9325 12.9611 28.8429
  1012 482.903 -3.05653 -1.34730
  1013 453.442 -19.8357 -26.0980
  1014 442.832 -49.5104 -21.6526
  1015 17.7140 15.7175 1.29882
  1016 17.2402 15.6427 -1.08275
  1017 -20.7123 3.60497 7.48445
  1018 -20.6343 3.61525 -7.43166
  1019 276.255 10.2345 -11.4635
  1020 762.159 191.214 -55.9710
  1021 351.365 -25.9343 -3.93651
  1022 233.936 -10.2307 -50.0201
  1023 559.506 -20.8865 1.06302
  1024 234.851 -10.2127 50.7026
  1025 403.057 -46.5411 34.2593
  1026 456.757 -18.9368 -40.0818
  1027 160.695 -3.91332 -1.18786
  1028 160.713 -3.84996 1.18094
  1029 313.480 -24.7332 -13.2676
  1030 193.767 -7.32997 -39.2597
  1031 193.705 -7.38542 39.0755
  1032 64.9339 42.6721 -42.7189
  1033 65.9473 42.5624 42.8473
  1034 136.069 -4.38441 -4.19633
  1035 136.087 -4.33331 4.14807
  1036 405.842 -13.4453 2.99087
  1037 343.324 2.30903 -122.941
  1038 420.467 -14.1904 -6.43158
  1039 380.926 -42.0287 -21.4498
  1040 252.673 -11.0012 5.68701
  1041 252.872 -11.0794 -5.70173
  1042 489.426 -3.43099 1.70203
  1043 439.358 -10.9881 -6.37370
  1044 290.568 7.12967 21.6553
  1045 472.032 -4.70956 -18.1336
  1046 184.620 54.7139 120.363
  1047 485.138 -4.59813 -14.7757
  1048 129.269 21.6295 -51.4626
  1049 125.496 21.8660 49.4393
  1050 578.057 -7.91563 -3.14208
  1051 54.2388 27.9731 -22.8855
  1052 54.7289 27.7771 22.8859
  1053 9.42713 0.669399 4.00487
  1054 9.87716 0.755409 -3.70852
  1055 80.1761 -2.09750 5.00003
  1056 80.1004 -2.11033 -5.05575
  1057 209.641 55.3416 -133.019
  1058 1109.29 294.711 221.285
  1059 452.019 -16.5156 17.2353
  1060 406.641 -45.4874 -16.5087
  1061 284.304 -23.3935 -38.0353
  1062 -5.05401 6.50247 10.9510
  1063 -4.94436 6.53806 -10.8771
  1064 320.250 -16.9236 4.02968
  1065 352.417 -13.6433 1.12413
  1066 -0.146899 -25.7971 8.32879
  1067 -0.138163 -25.8244 -8.32712
  1068 54.4380 33.5826 -27.0161
  1069 55.0725 33.5258 27.1724
  1070 316.071 -15.6110 -3.86615
  1071 26.6444 11.6150 8.94611
  1072 26.4344 11.6294 -8.86005
  1073 480.592 -18.5146 65.0445
  1074 348.824 -36.0279 -33.1792
  1075 285.976 -23.7676 38.0359
  1076 458.735 -8.77202 -68.9696
  1077 480.546 -5.68017 6.60634
  1078 177.032 27.3888 81.3642
  1079 178.295 26.2054 -80.0301
  1080 283.736 -13.5638 -68.6413
  1081 399.309 -14.8558 -2.93715
  1082 326.140 -19.9817 6.92100
  1083 381.064 -35.7379 -3.44904
  1084 518.423 -2.01120 -3.83004
  1085 283.858 -13.4532 6.36387
  1086 283.737 -14.1944 -6.51569
  1087 10.2552 11.8253 8.31909
  1088 10.4888 11.9108 -8.18423
  1089 462.930 17.5419 -71.3931
  1090 106.267 5.17317 -30.9908
  1091 106.551 5.05752 30.9148
  1092 80.7376 1.38918 -22.4209
  1093 80.9129 1.34574 22.3869
  1094 523.687 -18.6514 99.3335
  1095 456.120 -21.0652 39.4073
  1096 225.617 -10.4225 -42.6652
  1097 526.027 -2.21910 -2.27739
  1098 595.040 113.033 -27.2239
  1099 479.453 -5.01905 -4.01708
  1100 451.526 -48.3986 12.1328
  1101 335.564 -25.1995 60.5278
  1102 528.913 -0.831837 0.338462
  1103 290.041 8.98706 -18.3500
  1104 383.691 -41.0224 -11.2370
  1105 225.987 -10.8891 42.2295
  1106 387.195 -35.4332 1.23971
  1107 480.512 -7.18853 12.8824
  1108 351.508 22.2288 28.4639
  1109 242.470 -17.9099 -34.3172
  1110 720.898 108.418 -48.6104
  1111 546.565 26.0018 57.6718
  1112 413.391 51.6209 6.93677
  1113 524.082 -0.0973825 1.94607
  1114 211.184 -13.3135 -26.5383
  1115 143.766 90.5263 -133.998
  1116 255.900 7.30159 -96.6865
  1117 293.570 -22.7901 17.3870
  1118 248.722 -18.7082 32.3011
  1119 210.701 -12.6768 26.7918
  1120 440.826 4.22922 69.6893
  1121 332.596 -12.1971 -1.76249
  1122 517.354 -3.98871 5.26367
  1123 -3.76931 -0.00583173 16.1277
  1124 -3.70679 0.0481308 -16.0863
  1125 347.956 -10.6018 0.941508
  1126 0.221402 4.41576 14.2657
  1127 0.334834 4.48682 -14.1860
  1128 198.604 -6.51418 4.69624
  1129 198.614 -6.61034 -4.70129
  1130 489.375 -2.72527 12.2604
  1131 394.600 -24.5691 -4.73168
  1132 370.004 -20.2795 -0.262293
  1133 413.180 -29.2206 11.4678
  1134 127.872 64.3939 -100.567
  1135 404.757 -15.9028 4.23001
  1136 63.7726 1.02080 -18.4666
  1137 63.9391 0.990634 18.4566
  1138 86.1438 56.0272 -71.5279
  1139 644.114 87.4531 14.7643
  1140 50.5971 -2.21830 10.8382
  1141 50.4381 -2.20064 -10.8524
  1142 87.6885 55.2182 69.1734
  1143 371.582 -31.3595 -2.21831
  1144 191.329 -9.12547 10.4852
  1145 191.353 -9.16442 -10.6390
  1146 752.438 159.975 -45.0556
  1147 408.779 -40.9683 0.164198
  1148 141.682 84.9039 133.753
  1149 12.5288 0.0472180 -12.6586
  1150 13.4667 0.209626 13.7555
  1151 434.296 54.4208 34.9023
  1152 34.0226 17.8221 -9.23791
  1153 34.2885 17.8292 9.31631
  1154 411.416 -35.9464 -8.36293
  1155 -0.181792 -39.6814 -7.74064
  1156 -0.200384 -39.6846 7.77593
  1157 439.387 -37.1221 -21.1626
  1158 -1.89944 0.515273 3.59048
  1159 -2.12958 0.518668 -3.59755
  1160 69.4207 25.4879 -28.9915
  1161 69.7936 25.5997 28.7481
  1162 -18.8056 0.0418310 -4.39746
  1163 -18.5700 0.0402323 4.40236
  1164 437.430 -5.47679 -0.329150
  1165 -42.4810 1.29201 0.400867
  1166 -42.3594 1.29146 -0.371506
  1167 234.769 -18.5573 -25.7241
  1168 6.35129 -53.4717 -7.04997
  1169 121.107 -3.49479 7.90669
  1170 121.057 -3.50595 -7.98544
  1171 373.292 -7.89033 0.686833
  1172 373.991 -7.70666 -0.615217
  1173 6.82307 -50.7735 8.41210
  1174 442.021 -23.3704 -21.4497
  1175 502.897 -2.49805 8.90752
  1176 449.323 -28.8953 -31.9730
  1177 396.066 3.09606 54.8003
  1178 2.29536 -15.0020 11.3912
  1179 2.48904 -14.8800 -11.1906
  1180 289.582 -21.3524 14.1074
  1181 -19.2665 1.88782 10.4132
  1182 -19.2306 1.90358 -10.3811
  1183 742.734 117.592 8.31333
  1184 858.639 278.252 -195.525
  1185 459.203 -44.3812 26.4563
  1186 193.731 -5.90740 -0.744465
  1187 193.748 -5.84054 0.745157
  1188 929.242 90.2475 -83.6624
  1189 71.8516 -1.84742 11.2437
  1190 71.7208 -1.82020 -11.2816
  1191 431.319 -1.40261 -21.5923
  1192 277.953 -22.5939 29.0194
  1193 454.197 -44.2909 -18.4853
  1194 439.801 -32.0982 -24.4094
  1195 270.469 -9.32246 71.8732
  1196 102.022 18.7068 -39.3182
  1197 101.974 18.5420 39.1087
  1198 133.226 49.6349 -85.7369
  1199 133.419 45.9775 85.7462
  1200 39.8591 11.0215 -14.2838
  1201 40.0878 10.9899 14.3657
  1202 543.690 94.5882 -39.2777
  1203 29.2415 26.9692 -13.4364
  1204 29.9022 27.0147 13.6367
  1205 391.892 -30.3353 3.56716
  1206 724.042 112.404 54.1354
  1207 98.0754 -4.03033 -7.79569
  1208 98.1527 -4.02921 7.72625
  1209 467.071 342.431 -285.634
  1210 371.596 22.1798 -43.8532
  1211 342.763 26.1421 17.9544
  1212 48.7731 19.9681 -16.8624
  1213 49.0006 19.9704 16.9507
  1214 15.4594 -0.104863 2.61926
  1215 15.2990 -0.104708 -2.64014
  1216 433.541 -34.9318 19.7118
  1217 425.928 -17.5828 10.1434
  1218 292.338 86.1994 -206.718
  1219 670.706 146.828 -10.2508
  1220 290.664 -8.51804 -78.9521
  1221 374.918 -12.2361 -0.295512
  1222 25.8065 -1.83492 -0.583524
  1223 25.8602 -1.83345 0.580251
  1224 -7.24784 2.95018 -6.33267
  1225 -7.06161 2.93829 6.37789
  1226 253.228 3.03822 -82.9152
  1227 461.319 -10.6320 11.9186
  1228 302.198 6.31450 112.435
  1229 407.675 -20.6711 -7.16653
  1230 211.928 77.2042 -163.544
  1231 328.216 -15.4664 -85.0940
  1232 390.113 -41.6456 9.06483
  1233 475.802 -7.79416 19.8006
  1234 417.492 -9.45963 -2.33759
  1235 233.813 -17.4422 25.8625
  1236 523.310 -28.3703 -34.6723
  1237 499.036 43.9684 67.0535
  1238 219.238 1.08735 -65.9340
  1239 492.121 -3.56138 1.35974
  1240 403.398 49.9849 -9.91472
  1241 176.971 -6.36647 -7.73864
  1242 176.945 -6.30396 7.66126
  1243 753.424 179.289 48.7712
  1244 1020.75 27.1078 47.1642
  1245 0.962963 -48.3380 -7.66221
  1246 0.932799 -48.3892 7.72227
  1247 114.056 61.1574 94.2951
  1248 270.801 -8.46665 -1.85626
  1249 270.859 -8.41984 1.95472
  1250 368.409 -37.1678 -11.9185
  1251 441.364 36.4926 60.2807
  1252 457.394 -9.58767 -7.40569
  1253 528.090 -1.60063 -0.508001
  1254 913.447 204.216 -129.684
  1255 148.031 -5.66482 8.10789
  1256 148.009 -5.67603 -8.20329
  1257 439.847 -40.8090 20.0521
  1258 765.905 192.748 -63.8626
  1259 426.272 -19.1106 -11.5202
  1260 313.397 -22.1579 -10.2375
  1261 383.381 -41.5686 20.9698
  1262 374.834 -19.3023 1.12019
  1263 14.4694 6.62579 -19.3440
  1264 510.802 -30.2135 42.1469
  1265 414.695 -27.4946 -11.2287
  1266 15.9046 7.34372 21.2203
  1267 425.921 -32.9996 -80.1608
  1268 402.149 27.2100 -169.174
  1269 659.565 87.3114 -8.20596
  1270 530.037 -0.595845 -0.147900
  1271 529.146 -1.08174 0.452238
  1272 421.670 -25.0085 12.4578
  1273 164.855 19.6438 -65.0471
  1274 479.917 -42.2006 33.7508
  1275 811.016 186.522 87.7899
  1276 203.588 71.5463 159.449
  1277 6.13681 1.58740 11.4290
  1278 6.35084 1.69417 -11.2814
  1279 502.923 -39.3064 -44.6645
  1280 206.434 -11.4758 -12.5065
  1281 206.405 -11.5061 12.3017
  1282 470.120 -30.6732 53.4500
  1283 20.6250 0.0777636 11.7441
  1284 20.4333 0.0869713 -11.7378
  1285 -2.46957 -9.67476 13.5169
  1286 -2.45218 -9.65400 -13.5200
  1287 88.1616 -3.01393 -10.2510
  1288 88.2628 -3.03133 10.1916
  1289 249.536 -16.7318 -38.8234
  1290 251.775 -8.77177 2.63477
  1291 251.764 -8.94936 -2.54198
  1292 528.416 -0.579989 0.179008
  1293 473.167 -7.50107 -22.3389
  1294 41.6759 1.66711 -14.8879
  1295 41.8615 1.64045 14.8963
  1296 250.527 -17.6854 38.5418
  1297 533.152 -0.694773 0.241120
  1298 504.691 -0.887102 -0.576426
  1299 504.653 -1.19276 0.452158
  1300 669.707 143.454 2.39116
  1301 492.713 -3.82134 -3.20251
  1302 438.722 -5.21064 0.175294
  1303 485.863 -7.73580 -11.3847
  1304 525.996 -1.89141 1.50072
  1305 552.940 58.1616 57.1337
  1306 639.680 134.190 11.5461
  1307 512.667 -2.20379 -5.84402
  1308 -4.29470 -1.07179 3.84216
  1309 -4.31209 -1.07107 -3.85414
  1310 288.527 -18.5738 9.95214
  1311 288.474 -17.7790 -9.69186
  1312 557.937 64.3979 -54.0972
  1313 118.437 40.9969 -71.1947
  1314 119.197 39.8959 70.4544
  1315 381.080 0.0892598 -27.4134
  1316 387.431 -7.00242 -0.592797
  1317 386.959 -6.95248 0.511478
  1318 -9.15582 -1.41728 13.7288
  1319 -9.13920 -1.39182 -13.7241
  1320 432.575 -1.13469 21.5499
  1321 653.885 129.927 -3.79789
  1322 51.5135 -1.80013 -6.45484
  1323 51.6411 -1.80427 6.40824
  1324 482.808 -45.8228 17.0383
  1325 1.58744 8.41239 11.0218
  1326 1.72971 8.46303 -10.9297
  1327 94.4691 -2.14786 -2.20182
  1328 94.5141 -2.11653 2.17056
  1329 381.163 -0.485198 27.8369
  1330 21.4321 0.787219 -1.00613
  1331 21.5179 0.790237 0.990319
  1332 489.527 -6.08750 7.18675
  1333 684.147 124.021 7.47570
</Section>

newXOutput 63

<Section columns = "stress_xx | stress_yy | stress_xy">
  1 549.414 -1.59054 1.00270
  2 550.241 -1.99286 -1.30167
  3 16.7060 0.505235 -1.40158
  4 -0.414501 -0.617517 -0.417182
  5 995.238 412.471 329.730
  6 1010.56 471.070 -332.983
  7 -0.410081 -0.613632 0.411467
  8 16.6513 0.502376 1.39834
  9 553.056 -1.13583 -0.909388
  10 549.156 -2.01019 -1.33511
  11 549.674 -1.59303 1.13605
  12 547.209 -0.934478 0.422633
  13 546.317 -1.89133 -0.446665
  14 545.757 -1.83065 2.00599
  15 538.368 -1.33895 1.85497
  16 540.716 -3.93998 2.95111
  17 524.685 -3.30353 6.48473
  18 514.677 -1.54187 7.81991
  19 500.744 -1.83987 8.47594
  20 476.308 -1.63605 11.9693
  21 449.514 -1.36382 13.9660
  22 415.861 1.79606 19.2624
  23 369.567 2.79259 17.4951
  24 350.865 -0.0710583 25.1131
  25 292.774 4.15339 17.9025
  26 257.254 5.41517 14.0686
  27 247.995 2.76111 10.3890
  28 238.069 7.94333 0.783084
  29 243.517 8.52137 -13.9051
  30 254.391 2.50099 -17.4415
  31 298.034 1.17617 -23.2352
  32 341.849 -2.13414 -24.0214
  33 371.219 2.31869 -17.4579
  34 416.347 2.03839 -19.2597
  35 448.390 -1.61104 -14.9790
  36 478.967 -1.81677 -11.2792
  37 498.845 -1.36634 -8.61376
  38 513.165 -1.64457 -7.14516
  39 528.585 -1.93192 -4.09892
  40 534.403 -2.02724 -3.89206
  41 540.122 -1.90833 -3.45096
  42 545.891 -2.15883 -0.580508
  43 548.034 -2.71333 -1.37739
  44 544.747 0.0101392 0.0173548
  45 549.033 -1.47125 -1.29609
  46 551.176 -2.90466 1.45589
  47 553.703 -1.69217 -0.0562141
  48 526.691 0.0597337 -0.830332
  49 496.345 -2.53558 -1.54488
  50 461.866 -5.41224 -2.16950
  51 426.076 -4.72359 -1.56647
  52 394.764 -7.26488 -1.43621
  53 361.643 -7.83561 -1.29739
  54 328.174 -6.91148 -0.593959
  55 292.912 -7.32104 -0.842159
  56 263.057 -7.66522 -1.12869
  57 223.288 -7.26792 -0.898389
  58 182.335 -4.63247 -0.575123
  59 148.451 -2.99055 -0.445975
  60 106.609 -1.88313 -0.138451
  61 76.2365 -1.76020 -2.05654
  62 48.0519 -2.34490 -0.653612
  63 19.6109 0.263086 1.32576
  64 12.1246 1.97575 0.560318
  65 9.89692 0.798904 1.42587
  66 10.6978 0.359230 1.44138
  67 4.49677 1.13396 0.737540
  68 1.93536 1.49192 2.96493
  69 0.518429 0.528144 1.21252
  70 -9.92585 1.11852 1.31336
  71 -15.0266 0.762019 2.88523
  72 -17.4547 0.241847 3.05130
  73 -29.0912 1.04028 2.47459
  74 -33.7126 1.56806 4.46239
  75 -39.0271 0.951781 1.83524
  76 -44.8964 0.697121 2.54156
  77 -47.6826 0.739315 1.19297
  78 -53.5237 1.82615 -0.938684
  79 -54.6268 1.25076 -0.680185
  80 -50.1742 0.934016 -1.54486
  81 -43.3665 1.24525 -3.18106
  82 -35.4891 0.570761 -5.00962
  83 -26.6197 0.321552 -5.28529
  84 -16.0416 -0.513312 -5.57499
  85 -7.04946 -0.417442 -3.28931
  86 -2.98049 -1.15410 -2.06739
  87 -0.483680 -2.98144 -1.80206
  88 -0.800614 -7.61841 -3.16805
  89 -0.917917 -14.7461 -5.51245
  90 -0.157181 -27.5196 -5.90318
  91 0.355326 -37.8559 -7.36105
  92 0.799869 -54.3006 -5.98074
  93 2.39833 -64.1591 -6.99920
  94 0.461520 -68.4603 -5.61760
  95 -0.0535817 -77.7895 -3.06044
  96 2.20810 -73.9740 -0.0715212
  97 9.02832 -95.2765 5.20931
  98 8.35518 -46.4968 15.7143
  99 19.5527 -12.3610 33.4531
  100 57.6942 109.864 99.8524
  101 239.259 330.498 274.350
  102 1303.46 141.410 192.567
  103 1096.19 38.9074 69.1565
  104 1044.83 16.5955 23.7576
  105 1016.57 10.8126 -0.132634
  106 1034.68 15.8068 -19.5649
  107 1106.06 33.2056 -57.1601
  108 1289.88 111.844 -178.934
  109 155.620 374.209 -227.038
  110 40.5968 84.5630 -77.7318
  111 14.4408 -21.8936 -28.0679
  112 7.57668 -52.0829 -13.6830
  113 8.97396 -99.2639 -4.22855
  114 2.10704 -75.7351 0.761082
  115 -0.184349 -78.6675 3.41904
  116 0.378457 -68.7964 5.80941
  117 2.35283 -64.2338 7.07995
  118 0.782416 -54.2654 6.01032
  119 0.342156 -37.7989 7.37130
  120 -0.163614 -27.4491 5.89916
  121 -0.918670 -14.7014 5.50031
  122 -0.802341 -7.58021 3.15680
  123 -0.483313 -2.96711 1.79216
  124 -2.96330 -1.15243 2.05908
  125 -7.01887 -0.419349 3.28029
  126 -16.0020 -0.517848 5.56945
  127 -26.5737 0.316505 5.28631
  128 -35.4629 0.565239 5.01909
  129 -43.3761 1.24128 3.19986
  130 -50.2209 0.933675 1.56518
  131 -54.7214 1.24956 0.700074
  132 -53.6583 1.82586 0.959430
  133 -47.8628 0.741206 -1.17478
  134 -45.1111 0.699448 -2.52796
  135 -39.2590 0.954457 -1.82437
  136 -33.9644 1.57125 -4.45768
  137 -29.3505 1.04329 -2.47064
  138 -17.7115 0.243682 -3.05158
  139 -15.2849 0.765206 -2.88894
  140 -10.1731 1.12298 -1.31900
  141 0.299351 0.531096 -1.22343
  142 1.74449 1.49501 -2.98145
  143 4.33119 1.13484 -0.752129
  144 10.5713 0.358658 -1.45564
  145 9.79924 0.797500 -1.43735
  146 12.0462 1.97333 -0.570262
  147 19.5495 0.261432 -1.33161
  148 47.9961 -2.35355 0.647683
  149 76.1856 -1.78173 2.05009
  150 106.570 -1.92124 0.129831
  151 148.428 -3.04564 0.441548
  152 182.315 -4.69626 0.574516
  153 223.258 -7.32292 0.907203
  154 262.991 -7.69205 1.14693
  155 292.806 -7.28521 0.885065
  156 328.026 -6.78341 0.643014
  157 361.441 -7.53522 1.22390
  158 394.938 -7.35251 1.25675
  159 426.207 -5.25874 1.65553
  160 462.223 -5.31453 1.96789
  161 497.311 -2.25125 1.56648
  162 525.872 0.0271498 0.808747
  163 310.623 -28.1127 -27.7062
  164 309.403 -28.6263 27.6395
  165 95.0644 26.0008 -39.3869
  166 95.9953 26.0926 39.2265
  167 365.051 -16.6900 96.7842
  168 382.397 -18.9271 -94.2311
  169 182.517 -9.73681 12.9491
  170 182.491 -9.64269 -13.1166
  171 389.624 -14.3041 0.897284
  172 381.995 -14.3442 -0.752752
  173 521.760 93.6682 -12.3701
  174 526.435 4.73515 -63.0784
  175 516.329 8.65674 68.2671
  176 127.630 -4.92040 -26.6326
  177 127.646 -4.88635 26.5856
  178 455.065 -44.9189 20.9692
  179 454.689 -35.0123 -30.8297
  180 7.06787 11.1619 10.0267
  181 7.25723 11.2328 -9.91363
  182 621.667 126.952 16.4574
  183 121.947 55.0160 -87.1454
  184 130.696 55.5114 93.2732
  185 439.859 -20.9963 13.9275
  186 658.975 139.397 -4.96433
  187 287.568 -11.0061 -4.17586
  188 287.117 -11.2752 4.14787
  189 451.799 -14.7687 -12.8206
  190 599.398 -1.30308 -12.6381
  191 116.686 -3.52756 5.03008
  192 116.642 -3.55629 -5.09362
  193 50.6431 6.07073 -18.2855
  194 50.8676 6.00854 18.3285
  195 256.550 -9.73628 -61.3901
  196 255.552 -10.2585 62.1662
  197 305.810 -20.2412 -10.5265
  198 306.415 -20.1283 11.1186
  199 83.6023 -2.91747 14.3053
  200 83.4789 -2.87915 -14.3330
  201 592.689 -7.77274 42.9857
  202 486.795 -47.3219 -6.65168
  203 461.122 -5.36921 -1.72069
  204 451.135 -6.43086 1.71722
  205 463.137 54.4963 48.7199
  206 20.5454 18.4655 -8.16711
  207 21.2668 18.4371 8.48884
  208 459.588 -18.3026 56.6082
  209 426.060 32.7452 -56.1526
  210 300.721 70.6260 -196.093
  211 316.223 59.7164 182.297
  212 9.66717 10.3045 -2.34261
  213 9.84923 10.3034 2.43059
  214 458.268 -16.0883 -58.5699
  215 789.890 110.154 -7.80275
  216 380.761 -41.2709 36.2151
  217 383.556 -41.0524 -34.3744
  218 380.525 -27.5780 -0.227907
  219 468.940 -8.02387 6.67427
  220 231.117 -16.0205 -23.6085
  221 227.587 -15.9598 24.2845
  222 140.091 2.70785 -39.7551
  223 140.295 2.65606 39.4389
  224 482.259 -50.2233 -8.67420
  225 377.426 -29.2808 -1.41480
  226 467.222 -7.86829 -5.08424
  227 366.059 -10.2066 -0.522864
  228 369.159 -9.57842 1.19996
  229 462.869 -20.8538 31.9568
  230 43.6872 0.298179 -15.2810
  231 43.8649 0.279544 15.2818
  232 -5.62022 -3.69510 -15.5028
  233 -5.65017 -3.73271 15.5149
  234 76.3718 -3.20358 -8.35281
  235 76.4789 -3.21129 8.29262
  236 199.874 -6.27475 5.80125
  237 199.913 -6.37731 -5.84173
  238 227.607 16.0368 -88.9133
  239 227.636 13.4220 87.9281
  240 469.155 -14.9013 -27.3460
  241 223.632 -13.1490 -37.7278
  242 223.828 -13.5452 37.2303
  243 417.770 6.70755 63.6770
  244 368.570 31.5587 3.86773
  245 403.682 -40.3294 0.996386
  246 2.09819 -8.99546 -13.6047
  247 1.96233 -9.10423 13.7225
  248 26.9739 29.5758 -31.5000
  249 28.6605 28.6509 32.9862
  250 397.047 -39.4685 -3.61137
  251 709.830 137.199 -15.7352
  252 38.9228 25.9752 -14.2306
  253 39.3769 25.9683 14.3826
  254 -14.4619 3.46640 10.1722
  255 -14.3837 3.48448 -10.1178
  256 712.921 129.095 19.9323
  257 254.463 -12.6466 -9.76201
  258 254.277 -12.4551 9.59371
  259 491.974 -32.6724 51.3673
  260 879.652 143.414 90.0368
  261 151.293 -8.05217 -21.9989
  262 151.272 -8.10877 21.9819
  263 504.413 75.6657 -46.0805
  264 850.047 162.067 -82.8294
  265 597.842 61.8945 41.8039
  266 644.448 46.3348 -125.311
  267 403.377 -19.6838 4.43329
  268 460.690 2.70511 -70.9035
  269 434.368 -30.9645 -16.8271
  270 482.715 -9.01169 17.1824
  271 2.44030 4.65563 -6.13700
  272 2.62359 4.64141 6.20038
  273 477.524 -13.6737 -120.427
  274 54.1177 16.0228 -18.6526
  275 54.3708 15.9961 18.7494
  276 464.895 -11.3028 -35.6337
  277 68.3136 73.6482 -90.7053
  278 62.1467 -0.313797 -1.95272
  279 62.2105 -0.301791 1.92641
  280 490.355 -29.8701 -53.7499
  281 88.5899 39.7959 -49.3430
  282 89.8527 39.5922 49.4826
  283 29.5253 -0.820981 10.6221
  284 29.3373 -0.811353 -10.6275
  285 402.752 -18.7515 -4.34452
  286 68.7979 72.8892 93.0450
  287 633.623 55.0342 146.078
  288 179.724 -7.32450 -7.97964
  289 179.699 -7.28118 7.87960
  290 323.569 -14.0694 -4.13802
  291 323.416 -15.1595 4.52211
  292 276.203 27.5695 -133.714
  293 442.713 -48.2444 -4.23363
  294 500.587 -3.58497 2.88304
  295 266.168 27.6317 129.508
  296 310.115 -9.16914 -1.43953
  297 310.000 -9.16432 1.69835
  298 435.093 -32.1746 17.1319
  299 497.201 -5.71375 -7.83572
  300 -0.206750 1.83330 -8.51243
  301 -0.00330503 1.81953 8.54344
  302 628.506 124.417 -4.08166
  303 548.214 -24.1321 25.1695
  304 492.996 -3.18633 -0.673153
  305 501.327 -2.78858 0.610270
  306 494.054 -42.1455 45.4922
  307 609.072 66.0643 -38.2667
  308 536.732 99.6366 25.9311
  309 243.222 -15.2106 -15.2468
  310 241.077 -15.4798 15.5175
  311 499.911 -3.52022 -1.80154
  312 332.062 -24.7379 -67.1214
  313 327.140 -26.1550 13.2465
  314 311.815 -16.6316 76.1702
  315 493.260 -6.38135 9.45069
  316 117.231 -5.37587 -13.8166
  317 117.315 -5.41442 13.7624
  318 455.543 -13.2752 118.989
  319 292.469 -23.4058 -18.9768
  320 534.640 69.3801 57.3128
  321 172.845 12.0820 -58.4137
  322 166.538 12.6409 57.9659
  323 55.7142 -1.08746 -3.53893
  324 55.8077 -1.08056 3.49714
  325 436.659 -9.64451 3.47634
  326 418.970 -6.89393 0.234279
  327 416.679 -7.46449 -0.371062
  328 461.692 -11.8946 37.8081
  329 45.1060 -1.54504 8.01050
  330 44.9437 -1.53108 -8.04278
  331 139.531 -3.44307 -2.94293
  332 139.551 -3.39083 2.91516
  333 4.70681 -19.3625 -6.94442
  334 4.41343 -19.5327 7.29395
  335 364.563 15.9276 43.4032
  336 553.396 -22.2437 -19.5730
  337 360.586 -19.8092 -0.523116
  338 406.011 -9.09220 -1.37875
  339 430.019 53.3213 -26.3002
  340 87.3995 -2.84491 -19.8366
  341 87.5169 -2.84752 19.8237
  342 350.852 -18.7294 2.30778
  343 102.406 3.21522 -28.3987
  344 102.603 3.12965 28.3208
  345 20.8720 16.6831 -1.71606
  346 21.1123 16.6825 1.81972
  347 424.937 -44.9723 46.0024
  348 928.407 61.0870 23.8911
  349 383.274 6.07969 -51.3191
  350 317.967 -28.4493 42.0804
  351 316.355 -27.8586 -43.2889
  352 467.771 -7.43999 70.0306
  353 418.136 -2.83553 50.4738
  354 419.535 -43.4767 -47.3987
  355 253.147 -7.05403 0.818494
  356 253.106 -7.12719 -0.757117
  357 464.089 -30.2267 41.9398
  358 635.610 125.954 1.51677
  359 496.049 -6.01107 -12.6917
  360 132.849 -5.14899 -10.1245
  361 132.911 -5.15399 10.0337
  362 468.059 -43.2592 -56.6864
  363 494.494 35.1798 -69.5138
  364 337.297 18.1287 -27.9214
  365 467.493 -31.0073 -48.2540
  366 -14.9770 0.648255 -11.9336
  367 -14.9930 0.629118 11.9489
  368 392.581 -10.2329 0.374759
  369 -5.57478 -3.30236 -7.28268
  370 -5.56751 -3.30323 7.26697
  371 302.150 157.640 -237.655
  372 13.0572 11.8405 6.16035
  373 13.3630 11.9311 -5.99600
  374 415.106 -2.99123 -50.0666
  375 230.613 -10.2413 7.38060
  376 230.766 -10.3698 -7.45100
  377 -1.42133 -16.2189 13.6161
  378 -1.39600 -16.1894 -13.6026
  379 246.565 164.990 224.084
  380 189.407 -10.2184 -29.7278
  381 189.563 -9.79649 29.7505
  382 61.1031 45.6131 -45.9606
  383 62.3594 45.5046 45.7141
  384 -21.9607 3.64787 3.65372
  385 -21.8529 3.65405 -3.59471
  386 477.724 32.3806 69.9257
  387 365.896 -38.3106 21.2950
  388 366.289 -33.6416 9.74573
  389 442.167 -49.8396 -9.10696
  390 113.784 13.9227 -39.0553
  391 114.164 13.9013 39.0033
  392 10.3470 -11.8395 2.70319
  393 9.80761 -12.0749 -1.93386
  394 452.361 64.4134 17.1862
  395 450.024 -13.5741 10.3378
  396 260.888 -20.4239 27.6679
  397 163.125 -4.28488 -35.3226
  398 163.195 -4.31564 35.0784
  399 330.692 -10.8354 -2.05691
  400 330.348 -9.62698 1.77707
  401 258.734 -20.9543 -29.2488
  402 203.147 -3.55492 -47.2990
  403 203.126 -3.83081 47.6656
  404 469.873 -42.7651 -28.0091
  405 275.796 -21.5238 17.9397
  406 427.168 -13.8147 5.63214
  407 426.306 -12.6874 -4.55031
  408 359.671 -33.4075 -11.0112
  409 510.291 -2.75538 -3.08043
  410 174.934 72.2832 -136.224
  411 483.039 -7.28380 21.4550
  412 509.105 -3.15674 4.78296
  413 186.804 -10.1891 18.2422
  414 186.873 -10.0543 -18.2289
  415 364.270 -37.8567 -21.9186
  416 54.1425 23.5618 20.1341
  417 53.8561 23.5428 -20.1462
  418 937.613 61.0413 -48.6875
  419 419.298 -24.5021 -8.90095
  420 513.222 -2.32949 1.77255
  421 165.411 67.6759 129.963
  422 760.459 127.689 26.0065
  423 448.040 -7.66808 -2.71751
  424 338.030 -24.9868 -8.77283
  425 143.029 27.5851 -65.8365
  426 152.280 25.5438 65.4419
  427 414.460 -26.7768 8.88617
  428 441.379 -5.64455 -36.9225
  429 1.00255 -0.444859 7.99979
  430 0.786790 -0.440280 -7.99316
  431 161.122 39.0865 -87.5950
  432 161.636 39.2235 87.3325
  433 21.3136 8.87011 -9.18343
  434 21.5166 8.85172 9.26250
  435 372.192 -8.18767 0.348242
  436 371.745 -8.00096 -0.226493
  437 462.276 -21.3012 -33.4536
  438 -0.803967 -0.747375 16.3035
  439 -0.720758 -0.672353 -16.2415
  440 475.831 -46.4457 23.9347
  441 449.375 -12.7574 -9.02651
  442 725.179 138.613 -24.0771
  443 35.4468 -1.36136 3.84152
  444 35.3030 -1.36159 -3.87768
  445 866.879 249.245 114.919
  446 18.3256 12.8855 -28.5208
  447 57.9808 2.51459 -19.4629
  448 58.1695 2.47252 19.4643
  449 865.419 255.264 -111.725
  450 19.4231 14.8422 31.1669
  451 -20.6190 2.75771 0.388809
  452 -20.4791 2.75364 -0.332542
  453 50.5981 34.6885 -27.7412
  454 51.4496 34.7108 27.8854
  455 569.698 90.2943 -45.9757
  456 456.593 -18.3163 -21.0456
  457 510.614 -2.40733 -1.52209
  458 477.341 -7.49917 -25.3034
  459 -4.90144 3.86761 14.8417
  460 -4.81657 3.91624 -14.7829
  461 461.407 -19.0005 24.7881
  462 302.555 -17.5918 -8.44362
  463 301.653 -17.7613 7.45766
  464 407.962 -44.8759 -9.77606
  465 292.557 -3.49630 -92.8793
  466 445.496 -6.76601 37.6752
  467 363.780 -12.6551 1.10404
  468 530.903 -38.1173 -10.5757
  469 283.524 3.20296 99.4440
  470 26.9508 -0.463959 7.72318
  471 26.7586 -0.455481 -7.73750
  472 586.082 115.744 -19.7901
  473 465.187 -4.30474 0.0241443
  474 463.635 -4.76805 -0.435228
  475 354.627 -24.2175 4.67585
  476 159.378 -5.55504 -5.75192
  477 159.377 -5.49436 5.68988
  478 95.0169 -1.29351 -23.4769
  479 95.1324 -1.31206 23.4372
  480 305.563 11.8167 16.7437
  481 80.2240 -2.64414 11.4501
  482 80.1053 -2.61972 -11.5012
  483 83.2284 7.61209 26.5129
  484 82.9548 7.72477 -26.4874
  485 453.884 -35.1980 29.5514
  486 256.782 -16.0236 -44.6157
  487 238.165 -8.21879 4.00362
  488 238.244 -8.40336 -4.00819
  489 259.452 -16.5183 44.6137
  490 706.106 169.374 -19.8189
  491 -11.2778 -1.65131 -9.36236
  492 -11.2708 -1.66030 9.35645
  493 182.972 -5.42952 -2.42272
  494 182.979 -5.35454 2.41417
  495 0.310153 -29.7173 -11.0785
  496 0.235857 -29.8155 11.1798
  497 413.755 -7.16880 0.612410
  498 303.858 14.2900 -8.32097
  499 402.698 42.0806 23.7441
  500 254.858 -2.21604 -74.5394
  501 128.365 -6.60381 17.2931
  502 128.341 -6.54889 -17.3182
  503 -28.8999 0.981136 -3.01086
  504 -28.7065 0.975052 3.03725
  505 490.699 -8.39513 -68.8894
  506 46.2836 0.195741 -2.55418
  507 46.3660 0.201916 2.52409
  508 408.486 -32.5465 -6.46599
  509 434.892 -37.2100 -15.8825
  510 91.0854 71.0670 -93.5605
  511 365.652 11.7023 -144.637
  512 6.10655 11.4050 6.01524
  513 6.28432 11.4304 -5.91563
  514 227.243 -10.8823 -10.3825
  515 227.138 -10.7899 10.1871
  516 623.765 29.5135 -8.69387
  517 451.919 -26.9706 -26.9351
  518 88.8498 67.4178 92.2960
  519 447.655 -50.1576 16.1191
  520 430.972 -41.0134 11.5076
  521 97.5311 -2.37299 -7.54750
  522 97.6009 -2.36436 7.48014
  523 360.409 4.09933 39.7911
  524 259.027 -19.3668 -18.8311
  525 475.230 -11.1087 15.2332
  526 -1.89302 -11.5682 -9.12044
  527 -1.89770 -11.5582 9.10650
  528 335.904 -29.4728 49.9058
  529 507.437 -37.8666 -33.4437
  530 657.496 50.5214 -29.4242
  531 359.545 -13.0659 -1.02331
  532 112.614 -2.15686 -2.17258
  533 112.649 -2.11868 2.15408
  534 229.641 2.06123 71.9185
  535 631.537 108.272 27.8939
  536 634.483 135.539 -226.994
  537 575.074 5.39914 30.6251
  538 415.895 -46.0610 7.60309
  539 965.941 76.9175 65.4295
  540 721.920 178.059 27.2693
  541 107.300 -4.51886 18.8364
  542 107.213 -4.47491 -18.8630
  543 400.098 -33.4828 3.93777
  544 32.1126 14.5925 -8.84832
  545 32.3427 14.5860 8.94111
  546 501.294 -40.8353 33.5447
  547 415.399 22.7621 58.4438
  548 503.161 -3.53193 8.55941
  549 374.868 -23.0859 0.597698
  550 520.230 8.19039 -152.458
  551 818.695 221.279 152.763
  552 404.886 -8.89757 -0.403092
  553 495.067 -5.34463 -14.0583
  554 80.7730 33.3934 -37.3968
  555 81.3518 32.9959 37.2444
  556 286.898 -12.1545 -5.62691
  557 286.772 -11.8855 5.72194
  558 3.60721 -32.6597 -5.52636
  559 506.735 -17.1480 60.6396
  560 20.9086 18.4502 0.141947
  561 21.2206 18.5027 0.00664448
  562 4.18781 -31.4158 6.61443
  563 462.123 -20.9557 -49.6633
  564 531.265 34.6898 -65.5729
  565 529.584 39.2116 65.6422
  566 26.5979 24.2737 21.5494
  567 25.3066 24.7844 -21.1267
  568 -10.7924 0.452203 6.11419
  569 -11.0125 0.457130 -6.10182
  570 485.294 15.7644 156.973
  571 270.193 -15.4050 10.6702
  572 270.455 -15.3517 -10.8389
  573 583.988 -6.88569 -82.7302
  574 82.5004 -1.16017 4.37099
  575 82.4378 -1.17722 -4.41626
  576 42.5190 -0.936227 -1.01484
  577 42.5806 -0.930121 1.00428
  578 643.842 119.670 -21.2306
  579 62.7784 99.6792 -102.708
  580 345.530 7.12997 -33.7598
  581 482.089 76.7908 -29.0844
  582 7.68751 1.09172 9.11230
  583 7.97942 1.19974 -8.91661
  584 476.735 231.763 265.523
  585 411.102 -12.2811 -2.57087
  586 17.5758 4.17135 -10.6006
  587 17.7762 4.14133 10.6504
  588 475.131 -37.8593 41.4566
  589 74.0852 96.7551 104.581
  590 343.967 -8.13447 0.667225
  591 344.063 -8.07364 -0.668522
  592 -0.258875 -23.8236 11.6923
  593 -0.221839 -23.7852 -11.6536
  594 585.918 113.543 -0.938321
  595 371.898 -29.3155 69.9199
  596 355.425 -15.9453 -1.84935
  597 356.634 18.0685 152.485
  598 -29.0021 1.57569 6.90938
  599 -28.9734 1.58425 -6.87985
  600 581.992 9.80864 -33.1141
  601 768.059 137.573 -110.743
  602 224.394 23.3767 -102.710
  603 124.215 -5.28653 -22.8736
  604 124.336 -5.28866 22.8801
  605 524.256 -1.98270 2.23550
  606 352.023 -16.2689 1.43250
  607 467.733 -7.09420 4.78570
  608 462.122 -20.9947 48.4570
  609 25.6190 -0.782775 3.89811
  610 25.4463 -0.779518 -3.92476
  611 276.140 -10.2352 -3.31972
  612 276.106 -9.97702 3.23539
  613 173.566 3.68581 -48.7417
  614 172.477 3.73662 48.5441
  615 661.055 43.8666 44.9081
  616 1068.11 80.5294 -116.417
  617 -3.80912 -0.688373 5.30520
  618 -4.03870 -0.686176 -5.30293
  619 165.572 -7.10043 10.5381
  620 165.553 -7.09122 -10.6638
  621 617.985 36.6861 17.1408
  622 517.785 -2.25816 -0.708460
  623 516.688 -3.05408 0.244403
  624 383.341 0.0389069 39.3534
  625 543.571 -29.9113 -51.9121
  626 298.797 -24.7347 22.4147
  627 -5.50284 6.90008 -5.72635
  628 -5.63597 6.88853 5.80414
  629 477.062 10.3496 72.9071
  630 191.886 -11.1772 -24.0183
  631 191.715 -11.3585 24.0631
  632 387.911 -23.0136 -2.03060
  633 477.249 -10.8944 -13.7486
  634 275.645 -22.0710 -32.8523
  635 451.798 54.5373 -44.3438
  636 304.057 -20.8290 -57.3409
  637 116.359 -3.13082 -3.97794
  638 116.394 -3.09587 3.93126
  639 278.441 -22.4487 33.0133
  640 592.953 96.9954 40.3942
  641 472.709 -22.6120 61.1106
  642 386.968 -17.9371 2.12033
  643 279.045 -8.08067 1.97557
  644 278.975 -8.09589 -1.92356
  645 212.099 -8.25605 -7.59177
  646 212.028 -8.17238 7.52096
  647 454.373 -41.5738 -22.7658
  648 233.314 -13.5112 13.2311
  649 233.555 -13.4572 -13.4665
  650 459.819 70.6360 -5.91025
  651 419.981 -22.6064 9.10699
  652 521.766 -2.67431 -3.57543
  653 448.533 -7.91115 -64.4982
  654 68.8272 -2.97609 15.1462
  655 68.6873 -2.95543 -15.1561
  656 509.964 -3.07924 -7.77210
  657 93.5007 48.5300 -66.3612
  658 95.0830 48.4225 66.6821
  659 520.737 -29.6238 70.1790
  660 182.063 45.9369 108.183
  661 48.2884 -0.365739 15.1408
  662 48.1234 -0.355285 -15.1448
  663 444.614 -27.5404 89.5691
  664 436.623 66.0907 -206.639
  665 430.941 13.9394 -64.6056
  666 564.312 102.443 35.4264
  667 380.477 -17.5890 -0.434404
  668 682.063 121.931 -2.96658
  669 -30.8813 1.57138 -2.09832
  670 -30.7185 1.56749 2.13504
  671 304.375 2.02527 -108.412
  672 27.6311 -0.464124 2.96697
  673 27.5006 -0.465265 -2.99475
  674 380.788 -31.5468 -69.1703
  675 128.661 17.4602 -47.1345
  676 127.664 17.5291 47.1144
  677 4.61646 6.43092 -3.87467
  678 4.79425 6.42322 3.95211
  679 324.838 -28.2918 -17.3618
  680 458.597 -4.53202 -24.6680
  681 221.688 -7.24096 -2.69358
  682 221.704 -7.16677 2.71261
  683 161.833 -8.37430 -15.5681
  684 161.965 -8.48779 15.5176
  685 31.2055 25.6363 -10.4663
  686 31.7085 25.6957 10.6392
  687 466.737 -6.25048 2.14993
  688 211.730 -13.6358 20.1875
  689 213.045 -13.4056 -20.1736
  690 517.730 -40.4280 -2.40500
  691 428.062 -43.0485 -6.86024
  692 337.718 -10.2964 -0.989035
  693 336.554 -9.66080 1.14321
  694 470.576 -48.9957 28.7345
  695 761.087 154.097 43.0410
  696 413.824 -17.2047 -110.471
  697 473.591 -13.4826 25.1352
  698 471.944 -17.1691 -65.8028
  699 151.336 -4.83435 -7.42923
  700 151.347 -4.80080 7.34621
  701 368.543 -5.15171 123.593
  702 1012.99 130.689 119.625
  703 73.1974 20.9369 -27.8377
  704 73.3088 21.0786 27.9272
  705 465.042 -5.21644 -1.04851
  706 468.643 -4.72632 1.07887
  707 199.826 104.087 -174.146
  708 495.233 -2.90916 14.1278
  709 428.437 -8.12958 1.42666
  710 567.895 112.069 -12.8586
  711 60.5169 10.3724 -20.3772
  712 60.7764 10.3083 20.4517
  713 528.123 -1.57321 0.307885
  714 431.430 -17.2415 -9.16279
  715 537.494 -7.06594 52.1844
  716 223.388 -15.7575 -31.1199
  717 223.945 -15.0966 30.8482
  718 55.0388 -1.80818 11.4584
  719 54.8837 -1.78619 -11.4852
  720 485.527 -3.88891 -2.14665
  721 419.070 86.4986 218.909
  722 3.67483 4.04331 13.0997
  723 3.83284 4.13988 -12.9912
  724 487.278 -5.77564 -6.08460
  725 473.801 -9.26119 8.75126
  726 381.606 0.473495 -42.2083
  727 3.75833 -41.7373 -4.85762
  728 3.52353 -42.1645 5.28825
  729 175.208 47.4039 -108.223
  730 380.217 -37.8147 -50.5738
  731 198.588 103.088 175.711
  732 521.744 -1.62818 1.27295
  733 510.241 76.5480 46.2197
  734 376.451 34.0408 -16.5644
  735 664.225 133.792 3.28244
  736 516.303 -2.45623 4.91457
  737 -28.1266 0.750943 4.36148
  738 -28.3410 0.755041 -4.34425
  739 550.676 -29.8202 18.3300
  740 358.841 -11.0942 -1.26748
  741 133.287 0.0400187 -33.9195
  742 133.467 -0.0898390 33.7418
  743 473.263 -6.16547 -3.27136
  744 833.065 117.782 -43.7513
  745 61.7176 -1.74529 -7.32814
  746 61.8503 -1.75524 7.28140
  747 525.405 -1.71529 -2.20407
  748 110.295 -4.89172 -10.1957
  749 110.376 -4.90887 10.1261
  750 517.764 -19.8422 -54.2006
  751 478.777 -5.13492 19.7164
  752 432.425 -2.53727 63.9487
  753 525.771 -1.77921 0.124825
  754 492.664 -4.28093 4.57367
  755 325.748 -18.0459 -5.05222
  756 405.937 -11.4251 1.70979
  757 461.876 -28.4591 -40.8110
  758 450.263 -28.5359 25.8459
  759 529.018 64.5843 -58.0800
  760 443.954 -25.2781 18.7502
  761 469.645 -27.6348 52.6418
  762 274.672 -18.9120 14.0533
  763 10.3165 -0.877108 0.622109
  764 9.79252 -0.914179 -0.124923
  765 410.501 -7.01015 -0.160666
  766 409.646 -6.96741 0.0109142
  767 489.591 -2.78906 -0.196494
  768 491.232 -2.69762 0.307813
  769 469.689 -13.3553 31.0965
  770 433.281 -39.0612 65.6078
  771 357.402 -29.3212 7.55070
  772 318.209 -19.4645 7.45466
  773 849.212 108.586 50.3698
  774 473.922 -12.4050 -19.5681
  775 279.504 50.0757 -163.048
  776 441.027 -22.2420 -16.0883
  777 20.9921 0.299602 -11.0886
  778 21.1907 0.283505 11.1053
  779 399.544 35.0493 -37.1043
  780 984.622 29.8602 -12.7281
  781 497.708 13.4341 -70.9542
  782 20.4703 18.6134 -41.5043
  783 514.262 92.1162 11.7570
  784 399.342 -25.8687 4.21807
  785 450.033 -11.0166 62.5215
  786 378.329 -39.4312 50.8474
  787 599.241 0.00786234 100.866
  788 22.0452 23.2154 44.1965
  789 274.897 -1.35818 85.0361
  790 381.688 -10.6276 -0.104578
  791 425.044 -37.4168 -66.3806
  792 263.559 -20.7131 -23.4277
  793 208.543 10.0677 -74.6726
  794 493.024 -7.12613 69.4985
  795 317.801 -22.0548 11.4199
  796 66.2402 -1.80533 6.45123
  797 66.1369 -1.80727 -6.50496
  798 459.991 -2.58436 21.8269
  799 419.565 2.36232 -62.2989
  800 -35.6800 1.68257 4.16112
  801 -35.6257 1.68591 -4.12854
  802 309.358 -10.3593 -1.98016
  803 308.488 -9.83977 1.87846
  804 230.080 26.1331 104.137
  805 206.970 -12.2999 15.3731
  806 207.241 -12.0103 -15.5176
  807 524.963 -1.31372 -1.12978
  808 188.057 14.9715 72.8614
  809 11.3443 -0.178261 4.11154
  810 11.1351 -0.174434 -4.12686
  811 454.584 -13.9761 48.1754
  812 481.413 -4.70482 1.64256
  813 -25.7370 0.359979 7.01155
  814 -25.7431 0.368545 -6.99732
  815 300.076 -18.6601 64.1315
  816 59.3027 50.7841 -56.7276
  817 60.0126 48.5623 55.9124
  818 290.449 12.7260 6.95153
  819 -0.239693 -0.338063 -4.70110
  820 -0.00790294 -0.341039 4.69785
  821 344.261 -32.5206 -47.7060
  822 467.556 -48.6807 -12.3176
  823 -2.35424 -2.23293 -2.97816
  824 -2.34708 -2.22748 2.96691
  825 31.6360 0.766016 -1.00004
  826 31.7096 0.770351 0.984083
  827 416.589 -37.2496 7.70259
  828 351.767 -35.9264 34.0172
  829 388.212 -7.41696 0.450031
  830 350.918 -28.6288 -8.82988
  831 133.240 -2.36336 -0.832228
  832 133.266 -2.31323 0.820701
  833 -40.0571 0.863055 2.26143
  834 -39.9677 0.862004 -2.22919
  835 436.936 -6.47986 -1.35209
  836 392.763 15.6696 -53.1580
  837 442.068 -9.52636 -4.62432
  838 264.123 -20.3808 22.3895
  839 440.654 -7.60650 -51.1950
  840 469.162 -14.4923 -32.1176
  841 438.643 -5.68452 1.19470
  842 322.605 -11.8531 87.1488
  843 344.663 -33.7859 -20.1674
  844 209.444 -1.57794 -57.6575
  845 210.579 -0.124425 57.9572
  846 294.828 -22.4044 -15.2294
  847 487.815 53.2763 60.7651
  848 460.190 -47.2009 -37.7993
  849 170.459 -5.58535 -3.80244
  850 170.454 -5.50843 3.76869
  851 353.150 -8.86109 0.740684
  852 353.168 -8.92687 -0.662485
  853 422.279 -3.10585 -33.5645
  854 145.845 -6.24724 -12.5915
  855 145.930 -6.29313 12.4965
  856 1.78694 -42.8303 -8.22452
  857 1.69535 -43.0167 8.40371
  858 77.4250 -1.13644 -0.180650
  859 77.3740 -1.15778 0.166824
  860 433.867 -7.61945 -1.87776
  861 331.958 -31.6684 30.8782
  862 511.674 -42.9750 12.6419
  863 308.330 6.44499 26.6120
  864 443.682 -11.1766 5.35554
  865 485.219 -43.0175 -31.2223
  866 73.2219 4.36998 -23.0087
  867 73.4367 4.29630 23.0021
  868 386.275 -7.89176 -0.402736
  869 313.001 -11.5559 -3.60475
  870 311.945 -11.4634 3.88424
  871 483.305 75.1304 32.7884
  872 169.962 -1.83166 -40.7010
  873 169.817 -2.02603 40.5393
  874 335.046 -30.4941 16.4116
  875 33.9240 21.5346 -9.13895
  876 34.2471 21.4963 9.23393
  877 284.126 -20.1536 52.6027
  878 339.671 -22.1416 -5.48897
  879 424.610 -3.21925 33.9126
  880 415.546 -46.5296 18.5563
  881 475.792 -35.9012 -44.9802
  882 331.145 -31.9255 -31.2740
  883 276.608 -18.8402 -13.5142
  884 885.378 72.4935 -13.7866
  885 435.048 -45.9665 4.02060
  886 13.6921 14.8281 3.82605
  887 13.9223 14.8586 -3.70437
  888 379.015 -38.0787 10.1432
  889 414.882 -46.3380 -30.3336
  890 14.8966 12.7666 -0.876603
  891 15.0997 12.7718 0.970483
  892 159.591 -5.80424 31.1280
  893 159.674 -5.97097 -31.2968
  894 192.344 -9.83932 34.0987
  895 192.264 -10.0647 -34.3135
  896 599.147 120.057 15.1672
  897 -0.846683 -18.5141 -8.80600
  898 -0.852968 -18.4902 8.79895
  899 140.409 11.6659 -44.8722
  900 139.744 11.4327 44.4608
  901 1017.13 32.9380 -51.0893
  902 26.1938 -0.128102 1.69161
  903 26.0885 -0.131430 -1.71347
  904 1.92252 -47.7167 1.92717
  905 2.22659 -46.8728 -1.21443
  906 -19.8119 -0.213631 7.28439
  907 -19.8355 -0.207379 -7.28242
  908 112.355 32.8859 -52.6968
  909 114.082 31.7928 51.9859
  910 -8.29706 0.629244 -15.1523
  911 -8.34019 0.593672 15.1794
  912 34.7163 2.77837 -15.1766
  913 34.9192 2.74194 15.2008
  914 123.292 -1.56959 28.7486
  915 123.199 -1.56321 -28.8795
  916 101.613 -3.54272 -23.2461
  917 101.722 -3.53714 23.2155
  918 512.687 -2.07570 -7.72844
  919 252.393 55.1768 151.908
  920 348.044 -34.4316 19.0449
  921 249.109 -18.0524 18.1982
  922 477.353 49.5050 -60.1902
  923 1000.39 21.3407 20.4705
  924 561.579 27.0622 -55.1997
  925 97.8450 -3.73642 14.6026
  926 97.7400 -3.69507 -14.6515
  927 20.5405 -0.578908 -10.7483
  928 20.7369 -0.584159 10.7502
  929 -0.0685367 -8.26878 -16.3636
  930 -0.142724 -8.34264 16.4192
  931 257.418 -11.7317 8.34684
  932 257.544 -11.9487 -8.38210
  933 33.2737 8.33569 -13.7433
  934 33.4898 8.29907 13.8126
  935 158.598 -7.17600 -26.5368
  936 158.711 -7.17770 26.5239
  937 341.251 -1.26960 -31.2712
  938 163.838 -8.98687 -18.6160
  939 163.738 -8.89550 18.6752
  940 389.173 -11.6128 -0.148035
  941 471.118 -26.7003 -56.7221
  942 209.242 -8.72630 8.77622
  943 209.331 -8.80182 -8.88154
  944 -8.59780 -0.900576 -5.20482
  945 -8.57370 -0.902727 5.19330
  946 478.039 -35.4961 -80.7838
  947 459.002 -27.0247 35.2643
  948 403.130 -28.5317 -5.92419
  949 397.489 13.8562 55.9748
  950 182.154 -10.3530 -20.9176
  951 182.166 -10.1637 20.9792
  952 442.009 17.3047 67.3351
  953 414.475 36.2516 44.3789
  954 829.227 99.2969 17.6461
  955 427.898 -15.9291 6.42029
  956 228.972 -7.17665 -3.96486
  957 228.950 -7.04608 3.99493
  958 384.478 -31.7792 0.872465
  959 533.326 97.6880 -27.2616
  960 466.848 -5.65395 -2.21174
  961 310.039 -8.22374 1.31808
  962 309.924 -8.16526 -1.23160
  963 40.5284 34.6136 -25.7001
  964 41.5295 34.5650 25.8834
  965 74.0989 199.992 -168.920
  966 441.672 -10.2723 50.8854
  967 546.195 -8.85644 -45.8750
  968 -7.71840 5.36097 2.02680
  969 -7.57208 5.36068 -1.95296
  970 1091.98 263.052 -208.638
  971 468.199 -50.4244 2.11514
  972 498.539 -45.1080 -23.3871
  973 461.376 -39.4134 31.3754
  974 572.533 112.255 10.7977
  975 42.4532 46.6862 -53.0191
  976 105.630 173.909 166.620
  977 -2.51271 -6.07993 16.4899
  978 -2.46674 -6.02576 -16.4621
  979 447.877 -12.0323 6.84460
  980 718.542 126.614 -16.4692
  981 43.6639 45.7037 55.0147
  982 -1.96430 -6.72020 -5.78788
  983 -1.96454 -6.70116 5.77244
  984 385.401 -9.69382 -0.293884
  985 289.786 -23.1769 -24.4865
  986 465.049 -36.6118 -37.8353
  987 134.421 36.2189 -69.0476
  988 136.553 36.8085 69.2239
  989 453.063 -11.1913 -45.2064
  990 454.268 -14.8641 13.5494
  991 -11.6010 3.29366 13.1663
  992 -11.5400 3.32553 -13.1219
  993 276.771 -18.2002 -49.5802
  994 458.584 29.7002 -67.3280
  995 340.162 -13.3468 2.25757
  996 246.911 -7.45860 0.776397
  997 246.862 -7.50329 -0.748762
  998 -5.04692 -5.74073 -11.9623
  999 -5.05396 -5.75314 11.9517
  1000 460.430 -16.8135 -16.9651
  1001 437.674 -5.59123 0.324113
  1002 437.271 -5.59784 -0.150723
  1003 606.232 100.424 -36.6395
  1004 112.299 9.49610 -35.6570
  1005 112.579 9.30694 35.5866
  1006 73.5279 -0.789983 -19.3590
  1007 73.6682 -0.804402 19.3409
  1008 501.143 27.5057 71.7806
  1009 471.395 -9.37049 -9.19044
  1010 86.0924 13.2672 -29.3110
  1011 86.4303 13.1699 29.4172
  1012 490.233 -3.13611 -1.34774
  1013 460.492 -20.1623 -26.3768
  1014 449.719 -50.2471 -22.1680
  1015 18.0459 16.0458 1.41714
  1016 17.5645 15.9695 -1.19759
  1017 -20.9841 3.66717 7.57120
  1018 -20.9049 3.67764 -7.51754
  1019 281.094 10.4034 -11.6219
  1020 773.747 194.267 -57.0911
  1021 356.927 -26.3696 -4.11632
  1022 237.750 -10.3986 -50.9429
  1023 568.074 -21.0996 0.836188
  1024 238.679 -10.3797 51.6368
  1025 409.368 -47.2460 34.9574
  1026 463.899 -19.2359 -40.5628
  1027 163.495 -3.99293 -1.21491
  1028 163.514 -3.92866 1.20790
  1029 318.493 -25.1475 -13.5947
  1030 196.981 -7.45879 -40.0045
  1031 196.919 -7.51519 39.8178
  1032 66.0619 43.4252 -43.5432
  1033 67.0917 43.3145 43.6741
  1034 138.503 -4.46658 -4.29008
  1035 138.522 -4.41474 4.24114
  1036 412.159 -13.6960 2.96216
  1037 348.721 2.40448 -125.002
  1038 426.998 -14.4490 -6.44555
  1039 386.919 -42.6838 -21.9400
  1040 256.805 -11.2059 5.82979
  1041 257.007 -11.2853 -5.84465
  1042 496.851 -3.51316 1.70284
  1043 446.143 -11.1967 -6.40020
  1044 295.599 7.25759 21.9568
  1045 479.390 -4.78601 -18.3574
  1046 187.627 55.6595 122.417
  1047 492.645 -4.67681 -14.9524
  1048 131.451 21.9859 -52.4157
  1049 127.620 22.2258 50.3598
  1050 586.896 -7.90391 -2.92782
  1051 55.2091 28.4506 -23.3710
  1052 55.7073 28.2516 23.3716
  1053 9.60897 0.770102 3.98823
  1054 10.0662 0.857658 -3.68719
  1055 81.7785 -2.13635 5.10824
  1056 81.7009 -2.14936 -5.16475
  1057 213.028 56.2954 -135.265
  1058 1125.21 299.320 224.597
  1059 459.025 -16.7979 17.3961
  1060 413.009 -46.1864 -16.9305
  1061 288.877 -23.7717 -38.7687
  1062 -5.08055 6.62206 11.0784
  1063 -4.96913 6.65830 -11.0033
  1064 325.357 -17.2260 4.17933
  1065 357.980 -13.8992 1.21327
  1066 -0.147356 -26.1976 8.45405
  1067 -0.138488 -26.2256 -8.45240
  1068 55.4026 34.1642 -27.5744
  1069 56.0474 34.1068 27.7335
  1070 321.119 -15.8937 -4.01102
  1071 27.1934 11.8061 9.17429
  1072 26.9799 11.8207 -9.08667
  1073 488.111 -18.7693 65.8402
  1074 354.347 -36.5927 -33.8463
  1075 290.575 -24.1517 38.7694
  1076 465.983 -8.87804 -69.8468
  1077 487.893 -5.79824 6.65600
  1078 179.947 27.8497 82.7961
  1079 181.230 26.6458 -81.4400
  1080 288.284 -13.7687 -69.8603
  1081 405.539 -15.1278 -2.89978
  1082 331.335 -20.3280 7.13483
  1083 387.061 -36.3117 -3.64654
  1084 526.280 -2.05429 -3.86343
  1085 288.440 -13.6996 6.54254
  1086 288.317 -14.4523 -6.69629
  1087 10.4689 12.0589 8.37704
  1088 10.7062 12.1459 -8.23998
  1089 470.278 17.8553 -72.3094
  1090 108.121 5.24850 -31.5949
  1091 108.410 5.13107 31.5181
  1092 82.2113 1.40254 -22.8716
  1093 82.3898 1.35842 22.8374
  1094 531.687 -18.7795 101.058
  1095 463.247 -21.3981 39.8735
  1096 229.311 -10.5985 -43.4676
  1097 533.949 -2.26267 -2.29647
  1098 604.326 114.835 -27.4238
  1099 486.769 -5.12734 -4.03719
  1100 458.555 -49.1330 12.1362
  1101 340.883 -25.5779 61.6235
  1102 536.843 -0.857191 0.335167
  1103 295.064 9.13943 -18.6046
  1104 389.727 -41.6678 -11.5666
  1105 229.688 -11.0725 43.0257
  1106 393.283 -36.0021 1.40347
  1107 487.903 -7.32296 13.0132
  1108 357.386 22.6014 28.8511
  1109 246.426 -18.2093 -34.9829
  1110 731.696 110.391 -49.7063
  1111 555.042 26.4899 58.3014
  1112 420.152 52.4554 7.02840
  1113 531.994 -0.110968 1.95750
  1114 214.680 -13.5434 -27.0700
  1115 146.121 92.1177 -136.282
  1116 260.015 7.44569 -98.3502
  1117 298.291 -23.1738 17.7764
  1118 252.772 -19.0201 32.9365
  1119 214.190 -12.8968 27.3274
  1120 447.859 4.32499 70.5997
  1121 337.875 -12.4304 -1.85100
  1122 525.213 -4.06022 5.31700
  1123 -3.80397 0.0156455 16.3541
  1124 -3.74048 0.0705189 -16.3121
  1125 353.450 -10.8125 1.00678
  1126 0.263012 4.51634 14.4450
  1127 0.378253 4.58862 -14.3640
  1128 201.955 -6.64081 4.79342
  1129 201.965 -6.73838 -4.79853
  1130 496.939 -2.77399 12.4067
  1131 400.784 -24.9822 -4.68669
  1132 375.829 -20.6324 -0.163110
  1133 419.640 -29.6971 11.5097
  1134 129.995 65.5160 -102.322
  1135 411.067 -16.1895 4.20758
  1136 64.9910 1.02950 -18.8425
  1137 65.1606 0.998854 18.8326
  1138 87.6085 57.0115 -72.8232
  1139 653.961 88.9767 14.6733
  1140 51.6747 -2.25818 11.0629
  1141 51.5126 -2.24023 -11.0772
  1142 89.1786 56.1918 70.4321
  1143 377.440 -31.8714 -2.38776
  1144 194.560 -9.29225 10.7165
  1145 194.584 -9.33169 -10.8725
  1146 763.930 162.460 -45.9143
  1147 415.182 -41.6109 0.00680028
  1148 144.009 86.4084 136.035
  1149 12.7600 0.230334 -12.9660
  1150 13.7130 0.395561 14.0801
  1151 441.332 55.3017 35.3505
  1152 34.6704 18.1246 -9.48296
  1153 34.9407 18.1319 9.56278
  1154 417.856 -36.5201 -8.34262
  1155 -0.184093 -40.2859 -7.85233
  1156 -0.202969 -40.2889 7.88814
  1157 446.242 -37.7033 -21.3256
  1158 -1.60463 0.522043 3.66348
  1159 -1.83909 0.525493 -3.67062
  1160 70.6455 25.9157 -29.5771
  1161 71.0247 26.0294 29.3300
  1162 -18.8581 0.0418405 -4.48696
  1163 -18.6183 0.0402205 4.49200
  1164 444.150 -5.60512 -0.315639
  1165 -43.0588 1.31240 0.388271
  1166 -42.9353 1.31184 -0.358399
  1167 238.617 -18.8702 -26.2464
  1168 6.46232 -54.0610 -7.23315
  1169 123.307 -3.56151 8.07614
  1170 123.256 -3.57281 -8.15600
  1171 379.134 -8.06104 0.706410
  1172 379.844 -7.87469 -0.633755
  1173 6.94240 -51.3201 8.61728
  1174 448.900 -23.7544 -21.6516
  1175 510.602 -2.54750 9.00590
  1176 456.331 -29.3527 -32.3143
  1177 402.496 3.15774 55.5358
  1178 2.34419 -15.1720 11.5222
  1179 2.54094 -15.0480 -11.3184
  1180 294.246 -21.7163 14.4384
  1181 -19.5406 1.92291 10.5581
  1182 -19.5042 1.93895 -10.5255
  1183 754.104 119.357 8.46630
  1184 871.205 282.932 -198.783
  1185 466.354 -45.0555 26.6776
  1186 197.012 -6.02329 -0.764646
  1187 197.030 -5.95547 0.765360
  1188 942.993 91.5892 -84.9300
  1189 73.2736 -1.88194 11.4760
  1190 73.1401 -1.85427 -11.5144
  1191 438.188 -1.42451 -21.8736
  1192 282.439 -22.9672 29.6038
  1193 461.267 -44.9648 -18.5871
  1194 446.661 -32.6067 -24.6323
  1195 274.817 -9.45901 73.1441
  1196 103.782 19.0126 -40.0703
  1197 103.733 18.8452 39.8576
  1198 135.447 50.4811 -87.2498
  1199 135.644 46.7642 87.2597
  1200 40.6340 11.1998 -14.6036
  1201 40.8666 11.1678 14.6870
  1202 552.252 96.1011 -39.6919
  1203 29.7734 27.4733 -13.7695
  1204 30.4447 27.5200 13.9731
  1205 398.042 -30.8330 3.49152
  1206 734.867 114.455 55.3288
  1207 99.9272 -4.10196 -7.96305
  1208 100.006 -4.10085 7.89264
  1209 473.822 348.417 -290.090
  1210 377.741 22.5558 -44.4448
  1211 348.529 26.5725 18.1999
  1212 49.6704 20.3011 -17.2376
  1213 49.9018 20.3035 17.3276
  1214 16.0872 -0.107354 2.67194
  1215 15.9235 -0.107197 -2.69311
  1216 440.308 -35.4844 19.8608
  1217 432.550 -17.8894 10.1990
  1218 296.917 87.7609 -210.090
  1219 681.073 149.126 -10.6127
  1220 295.308 -8.63443 -80.3343
  1221 380.797 -12.4713 -0.368279
  1222 26.6440 -1.86162 -0.593511
  1223 26.6996 -1.86012 0.590189
  1224 -7.20655 2.99722 -6.48290
  1225 -7.01716 2.98517 6.52898
  1226 257.311 3.10517 -84.3625
  1227 468.430 -10.8275 12.0226
  1228 306.995 6.46344 114.341
  1229 414.041 -21.0260 -7.16777
  1230 215.327 78.5515 -166.269
  1231 333.413 -15.6774 -86.5732
  1232 396.243 -42.2992 9.36151
  1233 483.162 -7.93204 20.0276
  1234 423.959 -9.65081 -2.31719
  1235 237.647 -17.7379 26.3869
  1236 531.392 -28.7395 -34.9719
  1237 506.909 44.7073 67.8777
  1238 222.817 1.10861 -67.1125
  1239 499.571 -3.64574 1.36366
  1240 410.017 50.7927 -10.0467
  1241 180.000 -6.48692 -7.90364
  1242 179.974 -6.42350 7.82516
  1243 764.782 182.332 49.9002
  1244 1035.56 27.5004 47.8322
  1245 0.980284 -49.0672 -7.77100
  1246 0.949642 -49.1190 7.83195
  1247 115.962 62.2371 95.9555
  1248 275.196 -8.63678 -1.91296
  1249 275.255 -8.58931 2.01284
  1250 374.222 -37.7606 -12.2504
  1251 448.457 37.1016 61.0618
  1252 464.430 -9.77139 -7.45310
  1253 535.995 -1.63704 -0.519498
  1254 927.051 207.342 -131.727
  1255 150.628 -5.76864 8.28806
  1256 150.605 -5.77996 -8.38482
  1257 446.710 -41.4437 20.1929
  1258 777.437 196.009 -65.2119
  1259 432.905 -19.4398 -11.5893
  1260 318.408 -22.5352 -10.5099
  1261 389.410 -42.2153 21.4531
  1262 380.727 -19.6402 1.03569
  1263 14.7344 6.95536 -19.7700
  1264 518.713 -30.6267 42.5678
  1265 421.174 -27.9473 -11.2725
  1266 16.1933 7.68446 21.6758
  1267 432.540 -33.4457 -81.5737
  1268 408.361 27.7683 -171.942
  1269 669.615 88.8452 -8.00229
  1270 537.963 -0.618435 -0.148937
  1271 537.063 -1.11132 0.457550
  1272 428.247 -25.4240 12.5266
  1273 167.591 19.9696 -66.2178
  1274 487.376 -42.8234 34.0677
  1275 823.297 189.418 89.2958
  1276 206.876 72.8031 162.113
  1277 6.26538 1.66984 11.5477
  1278 6.48282 1.77845 -11.3978
  1279 510.655 -39.8308 -45.5523
  1280 209.883 -11.6810 -12.7794
  1281 209.854 -11.7119 12.5716
  1282 477.464 -31.1304 54.0808
  1283 21.1836 0.0758208 11.9822
  1284 20.9885 0.0851703 -11.9757
  1285 -2.50068 -9.81556 13.7222
  1286 -2.48303 -9.79449 -13.7254
  1287 89.8513 -3.06955 -10.4625
  1288 89.9547 -3.08725 10.4024
  1289 253.593 -17.0090 -39.5644
  1290 255.896 -8.94307 2.70850
  1291 255.885 -9.12326 -2.61433
  1292 536.338 -0.602083 0.189256
  1293 480.502 -7.63174 -22.5991
  1294 42.5403 1.68706 -15.1989
  1295 42.7292 1.65998 15.2077
  1296 254.600 -17.9774 39.2794
  1297 541.121 -0.714470 0.247840
  1298 512.295 -0.926265 -0.585851
  1299 512.255 -1.23668 0.460035
  1300 679.981 145.804 2.11906
  1301 500.195 -3.90931 -3.21895
  1302 445.460 -5.33505 0.159580
  1303 493.312 -7.87863 -11.4999
  1304 533.904 -1.93248 1.50962
  1305 561.550 59.1460 57.7559
  1306 649.577 136.354 11.4587
  1307 520.478 -2.24839 -5.90501
  1308 -4.36597 -1.08798 3.90488
  1309 -4.38367 -1.08725 -3.91708
  1310 293.176 -18.8978 10.2038
  1311 293.123 -18.0907 -9.93880
  1312 566.623 65.4802 -54.6687
  1313 120.429 41.6965 -72.4756
  1314 121.202 40.5781 71.7240
  1315 387.310 0.0948730 -27.7823
  1316 393.470 -7.15986 -0.619278
  1317 392.990 -7.10919 0.536642
  1318 -9.28667 -1.43034 13.9352
  1319 -9.26982 -1.40446 -13.9305
  1320 439.461 -1.15347 21.8303
  1321 664.035 131.939 -4.00078
  1322 52.6672 -1.83020 -6.58764
  1323 52.7975 -1.83441 6.54041
  1324 490.292 -46.4947 17.0977
  1325 1.66518 8.57093 11.1400
  1326 1.80974 8.62249 -11.0463
  1327 96.2976 -2.18890 -2.25199
  1328 96.3440 -2.15712 2.22029
  1329 387.393 -0.487305 28.2119
  1330 22.1908 0.797808 -1.02818
  1331 22.2789 0.800867 1.01214
  1332 497.001 -6.20586 7.24822
  1333 694.727 125.898 7.65849
</Section>

newXOutput 64

<Section columns = "stress_xx | stress_yy | stress_xy">
  1 557.459 -1.62435 1.01762
  2 558.295 -2.03169 -1.32098
  3 17.4165 0.512013 -1.42044
  4 -0.422187 -0.628122 -0.425427
  5 1008.93 419.157 334.559
  6 1024.46 478.624 -337.843
  7 -0.417694 -0.624171 0.419618
  8 17.3599 0.509113 1.41717
  9 561.147 -1.16065 -0.922657
  10 557.204 -2.04763 -1.35607
  11 557.738 -1.62440 1.14722
  12 555.253 -0.958856 0.421298
  13 554.361 -1.92692 -0.460630
  14 553.814 -1.86602 2.02408
  15 546.353 -1.36843 1.86637
  16 548.753 -4.00170 2.97926
  17 532.541 -3.35799 6.55670
  18 522.433 -1.57324 7.90827
  19 508.350 -1.87317 8.57452
  20 483.634 -1.66603 12.1170
  21 456.519 -1.38637 14.1428
  22 422.451 1.82157 19.5137
  23 375.571 2.83323 17.7267
  24 356.623 -0.0643417 25.4502
  25 297.773 4.22329 18.1452
  26 261.775 5.50211 14.2620
  27 252.391 2.81623 10.5329
  28 242.332 8.07298 0.795188
  29 247.854 8.65639 -14.0987
  30 258.871 2.54538 -17.6831
  31 303.100 1.20432 -23.5533
  32 347.490 -2.15771 -24.3430
  33 377.243 2.35278 -17.6885
  34 422.942 2.06688 -19.5104
  35 455.381 -1.63709 -15.1694
  36 486.321 -1.84715 -11.4173
  37 506.429 -1.39320 -8.71436
  38 520.900 -1.67862 -7.22388
  39 536.489 -1.96520 -4.14124
  40 542.357 -2.06670 -3.93022
  41 548.128 -1.94478 -3.48647
  42 553.946 -2.19882 -0.579352
  43 556.102 -2.76133 -1.38832
  44 552.759 -0.00150960 0.0250446
  45 557.086 -1.50161 -1.30982
  46 559.245 -2.95484 1.47874
  47 561.801 -1.72338 -0.0561831
  48 534.454 0.0407636 -0.842500
  49 503.725 -2.60457 -1.56642
  50 468.801 -5.53441 -2.19590
  51 432.540 -4.84287 -1.58481
  52 400.809 -7.42419 -1.45271
  53 367.237 -8.00354 -1.31121
  54 333.308 -7.06291 -0.596770
  55 297.554 -7.47555 -0.848285
  56 267.280 -7.81794 -1.13855
  57 226.947 -7.40797 -0.904520
  58 185.410 -4.72573 -0.579057
  59 151.041 -3.05177 -0.448117
  60 108.599 -1.92135 -0.135475
  61 77.7919 -1.79114 -2.08356
  62 49.2062 -2.38029 -0.660363
  63 20.3594 0.266881 1.34745
  64 12.7593 2.00339 0.572676
  65 10.4909 0.809780 1.45140
  66 11.2879 0.364076 1.46924
  67 4.97687 1.14963 0.757428
  68 2.36069 1.51309 3.01954
  69 0.893976 0.536142 1.24266
  70 -9.73184 1.13525 1.34506
  71 -14.9323 0.772477 2.94037
  72 -17.4291 0.244255 3.11087
  73 -29.2793 1.05505 2.52760
  74 -33.9984 1.59117 4.54736
  75 -39.4351 0.965851 1.88069
  76 -45.4225 0.707779 2.59664
  77 -48.2873 0.750232 1.22680
  78 -54.2559 1.85565 -0.939508
  79 -55.4019 1.27089 -0.679508
  80 -50.9071 0.948215 -1.55845
  81 -44.0133 1.26592 -3.22109
  82 -36.0321 0.581469 -5.08205
  83 -27.0365 0.328061 -5.36506
  84 -16.2961 -0.519658 -5.66092
  85 -7.16590 -0.423051 -3.34190
  86 -3.03111 -1.17197 -2.10125
  87 -0.490962 -3.03098 -1.83234
  88 -0.811799 -7.74501 -3.21893
  89 -0.931162 -14.9809 -5.59810
  90 -0.157834 -27.9523 -5.99201
  91 0.362327 -38.4395 -7.46885
  92 0.813828 -55.1306 -6.06687
  93 2.43923 -65.1245 -7.09717
  94 0.472110 -69.4557 -5.68704
  95 -0.0518265 -78.8842 -3.08166
  96 2.24201 -74.9402 -0.0318436
  97 9.17152 -96.4879 5.33950
  98 8.50381 -46.8433 16.0456
  99 19.8826 -12.0106 34.1004
  100 58.6103 112.395 101.548
  101 242.709 336.458 278.523
  102 1321.37 143.500 195.152
  103 1111.64 39.4650 70.0924
  104 1059.63 16.8336 24.0757
  105 1031.02 10.9637 -0.134726
  106 1049.36 16.0336 -19.8301
  107 1121.62 33.6805 -57.9270
  108 1307.61 113.470 -181.313
  109 157.885 380.922 -230.486
  110 41.2462 86.7064 -79.0811
  111 14.6869 -21.6950 -28.6274
  112 7.71201 -52.5175 -13.9812
  113 9.11590 -100.538 -4.34297
  114 2.13918 -76.7284 0.732178
  115 -0.184640 -79.7755 3.44580
  116 0.387769 -69.7967 5.88178
  117 2.39301 -65.2000 7.17912
  118 0.796102 -55.0945 6.09686
  119 0.348956 -38.3814 7.47921
  120 -0.164365 -27.8805 5.98789
  121 -0.931919 -14.9354 5.58573
  122 -0.813550 -7.70616 3.20748
  123 -0.490586 -3.01640 1.82227
  124 -3.01363 -1.17026 2.09279
  125 -7.13478 -0.424986 3.33272
  126 -16.2558 -0.524264 5.65526
  127 -26.9897 0.322931 5.36607
  128 -36.0053 0.575855 5.09165
  129 -44.0230 1.26188 3.24019
  130 -50.9544 0.947865 1.57911
  131 -55.4979 1.26967 0.699734
  132 -54.3925 1.85534 0.960612
  133 -48.4705 0.752146 -1.20828
  134 -45.6407 0.710135 -2.58278
  135 -39.6709 0.968562 -1.86960
  136 -34.2546 1.59441 -4.54253
  137 -29.5432 1.05811 -2.52355
  138 -17.6905 0.246117 -3.11112
  139 -15.1953 0.775713 -2.94410
  140 -9.98362 1.13979 -1.35075
  141 0.670698 0.539138 -1.25370
  142 2.16597 1.51623 -3.03629
  143 4.80779 1.15053 -0.772216
  144 11.1585 0.363496 -1.48370
  145 10.3906 0.808359 -1.46305
  146 12.6786 2.00094 -0.582760
  147 20.2960 0.265203 -1.35340
  148 49.1486 -2.38907 0.654355
  149 77.7393 -1.81299 2.07703
  150 108.559 -1.96000 0.126739
  151 151.018 -3.10764 0.443636
  152 185.389 -4.79043 0.578451
  153 226.916 -7.46373 0.913473
  154 267.212 -7.84510 1.15706
  155 297.447 -7.43912 0.891807
  156 333.158 -6.93292 0.646500
  157 367.033 -7.69876 1.23677
  158 400.985 -7.51324 1.27086
  159 432.675 -5.38603 1.67506
  160 469.163 -5.43529 1.99135
  161 504.703 -2.31619 1.58834
  162 533.626 0.00764889 0.820714
  163 315.513 -28.5619 -28.2699
  164 314.276 -29.0839 28.2017
  165 96.6801 26.4259 -40.1352
  166 97.6263 26.5189 39.9724
  167 370.690 -16.8980 98.4228
  168 388.284 -19.1666 -95.8298
  169 185.571 -9.90792 13.2236
  170 185.544 -9.81229 -13.3935
  171 395.620 -14.5663 0.833136
  172 387.887 -14.6071 -0.685574
  173 529.937 95.1107 -12.5098
  174 534.494 4.87507 -63.7911
  175 524.257 8.84847 69.0685
  176 129.821 -5.01078 -27.1493
  177 129.837 -4.97626 27.1018
  178 462.036 -45.5966 21.1058
  179 461.663 -35.5490 -31.1299
  180 7.23059 11.3729 10.1152
  181 7.42293 11.4452 -10.0003
  182 631.189 128.928 16.4951
  183 123.956 55.9520 -88.6655
  184 132.837 56.4541 94.8873
  185 446.583 -21.3465 14.0250
  186 668.990 141.589 -4.78714
  187 292.135 -11.2141 -4.29373
  188 291.678 -11.4873 4.26546
  189 458.675 -15.0260 -12.9186
  190 608.369 -1.16869 -13.0928
  191 118.805 -3.59233 5.14262
  192 118.760 -3.62146 -5.20703
  193 51.6047 6.16237 -18.6629
  194 51.8330 6.09926 18.7068
  195 260.633 -9.88594 -62.4806
  196 259.620 -10.4154 63.2696
  197 310.637 -20.5852 -10.7937
  198 311.251 -20.4705 11.3948
  199 85.1729 -2.97133 14.5929
  200 85.0470 -2.93238 -14.6209
  201 601.545 -7.72069 43.8812
  202 494.210 -48.0009 -6.54952
  203 468.061 -5.49046 -1.71615
  204 457.943 -6.57101 1.70953
  205 470.452 55.3699 49.3247
  206 20.9178 18.8522 -8.40656
  207 21.6505 18.8237 8.73335
  208 466.703 -18.5729 57.3071
  209 432.849 33.2822 -56.8766
  210 305.349 71.8755 -199.246
  211 321.092 60.7770 185.235
  212 9.92574 10.4744 -2.45232
  213 10.1108 10.4733 2.54182
  214 465.373 -16.3224 -59.2983
  215 801.693 111.771 -7.93868
  216 386.656 -41.8945 36.9295
  217 389.489 -41.6738 -35.0602
  218 386.416 -28.0298 -0.106176
  219 476.016 -8.18149 6.71412
  220 234.859 -16.2910 -24.0857
  221 231.278 -16.2295 24.7717
  222 142.435 2.74289 -40.4991
  223 142.643 2.69041 40.1783
  224 489.600 -50.9425 -9.00469
  225 383.272 -29.7582 -1.56297
  226 474.269 -8.02496 -5.10400
  227 371.718 -10.4097 -0.570163
  228 374.860 -9.77242 1.25665
  229 469.957 -21.1849 32.3082
  230 44.5912 0.297691 -15.5898
  231 44.7722 0.278768 15.5908
  232 -5.69199 -3.73724 -15.7286
  233 -5.72238 -3.77546 15.7408
  234 77.8800 -3.25938 -8.52531
  235 77.9894 -3.26722 8.46432
  236 203.195 -6.39618 5.92686
  237 203.234 -6.50021 -5.96788
  238 231.242 16.3097 -90.4368
  239 231.271 13.6533 89.4360
  240 476.322 -15.1459 -27.6479
  241 227.248 -13.3682 -38.4393
  242 227.448 -13.7707 37.9348
  243 424.405 6.83341 64.5102
  244 374.618 32.0713 3.91914
  245 409.910 -40.9576 1.16673
  246 2.14856 -9.08243 -13.7721
  247 2.01059 -9.19295 13.8916
  248 27.4496 30.2161 -32.1353
  249 29.1629 29.2771 33.6445
  250 403.180 -40.0843 -3.82001
  251 720.419 139.498 -16.3221
  252 39.6235 26.4236 -14.5689
  253 40.0848 26.4168 14.7235
  254 -14.6374 3.52793 10.2977
  255 -14.5579 3.54634 -10.2424
  256 723.520 131.296 20.5942
  257 258.558 -12.8727 -9.99193
  258 258.370 -12.6784 9.82133
  259 499.505 -33.1380 51.9358
  260 892.597 145.543 91.4443
  261 153.861 -8.19375 -22.4337
  262 153.841 -8.25134 22.4167
  263 512.300 76.8619 -46.6198
  264 862.627 164.500 -84.1751
  265 606.907 62.9577 42.1455
  266 653.924 47.3593 -127.442
  267 409.579 -20.0210 4.39690
  268 467.878 2.78015 -71.7984
  269 441.031 -31.4566 -16.9395
  270 490.037 -9.16914 17.3631
  271 2.61896 4.72866 -6.29428
  272 2.80530 4.71425 6.35880
  273 484.732 -13.7539 -122.429
  274 55.1010 16.2813 -19.0494
  275 55.3584 16.2543 19.1480
  276 472.055 -11.4799 -36.0650
  277 69.4530 75.0602 -92.2973
  278 63.4939 -0.321250 -1.99437
  279 63.5595 -0.309069 1.96769
  280 497.872 -30.2911 -54.3544
  281 90.0850 40.4680 -50.2593
  282 91.3680 40.2616 50.4015
  283 30.2613 -0.836407 10.8336
  284 30.0699 -0.826629 -10.8389
  285 408.942 -19.0763 -4.31111
  286 69.9457 74.2886 94.6722
  287 642.930 56.2274 148.515
  288 182.747 -7.45808 -8.15821
  289 182.722 -7.41416 8.05676
  290 328.644 -14.3263 -4.27437
  291 328.489 -15.4326 4.66548
  292 280.532 28.0581 -135.921
  293 449.500 -48.9696 -4.11944
  294 508.052 -3.66712 2.89615
  295 270.348 28.1261 131.655
  296 314.998 -9.35262 -1.48980
  297 314.881 -9.34779 1.75220
  298 441.770 -32.6831 17.2453
  299 504.668 -5.82420 -7.90263
  300 -0.0235088 1.85969 -8.69596
  301 0.183400 1.84573 8.72760
  302 638.165 126.295 -4.06343
  303 556.507 -24.4169 25.3068
  304 500.337 -3.26740 -0.670370
  305 508.775 -2.86015 0.607813
  306 501.541 -42.7071 46.3792
  307 618.286 67.1987 -38.5437
  308 545.101 101.180 26.2001
  309 247.149 -15.4727 -15.5789
  310 244.973 -15.7460 15.8538
  311 507.361 -3.60260 -1.80106
  312 337.243 -25.1028 -68.3034
  313 332.272 -26.5841 13.5746
  314 316.700 -16.8697 77.4901
  315 500.686 -6.50201 9.53657
  316 119.323 -5.47079 -14.0950
  317 119.409 -5.50996 14.0401
  318 462.450 -13.3658 120.966
  319 297.102 -23.7916 -19.3902
  320 542.905 70.4996 57.9596
  321 175.669 12.2753 -59.4608
  322 169.266 12.8438 59.0069
  323 56.9510 -1.10655 -3.61403
  324 57.0467 -1.09954 3.57166
  325 443.289 -9.83380 3.47077
  326 425.343 -7.04627 0.216088
  327 423.021 -7.62560 -0.354572
  328 468.817 -12.0804 38.2688
  329 46.1255 -1.57246 8.17497
  330 45.9600 -1.55828 -8.20764
  331 141.990 -3.50916 -3.00557
  332 142.010 -3.45616 2.97741
  333 4.79578 -19.5714 -6.99144
  334 4.49783 -19.7442 7.34639
  335 370.523 16.1983 43.9817
  336 561.759 -22.4822 -19.6200
  337 366.188 -20.1509 -0.633105
  338 412.221 -9.27775 -1.34793
  339 436.905 54.1687 -26.6337
  340 88.9973 -2.89925 -20.2265
  341 89.1171 -2.90194 20.2136
  342 356.316 -19.0549 2.44259
  343 104.187 3.25650 -28.9494
  344 104.388 3.16962 28.8706
  345 21.2899 16.9672 -1.83063
  346 21.5341 16.9668 1.93605
  347 431.452 -45.6270 46.8747
  348 941.892 61.9669 24.2418
  349 389.463 6.19643 -51.9990
  350 322.957 -28.8926 42.8730
  351 321.321 -28.2917 -44.1004
  352 475.032 -7.52586 70.9050
  353 424.755 -2.86802 51.1300
  354 425.975 -44.1093 -48.2921
  355 257.229 -7.19717 0.854340
  356 257.187 -7.27135 -0.792066
  357 471.214 -30.6857 42.4059
  358 645.367 127.853 1.45980
  359 503.534 -6.12323 -12.8247
  360 135.186 -5.24175 -10.3360
  361 135.250 -5.24687 10.2440
  362 475.176 -43.8521 -57.7341
  363 502.178 35.7675 -70.3629
  364 342.903 18.4304 -28.2971
  365 474.677 -31.4710 -48.8078
  366 -15.1917 0.664713 -12.1059
  367 -15.2079 0.645258 12.1214
  368 398.609 -10.4355 0.325663
  369 -5.65989 -3.35184 -7.39694
  370 -5.65249 -3.35270 7.38094
  371 306.701 160.411 -241.417
  372 13.3105 12.0830 6.17499
  373 13.6210 12.1752 -6.00804
  374 421.686 -3.02537 -50.7181
  375 234.369 -10.4285 7.55580
  376 234.525 -10.5589 -7.62720
  377 -1.43613 -16.4520 13.8140
  378 -1.41042 -16.4222 -13.8005
  379 250.333 167.875 227.649
  380 192.526 -10.3945 -30.3031
  381 192.686 -9.96616 30.3263
  382 62.1470 46.4258 -46.8310
  383 63.4230 46.3164 46.5809
  384 -22.2249 3.70895 3.67358
  385 -22.1154 3.71526 -3.61359
  386 485.184 32.9201 70.7962
  387 371.582 -38.9063 21.7724
  388 371.981 -34.1771 10.0357
  389 448.942 -50.5816 -9.42542
  390 115.710 14.1424 -39.7915
  391 116.096 14.1208 39.7389
  392 10.5326 -11.8815 2.83450
  393 9.98485 -12.1207 -2.05327
  394 459.563 65.4275 17.3967
  395 456.868 -13.8155 10.4070
  396 265.060 -20.7601 28.2206
  397 165.834 -4.36478 -35.9912
  398 165.907 -4.39606 35.7436
  399 335.865 -11.0453 -2.14092
  400 335.516 -9.81886 1.85674
  401 262.873 -21.2981 -29.8259
  402 206.446 -3.61849 -48.1655
  403 206.426 -3.89860 48.5383
  404 477.064 -43.4011 -28.2427
  405 280.190 -21.8830 18.3292
  406 433.687 -14.0648 5.63702
  407 432.807 -12.9217 -4.54396
  408 365.268 -33.9400 -11.3193
  409 517.892 -2.82306 -3.09608
  410 177.736 73.5209 -138.499
  411 490.405 -7.40980 21.7028
  412 516.708 -3.22823 4.81910
  413 189.908 -10.3674 18.6160
  414 189.977 -10.2305 -18.6024
  415 369.932 -38.4456 -22.4051
  416 55.1071 23.9529 20.5649
  417 54.8160 23.9333 -20.5769
  418 951.214 61.9205 -49.3944
  419 425.734 -24.9068 -8.91583
  420 520.831 -2.39087 1.78142
  421 168.073 68.8461 132.147
  422 771.883 129.589 26.4711
  423 454.816 -7.82631 -2.70962
  424 343.317 -25.4007 -9.02631
  425 145.385 28.0378 -67.0073
  426 154.780 25.9616 66.6055
  427 420.832 -27.2135 8.89431
  428 448.276 -5.72934 -37.3917
  429 1.26462 -0.453673 8.16118
  430 1.04506 -0.449027 -8.15434
  431 163.743 39.7388 -89.1103
  432 164.266 39.8778 88.8436
  433 21.7841 9.01135 -9.40785
  434 21.9904 8.99274 9.48834
  435 377.932 -8.36164 0.333009
  436 377.479 -8.17213 -0.209632
  437 469.361 -21.6382 -33.8236
  438 -0.791357 -0.727552 16.5203
  439 -0.706857 -0.651286 -16.4575
  440 483.102 -47.1292 24.1006
  441 456.204 -12.9880 -9.08060
  442 736.139 140.699 -24.5751
  443 36.3647 -1.38415 3.92367
  444 36.2179 -1.38438 -3.96033
  445 879.651 253.150 116.883
  446 18.6443 13.3825 -29.0943
  447 59.0859 2.54824 -19.8523
  448 59.2780 2.50553 19.8540
  449 878.218 259.280 -113.693
  450 19.7603 15.3687 31.7818
  451 -20.8349 2.80029 0.354250
  452 -20.6928 2.79618 -0.297017
  453 51.4795 35.2960 -28.3097
  454 52.3445 35.3192 28.4564
  455 578.458 91.7386 -46.4301
  456 463.563 -18.6191 -21.2490
  457 518.191 -2.46768 -1.52703
  458 484.645 -7.62256 -25.6027
  459 -4.93993 3.94748 15.0350
  460 -4.85374 3.99694 -14.9753
  461 468.454 -19.3104 25.0435
  462 307.336 -17.8981 -8.66242
  463 306.420 -18.0699 7.66263
  464 414.251 -45.5615 -10.0894
  465 297.152 -3.52342 -94.4577
  466 452.441 -6.86736 38.1510
  467 369.413 -12.8942 1.18238
  468 538.927 -38.6078 -10.9622
  469 287.983 3.28708 101.126
  470 27.6770 -0.474045 7.87879
  471 27.4811 -0.465433 -7.89322
  472 595.135 117.527 -19.9378
  473 472.168 -4.41037 0.0131478
  474 470.596 -4.88085 -0.429744
  475 360.148 -24.6218 4.86342
  476 162.116 -5.65766 -5.87701
  477 162.116 -5.59611 5.81411
  478 96.7050 -1.32450 -23.9372
  479 96.8229 -1.34336 23.8971
  480 310.743 12.0167 16.9716
  481 81.7695 -2.69196 11.6811
  482 81.6484 -2.66715 -11.7328
  483 84.6947 7.72805 27.0360
  484 84.4164 7.84243 -27.0098
  485 460.845 -35.7400 29.8352
  486 260.879 -16.2814 -45.4419
  487 242.032 -8.37699 4.10724
  488 242.112 -8.56422 -4.11180
  489 263.590 -16.7837 45.4404
  490 716.772 172.023 -20.3749
  491 -11.4473 -1.67340 -9.50460
  492 -11.4402 -1.68252 9.49856
  493 186.055 -5.53499 -2.47709
  494 186.061 -5.45894 2.46844
  495 0.320066 -30.1322 -11.2241
  496 0.244629 -30.2317 11.3270
  497 420.064 -7.32507 0.584540
  498 309.018 14.5240 -8.43341
  499 409.207 42.7550 24.0515
  500 258.908 -2.24062 -75.8355
  501 130.607 -6.71960 17.6387
  502 130.582 -6.66377 -17.6640
  503 -29.1903 0.994126 -3.08579
  504 -28.9937 0.987952 3.11267
  505 498.259 -8.48136 -69.7194
  506 47.3967 0.196923 -2.60643
  507 47.4812 0.203187 2.57592
  508 414.779 -33.0658 -6.42389
  509 441.568 -37.7893 -15.9662
  510 92.5979 72.3331 -95.1945
  511 371.271 11.9701 -146.997
  512 6.27506 11.6033 6.04104
  513 6.45568 11.6292 -5.93979
  514 230.947 -11.0779 -10.6141
  515 230.841 -10.9842 10.4159
  516 633.111 30.1344 -8.52426
  517 458.841 -27.3979 -27.2009
  518 90.3277 68.6295 93.9107
  519 454.506 -50.8960 16.5470
  520 437.593 -41.6455 11.5192
  521 99.3650 -2.41713 -7.70126
  522 99.4365 -2.40838 7.63296
  523 366.300 4.17739 40.3211
  524 263.179 -19.6917 -19.2314
  525 482.433 -11.3055 15.3776
  526 -1.91902 -11.7447 -9.26049
  527 -1.92376 -11.7346 9.24627
  528 341.150 -29.9202 50.8240
  529 515.166 -38.3921 -33.7295
  530 667.274 51.5200 -30.1762
  531 365.121 -13.3105 -1.10583
  532 114.688 -2.19895 -2.21513
  533 114.725 -2.16022 2.19637
  534 233.316 2.10212 73.1753
  535 641.110 110.043 28.0134
  536 643.708 138.088 -230.587
  537 583.769 5.59734 30.8192
  538 422.296 -46.7622 7.88570
  539 979.902 78.0357 66.3882
  540 732.748 180.902 27.9853
  541 109.212 -4.60130 19.2105
  542 109.123 -4.55662 -19.2374
  543 406.272 -34.0161 3.85561
  544 32.7309 14.8319 -9.07958
  545 32.9648 14.8255 9.17400
  546 508.933 -41.4139 33.8365
  547 422.035 23.1456 59.2062
  548 510.736 -3.60033 8.64489
  549 380.674 -23.4740 0.493613
  550 528.002 8.51951 -154.945
  551 830.573 225.024 155.389
  552 411.074 -9.08068 -0.370690
  553 502.565 -5.44055 -14.2133
  554 82.1547 33.9495 -38.1164
  555 82.7429 33.5457 37.9620
  556 291.456 -12.3791 -5.77875
  557 291.328 -12.1061 5.87541
  558 3.67770 -32.9624 -5.68785
  559 514.497 -17.3597 61.3322
  560 21.3072 18.7816 0.0518957
  561 21.6242 18.8352 0.0991524
  562 4.26780 -31.6993 6.79287
  563 469.252 -21.2715 -50.2616
  564 539.431 35.2884 -66.3246
  565 537.734 39.8818 66.3980
  566 27.0665 24.7863 22.0141
  567 25.7550 25.3045 -21.5849
  568 -10.7411 0.457369 6.24153
  569 -10.9649 0.462368 -6.22887
  570 492.579 16.1887 159.521
  571 274.511 -15.6741 10.9254
  572 274.777 -15.6199 -11.0960
  573 592.687 -6.79549 -84.2055
  574 84.1330 -1.18315 4.45959
  575 84.0687 -1.20044 -4.50550
  576 43.5911 -0.950586 -1.03457
  577 43.6545 -0.944386 1.02386
  578 653.587 121.618 -21.2426
  579 63.8004 101.691 -104.465
  580 351.232 7.25962 -34.2123
  581 489.696 77.9910 -29.4316
  582 7.83870 1.17857 9.18494
  583 8.13518 1.28845 -8.98623
  584 483.612 235.834 269.648
  585 417.390 -12.5121 -2.53981
  586 18.0167 4.23397 -10.8371
  587 18.2206 4.20352 10.8879
  588 482.412 -38.4190 41.8916
  589 75.2824 98.7177 106.369
  590 349.318 -8.30619 0.690917
  591 349.416 -8.24446 -0.692230
  592 -0.257486 -24.1667 11.8565
  593 -0.219886 -24.1278 -11.8173
  594 594.996 115.265 -0.952875
  595 377.650 -29.7350 71.1481
  596 360.947 -16.2314 -1.96138
  597 362.113 18.4508 154.967
  598 -29.4199 1.60332 7.00014
  599 -29.3908 1.61203 -6.97014
  600 590.781 10.0815 -33.3365
  601 779.215 140.072 -112.740
  602 227.971 23.7785 -104.450
  603 126.367 -5.38252 -23.3227
  604 126.491 -5.38475 23.3296
  605 532.035 -2.02754 2.24906
  606 357.500 -16.5599 1.53940
  607 474.779 -7.23926 4.80661
  608 469.250 -21.3132 49.0387
  609 26.3758 -0.795674 3.97954
  610 26.1997 -0.792368 -4.00653
  611 280.546 -10.4299 -3.41169
  612 280.511 -10.1679 3.32609
  613 176.414 3.73896 -49.6322
  614 175.308 3.79071 49.4321
  615 670.863 44.7893 45.8909
  616 1083.33 81.6783 -118.050
  617 -3.59676 -0.699858 5.41340
  618 -3.83043 -0.697630 -5.41101
  619 168.385 -7.22755 10.7632
  620 168.366 -7.21813 -10.8907
  621 627.272 37.4093 17.0978
  622 525.439 -2.31577 -0.712666
  623 524.328 -3.12269 0.242542
  624 389.520 0.0498441 39.8750
  625 551.740 -30.2440 -52.9130
  626 303.520 -25.1383 22.8876
  627 -5.51259 7.01683 -5.76263
  628 -5.64786 7.00504 5.84170
  629 484.477 10.5491 73.8139
  630 195.051 -11.3701 -24.4968
  631 194.878 -11.5542 24.5423
  632 393.900 -23.4001 -1.94828
  633 484.473 -11.0860 -13.8770
  634 280.027 -22.4289 -33.4914
  635 458.962 55.4073 -44.8970
  636 308.838 -21.1479 -58.3694
  637 118.481 -3.18788 -4.06306
  638 118.517 -3.15242 4.01573
  639 282.864 -22.8116 33.6570
  640 602.022 98.5544 40.7461
  641 480.001 -22.9366 61.8464
  642 392.934 -18.2517 2.05996
  643 283.492 -8.24374 2.01997
  644 283.421 -8.25913 -1.96722
  645 215.591 -8.41025 -7.75906
  646 215.520 -8.32537 7.68727
  647 461.337 -42.2032 -22.9329
  648 237.103 -13.7478 13.5195
  649 237.346 -13.6928 -13.7582
  650 467.130 71.7414 -5.98179
  651 426.424 -22.9832 9.12966
  652 529.530 -2.72950 -3.60331
  653 455.540 -8.01258 -65.3179
  654 70.1589 -3.02922 15.4485
  655 70.0163 -3.00822 -15.4583
  656 517.611 -3.14148 -7.85089
  657 95.0647 49.3592 -67.5530
  658 96.6721 49.2506 67.8793
  659 528.582 -29.9568 71.4425
  660 184.995 46.7083 110.016
  661 49.2865 -0.377076 15.4423
  662 49.1185 -0.366450 -15.4462
  663 451.384 -27.8837 91.1049
  664 443.175 67.3512 -209.930
  665 437.764 14.1867 -65.4402
  666 573.034 104.050 35.7706
  667 386.353 -17.8989 -0.348531
  668 692.456 123.741 -3.01083
  669 -31.2336 1.59603 -2.16126
  670 -31.0681 1.59209 2.19862
  671 309.132 2.09831 -110.228
  672 28.4535 -0.472052 3.02652
  673 28.3201 -0.473211 -3.05470
  674 386.666 -31.9989 -70.3884
  675 130.811 17.7382 -48.0036
  676 129.799 17.8087 47.9834
  677 4.81074 6.53506 -4.00128
  678 4.99146 6.52730 4.08008
  679 329.936 -28.7489 -17.7607
  680 465.700 -4.60310 -24.9762
  681 225.324 -7.38005 -2.75040
  682 225.340 -7.30481 2.76972
  683 164.576 -8.52164 -15.8891
  684 164.710 -8.63695 15.8380
  685 31.7684 26.0966 -10.7432
  686 32.2793 26.1572 10.9190
  687 473.756 -6.38403 2.14378
  688 215.195 -13.8700 20.6001
  689 216.529 -13.6363 -20.5861
  690 525.577 -40.9723 -2.22158
  691 434.641 -43.7104 -6.79955
  692 342.986 -10.4993 -1.04573
  693 341.806 -9.85429 1.20154
  694 477.743 -49.6914 29.3620
  695 772.503 156.443 43.8507
  696 420.149 -17.3883 -112.318
  697 480.816 -13.7038 25.4135
  698 479.240 -17.4061 -66.6094
  699 153.953 -4.92475 -7.58911
  700 153.964 -4.89075 7.50493
  701 374.214 -5.15669 125.639
  702 1027.57 132.618 121.375
  703 74.4749 21.2776 -28.3937
  704 74.5884 21.4218 28.4849
  705 472.024 -5.33584 -1.04288
  706 475.673 -4.83682 1.07373
  707 202.963 105.914 -176.996
  708 502.743 -2.96710 14.2884
  709 434.948 -8.29827 1.40112
  710 576.713 113.782 -12.9694
  711 61.6175 10.5346 -20.7977
  712 61.8813 10.4696 20.8737
  713 535.914 -1.61206 0.304606
  714 438.021 -17.5407 -9.20279
  715 545.677 -7.09889 52.7266
  716 227.007 -16.0202 -31.7236
  717 227.573 -15.3492 31.4480
  718 56.1918 -1.84002 11.6866
  719 56.0337 -1.81767 -11.7137
  720 492.785 -3.98241 -2.15104
  721 425.360 88.0638 222.370
  722 3.76573 4.15191 13.2472
  723 3.92621 4.25012 -13.1370
  724 494.597 -5.89360 -6.12632
  725 480.955 -9.43451 8.81530
  726 387.763 0.492941 -42.7677
  727 3.82693 -42.2774 -4.88559
  728 3.58849 -42.7111 5.32287
  729 178.033 48.2035 -110.059
  730 386.096 -38.3767 -51.5075
  731 201.720 104.894 178.581
  732 529.471 -1.67116 1.27603
  733 518.209 77.7576 46.7568
  734 382.602 34.5911 -16.7804
  735 674.352 135.828 3.48589
  736 524.011 -2.50960 4.95746
  737 -28.3762 0.761791 4.45467
  738 -28.5943 0.765946 -4.43709
  739 558.967 -30.1619 18.8390
  740 364.404 -11.3098 -1.33859
  741 135.538 0.0300972 -34.5652
  742 135.722 -0.101753 34.3851
  743 480.376 -6.29480 -3.27675
  744 845.409 119.520 -44.4615
  745 62.9999 -1.77668 -7.48203
  746 63.1353 -1.78679 7.43469
  747 533.187 -1.75744 -2.21906
  748 112.297 -4.97775 -10.4082
  749 112.378 -4.99520 10.3377
  750 525.666 -20.0865 -54.7884
  751 486.114 -5.22042 19.9533
  752 439.238 -2.55476 64.7723
  753 533.530 -1.82264 0.134421
  754 500.044 -4.37713 4.60020
  755 330.858 -18.3600 -5.22692
  756 412.151 -11.6444 1.67167
  757 468.970 -28.8955 -41.2680
  758 457.162 -28.9861 26.0922
  759 537.204 65.6301 -58.7430
  760 450.748 -25.6869 18.9041
  761 476.873 -28.0452 53.2583
  762 279.052 -19.2335 14.3737
  763 10.5049 -0.775288 0.719465
  764 9.97282 -0.813121 -0.214518
  765 416.759 -7.16534 -0.172390
  766 415.892 -7.12202 0.0205067
  767 496.886 -2.86460 -0.194324
  768 498.548 -2.77218 0.307099
  769 476.888 -13.5698 31.4588
  770 439.904 -39.6059 66.7797
  771 362.966 -29.7970 7.79695
  772 323.212 -19.7997 7.66635
  773 861.759 110.179 51.1602
  774 481.128 -12.6162 -19.7699
  775 283.857 50.9487 -165.702
  776 447.772 -22.6089 -16.2126
  777 21.5296 0.300718 -11.3209
  778 21.7316 0.284378 11.3380
  779 405.995 35.6184 -37.5867
  780 998.744 30.2876 -12.9039
  781 505.402 13.6898 -71.8139
  782 20.8201 19.3151 -42.2843
  783 522.335 93.5381 11.8894
  784 405.497 -26.2955 4.16139
  785 457.049 -11.1693 63.3126
  786 384.182 -40.0166 51.7858
  787 608.140 0.234112 102.603
  788 22.4210 23.9862 45.0191
  789 279.238 -1.35980 86.4938
  790 387.565 -10.8367 -0.0544914
  791 431.554 -37.9395 -67.5645
  792 267.772 -21.0558 -23.9092
  793 211.899 10.2376 -75.9751
  794 500.623 -7.19286 70.3388
  795 322.799 -22.4249 11.7098
  796 67.6149 -1.83720 6.58147
  797 67.5092 -1.83916 -6.63594
  798 467.114 -2.62790 22.0982
  799 426.217 2.41965 -63.1106
  800 -36.1855 1.71013 4.20769
  801 -36.1305 1.71354 -4.17457
  802 314.232 -10.5600 -2.05737
  803 313.350 -10.0327 1.95391
  804 233.740 26.5785 105.897
  805 210.373 -12.5139 15.6979
  806 210.648 -12.2198 -15.8445
  807 532.729 -1.34959 -1.13279
  808 191.103 15.2192 74.1378
  809 11.8629 -0.181056 4.19468
  810 11.6498 -0.177174 -4.21018
  811 461.632 -14.1863 48.7742
  812 488.616 -4.80963 1.64215
  813 -26.1223 0.368482 7.11147
  814 -26.1286 0.377190 -7.09703
  815 304.795 -18.9405 65.2659
  816 60.3134 51.7145 -57.7767
  817 61.0343 49.4592 56.9486
  818 295.427 12.9377 7.04597
  819 0.0599421 -0.345730 -4.79530
  820 0.295947 -0.348754 4.79207
  821 349.626 -33.0146 -48.5905
  822 474.701 -49.3992 -12.3127
  823 -2.39171 -2.26827 -3.02653
  824 -2.38443 -2.26273 3.01507
  825 32.5478 0.776166 -1.02193
  826 32.6235 0.780561 1.00575
  827 423.001 -37.8330 7.66752
  828 357.248 -36.4796 34.6912
  829 394.173 -7.57892 0.425958
  830 356.390 -29.0945 -9.09359
  831 135.611 -2.41295 -0.852890
  832 135.638 -2.36210 0.841207
  833 -40.6080 0.875621 2.27759
  834 -40.5173 0.874560 -2.24482
  835 443.551 -6.62303 -1.34268
  836 399.092 15.9392 -53.8591
  837 448.774 -9.71238 -4.63260
  838 268.345 -20.7196 22.8535
  839 447.544 -7.71601 -51.8480
  840 476.352 -14.7242 -32.4910
  841 445.280 -5.81581 1.18504
  842 327.641 -12.0065 88.6387
  843 350.045 -34.3202 -20.6193
  844 212.828 -1.60434 -58.6897
  845 213.980 -0.127422 58.9947
  846 299.497 -22.7784 -15.5761
  847 495.443 54.1391 61.5047
  848 467.206 -47.8722 -38.5598
  849 173.360 -5.69035 -3.88809
  850 173.355 -5.61233 3.85387
  851 358.630 -9.04399 0.780257
  852 358.649 -9.11077 -0.701285
  853 428.945 -3.14882 -33.9984
  854 148.364 -6.35904 -12.8523
  855 148.451 -6.40568 12.7560
  856 1.81931 -43.4304 -8.32395
  857 1.72630 -43.6195 8.50588
  858 78.9961 -1.15825 -0.176031
  859 78.9435 -1.17990 0.162017
  860 440.449 -7.77953 -1.86324
  861 337.155 -32.1657 31.4974
  862 519.443 -43.5690 12.6133
  863 313.535 6.55285 26.9729
  864 450.416 -11.3860 5.36881
  865 492.632 -43.6420 -31.4909
  866 74.5479 4.43300 -23.4657
  867 74.7664 4.35820 23.4593
  868 392.208 -8.06092 -0.380131
  869 317.926 -11.7747 -3.71934
  870 316.855 -11.6808 4.00326
  871 490.924 76.3095 33.1812
  872 172.766 -1.87047 -41.4602
  873 172.620 -2.06781 41.2964
  874 340.291 -30.9841 16.7982
  875 34.5509 21.9014 -9.38584
  876 34.8792 21.8627 9.48249
  877 288.620 -20.4679 53.5566
  878 344.979 -22.5152 -5.68358
  879 431.305 -3.26402 34.3507
  880 421.940 -47.2296 19.0091
  881 483.086 -36.4302 -45.4676
  882 336.329 -32.4267 -31.8989
  883 281.016 -19.1609 -13.8245
  884 898.353 73.5405 -13.9965
  885 441.727 -46.6634 3.90842
  886 13.9786 15.0892 3.80612
  887 14.2125 15.1204 -3.68243
  888 384.890 -38.6752 10.4480
  889 421.262 -47.0269 -30.9666
  890 15.2250 12.9804 -0.970084
  891 15.4314 12.9859 1.06556
  892 162.259 -5.90943 31.7249
  893 162.342 -6.07867 -31.8960
  894 195.498 -10.0079 34.7492
  895 195.417 -10.2366 -34.9668
  896 608.387 121.903 15.2514
  897 -0.857265 -18.7985 -8.93874
  898 -0.863640 -18.7741 8.93154
  899 142.748 11.8479 -45.7018
  900 142.073 11.6114 45.2844
  901 1031.67 33.4080 -51.8010
  902 27.0124 -0.131430 1.72727
  903 26.9045 -0.134807 -1.74944
  904 1.95957 -48.3096 1.90146
  905 2.26849 -47.4527 -1.17772
  906 -20.1160 -0.214895 7.39330
  907 -20.1401 -0.208542 -7.39132
  908 114.234 33.4275 -53.6617
  909 115.989 32.3163 52.9399
  910 -8.40191 0.652181 -15.3665
  911 -8.44568 0.616017 15.3940
  912 35.4481 2.81733 -15.4901
  913 35.6545 2.78036 15.5149
  914 125.404 -1.60582 29.3048
  915 125.308 -1.59932 -29.4374
  916 103.415 -3.60950 -23.6995
  917 103.527 -3.60387 23.6687
  918 520.400 -2.11732 -7.81162
  919 256.356 56.1278 154.400
  920 353.474 -34.9756 19.4805
  921 253.117 -18.3569 18.5876
  922 484.840 50.3065 -60.9328
  923 1014.70 21.6395 20.7613
  924 570.125 27.5688 -55.7661
  925 99.6423 -3.80360 14.8935
  926 99.5351 -3.76158 -14.9430
  927 21.1148 -0.590668 -10.9621
  928 21.3147 -0.595999 10.9642
  929 -0.0528724 -8.36451 -16.5877
  930 -0.128205 -8.43955 16.6441
  931 261.557 -11.9451 8.54379
  932 261.685 -12.1652 -8.57948
  933 33.9489 8.46589 -14.0439
  934 34.1686 8.42876 14.1146
  935 161.262 -7.30370 -27.0537
  936 161.377 -7.30552 27.0409
  937 346.886 -1.27543 -31.6926
  938 166.602 -9.14374 -18.9929
  939 166.501 -9.05114 19.0532
  940 395.157 -11.8359 -0.0863121
  941 478.374 -27.0906 -57.3969
  942 212.691 -8.88614 8.97269
  943 212.781 -8.96272 -9.07952
  944 -8.73453 -0.913534 -5.28700
  945 -8.71000 -0.915716 5.27527
  946 485.283 -35.9456 -82.1932
  947 466.041 -27.4453 35.6448
  948 409.343 -28.9951 -5.88430
  949 403.876 14.0984 56.7108
  950 185.183 -10.5331 -21.3382
  951 185.196 -10.3411 21.4008
  952 448.982 17.6052 68.2007
  953 421.125 36.8423 44.9517
  954 841.524 100.745 17.9197
  955 434.433 -16.2096 6.42711
  956 232.710 -7.31701 -4.05492
  957 232.688 -7.18457 4.08544
  958 390.429 -32.2897 1.02251
  959 541.644 99.2028 -27.5488
  960 473.869 -5.77821 -2.20766
  961 314.920 -8.39368 1.34892
  962 314.804 -8.33427 -1.26122
  963 41.2386 35.2443 -26.2376
  964 42.2556 35.1957 26.4240
  965 75.2312 203.782 -171.652
  966 448.574 -10.4203 51.5322
  967 554.494 -8.90294 -46.3150
  968 -7.74093 5.44791 2.00505
  969 -7.59224 5.44766 -1.92996
  970 1107.47 267.029 -211.703
  971 475.347 -51.1638 1.95474
  972 506.100 -45.7289 -23.9469
  973 468.447 -40.0093 31.6714
  974 581.420 113.970 10.8794
  975 43.1805 47.6248 -54.0091
  976 107.277 177.265 169.367
  977 -2.53531 -6.15131 16.7245
  978 -2.48864 -6.09627 -16.6963
  979 454.678 -12.2527 6.87172
  980 729.416 128.496 -16.7894
  981 44.4099 46.6274 56.0349
  982 -1.99306 -6.82721 -5.87927
  983 -1.99330 -6.80783 5.86356
  984 391.327 -9.88915 -0.341705
  985 294.378 -23.5550 -24.9929
  986 472.180 -37.1633 -38.2284
  987 136.636 36.8198 -70.2731
  988 138.802 37.4186 70.4523
  989 460.094 -11.3610 -45.7702
  990 461.182 -15.1218 13.6580
  991 -11.7453 3.35697 13.3425
  992 -11.6833 3.38939 -13.2974
  993 281.159 -18.4866 -50.4864
  994 465.793 30.1969 -68.1780
  995 345.467 -13.5949 2.35473
  996 250.905 -7.60657 0.799674
  997 250.855 -7.65186 -0.771633
  998 -5.11858 -5.82296 -12.1441
  999 -5.12571 -5.83555 12.1333
  1000 467.438 -17.0967 -17.1190
  1001 444.294 -5.72162 0.318817
  1002 443.885 -5.72840 -0.143125
  1003 615.478 102.043 -36.9189
  1004 114.211 9.64194 -36.3346
  1005 114.496 9.44992 36.2635
  1006 74.8984 -0.810424 -19.7423
  1007 75.0413 -0.825082 19.7242
  1008 508.900 27.9810 72.6505
  1009 478.520 -9.54583 -9.25781
  1010 87.5876 13.4773 -29.8863
  1011 87.9312 13.3786 29.9944
  1012 497.544 -3.21648 -1.34758
  1013 467.530 -20.4889 -26.6513
  1014 456.595 -50.9814 -22.6880
  1015 18.3791 16.3764 1.53842
  1016 17.8901 16.2985 -1.31541
  1017 -21.2538 3.72947 7.65684
  1018 -21.1734 3.74013 -7.60230
  1019 285.941 10.5723 -11.7793
  1020 785.307 197.318 -58.2162
  1021 362.483 -26.8052 -4.29942
  1022 241.562 -10.5664 -51.8686
  1023 576.622 -21.3086 0.602330
  1024 242.506 -10.5467 52.5739
  1025 415.670 -47.9490 35.6594
  1026 471.030 -19.5346 -41.0386
  1027 166.300 -4.07290 -1.24217
  1028 166.319 -4.00771 1.23507
  1029 323.501 -25.5620 -13.9249
  1030 200.196 -7.58784 -40.7521
  1031 200.133 -7.64520 40.5630
  1032 67.1918 44.1798 -44.3712
  1033 68.2378 44.0681 44.5046
  1034 140.943 -4.54897 -4.38454
  1035 140.962 -4.49638 4.33493
  1036 418.466 -13.9475 2.93126
  1037 354.110 2.50171 -127.065
  1038 433.518 -14.7083 -6.45695
  1039 392.905 -43.3378 -22.4341
  1040 260.937 -11.4112 5.97398
  1041 261.142 -11.4917 -5.98898
  1042 504.259 -3.59603 1.70291
  1043 452.915 -11.4062 -6.42451
  1044 300.637 7.38589 22.2566
  1045 486.736 -4.86242 -18.5790
  1046 190.633 56.6064 124.474
  1047 500.137 -4.75557 -15.1272
  1048 133.635 22.3424 -53.3720
  1049 129.746 22.5856 51.2836
  1050 595.716 -7.88773 -2.70595
  1051 56.1818 28.9286 -23.8597
  1052 56.6881 28.7267 23.8607
  1053 9.79167 0.873560 3.96904
  1054 10.2560 0.962665 -3.66333
  1055 83.3894 -2.17527 5.21720
  1056 83.3099 -2.18847 -5.27449
  1057 216.412 57.2505 -137.513
  1058 1141.06 303.922 227.899
  1059 466.019 -17.0804 17.5534
  1060 419.366 -46.8840 -17.3567
  1061 293.447 -24.1498 -39.5052
  1062 -5.10533 6.74205 11.2042
  1063 -4.99215 6.77893 -11.1279
  1064 330.460 -17.5290 4.33136
  1065 363.536 -14.1560 1.30441
  1066 -0.147752 -26.5975 8.57894
  1067 -0.138752 -26.6260 -8.57732
  1068 56.3693 34.7467 -28.1361
  1069 57.0244 34.6887 28.2980
  1070 326.161 -16.1770 -4.15820
  1071 27.7459 11.9972 9.40493
  1072 27.5288 12.0119 -9.31575
  1073 495.619 -19.0223 66.6280
  1074 359.863 -37.1566 -34.5170
  1075 295.170 -24.5356 39.5061
  1076 473.222 -8.98278 -70.7165
  1077 495.224 -5.91698 6.70404
  1078 182.861 28.3109 84.2306
  1079 184.165 27.0865 -82.8527
  1080 292.829 -13.9730 -71.0820
  1081 411.759 -15.4005 -2.85999
  1082 336.526 -20.6747 7.35150
  1083 393.050 -36.8850 -3.84810
  1084 534.117 -2.09767 -3.89601
  1085 293.020 -13.9467 6.72333
  1086 292.894 -14.7108 -6.87898
  1087 10.6840 12.2937 8.43257
  1088 10.9251 12.3823 -8.29332
  1089 477.617 18.1695 -73.2181
  1090 109.979 5.32354 -32.2019
  1091 110.273 5.20435 32.1241
  1092 83.6893 1.41564 -23.3249
  1093 83.8710 1.37083 23.2904
  1094 539.669 -18.9022 102.786
  1095 470.362 -21.7307 40.3345
  1096 233.005 -10.7746 -44.2729
  1097 541.851 -2.30642 -2.31506
  1098 613.597 116.635 -27.6166
  1099 494.068 -5.23632 -4.05604
  1100 465.572 -49.8655 12.1339
  1101 346.195 -25.9553 62.7222
  1102 544.750 -0.882860 0.331633
  1103 300.093 9.29199 -18.8576
  1104 395.755 -42.3122 -11.9003
  1105 233.388 -11.2560 43.8248
  1106 399.361 -36.5706 1.57135
  1107 495.279 -7.45784 13.1417
  1108 363.266 22.9742 29.2358
  1109 250.381 -18.5087 -35.6514
  1110 742.462 112.370 -50.8102
  1111 563.504 26.9800 58.9217
  1112 426.912 53.2895 7.11936
  1113 539.886 -0.124886 1.96836
  1114 218.176 -13.7736 -27.6045
  1115 148.475 93.7120 -138.567
  1116 264.127 7.59053 -100.016
  1117 303.009 -23.5577 18.1688
  1118 256.821 -19.3321 33.5749
  1119 217.680 -13.1171 27.8657
  1120 454.884 4.42167 71.5032
  1121 343.149 -12.6646 -1.94119
  1122 533.052 -4.13188 5.36941
  1123 -3.83779 0.0377898 16.5793
  1124 -3.77332 0.0935741 -16.5367
  1125 358.938 -11.0240 1.07345
  1126 0.305803 4.61778 14.6226
  1127 0.422850 4.69130 -14.5403
  1128 205.309 -6.76792 4.89117
  1129 205.318 -6.86689 -4.89633
  1130 504.489 -2.82282 12.5515
  1131 406.959 -25.3956 -4.63821
  1132 381.645 -20.9858 -0.0609919
  1133 426.091 -30.1734 11.5474
  1134 132.118 66.6400 -104.079
  1135 417.368 -16.4769 4.18256
  1136 66.2145 1.03798 -19.2206
  1137 66.3872 1.00685 19.2108
  1138 89.0745 57.9977 -74.1219
  1139 663.785 90.5031 14.5728
  1140 52.7596 -2.29812 11.2890
  1141 52.5944 -2.27988 -11.3034
  1142 90.6701 57.1673 71.6943
  1143 383.291 -32.3832 -2.56102
  1144 197.793 -9.45943 10.9495
  1145 197.817 -9.49937 -11.1077
  1146 775.396 164.941 -46.7758
  1147 421.576 -42.2526 -0.155205
  1148 146.337 87.9162 138.318
  1149 12.9920 0.419037 -13.2765
  1150 13.9602 0.587082 14.4078
  1151 448.365 56.1823 35.7951
  1152 35.3208 18.4273 -9.73083
  1153 35.5956 18.4350 9.81207
  1154 424.287 -37.0932 -8.31779
  1155 -0.186371 -40.8888 -7.96354
  1156 -0.205531 -40.8917 7.99985
  1157 453.086 -38.2837 -21.4833
  1158 -1.29990 0.528773 3.73690
  1159 -1.53869 0.532276 -3.74410
  1160 71.8728 26.3437 -30.1660
  1161 72.2584 26.4594 29.9152
  1162 -18.9027 0.0418366 -4.57697
  1163 -18.6587 0.0401953 4.58215
  1164 450.857 -5.73448 -0.301606
  1165 -43.6329 1.33275 0.375084
  1166 -43.5075 1.33219 -0.344700
  1167 242.464 -19.1833 -26.7716
  1168 6.57358 -54.6412 -7.41842
  1169 125.514 -3.62844 8.24672
  1170 125.461 -3.63987 -8.32769
  1171 384.967 -8.23283 0.726218
  1172 385.687 -8.04381 -0.652527
  1173 7.06197 -51.8577 8.82451
  1174 455.766 -24.1384 -21.8493
  1175 518.290 -2.59719 9.10295
  1176 463.328 -29.8095 -32.6502
  1177 408.923 3.21983 56.2663
  1178 2.39339 -15.3397 11.6514
  1179 2.59320 -15.2137 -11.4445
  1180 298.907 -22.0806 14.7724
  1181 -19.8134 1.95814 10.7021
  1182 -19.7765 1.97445 -10.6691
  1183 765.450 121.118 8.61963
  1184 883.727 287.615 -202.040
  1185 473.493 -45.7281 26.8927
  1186 200.297 -6.13963 -0.785056
  1187 200.315 -6.07085 0.785790
  1188 956.700 92.9269 -86.1942
  1189 74.7028 -1.91654 11.7098
  1190 74.5667 -1.88843 -11.7486
  1191 445.051 -1.44637 -22.1529
  1192 286.923 -23.3404 30.1913
  1193 468.325 -45.6371 -18.6830
  1194 453.510 -33.1146 -24.8501
  1195 279.163 -9.59504 74.4175
  1196 105.543 19.3183 -40.8255
  1197 105.494 19.1483 40.6096
  1198 137.668 51.3282 -88.7658
  1199 137.870 47.5519 88.7763
  1200 41.4125 11.3779 -14.9259
  1201 41.6490 11.3455 15.0109
  1202 560.802 97.6128 -40.0995
  1203 30.3070 27.9792 -14.1059
  1204 30.9887 28.0272 14.3129
  1205 404.183 -31.3306 3.41205
  1206 745.662 116.512 56.5304
  1207 101.786 -4.17370 -8.13154
  1208 101.867 -4.17259 8.06017
  1209 480.547 354.411 -294.538
  1210 383.885 22.9323 -45.0325
  1211 354.297 27.0030 18.4439
  1212 50.5705 20.6341 -17.6159
  1213 50.8058 20.6368 17.7074
  1214 16.7264 -0.109855 2.72489
  1215 16.5593 -0.109696 -2.74635
  1216 447.065 -36.0363 20.0048
  1217 439.160 -18.1964 10.2515
  1218 301.488 89.3268 -213.460
  1219 691.420 151.421 -10.9798
  1220 299.949 -8.75010 -81.7189
  1221 386.668 -12.7074 -0.442956
  1222 27.4939 -1.88820 -0.603510
  1223 27.5514 -1.88667 0.600140
  1224 -7.16034 3.04424 -6.63454
  1225 -6.96778 3.03202 6.68147
  1226 261.390 3.17264 -85.8122
  1227 475.527 -11.0236 12.1240
  1228 311.787 6.61376 116.249
  1229 420.397 -21.3813 -7.16571
  1230 218.724 79.9011 -168.993
  1231 338.603 -15.8872 -88.0547
  1232 402.365 -42.9519 9.66245
  1233 490.508 -8.07020 20.2518
  1234 430.415 -9.84295 -2.29515
  1235 241.481 -18.0339 26.9142
  1236 539.458 -29.1055 -35.2637
  1237 514.772 45.4470 68.6937
  1238 226.394 1.12997 -68.2937
  1239 507.002 -3.73080 1.36708
  1240 416.636 51.6001 -10.1778
  1241 183.033 -6.60774 -8.06972
  1242 183.007 -6.54342 7.99014
  1243 776.109 185.378 51.0380
  1244 1050.31 27.8915 48.4970
  1245 0.997654 -49.7944 -7.87924
  1246 0.966534 -49.8467 7.94110
  1247 117.869 63.3190 97.6189
  1248 279.589 -8.80770 -1.97040
  1249 279.649 -8.75958 2.07169
  1250 380.028 -38.3528 -12.5863
  1251 455.545 37.7111 61.8368
  1252 471.452 -9.95581 -7.49844
  1253 543.878 -1.67372 -0.531077
  1254 940.613 210.461 -133.766
  1255 153.230 -5.87269 8.46959
  1256 153.206 -5.88414 -8.56769
  1257 453.562 -42.0772 20.3284
  1258 788.937 199.271 -66.5691
  1259 439.526 -19.7694 -11.6550
  1260 323.415 -22.9127 -10.7852
  1261 395.431 -42.8610 21.9404
  1262 386.612 -19.9786 0.948273
  1263 15.0003 7.29167 -20.1992
  1264 526.608 -31.0371 42.9807
  1265 427.643 -28.4001 -11.3123
  1266 16.4828 8.03192 22.1346
  1267 439.148 -33.8888 -82.9893
  1268 414.560 28.3301 -174.708
  1269 679.642 90.3822 -7.78912
  1270 545.868 -0.641368 -0.149934
  1271 544.957 -1.14122 0.462803
  1272 434.813 -25.8395 12.5915
  1273 170.329 20.2956 -67.3915
  1274 494.823 -43.4440 34.3778
  1275 835.547 192.308 90.8027
  1276 210.162 74.0622 164.778
  1277 6.39483 1.75401 11.6642
  1278 6.61566 1.86447 -11.5120
  1279 518.372 -40.3514 -46.4445
  1280 213.334 -11.8866 -13.0542
  1281 213.305 -11.9180 12.8434
  1282 484.797 -31.5860 54.7045
  1283 21.7490 0.0737999 12.2218
  1284 21.5503 0.0832906 -12.2150
  1285 -2.53150 -9.95579 13.9269
  1286 -2.51359 -9.93443 -13.9302
  1287 91.5483 -3.12531 -10.6753
  1288 91.6539 -3.14330 10.6144
  1289 257.649 -17.2863 -40.3084
  1290 260.016 -9.11506 2.78309
  1291 260.005 -9.29783 -2.68755
  1292 544.238 -0.624518 0.199698
  1293 487.824 -7.76260 -22.8563
  1294 43.4101 1.70680 -15.5119
  1295 43.6023 1.67931 15.5211
  1296 258.671 -18.2694 40.0201
  1297 549.066 -0.734386 0.254630
  1298 519.879 -0.966089 -0.595275
  1299 519.837 -1.28126 0.467925
  1300 690.233 148.154 1.83834
  1301 507.658 -3.99797 -3.23440
  1302 452.183 -5.46050 0.143354
  1303 500.746 -8.02189 -11.6132
  1304 541.790 -1.97383 1.51809
  1305 570.146 60.1314 58.3689
  1306 659.455 138.517 11.3635
  1307 528.271 -2.29322 -5.96503
  1308 -4.43727 -1.10413 3.96759
  1309 -4.45527 -1.10340 -3.98000
  1310 297.823 -19.2222 10.4580
  1311 297.769 -18.4028 -10.1882
  1312 575.294 66.5635 -55.2311
  1313 122.422 42.3967 -73.7597
  1314 123.208 41.2612 72.9969
  1315 393.538 0.100634 -28.1487
  1316 399.500 -7.31843 -0.646225
  1317 399.013 -7.26704 0.562273
  1318 -9.41690 -1.44309 14.1410
  1319 -9.39983 -1.41679 -14.1363
  1320 446.340 -1.17224 22.1085
  1321 674.167 133.948 -4.20746
  1322 53.8301 -1.86025 -6.72122
  1323 53.9631 -1.86453 6.67335
  1324 497.762 -47.1641 17.1507
  1325 1.74452 8.73009 11.2562
  1326 1.89137 8.78257 -11.1610
  1327 98.1342 -2.23006 -2.30256
  1328 98.1821 -2.19781 2.27042
  1329 393.621 -0.489214 28.5845
  1330 22.9617 0.808340 -1.05039
  1331 23.0521 0.811441 1.03413
  1332 504.458 -6.32471 7.30813
  1333 705.286 127.770 7.84285
</Section>

newXOutput 65

<Section columns = "stress_xx | stress_yy | stress_xy">
  1 565.481 -1.65837 1.03249
  2 566.325 -2.07067 -1.34023
  3 18.1400 0.518764 -1.43920
  4 -0.429902 -0.638745 -0.433717
  5 1022.56 425.842 339.372
  6 1038.30 486.173 -342.687
  7 -0.425337 -0.634729 0.427815
  8 18.0815 0.515825 1.43589
  9 569.214 -1.18563 -0.935884
  10 565.228 -2.08519 -1.37700
  11 565.778 -1.65591 1.15819
  12 563.273 -0.983478 0.419748
  13 562.382 -1.96264 -0.474769
  14 561.849 -1.90154 2.04180
  15 554.317 -1.39812 1.87726
  16 556.770 -4.06336 3.00688
  17 540.379 -3.41248 6.62777
  18 530.172 -1.60478 7.99558
  19 515.941 -1.90657 8.67204
  20 490.948 -1.69611 12.2634
  21 463.517 -1.40894 14.3183
  22 429.036 1.84699 19.7633
  23 381.574 2.87375 17.9569
  24 362.383 -0.0573659 25.7852
  25 302.779 4.29330 18.3865
  26 266.306 5.58907 14.4544
  27 256.798 2.87171 10.6760
  28 246.606 8.20270 0.807276
  29 252.202 8.79137 -14.2912
  30 263.361 2.58993 -17.9235
  31 308.173 1.23276 -23.8697
  32 353.133 -2.18094 -24.6626
  33 383.267 2.38680 -17.9176
  34 429.532 2.09526 -19.7594
  35 462.364 -1.66313 -15.3584
  36 493.663 -1.87756 -11.5543
  37 513.999 -1.42019 -8.81390
  38 528.619 -1.71288 -7.30160
  39 544.376 -1.99853 -4.18291
  40 550.292 -2.10634 -3.96771
  41 556.113 -1.98138 -3.52143
  42 561.979 -2.23894 -0.577917
  43 564.147 -2.80944 -1.39895
  44 560.748 -0.0134756 0.0329280
  45 565.116 -1.53215 -1.32336
  46 567.291 -3.00510 1.50156
  47 569.875 -1.75468 -0.0561266
  48 542.195 0.0212652 -0.854627
  49 511.087 -2.67430 -1.58786
  50 475.722 -5.65749 -2.22206
  51 438.993 -4.96328 -1.60295
  52 406.844 -7.58459 -1.46902
  53 372.824 -8.17254 -1.32483
  54 338.436 -7.21536 -0.599392
  55 302.194 -7.63097 -0.854203
  56 271.502 -7.97138 -1.14817
  57 230.607 -7.54856 -0.910412
  58 188.488 -4.81943 -0.582840
  59 153.637 -3.11327 -0.450115
  60 110.597 -1.95972 -0.132352
  61 79.3566 -1.82210 -2.11041
  62 50.3715 -2.41558 -0.667004
  63 21.1207 0.270677 1.36916
  64 13.4069 2.03091 0.585125
  65 11.0976 0.820608 1.47701
  66 11.8904 0.368907 1.49722
  67 5.46908 1.16524 0.777545
  68 2.79774 1.53419 3.07433
  69 1.28047 0.544137 1.27311
  70 -9.52722 1.15196 1.37705
  71 -14.8279 0.782888 2.99575
  72 -17.3943 0.246627 3.17075
  73 -29.4589 1.06978 2.58100
  74 -34.2764 1.61422 4.63270
  75 -39.8363 0.979887 1.92661
  76 -45.9424 0.718423 2.65214
  77 -48.8870 0.761122 1.26107
  78 -54.9840 1.88515 -0.939896
  79 -56.1737 1.29103 -0.678476
  80 -51.6376 0.962389 -1.57170
  81 -44.6586 1.28660 -3.26078
  82 -36.5742 0.592223 -5.15421
  83 -27.4530 0.334609 -5.44465
  84 -16.5506 -0.525944 -5.74672
  85 -7.28242 -0.428625 -3.39447
  86 -3.08180 -1.18980 -2.13512
  87 -0.498228 -3.08055 -1.86265
  88 -0.822931 -7.87172 -3.26980
  89 -0.944358 -15.2157 -5.68365
  90 -0.158429 -28.3847 -6.08063
  91 0.369366 -39.0222 -7.57630
  92 0.827819 -55.9592 -6.15267
  93 2.48019 -66.0877 -7.19466
  94 0.482799 -70.4476 -5.75581
  95 -0.0499824 -79.9739 -3.10201
  96 2.27589 -75.8994 0.00908849
  97 9.31463 -97.6891 5.47110
  98 8.65287 -47.1775 16.3792
  99 20.2128 -11.6436 34.7507
  100 59.5257 114.947 103.246
  101 246.146 342.433 282.686
  102 1339.20 145.585 197.723
  103 1127.02 40.0206 71.0234
  104 1074.37 17.0708 24.3921
  105 1045.43 11.1141 -0.136810
  106 1063.99 16.2598 -20.0940
  107 1137.12 34.1538 -58.6897
  108 1325.25 115.091 -183.677
  109 160.144 387.652 -233.925
  110 41.8953 88.8724 -80.4326
  111 14.9333 -21.4797 -29.1900
  112 7.84776 -52.9396 -14.2818
  113 9.25775 -101.802 -4.45881
  114 2.17127 -77.7146 0.702004
  115 -0.184840 -80.8784 3.47168
  116 0.397182 -70.7934 5.95348
  117 2.43325 -66.1639 7.27781
  118 0.809820 -55.9222 6.18307
  119 0.355794 -38.9630 7.58677
  120 -0.165057 -28.3116 6.07642
  121 -0.945120 -15.1694 5.67105
  122 -0.824705 -7.83222 3.25815
  123 -0.497844 -3.06574 1.85241
  124 -3.06403 -1.18806 2.12653
  125 -7.25078 -0.430589 3.38514
  126 -16.5095 -0.530621 5.74095
  127 -27.4053 0.329396 5.44566
  128 -36.5468 0.586515 5.16395
  129 -44.6682 1.28250 3.28018
  130 -51.6855 0.962028 1.59269
  131 -56.2711 1.28978 0.699038
  132 -55.1228 1.88482 0.961359
  133 -49.0731 0.763058 -1.24222
  134 -46.1642 0.720808 -2.63802
  135 -40.0760 0.982633 -1.91529
  136 -34.5369 1.61751 -4.62775
  137 -29.7273 1.07288 -2.57684
  138 -17.6602 0.248517 -3.17096
  139 -15.0956 0.786174 -2.99951
  140 -9.78360 1.15656 -1.38280
  141 1.05298 0.547175 -1.28428
  142 2.59917 1.53738 -3.09131
  143 5.29648 1.16616 -0.792531
  144 11.7580 0.368319 -1.51189
  145 10.9948 0.819170 -1.48882
  146 13.3239 2.02844 -0.595350
  147 21.0553 0.268974 -1.37519
  148 50.3121 -2.42449 0.660918
  149 79.3024 -1.84426 2.10380
  150 110.555 -1.99892 0.123501
  151 153.612 -3.16992 0.445580
  152 188.467 -4.88502 0.582235
  153 230.575 -7.60508 0.919504
  154 271.433 -7.99887 1.16695
  155 302.084 -7.59395 0.898338
  156 338.285 -7.08346 0.649793
  157 372.618 -7.86339 1.24945
  158 407.023 -7.67506 1.28481
  159 439.129 -5.51443 1.69439
  160 476.088 -5.55697 2.01458
  161 512.078 -2.38189 1.61010
  162 541.359 -0.0123799 0.832644
  163 320.400 -29.0108 -28.8368
  164 319.145 -29.5412 28.7671
  165 98.2982 26.8511 -40.8868
  166 99.2594 26.9453 40.7216
  167 376.322 -17.1042 100.063
  168 394.163 -19.4042 -97.4306
  169 188.627 -10.0794 13.5000
  170 188.599 -9.98221 -13.6722
  171 401.607 -14.8293 0.766816
  172 393.770 -14.8708 -0.616201
  173 538.105 96.5510 -12.6477
  174 542.539 5.01705 -64.4951
  175 532.173 9.04191 69.8613
  176 132.014 -5.10144 -27.6685
  177 132.032 -5.06645 27.6206
  178 468.996 -46.2727 21.2367
  179 468.624 -36.0848 -31.4246
  180 7.39478 11.5849 10.2015
  181 7.59012 11.6585 -10.0848
  182 640.696 130.902 16.5266
  183 125.966 56.8893 -90.1887
  184 134.979 57.3981 96.5043
  185 453.295 -21.6970 14.1190
  186 678.986 143.779 -4.60296
  187 296.700 -11.4228 -4.41301
  188 296.237 -11.7000 4.38446
  189 465.538 -15.2838 -13.0137
  190 617.320 -1.02952 -13.5546
  191 120.932 -3.65725 5.25604
  192 120.885 -3.68678 -5.32132
  193 52.5705 6.25383 -19.0427
  194 52.8027 6.18980 19.0876
  195 264.713 -10.0354 -63.5739
  196 263.685 -10.5719 64.3758
  197 315.460 -20.9297 -11.0636
  198 316.082 -20.8131 11.6738
  199 86.7499 -3.02533 14.8821
  200 86.6215 -2.98577 -14.9103
  201 610.380 -7.66321 44.7823
  202 501.612 -48.6772 -6.44141
  203 474.984 -5.61262 -1.71074
  204 464.737 -6.71210 1.70088
  205 477.761 56.2433 49.9243
  206 21.2914 19.2416 -8.64923
  207 22.0354 19.2131 8.98107
  208 473.808 -18.8423 57.9997
  209 439.634 33.8196 -57.5952
  210 309.971 73.1281 -202.397
  211 325.953 61.8406 188.173
  212 10.1874 10.6444 -2.56419
  213 10.3754 10.6434 2.65520
  214 472.469 -16.5556 -60.0204
  215 813.467 113.383 -8.07482
  216 392.543 -42.5169 37.6475
  217 395.414 -42.2938 -35.7497
  218 392.298 -28.4817 0.0190687
  219 483.076 -8.33986 6.75212
  220 238.600 -16.5619 -24.5656
  221 234.969 -16.4996 25.2615
  222 144.782 2.77767 -41.2461
  223 144.993 2.72453 40.9207
  224 496.927 -51.6589 -9.34057
  225 389.112 -30.2358 -1.71466
  226 481.301 -8.18242 -5.12206
  227 377.370 -10.6138 -0.618534
  228 380.553 -9.96743 1.31438
  229 477.033 -21.5158 32.6549
  230 45.5012 0.297068 -15.9004
  231 45.6853 0.277856 15.9017
  232 -5.76318 -3.77885 -15.9536
  233 -5.79401 -3.81766 15.9660
  234 79.3962 -3.31525 -8.69888
  235 79.5079 -3.32323 8.63708
  236 206.519 -6.51808 6.05336
  237 206.558 -6.62357 -6.09492
  238 234.875 16.5830 -91.9626
  239 234.905 13.8850 90.9463
  240 483.477 -15.3905 -27.9459
  241 230.864 -13.5876 -39.1536
  242 231.068 -13.9963 38.6422
  243 431.037 6.95988 65.3376
  244 380.668 32.5840 3.97022
  245 416.130 -41.5851 1.34144
  246 2.19944 -9.16762 -13.9379
  247 2.05937 -9.27989 14.0592
  248 27.9265 30.8613 -32.7744
  249 29.6664 29.9082 34.3064
  250 409.304 -40.6993 -4.03290
  251 730.982 141.799 -16.9181
  252 40.3263 26.8727 -14.9103
  253 40.7948 26.8661 15.0676
  254 -14.8111 3.58963 10.4220
  255 -14.7304 3.60836 -10.3658
  256 734.091 133.499 21.2653
  257 262.652 -13.0993 -10.2239
  258 262.461 -12.9023 10.0510
  259 507.023 -33.6016 52.4968
  260 905.504 147.667 92.8498
  261 156.433 -8.33561 -22.8708
  262 156.413 -8.39419 22.8538
  263 520.179 78.0574 -47.1531
  264 875.173 166.928 -85.5203
  265 615.955 64.0229 42.4777
  266 663.372 48.3920 -129.577
  267 415.771 -20.3588 4.35751
  268 475.059 2.85626 -72.6860
  269 447.684 -31.9483 -17.0475
  270 497.346 -9.32690 17.5411
  271 2.80181 4.80162 -6.45329
  272 2.99120 4.78703 6.51896
  273 491.925 -13.8299 -124.433
  274 56.0875 16.5399 -19.4490
  275 56.3491 16.5125 19.5494
  276 479.204 -11.6568 -36.4922
  277 70.5934 76.4788 -93.8929
  278 64.8511 -0.328730 -2.03631
  279 64.9186 -0.316376 2.00926
  280 505.377 -30.7100 -54.9513
  281 91.5820 41.1410 -51.1790
  282 92.8852 40.9319 51.3239
  283 31.0050 -0.851873 11.0462
  284 30.8101 -0.841944 -11.0515
  285 415.123 -19.4016 -4.27481
  286 71.0943 75.6944 96.3027
  287 652.210 57.4296 150.955
  288 185.773 -7.59200 -8.33819
  289 185.749 -7.54750 8.23533
  290 333.714 -14.5839 -4.41265
  291 333.557 -15.7064 4.81080
  292 284.856 28.5479 -138.129
  293 456.276 -49.6932 -4.00007
  294 515.500 -3.74992 2.90835
  295 274.523 28.6220 133.802
  296 319.876 -9.53699 -1.54082
  297 319.758 -9.53216 1.80679
  298 448.435 -33.1913 17.3542
  299 512.118 -5.93514 -7.96791
  300 0.165347 1.88601 -8.88086
  301 0.375720 1.87184 8.91312
  302 647.810 128.168 -4.04292
  303 564.783 -24.6985 25.4365
  304 507.660 -3.34924 -0.667221
  305 516.205 -2.93242 0.605026
  306 509.013 -43.2651 47.2704
  307 627.480 68.3353 -38.8110
  308 553.460 102.721 26.4648
  309 251.076 -15.7351 -15.9133
  310 248.870 -16.0126 16.1925
  311 514.792 -3.68565 -1.79979
  312 342.419 -25.4666 -69.4880
  313 337.399 -27.0133 13.9059
  314 321.581 -17.1070 78.8124
  315 508.097 -6.62314 9.62061
  316 121.421 -5.56588 -14.3750
  317 121.509 -5.60569 14.3194
  318 469.342 -13.4526 122.944
  319 301.732 -24.1776 -19.8067
  320 551.158 71.6193 58.5983
  321 178.494 12.4687 -60.5108
  322 171.995 13.0467 60.0510
  323 58.1976 -1.12564 -3.68964
  324 58.2957 -1.11853 3.64669
  325 449.905 -10.0240 3.46352
  326 431.704 -7.19967 0.197298
  327 429.351 -7.78776 -0.337467
  328 475.931 -12.2659 38.7253
  329 47.1535 -1.59992 8.34044
  330 46.9849 -1.58551 -8.37349
  331 144.454 -3.57546 -3.06862
  332 144.476 -3.52172 3.04008
  333 4.88515 -19.7771 -7.03648
  334 4.58264 -19.9526 7.39683
  335 376.483 16.4695 44.5566
  336 570.106 -22.7170 -19.6594
  337 371.783 -20.4930 -0.745927
  338 418.419 -9.46431 -1.31565
  339 443.788 55.0156 -26.9646
  340 90.6005 -2.95382 -20.6183
  341 90.7227 -2.95658 20.6055
  342 361.774 -19.3810 2.58011
  343 105.972 3.29748 -29.5028
  344 106.176 3.20929 29.4231
  345 21.7102 17.2518 -1.94781
  346 21.9583 17.2515 2.05499
  347 437.957 -46.2795 47.7506
  348 955.334 62.8438 24.5915
  349 395.652 6.31379 -52.6744
  350 327.943 -29.3354 43.6688
  351 326.282 -28.7242 -44.9150
  352 482.284 -7.61058 71.7720
  353 431.368 -2.90007 51.7817
  354 432.404 -44.7396 -49.1890
  355 261.310 -7.34103 0.890821
  356 261.268 -7.41622 -0.827652
  357 478.327 -31.1437 42.8661
  358 655.109 129.749 1.40064
  359 511.004 -6.23578 -12.9558
  360 137.529 -5.33471 -10.5489
  361 137.594 -5.33995 10.4556
  362 482.280 -44.4416 -58.7854
  363 509.853 36.3559 -71.2040
  364 348.513 18.7324 -28.6706
  365 481.851 -31.9336 -49.3552
  366 -15.4056 0.681352 -12.2775
  367 -15.4220 0.661580 12.2932
  368 404.627 -10.6391 0.275049
  369 -5.74485 -3.40119 -7.51110
  370 -5.73730 -3.40206 7.49481
  371 311.242 163.188 -245.175
  372 13.5650 12.3269 6.18707
  373 13.8804 12.4208 -6.01751
  374 428.261 -3.05903 -51.3651
  375 238.126 -10.6162 7.73256
  376 238.283 -10.7485 -7.80497
  377 -1.45068 -16.6842 14.0113
  378 -1.42460 -16.6540 -13.9976
  379 254.095 170.766 231.212
  380 195.647 -10.5708 -30.8811
  381 195.809 -10.1361 30.9047
  382 63.1925 47.2407 -47.7051
  383 64.4882 47.1304 47.4514
  384 -22.4863 3.77010 3.69226
  385 -22.3751 3.77654 -3.63128
  386 492.635 33.4603 71.6592
  387 377.261 -39.5012 22.2535
  388 377.667 -34.7123 10.3294
  389 455.706 -51.3216 -9.74875
  390 117.639 14.3618 -40.5307
  391 118.031 14.3402 40.4776
  392 10.7188 -11.9189 2.96847
  393 10.1627 -12.1620 -2.17536
  394 466.761 66.4409 17.6053
  395 463.698 -14.0574 10.4736
  396 269.230 -21.0964 28.7762
  397 168.546 -4.44496 -36.6625
  398 168.621 -4.47677 36.4117
  399 341.032 -11.2561 -2.22633
  400 340.678 -10.0117 1.93782
  401 267.010 -21.6421 -30.4058
  402 209.746 -3.68222 -49.0350
  403 209.726 -3.96655 49.4139
  404 484.242 -44.0355 -28.4700
  405 284.582 -22.2425 18.7215
  406 440.193 -14.3156 5.63953
  407 439.296 -13.1568 -4.53542
  408 370.859 -34.4722 -11.6310
  409 525.475 -2.89136 -3.11080
  410 180.537 74.7606 -140.776
  411 497.757 -7.53602 21.9478
  412 524.293 -3.30026 4.85412
  413 193.014 -10.5461 18.9920
  414 193.083 -10.4071 -18.9783
  415 375.587 -39.0338 -22.8954
  416 56.0743 24.3442 20.9987
  417 55.7784 24.3242 -21.0108
  418 964.770 62.7967 -50.0988
  419 432.159 -25.3117 -8.92712
  420 528.421 -2.45288 1.78977
  421 170.735 70.0185 134.332
  422 783.281 131.484 26.9368
  423 461.579 -7.98545 -2.70032
  424 348.599 -25.8149 -9.28293
  425 147.743 28.4906 -68.1812
  426 157.281 26.3795 67.7722
  427 427.195 -27.6503 8.89866
  428 455.165 -5.81391 -37.8572
  429 1.53407 -0.462518 8.32350
  430 1.31069 -0.457807 -8.31645
  431 166.364 40.3917 -90.6284
  432 166.896 40.5327 90.3576
  433 22.2583 9.15253 -9.63453
  434 22.4680 9.13370 9.71644
  435 383.664 -8.53668 0.317201
  436 383.204 -8.34439 -0.192205
  437 476.433 -21.9748 -34.1889
  438 -0.777961 -0.706759 16.7357
  439 -0.692174 -0.629250 -16.6720
  440 490.360 -47.8106 24.2603
  441 463.019 -13.2191 -9.13216
  442 747.077 142.780 -25.0757
  443 37.2928 -1.40693 4.00640
  444 37.1429 -1.40716 -4.04354
  445 892.388 257.051 118.850
  446 18.9637 13.8882 -29.6712
  447 60.1959 2.58170 -20.2439
  448 60.3913 2.53835 20.2459
  449 890.982 263.291 -115.664
  450 20.0983 15.9037 32.3999
  451 -21.0473 2.84282 0.318457
  452 -20.9029 2.83866 -0.260257
  453 52.3628 35.9048 -28.8817
  454 53.2412 35.9290 29.0309
  455 587.205 93.1826 -46.8763
  456 470.520 -18.9222 -21.4485
  457 525.749 -2.52859 -1.53144
  458 491.937 -7.74600 -25.8990
  459 -4.97719 4.02788 15.2269
  460 -4.88968 4.07817 -15.1663
  461 475.489 -19.6202 25.2949
  462 312.113 -18.2049 -8.88352
  463 311.185 -18.3791 7.86996
  464 420.530 -46.2459 -10.4071
  465 301.743 -3.54966 -96.0383
  466 459.377 -6.96845 38.6231
  467 375.038 -13.1342 1.26240
  468 546.935 -39.0944 -11.3549
  469 292.439 3.37219 102.809
  470 28.4119 -0.484184 8.03528
  471 28.2124 -0.475438 -8.04983
  472 604.174 119.307 -20.0806
  473 479.134 -4.51693 0.00184548
  474 477.540 -4.99459 -0.423922
  475 365.663 -25.0263 5.05412
  476 164.858 -5.76056 -6.00301
  477 164.859 -5.69815 5.93926
  478 98.3976 -1.35577 -24.3998
  479 98.5177 -1.37493 24.3594
  480 315.929 12.2171 17.1982
  481 83.3223 -2.73989 11.9134
  482 83.1987 -2.71467 -11.9658
  483 86.1645 7.84381 27.5618
  484 85.8816 7.95989 -27.5350
  485 467.794 -36.2812 30.1135
  486 264.975 -16.5392 -46.2711
  487 245.900 -8.53581 4.21195
  488 245.981 -8.72569 -4.21650
  489 267.726 -17.0489 46.2700
  490 727.415 174.670 -20.9371
  491 -11.6165 -1.69534 -9.64656
  492 -11.6092 -1.70461 9.64039
  493 189.140 -5.64087 -2.53188
  494 189.148 -5.56375 2.52313
  495 0.330134 -30.5450 -11.3687
  496 0.253556 -30.6460 11.4731
  497 426.361 -7.48239 0.555637
  498 314.186 14.7582 -8.54519
  499 415.715 43.4293 24.3567
  500 262.956 -2.26486 -77.1341
  501 132.854 -6.83561 17.9862
  502 132.828 -6.77886 -18.0117
  503 -29.4754 1.00704 -3.16150
  504 -29.2756 1.00077 3.18887
  505 505.808 -8.56597 -70.5413
  506 48.5205 0.198078 -2.65899
  507 48.6072 0.204431 2.62805
  508 421.062 -33.5850 -6.37767
  509 448.234 -38.3678 -16.0451
  510 94.1116 73.6026 -96.8319
  511 376.880 12.2402 -149.357
  512 6.44569 11.8020 6.06469
  513 6.62916 11.8284 -5.96180
  514 234.653 -11.2739 -10.8475
  515 234.545 -11.1789 10.6465
  516 642.435 30.7598 -8.34598
  517 465.752 -27.8249 -27.4620
  518 91.8067 69.8446 95.5288
  519 461.346 -51.6322 16.9796
  520 444.204 -42.2767 11.5258
  521 101.206 -2.46137 -7.85590
  522 101.280 -2.45252 7.78668
  523 372.192 4.25584 40.8477
  524 267.329 -20.0168 -19.6345
  525 489.622 -11.5027 15.5193
  526 -1.94487 -11.9210 -9.40030
  527 -1.94967 -11.9106 9.38582
  528 346.389 -30.3667 51.7454
  529 522.880 -38.9149 -34.0080
  530 677.028 52.5241 -30.9358
  531 370.690 -13.5560 -1.19019
  532 116.770 -2.24118 -2.25788
  533 116.808 -2.20190 2.23887
  534 236.990 2.14323 74.4348
  535 650.663 111.815 28.1237
  536 652.902 140.649 -234.177
  537 592.447 5.79901 31.0048
  538 428.688 -47.4620 8.17283
  539 993.816 79.1504 67.3438
  540 743.551 183.744 28.7086
  541 111.129 -4.68396 19.5867
  542 111.039 -4.63855 -19.6138
  543 412.439 -34.5490 3.76935
  544 33.3523 15.0715 -9.31347
  545 33.5900 15.0650 9.40952
  546 516.559 -41.9899 34.1211
  547 428.669 23.5297 59.9633
  548 518.294 -3.66904 8.72893
  549 386.473 -23.8626 0.386348
  550 535.754 8.85463 -157.432
  551 842.411 228.773 158.018
  552 417.251 -9.26482 -0.337224
  553 510.048 -5.53673 -14.3662
  554 83.5386 34.5061 -38.8394
  555 84.1362 34.0960 38.6829
  556 296.011 -12.6044 -5.93229
  557 295.882 -12.3275 6.03058
  558 3.74857 -33.2582 -5.85154
  559 522.246 -17.5694 62.0166
  560 21.7077 19.1140 -0.0409300
  561 22.0297 19.1687 0.194433
  562 4.34819 -31.9759 6.97348
  563 476.371 -21.5866 -50.8541
  564 547.584 35.8883 -67.0675
  565 545.873 40.5533 67.1451
  566 27.5364 25.3024 22.4822
  567 26.2046 25.8282 -22.0465
  568 -10.6829 0.462482 6.36971
  569 -10.9106 0.467553 -6.35675
  570 499.848 16.6182 162.070
  571 278.828 -15.9436 11.1829
  572 279.098 -15.8886 -11.3554
  573 601.364 -6.69916 -85.6845
  574 85.7744 -1.20620 4.54870
  575 85.7084 -1.22373 -4.59523
  576 44.6744 -0.964894 -1.05439
  577 44.7398 -0.958600 1.04353
  578 663.312 123.566 -21.2456
  579 64.8225 103.715 -106.225
  580 356.936 7.38975 -34.6619
  581 497.296 79.1901 -29.7752
  582 7.99073 1.26751 9.25532
  583 8.29177 1.37924 -9.05359
  584 490.466 239.914 273.766
  585 423.668 -12.7439 -2.50675
  586 18.4624 4.29646 -11.0756
  587 18.6696 4.26557 11.1273
  588 489.680 -38.9771 42.3200
  589 76.4792 100.692 108.160
  590 354.664 -8.47894 0.714964
  591 354.763 -8.41631 -0.716293
  592 -0.255924 -24.5085 12.0200
  593 -0.217761 -24.4692 -11.9803
  594 604.061 116.984 -0.967410
  595 383.394 -30.1529 72.3789
  596 366.463 -16.5184 -2.07571
  597 367.583 18.8358 157.449
  598 -29.8361 1.63101 7.09026
  599 -29.8066 1.63987 -7.05979
  600 599.551 10.3580 -33.5501
  601 790.334 142.580 -114.742
  602 231.545 24.1809 -106.191
  603 128.523 -5.47878 -23.7742
  604 128.649 -5.48111 23.7814
  605 539.795 -2.07271 2.26202
  606 362.970 -16.8515 1.64863
  607 481.810 -7.38513 4.82598
  608 476.367 -21.6310 49.6147
  609 27.1429 -0.808559 4.06149
  610 26.9633 -0.805204 -4.08883
  611 284.949 -10.6253 -3.50472
  612 284.915 -10.3595 3.41786
  613 179.263 3.79193 -50.5257
  614 178.141 3.84462 50.3231
  615 680.646 45.7185 46.8806
  616 1098.48 82.8229 -119.676
  617 -3.37619 -0.711340 5.52224
  618 -3.61395 -0.709082 -5.51975
  619 171.203 -7.35495 10.9899
  620 171.182 -7.34532 -11.1191
  621 636.539 38.1366 17.0459
  622 533.072 -2.37392 -0.716679
  623 531.948 -3.19179 0.240527
  624 395.698 0.0611240 40.3933
  625 559.890 -30.5720 -53.9184
  626 308.240 -25.5420 23.3635
  627 -5.51994 7.13375 -5.79720
  628 -5.65734 7.12171 5.87756
  629 491.884 10.7497 74.7129
  630 198.217 -11.5633 -24.9778
  631 198.042 -11.7503 25.0242
  632 399.881 -23.7869 -1.86276
  633 491.683 -11.2779 -14.0027
  634 284.407 -22.7867 -34.1335
  635 466.121 56.2770 -45.4455
  636 313.615 -21.4663 -59.4009
  637 120.610 -3.24504 -4.14877
  638 120.647 -3.20909 4.10079
  639 287.284 -23.1745 34.3037
  640 611.076 100.113 41.0895
  641 487.283 -23.2600 62.5749
  642 398.892 -18.5669 1.99695
  643 287.937 -8.40763 2.06472
  644 287.865 -8.42318 -2.01122
  645 219.086 -8.56495 -7.92761
  646 219.014 -8.47887 7.85484
  647 468.291 -42.8314 -23.0942
  648 240.892 -13.9849 13.8100
  649 241.139 -13.9290 -14.0520
  650 474.438 72.8458 -6.05263
  651 432.857 -23.3603 9.14885
  652 537.274 -2.78501 -3.63037
  653 462.540 -8.11313 -66.1312
  654 71.4970 -3.08246 15.7524
  655 71.3517 -3.06112 -15.7621
  656 525.241 -3.20407 -7.92841
  657 96.6302 50.1897 -68.7483
  658 98.2626 50.0799 69.0800
  659 536.411 -30.2854 72.7096
  660 187.926 47.4805 111.851
  661 50.2911 -0.388546 15.7454
  662 50.1200 -0.377748 -15.7492
  663 458.142 -28.2239 92.6432
  664 449.711 68.6174 -213.219
  665 444.583 14.4348 -66.2687
  666 581.743 105.655 36.1083
  667 392.222 -18.2094 -0.260080
  668 702.830 125.547 -3.05495
  669 -31.5814 1.62066 -2.22506
  670 -31.4133 1.61667 2.26308
  671 313.885 2.17257 -112.045
  672 29.2871 -0.479971 3.08641
  673 29.1508 -0.481148 -3.11497
  674 392.536 -32.4492 -71.6093
  675 132.963 18.0162 -48.8758
  676 131.936 18.0882 48.8555
  677 5.00863 6.63922 -4.12981
  678 5.19228 6.63139 4.20996
  679 335.029 -29.2059 -18.1629
  680 472.793 -4.67410 -25.2818
  681 228.961 -7.51966 -2.80759
  682 228.977 -7.44338 2.82720
  683 167.322 -8.66927 -16.2120
  684 167.459 -8.78639 16.1603
  685 32.3330 26.5582 -11.0233
  686 32.8520 26.6202 11.2020
  687 480.760 -6.51843 2.13653
  688 218.661 -14.1044 21.0150
  689 220.014 -13.8674 -21.0011
  690 533.409 -41.5133 -2.03185
  691 441.210 -44.3712 -6.73401
  692 348.248 -10.7030 -1.10354
  693 347.053 -10.0487 1.26096
  694 484.897 -50.3843 29.9940
  695 783.892 158.785 44.6630
  696 426.463 -17.5691 -114.166
  697 488.028 -13.9250 25.6882
  698 486.526 -17.6418 -67.4085
  699 156.574 -5.01543 -7.75011
  700 156.586 -4.98097 7.66478
  701 379.877 -5.15928 127.687
  702 1042.09 134.541 123.119
  703 75.7552 21.6185 -28.9528
  704 75.8707 21.7650 29.0456
  705 478.990 -5.45616 -1.03664
  706 482.688 -4.94821 1.06798
  707 206.097 107.745 -179.847
  708 510.238 -3.02533 14.4471
  709 441.448 -8.46794 1.37426
  710 585.521 115.492 -13.0774
  711 62.7217 10.6967 -21.2209
  712 62.9899 10.6307 21.2983
  713 543.684 -1.65127 0.301107
  714 444.601 -17.8406 -9.23980
  715 553.844 -7.12924 53.2601
  716 230.626 -16.2831 -32.3301
  717 231.200 -15.6020 32.0507
  718 57.3526 -1.87189 11.9161
  719 57.1914 -1.84920 -11.9435
  720 500.026 -4.07673 -2.15462
  721 431.635 89.6341 225.829
  722 3.85760 4.26182 13.3927
  723 4.02054 4.36169 -13.2808
  724 501.900 -6.01221 -6.16649
  725 488.094 -9.60845 8.87723
  726 393.920 0.512781 -43.3235
  727 3.89579 -42.8134 -4.91202
  728 3.65371 -43.2536 5.35594
  729 180.858 49.0040 -111.897
  730 391.967 -38.9372 -52.4445
  731 204.849 106.704 181.452
  732 537.177 -1.71459 1.27864
  733 526.168 78.9664 47.2878
  734 388.754 35.1415 -16.9949
  735 684.461 137.861 3.69334
  736 531.700 -2.56334 4.99935
  737 -28.6197 0.772606 4.54854
  738 -28.8413 0.776818 -4.53061
  739 567.239 -30.4993 19.3539
  740 369.959 -11.5262 -1.41109
  741 137.792 0.0198802 -35.2137
  742 137.979 -0.113958 35.0312
  743 487.474 -6.42492 -3.28085
  744 857.720 121.252 -45.1715
  745 64.2906 -1.80811 -7.63693
  746 64.4287 -1.81839 7.58899
  747 540.949 -1.79998 -2.23350
  748 114.304 -5.06392 -10.6221
  749 114.388 -5.08166 10.5506
  750 533.553 -20.3283 -55.3680
  751 493.438 -5.30598 20.1878
  752 446.045 -2.57147 65.5897
  753 541.269 -1.86646 0.144217
  754 507.406 -4.47406 4.62544
  755 335.962 -18.6746 -5.40422
  756 418.356 -11.8645 1.63174
  757 476.052 -29.3312 -41.7193
  758 464.050 -29.4358 26.3338
  759 545.379 66.6762 -59.3981
  760 457.531 -26.0957 19.0538
  761 484.090 -28.4544 53.8681
  762 283.430 -19.5554 14.6967
  763 10.6941 -0.669969 0.819464
  764 10.1538 -0.708566 -0.306768
  765 423.006 -7.32161 -0.184363
  766 422.127 -7.27771 0.0303563
  767 504.163 -2.94094 -0.192010
  768 505.846 -2.84754 0.306230
  769 484.075 -13.7843 31.8171
  770 446.515 -40.1480 67.9548
  771 368.524 -30.2727 8.04670
  772 328.210 -20.1354 7.88059
  773 874.271 111.767 51.9497
  774 488.321 -12.8276 -19.9685
  775 288.205 51.8236 -168.356
  776 454.505 -22.9759 -16.3331
  777 22.0730 0.301741 -11.5547
  778 22.2785 0.285159 11.5723
  779 412.445 36.1876 -38.0657
  780 1012.81 30.7135 -13.0789
  781 513.086 13.9468 -72.6654
  782 21.1705 20.0287 -43.0674
  783 530.399 94.9581 12.0202
  784 411.642 -26.7225 4.10122
  785 464.058 -11.3211 64.0973
  786 390.028 -40.6004 52.7274
  787 617.016 0.467227 104.343
  788 22.7972 24.7689 45.8448
  789 283.575 -1.36081 87.9539
  790 393.433 -11.0468 -0.00297855
  791 438.053 -38.4598 -68.7515
  792 271.984 -21.3987 -24.3936
  793 215.253 10.4077 -77.2804
  794 508.210 -7.25800 71.1711
  795 327.793 -22.7954 12.0027
  796 68.9985 -1.86910 6.71245
  797 68.8905 -1.87108 -6.76765
  798 474.227 -2.67149 22.3671
  799 432.864 2.47765 -63.9166
  800 -36.6889 1.73771 4.25363
  801 -36.6331 1.74118 -4.21997
  802 319.102 -10.7615 -2.13584
  803 318.208 -10.2264 2.03060
  804 237.399 27.0246 107.659
  805 213.779 -12.7282 16.0249
  806 214.057 -12.4297 -16.1735
  807 540.474 -1.38584 -1.13539
  808 194.149 15.4670 75.4169
  809 12.3915 -0.183834 4.27830
  810 12.1744 -0.179897 -4.29398
  811 468.671 -14.3959 49.3678
  812 495.802 -4.91520 1.64102
  813 -26.5067 0.377066 7.21099
  814 -26.5131 0.385916 -7.19634
  815 309.510 -19.2202 66.4031
  816 61.3256 52.6480 -58.8296
  817 62.0574 50.3593 57.9887
  818 300.413 13.1497 7.13985
  819 0.368665 -0.353449 -4.89004
  820 0.608890 -0.356521 4.88681
  821 354.986 -33.5077 -49.4782
  822 481.834 -50.1156 -12.3020
  823 -2.42916 -2.30359 -3.07489
  824 -2.42176 -2.29795 3.06325
  825 33.4714 0.786270 -1.04398
  826 33.5492 0.790726 1.02757
  827 429.404 -38.4158 7.62796
  828 362.722 -37.0320 35.3687
  829 400.124 -7.74199 0.401025
  830 361.855 -29.5602 -9.36071
  831 137.987 -2.46278 -0.873755
  832 138.016 -2.41122 0.861917
  833 -41.1561 0.888148 2.29314
  834 -41.0640 0.887076 -2.25982
  835 450.153 -6.76720 -1.33241
  836 405.420 16.2093 -54.5556
  837 455.468 -9.89924 -4.63907
  838 272.566 -21.0587 23.3203
  839 454.427 -7.82507 -52.4959
  840 483.531 -14.9561 -32.8602
  841 451.905 -5.94815 1.17458
  842 332.671 -12.1588 90.1308
  843 355.420 -34.8542 -21.0748
  844 216.212 -1.63075 -59.7247
  845 217.381 -0.130441 60.0350
  846 304.163 -23.1527 -15.9256
  847 503.063 55.0020 62.2372
  848 474.210 -48.5406 -39.3244
  849 176.264 -5.79568 -3.97441
  850 176.260 -5.71657 3.93974
  851 364.102 -9.22791 0.820592
  852 364.122 -9.29569 -0.740861
  853 435.606 -3.19156 -34.4290
  854 150.887 -6.47108 -13.1148
  855 150.977 -6.51848 13.0172
  856 1.85180 -44.0277 -8.42235
  857 1.75737 -44.2195 8.60701
  858 80.5766 -1.18011 -0.171198
  859 80.5224 -1.20207 0.156997
  860 447.018 -7.94058 -1.84750
  861 342.346 -32.6625 32.1199
  862 527.196 -44.1600 12.5780
  863 318.746 6.66087 27.3317
  864 457.137 -11.5960 5.38008
  865 500.033 -44.2642 -31.7527
  866 75.8780 4.49580 -23.9252
  867 76.1003 4.41989 23.9190
  868 398.132 -8.23116 -0.356726
  869 322.848 -11.9943 -3.83550
  870 321.762 -11.8992 4.12384
  871 498.536 77.4876 33.5700
  872 175.571 -1.90954 -42.2222
  873 175.423 -2.10984 42.0563
  874 345.530 -31.4741 17.1883
  875 35.1802 22.2688 -9.63568
  876 35.5138 22.2297 9.73401
  877 293.111 -20.7818 54.5134
  878 350.282 -22.8893 -5.88116
  879 437.995 -3.30856 34.7856
  880 428.325 -47.9281 19.4661
  881 490.367 -36.9576 -45.9481
  882 341.508 -32.9274 -32.5272
  883 285.422 -19.4819 -14.1374
  884 911.290 74.5841 -14.2060
  885 448.395 -47.3590 3.79123
  886 14.2671 15.3509 3.78374
  887 14.5046 15.3827 -3.65803
  888 390.758 -39.2711 10.7568
  889 427.632 -47.7139 -31.6037
  890 15.5560 13.1946 -1.06595
  891 15.7657 13.2002 1.16303
  892 164.930 -6.01493 32.3244
  893 165.013 -6.18667 -32.4979
  894 198.654 -10.1767 35.4024
  895 198.570 -10.4088 -35.6230
  896 617.613 123.746 15.3311
  897 -0.867752 -19.0825 -9.07120
  898 -0.874217 -19.0576 9.06384
  899 145.088 12.0296 -46.5343
  900 144.404 11.7898 46.1111
  901 1046.14 33.8763 -52.5094
  902 27.8427 -0.134777 1.76316
  903 27.7322 -0.138202 -1.78563
  904 1.99682 -48.8970 1.87400
  905 2.31058 -48.0272 -1.13929
  906 -20.4195 -0.216093 7.50194
  907 -20.4441 -0.209638 -7.49996
  908 116.115 33.9694 -54.6299
  909 117.898 32.8401 53.8972
  910 -8.50586 0.675505 -15.5798
  911 -8.55028 0.638751 15.6076
  912 36.1851 2.85614 -15.8056
  913 36.3950 2.81862 15.8310
  914 127.518 -1.64235 29.8636
  915 127.421 -1.63573 -29.9979
  916 105.222 -3.67653 -24.1551
  917 105.336 -3.67086 24.1240
  918 528.097 -2.15915 -7.89367
  919 260.316 57.0806 156.894
  920 358.899 -35.5191 19.9198
  921 257.125 -18.6617 18.9797
  922 492.318 51.1082 -61.6687
  923 1028.95 21.9370 21.0511
  924 578.656 28.0777 -56.3233
  925 101.446 -3.87092 15.1860
  926 101.336 -3.82823 -15.2360
  927 21.6963 -0.602479 -11.1771
  928 21.8997 -0.607891 11.1794
  929 -0.0366926 -8.45909 -16.8105
  930 -0.113168 -8.53531 16.8677
  931 265.695 -12.1590 8.74249
  932 265.824 -12.3823 -8.77860
  933 34.6282 8.59596 -14.3470
  934 34.8515 8.55832 14.4189
  935 163.929 -7.43170 -27.5732
  936 164.046 -7.43365 27.5604
  937 352.524 -1.28080 -32.1113
  938 169.369 -9.30088 -19.3720
  939 169.268 -9.20707 19.4334
  940 401.132 -12.0600 -0.0228229
  941 485.620 -27.4796 -58.0647
  942 216.142 -9.04643 9.17069
  943 216.233 -9.12407 -9.27903
  944 -8.87119 -0.926444 -5.36911
  945 -8.84624 -0.928656 5.35717
  946 492.513 -36.3913 -83.6055
  947 473.069 -27.8654 36.0199
  948 415.547 -29.4585 -5.84061
  949 410.262 14.3411 57.4418
  950 188.215 -10.7136 -21.7611
  951 188.229 -10.5188 21.8247
  952 455.949 17.9064 69.0597
  953 427.772 37.4333 45.5203
  954 853.788 102.188 18.1930
  955 440.958 -16.4907 6.43127
  956 236.449 -7.45796 -4.14570
  957 236.427 -7.32366 4.17668
  958 396.372 -32.8000 1.17638
  959 549.953 100.716 -27.8317
  960 480.874 -5.90334 -2.20251
  961 319.798 -8.56455 1.38001
  962 319.680 -8.50423 -1.29111
  963 41.9505 35.8771 -26.7787
  964 42.9833 35.8284 26.9681
  965 76.3611 207.588 -174.384
  966 455.469 -10.5677 52.1739
  967 562.778 -8.94639 -46.7463
  968 -7.76036 5.53487 1.98165
  969 -7.60930 5.53466 -1.90531
  970 1122.90 270.998 -214.758
  971 482.483 -51.9010 1.78881
  972 513.647 -46.3464 -24.5118
  973 475.506 -40.6039 31.9613
  974 590.294 115.683 10.9586
  975 43.9090 48.5688 -55.0030
  976 108.923 180.636 172.114
  977 -2.55736 -6.22187 16.9581
  978 -2.50999 -6.16597 -16.9296
  979 461.466 -12.4739 6.89655
  980 740.267 130.374 -17.1109
  981 45.1571 47.5566 57.0589
  982 -2.02174 -6.93416 -5.97061
  983 -2.02197 -6.91445 5.95461
  984 397.243 -10.0855 -0.390710
  985 298.966 -23.9331 -25.5024
  986 479.300 -37.7135 -38.6154
  987 138.853 37.4211 -71.5017
  988 141.052 38.0292 71.6838
  989 467.116 -11.5303 -46.3292
  990 468.083 -15.3798 13.7636
  991 -11.8882 3.42059 13.5176
  992 -11.8254 3.45355 -13.4718
  993 285.543 -18.7726 -51.3956
  994 472.997 30.6942 -69.0210
  995 350.767 -13.8439 2.45358
  996 254.899 -7.75522 0.823250
  997 254.848 -7.80110 -0.794806
  998 -5.18994 -5.90488 -12.3255
  999 -5.19715 -5.91764 12.3145
  1000 474.434 -17.3802 -17.2695
  1001 450.900 -5.85306 0.313234
  1002 450.486 -5.86000 -0.135254
  1003 624.708 103.661 -37.1896
  1004 116.126 9.78756 -37.0151
  1005 116.415 9.59268 36.9432
  1006 76.2741 -0.831065 -20.1276
  1007 76.4198 -0.845962 20.1095
  1008 516.647 28.4573 73.5120
  1009 485.630 -9.72181 -9.32296
  1010 89.0858 13.6872 -30.4645
  1011 89.4350 13.5871 30.5746
  1012 504.838 -3.29763 -1.34684
  1013 474.557 -20.8155 -26.9216
  1014 463.459 -51.7133 -23.2127
  1015 18.7135 16.7090 1.66267
  1016 18.2170 16.6296 -1.43619
  1017 -21.5214 3.79185 7.74136
  1018 -21.4398 3.80272 -7.68595
  1019 290.797 10.7414 -11.9358
  1020 796.839 200.366 -59.3464
  1021 368.032 -27.2409 -4.48579
  1022 245.374 -10.7342 -52.7973
  1023 585.152 -21.5135 0.361488
  1024 246.331 -10.7136 53.5139
  1025 421.963 -48.6502 36.3653
  1026 478.150 -19.8329 -41.5094
  1027 169.109 -4.15323 -1.26965
  1028 169.129 -4.08712 1.26246
  1029 328.505 -25.9766 -14.2582
  1030 203.412 -7.71712 -41.5026
  1031 203.349 -7.77543 41.3111
  1032 68.3235 44.9360 -45.2028
  1033 69.3858 44.8232 45.3386
  1034 143.389 -4.63157 -4.47972
  1035 143.409 -4.57824 4.42943
  1036 424.761 -14.1997 2.89819
  1037 359.491 2.60070 -129.129
  1038 440.026 -14.9683 -6.46579
  1039 398.882 -43.9906 -22.9322
  1040 265.068 -11.6171 6.11956
  1041 265.275 -11.6987 -6.13470
  1042 511.648 -3.67959 1.70224
  1043 459.675 -11.6163 -6.44664
  1044 305.682 7.51456 22.5548
  1045 494.070 -4.93878 -18.7986
  1046 193.638 57.5546 126.533
  1047 507.615 -4.83441 -15.3002
  1048 135.820 22.6989 -54.3315
  1049 131.874 22.9455 52.2105
  1050 604.515 -7.86709 -2.47651
  1051 57.1570 29.4072 -24.3518
  1052 57.6712 29.2022 24.3531
  1053 9.97521 0.979768 3.94732
  1054 10.4467 1.07042 -3.63693
  1055 85.0088 -2.21427 5.32691
  1056 84.9273 -2.22764 -5.38498
  1057 219.794 58.2068 -139.762
  1058 1156.84 308.516 231.191
  1059 473.000 -17.3632 17.7074
  1060 425.715 -47.5800 -17.7872
  1061 298.014 -24.5276 -40.2448
  1062 -5.12837 6.86243 11.3284
  1063 -5.01344 6.89996 -11.2508
  1064 335.557 -17.8326 4.48574
  1065 369.085 -14.4135 1.39754
  1066 -0.148087 -26.9966 8.70348
  1067 -0.138955 -27.0257 -8.70188
  1068 57.3381 35.3301 -28.7012
  1069 58.0035 35.2715 28.8660
  1070 331.200 -16.4610 -4.30767
  1071 28.3017 12.1884 9.63802
  1072 28.0811 12.2032 -9.54728
  1073 503.115 -19.2737 67.4078
  1074 365.373 -37.7197 -35.1911
  1075 299.762 -24.9193 40.2458
  1076 480.452 -9.08624 -71.5787
  1077 502.538 -6.03639 6.75046
  1078 185.776 28.7724 85.6679
  1079 187.100 27.5275 -84.2680
  1080 297.371 -14.1768 -72.3062
  1081 417.969 -15.6739 -2.81781
  1082 341.711 -21.0219 7.57102
  1083 399.032 -37.4578 -4.05367
  1084 541.935 -2.14132 -3.92779
  1085 297.596 -14.1944 6.90621
  1086 297.469 -14.9699 -7.06376
  1087 10.9005 12.5297 8.48569
  1088 11.1453 12.6199 -8.34424
  1089 484.949 18.4846 -74.1193
  1090 111.840 5.39830 -32.8116
  1091 112.139 5.27735 32.7330
  1092 85.1717 1.42847 -23.7805
  1093 85.3566 1.38298 23.7458
  1094 547.633 -19.0193 104.516
  1095 477.466 -22.0627 40.7904
  1096 236.698 -10.9508 -45.0812
  1097 549.731 -2.35036 -2.33315
  1098 622.852 118.435 -27.8025
  1099 501.351 -5.34601 -4.07364
  1100 472.577 -50.5961 12.1259
  1101 351.502 -26.3316 63.8237
  1102 552.636 -0.908841 0.327862
  1103 305.130 9.44474 -19.1093
  1104 401.775 -42.9558 -12.2382
  1105 237.088 -11.4396 44.6268
  1106 405.432 -37.1387 1.74332
  1107 502.641 -7.59317 13.2680
  1108 369.149 23.3474 29.6180
  1109 254.335 -18.8082 -36.3229
  1110 753.198 114.355 -51.9222
  1111 571.950 27.4721 59.5329
  1112 433.670 54.1233 7.20965
  1113 547.758 -0.139135 1.97868
  1114 221.673 -14.0040 -28.1417
  1115 150.829 95.3093 -140.854
  1116 268.236 7.73610 -101.684
  1117 307.723 -23.9418 18.5641
  1118 260.868 -19.6442 34.2163
  1119 221.171 -13.3377 28.4068
  1120 461.903 4.51927 72.3997
  1121 348.417 -12.8996 -2.03306
  1122 540.873 -4.20371 5.42091
  1123 -3.87076 0.0605997 16.8033
  1124 -3.80532 0.117295 -16.7601
  1125 364.419 -11.2365 1.14152
  1126 0.349772 4.72008 14.7985
  1127 0.468622 4.79483 -14.7150
  1128 208.664 -6.89550 4.98949
  1129 208.673 -6.99586 -4.99470
  1130 512.025 -2.87175 12.6947
  1131 413.125 -25.8091 -4.58626
  1132 387.454 -21.3396 0.0440451
  1133 432.533 -30.6496 11.5809
  1134 134.242 67.7658 -105.840
  1135 423.658 -16.7650 4.15497
  1136 67.4431 1.04624 -19.6008
  1137 67.6189 1.01464 19.5912
  1138 90.5419 58.9856 -75.4241
  1139 673.588 92.0323 14.4630
  1140 53.8519 -2.33814 11.5165
  1141 53.6836 -2.31961 -11.5310
  1142 92.1629 58.1447 72.9601
  1143 389.134 -32.8948 -2.73806
  1144 201.029 -9.62703 11.1841
  1145 201.052 -9.66745 -11.3446
  1146 786.836 167.417 -47.6402
  1147 427.960 -42.8933 -0.321794
  1148 148.664 89.4271 140.604
  1149 13.2248 0.613314 -13.5900
  1150 14.2081 0.784172 14.7384
  1151 455.394 57.0626 36.2359
  1152 35.9740 18.7304 -9.98153
  1153 36.2532 18.7383 10.0642
  1154 430.708 -37.6658 -8.28846
  1155 -0.188626 -41.4903 -8.07427
  1156 -0.208068 -41.4931 8.11109
  1157 459.919 -38.8632 -21.6357
  1158 -0.985291 0.535461 3.81072
  1159 -1.22841 0.539018 -3.81798
  1160 73.1027 26.7720 -30.7581
  1161 73.4945 26.8897 30.5037
  1162 -18.9394 0.0418196 -4.66750
  1163 -18.6913 0.0401573 4.67282
  1164 457.549 -5.86485 -0.287056
  1165 -44.2033 1.35309 0.361305
  1166 -44.0760 1.35253 -0.330409
  1167 246.311 -19.4966 -27.2997
  1168 6.68507 -55.2124 -7.60577
  1169 127.727 -3.69557 8.41843
  1170 127.673 -3.70713 -8.50050
  1171 390.792 -8.40569 0.746255
  1172 391.522 -8.21402 -0.671532
  1173 7.18178 -52.3864 9.03380
  1174 462.622 -24.5223 -22.0427
  1175 525.962 -2.64711 9.19866
  1176 470.314 -30.2658 -32.9810
  1177 415.348 3.28231 56.9919
  1178 2.44294 -15.5050 11.7788
  1179 2.64581 -15.3771 -11.5689
  1180 303.565 -22.4452 15.1091
  1181 -20.0849 1.99349 10.8454
  1182 -20.0475 2.01008 -10.8118
  1183 776.770 122.874 8.77333
  1184 896.203 292.299 -205.297
  1185 480.620 -46.3990 27.1016
  1186 203.583 -6.25641 -0.805692
  1187 203.602 -6.18668 0.806448
  1188 970.363 94.2607 -87.4549
  1189 76.1392 -1.95122 11.9450
  1190 76.0004 -1.92267 -11.9842
  1191 451.907 -1.46818 -22.4299
  1192 291.404 -23.7137 30.7818
  1193 475.371 -46.3076 -18.7731
  1194 460.348 -33.6219 -25.0628
  1195 283.505 -9.73056 75.6935
  1196 107.307 19.6239 -41.5839
  1197 107.258 19.4513 41.3648
  1198 139.891 52.1761 -90.2847
  1199 140.096 48.3404 90.2958
  1200 42.1946 11.5560 -15.2509
  1201 42.4351 11.5232 15.3374
  1202 569.341 99.1234 -40.5004
  1203 30.8420 28.4870 -14.4458
  1204 31.5344 28.5362 14.6561
  1205 410.316 -31.8281 3.32878
  1206 756.425 118.575 57.7403
  1207 103.652 -4.24552 -8.30115
  1208 103.735 -4.24442 8.22884
  1209 487.244 360.414 -298.976
  1210 390.031 23.3091 -45.6163
  1211 360.069 27.4335 18.6864
  1212 51.4736 20.9674 -17.9970
  1213 51.7127 20.9702 18.0902
  1214 17.3768 -0.112366 2.77813
  1215 17.2063 -0.112204 -2.79988
  1216 453.811 -36.5876 20.1438
  1217 445.759 -18.5038 10.3009
  1218 306.051 90.8970 -216.829
  1219 701.747 153.712 -11.3521
  1220 304.585 -8.86505 -83.1060
  1221 392.530 -12.9444 -0.519530
  1222 28.3562 -1.91466 -0.613521
  1223 28.4155 -1.91310 0.610103
  1224 -7.10922 3.09121 -6.78757
  1225 -6.91349 3.07883 6.83537
  1226 265.467 3.24064 -87.2642
  1227 482.610 -11.2202 12.2229
  1228 316.573 6.76548 118.158
  1229 426.743 -21.7369 -7.16037
  1230 222.118 81.2530 -171.719
  1231 343.787 -16.0956 -89.5385
  1232 408.478 -43.6036 9.96762
  1233 497.840 -8.20861 20.4733
  1234 436.859 -10.0360 -2.27149
  1235 245.315 -18.3301 27.4444
  1236 547.509 -29.4685 -35.5477
  1237 522.625 46.1873 69.5017
  1238 229.970 1.15143 -69.4776
  1239 514.415 -3.81655 1.37000
  1240 423.254 52.4072 -10.3079
  1241 186.069 -6.72893 -8.23687
  1242 186.043 -6.66371 8.15620
  1243 787.406 188.426 52.1845
  1244 1065.01 28.2812 49.1588
  1245 1.01507 -50.5196 -7.98696
  1246 0.983475 -50.5724 8.04970
  1247 119.776 64.4030 99.2855
  1248 283.981 -8.97941 -2.02858
  1249 284.041 -8.93064 2.13128
  1250 385.826 -38.9444 -12.9260
  1251 462.627 38.3209 62.6055
  1252 478.460 -10.1409 -7.54173
  1253 551.739 -1.71067 -0.542734
  1254 954.133 213.573 -135.801
  1255 155.836 -5.97698 8.65246
  1256 155.811 -5.98855 -8.75191
  1257 460.402 -42.7096 20.4584
  1258 800.407 202.536 -67.9341
  1259 446.136 -20.0995 -11.7173
  1260 328.417 -23.2906 -11.0635
  1261 401.444 -43.5055 22.4317
  1262 392.488 -20.3175 0.857955
  1263 15.2671 7.63471 -20.6318
  1264 534.490 -31.4449 43.3859
  1265 434.102 -28.8528 -11.3482
  1266 16.7732 8.38608 22.5966
  1267 445.744 -34.3289 -84.4076
  1268 420.748 28.8953 -177.474
  1269 689.645 91.9222 -7.56650
  1270 553.749 -0.664642 -0.150891
  1271 552.829 -1.17143 0.467995
  1272 441.370 -26.2552 12.6526
  1273 173.067 20.6216 -68.5682
  1274 502.257 -44.0624 34.6810
  1275 847.765 195.193 92.3106
  1276 213.446 75.3238 167.444
  1277 6.52514 1.83991 11.7787
  1278 6.74937 1.95222 -11.6241
  1279 526.072 -40.8683 -47.3410
  1280 216.786 -12.0926 -13.3309
  1281 216.757 -12.1246 13.1172
  1282 492.118 -32.0402 55.3210
  1283 22.3210 0.0717019 12.4626
  1284 22.1188 0.0813335 -12.4556
  1285 -2.56203 -10.0955 14.1311
  1286 -2.54386 -10.0738 -14.1346
  1287 93.2523 -3.18119 -10.8894
  1288 93.3602 -3.19948 10.8276
  1289 261.703 -17.5636 -41.0553
  1290 264.136 -9.28772 2.85854
  1291 264.124 -9.47307 -2.76164
  1292 552.116 -0.647290 0.210335
  1293 495.132 -7.89366 -23.1104
  1294 44.2853 1.72634 -15.8269
  1295 44.4809 1.69843 15.8364
  1296 262.741 -18.5614 40.7637
  1297 556.989 -0.754521 0.261491
  1298 527.443 -1.00657 -0.604699
  1299 527.399 -1.32648 0.475828
  1300 700.464 150.503 1.54906
  1301 515.104 -4.08730 -3.24887
  1302 458.893 -5.58698 0.126619
  1303 508.163 -8.16558 -11.7244
  1304 549.655 -2.01543 1.52614
  1305 578.728 61.1179 58.9728
  1306 669.315 140.678 11.2607
  1307 536.047 -2.33829 -6.02409
  1308 -4.50859 -1.12024 4.03030
  1309 -4.52689 -1.11950 -4.04292
  1310 302.467 -19.5471 10.7147
  1311 302.412 -18.7154 -10.4402
  1312 583.950 67.6477 -55.7844
  1313 124.417 43.0978 -75.0469
  1314 125.215 41.9450 74.2730
  1315 399.764 0.106542 -28.5127
  1316 405.519 -7.47811 -0.673633
  1317 405.025 -7.42600 0.588367
  1318 -9.54654 -1.45552 14.3463
  1319 -9.52924 -1.42881 -14.3415
  1320 453.212 -1.19102 22.3847
  1321 684.281 135.952 -4.41793
  1322 55.0021 -1.89029 -6.85558
  1323 55.1380 -1.89463 6.80707
  1324 505.219 -47.8309 17.1974
  1325 1.82546 8.88988 11.3704
  1326 1.97459 8.94328 -11.2737
  1327 99.9790 -2.27131 -2.35354
  1328 100.028 -2.23861 2.32096
  1329 399.847 -0.490925 28.9546
  1330 23.7448 0.818818 -1.07276
  1331 23.8376 0.821959 1.05627
  1332 511.899 -6.44406 7.36648
  1333 715.824 129.638 8.02877
</Section>

newXOutput 66

<Section columns = "stress_xx | stress_yy | stress_xy">
  1 573.478 -1.69260 1.04732
  2 574.332 -2.10983 -1.35943
  3 18.8765 0.525490 -1.45784
  4 -0.437647 -0.649388 -0.442053
  5 1036.12 432.524 344.170
  6 1052.07 493.716 -347.513
  7 -0.433009 -0.645307 0.436058
  8 18.8160 0.522511 1.45449
  9 577.257 -1.21078 -0.949070
  10 573.229 -2.12287 -1.39792
  11 573.795 -1.68757 1.16897
  12 571.272 -1.00834 0.417983
  13 570.381 -1.99849 -0.489080
  14 569.862 -1.93721 2.05913
  15 562.261 -1.42801 1.88767
  16 564.766 -4.12496 3.03399
  17 548.199 -3.46698 6.69795
  18 537.895 -1.63650 8.08187
  19 523.518 -1.94006 8.76852
  20 498.252 -1.72629 12.4086
  21 470.506 -1.43151 14.4924
  22 435.617 1.87231 20.0112
  23 387.578 2.91415 18.1856
  24 368.144 -0.0501308 26.1181
  25 307.792 4.36343 18.6263
  26 270.847 5.67603 14.6457
  27 261.215 2.92755 10.8184
  28 250.891 8.33250 0.819346
  29 256.562 8.92631 -14.4829
  30 267.861 2.63462 -18.1627
  31 313.252 1.26151 -24.1843
  32 358.779 -2.20381 -24.9802
  33 389.291 2.42073 -18.1452
  34 436.118 2.12351 -20.0066
  35 469.339 -1.68916 -15.5459
  36 500.993 -1.90800 -11.6900
  37 521.554 -1.44731 -8.91237
  38 536.322 -1.74735 -7.37832
  39 552.243 -2.03191 -4.22395
  40 558.206 -2.14615 -4.00454
  41 564.077 -2.01813 -3.55585
  42 569.990 -2.27920 -0.576206
  43 572.170 -2.85766 -1.40928
  44 568.715 -0.0257564 0.0410033
  45 573.123 -1.56286 -1.33669
  46 575.313 -3.05543 1.52436
  47 577.925 -1.78607 -0.0560448
  48 549.915 0.00124281 -0.866713
  49 518.430 -2.74476 -1.60921
  50 482.626 -5.78146 -2.24798
  51 445.433 -5.08480 -1.62090
  52 412.869 -7.74606 -1.48514
  53 378.404 -8.34260 -1.33825
  54 343.559 -7.36882 -0.601826
  55 306.830 -7.78730 -0.859912
  56 275.722 -8.12551 -1.15756
  57 234.268 -7.68968 -0.916068
  58 191.570 -4.91354 -0.586472
  59 156.238 -3.17505 -0.451971
  60 112.602 -1.99824 -0.129083
  61 80.9307 -1.85307 -2.13708
  62 51.5479 -2.45075 -0.673537
  63 21.8947 0.274472 1.39087
  64 14.0675 2.05832 0.597666
  65 11.7172 0.831387 1.50267
  66 12.5052 0.373723 1.52534
  67 5.97335 1.18078 0.797889
  68 3.24649 1.55522 3.12932
  69 1.67788 0.552127 1.30385
  70 -9.31202 1.16863 1.40935
  71 -14.7135 0.793252 3.05137
  72 -17.3502 0.248965 3.23091
  73 -29.6301 1.08445 2.63478
  74 -34.5465 1.63722 4.71842
  75 -40.2308 0.993890 1.97299
  76 -46.4564 0.729054 2.70805
  77 -49.4816 0.771985 1.29578
  78 -55.7080 1.91465 -0.939849
  79 -56.9422 1.31116 -0.677088
  80 -52.3658 0.976535 -1.58460
  81 -45.3021 1.30731 -3.30011
  82 -37.1153 0.603021 -5.22612
  83 -27.8690 0.341197 -5.52407
  84 -16.8049 -0.532172 -5.83240
  85 -7.39901 -0.434165 -3.44703
  86 -3.13256 -1.20762 -2.16901
  87 -0.505478 -3.13017 -1.89299
  88 -0.834010 -7.99853 -3.32066
  89 -0.957505 -15.4503 -5.76909
  90 -0.158966 -28.8167 -6.16906
  91 0.376444 -39.6041 -7.68341
  92 0.841841 -56.7863 -6.23814
  93 2.52122 -67.0488 -7.29168
  94 0.493589 -71.4361 -5.82393
  95 -0.0480492 -81.0586 -3.12148
  96 2.30972 -76.8514 0.0512727
  97 9.45767 -98.8802 5.60410
  98 8.80235 -47.4993 16.7151
  99 20.5435 -11.2599 35.4040
  100 60.4403 117.521 104.945
  101 249.571 348.424 286.839
  102 1356.94 147.664 200.279
  103 1142.34 40.5743 71.9494
  104 1089.05 17.3073 24.7067
  105 1059.78 11.2639 -0.138884
  106 1078.56 16.4851 -20.3564
  107 1152.55 34.6255 -59.4481
  108 1342.81 116.707 -186.027
  109 162.395 394.398 -237.356
  110 42.5441 91.0610 -81.7863
  111 15.1802 -21.2476 -29.7556
  112 7.98391 -53.3492 -14.5847
  113 9.39951 -103.055 -4.57606
  114 2.20332 -78.6936 0.670561
  115 -0.184947 -81.9762 3.49667
  116 0.406699 -71.7867 6.02452
  117 2.47356 -67.1257 7.37603
  118 0.823570 -56.7484 6.26896
  119 0.362672 -39.5437 7.69399
  120 -0.165692 -28.7424 6.16474
  121 -0.958273 -15.4032 5.75627
  122 -0.835807 -7.95838 3.30881
  123 -0.505086 -3.11511 1.88259
  124 -3.11451 -1.20584 2.16027
  125 -7.36685 -0.436158 3.43753
  126 -16.7631 -0.536919 5.82651
  127 -27.8204 0.335901 5.52508
  128 -37.0873 0.597221 5.23600
  129 -45.3118 1.30313 3.31982
  130 -52.4142 0.976165 1.60593
  131 -57.0410 1.30989 0.697988
  132 -55.8489 1.91430 0.961670
  133 -49.6706 0.773944 -1.27660
  134 -46.6817 0.731467 -2.69368
  135 -40.4743 0.996672 -1.96146
  136 -34.8113 1.64055 -4.71334
  137 -29.9030 1.08760 -2.63051
  138 -17.6208 0.250882 -3.23109
  139 -14.9859 0.796587 -3.05516
  140 -9.57300 1.17330 -1.41515
  141 1.44617 0.555208 -1.31516
  142 3.04404 1.55846 -3.14652
  143 5.79723 1.18172 -0.813073
  144 12.3699 0.373128 -1.54020
  145 11.6119 0.829932 -1.51466
  146 13.9822 2.05582 -0.608030
  147 21.8272 0.272746 -1.39698
  148 51.4867 -2.45980 0.667373
  149 80.8749 -1.87555 2.13039
  150 112.559 -2.03799 0.120116
  151 156.212 -3.23248 0.447382
  152 191.548 -4.98003 0.585868
  153 234.236 -7.74696 0.925299
  154 275.652 -8.15334 1.17660
  155 306.719 -7.74968 0.904657
  156 343.406 -7.23501 0.652896
  157 378.195 -8.02908 1.26194
  158 413.051 -7.83796 1.29858
  159 445.572 -5.64392 1.71352
  160 482.998 -5.67955 2.03758
  161 519.434 -2.44833 1.63176
  162 549.071 -0.0329321 0.844537
  163 325.282 -29.4596 -29.4069
  164 324.011 -29.9984 29.3358
  165 99.9184 27.2764 -41.6417
  166 100.895 27.3719 41.4740
  167 381.945 -17.3086 101.706
  168 400.033 -19.6397 -99.0333
  169 191.687 -10.2511 13.7781
  170 191.658 -10.1525 -13.9527
  171 407.585 -15.0931 0.698335
  172 399.645 -15.1354 -0.544646
  173 546.266 97.9894 -12.7839
  174 550.572 5.16111 -65.1903
  175 540.076 9.23709 70.6455
  176 134.212 -5.19239 -28.1901
  177 134.230 -5.15693 28.1418
  178 475.945 -46.9474 21.3618
  179 475.575 -36.6197 -31.7137
  180 7.56045 11.7979 10.2856
  181 7.75877 11.8727 -10.1671
  182 650.186 132.874 16.5517
  183 127.977 57.8279 -91.7150
  184 137.122 58.3434 98.1243
  185 459.995 -22.0478 14.2095
  186 688.963 145.968 -4.41184
  187 301.262 -11.6323 -4.53368
  188 300.793 -11.9135 4.50486
  189 472.389 -15.5421 -13.1057
  190 626.249 -0.885561 -14.0233
  191 123.064 -3.72231 5.37033
  192 123.017 -3.75225 -5.43649
  193 53.5406 6.34511 -19.4249
  194 53.7766 6.28015 19.4707
  195 268.792 -10.1845 -64.6699
  196 267.748 -10.7282 65.4847
  197 320.279 -21.2746 -11.3363
  198 320.911 -21.1561 11.9554
  199 88.3333 -3.07949 15.1729
  200 88.2024 -3.03930 -15.2014
  201 619.194 -7.60031 45.6888
  202 509.000 -49.3509 -6.32737
  203 481.892 -5.73568 -1.70446
  204 471.516 -6.85414 1.69126
  205 485.065 57.1167 50.5186
  206 21.6663 19.6336 -8.89512
  207 22.4216 19.6050 9.23201
  208 480.904 -19.1109 58.6863
  209 446.416 34.3573 -58.3085
  210 314.584 74.3840 -205.548
  211 330.806 62.9070 191.111
  212 10.4521 10.8145 -2.67821
  213 10.6431 10.8136 2.77074
  214 479.555 -16.7880 -60.7363
  215 825.212 114.991 -8.21114
  216 398.422 -43.1379 38.3691
  217 401.331 -42.9126 -36.4429
  218 398.173 -28.9337 0.147807
  219 490.123 -8.49896 6.78828
  220 242.342 -16.8329 -25.0482
  221 238.660 -16.7699 25.7541
  222 147.130 2.81220 -41.9959
  223 147.345 2.75840 41.6660
  224 504.240 -52.3725 -9.68184
  225 394.943 -30.7134 -1.86983
  226 488.318 -8.34066 -5.13844
  227 383.013 -10.8189 -0.667968
  228 386.239 -10.1634 1.37312
  229 484.098 -21.8465 32.9969
  230 46.4169 0.296311 -16.2129
  231 46.6043 0.276812 16.2144
  232 -5.83378 -3.81993 -16.1779
  233 -5.86506 -3.85934 16.1904
  234 80.9204 -3.37118 -8.87351
  235 81.0345 -3.37929 8.81091
  236 209.845 -6.64045 6.18074
  237 209.884 -6.74740 -6.22284
  238 238.506 16.8567 -93.4908
  239 238.537 14.1170 92.4590
  240 490.620 -15.6352 -28.2400
  241 234.479 -13.8071 -39.8708
  242 234.687 -14.2221 39.3525
  243 437.665 7.08697 66.1593
  244 386.720 33.0969 4.02096
  245 422.341 -42.2117 1.52047
  246 2.25082 -9.25104 -14.1021
  247 2.10865 -9.36505 14.2252
  248 28.4046 31.5113 -33.4173
  249 30.1710 30.5442 34.9720
  250 415.420 -41.3137 -4.25001
  251 741.519 144.103 -17.5230
  252 41.0312 27.3227 -15.2550
  253 41.5070 27.3162 15.4149
  254 -14.9830 3.65150 10.5451
  255 -14.9011 3.67055 -10.4880
  256 744.636 135.706 21.9455
  257 266.746 -13.3265 -10.4578
  258 266.552 -13.1267 10.2827
  259 514.529 -34.0632 53.0503
  260 918.374 149.785 94.2534
  261 159.009 -8.47775 -23.3102
  262 158.989 -8.53733 23.2931
  263 528.050 79.2523 -47.6806
  264 887.684 169.350 -86.8650
  265 624.985 65.0901 42.8005
  266 672.793 49.4330 -131.714
  267 421.954 -20.6970 4.31513
  268 482.231 2.93344 -73.5664
  269 454.326 -32.4398 -17.1511
  270 504.640 -9.48497 17.7164
  271 2.98885 4.87453 -6.61404
  272 3.18128 4.85975 6.68085
  273 499.103 -13.9016 -126.438
  274 57.0773 16.7984 -19.8515
  275 57.3431 16.7708 19.9536
  276 486.342 -11.8334 -36.9153
  277 71.7346 77.9037 -95.4918
  278 66.2183 -0.336238 -2.07852
  279 66.2877 -0.323709 2.05111
  280 512.870 -31.1270 -55.5407
  281 93.0807 41.8147 -52.1022
  282 94.4041 41.6029 52.2496
  283 31.7564 -0.867376 11.2600
  284 31.5580 -0.857296 -11.2652
  285 421.294 -19.7276 -4.23566
  286 72.2439 77.1066 97.9365
  287 661.463 58.6409 153.395
  288 188.803 -7.72627 -8.51955
  289 188.779 -7.68119 8.41530
  290 338.780 -14.8423 -4.55285
  291 338.621 -15.9809 4.95808
  292 289.176 29.0390 -140.338
  293 463.042 -50.4151 -3.87554
  294 522.929 -3.83336 2.91966
  295 278.695 29.1192 135.951
  296 324.751 -9.72225 -1.59258
  297 324.631 -9.71741 1.86210
  298 455.090 -33.6991 17.4586
  299 519.552 -6.04656 -8.03157
  300 0.359804 1.91224 -9.06711
  301 0.573641 1.89787 9.10001
  302 657.439 130.038 -4.02013
  303 573.042 -24.9767 25.5586
  304 514.965 -3.43186 -0.663710
  305 523.615 -3.00537 0.601914
  306 516.470 -43.8194 48.1659
  307 636.656 69.4740 -39.0688
  308 561.809 104.260 26.7253
  309 255.003 -15.9980 -16.2501
  310 252.766 -16.2796 16.5337
  311 522.205 -3.76938 -1.79774
  312 347.588 -25.8294 -70.6754
  313 342.521 -27.4426 14.2403
  314 326.457 -17.3433 80.1372
  315 515.491 -6.74474 9.70283
  316 123.525 -5.66114 -14.6565
  317 123.614 -5.70158 14.6003
  318 476.221 -13.5356 124.924
  319 306.359 -24.5638 -20.2262
  320 559.400 72.7391 59.2291
  321 181.319 12.6619 -61.5638
  322 174.725 13.2495 61.0980
  323 59.4542 -1.14473 -3.76576
  324 59.5545 -1.13752 3.72223
  325 456.509 -10.2150 3.45459
  326 438.054 -7.35413 0.177914
  327 435.669 -7.95096 -0.319754
  328 483.036 -12.4513 39.1775
  329 48.1902 -1.62741 8.50691
  330 48.0183 -1.61279 -8.54034
  331 146.925 -3.64197 -3.13210
  332 146.948 -3.58749 3.10318
  333 4.97492 -19.9796 -7.07952
  334 4.66787 -20.1578 7.44528
  335 382.445 16.7412 45.1277
  336 578.435 -22.9480 -19.6911
  337 377.371 -20.8358 -0.861564
  338 424.607 -9.65187 -1.28193
  339 450.668 55.8622 -27.2928
  340 92.2091 -3.00859 -21.0122
  341 92.3336 -3.01143 20.9993
  342 367.226 -19.7076 2.72035
  343 107.760 3.33816 -30.0588
  344 107.968 3.24867 29.9783
  345 22.1329 17.5369 -2.06758
  346 22.3850 17.5367 2.17653
  347 444.451 -46.9298 48.6301
  348 968.732 63.7179 24.9401
  349 401.840 6.43177 -53.3455
  350 332.925 -29.7776 44.4677
  351 331.238 -29.1562 -45.7328
  352 489.526 -7.69416 72.6316
  353 437.977 -2.93167 52.4287
  354 438.823 -45.3679 -50.0896
  355 265.391 -7.48560 0.927932
  356 265.348 -7.56181 -0.863872
  357 485.429 -31.6008 43.3203
  358 664.834 131.641 1.33929
  359 518.459 -6.34874 -13.0849
  360 139.877 -5.42787 -10.7631
  361 139.943 -5.43324 10.6686
  362 489.371 -45.0280 -59.8405
  363 517.518 36.9451 -72.0372
  364 354.126 19.0347 -29.0417
  365 489.013 -32.3949 -49.8961
  366 -15.6186 0.698173 -12.4485
  367 -15.6352 0.678083 12.4645
  368 410.635 -10.8437 0.222929
  369 -5.82966 -3.45043 -7.62515
  370 -5.82197 -3.45130 7.60858
  371 315.772 165.972 -248.930
  372 13.8209 12.5724 6.19659
  373 14.1410 12.6680 -6.02443
  374 434.833 -3.09223 -52.0075
  375 241.883 -10.8044 7.91088
  376 242.043 -10.9386 -7.98429
  377 -1.46499 -16.9156 14.2079
  378 -1.43852 -16.8849 -14.1941
  379 257.849 173.664 234.773
  380 198.769 -10.7473 -31.4618
  381 198.934 -10.3064 31.4858
  382 64.2396 48.0577 -48.5830
  383 65.5550 47.9467 48.3256
  384 -22.7449 3.83132 3.70975
  385 -22.6320 3.83788 -3.64778
  386 500.079 34.0011 72.5147
  387 382.933 -40.0954 22.7385
  388 383.346 -35.2471 10.6269
  389 462.459 -52.0596 -10.0769
  390 119.570 14.5811 -41.2729
  391 119.969 14.5594 41.2193
  392 10.9055 -11.9519 3.10508
  393 10.3411 -12.1988 -2.30013
  394 473.955 67.4535 17.8119
  395 470.517 -14.2998 10.5374
  396 273.399 -21.4328 29.3348
  397 171.260 -4.52544 -37.3367
  398 171.336 -4.55777 37.0825
  399 346.194 -11.4678 -2.31315
  400 345.836 -10.2054 2.02031
  401 271.147 -21.9862 -30.9888
  402 213.046 -3.74612 -49.9073
  403 213.026 -4.03465 50.2924
  404 491.408 -44.6681 -28.6911
  405 288.972 -22.6022 19.1166
  406 446.689 -14.5671 5.63967
  407 445.774 -13.3927 -4.52469
  408 376.444 -35.0042 -11.9464
  409 533.040 -2.96027 -3.12462
  410 183.337 76.0022 -143.055
  411 505.096 -7.66245 22.1902
  412 531.860 -3.37284 4.88804
  413 196.122 -10.7252 19.3703
  414 196.192 -10.5840 -19.3563
  415 381.235 -39.6212 -23.3893
  416 57.0441 24.7359 21.4357
  417 56.7435 24.7154 -21.4478
  418 978.282 63.6699 -50.8009
  419 438.574 -25.7167 -8.93484
  420 535.991 -2.51551 1.79758
  421 173.396 71.1930 136.520
  422 794.652 133.375 27.4034
  423 468.328 -8.14548 -2.68962
  424 353.875 -26.2292 -9.54267
  425 150.101 28.9437 -69.3581
  426 159.784 26.7975 68.9419
  427 433.547 -28.0871 8.89925
  428 462.046 -5.89827 -38.3191
  429 1.81087 -0.471394 8.48677
  430 1.58368 -0.466617 -8.47949
  431 168.986 41.0452 -92.1493
  432 169.526 41.1882 91.8743
  433 22.7363 9.29366 -9.86346
  434 22.9494 9.27461 9.94681
  435 389.388 -8.71279 0.300822
  436 388.921 -8.51773 -0.174217
  437 483.494 -22.3113 -34.5494
  438 -0.763782 -0.684999 16.9498
  439 -0.676709 -0.606247 -16.8850
  440 497.605 -48.4900 24.4137
  441 469.822 -13.4509 -9.18121
  442 757.991 144.857 -25.5789
  443 38.2311 -1.42970 4.08969
  444 38.0782 -1.42994 -4.12732
  445 905.088 260.948 120.818
  446 19.2837 14.4024 -30.2513
  447 61.3109 2.61498 -20.6377
  448 61.5097 2.57098 20.6399
  449 903.710 267.299 -117.638
  450 20.4370 16.4474 33.0212
  451 -21.2561 2.88529 0.281433
  452 -21.1094 2.88110 -0.222265
  453 53.2479 36.5151 -29.4572
  454 54.1399 36.5401 29.6090
  455 595.938 94.6262 -47.3144
  456 477.465 -19.2254 -21.6442
  457 533.288 -2.59005 -1.53533
  458 499.217 -7.86947 -26.1923
  459 -5.01320 4.10880 15.4174
  460 -4.92438 4.15993 -15.3559
  461 482.512 -19.9302 25.5423
  462 316.886 -18.5123 -9.10691
  463 315.945 -18.6888 8.07965
  464 426.801 -46.9290 -10.7292
  465 306.329 -3.57502 -97.6210
  466 466.306 -7.06928 39.0914
  467 380.656 -13.3750 1.34408
  468 554.926 -39.5771 -11.7535
  469 296.890 3.45826 104.495
  470 29.1553 -0.494374 8.19265
  471 28.9521 -0.485495 -8.20732
  472 613.201 121.085 -20.2187
  473 486.084 -4.62444 -0.00976023
  474 484.470 -5.10925 -0.417766
  475 371.172 -25.4311 5.24795
  476 167.605 -5.86374 -6.12991
  477 167.606 -5.80047 6.06530
  478 100.095 -1.38730 -24.8647
  479 100.217 -1.40677 24.8240
  480 321.121 12.4178 17.4235
  481 84.8824 -2.78791 12.1470
  482 84.7563 -2.76230 -12.2000
  483 87.6379 7.95937 28.0904
  484 87.3503 8.07714 -28.0628
  485 474.731 -36.8216 30.3864
  486 269.069 -16.7970 -47.1032
  487 249.769 -8.69525 4.31774
  488 249.850 -8.88777 -4.32229
  489 271.860 -17.3141 47.1027
  490 738.037 177.315 -21.5053
  491 -11.7853 -1.71715 -9.78826
  492 -11.7778 -1.72656 9.78194
  493 192.229 -5.74716 -2.58710
  494 192.237 -5.66898 2.57824
  495 0.340356 -30.9558 -11.5123
  496 0.262641 -31.0582 11.6182
  497 432.648 -7.64077 0.525710
  498 319.360 14.9924 -8.65631
  499 422.222 44.1035 24.6596
  500 267.001 -2.28876 -78.4353
  501 135.105 -6.95182 18.3356
  502 135.079 -6.89415 -18.3612
  503 -29.7551 1.01987 -3.23800
  504 -29.5521 1.01352 3.26586
  505 513.346 -8.64895 -71.3551
  506 49.6550 0.199207 -2.71185
  507 49.7439 0.205649 2.68050
  508 427.337 -34.1038 -6.32736
  509 454.889 -38.9457 -16.1191
  510 95.6262 74.8754 -98.4727
  511 382.481 12.5128 -151.718
  512 6.61843 12.0011 6.08619
  513 6.80475 12.0280 -5.98166
  514 238.359 -11.4704 -11.0827
  515 238.250 -11.3741 10.8789
  516 651.737 31.3897 -8.15908
  517 472.652 -28.2516 -27.7183
  518 93.2867 71.0633 97.1503
  519 468.174 -52.3661 17.4169
  520 450.804 -42.9069 11.5275
  521 103.055 -2.50572 -8.01144
  522 103.130 -2.49676 7.94130
  523 378.085 4.33470 41.3710
  524 271.477 -20.3422 -20.0402
  525 496.797 -11.7004 15.6581
  526 -1.97059 -12.0969 -9.53990
  527 -1.97545 -12.0863 9.52515
  528 351.623 -30.8123 52.6698
  529 530.581 -39.4351 -34.2793
  530 686.757 53.5338 -31.7029
  531 376.252 -13.8023 -1.27636
  532 118.859 -2.28355 -2.30085
  533 118.898 -2.24372 2.28158
  534 240.663 2.18457 75.6969
  535 660.198 113.588 28.2248
  536 662.066 143.219 -237.763
  537 601.106 6.00418 31.1819
  538 435.071 -48.1606 8.46446
  539 1007.68 80.2617 68.2965
  540 754.330 186.585 29.4390
  541 113.052 -4.76685 19.9649
  542 112.959 -4.72072 -19.9922
  543 418.596 -35.0816 3.67901
  544 33.9766 15.3111 -9.54998
  545 34.2181 15.3047 9.64766
  546 524.171 -42.5633 34.3986
  547 435.299 23.9144 60.7150
  548 525.835 -3.73805 8.81153
  549 392.265 -24.2514 0.275923
  550 543.488 9.19575 -159.919
  551 854.211 232.525 160.650
  552 423.418 -9.44997 -0.302699
  553 517.516 -5.63316 -14.5172
  554 84.9247 35.0632 -39.5658
  555 85.5317 34.6467 39.4072
  556 300.564 -12.8304 -6.08752
  557 300.433 -12.5496 6.18745
  558 3.81985 -33.5472 -6.01742
  559 529.982 -17.7769 62.6927
  560 22.1100 19.4475 -0.136522
  561 22.4369 19.5032 0.292480
  562 4.42897 -32.2458 7.15626
  563 483.480 -21.9009 -51.4409
  564 555.724 36.4896 -67.8017
  565 553.999 41.2260 67.8835
  566 28.0073 25.8222 22.9538
  567 26.6554 26.3554 -22.5116
  568 -10.6180 0.467542 6.49873
  569 -10.8494 0.472684 -6.48548
  570 507.100 17.0528 164.618
  571 283.143 -16.2137 11.4427
  572 283.416 -16.1578 -11.6171
  573 610.019 -6.59670 -87.1673
  574 87.4245 -1.22932 4.63831
  575 87.3567 -1.24709 -4.68547
  576 45.7691 -0.979151 -1.07431
  577 45.8364 -0.972763 1.06330
  578 673.018 125.514 -21.2394
  579 65.8446 105.750 -107.986
  580 362.642 7.52036 -35.1088
  581 504.890 80.3881 -30.1152
  582 8.14359 1.35853 9.32344
  583 8.44917 1.47213 -9.11869
  584 497.295 244.002 277.878
  585 429.936 -12.9765 -2.47170
  586 18.9127 4.35882 -11.3160
  587 19.1233 4.32749 11.3687
  588 496.937 -39.5336 42.7416
  589 77.6758 102.678 109.954
  590 360.003 -8.65272 0.739365
  591 360.104 -8.58918 -0.740709
  592 -0.254189 -24.8491 12.1827
  593 -0.215465 -24.8092 -12.1425
  594 613.114 118.700 -0.981926
  595 389.130 -30.5691 73.6125
  596 371.973 -16.8060 -2.19230
  597 373.044 19.2235 159.932
  598 -30.2507 1.65877 7.17974
  599 -30.2209 1.66778 -7.14881
  600 608.304 10.6381 -33.7548
  601 801.418 145.095 -116.749
  602 235.118 24.5841 -107.935
  603 130.683 -5.57530 -24.2279
  604 130.812 -5.57773 24.2354
  605 547.534 -2.11823 2.27437
  606 368.433 -17.1439 1.76017
  607 488.825 -7.53180 4.84383
  608 483.474 -21.9481 50.1850
  609 27.9200 -0.821428 4.14396
  610 27.7369 -0.818025 -4.17165
  611 289.351 -10.8214 -3.59882
  612 289.316 -10.5519 3.51070
  613 182.112 3.84471 -51.4221
  614 180.975 3.89836 51.2170
  615 690.403 46.6542 47.8773
  616 1113.58 83.9632 -121.294
  617 -3.14742 -0.722819 5.63175
  618 -3.38928 -0.720530 -5.62913
  619 174.024 -7.48262 11.2181
  620 174.003 -7.47279 -11.3491
  621 645.785 38.8680 16.9850
  622 540.686 -2.43263 -0.720497
  623 539.548 -3.26139 0.238359
  624 401.875 0.0727472 40.9081
  625 568.022 -30.8955 -54.9283
  626 312.956 -25.9457 23.8426
  627 -5.52489 7.25082 -5.83008
  628 -5.66442 7.23854 5.91173
  629 499.282 10.9514 75.6040
  630 201.385 -11.7568 -25.4614
  631 201.208 -11.9466 25.5086
  632 405.854 -24.1741 -1.77404
  633 498.878 -11.4703 -14.1260
  634 288.785 -23.1445 -34.7787
  635 473.275 57.1464 -45.9893
  636 318.387 -21.7841 -60.4352
  637 122.745 -3.30232 -4.23505
  638 122.784 -3.26586 4.18644
  639 291.701 -23.5373 34.9535
  640 620.115 101.672 41.4245
  641 494.555 -23.5820 63.2963
  642 404.841 -18.8828 1.93134
  643 292.380 -8.57232 2.10980
  644 292.307 -8.58803 -2.05557
  645 222.581 -8.72015 -8.09740
  646 222.509 -8.63287 8.02365
  647 475.233 -43.4582 -23.2499
  648 244.681 -14.2225 14.1026
  649 244.931 -14.1655 -14.3479
  650 481.742 73.9491 -6.12277
  651 439.279 -23.7376 9.16460
  652 544.999 -2.84083 -3.65664
  653 469.533 -8.21280 -66.9381
  654 72.8416 -3.13582 16.0579
  655 72.6935 -3.11414 -16.0677
  656 532.854 -3.26698 -8.00466
  657 98.1971 51.0214 -69.9469
  658 99.8546 50.9106 70.2842
  659 544.222 -30.6095 73.9803
  660 190.857 48.2535 113.688
  661 51.3021 -0.400148 16.0501
  662 51.1279 -0.389179 -16.0538
  663 464.888 -28.5609 94.1838
  664 456.231 69.8895 -216.506
  665 451.397 14.6836 -67.0910
  666 590.441 107.259 36.4396
  667 398.082 -18.5205 -0.169066
  668 713.184 127.347 -3.09897
  669 -31.9248 1.64527 -2.28974
  670 -31.7540 1.64123 2.32841
  671 318.631 2.24804 -113.865
  672 30.1317 -0.487881 3.14662
  673 29.9924 -0.489075 -3.17556
  674 398.398 -32.8978 -72.8330
  675 135.117 18.2940 -49.7510
  676 134.075 18.3676 49.7307
  677 5.21012 6.74339 -4.26026
  678 5.39670 6.73549 4.34176
  679 340.118 -29.6629 -18.5685
  680 479.878 -4.74502 -25.5848
  681 232.599 -7.65979 -2.86515
  682 232.616 -7.58247 2.88504
  683 170.072 -8.81717 -16.5369
  684 170.212 -8.93611 16.4846
  685 32.8994 27.0211 -11.3066
  686 33.4263 27.0845 11.4882
  687 487.748 -6.65369 2.12817
  688 222.128 -14.3393 21.4324
  689 223.499 -14.0988 -21.4185
  690 541.225 -42.0510 -1.83584
  691 447.769 -45.0310 -6.66364
  692 353.505 -10.9077 -1.16248
  693 352.293 -10.2441 1.32149
  694 492.039 -51.0742 30.6307
  695 795.256 161.123 45.4780
  696 432.765 -17.7469 -116.016
  697 495.227 -14.1463 25.9593
  698 493.803 -17.8761 -68.2003
  699 159.201 -5.10637 -7.91223
  700 159.214 -5.07147 7.82575
  701 385.531 -5.15951 129.735
  702 1056.57 136.459 124.857
  703 77.0382 21.9594 -29.5150
  704 77.1558 22.1084 29.6094
  705 485.941 -5.57739 -1.02979
  706 489.687 -5.06049 1.06163
  707 209.227 109.579 -182.698
  708 517.718 -3.08386 14.6040
  709 447.935 -8.63858 1.34608
  710 594.317 117.199 -13.1827
  711 63.8295 10.8586 -21.6468
  712 64.1021 10.7917 21.7256
  713 551.433 -1.69082 0.297390
  714 451.170 -18.1409 -9.27383
  715 561.997 -7.15699 53.7851
  716 234.244 -16.5461 -32.9395
  717 234.828 -15.8550 32.6562
  718 58.5210 -1.90381 12.1468
  719 58.3568 -1.88076 -12.1744
  720 507.250 -4.17184 -2.15739
  721 437.896 91.2093 229.285
  722 3.95044 4.37304 13.5363
  723 4.11584 4.47455 -13.4227
  724 509.188 -6.13148 -6.20513
  725 495.218 -9.78302 8.93705
  726 400.075 0.533016 -43.8757
  727 3.96490 -43.3453 -4.93689
  728 3.71918 -43.7920 5.38744
  729 183.683 49.8055 -113.738
  730 397.830 -39.4962 -53.3847
  731 207.975 108.517 184.323
  732 544.863 -1.75845 1.28079
  733 534.118 80.1746 47.8128
  734 394.907 35.6919 -17.2079
  735 694.551 139.891 3.90476
  736 539.372 -2.61744 5.04027
  737 -28.8569 0.783389 4.64308
  738 -29.0822 0.787656 -4.62481
  739 575.494 -30.8324 19.8748
  740 375.507 -11.7436 -1.48499
  741 140.048 0.00936949 -35.8650
  742 140.239 -0.126453 35.6802
  743 494.556 -6.55582 -3.28368
  744 869.999 122.980 -45.8812
  745 65.5896 -1.83960 -7.79284
  746 65.7305 -1.85004 7.74429
  747 548.690 -1.84289 -2.24738
  748 116.318 -5.15024 -10.8373
  749 116.403 -5.16827 10.7649
  750 541.428 -20.5677 -55.9394
  751 500.751 -5.39161 20.4201
  752 452.846 -2.58738 66.4011
  753 548.986 -1.91065 0.154210
  754 514.752 -4.57171 4.64940
  755 341.062 -18.9898 -5.58411
  756 424.549 -12.0855 1.59001
  757 483.123 -29.7661 -42.1649
  758 470.926 -29.8852 26.5705
  759 553.543 67.7224 -60.0454
  760 464.303 -26.5044 19.1993
  761 491.297 -28.8624 54.4712
  762 287.807 -19.8777 15.0222
  763 10.8838 -0.561161 0.922102
  764 10.3355 -0.600523 -0.401668
  765 429.241 -7.47897 -0.196582
  766 428.350 -7.43448 0.0404614
  767 511.422 -3.01807 -0.189553
  768 513.126 -2.92372 0.305210
  769 491.251 -13.9987 32.1715
  770 453.115 -40.6874 69.1329
  771 374.076 -30.7485 8.29991
  772 333.204 -20.4716 8.09737
  773 886.749 113.351 52.7381
  774 495.501 -13.0393 -20.1640
  775 292.548 52.7004 -171.011
  776 461.226 -23.3431 -16.4499
  777 22.6224 0.302672 -11.7902
  778 22.8313 0.285849 11.8081
  779 418.895 36.7569 -38.5411
  780 1026.83 31.1380 -13.2531
  781 520.760 14.2051 -73.5087
  782 21.5214 20.7544 -43.8535
  783 538.456 96.3761 12.1493
  784 417.778 -27.1496 4.03758
  785 471.058 -11.4720 64.8758
  786 395.865 -41.1826 53.6723
  787 625.869 0.707192 106.085
  788 23.1740 25.5634 46.6735
  789 287.909 -1.36121 89.4162
  790 399.292 -11.2579 0.0499506
  791 444.541 -38.9775 -69.9415
  792 276.193 -21.7418 -24.8809
  793 218.607 10.5780 -78.5883
  794 515.786 -7.32154 71.9952
  795 332.783 -23.1662 12.2984
  796 70.3910 -1.90103 6.84416
  797 70.2806 -1.90303 -6.90009
  798 481.331 -2.71511 22.6338
  799 439.508 2.53630 -64.7168
  800 -37.1901 1.76530 4.29893
  801 -37.1335 1.76884 -4.26475
  802 323.967 -10.9638 -2.21557
  803 323.061 -10.4211 2.10855
  804 241.055 27.4714 109.422
  805 217.185 -12.9429 16.3540
  806 217.467 -12.6399 -16.5047
  807 548.199 -1.42248 -1.13759
  808 197.195 15.7151 76.6988
  809 12.9301 -0.186596 4.36239
  810 12.7090 -0.182604 -4.37825
  811 475.701 -14.6051 49.9564
  812 502.972 -5.02151 1.63917
  813 -26.8901 0.385732 7.31009
  814 -26.8968 0.394724 -7.29524
  815 314.220 -19.4992 67.5430
  816 62.3393 53.5847 -59.8863
  817 63.0820 51.2626 59.0326
  818 305.407 13.3618 7.23319
  819 0.686448 -0.361219 -4.98529
  820 0.930901 -0.364340 4.98209
  821 360.339 -33.9997 -50.3690
  822 488.954 -50.8299 -12.2855
  823 -2.46660 -2.33888 -3.12327
  824 -2.45906 -2.33314 3.11143
  825 34.4067 0.796330 -1.06619
  826 34.4867 0.800845 1.04956
  827 435.797 -38.9980 7.58393
  828 368.190 -37.5835 36.0496
  829 406.065 -7.90614 0.375237
  830 367.315 -30.0260 -9.63120
  831 140.371 -2.51286 -0.894823
  832 140.400 -2.46058 0.882830
  833 -41.7012 0.900635 2.30807
  834 -41.6078 0.899552 -2.27421
  835 456.743 -6.91237 -1.32130
  836 411.747 16.4800 -55.2475
  837 462.148 -10.0869 -4.64372
  838 276.785 -21.3980 23.7900
  839 461.302 -7.93369 -53.1388
  840 490.699 -15.1878 -33.2255
  841 458.516 -6.08151 1.16335
  842 337.696 -12.3099 91.6252
  843 360.790 -35.3877 -21.5338
  844 219.595 -1.65719 -60.7626
  845 220.781 -0.133482 61.0782
  846 308.825 -23.5273 -16.2780
  847 510.676 55.8652 62.9628
  848 481.201 -49.2063 -40.0932
  849 179.173 -5.90134 -4.06141
  850 179.169 -5.82113 4.02629
  851 369.569 -9.41285 0.861683
  852 369.589 -9.48163 -0.781206
  853 442.262 -3.23406 -34.8566
  854 153.415 -6.58337 -13.3789
  855 153.507 -6.63151 13.2800
  856 1.88440 -44.6222 -8.51973
  857 1.78855 -44.8167 8.70711
  858 82.1664 -1.20201 -0.166151
  859 82.1105 -1.22428 0.151764
  860 453.575 -8.10259 -1.83055
  861 347.533 -33.1588 32.7458
  862 534.935 -44.7478 12.5361
  863 323.962 6.76903 27.6885
  864 463.846 -11.8068 5.38935
  865 507.421 -44.8843 -32.0078
  866 77.2123 4.55840 -24.3872
  867 77.4383 4.48137 24.3812
  868 404.047 -8.40247 -0.332527
  869 327.765 -12.2146 -3.95321
  870 326.665 -12.1183 4.24598
  871 506.142 78.6647 33.9549
  872 178.378 -1.94886 -42.9871
  873 178.229 -2.15212 42.8192
  874 350.765 -31.9638 17.5818
  875 35.8118 22.6367 -9.88847
  876 36.1506 22.5972 9.98848
  877 297.599 -21.0954 55.4731
  878 355.580 -23.2637 -6.08168
  879 444.679 -3.35286 35.2174
  880 434.699 -48.6250 19.9275
  881 497.637 -37.4834 -46.4218
  882 346.682 -33.4276 -33.1588
  883 289.826 -19.8033 -14.4528
  884 924.187 75.6243 -14.4151
  885 455.053 -48.0531 3.66904
  886 14.5576 15.6133 3.75890
  887 14.7988 15.6457 -3.63118
  888 396.618 -39.8665 11.0695
  889 433.993 -48.3991 -32.2447
  890 15.8897 13.4089 -1.16418
  891 16.1027 13.4147 1.26286
  892 167.603 -6.12072 32.9267
  893 167.687 -6.29496 -33.1024
  894 201.810 -10.3458 36.0585
  895 201.725 -10.5812 -36.2819
  896 626.825 125.586 15.4064
  897 -0.878145 -19.3660 -9.20336
  898 -0.884700 -19.3407 9.19584
  899 147.431 12.2112 -47.3699
  900 146.737 11.9680 46.9407
  901 1060.57 34.3429 -53.2146
  902 28.6845 -0.138141 1.79929
  903 28.5715 -0.141614 -1.82207
  904 2.03427 -49.4790 1.84480
  905 2.35287 -48.5962 -1.09913
  906 -20.7226 -0.217224 7.61031
  907 -20.7477 -0.210669 -7.60833
  908 117.998 34.5115 -55.6014
  909 119.809 33.3641 54.8577
  910 -8.60893 0.699218 -15.7922
  911 -8.65399 0.661872 15.8204
  912 36.9271 2.89478 -16.1231
  913 37.1405 2.85672 16.1491
  914 129.636 -1.67917 30.4250
  915 129.537 -1.67244 -30.5611
  916 107.034 -3.74380 -24.6129
  917 107.150 -3.73809 24.5816
  918 535.777 -2.20121 -7.97459
  919 264.271 58.0351 159.388
  920 364.317 -36.0623 20.3626
  921 261.132 -18.9668 19.3745
  922 499.790 51.9101 -62.3979
  923 1043.15 22.2333 21.3397
  924 587.171 28.5888 -56.8712
  925 103.256 -3.93840 15.4800
  926 103.144 -3.89503 -15.5306
  927 22.2850 -0.614340 -11.3933
  928 22.4920 -0.619832 11.3958
  929 -0.0199982 -8.55252 -17.0322
  930 -0.0976141 -8.62991 17.0902
  931 269.832 -12.3735 8.94291
  932 269.963 -12.6000 -8.97944
  933 35.3116 8.72589 -14.6523
  934 35.5386 8.68775 14.7256
  935 166.599 -7.56000 -28.0952
  936 166.718 -7.56208 28.0824
  937 358.165 -1.28569 -32.5276
  938 172.139 -9.45830 -19.7533
  939 172.037 -9.36327 19.8158
  940 407.098 -12.2849 0.0424204
  941 492.855 -27.8673 -58.7257
  942 219.594 -9.20716 9.37021
  943 219.686 -9.28586 -9.48006
  944 -9.00778 -0.939306 -5.45117
  945 -8.98240 -0.941548 5.43902
  946 499.728 -36.8332 -85.0207
  947 480.086 -28.2851 36.3898
  948 421.741 -29.9220 -5.79314
  949 416.646 14.5845 58.1678
  950 191.249 -10.8944 -22.1863
  951 191.264 -10.6968 22.2510
  952 462.911 18.2084 69.9123
  953 434.418 38.0245 46.0845
  954 866.020 103.627 18.4658
  955 447.471 -16.7724 6.43276
  956 240.189 -7.59951 -4.23721
  957 240.166 -7.46334 4.26864
  958 402.307 -33.3101 1.33405
  959 558.253 102.227 -28.1102
  960 487.865 -6.02934 -2.19629
  961 324.671 -8.73635 1.41137
  962 324.552 -8.67512 -1.32126
  963 42.6640 36.5120 -27.3234
  964 43.7126 36.4633 27.5158
  965 77.4889 211.410 -177.114
  966 462.357 -10.7146 52.8106
  967 571.046 -8.98678 -47.1692
  968 -7.77671 5.62184 1.95661
  969 -7.62328 5.62167 -1.87902
  970 1138.27 274.959 -217.804
  971 489.606 -52.6358 1.61738
  972 521.178 -46.9606 -25.0818
  973 482.554 -41.1971 32.2453
  974 599.157 117.393 11.0352
  975 44.6387 49.5182 -56.0008
  976 110.566 184.023 174.863
  977 -2.57886 -6.29161 17.1908
  978 -2.53079 -6.23485 -17.1619
  979 468.241 -12.6957 6.91910
  980 751.096 132.247 -17.4337
  981 45.9055 48.4911 58.0867
  982 -2.05033 -7.04107 -6.06187
  983 -2.05055 -7.02102 6.04560
  984 403.151 -10.2828 -0.440889
  985 303.552 -24.3113 -26.0150
  986 486.408 -38.2625 -38.9962
  987 141.070 38.0228 -72.7335
  988 143.303 38.6401 72.9184
  989 474.130 -11.6992 -46.8834
  990 474.972 -15.6383 13.8662
  991 -12.0298 3.48451 13.6916
  992 -11.9661 3.51802 -13.6451
  993 289.924 -19.0585 -52.3077
  994 480.193 31.1922 -69.8572
  995 356.061 -14.0936 2.55410
  996 258.892 -7.90453 0.847125
  997 258.841 -7.95100 -0.818279
  998 -5.26101 -5.98648 -12.5066
  999 -5.26830 -5.99941 12.4954
  1000 481.417 -17.6640 -17.4167
  1001 457.493 -5.98553 0.307368
  1002 457.073 -5.99264 -0.127113
  1003 633.922 105.279 -37.4515
  1004 118.043 9.93295 -37.6986
  1005 118.338 9.73522 37.6259
  1006 77.6552 -0.851904 -20.5150
  1007 77.8036 -0.867039 20.4969
  1008 524.383 28.9348 74.3652
  1009 492.726 -9.89842 -9.38591
  1010 90.5871 13.8970 -31.0457
  1011 90.9419 13.7955 31.1578
  1012 512.114 -3.37956 -1.34551
  1013 481.571 -21.1420 -27.1877
  1014 470.312 -52.4428 -23.7418
  1015 19.0492 17.0438 1.78987
  1016 18.5452 16.9629 -1.55992
  1017 -21.7869 3.85434 7.82476
  1018 -21.7041 3.86540 -7.76849
  1019 295.661 10.9105 -12.0913
  1020 808.343 203.412 -60.4814
  1021 373.574 -27.6769 -4.67541
  1022 249.184 -10.9020 -53.7288
  1023 593.663 -21.7144 0.113701
  1024 250.156 -10.8804 54.4568
  1025 428.246 -49.3496 37.0750
  1026 485.259 -20.1308 -41.9752
  1027 171.922 -4.23390 -1.29734
  1028 171.943 -4.16688 1.29006
  1029 333.504 -26.3914 -14.5946
  1030 206.628 -7.84663 -42.2559
  1031 206.565 -7.90588 42.0620
  1032 69.4570 45.6936 -46.0381
  1033 70.5355 45.5799 46.1764
  1034 145.840 -4.71437 -4.57560
  1035 145.861 -4.66031 4.52464
  1036 431.047 -14.4528 2.86297
  1037 364.865 2.70147 -131.194
  1038 446.523 -15.2290 -6.47209
  1039 404.851 -44.6424 -23.4343
  1040 269.198 -11.8235 6.26653
  1041 269.408 -11.9063 -6.28180
  1042 519.019 -3.76383 1.70084
  1043 466.421 -11.8273 -6.46663
  1044 310.734 7.64361 22.8512
  1045 501.392 -5.01512 -19.0161
  1046 196.642 58.5042 128.594
  1047 515.079 -4.91332 -15.4713
  1048 138.007 23.0554 -55.2940
  1049 134.004 23.3053 53.1406
  1050 613.296 -7.84201 -2.23953
  1051 58.1345 29.8862 -24.8471
  1052 58.6567 29.6783 24.8487
  1053 10.1596 1.08872 3.92306
  1054 10.6382 1.18092 -3.60801
  1055 86.6365 -2.25333 5.43737
  1056 86.5531 -2.26689 -5.49621
  1057 223.174 59.1645 -142.013
  1058 1172.55 313.102 234.472
  1059 479.968 -17.6463 17.8579
  1060 432.053 -48.2745 -18.2220
  1061 302.578 -24.9052 -40.9875
  1062 -5.14967 6.98320 11.4509
  1063 -5.03298 7.02138 -11.3722
  1064 340.650 -18.1368 4.64247
  1065 374.626 -14.6719 1.49263
  1066 -0.148362 -27.3950 8.82767
  1067 -0.139099 -27.4247 -8.82609
  1068 58.3090 35.9143 -29.2697
  1069 58.9846 35.8552 29.4373
  1070 336.233 -16.7456 -4.45944
  1071 28.8609 12.3796 9.87355
  1072 28.6367 12.3945 -9.78126
  1073 510.601 -19.5235 68.1797
  1074 370.876 -38.2819 -35.8687
  1075 304.351 -25.3027 40.9887
  1076 487.673 -9.18841 -72.4335
  1077 509.836 -6.15646 6.79527
  1078 188.690 29.2342 87.1079
  1079 190.034 27.9687 -85.6861
  1080 301.908 -14.3800 -73.5330
  1081 424.169 -15.9481 -2.77326
  1082 346.891 -21.3695 7.79335
  1083 405.005 -38.0302 -4.26323
  1084 549.734 -2.18524 -3.95877
  1085 302.170 -14.4428 7.09119
  1086 302.041 -15.2297 -7.25061
  1087 11.1184 12.7670 8.53640
  1088 11.3669 12.8587 -8.39276
  1089 492.272 18.8007 -75.0129
  1090 113.704 5.47279 -33.4242
  1091 114.008 5.35007 33.3446
  1092 86.6584 1.44104 -24.2385
  1093 86.8465 1.39487 24.2036
  1094 555.579 -19.1310 106.249
  1095 484.559 -22.3944 41.2411
  1096 240.390 -11.1272 -45.8923
  1097 557.591 -2.39449 -2.35074
  1098 632.093 120.232 -27.9815
  1099 508.617 -5.45637 -4.08998
  1100 479.570 -51.3249 12.1124
  1101 356.803 -26.7068 64.9280
  1102 560.500 -0.935133 0.323855
  1103 310.174 9.59768 -19.3594
  1104 407.787 -43.5985 -12.5802
  1105 240.786 -11.6234 45.4318
  1106 411.494 -37.7063 1.91935
  1107 509.988 -7.72893 13.3920
  1108 375.034 23.7208 29.9979
  1109 258.288 -19.1079 -36.9973
  1110 763.904 116.346 -53.0422
  1111 580.382 27.9662 60.1349
  1112 440.426 54.9567 7.29927
  1113 555.610 -0.153711 1.98844
  1114 225.170 -14.2347 -28.6817
  1115 153.182 96.9096 -143.143
  1116 272.341 7.88240 -103.354
  1117 312.434 -24.3262 18.9624
  1118 264.915 -19.9563 34.8607
  1119 224.662 -13.5585 28.9507
  1120 468.915 4.61779 73.2893
  1121 353.679 -13.1355 -2.12659
  1122 548.675 -4.27569 5.47151
  1123 -3.90289 0.0840738 17.0262
  1124 -3.83647 0.141680 -16.9823
  1125 369.894 -11.4500 1.21097
  1126 0.394917 4.82324 14.9728
  1127 0.515566 4.89923 -14.8880
  1128 212.022 -7.02354 5.08836
  1129 212.031 -7.12528 -5.09362
  1130 519.546 -2.92079 12.8364
  1131 419.281 -26.2228 -4.53086
  1132 393.256 -21.6940 0.151983
  1133 438.964 -31.1256 11.6103
  1134 136.366 68.8934 -107.603
  1135 429.937 -17.0537 4.12482
  1136 68.6768 1.05428 -19.9832
  1137 68.8557 1.02220 19.9736
  1138 92.0106 59.9755 -76.7297
  1139 683.370 93.5641 14.3439
  1140 54.9516 -2.37821 11.7454
  1141 54.7802 -2.35939 -11.7599
  1142 93.6572 59.1241 74.2294
  1143 394.970 -33.4063 -2.91888
  1144 204.267 -9.79502 11.4205
  1145 204.290 -9.83593 -11.5832
  1146 798.249 169.889 -48.5073
  1147 434.334 -43.5330 -0.492941
  1148 150.990 90.9412 142.891
  1149 13.4585 0.813148 -13.9066
  1150 14.4568 0.986818 15.0720
  1151 462.419 57.9426 36.6730
  1152 36.6299 19.0337 -10.2350
  1153 36.9135 19.0419 10.3191
  1154 437.119 -38.2378 -8.25466
  1155 -0.190858 -42.0904 -8.18452
  1156 -0.210583 -42.0929 8.22184
  1157 466.741 -39.4417 -21.7828
  1158 -0.660824 0.542109 3.88495
  1159 -0.908293 0.545720 -3.89227
  1160 74.3350 27.2005 -31.3535
  1161 74.7332 27.3203 31.0954
  1162 -18.9683 0.0417899 -4.75854
  1163 -18.7160 0.0401068 4.76401
  1164 464.228 -5.99622 -0.271991
  1165 -44.7700 1.37340 0.346938
  1166 -44.6407 1.37284 -0.315529
  1167 250.157 -19.8101 -27.8306
  1168 6.79679 -55.7746 -7.79519
  1169 129.946 -3.76290 8.59127
  1170 129.890 -3.77459 -8.67444
  1171 396.608 -8.57962 0.766520
  1172 397.348 -8.38531 -0.690768
  1173 7.30183 -52.9062 9.24514
  1174 469.465 -24.9062 -22.2319
  1175 533.617 -2.69726 9.29306
  1176 477.288 -30.7215 -33.3065
  1177 421.769 3.34520 57.7126
  1178 2.49285 -15.6679 11.9046
  1179 2.69877 -15.5381 -11.6915
  1180 308.220 -22.8101 15.4487
  1181 -20.3551 2.02896 10.9878
  1182 -20.3172 2.04583 -10.9538
  1183 788.064 124.625 8.92739
  1184 908.634 296.986 -208.553
  1185 487.736 -47.0681 27.3045
  1186 206.873 -6.37363 -0.826553
  1187 206.892 -6.30295 0.827331
  1188 983.981 95.5904 -88.7121
  1189 77.5827 -1.98598 12.1815
  1190 77.4412 -1.95698 -12.2211
  1191 458.756 -1.48996 -22.7049
  1192 295.882 -24.0870 31.3754
  1193 482.406 -46.9765 -18.8575
  1194 467.175 -34.1286 -25.2705
  1195 287.844 -9.86557 76.9720
  1196 109.074 19.9295 -42.3453
  1197 109.024 19.7543 42.1231
  1198 142.114 53.0248 -91.8065
  1199 142.324 49.1298 91.8183
  1200 42.9804 11.7340 -15.5783
  1201 43.2247 11.7008 15.6664
  1202 577.868 100.633 -40.8948
  1203 31.3787 28.9966 -14.7891
  1204 32.0815 29.0470 15.0026
  1205 416.440 -32.3256 3.24171
  1206 767.156 120.645 58.9582
  1207 105.525 -4.31745 -8.47189
  1208 105.610 -4.31635 8.39863
  1209 493.914 366.425 -303.406
  1210 396.177 23.6865 -46.1962
  1211 365.845 27.8642 18.9274
  1212 52.3796 21.3007 -18.3811
  1213 52.6225 21.3038 18.4759
  1214 18.0385 -0.114885 2.83163
  1215 17.8645 -0.114721 -2.85367
  1216 460.546 -37.1381 20.2779
  1217 452.347 -18.8117 10.3472
  1218 310.608 92.4716 -220.197
  1219 712.054 156.000 -11.7295
  1220 309.217 -8.97927 -84.4954
  1221 398.384 -13.1823 -0.597988
  1222 29.2308 -1.94101 -0.623544
  1223 29.2921 -1.93941 0.620077
  1224 -7.05320 3.13815 -6.94201
  1225 -6.85431 3.12561 6.99066
  1226 269.541 3.30914 -88.7187
  1227 489.679 -11.4174 12.3193
  1228 321.354 6.91857 120.069
  1229 433.080 -22.0930 -7.15177
  1230 225.508 82.6072 -174.445
  1231 348.965 -16.3027 -91.0245
  1232 414.582 -44.2544 10.2770
  1233 505.159 -8.34730 20.6920
  1234 443.291 -10.2301 -2.24620
  1235 249.148 -18.6265 27.9774
  1236 555.545 -29.8284 -35.8240
  1237 530.467 46.9282 70.3016
  1238 233.546 1.17300 -70.6643
  1239 521.809 -3.90297 1.37243
  1240 429.871 53.2140 -10.4371
  1241 189.108 -6.85048 -8.40509
  1242 189.083 -6.78437 8.32333
  1243 798.673 191.477 53.3395
  1244 1079.65 28.6695 49.8176
  1245 1.03254 -51.2428 -8.09414
  1246 1.00046 -51.2961 8.15777
  1247 121.684 65.4892 100.955
  1248 288.370 -9.15190 -2.08749
  1249 288.432 -9.10247 2.19159
  1250 391.617 -39.5354 -13.2697
  1251 469.704 38.9312 63.3681
  1252 485.454 -10.3268 -7.58298
  1253 559.578 -1.74788 -0.554471
  1254 967.612 216.678 -137.834
  1255 158.447 -6.08150 8.83666
  1256 158.421 -6.09318 -8.93745
  1257 467.232 -43.3409 20.5830
  1258 811.845 205.804 -69.3067
  1259 452.735 -20.4299 -11.7762
  1260 333.415 -23.6688 -11.3447
  1261 407.448 -44.1488 22.9269
  1262 398.357 -20.6570 0.764756
  1263 15.5348 7.98446 -21.0676
  1264 542.357 -31.8500 43.7832
  1265 440.551 -29.3054 -11.3800
  1266 17.0645 8.74692 23.0618
  1267 452.329 -34.7661 -85.8285
  1268 426.923 29.4640 -180.239
  1269 699.626 93.4654 -7.33449
  1270 561.609 -0.688253 -0.151809
  1271 560.679 -1.20195 0.473128
  1272 447.915 -26.6709 12.7098
  1273 175.806 20.9477 -69.7478
  1274 509.679 -44.6786 34.9773
  1275 859.951 198.073 93.8193
  1276 216.728 76.5877 170.110
  1277 6.65632 1.92755 11.8910
  1278 6.88393 2.04170 -11.7341
  1279 533.757 -41.3814 -48.2419
  1280 220.240 -12.2990 -13.6095
  1281 220.211 -12.3316 13.3929
  1282 499.427 -32.4928 55.9304
  1283 22.8996 0.0695279 12.7048
  1284 22.6940 0.0793000 -12.6975
  1285 -2.59226 -10.2346 14.3348
  1286 -2.57384 -10.2126 -14.3384
  1287 94.9635 -3.23720 -11.1046
  1288 95.0736 -3.25578 11.0421
  1289 265.756 -17.8409 -41.8052
  1290 268.255 -9.46105 2.93485
  1291 268.242 -9.64897 -2.83659
  1292 559.972 -0.670397 0.221163
  1293 502.428 -8.02491 -23.3616
  1294 45.1660 1.74567 -16.1439
  1295 45.3649 1.71735 16.1538
  1296 266.809 -18.8535 41.5103
  1297 564.890 -0.774873 0.268421
  1298 534.987 -1.04770 -0.614122
  1299 534.941 -1.37235 0.483742
  1300 710.672 152.853 1.25128
  1301 522.532 -4.17731 -3.26235
  1302 465.589 -5.71447 0.109379
  1303 515.565 -8.30968 -11.8336
  1304 557.499 -2.05731 1.53376
  1305 587.295 62.1054 59.5677
  1306 679.155 142.839 11.1502
  1307 543.804 -2.38358 -6.08219
  1308 -4.57993 -1.13630 4.09298
  1309 -4.59854 -1.13555 -4.10582
  1310 307.108 -19.8724 10.9739
  1311 307.052 -19.0284 -10.6946
  1312 592.592 68.7329 -56.3286
  1313 126.412 43.7995 -76.3374
  1314 127.223 42.6295 75.5523
  1315 405.988 0.112599 -28.8743
  1316 411.529 -7.63890 -0.701501
  1317 411.027 -7.58607 0.614920
  1318 -9.67557 -1.46764 14.5509
  1319 -9.65805 -1.44051 -14.5462
  1320 460.077 -1.20979 22.6587
  1321 694.376 137.954 -4.63214
  1322 56.1834 -1.92029 -6.99070
  1323 56.3220 -1.92470 6.94156
  1324 512.662 -48.4953 17.2377
  1325 1.90800 9.05030 11.4827
  1326 2.05941 9.10462 -11.3845
  1327 101.832 -2.31267 -2.40491
  1328 101.883 -2.27951 2.37190
  1329 406.071 -0.492435 29.3223
  1330 24.5401 0.829242 -1.09528
  1331 24.6352 0.832424 1.07857
  1332 519.323 -6.56390 7.42328
  1333 726.342 131.501 8.21623
</Section>

newXOutput 67

<Section columns = "stress_xx | stress_yy | stress_xy">
  1 581.453 -1.72703 1.06211
  2 582.316 -2.14914 -1.37856
  3 19.6258 0.532192 -1.47638
  4 -0.445422 -0.660049 -0.450434
  5 1049.62 439.205 348.951
  6 1065.77 501.255 -352.322
  7 -0.440712 -0.655903 0.444346
  8 19.5634 0.529173 1.47299
  9 585.276 -1.23609 -0.962214
  10 581.206 -2.16068 -1.41881
  11 581.788 -1.71937 1.17956
  12 579.247 -1.03345 0.416006
  13 578.358 -2.03446 -0.503561
  14 577.853 -1.97304 2.07608
  15 570.185 -1.45812 1.89760
  16 572.743 -4.18649 3.06057
  17 556.001 -3.52151 6.76724
  18 545.601 -1.66840 8.16713
  19 531.081 -1.97365 8.86395
  20 505.543 -1.75656 12.5525
  21 477.488 -1.45409 14.6652
  22 442.193 1.89753 20.2573
  23 393.581 2.95444 18.4128
  24 373.907 -0.0426360 26.4490
  25 312.813 4.43366 18.8647
  26 275.398 5.76301 14.8360
  27 265.644 2.98374 10.9601
  28 255.188 8.46238 0.831399
  29 260.932 9.06120 -14.6736
  30 272.371 2.67947 -18.4006
  31 318.338 1.29056 -24.4972
  32 364.428 -2.22634 -25.2958
  33 395.314 2.45458 -18.3713
  34 442.699 2.15164 -20.2521
  35 476.306 -1.71519 -15.7319
  36 508.311 -1.93846 -11.8244
  37 529.096 -1.47457 -9.00980
  38 544.009 -1.78202 -7.45404
  39 560.093 -2.06534 -4.26434
  40 566.101 -2.18615 -4.04072
  41 572.021 -2.05502 -3.58973
  42 577.980 -2.31959 -0.574222
  43 580.171 -2.90597 -1.41930
  44 576.660 -0.0383495 0.0492687
  45 581.107 -1.59373 -1.34983
  46 583.312 -3.10584 1.54713
  47 585.952 -1.81755 -0.0559377
  48 557.614 -0.0192993 -0.878758
  49 525.756 -2.81594 -1.63045
  50 489.516 -5.90631 -2.27366
  51 451.861 -5.20743 -1.63866
  52 418.884 -7.90860 -1.50107
  53 383.976 -8.51370 -1.35147
  54 348.677 -7.52329 -0.604073
  55 311.463 -7.94453 -0.865413
  56 279.941 -8.28034 -1.16671
  57 237.930 -7.83132 -0.921488
  58 194.656 -5.00808 -0.589954
  59 158.844 -3.23710 -0.453684
  60 114.615 -2.03691 -0.125667
  61 82.5142 -1.88406 -2.16357
  62 52.7352 -2.48582 -0.679962
  63 22.6814 0.278269 1.41258
  64 14.7410 2.08562 0.610297
  65 12.3496 0.842118 1.52841
  66 13.1323 0.378525 1.55358
  67 6.48965 1.19626 0.818460
  68 3.70689 1.57617 3.18448
  69 2.08617 0.560113 1.33490
  70 -9.08627 1.18527 1.44195
  71 -14.5890 0.803570 3.10723
  72 -17.2969 0.251269 3.29138
  73 -29.7927 1.09907 2.68894
  74 -34.8089 1.66015 4.80452
  75 -40.6185 1.00786 2.01985
  76 -46.9642 0.739671 2.76439
  77 -50.0712 0.782821 1.33092
  78 -56.4281 1.94416 -0.939368
  79 -57.7074 1.33129 -0.675346
  80 -53.0915 0.990656 -1.59715
  81 -45.9441 1.32802 -3.33910
  82 -37.6555 0.613863 -5.29776
  83 -28.2846 0.347824 -5.60333
  84 -17.0590 -0.538341 -5.91795
  85 -7.51568 -0.439671 -3.49958
  86 -3.18340 -1.22541 -2.20291
  87 -0.512712 -3.17982 -1.92337
  88 -0.845035 -8.12544 -3.37151
  89 -0.970605 -15.6848 -5.85442
  90 -0.159447 -29.2483 -6.25728
  91 0.383561 -40.1851 -7.79018
  92 0.855895 -57.6120 -6.32329
  93 2.56231 -68.0076 -7.38824
  94 0.504478 -72.4213 -5.89138
  95 -0.0460266 -82.1382 -3.14007
  96 2.34351 -77.7964 0.0947070
  97 9.60062 -100.061 5.73848
  98 8.95224 -47.8087 17.0533
  99 20.8745 -10.8598 36.0602
  100 61.3543 120.116 106.646
  101 252.984 354.430 290.984
  102 1374.59 149.738 202.820
  103 1157.59 41.1260 72.8705
  104 1103.67 17.5429 25.0196
  105 1074.07 11.4131 -0.140949
  106 1093.07 16.7098 -20.6175
  107 1167.91 35.0955 -60.2023
  108 1360.29 118.318 -188.362
  109 164.638 401.159 -240.779
  110 43.1926 93.2720 -83.1420
  111 15.4274 -20.9988 -30.3242
  112 8.12048 -53.7463 -14.8899
  113 9.54118 -104.298 -4.69472
  114 2.23532 -79.6654 0.637852
  115 -0.184962 -83.0690 3.52078
  116 0.416317 -72.7766 6.09488
  117 2.51394 -68.0852 7.47378
  118 0.837352 -57.5731 6.35452
  119 0.369589 -40.1236 7.80087
  120 -0.166270 -29.1727 6.25286
  121 -0.971378 -15.6369 5.84138
  122 -0.846855 -8.08465 3.35946
  123 -0.512311 -3.16452 1.91280
  124 -3.16506 -1.22360 2.19403
  125 -7.48299 -0.441692 3.48992
  126 -17.0166 -0.543158 5.91195
  127 -28.2352 0.342444 5.60432
  128 -37.6270 0.607971 5.30778
  129 -45.9537 1.32378 3.35911
  130 -53.1405 0.990275 1.61882
  131 -57.8077 1.32999 0.696584
  132 -56.5710 1.94379 0.961548
  133 -50.2631 0.784803 -1.31141
  134 -47.1931 0.742112 -2.74975
  135 -40.8660 1.01068 -2.00809
  136 -35.0780 1.66352 -4.79931
  137 -30.0702 1.10226 -2.68456
  138 -17.5721 0.253212 -3.29152
  139 -14.8661 0.806954 -3.11105
  140 -9.35186 1.19000 -1.44780
  141 1.85022 0.563238 -1.34634
  142 3.50055 1.57946 -3.20192
  143 6.30998 1.19721 -0.833839
  144 12.9940 0.377922 -1.56865
  145 12.2416 0.840646 -1.54056
  146 14.6534 2.08309 -0.620800
  147 22.6118 0.276518 -1.41879
  148 52.6722 -2.49501 0.673721
  149 82.4568 -1.90685 2.15680
  150 114.571 -2.07720 0.116587
  151 158.817 -3.29531 0.449042
  152 194.633 -5.07545 0.589352
  153 237.897 -7.88936 0.930857
  154 279.870 -8.30849 1.18602
  155 311.351 -7.90632 0.910767
  156 348.523 -7.38756 0.655808
  157 383.765 -8.19583 1.27423
  158 419.069 -8.00192 1.31218
  159 452.002 -5.77451 1.73245
  160 489.892 -5.80302 2.06035
  161 526.771 -2.51550 1.65332
  162 556.762 -0.0540034 0.856392
  163 330.160 -29.9081 -29.9803
  164 328.872 -30.4554 29.9077
  165 101.541 27.7019 -42.3997
  166 102.533 27.7985 42.2297
  167 387.561 -17.5110 103.351
  168 405.894 -19.8733 -100.638
  169 194.749 -10.4231 14.0581
  170 194.719 -10.3230 -14.2350
  171 413.555 -15.3577 0.627710
  172 405.511 -15.4007 -0.470924
  173 554.418 99.4257 -12.9184
  174 558.590 5.30725 -65.8769
  175 547.967 9.43399 71.4210
  176 136.413 -5.28362 -28.7142
  177 136.432 -5.24769 28.6654
  178 482.882 -47.6206 21.4812
  179 482.515 -37.1537 -31.9972
  180 7.72760 12.0117 10.3674
  181 7.92889 12.0878 -10.2471
  182 659.660 134.843 16.5707
  183 129.988 58.7678 -93.2444
  184 139.265 59.2899 99.7472
  185 466.684 -22.3988 14.2965
  186 698.921 148.155 -4.21384
  187 305.821 -11.8425 -4.65575
  188 305.346 -12.1278 4.62665
  189 479.228 -15.8009 -13.1948
  190 635.158 -0.736828 -14.4990
  191 125.204 -3.78753 5.48550
  192 125.155 -3.81786 -5.55253
  193 54.5149 6.43621 -19.8095
  194 54.7547 6.37033 19.8562
  195 272.868 -10.3335 -65.7687
  196 271.809 -10.8842 66.5964
  197 325.094 -21.6199 -11.6116
  198 325.735 -21.4995 12.2398
  199 89.9231 -3.13379 15.4653
  200 89.7897 -3.09298 -15.4940
  201 627.986 -7.53201 46.6009
  202 516.375 -50.0219 -6.20743
  203 488.785 -5.85962 -1.69732
  204 478.282 -6.99711 1.68070
  205 492.363 57.9899 51.1075
  206 22.0424 20.0282 -9.14422
  207 22.8089 19.9996 9.48615
  208 487.991 -19.3787 59.3667
  209 453.195 34.8953 -59.0164
  210 319.191 75.6431 -208.697
  211 335.652 63.9762 194.047
  212 10.7199 10.9847 -2.79437
  213 10.9139 10.9838 2.88841
  214 486.633 -17.0195 -61.4459
  215 836.928 116.594 -8.34766
  216 404.293 -43.7575 39.0943
  217 407.240 -43.5300 -37.1397
  218 404.041 -29.3858 0.280018
  219 497.154 -8.65879 6.82261
  220 246.083 -17.1043 -25.5335
  221 242.352 -17.0405 26.2492
  222 149.481 2.84649 -42.7487
  223 149.699 2.79202 42.4142
  224 511.540 -53.0832 -10.0284
  225 400.767 -31.1911 -2.02848
  226 495.321 -8.49966 -5.15314
  227 388.649 -11.0249 -0.718458
  228 391.916 -10.3605 1.43288
  229 491.151 -22.1770 33.3344
  230 47.3386 0.295422 -16.5271
  231 47.5292 0.275636 16.5288
  232 -5.90381 -3.86047 -16.4014
  233 -5.93552 -3.90048 16.4140
  234 82.4525 -3.42717 -9.04919
  235 82.5689 -3.43542 8.98580
  236 213.173 -6.76328 6.30900
  237 213.213 -6.87169 -6.35164
  238 242.136 17.1308 -95.0214
  239 242.167 14.3495 93.9741
  240 497.750 -15.8800 -28.5303
  241 238.095 -14.0268 -40.5909
  242 238.306 -14.4480 40.0656
  243 444.289 7.21468 66.9753
  244 392.774 33.6099 4.07137
  245 428.542 -42.8377 1.70381
  246 2.30272 -9.33269 -14.2647
  247 2.15845 -9.44845 14.3896
  248 28.8838 32.1660 -34.0638
  249 30.6769 31.1849 35.6413
  250 421.527 -41.9273 -4.47132
  251 752.031 146.409 -18.1367
  252 41.7383 27.7736 -15.6029
  253 42.2213 27.7672 15.7654
  254 -15.1531 3.71353 10.6670
  255 -15.0701 3.73291 -10.6091
  256 755.154 137.916 22.6348
  257 270.838 -13.5542 -10.6938
  258 270.642 -13.3516 10.5164
  259 522.022 -34.5228 53.5964
  260 931.206 151.897 95.6550
  261 161.588 -8.62017 -23.7518
  262 161.568 -8.68074 23.7347
  263 535.913 80.4464 -48.2022
  264 900.161 171.766 -88.2091
  265 633.998 66.1594 43.1140
  266 682.186 50.4823 -133.854
  267 428.128 -21.0356 4.26979
  268 489.395 3.01169 -74.4395
  269 460.957 -32.9310 -17.2502
  270 511.920 -9.64334 17.8891
  271 3.18005 4.94738 -6.77652
  272 3.37553 4.93241 6.84448
  273 506.266 -13.9689 -128.444
  274 58.0702 17.0569 -20.2567
  275 58.3402 17.0290 20.3606
  276 493.470 -12.0099 -37.3344
  277 72.8767 79.3350 -97.0941
  278 67.5955 -0.343769 -2.12102
  279 67.6667 -0.331068 2.09324
  280 520.351 -31.5420 -56.1226
  281 94.5812 42.4892 -53.0287
  282 95.9248 42.2748 53.1788
  283 32.5154 -0.882915 11.4749
  284 32.3135 -0.872686 -11.4801
  285 427.455 -20.0540 -4.19367
  286 73.3943 78.5252 99.5736
  287 670.690 59.8611 155.837
  288 191.836 -7.86087 -8.70230
  289 191.812 -7.81522 8.59665
  290 343.841 -15.1015 -4.69496
  291 343.679 -16.2561 5.10728
  292 293.491 29.5313 -142.548
  293 469.797 -51.1353 -3.74588
  294 530.340 -3.91743 2.93007
  295 282.862 29.6179 138.101
  296 329.621 -9.90839 -1.64509
  297 329.499 -9.90355 1.91814
  298 461.735 -34.2064 17.5583
  299 526.970 -6.15846 -8.09363
  300 0.559846 1.93839 -9.25472
  301 0.777148 1.92382 9.28826
  302 667.053 131.904 -3.99509
  303 581.285 -25.2517 25.6731
  304 522.252 -3.51523 -0.659838
  305 531.007 -3.07901 0.598479
  306 523.912 -44.3700 49.0656
  307 645.814 70.6148 -39.3171
  308 570.149 105.798 26.9815
  309 258.929 -16.2612 -16.5893
  310 256.661 -16.5469 16.8771
  311 529.600 -3.85377 -1.79489
  312 352.752 -26.1911 -71.8654
  313 347.638 -27.8720 14.5780
  314 331.327 -17.5787 81.4644
  315 522.870 -6.86680 9.78325
  316 125.634 -5.75657 -14.9395
  317 125.725 -5.79764 14.8826
  318 483.087 -13.6149 126.905
  319 310.983 -24.9500 -20.6487
  320 567.631 73.8589 59.8520
  321 184.145 12.8551 -62.6197
  322 177.455 13.4523 62.1479
  323 60.7205 -1.16383 -3.84237
  324 60.8231 -1.15652 3.79827
  325 463.101 -10.4069 3.44399
  326 444.391 -7.50964 0.157939
  327 441.976 -8.11520 -0.301436
  328 490.130 -12.6364 39.6256
  329 49.2353 -1.65494 8.67437
  330 49.0602 -1.64009 -8.70818
  331 149.401 -3.70869 -3.19599
  332 149.425 -3.65347 3.16670
  333 5.06510 -20.1790 -7.12059
  334 4.75350 -20.3598 7.49172
  335 388.408 17.0133 45.6952
  336 586.748 -23.1752 -19.7154
  337 382.952 -21.1790 -0.980002
  338 430.785 -9.84043 -1.24677
  339 457.546 56.7084 -27.6183
  340 93.8231 -3.06356 -21.4080
  341 93.9500 -3.06649 21.3952
  342 372.672 -20.0348 2.86327
  343 109.552 3.37854 -30.6174
  344 109.764 3.28775 30.5360
  345 22.5581 17.8224 -2.18995
  346 22.8140 17.8223 2.30065
  347 450.934 -47.5779 49.5132
  348 982.087 64.5890 25.2876
  349 408.027 6.55038 -54.0121
  350 337.901 -30.2194 45.2697
  351 336.190 -29.5877 -46.5537
  352 496.760 -7.77658 73.4838
  353 444.581 -2.96281 53.0711
  354 445.231 -45.9940 -50.9936
  355 269.472 -7.63088 0.965669
  356 269.428 -7.70809 -0.900721
  357 492.520 -32.0569 43.7685
  358 674.544 133.528 1.27578
  359 525.898 -6.46209 -13.2120
  360 142.230 -5.52123 -10.9787
  361 142.298 -5.52672 10.8829
  362 496.448 -45.6111 -60.8991
  363 525.174 37.5350 -72.8625
  364 359.744 19.3374 -29.4107
  365 496.164 -32.8552 -50.4307
  366 -15.8309 0.715175 -12.6190
  367 -15.8477 0.694767 12.6351
  368 416.634 -11.0493 0.169312
  369 -5.91432 -3.49956 -7.73910
  370 -5.90649 -3.50042 7.72224
  371 320.292 168.762 -252.682
  372 14.0780 12.8195 6.20355
  373 14.4029 12.9167 -6.02880
  374 441.400 -3.12494 -52.6454
  375 245.641 -10.9932 8.09075
  376 245.802 -11.1292 -8.16516
  377 -1.47904 -17.1460 14.4039
  378 -1.45220 -17.1150 -14.3899
  379 261.596 176.567 238.330
  380 201.892 -10.9242 -32.0452
  381 202.061 -10.4769 32.0696
  382 65.2884 48.8769 -49.4645
  383 66.6233 48.7651 49.2034
  384 -23.0008 3.89260 3.72605
  385 -22.8862 3.89929 -3.66310
  386 507.514 34.5426 73.3628
  387 388.598 -40.6889 23.2271
  388 389.018 -35.7817 10.9280
  389 469.200 -52.7958 -10.4099
  390 121.503 14.8002 -42.0181
  391 121.909 14.7785 41.9640
  392 11.0928 -11.9803 3.24434
  393 10.5201 -12.2310 -2.42756
  394 481.146 68.4655 18.0166
  395 477.322 -14.5429 10.5986
  396 277.566 -21.7693 29.8964
  397 173.976 -4.60620 -38.0136
  398 174.054 -4.63905 37.7561
  399 351.350 -11.6804 -2.40135
  400 350.988 -10.4001 2.10420
  401 275.281 -22.3303 -31.5746
  402 216.346 -3.81018 -50.7826
  403 216.326 -4.10292 51.1738
  404 498.562 -45.2991 -28.9061
  405 293.360 -22.9622 19.5145
  406 453.173 -14.8193 5.63748
  407 452.241 -13.6293 -4.51180
  408 382.021 -35.5358 -12.2654
  409 540.586 -3.02980 -3.13752
  410 186.136 77.2458 -145.335
  411 512.422 -7.78910 22.4297
  412 539.408 -3.44596 4.92085
  413 199.233 -10.9045 19.7507
  414 199.303 -10.7612 -19.7366
  415 386.876 -40.2080 -23.8870
  416 58.0166 25.1278 21.8758
  417 57.7113 25.1068 -21.8878
  418 991.750 64.5403 -51.5007
  419 444.979 -26.1220 -8.93900
  420 543.541 -2.57876 1.80488
  421 176.056 72.3697 138.710
  422 805.998 135.260 27.8709
  423 475.064 -8.30639 -2.67753
  424 359.146 -26.6437 -9.80551
  425 152.461 29.3968 -70.5379
  426 162.287 27.2156 70.1145
  427 439.890 -28.5239 8.89610
  428 468.920 -5.98242 -38.7774
  429 2.09499 -0.480301 8.65097
  430 1.86399 -0.475458 -8.64347
  431 171.608 41.6992 -93.6729
  432 172.156 41.8443 93.3937
  433 23.2181 9.43472 -10.0947
  434 23.4345 9.41546 10.1794
  435 395.104 -8.88996 0.283876
  436 394.630 -8.69212 -0.155671
  437 490.544 -22.6474 -34.9051
  438 -0.748821 -0.662274 17.1623
  439 -0.660466 -0.582278 -17.0967
  440 504.838 -49.1673 24.5609
  441 476.613 -13.6834 -9.22777
  442 768.882 146.930 -26.0848
  443 39.1795 -1.45247 4.17355
  444 39.0235 -1.45270 -4.21166
  445 917.751 264.842 122.788
  446 19.6045 14.9254 -30.8348
  447 62.4308 2.64806 -21.0336
  448 62.6329 2.60343 21.0361
  449 916.403 271.303 -119.616
  450 20.7764 16.9996 33.6458
  451 -21.4614 2.92771 0.243182
  452 -21.3124 2.92348 -0.183045
  453 54.1350 37.1267 -30.0362
  454 55.0403 37.1527 30.1905
  455 604.658 96.0696 -47.7444
  456 484.398 -19.5287 -21.8362
  457 540.808 -2.65208 -1.53869
  458 506.484 -7.99299 -26.4825
  459 -5.04798 4.19026 15.6065
  460 -4.95784 4.24222 -15.5440
  461 489.523 -20.2401 25.7856
  462 321.656 -18.8202 -9.33257
  463 320.703 -18.9991 8.29166
  464 433.062 -47.6110 -11.0557
  465 310.911 -3.59949 -99.2057
  466 473.227 -7.16985 39.5559
  467 386.266 -13.6168 1.42740
  468 562.901 -40.0560 -12.1583
  469 301.338 3.54530 106.182
  470 29.9073 -0.504615 8.35090
  471 29.7005 -0.495602 -8.36568
  472 622.215 122.860 -20.3520
  473 493.018 -4.73287 -0.0216670
  474 491.384 -5.22483 -0.411277
  475 376.674 -25.8362 5.44487
  476 170.357 -5.96719 -6.25770
  477 170.358 -5.90306 6.19224
  478 101.796 -1.41909 -25.3320
  479 101.921 -1.43887 25.2909
  480 326.319 12.6189 17.6475
  481 86.4497 -2.83603 12.3819
  482 86.3211 -2.81002 -12.4356
  483 89.1148 8.07472 28.6217
  484 88.8225 8.19418 -28.5935
  485 481.658 -37.3611 30.6538
  486 273.162 -17.0547 -47.9383
  487 253.637 -8.85529 4.42460
  488 253.720 -9.05044 -4.42914
  489 275.993 -17.5793 47.9382
  490 748.636 179.956 -22.0797
  491 -11.9537 -1.73882 -9.92967
  492 -11.9460 -1.74836 9.92322
  493 195.322 -5.85384 -2.64274
  494 195.331 -5.77461 2.63378
  495 0.350733 -31.3646 -11.6549
  496 0.271881 -31.4684 11.7622
  497 438.923 -7.80019 0.494764
  498 324.540 15.2268 -8.76675
  499 428.729 44.7776 24.9603
  500 271.044 -2.31232 -79.7390
  501 137.362 -7.06823 18.6868
  502 137.334 -7.00965 -18.7126
  503 -30.0294 1.03262 -3.31529
  504 -29.8233 1.02618 3.34364
  505 520.873 -8.73030 -72.1608
  506 50.8001 0.200312 -2.76502
  507 50.8912 0.206842 2.73325
  508 433.602 -34.6224 -6.27298
  509 461.533 -39.5228 -16.1883
  510 97.1418 76.1516 -100.117
  511 388.073 12.7878 -154.080
  512 6.79328 12.2007 6.10555
  513 6.98245 12.2281 -5.99937
  514 242.065 -11.6674 -11.3196
  515 241.956 -11.5698 11.1130
  516 661.018 32.0241 -7.96362
  517 479.541 -28.6780 -27.9699
  518 94.7678 72.2854 98.7752
  519 474.990 -53.0979 17.8590
  520 457.394 -43.5361 11.5243
  521 104.911 -2.55017 -8.16787
  522 104.988 -2.54110 8.09680
  523 383.980 4.41396 41.8909
  524 275.625 -20.6679 -20.4486
  525 503.958 -11.8985 15.7942
  526 -1.99616 -12.2725 -9.67927
  527 -2.00109 -12.2617 9.66424
  528 356.852 -31.2570 53.5974
  529 538.268 -39.9525 -34.5435
  530 696.462 54.5489 -32.4775
  531 381.807 -14.0495 -1.36434
  532 120.955 -2.32604 -2.34402
  533 120.995 -2.28567 2.32449
  534 244.334 2.22613 76.9616
  535 669.715 115.361 28.3168
  536 671.201 145.800 -241.347
  537 609.749 6.21281 31.3506
  538 441.444 -48.8578 8.76056
  539 1021.50 81.3695 69.2461
  540 765.084 189.424 30.1766
  541 114.979 -4.84997 20.3451
  542 114.885 -4.80311 -20.3725
  543 424.744 -35.6139 3.58461
  544 34.6039 15.5508 -9.78911
  545 34.8491 15.5444 9.88842
  546 531.769 -43.1342 34.6690
  547 441.927 24.2996 61.4614
  548 533.361 -3.80736 8.89270
  549 398.048 -24.6406 0.162357
  550 551.203 9.54285 -162.406
  551 865.971 236.283 163.286
  552 429.574 -9.63613 -0.267125
  553 524.970 -5.72985 -14.6662
  554 86.3129 35.6207 -40.2955
  555 86.9294 35.1979 40.1348
  556 305.114 -13.0571 -6.24443
  557 304.982 -12.7724 6.34599
  558 3.89152 -33.8293 -6.18548
  559 537.706 -17.9824 63.3607
  560 22.5141 19.7819 -0.234874
  561 22.8460 19.8387 0.393284
  562 4.51014 -32.5088 7.34119
  563 490.578 -22.2145 -52.0218
  564 563.852 37.0922 -68.5271
  565 562.113 41.9000 68.6132
  566 28.4795 26.3454 23.4289
  567 27.1074 26.8861 -22.9801
  568 -10.5463 0.472551 6.62858
  569 -10.7816 0.477763 -6.61504
  570 514.335 17.4926 167.167
  571 287.456 -16.4842 11.7047
  572 287.733 -16.4275 -11.8810
  573 618.652 -6.48813 -88.6538
  574 89.0832 -1.25250 4.72841
  575 89.0136 -1.27051 -4.77620
  576 46.8749 -0.993355 -1.09432
  577 46.9442 -0.986874 1.08316
  578 682.705 127.464 -21.2242
  579 66.8666 107.797 -109.750
  580 368.352 7.65145 -35.5528
  581 512.478 81.5849 -30.4517
  582 8.29728 1.45164 9.38930
  583 8.60741 1.56710 -9.18154
  584 504.100 248.098 281.984
  585 436.193 -13.2099 -2.43468
  586 19.3677 4.42104 -11.5583
  587 19.5817 4.38928 11.6120
  588 504.182 -40.0884 43.1567
  589 78.8721 104.675 111.749
  590 365.336 -8.82752 0.764117
  591 365.438 -8.76308 -0.765476
  592 -0.252283 -25.1884 12.3447
  593 -0.212998 -25.1480 -12.3039
  594 622.154 120.413 -0.996422
  595 394.858 -30.9836 74.8487
  596 377.476 -17.0943 -2.31114
  597 378.497 19.6139 162.414
  598 -30.6638 1.68659 7.26858
  599 -30.6336 1.69576 -7.23719
  600 617.038 10.9218 -33.9508
  601 812.465 147.618 -118.761
  602 238.689 24.9880 -109.681
  603 132.847 -5.67209 -24.6839
  604 132.978 -5.67463 24.6918
  605 555.254 -2.16407 2.28613
  606 373.890 -17.4369 1.87402
  607 495.826 -7.67925 4.86017
  608 490.570 -22.2646 50.7496
  609 28.7073 -0.834281 4.22695
  610 28.5207 -0.830830 -4.25499
  611 293.751 -11.0183 -3.69398
  612 293.716 -10.7450 3.60460
  613 184.963 3.89732 -52.3214
  614 183.810 3.95191 52.1137
  615 700.135 47.5964 48.8809
  616 1128.62 85.0992 -122.906
  617 -2.91048 -0.734294 5.74190
  618 -3.15644 -0.731975 -5.73917
  619 176.850 -7.61057 11.4478
  620 176.827 -7.60052 -11.5806
  621 655.010 39.6034 16.9153
  622 548.279 -2.49188 -0.724125
  623 547.127 -3.33148 0.236039
  624 408.051 0.0847141 41.4197
  625 576.136 -31.2144 -55.9426
  626 317.669 -26.3495 24.3247
  627 -5.52745 7.36805 -5.86126
  628 -5.66911 7.35552 5.94421
  629 506.670 11.1543 76.4873
  630 204.555 -11.9506 -25.9476
  631 204.376 -12.1433 25.9955
  632 411.818 -24.5616 -1.68214
  633 506.059 -11.6631 -14.2466
  634 293.160 -23.5023 -35.4269
  635 480.425 58.0156 -46.5283
  636 323.156 -22.1014 -61.4723
  637 124.888 -3.35971 -4.32192
  638 124.928 -3.32275 4.27267
  639 296.116 -23.9000 35.6065
  640 629.139 103.230 41.7512
  641 501.816 -23.9026 64.0105
  642 410.782 -19.1993 1.86313
  643 296.821 -8.73781 2.15523
  644 296.747 -8.75368 -2.10027
  645 226.079 -8.87584 -8.26842
  646 226.006 -8.78736 8.19370
  647 482.163 -44.0837 -23.4000
  648 248.470 -14.4605 14.3973
  649 248.724 -14.4025 -14.6458
  650 489.041 75.0514 -6.19223
  651 445.691 -24.1152 9.17693
  652 552.705 -2.89697 -3.68211
  653 476.518 -8.31159 -67.7385
  654 74.1925 -3.18928 16.3651
  655 74.0418 -3.16726 -16.3748
  656 540.450 -3.33023 -8.07965
  657 99.7654 51.8544 -71.1490
  658 101.448 51.7425 71.4917
  659 552.017 -30.9292 75.2545
  660 193.787 49.0273 115.528
  661 52.3195 -0.411881 16.3565
  662 52.1422 -0.400740 -16.3601
  663 471.621 -28.8949 95.7269
  664 462.737 71.1673 -219.791
  665 458.206 14.9332 -67.9073
  666 599.126 108.862 36.7646
  667 403.934 -18.8323 -0.0755071
  668 723.519 129.143 -3.14286
  669 -32.2638 1.66986 -2.35529
  670 -32.0903 1.66578 2.39461
  671 323.373 2.32472 -115.686
  672 30.9874 -0.495781 3.20715
  673 30.8452 -0.496992 -3.23648
  674 404.251 -33.3447 -74.0594
  675 137.273 18.5717 -50.6293
  676 136.216 18.6469 50.6089
  677 5.41519 6.84756 -4.39261
  678 5.60470 6.83960 4.47547
  679 345.202 -30.1198 -18.9773
  680 486.952 -4.81586 -25.8853
  681 236.238 -7.80043 -2.92307
  682 236.256 -7.72208 2.94325
  683 172.825 -8.96535 -16.8638
  684 172.968 -9.08609 16.8108
  685 33.4676 27.4855 -11.5931
  686 34.0024 27.5501 11.7776
  687 494.721 -6.78979 2.11873
  688 225.596 -14.5744 21.8522
  689 226.986 -14.3305 -21.8383
  690 549.026 -42.5853 -1.63359
  691 454.318 -45.6897 -6.58848
  692 358.756 -11.1133 -1.22254
  693 357.528 -10.4405 1.38310
  694 499.167 -51.7612 31.2719
  695 806.592 163.456 46.2957
  696 439.057 -17.9220 -117.867
  697 502.413 -14.3676 26.2270
  698 501.069 -18.1092 -68.9848
  699 161.832 -5.19758 -8.07546
  700 161.845 -5.16223 7.98783
  701 391.176 -5.15736 131.785
  702 1070.99 138.372 126.590
  703 78.3240 22.3003 -30.0803
  704 78.4436 22.4518 30.1764
  705 492.877 -5.69952 -1.02235
  706 496.671 -5.17366 1.05468
  707 212.355 111.418 -185.550
  708 525.184 -3.14268 14.7590
  709 454.410 -8.81018 1.31658
  710 603.102 118.904 -13.2854
  711 64.9409 11.0203 -22.0753
  712 65.2178 10.9526 22.1556
  713 559.161 -1.73072 0.293457
  714 457.727 -18.4418 -9.30492
  715 570.135 -7.18215 54.3016
  716 237.863 -16.8093 -33.5518
  717 238.455 -16.1082 33.2646
  718 59.6972 -1.93576 12.3787
  719 59.5300 -1.91236 -12.4066
  720 514.457 -4.26775 -2.15936
  721 444.142 92.7895 232.738
  722 4.04424 4.48556 13.6779
  723 4.21209 4.58873 -13.5627
  724 516.459 -6.25140 -6.24225
  725 502.328 -9.95821 8.99479
  726 406.229 0.553648 -44.4243
  727 4.03426 -43.8730 -4.96022
  728 3.78491 -44.3262 5.41739
  729 186.507 50.6079 -115.580
  730 403.685 -40.0537 -54.3281
  731 211.098 110.335 187.195
  732 552.529 -1.80275 1.28248
  733 542.060 81.3820 48.3318
  734 401.062 36.2424 -17.4193
  735 704.623 141.917 4.12012
  736 547.025 -2.67191 5.08021
  737 -29.0880 0.794139 4.73829
  738 -29.3169 0.798462 -4.71967
  739 583.731 -31.1612 20.4017
  740 381.048 -11.9619 -1.56026
  741 142.308 -0.00143344 -36.5190
  742 142.502 -0.139236 36.3319
  743 501.622 -6.68749 -3.28523
  744 882.244 124.703 -46.5906
  745 66.8969 -1.87113 -7.94975
  746 67.0406 -1.88173 7.90061
  747 556.411 -1.88618 -2.26072
  748 118.338 -5.23668 -11.0539
  749 118.425 -5.25501 10.9805
  750 549.288 -20.8046 -56.5026
  751 508.051 -5.47728 20.6502
  752 459.641 -2.60249 67.2064
  753 556.683 -1.95523 0.164399
  754 522.081 -4.67007 4.67210
  755 346.157 -19.3055 -5.76657
  756 430.733 -12.3074 1.54649
  757 490.183 -30.2002 -42.6048
  758 477.792 -30.3343 26.8025
  759 561.696 68.7689 -60.6848
  760 471.064 -26.9130 19.3408
  761 498.492 -29.2693 55.0677
  762 292.181 -20.2003 15.3504
  763 11.0743 -0.448872 1.02737
  764 10.5179 -0.489000 -0.499213
  765 435.465 -7.63740 -0.209047
  766 434.562 -7.59233 0.0508200
  767 518.664 -3.09599 -0.186953
  768 520.389 -3.00069 0.304038
  769 498.415 -14.2130 32.5219
  770 459.704 -41.2243 70.3141
  771 379.620 -31.2242 8.55657
  772 338.194 -20.8083 8.31667
  773 899.192 114.930 53.5255
  774 502.667 -13.2513 -20.3563
  775 296.885 53.5791 -173.666
  776 467.937 -23.7104 -16.5629
  777 23.1776 0.303512 -12.0271
  778 23.3900 0.286449 12.0455
  779 425.343 37.3264 -39.0132
  780 1040.80 31.5610 -13.4264
  781 528.422 14.4647 -74.3438
  782 21.8728 21.4919 -44.6428
  783 546.505 97.7922 12.2768
  784 423.906 -27.5769 3.97049
  785 478.051 -11.6222 65.6479
  786 401.695 -41.7632 54.6205
  787 634.699 0.953990 107.830
  788 23.5513 26.3696 47.5053
  789 292.239 -1.36100 90.8808
  790 405.143 -11.4699 0.104287
  791 451.018 -39.4928 -71.1347
  792 280.401 -22.0851 -25.3711
  793 221.960 10.7485 -79.8989
  794 523.352 -7.38348 72.8112
  795 337.769 -23.5373 12.5971
  796 71.7923 -1.93299 6.97659
  797 71.6796 -1.93501 -7.03325
  798 488.425 -2.75878 22.8982
  799 446.146 2.59562 -65.5114
  800 -37.6891 1.79290 4.34361
  801 -37.6318 1.79650 -4.30889
  802 328.829 -11.1670 -2.29654
  803 327.911 -10.6165 2.18773
  804 244.708 27.9188 111.188
  805 220.593 -13.1579 16.6852
  806 220.878 -12.8505 -16.8381
  807 555.904 -1.45949 -1.13938
  808 200.242 15.9632 77.9835
  809 13.4786 -0.189341 4.44696
  810 13.2535 -0.185294 -4.46299
  811 482.722 -14.8138 50.5399
  812 510.124 -5.12856 1.63660
  813 -27.2726 0.394479 7.40879
  814 -27.2795 0.403613 -7.39373
  815 318.927 -19.7776 68.6856
  816 63.3544 54.5246 -60.9468
  817 64.1081 52.1692 60.0803
  818 310.408 13.5742 7.32598
  819 1.01327 -0.369039 -5.08107
  820 1.26195 -0.372208 5.07788
  821 365.686 -34.4909 -51.2630
  822 496.062 -51.5421 -12.2633
  823 -2.50402 -2.37416 -3.17165
  824 -2.49636 -2.36832 3.15961
  825 35.3538 0.806346 -1.08856
  826 35.4359 0.810921 1.07171
  827 442.181 -39.5796 7.53545
  828 373.652 -38.1342 36.7341
  829 411.998 -8.07136 0.348600
  830 372.768 -30.4918 -9.90506
  831 142.760 -2.56318 -0.916091
  832 142.790 -2.51019 0.903944
  833 -42.2434 0.913082 2.32238
  834 -42.1486 0.911990 -2.28798
  835 463.319 -7.05853 -1.30935
  836 418.072 16.7512 -55.9346
  837 468.816 -10.2755 -4.64659
  838 281.003 -21.7374 24.2626
  839 468.170 -8.04185 -53.7768
  840 497.854 -15.4194 -33.5866
  841 465.114 -6.21588 1.15133
  842 342.715 -12.4598 93.1217
  843 366.154 -35.9209 -21.9963
  844 222.979 -1.68365 -61.8033
  845 224.181 -0.136545 62.1241
  846 313.484 -23.9021 -16.6332
  847 518.280 56.7285 63.6813
  848 488.179 -49.8692 -40.8662
  849 182.086 -6.00732 -4.14908
  850 182.083 -5.92602 4.11351
  851 375.028 -9.59879 0.903526
  852 375.049 -9.66856 -0.822317
  853 448.913 -3.27632 -35.2810
  854 155.948 -6.69588 -13.6445
  855 156.041 -6.74478 13.5444
  856 1.91711 -45.2139 -8.61607
  857 1.81984 -45.4110 8.80618
  858 83.7654 -1.22395 -0.160891
  859 83.7079 -1.24653 0.146320
  860 460.119 -8.26555 -1.81239
  861 352.714 -33.6547 33.3751
  862 542.660 -45.3326 12.4877
  863 329.185 6.87734 28.0432
  864 470.541 -12.0184 5.39665
  865 514.796 -45.5022 -32.2563
  866 78.5507 4.62078 -24.8517
  867 78.7805 4.54265 24.8458
  868 409.952 -8.57484 -0.307539
  869 332.678 -12.4358 -4.07248
  870 331.564 -12.3382 4.36966
  871 513.742 79.8409 34.3358
  872 181.186 -1.98844 -43.7549
  873 181.036 -2.19465 43.5849
  874 355.994 -32.4534 17.9786
  875 36.4458 23.0052 -10.1442
  876 36.7898 22.9652 10.2459
  877 302.083 -21.4086 56.4357
  878 360.872 -23.6384 -6.28514
  879 451.358 -3.39692 35.6460
  880 441.064 -49.3204 20.3932
  881 504.895 -38.0076 -46.8888
  882 351.850 -33.9274 -33.7937
  883 294.228 -20.1251 -14.7708
  884 937.046 76.6611 -14.6238
  885 461.700 -48.7459 3.54188
  886 14.8500 15.8763 3.73160
  887 15.0949 15.9094 -3.60187
  888 402.470 -40.4612 11.3862
  889 440.343 -49.0825 -32.8898
  890 16.2260 13.6235 -1.26479
  891 16.4423 13.6295 1.36507
  892 170.278 -6.22682 33.5316
  893 170.363 -6.40355 -33.7096
  894 204.968 -10.5151 36.7173
  895 204.881 -10.7539 -36.9436
  896 636.023 127.424 15.4773
  897 -0.888444 -19.6491 -9.33524
  898 -0.895087 -19.6233 9.32755
  899 149.775 12.3926 -48.2084
  900 149.071 12.1461 47.7734
  901 1074.94 34.8079 -53.9167
  902 29.5380 -0.141523 1.83565
  903 29.4223 -0.145044 -1.85873
  904 2.07192 -50.0555 1.81387
  905 2.39536 -49.1597 -1.05725
  906 -21.0252 -0.218289 7.71841
  907 -21.0508 -0.211633 -7.71643
  908 119.883 35.0539 -56.5761
  909 121.722 33.8884 55.8215
  910 -8.71110 0.723316 -16.0036
  911 -8.75681 0.685379 16.0322
  912 37.6741 2.93326 -16.4426
  913 37.8910 2.89466 16.4692
  914 131.758 -1.71629 30.9891
  915 131.656 -1.70943 -31.1268
  916 108.850 -3.81132 -25.0729
  917 108.968 -3.80556 25.0415
  918 543.441 -2.24348 -8.05438
  919 268.223 58.9913 161.882
  920 369.730 -36.6050 20.8089
  921 265.138 -19.2722 19.7719
  922 507.254 52.7122 -63.1205
  923 1057.29 22.5285 21.6272
  924 595.671 29.1022 -57.4099
  925 105.072 -4.00601 15.7756
  926 104.958 -3.96197 -15.8268
  927 22.8809 -0.626251 -11.6106
  928 23.0914 -0.631822 11.6133
  929 -0.00278998 -8.64480 -17.2526
  930 -0.0815442 -8.72336 17.3114
  931 273.968 -12.5885 9.14505
  932 274.100 -12.8182 -9.18199
  933 35.9991 8.85571 -14.9600
  934 36.2297 8.81705 15.0345
  935 169.271 -7.68859 -28.6196
  936 169.393 -7.69081 28.6069
  937 363.808 -1.29011 -32.9414
  938 174.913 -9.61598 -20.1367
  939 174.810 -9.51976 20.2002
  940 413.055 -12.5108 0.109406
  941 500.079 -28.2536 -59.3798
  942 223.048 -9.36834 9.57126
  943 223.141 -9.44808 -9.68260
  944 -9.14431 -0.952120 -5.53317
  945 -9.11850 -0.954391 5.52081
  946 506.929 -37.2714 -86.4386
  947 487.091 -28.7041 36.7543
  948 427.927 -30.3854 -5.74192
  949 423.029 14.8285 58.8888
  950 194.286 -11.0755 -22.6139
  951 194.302 -10.8751 22.6796
  952 469.868 18.5111 70.7583
  953 441.061 38.6159 46.6446
  954 878.219 105.062 18.7382
  955 453.972 -17.0547 6.43162
  956 243.930 -7.74162 -4.32943
  957 243.907 -7.60361 4.36132
  958 408.234 -33.8201 1.49550
  959 566.543 103.736 -28.3844
  960 494.839 -6.15618 -2.18900
  961 329.540 -8.90908 1.44299
  962 329.420 -8.84694 -1.35167
  963 43.3792 37.1490 -27.8718
  964 44.4435 37.1002 28.0672
  965 78.6143 215.247 -179.843
  966 469.237 -10.8608 53.4423
  967 579.299 -9.02412 -47.5835
  968 -7.78997 5.70883 1.92993
  969 -7.63418 5.70870 -1.85108
  970 1153.58 278.911 -220.840
  971 496.716 -53.3684 1.44047
  972 528.695 -47.5715 -25.6568
  973 489.591 -41.7891 32.5234
  974 608.009 119.099 11.1092
  975 45.3695 50.4730 -57.0023
  976 112.207 187.425 177.611
  977 -2.59981 -6.36054 17.4225
  978 -2.55104 -6.30292 -17.3932
  979 475.004 -12.9182 6.93939
  980 761.903 134.116 -17.7579
  981 46.6549 49.4311 59.1182
  982 -2.07882 -7.14793 -6.15307
  983 -2.07904 -7.12753 6.13653
  984 409.049 -10.4811 -0.492235
  985 308.135 -24.6896 -26.5307
  986 493.506 -38.8102 -39.3708
  987 143.289 38.6249 -73.9682
  988 145.555 39.2515 74.1560
  989 481.134 -11.8677 -47.4330
  990 481.848 -15.8973 13.9658
  991 -12.1702 3.54874 13.8644
  992 -12.1055 3.58280 -13.8173
  993 294.303 -19.3440 -53.2227
  994 487.384 31.6908 -70.6865
  995 361.349 -14.3442 2.65628
  996 262.886 -8.05449 0.871297
  997 262.834 -8.10156 -0.842049
  998 -5.33177 -6.06776 -12.6874
  999 -5.33914 -6.08087 12.6759
  1000 488.387 -17.9481 -17.5607
  1001 464.073 -6.11904 0.301219
  1002 463.647 -6.12631 -0.118703
  1003 643.119 106.897 -37.7048
  1004 119.964 10.0781 -38.3850
  1005 120.263 9.87754 38.3115
  1006 79.0416 -0.872939 -20.9044
  1007 79.1927 -0.888313 20.8862
  1008 532.109 29.4133 75.2101
  1009 499.808 -10.0757 -9.44666
  1010 92.0913 14.1066 -31.6299
  1011 92.4517 14.0038 31.7439
  1012 519.373 -3.46226 -1.34359
  1013 488.573 -21.4685 -27.4496
  1014 477.152 -53.1700 -24.2755
  1015 19.3861 17.3807 1.92001
  1016 18.8746 17.2982 -1.68661
  1017 -22.0503 3.91691 7.90706
  1018 -21.9663 3.92817 -7.84991
  1019 300.533 11.0796 -12.2460
  1020 819.819 206.454 -61.6212
  1021 379.110 -28.1130 -4.86826
  1022 252.993 -11.0697 -54.6632
  1023 602.156 -21.9111 -0.140993
  1024 253.979 -11.0472 55.4026
  1025 434.520 -50.0471 37.7886
  1026 492.357 -20.4283 -42.4359
  1027 174.740 -4.31490 -1.32525
  1028 174.762 -4.24699 1.31788
  1029 338.499 -26.8063 -14.9341
  1030 209.845 -7.97636 -43.0121
  1031 209.782 -8.03656 42.8159
  1032 70.5922 46.4528 -46.8769
  1033 71.6870 46.3381 47.0177
  1034 148.297 -4.79738 -4.67218
  1035 148.319 -4.74258 4.62055
  1036 437.321 -14.7066 2.82561
  1037 370.231 2.80399 -133.260
  1038 453.009 -15.4903 -6.47586
  1039 410.811 -45.2931 -23.9402
  1040 273.327 -12.0306 6.41488
  1041 273.539 -12.1145 -6.43029
  1042 526.373 -3.84874 1.69871
  1043 473.155 -12.0389 -6.48447
  1044 315.793 7.77303 23.1460
  1045 508.702 -5.09141 -19.2315
  1046 199.644 59.4552 130.656
  1047 522.530 -4.99232 -15.6406
  1048 140.196 23.4119 -56.2597
  1049 136.135 23.6651 54.0738
  1050 622.056 -7.81249 -1.99507
  1051 59.1143 30.3659 -25.3457
  1052 59.6446 30.1550 25.3476
  1053 10.3448 1.20040 3.89627
  1054 10.8306 1.29416 -3.57657
  1055 88.2726 -2.29246 5.54856
  1056 88.1873 -2.30620 -5.60817
  1057 226.552 60.1234 -144.265
  1058 1188.20 317.680 237.742
  1059 486.924 -17.9296 18.0050
  1060 438.382 -48.9676 -18.6611
  1061 307.138 -25.2826 -41.7332
  1062 -5.16923 7.10437 11.5719
  1063 -5.05079 7.14320 -11.4919
  1064 345.738 -18.4416 4.80153
  1065 380.161 -14.9311 1.58968
  1066 -0.148576 -27.7926 8.95149
  1067 -0.139182 -27.8229 -8.94994
  1068 59.2820 36.4994 -29.8416
  1069 59.9679 36.4398 30.0121
  1070 341.262 -17.0309 -4.61348
  1071 29.4235 12.5708 10.1115
  1072 29.1958 12.5858 -10.0177
  1073 518.074 -19.7716 68.9437
  1074 376.373 -38.8432 -36.5498
  1075 308.937 -25.6859 41.7346
  1076 494.885 -9.28931 -73.2808
  1077 517.118 -6.27720 6.83849
  1078 191.604 29.6963 88.5505
  1079 192.969 28.4103 -87.1067
  1080 306.442 -14.5826 -74.7623
  1081 430.359 -16.2229 -2.72634
  1082 352.066 -21.7175 8.01849
  1083 410.970 -38.6022 -4.47678
  1084 557.514 -2.22943 -3.98896
  1085 306.742 -14.6918 7.27824
  1086 306.610 -15.4901 -7.43952
  1087 11.3377 13.0054 8.58470
  1088 11.5899 13.0987 -8.43888
  1089 499.587 19.1177 -75.8991
  1090 115.572 5.54699 -34.0394
  1091 115.880 5.42252 33.9591
  1092 88.1494 1.45336 -24.6990
  1093 88.3408 1.40651 24.6638
  1094 563.507 -19.2372 107.984
  1095 491.641 -22.7256 41.6867
  1096 244.082 -11.3036 -46.7063
  1097 565.430 -2.43879 -2.36784
  1098 641.319 122.028 -28.1536
  1099 515.867 -5.56743 -4.10508
  1100 486.552 -52.0517 12.0932
  1101 362.097 -27.0809 66.0352
  1102 568.342 -0.961732 0.319614
  1103 315.225 9.75081 -19.6082
  1104 413.791 -44.2403 -12.9263
  1105 244.485 -11.8072 46.2397
  1106 417.548 -38.2735 2.09943
  1107 517.319 -7.86514 13.5138
  1108 380.921 24.0946 30.3752
  1109 262.240 -19.4076 -37.6745
  1110 774.579 118.342 -54.1700
  1111 588.799 28.4625 60.7279
  1112 447.181 55.7897 7.38823
  1113 563.441 -0.168613 1.99767
  1114 228.668 -14.4657 -29.2244
  1115 155.535 98.5128 -145.435
  1116 276.444 8.02942 -105.026
  1117 317.142 -24.7107 19.3636
  1118 268.959 -20.2686 35.5081
  1119 228.153 -13.7797 29.4972
  1120 475.921 4.71724 74.1721
  1121 358.935 -13.3722 -2.22178
  1122 556.458 -4.34783 5.52121
  1123 -3.93418 0.108211 17.2478
  1124 -3.86679 0.166728 -17.2034
  1125 375.361 -11.6644 1.28179
  1126 0.441235 4.92726 15.1453
  1127 0.563681 5.00449 -15.0592
  1128 215.383 -7.15203 5.18779
  1129 215.391 -7.25515 -5.19310
  1130 527.054 -2.96992 12.9766
  1131 425.429 -26.6368 -4.47203
  1132 399.049 -22.0489 0.262803
  1133 445.385 -31.6014 11.6356
  1134 138.491 70.0229 -109.369
  1135 436.207 -17.3431 4.09214
  1136 69.9156 1.06210 -20.3677
  1137 70.0975 1.02955 20.3582
  1138 93.4807 60.9671 -78.0388
  1139 693.129 95.0986 14.2156
  1140 56.0586 -2.41835 11.9755
  1141 55.8841 -2.39924 -11.9901
  1142 95.1527 60.1053 75.5022
  1143 400.798 -33.9176 -3.10344
  1144 207.507 -9.96340 11.6584
  1145 207.530 -10.0048 -11.8234
  1146 809.636 172.357 -49.3771
  1147 440.699 -44.1718 -0.668621
  1148 153.316 92.4584 145.181
  1149 13.6929 1.01853 -14.2262
  1150 14.7063 1.19500 15.4086
  1151 469.441 58.8222 37.1064
  1152 37.2884 19.3374 -10.4914
  1153 37.5764 19.3458 10.5769
  1154 443.521 -38.8093 -8.21641
  1155 -0.193068 -42.6890 -8.29428
  1156 -0.213074 -42.6913 8.33210
  1157 473.551 -40.0194 -21.9247
  1158 -0.326531 0.548718 3.95958
  1159 -0.578353 0.552382 -3.96696
  1160 75.5698 27.6293 -31.9521
  1161 75.9743 27.7511 31.6903
  1162 -18.9894 0.0417479 -4.85009
  1163 -18.7329 0.0400440 4.85570
  1164 470.894 -6.12860 -0.256415
  1165 -45.3330 1.39368 0.331982
  1166 -45.2018 1.39313 -0.300060
  1167 254.003 -20.1237 -28.3643
  1168 6.90875 -56.3278 -7.98668
  1169 132.171 -3.83041 8.76523
  1170 132.114 -3.84223 -8.84948
  1171 402.415 -8.75460 0.787010
  1172 403.165 -8.55766 -0.710233
  1173 7.42213 -53.4170 9.45852
  1174 476.298 -25.2900 -22.4169
  1175 541.256 -2.74764 9.38615
  1176 484.251 -31.1766 -33.6268
  1177 428.188 3.40849 58.4285
  1178 2.54312 -15.8285 12.0286
  1179 2.75208 -15.6967 -11.8124
  1180 312.872 -23.1753 15.7911
  1181 -20.6240 2.06457 11.1295
  1182 -20.5856 2.08171 -11.0949
  1183 799.333 126.371 9.08179
  1184 921.021 301.675 -211.809
  1185 494.840 -47.7356 27.5012
  1186 210.165 -6.49128 -0.847639
  1187 210.185 -6.41965 0.848438
  1188 997.555 96.9161 -89.9660
  1189 79.0333 -2.02082 12.4194
  1190 78.8891 -1.99138 -12.4595
  1191 465.597 -1.51170 -22.9778
  1192 300.358 -24.4603 31.9721
  1193 489.429 -47.6437 -18.9361
  1194 473.991 -34.6347 -25.4731
  1195 292.180 -10.0001 78.2530
  1196 110.843 20.2350 -43.1099
  1197 110.793 20.0572 42.8845
  1198 144.338 53.8745 -93.3313
  1199 144.552 49.9200 93.3438
  1200 43.7698 11.9120 -15.9083
  1201 44.0180 11.8783 15.9979
  1202 586.384 102.141 -41.2826
  1203 31.9169 29.5080 -15.1357
  1204 32.6303 29.5597 15.3526
  1205 422.555 -32.8229 3.15088
  1206 777.857 122.720 60.1841
  1207 107.405 -4.38946 -8.64375
  1208 107.492 -4.38838 8.56954
  1209 500.558 372.444 -307.826
  1210 402.323 24.0642 -46.7723
  1211 371.623 28.2949 19.1668
  1212 53.2884 21.6343 -18.7681
  1213 53.5352 21.6376 18.8645
  1214 18.7113 -0.117413 2.88541
  1215 18.5338 -0.117247 -2.90774
  1216 467.270 -37.6879 20.4070
  1217 458.923 -19.1201 10.3904
  1218 315.156 94.0505 -223.563
  1219 722.341 158.285 -12.1119
  1220 313.844 -9.09277 -85.8872
  1221 404.229 -13.4211 -0.678319
  1222 30.1177 -1.96723 -0.633579
  1223 30.1809 -1.96560 0.630064
  1224 -6.99230 3.18506 -7.09783
  1225 -6.79024 3.17235 7.14735
  1226 273.613 3.37816 -90.1755
  1227 496.735 -11.6152 12.4131
  1228 326.129 7.07305 121.982
  1229 439.406 -22.4494 -7.13993
  1230 228.896 83.9636 -177.172
  1231 354.137 -16.5085 -92.5127
  1232 420.679 -44.9042 10.5906
  1233 512.464 -8.48624 20.9079
  1234 449.711 -10.4250 -2.21931
  1235 252.980 -18.9231 28.5132
  1236 563.565 -30.1852 -36.0926
  1237 538.300 47.6699 71.0935
  1238 237.120 1.19467 -71.8536
  1239 529.185 -3.99007 1.37436
  1240 436.487 54.0204 -10.5654
  1241 192.151 -6.97239 -8.57437
  1242 192.126 -6.90539 8.49152
  1243 809.909 194.531 54.5030
  1244 1094.23 29.0564 50.4733
  1245 1.05005 -51.9640 -8.20078
  1246 1.01750 -52.0178 8.26531
  1247 123.593 66.5776 102.628
  1248 292.758 -9.32515 -2.14714
  1249 292.820 -9.27508 2.25264
  1250 397.400 -40.1259 -13.6171
  1251 476.776 39.5418 64.1246
  1252 492.433 -10.5133 -7.62220
  1253 567.394 -1.78535 -0.566286
  1254 981.049 219.777 -139.863
  1255 161.062 -6.18625 9.02220
  1256 161.036 -6.19805 -9.12432
  1257 474.051 -43.9710 20.7023
  1258 823.253 209.073 -70.6870
  1259 459.322 -20.7607 -11.8319
  1260 338.409 -24.0473 -11.6289
  1261 413.445 -44.7911 23.4260
  1262 404.217 -20.9970 0.668692
  1263 15.8033 8.34089 -21.5067
  1264 550.210 -32.2525 44.1728
  1265 446.990 -29.7581 -11.4080
  1266 17.3566 9.11442 23.5302
  1267 458.903 -35.2004 -87.2521
  1268 433.086 30.0361 -183.004
  1269 709.583 95.0116 -7.09316
  1270 569.446 -0.712198 -0.152687
  1271 568.507 -1.23278 0.478202
  1272 454.450 -27.0867 12.7633
  1273 178.545 21.2739 -70.9302
  1274 517.087 -45.2925 35.2669
  1275 872.106 200.948 95.3289
  1276 220.007 77.8540 172.778
  1277 6.78837 2.01690 12.0012
  1278 7.01936 2.13291 -11.8420
  1279 541.425 -41.8908 -49.1471
  1280 223.695 -12.5058 -13.8901
  1281 223.666 -12.5390 13.6705
  1282 506.726 -32.9440 56.5326
  1283 23.4848 0.0672789 12.9483
  1284 23.2757 0.0771911 -12.9408
  1285 -2.62221 -10.3731 14.5380
  1286 -2.60352 -10.3509 -14.5417
  1287 96.6817 -3.29333 -11.3212
  1288 96.7941 -3.31220 11.2579
  1289 269.807 -18.1182 -42.5580
  1290 272.373 -9.63504 3.01201
  1291 272.360 -9.82552 -2.91240
  1292 567.806 -0.693837 0.232182
  1293 509.710 -8.15635 -23.6098
  1294 46.0520 1.76481 -16.4628
  1295 46.2542 1.73608 16.4730
  1296 270.876 -19.1455 42.2599
  1297 572.768 -0.795438 0.275419
  1298 542.511 -1.08948 -0.623544
  1299 542.463 -1.41886 0.491669
  1300 720.859 155.202 0.945070
  1301 529.943 -4.26799 -3.27486
  1302 472.271 -5.84297 0.0916377
  1303 522.952 -8.45420 -11.9409
  1304 565.322 -2.09944 1.54096
  1305 595.849 63.0941 60.1535
  1306 688.978 144.998 11.0322
  1307 551.544 -2.42910 -6.13935
  1308 -4.65130 -1.15232 4.15566
  1309 -4.67021 -1.15157 -4.16872
  1310 311.745 -20.1982 11.2356
  1311 311.689 -19.3420 -10.9514
  1312 601.219 69.8189 -56.8637
  1313 128.410 44.5020 -77.6311
  1314 129.233 43.3148 76.8349
  1315 412.211 0.118804 -29.2336
  1316 417.529 -7.80078 -0.729824
  1317 417.020 -7.74724 0.641931
  1318 -9.80399 -1.47944 14.7550
  1319 -9.78626 -1.45189 -14.7502
  1320 466.935 -1.22855 22.9306
  1321 704.453 139.951 -4.85006
  1322 57.3737 -1.95027 -7.12658
  1323 57.5151 -1.95474 7.07681
  1324 520.092 -49.1571 17.2718
  1325 1.99212 9.21133 11.5931
  1326 2.14581 9.26658 -11.4934
  1327 103.693 -2.35412 -2.45668
  1328 103.745 -2.32050 2.42323
  1329 412.294 -0.493747 29.6875
  1330 25.3474 0.839612 -1.11795
  1331 25.4450 0.842834 1.10102
  1332 526.731 -6.68422 7.47855
  1333 736.840 133.360 8.40521
</Section>

newXOutput 68

<Section columns = "stress_xx | stress_yy | stress_xy">
  1 589.404 -1.76166 1.07685
  2 590.275 -2.18862 -1.39764
  3 20.3881 0.538870 -1.49480
  4 -0.453227 -0.670729 -0.458861
  5 1063.05 445.885 353.716
  6 1079.40 508.788 -357.115
  7 -0.448444 -0.666517 0.452679
  8 20.3236 0.535811 1.49138
  9 593.272 -1.26157 -0.975316
  10 589.161 -2.19860 -1.43968
  11 589.759 -1.75131 1.18996
  12 587.200 -1.05880 0.413819
  13 586.313 -2.07057 -0.518211
  14 585.823 -2.00901 2.09265
  15 578.089 -1.48844 1.90704
  16 580.699 -4.24796 3.08665
  17 563.785 -3.57606 6.83566
  18 553.291 -1.70047 8.25136
  19 538.629 -2.00733 8.95834
  20 512.824 -1.78692 12.6951
  21 484.461 -1.47667 14.8365
  22 448.764 1.92266 20.5018
  23 399.584 2.99462 18.6386
  24 379.672 -0.0348812 26.7779
  25 317.840 4.50400 19.1017
  26 279.959 5.85001 15.0252
  27 270.083 3.04029 11.1010
  28 259.497 8.59235 0.843434
  29 265.314 9.19606 -14.8633
  30 276.891 2.72448 -18.6373
  31 323.430 1.31991 -24.8084
  32 370.079 -2.24852 -25.6095
  33 401.337 2.48835 -18.5960
  34 449.275 2.17965 -20.4959
  35 483.265 -1.74121 -15.9165
  36 515.618 -1.96895 -11.9577
  37 536.623 -1.50196 -9.10619
  38 551.679 -1.81689 -7.52879
  39 567.924 -2.09883 -4.30410
  40 573.977 -2.22632 -4.07623
  41 579.944 -2.09206 -3.62308
  42 585.947 -2.36010 -0.571966
  43 588.149 -2.95438 -1.42903
  44 584.582 -0.0512526 0.0577226
  45 589.068 -1.62477 -1.36278
  46 591.287 -3.15632 1.56988
  47 593.954 -1.84913 -0.0558057
  48 565.292 -0.0403567 -0.890763
  49 533.062 -2.88783 -1.65159
  50 496.390 -6.03204 -2.29910
  51 458.276 -5.33116 -1.65623
  52 424.890 -8.07219 -1.51682
  53 389.540 -8.68583 -1.36450
  54 353.790 -7.67874 -0.606135
  55 316.094 -8.10265 -0.870709
  56 284.159 -8.43586 -1.17563
  57 241.593 -7.97348 -0.926675
  58 197.745 -5.10302 -0.593287
  59 161.455 -3.29942 -0.455255
  60 116.635 -2.07572 -0.122108
  61 84.1069 -1.91507 -2.18989
  62 53.9335 -2.52078 -0.686280
  63 23.4806 0.282068 1.43431
  64 15.4273 2.11280 0.623017
  65 12.9947 0.852802 1.55421
  66 13.7716 0.383314 1.58195
  67 7.01795 1.21167 0.839256
  68 4.17890 1.59705 3.23984
  69 2.50530 0.568097 1.36625
  70 -8.85000 1.20188 1.47485
  71 -14.4544 0.813843 3.16334
  72 -17.2345 0.253539 3.35213
  73 -29.9469 1.11363 2.74348
  74 -35.0634 1.68302 4.89099
  75 -40.9995 1.02180 2.06717
  76 -47.4660 0.750274 2.82114
  77 -50.6558 0.793631 1.36650
  78 -57.1440 1.97366 -0.938453
  79 -58.4694 1.35142 -0.673250
  80 -53.8149 1.00475 -1.60936
  81 -46.5844 1.34876 -3.37775
  82 -38.1948 0.624750 -5.36915
  83 -28.6998 0.354490 -5.68241
  84 -17.3130 -0.544451 -6.00337
  85 -7.63242 -0.445143 -3.55210
  86 -3.23431 -1.24317 -2.23683
  87 -0.519930 -3.22952 -1.95379
  88 -0.856008 -8.25246 -3.42234
  89 -0.983657 -15.9192 -5.93965
  90 -0.159870 -29.6795 -6.34531
  91 0.390716 -40.7652 -7.89661
  92 0.869981 -58.4362 -6.40811
  93 2.60347 -68.9642 -7.48432
  94 0.515468 -73.4029 -5.95817
  95 -0.0439145 -83.2128 -3.15779
  96 2.37726 -78.7343 0.139389
  97 9.74348 -101.232 5.87426
  98 9.10255 -48.1058 17.3937
  99 21.2059 -10.4431 36.7193
  100 62.2675 122.733 108.348
  101 256.384 360.452 295.118
  102 1392.16 151.806 205.347
  103 1172.79 41.6758 73.7867
  104 1118.24 17.7778 25.3307
  105 1088.31 11.5617 -0.143005
  106 1107.53 16.9337 -20.8773
  107 1183.22 35.5639 -60.9523
  108 1377.68 119.924 -190.684
  109 166.874 407.935 -244.193
  110 43.8407 95.5053 -84.4998
  111 15.6750 -20.7333 -30.8958
  112 8.25745 -54.1310 -15.1974
  113 9.68275 -105.531 -4.81478
  114 2.26728 -80.6302 0.603880
  115 -0.184885 -84.1567 3.54400
  116 0.426038 -73.7631 6.16458
  117 2.55438 -69.0425 7.57106
  118 0.851166 -58.3964 6.43976
  119 0.376544 -40.7026 7.90741
  120 -0.166790 -29.6027 6.34078
  121 -0.984434 -15.8705 5.92639
  122 -0.857851 -8.21102 3.41011
  123 -0.519520 -3.21397 1.94305
  124 -3.21568 -1.24133 2.22780
  125 -7.59921 -0.447192 3.54228
  126 -17.2699 -0.549338 5.99726
  127 -28.6495 0.349028 5.68340
  128 -38.1657 0.618765 5.37930
  129 -46.5940 1.34444 3.39805
  130 -53.8645 1.00436 1.63136
  131 -58.5710 1.35010 0.694826
  132 -57.2891 1.97328 0.960992
  133 -50.8505 0.795635 -1.34666
  134 -47.6984 0.752743 -2.80623
  135 -41.2509 1.02465 -2.05519
  136 -35.3369 1.68644 -4.88566
  137 -30.2289 1.11687 -2.73899
  138 -17.5142 0.255510 -3.35224
  139 -14.7362 0.817276 -3.16717
  140 -9.12021 1.20668 -1.48075
  141 2.26511 0.571264 -1.37782
  142 3.96866 1.60039 -3.25750
  143 6.83471 1.21264 -0.854830
  144 13.6303 0.382703 -1.59721
  145 12.8841 0.851313 -1.56652
  146 15.3374 2.11025 -0.633660
  147 23.4090 0.280292 -1.44060
  148 53.8686 -2.53010 0.679962
  149 84.0479 -1.93817 2.18305
  150 116.590 -2.11655 0.112914
  151 161.428 -3.35841 0.450561
  152 197.721 -5.17128 0.592687
  153 241.560 -8.03226 0.936182
  154 284.087 -8.46434 1.19521
  155 315.980 -8.06384 0.916669
  156 353.634 -7.54112 0.658531
  157 389.327 -8.36363 1.28634
  158 425.078 -8.16694 1.32561
  159 458.420 -5.90616 1.75118
  160 496.771 -5.92737 2.08289
  161 534.090 -2.58341 1.67477
  162 564.433 -0.0755895 0.868211
  163 335.034 -30.3565 -30.5569
  164 333.729 -30.9121 30.4827
  165 103.166 28.1274 -43.1610
  166 104.172 28.2253 42.9886
  167 393.168 -17.7116 104.997
  168 411.745 -20.1048 -102.245
  169 197.813 -10.5955 14.3399
  170 197.782 -10.4939 -14.5192
  171 419.515 -15.6231 0.554953
  172 411.369 -15.6667 -0.395047
  173 562.561 100.860 -13.0513
  174 566.596 5.45546 -66.5548
  175 555.845 9.63261 72.1880
  176 138.617 -5.37513 -29.2407
  177 138.637 -5.33874 29.1916
  178 489.808 -48.2923 21.5950
  179 489.443 -37.6867 -32.2753
  180 7.89621 12.2265 10.4471
  181 8.10048 12.3039 -10.3250
  182 669.119 136.810 16.5835
  183 132.001 59.7090 -94.7769
  184 141.409 60.2377 101.373
  185 473.362 -22.7500 14.3800
  186 708.861 150.340 -4.00900
  187 310.378 -12.0535 -4.77919
  188 309.897 -12.3427 4.74983
  189 486.054 -16.0601 -13.2808
  190 644.045 -0.583328 -14.9816
  191 127.350 -3.85288 5.60154
  192 127.300 -3.88362 -5.66943
  193 55.4933 6.52713 -20.1965
  194 55.7370 6.46033 20.2442
  195 276.943 -10.4822 -66.8702
  196 275.868 -11.0399 67.7108
  197 329.906 -21.9656 -11.8896
  198 330.556 -21.8433 12.5268
  199 91.5192 -3.18824 15.7593
  200 91.3833 -3.14681 -15.7882
  201 636.758 -7.45830 47.5184
  202 523.737 -50.6903 -6.08163
  203 495.664 -5.98445 -1.68932
  204 485.033 -7.14100 1.66920
  205 499.655 58.8631 51.6913
  206 22.4197 20.4254 -9.39652
  207 23.1974 20.3968 9.74348
  208 495.067 -19.6456 60.0410
  209 459.970 35.4336 -59.7189
  210 323.790 76.9054 -211.846
  211 340.490 65.0484 196.983
  212 10.9908 11.1550 -2.91267
  213 11.1878 11.1542 3.00823
  214 493.701 -17.2501 -62.1494
  215 848.616 118.192 -8.48437
  216 410.157 -44.3759 39.8232
  217 413.140 -44.1462 -37.8401
  218 409.900 -29.8381 0.415682
  219 504.171 -8.81935 6.85511
  220 249.825 -17.3759 -26.0214
  221 246.043 -17.3114 26.7470
  222 151.833 2.88053 -43.5043
  223 152.056 2.82541 43.1653
  224 518.827 -53.7911 -10.3804
  225 406.584 -31.6688 -2.19058
  226 502.309 -8.65944 -5.16617
  227 394.278 -11.2318 -0.769999
  228 397.586 -10.5584 1.49364
  229 498.193 -22.5073 33.6674
  230 48.2660 0.294402 -16.8431
  231 48.4598 0.274330 16.8451
  232 -5.97326 -3.90048 -16.6242
  233 -6.00540 -3.94109 16.6369
  234 83.9925 -3.48322 -9.22592
  235 84.1113 -3.49160 9.16174
  236 216.504 -6.88657 6.43814
  237 216.544 -6.99643 -6.48131
  238 245.764 17.4053 -96.5543
  239 245.796 14.5824 95.4915
  240 504.868 -16.1249 -28.8167
  241 241.710 -14.2467 -41.3138
  242 241.925 -14.6741 40.7817
  243 450.909 7.34301 67.7857
  244 398.830 34.1231 4.12146
  245 434.735 -43.4629 1.89144
  246 2.35512 -9.41258 -14.4257
  247 2.20876 -9.53008 14.5524
  248 29.3643 32.8255 -34.7140
  249 31.1839 31.8304 36.3142
  250 427.625 -42.5403 -4.69680
  251 762.517 148.718 -18.7592
  252 42.4474 28.2252 -15.9539
  253 42.9377 28.2191 16.1191
  254 -15.3215 3.77573 10.7878
  255 -15.2372 3.79544 -10.7290
  256 765.646 140.130 23.3331
  257 274.930 -13.7824 -10.9318
  258 274.731 -13.5771 10.7521
  259 529.503 -34.9805 54.1351
  260 944.001 154.005 97.0546
  261 164.170 -8.76286 -24.1956
  262 164.151 -8.82443 24.1786
  263 543.767 81.6399 -48.7180
  264 912.604 174.177 -89.5527
  265 642.993 67.2307 43.4183
  266 691.553 51.5397 -135.996
  267 434.291 -21.3748 4.22151
  268 496.551 3.09102 -75.3054
  269 467.578 -33.4219 -17.3449
  270 519.186 -9.80202 18.0592
  271 3.37542 5.02016 -6.94071
  272 3.57394 5.00502 7.00982
  273 513.414 -14.0321 -130.452
  274 59.0663 17.3153 -20.6648
  275 59.3406 17.2872 20.7704
  276 500.587 -12.1862 -37.7495
  277 74.0197 80.7727 -98.6998
  278 68.9826 -0.351323 -2.16380
  279 69.0557 -0.338450 2.13566
  280 527.820 -31.9551 -56.6970
  281 96.0835 43.1646 -53.9587
  282 97.4472 42.9475 54.1114
  283 33.2820 -0.898490 11.6910
  284 33.0766 -0.888111 -11.6961
  285 433.608 -20.3810 -4.14885
  286 74.5456 79.9501 101.214
  287 679.889 61.0903 158.281
  288 194.872 -7.99581 -8.88642
  289 194.848 -7.94958 8.77938
  290 348.896 -15.3614 -4.83897
  291 348.733 -16.5320 5.25840
  292 297.801 30.0250 -144.759
  293 476.540 -51.8539 -3.61112
  294 537.734 -4.00212 2.93960
  295 287.025 30.1180 140.253
  296 334.488 -10.0954 -1.69833
  297 334.364 -10.0905 1.97490
  298 468.369 -34.7134 17.6536
  299 534.371 -6.27083 -8.15410
  300 0.765459 1.96445 -9.44368
  301 0.986226 1.94969 9.47785
  302 676.651 133.766 -3.96782
  303 589.511 -25.5234 25.7800
  304 529.521 -3.59936 -0.655609
  305 538.380 -3.15333 0.594722
  306 531.340 -44.9171 49.9695
  307 654.953 71.7578 -39.5560
  308 578.479 107.333 27.2336
  309 262.855 -16.5248 -16.9309
  310 260.557 -16.8147 17.2230
  311 536.977 -3.93881 -1.79127
  312 357.910 -26.5517 -73.0581
  313 352.751 -28.3015 14.9188
  314 336.193 -17.8131 82.7941
  315 530.233 -6.98932 9.86188
  316 127.749 -5.85216 -15.2241
  317 127.842 -5.89387 15.1666
  318 489.938 -13.6904 128.887
  319 315.603 -25.3365 -21.0741
  320 575.851 74.9789 60.4670
  321 186.971 13.0482 -63.6784
  322 180.187 13.6550 63.2008
  323 61.9966 -1.18292 -3.91948
  324 62.1015 -1.17551 3.87481
  325 469.680 -10.5997 3.43174
  326 450.718 -7.66618 0.137377
  327 448.272 -8.28046 -0.282516
  328 497.214 -12.8213 40.0694
  329 50.2889 -1.68250 8.84281
  330 50.1106 -1.66743 -8.87700
  331 151.883 -3.77562 -3.26030
  332 151.908 -3.71966 3.23063
  333 5.15569 -20.3753 -7.15967
  334 4.83955 -20.5587 7.53618
  335 394.373 17.2859 46.2591
  336 595.044 -23.3987 -19.7321
  337 388.526 -21.5228 -1.10122
  338 436.953 -10.0300 -1.21018
  339 464.421 57.5542 -27.9412
  340 95.4424 -3.11875 -21.8057
  341 95.5717 -3.12176 21.7930
  342 378.111 -20.3625 3.00886
  343 111.348 3.41863 -31.1787
  344 111.563 3.32654 31.0965
  345 22.9856 18.1083 -2.31489
  346 23.2454 18.1084 2.42736
  347 457.407 -48.2239 50.3999
  348 995.398 65.4572 25.6340
  349 414.213 6.66961 -54.6744
  350 342.873 -30.6606 46.0749
  351 341.137 -30.0186 -47.3777
  352 503.985 -7.85784 74.3286
  353 451.181 -2.99351 53.7090
  354 451.629 -46.6180 -51.9012
  355 273.552 -7.77685 1.00403
  356 273.507 -7.85507 -0.938196
  357 499.600 -32.5121 44.2109
  358 684.237 135.412 1.21012
  359 533.322 -6.57584 -13.3372
  360 144.589 -5.61479 -11.1956
  361 144.658 -5.62040 11.0986
  362 503.512 -46.1910 -61.9614
  363 532.820 38.1257 -73.6800
  364 365.365 19.6403 -29.7773
  365 503.305 -33.3142 -50.9590
  366 -16.0423 0.732357 -12.7887
  367 -16.0592 0.711632 12.8050
  368 422.624 -11.2557 0.114208
  369 -5.99883 -3.54856 -7.85294
  370 -5.99085 -3.54942 7.83579
  371 324.802 171.558 -256.430
  372 14.3364 13.0680 6.20796
  373 14.6661 13.1669 -6.03063
  374 447.962 -3.15719 -53.2787
  375 249.400 -11.1824 8.27216
  376 249.563 -11.3203 -8.34757
  377 -1.49284 -17.3756 14.5992
  378 -1.46563 -17.3442 -14.5851
  379 265.336 179.477 241.886
  380 205.017 -11.1013 -32.6312
  381 205.189 -10.6477 32.6560
  382 66.3387 49.6983 -50.3497
  383 67.6933 49.5857 50.0850
  384 -23.2539 3.95395 3.74118
  385 -23.1377 3.96077 -3.67724
  386 514.942 35.0847 74.2033
  387 394.256 -41.2816 23.7195
  388 394.683 -36.3160 11.2328
  389 475.931 -53.5300 -10.7476
  390 123.439 15.0192 -42.7663
  391 123.851 14.9974 42.7117
  392 11.2807 -12.0043 3.38624
  393 10.6997 -12.2588 -2.55765
  394 488.332 69.4766 18.2193
  395 484.115 -14.7864 10.6571
  396 281.731 -22.1060 30.4609
  397 176.693 -4.68724 -38.6932
  398 176.773 -4.72062 38.4324
  399 356.501 -11.8938 -2.49094
  400 356.134 -10.5956 2.18947
  401 279.414 -22.6746 -32.1633
  402 219.646 -3.87440 -51.6606
  403 219.627 -4.17134 52.0580
  404 505.704 -45.9283 -29.1149
  405 297.746 -23.3224 19.9151
  406 459.645 -15.0722 5.63296
  407 458.696 -13.8667 -4.49675
  408 387.592 -36.0672 -12.5880
  409 548.114 -3.09994 -3.14953
  410 188.934 78.4913 -147.617
  411 519.735 -7.91596 22.6666
  412 546.939 -3.51962 4.95259
  413 202.346 -11.0842 20.1333
  414 202.416 -10.9387 -20.1190
  415 392.511 -40.7940 -24.3883
  416 58.9917 25.5200 22.3190
  417 58.6816 25.4985 -22.3309
  418 1005.17 65.4078 -52.1980
  419 451.373 -26.5274 -8.93963
  420 551.072 -2.64262 1.81165
  421 178.715 73.5486 140.902
  422 817.318 137.142 28.3394
  423 481.786 -8.46819 -2.66406
  424 364.411 -27.0585 -10.0714
  425 154.821 29.8502 -71.7208
  426 164.791 27.6339 71.2901
  427 446.223 -28.9608 8.88922
  428 475.786 -6.06635 -39.2321
  429 2.38643 -0.489236 8.81609
  430 2.15161 -0.484329 -8.80837
  431 174.230 42.3537 -95.1992
  432 174.787 42.5009 94.9159
  433 23.7036 9.57573 -10.3281
  434 23.9234 9.55626 10.4143
  435 400.811 -9.06818 0.266366
  436 400.331 -8.86757 -0.136570
  437 497.582 -22.9833 -35.2561
  438 -0.733079 -0.638585 17.3735
  439 -0.643443 -0.557346 -17.3070
  440 512.059 -49.8425 24.7018
  441 483.390 -13.9164 -9.27186
  442 779.751 148.998 -26.5933
  443 40.1380 -1.47522 4.25797
  444 39.9789 -1.47546 -4.29657
  445 930.379 268.731 124.760
  446 19.9260 15.4568 -31.4215
  447 63.5556 2.68096 -21.4317
  448 63.7611 2.63570 21.4345
  449 929.061 275.303 -121.597
  450 21.1165 17.5602 34.2735
  451 -21.6631 2.97008 0.203705
  452 -21.5119 2.96580 -0.142599
  453 55.0238 37.7396 -30.6188
  454 55.9426 37.7665 30.7756
  455 613.364 97.5127 -48.1664
  456 491.319 -19.8322 -22.0244
  457 548.308 -2.71465 -1.54155
  458 513.739 -8.11654 -26.7697
  459 -5.08152 4.27223 15.7942
  460 -4.99007 4.32503 -15.7308
  461 496.522 -20.5501 26.0250
  462 326.422 -19.1286 -9.56050
  463 325.456 -19.3098 8.50600
  464 439.315 -48.2917 -11.3865
  465 315.488 -3.62308 -100.793
  466 480.140 -7.27016 40.0167
  467 391.870 -13.8594 1.51237
  468 570.860 -40.5311 -12.5690
  469 305.781 3.63331 107.872
  470 30.6678 -0.514905 8.51002
  471 30.4574 -0.505759 -8.52491
  472 631.215 124.633 -20.4807
  473 499.937 -4.84222 -0.0338726
  474 498.283 -5.34131 -0.404459
  475 382.170 -26.2417 5.64487
  476 173.112 -6.07091 -6.38637
  477 173.114 -6.00593 6.32007
  478 103.502 -1.45116 -25.8015
  479 103.629 -1.47124 25.7602
  480 331.524 12.8202 17.8702
  481 88.0241 -2.88424 12.6181
  482 87.8931 -2.85784 -12.6724
  483 90.5951 8.18987 29.1558
  484 90.2982 8.31102 -29.1268
  485 488.574 -37.8997 30.9158
  486 277.252 -17.3123 -48.7763
  487 257.506 -9.01594 4.53254
  488 257.589 -9.21371 -4.53707
  489 280.123 -17.8443 48.7767
  490 759.213 182.595 -22.6601
  491 -12.1217 -1.76036 -10.0708
  492 -12.1139 -1.77003 10.0642
  493 198.418 -5.96092 -2.69879
  494 198.427 -5.88063 2.68974
  495 0.361264 -31.7715 -11.7964
  496 0.281279 -31.8767 11.9052
  497 445.187 -7.96063 0.462809
  498 329.728 15.4614 -8.87654
  499 435.235 45.4516 25.2587
  500 275.085 -2.33555 -81.0452
  501 139.623 -7.18484 19.0399
  502 139.594 -7.12534 -19.0659
  503 -30.2985 1.04529 -3.39335
  504 -30.0891 1.03877 3.42220
  505 528.389 -8.81001 -72.9584
  506 51.9559 0.201395 -2.81849
  507 52.0492 0.208013 2.78630
  508 439.858 -35.1408 -6.21455
  509 468.168 -40.0993 -16.2526
  510 98.6584 77.4311 -101.764
  511 393.656 13.0651 -156.442
  512 6.97023 12.4006 6.12277
  513 7.16224 12.4286 -6.01495
  514 245.773 -11.8648 -11.5583
  515 245.662 -11.7660 11.3490
  516 670.278 32.6628 -7.75964
  517 486.418 -29.1041 -28.2168
  518 96.2499 73.5110 100.403
  519 481.795 -53.8275 18.3057
  520 463.974 -44.1644 11.5163
  521 106.775 -2.59472 -8.32517
  522 106.853 -2.58554 8.25320
  523 389.875 4.49362 42.4075
  524 279.771 -20.9939 -20.8597
  525 511.105 -12.0970 15.9276
  526 -2.02160 -12.4478 -9.81842
  527 -2.02658 -12.4368 9.80312
  528 362.074 -31.7008 54.5281
  529 545.940 -40.4672 -34.8004
  530 706.142 55.5696 -33.2596
  531 387.355 -14.2975 -1.45410
  532 123.058 -2.36866 -2.38739
  533 123.100 -2.32774 2.36761
  534 248.003 2.26792 78.2289
  535 679.212 117.135 28.3998
  536 680.305 148.391 -244.927
  537 618.373 6.42493 31.5109
  538 447.807 -49.5537 9.06112
  539 1035.27 82.4739 70.1927
  540 775.813 192.262 30.9212
  541 116.912 -4.93331 20.7272
  542 116.816 -4.88572 -20.7548
  543 430.884 -36.1460 3.48619
  544 35.2341 15.7907 -10.0309
  545 35.4831 15.7843 10.1318
  546 539.354 -43.7026 34.9324
  547 448.552 24.6854 62.2025
  548 540.870 -3.87698 8.97246
  549 403.824 -25.0302 0.0456674
  550 558.899 9.89591 -164.894
  551 877.693 240.044 165.924
  552 435.720 -9.82328 -0.230507
  553 532.409 -5.82678 -14.8133
  554 87.7034 36.1787 -41.0285
  555 88.3293 35.7495 40.8658
  556 309.662 -13.2845 -6.40301
  557 309.528 -12.9958 6.50620
  558 3.96359 -34.1046 -6.35573
  559 545.416 -18.1857 64.0205
  560 22.9201 20.1173 -0.335978
  561 23.2569 20.1752 0.496839
  562 4.59170 -32.7650 7.52828
  563 497.667 -22.5273 -52.5971
  564 571.967 37.6961 -69.2438
  565 570.215 42.5753 69.3343
  566 28.9528 26.8722 23.9073
  567 27.5605 27.4204 -23.4521
  568 -10.4679 0.477507 6.75926
  569 -10.7069 0.482790 -6.74542
  570 521.553 17.9375 169.715
  571 291.768 -16.7552 11.9691
  572 292.048 -16.6977 -12.1472
  573 627.265 -6.37347 -90.1439
  574 90.7505 -1.27574 4.81901
  575 90.6792 -1.29399 -4.86742
  576 47.9920 -1.00751 -1.11442
  577 48.0632 -1.00093 1.10312
  578 692.372 129.413 -21.2000
  579 67.8886 109.856 -111.517
  580 374.064 7.78302 -35.9941
  581 520.060 82.7806 -30.7847
  582 8.45179 1.54683 9.45291
  583 8.76646 1.66415 -9.24214
  584 510.882 252.203 286.083
  585 442.439 -13.4442 -2.39570
  586 19.8274 4.48314 -11.8026
  587 20.0448 4.45094 11.8572
  588 511.415 -40.6416 43.5652
  589 80.0680 106.684 113.547
  590 370.662 -9.00332 0.789217
  591 370.766 -8.93798 -0.790591
  592 -0.250204 -25.5264 12.5059
  593 -0.210360 -25.4855 -12.4646
  594 631.183 122.122 -1.01090
  595 400.578 -31.3966 76.0877
  596 382.971 -17.3834 -2.43223
  597 383.940 20.0071 164.897
  598 -31.0754 1.71448 7.35680
  599 -31.0449 1.72380 -7.32494
  600 625.754 11.2091 -34.1381
  601 823.477 150.150 -120.777
  602 242.258 25.3925 -111.429
  603 135.016 -5.76913 -25.1421
  604 135.149 -5.77178 25.1503
  605 562.954 -2.21026 2.29729
  606 379.341 -17.7306 1.99015
  607 502.813 -7.82749 4.87500
  608 497.657 -22.5804 51.3086
  609 29.5045 -0.847117 4.31047
  610 29.3145 -0.843617 -4.33884
  611 298.149 -11.2158 -3.79018
  612 298.114 -10.9387 3.69955
  613 187.815 3.94974 -53.2236
  614 186.646 4.00529 53.0134
  615 709.841 48.5449 49.8912
  616 1143.60 86.2309 -124.510
  617 -2.66539 -0.745764 5.85269
  618 -2.91546 -0.743415 -5.84984
  619 179.679 -7.73878 11.6791
  620 179.655 -7.72851 -11.8136
  621 664.215 40.3428 16.8367
  622 555.851 -2.55166 -0.727561
  623 554.686 -3.40205 0.233570
  624 414.225 0.0970252 41.9279
  625 584.232 -31.5287 -56.9613
  626 322.378 -26.7533 24.8099
  627 -5.52763 7.48545 -5.89076
  628 -5.67141 7.47267 5.97499
  629 514.050 11.3583 77.3629
  630 207.726 -12.1447 -26.4362
  631 207.545 -12.3402 26.4849
  632 417.774 -24.9494 -1.58710
  633 513.225 -11.8562 -14.3647
  634 297.533 -23.8601 -36.0781
  635 487.570 58.8846 -47.0626
  636 327.920 -22.4181 -62.5122
  637 127.037 -3.41719 -4.40937
  638 127.079 -3.37974 4.35947
  639 300.529 -24.2627 36.2624
  640 638.147 104.789 42.0695
  641 509.066 -24.2220 64.7176
  642 416.714 -19.5164 1.79235
  643 301.260 -8.90408 2.20100
  644 301.185 -8.92011 -2.14530
  645 229.578 -9.03201 -8.44066
  646 229.505 -8.94234 8.36499
  647 489.083 -44.7079 -23.5444
  648 252.260 -14.6988 14.6940
  649 252.516 -14.6400 -14.9458
  650 496.336 76.1526 -6.26100
  651 452.093 -24.4931 9.18584
  652 560.392 -2.95342 -3.70679
  653 483.496 -8.40949 -68.5326
  654 75.5498 -3.24285 16.6739
  655 75.3963 -3.22048 -16.6836
  656 548.028 -3.39380 -8.15338
  657 101.335 52.6886 -72.3544
  658 103.043 52.5757 72.7025
  659 559.795 -31.2445 76.5321
  660 196.716 49.8019 117.370
  661 53.3432 -0.423742 16.6645
  662 53.1629 -0.412430 -16.6680
  663 478.342 -29.2258 97.2722
  664 469.227 72.4508 -223.074
  665 465.011 15.1836 -68.7174
  666 607.799 110.464 37.0832
  667 409.778 -19.1448 0.0205821
  668 733.835 130.935 -3.18665
  669 -32.5983 1.69443 -2.42170
  670 -32.4222 1.69031 2.46168
  671 328.109 2.40261 -117.508
  672 31.8540 -0.503669 3.26801
  673 31.7088 -0.504898 -3.29772
  674 410.096 -33.7898 -75.2885
  675 139.431 18.8493 -51.5106
  676 138.359 18.9260 51.4902
  677 5.62385 6.95175 -4.52687
  678 5.81628 6.94373 4.61109
  679 350.281 -30.5766 -19.3894
  680 494.017 -4.88663 -26.1833
  681 239.879 -7.94157 -2.98136
  682 239.897 -7.86219 3.00182
  683 175.582 -9.11380 -17.1925
  684 175.727 -9.23635 17.1390
  685 34.0375 27.9511 -11.8828
  686 34.5802 28.0171 12.0702
  687 501.680 -6.92672 2.10819
  688 229.065 -14.8098 22.2744
  689 230.473 -14.5626 -22.2605
  690 556.811 -43.1162 -1.42514
  691 460.856 -46.3474 -6.50855
  692 364.000 -11.3198 -1.28370
  693 362.757 -10.6378 1.44580
  694 506.283 -52.4453 31.9176
  695 817.903 165.786 47.1159
  696 445.337 -18.0941 -119.720
  697 509.587 -14.5890 26.4911
  698 508.325 -18.3409 -69.7620
  699 164.468 -5.28905 -8.23979
  700 164.482 -5.25325 8.15102
  701 396.813 -5.15285 133.836
  702 1085.37 140.279 128.317
  703 79.6125 22.6413 -30.6486
  704 79.7341 22.7952 30.7464
  705 499.797 -5.82254 -1.01431
  706 503.639 -5.28769 1.04712
  707 215.479 113.261 -188.403
  708 532.635 -3.20180 14.9122
  709 460.873 -8.98274 1.28579
  710 611.876 120.605 -13.3853
  711 66.0559 11.1819 -22.5065
  712 66.3372 11.1132 22.5882
  713 566.868 -1.77096 0.289309
  714 464.273 -18.7432 -9.33306
  715 578.258 -7.20471 54.8096
  716 241.482 -17.0728 -34.1668
  717 242.083 -16.3616 33.8758
  718 60.8811 -1.96774 12.6119
  719 60.7108 -1.94400 -12.6400
  720 521.648 -4.36445 -2.16052
  721 450.374 94.3747 236.188
  722 4.13900 4.59938 13.8176
  723 4.30931 4.70420 -13.7007
  724 523.714 -6.37196 -6.27787
  725 509.423 -10.1340 9.05045
  726 412.382 0.574676 -44.9693
  727 4.10387 -44.3967 -4.98201
  728 3.85090 -44.8564 5.44578
  729 189.331 51.4112 -117.426
  730 409.532 -40.6097 -55.2748
  731 214.218 112.157 190.066
  732 560.175 -1.84747 1.28371
  733 549.993 82.5887 48.8449
  734 407.218 36.7929 -17.6292
  735 714.676 143.939 4.33938
  736 554.660 -2.72673 5.11918
  737 -29.3129 0.804857 4.83417
  738 -29.5454 0.809236 -4.81520
  739 591.950 -31.4857 20.9344
  740 386.582 -12.1812 -1.63691
  741 144.570 -0.0125270 -37.1758
  742 144.767 -0.152306 36.9863
  743 508.674 -6.81992 -3.28552
  744 894.456 126.422 -47.2997
  745 68.2124 -1.90272 -8.10765
  746 68.3589 -1.91348 8.05792
  747 564.112 -1.92984 -2.27352
  748 120.364 -5.32326 -11.2717
  749 120.453 -5.34188 11.1975
  750 557.134 -21.0391 -57.0577
  751 515.340 -5.56302 20.8780
  752 466.430 -2.61681 68.0056
  753 564.359 -2.00018 0.174782
  754 529.393 -4.76914 4.69354
  755 351.247 -19.6217 -5.95159
  756 436.906 -12.5301 1.50121
  757 497.232 -30.6336 -43.0391
  758 484.646 -30.7829 27.0297
  759 569.838 69.8156 -61.3164
  760 477.813 -27.3216 19.4781
  761 505.677 -29.6750 55.6577
  762 296.553 -20.5233 15.6812
  763 11.2655 -0.333111 1.13526
  764 10.7009 -0.374005 -0.599396
  765 441.679 -7.79689 -0.221756
  766 440.764 -7.75124 0.0614304
  767 525.888 -3.17468 -0.184213
  768 527.634 -3.07845 0.302716
  769 505.568 -14.4272 32.8686
  770 466.281 -41.7585 71.4984
  771 385.159 -31.6999 8.81667
  772 343.179 -21.1455 8.53847
  773 911.600 116.505 54.3118
  774 509.820 -13.4635 -20.5455
  775 301.217 54.4597 -176.321
  776 474.636 -24.0779 -16.6722
  777 23.7387 0.304262 -12.2656
  778 23.9546 0.286959 12.2845
  779 431.791 37.8960 -39.4817
  780 1054.72 31.9826 -13.5989
  781 536.075 14.7257 -75.1707
  782 22.2248 22.2414 -45.4351
  783 554.547 99.2064 12.4027
  784 430.024 -28.0044 3.89998
  785 485.036 -11.7715 66.4138
  786 407.517 -42.3423 55.5718
  787 643.506 1.20761 109.578
  788 23.9292 27.1875 48.3401
  789 296.566 -1.36019 92.3477
  790 410.984 -11.6828 0.160020
  791 457.484 -40.0056 -72.3308
  792 284.608 -22.4285 -25.8641
  793 225.312 10.9193 -81.2121
  794 530.906 -7.44381 73.6192
  795 342.750 -23.9088 12.8987
  796 73.2025 -1.96498 7.10975
  797 73.0874 -1.96702 -7.16713
  798 495.509 -2.80249 23.1603
  799 452.781 2.65560 -66.3004
  800 -38.1860 1.82051 4.38766
  801 -38.1279 1.82418 -4.35241
  802 333.686 -11.3709 -2.37874
  803 332.757 -10.8128 2.26815
  804 248.360 28.3669 112.956
  805 224.003 -13.3733 17.0186
  806 224.291 -13.0615 -17.1735
  807 563.589 -1.49688 -1.14078
  808 203.288 16.2116 79.2709
  809 14.0370 -0.192068 4.53200
  810 13.8078 -0.187967 -4.54821
  811 489.734 -15.0219 51.1183
  812 517.261 -5.23635 1.63332
  813 -27.6542 0.403308 7.50708
  814 -27.6613 0.412583 -7.49182
  815 323.629 -20.0553 69.8309
  816 64.3710 55.4677 -62.0111
  817 65.1356 53.0790 61.1317
  818 315.417 13.7868 7.41823
  819 1.34909 -0.376910 -5.17737
  820 1.60202 -0.380127 5.17420
  821 371.027 -34.9810 -52.1601
  822 503.159 -52.2522 -12.2354
  823 -2.54142 -2.40941 -3.22004
  824 -2.53363 -2.40347 3.20781
  825 36.3126 0.816320 -1.11109
  826 36.3969 0.820955 1.09402
  827 448.555 -40.1606 7.48255
  828 379.107 -38.6840 37.4220
  829 417.921 -8.23766 0.321119
  830 378.215 -30.9576 -10.1823
  831 145.155 -2.61372 -0.937559
  832 145.187 -2.56003 0.925259
  833 -42.7826 0.925491 2.33607
  834 -42.6865 0.924388 -2.30113
  835 469.882 -7.20566 -1.29657
  836 424.397 17.0231 -56.6172
  837 475.471 -10.4648 -4.64767
  838 285.218 -22.0771 24.7380
  839 475.031 -8.14956 -54.4097
  840 504.998 -15.6510 -33.9438
  841 471.698 -6.35127 1.13855
  842 347.728 -12.6086 94.6204
  843 371.512 -36.4536 -22.4623
  844 226.362 -1.71012 -62.8467
  845 227.581 -0.139630 63.1729
  846 318.141 -24.2772 -16.9911
  847 525.876 57.5920 64.3930
  848 495.146 -50.5293 -41.6434
  849 185.002 -6.11362 -4.23741
  850 185.000 -6.03122 4.20139
  851 380.480 -9.78572 0.946115
  852 380.501 -9.85649 -0.864187
  853 455.558 -3.31835 -35.7024
  854 158.485 -6.80863 -13.9118
  855 158.580 -6.85829 13.8104
  856 1.94993 -45.8028 -8.71139
  857 1.85125 -46.0026 8.90421
  858 85.3736 -1.24594 -0.155420
  859 85.3145 -1.26882 0.140665
  860 466.650 -8.42945 -1.79303
  861 357.890 -34.1501 34.0077
  862 550.369 -45.9142 12.4327
  863 334.413 6.98580 28.3957
  864 477.224 -12.2307 5.40197
  865 522.159 -46.1179 -32.4981
  866 79.8933 4.68295 -25.3186
  867 80.1269 4.60371 25.3130
  868 415.848 -8.74826 -0.281767
  869 337.587 -12.6577 -4.19328
  870 336.458 -12.5589 4.49488
  871 521.336 81.0161 34.7128
  872 183.996 -2.02827 -44.5256
  873 183.844 -2.23742 44.3535
  874 361.217 -32.9429 18.3789
  875 37.0821 23.3743 -10.4029
  876 37.4313 23.3339 10.5062
  877 306.565 -21.7214 57.4012
  878 366.158 -24.0136 -6.49152
  879 458.031 -3.44075 36.0715
  880 447.419 -50.0141 20.8631
  881 512.142 -38.5302 -47.3490
  882 357.013 -34.4266 -34.4319
  883 298.627 -20.4473 -15.0913
  884 949.866 77.6945 -14.8320
  885 468.336 -49.4372 3.40977
  886 15.1444 16.1399 3.70187
  887 15.3929 16.1737 -3.57013
  888 408.315 -41.0553 11.7068
  889 446.684 -49.7641 -33.5389
  890 16.5649 13.8382 -1.36776
  891 16.7845 13.8444 1.46964
  892 172.956 -6.33320 34.1391
  893 173.041 -6.51243 -34.3193
  894 208.126 -10.6846 37.3790
  895 208.037 -10.9267 -37.6081
  896 645.208 129.259 15.5439
  897 -0.898649 -19.9318 -9.46682
  898 -0.905381 -19.9055 9.45896
  899 152.121 12.5737 -49.0499
  900 151.408 12.3240 48.6090
  901 1089.26 35.2713 -54.6155
  902 30.4030 -0.144921 1.87224
  903 30.2847 -0.148490 -1.89562
  904 2.10978 -50.6265 1.78119
  905 2.43804 -49.7179 -1.01365
  906 -21.3274 -0.219289 7.82625
  907 -21.3534 -0.212532 -7.82427
  908 121.769 35.5966 -57.5540
  909 123.636 34.4129 56.7886
  910 -8.81239 0.747800 -16.2141
  911 -8.85873 0.709271 16.2430
  912 38.4262 2.97159 -16.7641
  913 38.6466 2.93244 16.7913
  914 133.882 -1.75369 31.5557
  915 133.779 -1.74672 -31.6951
  916 110.670 -3.87908 -25.5351
  917 110.791 -3.87328 25.5035
  918 551.088 -2.28597 -8.13305
  919 272.171 59.9493 164.378
  920 375.137 -37.1472 21.2589
  921 269.143 -19.5779 20.1720
  922 514.712 53.5145 -63.8366
  923 1071.39 22.8224 21.9136
  924 604.155 29.6178 -57.9396
  925 106.894 -4.07377 16.0727
  926 106.778 -4.02905 -16.1245
  927 23.4839 -0.638209 -11.8291
  928 23.6980 -0.643861 11.8319
  929 0.0149312 -8.73594 -17.4718
  930 -0.0649589 -8.81566 17.5313
  931 278.103 -12.8041 9.34889
  932 278.237 -13.0370 -9.38624
  933 36.6906 8.98539 -15.2699
  934 36.9248 8.94623 15.3458
  935 171.946 -7.81748 -29.1466
  936 172.070 -7.81984 29.1338
  937 369.454 -1.29406 -33.3527
  938 177.689 -9.77394 -20.5222
  939 177.586 -9.67651 20.5868
  940 419.002 -12.7375 0.178124
  941 507.293 -28.6386 -60.0271
  942 226.504 -9.52994 9.77380
  943 226.598 -9.61073 -9.88664
  944 -9.28077 -0.964886 -5.61512
  945 -9.25453 -0.967187 5.60254
  946 514.116 -37.7058 -87.8593
  947 494.085 -29.1227 37.1137
  948 434.103 -30.8488 -5.68697
  949 429.410 15.0732 59.6049
  950 197.324 -11.2568 -23.0437
  951 197.341 -11.0537 23.1104
  952 476.818 18.8146 71.5980
  953 447.702 39.2075 47.2004
  954 890.386 106.493 19.0102
  955 460.463 -17.3376 6.42784
  956 247.671 -7.88431 -4.42236
  957 247.648 -7.74446 4.45470
  958 414.153 -34.3299 1.66070
  959 574.823 105.244 -28.6543
  960 501.799 -6.28387 -2.18065
  961 334.405 -9.08272 1.47486
  962 334.283 -9.01967 -1.38235
  963 44.0959 37.7881 -28.4237
  964 45.1761 37.7393 28.6221
  965 79.7375 219.099 -182.572
  966 476.110 -11.0065 54.0691
  967 587.536 -9.05840 -47.9894
  968 -7.80016 5.79583 1.90162
  969 -7.64200 5.79575 -1.82152
  970 1168.83 282.855 -223.867
  971 503.815 -54.0987 1.25812
  972 536.198 -48.1792 -26.2369
  973 496.616 -42.3799 32.7956
  974 616.849 120.803 11.1807
  975 46.1015 51.4331 -58.0076
  976 113.845 190.842 180.360
  977 -2.62021 -6.42865 17.6532
  978 -2.57074 -6.37018 -17.6236
  979 481.753 -13.1413 6.95743
  980 772.687 135.980 -18.0832
  981 47.4055 50.3764 60.1534
  982 -2.10723 -7.25474 -6.24421
  983 -2.10744 -7.23400 6.22739
  984 414.939 -10.6804 -0.544741
  985 312.715 -25.0678 -27.0495
  986 500.591 -39.3567 -39.7394
  987 145.508 39.2274 -75.2061
  988 147.808 39.8633 75.3968
  989 488.129 -12.0359 -47.9778
  990 488.711 -16.1567 14.0623
  991 -12.3092 3.61328 14.0362
  992 -12.2436 3.64788 -13.9884
  993 298.679 -19.6294 -54.1407
  994 494.568 32.1900 -71.5089
  995 366.632 -14.5956 2.76011
  996 266.879 -8.20510 0.895763
  997 266.826 -8.25276 -0.866115
  998 -5.40223 -6.14872 -12.8678
  999 -5.40969 -6.16200 12.8561
  1000 495.344 -18.2325 -17.7013
  1001 470.640 -6.25356 0.294790
  1002 470.208 -6.26099 -0.110027
  1003 652.300 108.516 -37.9495
  1004 121.887 10.2231 -39.0742
  1005 122.191 10.0196 39.0001
  1006 80.4333 -0.894168 -21.2958
  1007 80.5870 -0.909780 21.2776
  1008 539.824 29.8930 76.0467
  1009 506.875 -10.2535 -9.50523
  1010 93.5985 14.3161 -32.2170
  1011 93.9645 14.2119 32.3330
  1012 526.614 -3.54572 -1.34111
  1013 495.564 -21.7950 -27.7073
  1014 483.981 -53.8948 -24.8137
  1015 19.7243 17.7197 2.05309
  1016 19.2053 17.6357 -1.81624
  1017 -22.3116 3.97958 7.98824
  1018 -22.2264 3.99104 -7.93022
  1019 305.414 11.2489 -12.3996
  1020 831.267 209.493 -62.7658
  1021 384.640 -28.5493 -5.06433
  1022 256.801 -11.2375 -55.6004
  1023 610.631 -22.1038 -0.402555
  1024 257.801 -11.2140 56.3512
  1025 440.784 -50.7428 38.5059
  1026 499.444 -20.7254 -42.8916
  1027 177.563 -4.39624 -1.35336
  1028 177.585 -4.32743 1.34591
  1029 343.490 -27.2214 -15.2766
  1030 213.063 -8.10631 -43.7712
  1031 213.000 -8.16747 43.5725
  1032 71.7293 47.2134 -47.7193
  1033 72.8403 47.0979 47.8626
  1034 150.760 -4.88058 -4.76945
  1035 150.782 -4.82505 4.71716
  1036 443.586 -14.9611 2.78611
  1037 375.589 2.90828 -135.326
  1038 459.483 -15.7522 -6.47712
  1039 416.764 -45.9426 -24.4500
  1040 277.455 -12.2382 6.56461
  1041 277.670 -12.3233 -6.58014
  1042 533.709 -3.93433 1.69586
  1043 479.876 -12.2513 -6.50019
  1044 320.858 7.90282 23.4391
  1045 515.999 -5.16766 -19.4449
  1046 202.646 60.4074 132.721
  1047 529.966 -5.07139 -15.8081
  1048 142.386 23.7685 -57.2284
  1049 138.268 24.0250 55.0101
  1050 630.798 -7.77853 -1.74317
  1051 60.0965 30.8460 -25.8475
  1052 60.6349 30.6321 25.8497
  1053 10.5309 1.31482 3.86696
  1054 11.0237 1.41012 -3.54262
  1055 89.9170 -2.33165 5.66049
  1056 89.8297 -2.34557 -5.72087
  1057 229.928 61.0836 -146.519
  1058 1203.79 322.251 241.003
  1059 493.867 -18.2133 18.1488
  1060 444.702 -49.6591 -19.1045
  1061 311.695 -25.6598 -42.4820
  1062 -5.18706 7.22593 11.6912
  1063 -5.06687 7.26541 -11.6101
  1064 350.822 -18.7471 4.96291
  1065 385.689 -15.1911 1.68868
  1066 -0.148729 -28.1896 9.07496
  1067 -0.139205 -28.2205 -9.07344
  1068 60.2571 37.0854 -30.4169
  1069 60.9532 37.0252 30.5903
  1070 346.287 -17.3169 -4.76977
  1071 29.9894 12.7619 10.3519
  1072 29.7581 12.7772 -10.2565
  1073 525.537 -20.0181 69.6999
  1074 381.863 -39.4037 -37.2343
  1075 313.519 -26.0689 42.4836
  1076 502.088 -9.38892 -74.1207
  1077 524.384 -6.39858 6.88012
  1078 194.518 30.1587 89.9958
  1079 195.903 28.8520 -88.5301
  1080 310.972 -14.7847 -75.9942
  1081 436.539 -16.4985 -2.67707
  1082 357.236 -22.0660 8.24642
  1083 416.927 -39.1737 -4.69427
  1084 565.275 -2.27389 -4.01836
  1085 311.310 -14.9414 7.46735
  1086 311.177 -15.7511 -7.63048
  1087 11.5584 13.2450 8.63061
  1088 11.8143 13.3399 -8.48260
  1089 506.895 19.4356 -76.7778
  1090 117.442 5.62092 -34.6575
  1091 117.755 5.49470 34.5762
  1092 89.6448 1.46541 -25.1619
  1093 89.8394 1.41789 25.1264
  1094 571.417 -19.3379 109.721
  1095 498.712 -23.0564 42.1272
  1096 247.772 -11.4802 -47.5232
  1097 573.248 -2.48328 -2.38445
  1098 650.530 123.823 -28.3188
  1099 523.101 -5.67915 -4.11895
  1100 493.522 -52.7767 12.0685
  1101 367.385 -27.4539 67.1453
  1102 576.163 -0.988636 0.315142
  1103 320.282 9.90413 -19.8554
  1104 419.786 -44.8812 -13.2765
  1105 248.182 -11.9911 47.0505
  1106 423.593 -38.8402 2.28353
  1107 524.636 -8.00177 13.6334
  1108 386.810 24.4686 30.7502
  1109 266.191 -19.7075 -38.3547
  1110 785.223 120.345 -55.3057
  1111 597.200 28.9607 61.3118
  1112 453.934 56.6224 7.47653
  1113 571.252 -0.183838 2.00635
  1114 232.166 -14.6970 -29.7698
  1115 157.887 100.119 -147.728
  1116 280.543 8.17717 -106.700
  1117 321.846 -25.0954 19.7677
  1118 273.003 -20.5809 36.1585
  1119 231.645 -14.0011 30.0464
  1120 482.920 4.81761 75.0481
  1121 364.185 -13.6098 -2.31860
  1122 564.223 -4.42012 5.57001
  1123 -3.96462 0.133009 17.4683
  1124 -3.89627 0.192437 -17.4232
  1125 380.822 -11.8797 1.35398
  1126 0.488724 5.03214 15.3161
  1127 0.612964 5.11060 -15.2288
  1128 218.745 -7.28096 5.28778
  1129 218.753 -7.38546 -5.29313
  1130 534.547 -3.01916 13.1152
  1131 431.568 -27.0509 -4.40980
  1132 404.835 -22.4042 0.376489
  1133 451.797 -32.0771 11.6568
  1134 140.616 71.1541 -111.138
  1135 442.466 -17.6331 4.05693
  1136 71.1594 1.06971 -20.7543
  1137 71.3444 1.03669 20.7449
  1138 94.9522 61.9606 -79.3513
  1139 702.867 96.6359 14.0781
  1140 57.1728 -2.45856 12.2071
  1141 56.9952 -2.43916 -12.2217
  1142 96.6496 61.0885 76.7785
  1143 406.618 -34.4288 -3.29172
  1144 210.750 -10.1322 11.8981
  1145 210.773 -10.1740 -12.0652
  1146 820.996 174.821 -50.2496
  1147 447.055 -44.8097 -0.848810
  1148 155.642 93.9787 147.473
  1149 13.9281 1.22944 -14.5488
  1150 14.9566 1.40872 15.7482
  1151 476.460 59.7016 37.5361
  1152 37.9497 19.6413 -10.7505
  1153 38.2421 19.6500 10.8374
  1154 449.913 -39.3802 -8.17373
  1155 -0.195255 -43.2861 -8.40357
  1156 -0.215541 -43.2882 8.44188
  1157 480.351 -40.5961 -22.0615
  1158 0.0175592 0.555287 4.03461
  1159 -0.238624 0.559004 -4.04205
  1160 76.8071 28.0583 -32.5539
  1161 77.2179 28.1822 32.2885
  1162 -19.0028 0.0416938 -4.94215
  1163 -18.7420 0.0399694 4.94790
  1164 477.545 -6.26195 -0.240333
  1165 -45.8923 1.41395 0.316439
  1166 -45.7591 1.41339 -0.284004
  1167 257.848 -20.4376 -28.9009
  1168 7.02094 -56.8720 -8.18023
  1169 134.402 -3.89812 8.94030
  1170 134.343 -3.91007 -9.02564
  1171 408.213 -8.93062 0.807724
  1172 408.974 -8.73105 -0.729926
  1173 7.54267 -53.9189 9.67394
  1174 483.118 -25.6737 -22.5977
  1175 548.878 -2.79825 9.47794
  1176 491.203 -31.6311 -33.9419
  1177 434.603 3.47219 59.1395
  1178 2.59374 -15.9868 12.1508
  1179 2.80575 -15.8530 -11.9316
  1180 317.520 -23.5407 16.1362
  1181 -20.8916 2.10030 11.2703
  1182 -20.8527 2.11771 -11.2352
  1183 810.577 128.113 9.23655
  1184 933.363 306.366 -215.064
  1185 501.931 -48.4013 27.6919
  1186 213.460 -6.60935 -0.868947
  1187 213.480 -6.53677 0.869767
  1188 1011.08 98.2379 -91.2164
  1189 80.4910 -2.05573 12.6586
  1190 80.3441 -2.02585 -12.6991
  1191 472.432 -1.53340 -23.2486
  1192 304.830 -24.8336 32.5717
  1193 496.440 -48.3092 -19.0090
  1194 480.796 -35.1401 -25.6708
  1195 296.513 -10.1341 79.5365
  1196 112.614 20.5404 -43.8776
  1197 112.564 20.3601 43.6490
  1198 146.562 54.7249 -94.8590
  1199 146.781 50.7112 94.8721
  1200 44.5628 12.0898 -16.2409
  1201 44.8148 12.0558 16.3320
  1202 594.888 103.649 -41.6639
  1203 32.4567 30.0212 -15.4857
  1204 33.1806 30.0743 15.7059
  1205 428.661 -33.3202 3.05630
  1206 788.527 124.801 61.4180
  1207 109.292 -4.46156 -8.81671
  1208 109.381 -4.46049 8.74156
  1209 507.176 378.471 -312.238
  1210 408.470 24.4424 -47.3445
  1211 377.405 28.7258 19.4048
  1212 54.2001 21.9679 -19.1581
  1213 54.4508 21.9714 19.2561
  1214 19.3952 -0.119949 2.93947
  1215 19.2143 -0.119780 -2.96208
  1216 473.984 -38.2371 20.5312
  1217 465.489 -19.4288 10.4306
  1218 319.698 95.6337 -226.928
  1219 732.608 160.566 -12.4994
  1220 318.467 -9.20555 -87.2813
  1221 410.065 -13.6607 -0.760510
  1222 31.0168 -1.99334 -0.643626
  1223 31.0820 -1.99167 0.640063
  1224 -6.92652 3.23193 -7.25504
  1225 -6.72130 3.21906 7.30543
  1226 277.682 3.44770 -91.6346
  1227 503.776 -11.8135 12.5044
  1228 330.899 7.22890 123.896
  1229 445.722 -22.8062 -7.12487
  1230 232.281 85.3224 -179.900
  1231 359.303 -16.7129 -94.0031
  1232 426.766 -45.5531 10.9083
  1233 519.756 -8.62543 21.1212
  1234 456.120 -10.6209 -2.19082
  1235 256.812 -19.2199 29.0518
  1236 571.570 -30.5389 -36.3534
  1237 546.123 48.4122 71.8773
  1238 240.694 1.21644 -73.0456
  1239 536.543 -4.07784 1.37579
  1240 443.102 54.8265 -10.6928
  1241 195.197 -7.09466 -8.74471
  1242 195.172 -7.02677 8.66078
  1243 821.116 197.587 55.6749
  1244 1108.76 29.4418 51.1261
  1245 1.06761 -52.6832 -8.30689
  1246 1.03459 -52.7374 8.37230
  1247 125.503 67.6681 104.304
  1248 297.143 -9.49916 -2.20751
  1249 297.207 -9.44844 2.31440
  1250 403.177 -40.7157 -13.9684
  1251 483.843 40.1529 64.8749
  1252 499.399 -10.7005 -7.65941
  1253 575.189 -1.82307 -0.578178
  1254 994.445 222.868 -141.888
  1255 163.683 -6.29122 9.20905
  1256 163.655 -6.30312 -9.31250
  1257 480.859 -44.6000 20.8162
  1258 834.629 212.345 -72.0748
  1259 465.899 -21.0919 -11.8842
  1260 343.398 -24.4261 -11.9160
  1261 419.433 -45.4322 23.9291
  1262 410.069 -21.3374 0.569783
  1263 16.0727 8.70399 -21.9490
  1264 558.048 -32.6523 44.5546
  1265 453.419 -30.2107 -11.4320
  1266 17.6495 9.48855 24.0018
  1267 465.464 -35.6316 -88.6784
  1268 439.237 30.6116 -185.767
  1269 719.517 96.5609 -6.84257
  1270 577.261 -0.736475 -0.153526
  1271 576.312 -1.26390 0.483216
  1272 460.974 -27.5025 12.8130
  1273 181.285 21.6002 -72.1156
  1274 524.483 -45.9043 35.5497
  1275 884.230 203.817 96.8394
  1276 223.284 79.1227 175.446
  1277 6.92127 2.10798 12.1092
  1278 7.15564 2.22583 -11.9478
  1279 549.078 -42.3965 -50.0566
  1280 227.152 -12.7129 -14.1725
  1281 227.123 -12.7467 13.9500
  1282 514.012 -33.3936 57.1279
  1283 24.0766 0.0649561 13.1932
  1284 23.8640 0.0750079 -13.1853
  1285 -2.65186 -10.5111 14.7407
  1286 -2.63292 -10.4886 -14.7445
  1287 98.4070 -3.34958 -11.5389
  1288 98.5216 -3.36875 11.4748
  1289 273.856 -18.3956 -43.3137
  1290 276.490 -9.80969 3.09002
  1291 276.477 -10.0027 -2.98905
  1292 575.619 -0.717606 0.243389
  1293 516.979 -8.28798 -23.8550
  1294 46.9433 1.78374 -16.7837
  1295 47.1489 1.75460 16.7943
  1296 274.941 -19.4375 43.0124
  1297 580.623 -0.816216 0.282486
  1298 550.016 -1.13189 -0.632966
  1299 549.966 -1.46599 0.499609
  1300 731.024 157.551 0.630485
  1301 537.335 -4.35933 -3.28641
  1302 478.939 -5.97248 0.0733989
  1303 530.322 -8.59913 -12.0462
  1304 573.124 -2.14182 1.54775
  1305 604.387 64.0837 60.7303
  1306 698.782 147.155 10.9067
  1307 559.266 -2.47485 -6.19555
  1308 -4.72269 -1.16830 4.21833
  1309 -4.74190 -1.16754 -4.23160
  1310 316.380 -20.5245 11.4997
  1311 316.323 -19.6560 -11.2107
  1312 609.832 70.9059 -57.3899
  1313 130.408 45.2052 -78.9279
  1314 131.244 44.0009 78.1206
  1315 418.431 0.125159 -29.5904
  1316 423.519 -7.96375 -0.758600
  1317 423.003 -7.90950 0.669394
  1318 -9.93182 -1.49093 14.9585
  1319 -9.91387 -1.46297 -14.9537
  1320 473.785 -1.24731 23.2005
  1321 714.512 141.946 -5.07166
  1322 58.5731 -1.98022 -7.26321
  1323 58.7173 -1.98476 7.21283
  1324 527.508 -49.8164 17.2996
  1325 2.07784 9.37299 11.7016
  1326 2.23380 9.42917 -11.6004
  1327 105.562 -2.39566 -2.50884
  1328 105.615 -2.36159 2.47496
  1329 418.515 -0.494858 30.0504
  1330 26.1668 0.849929 -1.14078
  1331 26.2668 0.853192 1.12362
  1332 534.122 -6.80502 7.53229
  1333 747.318 135.213 8.59569
</Section>

newXOutput 69

<Section columns = "stress_xx | stress_yy | stress_xy">
  1 597.332 -1.79649 1.09155
  2 598.212 -2.22826 -1.41667
  3 21.1632 0.545524 -1.51312
  4 -0.461062 -0.681427 -0.467333
  5 1076.41 452.562 358.466
  6 1092.97 516.316 -361.891
  7 -0.456206 -0.677151 0.461058
  8 21.0967 0.542426 1.50966
  9 601.244 -1.28720 -0.988377
  10 597.092 -2.23665 -1.46053
  11 597.707 -1.78339 1.20016
  12 595.131 -1.08438 0.411423
  13 594.246 -2.10680 -0.533028
  14 593.772 -2.04513 2.10885
  15 585.972 -1.51896 1.91601
  16 588.636 -4.30937 3.11221
  17 571.551 -3.63062 6.90320
  18 560.965 -1.73271 8.33459
  19 546.163 -2.04111 9.05170
  20 520.093 -1.81738 12.8365
  21 491.425 -1.49927 15.0066
  22 455.331 1.94770 20.7445
  23 405.588 3.03469 18.8628
  24 385.439 -0.0268663 27.1048
  25 322.874 4.57446 19.3373
  26 284.530 5.93701 15.2134
  27 274.532 3.09719 11.2411
  28 263.817 8.72239 0.855453
  29 269.706 9.33088 -15.0521
  30 281.421 2.76964 -18.8727
  31 328.529 1.34957 -25.1178
  32 375.732 -2.27035 -25.9212
  33 407.360 2.52204 -18.8191
  34 455.846 2.20755 -20.7379
  35 490.216 -1.76722 -16.0997
  36 522.913 -1.99946 -12.0897
  37 544.136 -1.52948 -9.20154
  38 559.333 -1.85197 -7.60256
  39 575.736 -2.13237 -4.34323
  40 581.833 -2.26667 -4.11110
  41 587.847 -2.12924 -3.65589
  42 593.894 -2.40075 -0.569441
  43 596.106 -3.00289 -1.43847
  44 592.482 -0.0644633 0.0663634
  45 597.006 -1.65597 -1.37554
  46 599.239 -3.20687 1.59260
  47 601.933 -1.88080 -0.0556488
  48 572.949 -0.0619252 -0.902726
  49 540.351 -2.96043 -1.67263
  50 503.249 -6.15865 -2.32430
  51 464.680 -5.45596 -1.67360
  52 430.885 -8.23683 -1.53239
  53 395.097 -8.85899 -1.37733
  54 358.898 -7.83517 -0.608012
  55 320.721 -8.26165 -0.875800
  56 288.376 -8.59205 -1.18432
  57 245.258 -8.11615 -0.931627
  58 200.837 -5.19837 -0.596471
  59 164.072 -3.36201 -0.456686
  60 118.663 -2.11467 -0.118404
  61 85.7090 -1.94608 -2.21604
  62 55.1428 -2.55563 -0.692490
  63 24.2924 0.285868 1.45604
  64 16.1265 2.13988 0.635827
  65 13.6524 0.863439 1.58007
  66 14.4231 0.388090 1.61044
  67 7.55818 1.22701 0.860275
  68 4.66249 1.61786 3.29537
  69 2.93525 0.576078 1.39790
  70 -8.60325 1.21846 1.50805
  71 -14.3098 0.824071 3.21968
  72 -17.1629 0.255776 3.41318
  73 -30.0927 1.12815 2.79839
  74 -35.3102 1.70584 4.97783
  75 -41.3738 1.03570 2.11495
  76 -47.9618 0.760863 2.87830
  77 -51.2353 0.804415 1.40252
  78 -57.8560 2.00317 -0.937106
  79 -59.2280 1.37155 -0.670801
  80 -54.5359 1.01882 -1.62122
  81 -47.2230 1.36951 -3.41604
  82 -38.7331 0.635681 -5.44027
  83 -29.1146 0.361195 -5.76132
  84 -17.5669 -0.550503 -6.08867
  85 -7.74925 -0.450580 -3.60461
  86 -3.28530 -1.26092 -2.27076
  87 -0.527131 -3.27926 -1.98423
  88 -0.866928 -8.37959 -3.47317
  89 -0.996661 -16.1535 -6.02478
  90 -0.160237 -30.1104 -6.43313
  91 0.397909 -41.3445 -8.00270
  92 0.884098 -59.2589 -6.49261
  93 2.64470 -69.9186 -7.57993
  94 0.526558 -74.3812 -6.02429
  95 -0.0417125 -84.2824 -3.17463
  96 2.41098 -79.6651 0.185317
  97 9.88626 -102.392 6.01143
  98 9.25328 -48.3906 17.7364
  99 21.5376 -10.0100 37.3814
  100 63.1799 125.370 110.052
  101 259.773 366.488 299.244
  102 1409.64 153.868 207.858
  103 1187.92 42.2238 74.6980
  104 1132.75 18.0120 25.6402
  105 1102.49 11.7097 -0.145050
  106 1121.93 17.1570 -21.1357
  107 1198.46 36.0307 -61.6982
  108 1394.99 121.525 -192.992
  109 169.102 414.727 -247.598
  110 44.4886 97.7608 -85.8596
  111 15.9230 -20.4511 -31.4704
  112 8.39483 -54.5033 -15.5071
  113 9.82423 -106.753 -4.93624
  114 2.29919 -81.5878 0.568645
  115 -0.184715 -85.2393 3.56634
  116 0.435861 -74.7460 6.23361
  117 2.59489 -69.9976 7.66786
  118 0.865012 -59.2182 6.52467
  119 0.383539 -41.2807 8.01360
  120 -0.167253 -30.0323 6.42851
  121 -0.997443 -16.1040 6.01129
  122 -0.868793 -8.33749 3.46074
  123 -0.526713 -3.26347 1.97333
  124 -3.26638 -1.25904 2.26158
  125 -7.71551 -0.452657 3.59462
  126 -17.5230 -0.555460 6.08244
  127 -29.0635 0.355650 5.76230
  128 -38.7034 0.629603 5.45056
  129 -47.2326 1.36512 3.43665
  130 -54.5861 1.01842 1.64356
  131 -59.3310 1.37020 0.692715
  132 -58.0031 2.00276 0.960005
  133 -51.4330 0.806441 -1.38234
  134 -48.1978 0.763361 -2.86313
  135 -41.6291 1.03859 -2.10275
  136 -35.5880 1.70930 -4.97237
  137 -30.3792 1.13143 -2.79379
  138 -17.4472 0.257774 -3.41325
  139 -14.5964 0.827553 -3.22354
  140 -8.87809 1.22333 -1.51400
  141 2.69081 0.579287 -1.40960
  142 4.44834 1.62125 -3.31326
  143 7.37138 1.22800 -0.876044
  144 14.2788 0.387471 -1.62591
  145 13.5392 0.861933 -1.59255
  146 16.0341 2.13730 -0.646608
  147 24.2187 0.284069 -1.46241
  148 55.0760 -2.56509 0.686096
  149 85.6483 -1.96949 2.20912
  150 118.617 -2.15604 0.109097
  151 164.044 -3.42177 0.451940
  152 200.813 -5.26751 0.595874
  153 245.223 -8.17568 0.941272
  154 288.303 -8.62085 1.20416
  155 320.606 -8.22225 0.922364
  156 358.740 -7.69565 0.661066
  157 394.882 -8.53247 1.29826
  158 431.076 -8.33301 1.33887
  159 464.825 -6.03889 1.76971
  160 503.635 -6.05259 2.10520
  161 541.391 -2.65203 1.69613
  162 572.082 -0.0976861 0.879992
  163 339.904 -30.8046 -31.1367
  164 338.582 -31.3687 31.0610
  165 104.793 28.5531 -43.9255
  166 105.815 28.6522 43.7506
  167 398.768 -17.9104 106.646
  168 417.588 -20.3343 -103.854
  169 200.881 -10.7682 14.6235
  170 200.849 -10.6650 -14.8051
  171 425.466 -15.8892 0.480078
  172 417.219 -15.9336 -0.317031
  173 570.697 102.292 -13.1824
  174 574.588 5.60574 -67.2240
  175 563.711 9.83297 72.9465
  176 140.825 -5.46691 -29.7697
  177 140.846 -5.43006 29.7201
  178 496.723 -48.9625 21.7032
  179 496.361 -38.2189 -32.5478
  180 8.06629 12.4422 10.5245
  181 8.27353 12.5208 -10.4006
  182 678.561 138.776 16.5902
  183 134.014 60.6515 -96.3124
  184 143.553 61.1867 103.002
  185 480.028 -23.1015 14.4600
  186 718.781 152.523 -3.79737
  187 314.932 -12.2651 -4.90400
  188 314.445 -12.5584 4.87438
  189 492.867 -16.3198 -13.3640
  190 652.912 -0.425068 -15.4710
  191 129.503 -3.91837 5.71844
  192 129.451 -3.94950 -5.78719
  193 56.4760 6.61787 -20.5858
  194 56.7235 6.55016 20.6345
  195 281.015 -10.6306 -67.9744
  196 279.924 -11.1953 68.8279
  197 334.714 -22.3117 -12.1703
  198 335.373 -22.1875 12.8164
  199 93.1215 -3.24283 16.0549
  200 92.9831 -3.20078 -16.0840
  201 645.509 -7.37920 48.4414
  202 531.086 -51.3561 -5.94998
  203 502.527 -6.11015 -1.68046
  204 491.771 -7.28581 1.65676
  205 506.942 59.7361 52.2698
  206 22.7982 20.8253 -9.65201
  207 23.5872 20.7966 10.0040
  208 502.135 -19.9117 60.7092
  209 466.741 35.9724 -60.4161
  210 328.381 78.1708 -214.994
  211 345.320 66.1233 199.919
  212 11.2647 11.3254 -3.03311
  213 11.4647 11.3247 3.13018
  214 500.760 -17.4799 -62.8468
  215 860.275 119.786 -8.62126
  216 416.012 -44.9930 40.5555
  217 419.033 -44.7611 -38.5441
  218 415.751 -30.2904 0.554778
  219 511.173 -8.98062 6.88581
  220 253.566 -17.6478 -26.5120
  221 249.735 -17.5825 27.2474
  222 154.188 2.91432 -44.2628
  223 154.414 2.85856 43.9193
  224 526.100 -54.4962 -10.7376
  225 412.392 -32.1465 -2.35612
  226 509.282 -8.81997 -5.17756
  227 399.898 -11.4397 -0.822582
  228 403.248 -10.7574 1.55540
  229 505.223 -22.8373 33.9958
  230 49.1992 0.293253 -17.1609
  231 49.3963 0.272895 17.1631
  232 -6.04213 -3.93996 -16.8462
  233 -6.07471 -3.98116 16.8590
  234 85.5404 -3.53932 -9.40369
  235 85.6616 -3.54784 9.33873
  236 219.837 -7.01031 6.56814
  237 219.877 -7.12162 -6.61185
  238 249.391 17.6801 -98.0895
  239 249.423 14.8157 97.0113
  240 511.974 -16.3698 -29.0993
  241 245.325 -14.4667 -42.0395
  242 245.543 -14.9004 41.5006
  243 457.525 7.47196 68.5903
  244 404.887 34.6364 4.17121
  245 440.919 -44.0873 2.08332
  246 2.40803 -9.49071 -14.5852
  247 2.25957 -9.60995 14.7136
  248 29.8460 33.4898 -35.3679
  249 31.6920 32.4807 36.9907
  250 433.715 -43.1525 -4.92643
  251 772.977 151.029 -19.3905
  252 43.1587 28.6777 -16.3082
  253 43.6563 28.6717 16.4760
  254 -15.4881 3.83810 10.9074
  255 -15.4027 3.85813 -10.8477
  256 776.110 142.347 24.0402
  257 279.021 -14.0111 -11.1717
  258 278.820 -13.8031 10.9897
  259 536.971 -35.4362 54.6665
  260 956.759 156.106 98.4522
  261 166.756 -8.90582 -24.6416
  262 166.737 -8.96839 24.6246
  263 551.612 82.8327 -49.2279
  264 925.013 176.583 -90.8957
  265 651.971 68.3040 43.7133
  266 700.892 52.6054 -138.140
  267 440.446 -21.7144 4.17029
  268 503.700 3.17143 -76.1642
  269 474.189 -33.9125 -17.4352
  270 526.438 -9.96099 18.2267
  271 3.57495 5.09289 -7.10663
  272 3.77651 5.07757 7.17689
  273 520.546 -14.0909 -132.461
  274 60.0656 17.5738 -21.0756
  275 60.3441 17.5454 21.1830
  276 507.694 -12.3623 -38.1605
  277 75.1635 82.2167 -100.309
  278 70.3796 -0.358898 -2.20686
  279 70.4546 -0.345852 2.17836
  280 535.276 -32.3662 -57.2641
  281 97.5875 43.8407 -54.8920
  282 98.9713 43.6210 55.0474
  283 34.0562 -0.914099 11.9081
  284 33.8473 -0.903570 -11.9132
  285 439.750 -20.7086 -4.10123
  286 75.6977 81.3813 102.858
  287 689.061 62.3285 160.726
  288 197.912 -8.13108 -9.07191
  289 197.888 -8.08428 8.96349
  290 353.947 -15.6219 -4.98486
  291 353.782 -16.8086 5.41143
  292 302.108 30.5198 -146.972
  293 483.273 -52.5708 -3.47130
  294 545.110 -4.08743 2.94825
  295 291.185 30.6195 142.406
  296 339.350 -10.2832 -1.75230
  297 339.225 -10.2784 2.03237
  298 474.992 -35.2200 17.7444
  299 541.756 -6.38367 -8.21298
  300 0.976628 1.99043 -9.63398
  301 1.20086 1.97548 9.66880
  302 686.234 135.625 -3.93832
  303 597.721 -25.7918 25.8795
  304 536.773 -3.68424 -0.651026
  305 545.735 -3.22831 0.590648
  306 538.753 -45.4605 50.8776
  307 664.074 72.9030 -39.7855
  308 586.799 108.867 27.4815
  309 266.780 -16.7888 -17.2748
  310 264.452 -17.0828 17.5712
  311 544.336 -4.02451 -1.78688
  312 363.062 -26.9113 -74.2534
  313 357.859 -28.7312 15.2627
  314 341.054 -18.0467 84.1261
  315 537.580 -7.11230 9.93872
  316 129.869 -5.94792 -15.5102
  317 129.965 -5.99026 15.4520
  318 496.776 -13.7622 130.871
  319 320.221 -25.7230 -21.5024
  320 584.059 76.0990 61.0741
  321 189.798 13.2413 -64.7400
  322 182.919 13.8577 64.2565
  323 63.2824 -1.20202 -3.99709
  324 63.3897 -1.19451 3.95185
  325 476.246 -10.7933 3.41784
  326 457.032 -7.82375 0.116234
  327 454.556 -8.44674 -0.263000
  328 504.288 -13.0060 40.5091
  329 51.3510 -1.71009 9.01224
  330 51.1695 -1.69480 -9.04679
  331 154.371 -3.84275 -3.32502
  332 154.396 -3.78605 3.29498
  333 5.24667 -20.5684 -7.19678
  334 4.92601 -20.7545 7.57865
  335 400.338 17.5590 46.8193
  336 603.322 -23.6185 -19.7413
  337 394.093 -21.8671 -1.22521
  338 443.109 -10.2205 -1.17218
  339 471.293 58.3997 -28.2614
  340 97.0670 -3.17413 -22.2055
  341 97.1986 -3.17722 22.1927
  342 383.544 -20.6908 3.15711
  343 113.147 3.45842 -31.7426
  344 113.365 3.36504 31.6595
  345 23.4156 18.3946 -2.44241
  346 23.6793 18.3948 2.55664
  347 463.869 -48.8676 51.2901
  348 1008.67 66.3226 25.9793
  349 420.398 6.78947 -55.3323
  350 347.841 -31.1013 46.8831
  351 346.080 -30.4490 -48.2047
  352 511.200 -7.93796 75.1662
  353 457.776 -3.02376 54.3422
  354 458.018 -47.2399 -52.8123
  355 277.631 -7.92352 1.04301
  356 277.585 -8.00273 -0.976294
  357 506.669 -32.9664 44.6473
  358 693.915 137.292 1.14233
  359 540.730 -6.68998 -13.4605
  360 146.953 -5.70853 -11.4138
  361 147.024 -5.71428 11.3156
  362 510.563 -46.7677 -63.0272
  363 540.457 38.7171 -74.4898
  364 370.989 19.9436 -30.1417
  365 510.434 -33.7720 -51.4810
  366 -16.2528 0.749719 -12.9579
  367 -16.2700 0.728676 12.9744
  368 428.604 -11.4632 0.0576274
  369 -6.08319 -3.59745 -7.96668
  370 -6.07506 -3.59830 7.94924
  371 329.301 174.360 -260.175
  372 14.5961 13.3181 6.20983
  373 14.9305 13.4187 -6.02991
  374 454.520 -3.18895 -53.9075
  375 253.159 -11.3722 8.45510
  376 253.324 -11.5119 -8.53151
  377 -1.50640 -17.6043 14.7938
  378 -1.47881 -17.5725 -14.7795
  379 269.069 182.392 245.438
  380 208.144 -11.2787 -33.2198
  381 208.318 -10.8188 33.2451
  382 67.3906 50.5219 -51.2386
  383 68.7648 50.4085 50.9702
  384 -23.5043 4.01537 3.75513
  385 -23.3864 4.02232 -3.69020
  386 522.361 35.6275 75.0365
  387 399.907 -41.8736 24.2155
  388 400.341 -36.8500 11.5412
  389 482.650 -54.2622 -11.0901
  390 125.377 15.2380 -43.5175
  391 125.795 15.2162 43.4625
  392 11.4691 -12.0237 3.53077
  393 10.8799 -12.2821 -2.69039
  394 495.515 70.4871 18.4201
  395 490.895 -15.0306 10.7130
  396 285.895 -22.4427 31.0283
  397 179.413 -4.76857 -39.3756
  398 179.495 -4.80247 39.1115
  399 361.647 -12.1081 -2.58190
  400 361.276 -10.7921 2.27611
  401 283.545 -23.0189 -32.7549
  402 222.946 -3.93879 -52.5415
  403 222.927 -4.23991 52.9450
  404 512.835 -46.5559 -29.3176
  405 302.130 -23.6829 20.3184
  406 466.106 -15.3257 5.62613
  407 465.140 -14.1048 -4.47956
  408 393.157 -36.5984 -12.9142
  409 555.623 -3.17068 -3.16064
  410 191.730 79.7388 -149.901
  411 527.035 -8.04303 22.9008
  412 554.452 -3.59381 4.98323
  413 205.461 -11.2642 20.5182
  414 205.532 -11.1165 -20.5036
  415 398.138 -41.3793 -24.8933
  416 59.9694 25.9125 22.7652
  417 59.6546 25.8905 -22.7771
  418 1018.55 66.2725 -52.8930
  419 457.758 -26.9330 -8.93675
  420 558.584 -2.70708 1.81790
  421 181.373 74.7296 143.096
  422 828.612 139.018 28.8087
  423 488.495 -8.63085 -2.64921
  424 369.671 -27.4734 -10.3404
  425 157.183 30.3037 -72.9067
  426 167.296 28.0522 72.4687
  427 452.547 -29.3978 8.87865
  428 482.645 -6.15007 -39.6833
  429 2.68516 -0.498200 8.98214
  430 2.44652 -0.493228 -8.97419
  431 176.852 43.0088 -96.7282
  432 177.417 43.1580 96.4408
  433 24.1928 9.71669 -10.5638
  434 24.4160 9.69700 10.6514
  435 406.510 -9.24743 0.248297
  436 406.023 -9.04406 -0.116919
  437 504.609 -23.3189 -35.6024
  438 -0.716557 -0.613935 17.5833
  439 -0.625644 -0.531454 -17.5158
  440 519.267 -50.5156 24.8366
  441 490.155 -14.1501 -9.31348
  442 790.596 151.062 -27.1044
  443 41.1065 -1.49796 4.34295
  444 40.9443 -1.49820 -4.38203
  445 942.970 272.615 126.734
  446 20.2481 15.9969 -32.0115
  447 64.6853 2.71367 -21.8320
  448 64.8941 2.66777 21.8351
  449 941.685 279.299 -123.581
  450 21.4572 18.1294 34.9045
  451 -21.8613 3.01239 0.163006
  452 -21.7079 3.00808 -0.100930
  453 55.9146 38.3539 -31.2048
  454 56.8468 38.3818 31.3642
  455 622.057 98.9555 -48.5804
  456 498.228 -20.1358 -22.2089
  457 555.790 -2.77776 -1.54389
  458 520.982 -8.24014 -27.0539
  459 -5.11383 4.35473 15.9804
  460 -5.02107 4.40836 -15.9162
  461 503.509 -20.8601 26.2604
  462 331.185 -19.4376 -9.79067
  463 330.207 -19.6210 8.72264
  464 445.558 -48.9712 -11.7216
  465 320.061 -3.64580 -102.381
  466 487.044 -7.37021 40.4738
  467 397.465 -14.1029 1.59896
  468 578.802 -41.0023 -12.9856
  469 310.221 3.72228 109.563
  470 31.4369 -0.525242 8.67000
  471 31.2228 -0.515963 -8.68500
  472 640.203 126.403 -20.6046
  473 506.841 -4.95248 -0.0463748
  474 505.166 -5.45870 -0.397313
  475 387.659 -26.6473 5.84793
  476 175.873 -6.17489 -6.51593
  477 175.875 -6.10905 6.44879
  478 105.212 -1.48348 -26.2734
  479 105.341 -1.50388 26.2317
  480 336.735 13.0219 18.0916
  481 89.6057 -2.93254 12.8555
  482 89.4722 -2.90575 -12.9105
  483 92.0789 8.30482 29.6925
  484 91.7774 8.42765 -29.6628
  485 495.478 -38.4375 31.1725
  486 281.340 -17.5699 -49.6171
  487 261.375 -9.17717 4.64155
  488 261.459 -9.37756 -4.64605
  489 284.251 -18.1093 49.6181
  490 769.767 185.232 -23.2464
  491 -12.2893 -1.78175 -10.2117
  492 -12.2813 -1.79156 10.2049
  493 201.517 -6.06838 -2.75527
  494 201.527 -5.98704 2.74611
  495 0.371949 -32.1763 -11.9369
  496 0.290832 -32.2829 12.0473
  497 451.440 -8.12210 0.429849
  498 334.921 15.6961 -8.98566
  499 441.740 46.1255 25.5549
  500 279.123 -2.35844 -82.3539
  501 141.888 -7.30165 19.3948
  502 141.859 -7.24123 -19.4210
  503 -30.5622 1.05789 -3.47219
  504 -30.3496 1.05127 3.50153
  505 535.894 -8.88810 -73.7481
  506 53.1222 0.202456 -2.87226
  507 53.2177 0.209162 2.83966
  508 446.104 -35.6588 -6.15209
  509 474.791 -40.6750 -16.3123
  510 100.176 78.7139 -103.415
  511 399.230 13.3448 -158.804
  512 7.14928 12.6010 6.13785
  513 7.34413 12.6295 -6.02839
  514 249.480 -12.0627 -11.7988
  515 249.369 -11.9626 11.5866
  516 679.516 33.3060 -7.54720
  517 493.284 -29.5298 -28.4591
  518 97.7329 74.7400 102.035
  519 488.589 -54.5549 18.7571
  520 470.544 -44.7918 11.5035
  521 108.646 -2.63937 -8.48335
  522 108.726 -2.63009 8.41047
  523 395.772 4.57369 42.9208
  524 283.915 -21.3201 -21.2734
  525 518.239 -12.2960 16.0582
  526 -2.04690 -12.6228 -9.95734
  527 -2.05194 -12.6115 9.94177
  528 367.291 -32.1438 55.4618
  529 553.599 -40.9793 -35.0503
  530 715.798 56.5957 -34.0490
  531 392.895 -14.5463 -1.54565
  532 125.169 -2.41141 -2.43096
  533 125.212 -2.36995 2.41093
  534 251.672 2.30992 79.4987
  535 688.691 118.910 28.4738
  536 689.380 150.992 -248.504
  537 626.981 6.64051 31.6629
  538 454.161 -50.2483 9.36610
  539 1049.00 83.5749 71.1363
  540 786.517 195.099 31.6728
  541 118.850 -5.01686 21.1112
  542 118.751 -4.96855 -21.1391
  543 437.015 -36.6777 3.38375
  544 35.8673 16.0306 -10.2752
  545 36.1201 16.0243 10.3778
  546 546.925 -44.2685 35.1888
  547 455.174 25.0718 62.9383
  548 548.363 -3.94689 9.05082
  549 409.593 -25.4201 -0.0741260
  550 566.576 10.2549 -167.382
  551 889.375 243.809 168.565
  552 441.855 -10.0114 -0.192853
  553 539.833 -5.92396 -14.9584
  554 89.0959 36.7371 -41.7648
  555 89.7313 36.3016 41.6001
  556 314.207 -13.5126 -6.56325
  557 314.071 -13.2200 6.66807
  558 4.03605 -34.3730 -6.52816
  559 553.115 -18.3869 64.6723
  560 23.3278 20.4537 -0.439827
  561 23.6696 20.5126 0.603137
  562 4.67366 -33.0144 7.71752
  563 504.745 -22.8395 -53.1666
  564 580.069 38.3014 -69.9518
  565 578.305 43.2519 70.0467
  566 29.4273 27.4025 24.3892
  567 28.0148 27.9581 -23.9276
  568 -10.3827 0.482413 6.89078
  569 -10.6256 0.487766 -6.87664
  570 528.755 18.3875 172.264
  571 296.077 -17.0267 12.2357
  572 296.361 -16.9683 -12.4157
  573 635.855 -6.25272 -91.6376
  574 92.4264 -1.29904 4.91011
  575 92.3533 -1.31753 -4.95914
  576 49.1202 -1.02160 -1.13462
  577 49.1934 -1.01493 1.12317
  578 702.019 131.363 -21.1669
  579 68.9106 111.926 -113.285
  580 379.778 7.91508 -36.4327
  581 527.636 83.9752 -31.1142
  582 8.60714 1.64410 9.51426
  583 8.92633 1.76328 -9.30050
  584 517.640 256.316 290.176
  585 448.676 -13.6793 -2.35478
  586 20.2917 4.54510 -12.0487
  587 20.5125 4.51248 12.1043
  588 518.637 -41.1932 43.9671
  589 81.2636 108.704 115.348
  590 375.982 -9.18011 0.814663
  591 376.088 -9.11388 -0.816053
  592 -0.247954 -25.8631 12.6664
  593 -0.207553 -25.8218 -12.6245
  594 640.199 123.828 -1.02536
  595 406.290 -31.8079 77.3293
  596 388.461 -17.6732 -2.55554
  597 389.375 20.4030 167.381
  598 -31.4854 1.74244 7.44438
  599 -31.4545 1.75190 -7.41206
  600 634.452 11.4999 -34.3167
  601 834.453 152.688 -122.799
  602 245.826 25.7977 -113.179
  603 137.188 -5.86644 -25.6025
  604 137.324 -5.86920 25.6111
  605 570.634 -2.25677 2.30786
  606 384.785 -18.0251 2.10856
  607 509.784 -7.97651 4.88833
  608 504.733 -22.8955 51.8620
  609 30.3119 -0.859935 4.39449
  610 30.1183 -0.856387 -4.42321
  611 302.545 -11.4140 -3.88743
  612 302.509 -11.1332 3.79554
  613 190.668 4.00197 -54.1287
  614 189.483 4.05849 53.9160
  615 719.522 49.4999 50.9084
  616 1158.53 87.3584 -126.107
  617 -2.41217 -0.757229 5.96413
  618 -2.66636 -0.754850 -5.96116
  619 182.511 -7.86725 11.9119
  620 182.487 -7.85676 -12.0481
  621 673.400 41.0863 16.7494
  622 563.404 -2.61198 -0.730809
  623 562.226 -3.47311 0.230951
  624 420.399 0.109681 42.4328
  625 592.310 -31.8384 -57.9845
  626 327.084 -27.1572 25.2981
  627 -5.52543 7.60300 -5.91857
  628 -5.67133 7.58997 6.00409
  629 521.421 11.5634 78.2307
  630 210.899 -12.3390 -26.9274
  631 210.716 -12.5374 26.9769
  632 423.722 -25.3376 -1.48891
  633 520.378 -12.0497 -14.4804
  634 301.903 -24.2178 -36.7322
  635 494.710 59.7534 -47.5922
  636 332.679 -22.7343 -63.5549
  637 129.194 -3.47479 -4.49738
  638 129.236 -3.43684 4.44685
  639 304.938 -24.6254 36.9214
  640 647.139 106.347 42.3796
  641 516.306 -24.5400 65.4176
  642 422.637 -19.8340 1.71900
  643 305.697 -9.07113 2.24710
  644 305.621 -9.08732 -2.19067
  645 233.079 -9.18865 -8.61413
  646 233.005 -9.09779 8.53749
  647 495.991 -45.3308 -23.6833
  648 256.050 -14.9377 14.9928
  649 256.309 -14.8778 -15.2478
  650 503.627 77.2529 -6.32908
  651 458.485 -24.8712 9.19138
  652 568.060 -3.01018 -3.73069
  653 490.466 -8.50651 -69.3204
  654 76.9134 -3.29652 16.9843
  655 76.7572 -3.27381 -16.9939
  656 555.590 -3.45770 -8.22587
  657 102.906 53.5240 -73.5632
  658 104.639 53.4101 73.9168
  659 567.556 -31.5553 77.8133
  660 199.645 50.5773 119.214
  661 54.3733 -0.435731 16.9742
  662 54.1899 -0.424248 -16.9774
  663 485.050 -29.5537 98.8199
  664 475.701 73.7401 -226.355
  665 471.811 15.4348 -69.5216
  666 616.459 112.064 37.3955
  667 415.613 -19.4578 0.119186
  668 744.132 132.722 -3.23031
  669 -32.9283 1.71899 -2.48898
  670 -32.7496 1.71482 2.52962
  671 332.841 2.48170 -119.332
  672 32.7316 -0.511545 3.32919
  673 32.5835 -0.512792 -3.35927
  674 415.932 -34.2331 -76.5204
  675 141.591 19.1267 -52.3950
  676 140.504 19.2051 52.3745
  677 5.83607 7.05595 -4.66303
  678 6.03142 7.04787 4.74860
  679 355.355 -31.0334 -19.8048
  680 501.073 -4.95732 -26.4788
  681 243.521 -8.08321 -3.04001
  682 243.539 -8.00280 3.06074
  683 178.343 -9.26251 -17.5232
  684 178.490 -9.38686 17.4691
  685 34.6092 28.4181 -12.1757
  686 35.1598 28.4855 12.3659
  687 508.623 -7.06448 2.09658
  688 232.535 -15.0456 22.6990
  689 233.961 -14.7950 -22.6851
  690 564.582 -43.6438 -1.21050
  691 467.385 -47.0040 -6.42386
  692 369.240 -11.5271 -1.34595
  693 367.980 -10.8359 1.50957
  694 513.385 -53.1264 32.5678
  695 829.187 168.111 47.9386
  696 451.607 -18.2634 -121.575
  697 516.748 -14.8104 26.7518
  698 515.571 -18.5713 -70.5320
  699 167.108 -5.38077 -8.40521
  700 167.123 -5.34452 8.31531
  701 402.440 -5.14597 135.889
  702 1099.69 142.181 130.038
  703 80.9037 22.9824 -31.2200
  704 81.0274 23.1387 31.3194
  705 506.701 -5.94645 -1.00567
  706 510.591 -5.40258 1.03898
  707 218.599 115.109 -191.255
  708 540.072 -3.26120 15.0635
  709 467.324 -9.15624 1.25371
  710 620.638 122.304 -13.4827
  711 67.1744 11.3433 -22.9403
  712 67.4601 11.2737 23.0235
  713 574.554 -1.81154 0.284949
  714 470.808 -19.0451 -9.35829
  715 586.367 -7.22467 55.3092
  716 245.100 -17.3364 -34.7846
  717 245.710 -16.6152 34.4898
  718 62.0725 -1.99976 12.8462
  719 61.8992 -1.97567 -12.8746
  720 528.821 -4.46193 -2.16089
  721 456.590 95.9648 239.636
  722 4.23472 4.71450 13.9554
  723 4.40748 4.82098 -13.8368
  724 530.953 -6.49315 -6.31199
  725 516.503 -10.3104 9.10405
  726 418.534 0.596101 -45.5108
  727 4.17373 -44.9163 -5.00226
  728 3.91714 -45.3824 5.47262
  729 192.154 52.2155 -119.273
  730 415.371 -41.1642 -56.2247
  731 217.335 113.982 192.938
  732 567.801 -1.89263 1.28448
  733 557.917 83.7947 49.3521
  734 413.375 37.3435 -17.8376
  735 724.711 145.958 4.56252
  736 562.277 -2.78192 5.15719
  737 -29.5317 0.815543 4.93071
  738 -29.7678 0.819978 -4.91139
  739 600.151 -31.8059 21.4729
  740 392.109 -12.4013 -1.71491
  741 146.834 -0.0239096 -37.8354
  742 147.035 -0.165660 37.6436
  743 515.709 -6.95311 -3.28457
  744 906.636 128.136 -48.0085
  745 69.5363 -1.93434 -8.26654
  746 69.6855 -1.94527 8.21622
  747 571.793 -1.97388 -2.28578
  748 122.396 -5.40996 -11.4909
  749 122.487 -5.42888 11.4158
  750 564.967 -21.2711 -57.6047
  751 522.616 -5.64881 21.1035
  752 473.214 -2.63034 68.7989
  753 572.014 -2.04550 0.185358
  754 536.688 -4.86891 4.71374
  755 356.332 -19.9385 -6.13914
  756 443.069 -12.7538 1.45416
  757 504.270 -31.0662 -43.4678
  758 491.489 -31.2312 27.2522
  759 577.969 70.8625 -61.9403
  760 484.551 -27.7302 19.6114
  761 512.851 -30.0796 56.2410
  762 300.923 -20.8467 16.0145
  763 11.4573 -0.213886 1.24578
  764 10.8846 -0.255547 -0.702211
  765 447.881 -7.95742 -0.234706
  766 446.954 -7.91120 0.0722909
  767 533.095 -3.25415 -0.181332
  768 534.861 -3.15700 0.301245
  769 512.708 -14.6414 33.2113
  770 472.846 -42.2901 72.6857
  771 390.691 -32.1756 9.08018
  772 348.160 -21.4831 8.76277
  773 923.974 118.075 55.0972
  774 516.960 -13.6760 -20.7316
  775 305.544 55.3421 -178.976
  776 481.323 -24.4455 -16.7778
  777 24.3056 0.304923 -12.5057
  778 24.5250 0.287381 12.5250
  779 438.238 38.4658 -39.9469
  780 1068.59 32.4028 -13.7706
  781 543.716 14.9880 -75.9894
  782 22.5774 23.0028 -46.2305
  783 562.580 100.619 12.5270
  784 436.134 -28.4321 3.82607
  785 492.012 -11.9199 67.1735
  786 413.330 -42.9198 56.5264
  787 652.290 1.46802 111.329
  788 24.3075 28.0171 49.1778
  789 300.890 -1.35877 93.8167
  790 416.817 -11.8967 0.217143
  791 463.940 -40.5160 -73.5300
  792 288.812 -22.7721 -26.3600
  793 228.663 11.0902 -82.5279
  794 538.449 -7.50254 74.4192
  795 347.726 -24.2805 13.2032
  796 74.6214 -1.99700 7.24362
  797 74.5039 -1.99906 -7.30173
  798 502.584 -2.84623 23.4202
  799 459.411 2.71625 -67.0837
  800 -38.6807 1.84814 4.43109
  801 -38.6219 1.85187 -4.39531
  802 338.540 -11.5757 -2.46217
  803 337.599 -11.0099 2.34978
  804 252.010 28.8156 114.726
  805 227.413 -13.5890 17.3541
  806 227.705 -13.2728 -17.5110
  807 571.253 -1.53465 -1.14178
  808 206.333 16.4601 80.5609
  809 14.6052 -0.194777 4.61750
  810 14.3720 -0.190622 -4.63388
  811 496.736 -15.2295 51.6917
  812 524.380 -5.34487 1.62933
  813 -28.0349 0.412216 7.60497
  814 -28.0422 0.421634 -7.58950
  815 328.327 -20.3324 70.9788
  816 65.3891 56.4138 -63.0791
  817 66.1645 53.9920 62.1869
  818 320.433 13.9996 7.50994
  819 1.69390 -0.384829 -5.27418
  820 1.95107 -0.388094 5.27103
  821 376.362 -35.4702 -53.0604
  822 510.243 -52.9603 -12.2018
  823 -2.57880 -2.44463 -3.26843
  824 -2.57088 -2.43859 3.25601
  825 37.2830 0.826252 -1.13377
  826 37.3695 0.830946 1.11648
  827 454.920 -40.7410 7.42525
  828 384.556 -39.2330 38.1133
  829 423.835 -8.40500 0.292801
  830 383.656 -31.4234 -10.4628
  831 147.556 -2.66450 -0.959226
  832 147.589 -2.61010 0.946774
  833 -43.3189 0.937860 2.34915
  834 -43.2215 0.936748 -2.31367
  835 476.433 -7.35377 -1.28296
  836 430.719 17.2955 -57.2951
  837 482.114 -10.6549 -4.64698
  838 289.433 -22.4170 25.2162
  839 481.885 -8.25681 -55.0378
  840 512.130 -15.8824 -34.2969
  841 478.270 -6.48765 1.12500
  842 352.736 -12.7562 96.1213
  843 376.864 -36.9860 -22.9317
  844 229.744 -1.73661 -63.8929
  845 230.980 -0.142736 64.2245
  846 322.794 -24.6526 -17.3519
  847 533.465 58.4557 65.0977
  848 502.099 -51.1867 -42.4247
  849 187.923 -6.22022 -4.32641
  850 187.921 -6.13673 4.28995
  851 385.925 -9.97363 0.989445
  852 385.947 -10.0454 -0.906812
  853 462.198 -3.36015 -36.1207
  854 161.027 -6.92161 -14.1806
  855 161.124 -6.97202 14.0780
  856 1.98287 -46.3888 -8.80568
  857 1.88277 -46.5913 9.00122
  858 86.9909 -1.26796 -0.149739
  859 86.9302 -1.29115 0.134800
  860 473.169 -8.59428 -1.77248
  861 363.061 -34.6450 34.6436
  862 558.064 -46.4928 12.3713
  863 339.646 7.09441 28.7463
  864 483.894 -12.4437 5.40534
  865 529.509 -46.7314 -32.7333
  866 81.2399 4.74491 -25.7880
  867 81.4773 4.66457 25.7825
  868 421.735 -8.92272 -0.255217
  869 342.492 -12.8805 -4.31560
  870 341.349 -12.7804 4.62161
  871 528.923 82.1903 35.0859
  872 186.807 -2.06835 -45.2991
  873 186.653 -2.28044 45.1250
  874 366.436 -33.4323 18.7824
  875 37.7207 23.7439 -10.6644
  876 38.0752 23.7030 10.7695
  877 311.042 -22.0338 58.3695
  878 371.439 -24.3890 -6.70079
  879 464.698 -3.48435 36.4938
  880 453.765 -50.7063 21.3373
  881 519.376 -39.0512 -47.8025
  882 362.171 -34.9254 -35.0735
  883 303.025 -20.7698 -15.4144
  884 962.648 78.7246 -15.0398
  885 474.963 -50.1271 3.27276
  886 15.4407 16.4042 3.66970
  887 15.6929 16.4386 -3.53595
  888 414.152 -41.6488 12.0312
  889 453.015 -50.4438 -34.1919
  890 16.9065 14.0533 -1.47308
  891 17.1293 14.0596 1.57656
  892 175.636 -6.43988 34.7492
  893 175.722 -6.62160 -34.9317
  894 211.286 -10.8544 38.0434
  895 211.195 -11.0999 -38.2753
  896 654.379 131.092 15.6060
  897 -0.908760 -20.2139 -9.59811
  898 -0.915580 -20.1871 9.59009
  899 154.469 12.7547 -49.8943
  900 153.746 12.5017 49.4476
  901 1103.52 35.7329 -55.3113
  902 31.2796 -0.148335 1.90906
  903 31.1586 -0.151952 -1.93273
  904 2.14783 -51.1921 1.74678
  905 2.48092 -50.2706 -0.968340
  906 -21.6290 -0.220222 7.93382
  907 -21.6555 -0.213365 -7.93184
  908 123.657 36.1395 -58.5351
  909 125.553 34.9377 57.7588
  910 -8.91280 0.772669 -16.4236
  911 -8.95977 0.733549 16.4530
  912 39.1832 3.00975 -17.0876
  913 39.4072 2.97007 17.1154
  914 136.010 -1.79139 32.1249
  915 135.904 -1.78429 -32.2660
  916 112.496 -3.94708 -25.9995
  917 112.618 -3.94123 25.9677
  918 558.718 -2.32867 -8.21062
  919 276.114 60.9090 166.874
  920 380.537 -37.6891 21.7123
  921 273.148 -19.8838 20.5747
  922 522.162 54.3169 -64.5460
  923 1085.43 23.1152 22.1988
  924 612.623 30.1357 -58.4601
  925 108.722 -4.14166 16.3713
  926 108.604 -4.09627 -16.4237
  927 24.0941 -0.650215 -12.0487
  928 24.3118 -0.655946 12.0517
  929 0.0331645 -8.82592 -17.6897
  930 -0.0478593 -8.90681 17.7501
  931 282.237 -13.0203 9.55443
  932 282.373 -13.2563 -9.59219
  933 37.3861 9.11494 -15.5822
  934 37.6240 9.07529 15.6594
  935 174.624 -7.94665 -29.6759
  936 174.751 -7.94916 29.6633
  937 375.103 -1.29755 -33.7615
  938 180.469 -9.93215 -20.9099
  939 180.365 -9.83353 20.9756
  940 424.941 -12.9652 0.248561
  941 514.495 -29.0223 -60.6676
  942 229.961 -9.69197 9.97785
  943 230.056 -9.77380 -10.0922
  944 -9.41716 -0.977604 -5.69700
  945 -9.39049 -0.979934 5.68422
  946 521.288 -38.1364 -89.2829
  947 501.068 -29.5407 37.4677
  948 440.271 -31.3122 -5.62831
  949 435.789 15.3185 60.3161
  950 200.365 -11.4385 -23.4758
  951 200.383 -11.2327 23.5436
  952 483.764 19.1188 72.4312
  953 454.341 39.7994 47.7520
  954 902.520 107.919 19.2817
  955 466.942 -17.6211 6.42146
  956 251.413 -8.02756 -4.51600
  957 251.390 -7.88587 4.54879
  958 420.064 -34.8396 1.82964
  959 583.095 106.750 -28.9199
  960 508.744 -6.41239 -2.17126
  961 339.267 -9.25725 1.50699
  962 339.143 -9.19330 -1.41328
  963 44.8144 38.4292 -28.9791
  964 45.9102 38.3804 29.1805
  965 80.8583 222.966 -185.298
  966 482.975 -11.1516 54.6908
  967 595.757 -9.08963 -48.3868
  968 -7.80728 5.88284 1.87168
  969 -7.64676 5.88280 -1.79033
  970 1184.02 286.790 -226.884
  971 510.901 -54.8266 1.07036
  972 543.686 -48.7835 -26.8221
  973 503.629 -42.9693 33.0619
  974 625.678 122.505 11.2496
  975 46.8347 52.3985 -59.0167
  976 115.481 194.274 183.110
  977 -2.64006 -6.49595 17.8830
  978 -2.58990 -6.43662 -17.8530
  979 488.490 -13.3651 6.97324
  980 783.449 137.839 -18.4099
  981 48.1573 51.3271 61.1924
  982 -2.13554 -7.36150 -6.33528
  983 -2.13574 -7.34042 6.31818
  984 420.819 -10.8806 -0.598398
  985 317.291 -25.4461 -27.5713
  986 507.666 -39.9019 -40.1018
  987 147.729 39.8303 -76.4470
  988 150.062 40.4755 76.6405
  989 495.116 -12.2036 -48.5180
  990 495.562 -16.4165 14.1559
  991 -12.4469 3.67811 14.2069
  992 -12.3804 3.71327 -14.1584
  993 303.052 -19.9144 -55.0615
  994 501.745 32.6899 -72.3245
  995 371.908 -14.8478 2.86559
  996 270.872 -8.35635 0.920522
  997 270.818 -8.40459 -0.890476
  998 -5.47239 -6.22936 -13.0479
  999 -5.47993 -6.24281 13.0359
  1000 502.289 -18.5171 -17.8387
  1001 477.193 -6.38908 0.288083
  1002 476.756 -6.39669 -0.101085
  1003 661.464 110.134 -38.1856
  1004 123.812 10.3678 -39.7664
  1005 124.121 10.1615 39.6915
  1006 81.8302 -0.915589 -21.6892
  1007 81.9866 -0.931439 21.6710
  1008 547.529 30.3737 76.8751
  1009 513.928 -10.4320 -9.56163
  1010 95.1086 14.5255 -32.8070
  1011 95.4803 14.4199 32.9249
  1012 533.838 -3.62994 -1.33804
  1013 502.542 -22.1215 -27.9609
  1014 490.799 -54.6173 -25.3564
  1015 20.0637 18.0608 2.18910
  1016 19.5372 17.9752 -1.94881
  1017 -22.5708 4.04234 8.06832
  1018 -22.4844 4.05400 -8.00943
  1019 310.302 11.4182 -12.5524
  1020 842.687 212.530 -63.9152
  1021 390.163 -28.9859 -5.26358
  1022 260.607 -11.4052 -56.5404
  1023 619.087 -22.2925 -0.670947
  1024 261.622 -11.3807 57.3026
  1025 447.039 -51.4367 39.2271
  1026 506.520 -21.0221 -43.3424
  1027 180.390 -4.47791 -1.38169
  1028 180.413 -4.40820 1.37414
  1029 348.476 -27.6366 -15.6222
  1030 216.281 -8.23648 -44.5330
  1031 216.218 -8.29859 44.3320
  1032 72.8681 47.9756 -48.5653
  1033 73.9953 47.8591 48.7110
  1034 153.228 -4.96398 -4.86742
  1035 153.251 -4.90772 4.81446
  1036 449.839 -15.2165 2.74451
  1037 380.940 3.01432 -137.394
  1038 465.946 -16.0148 -6.47588
  1039 422.709 -46.5911 -24.9637
  1040 281.582 -12.4463 6.71569
  1041 281.800 -12.5326 -6.73135
  1042 541.027 -4.02059 1.69229
  1043 486.584 -12.4644 -6.51379
  1044 325.931 8.03299 23.7306
  1045 523.285 -5.24387 -19.6562
  1046 205.646 61.3610 134.788
  1047 537.389 -5.15054 -15.9738
  1048 144.577 24.1250 -58.2003
  1049 140.403 24.3848 55.9495
  1050 639.520 -7.74015 -1.48387
  1051 61.0810 31.3266 -26.3526
  1052 61.6274 31.1098 26.3551
  1053 10.7178 1.43196 3.83514
  1054 11.2178 1.52881 -3.50616
  1055 91.5697 -2.37091 5.77314
  1056 91.4805 -2.38500 -5.83429
  1057 233.302 62.0450 -148.774
  1058 1219.31 326.815 244.253
  1059 500.798 -18.4971 18.2892
  1060 451.012 -50.3492 -19.5521
  1061 316.249 -26.0367 -43.2339
  1062 -5.20315 7.34787 11.8090
  1063 -5.08122 7.38801 -11.7266
  1064 355.900 -19.0531 5.12659
  1065 391.210 -15.4519 1.78962
  1066 -0.148822 -28.5858 9.19807
  1067 -0.139167 -28.6173 -9.19658
  1068 61.2342 37.6723 -30.9956
  1069 61.9405 37.6115 31.1718
  1070 351.307 -17.6035 -4.92832
  1071 30.5586 12.9532 10.5948
  1072 30.3239 12.9685 -10.4978
  1073 532.988 -20.2629 70.4484
  1074 387.347 -39.9634 -37.9222
  1075 318.098 -26.4517 43.2356
  1076 509.283 -9.48724 -74.9533
  1077 531.635 -6.52062 6.92018
  1078 197.432 30.6214 91.4437
  1079 198.837 29.2941 -89.9560
  1080 315.499 -14.9863 -77.2286
  1081 442.710 -16.7748 -2.62547
  1082 362.401 -22.4149 8.47712
  1083 422.876 -39.7447 -4.91570
  1084 573.017 -2.31862 -4.04698
  1085 315.876 -15.1916 7.65852
  1086 315.741 -16.0126 -7.82348
  1087 11.7805 13.4858 8.67412
  1088 12.0401 13.5822 -8.52394
  1089 514.194 19.7545 -77.6491
  1090 119.315 5.69457 -35.2783
  1091 119.634 5.56661 35.1962
  1092 91.1444 1.47721 -25.6271
  1093 91.3423 1.42901 25.5915
  1094 579.309 -19.4331 111.461
  1095 505.771 -23.3867 42.5626
  1096 251.463 -11.6569 -48.3429
  1097 581.046 -2.52795 -2.40058
  1098 659.725 125.616 -28.4773
  1099 530.319 -5.79155 -4.13160
  1100 500.481 -53.4997 12.0383
  1101 372.668 -27.8258 68.2581
  1102 583.962 -1.01584 0.310440
  1103 325.346 10.0576 -20.1013
  1104 425.773 -45.5212 -13.6308
  1105 251.879 -12.1752 47.8641
  1106 429.630 -39.4065 2.47164
  1107 531.939 -8.13883 13.7508
  1108 392.702 24.8429 31.1227
  1109 270.141 -20.0074 -39.0376
  1110 795.838 122.352 -56.4492
  1111 605.587 29.4610 61.8867
  1112 460.685 57.4548 7.56416
  1113 579.044 -0.199385 2.01449
  1114 235.665 -14.9285 -30.3178
  1115 160.239 101.728 -150.023
  1116 284.640 8.32564 -108.376
  1117 326.548 -25.4803 20.1747
  1118 277.045 -20.8934 36.8117
  1119 235.138 -14.2229 30.5984
  1120 489.912 4.91891 75.9172
  1121 369.430 -13.8482 -2.41706
  1122 571.969 -4.49256 5.61793
  1123 -3.99422 0.158468 17.6876
  1124 -3.92491 0.218806 -17.6419
  1125 386.276 -12.0959 1.42754
  1126 0.537383 5.13787 15.4853
  1127 0.663413 5.21757 -15.3967
  1128 222.110 -7.41033 5.38831
  1129 222.118 -7.51620 -5.39371
  1130 542.025 -3.06850 13.2524
  1131 437.697 -27.4653 -4.34418
  1132 410.613 -22.7600 0.493023
  1133 458.198 -32.5526 11.6739
  1134 142.741 72.2871 -112.910
  1135 448.715 -17.9238 4.01921
  1136 72.4082 1.07710 -21.1430
  1137 72.5963 1.04361 21.1338
  1138 96.4249 62.9558 -80.6672
  1139 712.583 98.1758 13.9314
  1140 58.2944 -2.49882 12.4399
  1141 58.1136 -2.47913 -12.4546
  1142 98.1477 62.0735 78.0582
  1143 412.431 -34.9398 -3.48371
  1144 213.994 -10.3013 12.1394
  1145 214.018 -10.3437 -12.3087
  1146 832.331 177.281 -51.1247
  1147 453.401 -45.4466 -1.03348
  1148 157.967 95.5021 149.766
  1149 14.1641 1.44586 -14.8744
  1150 15.2076 1.62794 16.0907
  1151 483.475 60.5806 37.9622
  1152 38.6135 19.9455 -11.0124
  1153 38.9104 19.9544 11.1007
  1154 456.295 -39.9505 -8.12666
  1155 -0.197418 -43.8817 -8.51237
  1156 -0.217984 -43.8836 8.55118
  1157 487.140 -41.1720 -22.1930
  1158 0.371418 0.561817 4.11005
  1159 0.110867 0.565587 -4.11754
  1160 78.0469 28.4876 -33.1589
  1161 78.4640 28.6135 32.8898
  1162 -19.0083 0.0416281 -5.03471
  1163 -18.7434 0.0398833 5.04061
  1164 484.183 -6.39629 -0.223747
  1165 -46.4479 1.43419 0.300311
  1166 -46.3128 1.43363 -0.267362
  1167 261.693 -20.7516 -29.4402
  1168 7.13337 -57.4073 -8.37584
  1169 136.639 -3.96601 9.11648
  1170 136.579 -3.97809 -9.20290
  1171 414.003 -9.10767 0.828661
  1172 414.774 -8.90549 -0.749846
  1173 7.66345 -54.4119 9.89140
  1174 489.928 -26.0575 -22.7743
  1175 556.484 -2.84909 9.56843
  1176 498.144 -32.0851 -34.2519
  1177 441.016 3.53629 59.8457
  1178 2.64471 -16.1427 12.2714
  1179 2.85976 -16.0070 -12.0490
  1180 322.166 -23.9065 16.4841
  1181 -21.1579 2.13615 11.4103
  1182 -21.1185 2.15384 -11.3748
  1183 821.795 129.850 9.39164
  1184 945.661 311.059 -218.319
  1185 509.012 -49.0653 27.8766
  1186 216.757 -6.72784 -0.890476
  1187 216.778 -6.65432 0.891319
  1188 1024.57 99.5557 -92.4634
  1189 81.9558 -2.09072 12.8992
  1190 81.8062 -2.06039 -12.9401
  1191 479.259 -1.55505 -23.5173
  1192 309.301 -25.2069 33.1744
  1193 503.439 -48.9730 -19.0761
  1194 487.590 -35.6450 -25.8634
  1195 300.843 -10.2676 80.8224
  1196 114.388 20.8458 -44.6483
  1197 114.337 20.6629 44.4165
  1198 148.788 55.5762 -96.3896
  1199 149.010 51.5032 96.4034
  1200 45.3593 12.2676 -16.5760
  1201 45.6153 12.2331 16.6686
  1202 603.381 105.155 -42.0386
  1203 32.9980 30.5362 -15.8391
  1204 33.7324 30.5906 16.0626
  1205 434.759 -33.8174 2.95800
  1206 799.165 126.888 62.6598
  1207 111.186 -4.53375 -8.99077
  1208 111.277 -4.53268 8.91469
  1209 513.767 384.506 -316.640
  1210 414.617 24.8210 -47.9128
  1211 383.189 29.1567 19.6413
  1212 55.1146 22.3017 -19.5510
  1213 55.3692 22.3054 19.6506
  1214 20.0902 -0.122491 2.99379
  1215 19.9058 -0.122320 -3.01669
  1216 480.687 -38.7856 20.6506
  1217 472.043 -19.7381 10.4677
  1218 324.232 97.2212 -230.291
  1219 742.856 162.844 -12.8919
  1220 323.086 -9.31761 -88.6777
  1221 415.894 -13.9013 -0.844549
  1222 31.9281 -2.01932 -0.653684
  1223 31.9953 -2.01762 0.650073
  1224 -6.85588 3.27877 -7.41364
  1225 -6.64749 3.26574 7.46489
  1226 281.748 3.51774 -93.0961
  1227 510.804 -12.0123 12.5933
  1228 335.664 7.38612 125.811
  1229 452.028 -23.1633 -7.10661
  1230 235.663 86.6834 -182.628
  1231 364.462 -16.9161 -95.4958
  1232 432.845 -46.2010 11.2302
  1233 527.034 -8.76488 21.3318
  1234 462.518 -10.8177 -2.16075
  1235 260.644 -19.5169 29.5932
  1236 579.560 -30.8896 -36.6067
  1237 553.935 49.1552 72.6532
  1238 244.266 1.23832 -74.2402
  1239 543.882 -4.16627 1.37675
  1240 449.716 55.6322 -10.8193
  1241 198.247 -7.21727 -8.91609
  1242 198.221 -7.14849 8.83109
  1243 832.293 200.646 56.8551
  1244 1123.23 29.8259 51.7758
  1245 1.08522 -53.4003 -8.41247
  1246 1.05172 -53.4551 8.47876
  1247 127.413 68.7606 105.983
  1248 301.527 -9.67392 -2.26860
  1249 301.592 -9.62256 2.37687
  1250 408.946 -41.3050 -14.3236
  1251 490.904 40.7644 65.6190
  1252 506.350 -10.8884 -7.69462
  1253 582.962 -1.86105 -0.590146
  1254 1007.80 225.952 -143.910
  1255 166.307 -6.39640 9.39722
  1256 166.279 -6.40842 -9.50199
  1257 487.656 -45.2279 20.9249
  1258 845.974 215.620 -73.4701
  1259 472.465 -21.4234 -11.9332
  1260 348.383 -24.8051 -12.2060
  1261 425.413 -46.0722 24.4360
  1262 415.914 -21.6784 0.468045
  1263 16.3429 9.07375 -22.3946
  1264 565.872 -33.0495 44.9287
  1265 459.837 -30.6632 -11.4522
  1266 17.9433 9.86931 24.4765
  1267 472.015 -36.0600 -90.1072
  1268 445.376 31.1906 -188.530
  1269 729.428 98.1133 -6.58278
  1270 585.054 -0.761080 -0.154326
  1271 584.096 -1.29533 0.488172
  1272 467.488 -27.9185 12.8589
  1273 184.025 21.9265 -73.3038
  1274 531.867 -46.5138 35.8257
  1275 896.323 206.682 98.3506
  1276 226.559 80.3937 178.115
  1277 7.05505 2.20077 12.2152
  1278 7.29279 2.32047 -12.0514
  1279 556.715 -42.8984 -50.9704
  1280 230.610 -12.9205 -14.4568
  1281 230.581 -12.9549 14.2313
  1282 521.288 -33.8417 57.7161
  1283 24.6750 0.0625604 13.4393
  1284 24.4589 0.0727516 -13.4312
  1285 -2.68122 -10.6486 14.9428
  1286 -2.66202 -10.6257 -14.9468
  1287 100.139 -3.40594 -11.7578
  1288 100.256 -3.42541 11.6930
  1289 277.904 -18.6730 -44.0723
  1290 280.606 -9.98497 3.16887
  1291 280.593 -10.1805 -3.06656
  1292 583.410 -0.741701 0.254784
  1293 524.235 -8.41979 -24.0973
  1294 47.8400 1.80248 -17.1065
  1295 48.0490 1.77293 17.1175
  1296 279.005 -19.7296 43.7678
  1297 588.456 -0.837204 0.289620
  1298 557.501 -1.17494 -0.642388
  1299 557.448 -1.51375 0.507560
  1300 741.167 159.900 0.307587
  1301 544.710 -4.45132 -3.29700
  1302 485.593 -6.10298 0.0546663
  1303 537.677 -8.74447 -12.1496
  1304 580.905 -2.18447 1.55412
  1305 612.912 65.0745 61.2982
  1306 708.567 149.312 10.7737
  1307 566.970 -2.52083 -6.25082
  1308 -4.79410 -1.18423 4.28098
  1309 -4.81362 -1.18346 -4.29447
  1310 321.012 -20.8512 11.7663
  1311 320.954 -19.9705 -11.4725
  1312 618.431 71.9938 -57.9072
  1313 132.407 45.9091 -80.2278
  1314 133.256 44.6877 79.4094
  1315 424.650 0.131663 -29.9448
  1316 429.499 -8.12780 -0.787824
  1317 428.976 -8.07283 0.697308
  1318 -10.0590 -1.50211 15.1613
  1319 -10.0409 -1.47373 -15.1565
  1320 480.628 -1.26607 23.4682
  1321 724.552 143.936 -5.29691
  1322 59.7815 -2.01015 -7.40061
  1323 59.9285 -2.01475 7.34960
  1324 534.912 -50.4731 17.3211
  1325 2.16513 9.53526 11.8082
  1326 2.32337 9.59237 -11.7055
  1327 107.439 -2.43728 -2.56139
  1328 107.494 -2.40276 2.52708
  1329 424.734 -0.495770 30.4108
  1330 26.9982 0.860194 -1.16376
  1331 27.1007 0.863497 1.14638
  1332 541.496 -6.92630 7.58452
  1333 757.775 137.063 8.78767
</Section>

newXOutput 70

<Section columns = "stress_xx | stress_yy | stress_xy">
  1 605.236 -1.83152 1.10621
  2 606.126 -2.26806 -1.43563
  3 21.9511 0.552156 -1.53133
  4 -0.468926 -0.692145 -0.475849
  5 1089.71 459.237 363.199
  6 1106.47 523.838 -366.650
  7 -0.463998 -0.687803 0.469481
  8 21.8826 0.549018 1.52784
  9 609.193 -1.31300 -1.00140
  10 605.000 -2.27482 -1.48135
  11 605.632 -1.81560 1.21018
  12 603.040 -1.11019 0.408820
  13 602.157 -2.14316 -0.548011
  14 601.699 -2.08140 2.12467
  15 593.835 -1.54968 1.92450
  16 596.553 -4.37071 3.13727
  17 579.299 -3.68521 6.96987
  18 568.622 -1.76512 8.41680
  19 553.682 -2.07499 9.14404
  20 527.351 -1.84793 12.9766
  21 498.382 -1.52187 15.1752
  22 461.893 1.97264 20.9856
  23 411.591 3.07464 19.0856
  24 391.206 -0.0185911 27.4297
  25 327.915 4.64502 19.5715
  26 289.110 6.02404 15.4006
  27 278.992 3.15445 11.3806
  28 268.148 8.85252 0.867454
  29 274.109 9.46566 -15.2399
  30 285.960 2.81496 -19.1070
  31 333.633 1.37954 -25.4256
  32 381.388 -2.29183 -26.2310
  33 413.382 2.55565 -19.0407
  34 462.413 2.23532 -20.9783
  35 497.158 -1.79323 -16.2814
  36 530.197 -2.03000 -12.2206
  37 551.635 -1.55713 -9.29586
  38 566.971 -1.88724 -7.67535
  39 583.531 -2.16595 -4.38174
  40 589.670 -2.30718 -4.14533
  41 595.729 -2.16656 -3.68818
  42 601.819 -2.44152 -0.566650
  43 604.040 -3.05150 -1.44761
  44 600.361 -0.0779793 0.0751894
  45 604.921 -1.68734 -1.38810
  46 607.168 -3.25750 1.61529
  47 609.889 -1.91255 -0.0554673
  48 580.585 -0.0840006 -0.914648
  49 547.622 -3.03372 -1.69358
  50 510.093 -6.28611 -2.34928
  51 471.071 -5.58185 -1.69079
  52 436.871 -8.40250 -1.54777
  53 400.646 -9.03316 -1.38997
  54 364.000 -7.99257 -0.609705
  55 325.345 -8.42152 -0.880687
  56 292.592 -8.74891 -1.19278
  57 248.923 -8.25932 -0.936348
  58 203.933 -5.29411 -0.599508
  59 166.694 -3.42485 -0.457977
  60 120.699 -2.15376 -0.114557
  61 87.3202 -1.97710 -2.24201
  62 56.3629 -2.59036 -0.698594
  63 25.1168 0.289671 1.47778
  64 16.8383 2.16684 0.648726
  65 14.3228 0.874030 1.60600
  66 15.0868 0.392853 1.63906
  67 8.11033 1.24230 0.881518
  68 5.15762 1.63859 3.35109
  69 3.37597 0.584057 1.42985
  70 -8.34603 1.23501 1.54154
  71 -14.1553 0.834253 3.27626
  72 -17.0821 0.257981 3.47452
  73 -30.2300 1.14261 2.85368
  74 -35.5492 1.72859 5.06504
  75 -41.7413 1.04958 2.16320
  76 -48.4516 0.771440 2.93588
  77 -51.8098 0.815173 1.43896
  78 -58.5639 2.03268 -0.935328
  79 -59.9834 1.39168 -0.668000
  80 -55.2546 1.03286 -1.63274
  81 -47.8600 1.39028 -3.45400
  82 -39.2705 0.646657 -5.51114
  83 -29.5290 0.367940 -5.84005
  84 -17.8206 -0.556496 -6.17384
  85 -7.86614 -0.455984 -3.65710
  86 -3.33636 -1.27864 -2.30470
  87 -0.534317 -3.32904 -2.01472
  88 -0.877796 -8.50682 -3.52399
  89 -1.00962 -16.3877 -6.10980
  90 -0.160547 -30.5410 -6.52076
  91 0.405141 -41.9229 -8.10845
  92 0.898246 -60.0802 -6.57678
  93 2.68599 -70.8708 -7.67508
  94 0.537747 -75.3560 -6.08976
  95 -0.0394205 -85.3470 -3.19060
  96 2.44465 -80.5888 0.232487
  97 10.0290 -103.542 6.14998
  98 9.40442 -48.6632 18.0813
  99 21.8697 -9.56050 38.0464
  100 64.0917 128.029 111.757
  101 263.149 372.538 303.359
  102 1427.04 155.925 210.356
  103 1202.99 42.7698 75.6045
  104 1147.20 18.2453 25.9479
  105 1116.62 11.8572 -0.147086
  106 1136.28 17.3795 -21.3928
  107 1213.63 36.4959 -62.4400
  108 1412.21 123.121 -195.286
  109 171.322 421.534 -250.995
  110 45.1361 100.039 -87.2213
  111 16.1714 -20.1523 -32.0480
  112 8.53262 -54.8631 -15.8191
  113 9.96562 -107.966 -5.05910
  114 2.33107 -82.5383 0.532151
  115 -0.184452 -86.3169 3.58780
  116 0.445787 -75.7256 6.30198
  117 2.63547 -70.9505 7.76420
  118 0.878890 -60.0385 6.60925
  119 0.390572 -41.8580 8.11945
  120 -0.167659 -30.4615 6.51603
  121 -1.01040 -16.3374 6.09608
  122 -0.879683 -8.46407 3.51136
  123 -0.533890 -3.31300 2.00364
  124 -3.31715 -1.27673 2.29538
  125 -7.83188 -0.458088 3.64695
  126 -17.7760 -0.561523 6.16749
  127 -29.4770 0.362311 5.84103
  128 -39.2402 0.640486 5.52156
  129 -47.8696 1.38582 3.47491
  130 -55.3053 1.03245 1.65542
  131 -60.0878 1.39030 0.690251
  132 -58.7131 2.03225 0.958586
  133 -52.0104 0.817221 -1.41846
  134 -48.6911 0.773965 -2.92045
  135 -42.0005 1.05250 -2.15077
  136 -35.8314 1.73210 -5.05945
  137 -30.5211 1.14594 -2.84897
  138 -17.3711 0.260006 -3.47456
  139 -14.4466 0.837784 -3.28014
  140 -8.62551 1.23994 -1.54754
  141 3.12727 0.587308 -1.44168
  142 4.93955 1.64204 -3.36920
  143 7.91994 1.24331 -0.897480
  144 14.9395 0.392226 -1.65472
  145 14.2069 0.872508 -1.61864
  146 16.7436 2.16424 -0.659644
  147 25.0409 0.287847 -1.48424
  148 56.2942 -2.59996 0.692124
  149 87.2578 -2.00082 2.23502
  150 120.651 -2.19566 0.105138
  151 166.665 -3.48538 0.453179
  152 203.908 -5.36414 0.598913
  153 248.888 -8.31959 0.946131
  154 292.518 -8.77803 1.21289
  155 325.229 -8.38153 0.927852
  156 363.840 -7.85116 0.663414
  157 400.429 -8.70233 1.30999
  158 437.064 -8.50011 1.35196
  159 471.219 -6.17267 1.78805
  160 510.484 -6.17868 2.12729
  161 548.674 -2.72138 1.71738
  162 579.710 -0.120289 0.891736
  163 344.770 -31.2525 -31.7197
  164 343.431 -31.8250 31.6425
  165 106.422 28.9789 -44.6931
  166 107.459 29.0792 44.5159
  167 404.359 -18.1072 108.296
  168 423.422 -20.5618 -105.464
  169 203.951 -10.9411 14.9089
  170 203.918 -10.8365 -15.0928
  171 431.409 -16.1561 0.403098
  172 423.060 -16.2012 -0.236889
  173 578.824 103.722 -13.3119
  174 582.567 5.75811 -67.8847
  175 571.565 10.0351 73.6965
  176 143.037 -5.55897 -30.3011
  177 143.059 -5.52165 30.2511
  178 503.626 -49.6312 21.8058
  179 503.267 -38.7501 -32.8149
  180 8.23784 12.6587 10.5998
  181 8.44804 12.7387 -10.4740
  182 687.988 140.739 16.5908
  183 136.028 61.5952 -97.8509
  184 145.698 62.1369 104.633
  185 486.683 -23.4533 14.5366
  186 728.682 154.705 -3.57901
  187 319.484 -12.4775 -5.03017
  188 318.990 -12.7748 5.00030
  189 499.668 -16.5800 -13.4442
  190 661.759 -0.262058 -15.9672
  191 131.662 -3.98400 5.83620
  192 131.609 -4.01552 -5.90580
  193 57.4628 6.70842 -20.9776
  194 57.7141 6.63980 21.0271
  195 285.084 -10.7788 -69.0813
  196 283.978 -11.3505 69.9477
  197 339.518 -22.6582 -12.4536
  198 340.186 -22.5321 13.1087
  199 94.7302 -3.29756 16.3520
  200 94.5892 -3.25488 -16.3814
  201 654.239 -7.29473 49.3697
  202 538.421 -52.0193 -5.81253
  203 509.376 -6.23672 -1.67077
  204 498.495 -7.43153 1.64339
  205 514.224 60.6090 52.8430
  206 23.1779 21.2277 -9.91068
  207 23.9781 21.1991 10.2677
  208 509.192 -20.1770 61.3714
  209 473.509 36.5114 -61.1080
  210 332.965 79.4395 -218.140
  211 350.143 67.2011 202.853
  212 11.5417 11.4959 -3.15567
  213 11.7446 11.4952 3.25426
  214 507.810 -17.7089 -63.5380
  215 871.905 121.376 -8.75832
  216 421.860 -45.6087 41.2915
  217 424.918 -45.3748 -39.2516
  218 421.595 -30.7428 0.697287
  219 518.161 -9.14260 6.91472
  220 257.307 -17.9200 -27.0052
  221 253.426 -17.8540 27.7504
  222 156.545 2.94787 -45.0241
  223 156.775 2.89146 44.6761
  224 533.360 -55.1985 -11.1000
  225 418.193 -32.6243 -2.52506
  226 516.241 -8.98125 -5.18730
  227 405.511 -11.6486 -0.876201
  228 408.901 -10.9573 1.61815
  229 512.241 -23.1671 34.3197
  230 50.1382 0.291975 -17.4805
  231 50.3385 0.271332 17.4829
  232 -6.11042 -3.97891 -17.0674
  233 -6.14343 -4.02071 17.0804
  234 87.0962 -3.59548 -9.58250
  235 87.2197 -3.60413 9.51675
  236 223.172 -7.13450 6.69900
  237 223.212 -7.24724 -6.74324
  238 253.015 17.9554 -99.6270
  239 253.048 15.0494 98.5333
  240 519.067 -16.6148 -29.3781
  241 248.939 -14.6868 -42.7680
  242 249.161 -15.1268 42.2223
  243 464.136 7.60154 69.3893
  244 410.947 35.1498 4.22064
  245 447.095 -44.7110 2.27944
  246 2.46145 -9.56708 -14.7430
  247 2.31090 -9.68806 14.8732
  248 30.3288 34.1588 -36.0255
  249 32.2013 33.1357 37.6709
  250 439.797 -43.7640 -5.16019
  251 783.412 153.342 -20.0303
  252 43.8721 29.1310 -16.6656
  253 44.3769 29.1252 16.8361
  254 -15.6530 3.90064 11.0258
  255 -15.5663 3.92100 -10.9653
  256 786.549 144.567 24.7563
  257 283.110 -14.2403 -11.4136
  258 282.907 -14.0296 11.2294
  259 544.427 -35.8899 55.1906
  260 969.481 158.203 99.8477
  261 169.345 -9.04904 -25.0898
  262 169.326 -9.11262 25.0728
  263 559.450 84.0248 -49.7321
  264 937.388 178.983 -92.2380
  265 660.931 69.3794 43.9992
  266 710.205 53.6792 -140.287
  267 446.591 -22.0544 4.11616
  268 510.840 3.25292 -77.0158
  269 480.789 -34.4028 -17.5212
  270 533.676 -10.1203 18.3915
  271 3.77861 5.16556 -7.27425
  272 3.98321 5.15006 7.34567
  273 527.664 -14.1455 -134.471
  274 61.0681 17.8322 -21.4892
  275 61.3507 17.8036 21.5983
  276 514.789 -12.5382 -38.5676
  277 76.3082 83.6669 -101.921
  278 71.7864 -0.366492 -2.25019
  279 71.8633 -0.353275 2.22133
  280 542.721 -32.7753 -57.8237
  281 99.0933 44.5176 -55.8287
  282 100.497 44.2953 55.9868
  283 34.8380 -0.929741 12.1264
  284 34.6256 -0.919062 -12.1314
  285 445.883 -21.0366 -4.05082
  286 76.8507 82.8189 104.505
  287 698.206 63.5756 163.173
  288 200.954 -8.26668 -9.25875
  289 200.931 -8.21930 9.14895
  290 358.994 -15.8832 -5.13263
  291 358.826 -17.0858 5.56636
  292 306.409 31.0160 -149.185
  293 489.995 -53.2861 -3.32642
  294 552.468 -4.17336 2.95603
  295 295.340 31.1224 144.560
  296 344.208 -10.4720 -1.80699
  297 344.081 -10.4671 2.09054
  298 481.605 -35.7262 17.8307
  299 549.124 -6.49698 -8.27029
  300 1.19334 2.01633 -9.82562
  301 1.42104 2.00118 9.86108
  302 695.801 137.479 -3.90662
  303 605.914 -26.0570 25.9715
  304 544.007 -3.76986 -0.646090
  305 553.071 -3.30397 0.586258
  306 546.152 -46.0003 51.7897
  307 673.176 74.0502 -40.0057
  308 595.110 110.398 27.7252
  309 270.705 -17.0531 -17.6211
  310 268.347 -17.3513 17.9218
  311 551.677 -4.11086 -1.78172
  312 368.208 -27.2698 -75.4514
  313 362.961 -29.1609 15.6097
  314 345.910 -18.2793 85.4605
  315 544.911 -7.23573 10.0138
  316 131.995 -6.04383 -15.7978
  317 132.092 -6.08680 15.7390
  318 503.601 -13.8302 132.856
  319 324.836 -26.1098 -21.9337
  320 592.255 77.2192 61.6735
  321 192.626 13.4343 -65.8045
  322 185.652 14.0603 65.3152
  323 64.5779 -1.22111 -4.07519
  324 64.6875 -1.21351 4.02939
  325 482.800 -10.9877 3.40230
  326 463.335 -7.98234 0.0945124
  327 460.829 -8.61402 -0.242892
  328 511.351 -13.1904 40.9446
  329 52.4214 -1.73771 9.18264
  330 52.2367 -1.72220 -9.21756
  331 156.864 -3.91008 -3.39016
  332 156.891 -3.85264 3.35974
  333 5.33807 -20.7584 -7.23191
  334 5.01288 -20.9471 7.61914
  335 406.305 17.8326 47.3759
  336 611.584 -23.8345 -19.7431
  337 399.654 -22.2119 -1.35194
  338 449.256 -10.4120 -1.13276
  339 478.163 59.2449 -28.5789
  340 98.6969 -3.22972 -22.6071
  341 98.8309 -3.23289 22.5945
  342 388.971 -21.0196 3.30800
  343 114.950 3.49792 -32.3091
  344 115.172 3.40324 32.2251
  345 23.8479 18.6813 -2.57250
  346 24.1155 18.6817 2.68849
  347 470.320 -49.5092 52.1838
  348 1021.89 67.1852 26.3236
  349 426.582 6.90996 -55.9858
  350 352.803 -31.5415 47.6945
  351 351.018 -30.8788 -49.0348
  352 518.407 -8.01691 75.9965
  353 464.366 -3.05355 54.9710
  354 464.395 -47.8597 -53.7269
  355 281.709 -8.07086 1.08260
  356 281.663 -8.15108 -1.01501
  357 513.726 -33.4197 45.0779
  358 703.577 139.169 1.07242
  359 548.123 -6.80451 -13.5818
  360 149.322 -5.80246 -11.6333
  361 149.395 -5.80833 11.5339
  362 517.601 -47.3412 -64.0967
  363 548.084 39.3093 -75.2917
  364 376.617 20.2473 -30.5039
  365 517.552 -34.2287 -51.9967
  366 -16.4626 0.767261 -13.1264
  367 -16.4799 0.745901 13.1431
  368 434.575 -11.6715 -0.000420603
  369 -6.16740 -3.64622 -8.08031
  370 -6.15912 -3.64706 8.06258
  371 333.790 177.168 -263.917
  372 14.8570 13.5697 6.20916
  373 15.1962 13.6720 -6.02666
  374 461.074 -3.22024 -54.5318
  375 256.918 -11.5624 8.63957
  376 257.085 -11.7040 -8.71696
  377 -1.51971 -17.8321 14.9877
  378 -1.49174 -17.8000 -14.9734
  379 272.795 185.314 248.988
  380 211.271 -11.4563 -33.8111
  381 211.449 -10.9902 33.8368
  382 68.4441 51.3475 -52.1311
  383 69.8378 51.2335 51.8591
  384 -23.7520 4.07685 3.76790
  385 -23.6324 4.08393 -3.70199
  386 529.772 36.1709 75.8623
  387 405.552 -42.4649 24.7152
  388 405.992 -37.3837 11.8533
  389 489.359 -54.9926 -11.4374
  390 127.318 15.4566 -44.2717
  391 127.742 15.4348 44.2162
  392 11.6581 -12.0387 3.67793
  393 11.0607 -12.3009 -2.82578
  394 502.693 71.4967 18.6189
  395 497.663 -15.2753 10.7663
  396 290.057 -22.7796 31.5986
  397 182.135 -4.85017 -40.0607
  398 182.218 -4.88460 39.7933
  399 366.788 -12.3232 -2.67422
  400 366.412 -10.9894 2.36413
  401 287.675 -23.3634 -33.3494
  402 226.247 -4.00333 -53.4252
  403 226.228 -4.30863 53.8349
  404 519.953 -47.1817 -29.5143
  405 306.511 -24.0436 20.7245
  406 472.556 -15.5799 5.61700
  407 471.572 -14.3436 -4.46024
  408 398.715 -37.1292 -13.2440
  409 563.114 -3.24201 -3.17087
  410 194.525 80.9882 -152.186
  411 534.322 -8.17030 23.1323
  412 561.947 -3.66852 5.01281
  413 208.578 -11.4445 20.9052
  414 208.649 -11.2947 -20.8904
  415 403.759 -41.9638 -25.4020
  416 60.9497 26.3053 23.2144
  417 60.6301 26.2828 -23.2264
  418 1031.89 67.1342 -53.5857
  419 464.132 -27.3388 -8.93039
  420 566.076 -2.77215 1.82364
  421 184.031 75.9127 145.292
  422 839.880 140.890 29.2789
  423 495.191 -8.79438 -2.63300
  424 374.925 -27.8886 -10.6124
  425 159.546 30.7573 -74.0954
  426 169.802 28.4707 73.6501
  427 458.860 -29.8347 8.86439
  428 489.496 -6.23357 -40.1308
  429 2.99116 -0.507192 9.14911
  430 2.74869 -0.502155 -9.14093
  431 179.474 43.6645 -98.2599
  432 180.048 43.8157 97.9684
  433 24.6857 9.85758 -10.8017
  434 24.9123 9.83768 10.8907
  435 412.201 -9.42771 0.229672
  436 411.707 -9.22159 -0.0967211
  437 511.624 -23.6543 -35.9441
  438 -0.699257 -0.588325 17.7916
  439 -0.607069 -0.504602 -17.7233
  440 526.463 -51.1867 24.9653
  441 496.907 -14.3844 -9.35265
  442 801.419 153.121 -27.6180
  443 42.0850 -1.52068 4.42849
  444 41.9197 -1.52092 -4.46804
  445 955.525 276.496 128.709
  446 20.5709 16.5455 -32.6048
  447 65.8198 2.74619 -22.2344
  448 66.0320 2.69967 22.2378
  449 954.273 283.291 -125.567
  450 21.7987 18.7070 35.5386
  451 -22.0559 3.05465 0.121088
  452 -21.9003 3.05030 -0.0580421
  453 56.8071 38.9695 -31.7944
  454 57.7527 38.9984 31.9563
  455 630.736 100.398 -48.9864
  456 505.125 -20.4395 -22.3897
  457 563.252 -2.84142 -1.54572
  458 528.213 -8.36377 -27.3352
  459 -5.14490 4.43775 16.1653
  460 -5.05084 4.49222 -16.1001
  461 510.484 -21.1701 26.4919
  462 335.944 -19.7470 -10.0231
  463 334.954 -19.9328 8.94158
  464 451.792 -49.6495 -12.0609
  465 324.630 -3.66764 -103.972
  466 493.941 -7.47000 40.9271
  467 403.054 -14.3472 1.68718
  468 586.728 -41.4697 -13.4083
  469 314.656 3.81221 111.257
  470 32.2144 -0.535627 8.83085
  471 31.9967 -0.526214 -8.84595
  472 649.177 128.171 -20.7239
  473 513.729 -5.06364 -0.0591711
  474 512.034 -5.57698 -0.389842
  475 393.142 -27.0533 6.05404
  476 178.637 -6.27913 -6.64636
  477 178.641 -6.21244 6.57838
  478 106.926 -1.51607 -26.7475
  479 107.058 -1.53677 26.7056
  480 341.952 13.2239 18.3117
  481 91.1944 -2.98093 13.0943
  482 91.0584 -2.95374 -13.1498
  483 93.5661 8.41957 30.2320
  484 93.2600 8.54408 -30.2016
  485 502.371 -38.9745 31.4238
  486 285.427 -17.8274 -50.4609
  487 265.244 -9.33899 4.75161
  488 265.329 -9.54199 -4.75610
  489 288.377 -18.3741 50.4624
  490 780.300 187.865 -23.8386
  491 -12.4565 -1.80300 -10.3523
  492 -12.4484 -1.81295 10.3454
  493 204.620 -6.17622 -2.81215
  494 204.630 -6.09384 2.80290
  495 0.382788 -32.5792 -12.0764
  496 0.300541 -32.6871 12.1882
  497 457.681 -8.28458 0.395892
  498 340.121 15.9309 -9.09412
  499 448.244 46.7993 25.8489
  500 283.158 -2.38099 -83.6650
  501 144.159 -7.41865 19.7515
  502 144.128 -7.35731 -19.7779
  503 -30.8206 1.07041 -3.55180
  504 -30.6049 1.06370 3.58165
  505 543.388 -8.96454 -74.5297
  506 54.2991 0.203498 -2.92633
  507 54.3968 0.210291 2.89332
  508 452.342 -36.1767 -6.08564
  509 481.404 -41.2501 -16.3671
  510 101.695 80.0000 -105.069
  511 404.795 13.6269 -161.166
  512 7.33042 12.8018 6.15080
  513 7.52811 12.8308 -6.03970
  514 253.189 -12.2610 -12.0410
  515 253.076 -12.1596 11.8261
  516 688.733 33.9536 -7.32634
  517 500.138 -29.9553 -28.6967
  518 99.2170 75.9724 103.670
  519 495.371 -55.2801 19.2130
  520 477.103 -45.4182 11.4858
  521 110.524 -2.68411 -8.64240
  522 110.606 -2.67472 8.56861
  523 401.670 4.65416 43.4308
  524 288.058 -21.6466 -21.6898
  525 525.358 -12.4954 16.1861
  526 -2.07206 -12.7975 -10.0960
  527 -2.07716 -12.7860 10.0802
  528 372.502 -32.5858 56.3985
  529 561.244 -41.4887 -35.2930
  530 725.429 57.6273 -34.8458
  531 398.429 -14.7959 -1.63897
  532 127.287 -2.45427 -2.47474
  533 127.331 -2.41227 2.45446
  534 255.338 2.35216 80.7712
  535 698.152 120.686 28.5388
  536 698.425 153.604 -252.077
  537 635.570 6.85957 31.8065
  538 460.505 -50.9415 9.67548
  539 1062.68 84.6725 72.0769
  540 797.197 197.935 32.4313
  541 120.792 -5.10064 21.4973
  542 120.692 -5.05159 -21.5252
  543 443.138 -37.2092 3.27733
  544 36.5034 16.2706 -10.5221
  545 36.7600 16.2643 10.6263
  546 554.483 -44.8319 35.4382
  547 461.793 25.4588 63.6687
  548 555.841 -4.01710 9.12777
  549 415.354 -25.8104 -0.197005
  550 574.235 10.6199 -169.870
  551 901.019 247.579 171.209
  552 447.980 -10.2005 -0.154170
  553 547.242 -6.02139 -15.1016
  554 90.4907 37.2960 -42.5045
  555 91.1355 36.8541 42.3377
  556 318.749 -13.7413 -6.72513
  557 318.612 -13.4449 6.83160
  558 4.10891 -34.6347 -6.70276
  559 560.800 -18.5861 65.3160
  560 23.7374 20.7910 -0.546413
  561 24.0841 20.8511 0.712170
  562 4.75602 -33.2571 7.90891
  563 511.813 -23.1508 -53.7305
  564 588.159 38.9080 -70.6512
  565 586.383 43.9297 70.7507
  566 29.9029 27.9364 24.8745
  567 28.4703 28.4994 -24.4064
  568 -10.2908 0.487268 7.02312
  569 -10.5375 0.492691 -7.00868
  570 535.940 18.8426 174.812
  571 300.385 -17.2987 12.5046
  572 300.673 -17.2394 -12.6864
  573 644.424 -6.12590 -93.1349
  574 94.1108 -1.32239 5.00169
  575 94.0359 -1.34112 -5.05134
  576 50.2595 -1.03564 -1.15491
  577 50.3347 -1.02888 1.14331
  578 711.647 133.314 -21.1249
  579 69.9325 114.007 -115.056
  580 385.495 8.04762 -36.8684
  581 535.205 85.1686 -31.4403
  582 8.76330 1.74343 9.57337
  583 9.08702 1.86447 -9.35663
  584 524.374 260.437 294.263
  585 454.901 -13.9152 -2.31192
  586 20.7606 4.60694 -12.2968
  587 20.9848 4.57388 12.3534
  588 525.846 -41.7432 44.3624
  589 82.4589 110.736 117.150
  590 381.296 -9.35789 0.840454
  591 381.404 -9.29077 -0.841858
  592 -0.245533 -26.1986 12.8261
  593 -0.204575 -26.1568 -12.7837
  594 649.202 125.531 -1.03980
  595 411.995 -32.2175 78.5735
  596 393.943 -17.9636 -2.68106
  597 394.801 20.8017 169.864
  598 -31.8938 1.77046 7.53132
  599 -31.8626 1.78007 -7.49854
  600 643.133 11.7943 -34.4867
  601 845.394 155.235 -124.826
  602 249.391 26.2037 -114.931
  603 139.365 -5.96399 -26.0652
  604 139.503 -5.96687 26.0741
  605 578.295 -2.30360 2.31785
  606 390.222 -18.3202 2.22922
  607 516.741 -8.12629 4.90018
  608 511.799 -23.2099 52.4097
  609 31.1291 -0.872734 4.47903
  610 30.9321 -0.869138 -4.50809
  611 306.939 -11.6129 -3.98571
  612 306.903 -11.3284 3.89257
  613 193.522 4.05403 -55.0366
  614 192.321 4.11151 54.8215
  615 729.178 50.4612 51.9323
  616 1173.40 88.4816 -127.697
  617 -2.15085 -0.768688 6.07621
  618 -2.40915 -0.766280 -6.07312
  619 185.348 -7.99597 12.1461
  620 185.323 -7.98527 -12.2841
  621 682.564 41.8337 16.6533
  622 570.937 -2.67282 -0.733869
  623 569.745 -3.54464 0.228184
  624 426.570 0.122681 42.9343
  625 600.370 -32.1436 -59.0120
  626 331.786 -27.5611 25.7893
  627 -5.52086 7.72071 -5.94471
  628 -5.66887 7.70743 6.03151
  629 528.782 11.7697 79.0908
  630 214.073 -12.5337 -27.4210
  631 213.889 -12.7349 27.4713
  632 429.661 -25.7261 -1.38761
  633 527.516 -12.2437 -14.5935
  634 306.271 -24.5755 -37.3894
  635 501.846 60.6218 -48.1171
  636 337.435 -23.0499 -64.6004
  637 131.357 -3.53247 -4.58596
  638 131.400 -3.49403 4.53481
  639 309.345 -24.9880 37.5835
  640 656.117 107.905 42.6814
  641 523.536 -24.8568 66.1105
  642 428.552 -20.1523 1.64311
  643 310.131 -9.23895 2.29353
  644 310.054 -9.25530 -2.23638
  645 236.581 -9.34575 -8.78880
  646 236.506 -9.25371 8.71121
  647 502.888 -45.9524 -23.8166
  648 259.840 -15.1769 15.2936
  649 260.102 -15.1161 -15.5519
  650 510.913 78.3521 -6.39648
  651 464.866 -25.2496 9.19355
  652 575.709 -3.06724 -3.75381
  653 497.428 -8.60264 -70.1019
  654 78.2833 -3.35029 17.2964
  655 78.1244 -3.32724 -17.3059
  656 563.134 -3.52193 -8.29713
  657 104.479 54.3607 -74.7753
  658 106.236 54.2458 75.1343
  659 575.300 -31.8617 79.0979
  660 202.572 51.3535 121.060
  661 55.4097 -0.447846 17.2854
  662 55.2232 -0.436191 -17.2885
  663 491.746 -29.8784 100.370
  664 482.161 75.0351 -229.634
  665 478.606 15.6867 -70.3196
  666 625.107 113.663 37.7015
  667 421.441 -19.7715 0.220287
  668 754.409 134.505 -3.27387
  669 -33.2540 1.74353 -2.55712
  670 -33.0727 1.73932 2.59842
  671 337.567 2.56199 -121.158
  672 33.6201 -0.519409 3.39068
  673 33.4690 -0.520674 -3.42114
  674 421.760 -34.6748 -77.7549
  675 143.752 19.4040 -53.2824
  676 142.651 19.4840 53.2618
  677 6.05186 7.16016 -4.80107
  678 6.25013 7.15202 4.88801
  679 360.424 -31.4900 -20.2234
  680 508.119 -5.02793 -26.7718
  681 247.164 -8.22534 -3.09901
  682 247.183 -8.14391 3.12003
  683 181.106 -9.41147 -17.8559
  684 181.256 -9.53764 17.8011
  685 35.1826 28.8865 -12.4717
  686 35.7411 28.9552 12.6649
  687 515.551 -7.20306 2.08390
  688 236.006 -15.2817 23.1260
  689 237.450 -15.0277 -23.1121
  690 572.337 -44.1681 -0.989723
  691 473.903 -47.6596 -6.33446
  692 374.473 -11.7354 -1.40931
  693 373.197 -11.0350 1.57441
  694 520.475 -53.8047 33.2226
  695 840.445 170.432 48.7638
  696 457.866 -18.4298 -123.431
  697 523.896 -15.0320 27.0089
  698 522.808 -18.8003 -71.2947
  699 169.754 -5.47274 -8.57173
  700 169.770 -5.43605 8.48069
  701 408.059 -5.13674 137.942
  702 1113.97 144.078 131.754
  703 82.1976 23.3235 -31.7945
  704 82.3233 23.4823 31.8956
  705 513.591 -6.07124 -0.996447
  706 517.528 -5.51833 1.03025
  707 221.716 116.960 -194.108
  708 547.495 -3.32089 15.2130
  709 473.762 -9.33068 1.22034
  710 629.389 124.001 -13.5773
  711 68.2965 11.5046 -23.3768
  712 68.5865 11.4341 23.4614
  713 582.219 -1.85246 0.280377
  714 477.332 -19.3475 -9.38063
  715 594.460 -7.24204 55.8003
  716 248.719 -17.6001 -35.4052
  717 249.337 -16.8690 35.1066
  718 63.2716 -2.03182 13.0817
  719 63.0952 -2.00738 -13.1104
  720 535.978 -4.56019 -2.16047
  721 462.792 97.5598 243.080
  722 4.33140 4.83092 14.0912
  723 4.50660 4.93905 -13.9710
  724 538.177 -6.61498 -6.34462
  725 523.569 -10.4874 9.15560
  726 424.684 0.617924 -46.0487
  727 4.24383 -45.4318 -5.02097
  728 3.98364 -45.9043 5.49791
  729 194.976 53.0206 -121.123
  730 421.201 -41.7173 -57.1777
  731 220.450 115.812 195.811
  732 575.408 -1.93820 1.28480
  733 565.832 85.0001 49.8533
  734 419.533 37.8942 -18.0444
  735 734.727 147.973 4.78950
  736 569.875 -2.83745 5.19425
  737 -29.7443 0.826198 5.02792
  738 -29.9840 0.830688 -5.00825
  739 608.335 -32.1219 22.0173
  740 397.628 -12.6223 -1.79427
  741 149.101 -0.0355796 -38.4977
  742 149.305 -0.179297 38.3036
  743 522.730 -7.08705 -3.28237
  744 918.782 129.846 -48.7170
  745 70.8683 -1.96601 -8.42642
  746 71.0203 -1.97710 8.37551
  747 579.454 -2.01828 -2.29750
  748 124.435 -5.49679 -11.7114
  749 124.528 -5.51600 11.6354
  750 572.786 -21.5008 -58.1437
  751 529.881 -5.73465 21.3269
  752 479.992 -2.64306 69.5861
  753 579.648 -2.09119 0.196125
  754 543.967 -4.96937 4.73269
  755 361.413 -20.2559 -6.32922
  756 449.222 -12.9783 1.40536
  757 511.297 -31.4981 -43.8908
  758 498.320 -31.6790 27.4701
  759 586.088 71.9096 -62.5564
  760 491.278 -28.1387 19.7406
  761 520.015 -30.4830 56.8179
  762 305.291 -21.1704 16.3504
  763 11.6497 -0.0912055 1.35890
  764 11.0691 -0.133634 -0.807651
  765 454.072 -8.11900 -0.247896
  766 453.134 -8.07220 0.0833998
  767 540.284 -3.33438 -0.178312
  768 542.070 -3.23633 0.299625
  769 519.838 -14.8555 33.5503
  770 479.401 -42.8191 73.8760
  771 396.216 -32.6513 9.34707
  772 353.136 -21.8213 8.98954
  773 936.314 119.640 55.8814
  774 524.086 -13.8888 -20.9146
  775 309.865 56.2264 -181.631
  776 487.999 -24.8133 -16.8797
  777 24.8784 0.305496 -12.7472
  778 25.1012 0.287716 12.7670
  779 444.683 39.0358 -40.4086
  780 1082.41 32.8215 -13.9415
  781 551.348 15.2516 -76.8001
  782 22.9304 23.7760 -47.0289
  783 570.606 102.029 12.6496
  784 442.234 -28.8600 3.74877
  785 498.981 -12.0675 67.9270
  786 419.136 -43.4958 57.4841
  787 661.052 1.73523 113.082
  788 24.6864 28.8583 50.0186
  789 305.210 -1.35674 95.2880
  790 422.642 -12.1114 0.275644
  791 470.384 -41.0238 -74.7322
  792 293.015 -23.1158 -26.8587
  793 232.014 11.2613 -83.8463
  794 545.981 -7.55966 75.2112
  795 352.699 -24.6525 13.5106
  796 76.0490 -2.02904 7.37820
  797 75.9291 -2.03112 -7.43703
  798 509.650 -2.89001 23.6779
  799 466.036 2.77756 -67.8614
  800 -39.1733 1.87578 4.47389
  801 -39.1137 1.87958 -4.43758
  802 343.390 -11.7813 -2.54682
  803 342.437 -11.2079 2.43264
  804 255.657 29.2650 116.498
  805 230.826 -13.8051 17.6916
  806 231.121 -13.4844 -17.8506
  807 578.897 -1.57278 -1.14238
  808 209.379 16.7087 81.8537
  809 15.1832 -0.197467 4.70348
  810 14.9461 -0.193258 -4.72003
  811 503.730 -15.4367 52.2601
  812 531.484 -5.45410 1.62463
  813 -28.4146 0.421206 7.70245
  814 -28.4221 0.430765 -7.68678
  815 333.021 -20.6089 72.1294
  816 66.4086 57.3631 -64.1508
  817 67.1948 54.9082 63.2459
  818 325.456 14.2127 7.60110
  819 2.04767 -0.392796 -5.37151
  820 2.30909 -0.396110 5.36839
  821 381.691 -35.9584 -53.9638
  822 517.314 -53.6662 -12.1625
  823 -2.61617 -2.47984 -3.31684
  824 -2.60812 -2.47370 3.30421
  825 38.2650 0.836144 -1.15662
  826 38.3537 0.840897 1.13910
  827 461.274 -41.3208 7.36357
  828 389.999 -39.7811 38.8081
  829 429.739 -8.57340 0.263651
  830 389.091 -31.8893 -10.7466
  831 149.964 -2.71550 -0.981090
  832 149.998 -2.66040 0.968487
  833 -43.8523 0.950191 2.36161
  834 -43.7536 0.949068 -2.32559
  835 482.970 -7.50283 -1.26853
  836 437.041 17.5685 -57.9684
  837 488.743 -10.8459 -4.64453
  838 293.645 -22.7571 25.6972
  839 488.731 -8.36362 -55.6609
  840 519.251 -16.1137 -34.6461
  841 484.829 -6.62502 1.11069
  842 357.738 -12.9027 97.6243
  843 382.211 -37.5179 -23.4047
  844 233.126 -1.76313 -64.9419
  845 234.379 -0.145863 65.2788
  846 327.444 -25.0282 -17.7153
  847 541.045 59.3197 65.7956
  848 509.040 -51.8413 -43.2101
  849 190.848 -6.32712 -4.41607
  850 190.846 -6.24255 4.37916
  851 391.364 -10.1625 1.03351
  852 391.387 -10.2353 -0.950188
  853 468.832 -3.40171 -36.5359
  854 163.573 -7.03481 -14.4511
  855 163.672 -7.08597 14.3471
  856 2.01591 -46.9721 -8.89895
  857 1.91440 -47.1772 9.09719
  858 88.6174 -1.29001 -0.143848
  859 88.5550 -1.31351 0.128727
  860 479.676 -8.76004 -1.75074
  861 368.226 -35.1394 35.2828
  862 565.744 -47.0682 12.3034
  863 344.885 7.20317 29.0947
  864 490.551 -12.6574 5.40676
  865 536.846 -47.3427 -32.9620
  866 82.5907 4.80666 -26.2598
  867 82.8318 4.72523 26.2545
  868 427.613 -9.09821 -0.227894
  869 347.393 -13.1040 -4.43945
  870 346.235 -13.0027 4.74987
  871 536.504 83.3636 35.4551
  872 189.619 -2.10868 -46.0754
  873 189.465 -2.32370 45.8993
  874 371.649 -33.9214 19.1893
  875 38.3617 24.1140 -10.9289
  876 38.7213 24.0727 11.0357
  877 315.517 -22.3459 59.3407
  878 376.714 -24.7649 -6.91294
  879 471.360 -3.52771 36.9131
  880 460.101 -51.3969 21.8157
  881 526.599 -39.5706 -48.2494
  882 367.324 -35.4237 -35.7183
  883 307.420 -21.0928 -15.7399
  884 975.391 79.7514 -15.2472
  885 481.578 -50.8156 3.13085
  886 15.7390 16.6691 3.63510
  887 15.9949 16.7042 -3.49934
  888 419.981 -42.2417 12.3595
  889 459.337 -51.1217 -34.8488
  890 17.2506 14.2685 -1.58075
  891 17.4767 14.2751 1.68583
  892 178.319 -6.54685 35.3620
  893 178.405 -6.73105 -35.5467
  894 214.447 -11.0245 38.7105
  895 214.354 -11.2732 -38.9453
  896 663.536 132.921 15.6639
  897 -0.918777 -20.4957 -9.72911
  898 -0.925684 -20.4684 9.72092
  899 156.819 12.9355 -50.7416
  900 156.087 12.6792 50.2892
  901 1117.73 36.1930 -56.0038
  902 32.1675 -0.151763 1.94610
  903 32.0439 -0.155428 -1.97008
  904 2.18609 -51.7522 1.71064
  905 2.52400 -50.8179 -0.921319
  906 -21.9301 -0.221090 8.04112
  907 -21.9571 -0.214132 -8.03915
  908 125.547 36.6827 -59.5194
  909 127.470 35.4627 58.7323
  910 -9.01232 0.797921 -16.6323
  911 -9.05992 0.758210 16.6620
  912 39.9453 3.04776 -17.4131
  913 40.1728 3.00754 17.4415
  914 138.142 -1.82936 32.6967
  915 138.034 -1.82215 -32.8394
  916 114.325 -4.01531 -26.4661
  917 114.450 -4.00943 26.4341
  918 566.332 -2.37158 -8.28708
  919 280.054 61.8704 169.371
  920 385.932 -38.2305 22.1693
  921 277.151 -20.1901 20.9800
  922 529.604 55.1195 -65.2489
  923 1099.42 23.4068 22.4830
  924 621.076 30.6559 -58.9716
  925 110.557 -4.20968 16.6715
  926 110.436 -4.16362 -16.7244
  927 24.7114 -0.662266 -12.2695
  928 24.9327 -0.668077 12.2727
  929 0.0519091 -8.91477 -17.9065
  930 -0.0302459 -8.99682 17.9676
  931 286.370 -13.2370 9.76165
  932 286.507 -13.4761 -9.79981
  933 38.0857 9.24437 -15.8968
  934 38.3273 9.20422 15.9752
  935 177.305 -8.07612 -30.2078
  936 177.433 -8.07876 30.1952
  937 380.754 -1.30056 -34.1678
  938 183.252 -10.0906 -21.2996
  939 183.147 -9.99082 21.3664
  940 430.870 -13.1937 0.320706
  941 521.688 -29.4047 -61.3014
  942 233.420 -9.85442 10.1834
  943 233.516 -9.93728 -10.2992
  944 -9.55348 -0.990274 -5.77882
  945 -9.52638 -0.992633 5.76583
  946 528.446 -38.5633 -90.7091
  947 508.040 -29.9582 37.8166
  948 446.429 -31.7756 -5.56595
  949 442.166 15.5644 61.0224
  950 203.408 -11.6205 -23.9102
  951 203.427 -11.4119 23.9790
  952 490.703 19.4238 73.2580
  953 460.978 40.3915 48.2994
  954 914.621 109.341 19.5527
  955 473.410 -17.9051 6.41249
  956 255.156 -8.17137 -4.61034
  957 255.133 -8.02784 4.64359
  958 425.967 -35.3491 2.00228
  959 591.356 108.254 -29.1813
  960 515.674 -6.54174 -2.16083
  961 344.124 -9.43269 1.53937
  962 343.999 -9.36782 -1.44448
  963 45.5344 39.0724 -29.5382
  964 46.6460 39.0236 29.7425
  965 81.9769 226.849 -188.024
  966 489.833 -11.2960 55.3076
  967 603.963 -9.11781 -48.7759
  968 -7.81133 5.96987 1.84012
  969 -7.64846 5.96988 -1.75751
  970 1199.14 290.717 -229.891
  971 517.974 -55.5523 0.877203
  972 551.159 -49.3846 -27.4122
  973 510.632 -43.5575 33.3223
  974 634.494 124.203 11.3160
  975 47.5690 53.3693 -60.0296
  976 117.115 197.721 185.859
  977 -2.65937 -6.56244 18.1117
  978 -2.60852 -6.50225 -18.0814
  979 495.214 -13.5896 6.98683
  980 794.188 139.694 -18.7378
  981 48.9101 52.2831 62.2350
  982 -2.16377 -7.46821 -6.42628
  983 -2.16396 -7.44679 6.40890
  984 426.691 -11.0818 -0.653199
  985 321.865 -25.8245 -28.0962
  986 514.729 -40.4458 -40.4583
  987 149.951 40.4336 -77.6909
  988 152.318 41.0880 77.8873
  989 502.093 -12.3711 -49.0535
  990 502.400 -16.6767 14.2466
  991 -12.5833 3.74326 14.3764
  992 -12.5158 3.77896 -14.3273
  993 307.422 -20.1992 -55.9852
  994 508.916 33.1905 -73.1333
  995 377.179 -15.1007 2.97269
  996 274.865 -8.50823 0.945572
  997 274.810 -8.55706 -0.915129
  998 -5.54226 -6.30969 -13.2276
  999 -5.54987 -6.32330 13.2154
  1000 509.221 -18.8020 -17.9729
  1001 483.733 -6.52561 0.281099
  1002 483.291 -6.53338 -0.0918812
  1003 670.612 111.752 -38.4133
  1004 125.741 10.5123 -40.4614
  1005 126.054 10.3032 40.3857
  1006 83.2324 -0.937201 -22.0846
  1007 83.3915 -0.953289 22.0664
  1008 555.224 30.8556 77.6953
  1009 520.967 -10.6111 -9.61589
  1010 96.6217 14.7348 -33.3999
  1011 96.9989 14.6278 33.5198
  1012 541.045 -3.71490 -1.33441
  1013 509.509 -22.4479 -28.2104
  1014 497.604 -55.3374 -25.9036
  1015 20.4044 18.4040 2.32803
  1016 19.8704 18.3168 -2.08430
  1017 -22.8279 4.10519 8.14729
  1018 -22.7403 4.11706 -8.08753
  1019 315.199 11.5875 -12.7042
  1020 854.080 215.564 -65.0692
  1021 395.679 -29.4225 -5.46602
  1022 264.413 -11.5728 -57.4833
  1023 627.525 -22.4770 -0.946132
  1024 265.442 -11.5474 58.2568
  1025 453.284 -52.1287 39.9520
  1026 513.585 -21.3184 -43.7882
  1027 183.221 -4.55990 -1.41022
  1028 183.245 -4.48929 1.40259
  1029 353.458 -28.0520 -15.9707
  1030 219.500 -8.36687 -45.2977
  1031 219.437 -8.42993 45.0943
  1032 74.0086 48.7392 -49.4148
  1033 75.1520 48.6218 49.5630
  1034 155.702 -5.04756 -4.96607
  1035 155.726 -4.99058 4.91246
  1036 456.083 -15.4725 2.70080
  1037 386.282 3.12211 -139.463
  1038 472.398 -16.2781 -6.47217
  1039 428.645 -47.2384 -25.4812
  1040 285.709 -12.6550 6.86813
  1041 285.929 -12.7424 -6.88392
  1042 548.328 -4.10750 1.68801
  1043 493.279 -12.6782 -6.52529
  1044 331.010 8.16353 24.0204
  1045 530.559 -5.32005 -19.8655
  1046 208.645 62.3159 136.856
  1047 544.798 -5.22976 -16.1377
  1048 146.771 24.4816 -59.1751
  1049 142.539 24.7446 56.8920
  1050 648.223 -7.69735 -1.21721
  1051 62.0679 31.8078 -26.8609
  1052 62.6223 31.5880 26.8637
  1053 10.9056 1.55181 3.80080
  1054 11.4126 1.65022 -3.46719
  1055 93.2307 -2.41022 5.88653
  1056 93.1394 -2.42449 -5.94843
  1057 236.673 63.0077 -151.031
  1058 1234.76 331.370 247.492
  1059 507.716 -18.7813 18.4263
  1060 457.313 -51.0378 -20.0038
  1061 320.800 -26.4134 -43.9887
  1062 -5.21752 7.47021 11.9251
  1063 -5.09385 7.51099 -11.8416
  1064 360.973 -19.3597 5.29255
  1065 396.724 -15.7135 1.89247
  1066 -0.148855 -28.9814 9.32082
  1067 -0.139070 -29.0135 -9.31937
  1068 62.2134 38.2600 -31.5776
  1069 62.9299 38.1987 31.7567
  1070 356.322 -17.8907 -5.08909
  1071 31.1312 13.1444 10.8400
  1072 30.8929 13.1598 -10.7414
  1073 540.428 -20.5061 71.1890
  1074 392.825 -40.5222 -38.6135
  1075 322.674 -26.8342 43.9906
  1076 516.468 -9.58427 -75.7786
  1077 538.869 -6.64330 6.95867
  1078 200.346 31.0844 92.8942
  1079 201.771 29.7363 -91.3846
  1080 320.021 -15.1873 -78.4654
  1081 448.870 -17.0518 -2.57155
  1082 367.561 -22.7642 8.71057
  1083 428.818 -40.3153 -5.14103
  1084 580.740 -2.36361 -4.07483
  1085 320.439 -15.4425 7.85172
  1086 320.302 -16.2748 -8.01849
  1087 12.0040 13.7277 8.71524
  1088 12.2673 13.8258 -8.56289
  1089 521.485 20.0743 -78.5130
  1090 121.192 5.76794 -35.9018
  1091 121.515 5.63824 35.8188
  1092 92.6483 1.48876 -26.0947
  1093 92.8495 1.43988 26.0589
  1094 587.183 -19.5229 113.203
  1095 512.820 -23.7166 42.9929
  1096 255.152 -11.8337 -49.1655
  1097 588.824 -2.57280 -2.41623
  1098 668.906 127.407 -28.6290
  1099 537.520 -5.90462 -4.14304
  1100 507.427 -54.2209 12.0026
  1101 377.944 -28.1966 69.3737
  1102 591.739 -1.04335 0.305510
  1103 330.417 10.2113 -20.3457
  1104 431.753 -46.1603 -13.9891
  1105 255.575 -12.3593 48.6806
  1106 435.659 -39.9723 2.66372
  1107 539.226 -8.27632 13.8661
  1108 398.595 25.2175 31.4928
  1109 274.089 -20.3075 -39.7235
  1110 806.422 124.366 -57.6004
  1111 613.958 29.9633 62.4527
  1112 467.434 58.2868 7.65114
  1113 586.815 -0.215250 2.02211
  1114 239.164 -15.1603 -30.8686
  1115 162.590 103.340 -152.320
  1116 288.733 8.47483 -110.054
  1117 331.245 -25.8655 20.5846
  1118 281.085 -21.2059 37.4679
  1119 238.631 -14.4449 31.1529
  1120 496.897 5.02114 76.7795
  1121 374.669 -14.0873 -2.51714
  1122 579.697 -4.56515 5.66497
  1123 -4.02299 0.184585 17.9057
  1124 -3.95271 0.245834 -17.8594
  1125 391.723 -12.3130 1.50244
  1126 0.587209 5.24446 15.6527
  1127 0.715026 5.32540 -15.5630
  1128 225.478 -7.54013 5.48938
  1129 225.485 -7.64737 -5.49484
  1130 549.490 -3.11794 13.3880
  1131 443.818 -27.8798 -4.27520
  1132 416.383 -23.1163 0.612388
  1133 464.590 -33.0279 11.6870
  1134 144.867 73.4220 -114.684
  1135 454.954 -18.2151 3.97901
  1136 73.6620 1.08429 -21.5338
  1137 73.8532 1.05032 21.5247
  1138 97.8990 63.9529 -81.9865
  1139 722.277 99.7184 13.7757
  1140 59.4231 -2.53914 12.6741
  1141 59.2392 -2.51916 -12.6888
  1142 99.6472 63.0604 79.3414
  1143 418.237 -35.4506 -3.67938
  1144 217.242 -10.4709 12.3823
  1145 217.264 -10.5137 -12.5538
  1146 843.639 179.736 -52.0024
  1147 459.737 -46.0825 -1.22261
  1148 160.292 97.0286 152.062
  1149 14.4009 1.66778 -15.2030
  1150 15.4595 1.85266 16.4363
  1151 490.485 61.4593 38.3846
  1152 39.2801 20.2500 -11.2770
  1153 39.5813 20.2592 11.3668
  1154 462.668 -40.5203 -8.07520
  1155 -0.199559 -44.4759 -8.62069
  1156 -0.220404 -44.4775 8.66000
  1157 493.919 -41.7469 -22.3194
  1158 0.735016 0.568309 4.18588
  1159 0.470090 0.572132 -4.19343
  1160 79.2890 28.9171 -33.7671
  1161 79.7125 29.0450 33.4944
  1162 -19.0061 0.0415512 -5.12777
  1163 -18.7370 0.0397860 5.13382
  1164 490.808 -6.53159 -0.206662
  1165 -46.9998 1.45440 0.283598
  1166 -46.8628 1.45385 -0.250136
  1167 265.537 -21.0658 -29.9823
  1168 7.24603 -57.9335 -8.57350
  1169 138.882 -4.03408 9.29375
  1170 138.821 -4.04628 -9.38125
  1171 419.783 -9.28574 0.849818
  1172 420.564 -9.08097 -0.769990
  1173 7.78447 -54.8960 10.1109
  1174 496.726 -26.4411 -22.9469
  1175 564.074 -2.90015 9.65764
  1176 505.074 -32.5385 -34.5568
  1177 447.426 3.60080 60.5470
  1178 2.69605 -16.2962 12.3902
  1179 2.91413 -16.1586 -12.1647
  1180 326.808 -24.2726 16.8348
  1181 -21.4229 2.17213 11.5496
  1182 -21.3830 2.19010 -11.5135
  1183 832.989 131.582 9.54707
  1184 957.915 315.754 -221.572
  1185 516.080 -49.7276 28.0554
  1186 220.057 -6.84673 -0.912225
  1187 220.079 -6.77228 0.913090
  1188 1038.01 100.870 -93.7069
  1189 83.4276 -2.12577 13.1411
  1190 83.2753 -2.09500 -13.1825
  1191 486.079 -1.57666 -23.7840
  1192 313.768 -25.5802 33.7801
  1193 510.427 -49.6352 -19.1377
  1194 494.373 -36.1492 -26.0512
  1195 305.169 -10.4005 82.1109
  1196 116.164 21.1511 -45.4220
  1197 116.113 20.9657 45.1871
  1198 151.014 56.4283 -97.9230
  1199 151.240 52.2960 97.9375
  1200 46.1594 12.4452 -16.9135
  1201 46.4192 12.4104 17.0077
  1202 611.862 106.660 -42.4069
  1203 33.5409 31.0531 -16.1958
  1204 34.2858 31.1087 16.4226
  1205 440.847 -34.3145 2.85600
  1206 809.773 128.982 63.9094
  1207 113.087 -4.60601 -9.16593
  1208 113.180 -4.60496 9.08892
  1209 520.332 390.549 -321.034
  1210 420.765 25.2001 -48.4773
  1211 388.977 29.5877 19.8763
  1212 56.0320 22.6356 -19.9467
  1213 56.2904 22.6396 20.0480
  1214 20.7963 -0.125040 3.04838
  1215 20.6084 -0.124867 -3.07156
  1216 487.380 -39.3333 20.7650
  1217 478.586 -20.0477 10.5019
  1218 328.758 98.8130 -233.653
  1219 753.083 165.118 -13.2893
  1220 327.701 -9.42896 -90.0764
  1221 421.713 -14.1427 -0.930424
  1222 32.8516 -2.04519 -0.663754
  1223 32.9207 -2.04346 0.660095
  1224 -6.78039 3.32557 -7.57362
  1225 -6.56884 3.31239 7.62574
  1226 285.811 3.58830 -94.5598
  1227 517.818 -12.2117 12.6797
  1228 340.423 7.54470 127.728
  1229 458.324 -23.5208 -7.08518
  1230 239.042 88.0467 -185.356
  1231 369.615 -17.1179 -96.9905
  1232 438.916 -46.8479 11.5562
  1233 534.298 -8.90459 21.5396
  1234 468.904 -11.0154 -2.12910
  1235 264.475 -19.8142 30.1374
  1236 587.535 -31.2372 -36.8524
  1237 561.738 49.8989 73.4212
  1238 247.837 1.26030 -75.4375
  1239 551.203 -4.25535 1.37722
  1240 456.329 56.4376 -10.9448
  1241 201.299 -7.34022 -9.08851
  1242 201.274 -7.27056 9.00244
  1243 843.440 203.707 58.0436
  1244 1137.65 30.2085 52.4226
  1245 1.10288 -54.1154 -8.51751
  1246 1.06891 -54.1707 8.58469
  1247 129.324 69.8553 107.665
  1248 305.909 -9.84941 -2.33041
  1249 305.975 -9.79741 2.44006
  1250 414.707 -41.8937 -14.6824
  1251 497.960 41.3764 66.3572
  1252 513.287 -11.0769 -7.72784
  1253 590.713 -1.89929 -0.602189
  1254 1021.11 229.029 -145.928
  1255 168.937 -6.50179 9.58669
  1256 168.908 -6.51392 -9.69278
  1257 494.442 -45.8547 21.0283
  1258 857.289 218.896 -74.8727
  1259 479.019 -21.7553 -11.9789
  1260 353.363 -25.1845 -12.4988
  1261 431.384 -46.7111 24.9469
  1262 421.750 -22.0199 0.363495
  1263 16.6140 9.45013 -22.8434
  1264 573.682 -33.4440 45.2952
  1265 466.246 -31.1158 -11.4684
  1266 18.2380 10.2567 24.9545
  1267 478.554 -36.4854 -91.5386
  1268 451.502 31.7730 -191.292
  1269 739.316 99.6688 -6.31384
  1270 592.825 -0.786010 -0.155087
  1271 591.858 -1.32705 0.493069
  1272 473.992 -28.3344 12.9011
  1273 186.766 22.2529 -74.4949
  1274 539.237 -47.1211 36.0951
  1275 908.385 209.541 99.8625
  1276 229.831 81.6671 180.785
  1277 7.18968 2.29528 12.3190
  1278 7.43078 2.41683 -12.1530
  1279 564.337 -43.3966 -51.8884
  1280 234.069 -13.1284 -14.7430
  1281 234.040 -13.1634 14.5146
  1282 528.552 -34.2883 58.2973
  1283 25.2799 0.0600929 13.6868
  1284 25.0604 0.0704230 -13.6784
  1285 -2.71029 -10.7854 15.1444
  1286 -2.69084 -10.7623 -15.1485
  1287 101.878 -3.46242 -11.9780
  1288 101.998 -3.48218 11.9124
  1289 281.950 -18.9504 -44.8337
  1290 284.722 -10.1609 3.24855
  1291 284.708 -10.3590 -3.14490
  1292 591.180 -0.766121 0.266364
  1293 531.478 -8.55179 -24.3367
  1294 48.7420 1.82102 -17.4312
  1295 48.9543 1.79106 17.4426
  1296 283.066 -20.0216 44.5262
  1297 596.267 -0.858400 0.296820
  1298 564.967 -1.21861 -0.651808
  1299 564.912 -1.56213 0.515523
  1300 751.289 162.248 -0.0235623
  1301 552.067 -4.54396 -3.30663
  1302 492.234 -6.23445 0.0354435
  1303 545.017 -8.89021 -12.2510
  1304 588.665 -2.22736 1.56009
  1305 621.423 66.0663 61.8571
  1306 718.334 151.468 10.6334
  1307 574.657 -2.56702 -6.30516
  1308 -4.86553 -1.20012 4.34362
  1309 -4.88535 -1.19935 -4.35732
  1310 325.640 -21.1783 12.0353
  1311 325.583 -20.2854 -11.7367
  1312 627.015 73.0827 -58.4155
  1313 134.408 46.6137 -81.5309
  1314 135.269 45.3752 80.7014
  1315 430.867 0.138318 -30.2969
  1316 435.470 -8.29290 -0.817495
  1317 434.940 -8.23723 0.725669
  1318 -10.1857 -1.51297 15.3636
  1319 -10.1673 -1.48418 -15.3588
  1320 487.464 -1.28483 23.7338
  1321 734.574 145.923 -5.52578
  1322 60.9989 -2.04004 -7.53875
  1323 61.1487 -2.04471 7.48712
  1324 542.301 -51.1274 17.3365
  1325 2.25401 9.69815 11.9128
  1326 2.41452 9.75620 -11.8086
  1327 109.324 -2.47900 -2.61433
  1328 109.380 -2.44403 2.57959
  1329 430.951 -0.496481 30.7689
  1330 27.8416 0.870408 -1.18689
  1331 27.9465 0.873751 1.16929
  1332 548.854 -7.04805 7.63525
  1333 768.212 138.908 8.98112
</Section>

newXOutput 71

<Section columns = "stress_xx | stress_yy | stress_xy">
  1 613.118 -1.86675 1.12083
  2 614.016 -2.30802 -1.45454
  3 22.7517 0.558766 -1.54944
  4 -0.476819 -0.702881 -0.484411
  5 1102.94 465.910 367.916
  6 1119.91 531.354 -371.392
  7 -0.471819 -0.698473 0.477950
  8 22.6811 0.555589 1.54590
  9 617.118 -1.33895 -1.01438
  10 612.886 -2.31310 -1.50215
  11 613.535 -1.84795 1.22001
  12 610.926 -1.13624 0.406011
  13 610.046 -2.17964 -0.563158
  14 609.604 -2.11781 2.14013
  15 601.678 -1.58061 1.93252
  16 604.450 -4.43200 3.16182
  17 587.029 -3.73981 7.03568
  18 576.263 -1.79770 8.49802
  19 561.187 -2.10895 9.23537
  20 534.597 -1.87857 13.1155
  21 505.330 -1.54448 15.3426
  22 468.450 1.99749 21.2249
  23 417.593 3.11449 19.3069
  24 396.976 -0.0100553 27.7526
  25 332.963 4.71570 19.8043
  26 293.700 6.11108 15.5867
  27 283.462 3.21207 11.5192
  28 272.490 8.98273 0.879438
  29 278.523 9.60040 -15.4267
  30 290.510 2.86043 -19.3400
  31 338.744 1.40980 -25.7316
  32 387.046 -2.31296 -26.5388
  33 419.404 2.58918 -19.2609
  34 468.975 2.26298 -21.2169
  35 504.093 -1.81922 -16.4618
  36 537.469 -2.06056 -12.3503
  37 559.120 -1.58491 -9.38916
  38 574.593 -1.92271 -7.74719
  39 591.307 -2.19959 -4.41963
  40 597.487 -2.34787 -4.17891
  41 603.591 -2.20402 -3.71995
  42 609.722 -2.48242 -0.563593
  43 611.953 -3.10021 -1.45646
  44 608.217 -0.0917981 0.0841989
  45 612.814 -1.71887 -1.40048
  46 615.074 -3.30819 1.63795
  47 617.821 -1.94440 -0.0552612
  48 588.200 -0.106579 -0.926529
  49 554.875 -3.10772 -1.71442
  50 516.922 -6.41442 -2.37402
  51 477.449 -5.70880 -1.70779
  52 442.846 -8.56919 -1.56297
  53 406.188 -9.20833 -1.40242
  54 369.097 -8.15092 -0.611217
  55 329.966 -8.58225 -0.885371
  56 296.806 -8.90644 -1.20101
  57 252.590 -8.40298 -0.940839
  58 207.032 -5.39025 -0.602398
  59 169.322 -3.48795 -0.459129
  60 122.742 -2.19298 -0.110568
  61 88.9406 -2.00812 -2.26782
  62 57.5938 -2.62499 -0.704593
  63 25.9536 0.293477 1.49952
  64 17.5629 2.19369 0.661713
  65 15.0058 0.884575 1.63199
  66 15.7626 0.397605 1.66780
  67 8.67435 1.25752 0.902982
  68 5.66425 1.65926 3.40699
  69 3.82744 0.592034 1.46209
  70 -8.07839 1.25153 1.57533
  71 -13.9908 0.844392 3.33308
  72 -16.9923 0.260154 3.53615
  73 -30.3589 1.15703 2.90934
  74 -35.7805 1.75129 5.15261
  75 -42.1022 1.06342 2.21191
  76 -48.9354 0.782004 2.99387
  77 -52.3793 0.825906 1.47584
  78 -59.2678 2.06219 -0.933119
  79 -60.7356 1.41181 -0.664847
  80 -55.9709 1.04687 -1.64391
  81 -48.4954 1.41106 -3.49161
  82 -39.8070 0.657676 -5.58175
  83 -29.9430 0.374723 -5.91862
  84 -18.0742 -0.562431 -6.25889
  85 -7.98311 -0.461353 -3.70957
  86 -3.38749 -1.29633 -2.33865
  87 -0.541486 -3.37885 -2.04524
  88 -0.888610 -8.63415 -3.57480
  89 -1.02252 -16.6218 -6.19472
  90 -0.160799 -30.9711 -6.60818
  91 0.412411 -42.5005 -8.21386
  92 0.912425 -60.9000 -6.66063
  93 2.72734 -71.8208 -7.76976
  94 0.549037 -76.3275 -6.15456
  95 -0.0370383 -86.4066 -3.20570
  96 2.47828 -81.5055 0.280899
  97 10.1716 -104.682 6.28991
  98 9.55597 -48.9234 18.4285
  99 22.2022 -9.09462 38.7142
  100 65.0026 130.709 113.464
  101 266.513 378.603 307.465
  102 1444.35 157.977 212.839
  103 1218.00 43.3139 76.5062
  104 1161.60 18.4779 26.2539
  105 1130.70 12.0041 -0.149112
  106 1150.57 17.6013 -21.6485
  107 1228.75 36.9595 -63.1777
  108 1429.35 124.712 -197.566
  109 173.536 428.355 -254.383
  110 45.7832 102.338 -88.5850
  111 16.4202 -19.8370 -32.6285
  112 8.67082 -55.2106 -16.1334
  113 10.1069 -109.168 -5.18335
  114 2.36290 -83.4817 0.494398
  115 -0.184095 -87.3895 3.60837
  116 0.455815 -76.7017 6.36967
  117 2.67611 -71.9012 7.86006
  118 0.892799 -60.8573 6.69350
  119 0.397644 -42.4344 8.22496
  120 -0.168008 -30.8904 6.60334
  121 -1.02332 -16.5707 6.18077
  122 -0.890519 -8.59075 3.56197
  123 -0.541051 -3.36257 2.03400
  124 -3.36799 -1.29439 2.32919
  125 -7.94832 -0.463485 3.69926
  126 -18.0289 -0.567528 6.25242
  127 -29.8901 0.369011 5.91958
  128 -39.7761 0.651412 5.59230
  129 -48.5049 1.40653 3.51282
  130 -56.0221 1.04645 1.66693
  131 -60.8413 1.41040 0.687436
  132 -59.4190 2.06175 0.956737
  133 -52.5828 0.827975 -1.45501
  134 -49.1784 0.784556 -2.97817
  135 -42.3653 1.06638 -2.19925
  136 -36.0670 1.75484 -5.14690
  137 -30.6546 1.16040 -2.90452
  138 -17.2859 0.262205 -3.53615
  139 -14.2869 0.847972 -3.33698
  140 -8.36251 1.25653 -1.58138
  141 3.57447 0.595328 -1.47405
  142 5.44224 1.66275 -3.42532
  143 8.48035 1.25854 -0.919137
  144 15.6122 0.396970 -1.68366
  145 14.8872 0.883037 -1.64479
  146 17.4658 2.19106 -0.672768
  147 25.8756 0.291629 -1.50606
  148 57.5232 -2.63472 0.698046
  149 88.8765 -2.03215 2.26075
  150 122.692 -2.23542 0.101037
  151 169.291 -3.54925 0.454279
  152 207.006 -5.46115 0.601806
  153 252.554 -8.46399 0.950759
  154 296.731 -8.93587 1.22138
  155 329.849 -8.54166 0.933136
  156 368.936 -8.00763 0.665576
  157 405.969 -8.87321 1.32153
  158 443.043 -8.66823 1.36489
  159 477.600 -6.30750 1.80619
  160 517.318 -6.30563 2.14916
  161 555.939 -2.79143 1.73854
  162 587.318 -0.143394 0.903442
  163 349.631 -31.7003 -32.3058
  164 348.276 -32.2812 32.2270
  165 108.053 29.4048 -45.4639
  166 109.105 29.5063 45.2843
  167 409.943 -18.3023 109.949
  168 429.247 -20.7874 -107.077
  169 207.024 -11.1143 15.1960
  170 206.990 -11.0082 -15.3822
  171 437.342 -16.4238 0.324029
  172 428.892 -16.4696 -0.154633
  173 586.943 105.150 -13.4396
  174 590.532 5.91255 -68.5368
  175 579.406 10.2389 74.4381
  176 145.252 -5.65129 -30.8349
  177 145.275 -5.61352 30.7844
  178 510.518 -50.2985 21.9028
  179 510.162 -39.2804 -33.0766
  180 8.41084 12.8763 10.6728
  181 8.62401 12.9575 -10.5453
  182 697.398 142.699 16.5854
  183 138.044 62.5402 -99.3925
  184 147.844 63.0884 106.268
  185 493.327 -23.8053 14.6098
  186 738.564 156.884 -3.35396
  187 324.033 -12.6906 -5.15770
  188 323.533 -12.9918 5.12758
  189 506.456 -16.8406 -13.5216
  190 670.585 -0.0943041 -16.4702
  191 133.828 -4.04975 5.95481
  192 133.773 -4.08167 -6.02526
  193 58.4537 6.79880 -21.3716
  194 58.7089 6.72927 21.4221
  195 289.152 -10.9268 -70.1908
  196 288.030 -11.5054 71.0702
  197 344.319 -23.0051 -12.7396
  198 344.996 -22.8770 13.4035
  199 96.3451 -3.35243 16.6507
  200 96.2016 -3.30913 -16.6803
  201 662.948 -7.20489 50.3033
  202 545.743 -52.6798 -5.66930
  203 516.211 -6.36414 -1.66023
  204 505.204 -7.57815 1.62910
  205 521.499 61.4818 53.4111
  206 23.5589 21.6328 -10.1725
  207 24.3703 21.6041 10.5345
  208 516.241 -20.4415 62.0276
  209 480.273 37.0508 -61.7947
  210 337.542 80.7112 -221.285
  211 354.958 68.2817 205.787
  212 11.8217 11.6665 -3.28035
  213 12.0276 11.6659 3.38046
  214 514.851 -17.9370 -64.2231
  215 883.507 122.961 -8.89556
  216 427.700 -46.2231 42.0309
  217 430.794 -45.9871 -39.9628
  218 427.431 -31.1953 0.843188
  219 525.134 -9.30529 6.94185
  220 261.048 -18.1924 -27.5010
  221 257.118 -18.1256 28.2560
  222 158.904 2.98117 -45.7883
  223 159.138 2.92413 45.4358
  224 540.607 -55.8980 -11.4677
  225 423.987 -33.1022 -2.69740
  226 523.185 -9.14327 -5.19541
  227 411.116 -11.8583 -0.930849
  228 414.547 -11.1582 1.68189
  229 519.247 -23.4967 34.6391
  230 51.0829 0.290570 -17.8018
  231 51.2864 0.269643 17.8045
  232 -6.17813 -4.01734 -17.2879
  233 -6.21158 -4.05973 17.3010
  234 88.6597 -3.65169 -9.76233
  235 88.7857 -3.66048 9.69581
  236 226.509 -7.25912 6.83073
  237 226.550 -7.37330 -6.87549
  238 256.639 18.2310 -101.167
  239 256.672 15.2836 100.058
  240 526.148 -16.8598 -29.6531
  241 252.554 -14.9072 -43.4993
  242 252.779 -15.3533 42.9469
  243 470.744 7.73174 70.1827
  244 417.008 35.6633 4.26973
  245 453.261 -45.3340 2.47977
  246 2.51536 -9.64169 -14.8993
  247 2.36273 -9.76441 15.0312
  248 30.8128 34.8325 -36.6867
  249 32.7117 33.7955 38.3546
  250 445.870 -44.3749 -5.39806
  251 793.821 155.657 -20.6788
  252 44.5876 29.5851 -17.0262
  253 45.0996 29.5795 17.1993
  254 -15.8161 3.96334 11.1430
  255 -15.7282 3.98402 -11.0817
  256 796.960 146.790 25.4811
  257 287.199 -14.4700 -11.6574
  258 286.994 -14.2566 11.4710
  259 551.870 -36.3417 55.7074
  260 982.165 160.294 101.241
  261 171.937 -9.19253 -25.5402
  262 171.919 -9.25711 25.5232
  263 567.279 85.2163 -50.2305
  264 949.729 181.378 -93.5797
  265 669.874 70.4568 44.2759
  266 719.491 54.7611 -142.436
  267 452.726 -22.3949 4.05914
  268 517.972 3.33549 -77.8603
  269 487.378 -34.8927 -17.6029
  270 540.900 -10.2798 18.5538
  271 3.98640 5.23818 -7.44359
  272 4.19404 5.22250 7.51616
  273 534.766 -14.1959 -136.483
  274 62.0736 18.0906 -21.9055
  275 62.3605 18.0617 22.0164
  276 521.874 -12.7139 -38.9708
  277 77.4537 85.1235 -103.537
  278 73.2030 -0.374104 -2.29380
  279 73.2819 -0.360715 2.26458
  280 550.154 -33.1825 -58.3760
  281 100.601 45.1953 -56.7688
  282 102.025 44.9704 56.9295
  283 35.6273 -0.945414 12.3459
  284 35.4113 -0.934586 -12.3507
  285 452.007 -21.3652 -3.99764
  286 78.0044 84.2627 106.155
  287 707.325 64.8315 165.621
  288 204.000 -8.40258 -9.44694
  289 203.976 -8.35464 9.33577
  290 364.035 -16.1452 -5.28226
  291 363.865 -17.3637 5.72317
  292 310.706 31.5134 -151.399
  293 496.706 -53.9997 -3.17652
  294 559.808 -4.25990 2.96294
  295 299.491 31.6267 146.715
  296 349.062 -10.6615 -1.86241
  297 348.934 -10.6567 2.14943
  298 488.207 -36.2320 17.9126
  299 556.476 -6.61074 -8.32604
  300 1.41558 2.04215 -10.0186
  301 1.64674 2.02681 10.0547
  302 705.354 139.330 -3.87273
  303 614.090 -26.3189 26.0561
  304 551.223 -3.85622 -0.640805
  305 560.389 -3.38028 0.581554
  306 553.536 -46.5365 52.7060
  307 682.260 75.1996 -40.2165
  308 603.411 111.928 27.9648
  309 274.629 -17.3178 -17.9696
  310 272.241 -17.6201 18.2746
  311 559.000 -4.19785 -1.77581
  312 373.348 -27.6273 -76.6519
  313 368.059 -29.5907 15.9599
  314 350.761 -18.5110 86.7973
  315 552.227 -7.35960 10.0871
  316 134.127 -6.13990 -16.0869
  317 134.226 -6.18350 16.0275
  318 510.411 -13.8945 134.842
  319 329.447 -26.4966 -22.3679
  320 600.440 78.3395 62.2650
  321 195.455 13.6272 -66.8717
  322 188.386 14.2629 66.3767
  323 65.8831 -1.24020 -4.15378
  324 65.9950 -1.23250 4.10741
  325 489.342 -11.1830 3.38515
  326 469.626 -8.14194 0.0722169
  327 467.090 -8.78229 -0.222195
  328 518.405 -13.3746 41.3760
  329 53.5003 -1.76536 9.35401
  330 53.3124 -1.74963 -9.38929
  331 159.363 -3.97760 -3.45569
  332 159.391 -3.91943 3.42491
  333 5.42986 -20.9452 -7.26507
  334 5.10016 -21.1365 7.65765
  335 412.272 18.1067 47.9289
  336 619.829 -24.0468 -19.7375
  337 405.208 -22.5572 -1.48140
  338 455.392 -10.6044 -1.09195
  339 485.030 60.0896 -28.8938
  340 100.332 -3.28550 -23.0107
  341 100.468 -3.28876 22.9981
  342 394.391 -21.3490 3.46151
  343 116.756 3.53712 -32.8781
  344 116.981 3.44116 32.7933
  345 24.2827 18.9685 -2.70515
  346 24.5541 18.9691 2.82290
  347 476.761 -50.1487 53.0810
  348 1035.07 68.0449 26.6668
  349 432.765 7.03107 -56.6350
  350 357.761 -31.9811 48.5089
  351 355.951 -31.3081 -49.8680
  352 525.604 -8.09470 76.8195
  353 470.951 -3.08290 55.5952
  354 470.763 -48.4774 -54.6449
  355 285.787 -8.21888 1.12281
  356 285.740 -8.30008 -1.05434
  357 520.773 -33.8721 45.5027
  358 713.223 141.041 1.00041
  359 555.500 -6.91942 -13.7013
  360 151.696 -5.89657 -11.8541
  361 151.771 -5.90257 11.7535
  362 524.625 -47.9115 -65.1696
  363 555.703 39.9022 -76.0859
  364 382.249 20.5512 -30.8638
  365 524.659 -34.6842 -52.5061
  366 -16.6715 0.784983 -13.2944
  367 -16.6890 0.763305 13.3112
  368 440.536 -11.8808 -0.0599260
  369 -6.25146 -3.69487 -8.19384
  370 -6.24303 -3.69571 8.17582
  371 338.268 179.983 -267.655
  372 15.1193 13.8228 6.20596
  373 15.4632 13.9268 -6.02089
  374 467.623 -3.25104 -55.1516
  375 260.678 -11.7532 8.82554
  376 260.847 -11.8966 -8.90392
  377 -1.53276 -18.0591 15.1810
  378 -1.50443 -18.0266 -15.1665
  379 276.514 188.242 252.535
  380 214.401 -11.6342 -34.4050
  381 214.581 -11.1619 34.4311
  382 69.4992 52.1753 -53.0272
  383 70.9124 52.0606 52.7516
  384 -23.9970 4.13840 3.77949
  385 -23.8757 4.14561 -3.71260
  386 537.175 36.7150 76.6807
  387 411.189 -43.0554 25.2185
  388 411.636 -37.9170 12.1689
  389 496.056 -55.7210 -11.7893
  390 129.261 15.6751 -45.0288
  391 129.692 15.6532 44.9728
  392 11.8477 -12.0492 3.82770
  393 11.2420 -12.3152 -2.96382
  394 509.868 72.5057 18.8158
  395 504.418 -15.5205 10.8170
  396 294.218 -23.1166 32.1717
  397 184.858 -4.93206 -40.7486
  398 184.943 -4.96700 40.4779
  399 371.923 -12.5392 -2.76790
  400 371.543 -11.1877 2.45351
  401 291.803 -23.7079 -33.9467
  402 229.547 -4.06804 -54.3117
  403 229.529 -4.37751 54.7276
  404 527.060 -47.8058 -29.7049
  405 310.890 -24.4045 21.1333
  406 478.995 -15.8347 5.60558
  407 477.993 -14.5832 -4.43882
  408 404.266 -37.6597 -13.5773
  409 570.587 -3.31394 -3.18021
  410 197.319 82.2394 -154.474
  411 541.596 -8.29778 23.3612
  412 569.425 -3.74377 5.04132
  413 211.697 -11.6251 21.2943
  414 211.769 -11.4731 -21.2794
  415 409.373 -42.5477 -25.9142
  416 61.9326 26.6984 23.6668
  417 61.6082 26.6754 -23.6787
  418 1045.18 67.9932 -54.2760
  419 470.497 -27.7447 -8.92055
  420 573.549 -2.83781 1.82887
  421 186.687 77.0980 147.490
  422 851.122 142.757 29.7500
  423 501.873 -8.95877 -2.61544
  424 380.174 -28.3040 -10.8875
  425 161.909 31.2112 -75.2872
  426 172.309 28.8893 74.8345
  427 465.164 -30.2717 8.84648
  428 496.340 -6.31686 -40.5748
  429 3.30441 -0.516210 9.31699
  430 3.05811 -0.511109 -9.30858
  431 182.097 44.3206 -99.7943
  432 182.679 44.4739 99.4986
  433 25.1824 9.99841 -11.0418
  434 25.4124 9.97831 11.1323
  435 417.884 -9.60901 0.210494
  436 417.383 -9.40013 -0.0759797
  437 518.628 -23.9894 -36.2811
  438 -0.681181 -0.561759 17.9986
  439 -0.587720 -0.476793 -17.9293
  440 533.647 -51.8558 25.0879
  441 503.647 -14.6192 -9.38940
  442 812.219 155.176 -28.1341
  443 43.0735 -1.54339 4.51457
  444 42.9051 -1.54363 -4.55460
  445 968.045 280.373 130.686
  446 20.8944 17.1026 -33.2013
  447 66.9592 2.77853 -22.6389
  448 67.1748 2.73138 22.6426
  449 966.826 287.279 -127.557
  450 22.1408 19.2931 36.1760
  451 -22.2471 3.09685 0.0779540
  452 -22.0892 3.09246 -0.0139374
  453 57.7015 39.5864 -32.3873
  454 58.6605 39.6163 32.5518
  455 639.402 101.840 -49.3846
  456 512.010 -20.7434 -22.5669
  457 570.696 -2.90561 -1.54704
  458 535.432 -8.48744 -27.6135
  459 -5.17474 4.52129 16.3487
  460 -5.07938 4.57659 -16.2827
  461 517.447 -21.4802 26.7195
  462 340.700 -20.0570 -10.2577
  463 339.697 -20.2450 9.16279
  464 458.017 -50.3266 -12.4046
  465 329.194 -3.68861 -105.565
  466 500.830 -7.56953 41.3768
  467 408.634 -14.5923 1.77700
  468 594.638 -41.9332 -13.8368
  469 319.088 3.90310 112.952
  470 33.0004 -0.546056 8.99256
  471 32.7790 -0.536511 -9.00775
  472 658.139 129.936 -20.8386
  473 520.602 -5.17570 -0.0722595
  474 518.887 -5.69614 -0.382049
  475 398.619 -27.4595 6.26318
  476 181.407 -6.38362 -6.77767
  477 181.410 -6.31609 6.70885
  478 108.645 -1.54891 -27.2239
  479 108.779 -1.56992 27.1817
  480 347.175 13.4262 18.5305
  481 92.7902 -3.02941 13.3343
  482 92.6516 -3.00183 -13.3904
  483 95.0568 8.53411 30.7741
  484 94.7460 8.66030 -30.7430
  485 509.254 -39.5106 31.6699
  486 289.512 -18.0848 -51.3076
  487 269.113 -9.50139 4.86272
  488 269.199 -9.70698 -4.86719
  489 292.502 -18.6389 51.3096
  490 790.810 190.496 -24.4367
  491 -12.6234 -1.82412 -10.4926
  492 -12.6151 -1.83420 10.4856
  493 207.725 -6.28443 -2.86945
  494 207.736 -6.20101 2.86010
  495 0.393781 -32.9801 -12.2149
  496 0.310407 -33.0894 12.3282
  497 463.912 -8.44807 0.360946
  498 345.327 16.1659 -9.20192
  499 454.747 47.4730 26.1406
  500 287.192 -2.40321 -84.9786
  501 146.434 -7.53583 20.1100
  502 146.402 -7.47358 -20.1366
  503 -31.0737 1.08285 -3.63219
  504 -30.8548 1.07606 3.66253
  505 550.871 -9.03935 -75.3034
  506 55.4864 0.204520 -2.98070
  507 55.5865 0.211401 2.94727
  508 458.570 -36.6942 -6.01520
  509 488.007 -41.8244 -16.4173
  510 103.214 81.2893 -106.726
  511 410.350 13.9114 -163.529
  512 7.51366 13.0030 6.16163
  513 7.71417 13.0325 -6.04890
  514 256.898 -12.4597 -12.2849
  515 256.784 -12.3571 12.0672
  516 697.929 34.6056 -7.09712
  517 506.982 -30.3804 -28.9297
  518 100.702 77.2082 105.308
  519 502.142 -56.0032 19.6736
  520 483.653 -46.0436 11.4634
  521 112.409 -2.72895 -8.80232
  522 112.493 -2.71945 8.72762
  523 407.569 4.73504 43.9374
  524 292.200 -21.9733 -22.1087
  525 532.464 -12.6953 16.3113
  526 -2.09708 -12.9718 -10.2345
  527 -2.10224 -12.9601 10.2184
  528 377.707 -33.0270 57.3383
  529 568.875 -41.9954 -35.5287
  530 735.036 58.6643 -35.6499
  531 403.955 -15.0464 -1.73405
  532 129.412 -2.49725 -2.51871
  533 129.457 -2.45471 2.49818
  534 259.004 2.39461 82.0461
  535 707.594 122.462 28.5950
  536 707.441 156.226 -255.648
  537 644.143 7.08209 31.9419
  538 466.840 -51.6335 9.98924
  539 1076.31 85.7667 73.0144
  540 807.853 200.770 33.1967
  541 122.740 -5.18462 21.8852
  542 122.638 -5.13485 -21.9134
  543 449.251 -37.7403 3.16694
  544 37.1424 16.5108 -10.7716
  545 37.4027 16.5045 10.8775
  546 562.027 -45.3927 35.6807
  547 468.409 25.8463 64.3940
  548 563.302 -4.08760 9.20334
  549 421.107 -26.2009 -0.322951
  550 581.875 10.9908 -172.358
  551 912.625 251.352 173.856
  552 454.094 -10.3906 -0.114465
  553 554.637 -6.11906 -15.2429
  554 91.8875 37.8553 -43.2474
  555 92.5417 37.4071 43.0785
  556 323.288 -13.9707 -6.88865
  557 323.150 -13.6704 6.99676
  558 4.18216 -34.8895 -6.87953
  559 568.473 -18.7831 65.9517
  560 24.1488 21.1293 -0.655729
  561 24.5005 21.1905 0.823931
  562 4.83876 -33.4930 8.10244
  563 518.870 -23.4615 -54.2887
  564 596.237 39.5159 -71.3420
  565 594.448 44.6088 71.4461
  566 30.3796 28.4737 25.3631
  567 28.9270 29.0442 -24.8887
  568 -10.1923 0.492074 7.15628
  569 -10.4427 0.497567 -7.14153
  570 543.109 19.3028 177.360
  571 304.691 -17.5711 12.7757
  572 304.982 -17.5110 -12.9593
  573 652.972 -5.99302 -94.6357
  574 95.8036 -1.34580 5.09376
  575 95.7270 -1.36477 -5.14402
  576 51.4099 -1.04963 -1.17529
  577 51.4871 -1.04277 1.16354
  578 721.256 135.265 -21.0741
  579 70.9544 116.099 -116.829
  580 391.215 8.18064 -37.3014
  581 542.769 86.3609 -31.7628
  582 8.92029 1.84483 9.63024
  583 9.24853 1.96773 -9.41051
  584 531.085 264.566 298.344
  585 461.116 -14.1519 -2.26714
  586 21.2342 4.66865 -12.5467
  587 21.4618 4.63516 12.6043
  588 533.044 -42.2915 44.7513
  589 83.6537 112.779 118.955
  590 386.604 -9.53664 0.866586
  591 386.713 -9.46863 -0.868005
  592 -0.242940 -26.5328 12.9851
  593 -0.201427 -26.4905 -12.9422
  594 658.193 127.231 -1.05422
  595 417.691 -32.6255 79.8203
  596 399.419 -18.2548 -2.80879
  597 400.218 21.2030 172.348
  598 -32.3008 1.79854 7.61764
  599 -32.2692 1.80831 -7.58440
  600 651.795 12.0923 -34.6481
  601 856.299 157.790 -126.857
  602 252.954 26.6102 -116.685
  603 141.545 -6.06181 -26.5301
  604 141.686 -6.06479 26.5394
  605 585.936 -2.35077 2.32726
  606 395.653 -18.6159 2.35213
  607 523.682 -8.27684 4.91056
  608 518.855 -23.5236 52.9519
  609 31.9564 -0.885513 4.56408
  610 31.7558 -0.881869 -4.59347
  611 311.330 -11.8125 -4.08503
  612 311.294 -11.5243 3.99064
  613 196.377 4.10590 -55.9473
  614 195.159 4.16435 55.7298
  615 738.809 51.4289 52.9629
  616 1188.21 89.6007 -129.280
  617 -1.88146 -0.780141 6.18893
  618 -2.14387 -0.777703 -6.18571
  619 188.188 -8.12494 12.3819
  620 188.162 -8.11402 -12.5216
  621 691.708 42.5852 16.5486
  622 578.450 -2.73419 -0.736743
  623 577.245 -3.61664 0.225271
  624 432.741 0.136027 43.4326
  625 608.412 -32.4442 -60.0438
  626 336.485 -27.9650 26.2836
  627 -5.51391 7.83858 -5.96916
  628 -5.66403 7.82504 6.05725
  629 536.135 11.9771 79.9433
  630 217.249 -12.7287 -27.9172
  631 217.063 -12.9327 27.9683
  632 435.592 -26.1149 -1.28321
  633 534.640 -12.4380 -14.7041
  634 310.636 -24.9332 -38.0495
  635 508.976 61.4901 -48.6373
  636 342.186 -23.3650 -65.6486
  637 133.526 -3.59025 -4.67511
  638 133.571 -3.55132 4.62333
  639 313.750 -25.3506 38.2485
  640 665.079 109.463 42.9751
  641 530.755 -25.1721 66.7964
  642 434.458 -20.4712 1.56469
  643 314.563 -9.40753 2.34030
  644 314.485 -9.42403 -2.28242
  645 240.084 -9.50332 -8.96468
  646 240.009 -9.41010 8.88614
  647 509.774 -46.5726 -23.9444
  648 263.630 -15.4165 15.5965
  649 263.896 -15.3547 -15.8579
  650 518.195 79.4504 -6.46320
  651 471.237 -25.6282 9.19237
  652 583.339 -3.12461 -3.77616
  653 504.383 -8.69788 -70.8771
  654 79.6596 -3.40417 17.6100
  655 79.4978 -3.38077 -17.6195
  656 570.661 -3.58647 -8.36716
  657 106.053 55.1986 -75.9907
  658 107.835 55.0827 76.3552
  659 583.028 -32.1638 80.3859
  660 205.500 52.1305 122.908
  661 56.4524 -0.460085 17.5982
  662 56.2628 -0.448259 -17.6012
  663 498.429 -30.2001 101.922
  664 488.605 76.3358 -232.911
  665 485.396 15.9394 -71.1117
  666 633.744 115.260 38.0012
  667 427.260 -20.0858 0.323872
  668 764.668 136.283 -3.31731
  669 -33.5752 1.76805 -2.62612
  670 -33.3913 1.76380 2.66808
  671 342.287 2.64348 -122.985
  672 34.5194 -0.527259 3.45249
  673 34.3653 -0.528541 -3.48333
  674 427.580 -35.1146 -78.9921
  675 145.916 19.6811 -54.1728
  676 144.799 19.7627 54.1522
  677 6.27119 7.26438 -4.94101
  678 6.47238 7.25618 5.02931
  679 365.489 -31.9466 -20.6452
  680 515.155 -5.09846 -27.0623
  681 250.808 -8.36795 -3.15837
  682 250.827 -8.28550 3.17967
  683 183.874 -9.56070 -18.1904
  684 184.026 -9.68866 18.1351
  685 35.7577 29.3562 -12.7709
  686 36.3240 29.4262 12.9669
  687 522.464 -7.34246 2.07016
  688 239.477 -15.5181 23.5553
  689 240.940 -15.2607 -23.5414
  690 580.077 -44.6890 -0.762834
  691 480.411 -48.3142 -6.24036
  692 379.700 -11.9446 -1.47374
  693 378.409 -11.2350 1.64031
  694 527.551 -54.4801 33.8817
  695 851.677 172.748 49.5915
  696 464.113 -18.5934 -125.288
  697 531.032 -15.2535 27.2627
  698 530.034 -19.0281 -72.0502
  699 172.404 -5.56496 -8.73932
  700 172.420 -5.52782 8.64716
  701 413.669 -5.12516 139.997
  702 1128.19 145.969 133.464
  703 83.4942 23.6647 -32.3720
  704 83.6220 23.8259 32.4748
  705 520.465 -6.19690 -0.986640
  706 524.449 -5.63493 1.02093
  707 224.830 118.815 -196.962
  708 554.902 -3.38087 15.3607
  709 480.189 -9.50605 1.18570
  710 638.129 125.694 -13.6694
  711 69.4221 11.6657 -23.8159
  712 69.7165 11.5943 23.9020
  713 589.863 -1.89371 0.275597
  714 483.844 -19.6504 -9.40008
  715 602.539 -7.25680 56.2831
  716 252.337 -17.8641 -36.0286
  717 252.964 -17.1230 35.7261
  718 64.4783 -2.06390 13.3185
  719 64.2988 -2.03911 -13.3474
  720 543.118 -4.65921 -2.15927
  721 468.980 99.1598 246.522
  722 4.42903 4.94862 14.2251
  723 4.60667 5.05841 -14.1032
  724 545.384 -6.73743 -6.37577
  725 530.620 -10.6650 9.20512
  726 430.834 0.640145 -46.5831
  727 4.31419 -45.9432 -5.03814
  728 4.05039 -46.4221 5.52165
  729 197.798 53.8267 -122.974
  730 427.024 -42.2689 -58.1339
  731 223.561 117.645 198.683
  732 582.994 -1.98420 1.28468
  733 573.739 86.2047 50.3487
  734 425.691 38.4450 -18.2497
  735 744.725 149.984 5.02029
  736 577.456 -2.89334 5.23037
  737 -29.9508 0.836822 5.12580
  738 -30.1941 0.841366 -5.10577
  739 616.501 -32.4336 22.5675
  740 403.140 -12.8441 -1.87498
  741 151.371 -0.0475356 -39.1627
  742 151.579 -0.193216 38.9663
  743 529.735 -7.22174 -3.27893
  744 930.896 131.550 -49.4252
  745 72.2085 -1.99773 -8.58727
  746 72.3633 -2.00897 8.53579
  747 587.095 -2.06304 -2.30869
  748 126.479 -5.58374 -11.9333
  749 126.574 -5.60325 11.8564
  750 580.592 -21.7279 -58.6747
  751 537.133 -5.82055 21.5480
  752 486.765 -2.65499 70.3674
  753 587.262 -2.13724 0.207082
  754 551.229 -5.07052 4.75042
  755 366.488 -20.5737 -6.52181
  756 455.365 -13.2036 1.35482
  757 518.313 -31.9292 -44.3084
  758 505.141 -32.1266 27.6833
  759 594.197 72.9570 -63.1649
  760 497.994 -28.5471 19.8658
  761 527.167 -30.8852 57.3882
  762 309.657 -21.4945 16.6887
  763 11.8429 0.0349210 1.47463
  764 11.2542 -0.00827573 -0.915712
  765 460.252 -8.28160 -0.261325
  766 459.302 -8.23424 0.0947553
  767 547.455 -3.41536 -0.175155
  768 549.262 -3.31643 0.297859
  769 526.955 -15.0695 33.8854
  770 485.944 -43.3455 75.0693
  771 401.735 -33.1269 9.61734
  772 358.108 -22.1599 9.21877
  773 948.620 121.202 56.6646
  774 531.200 -14.1018 -21.0946
  775 314.181 57.1126 -184.287
  776 494.664 -25.1812 -16.9780
  777 25.4570 0.305982 -12.9903
  778 25.6833 0.287965 13.0105
  779 451.128 39.6059 -40.8669
  780 1096.18 33.2388 -14.1115
  781 558.968 15.5165 -77.6027
  782 23.2840 24.5609 -47.8303
  783 578.624 103.438 12.7707
  784 448.326 -29.2880 3.66810
  785 505.942 -12.2143 68.6743
  786 424.934 -44.0702 58.4450
  787 669.790 2.00920 114.838
  788 25.0659 29.7112 50.8622
  789 309.527 -1.35412 96.7615
  790 428.457 -12.3271 0.335516
  791 476.818 -41.5292 -75.9373
  792 297.216 -23.4597 -27.3602
  793 235.364 11.4326 -85.1673
  794 553.502 -7.61518 75.9953
  795 357.667 -25.0249 13.8208
  796 77.4853 -2.06110 7.51349
  797 77.3630 -2.06320 -7.57304
  798 516.705 -2.93383 23.9333
  799 472.657 2.83955 -68.6336
  800 -39.6637 1.90343 4.51607
  801 -39.6034 1.90730 -4.47923
  802 348.235 -11.9876 -2.63268
  803 347.271 -11.4066 2.51670
  804 259.303 29.7151 118.271
  805 234.239 -14.0215 18.0312
  806 234.538 -13.6964 -18.1923
  807 586.521 -1.61129 -1.14260
  808 212.425 16.9575 83.1492
  809 15.7711 -0.200138 4.78991
  810 15.5299 -0.195875 -4.80663
  811 510.714 -15.6433 52.8234
  812 538.570 -5.56405 1.61925
  813 -28.7934 0.430276 7.79952
  814 -28.8011 0.439977 -7.78366
  815 337.711 -20.8847 73.2826
  816 67.4296 58.3155 -65.2263
  817 68.2266 55.8275 64.3085
  818 330.487 14.4260 7.69172
  819 2.41036 -0.400811 -5.46936
  820 2.67604 -0.404173 5.46625
  821 387.014 -36.4456 -54.8702
  822 524.374 -54.3701 -12.1177
  823 -2.65351 -2.51502 -3.36524
  824 -2.64534 -2.50878 3.35242
  825 39.2586 0.845995 -1.17961
  826 39.3495 0.850808 1.16188
  827 467.620 -41.9000 7.29754
  828 395.435 -40.3283 39.5062
  829 435.635 -8.74283 0.233674
  830 394.520 -32.3551 -11.0337
  831 152.377 -2.76672 -1.00315
  832 152.412 -2.71093 0.990397
  833 -44.3828 0.962483 2.37346
  834 -44.2828 0.961351 -2.33690
  835 489.494 -7.65284 -1.25328
  836 443.361 17.8421 -58.6371
  837 495.360 -11.0377 -4.64034
  838 297.856 -23.0974 26.1810
  839 495.570 -8.46997 -56.2792
  840 526.360 -16.3449 -34.9913
  841 491.374 -6.76337 1.09562
  842 362.734 -13.0480 99.1295
  843 387.551 -38.0495 -23.8810
  844 236.508 -1.78965 -65.9936
  845 237.778 -0.149011 66.3358
  846 332.090 -25.4041 -18.0815
  847 548.617 60.1838 66.4866
  848 515.969 -52.4931 -43.9995
  849 193.776 -6.43432 -4.50638
  850 193.775 -6.34868 4.46903
  851 396.796 -10.3524 1.07831
  852 396.819 -10.4261 -0.994308
  853 475.462 -3.44303 -36.9480
  854 166.124 -7.14823 -14.7231
  855 166.224 -7.20015 14.6179
  856 2.04907 -47.5525 -8.99120
  857 1.94615 -47.7602 9.19213
  858 90.2530 -1.31210 -0.137749
  859 90.1889 -1.33590 0.122447
  860 486.170 -8.92671 -1.72784
  861 373.386 -35.6333 35.9253
  862 573.410 -47.6406 12.2291
  863 350.129 7.31208 29.4411
  864 497.196 -12.8718 5.40626
  865 544.171 -47.9518 -33.1842
  866 83.9455 4.86821 -26.7340
  867 84.1904 4.78568 26.7290
  868 433.482 -9.27473 -0.199802
  869 352.289 -13.3283 -4.56480
  870 351.117 -13.2258 4.87963
  871 544.079 84.5359 35.8204
  872 192.433 -2.14925 -46.8545
  873 192.277 -2.36720 46.6764
  874 376.857 -34.4105 19.5995
  875 39.0049 24.4847 -11.1963
  876 39.3698 24.4430 11.3048
  877 319.989 -22.6577 60.3146
  878 381.984 -25.1411 -7.12796
  879 478.016 -3.57083 37.3293
  880 466.427 -52.0859 22.2982
  881 533.810 -40.0883 -48.6896
  882 372.471 -35.9215 -36.3664
  883 311.813 -21.4160 -16.0680
  884 988.096 80.7748 -15.4542
  885 488.183 -51.5028 2.98408
  886 16.0393 16.9347 3.59807
  887 16.2988 16.9704 -3.46030
  888 425.803 -42.8339 12.6917
  889 465.648 -51.7979 -35.5096
  890 17.5973 14.4839 -1.69076
  891 17.8268 14.4908 1.79744
  892 181.004 -6.65411 35.9773
  893 181.090 -6.84079 -36.1643
  894 217.608 -11.1947 39.3804
  895 217.514 -11.4468 -39.6179
  896 672.679 134.748 15.7175
  897 -0.928701 -20.7770 -9.85982
  898 -0.935695 -20.7492 9.85146
  899 159.171 13.1161 -51.5918
  900 158.429 12.8565 51.1336
  901 1131.89 36.6515 -56.6933
  902 33.0669 -0.155206 1.98337
  903 32.9406 -0.158918 -2.00765
  904 2.22455 -52.3069 1.67277
  905 2.56727 -51.3598 -0.872590
  906 -22.2308 -0.221892 8.14815
  907 -22.2582 -0.214834 -8.14618
  908 127.438 37.2261 -60.5068
  909 129.390 35.9880 59.7089
  910 -9.11095 0.823557 -16.8400
  911 -9.15919 0.783255 16.8700
  912 40.7124 3.08562 -17.7405
  913 40.9434 3.04485 17.7695
  914 140.276 -1.86763 33.2711
  915 140.166 -1.86030 -33.4154
  916 116.159 -4.08378 -26.9349
  917 116.287 -4.07785 26.9027
  918 573.929 -2.41470 -8.36245
  919 283.990 62.8335 171.869
  920 391.320 -38.7715 22.6297
  921 281.154 -20.4966 21.3879
  922 537.040 55.9223 -65.9453
  923 1113.36 23.6972 22.7660
  924 629.514 31.1783 -59.4741
  925 112.397 -4.27784 16.9732
  926 112.274 -4.23111 -17.0266
  927 25.3358 -0.674363 -12.4914
  928 25.5606 -0.680253 12.4948
  929 0.0711642 -9.00247 -18.1220
  930 -0.0121197 -9.08569 18.1839
  931 290.502 -13.4543 9.97055
  932 290.641 -13.6965 -10.0091
  933 38.7893 9.37367 -16.2136
  934 39.0345 9.33303 16.2934
  935 179.988 -8.20587 -30.7420
  936 180.119 -8.20866 30.7295
  937 386.408 -1.30310 -34.5717
  938 186.038 -10.2493 -21.6914
  939 185.932 -10.1484 21.7593
  940 436.791 -13.4231 0.394548
  941 528.869 -29.7858 -61.9284
  942 236.881 -10.0173 10.3904
  943 236.977 -10.1012 -10.5077
  944 -9.68973 -1.00290 -5.86059
  945 -9.66220 -1.00528 5.84738
  946 535.590 -38.9865 -92.1381
  947 515.000 -30.3752 38.1603
  948 452.579 -32.2390 -5.49993
  949 448.541 15.8110 61.7238
  950 206.453 -11.8028 -24.3469
  951 206.473 -11.5914 24.4166
  952 497.638 19.7295 74.0785
  953 467.613 40.9839 48.8427
  954 926.691 110.758 19.8233
  955 479.867 -18.1897 6.40095
  956 258.899 -8.31572 -4.70538
  957 258.877 -8.17037 4.73908
  958 431.863 -35.8584 2.17862
  959 599.608 109.756 -29.4384
  960 522.588 -6.67192 -2.14936
  961 348.977 -9.60900 1.57200
  962 348.850 -9.54323 -1.47593
  963 46.2560 39.7176 -30.1007
  964 47.3833 39.6689 30.3081
  965 83.0931 230.747 -190.748
  966 496.683 -11.4400 55.9195
  967 612.154 -9.14294 -49.1566
  968 -7.81233 6.05691 1.80693
  969 -7.64711 6.05697 -1.72306
  970 1214.21 294.635 -232.889
  971 525.036 -56.2756 0.678689
  972 558.618 -49.9824 -28.0073
  973 517.623 -44.1443 33.5770
  974 643.300 125.899 11.3800
  975 48.3045 54.3453 -61.0462
  976 118.746 201.182 188.609
  977 -2.67813 -6.62812 18.3396
  978 -2.62659 -6.56708 -18.3089
  979 501.925 -13.8147 6.99822
  980 804.905 141.544 -19.0668
  981 49.6640 53.2444 63.2813
  982 -2.19191 -7.57487 -6.51722
  983 -2.19209 -7.55311 6.49956
  984 432.553 -11.2840 -0.709136
  985 326.435 -26.2029 -28.6241
  986 521.780 -40.9885 -40.8087
  987 152.173 41.0374 -78.9379
  988 154.574 41.7010 79.1371
  989 509.061 -12.5381 -49.5844
  990 509.225 -16.9374 14.3343
  991 -12.7184 3.80870 14.5449
  992 -12.6500 3.84495 -14.4950
  993 311.789 -20.4837 -56.9118
  994 516.080 33.6916 -73.9352
  995 382.443 -15.3544 3.08142
  996 278.857 -8.66074 0.970911
  997 278.801 -8.71014 -0.940073
  998 -5.61182 -6.38969 -13.4069
  999 -5.61951 -6.40348 13.3945
  1000 516.141 -19.0871 -18.1038
  1001 490.261 -6.66312 0.273841
  1002 489.813 -6.67106 -0.0824159
  1003 679.744 113.370 -38.6324
  1004 127.672 10.6565 -41.1593
  1005 127.990 10.4447 41.0829
  1006 84.6397 -0.959001 -22.4820
  1007 84.8016 -0.975327 22.4638
  1008 562.909 31.3385 78.5073
  1009 527.991 -10.7907 -9.66801
  1010 98.1378 14.9439 -33.9957
  1011 98.5206 14.8356 34.1176
  1012 548.235 -3.80061 -1.33022
  1013 516.464 -22.7743 -28.4557
  1014 504.399 -56.0552 -26.4552
  1015 20.7463 18.7493 2.46987
  1016 20.2049 18.6606 -2.22271
  1017 -23.0829 4.16814 8.22516
  1018 -22.9941 4.18020 -8.16453
  1019 320.103 11.7570 -12.8551
  1020 865.444 218.594 -66.2278
  1021 401.189 -29.8594 -5.67161
  1022 268.217 -11.7404 -58.4289
  1023 635.944 -22.6575 -1.22807
  1024 269.260 -11.7141 59.2138
  1025 459.520 -52.8190 40.6807
  1026 520.640 -21.6142 -44.2291
  1027 186.057 -4.64221 -1.43896
  1028 186.082 -4.57071 1.43124
  1029 358.435 -28.4676 -16.3223
  1030 222.720 -8.49747 -46.0651
  1031 222.656 -8.56148 45.8594
  1032 75.1509 49.5043 -50.2679
  1033 76.3105 49.3861 50.4186
  1034 158.181 -5.13133 -5.06540
  1035 158.206 -5.07362 5.01114
  1036 462.316 -15.7294 2.65501
  1037 391.618 3.23164 -141.533
  1038 478.839 -16.5420 -6.46599
  1039 434.574 -47.8847 -26.0025
  1040 289.834 -12.8643 7.02191
  1041 290.057 -12.9528 -7.03782
  1042 555.610 -4.19506 1.68302
  1043 499.962 -12.8928 -6.53471
  1044 336.095 8.29444 24.3085
  1045 537.820 -5.39618 -20.0727
  1046 211.643 63.2720 138.927
  1047 552.193 -5.30905 -16.2998
  1048 148.965 24.8382 -60.1530
  1049 144.677 25.1045 57.8375
  1050 656.906 -7.65013 -0.943229
  1051 63.0571 32.2894 -27.3724
  1052 63.6195 32.0667 27.3755
  1053 11.0942 1.67437 3.76396
  1054 11.6083 1.77434 -3.42574
  1055 94.8998 -2.44958 6.00063
  1056 94.8066 -2.46403 -6.06330
  1057 240.042 63.9716 -153.289
  1058 1250.15 335.918 250.721
  1059 514.622 -19.0657 18.5601
  1060 463.604 -51.7249 -20.4598
  1061 325.348 -26.7899 -44.7465
  1062 -5.23017 7.59293 12.0397
  1063 -5.10475 7.63437 -11.9549
  1064 366.042 -19.6668 5.46079
  1065 402.231 -15.9758 1.99723
  1066 -0.148827 -29.3762 9.44322
  1067 -0.138913 -29.4089 -9.44180
  1068 63.1946 38.8485 -32.1630
  1069 63.9214 38.7867 32.3449
  1070 361.332 -18.1785 -5.25208
  1071 31.7071 13.3356 11.0876
  1072 31.4653 13.3512 -10.9875
  1073 547.856 -20.7476 71.9220
  1074 398.295 -41.0802 -39.3082
  1075 327.246 -27.2165 44.7486
  1076 523.645 -9.68001 -76.5966
  1077 546.087 -6.76662 6.99561
  1078 203.260 31.5476 94.3472
  1079 204.705 30.1789 -92.8157
  1080 324.540 -15.3877 -79.7048
  1081 455.021 -17.3294 -2.51533
  1082 372.716 -23.1140 8.94676
  1083 434.751 -40.8854 -5.37025
  1084 588.444 -2.40886 -4.10190
  1085 324.999 -15.6939 8.04694
  1086 324.860 -16.5375 -8.21552
  1087 12.2288 13.9709 8.75399
  1088 12.4958 14.0705 -8.59946
  1089 528.768 20.3950 -79.3695
  1090 123.072 5.84104 -36.5280
  1091 123.400 5.70961 36.4442
  1092 94.1565 1.50005 -26.5647
  1093 94.3609 1.45050 26.5286
  1094 595.039 -19.6072 114.948
  1095 519.858 -24.0461 43.4183
  1096 258.841 -12.0106 -49.9908
  1097 596.581 -2.61782 -2.43140
  1098 678.072 129.197 -28.7739
  1099 544.705 -6.01834 -4.15327
  1100 514.363 -54.9402 11.9614
  1101 383.214 -28.5663 70.4921
  1102 599.496 -1.07115 0.300355
  1103 335.494 10.3652 -20.5886
  1104 437.724 -46.7985 -14.3514
  1105 259.270 -12.5435 49.4999
  1106 441.680 -40.5377 2.85975
  1107 546.499 -8.41423 13.9791
  1108 404.491 25.5924 31.8605
  1109 278.037 -20.6076 -40.4121
  1110 816.976 126.385 -58.7592
  1111 622.315 30.4677 63.0097
  1112 474.182 59.1184 7.73746
  1113 594.567 -0.231432 2.02919
  1114 242.664 -15.3924 -31.4220
  1115 164.940 104.955 -154.619
  1116 292.823 8.62473 -111.734
  1117 335.940 -26.2507 20.9973
  1118 285.124 -21.5185 38.1270
  1119 242.125 -14.6671 31.7101
  1120 503.875 5.12430 77.6351
  1121 379.902 -14.3273 -2.61883
  1122 587.406 -4.63790 5.71114
  1123 -4.05092 0.211360 18.1226
  1124 -3.97968 0.273519 -18.0758
  1125 397.163 -12.5310 1.57868
  1126 0.638199 5.35189 15.8185
  1127 0.767800 5.43407 -15.7275
  1128 228.847 -7.67036 5.59100
  1129 228.854 -7.77896 -5.59650
  1130 556.941 -3.16747 13.5222
  1131 449.929 -28.2946 -4.20286
  1132 422.145 -23.4731 0.734566
  1133 470.972 -33.5030 11.6961
  1134 146.993 74.5585 -116.461
  1135 461.183 -18.5070 3.93633
  1136 74.9207 1.09126 -21.9267
  1137 75.1151 1.05683 21.9177
  1138 99.3743 64.9517 -83.3091
  1139 731.950 101.264 13.6109
  1140 60.5591 -2.57952 12.9096
  1141 60.3721 -2.55925 -12.9244
  1142 101.148 64.0492 80.6280
  1143 424.035 -35.9612 -3.87871
  1144 220.491 -10.6407 12.6268
  1145 220.514 -10.6840 -12.8006
  1146 854.921 182.187 -52.8827
  1147 466.064 -46.7175 -1.41618
  1148 162.617 98.5582 154.360
  1149 14.6385 1.89519 -15.5346
  1150 15.7121 2.08287 16.7847
  1151 497.493 62.3377 38.8034
  1152 39.9493 20.5547 -11.5445
  1153 40.2549 20.5642 11.6357
  1154 469.032 -41.0895 -8.01940
  1155 -0.201677 -45.0686 -8.72854
  1156 -0.222801 -45.0700 8.76833
  1157 500.686 -42.3209 -22.4407
  1158 1.10832 0.574763 4.26211
  1159 0.839017 0.578639 -4.26971
  1160 80.5337 29.3468 -34.3785
  1161 80.9634 29.4768 34.1022
  1162 -18.9961 0.0414632 -5.22134
  1163 -18.7228 0.0396780 5.22754
  1164 497.419 -6.66785 -0.189081
  1165 -47.5480 1.47460 0.266303
  1166 -47.4092 1.47404 -0.232326
  1167 269.380 -21.3801 -30.5272
  1168 7.35892 -58.4509 -8.77321
  1169 141.130 -4.10233 9.47212
  1170 141.068 -4.11466 -9.56069
  1171 425.555 -9.46483 0.871195
  1172 426.347 -9.25746 -0.790356
  1173 7.90573 -55.3712 10.3324
  1174 503.512 -26.8247 -23.1153
  1175 571.648 -2.95143 9.74557
  1176 511.992 -32.9913 -34.8566
  1177 453.832 3.66573 61.2436
  1178 2.74773 -16.4475 12.5072
  1179 2.96884 -16.3079 -12.2787
  1180 331.448 -24.6389 17.1881
  1181 -21.6866 2.20823 11.6880
  1182 -21.6462 2.22648 -11.6515
  1183 844.157 133.310 9.70282
  1184 970.124 320.450 -224.825
  1185 523.137 -50.3882 28.2281
  1186 223.359 -6.96602 -0.934193
  1187 223.382 -6.89064 0.935080
  1188 1051.41 102.180 -94.9470
  1189 84.9064 -2.16089 13.3844
  1190 84.7514 -2.12968 -13.4262
  1191 492.893 -1.59824 -24.0486
  1192 318.232 -25.9535 34.3887
  1193 517.403 -50.2956 -19.1936
  1194 501.146 -36.6528 -26.2340
  1195 309.492 -10.5330 83.4017
  1196 117.942 21.4564 -46.1989
  1197 117.891 21.2683 45.9608
  1198 153.240 57.2813 -99.4593
  1199 153.471 53.0897 99.4745
  1200 46.9630 12.6228 -17.2536
  1201 47.2268 12.5876 17.3494
  1202 620.332 108.164 -42.7688
  1203 34.0854 31.5717 -16.5559
  1204 34.8407 31.6287 16.7859
  1205 446.928 -34.8114 2.75032
  1206 820.351 131.081 65.1668
  1207 114.995 -4.67836 -9.34218
  1208 115.089 -4.67731 9.26424
  1209 526.870 396.599 -325.418
  1210 426.912 25.5796 -49.0380
  1211 394.768 30.0189 20.1097
  1212 56.9522 22.9697 -20.3454
  1213 57.2144 22.9739 20.4483
  1214 21.5133 -0.127595 3.10324
  1215 21.3220 -0.127420 -3.12670
  1216 494.062 -39.8804 20.8746
  1217 485.117 -20.3578 10.5330
  1218 333.277 100.409 -237.014
  1219 763.291 167.389 -13.6916
  1220 332.312 -9.53959 -91.4774
  1221 427.525 -14.3849 -1.01812
  1222 33.7871 -2.07093 -0.673835
  1223 33.8583 -2.06917 0.670129
  1224 -6.70006 3.37235 -7.73496
  1225 -6.48534 3.35900 7.78796
  1226 289.872 3.65936 -96.0258
  1227 524.818 -12.4116 12.7636
  1228 345.176 7.70466 129.646
  1229 464.611 -23.8787 -7.06058
  1230 242.417 89.4122 -188.085
  1231 374.762 -17.3184 -98.4875
  1232 444.978 -47.4939 11.8862
  1233 541.549 -9.04454 21.7449
  1234 475.278 -11.2140 -2.09588
  1235 268.305 -20.1116 30.6843
  1236 595.494 -31.5817 -37.0905
  1237 569.530 50.6433 74.1812
  1238 251.407 1.28237 -76.6373
  1239 558.506 -4.34508 1.37721
  1240 462.940 57.2427 -11.0695
  1241 204.355 -7.46351 -9.26197
  1242 204.330 -7.39297 9.17483
  1243 854.557 206.771 59.2403
  1244 1152.02 30.5898 53.0664
  1245 1.12058 -54.8286 -8.62202
  1246 1.08614 -54.8842 8.69007
  1247 131.236 70.9521 109.349
  1248 310.289 -10.0256 -2.39294
  1249 310.355 -9.97300 2.50395
  1250 420.461 -42.4818 -15.0451
  1251 505.010 41.9887 67.0892
  1252 520.211 -11.2661 -7.75909
  1253 598.443 -1.93777 -0.614308
  1254 1034.38 232.099 -147.943
  1255 171.571 -6.60739 9.77746
  1256 171.541 -6.61963 -9.88486
  1257 501.217 -46.4804 21.1265
  1258 868.573 222.175 -76.2826
  1259 485.563 -22.0876 -12.0214
  1260 358.340 -25.5642 -12.7945
  1261 437.348 -47.3489 25.4615
  1262 427.578 -22.3619 0.256151
  1263 16.8859 9.83313 -23.2954
  1264 581.478 -33.8358 45.6540
  1265 472.645 -31.5682 -11.4808
  1266 18.5334 10.6506 25.4356
  1267 485.081 -36.9079 -92.9725
  1268 457.616 32.3588 -194.054
  1269 749.181 101.227 -6.03583
  1270 600.575 -0.811263 -0.155810
  1271 599.598 -1.35907 0.497908
  1272 480.485 -28.7505 12.9396
  1273 189.508 22.5794 -75.6888
  1274 546.595 -47.7262 36.3578
  1275 920.415 212.395 101.375
  1276 233.101 82.9427 183.456
  1277 7.32517 2.39149 12.4208
  1278 7.56963 2.51489 -12.2524
  1279 571.943 -43.8910 -52.8106
  1280 237.529 -13.3366 -15.0310
  1281 237.501 -13.3723 14.7997
  1282 535.804 -34.7334 58.8716
  1283 25.8914 0.0575546 13.9356
  1284 25.6683 0.0680233 -13.9269
  1285 -2.73907 -10.9218 15.3455
  1286 -2.71937 -10.8984 -15.3498
  1287 103.625 -3.51901 -12.1993
  1288 103.746 -3.53906 12.1329
  1289 285.995 -19.2279 -45.5981
  1290 288.837 -10.3374 3.32907
  1291 288.823 -10.5381 -3.22408
  1292 598.929 -0.790863 0.278128
  1293 538.708 -8.68398 -24.5732
  1294 49.6493 1.83937 -17.7579
  1295 49.8650 1.80900 17.7697
  1296 287.126 -20.3136 45.2874
  1297 604.056 -0.879803 0.304086
  1298 572.413 -1.26291 -0.661228
  1299 572.356 -1.61112 0.523498
  1300 761.389 164.597 -0.362901
  1301 559.407 -4.63725 -3.31532
  1302 498.861 -6.36691 0.0157340
  1303 552.341 -9.03636 -12.3506
  1304 596.405 -2.27051 1.56564
  1305 629.919 67.0592 62.4073
  1306 728.082 153.622 10.4856
  1307 582.326 -2.61344 -6.35858
  1308 -4.93698 -1.21597 4.40625
  1309 -4.95711 -1.21519 -4.42017
  1310 330.266 -21.5059 12.3067
  1311 330.208 -20.6008 -12.0032
  1312 635.585 74.1725 -58.9151
  1313 136.409 47.3190 -82.8370
  1314 137.283 46.0635 81.9965
  1315 437.083 0.145123 -30.6466
  1316 441.431 -8.45906 -0.847609
  1317 440.894 -8.40268 0.754474
  1318 -10.3117 -1.52352 15.5653
  1319 -10.2931 -1.49432 -15.5605
  1320 494.293 -1.30358 23.9974
  1321 744.578 147.907 -5.75824
  1322 62.2253 -2.06990 -7.67763
  1323 62.3779 -2.07463 7.62539
  1324 549.678 -51.7791 17.3457
  1325 2.34447 9.86166 12.0156
  1326 2.50724 9.92064 -11.9099
  1327 111.216 -2.52079 -2.66766
  1328 111.275 -2.48537 2.63249
  1329 437.166 -0.496991 31.1245
  1330 28.6969 0.880572 -1.21017
  1331 28.8043 0.883955 1.19235
  1332 556.195 -7.17026 7.68448
  1333 778.628 140.748 9.17604
</Section>

newXOutput 72

<Section columns = "stress_xx | stress_yy | stress_xy">
  1 620.977 -1.90217 1.13540
  2 621.883 -2.34813 -1.47339
  3 23.5650 0.565355 -1.56743
  4 -0.484743 -0.713635 -0.493018
  5 1116.11 472.580 372.617
  6 1133.28 538.865 -376.117
  7 -0.479670 -0.709163 0.486464
  8 23.4923 0.562139 1.56386
  9 625.021 -1.36506 -1.02731
  10 620.749 -2.35150 -1.52293
  11 621.415 -1.88044 1.22965
  12 618.790 -1.16252 0.402999
  13 617.913 -2.21624 -0.578467
  14 617.489 -2.15436 2.15522
  15 609.501 -1.61174 1.94008
  16 612.327 -4.49321 3.18588
  17 594.742 -3.79443 7.10063
  18 583.888 -1.83045 8.57824
  19 568.678 -2.14301 9.32568
  20 541.833 -1.90930 13.2532
  21 512.270 -1.56709 15.5085
  22 475.002 2.02225 21.4626
  23 423.596 3.15422 19.5268
  24 402.746 -0.00125880 28.0734
  25 338.017 4.78649 20.0357
  26 298.299 6.19814 15.7718
  27 287.943 3.27004 11.6572
  28 276.844 9.11302 0.891404
  29 282.948 9.73511 -15.6127
  30 295.069 2.90606 -19.5717
  31 343.861 1.44038 -26.0359
  32 392.706 -2.33375 -26.8447
  33 425.426 2.62264 -19.4796
  34 475.532 2.29051 -21.4539
  35 511.019 -1.84520 -16.6407
  36 544.729 -2.09115 -12.4788
  37 566.591 -1.61282 -9.48144
  38 582.199 -1.95838 -7.81806
  39 599.065 -2.23327 -4.45690
  40 605.285 -2.38873 -4.21186
  41 611.433 -2.24163 -3.75119
  42 617.604 -2.52344 -0.560274
  43 619.843 -3.14901 -1.46502
  44 616.051 -0.105918 0.0933903
  45 620.684 -1.75056 -1.41267
  46 622.956 -3.35895 1.66059
  47 625.730 -1.97633 -0.0550308
  48 595.794 -0.129655 -0.938368
  49 562.109 -3.18240 -1.73516
  50 523.736 -6.54358 -2.39852
  51 483.816 -5.83680 -1.72460
  52 448.812 -8.73690 -1.57800
  53 411.723 -9.38449 -1.41467
  54 374.189 -8.31023 -0.612546
  55 334.585 -8.74383 -0.889855
  56 301.020 -9.06461 -1.20901
  57 256.257 -8.54712 -0.945100
  58 210.134 -5.48677 -0.605143
  59 171.954 -3.55130 -0.460142
  60 124.792 -2.23232 -0.106437
  61 90.5701 -2.03915 -2.29345
  62 58.8354 -2.65950 -0.710485
  63 26.8028 0.297287 1.52127
  64 18.3002 2.22043 0.674787
  65 15.7013 0.895076 1.65804
  66 16.4505 0.402345 1.69667
  67 9.25019 1.27268 0.924667
  68 6.18235 1.67985 3.46307
  69 4.28962 0.600010 1.49462
  70 -7.80035 1.26802 1.60942
  71 -13.8164 0.854487 3.39013
  72 -16.8934 0.262295 3.59807
  73 -30.4795 1.17139 2.96537
  74 -36.0040 1.77392 5.24056
  75 -42.4565 1.07723 2.26108
  76 -49.4132 0.792555 3.05227
  77 -52.9438 0.836613 1.51316
  78 -59.9676 2.09170 -0.930480
  79 -61.4844 1.43193 -0.661343
  80 -56.6848 1.06086 -1.65474
  81 -49.1291 1.43186 -3.52888
  82 -40.3426 0.668739 -5.65210
  83 -30.3566 0.381545 -5.99701
  84 -18.3276 -0.568308 -6.34381
  85 -8.10015 -0.466688 -3.76202
  86 -3.43870 -1.31400 -2.37262
  87 -0.548640 -3.42871 -2.07579
  88 -0.899372 -8.76158 -3.62560
  89 -1.03539 -16.8558 -6.27953
  90 -0.160996 -31.4009 -6.69541
  91 0.419720 -43.0772 -8.31892
  92 0.926636 -61.7184 -6.74416
  93 2.76877 -72.7687 -7.86396
  94 0.560426 -77.2955 -6.21871
  95 -0.0345655 -87.4611 -3.21993
  96 2.51187 -82.4152 0.330550
  97 10.3141 -105.812 6.43121
  98 9.70794 -49.1715 18.7779
  99 22.5350 -8.61241 39.3849
  100 65.9128 133.410 115.172
  101 269.865 384.682 311.562
  102 1461.58 160.023 215.307
  103 1232.95 43.8562 77.4032
  104 1175.94 18.7098 26.5583
  105 1144.72 12.1504 -0.151127
  106 1164.80 17.8224 -21.9030
  107 1243.80 37.4215 -63.9113
  108 1446.41 126.298 -199.832
  109 175.741 435.191 -257.762
  110 46.4300 104.660 -89.9505
  111 16.6694 -19.5051 -33.2119
  112 8.80943 -55.5457 -16.4500
  113 10.2481 -110.359 -5.30899
  114 2.39469 -84.4180 0.455390
  115 -0.183645 -88.4570 3.62806
  116 0.465946 -77.6744 6.43670
  117 2.71682 -72.8496 7.95544
  118 0.906739 -61.6747 6.77743
  119 0.404755 -43.0099 8.33012
  120 -0.168300 -31.3189 6.69046
  121 -1.03618 -16.8039 6.26536
  122 -0.901303 -8.71753 3.61257
  123 -0.548195 -3.41218 2.06438
  124 -3.41890 -1.31203 2.36302
  125 -8.06483 -0.468848 3.75155
  126 -18.2816 -0.573474 6.33722
  127 -30.3028 0.375750 5.99797
  128 -40.3111 0.662383 5.66278
  129 -49.1386 1.42726 3.55038
  130 -56.7366 1.06043 1.67810
  131 -61.5915 1.43049 0.684271
  132 -60.1209 2.09124 0.954458
  133 -53.1502 0.838703 -1.49199
  134 -49.6597 0.795134 -3.03630
  135 -42.7235 1.08022 -2.24820
  136 -36.2949 1.77752 -5.23471
  137 -30.7797 1.17480 -2.96044
  138 -17.1916 0.264373 -3.59802
  139 -14.1172 0.858115 -3.39406
  140 -8.08912 1.27309 -1.61551
  141 4.03237 0.603346 -1.50671
  142 5.95639 1.68339 -3.48162
  143 9.05258 1.27372 -0.941013
  144 16.2970 0.401703 -1.71272
  145 15.5800 0.893521 -1.67100
  146 18.2006 2.21778 -0.685978
  147 26.7227 0.295415 -1.52790
  148 58.7630 -2.66937 0.703864
  149 90.5044 -2.06349 2.28631
  150 124.742 -2.27530 0.0967957
  151 171.923 -3.61336 0.455241
  152 210.108 -5.55854 0.604554
  153 256.221 -8.60887 0.955157
  154 300.943 -9.09436 1.22964
  155 334.465 -8.70265 0.938216
  156 374.026 -8.16506 0.667554
  157 411.501 -9.04509 1.33289
  158 449.011 -8.83737 1.37765
  159 483.969 -6.44336 1.82414
  160 524.136 -6.43343 2.17081
  161 563.185 -2.86219 1.75959
  162 594.905 -0.166996 0.915111
  163 354.488 -32.1478 -32.8951
  164 353.116 -32.7371 32.8148
  165 109.687 29.8308 -46.2379
  166 110.754 29.9335 46.0559
  167 415.518 -18.4955 111.603
  168 435.063 -21.0109 -108.692
  169 210.099 -11.2879 15.4849
  170 210.064 -11.1802 -15.6735
  171 443.266 -16.6922 0.242882
  172 434.717 -16.7387 -0.0702786
  173 595.053 106.577 -13.5658
  174 598.485 6.06907 -69.1804
  175 587.235 10.4444 75.1713
  176 147.470 -5.74389 -31.3710
  177 147.494 -5.70565 31.3202
  178 517.399 -50.9642 21.9942
  179 517.046 -39.8098 -33.3329
  180 8.58531 13.0947 10.7437
  181 8.80142 13.1772 -10.6144
  182 706.793 144.658 16.5740
  183 140.060 63.4865 -100.937
  184 149.990 64.0411 107.905
  185 499.959 -24.1575 14.6796
  186 748.428 159.062 -3.12227
  187 328.579 -12.9044 -5.28657
  188 328.073 -13.2096 5.25620
  189 513.232 -17.1017 -13.5960
  190 679.390 0.0781843 -16.9799
  191 136.000 -4.11564 6.07427
  192 135.944 -4.14795 -6.14557
  193 59.4488 6.88900 -21.7681
  194 59.7078 6.81857 21.8195
  195 293.217 -11.0745 -71.3029
  196 292.080 -11.6599 72.1953
  197 349.115 -23.3523 -13.0281
  198 349.801 -23.2223 13.7010
  199 97.9661 -3.40743 16.9510
  200 97.8201 -3.36351 -16.9808
  201 671.636 -7.10969 51.2423
  202 553.051 -53.3378 -5.52032
  203 523.030 -6.49242 -1.64886
  204 511.900 -7.72566 1.61389
  205 528.769 62.3546 53.9740
  206 23.9410 22.0404 -10.4375
  207 24.7636 22.0117 10.8045
  208 523.280 -20.7051 62.6778
  209 487.034 37.5906 -62.4760
  210 342.111 81.9862 -224.430
  211 359.765 69.3651 208.720
  212 12.1047 11.8372 -3.40715
  213 12.3136 11.8367 3.50878
  214 521.882 -18.1643 -64.9022
  215 895.081 124.541 -9.03296
  216 433.531 -46.8362 42.7738
  217 436.663 -46.5982 -40.6774
  218 433.259 -31.6479 0.992462
  219 532.093 -9.46868 6.96720
  220 264.788 -18.4650 -27.9994
  221 260.809 -18.3976 28.7641
  222 161.265 3.01423 -46.5553
  223 161.503 2.95657 46.1983
  224 547.841 -56.5946 -11.8407
  225 429.772 -33.5800 -2.87311
  226 530.115 -9.30603 -5.20190
  227 416.714 -12.0690 -0.986519
  228 420.185 -11.3601 1.74660
  229 526.242 -23.8260 34.9541
  230 52.0334 0.289040 -18.1248
  231 52.2401 0.267829 18.1278
  232 -6.24528 -4.05523 -17.5077
  233 -6.27915 -4.09821 17.5208
  234 90.2310 -3.70795 -9.94319
  235 90.3594 -3.71687 9.87590
  236 229.849 -7.38417 6.96330
  237 229.889 -7.49978 -7.00859
  238 260.260 18.5070 -102.709
  239 260.294 15.5181 101.584
  240 533.217 -17.1049 -29.9243
  241 256.168 -15.1276 -44.2333
  242 256.397 -15.5800 43.6742
  243 477.348 7.86258 70.9704
  244 423.070 36.1770 4.31850
  245 459.418 -45.9562 2.68429
  246 2.56979 -9.71456 -15.0540
  247 2.41507 -9.83900 15.1876
  248 31.2980 35.5109 -37.3515
  249 33.2233 34.4600 39.0420
  250 451.934 -44.9850 -5.64000
  251 804.205 157.975 -21.3358
  252 45.3052 30.0401 -17.3899
  253 45.8244 30.0346 17.5656
  254 -15.9774 4.02621 11.2591
  255 -15.8884 4.04722 -11.1969
  256 807.345 149.017 26.2146
  257 291.287 -14.7002 -11.9032
  258 291.080 -14.4841 11.7146
  259 559.302 -36.7914 56.2169
  260 994.812 162.379 102.633
  261 174.533 -9.33627 -25.9927
  262 174.515 -9.40186 25.9758
  263 575.099 86.4071 -50.7232
  264 962.037 183.768 -94.9206
  265 678.799 71.5361 44.5436
  266 728.749 55.8512 -144.588
  267 458.852 -22.7359 3.99925
  268 525.097 3.41914 -78.6978
  269 493.957 -35.3823 -17.6802
  270 548.110 -10.4397 18.7135
  271 4.19831 5.31073 -7.61462
  272 4.40899 5.29488 7.68835
  273 541.853 -14.2420 -138.496
  274 63.0824 18.3490 -22.3246
  275 63.3734 18.3199 22.4373
  276 528.949 -12.8894 -39.3700
  277 78.6000 86.5863 -105.156
  278 74.6294 -0.381730 -2.33768
  279 74.7102 -0.368170 2.30811
  280 557.574 -33.5877 -58.9210
  281 102.110 45.8738 -57.7122
  282 103.554 45.6464 57.8756
  283 36.4241 -0.961118 12.5664
  284 36.2046 -0.950140 -12.5712
  285 458.121 -21.6943 -3.94171
  286 79.1590 85.7127 107.808
  287 716.417 66.0963 168.070
  288 207.049 -8.53881 -9.63647
  289 207.025 -8.49030 9.52393
  290 369.071 -16.4079 -5.43374
  291 368.900 -17.6423 5.88185
  292 314.999 32.0120 -153.615
  293 503.406 -54.7116 -3.02164
  294 567.131 -4.34704 2.96899
  295 303.638 32.1324 148.871
  296 353.912 -10.8519 -1.91855
  297 353.782 -10.8470 2.20901
  298 494.799 -36.7374 17.9901
  299 563.812 -6.72497 -8.38024
  300 1.64333 2.06789 -10.2129
  301 1.87795 2.05235 10.2497
  302 714.890 141.177 -3.83666
  303 622.251 -26.5775 26.1333
  304 558.422 -3.94330 -0.635173
  305 567.688 -3.45725 0.576540
  306 560.905 -47.0692 53.6264
  307 691.326 76.3512 -40.4182
  308 611.702 113.456 28.2002
  309 278.553 -17.5829 -18.3206
  310 276.135 -17.8893 18.6298
  311 566.306 -4.28547 -1.76913
  312 378.483 -27.9837 -77.8550
  313 373.152 -30.0207 16.3131
  314 355.607 -18.7418 88.1364
  315 559.527 -7.48393 10.1587
  316 136.264 -6.23612 -16.3776
  317 136.365 -6.28036 16.3175
  318 517.208 -13.9550 136.830
  319 334.056 -26.8836 -22.8050
  320 608.614 79.4599 62.8488
  321 198.283 13.8201 -67.9418
  322 191.120 14.4654 67.4410
  323 67.1978 -1.25929 -4.23285
  324 67.3121 -1.25148 4.18593
  325 495.871 -11.3791 3.36638
  326 475.906 -8.30254 0.0493515
  327 473.340 -8.95155 -0.200914
  328 525.448 -13.5586 41.8033
  329 54.5875 -1.79304 9.52635
  330 54.3963 -1.77709 -9.56199
  331 161.868 -4.04530 -3.52164
  332 161.896 -3.98641 3.49049
  333 5.52206 -21.1289 -7.29627
  334 5.18785 -21.3229 7.69418
  335 418.241 18.3812 48.4783
  336 628.057 -24.2553 -19.7245
  337 410.754 -22.9030 -1.61359
  338 461.518 -10.7978 -1.04974
  339 491.894 60.9340 -29.2061
  340 101.972 -3.34148 -23.4162
  341 102.111 -3.34482 23.4037
  342 399.806 -21.6789 3.61763
  343 118.565 3.57604 -33.4497
  344 118.795 3.47879 33.3641
  345 24.7198 19.2561 -2.84036
  346 24.9951 19.2568 2.95987
  347 483.192 -50.7859 53.9817
  348 1048.21 68.9018 27.0089
  349 438.948 7.15281 -57.2799
  350 362.714 -32.4202 49.3263
  351 360.879 -31.7368 -50.7042
  352 532.792 -8.17133 77.6353
  353 477.531 -3.11178 56.2148
  354 477.120 -49.0929 -55.5664
  355 289.864 -8.36757 1.16362
  356 289.817 -8.44975 -1.09428
  357 527.808 -34.3235 45.9216
  358 722.853 142.909 0.926313
  359 562.862 -7.03471 -13.8188
  360 154.076 -5.99086 -12.0763
  361 154.152 -5.99699 11.9744
  362 531.636 -48.4786 -66.2461
  363 563.311 40.4959 -76.8725
  364 387.884 20.8555 -31.2214
  365 531.756 -35.1385 -53.0093
  366 -16.8796 0.802883 -13.4616
  367 -16.8973 0.780887 13.4787
  368 446.488 -12.0909 -0.120879
  369 -6.33537 -3.74340 -8.30727
  370 -6.32679 -3.74424 8.28895
  371 342.736 182.803 -271.390
  372 15.3828 14.0774 6.20024
  373 15.7315 14.1831 -6.01260
  374 474.168 -3.28137 -55.7669
  375 264.439 -11.9444 9.01302
  376 264.609 -12.0897 -9.09238
  377 -1.54557 -18.2852 15.3736
  378 -1.51687 -18.2523 -15.3590
  379 280.226 191.175 256.080
  380 217.531 -11.8124 -35.0014
  381 217.714 -11.3338 35.0280
  382 70.5558 53.0052 -53.9269
  383 71.9886 52.8898 53.6477
  384 -24.2392 4.20001 3.78992
  385 -24.1162 4.20736 -3.72204
  386 544.570 37.2597 77.4918
  387 416.820 -43.6451 25.7254
  388 417.274 -38.4501 12.4882
  389 502.743 -56.4475 -12.1460
  390 131.206 15.8933 -45.7889
  391 131.644 15.8715 45.7324
  392 12.0378 -12.0553 3.98009
  393 11.4240 -12.3251 -3.10449
  394 517.038 73.5139 19.0108
  395 511.160 -15.7663 10.8652
  396 298.376 -23.4537 32.7478
  397 187.583 -5.01422 -41.4391
  398 187.670 -5.04969 41.1652
  399 377.053 -12.7560 -2.86293
  400 376.668 -11.3867 2.54423
  401 295.929 -24.0525 -34.5468
  402 232.848 -4.13290 -55.2010
  403 232.830 -4.44653 55.6230
  404 534.154 -48.4283 -29.8894
  405 315.267 -24.7657 21.5448
  406 485.422 -16.0902 5.59190
  407 484.402 -14.8235 -4.41529
  408 409.811 -38.1900 -13.9142
  409 578.041 -3.38646 -3.18868
  410 200.112 83.4926 -156.763
  411 548.857 -8.42547 23.5874
  412 576.885 -3.81952 5.06876
  413 214.819 -11.8060 21.6856
  414 214.890 -11.6519 -21.6705
  415 414.979 -43.1308 -26.4300
  416 62.9180 27.0917 24.1221
  417 62.5889 27.0682 -24.1340
  418 1058.43 68.8493 -54.9640
  419 476.851 -28.1508 -8.90727
  420 581.003 -2.90406 1.83360
  421 189.343 78.2853 149.690
  422 862.338 144.620 30.2219
  423 508.541 -9.12400 -2.59653
  424 385.418 -28.7195 -11.1655
  425 164.274 31.6652 -76.4818
  426 174.817 29.3080 76.0218
  427 471.459 -30.7088 8.82494
  428 503.176 -6.39993 -41.0153
  429 3.62488 -0.525255 9.48579
  430 3.37475 -0.520089 -9.47715
  431 184.720 44.9773 -101.331
  432 185.310 45.1327 101.031
  433 25.6827 10.1392 -11.2841
  434 25.9161 10.1189 11.3761
  435 423.558 -9.79131 0.190767
  436 423.051 -9.57969 -0.0546985
  437 525.621 -24.3242 -36.6135
  438 -0.662328 -0.534236 18.2041
  439 -0.567598 -0.448029 -18.1340
  440 540.818 -52.5227 25.2044
  441 510.374 -14.8547 -9.42374
  442 822.996 157.227 -28.6527
  443 44.0719 -1.56608 4.60121
  444 43.9004 -1.56633 -4.64171
  445 980.528 284.245 132.664
  446 21.2186 17.6682 -33.8010
  447 68.1034 2.81069 -23.0456
  448 68.3224 2.76291 23.0496
  449 979.344 291.263 -129.549
  450 22.4836 19.8875 36.8164
  451 -22.4347 3.13901 0.0336065
  452 -22.2746 3.13458 0.0313810
  453 58.5978 40.2047 -32.9838
  454 59.5701 40.2356 33.1508
  455 648.054 103.282 -49.7748
  456 518.882 -21.0474 -22.7403
  457 578.120 -2.97034 -1.54787
  458 542.638 -8.61115 -27.8888
  459 -5.20336 4.60535 16.5308
  460 -5.10670 4.66149 -16.4639
  461 524.397 -21.7902 26.9432
  462 345.452 -20.3674 -10.4945
  463 344.437 -20.5578 9.38627
  464 464.233 -51.0024 -12.7524
  465 333.754 -3.70871 -107.160
  466 507.710 -7.66880 41.8228
  467 414.208 -14.8383 1.86842
  468 602.532 -42.3929 -14.2711
  469 323.515 3.99495 114.649
  470 33.7948 -0.556531 9.15511
  471 33.5698 -0.546853 -9.17041
  472 667.088 131.699 -20.9486
  473 527.460 -5.28864 -0.0856376
  474 525.725 -5.81618 -0.373935
  475 404.089 -27.8660 6.47532
  476 184.180 -6.48835 -6.90983
  477 184.184 -6.41998 6.84019
  478 110.368 -1.58201 -27.7026
  479 110.504 -1.60333 27.6600
  480 352.404 13.6288 18.7481
  481 94.3930 -3.07798 13.5755
  482 94.2519 -3.05000 -13.6323
  483 96.5508 8.64846 31.3190
  484 96.2354 8.77631 -31.2871
  485 516.125 -40.0458 31.9106
  486 293.594 -18.3421 -52.1570
  487 272.982 -9.66435 4.97487
  488 273.069 -9.87253 -4.97933
  489 296.624 -18.9036 52.1597
  490 801.298 193.125 -25.0405
  491 -12.7898 -1.84510 -10.6326
  492 -12.7814 -1.85532 10.6255
  493 210.834 -6.39301 -2.92716
  494 210.846 -6.30855 2.91770
  495 0.404928 -33.3790 -12.3523
  496 0.320429 -33.4896 12.4671
  497 470.132 -8.61254 0.325016
  498 350.540 16.4010 -9.30906
  499 461.250 48.1466 26.4302
  500 291.222 -2.42510 -86.2946
  501 148.713 -7.65320 20.4704
  502 148.681 -7.59003 -20.4971
  503 -31.3216 1.09522 -3.71335
  504 -31.0994 1.08834 3.74419
  505 558.342 -9.11253 -76.0693
  506 56.6842 0.205526 -3.03536
  507 56.7865 0.212494 3.00152
  508 464.789 -37.2115 -5.94081
  509 494.599 -42.3980 -16.4627
  510 104.734 82.5819 -108.386
  511 415.897 14.1981 -165.892
  512 7.69897 13.2046 6.17034
  513 7.90232 13.2346 -6.05597
  514 260.607 -12.6589 -12.5306
  515 260.492 -12.5551 12.3101
  516 707.104 35.2621 -6.85959
  517 513.814 -30.8053 -29.1582
  518 102.188 78.4474 106.949
  519 508.902 -56.7240 20.1387
  520 490.192 -46.6681 11.4362
  521 114.302 -2.77387 -8.96309
  522 114.388 -2.76427 8.88749
  523 413.468 4.81633 44.4408
  524 296.341 -22.3003 -22.5303
  525 539.555 -12.8955 16.4338
  526 -2.12196 -13.1459 -10.3728
  527 -2.12718 -13.1339 10.3564
  528 382.907 -33.4673 58.2811
  529 576.493 -42.4994 -35.7574
  530 744.618 59.7067 -36.4611
  531 409.474 -15.2976 -1.83088
  532 131.544 -2.54034 -2.56289
  533 131.590 -2.49727 2.54210
  534 262.667 2.43728 83.3236
  535 717.017 124.239 28.6423
  536 716.427 158.858 -259.215
  537 652.698 7.30806 32.0691
  538 473.165 -52.3241 10.3073
  539 1089.90 86.8575 73.9490
  540 818.484 203.603 33.9689
  541 124.692 -5.26882 22.2751
  542 124.588 -5.21832 -22.3034
  543 455.356 -38.2712 3.05261
  544 37.7843 16.7511 -11.0237
  545 38.0484 16.7448 11.1312
  546 569.558 -45.9510 35.9163
  547 475.022 26.2344 65.1139
  548 570.747 -4.15839 9.27753
  549 426.853 -26.5918 -0.451946
  550 589.496 11.3676 -174.847
  551 924.192 255.129 176.505
  552 460.198 -10.5817 -0.0737446
  553 562.017 -6.21698 -15.3823
  554 93.2865 38.4150 -43.9935
  555 93.9501 37.9605 43.8227
  556 327.825 -14.2008 -7.05380
  557 327.685 -13.8966 7.16355
  558 4.25581 -35.1376 -7.05846
  559 576.134 -18.9780 66.5794
  560 24.5620 21.4686 -0.767768
  561 24.9186 21.5309 0.938413
  562 4.92190 -33.7221 8.29810
  563 525.918 -23.7714 -54.8413
  564 604.302 40.1251 -72.0243
  565 602.501 45.2892 72.1330
  566 30.8575 29.0146 25.8552
  567 29.3848 29.5924 -25.3743
  568 -10.0870 0.496830 7.29026
  569 -10.3413 0.502392 -7.27521
  570 550.261 19.7680 179.908
  571 308.996 -17.8439 13.0490
  572 309.290 -17.7830 -13.2344
  573 661.499 -5.85409 -96.1401
  574 97.5050 -1.36926 5.18631
  575 97.4265 -1.38847 -5.23719
  576 52.5713 -1.06355 -1.19576
  577 52.6505 -1.05661 1.18387
  578 730.846 137.216 -21.0145
  579 71.9761 118.203 -118.604
  580 396.936 8.31415 -37.7317
  581 550.326 87.5521 -32.0819
  582 9.07811 1.94828 9.68487
  583 9.41085 2.07305 -9.46217
  584 537.773 268.702 302.418
  585 467.321 -14.3894 -2.22046
  586 21.7123 4.73022 -12.7986
  587 21.9434 4.69632 12.8571
  588 540.230 -42.8382 45.1337
  589 84.8482 114.833 120.762
  590 391.905 -9.71635 0.893058
  591 392.016 -9.64746 -0.894491
  592 -0.240177 -26.8657 13.1433
  593 -0.198109 -26.8230 -13.0999
  594 667.172 128.927 -1.06862
  595 423.379 -33.0319 81.0698
  596 404.888 -18.5466 -2.93869
  597 405.626 21.6070 174.831
  598 -32.7062 1.82669 7.70332
  599 -32.6743 1.83661 -7.66962
  600 660.439 12.3939 -34.8011
  601 867.169 160.352 -128.893
  602 256.516 27.0175 -118.441
  603 143.730 -6.15987 -26.9971
  604 143.873 -6.16297 27.0068
  605 593.558 -2.39825 2.33609
  606 401.078 -18.9124 2.47727
  607 530.610 -8.42815 4.91948
  608 525.900 -23.8367 53.4886
  609 32.7935 -0.898271 4.64964
  610 32.5894 -0.894580 -4.67936
  611 315.720 -12.0128 -4.18536
  612 315.684 -11.7209 4.08973
  613 199.232 4.15759 -56.8609
  614 197.999 4.21702 56.6409
  615 748.414 52.4030 54.0001
  616 1202.96 90.7155 -130.856
  617 -1.60400 -0.791587 6.30228
  618 -1.87054 -0.789120 -6.29894
  619 191.032 -8.25416 12.6192
  620 191.005 -8.24302 -12.7606
  621 700.832 43.3407 16.4353
  622 585.943 -2.79607 -0.739433
  623 584.725 -3.68911 0.222212
  624 438.909 0.149719 43.9276
  625 616.436 -32.7402 -61.0799
  626 341.181 -28.3690 26.7808
  627 -5.50460 7.95660 -5.99194
  628 -5.65684 7.94281 6.08132
  629 543.479 12.1856 80.7881
  630 220.426 -12.9239 -28.4158
  631 220.238 -13.1308 28.4676
  632 441.514 -26.5040 -1.17574
  633 541.750 -12.6326 -14.8123
  634 314.999 -25.2909 -38.7125
  635 516.102 62.3581 -49.1529
  636 346.933 -23.6795 -66.6995
  637 135.703 -3.64812 -4.76482
  638 135.749 -3.60870 4.71241
  639 318.152 -25.7130 38.9165
  640 674.026 111.021 43.2606
  641 537.964 -25.4862 67.4752
  642 440.356 -20.7907 1.48376
  643 318.993 -9.57686 2.38739
  644 318.914 -9.59351 -2.32879
  645 243.589 -9.66134 -9.14176
  646 243.514 -9.56694 9.06226
  647 516.648 -47.1916 -24.0668
  648 267.420 -15.6566 15.9013
  649 267.689 -15.5938 -16.1660
  650 525.472 80.5476 -6.52925
  651 477.598 -26.0070 9.18787
  652 590.950 -3.18228 -3.79774
  653 511.331 -8.79223 -71.6460
  654 81.0420 -3.45814 17.9253
  655 80.8775 -3.43440 -17.9347
  656 578.172 -3.65133 -8.43598
  657 107.628 56.0377 -77.2094
  658 109.435 55.9209 77.5793
  659 590.739 -32.4614 81.6773
  660 208.426 52.9082 124.759
  661 57.5014 -0.472447 17.9127
  662 57.3087 -0.460450 -17.9155
  663 505.100 -30.5187 103.477
  664 495.034 77.6422 -236.185
  665 492.181 16.1929 -71.8978
  666 642.367 116.856 38.2948
  667 433.071 -20.4007 0.429924
  668 774.906 138.056 -3.36063
  669 -33.8921 1.79256 -2.69599
  670 -33.7055 1.78826 2.73860
  671 347.003 2.72616 -124.814
  672 35.4296 -0.535094 3.51462
  673 35.2725 -0.536394 -3.54583
  674 433.391 -35.5528 -80.2320
  675 148.081 19.9581 -55.0661
  676 146.950 20.0414 55.0455
  677 6.49408 7.36861 -5.08283
  678 6.69818 7.36036 5.17249
  679 370.549 -32.4032 -21.0703
  680 522.182 -5.16891 -27.3503
  681 254.453 -8.51103 -3.21808
  682 254.473 -8.42757 3.23966
  683 186.644 -9.71017 -18.5268
  684 186.799 -9.83994 18.4709
  685 36.3345 29.8272 -13.0733
  686 36.9087 29.8986 13.2722
  687 529.362 -7.48265 2.05536
  688 242.950 -15.7548 23.9869
  689 244.431 -15.4940 -23.9731
  690 587.802 -45.2066 -0.529866
  691 486.910 -48.9676 -6.14159
  692 384.922 -12.1546 -1.53925
  693 383.615 -11.4359 1.70726
  694 534.615 -55.1525 34.5453
  695 862.883 175.061 50.4216
  696 470.350 -18.7542 -127.147
  697 538.155 -15.4751 27.5130
  698 537.250 -19.2545 -72.7986
  699 175.058 -5.65741 -8.90799
  700 175.076 -5.61984 8.81472
  701 419.270 -5.11123 142.052
  702 1142.36 147.855 135.168
  703 84.7934 24.0059 -32.9526
  704 84.9233 24.1696 33.0570
  705 527.324 -6.32342 -0.976254
  706 531.354 -5.75237 1.01104
  707 227.941 120.674 -199.815
  708 562.296 -3.44113 15.5067
  709 486.604 -9.68233 1.14980
  710 646.857 127.384 -13.7588
  711 70.5512 11.8266 -24.2576
  712 70.8499 11.7544 24.3451
  713 597.487 -1.93529 0.270608
  714 490.346 -19.9538 -9.41667
  715 610.603 -7.26898 56.7576
  716 255.956 -18.1282 -36.6547
  717 256.591 -17.3772 36.3484
  718 65.6925 -2.09601 13.5564
  719 65.5100 -2.07088 -13.5856
  720 550.241 -4.75900 -2.15730
  721 475.152 100.765 249.961
  722 4.52762 5.06762 14.3571
  723 4.70770 5.17906 -14.2336
  724 552.576 -6.86050 -6.40545
  725 537.657 -10.8432 9.25263
  726 436.982 0.662765 -47.1139
  727 4.38479 -46.4505 -5.05378
  728 4.11739 -46.9358 5.54384
  729 200.619 54.6336 -124.828
  730 432.838 -42.8189 -59.0932
  731 226.670 119.483 201.555
  732 590.561 -2.03061 1.28412
  733 581.636 87.4086 50.8383
  734 431.851 38.9958 -18.4536
  735 754.705 151.992 5.25485
  736 585.019 -2.94958 5.26554
  737 -30.1512 0.847415 5.22433
  738 -30.3981 0.852014 -5.20395
  739 624.649 -32.7410 23.1234
  740 408.645 -13.0669 -1.95702
  741 153.644 -0.0597760 -39.8305
  742 153.854 -0.207416 39.6318
  743 536.725 -7.35716 -3.27427
  744 942.978 133.250 -50.1330
  745 73.5568 -2.02948 -8.74910
  746 73.7144 -2.04088 8.69703
  747 594.717 -2.10816 -2.31935
  748 128.530 -5.67081 -12.1564
  749 128.627 -5.69061 12.0786
  750 588.384 -21.9527 -59.1976
  751 544.374 -5.90649 21.7669
  752 493.531 -2.66611 71.1427
  753 594.855 -2.18366 0.218226
  754 558.475 -5.17235 4.76692
  755 371.559 -20.8921 -6.71690
  756 461.497 -13.4298 1.30256
  757 525.318 -32.3595 -44.7203
  758 511.950 -32.5737 27.8918
  759 602.295 74.0046 -63.7658
  760 504.698 -28.9555 19.9870
  761 534.309 -31.2863 57.9521
  762 314.021 -21.8189 17.0296
  763 12.0367 0.164485 1.59296
  764 11.4399 0.120520 -1.02639
  765 466.421 -8.44522 -0.274991
  766 465.460 -8.39729 0.106356
  767 554.610 -3.49709 -0.171860
  768 556.436 -3.39729 0.295947
  769 534.061 -15.2834 34.2167
  770 492.475 -43.8693 76.2655
  771 407.248 -33.6026 9.89096
  772 363.076 -22.4990 9.45044
  773 960.891 122.758 57.4468
  774 538.300 -14.3151 -21.2715
  775 318.491 58.0005 -186.942
  776 501.318 -25.5492 -17.0726
  777 26.0413 0.306383 -13.2349
  778 26.2712 0.288128 13.2556
  779 457.571 40.1762 -41.3218
  780 1109.90 33.6548 -14.2808
  781 566.578 15.7828 -78.3972
  782 23.6382 25.3577 -48.6347
  783 586.634 104.844 12.8901
  784 454.408 -29.7161 3.58410
  785 512.895 -12.3602 69.4155
  786 430.723 -44.6430 59.4091
  787 678.506 2.28992 116.596
  788 25.4458 30.5756 51.7088
  789 313.840 -1.35089 98.2371
  790 434.264 -12.5437 0.396748
  791 483.241 -42.0322 -77.1454
  792 301.416 -23.8037 -27.8645
  793 238.713 11.6041 -86.4908
  794 561.012 -7.66909 76.7714
  795 362.630 -25.3975 14.1338
  796 78.9302 -2.09318 7.64949
  797 78.8055 -2.09530 -7.70974
  798 523.751 -2.97769 24.1865
  799 479.274 2.90220 -69.4001
  800 -40.1519 1.93109 4.55762
  801 -40.0909 1.93502 -4.52025
  802 353.077 -12.1947 -2.71974
  803 352.101 -11.6061 2.60196
  804 262.946 30.1657 120.047
  805 237.654 -14.2382 18.3729
  806 237.956 -13.9087 -18.5360
  807 594.125 -1.65015 -1.14243
  808 215.470 17.2064 84.4473
  809 16.3687 -0.202790 4.87681
  810 16.1234 -0.198472 -4.89370
  811 517.689 -15.8494 53.3819
  812 545.641 -5.67471 1.61317
  813 -29.1712 0.439426 7.89620
  814 -29.1792 0.449269 -7.88013
  815 342.397 -21.1598 74.4385
  816 68.4520 59.2710 -66.3054
  817 69.2598 56.7500 65.3749
  818 335.525 14.6395 7.78180
  819 2.78196 -0.408873 -5.56771
  820 3.05190 -0.412283 5.56462
  821 392.330 -36.9319 -55.7797
  822 531.422 -55.0719 -12.0672
  823 -2.69084 -2.55018 -3.41366
  824 -2.68254 -2.54384 3.40064
  825 40.2636 0.855808 -1.20276
  826 40.3568 0.860680 1.18482
  827 473.956 -42.4785 7.22719
  828 400.865 -40.8748 40.2077
  829 441.521 -8.91329 0.202877
  830 399.943 -32.8209 -11.3241
  831 154.797 -2.81816 -1.02541
  832 154.832 -2.76166 1.01250
  833 -44.9104 0.974736 2.38469
  834 -44.8090 0.973595 -2.34759
  835 496.006 -7.80380 -1.23722
  836 449.680 18.1163 -59.3012
  837 501.964 -11.2302 -4.63441
  838 302.065 -23.4379 26.6676
  839 502.401 -8.57586 -56.8925
  840 533.457 -16.5760 -35.3326
  841 497.907 -6.90269 1.07980
  842 367.725 -13.1922 100.637
  843 392.886 -38.5806 -24.3608
  844 239.889 -1.81620 -67.0480
  845 241.176 -0.152180 67.3956
  846 336.734 -25.7802 -18.4504
  847 556.181 61.0481 67.1708
  848 522.885 -53.1422 -44.7930
  849 196.708 -6.54181 -4.59735
  850 196.708 -6.45509 4.55956
  851 402.220 -10.5432 1.12384
  852 402.244 -10.6179 -1.03917
  853 482.085 -3.48412 -37.3571
  854 168.679 -7.26187 -14.9966
  855 168.781 -7.31453 14.8902
  856 2.08233 -48.1302 -9.08242
  857 1.97801 -48.3405 9.28605
  858 91.8975 -1.33422 -0.131443
  859 91.8318 -1.35832 0.115961
  860 492.652 -9.09429 -1.70376
  861 378.541 -36.1268 36.5711
  862 581.061 -48.2099 12.1484
  863 355.379 7.42115 29.7854
  864 503.828 -13.0870 5.40384
  865 551.484 -48.5587 -33.3998
  866 85.3044 4.92955 -27.2107
  867 85.5530 4.84592 27.2058
  868 439.341 -9.45225 -0.170948
  869 357.181 -13.5533 -4.69166
  870 355.995 -13.4496 5.01088
  871 551.647 85.7073 36.1819
  872 195.248 -2.19008 -47.6363
  873 195.091 -2.41094 47.4563
  874 382.059 -34.8993 20.0130
  875 39.6505 24.8559 -11.4666
  876 40.0205 24.8138 11.5767
  877 324.457 -22.9690 61.2914
  878 387.248 -25.5176 -7.34582
  879 484.667 -3.61372 37.7423
  880 472.744 -52.7734 22.7849
  881 541.010 -40.6045 -49.1232
  882 377.613 -36.4189 -37.0177
  883 316.204 -21.7396 -16.3985
  884 1000.76 81.7950 -15.6607
  885 494.778 -52.1885 2.83247
  886 16.3415 17.2009 3.55862
  887 16.6046 17.2372 -3.41885
  888 431.618 -43.4256 13.0277
  889 471.950 -52.4722 -36.1743
  890 17.9467 14.6996 -1.80311
  891 18.1794 14.7066 1.91139
  892 183.691 -6.76166 36.5953
  893 183.777 -6.95080 -36.7844
  894 220.771 -11.3652 40.0530
  895 220.674 -11.6206 -40.2933
  896 681.809 136.573 15.7668
  897 -0.938531 -21.0578 -9.99024
  898 -0.945612 -21.0295 9.98171
  899 161.524 13.2964 -52.4449
  900 160.773 13.0337 51.9810
  901 1146.00 37.1083 -57.3796
  902 33.9777 -0.158661 2.02086
  903 33.8487 -0.162420 -2.04544
  904 2.26321 -52.8562 1.63317
  905 2.61075 -51.8963 -0.822158
  906 -22.5309 -0.222629 8.25492
  907 -22.5589 -0.215471 -8.25296
  908 129.332 37.7698 -61.4974
  909 131.311 36.5135 60.6887
  910 -9.20871 0.849575 -17.0468
  911 -9.25757 0.808682 17.0772
  912 41.4844 3.12331 -18.0698
  913 41.7190 3.08202 18.0995
  914 142.414 -1.90617 33.8479
  915 142.302 -1.89872 -33.9939
  916 117.998 -4.15248 -27.4058
  917 118.127 -4.14651 27.3735
  918 581.510 -2.45803 -8.43673
  919 287.922 63.7982 174.367
  920 396.703 -39.3121 23.0936
  921 285.156 -20.8033 21.7984
  922 544.468 56.7253 -66.6351
  923 1127.25 23.9865 23.0479
  924 637.936 31.7030 -59.9676
  925 114.244 -4.34613 17.2763
  926 114.119 -4.29872 -17.3303
  927 25.9673 -0.686504 -12.7144
  928 26.1957 -0.692473 12.7180
  929 0.0909290 -9.08904 -18.3363
  930 0.00651861 -9.17341 18.3990
  931 294.633 -13.6721 10.1811
  932 294.773 -13.9175 -10.2201
  933 39.4970 9.50284 -16.5327
  934 39.7458 9.46171 16.6138
  935 182.674 -8.33590 -31.2787
  936 182.807 -8.33883 31.2662
  937 392.064 -1.30518 -34.9731
  938 188.827 -10.4083 -22.0853
  939 188.720 -10.3062 22.1543
  940 442.702 -13.6534 0.470077
  941 536.040 -30.1655 -62.5487
  942 240.343 -10.1805 10.5989
  943 240.440 -10.2655 -10.7176
  944 -9.82592 -1.01547 -5.94229
  945 -9.79795 -1.01789 5.92887
  946 542.720 -39.4059 -93.5698
  947 521.950 -30.7916 38.4988
  948 458.719 -32.7024 -5.43026
  949 454.914 16.0582 62.4202
  950 209.501 -11.9853 -24.7858
  951 209.522 -11.7713 24.8565
  952 504.566 20.0360 74.8926
  953 474.245 41.5765 49.3817
  954 938.728 112.172 20.0935
  955 486.313 -18.4748 6.38684
  956 262.643 -8.46061 -4.80112
  957 262.621 -8.31344 4.83526
  958 437.750 -36.3676 2.35863
  959 607.851 111.257 -29.6913
  960 529.488 -6.80291 -2.13687
  961 353.825 -9.78619 1.60489
  962 353.698 -9.71951 -1.50764
  963 46.9792 40.3649 -30.6668
  964 48.1222 40.3162 30.8771
  965 84.2070 234.659 -193.471
  966 503.526 -11.5833 56.5265
  967 620.329 -9.16502 -49.5290
  968 -7.81028 6.14397 1.77213
  969 -7.64272 6.14407 -1.68700
  970 1229.21 298.545 -235.877
  971 532.085 -56.9967 0.474845
  972 566.062 -50.5769 -28.6074
  973 524.602 -44.7299 33.8258
  974 652.094 127.592 11.4414
  975 49.0412 55.3265 -62.0665
  976 120.375 204.658 191.360
  977 -2.69634 -6.69299 18.5664
  978 -2.64412 -6.63110 -18.5354
  979 508.624 -14.0405 7.00743
  980 815.600 143.389 -19.3971
  981 50.4191 54.2110 64.3312
  982 -2.21995 -7.68148 -6.60809
  983 -2.22012 -7.65938 6.59016
  984 438.407 -11.4871 -0.766200
  985 331.003 -26.5813 -29.1549
  986 528.820 -41.5300 -41.1531
  987 154.397 41.6415 -80.1878
  988 156.831 42.3143 80.3899
  989 516.021 -12.7047 -50.1107
  990 516.039 -17.1985 14.4190
  991 -12.8522 3.87444 14.7122
  992 -12.7829 3.91125 -14.6617
  993 316.153 -20.7680 -57.8412
  994 523.238 34.1935 -74.7305
  995 387.702 -15.6089 3.19175
  996 282.849 -8.81386 0.996538
  997 282.793 -8.86384 -0.965306
  998 -5.68109 -6.46938 -13.5859
  999 -5.68885 -6.48333 13.5732
  1000 523.048 -19.3726 -18.2316
  1001 496.775 -6.80162 0.266310
  1002 496.321 -6.80973 -0.0726915
  1003 688.859 114.988 -38.8432
  1004 129.606 10.8006 -41.8600
  1005 129.929 10.5859 41.7829
  1006 86.0522 -0.980989 -22.8814
  1007 86.2168 -0.997552 22.8632
  1008 570.583 31.8226 79.3112
  1009 535.001 -10.9710 -9.71801
  1010 99.6567 15.1529 -34.5944
  1011 100.045 15.0432 34.7183
  1012 555.407 -3.88705 -1.32547
  1013 523.407 -23.1006 -28.6970
  1014 511.181 -56.7706 -27.0112
  1015 21.0895 19.0967 2.61462
  1016 20.5406 19.0064 -2.36404
  1017 -23.3359 4.23117 8.30192
  1018 -23.2458 4.24344 -8.24043
  1019 325.015 11.9265 -13.0051
  1020 876.781 221.622 -67.3909
  1021 406.693 -30.2964 -5.88033
  1022 272.020 -11.9080 -59.3774
  1023 644.345 -22.8340 -1.51673
  1024 273.077 -11.8806 60.1736
  1025 465.747 -53.5074 41.4130
  1026 527.683 -21.9097 -44.6652
  1027 188.896 -4.72483 -1.46791
  1028 188.922 -4.65244 1.46010
  1029 363.408 -28.8832 -16.6769
  1030 225.940 -8.62829 -46.8352
  1031 225.876 -8.69325 46.6272
  1032 76.2949 50.2709 -51.1244
  1033 77.4706 50.1518 51.2777
  1034 160.666 -5.21528 -5.16542
  1035 160.692 -5.15684 5.11050
  1036 468.538 -15.9869 2.60714
  1037 396.945 3.34292 -143.603
  1038 485.269 -16.8065 -6.45737
  1039 440.494 -48.5299 -26.5277
  1040 293.959 -13.0741 7.17703
  1041 294.184 -13.1637 -7.19306
  1042 562.876 -4.28328 1.67734
  1043 506.632 -13.1080 -6.54205
  1044 341.188 8.42574 24.5949
  1045 545.070 -5.47227 -20.2779
  1046 214.639 64.2295 140.999
  1047 559.574 -5.38842 -16.4601
  1048 151.161 25.1947 -61.1340
  1049 146.817 25.4643 58.7861
  1050 665.571 -7.59851 -0.661976
  1051 64.0486 32.7716 -27.8871
  1052 64.6190 32.5459 27.8905
  1053 11.2836 1.79964 3.72462
  1054 11.8048 1.90115 -3.38179
  1055 96.5772 -2.48900 6.11545
  1056 96.4819 -2.50363 -6.17887
  1057 243.409 64.9368 -155.548
  1058 1265.47 340.458 253.940
  1059 521.516 -19.3503 18.6906
  1060 469.886 -52.4105 -20.9199
  1061 329.892 -27.1662 -45.5074
  1062 -5.24109 7.71604 12.1526
  1063 -5.11394 7.75814 -12.0667
  1064 371.106 -19.9745 5.63129
  1065 407.731 -16.2389 2.10389
  1066 -0.148739 -29.7703 9.56525
  1067 -0.138697 -29.8036 -9.56387
  1068 64.1779 39.4379 -32.7517
  1069 64.9148 39.3756 32.9365
  1070 366.338 -18.4670 -5.41727
  1071 32.2863 13.5268 11.3377
  1072 32.0409 13.5425 -11.2360
  1073 555.274 -20.9875 72.6472
  1074 403.760 -41.6373 -40.0062
  1075 331.815 -27.5986 45.5096
  1076 530.812 -9.77446 -77.4073
  1077 553.290 -6.89056 7.03102
  1078 206.173 32.0111 95.8028
  1079 207.639 30.6217 -94.2495
  1080 329.056 -15.5876 -80.9466
  1081 461.162 -17.6078 -2.45683
  1082 377.865 -23.4641 9.18566
  1083 440.676 -41.4551 -5.60333
  1084 596.129 -2.45438 -4.12821
  1085 329.556 -15.9459 8.24418
  1086 329.416 -16.8008 -8.41454
  1087 12.4550 14.2153 8.79035
  1088 12.7258 14.3165 -8.63366
  1089 536.043 20.7166 -80.2187
  1090 124.954 5.91387 -37.1569
  1091 125.287 5.78070 37.0723
  1092 95.6688 1.51109 -27.0370
  1093 95.8765 1.46087 27.0008
  1094 602.877 -19.6862 116.695
  1095 526.884 -24.3751 43.8386
  1096 262.529 -12.1876 -50.8190
  1097 604.317 -2.66302 -2.44610
  1098 687.223 130.986 -28.9122
  1099 551.874 -6.13272 -4.16230
  1100 521.286 -55.6577 11.9148
  1101 388.477 -28.9350 71.6132
  1102 607.230 -1.09925 0.294975
  1103 340.578 10.5193 -20.8301
  1104 443.686 -47.4358 -14.7177
  1105 262.965 -12.7278 50.3220
  1106 447.692 -41.1026 3.05971
  1107 553.757 -8.55255 14.0901
  1108 410.389 25.9676 32.2258
  1109 281.983 -20.9079 -41.1035
  1110 827.500 128.410 -59.9255
  1111 630.657 30.9741 63.5579
  1112 480.927 59.9497 7.82312
  1113 602.299 -0.247928 2.03575
  1114 246.164 -15.6247 -31.9780
  1115 167.289 106.573 -156.920
  1116 296.911 8.77535 -113.416
  1117 340.630 -26.6362 21.4128
  1118 289.162 -21.8311 38.7889
  1119 245.619 -14.8897 32.2700
  1120 510.847 5.22839 78.4840
  1121 385.130 -14.5681 -2.72213
  1122 595.097 -4.71078 5.75644
  1123 -4.07801 0.238791 18.3384
  1124 -4.00581 0.301860 -18.2909
  1125 402.596 -12.7499 1.65625
  1126 0.690352 5.46017 15.9827
  1127 0.821733 5.54360 -15.8904
  1128 232.218 -7.80100 5.69316
  1129 232.225 -7.91097 -5.69870
  1130 564.377 -3.21711 13.6549
  1131 456.032 -28.7095 -4.12721
  1132 427.900 -23.8303 0.859539
  1133 477.344 -33.9780 11.7011
  1134 149.119 75.6969 -118.241
  1135 467.402 -18.7995 3.89119
  1136 76.1845 1.09803 -22.3217
  1137 76.3819 1.06312 22.3128
  1138 100.851 65.9523 -84.6351
  1139 741.602 102.812 13.4372
  1140 61.7022 -2.61995 13.1465
  1141 61.5121 -2.59940 -13.1612
  1142 102.650 65.0398 81.9179
  1143 429.825 -36.4717 -4.08168
  1144 223.742 -10.8110 12.8730
  1145 223.765 -10.8548 -13.0489
  1146 866.177 184.634 -53.7655
  1147 472.382 -47.3515 -1.61416
  1148 164.940 100.091 156.659
  1149 14.8769 2.12808 -15.8692
  1150 15.9654 2.31854 17.1361
  1151 504.496 63.2157 39.2185
  1152 40.6211 20.8598 -11.8147
  1153 40.9311 20.8696 11.9073
  1154 475.385 -41.6582 -7.95927
  1155 -0.203772 -45.6598 -8.83590
  1156 -0.225173 -45.6610 8.87618
  1157 507.442 -42.8940 -22.5569
  1158 1.49131 0.581179 4.33873
  1159 1.21762 0.585109 -4.34638
  1160 81.7807 29.7768 -34.9931
  1161 82.2168 29.9089 34.7131
  1162 -18.9785 0.0413646 -5.31540
  1163 -18.7010 0.0395594 5.32175
  1164 504.016 -6.80507 -0.171007
  1165 -48.0926 1.49477 0.248425
  1166 -47.9518 1.49422 -0.213934
  1167 273.222 -21.6946 -31.0748
  1168 7.47205 -58.9592 -8.97497
  1169 143.385 -4.17075 9.65157
  1170 143.321 -4.18320 -9.74120
  1171 431.319 -9.64491 0.892789
  1172 432.120 -9.43497 -0.810944
  1173 8.02723 -55.8376 10.5559
  1174 510.287 -27.2082 -23.2796
  1175 579.205 -3.00293 9.83223
  1176 518.899 -33.4436 -35.1513
  1177 460.235 3.73106 61.9354
  1178 2.79978 -16.5964 12.6226
  1179 3.02391 -16.4549 -12.3910
  1180 336.084 -25.0056 17.5442
  1181 -21.9490 2.24446 11.8256
  1182 -21.9081 2.26298 -11.7886
  1183 855.300 135.033 9.85889
  1184 982.290 325.149 -228.077
  1185 530.182 -51.0470 28.3949
  1186 226.664 -7.08571 -0.956378
  1187 226.688 -7.00940 0.957287
  1188 1064.77 103.486 -96.1837
  1189 86.3921 -2.19608 13.6290
  1190 86.2344 -2.16442 -13.6712
  1191 499.699 -1.61977 -24.3111
  1192 322.694 -26.3268 35.0003
  1193 524.367 -50.9545 -19.2439
  1194 507.907 -37.1558 -26.4119
  1195 313.812 -10.6650 84.6950
  1196 119.723 21.7615 -46.9787
  1197 119.671 21.5710 46.7374
  1198 155.468 58.1350 -100.998
  1199 155.703 53.8842 101.014
  1200 47.7702 12.8003 -17.5962
  1201 48.0378 12.7647 17.6935
  1202 628.790 109.667 -43.1243
  1203 34.6314 32.0921 -16.9193
  1204 35.3972 32.1505 17.1526
  1205 452.999 -35.3083 2.64099
  1206 830.897 133.186 66.4318
  1207 116.910 -4.75078 -9.51951
  1208 117.006 -4.74975 9.44066
  1209 533.383 402.657 -329.793
  1210 433.060 25.9595 -49.5949
  1211 400.561 30.4501 20.3417
  1212 57.8753 23.3039 -20.7469
  1213 58.1413 23.3083 20.8514
  1214 22.2414 -0.130155 3.15836
  1215 22.0466 -0.129978 -3.18211
  1216 500.733 -40.4268 20.9795
  1217 491.638 -20.6683 10.5611
  1218 337.788 102.009 -240.373
  1219 773.479 169.657 -14.0987
  1220 336.918 -9.64951 -92.8807
  1221 433.327 -14.6280 -1.10764
  1222 34.7347 -2.09656 -0.683928
  1223 34.8080 -2.09476 0.680175
  1224 -6.61490 3.41908 -7.89768
  1225 -6.39703 3.40559 7.95155
  1226 293.930 3.73093 -97.4941
  1227 531.804 -12.6120 12.8451
  1228 349.924 7.86597 131.566
  1229 470.887 -24.2369 -7.03284
  1230 245.790 90.7799 -190.815
  1231 379.903 -17.5176 -99.9866
  1232 451.031 -48.1390 12.2204
  1233 548.786 -9.18474 21.9474
  1234 481.641 -11.4135 -2.06112
  1235 272.135 -20.4092 31.2340
  1236 603.438 -31.9231 -37.3210
  1237 577.313 51.3883 74.9334
  1238 254.976 1.30456 -77.8398
  1239 565.791 -4.43546 1.37672
  1240 469.551 58.0474 -11.1932
  1241 207.414 -7.58712 -9.43646
  1242 207.389 -7.51571 9.34826
  1243 865.644 209.837 60.4450
  1244 1166.33 30.9697 53.7073
  1245 1.13833 -55.5397 -8.72600
  1246 1.10342 -55.5958 8.79493
  1247 133.148 72.0509 111.037
  1248 314.667 -10.2026 -2.45617
  1249 314.734 -10.1493 2.56855
  1250 426.208 -43.0694 -15.4115
  1251 512.056 42.6015 67.8152
  1252 527.120 -11.4560 -7.78837
  1253 606.151 -1.97650 -0.626499
  1254 1047.62 235.163 -149.954
  1255 174.209 -6.71319 9.96953
  1256 174.178 -6.72554 -10.0782
  1257 507.981 -47.1049 21.2194
  1258 879.826 225.456 -77.6997
  1259 492.095 -22.4202 -12.0607
  1260 363.311 -25.9441 -13.0931
  1261 443.303 -47.9855 25.9800
  1262 433.398 -22.7044 0.146030
  1263 17.1587 10.2227 -23.7506
  1264 589.259 -34.2250 46.0053
  1265 479.033 -32.0207 -11.4895
  1266 18.8297 11.0511 25.9199
  1267 491.597 -37.3274 -94.4090
  1268 463.718 32.9480 -196.814
  1269 759.023 102.789 -5.74880
  1270 608.302 -0.836836 -0.156494
  1271 607.316 -1.39138 0.502690
  1272 486.967 -29.1666 12.9744
  1273 192.250 22.9059 -76.8855
  1274 553.941 -48.3290 36.6139
  1275 932.415 215.243 102.888
  1276 236.369 84.2207 186.127
  1277 7.46151 2.48941 12.5204
  1278 7.70933 2.61466 -12.3498
  1279 579.533 -44.3818 -53.7371
  1280 240.991 -13.5453 -15.3209
  1281 240.963 -13.5815 15.0867
  1282 543.046 -35.1769 59.4390
  1283 26.5094 0.0549467 14.1857
  1284 26.2828 0.0655534 -14.1767
  1285 -2.76756 -11.0575 15.5461
  1286 -2.74761 -11.0339 -15.5505
  1287 105.378 -3.57571 -12.4218
  1288 105.501 -3.59605 12.3547
  1289 290.038 -19.5053 -46.3652
  1290 292.951 -10.5146 3.41041
  1291 292.936 -10.7177 -3.30409
  1292 606.656 -0.815923 0.290074
  1293 545.925 -8.81634 -24.8068
  1294 50.5619 1.85752 -18.0865
  1295 50.7809 1.82675 18.0986
  1296 291.185 -20.6056 46.0515
  1297 611.823 -0.901410 0.311418
  1298 579.840 -1.30783 -0.670648
  1299 579.780 -1.66072 0.531485
  1300 771.468 166.945 -0.710370
  1301 566.729 -4.73118 -3.32307
  1302 505.475 -6.50032 -0.00445865
  1303 559.649 -9.18290 -12.4482
  1304 604.124 -2.31390 1.57080
  1305 638.401 68.0531 62.9486
  1306 737.812 155.775 10.3306
  1307 589.977 -2.66008 -6.41108
  1308 -5.00846 -1.23177 4.46887
  1309 -5.02890 -1.23099 -4.48300
  1310 334.889 -21.8338 12.5805
  1311 334.830 -20.9167 -12.2722
  1312 644.140 75.2632 -59.4058
  1313 138.412 48.0250 -84.1462
  1314 139.298 46.7525 83.2948
  1315 443.296 0.152078 -30.9940
  1316 447.382 -8.62627 -0.878162
  1317 446.838 -8.56918 0.783720
  1318 -10.4371 -1.53376 15.7665
  1319 -10.4183 -1.50414 -15.7617
  1320 501.114 -1.32232 24.2590
  1321 754.564 149.887 -5.99426
  1322 63.4606 -2.09973 -7.81726
  1323 63.6161 -2.10452 7.76440
  1324 557.041 -52.4283 17.3487
  1325 2.43650 10.0258 12.1164
  1326 2.60153 10.0857 -12.0092
  1327 113.117 -2.56267 -2.72137
  1328 113.177 -2.52680 2.68578
  1329 443.379 -0.497301 31.4778
  1330 29.5641 0.890685 -1.23360
  1331 29.6739 0.894108 1.21556
  1332 563.520 -7.29294 7.73223
  1333 789.024 142.584 9.37240
</Section>

newXOutput 73

<Section columns = "stress_xx | stress_yy | stress_xy">
  1 628.813 -1.93778 1.14994
  2 629.728 -2.38839 -1.49218
  3 24.3910 0.571923 -1.58532
  4 -0.492695 -0.724408 -0.501669
  5 1129.22 479.249 377.302
  6 1146.59 546.370 -380.825
  7 -0.487550 -0.719870 0.495022
  8 24.3162 0.568668 1.58172
  9 632.900 -1.39132 -1.04021
  10 628.589 -2.39001 -1.54368
  11 629.272 -1.91306 1.23911
  12 626.633 -1.18903 0.399785
  13 625.759 -2.25297 -0.593937
  14 625.352 -2.19106 2.16995
  15 617.303 -1.64307 1.94718
  16 620.184 -4.55437 3.20944
  17 602.437 -3.84907 7.16473
  18 591.497 -1.86336 8.65747
  19 576.154 -2.17717 9.41498
  20 549.057 -1.94013 13.3896
  21 519.202 -1.58971 15.6732
  22 481.550 2.04692 21.6986
  23 429.598 3.19385 19.7452
  24 408.519 0.00779869 28.3923
  25 343.078 4.85740 20.2656
  26 302.908 6.28521 15.9558
  27 292.434 3.32837 11.7944
  28 281.208 9.24340 0.903353
  29 287.383 9.86979 -15.7976
  30 299.638 2.95186 -19.8023
  31 348.984 1.47125 -26.3384
  32 398.368 -2.35418 -27.1486
  33 431.447 2.65602 -19.6968
  34 482.084 2.31794 -21.6892
  35 517.937 -1.87118 -16.8181
  36 551.977 -2.12177 -12.6061
  37 574.048 -1.64086 -9.57271
  38 589.788 -1.99425 -7.88798
  39 606.805 -2.26701 -4.49356
  40 613.064 -2.42976 -4.24418
  41 619.255 -2.27937 -3.78192
  42 625.465 -2.56458 -0.556694
  43 627.712 -3.19790 -1.47329
  44 623.864 -0.120335 0.102762
  45 628.532 -1.78241 -1.42467
  46 630.816 -3.40977 1.68320
  47 633.615 -2.00835 -0.0547762
  48 603.368 -0.153226 -0.950167
  49 569.326 -3.25777 -1.75581
  50 530.535 -6.67358 -2.42280
  51 490.171 -5.96585 -1.74122
  52 454.768 -8.90562 -1.59284
  53 417.249 -9.56164 -1.42673
  54 379.275 -8.47047 -0.613696
  55 339.200 -8.90626 -0.894138
  56 305.231 -9.22343 -1.21678
  57 259.926 -8.69175 -0.949132
  58 213.240 -5.58366 -0.607742
  59 174.592 -3.61489 -0.461017
  60 126.850 -2.27179 -0.102165
  61 92.2088 -2.07018 -2.31892
  62 60.0879 -2.69390 -0.716273
  63 27.6644 0.301100 1.54303
  64 19.0500 2.24707 0.687948
  65 16.4093 0.905532 1.68416
  66 17.1503 0.407075 1.72565
  67 9.83782 1.28777 0.946571
  68 6.71187 1.70037 3.51933
  69 4.76248 0.607985 1.52745
  70 -7.51194 1.28448 1.64379
  71 -13.6321 0.864538 3.44742
  72 -16.7854 0.264406 3.66028
  73 -30.5917 1.18570 3.02177
  74 -36.2199 1.79651 5.32887
  75 -42.8041 1.09102 2.31071
  76 -49.8850 0.803093 3.11107
  77 -53.5033 0.847295 1.55090
  78 -60.6635 2.12121 -0.927413
  79 -62.2300 1.45205 -0.657489
  80 -57.3963 1.07483 -1.66523
  81 -49.7612 1.45268 -3.56580
  82 -40.8772 0.679846 -5.72219
  83 -30.7698 0.388405 -6.07524
  84 -18.5809 -0.574127 -6.42860
  85 -8.21727 -0.471989 -3.81446
  86 -3.48997 -1.33165 -2.40660
  87 -0.555778 -3.47861 -2.10637
  88 -0.910082 -8.88912 -3.67639
  89 -1.04820 -17.0897 -6.36424
  90 -0.161135 -31.8304 -6.78243
  91 0.427066 -43.6530 -8.42365
  92 0.940877 -62.5353 -6.82736
  93 2.81025 -73.7143 -7.95770
  94 0.571916 -78.2601 -6.28219
  95 -0.0320020 -88.5106 -3.23329
  96 2.54543 -83.3178 0.381437
  97 10.4565 -106.932 6.57389
  98 9.86031 -49.4073 19.1295
  99 22.8681 -8.11393 40.0585
  100 66.8222 136.131 116.881
  101 273.206 390.776 315.648
  102 1478.72 162.064 217.761
  103 1247.84 44.3966 78.2954
  104 1190.22 18.9409 26.8610
  105 1158.69 12.2961 -0.153132
  106 1178.98 18.0429 -22.1562
  107 1258.79 37.8820 -64.6409
  108 1463.38 127.879 -202.084
  109 177.940 442.041 -261.132
  110 47.0765 107.003 -91.3180
  111 16.9189 -19.1567 -33.7982
  112 8.94844 -55.8685 -16.7687
  113 10.3892 -111.541 -5.43602
  114 2.42644 -85.3472 0.415128
  115 -0.183102 -89.5194 3.64687
  116 0.476179 -78.6436 6.50306
  117 2.75759 -73.7959 8.05036
  118 0.920711 -62.4906 6.86104
  119 0.411904 -43.5845 8.43495
  120 -0.168535 -31.7470 6.77738
  121 -1.04900 -17.0370 6.34984
  122 -0.912035 -8.84441 3.66316
  123 -0.555324 -3.46184 2.09480
  124 -3.46989 -1.32964 2.39685
  125 -8.18142 -0.474177 3.80383
  126 -18.5342 -0.579362 6.42189
  127 -30.7151 0.382527 6.07618
  128 -40.8451 0.673397 5.73301
  129 -49.7707 1.44800 3.58760
  130 -57.4487 1.07438 1.68892
  131 -62.3385 1.45059 0.680755
  132 -60.8188 2.12073 0.951751
  133 -53.7125 0.849406 -1.52940
  134 -50.1351 0.805699 -3.09485
  135 -43.0750 1.09404 -2.29760
  136 -36.5150 1.80014 -5.32288
  137 -30.8964 1.18916 -3.01673
  138 -17.0882 0.266510 -3.66019
  139 -13.9377 0.868215 -3.45136
  140 -7.80537 1.28962 -1.64993
  141 4.50094 0.611363 -1.53966
  142 6.48195 1.70397 -3.53810
  143 9.63659 1.28884 -0.963107
  144 16.9938 0.406425 -1.74190
  145 16.2853 0.903961 -1.69728
  146 18.9481 2.24439 -0.699275
  147 27.5821 0.299205 -1.54974
  148 60.0135 -2.70390 0.709577
  149 92.1413 -2.09482 2.31170
  150 126.798 -2.31530 0.0924139
  151 174.560 -3.67771 0.456065
  152 213.213 -5.65630 0.607156
  153 259.889 -8.75423 0.959326
  154 305.154 -9.25349 1.23768
  155 339.079 -8.86448 0.943093
  156 379.110 -8.32343 0.669348
  157 417.026 -9.21797 1.34406
  158 454.970 -9.00752 1.39024
  159 490.326 -6.58025 1.84189
  160 530.940 -6.56208 2.19223
  161 570.414 -2.93365 1.78054
  162 602.472 -0.191092 0.926742
  163 359.342 -32.5950 -33.4875
  164 357.953 -33.1928 33.4056
  165 111.322 30.2569 -47.0150
  166 112.405 30.3608 46.8306
  167 421.086 -18.6868 113.259
  168 440.870 -21.2325 -110.308
  169 213.177 -11.4617 15.7756
  170 213.141 -11.3525 -15.9664
  171 449.182 -16.9614 0.159671
  172 440.532 -17.0086 0.0161617
  173 603.155 108.001 -13.6902
  174 606.424 6.22767 -69.8156
  175 595.051 10.6517 75.8960
  176 149.692 -5.83675 -31.9096
  177 149.717 -5.79806 31.8584
  178 524.268 -51.6285 22.0802
  179 523.919 -40.3382 -33.5838
  180 8.76122 13.3140 10.8123
  181 8.98029 13.3978 -10.6812
  182 716.172 146.615 16.5566
  183 142.076 64.4340 -102.484
  184 152.136 64.9950 109.545
  185 506.580 -24.5100 14.7460
  186 758.272 161.239 -2.88400
  187 333.122 -13.1189 -5.41678
  188 332.610 -13.4280 5.38617
  189 519.996 -17.3632 -13.6676
  190 688.174 0.255399 -17.4963
  191 138.178 -4.18164 6.19456
  192 138.121 -4.21434 -6.26671
  193 60.4479 6.97902 -22.1668
  194 60.7108 6.90769 22.2192
  195 297.280 -11.2220 -72.4177
  196 296.128 -11.8143 73.3231
  197 353.908 -23.6999 -13.3193
  198 354.603 -23.5680 14.0010
  199 99.5934 -3.46257 17.2528
  200 99.4448 -3.41802 -17.2828
  201 680.304 -7.00914 52.1866
  202 560.347 -53.9931 -5.36563
  203 529.835 -6.62153 -1.63666
  204 518.582 -7.87405 1.59777
  205 536.033 63.2272 54.5318
  206 24.3244 22.4505 -10.7057
  207 25.1581 22.4219 11.0777
  208 530.309 -20.9678 63.3220
  209 493.790 38.1307 -63.1522
  210 346.673 83.2642 -227.573
  211 364.564 70.4513 211.652
  212 12.3908 12.0080 -3.53606
  213 12.6026 12.0076 3.63921
  214 528.905 -18.3906 -65.5752
  215 906.626 126.118 -9.17053
  216 439.355 -47.4480 43.5202
  217 442.523 -47.2080 -41.3956
  218 439.079 -32.1005 1.14509
  219 539.038 -9.63276 6.99080
  220 268.529 -18.7380 -28.5004
  221 264.500 -18.6698 29.2749
  222 163.628 3.04705 -47.3251
  223 163.870 2.98876 46.9636
  224 555.061 -57.2885 -12.2187
  225 435.551 -34.0579 -3.05216
  226 537.031 -9.46953 -5.20678
  227 422.304 -12.2806 -1.04320
  228 425.815 -11.5628 1.81229
  229 533.226 -24.1552 35.2646
  230 52.9896 0.287385 -18.4497
  231 53.1995 0.265892 18.4529
  232 -6.31184 -4.09260 -17.7267
  233 -6.34614 -4.13618 17.7400
  234 91.8100 -3.76425 -10.1251
  235 91.9408 -3.77331 10.0570
  236 233.191 -7.50965 7.09672
  237 233.231 -7.62668 -7.14253
  238 263.879 18.7834 -104.253
  239 263.914 15.7530 103.113
  240 540.274 -17.3500 -30.1919
  241 259.781 -15.3483 -44.9701
  242 260.014 -15.8068 44.4043
  243 483.947 7.99404 71.7526
  244 429.134 36.6908 4.36695
  245 465.567 -46.5776 2.89298
  246 2.62471 -9.78568 -15.2071
  247 2.46792 -9.91185 15.3425
  248 31.7844 36.1939 -38.0200
  249 33.7360 35.1291 39.7329
  250 457.990 -45.5944 -5.88601
  251 814.563 160.294 -22.0013
  252 46.0248 30.4958 -17.7567
  253 46.5512 30.4906 17.9351
  254 -16.1370 4.08925 11.3740
  255 -16.0468 4.11058 -11.3110
  256 817.704 151.247 26.9568
  257 295.374 -14.9309 -12.1509
  258 295.164 -14.7121 11.9601
  259 566.721 -37.2392 56.7193
  260 1007.42 164.460 104.022
  261 177.132 -9.48027 -26.4474
  262 177.114 -9.54687 26.4306
  263 582.911 87.5972 -51.2102
  264 974.310 186.152 -96.2609
  265 687.707 72.6175 44.8022
  266 737.981 56.9493 -146.742
  267 464.969 -23.0772 3.93650
  268 532.213 3.50388 -79.5281
  269 500.525 -35.8717 -17.7533
  270 555.307 -10.5998 18.8707
  271 4.41433 5.38323 -7.78735
  272 4.62804 5.36720 7.86223
  273 548.925 -14.2838 -140.510
  274 64.0942 18.6074 -22.7464
  275 64.3895 18.5780 22.8609
  276 536.013 -13.0647 -39.7653
  277 79.7471 88.0552 -106.778
  278 76.0655 -0.389370 -2.38184
  279 76.1482 -0.375640 2.35191
  280 564.983 -33.9910 -59.4586
  281 103.621 46.5531 -58.6589
  282 105.085 46.3231 58.8250
  283 37.2284 -0.976851 12.7880
  284 37.0054 -0.965724 -12.7927
  285 464.226 -22.0239 -3.88304
  286 80.3143 87.1689 109.464
  287 725.483 67.3698 170.521
  288 210.100 -8.67533 -9.82733
  289 210.077 -8.62626 9.71344
  290 374.103 -16.6713 -5.58706
  291 373.930 -17.9215 6.04239
  292 319.287 32.5119 -155.831
  293 510.095 -55.4219 -2.86178
  294 574.436 -4.43478 2.97419
  295 307.780 32.6394 151.029
  296 358.758 -11.0431 -1.97539
  297 358.626 -11.0382 2.26929
  298 501.380 -37.2424 18.0631
  299 571.132 -6.83964 -8.43289
  300 1.87658 2.09355 -10.4085
  301 2.11467 2.07782 10.4460
  302 724.412 143.021 -3.79844
  303 630.394 -26.8328 26.2031
  304 565.603 -4.03111 -0.629198
  305 574.970 -3.53486 0.571218
  306 568.259 -47.5982 54.5509
  307 700.374 77.5048 -40.6107
  308 619.984 114.982 28.4316
  309 282.476 -17.8483 -18.6738
  310 280.028 -18.1588 18.9873
  311 573.594 -4.37372 -1.76171
  312 383.611 -28.3390 -79.0607
  313 378.240 -30.4507 16.6693
  314 360.448 -18.9716 89.4778
  315 566.812 -7.60869 10.2285
  316 138.406 -6.33249 -16.6697
  317 138.509 -6.37736 16.6090
  318 523.992 -14.0119 138.818
  319 338.661 -27.2707 -23.2449
  320 616.777 80.5805 63.4250
  321 201.113 14.0129 -69.0147
  322 193.855 14.6678 68.5082
  323 68.5221 -1.27837 -4.31241
  324 68.6388 -1.27046 4.26492
  325 502.388 -11.5760 3.34601
  326 482.174 -8.46412 0.0259201
  327 479.578 -9.12179 -0.179052
  328 532.481 -13.7424 42.2265
  329 55.6831 -1.82074 9.69964
  330 55.4886 -1.80456 -9.73564
  331 164.378 -4.11319 -3.58799
  332 164.407 -4.05357 3.55647
  333 5.61466 -21.3095 -7.32551
  334 5.27595 -21.5061 7.72874
  335 424.210 18.6562 49.0240
  336 636.269 -24.4601 -19.7042
  337 416.294 -23.2492 -1.74846
  338 467.634 -10.9921 -1.00615
  339 498.755 61.7781 -29.5158
  340 103.618 -3.39765 -23.8236
  341 103.759 -3.40108 23.8112
  342 405.213 -22.0093 3.77634
  343 120.379 3.61466 -34.0239
  344 120.611 3.51613 33.9375
  345 25.1593 19.5442 -2.97811
  346 25.4385 19.5450 3.09938
  347 489.611 -51.4210 54.8859
  348 1061.31 69.7558 27.3500
  349 445.129 7.27518 -57.9204
  350 367.662 -32.8588 50.1467
  351 365.803 -32.1650 -51.5434
  352 539.971 -8.24680 78.4439
  353 484.107 -3.14022 56.8300
  354 483.467 -49.7064 -56.4912
  355 293.941 -8.51690 1.20504
  356 293.892 -8.60007 -1.13483
  357 534.832 -34.7740 46.3349
  358 732.467 144.774 0.850150
  359 570.209 -7.15037 -13.9345
  360 156.461 -6.08532 -12.2997
  361 156.538 -6.09158 12.1966
  362 538.634 -49.0425 -67.3261
  363 570.910 41.0904 -77.6513
  364 393.523 21.1601 -31.5769
  365 538.841 -35.5916 -53.5063
  366 -17.0869 0.820962 -13.6283
  367 -17.1047 0.798649 13.6456
  368 452.431 -12.3020 -0.183270
  369 -6.41912 -3.79182 -8.42059
  370 -6.41040 -3.79265 8.40198
  371 347.194 185.630 -275.121
  372 15.6475 14.3335 6.19199
  373 16.0010 14.4409 -6.00179
  374 480.708 -3.31122 -56.3778
  375 268.199 -12.1361 9.20199
  376 268.371 -12.2832 -9.28234
  377 -1.55813 -18.5104 15.5655
  378 -1.52907 -18.4771 -15.5508
  379 283.931 194.115 259.622
  380 220.663 -11.9908 -35.6005
  381 220.849 -11.5060 35.6275
  382 71.6140 53.8373 -54.8302
  383 73.0662 53.7212 54.5474
  384 -24.4787 4.26168 3.79917
  385 -24.3541 4.26917 -3.73031
  386 551.956 37.8051 78.2956
  387 422.443 -44.2341 26.2360
  388 422.904 -38.9828 12.8110
  389 509.418 -57.1721 -12.5072
  390 133.154 16.1115 -46.5519
  391 133.598 16.0896 46.4949
  392 12.2286 -12.0569 4.13509
  393 11.6065 -12.3305 -3.24779
  394 524.204 74.5214 19.2040
  395 517.890 -16.0125 10.9107
  396 302.533 -23.7909 33.3266
  397 190.310 -5.09665 -42.1322
  398 190.399 -5.13264 41.8551
  399 382.177 -12.9736 -2.95929
  400 381.788 -11.5867 2.63630
  401 300.054 -24.3972 -35.1498
  402 236.149 -4.19791 -56.0931
  403 236.131 -4.51571 56.5212
  404 541.237 -49.0490 -30.0680
  405 319.642 -25.1271 21.9589
  406 491.838 -16.3464 5.57597
  407 490.801 -15.0644 -4.38968
  408 415.349 -38.7200 -14.2545
  409 585.478 -3.45956 -3.19629
  410 202.903 84.7476 -159.053
  411 556.105 -8.55336 23.8110
  412 584.327 -3.89580 5.09516
  413 217.942 -11.9872 22.0790
  414 218.014 -11.8309 -22.0638
  415 420.579 -43.7132 -26.9494
  416 63.9060 27.4853 24.5805
  417 63.5722 27.4613 -24.5924
  418 1071.63 69.7026 -55.6496
  419 483.195 -28.5571 -8.89056
  420 588.438 -2.97089 1.83783
  421 191.999 79.4747 151.892
  422 873.529 146.479 30.6947
  423 515.196 -9.29007 -2.57629
  424 390.656 -29.1352 -11.4466
  425 166.640 32.1193 -77.6794
  426 177.325 29.7268 77.2119
  427 477.743 -31.1458 8.79978
  428 510.005 -6.48278 -41.4522
  429 3.95256 -0.534325 9.65549
  430 3.69860 -0.529095 -9.64662
  431 187.343 45.6346 -102.871
  432 187.941 45.7919 102.567
  433 26.1868 10.2799 -11.5287
  434 26.4235 10.2594 11.6221
  435 429.225 -9.97460 0.170495
  436 428.711 -9.76024 -0.0328811
  437 532.602 -24.6587 -36.9413
  438 -0.642702 -0.505761 18.4083
  439 -0.546705 -0.418313 -18.3372
  440 547.977 -53.1876 25.3149
  441 517.088 -15.0908 -9.45567
  442 833.750 159.273 -29.1737
  443 45.0802 -1.58875 4.68840
  444 44.9056 -1.58900 -4.72936
  445 992.976 288.113 134.644
  446 21.5435 18.2422 -34.4039
  447 69.2524 2.84267 -23.4543
  448 69.4748 2.79427 23.4586
  449 991.828 295.243 -131.544
  450 22.8271 20.4904 37.4600
  451 -22.6188 3.18111 -0.0119514
  452 -22.4565 3.17665 0.0779100
  453 59.4958 40.8243 -33.5837
  454 60.4815 40.8562 33.7532
  455 656.693 104.724 -50.1572
  456 525.743 -21.3516 -22.9102
  457 585.526 -3.03559 -1.54819
  458 549.833 -8.73488 -28.1612
  459 -5.23076 4.68993 16.7115
  460 -5.13280 4.74691 -16.6436
  461 531.336 -22.1003 27.1630
  462 350.200 -20.6784 -10.7335
  463 349.173 -20.8710 9.61200
  464 470.439 -51.6771 -13.1045
  465 338.310 -3.72794 -108.757
  466 514.583 -7.76780 42.2651
  467 419.774 -15.0851 1.96143
  468 610.409 -42.8488 -14.7113
  469 327.938 4.08774 116.348
  470 34.5977 -0.567048 9.31852
  471 34.3690 -0.557237 -9.33391
  472 676.024 133.459 -21.0542
  473 534.302 -5.40247 -0.0993032
  474 532.548 -5.93709 -0.365503
  475 409.552 -28.2728 6.69045
  476 186.958 -6.59333 -7.04286
  477 186.963 -6.52411 6.97239
  478 112.095 -1.61537 -28.1835
  479 112.234 -1.63699 28.1407
  480 357.639 13.8318 18.9643
  481 96.0029 -3.12662 13.8180
  482 95.8593 -3.09825 -13.8754
  483 98.0483 8.76261 31.8665
  484 97.7282 8.89213 -31.8338
  485 522.985 -40.5803 32.1461
  486 297.675 -18.5994 -53.0093
  487 276.852 -9.82788 5.08806
  488 276.939 -10.0386 -5.09250
  489 300.744 -19.1683 53.0125
  490 811.764 195.750 -25.6501
  491 -12.9559 -1.86594 -10.7724
  492 -12.9473 -1.87629 10.7651
  493 213.947 -6.50195 -2.98527
  494 213.959 -6.41645 2.97572
  495 0.416228 -33.7759 -12.4888
  496 0.330606 -33.8879 12.6050
  497 476.341 -8.77800 0.288111
  498 355.758 16.6362 -9.41554
  499 467.751 48.8200 26.7175
  500 295.251 -2.44666 -87.6130
  501 150.997 -7.77076 20.8326
  502 150.964 -7.70666 -20.8594
  503 -31.5642 1.10751 -3.79528
  504 -31.3388 1.10054 3.82662
  505 565.803 -9.18406 -76.8272
  506 57.8924 0.206515 -3.09032
  507 57.9970 0.213570 3.05607
  508 470.999 -37.7285 -5.86249
  509 501.181 -42.9709 -16.5035
  510 106.256 83.8776 -110.050
  511 421.435 14.4873 -168.256
  512 7.88636 13.4066 6.17694
  513 8.09253 13.4372 -6.06093
  514 264.317 -12.8585 -12.7779
  515 264.201 -12.7534 12.5548
  516 716.258 35.9229 -6.61379
  517 520.635 -31.2298 -29.3821
  518 103.675 79.6900 108.594
  519 515.650 -57.4427 20.6084
  520 496.721 -47.2916 11.4043
  521 116.202 -2.81887 -9.12471
  522 116.289 -2.80917 9.04823
  523 419.369 4.89802 44.9408
  524 300.480 -22.6275 -22.9544
  525 546.633 -13.0962 16.5537
  526 -2.14671 -13.3196 -10.5108
  527 -2.15198 -13.3074 10.4941
  528 388.101 -33.9067 59.2269
  529 584.096 -43.0007 -35.9791
  530 754.177 60.7546 -37.2796
  531 414.986 -15.5497 -1.92944
  532 133.683 -2.58354 -2.60726
  533 133.731 -2.53993 2.58622
  534 266.330 2.48018 84.6036
  535 726.421 126.016 28.6809
  536 725.384 161.499 -262.778
  537 661.235 7.53750 32.1881
  538 479.481 -53.0134 10.6298
  539 1103.44 87.9450 74.8807
  540 829.090 206.435 34.7477
  541 126.650 -5.35322 22.6668
  542 126.544 -5.30199 -22.6953
  543 461.452 -38.8017 2.93437
  544 38.4291 16.9914 -11.2783
  545 38.6970 16.9852 11.3875
  546 577.075 -46.5067 36.1451
  547 481.631 26.6231 65.8287
  548 578.176 -4.22947 9.35035
  549 432.591 -26.9831 -0.583971
  550 597.098 11.7503 -177.336
  551 935.721 258.910 179.156
  552 466.292 -10.7736 -0.0320167
  553 569.383 -6.31513 -15.5197
  554 94.6876 38.9751 -44.7430
  555 95.3606 38.5143 44.5701
  556 332.359 -14.4315 -7.22057
  557 332.217 -14.1234 7.33196
  558 4.32986 -35.3789 -7.23955
  559 583.782 -19.1708 67.1991
  560 24.9770 21.8089 -0.882521
  561 25.3385 21.8723 1.05561
  562 5.00542 -33.9445 8.49589
  563 532.955 -24.0805 -55.3884
  564 612.355 40.7357 -72.6980
  565 610.542 45.9708 72.8115
  566 31.3365 29.5589 26.3506
  567 29.8438 30.1440 -25.8633
  568 -9.97509 0.501538 7.42505
  569 -10.2331 0.507169 -7.40970
  570 557.397 20.2384 182.456
  571 313.298 -18.1172 13.3246
  572 313.596 -18.0555 -13.5117
  573 670.004 -5.70914 -97.6479
  574 99.2147 -1.39276 5.27934
  575 99.1344 -1.41221 -5.33083
  576 53.7436 -1.07742 -1.21632
  577 53.8249 -1.07038 1.20429
  578 740.416 139.168 -20.9463
  579 72.9978 120.318 -120.381
  580 402.660 8.44814 -38.1592
  581 557.876 88.7422 -32.3976
  582 9.23674 2.05379 9.73727
  583 9.57399 2.18042 -9.51160
  584 544.437 272.847 306.486
  585 473.515 -14.6277 -2.17188
  586 22.1951 4.79168 -13.0523
  587 22.4295 4.75735 13.1118
  588 547.405 -43.3832 45.5097
  589 86.0424 116.898 122.571
  590 397.200 -9.89701 0.919866
  591 397.312 -9.82724 -0.921314
  592 -0.237242 -27.1974 13.3008
  593 -0.194622 -27.1542 -13.2568
  594 676.139 130.621 -1.08300
  595 429.060 -33.4367 82.3218
  596 410.350 -18.8390 -3.07077
  597 411.025 22.0137 177.315
  598 -33.1100 1.85490 7.78838
  599 -33.0778 1.86498 -7.75422
  600 669.066 12.6990 -34.9455
  601 878.004 162.921 -130.934
  602 260.075 27.4254 -120.199
  603 145.918 -6.25817 -27.4663
  604 146.063 -6.26139 27.4764
  605 601.160 -2.44605 2.34435
  606 406.496 -19.2094 2.60462
  607 537.522 -8.58020 4.92694
  608 532.935 -24.1491 54.0197
  609 33.6405 -0.911008 4.73570
  610 33.4329 -0.907269 -4.76575
  611 320.108 -12.2137 -4.28672
  612 320.071 -11.9181 4.18984
  613 202.089 4.20910 -57.7773
  614 200.840 4.26952 57.5549
  615 757.995 53.3834 55.0438
  616 1217.66 91.8261 -132.425
  617 -1.31851 -0.803026 6.41626
  618 -1.58917 -0.800529 -6.41279
  619 193.879 -8.38362 12.8579
  620 193.851 -8.37225 -13.0010
  621 709.936 44.1001 16.3134
  622 593.416 -2.85847 -0.741938
  623 592.185 -3.76205 0.219009
  624 445.077 0.163756 44.4192
  625 624.442 -33.0317 -62.1204
  626 345.873 -28.7730 27.2811
  627 -5.49293 8.07478 -6.01305
  628 -5.64727 8.06074 6.10371
  629 550.813 12.3953 81.6253
  630 223.605 -13.1194 -28.9168
  631 223.415 -13.3291 28.9695
  632 447.428 -26.8934 -1.06520
  633 548.845 -12.8277 -14.9180
  634 319.359 -25.6486 -39.3784
  635 523.223 63.2259 -49.6639
  636 351.675 -23.9935 -67.7532
  637 137.886 -3.70608 -4.85509
  638 137.933 -3.66617 4.80205
  639 322.551 -26.0755 39.5875
  640 682.957 112.579 43.5381
  641 545.163 -25.7989 68.1472
  642 446.245 -21.1107 1.40032
  643 323.421 -9.74693 2.43481
  644 323.341 -9.76374 -2.37550
  645 247.096 -9.81981 -9.32002
  646 247.020 -9.72424 9.23958
  647 523.512 -47.8092 -24.1836
  648 271.210 -15.8970 16.2082
  649 271.482 -15.8332 -16.4760
  650 532.745 81.6438 -6.59462
  651 483.949 -26.3861 9.18007
  652 598.542 -3.24025 -3.81856
  653 518.271 -8.88568 -72.4087
  654 82.4307 -3.51220 18.2421
  655 82.2634 -3.48812 -18.2514
  656 585.665 -3.71651 -8.50358
  657 109.205 56.8781 -78.4313
  658 111.037 56.7602 78.8068
  659 598.433 -32.7547 82.9720
  660 211.352 53.6867 126.611
  661 58.5566 -0.484930 18.2287
  662 58.3608 -0.472762 -18.2313
  663 511.759 -30.8343 105.033
  664 501.448 78.9542 -239.458
  665 498.962 16.4472 -72.6779
  666 650.979 118.451 38.5821
  667 438.874 -20.7162 0.538427
  668 785.126 139.826 -3.40385
  669 -34.2045 1.81705 -2.76670
  670 -34.0153 1.81270 2.80998
  671 351.713 2.81004 -126.645
  672 36.3506 -0.542914 3.57706
  673 36.1905 -0.544231 -3.60864
  674 439.193 -35.9892 -81.4745
  675 150.248 20.2350 -55.9624
  676 149.102 20.3199 55.9418
  677 6.72049 7.47285 -5.22653
  678 6.92751 7.46454 5.31755
  679 375.604 -32.8596 -21.4985
  680 529.200 -5.23927 -27.6359
  681 258.099 -8.65458 -3.27814
  682 258.120 -8.57010 3.30000
  683 189.418 -9.85990 -18.8650
  684 189.576 -9.99147 18.8086
  685 36.9130 30.2995 -13.3788
  686 37.4952 30.3723 13.5805
  687 536.245 -7.62365 2.03952
  688 246.423 -15.9917 24.4209
  689 247.923 -15.7277 -24.4071
  690 595.512 -45.7208 -0.290851
  691 493.398 -49.6201 -6.03817
  692 390.138 -12.3654 -1.60584
  693 388.815 -11.6377 1.77527
  694 541.666 -55.8221 35.2134
  695 874.062 177.369 51.2540
  696 476.576 -18.9121 -129.007
  697 545.265 -15.6968 27.7599
  698 544.457 -19.4796 -73.5398
  699 177.717 -5.75010 -9.07773
  700 177.735 -5.71209 8.98334
  701 424.863 -5.09496 144.109
  702 1156.48 149.736 136.867
  703 86.0953 24.3472 -33.5362
  704 86.2273 24.5133 33.6422
  705 534.168 -6.45079 -0.965292
  706 538.245 -5.87064 1.00056
  707 231.048 122.537 -202.669
  708 569.675 -3.50167 15.6508
  709 493.007 -9.85953 1.11264
  710 655.574 129.072 -13.8456
  711 71.6838 11.9874 -24.7019
  712 71.9869 11.9143 24.7909
  713 605.091 -1.97720 0.265413
  714 496.836 -20.2577 -9.43041
  715 618.653 -7.27856 57.2238
  716 259.574 -18.3925 -37.2835
  717 260.218 -17.6316 36.9735
  718 66.9143 -2.12815 13.7955
  719 66.7286 -2.10267 -13.8249
  720 557.348 -4.85953 -2.15455
  721 481.311 102.374 253.396
  722 4.62716 5.18790 14.4872
  723 4.80967 5.30099 -14.3620
  724 559.752 -6.98419 -6.43368
  725 544.679 -11.0220 9.29812
  726 443.129 0.685784 -47.6412
  727 4.45564 -46.9538 -5.06790
  728 4.18465 -47.4455 5.56450
  729 203.440 55.4415 -126.684
  730 438.645 -43.3676 -60.0557
  731 229.775 121.324 204.428
  732 598.108 -2.07744 1.28311
  733 589.525 88.6119 51.3220
  734 438.012 39.5467 -18.6559
  735 764.666 153.997 5.49316
  736 592.563 -3.00617 5.29978
  737 -30.3455 0.857977 5.32352
  738 -30.5960 0.862630 -5.30278
  739 632.780 -33.0442 23.6851
  740 414.143 -13.2905 -2.04038
  741 155.919 -0.0722993 -40.5009
  742 156.133 -0.221893 40.2999
  743 543.699 -7.49332 -3.26839
  744 955.027 134.946 -50.8404
  745 74.9132 -2.06126 -8.91189
  746 75.0736 -2.07283 8.85925
  747 602.318 -2.15364 -2.32948
  748 130.587 -5.75799 -12.3808
  749 130.686 -5.77808 12.3021
  750 596.162 -22.1750 -59.7127
  751 551.602 -5.99249 21.9836
  752 500.292 -2.67643 71.9121
  753 602.428 -2.23043 0.229556
  754 565.704 -5.27486 4.78222
  755 376.625 -21.2109 -6.91446
  756 467.619 -13.6568 1.24858
  757 532.312 -32.7891 -45.1268
  758 518.749 -33.0204 28.0958
  759 610.381 75.0524 -64.3590
  760 511.392 -29.3638 20.1042
  761 541.440 -31.6863 58.5095
  762 318.383 -22.1437 17.3731
  763 12.2312 0.297479 1.71389
  764 11.6264 0.252745 -1.13967
  765 472.580 -8.60985 -0.288891
  766 471.606 -8.56135 0.118199
  767 561.747 -3.57957 -0.168429
  768 563.593 -3.47891 0.293890
  769 541.155 -15.4973 34.5443
  770 498.995 -44.3905 77.4647
  771 412.754 -34.0781 10.1679
  772 368.039 -22.8386 9.68455
  773 973.128 124.311 58.2278
  774 545.387 -14.5286 -21.4454
  775 322.796 58.8903 -189.598
  776 507.961 -25.9174 -17.1637
  777 26.6315 0.306698 -13.4811
  778 26.8648 0.288207 13.5022
  779 464.014 40.7466 -41.7733
  780 1123.58 34.0693 -14.4492
  781 574.178 16.0505 -79.1838
  782 23.9928 26.1662 -49.4421
  783 594.636 106.249 13.0080
  784 460.482 -30.1444 3.49676
  785 519.840 -12.5053 70.1505
  786 436.505 -45.2143 60.3762
  787 687.200 2.57739 118.357
  788 25.8262 31.4515 52.5583
  789 318.150 -1.34707 99.7149
  790 440.063 -12.7612 0.459333
  791 489.653 -42.5326 -78.3565
  792 305.613 -24.1479 -28.3715
  793 242.061 11.7759 -87.8169
  794 568.512 -7.72138 77.5397
  795 367.590 -25.7704 14.4497
  796 80.3838 -2.12528 7.78618
  797 80.2566 -2.12742 -7.84715
  798 530.788 -3.02158 24.4374
  799 485.886 2.96552 -70.1611
  800 -40.6380 1.95876 4.59855
  801 -40.5763 1.96276 -4.56065
  802 357.914 -12.4026 -2.80801
  803 356.927 -11.8064 2.68842
  804 266.587 30.6171 121.825
  805 241.070 -14.4553 18.7167
  806 241.375 -14.1214 -18.8818
  807 601.709 -1.68938 -1.14188
  808 218.516 17.4555 85.7480
  809 16.9760 -0.205421 4.96416
  810 16.7267 -0.201050 -4.98122
  811 524.655 -16.0549 53.9353
  812 552.695 -5.78607 1.60640
  813 -29.5482 0.448656 7.99246
  814 -29.5564 0.458640 -7.97620
  815 347.078 -21.4343 75.5969
  816 69.4758 60.2295 -67.3882
  817 70.2943 57.6757 66.4449
  818 340.570 14.8533 7.87134
  819 3.16244 -0.416981 -5.66656
  820 3.43664 -0.420438 5.66351
  821 397.640 -37.4172 -56.6922
  822 538.457 -55.7716 -12.0112
  823 -2.72815 -2.58531 -3.46208
  824 -2.71973 -2.57887 3.44886
  825 41.2801 0.865584 -1.22607
  826 41.3755 0.870514 1.20791
  827 480.282 -43.0565 7.15253
  828 406.289 -41.4203 40.9125
  829 447.397 -9.08476 0.171264
  830 405.359 -33.2868 -11.6177
  831 157.222 -2.86980 -1.04786
  832 157.259 -2.81262 1.03480
  833 -45.4351 0.986951 2.39532
  834 -45.3324 0.985800 -2.35768
  835 502.505 -7.95569 -1.22036
  836 455.997 18.3910 -59.9607
  837 508.556 -11.4235 -4.62676
  838 306.272 -23.7785 27.1569
  839 509.226 -8.68130 -57.5011
  840 540.543 -16.8070 -35.6700
  841 504.427 -7.04297 1.06324
  842 372.710 -13.3353 102.146
  843 398.215 -39.1113 -24.8440
  844 243.270 -1.84277 -68.1052
  845 244.574 -0.155370 68.4581
  846 341.374 -26.1565 -18.8220
  847 563.737 61.9126 67.8482
  848 529.789 -53.7885 -45.5905
  849 199.644 -6.64958 -4.68896
  850 199.644 -6.56180 4.65073
  851 407.638 -10.7349 1.17008
  852 407.662 -10.8106 -1.08476
  853 488.703 -3.52497 -37.7632
  854 171.238 -7.37571 -15.2717
  855 171.342 -7.42913 15.1640
  856 2.11571 -48.7050 -9.17263
  857 2.00998 -48.9180 9.37894
  858 93.5511 -1.35636 -0.124931
  859 93.4836 -1.38077 0.109269
  860 499.121 -9.26277 -1.67853
  861 383.691 -36.6198 37.2200
  862 588.697 -48.7761 12.0613
  863 360.634 7.53037 30.1276
  864 510.448 -13.3028 5.39952
  865 558.783 -49.1635 -33.6090
  866 86.6673 4.99068 -27.6897
  867 86.9197 4.90596 27.6851
  868 445.192 -9.63077 -0.141336
  869 362.069 -13.7791 -4.82000
  870 360.868 -13.6742 5.14362
  871 559.208 86.8777 36.5395
  872 198.065 -2.23114 -48.4210
  873 197.906 -2.45492 48.2390
  874 387.256 -35.3880 20.4297
  875 40.2983 25.2276 -11.7398
  876 40.6736 25.1851 11.8516
  877 328.921 -23.2800 62.2709
  878 392.506 -25.8945 -7.56651
  879 491.311 -3.65638 38.1524
  880 479.051 -53.4593 23.2758
  881 548.198 -41.1191 -49.5503
  882 382.750 -36.9157 -37.6722
  883 320.592 -22.0636 -16.7315
  884 1013.39 82.8118 -15.8667
  885 501.363 -52.8728 2.67605
  886 16.6456 17.4677 3.51676
  887 16.9124 17.5047 -3.37499
  888 437.425 -44.0166 13.3675
  889 478.242 -53.1447 -36.8429
  890 18.2986 14.9155 -1.91779
  891 18.5346 14.9228 2.02767
  892 186.380 -6.86948 37.2158
  893 186.467 -7.06110 -37.4071
  894 223.935 -11.5359 40.7283
  895 223.836 -11.7946 -40.9714
  896 690.925 138.394 15.8118
  897 -0.948268 -21.3382 -10.1204
  898 -0.955435 -21.3094 10.1117
  899 163.879 13.4766 -53.3009
  900 163.118 13.2106 52.8313
  901 1160.05 37.5635 -58.0629
  902 34.8998 -0.162129 2.05858
  903 34.7681 -0.165935 -2.08345
  904 2.30208 -53.4001 1.59185
  905 2.65442 -52.4274 -0.770023
  906 -22.8306 -0.223300 8.36142
  907 -22.8590 -0.216042 -8.35946
  908 131.226 38.3137 -62.4911
  909 133.233 37.0392 61.6716
  910 -9.30558 0.875974 -17.2526
  911 -9.35507 0.834490 17.2834
  912 42.2614 3.16086 -18.4011
  913 42.4995 3.11903 18.4314
  914 144.555 -1.94499 34.4273
  915 144.440 -1.93743 -34.5749
  916 119.841 -4.22141 -27.8789
  917 119.973 -4.21540 27.8464
  918 589.075 -2.50156 -8.50993
  919 291.849 64.7647 176.865
  920 402.080 -39.8522 23.5610
  921 289.156 -21.1104 22.2115
  922 551.888 57.5285 -67.3185
  923 1141.09 24.2746 23.3288
  924 646.342 32.2300 -60.4522
  925 116.096 -4.41454 17.5810
  926 115.969 -4.36646 -17.6355
  927 26.6058 -0.698687 -12.9386
  928 26.8378 -0.704735 12.9424
  929 0.111203 -9.17447 -18.5494
  930 0.0256682 -9.26000 18.6128
  931 298.763 -13.8905 10.3933
  932 298.905 -14.1389 -10.4327
  933 40.2086 9.63189 -16.8541
  934 40.4610 9.59027 16.9365
  935 185.362 -8.46620 -31.8178
  936 185.498 -8.46929 31.8054
  937 397.722 -1.30678 -35.3720
  938 191.619 -10.5675 -22.4813
  939 191.512 -10.4642 22.5513
  940 448.605 -13.8845 0.547280
  941 543.200 -30.5439 -63.1623
  942 243.806 -10.3442 10.8088
  943 243.904 -10.4302 -10.9290
  944 -9.96204 -1.02800 -6.02394
  945 -9.93363 -1.03044 6.01030
  946 549.835 -39.8216 -95.0041
  947 528.888 -31.2075 38.8323
  948 464.850 -33.1657 -5.35697
  949 461.285 16.3060 63.1119
  950 212.550 -12.1681 -25.2269
  951 212.572 -11.9514 25.2987
  952 511.489 20.3433 75.7003
  953 480.875 42.1693 49.9167
  954 950.733 113.581 20.3631
  955 492.747 -18.7605 6.37020
  956 266.388 -8.60603 -4.89754
  957 266.366 -8.45705 4.93213
  958 443.630 -36.8766 2.54228
  959 616.083 112.755 -29.9400
  960 536.373 -6.93470 -2.12335
  961 358.670 -9.96423 1.63802
  962 358.541 -9.89666 -1.53960
  963 47.7040 41.0142 -31.2364
  964 48.8627 40.9655 31.4497
  965 85.3186 238.587 -196.193
  966 510.361 -11.7260 57.1287
  967 628.489 -9.18406 -49.8932
  968 -7.80519 6.23104 1.73571
  969 -7.63528 6.23119 -1.64933
  970 1244.16 302.446 -238.856
  971 539.121 -57.7155 0.265697
  972 573.492 -51.1681 -29.2124
  973 531.570 -45.3143 34.0690
  974 660.876 129.282 11.5004
  975 49.7789 56.3130 -63.0906
  976 122.002 208.149 194.110
  977 -2.71401 -6.75705 18.7923
  978 -2.66110 -6.69431 -18.7609
  979 515.310 -14.2669 7.01445
  980 826.273 145.231 -19.7286
  981 51.1752 55.1829 65.3847
  982 -2.24791 -7.78804 -6.69890
  983 -2.24807 -7.76560 6.68068
  984 444.251 -11.6911 -0.824386
  985 335.567 -26.9597 -29.6888
  986 535.849 -42.0701 -41.4916
  987 156.622 42.2460 -81.4407
  988 159.089 42.9280 81.6457
  989 522.971 -12.8710 -50.6324
  990 522.839 -17.4600 14.5009
  991 -12.9847 3.94049 14.8785
  992 -12.9145 3.97784 -14.8273
  993 320.515 -21.0520 -58.7734
  994 530.390 34.6960 -75.5190
  995 392.955 -15.8642 3.30368
  996 286.841 -8.96759 1.02245
  997 286.783 -9.01814 -0.990825
  998 -5.75005 -6.54875 -13.7646
  999 -5.75790 -6.56287 13.7516
  1000 529.942 -19.6582 -18.3562
  1001 503.276 -6.94108 0.258509
  1002 502.817 -6.94937 -0.0627098
  1003 697.959 116.607 -39.0456
  1004 131.542 10.9444 -42.5635
  1005 131.870 10.7269 42.4857
  1006 87.4699 -1.00316 -23.2827
  1007 87.6372 -1.01996 23.2645
  1008 578.247 32.3078 80.1070
  1009 541.997 -11.1519 -9.76591
  1010 101.178 15.3617 -35.1959
  1011 101.572 15.2507 35.3218
  1012 562.562 -3.97423 -1.32016
  1013 530.338 -23.4269 -28.9342
  1014 517.952 -57.4837 -27.5716
  1015 21.4339 19.4461 2.76226
  1016 20.8776 19.3542 -2.50827
  1017 -23.5867 4.29430 8.37759
  1018 -23.4954 4.30677 -8.31523
  1019 329.935 12.0961 -13.1541
  1020 888.091 224.647 -68.5584
  1021 412.190 -30.7336 -6.09218
  1022 275.821 -12.0756 -60.3285
  1023 652.728 -23.0064 -1.81206
  1024 276.893 -12.0472 61.1362
  1025 471.964 -54.1940 42.1491
  1026 534.715 -22.2047 -45.0963
  1027 191.741 -4.80775 -1.49706
  1028 191.767 -4.73448 1.48916
  1029 368.377 -29.2990 -17.0344
  1030 229.161 -8.75933 -47.6082
  1031 229.097 -8.82524 47.3979
  1032 77.4406 51.0389 -51.9845
  1033 78.6325 50.9190 52.1403
  1034 163.156 -5.29940 -5.26611
  1035 163.183 -5.24024 5.21054
  1036 474.750 -16.2452 2.55722
  1037 402.265 3.45593 -145.675
  1038 491.687 -17.0716 -6.44632
  1039 446.406 -49.1739 -27.0566
  1040 298.082 -13.2844 7.33348
  1041 298.310 -13.3752 -7.34963
  1042 570.124 -4.37213 1.67095
  1043 513.289 -13.3239 -6.54734
  1044 346.286 8.55740 24.8798
  1045 552.308 -5.54832 -20.4812
  1046 217.634 65.1882 143.074
  1047 566.942 -5.46786 -16.6186
  1048 153.359 25.5513 -62.1179
  1049 148.958 25.8241 59.7377
  1050 674.216 -7.54249 -0.373491
  1051 65.0424 33.2542 -28.4049
  1052 65.6208 33.0256 28.4087
  1053 11.4739 1.92760 3.68278
  1054 12.0021 2.03067 -3.33535
  1055 98.2626 -2.52847 6.23099
  1056 98.1653 -2.54327 -6.29516
  1057 246.773 65.9032 -157.809
  1058 1280.73 344.990 257.148
  1059 528.397 -19.6352 18.8178
  1060 476.158 -53.0946 -21.3842
  1061 334.433 -27.5422 -46.2711
  1062 -5.25029 7.83954 12.2640
  1063 -5.12141 7.88229 -12.1769
  1064 376.165 -20.2828 5.80404
  1065 413.224 -16.5028 2.21243
  1066 -0.148591 -30.1637 9.68694
  1067 -0.138420 -30.1976 -9.68559
  1068 65.1631 40.0281 -33.3437
  1069 65.9103 39.9653 33.5314
  1070 371.340 -18.7561 -5.58466
  1071 32.8688 13.7181 11.5901
  1072 32.6199 13.7339 -11.4869
  1073 562.680 -21.2257 73.3648
  1074 409.217 -42.1935 -40.7075
  1075 336.381 -27.9804 46.2736
  1076 537.971 -9.86761 -78.2107
  1077 560.476 -7.01514 7.06489
  1078 209.086 32.4750 97.2610
  1079 210.572 31.0647 -95.6857
  1080 333.567 -15.7870 -82.1908
  1081 467.293 -17.8868 -2.39605
  1082 383.009 -23.8147 9.42728
  1083 446.593 -42.0243 -5.84026
  1084 603.796 -2.50015 -4.15377
  1085 334.111 -16.1985 8.44342
  1086 333.969 -17.0647 -8.61555
  1087 12.6827 14.4608 8.82435
  1088 12.9571 14.5636 -8.66549
  1089 543.310 21.0392 -81.0606
  1090 126.840 5.98642 -37.7885
  1091 127.178 5.85153 37.7031
  1092 97.1854 1.52188 -27.5117
  1093 97.3963 1.47099 27.4752
  1094 610.697 -19.7597 118.444
  1095 533.900 -24.7036 44.2540
  1096 266.216 -12.3647 -51.6499
  1097 612.034 -2.70839 -2.46032
  1098 696.358 132.773 -29.0439
  1099 559.026 -6.24775 -4.17014
  1100 528.198 -56.3733 11.8628
  1101 393.735 -29.3026 72.7370
  1102 614.944 -1.12764 0.289372
  1103 345.668 10.6736 -21.0702
  1104 449.641 -48.0721 -15.0880
  1105 266.659 -12.9123 51.1470
  1106 453.696 -41.6670 3.26359
  1107 561.000 -8.69129 14.1989
  1108 416.289 26.3432 32.5887
  1109 285.928 -21.2082 -41.7977
  1110 837.994 130.440 -61.0994
  1111 638.984 31.4826 64.0972
  1112 487.671 60.7806 7.90813
  1113 610.011 -0.264736 2.04180
  1114 249.664 -15.8573 -32.5367
  1115 169.638 108.193 -159.223
  1116 300.995 8.92667 -115.100
  1117 345.318 -27.0219 21.8312
  1118 293.198 -22.1439 39.4538
  1119 249.113 -15.1125 32.8324
  1120 517.812 5.33342 79.3261
  1121 390.352 -14.8096 -2.82701
  1122 602.770 -4.78382 5.80088
  1123 -4.10426 0.266876 18.5529
  1124 -4.03111 0.330855 -18.5049
  1125 408.023 -12.9697 1.73514
  1126 0.743665 5.56930 16.1451
  1127 0.876824 5.65397 -16.0516
  1128 235.592 -7.93206 5.79584
  1129 235.599 -8.04338 -5.80143
  1130 571.799 -3.26684 13.7861
  1131 462.125 -29.1246 -4.04824
  1132 433.647 -24.1879 0.987292
  1133 483.707 -34.4528 11.7022
  1134 151.246 76.8369 -120.024
  1135 473.611 -19.0927 3.84361
  1136 77.4531 1.10459 -22.7187
  1137 77.6537 1.06921 22.7100
  1138 102.329 66.9546 -85.9643
  1139 751.232 104.362 13.2547
  1140 62.8525 -2.66044 13.3846
  1141 62.6592 -2.63959 -13.3994
  1142 104.153 66.0322 83.2113
  1143 435.608 -36.9819 -4.28827
  1144 226.996 -10.9816 13.1207
  1145 227.018 -11.0258 -13.2988
  1146 877.407 187.076 -54.6507
  1147 478.690 -47.9845 -1.81652
  1148 167.264 101.626 158.961
  1149 15.1160 2.36642 -16.2067
  1150 16.2196 2.55966 17.4905
  1151 511.496 64.0935 39.6301
  1152 41.2955 21.1651 -12.0876
  1153 41.6100 21.1752 12.1817
  1154 481.729 -42.2263 -7.89483
  1155 -0.205844 -46.2496 -8.94278
  1156 -0.227522 -46.2506 8.98355
  1157 514.188 -43.4661 -22.6681
  1158 1.88395 0.587559 4.41574
  1159 1.60587 0.591542 -4.42344
  1160 83.0301 30.2070 -35.6108
  1161 83.4725 30.3412 35.3272
  1162 -18.9531 0.0412558 -5.40996
  1163 -18.6714 0.0394307 5.41646
  1164 510.600 -6.94322 -0.152445
  1165 -48.6334 1.51491 0.229968
  1166 -48.4908 1.51437 -0.194962
  1167 277.064 -22.0092 -31.6252
  1168 7.58541 -59.4587 -9.17876
  1169 145.646 -4.23934 9.83210
  1170 145.581 -4.25191 -9.92280
  1171 437.074 -9.82599 0.914599
  1172 437.884 -9.61347 -0.831752
  1173 8.14897 -56.2951 10.7814
  1174 517.051 -27.5917 -23.4398
  1175 586.746 -3.05465 9.91764
  1176 525.795 -33.8953 -35.4411
  1177 466.636 3.79681 62.6224
  1178 2.85217 -16.7430 12.7362
  1179 3.07932 -16.5996 -12.5016
  1180 340.717 -25.3725 17.9030
  1181 -22.2101 2.28081 11.9624
  1182 -22.1687 2.29961 -11.9249
  1183 866.417 136.752 10.0153
  1184 994.413 329.849 -231.328
  1185 537.215 -51.7042 28.5558
  1186 229.971 -7.20579 -0.978779
  1187 229.996 -7.12855 0.979711
  1188 1078.08 104.788 -97.4169
  1189 87.8848 -2.23133 13.8749
  1190 87.7243 -2.19923 -13.9175
  1191 506.497 -1.64126 -24.5716
  1192 327.153 -26.7000 35.6148
  1193 531.320 -51.6116 -19.2886
  1194 514.657 -37.6581 -26.5850
  1195 318.129 -10.7964 85.9907
  1196 121.506 22.0666 -47.7615
  1197 121.454 21.8735 47.5171
  1198 157.695 58.9896 -102.540
  1199 157.935 54.6796 102.557
  1200 48.5809 12.9778 -17.9413
  1201 48.8524 12.9418 18.0401
  1202 637.236 111.168 -43.4734
  1203 35.1789 32.6143 -17.2860
  1204 35.9551 32.6740 17.5226
  1205 459.062 -35.8051 2.52801
  1206 841.413 135.297 67.7045
  1207 118.831 -4.82327 -9.69792
  1208 118.929 -4.82225 9.61815
  1209 539.870 408.722 -334.158
  1210 439.208 26.3399 -50.1479
  1211 406.358 30.8814 20.5723
  1212 58.8011 23.6382 -21.1513
  1213 59.0710 23.6429 21.2574
  1214 22.9804 -0.132721 3.21374
  1215 22.7820 -0.132541 -3.23777
  1216 507.394 -40.9725 21.0795
  1217 498.147 -20.9792 10.5863
  1218 342.291 103.614 -243.730
  1219 783.647 171.921 -14.5107
  1220 341.519 -9.75871 -94.2861
  1221 439.122 -14.8719 -1.19895
  1222 35.6943 -2.12206 -0.694032
  1223 35.7696 -2.12023 0.690231
  1224 -6.52492 3.46579 -8.06177
  1225 -6.30390 3.45214 8.11651
  1226 297.985 3.80300 -98.9646
  1227 538.777 -12.8130 12.9241
  1228 354.667 8.02864 133.487
  1229 477.154 -24.5954 -7.00198
  1230 249.159 92.1498 -193.545
  1231 385.037 -17.7156 -101.488
  1232 457.077 -48.7830 12.5586
  1233 556.010 -9.32519 22.1474
  1234 487.992 -11.6139 -2.02481
  1235 275.964 -20.7070 31.7864
  1236 611.367 -32.2615 -37.5441
  1237 585.085 52.1341 75.6778
  1238 258.544 1.32684 -79.0448
  1239 573.058 -4.52647 1.37577
  1240 476.160 58.8518 -11.3161
  1241 210.476 -7.71106 -9.61197
  1242 210.452 -7.63878 9.52270
  1243 876.702 212.906 61.6578
  1244 1180.58 31.3483 54.3452
  1245 1.15613 -56.2488 -8.82945
  1246 1.12075 -56.3053 8.89924
  1247 135.061 73.1518 112.728
  1248 319.043 -10.3803 -2.52010
  1249 319.111 -10.3263 2.63384
  1250 431.948 -43.6563 -15.7816
  1251 519.095 43.2147 68.5352
  1252 534.016 -11.6466 -7.81571
  1253 613.838 -2.01548 -0.638764
  1254 1060.81 238.219 -151.962
  1255 176.852 -6.81919 10.1629
  1256 176.820 -6.83165 -10.2729
  1257 514.735 -47.7283 21.3072
  1258 891.049 228.739 -79.1239
  1259 498.617 -22.7532 -12.0967
  1260 368.278 -26.3243 -13.3945
  1261 449.250 -48.6210 26.5023
  1262 439.210 -23.0474 0.0331500
  1263 17.4323 10.6189 -24.2090
  1264 597.026 -34.6116 46.3490
  1265 485.412 -32.4731 -11.4942
  1266 19.1269 11.4582 26.4073
  1267 498.101 -37.7440 -95.8481
  1268 469.808 33.5406 -199.574
  1269 768.842 104.353 -5.45281
  1270 616.008 -0.862727 -0.157140
  1271 615.013 -1.42398 0.507414
  1272 493.439 -29.5828 13.0056
  1273 194.992 23.2325 -78.0850
  1274 561.273 -48.9297 36.8634
  1275 944.383 218.087 104.402
  1276 239.634 85.5010 188.800
  1277 7.59872 2.58902 12.6180
  1278 7.84988 2.71612 -12.4451
  1279 587.107 -44.8688 -54.6676
  1280 244.455 -13.7543 -15.6126
  1281 244.426 -13.7911 15.3755
  1282 550.276 -35.6190 59.9994
  1283 27.1338 0.0522700 14.4370
  1284 26.9037 0.0630145 -14.4278
  1285 -2.79576 -11.1928 15.7462
  1286 -2.77556 -11.1688 -15.7507
  1287 107.138 -3.63251 -12.6455
  1288 107.264 -3.65315 12.5777
  1289 294.079 -19.7828 -47.1352
  1290 297.064 -10.6924 3.49257
  1291 297.049 -10.8980 -3.38492
  1292 614.362 -0.841299 0.302200
  1293 553.129 -8.94888 -25.0376
  1294 51.4797 1.87549 -18.4170
  1295 51.7021 1.84430 18.4295
  1296 295.242 -20.8977 46.8184
  1297 619.568 -0.923220 0.318813
  1298 587.247 -1.35336 -0.680067
  1299 587.185 -1.71093 0.539484
  1300 781.525 169.293 -1.06591
  1301 574.034 -4.82574 -3.32988
  1302 512.075 -6.63469 -0.0251308
  1303 566.942 -9.32983 -12.5440
  1304 611.822 -2.35754 1.57555
  1305 646.869 69.0481 63.4811
  1306 747.523 157.927 10.1683
  1307 597.611 -2.70693 -6.46266
  1308 -5.07995 -1.24753 4.53147
  1309 -5.10070 -1.24674 -4.54582
  1310 339.508 -22.1622 12.8567
  1311 339.449 -21.2329 -12.5435
  1312 652.681 76.3548 -59.8877
  1313 140.416 48.7316 -85.4585
  1314 141.315 47.4422 84.5961
  1315 449.507 0.159186 -31.3390
  1316 453.324 -8.79451 -0.909152
  1317 452.772 -8.73672 0.813403
  1318 -10.5619 -1.54369 15.9670
  1319 -10.5429 -1.51366 -15.9622
  1320 507.929 -1.34106 24.5185
  1321 764.531 151.863 -6.23381
  1322 64.7048 -2.12952 -7.95761
  1323 64.8631 -2.13438 7.90416
  1324 564.391 -53.0751 17.3457
  1325 2.53011 10.1905 12.2153
  1326 2.69739 10.2514 -12.1067
  1327 115.026 -2.60462 -2.77546
  1328 115.087 -2.56831 2.73944
  1329 449.590 -0.497409 31.8287
  1330 30.4431 0.900750 -1.25718
  1331 30.5555 0.904212 1.23892
  1332 570.829 -7.41608 7.77851
  1333 799.400 144.415 9.57019
</Section>

newXOutput 74

<Section columns = "stress_xx | stress_yy | stress_xy">
  1 636.626 -1.97358 1.16442
  2 637.549 -2.42880 -1.51092
  3 25.2295 0.578471 -1.60311
  4 -0.500677 -0.735200 -0.510365
  5 1142.26 485.915 381.971
  6 1159.83 553.869 -385.516
  7 -0.495459 -0.730596 0.503625
  8 25.1526 0.575177 1.59946
  9 640.756 -1.41774 -1.05307
  10 636.407 -2.42863 -1.56441
  11 637.107 -1.94581 1.24838
  12 634.453 -1.21576 0.396370
  13 633.583 -2.28981 -0.609567
  14 633.194 -2.22789 2.18431
  15 625.086 -1.67460 1.95381
  16 628.022 -4.61546 3.23251
  17 610.114 -3.90372 7.22799
  18 599.089 -1.89644 8.73572
  19 583.617 -2.21141 9.50329
  20 556.269 -1.97104 13.5248
  21 526.125 -1.61233 15.8365
  22 488.093 2.07149 21.9330
  23 435.599 3.23337 19.9621
  24 414.292 0.0171173 28.7092
  25 348.145 4.92842 20.4942
  26 307.526 6.37231 16.1388
  27 296.935 3.38706 11.9308
  28 285.584 9.37387 0.915284
  29 291.829 10.0044 -15.9817
  30 304.216 2.99781 -20.0316
  31 354.114 1.50243 -26.6393
  32 404.033 -2.37427 -27.4506
  33 437.467 2.68933 -19.9126
  34 488.631 2.34524 -21.9228
  35 524.846 -1.89714 -16.9942
  36 559.214 -2.15240 -12.7322
  37 581.490 -1.66903 -9.66297
  38 597.362 -2.03031 -7.95696
  39 614.527 -2.30079 -4.52962
  40 620.824 -2.47096 -4.27587
  41 627.056 -2.31724 -3.81214
  42 633.305 -2.60585 -0.552856
  43 635.559 -3.24689 -1.48128
  44 631.654 -0.135049 0.112313
  45 636.357 -1.81442 -1.43648
  46 638.653 -3.46067 1.70578
  47 641.478 -2.04045 -0.0544976
  48 610.921 -0.177287 -0.961925
  49 576.525 -3.33381 -1.77636
  50 537.319 -6.80440 -2.44685
  51 496.513 -6.09593 -1.75766
  52 460.714 -9.07533 -1.60750
  53 422.769 -9.73976 -1.43860
  54 384.356 -8.63165 -0.614666
  55 343.812 -9.06951 -0.898221
  56 309.442 -9.38288 -1.22433
  57 263.596 -8.83684 -0.952937
  58 216.349 -5.68093 -0.610197
  59 177.234 -3.67872 -0.461756
  60 128.916 -2.31139 -0.0977540
  61 93.8564 -2.10120 -2.34421
  62 61.3510 -2.72818 -0.721956
  63 28.5383 0.304919 1.56479
  64 19.8125 2.27359 0.701195
  65 17.1297 0.915944 1.71033
  66 17.8622 0.411794 1.75476
  67 10.4372 1.30281 0.968693
  68 7.25277 1.72082 3.57576
  69 5.24598 0.615960 1.56057
  70 -7.21320 1.30092 1.67846
  71 -13.4380 0.874547 3.50494
  72 -16.6684 0.266486 3.72276
  73 -30.6955 1.19996 3.07855
  74 -36.4280 1.81903 5.41754
  75 -43.1450 1.10477 2.36079
  76 -50.3508 0.813619 3.17029
  77 -54.0578 0.857951 1.58907
  78 -61.3553 2.15073 -0.923917
  79 -62.9723 1.47218 -0.653285
  80 -58.1055 1.08876 -1.67538
  81 -50.3917 1.47351 -3.60238
  82 -41.4110 0.690996 -5.79203
  83 -31.1825 0.395304 -6.15329
  84 -18.8341 -0.579888 -6.51327
  85 -8.33446 -0.477257 -3.86688
  86 -3.54132 -1.34927 -2.44060
  87 -0.562899 -3.52855 -2.13699
  88 -0.920739 -9.01676 -3.72716
  89 -1.06096 -17.3235 -6.44885
  90 -0.161218 -32.2594 -6.86926
  91 0.434451 -44.2280 -8.52803
  92 0.955150 -63.3507 -6.91024
  93 2.85180 -74.6577 -8.05097
  94 0.583505 -79.2213 -6.34501
  95 -0.0293477 -89.5552 -3.24577
  96 2.57894 -84.2134 0.433559
  97 10.5989 -108.042 6.71794
  98 10.0131 -49.6309 19.4833
  99 23.2017 -7.59921 40.7348
  100 67.7308 138.873 118.592
  101 276.534 396.883 319.725
  102 1495.78 164.099 220.201
  103 1262.66 44.9352 79.1830
  104 1204.45 19.1712 27.1620
  105 1172.61 12.4413 -0.155126
  106 1193.11 18.2627 -22.4080
  107 1273.72 38.3409 -65.3664
  108 1480.27 129.455 -204.323
  109 180.131 448.905 -264.494
  110 47.7225 109.368 -92.6872
  111 17.1688 -18.7919 -34.3875
  112 9.08786 -56.1789 -17.0898
  113 10.5302 -112.712 -5.56444
  114 2.45815 -86.2693 0.373615
  115 -0.182464 -90.5769 3.66480
  116 0.486514 -79.6094 6.56876
  117 2.79843 -74.7399 8.14480
  118 0.934715 -63.3050 6.94431
  119 0.419092 -44.1583 8.53943
  120 -0.168713 -32.1747 6.86409
  121 -1.06176 -17.2700 6.43421
  122 -0.922713 -8.97140 3.71374
  123 -0.562436 -3.51153 2.12525
  124 -3.52095 -1.34723 2.43070
  125 -8.29808 -0.479472 3.85608
  126 -18.7866 -0.585192 6.50644
  127 -31.1270 0.389344 6.15422
  128 -41.3782 0.684455 5.80297
  129 -50.4011 1.46876 3.62448
  130 -58.1584 1.08831 1.69941
  131 -63.0821 1.47068 0.676889
  132 -61.5127 2.15023 0.948615
  133 -54.2699 0.860084 -1.56724
  134 -50.6044 0.816251 -3.15380
  135 -43.4198 1.10782 -2.34745
  136 -36.7275 1.82271 -5.41142
  137 -31.0048 1.20346 -3.07338
  138 -16.9759 0.268617 -3.72264
  139 -13.7483 0.878273 -3.50890
  140 -7.51129 1.30612 -1.68464
  141 4.98014 0.619379 -1.57291
  142 7.01889 1.72447 -3.59475
  143 10.2323 1.30389 -0.985419
  144 17.7026 0.411137 -1.77120
  145 17.0030 0.914357 -1.72362
  146 19.7080 2.27089 -0.712657
  147 28.4539 0.302999 -1.57159
  148 61.2746 -2.73832 0.715186
  149 93.7873 -2.12616 2.33692
  150 128.862 -2.35542 0.0878928
  151 177.201 -3.74230 0.456753
  152 216.321 -5.75444 0.609614
  153 263.557 -8.90006 0.963268
  154 309.364 -9.41326 1.24549
  155 343.690 -9.02714 0.947769
  156 384.190 -8.48273 0.670960
  157 422.543 -9.39184 1.35505
  158 460.919 -9.17866 1.40267
  159 496.670 -6.71816 1.85946
  160 537.728 -6.69155 2.21343
  161 577.624 -3.00580 1.80140
  162 610.018 -0.215678 0.938335
  163 364.191 -33.0421 -34.0830
  164 362.786 -33.6483 33.9995
  165 112.960 30.6831 -47.7952
  166 114.058 30.7882 47.6084
  167 426.645 -18.8763 114.917
  168 446.668 -21.4521 -111.927
  169 216.258 -11.6357 16.0680
  170 216.221 -11.5251 -16.2611
  171 455.089 -17.2313 0.0744108
  172 446.340 -17.2792 0.104674
  173 611.249 109.423 -13.8130
  174 614.350 6.38836 -70.4423
  175 602.856 10.8608 76.6125
  176 151.918 -5.92987 -32.4505
  177 151.943 -5.89073 32.3989
  178 531.127 -52.2912 22.1606
  179 530.781 -40.8658 -33.8293
  180 8.93859 13.5342 10.8788
  181 9.16060 13.6193 -10.7459
  182 725.535 148.569 16.5333
  183 144.094 65.3827 -104.035
  184 154.283 65.9501 111.187
  185 513.190 -24.8626 14.8090
  186 768.098 163.413 -2.63918
  187 337.662 -13.3340 -5.54832
  188 337.145 -13.6471 5.51746
  189 526.747 -17.6251 -13.7363
  190 696.938 0.437332 -18.0193
  191 140.363 -4.24776 6.31570
  192 140.305 -4.28085 -6.38869
  193 61.4512 7.06887 -22.5679
  194 61.7179 6.99664 22.6213
  195 301.341 -11.3693 -73.5351
  196 300.173 -11.9683 74.4534
  197 358.698 -24.0479 -13.6130
  198 359.401 -23.9140 14.3037
  199 101.227 -3.51784 17.5561
  200 101.076 -3.47267 -17.5863
  201 688.951 -6.90327 53.1360
  202 567.629 -54.6458 -5.20525
  203 536.625 -6.75148 -1.62364
  204 525.251 -8.02332 1.58075
  205 543.291 64.0997 55.0844
  206 24.7089 22.8633 -10.9770
  207 25.5538 22.8347 11.3540
  208 537.329 -21.2298 63.9603
  209 500.544 38.6712 -63.8230
  210 351.227 84.5454 -230.714
  211 369.356 71.5403 214.584
  212 12.6798 12.1789 -3.66707
  213 12.8946 12.1785 3.77173
  214 535.918 -18.6162 -66.2423
  215 918.142 127.689 -9.30826
  216 445.171 -48.0585 44.2701
  217 448.375 -47.8165 -42.1173
  218 444.892 -32.5533 1.30105
  219 545.968 -9.79752 7.01265
  220 272.269 -19.0111 -29.0040
  221 268.192 -18.9422 29.7881
  222 165.993 3.07963 -48.0976
  223 166.239 3.02072 47.7317
  224 562.268 -57.9796 -12.6020
  225 441.321 -34.5359 -3.23456
  226 543.932 -9.63375 -5.21006
  227 427.886 -12.4930 -1.10090
  228 431.437 -11.7665 1.87894
  229 540.198 -24.4841 35.5707
  230 53.9514 0.285608 -18.7762
  231 54.1646 0.263832 18.7797
  232 -6.37783 -4.12944 -17.9450
  233 -6.41256 -4.17361 17.9583
  234 93.3968 -3.82060 -10.3080
  235 93.5300 -3.82979 10.2391
  236 236.535 -7.63554 7.23098
  237 236.576 -7.75400 -7.27731
  238 267.497 19.0602 -105.799
  239 267.532 15.9883 104.644
  240 547.319 -17.5952 -30.4557
  241 263.394 -15.5690 -45.7097
  242 263.631 -16.0337 45.1372
  243 490.542 8.12613 72.5292
  244 435.200 37.2048 4.41507
  245 471.707 -47.1983 3.10581
  246 2.68014 -9.85505 -15.3586
  247 2.52128 -9.98295 15.4957
  248 32.2719 36.8817 -38.6920
  249 34.2498 35.8030 40.4274
  250 464.037 -46.2031 -6.13605
  251 824.896 162.617 -22.6751
  252 46.7465 30.9524 -18.1267
  253 47.2801 30.9473 18.3078
  254 -16.2949 4.15244 11.4878
  255 -16.2035 4.17411 -11.4239
  256 828.036 153.480 27.7075
  257 299.461 -15.1621 -12.4006
  258 299.248 -14.9405 12.2075
  259 574.127 -37.6850 57.2145
  260 1020.00 166.535 105.409
  261 179.734 -9.62453 -26.9043
  262 179.717 -9.69213 26.8875
  263 590.715 88.7867 -51.6915
  264 986.550 188.531 -97.6004
  265 696.598 73.7010 45.0519
  266 747.187 58.0555 -148.898
  267 471.077 -23.4191 3.87091
  268 539.322 3.58971 -80.3515
  269 507.083 -36.3607 -17.8221
  270 562.489 -10.7602 19.0253
  271 4.63445 5.45567 -7.96177
  272 4.85119 5.43946 8.03781
  273 555.982 -14.3215 -142.525
  274 65.1091 18.8658 -23.1710
  275 65.4086 18.8361 23.2872
  276 543.066 -13.2398 -40.1567
  277 80.8950 89.5304 -108.403
  278 77.5112 -0.397023 -2.42626
  279 77.5959 -0.383123 2.39598
  280 572.380 -34.3923 -59.9891
  281 105.133 47.2331 -59.6089
  282 106.618 47.0005 59.7776
  283 38.0402 -0.992612 13.0108
  284 37.8137 -0.981337 -13.0154
  285 470.322 -22.3540 -3.82166
  286 81.4704 88.6313 111.124
  287 734.522 68.6522 172.973
  288 213.155 -8.81216 -10.0195
  289 213.132 -8.76253 9.90427
  290 379.130 -16.9354 -5.74220
  291 378.955 -18.2013 6.20478
  292 323.571 33.0129 -158.048
  293 516.774 -56.1305 -2.69698
  294 581.724 -4.52312 2.97855
  295 311.919 33.1479 153.188
  296 363.599 -11.2351 -2.03295
  297 363.466 -11.2303 2.33025
  298 507.951 -37.7470 18.1318
  299 578.436 -6.95477 -8.48402
  300 2.11531 2.11913 -10.6055
  301 2.35686 2.10321 10.6436
  302 733.917 144.860 -3.75808
  303 638.522 -27.0849 26.2657
  304 572.766 -4.11963 -0.622881
  305 582.233 -3.61312 0.565589
  306 575.600 -48.1236 55.4793
  307 709.403 78.6606 -40.7940
  308 628.256 116.506 28.6589
  309 286.399 -18.1141 -19.0292
  310 283.921 -18.4286 19.3471
  311 580.864 -4.46260 -1.75355
  312 388.734 -28.6934 -80.2690
  313 383.324 -30.8808 17.0286
  314 365.284 -19.2006 90.8215
  315 574.081 -7.73389 10.2966
  316 140.554 -6.42901 -16.9633
  317 140.659 -6.47450 16.9019
  318 530.762 -14.0650 140.808
  319 343.263 -27.6579 -23.6877
  320 624.928 81.7011 63.9934
  321 203.943 14.2056 -70.0904
  322 196.591 14.8703 69.5782
  323 69.8560 -1.29744 -4.39244
  324 69.9750 -1.28943 4.34441
  325 508.893 -11.7737 3.32405
  326 488.431 -8.62669 0.00192692
  327 485.805 -9.29299 -0.156615
  328 539.504 -13.9259 42.6456
  329 56.7869 -1.84846 9.87389
  330 56.5892 -1.83207 -9.91025
  331 166.893 -4.18126 -3.65473
  332 166.924 -4.12091 3.62285
  333 5.70766 -21.4870 -7.35278
  334 5.36445 -21.6862 7.76133
  335 430.181 18.9317 49.5662
  336 644.463 -24.6612 -19.6766
  337 421.827 -23.5960 -1.88603
  338 473.739 -11.1873 -0.961198
  339 505.614 62.6218 -29.8229
  340 105.269 -3.45401 -24.2330
  341 105.412 -3.45753 24.2206
  342 410.615 -22.3402 3.93763
  343 122.195 3.65300 -34.6006
  344 122.431 3.55319 34.5134
  345 25.6011 19.8326 -3.11839
  346 25.8842 19.8336 3.24143
  347 496.021 -52.0540 55.7935
  348 1074.36 70.6072 27.6900
  349 451.309 7.39818 -58.5567
  350 372.606 -33.2969 50.9702
  351 370.722 -32.5927 -52.3855
  352 547.141 -8.32111 79.2454
  353 490.677 -3.16820 57.4407
  354 489.804 -50.3177 -57.4195
  355 298.017 -8.66689 1.24706
  356 297.967 -8.75104 -1.17598
  357 541.845 -35.2236 46.7423
  358 742.065 146.635 0.771936
  359 577.541 -7.26642 -14.0482
  360 158.851 -6.17995 -12.5244
  361 158.930 -6.18634 12.4201
  362 545.618 -49.6032 -68.4095
  363 578.500 41.6856 -78.4225
  364 399.165 21.4650 -31.9301
  365 545.915 -36.0435 -53.9972
  366 -17.2933 0.839219 -13.7944
  367 -17.3113 0.816588 13.8118
  368 458.364 -12.5139 -0.247090
  369 -6.50273 -3.84012 -8.53380
  370 -6.49385 -3.84095 8.51490
  371 351.641 188.462 -278.849
  372 15.9136 14.5912 6.18123
  373 16.2717 14.7002 -5.98847
  374 487.243 -3.34059 -56.9843
  375 271.961 -12.3282 9.39245
  376 272.134 -12.4772 -9.47377
  377 -1.57045 -18.7347 15.7567
  378 -1.54101 -18.7010 -15.7419
  379 287.629 197.060 263.161
  380 223.796 -12.1695 -36.2021
  381 223.985 -11.6784 36.2295
  382 72.6738 54.6714 -55.7371
  383 74.1454 54.5547 55.4507
  384 -24.7155 4.32343 3.80726
  385 -24.5892 4.33104 -3.73741
  386 559.335 38.3512 79.0922
  387 428.059 -44.8224 26.7501
  388 428.528 -39.5153 13.1374
  389 516.083 -57.8947 -12.8731
  390 135.104 16.3294 -47.3178
  391 135.554 16.3075 47.2604
  392 12.4198 -12.0542 4.29269
  393 11.7896 -12.3315 -3.39372
  394 531.366 75.5282 19.3952
  395 524.608 -16.2594 10.9538
  396 306.688 -24.1282 33.9083
  397 193.039 -5.17936 -42.8281
  398 193.129 -5.21587 42.5477
  399 387.297 -13.1920 -3.05698
  400 386.903 -11.7875 2.72971
  401 304.177 -24.7419 -35.7555
  402 239.450 -4.26308 -56.9879
  403 239.433 -4.58503 57.4222
  404 548.308 -49.6680 -30.2407
  405 324.014 -25.4887 22.3757
  406 498.243 -16.6031 5.55780
  407 497.188 -15.3061 -4.36200
  408 420.881 -39.2496 -14.5983
  409 592.896 -3.53324 -3.20303
  410 205.693 86.0046 -161.345
  411 563.339 -8.68144 24.0319
  412 591.752 -3.97259 5.12052
  413 221.067 -12.1687 22.4746
  414 221.139 -12.0103 -22.4591
  415 426.172 -44.2948 -27.4723
  416 64.8965 27.8792 25.0419
  417 64.5580 27.8547 -25.0537
  418 1084.79 70.5531 -56.3329
  419 489.529 -28.9636 -8.87045
  420 595.854 -3.03831 1.84155
  421 194.653 80.6662 154.095
  422 884.694 148.332 31.1682
  423 521.838 -9.45698 -2.55472
  424 395.888 -29.5511 -11.7306
  425 169.007 32.5736 -78.8798
  426 179.835 30.1456 78.4049
  427 484.018 -31.5829 8.77103
  428 516.826 -6.56542 -41.8857
  429 4.28743 -0.543419 9.82610
  430 4.02964 -0.538126 -9.81699
  431 189.965 46.2923 -104.413
  432 190.573 46.4517 104.105
  433 26.6945 10.4206 -11.7754
  434 26.9346 10.3999 11.8702
  435 434.883 -10.1589 0.149682
  436 434.363 -9.94179 -0.0105311
  437 539.571 -24.9930 -37.2645
  438 -0.622302 -0.476334 18.6110
  439 -0.525041 -0.387645 -18.5391
  440 555.124 -53.8505 25.4194
  441 523.790 -15.3274 -9.48522
  442 844.482 161.315 -29.6971
  443 46.0983 -1.61140 4.77612
  444 45.9206 -1.61166 -4.81756
  445 1005.39 291.977 136.625
  446 21.8690 18.8247 -35.0100
  447 70.4062 2.87447 -23.8652
  448 70.6319 2.82544 23.8698
  449 1004.28 299.219 -133.541
  450 23.1713 21.1016 38.1068
  451 -22.7994 3.22316 -0.0587166
  452 -22.6349 3.21866 0.125647
  453 60.3957 41.4452 -34.1870
  454 61.3947 41.4781 34.3590
  455 665.318 106.165 -50.5319
  456 532.592 -21.6558 -23.0764
  457 592.913 -3.10136 -1.54803
  458 557.015 -8.85865 -28.4307
  459 -5.25692 4.77503 16.8907
  460 -5.15767 4.83284 -16.8220
  461 538.263 -22.4104 27.3790
  462 354.945 -20.9898 -10.9747
  463 353.906 -21.1847 9.83996
  464 476.637 -52.3505 -13.4607
  465 342.861 -3.74630 -110.356
  466 521.448 -7.86655 42.7038
  467 425.332 -15.3327 2.05602
  468 618.271 -43.3009 -15.1573
  469 332.357 4.18149 118.049
  470 35.4089 -0.577607 9.48277
  471 35.1765 -0.567664 -9.49825
  472 684.946 135.217 -21.1551
  473 541.130 -5.51716 -0.113254
  474 539.355 -6.05885 -0.356756
  475 415.009 -28.6798 6.90855
  476 189.740 -6.69854 -7.17674
  477 189.745 -6.62849 7.10545
  478 113.826 -1.64898 -28.6667
  479 113.968 -1.67090 28.6235
  480 362.880 14.0351 19.1793
  481 97.6197 -3.17535 14.0618
  482 97.4736 -3.14658 -14.1197
  483 99.5491 8.87655 32.4166
  484 99.2243 9.00774 -32.3832
  485 529.834 -41.1138 32.3764
  486 301.754 -18.8566 -53.8645
  487 280.721 -9.99195 5.20229
  488 280.809 -10.2053 -5.20670
  489 304.862 -19.4328 53.8682
  490 822.208 198.373 -26.2654
  491 -13.1216 -1.88664 -10.9119
  492 -13.1128 -1.89713 10.9044
  493 217.062 -6.61124 -3.04378
  494 217.075 -6.52472 3.03413
  495 0.427682 -34.1708 -12.6242
  496 0.340940 -34.2842 12.7419
  497 482.538 -8.94444 0.250235
  498 360.983 16.8716 -9.52137
  499 474.251 49.4934 27.0026
  500 299.276 -2.46788 -88.9338
  501 153.286 -7.88849 21.1965
  502 153.251 -7.82348 -21.2235
  503 -31.8015 1.11972 -3.87797
  504 -31.5730 1.11267 3.90982
  505 573.253 -9.25395 -77.5773
  506 59.1109 0.207489 -3.14556
  507 59.2179 0.214631 3.11091
  508 477.199 -38.2453 -5.78025
  509 507.753 -43.5431 -16.5397
  510 107.778 85.1766 -111.716
  511 426.963 14.7788 -170.619
  512 8.07583 13.6091 6.18143
  513 8.28482 13.6402 -6.06379
  514 268.028 -13.0586 -13.0270
  515 267.911 -12.9522 12.8011
  516 725.390 36.5881 -6.35978
  517 527.445 -31.6540 -29.6015
  518 105.163 80.9359 110.241
  519 522.387 -58.1592 21.0826
  520 503.239 -47.9142 11.3677
  521 118.109 -2.86396 -9.28719
  522 118.198 -2.85416 9.20981
  523 425.270 4.98013 45.4376
  524 304.617 -22.9549 -23.3811
  525 553.697 -13.2973 16.6709
  526 -2.17131 -13.4930 -10.6486
  527 -2.17664 -13.4806 10.6317
  528 393.289 -34.3452 60.1756
  529 591.686 -43.4993 -36.1938
  530 763.711 61.8079 -38.1051
  531 420.491 -15.8025 -2.02973
  532 135.829 -2.62685 -2.65182
  533 135.878 -2.58271 2.63054
  534 269.990 2.52329 85.8860
  535 735.808 127.795 28.7108
  536 734.312 164.151 -266.338
  537 669.756 7.77038 32.2989
  538 485.787 -53.7014 10.9565
  539 1116.93 89.0291 75.8093
  540 839.672 209.266 35.5333
  541 128.612 -5.43783 23.0605
  542 128.504 -5.38587 -23.0891
  543 467.540 -39.3319 2.81222
  544 39.0768 17.2319 -11.5355
  545 39.3485 17.2257 11.6463
  546 584.579 -47.0600 36.3670
  547 488.238 27.0123 66.5382
  548 585.589 -4.30083 9.42180
  549 438.321 -27.3746 -0.719009
  550 604.682 12.1389 -179.824
  551 947.212 262.695 181.810
  552 472.375 -10.9666 0.0107121
  553 576.734 -6.41351 -15.6553
  554 96.0908 39.5357 -45.4956
  555 96.7732 39.0686 45.3207
  556 336.891 -14.6628 -7.38894
  557 336.747 -14.3509 7.50198
  558 4.40430 -35.6134 -7.42280
  559 591.417 -19.3615 67.8110
  560 25.3938 22.1501 -0.999983
  561 25.7602 22.2146 1.17551
  562 5.08934 -34.1602 8.69580
  563 539.982 -24.3889 -55.9298
  564 620.395 41.3476 -73.3633
  565 618.570 46.6538 73.4816
  566 31.8167 30.1066 26.8493
  567 30.3040 30.6992 -26.3557
  568 -9.85652 0.506198 7.56066
  569 -10.1184 0.511898 -7.54500
  570 564.516 20.7137 185.004
  571 317.599 -18.3909 13.6023
  572 317.900 -18.3284 -13.7911
  573 678.488 -5.55816 -99.1592
  574 100.933 -1.41632 5.37285
  575 100.851 -1.43600 -5.42495
  576 54.9269 -1.09123 -1.23697
  577 55.0102 -1.08410 1.22480
  578 749.967 141.120 -20.8694
  579 74.0193 122.445 -122.161
  580 408.387 8.58261 -38.5840
  581 565.421 89.9312 -32.7098
  582 9.39619 2.16135 9.78745
  583 9.73794 2.28985 -9.55882
  584 551.077 277.000 310.547
  585 479.699 -14.8667 -2.12141
  586 22.6824 4.85300 -13.3079
  587 22.9202 4.81825 13.3684
  588 554.568 -43.9266 45.8792
  589 87.2361 118.975 124.382
  590 402.489 -10.0786 0.947010
  591 402.602 -10.0080 -0.948471
  592 -0.234137 -27.5277 13.4575
  593 -0.190966 -27.4841 -13.4130
  594 685.093 132.311 -1.09737
  595 434.732 -33.8398 83.5764
  596 415.806 -19.1322 -3.20501
  597 416.416 22.4231 179.799
  598 -33.5123 1.88318 7.87281
  599 -33.4798 1.89341 -7.83819
  600 677.675 13.0077 -35.0815
  601 888.804 165.499 -132.979
  602 263.633 27.8340 -121.959
  603 148.110 -6.35672 -27.9377
  604 148.258 -6.36006 27.9482
  605 608.744 -2.49417 2.35204
  606 411.908 -19.5072 2.73418
  607 544.420 -8.73300 4.93296
  608 539.960 -24.4608 54.5454
  609 34.4974 -0.923723 4.82225
  610 34.2862 -0.919936 -4.85264
  611 324.493 -12.4153 -4.38908
  612 324.456 -12.1160 4.29096
  613 204.946 4.26043 -58.6964
  614 203.682 4.32184 58.4716
  615 767.551 54.3701 56.0941
  616 1232.31 92.9326 -133.987
  617 -1.02500 -0.814456 6.53087
  618 -1.29979 -0.811930 -6.52727
  619 196.730 -8.51331 13.0981
  620 196.701 -8.50173 -13.2429
  621 719.020 44.8636 16.1830
  622 600.869 -2.92137 -0.744262
  623 599.626 -3.83544 0.215663
  624 451.242 0.178140 44.9077
  625 632.431 -33.3186 -63.1650
  626 350.561 -29.1771 27.7842
  627 -5.47891 8.19312 -6.03250
  628 -5.63535 8.17882 6.12444
  629 558.139 12.6061 82.4549
  630 226.785 -13.3152 -29.4203
  631 226.594 -13.5277 29.4737
  632 453.334 -27.2832 -0.951621
  633 555.927 -13.0231 -15.0213
  634 323.717 -26.0062 -40.0472
  635 530.339 64.0935 -50.1702
  636 356.414 -24.3069 -68.8095
  637 140.076 -3.76412 -4.94590
  638 140.124 -3.72372 4.89225
  639 326.947 -26.4379 40.2614
  640 691.874 114.137 43.8075
  641 552.351 -26.1103 68.8121
  642 452.125 -21.4313 1.31441
  643 327.846 -9.91774 2.48256
  644 327.765 -9.93469 -2.42253
  645 250.604 -9.97872 -9.49946
  646 250.527 -9.88198 9.41808
  647 530.364 -48.4255 -24.2950
  648 275.001 -16.1378 16.5170
  649 275.275 -16.0731 -16.7880
  650 540.014 82.7390 -6.65931
  651 490.290 -26.7655 9.16898
  652 606.116 -3.29851 -3.83863
  653 525.203 -8.97825 -73.1651
  654 83.8256 -3.56636 18.5605
  655 83.6555 -3.54194 -18.5698
  656 593.142 -3.78200 -8.56998
  657 110.782 57.7196 -79.6565
  658 112.640 57.6008 80.0375
  659 606.111 -33.0436 84.2701
  660 214.276 54.4660 128.466
  661 59.6181 -0.497532 18.5463
  662 59.4191 -0.485194 -18.5487
  663 518.405 -31.1468 106.592
  664 507.847 80.2719 -242.729
  665 505.738 16.7023 -73.4521
  666 659.579 120.044 38.8634
  667 444.669 -21.0323 0.649366
  668 795.326 141.590 -3.44694
  669 -34.5126 1.84152 -2.83827
  670 -34.3208 1.83713 2.88221
  671 356.418 2.89510 -128.477
  672 37.2823 -0.550717 3.63981
  673 37.1192 -0.552052 -3.67176
  674 444.988 -36.4239 -82.7197
  675 152.417 20.5117 -56.8617
  676 151.256 20.5983 56.8410
  677 6.95043 7.57710 -5.37209
  678 7.16035 7.56874 5.46448
  679 380.654 -33.3159 -21.9299
  680 536.208 -5.30956 -27.9190
  681 261.746 -8.79859 -3.33855
  682 261.768 -8.71311 3.36068
  683 192.195 -10.0099 -19.2052
  684 192.355 -10.1432 19.1481
  685 37.4933 30.7731 -13.6874
  686 38.0833 30.8474 13.8920
  687 543.113 -7.76544 2.02264
  688 249.897 -16.2290 24.8571
  689 251.415 -15.9616 -24.8435
  690 603.206 -46.2318 -0.0458215
  691 499.876 -50.2715 -5.93014
  692 395.348 -12.5771 -1.67349
  693 394.010 -11.8404 1.84431
  694 548.704 -56.4888 35.8858
  695 885.216 179.674 52.0888
  696 482.790 -19.0672 -130.869
  697 552.363 -15.9185 28.0034
  698 551.653 -19.7033 -74.2739
  699 180.381 -5.84302 -9.24854
  700 180.400 -5.80457 9.15303
  701 430.446 -5.07636 146.167
  702 1170.55 151.611 138.560
  703 87.3999 24.6885 -34.1227
  704 87.5339 24.8571 34.2304
  705 540.997 -6.57901 -0.953759
  706 545.120 -5.98974 0.989522
  707 234.152 124.404 -205.523
  708 577.040 -3.56249 15.7932
  709 499.398 -10.0376 1.07423
  710 664.280 130.757 -13.9299
  711 72.8199 12.1480 -25.1488
  712 73.1273 12.0741 25.2392
  713 612.673 -2.01944 0.260014
  714 503.315 -20.5620 -9.44133
  715 626.687 -7.28554 57.6818
  716 263.192 -18.6569 -37.9150
  717 263.845 -17.8861 37.6013
  718 68.1435 -2.16031 14.0358
  719 67.9548 -2.13449 -14.0654
  720 564.438 -4.96082 -2.15104
  721 487.454 103.989 256.829
  722 4.72765 5.30946 14.6153
  723 4.91259 5.42421 -14.4885
  724 566.912 -7.10848 -6.46046
  725 551.687 -11.2014 9.34162
  726 449.274 0.709203 -48.1651
  727 4.52674 -47.4530 -5.08048
  728 4.25217 -47.9510 5.58361
  729 206.260 56.2502 -128.543
  730 444.443 -43.9147 -61.0212
  731 232.877 123.169 207.301
  732 605.636 -2.12467 1.28167
  733 597.405 89.8145 51.7999
  734 444.174 40.0977 -18.8567
  735 774.609 155.998 5.73518
  736 600.090 -3.06310 5.33309
  737 -30.5337 0.868510 5.42337
  738 -30.7878 0.873217 -5.40227
  739 640.893 -33.3431 24.2524
  740 419.634 -13.5149 -2.12507
  741 158.196 -0.0851039 -41.1740
  742 158.414 -0.236648 40.9707
  743 550.659 -7.63020 -3.26131
  744 967.043 136.637 -51.5475
  745 76.2777 -2.09308 -9.07564
  746 76.4409 -2.10482 9.02244
  747 609.900 -2.19948 -2.33910
  748 132.649 -5.84528 -12.6065
  749 132.750 -5.86567 12.5269
  750 603.927 -22.3949 -60.2198
  751 558.819 -6.07854 22.1982
  752 507.047 -2.68595 72.6755
  753 609.981 -2.27755 0.241071
  754 572.916 -5.37805 4.79630
  755 381.686 -21.5303 -7.11449
  756 473.731 -13.8847 1.19290
  757 539.295 -33.2180 -45.5278
  758 525.536 -33.4668 28.2951
  759 618.457 76.1005 -64.9446
  760 518.074 -29.7720 20.2174
  761 548.560 -32.0850 59.0605
  762 322.742 -22.4688 17.7189
  763 12.4263 0.433892 1.83740
  764 11.8135 0.388390 -1.25555
  765 478.727 -8.77548 -0.303025
  766 477.742 -8.72642 0.130284
  767 568.866 -3.66278 -0.164864
  768 570.733 -3.56127 0.291690
  769 548.238 -15.7111 34.8681
  770 505.504 -44.9091 78.6669
  771 418.254 -34.5537 10.4482
  772 372.997 -23.1786 9.92107
  773 985.332 125.859 59.0078
  774 552.460 -14.7424 -21.6163
  775 327.096 59.7820 -192.253
  776 514.592 -26.2856 -17.2511
  777 27.2274 0.306930 -13.7287
  778 27.4642 0.288203 13.7503
  779 470.455 41.3172 -42.2215
  780 1137.20 34.4824 -14.6169
  781 581.767 16.3195 -79.9624
  782 24.3480 26.9863 -50.2525
  783 602.630 107.652 13.1243
  784 466.547 -30.5729 3.40612
  785 526.776 -12.6495 70.8795
  786 442.279 -45.7840 61.3465
  787 695.871 2.87157 120.121
  788 26.2072 32.3390 53.4107
  789 322.456 -1.34265 101.195
  790 445.852 -12.9796 0.523260
  791 496.055 -43.0307 -79.5704
  792 309.809 -24.4922 -28.8813
  793 245.408 11.9478 -89.1455
  794 576.000 -7.77206 78.3002
  795 372.545 -26.1436 14.7684
  796 81.8459 -2.15740 7.92357
  797 81.7163 -2.15955 -7.98524
  798 537.815 -3.06550 24.6862
  799 492.493 3.02952 -70.9166
  800 -41.1220 1.98645 4.63887
  801 -41.0595 1.99052 -4.60044
  802 362.748 -12.6113 -2.89746
  803 361.749 -12.0075 2.77606
  804 270.225 31.0690 123.604
  805 244.487 -14.6726 19.0625
  806 244.796 -14.3344 -19.2296
  807 609.273 -1.72897 -1.14094
  808 221.561 17.7047 87.0513
  809 17.5930 -0.208031 5.05197
  810 17.3397 -0.203607 -5.06919
  811 531.612 -16.2600 54.4839
  812 559.733 -5.89812 1.59895
  813 -29.9242 0.457966 8.08832
  814 -29.9326 0.468092 -8.07186
  815 351.755 -21.7082 76.7579
  816 70.5010 61.1911 -68.4746
  817 71.3302 58.6044 67.5186
  818 345.622 15.0673 7.96035
  819 3.55177 -0.425134 -5.76592
  820 3.83024 -0.428640 5.76289
  821 402.944 -37.9016 -57.6078
  822 545.481 -56.4693 -11.9496
  823 -2.76545 -2.62043 -3.51050
  824 -2.75689 -2.61389 3.49709
  825 42.3081 0.875322 -1.24953
  826 42.4057 0.880310 1.23115
  827 486.599 -43.6339 7.07360
  828 411.706 -41.9651 41.6207
  829 453.265 -9.25724 0.138842
  830 410.770 -33.7526 -11.9146
  831 159.653 -2.92166 -1.07050
  832 159.691 -2.86378 1.05730
  833 -45.9568 0.999127 2.40533
  834 -45.8529 0.997968 -2.36715
  835 508.991 -8.10850 -1.20269
  836 462.313 18.6663 -60.6157
  837 515.135 -11.6176 -4.61739
  838 310.477 -24.1193 27.6489
  839 516.042 -8.78629 -58.1048
  840 547.617 -17.0379 -36.0035
  841 510.933 -7.18421 1.04594
  842 377.689 -13.4772 103.657
  843 403.538 -39.6417 -25.3306
  844 246.651 -1.86935 -69.1650
  845 247.971 -0.158580 69.5233
  846 346.011 -26.5331 -19.1963
  847 571.285 62.7774 68.5188
  848 536.681 -54.4321 -46.3920
  849 202.584 -6.75764 -4.78121
  850 202.585 -6.66878 4.74255
  851 413.049 -10.9276 1.21705
  852 413.074 -11.0043 -1.13109
  853 495.316 -3.56559 -38.1662
  854 173.801 -7.48977 -15.5483
  855 173.908 -7.54394 15.4394
  856 2.14920 -49.2771 -9.26181
  857 2.04207 -49.4926 9.47081
  858 95.2137 -1.37853 -0.118215
  859 95.1445 -1.40324 0.102374
  860 505.578 -9.43214 -1.65215
  861 388.835 -37.1123 37.8722
  862 596.319 -49.3393 11.9679
  863 365.894 7.63974 30.4678
  864 517.054 -13.5193 5.39330
  865 566.071 -49.7660 -33.8117
  866 88.0342 5.05161 -28.1711
  867 88.2904 4.96581 28.1667
  868 451.033 -9.81028 -0.110971
  869 366.952 -14.0056 -4.94982
  870 365.738 -13.8995 5.27784
  871 566.764 88.0472 36.8933
  872 200.882 -2.27245 -49.2084
  873 200.723 -2.49914 49.0244
  874 392.448 -35.8766 20.8497
  875 40.9485 25.5999 -12.0159
  876 41.3289 25.5570 12.1293
  877 333.383 -23.5906 63.2531
  878 397.759 -26.2717 -7.79001
  879 497.950 -3.69880 38.5593
  880 485.348 -54.1436 23.7708
  881 555.374 -41.6320 -49.9708
  882 387.882 -37.4121 -38.3299
  883 324.979 -22.3879 -17.0669
  884 1025.98 83.8255 -16.0724
  885 507.937 -53.5557 2.51484
  886 16.9516 17.7351 3.47250
  887 17.2221 17.7728 -3.32872
  888 443.224 -44.6070 13.7111
  889 484.525 -53.8154 -37.5153
  890 18.6531 15.1316 -2.03479
  891 18.8924 15.1391 2.14627
  892 189.072 -6.97758 37.8388
  893 189.159 -7.17167 -38.0323
  894 227.099 -11.7069 41.4062
  895 226.999 -11.9688 -41.6521
  896 700.027 140.213 15.8527
  897 -0.957911 -21.6181 -10.2502
  898 -0.965164 -21.5889 10.2413
  899 166.236 13.6566 -54.1598
  900 165.466 13.3874 53.6844
  901 1174.06 38.0172 -58.7430
  902 35.8332 -0.165608 2.09652
  903 35.6988 -0.169462 -2.12168
  904 2.34115 -53.9385 1.54882
  905 2.69828 -52.9531 -0.716191
  906 -23.1298 -0.223907 8.46766
  907 -23.1587 -0.216549 -8.46571
  908 133.122 38.8578 -63.4880
  909 135.158 37.5652 62.6577
  910 -9.40158 0.902754 -17.4576
  911 -9.45169 0.860679 17.4887
  912 43.0433 3.19825 -18.7344
  913 43.2849 3.15588 18.7653
  914 146.699 -1.98409 35.0093
  915 146.582 -1.97641 -35.1584
  916 121.689 -4.29057 -28.3541
  917 121.823 -4.28452 28.3214
  918 596.623 -2.54530 -8.58206
  919 295.773 65.7328 179.365
  920 407.450 -40.3919 24.0318
  921 293.156 -21.4177 22.6271
  922 559.302 58.3319 -67.9955
  923 1154.88 24.5616 23.6086
  924 654.733 32.7592 -60.9280
  925 117.955 -4.48307 17.8872
  926 117.825 -4.43432 -17.9422
  927 27.2514 -0.710913 -13.1638
  928 27.4869 -0.717040 13.1679
  929 0.131984 -9.25876 -18.7612
  930 0.0453282 -9.34545 18.8254
  931 302.892 -14.1093 10.6072
  932 303.035 -14.3609 -10.6469
  933 40.9241 9.76081 -17.1777
  934 41.1802 9.71870 17.2614
  935 188.053 -8.59678 -32.3593
  936 188.191 -8.60003 32.3469
  937 403.383 -1.30792 -35.7685
  938 194.414 -10.7270 -22.8793
  939 194.306 -10.6225 22.9504
  940 454.498 -14.1165 0.626146
  941 550.350 -30.9210 -63.7694
  942 247.271 -10.5083 11.0202
  943 247.370 -10.5952 -11.1419
  944 -10.0981 -1.04048 -6.10553
  945 -10.0692 -1.04295 6.09167
  946 556.936 -40.2335 -96.4412
  947 535.815 -31.6228 39.1606
  948 470.973 -33.6290 -5.28007
  949 467.654 16.5545 63.7986
  950 215.602 -12.3513 -25.6703
  951 215.625 -12.1318 25.7431
  952 518.406 20.6513 76.5018
  953 487.502 42.7624 50.4474
  954 962.706 114.986 20.6324
  955 499.171 -19.0467 6.35102
  956 270.134 -8.75198 -4.99465
  957 270.111 -8.60120 5.02968
  958 449.501 -37.3854 2.72957
  959 624.307 114.252 -30.1846
  960 543.243 -7.06730 -2.10883
  961 363.511 -10.1431 1.67139
  962 363.380 -10.0747 -1.57181
  963 48.4304 41.6654 -31.8095
  964 49.6047 41.6169 32.0258
  965 86.4279 242.529 -198.913
  966 517.189 -11.8682 57.7259
  967 636.634 -9.20006 -50.2491
  968 -7.79707 6.31812 1.69768
  969 -7.62481 6.31832 -1.61005
  970 1259.05 306.339 -241.825
  971 546.146 -58.4320 0.0512739
  972 580.907 -51.7561 -29.8222
  973 538.527 -45.8973 34.3063
  974 669.646 130.969 11.5569
  975 50.5178 57.3048 -64.1183
  976 123.626 211.655 196.860
  977 -2.73114 -6.82031 19.0172
  978 -2.67754 -6.75672 -18.9855
  979 521.983 -14.4939 7.01932
  980 836.923 147.067 -20.0613
  981 51.9324 56.1600 66.4419
  982 -2.27578 -7.89456 -6.78964
  983 -2.27593 -7.87177 6.77114
  984 450.087 -11.8960 -0.883684
  985 340.128 -27.3382 -30.2256
  986 542.867 -42.6090 -41.8241
  987 158.847 42.8508 -82.6966
  988 161.348 43.5421 82.9044
  989 529.913 -13.0369 -51.1496
  990 529.628 -17.7219 14.5799
  991 -13.1159 4.00684 15.0437
  992 -13.0448 4.04474 -14.9918
  993 324.873 -21.3357 -59.7083
  994 537.534 35.1991 -76.3008
  995 398.202 -16.1202 3.41721
  996 290.832 -9.12191 1.04865
  997 290.774 -9.17303 -1.01663
  998 -5.81872 -6.62781 -13.9429
  999 -5.82664 -6.64209 13.9297
  1000 536.824 -19.9442 -18.4776
  1001 509.764 -7.08151 0.250440
  1002 509.300 -7.08997 -0.0524726
  1003 707.041 118.225 -39.2397
  1004 133.481 11.0880 -43.2699
  1005 133.813 10.8677 43.1913
  1006 88.8928 -1.02552 -23.6860
  1007 89.0628 -1.04255 23.6678
  1008 585.900 32.7940 80.8948
  1009 548.979 -11.3334 -9.81170
  1010 102.703 15.5704 -35.8003
  1011 103.103 15.4581 35.9282
  1012 569.700 -4.06213 -1.31430
  1013 537.257 -23.7531 -29.1675
  1014 524.711 -58.1944 -28.1363
  1015 21.7796 19.7977 2.91280
  1016 21.2158 19.7042 -2.65539
  1017 -23.8354 4.35752 8.45215
  1018 -23.7430 4.37020 -8.38893
  1019 334.862 12.2657 -13.3022
  1020 899.372 227.669 -69.7304
  1021 417.680 -31.1710 -6.30712
  1022 279.621 -12.2431 -61.2824
  1023 661.093 -23.1748 -2.11404
  1024 280.707 -12.2136 62.1015
  1025 478.171 -54.8787 42.8889
  1026 541.737 -22.4993 -45.5226
  1027 194.589 -4.89098 -1.52641
  1028 194.617 -4.81682 1.51843
  1029 373.341 -29.7150 -17.3949
  1030 232.382 -8.89057 -48.3838
  1031 232.318 -8.95743 48.1712
  1032 78.5880 51.8083 -52.8481
  1033 79.7960 51.6876 53.0063
  1034 165.652 -5.38369 -5.36747
  1035 165.680 -5.32382 5.31126
  1036 480.952 -16.5042 2.50525
  1037 407.577 3.57068 -147.747
  1038 498.095 -17.3373 -6.43285
  1039 452.310 -49.8169 -27.5892
  1040 302.205 -13.4953 7.49125
  1041 302.435 -13.5872 -7.50752
  1042 577.354 -4.46163 1.66388
  1043 519.934 -13.5405 -6.55059
  1044 351.391 8.68944 25.1629
  1045 559.533 -5.62433 -20.6824
  1046 220.628 66.1482 145.150
  1047 574.296 -5.54736 -16.7754
  1048 155.558 25.9079 -63.1049
  1049 151.101 26.1838 60.6923
  1050 682.842 -7.48207 -0.0778140
  1051 66.0385 33.7373 -28.9260
  1052 66.6249 33.5058 28.9301
  1053 11.6650 2.05825 3.63845
  1054 12.2003 2.16287 -3.28644
  1055 99.9561 -2.56799 6.34723
  1056 99.8568 -2.58296 -6.41215
  1057 250.136 66.8708 -160.071
  1058 1295.93 349.515 260.346
  1059 535.266 -19.9203 18.9418
  1060 482.421 -53.7773 -21.8525
  1061 338.970 -27.9181 -47.0378
  1062 -5.25778 7.96342 12.3738
  1063 -5.12717 8.00683 -12.2855
  1064 381.219 -20.5917 5.97901
  1065 418.711 -16.7674 2.32285
  1066 -0.148383 -30.5563 9.80826
  1067 -0.138084 -30.5909 -9.80696
  1068 66.1504 40.6192 -33.9391
  1069 66.9078 40.5559 34.1296
  1070 376.336 -19.0457 -5.75422
  1071 33.4546 13.9094 11.8449
  1072 33.2022 13.9253 -11.7401
  1073 570.074 -21.4623 74.0747
  1074 414.669 -42.7490 -41.4122
  1075 340.943 -28.3619 47.0405
  1076 545.121 -9.95947 -79.0069
  1077 567.647 -7.14034 7.09724
  1078 211.999 32.9390 98.7217
  1079 213.505 31.5080 -97.1245
  1080 338.074 -15.9858 -83.4375
  1081 473.414 -18.1665 -2.33301
  1082 388.148 -24.1656 9.67158
  1083 452.502 -42.5930 -6.08100
  1084 611.444 -2.54618 -4.17857
  1085 338.663 -16.4517 8.64464
  1086 338.519 -17.3292 -8.81853
  1087 12.9116 14.7075 8.85597
  1088 13.1897 14.8119 -8.69496
  1089 550.568 21.3628 -81.8952
  1090 128.729 6.05870 -38.4227
  1091 129.071 5.92209 38.3366
  1092 98.7061 1.53242 -27.9887
  1093 98.9203 1.48086 27.9520
  1094 618.499 -19.8278 120.196
  1095 540.904 -25.0317 44.6644
  1096 269.902 -12.5419 -52.4836
  1097 619.730 -2.75393 -2.47408
  1098 705.479 134.558 -29.1690
  1099 566.163 -6.36341 -4.17681
  1100 535.099 -57.0870 11.8053
  1101 398.986 -29.6690 73.8636
  1102 622.637 -1.15632 0.283549
  1103 350.765 10.8281 -21.3089
  1104 455.588 -48.7076 -15.4622
  1105 270.352 -13.0968 51.9747
  1106 459.691 -42.2310 3.47135
  1107 568.228 -8.83044 14.3055
  1108 422.190 26.7190 32.9491
  1109 289.871 -21.5087 -42.4947
  1110 848.458 132.476 -62.2807
  1111 647.296 31.9931 64.6277
  1112 494.413 61.6112 7.99249
  1113 617.704 -0.281854 2.04732
  1114 253.165 -16.0901 -33.0979
  1115 171.986 109.816 -161.527
  1116 305.075 9.07871 -116.785
  1117 350.002 -27.4077 22.2524
  1118 297.233 -22.4567 40.1214
  1119 252.608 -15.3356 33.3975
  1120 524.770 5.43938 80.1616
  1121 395.568 -15.0520 -2.93347
  1122 610.424 -4.85700 5.84446
  1123 -4.12969 0.295615 18.7663
  1124 -4.05558 0.360503 -18.7177
  1125 413.443 -13.1903 1.81535
  1126 0.798136 5.67928 16.3059
  1127 0.933069 5.76519 -16.2112
  1128 238.968 -8.06352 5.89906
  1129 238.974 -8.17619 -5.90469
  1130 579.208 -3.31666 13.9158
  1131 468.210 -29.5398 -3.96599
  1132 439.386 -24.5460 1.11781
  1133 490.059 -34.9273 11.6994
  1134 153.373 77.9787 -121.809
  1135 479.809 -19.3865 3.79360
  1136 78.7267 1.11094 -23.1178
  1137 78.9304 1.07510 23.1092
  1138 103.808 67.9587 -87.2969
  1139 760.840 105.916 13.0632
  1140 64.0099 -2.70097 13.6240
  1141 63.8135 -2.67984 -13.6389
  1142 105.658 67.0265 84.5080
  1143 441.383 -37.4920 -4.49846
  1144 230.252 -11.1526 13.3701
  1145 230.274 -11.1973 -13.5503
  1146 888.611 189.514 -55.5384
  1147 484.989 -48.6166 -2.02325
  1148 169.586 103.165 161.264
  1149 15.3560 2.61020 -16.5472
  1150 16.4745 2.80622 17.8478
  1151 518.491 64.9710 40.0380
  1152 41.9726 21.4707 -12.3633
  1153 42.2915 21.4811 12.4588
  1154 488.064 -42.7938 -7.82612
  1155 -0.207893 -46.8379 -9.04919
  1156 -0.229847 -46.8386 9.09043
  1157 520.923 -44.0374 -22.7742
  1158 2.28622 0.593903 4.49314
  1159 2.00373 0.597939 -4.50089
  1160 84.2820 30.6375 -36.2316
  1161 84.7306 30.7737 35.9444
  1162 -18.9201 0.0411370 -5.50501
  1163 -18.6342 0.0392923 5.51167
  1164 517.170 -7.08230 -0.133398
  1165 -49.1707 1.53504 0.210930
  1166 -49.0261 1.53449 -0.175410
  1167 280.905 -22.3240 -32.1783
  1168 7.69900 -59.9492 -9.38458
  1169 147.912 -4.30810 10.0137
  1170 147.846 -4.32079 -10.1055
  1171 442.819 -10.0080 0.936625
  1172 443.640 -9.79297 -0.852778
  1173 8.27095 -56.7438 11.0089
  1174 523.803 -27.9750 -23.5960
  1175 594.272 -3.10659 10.0018
  1176 532.680 -34.3463 -35.7258
  1177 473.033 3.86297 63.3046
  1178 2.90492 -16.8872 12.8481
  1179 3.13509 -16.7419 -12.6105
  1180 345.347 -25.7396 18.2645
  1181 -22.4699 2.31729 12.0985
  1182 -22.4280 2.33636 -12.0605
  1183 877.510 138.465 10.1720
  1184 1006.49 334.551 -234.578
  1185 544.236 -52.3597 28.7109
  1186 233.281 -7.32626 -1.00139
  1187 233.306 -7.24809 1.00235
  1188 1091.35 106.086 -98.6467
  1189 89.3844 -2.26665 14.1221
  1190 89.2212 -2.23411 -14.1651
  1191 513.289 -1.66271 -24.8301
  1192 331.610 -27.0733 36.2322
  1193 538.261 -52.2671 -19.3278
  1194 521.397 -38.1599 -26.7532
  1195 322.442 -10.9274 87.2887
  1196 123.291 22.3717 -48.5473
  1197 123.239 22.1760 48.2998
  1198 159.924 59.8449 -104.085
  1199 160.168 55.4758 104.102
  1200 49.3952 13.1551 -18.2888
  1201 49.6705 13.1187 18.3892
  1202 645.671 112.669 -43.8162
  1203 35.7279 33.1382 -17.6560
  1204 36.5146 33.1993 17.8958
  1205 465.115 -36.3018 2.41142
  1206 851.899 137.414 68.9847
  1207 120.759 -4.89583 -9.87739
  1208 120.859 -4.89483 9.79671
  1209 546.330 414.794 -338.514
  1210 445.356 26.7207 -50.6972
  1211 412.157 31.3128 20.8013
  1212 59.7297 23.9726 -21.5585
  1213 60.0034 23.9776 21.6663
  1214 23.7303 -0.135290 3.26939
  1215 23.5284 -0.135108 -3.29370
  1216 514.044 -41.5175 21.1748
  1217 504.645 -21.2905 10.6085
  1218 346.788 105.222 -247.086
  1219 793.795 174.182 -14.9274
  1220 346.117 -9.86721 -95.6939
  1221 444.908 -15.1166 -1.29205
  1222 36.6659 -2.14744 -0.704147
  1223 36.7433 -2.14557 0.700300
  1224 -6.43014 3.51246 -8.22721
  1225 -6.20596 3.49866 8.28283
  1226 302.037 3.87557 -100.437
  1227 545.736 -13.0144 13.0008
  1228 359.404 8.19266 135.410
  1229 483.410 -24.9543 -6.96802
  1230 252.526 93.5219 -196.275
  1231 390.165 -17.9122 -102.991
  1232 463.113 -49.4261 12.9008
  1233 563.221 -9.46588 22.3447
  1234 494.331 -11.8151 -1.98696
  1235 279.792 -21.0050 32.3415
  1236 619.281 -32.5968 -37.7597
  1237 592.847 52.8806 76.4144
  1238 262.111 1.34922 -80.2524
  1239 580.308 -4.61811 1.37434
  1240 482.768 59.6558 -11.4381
  1241 213.542 -7.83532 -9.78849
  1242 213.517 -7.76217 9.69817
  1243 887.730 215.977 62.8785
  1244 1194.79 31.7255 54.9803
  1245 1.17398 -56.9559 -8.93236
  1246 1.13812 -57.0129 9.00303
  1247 136.974 74.2548 114.422
  1248 323.416 -10.5586 -2.58474
  1249 323.486 -10.5041 2.69983
  1250 437.680 -44.2426 -16.1554
  1251 526.130 43.8284 69.2491
  1252 540.897 -11.8377 -7.84112
  1253 621.503 -2.05470 -0.651101
  1254 1073.96 241.269 -153.966
  1255 179.500 -6.92539 10.3575
  1256 179.466 -6.93795 -10.4688
  1257 521.477 -48.3505 21.3898
  1258 902.241 232.024 -80.5552
  1259 505.127 -23.0865 -12.1295
  1260 373.241 -26.7048 -13.6987
  1261 455.189 -49.2554 27.0283
  1262 445.014 -23.3908 -0.0824733
  1263 17.7068 11.0216 -24.6706
  1264 604.780 -34.9955 46.6852
  1265 491.781 -32.9254 -11.4953
  1266 19.4249 11.8718 26.8978
  1267 504.594 -38.1577 -97.2896
  1268 475.886 34.1366 -202.333
  1269 778.639 105.921 -5.14793
  1270 623.692 -0.888931 -0.157748
  1271 622.688 -1.45686 0.512080
  1272 499.901 -29.9990 13.0331
  1273 197.735 23.5591 -79.2872
  1274 568.594 -49.5281 37.1063
  1275 956.321 220.925 105.917
  1276 242.897 86.7836 191.473
  1277 7.73677 2.69033 12.7134
  1278 7.99128 2.81929 -12.5383
  1279 594.666 -45.3522 -55.6023
  1280 247.919 -13.9636 -15.9061
  1281 247.890 -14.0011 15.6661
  1282 557.494 -36.0595 60.5530
  1283 27.7647 0.0495257 14.6897
  1284 27.5311 0.0604074 -14.6801
  1285 -2.82367 -11.3274 15.9458
  1286 -2.80322 -11.3032 -15.9504
  1287 108.904 -3.68941 -12.8704
  1288 109.033 -3.71035 12.8019
  1289 298.119 -20.0603 -47.9079
  1290 301.176 -10.8708 3.57554
  1291 301.161 -11.0789 -3.46658
  1292 622.047 -0.866989 0.314506
  1293 560.320 -9.08160 -25.2655
  1294 52.4028 1.89326 -18.7494
  1295 52.6285 1.86167 18.7623
  1296 299.297 -21.1897 47.5882
  1297 627.291 -0.945231 0.326273
  1298 594.635 -1.39949 -0.689485
  1299 594.571 -1.76173 0.547494
  1300 791.561 171.640 -1.42945
  1301 581.321 -4.92093 -3.33578
  1302 518.661 -6.77001 -0.0462789
  1303 574.220 -9.47715 -12.6378
  1304 619.500 -2.40143 1.57990
  1305 655.323 70.0442 64.0050
  1306 757.216 160.078 9.99878
  1307 605.227 -2.75400 -6.51334
  1308 -5.15147 -1.26325 4.59406
  1309 -5.17252 -1.26246 -4.60863
  1310 344.125 -22.4910 13.1352
  1311 344.065 -21.5496 -12.8172
  1312 661.207 77.4474 -60.3610
  1313 142.421 49.4390 -86.7738
  1314 143.332 48.1326 85.9004
  1315 455.716 0.166445 -31.6817
  1316 459.256 -8.96377 -0.940575
  1317 458.697 -8.90528 0.843520
  1318 -10.6862 -1.55331 16.1669
  1319 -10.6669 -1.52287 -16.1621
  1320 514.735 -1.35979 24.7759
  1321 774.480 153.837 -6.47686
  1322 65.9579 -2.15927 -8.09871
  1323 66.1190 -2.16419 8.04464
  1324 571.728 -53.7193 17.3366
  1325 2.62528 10.3558 12.3124
  1326 2.79482 10.4176 -12.2022
  1327 116.942 -2.64664 -2.82993
  1328 117.005 -2.60988 2.79349
  1329 455.799 -0.497316 32.1773
  1330 31.3339 0.910766 -1.28090
  1331 31.4488 0.914268 1.26243
  1332 578.121 -7.53968 7.82332
  1333 809.756 146.242 9.76939
</Section>

newXOutput 75

<Section columns = "stress_xx | stress_yy | stress_xy">
  1 644.417 -2.00957 1.17887
  2 645.348 -2.46937 -1.52960
  3 26.0806 0.585000 -1.62078
  4 -0.508688 -0.746009 -0.519106
  5 1155.24 492.578 386.624
  6 1173.01 561.362 -390.191
  7 -0.503398 -0.741340 0.512273
  8 26.0015 0.581667 1.61710
  9 648.589 -1.44430 -1.06588
  10 644.202 -2.46737 -1.58511
  11 644.920 -1.97870 1.25747
  12 642.251 -1.24272 0.392756
  13 641.386 -2.32677 -0.625354
  14 641.016 -2.26487 2.19832
  15 632.850 -1.70632 1.96000
  16 635.840 -4.67648 3.25509
  17 617.774 -3.95839 7.29041
  18 606.666 -1.92969 8.81300
  19 591.065 -2.24575 9.59061
  20 563.471 -2.00204 13.6588
  21 533.040 -1.63496 15.9986
  22 494.631 2.09598 22.1657
  23 441.601 3.27278 20.1776
  24 420.066 0.0266972 29.0241
  25 353.218 4.99955 20.7214
  26 312.153 6.45942 16.3208
  27 301.446 3.44611 12.0666
  28 289.970 9.50442 0.927198
  29 296.285 10.1390 -16.1648
  30 308.804 3.04392 -20.2597
  31 359.248 1.53392 -26.9385
  32 409.699 -2.39401 -27.7507
  33 443.487 2.72256 -20.1269
  34 495.173 2.37243 -22.1547
  35 531.748 -1.92309 -17.1689
  36 566.439 -2.18307 -12.8572
  37 588.919 -1.69732 -9.75224
  38 604.920 -2.06656 -8.02500
  39 622.231 -2.33462 -4.56507
  40 628.565 -2.51232 -4.30694
  41 634.838 -2.35525 -3.84184
  42 641.124 -2.64724 -0.548762
  43 643.385 -3.29596 -1.48898
  44 639.423 -0.150056 0.122040
  45 644.160 -1.84658 -1.44811
  46 646.467 -3.51162 1.72834
  47 649.317 -2.07264 -0.0541952
  48 618.454 -0.201834 -0.973641
  49 583.706 -3.41051 -1.79680
  50 544.088 -6.93604 -2.47067
  51 502.843 -6.22704 -1.77392
  52 466.651 -9.24602 -1.62199
  53 428.280 -9.91884 -1.45028
  54 389.432 -8.79374 -0.615459
  55 348.421 -9.23359 -0.902108
  56 313.651 -9.54296 -1.23165
  57 267.266 -8.98240 -0.956517
  58 219.461 -5.77856 -0.612508
  59 179.882 -3.74279 -0.462358
  60 130.988 -2.35109 -0.0932036
  61 95.5131 -2.13223 -2.36934
  62 62.6247 -2.76235 -0.727536
  63 29.4246 0.308742 1.58655
  64 20.5875 2.30001 0.714527
  65 17.8626 0.926313 1.73657
  66 18.5860 0.416504 1.78399
  67 11.0483 1.31778 0.991032
  68 7.80504 1.74121 3.63237
  69 5.74009 0.623934 1.59399
  70 -6.90415 1.31732 1.71341
  71 -13.2340 0.884513 3.56269
  72 -16.5424 0.268535 3.78554
  73 -30.7911 1.21418 3.13568
  74 -36.6285 1.84150 5.50657
  75 -43.4793 1.11849 2.41133
  76 -50.8106 0.824132 3.22991
  77 -54.6074 0.868583 1.62767
  78 -62.0431 2.18025 -0.919995
  79 -63.7114 1.49230 -0.648732
  80 -58.8123 1.10267 -1.68519
  81 -51.0205 1.49435 -3.63862
  82 -41.9437 0.702190 -5.86160
  83 -31.5949 0.402242 -6.23117
  84 -19.0871 -0.585591 -6.59781
  85 -8.45172 -0.482490 -3.91928
  86 -3.59274 -1.36687 -2.47460
  87 -0.570005 -3.57852 -2.16765
  88 -0.931344 -9.14450 -3.77793
  89 -1.07368 -17.5571 -6.53335
  90 -0.161245 -32.6881 -6.95589
  91 0.441873 -44.8021 -8.63208
  92 0.969453 -64.1647 -6.99279
  93 2.89342 -75.5989 -8.14378
  94 0.595194 -80.1790 -6.40718
  95 -0.0266021 -90.5947 -3.25739
  96 2.61242 -85.1020 0.486912
  97 10.7412 -109.141 6.86336
  98 10.1663 -49.8424 19.8394
  99 23.5355 -7.06830 41.4140
  100 68.6385 141.635 120.304
  101 279.850 403.004 323.792
  102 1512.76 166.129 222.627
  103 1277.43 45.4719 80.0658
  104 1218.63 19.4008 27.4613
  105 1186.48 12.5859 -0.157109
  106 1207.18 18.4817 -22.6586
  107 1288.59 38.7982 -66.0880
  108 1497.08 131.027 -206.549
  109 182.314 455.783 -267.846
  110 48.3683 111.755 -94.0582
  111 17.4191 -18.4106 -34.9796
  112 9.22768 -56.4771 -17.4130
  113 10.6712 -113.873 -5.69424
  114 2.48982 -87.1843 0.330852
  115 -0.181732 -91.6292 3.68185
  116 0.496952 -80.5718 6.63379
  117 2.83933 -75.6817 8.23877
  118 0.948749 -64.1180 7.02727
  119 0.426318 -44.7313 8.64357
  120 -0.168835 -32.6021 6.95061
  121 -1.07448 -17.5028 6.51848
  122 -0.933340 -9.09848 3.76431
  123 -0.569533 -3.56126 2.15573
  124 -3.57208 -1.36479 2.46456
  125 -8.41482 -0.484733 3.90832
  126 -19.0389 -0.590964 6.59086
  127 -31.5384 0.396198 6.23209
  128 -41.9104 0.695556 5.87268
  129 -51.0299 1.48953 3.66102
  130 -58.8658 1.10221 1.70955
  131 -63.8226 1.49077 0.672674
  132 -62.2026 2.17973 0.945053
  133 -54.8224 0.870737 -1.60550
  134 -51.0678 0.826791 -3.21315
  135 -43.7580 1.12158 -2.39776
  136 -36.9324 1.84522 -5.50032
  137 -31.1049 1.21772 -3.13041
  138 -16.8545 0.270693 -3.78537
  139 -13.5491 0.888287 -3.56667
  140 -7.20691 1.32259 -1.71964
  141 5.46995 0.627395 -1.60645
  142 7.56717 1.74491 -3.65158
  143 10.8398 1.31888 -1.00795
  144 18.4233 0.415839 -1.80063
  145 17.7331 0.924710 -1.75001
  146 20.4805 2.29729 -0.726125
  147 29.3379 0.306798 -1.59344
  148 62.5464 -2.77262 0.720691
  149 95.4422 -2.15749 2.36198
  150 130.933 -2.39566 0.0832331
  151 179.848 -3.80712 0.457305
  152 219.432 -5.85294 0.611929
  153 267.227 -9.04634 0.966984
  154 313.572 -9.57364 1.25307
  155 348.297 -9.19062 0.952245
  156 389.264 -8.64296 0.672391
  157 428.053 -9.56668 1.36585
  158 466.859 -9.35078 1.41494
  159 503.003 -6.85708 1.87683
  160 544.502 -6.82185 2.23441
  161 584.817 -3.07863 1.82215
  162 617.543 -0.240749 0.949891
  163 369.035 -33.4889 -34.6816
  164 367.614 -34.1036 34.5965
  165 114.600 31.1094 -48.5786
  166 115.713 31.2157 48.3894
  167 432.196 -19.0640 116.577
  168 452.457 -21.6697 -113.547
  169 219.341 -11.8101 16.3621
  170 219.303 -11.6979 -16.5575
  171 460.986 -17.5019 -0.0128867
  172 452.139 -17.5505 0.195246
  173 619.334 110.843 -13.9342
  174 622.263 6.55112 -71.0606
  175 610.648 11.0716 77.3207
  176 154.146 -6.02326 -32.9937
  177 154.173 -5.98366 32.9418
  178 537.974 -52.9525 22.2356
  179 537.632 -41.3924 -34.0696
  180 9.11740 13.7553 10.9431
  181 9.34236 13.8418 -10.8085
  182 734.882 150.521 16.5041
  183 146.112 66.3326 -105.588
  184 156.431 66.9064 112.833
  185 519.788 -25.2155 14.8687
  186 777.904 165.586 -2.38788
  187 342.200 -13.5499 -5.68117
  188 341.677 -13.8669 5.65008
  189 533.486 -17.8875 -13.8022
  190 705.682 0.623975 -18.5489
  191 142.555 -4.31400 6.43767
  192 142.495 -4.34748 -6.51150
  193 62.4585 7.15854 -22.9713
  194 62.7291 7.08541 23.0256
  195 305.399 -11.5163 -74.6550
  196 304.216 -12.1220 75.5864
  197 363.483 -24.3962 -13.9093
  198 364.195 -24.2604 14.6088
  199 102.866 -3.57323 17.8610
  200 102.713 -3.52744 -17.8914
  201 697.577 -6.79206 54.0907
  202 574.898 -55.2959 -5.03921
  203 543.401 -6.88226 -1.60980
  204 531.905 -8.17345 1.56283
  205 550.543 64.9721 55.6318
  206 25.0947 23.2786 -11.2515
  207 25.9507 23.2500 11.6334
  208 544.339 -21.4909 64.5926
  209 507.293 39.2120 -64.4887
  210 355.773 85.8297 -233.855
  211 374.140 72.6321 217.515
  212 12.9719 12.3498 -3.80018
  213 13.1896 12.3496 3.90636
  214 542.922 -18.8409 -66.9033
  215 929.630 129.257 -9.44614
  216 450.980 -48.6676 45.0234
  217 454.220 -48.4237 -42.8424
  218 450.696 -33.0061 1.46032
  219 552.883 -9.96297 7.03277
  220 276.009 -19.2845 -29.5101
  221 271.883 -19.2149 30.3039
  222 168.361 3.11196 -48.8730
  223 168.610 3.05245 48.5026
  224 569.461 -58.6679 -12.9903
  225 447.084 -35.0138 -3.42026
  226 550.818 -9.79869 -5.21176
  227 433.460 -12.7064 -1.15959
  228 437.051 -11.9711 1.94655
  229 547.158 -24.8127 35.8724
  230 54.9189 0.283708 -19.1045
  231 55.1354 0.261651 19.1082
  232 -6.44325 -4.16576 -18.1625
  233 -6.47840 -4.21052 18.1760
  234 94.9912 -3.87699 -10.4918
  235 95.1268 -3.88631 10.4223
  236 239.881 -7.76185 7.36608
  237 239.922 -7.88172 -7.41293
  238 271.113 19.3373 -107.348
  239 271.149 16.2240 106.177
  240 554.351 -17.8405 -30.7158
  241 267.007 -15.7899 -46.4519
  242 267.247 -16.2608 45.8728
  243 497.133 8.25886 73.3002
  244 441.267 37.7189 4.46286
  245 477.838 -47.8182 3.32276
  246 2.73607 -9.92268 -15.5086
  247 2.57513 -10.0523 15.6474
  248 32.7605 37.5740 -39.3677
  249 34.7647 36.4815 41.1254
  250 470.076 -46.8111 -6.39011
  251 835.204 164.941 -23.3572
  252 47.4703 31.4097 -18.4998
  253 48.0111 31.4049 18.6835
  254 -16.4510 4.21581 11.6004
  255 -16.3584 4.23780 -11.5356
  256 838.342 155.716 28.4668
  257 303.546 -15.3937 -12.6521
  258 303.331 -15.1695 12.4569
  259 581.521 -38.1289 57.7025
  260 1032.54 168.604 106.794
  261 182.339 -9.76903 -27.3633
  262 182.323 -9.83764 27.3465
  263 598.510 89.9755 -52.1671
  264 998.757 190.904 -98.9391
  265 705.471 74.7864 45.2927
  266 756.366 59.1697 -151.056
  267 477.174 -23.7613 3.80250
  268 546.422 3.67663 -81.1678
  269 513.630 -36.8494 -17.8867
  270 569.658 -10.9209 19.1774
  271 4.85865 5.52805 -8.13788
  272 5.07842 5.51167 8.21508
  273 563.024 -14.3550 -144.542
  274 66.1271 19.1241 -23.5982
  275 66.4308 19.0942 23.7162
  276 550.109 -13.4147 -40.5442
  277 82.0437 91.0117 -110.032
  278 78.9666 -0.404685 -2.47095
  279 79.0532 -0.390616 2.44032
  280 579.764 -34.7916 -60.5123
  281 106.648 47.9139 -60.5621
  282 108.152 47.6788 60.7336
  283 38.8593 -1.00840 13.2346
  284 38.6293 -0.996976 -13.2391
  285 476.408 -22.6845 -3.75757
  286 82.6272 90.0999 112.786
  287 743.534 69.9433 175.426
  288 216.213 -8.94929 -10.2130
  289 216.190 -8.89910 10.0964
  290 384.152 -17.2001 -5.89916
  291 383.975 -18.4818 6.36900
  292 327.850 33.5153 -160.266
  293 523.441 -56.8375 -2.52728
  294 588.994 -4.61204 2.98206
  295 316.053 33.6577 155.348
  296 368.437 -11.4279 -2.09121
  297 368.302 -11.4231 2.39191
  298 514.511 -38.2512 18.1962
  299 585.723 -7.07034 -8.53363
  300 2.35952 2.14463 -10.8038
  301 2.60452 2.12852 10.8425
  302 743.408 146.696 -3.71559
  303 646.633 -27.3337 26.3209
  304 579.912 -4.20886 -0.616226
  305 589.478 -3.69201 0.559657
  306 582.925 -48.6454 56.4118
  307 718.414 79.8185 -40.9683
  308 636.518 118.029 28.8822
  309 290.321 -18.3802 -19.3870
  310 287.814 -18.6988 19.7091
  311 588.117 -4.55210 -1.74465
  312 393.851 -29.0466 -81.4797
  313 388.402 -31.3109 17.3910
  314 370.115 -19.4286 92.1676
  315 581.334 -7.85952 10.3630
  316 142.707 -6.52566 -17.2584
  317 142.814 -6.57179 17.1964
  318 537.518 -14.1144 142.799
  319 347.862 -28.0453 -24.1333
  320 633.067 82.8219 64.5542
  321 206.773 14.3983 -71.1688
  322 199.328 15.0726 70.6510
  323 71.1993 -1.31649 -4.47296
  324 71.3207 -1.30839 4.42437
  325 515.385 -11.9722 3.30052
  326 494.676 -8.79023 -0.0226242
  327 492.021 -9.46514 -0.133605
  328 546.516 -14.1092 43.0607
  329 57.8990 -1.87620 10.0491
  330 57.6980 -1.85959 -10.0858
  331 169.414 -4.24950 -3.72187
  332 169.446 -4.18843 3.68963
  333 5.80107 -21.6614 -7.37810
  334 5.45337 -21.8631 7.79195
  335 436.152 19.2076 50.1048
  336 652.641 -24.8585 -19.6417
  337 427.354 -23.9432 -2.02625
  338 479.834 -11.3835 -0.914879
  339 512.469 63.4651 -30.1274
  340 106.925 -3.51057 -24.6442
  341 107.071 -3.51417 24.6319
  342 416.010 -22.6716 4.10147
  343 124.015 3.69105 -35.1799
  344 124.255 3.58996 35.0918
  345 26.0453 20.1215 -3.26121
  346 26.3323 20.1226 3.38601
  347 502.420 -52.6848 56.7044
  348 1087.37 71.4557 28.0289
  349 457.487 7.52181 -59.1886
  350 377.545 -33.7344 51.7966
  351 375.636 -33.0198 -53.2307
  352 554.302 -8.39424 80.0397
  353 497.243 -3.19572 58.0469
  354 496.131 -50.9270 -58.3511
  355 302.092 -8.81751 1.28968
  356 302.041 -8.90264 -1.21774
  357 548.847 -35.6722 47.1441
  358 751.648 148.492 0.691685
  359 584.858 -7.38283 -14.1602
  360 161.246 -6.27474 -12.7503
  361 161.327 -6.28127 12.6449
  362 552.590 -50.1607 -69.4964
  363 586.081 42.2816 -79.1861
  364 404.810 21.7702 -32.2810
  365 552.978 -36.4943 -54.4819
  366 -17.4989 0.857654 -13.9598
  367 -17.5171 0.834706 13.9775
  368 464.288 -12.7268 -0.312328
  369 -6.58618 -3.88831 -8.64691
  370 -6.57716 -3.88912 8.62771
  371 356.079 191.301 -282.573
  372 16.1809 14.8503 6.16797
  373 16.5438 14.9610 -5.97265
  374 493.774 -3.36948 -57.5864
  375 275.722 -12.5208 9.58438
  376 275.897 -12.6716 -9.66667
  377 -1.58252 -18.9581 15.9473
  378 -1.55271 -18.9241 -15.9324
  379 291.320 200.012 266.697
  380 226.930 -12.3484 -36.8062
  381 227.123 -11.8511 36.8341
  382 73.7350 55.5075 -56.6476
  383 75.2260 55.3903 56.3575
  384 -24.9495 4.38523 3.81419
  385 -24.8216 4.39298 -3.74336
  386 566.705 38.8979 79.8815
  387 433.669 -45.4100 27.2678
  388 434.144 -40.0474 13.4673
  389 522.737 -58.6155 -13.2436
  390 137.056 16.5472 -48.0866
  391 137.513 16.5253 48.0287
  392 12.6117 -12.0469 4.45288
  393 11.9732 -12.3281 -3.54226
  394 538.524 76.5342 19.5845
  395 531.313 -16.5067 10.9943
  396 310.842 -24.4656 34.4929
  397 195.769 -5.26234 -43.5265
  398 195.862 -5.29936 43.2430
  399 392.410 -13.4112 -3.15599
  400 392.013 -11.9891 2.82444
  401 308.299 -25.0868 -36.3640
  402 242.751 -4.32841 -57.8854
  403 242.734 -4.65450 58.3259
  404 555.367 -50.2854 -30.4074
  405 328.384 -25.8506 22.7952
  406 504.637 -16.8606 5.53740
  407 503.563 -15.5485 -4.33226
  408 426.405 -39.7790 -14.9456
  409 600.297 -3.60750 -3.20892
  410 208.482 87.2633 -163.639
  411 570.562 -8.80972 24.2503
  412 599.159 -4.04988 5.14483
  413 224.195 -12.3505 22.8722
  414 224.267 -12.1899 -22.8566
  415 431.758 -44.8758 -27.9988
  416 65.8896 28.2734 25.5063
  417 65.5464 28.2484 -25.5181
  418 1097.91 71.4009 -57.0138
  419 495.854 -29.3701 -8.84695
  420 603.251 -3.10630 1.84479
  421 197.306 81.8598 156.301
  422 895.833 150.182 31.6425
  423 528.467 -9.62471 -2.53183
  424 401.115 -29.9672 -12.0175
  425 171.374 33.0280 -80.0831
  426 182.345 30.5646 79.6007
  427 490.284 -32.0200 8.73871
  428 523.639 -6.64784 -42.3156
  429 4.62947 -0.552536 9.99761
  430 4.36784 -0.547180 -9.98825
  431 192.588 46.9506 -105.958
  432 193.204 47.1120 105.646
  433 27.2059 10.5612 -12.0243
  434 27.4493 10.5403 12.1206
  435 440.533 -10.3441 0.128330
  436 440.006 -10.1243 0.0123480
  437 546.529 -25.3270 -37.5832
  438 -0.601131 -0.445958 18.8124
  439 -0.502609 -0.356029 -18.7396
  440 562.258 -54.5113 25.5178
  441 530.479 -15.5647 -9.51241
  442 855.191 163.353 -30.2230
  443 47.1263 -1.63404 4.86439
  444 46.9455 -1.63429 -4.90629
  445 1017.76 295.837 138.608
  446 22.1952 19.4156 -35.6193
  447 71.5648 2.90609 -24.2781
  448 71.7938 2.85644 24.2831
  449 1016.69 303.191 -135.541
  450 23.5162 21.7211 38.7566
  451 -22.9766 3.26515 -0.106686
  452 -22.8098 3.26062 0.174588
  453 61.2973 42.0674 -34.7937
  454 62.3097 42.1014 34.9683
  455 673.930 107.606 -50.8988
  456 539.429 -21.9602 -23.2391
  457 600.281 -3.16764 -1.54737
  458 564.185 -8.98245 -28.6974
  459 -5.28187 4.86064 17.0686
  460 -5.18133 4.91929 -16.9990
  461 545.177 -22.7205 27.5911
  462 359.686 -21.3017 -11.2181
  463 358.635 -21.4988 10.0702
  464 482.825 -53.0228 -13.8212
  465 347.408 -3.76380 -111.956
  466 528.304 -7.96503 43.1389
  467 430.884 -15.5812 2.15217
  468 626.116 -43.7492 -15.6091
  469 336.772 4.27618 119.752
  470 36.2284 -0.588208 9.64785
  471 35.9923 -0.578132 -9.66343
  472 693.856 136.972 -21.2516
  473 547.942 -5.63271 -0.127488
  474 546.148 -6.18147 -0.347696
  475 420.460 -29.0871 7.12961
  476 192.526 -6.80398 -7.31147
  477 192.532 -6.73310 7.23936
  478 115.562 -1.68283 -29.1520
  479 115.706 -1.70506 29.1086
  480 368.126 14.2387 19.3930
  481 99.2435 -3.22415 14.3067
  482 99.0948 -3.19498 -14.3653
  483 101.053 8.99030 32.9694
  484 100.724 9.12314 -32.9352
  485 536.672 -41.6465 32.6014
  486 305.831 -19.1138 -54.7224
  487 284.590 -10.1566 5.31754
  488 284.679 -10.3725 -5.32192
  489 308.978 -19.6972 54.7267
  490 832.630 200.993 -26.8863
  491 -13.2869 -1.90721 -11.0511
  492 -13.2779 -1.91783 11.0435
  493 220.180 -6.72089 -3.10269
  494 220.194 -6.63333 3.09295
  495 0.439290 -34.5638 -12.7586
  496 0.351429 -34.6785 12.8778
  497 488.725 -9.11184 0.211397
  498 366.214 17.1072 -9.62654
  499 480.750 50.1667 27.2855
  500 303.300 -2.48878 -90.2569
  501 155.579 -8.00640 21.5622
  502 155.543 -7.94046 -21.5893
  503 -32.0335 1.13186 -3.96143
  504 -31.8018 1.12472 3.99378
  505 580.692 -9.32220 -78.3196
  506 60.3398 0.208451 -3.20110
  507 60.4490 0.215679 3.16604
  508 483.391 -38.7617 -5.69413
  509 514.314 -44.1146 -16.5712
  510 109.301 86.4788 -113.386
  511 432.483 15.0726 -172.983
  512 8.26736 13.8119 6.18381
  513 8.47917 13.8435 -6.06454
  514 271.739 -13.2590 -13.2777
  515 271.620 -13.1514 13.0491
  516 734.502 37.2577 -6.09761
  517 534.243 -32.0778 -29.8163
  518 106.651 82.1851 111.892
  519 529.112 -58.8736 21.5613
  520 509.748 -48.5358 11.3264
  521 120.023 -2.90913 -9.45050
  522 120.114 -2.89922 9.37224
  523 431.172 5.06263 45.9312
  524 308.753 -23.2826 -23.8104
  525 560.748 -13.4989 16.7855
  526 -2.19578 -13.6661 -10.7862
  527 -2.20117 -13.6535 10.7690
  528 398.471 -34.7829 61.1273
  529 599.262 -43.9953 -36.4016
  530 773.221 62.8665 -38.9377
  531 425.989 -16.0561 -2.13173
  532 137.982 -2.67026 -2.69658
  533 138.032 -2.62558 2.67505
  534 273.650 2.56662 87.1710
  535 745.175 129.574 28.7320
  536 743.211 166.813 -269.895
  537 678.259 8.00672 32.4017
  538 492.083 -54.3881 11.2876
  539 1130.38 90.1100 76.7349
  540 850.230 212.095 36.3255
  541 130.580 -5.52265 23.4561
  542 130.469 -5.46996 -23.4849
  543 473.618 -39.8618 2.68620
  544 39.7274 17.4724 -11.7953
  545 40.0028 17.4663 11.9077
  546 592.069 -47.6107 36.5821
  547 494.841 27.4022 67.2425
  548 592.987 -4.37248 9.49191
  549 444.044 -27.7665 -0.857041
  550 612.248 12.5334 -182.313
  551 958.664 266.484 184.467
  552 478.448 -11.1604 0.0544351
  553 584.070 -6.51214 -15.7891
  554 97.4960 40.0967 -46.2515
  555 98.1878 39.6233 46.0746
  556 341.419 -14.8948 -7.55891
  557 341.274 -14.5790 7.67359
  558 4.47914 -35.8411 -7.60819
  559 599.040 -19.5500 68.4149
  560 25.8124 22.4923 -1.12015
  561 26.1837 22.5579 1.29811
  562 5.17365 -34.3692 8.89783
  563 546.999 -24.6966 -56.4657
  564 628.422 41.9609 -74.0202
  565 626.587 47.3380 74.1433
  566 32.2979 30.6578 27.3514
  567 30.7653 31.2577 -26.8515
  568 -9.73133 0.510810 7.69708
  569 -9.99698 0.516579 -7.68110
  570 571.619 21.1942 187.552
  571 321.898 -18.6651 13.8822
  572 322.203 -18.6017 -14.0728
  573 686.950 -5.40118 -100.674
  574 102.659 -1.43991 5.46684
  575 102.575 -1.45983 -5.51953
  576 56.1211 -1.10498 -1.25771
  577 56.2064 -1.09775 1.24539
  578 759.499 143.073 -20.7839
  579 75.0408 124.582 -123.942
  580 414.115 8.71757 -39.0061
  581 572.959 91.1190 -33.0187
  582 9.55646 2.27095 9.83540
  583 9.90270 2.40131 -9.60382
  584 557.695 281.160 314.601
  585 485.873 -15.1065 -2.06908
  586 23.1743 4.91420 -13.5653
  587 23.4155 4.87903 13.6269
  588 561.719 -44.4684 46.2424
  589 88.4293 121.062 126.195
  590 407.771 -10.2612 0.974485
  591 407.886 -10.1896 -0.975961
  592 -0.230862 -27.8569 13.6134
  593 -0.187141 -27.8128 -13.5685
  594 694.035 133.998 -1.11171
  595 440.397 -34.2413 84.8335
  596 421.255 -19.4260 -3.34139
  597 421.797 22.8352 182.283
  598 -33.9131 1.91152 7.95661
  599 -33.8802 1.92190 -7.92154
  600 686.266 13.3199 -35.2091
  601 899.569 168.084 -135.029
  602 267.188 28.2433 -123.721
  603 150.306 -6.45551 -28.4113
  604 150.457 -6.45897 28.4221
  605 616.308 -2.54260 2.35917
  606 417.313 -19.8055 2.86593
  607 551.303 -8.88653 4.93755
  608 546.975 -24.7718 55.0656
  609 35.3641 -0.936414 4.90931
  610 35.1493 -0.932580 -4.94003
  611 328.877 -12.6175 -4.49245
  612 328.839 -12.3145 4.39309
  613 207.805 4.31158 -59.6183
  614 206.524 4.37398 59.3912
  615 777.082 55.3631 57.1508
  616 1246.89 94.0350 -135.543
  617 -0.723504 -0.825878 6.64611
  618 -1.00242 -0.823323 -6.64238
  619 199.584 -8.64324 13.3397
  620 199.555 -8.63143 -13.4862
  621 728.083 45.6310 16.0441
  622 608.303 -2.98478 -0.746405
  623 607.047 -3.90928 0.212175
  624 457.407 0.192871 45.3928
  625 640.401 -33.6011 -64.2139
  626 355.246 -29.5811 28.2904
  627 -5.46254 8.31161 -6.05028
  628 -5.62108 8.29705 6.14351
  629 565.455 12.8180 83.2770
  630 229.966 -13.5112 -29.9262
  631 229.774 -13.7265 29.9804
  632 459.231 -27.6732 -0.835019
  633 562.995 -13.2189 -15.1221
  634 328.072 -26.3638 -40.7189
  635 537.450 64.9608 -50.6720
  636 361.147 -24.6198 -69.8685
  637 142.272 -3.82224 -5.03727
  638 142.322 -3.78135 4.98300
  639 331.341 -26.8002 40.9383
  640 700.775 115.694 44.0688
  641 559.529 -26.4204 69.4702
  642 457.997 -21.7524 1.22602
  643 332.270 -10.0893 2.53062
  644 332.188 -10.1064 -2.46988
  645 254.113 -10.1381 -9.68007
  646 254.036 -10.0402 9.59776
  647 537.205 -49.0405 -24.4010
  648 278.791 -16.3791 16.8278
  649 279.069 -16.3133 -17.1019
  650 547.277 83.8332 -6.72334
  651 496.620 -27.1450 9.15463
  652 613.671 -3.35707 -3.85795
  653 532.128 -9.06992 -73.9154
  654 85.2266 -3.62061 18.8805
  655 85.0538 -3.59585 -18.8897
  656 600.602 -3.84780 -8.63518
  657 112.362 58.5623 -80.8850
  658 114.244 58.4426 81.2714
  659 613.772 -33.3281 85.5715
  660 217.200 55.2460 130.323
  661 60.6857 -0.510253 18.8654
  662 60.4837 -0.497744 -18.8677
  663 525.039 -31.4563 108.154
  664 514.230 81.5952 -245.997
  665 512.509 16.9581 -74.2203
  666 668.166 121.637 39.1385
  667 450.456 -21.3490 0.762726
  668 805.508 143.351 -3.48993
  669 -34.8163 1.86597 -2.91069
  670 -34.6219 1.86155 2.95529
  671 361.118 2.98135 -130.310
  672 38.2247 -0.558504 3.70286
  673 38.0585 -0.559857 -3.73519
  674 450.773 -36.8569 -83.9674
  675 154.588 20.7883 -57.7639
  676 153.412 20.8766 57.7432
  677 7.18388 7.68136 -5.51952
  678 7.39671 7.67295 5.61328
  679 385.700 -33.7722 -22.3644
  680 543.206 -5.37977 -28.1996
  681 265.395 -8.94305 -3.39931
  682 265.417 -8.85656 3.42172
  683 194.976 -10.1601 -19.5472
  684 195.138 -10.2952 19.4895
  685 38.0752 31.2481 -13.9991
  686 38.6731 31.3237 14.2066
  687 549.967 -7.90801 2.00473
  688 253.372 -16.4666 25.2957
  689 254.908 -16.1959 -25.2821
  690 610.886 -46.7394 0.205190
  691 506.344 -50.9218 -5.81751
  692 400.552 -12.7897 -1.74220
  693 399.198 -12.0439 1.91439
  694 555.729 -57.1526 36.5625
  695 896.343 181.974 52.9260
  696 488.994 -19.2195 -132.733
  697 559.449 -16.1402 28.2436
  698 558.840 -19.9257 -75.0010
  699 183.049 -5.93617 -9.42040
  700 183.069 -5.89729 9.32378
  701 436.021 -5.05542 148.225
  702 1184.58 153.481 140.247
  703 88.7070 25.0298 -34.7123
  704 88.8431 25.2010 34.8216
  705 547.811 -6.70807 -0.941659
  706 551.980 -6.10965 0.977912
  707 237.252 126.275 -208.377
  708 584.391 -3.62359 15.9338
  709 505.777 -10.2166 1.03458
  710 672.974 132.440 -14.0116
  711 73.9594 12.3085 -25.5983
  712 74.2712 12.2337 25.6901
  713 620.236 -2.06200 0.254413
  714 509.783 -20.8669 -9.44943
  715 634.708 -7.28993 58.1315
  716 266.809 -18.9215 -38.5493
  717 267.471 -18.1408 38.2317
  718 69.3802 -2.19250 14.2772
  719 69.1884 -2.16633 -14.3071
  720 571.512 -5.06285 -2.14676
  721 493.583 105.608 260.259
  722 4.82909 5.43229 14.7415
  723 5.01645 5.54871 -14.6131
  724 574.056 -7.23338 -6.48580
  725 558.681 -11.3813 9.38314
  726 455.418 0.733021 -48.6854
  727 4.59809 -47.9481 -5.09154
  728 4.31993 -48.4525 5.60119
  729 209.079 57.0598 -130.403
  730 450.233 -44.4603 -61.9898
  731 235.977 125.017 210.174
  732 613.144 -2.17231 1.27979
  733 605.277 91.0164 52.2721
  734 450.336 40.6487 -19.0560
  735 784.533 157.995 5.98089
  736 607.599 -3.12037 5.36548
  737 -30.7158 0.879012 5.52386
  738 -30.9735 0.883772 -5.50241
  739 648.989 -33.6378 24.8254
  740 425.118 -13.7402 -2.21106
  741 160.476 -0.0981884 -41.8498
  742 160.697 -0.251678 41.6443
  743 557.603 -7.76780 -3.25303
  744 979.027 138.324 -52.2541
  745 77.6502 -2.12494 -9.24035
  746 77.8163 -2.13684 9.18658
  747 617.463 -2.24567 -2.34820
  748 134.718 -5.93268 -12.8335
  749 134.821 -5.95337 12.7530
  750 611.678 -22.6123 -60.7191
  751 566.023 -6.16464 22.4106
  752 513.796 -2.69466 73.4331
  753 617.514 -2.32503 0.252769
  754 580.113 -5.48190 4.80920
  755 386.742 -21.8501 -7.31697
  756 479.834 -14.1133 1.13552
  757 546.267 -33.6460 -45.9234
  758 532.312 -33.9127 28.4899
  759 626.521 77.1488 -65.5227
  760 524.745 -30.1802 20.3268
  761 555.670 -32.4826 59.6052
  762 327.100 -22.7942 18.0673
  763 12.6221 0.573718 1.96350
  764 12.0013 0.527448 -1.37403
  765 484.863 -8.94210 -0.317391
  766 483.867 -8.89248 0.142609
  767 575.969 -3.74673 -0.161164
  768 577.855 -3.64439 0.289346
  769 555.309 -15.9248 35.1882
  770 512.002 -45.4251 79.8719
  771 423.747 -35.0292 10.7317
  772 377.951 -23.5190 10.1600
  773 997.501 127.402 59.7866
  774 559.521 -14.9564 -21.7842
  775 331.390 60.6754 -194.909
  776 521.212 -26.6541 -17.3350
  777 27.8291 0.307078 -13.9779
  778 28.0694 0.288117 13.9999
  779 476.895 41.8880 -42.6662
  780 1150.77 34.8942 -14.7837
  781 589.346 16.5898 -80.7331
  782 24.7037 27.8181 -51.0657
  783 610.617 109.053 13.2390
  784 472.603 -31.0015 3.31220
  785 533.705 -12.7929 71.6023
  786 448.045 -46.3522 62.3198
  787 704.520 3.17246 121.887
  788 26.5886 33.2379 54.2660
  789 326.759 -1.33763 102.677
  790 451.633 -13.1989 0.588521
  791 502.446 -43.5262 -80.7872
  792 314.003 -24.8367 -29.3939
  793 248.754 12.1199 -90.4766
  794 583.477 -7.82113 79.0529
  795 377.495 -26.5170 15.0898
  796 83.3166 -2.18953 8.06165
  797 83.1846 -2.19170 -8.12402
  798 544.832 -3.10947 24.9328
  799 499.096 3.09419 -71.6666
  800 -41.6039 2.01414 4.67856
  801 -41.5407 2.01828 -4.63960
  802 367.577 -12.8207 -2.98809
  803 366.567 -12.2094 2.86488
  804 273.862 31.5216 125.385
  805 247.906 -14.8903 19.4103
  806 248.218 -14.5477 -19.5795
  807 616.818 -1.76890 -1.13963
  808 224.605 17.9541 88.3573
  809 18.2197 -0.210621 5.14024
  810 17.9623 -0.206143 -5.15762
  811 538.560 -16.4645 55.0276
  812 566.755 -6.01086 1.59083
  813 -30.2993 0.467355 8.18378
  814 -30.3079 0.477623 -8.16712
  815 356.427 -21.9814 77.9215
  816 71.5276 62.1557 -69.5647
  817 72.3675 59.5363 68.5959
  818 350.682 15.2815 8.04881
  819 3.94992 -0.433332 -5.86578
  820 4.23267 -0.436885 5.86278
  821 408.242 -38.3850 -58.5263
  822 552.492 -57.1648 -11.8825
  823 -2.80272 -2.65552 -3.55894
  824 -2.79404 -2.64887 3.54533
  825 43.3474 0.885024 -1.27314
  826 43.4473 0.890071 1.25454
  827 492.906 -44.2106 6.99041
  828 417.117 -42.5089 42.3321
  829 459.123 -9.43072 0.105615
  830 416.174 -34.2184 -12.2146
  831 162.090 -2.97371 -1.09333
  832 162.129 -2.91514 1.07998
  833 -46.4757 1.01127 2.41474
  834 -46.3704 1.01010 -2.37602
  835 515.464 -8.26222 -1.18424
  836 468.627 18.9422 -61.2661
  837 521.701 -11.8125 -4.60633
  838 314.681 -24.4604 28.1437
  839 522.852 -8.89081 -58.7036
  840 554.679 -17.2686 -36.3331
  841 517.427 -7.32639 1.02791
  842 382.662 -13.6180 105.171
  843 408.855 -40.1716 -25.8205
  844 250.031 -1.89595 -70.2274
  845 251.367 -0.161811 70.5911
  846 350.645 -26.9099 -19.5732
  847 578.825 63.6423 69.1827
  848 543.560 -55.0729 -47.1975
  849 205.528 -6.86597 -4.87410
  850 205.529 -6.77605 4.83501
  851 418.453 -11.1212 1.26472
  852 418.479 -11.1989 -1.17814
  853 501.923 -3.60597 -38.5662
  854 176.369 -7.60402 -15.8265
  855 176.478 -7.65895 15.7163
  856 2.18280 -49.8463 -9.34998
  857 2.07427 -50.0645 9.56165
  858 96.8851 -1.40073 -0.111294
  859 96.8142 -1.42573 0.0952760
  860 512.023 -9.60240 -1.62463
  861 393.974 -37.6043 38.5276
  862 603.926 -49.8993 11.8682
  863 371.160 7.74927 30.8060
  864 523.648 -13.7365 5.38521
  865 573.345 -50.3664 -34.0081
  866 89.4052 5.11233 -28.6550
  867 89.6651 5.02544 28.6508
  868 456.865 -9.99077 -0.0798592
  869 371.832 -14.2328 -5.08111
  870 370.603 -14.1255 5.41352
  871 574.312 89.2157 37.2433
  872 203.702 -2.31401 -49.9985
  873 203.540 -2.54359 49.8126
  874 397.635 -36.3649 21.2729
  875 41.6009 25.9727 -12.2948
  876 41.9865 25.9294 12.4100
  877 337.841 -23.9009 64.2382
  878 403.006 -26.6492 -8.01631
  879 504.584 -3.74098 38.9632
  880 491.636 -54.8264 24.2699
  881 562.539 -42.1434 -50.3848
  882 393.008 -37.9080 -38.9908
  883 329.363 -22.7126 -17.4048
  884 1038.54 84.8358 -16.2776
  885 514.500 -54.2372 2.34888
  886 17.2596 18.0032 3.42583
  887 17.5337 18.0415 -3.28005
  888 449.015 -45.1968 14.0584
  889 490.798 -54.4843 -38.1915
  890 19.0102 15.3480 -2.15411
  891 19.2527 15.3556 2.26719
  892 191.765 -7.08597 38.4644
  893 191.853 -7.28251 -38.6601
  894 230.265 -11.8780 42.0869
  895 230.162 -12.1433 -42.3355
  896 709.116 142.030 15.8894
  897 -0.967462 -21.8976 -10.3798
  898 -0.974800 -21.8679 10.3707
  899 168.595 13.8364 -55.0215
  900 167.815 13.5640 54.5404
  901 1188.01 38.4693 -59.4201
  902 36.7779 -0.169098 2.13468
  903 36.6407 -0.172999 -2.16013
  904 2.38042 -54.4716 1.50406
  905 2.74235 -53.4735 -0.660665
  906 -23.4285 -0.224448 8.57363
  907 -23.4579 -0.216990 -8.57168
  908 135.020 39.4022 -64.4879
  909 137.084 38.0914 63.6468
  910 -9.49669 0.929914 -17.6616
  911 -9.54742 0.887249 17.6931
  912 43.8301 3.23548 -19.0696
  913 44.0752 3.19259 19.1011
  914 148.846 -2.02347 35.5937
  915 148.727 -2.01567 -35.7445
  916 123.540 -4.35995 -28.8314
  917 123.677 -4.35387 28.7986
  918 604.155 -2.58925 -8.65313
  919 299.693 66.7026 181.865
  920 412.815 -40.9312 24.5060
  921 297.155 -21.7253 23.0452
  922 566.708 59.1355 -68.6660
  923 1168.61 24.8474 23.8872
  924 663.109 33.2906 -61.3949
  925 119.820 -4.55173 18.1948
  926 119.688 -4.50230 -18.2504
  927 27.9039 -0.723180 -13.3902
  928 28.1430 -0.729385 13.3945
  929 0.153273 -9.34192 -18.9719
  930 0.0654978 -9.42976 19.0368
  931 307.020 -14.3287 10.8227
  932 307.165 -14.5833 -10.8628
  933 41.6437 9.88960 -17.5035
  934 41.9034 9.84701 17.5886
  935 190.747 -8.72764 -32.9031
  936 190.887 -8.73103 32.8909
  937 409.046 -1.30858 -36.1625
  938 197.212 -10.8867 -23.2793
  939 197.103 -10.7811 23.3516
  940 460.383 -14.3493 0.706665
  941 557.489 -31.2968 -64.3698
  942 250.738 -10.6727 11.2331
  943 250.837 -10.7607 -11.3562
  944 -10.2341 -1.05291 -6.18705
  945 -10.2048 -1.05541 6.17299
  946 564.023 -40.6418 -97.8808
  947 542.730 -32.0376 39.4839
  948 477.086 -34.0923 -5.19959
  949 474.021 16.8036 64.4806
  950 218.655 -12.5346 -26.1158
  951 218.680 -12.3124 26.1896
  952 525.317 20.9601 77.2970
  953 494.127 43.3557 50.9741
  954 974.647 116.387 20.9011
  955 505.584 -19.3335 6.32934
  956 273.880 -8.89845 -5.09244
  957 273.857 -8.74587 5.12792
  958 455.365 -37.8940 2.92045
  959 632.520 115.747 -30.4250
  960 550.098 -7.20069 -2.09331
  961 368.347 -10.3229 1.70501
  962 368.215 -10.2535 -1.60427
  963 49.1584 42.3187 -32.3861
  964 50.3483 42.2703 32.6053
  965 87.5347 246.486 -201.631
  966 524.010 -12.0098 58.3183
  967 644.764 -9.21301 -50.5969
  968 -7.78592 6.40522 1.65804
  969 -7.61132 6.40547 -1.56916
  970 1273.87 310.223 -244.784
  971 553.158 -59.1462 -0.168397
  972 588.308 -52.3408 -30.4369
  973 545.472 -46.4791 34.5380
  974 678.405 132.653 11.6109
  975 51.2578 58.3017 -65.1497
  976 125.248 215.175 199.611
  977 -2.74772 -6.88276 19.2412
  978 -2.69345 -6.81832 -19.2092
  979 528.643 -14.7215 7.02205
  980 847.551 148.899 -20.3951
  981 52.6907 57.1423 67.5026
  982 -2.30356 -8.00102 -6.88032
  983 -2.30370 -7.97789 6.86154
  984 455.913 -12.1018 -0.944088
  985 344.686 -27.7166 -30.7653
  986 549.873 -43.1467 -42.1508
  987 161.074 43.4561 -83.9553
  988 163.608 44.1565 84.1660
  989 536.846 -13.2024 -51.6622
  990 536.404 -17.9842 14.6560
  991 -13.2458 4.07349 15.2077
  992 -13.1738 4.11194 -15.1552
  993 329.228 -21.6192 -60.6461
  994 544.673 35.7030 -77.0759
  995 403.443 -16.3769 3.53231
  996 294.823 -9.27683 1.07513
  997 294.764 -9.32852 -1.04272
  998 -5.88709 -6.70655 -14.1208
  999 -5.89508 -6.72099 14.1074
  1000 543.693 -20.2303 -18.5959
  1001 516.240 -7.22289 0.242104
  1002 515.769 -7.23152 -0.0419818
  1003 716.108 119.843 -39.4255
  1004 135.422 11.2314 -43.9790
  1005 135.760 11.0083 43.8998
  1006 90.3207 -1.04806 -24.0912
  1007 90.4934 -1.06533 24.0730
  1008 593.543 33.2814 81.6745
  1009 555.947 -11.5154 -9.85542
  1010 104.231 15.7790 -36.4076
  1011 104.636 15.6653 36.5374
  1012 576.820 -4.15074 -1.30789
  1013 544.164 -24.0793 -29.3967
  1014 531.459 -58.9028 -28.7054
  1015 22.1264 20.1512 3.06622
  1016 21.5552 20.0562 -2.80541
  1017 -24.0821 4.42083 8.52562
  1018 -23.9885 4.43371 -8.46153
  1019 339.797 12.4355 -13.4494
  1020 910.626 230.689 -70.9067
  1021 423.164 -31.6085 -6.52515
  1022 283.420 -12.4106 -62.2390
  1023 669.440 -23.3392 -2.42262
  1024 284.520 -12.3801 63.0695
  1025 484.370 -55.5617 43.6322
  1026 548.747 -22.7936 -45.9441
  1027 197.442 -4.97450 -1.55597
  1028 197.470 -4.89946 1.54790
  1029 378.301 -30.1310 -17.7583
  1030 235.604 -9.02202 -49.1622
  1031 235.539 -9.08983 48.9473
  1032 79.7372 52.5792 -53.7151
  1033 80.9612 52.4577 53.8759
  1034 168.153 -5.46815 -5.46950
  1035 168.182 -5.40756 5.41264
  1036 487.143 -16.7639 2.45125
  1037 412.881 3.68716 -149.821
  1038 504.491 -17.6037 -6.41698
  1039 458.206 -50.4588 -28.1256
  1040 306.326 -13.7067 7.65034
  1041 306.559 -13.7997 -7.66672
  1042 584.567 -4.55175 1.65612
  1043 526.566 -13.7579 -6.55180
  1044 356.503 8.82186 25.4444
  1045 566.747 -5.70030 -20.8816
  1046 223.620 67.1095 147.228
  1047 581.636 -5.62694 -16.9304
  1048 157.759 26.2645 -64.0948
  1049 153.245 26.5436 61.6499
  1050 691.449 -7.41727 0.225012
  1051 67.0369 34.2210 -29.4502
  1052 67.6313 33.9865 29.4546
  1053 11.8570 2.19158 3.59164
  1054 12.3993 2.29775 -3.23505
  1055 101.658 -2.60755 6.46418
  1056 101.556 -2.62270 -6.52984
  1057 253.495 67.8395 -162.334
  1058 1311.06 354.032 263.533
  1059 542.122 -20.2057 19.0625
  1060 488.674 -54.4584 -22.3250
  1061 343.504 -28.2936 -47.8075
  1062 -5.26356 8.08768 12.4820
  1063 -5.13122 8.13175 -12.3925
  1064 386.268 -20.9011 6.15621
  1065 424.190 -17.0328 2.43513
  1066 -0.148115 -30.9483 9.92924
  1067 -0.137689 -30.9835 -9.92797
  1068 67.1397 41.2111 -34.5377
  1069 67.9072 41.1473 34.7311
  1070 381.328 -19.3360 -5.92594
  1071 34.0436 14.1006 12.1021
  1072 33.7877 14.1166 -11.9957
  1073 577.458 -21.6972 74.7771
  1074 420.114 -43.3035 -42.1201
  1075 345.502 -28.7433 47.8103
  1076 552.262 -10.0500 -79.7960
  1077 574.803 -7.26615 7.12808
  1078 214.912 33.4034 100.185
  1079 216.438 31.9515 -98.5658
  1080 342.578 -16.1840 -84.6865
  1081 479.525 -18.4469 -2.26773
  1082 393.282 -24.5169 9.91855
  1083 458.403 -43.1612 -6.32554
  1084 619.073 -2.59246 -4.20262
  1085 343.212 -16.7055 8.84784
  1086 343.066 -17.5941 -9.02347
  1087 13.1420 14.9553 8.88524
  1088 13.4237 15.0613 -8.72207
  1089 557.819 21.6873 -82.7225
  1090 130.620 6.13071 -39.0596
  1091 130.968 5.99238 38.9727
  1092 100.231 1.54272 -28.4680
  1093 100.448 1.49049 28.4312
  1094 626.284 -19.8905 121.950
  1095 547.898 -25.3594 45.0699
  1096 273.588 -12.7193 -53.3200
  1097 627.407 -2.79964 -2.48738
  1098 714.585 136.342 -29.2875
  1099 573.284 -6.47972 -4.18230
  1100 541.988 -57.7988 11.7426
  1101 404.231 -30.0344 74.9928
  1102 630.308 -1.18528 0.277508
  1103 355.868 10.9828 -21.5461
  1104 461.526 -49.3422 -15.8404
  1105 274.044 -13.2814 52.8052
  1106 465.678 -42.7945 3.68298
  1107 575.442 -8.97000 14.4101
  1108 428.094 27.0951 33.3072
  1109 293.814 -21.8092 -43.1944
  1110 858.893 134.517 -63.4694
  1111 655.594 32.5056 65.1495
  1112 501.153 62.4414 8.07621
  1113 625.377 -0.299280 2.05234
  1114 256.666 -16.3231 -33.6618
  1115 174.333 111.443 -163.833
  1116 309.153 9.23145 -118.473
  1117 354.683 -27.7936 22.6763
  1118 301.266 -22.7695 40.7919
  1119 256.103 -15.5589 33.9651
  1120 531.722 5.54628 80.9903
  1121 400.778 -15.2950 -3.04151
  1122 618.061 -4.93032 5.88719
  1123 -4.15428 0.325005 18.9786
  1124 -4.07922 0.390803 -18.9294
  1125 418.856 -13.4118 1.89686
  1126 0.853763 5.79010 16.4650
  1127 0.990466 5.87724 -16.3691
  1128 242.346 -8.19538 6.00281
  1129 242.352 -8.30939 -6.00848
  1130 586.602 -3.36658 14.0442
  1131 474.285 -29.9552 -3.88047
  1132 445.118 -24.9046 1.25106
  1133 496.402 -35.4017 11.6926
  1134 155.500 79.1222 -123.597
  1135 485.998 -19.6808 3.74118
  1136 80.0051 1.11709 -23.5189
  1137 80.2120 1.08078 23.5105
  1138 105.288 68.9645 -88.6327
  1139 770.427 107.471 12.8630
  1140 65.1744 -2.74156 13.8647
  1141 64.9748 -2.72014 -13.8796
  1142 107.163 68.0226 85.8080
  1143 447.151 -38.0020 -4.71222
  1144 233.510 -11.3239 13.6210
  1145 233.532 -11.3690 -13.8034
  1146 899.789 191.948 -56.4285
  1147 491.279 -49.2477 -2.23431
  1148 171.908 104.707 163.570
  1149 15.5967 2.85942 -16.8907
  1150 16.7301 3.05821 18.2080
  1151 525.483 65.8481 40.4424
  1152 42.6523 21.7766 -12.6417
  1153 42.9755 21.7873 12.7386
  1154 494.389 -43.3607 -7.75315
  1155 -0.209919 -47.4248 -9.15511
  1156 -0.232148 -47.4252 9.19684
  1157 527.647 -44.6077 -22.8753
  1158 2.69807 0.600211 4.57092
  1159 2.41118 0.604299 -4.57873
  1160 85.5362 31.0682 -36.8556
  1161 85.9912 31.2065 36.5647
  1162 -18.8794 0.0410085 -5.60055
  1163 -18.5893 0.0391443 5.60737
  1164 523.727 -7.22231 -0.113869
  1165 -49.7042 1.55514 0.191316
  1166 -49.5578 1.55460 -0.155280
  1167 284.746 -22.6390 -32.7340
  1168 7.81283 -60.4309 -9.59243
  1169 150.185 -4.37701 10.1964
  1170 150.116 -4.38982 -10.2892
  1171 448.557 -10.1911 0.958863
  1172 449.388 -9.97345 -0.874020
  1173 8.39318 -57.1837 11.2385
  1174 530.544 -28.3583 -23.7482
  1175 601.781 -3.15874 10.0847
  1176 539.554 -34.7969 -36.0055
  1177 479.427 3.92955 63.9821
  1178 2.95803 -17.0291 12.9583
  1179 3.19120 -16.8819 -12.7176
  1180 349.973 -26.1070 18.6286
  1181 -22.7284 2.35388 12.2337
  1182 -22.6860 2.37324 -12.1952
  1183 888.577 140.175 10.3290
  1184 1018.53 339.254 -237.827
  1185 551.246 -53.0134 28.8601
  1186 236.593 -7.44709 -1.02422
  1187 236.619 -7.36801 1.02520
  1188 1104.57 107.381 -99.8731
  1189 90.8909 -2.30202 14.3707
  1190 90.7249 -2.26904 -14.4141
  1191 520.074 -1.68411 -25.0865
  1192 336.063 -27.4466 36.8526
  1193 545.190 -52.9209 -19.3614
  1194 528.126 -38.6610 -26.9166
  1195 326.752 -11.0578 88.5892
  1196 125.078 22.6766 -49.3362
  1197 125.026 22.4784 49.0855
  1198 162.153 60.7010 -105.632
  1199 162.401 56.2728 105.651
  1200 50.2129 13.3324 -18.6389
  1201 50.4921 13.2956 18.7408
  1202 654.094 114.169 -44.1526
  1203 36.2785 33.6639 -18.0293
  1204 37.0756 33.7264 18.2724
  1205 471.161 -36.7983 2.29123
  1206 862.354 139.536 70.2724
  1207 122.694 -4.96846 -10.0579
  1208 122.796 -4.96747 9.97634
  1209 552.765 420.873 -342.861
  1210 451.504 27.1020 -51.2426
  1211 417.959 31.7444 21.0289
  1212 60.6611 24.3072 -21.9686
  1213 60.9386 24.3124 22.0781
  1214 24.4911 -0.137863 3.32530
  1215 24.2856 -0.137679 -3.34988
  1216 520.683 -42.0617 21.2654
  1217 511.132 -21.6022 10.6278
  1218 351.276 106.835 -250.440
  1219 803.924 176.440 -15.3488
  1220 350.710 -9.97499 -97.1038
  1221 450.685 -15.3621 -1.38692
  1222 37.6494 -2.17270 -0.714273
  1223 37.7288 -2.17080 0.710379
  1224 -6.33056 3.55911 -8.39402
  1225 -6.10324 3.54514 8.45051
  1226 306.087 3.94864 -101.912
  1227 552.682 -13.2164 13.0750
  1228 364.135 8.35803 137.334
  1229 489.657 -25.3135 -6.93097
  1230 255.889 94.8962 -199.006
  1231 395.287 -18.1075 -104.496
  1232 469.141 -50.0683 13.2470
  1233 570.418 -9.60680 22.5395
  1234 500.660 -12.0172 -1.94760
  1235 283.620 -21.3031 32.8993
  1236 627.180 -32.9290 -37.9680
  1237 600.600 53.6277 77.1432
  1238 265.677 1.37170 -81.4625
  1239 587.539 -4.71038 1.37245
  1240 489.374 60.4595 -11.5591
  1241 216.610 -7.95989 -9.96602
  1242 216.586 -7.88587 9.87465
  1243 898.729 219.050 64.1070
  1244 1208.94 32.1013 55.6124
  1245 1.19187 -57.6610 -9.03475
  1246 1.15555 -57.7184 9.10627
  1247 138.888 75.3598 116.118
  1248 327.788 -10.7377 -2.65006
  1249 327.858 -10.6825 2.76651
  1250 443.405 -44.8284 -16.5329
  1251 533.159 44.4424 69.9571
  1252 547.765 -12.0296 -7.86461
  1253 629.147 -2.09416 -0.663509
  1254 1087.06 244.311 -155.967
  1255 182.151 -7.03177 10.5534
  1256 182.117 -7.04443 -10.6660
  1257 528.209 -48.9717 21.4673
  1258 913.403 235.311 -81.9935
  1259 511.627 -23.4201 -12.1592
  1260 378.199 -27.0855 -14.0057
  1261 461.119 -49.8887 27.5582
  1262 450.810 -23.7347 -0.200822
  1263 17.9822 11.4309 -25.1354
  1264 612.518 -35.3767 47.0139
  1265 498.140 -33.3776 -11.4925
  1266 19.7237 12.2919 27.3915
  1267 511.075 -38.5685 -98.7336
  1268 481.951 34.7359 -205.091
  1269 788.412 107.491 -4.83420
  1270 631.354 -0.915447 -0.158319
  1271 630.342 -1.49003 0.516690
  1272 506.352 -30.4152 13.0570
  1273 200.479 23.8858 -80.4923
  1274 575.901 -50.1244 37.3427
  1275 968.228 223.758 107.432
  1276 246.158 88.0685 194.146
  1277 7.87568 2.79334 12.8068
  1278 8.13353 2.92414 -12.6294
  1279 602.209 -45.8318 -56.5412
  1280 251.385 -14.1733 -16.2014
  1281 251.356 -14.2114 15.9586
  1282 564.702 -36.4986 61.0998
  1283 28.4020 0.0467147 14.9436
  1284 28.1650 0.0577333 -14.9338
  1285 -2.85129 -11.4615 16.1448
  1286 -2.83059 -11.4370 -16.1496
  1287 110.678 -3.74642 -13.0965
  1288 110.809 -3.76765 13.0272
  1289 302.157 -20.3378 -48.6835
  1290 305.287 -11.0497 3.65933
  1291 305.272 -11.2604 -3.54905
  1292 629.711 -0.892989 0.326990
  1293 567.498 -9.21449 -25.4905
  1294 53.3310 1.91084 -19.0837
  1295 53.5602 1.87884 19.0970
  1296 303.350 -21.4817 48.3608
  1297 634.992 -0.967440 0.333795
  1298 602.004 -1.44623 -0.698903
  1299 601.938 -1.81313 0.555516
  1300 801.575 173.987 -1.80095
  1301 588.591 -5.01674 -3.34075
  1302 525.233 -6.90627 -0.0678994
  1303 581.482 -9.62486 -12.7298
  1304 627.157 -2.44555 1.58386
  1305 663.762 71.0414 64.5201
  1306 766.891 162.227 9.82213
  1307 612.826 -2.80128 -6.56312
  1308 -5.22300 -1.27893 4.65664
  1309 -5.24437 -1.27813 -4.67143
  1310 348.738 -22.8202 13.4162
  1311 348.677 -21.8667 -13.0932
  1312 669.720 78.5409 -60.8256
  1313 144.427 50.1470 -88.0922
  1314 145.351 48.8237 87.2079
  1315 461.923 0.173856 -32.0221
  1316 465.178 -9.13404 -0.972429
  1317 464.612 -9.07486 0.874069
  1318 -10.8098 -1.56263 16.3663
  1319 -10.7904 -1.53177 -16.3615
  1320 521.535 -1.37852 25.0314
  1321 784.411 155.806 -6.72337
  1322 67.2198 -2.18899 -8.24052
  1323 67.3838 -2.19397 8.18586
  1324 579.052 -54.3610 17.3214
  1325 2.72202 10.5218 12.4075
  1326 2.89380 10.5845 -12.2959
  1327 118.866 -2.68874 -2.88477
  1328 118.930 -2.65153 2.84792
  1329 462.006 -0.497021 32.5235
  1330 32.2365 0.920735 -1.30477
  1331 32.3539 0.924276 1.28608
  1332 585.398 -7.66373 7.86668
  1333 820.091 148.064 9.97000
</Section>

newXOutput 76

<Section columns = "stress_xx | stress_yy | stress_xy">
  1 652.185 -2.04575 1.19327
  2 653.124 -2.51008 -1.54822
  3 26.9441 0.591510 -1.63835
  4 -0.516728 -0.756837 -0.527891
  5 1168.16 499.238 391.261
  6 1186.12 568.848 -394.848
  7 -0.511366 -0.752103 0.520965
  8 26.8630 0.588138 1.63464
  9 656.399 -1.47102 -1.07866
  10 651.974 -2.50622 -1.60580
  11 652.710 -2.01171 1.26638
  12 650.028 -1.26991 0.388945
  13 649.167 -2.36386 -0.641297
  14 648.816 -2.30199 2.21197
  15 640.593 -1.73824 1.96573
  16 643.639 -4.73744 3.27719
  17 625.416 -4.01308 7.35199
  18 614.226 -1.96309 8.88931
  19 598.499 -2.28017 9.67694
  20 570.661 -2.03314 13.7916
  21 539.947 -1.65760 16.1593
  22 501.164 2.12037 22.3967
  23 447.601 3.31209 20.3917
  24 425.842 0.0365385 29.3370
  25 358.298 5.07080 20.9472
  26 316.789 6.54656 16.5018
  27 305.967 3.50551 12.2015
  28 294.367 9.63507 0.939095
  29 300.752 10.2736 -16.3469
  30 313.401 3.09020 -20.4866
  31 364.389 1.56571 -27.2359
  32 415.368 -2.41340 -28.0489
  33 449.506 2.75572 -20.3398
  34 501.711 2.39951 -22.3849
  35 538.641 -1.94904 -17.3422
  36 573.652 -2.21375 -12.9810
  37 596.334 -1.72573 -9.84051
  38 612.461 -2.10300 -8.09210
  39 629.918 -2.36849 -4.59992
  40 636.287 -2.55385 -4.33739
  41 642.599 -2.39340 -3.87105
  42 648.921 -2.68875 -0.544414
  43 651.189 -3.34513 -1.49641
  44 647.171 -0.165355 0.131943
  45 651.941 -1.87890 -1.45956
  46 654.259 -3.56264 1.75086
  47 657.134 -2.10491 -0.0538691
  48 625.966 -0.226863 -0.985316
  49 590.869 -3.48789 -1.81715
  50 550.842 -7.06850 -2.49426
  51 509.162 -6.35917 -1.78999
  52 472.577 -9.41769 -1.63630
  53 433.785 -10.0989 -1.46177
  54 394.503 -8.95675 -0.616074
  55 353.026 -9.39848 -0.905797
  56 317.859 -9.70365 -1.23875
  57 270.937 -9.12842 -0.959872
  58 222.576 -5.87656 -0.614677
  59 182.535 -3.80708 -0.462824
  60 133.068 -2.39092 -0.0885149
  61 97.1788 -2.16324 -2.39430
  62 63.9090 -2.79639 -0.733011
  63 30.3230 0.312571 1.60833
  64 21.3749 2.32632 0.727945
  65 18.6078 0.936640 1.76287
  66 19.3217 0.421205 1.81333
  67 11.6711 1.33270 1.01359
  68 8.36861 1.76152 3.68915
  69 6.24477 0.631909 1.62769
  70 -6.58483 1.33370 1.74866
  71 -13.0202 0.894438 3.62067
  72 -16.4074 0.270556 3.84859
  73 -30.8783 1.22834 3.19319
  74 -36.8213 1.86390 5.59597
  75 -43.8070 1.13218 2.46233
  76 -51.2645 0.834634 3.28994
  77 -55.1520 0.879191 1.66669
  78 -62.7269 2.20977 -0.915646
  79 -64.4472 1.51241 -0.643831
  80 -59.5168 1.11656 -1.69465
  81 -51.6477 1.51521 -3.67452
  82 -42.4756 0.713428 -5.93092
  83 -32.0069 0.409218 -6.30889
  84 -19.3399 -0.591236 -6.68222
  85 -8.56906 -0.487690 -3.97167
  86 -3.64424 -1.38445 -2.50862
  87 -0.577094 -3.62854 -2.19833
  88 -0.941897 -9.27234 -3.82869
  89 -1.08635 -17.7907 -6.61774
  90 -0.161216 -33.1164 -7.04231
  91 0.449333 -45.3754 -8.73578
  92 0.983787 -64.9772 -7.07502
  93 2.93509 -76.5379 -8.23611
  94 0.606983 -81.1334 -6.46869
  95 -0.0237652 -91.6292 -3.26814
  96 2.64587 -85.9835 0.541495
  97 10.8834 -110.231 7.01014
  98 10.3199 -50.0417 20.1976
  99 23.8697 -6.52124 42.0959
  100 69.5455 144.418 122.017
  101 283.154 409.138 327.850
  102 1529.66 168.154 225.039
  103 1292.14 46.0068 80.9440
  104 1232.74 19.6297 27.7591
  105 1200.29 12.7300 -0.159081
  106 1221.20 18.7002 -22.9079
  107 1303.39 39.2540 -66.8056
  108 1513.81 132.594 -208.761
  109 184.490 462.675 -271.190
  110 49.0136 114.163 -95.4309
  111 17.6698 -18.0130 -35.5745
  112 9.36791 -56.7629 -17.7385
  113 10.8120 -115.024 -5.82541
  114 2.52145 -88.0922 0.286842
  115 -0.180905 -92.6766 3.69803
  116 0.507492 -81.5307 6.69816
  117 2.88030 -76.6213 8.33228
  118 0.962815 -64.9295 7.10989
  119 0.433582 -45.3033 8.74736
  120 -0.168900 -33.0291 7.03693
  121 -1.08716 -17.7356 6.60265
  122 -0.943913 -9.22567 3.81486
  123 -0.576613 -3.61103 2.18625
  124 -3.62328 -1.38233 2.49844
  125 -8.53162 -0.489960 3.96054
  126 -19.2910 -0.596678 6.67515
  127 -31.9495 0.403091 6.30979
  128 -42.4416 0.706700 5.94213
  129 -51.6570 1.51032 3.69721
  130 -59.5708 1.11608 1.71935
  131 -64.5597 1.51086 0.668111
  132 -62.8884 2.20923 0.941065
  133 -55.3698 0.881365 -1.64419
  134 -51.5252 0.837319 -3.27291
  135 -44.0895 1.13530 -2.44853
  136 -37.1296 1.86767 -5.58958
  137 -31.1967 1.23193 -3.18779
  138 -16.7241 0.272740 -3.84838
  139 -13.3400 0.898260 -3.62467
  140 -6.89226 1.33904 -1.75493
  141 5.97032 0.635412 -1.64027
  142 8.12675 1.76527 -3.70858
  143 11.4589 1.33382 -1.03069
  144 19.1559 0.420532 -1.83016
  145 18.4756 0.935020 -1.77647
  146 21.2655 2.32357 -0.739677
  147 30.2341 0.310603 -1.61530
  148 63.8288 -2.80680 0.726094
  149 97.1061 -2.18881 2.38687
  150 133.012 -2.43601 0.0784358
  151 182.500 -3.87217 0.457722
  152 222.547 -5.95179 0.614101
  153 270.898 -9.19308 0.970475
  154 317.779 -9.73465 1.26044
  155 352.902 -9.35492 0.956522
  156 394.333 -8.80410 0.673641
  157 433.556 -9.74249 1.37648
  158 472.788 -9.52388 1.42704
  159 509.323 -6.99700 1.89402
  160 551.261 -6.95297 2.25518
  161 591.992 -3.15214 1.84281
  162 625.048 -0.266301 0.961409
  163 373.876 -33.9356 -35.2832
  164 372.438 -34.5586 35.1965
  165 116.242 31.5359 -49.3650
  166 117.370 31.6433 49.1734
  167 437.739 -19.2498 118.239
  168 458.237 -21.8853 -115.169
  169 222.427 -11.9847 16.6580
  170 222.388 -11.8711 -16.8557
  171 466.875 -17.7732 -0.102208
  172 457.929 -17.8226 0.287863
  173 627.411 112.261 -14.0537
  174 630.162 6.71597 -71.6706
  175 618.427 11.2841 78.0206
  176 156.378 -6.11690 -33.5393
  177 156.406 -6.07685 33.4870
  178 544.809 -53.6124 22.3052
  179 544.472 -41.9181 -34.3045
  180 9.29766 13.9773 11.0053
  181 9.52555 14.0651 -10.8688
  182 744.214 152.472 16.4691
  183 148.131 67.2838 -107.144
  184 158.578 67.8638 114.481
  185 526.375 -25.5686 14.9251
  186 787.692 167.757 -2.13013
  187 346.735 -13.7664 -5.81534
  188 346.206 -14.0873 5.78402
  189 540.213 -18.1503 -13.8652
  190 714.405 0.815319 -19.0851
  191 144.753 -4.38035 6.56047
  192 144.691 -4.41422 -6.63513
  193 63.4700 7.24803 -23.3770
  194 63.7444 7.17401 23.4323
  195 309.455 -11.6630 -75.7776
  196 308.256 -12.2755 76.7219
  197 368.265 -24.7448 -14.2082
  198 368.986 -24.6072 14.9165
  199 104.512 -3.62875 18.1674
  200 104.356 -3.58233 -18.1980
  201 706.183 -6.67555 55.0506
  202 582.154 -55.9434 -4.86754
  203 550.162 -7.01386 -1.59516
  204 538.546 -8.32445 1.54401
  205 557.790 65.8444 56.1742
  206 25.4816 23.6964 -11.5291
  207 26.3488 23.6679 11.9159
  208 551.340 -21.7511 65.2191
  209 514.039 39.7532 -65.1492
  210 360.312 87.1171 -236.995
  211 378.916 73.7266 220.444
  212 13.2670 12.5209 -3.93537
  213 13.4876 12.5208 4.04308
  214 549.917 -19.0647 -67.5584
  215 941.090 130.820 -9.58417
  216 456.780 -49.2755 45.7801
  217 460.056 -49.0297 -43.5710
  218 456.493 -33.4589 1.62288
  219 559.785 -10.1291 7.05117
  220 279.749 -19.5581 -30.0187
  221 275.574 -19.4879 30.8221
  222 170.730 3.14405 -49.6511
  223 170.983 3.08394 49.2763
  224 576.642 -59.3534 -13.3837
  225 452.839 -35.4918 -3.60926
  226 557.691 -9.96434 -5.21189
  227 439.027 -12.9206 -1.21928
  228 442.657 -12.1767 2.01511
  229 554.107 -25.1412 36.1698
  230 55.8921 0.281688 -19.4345
  231 56.1118 0.259350 19.4385
  232 -6.50810 -4.20155 -18.3793
  233 -6.54367 -4.24690 18.3928
  234 96.5932 -3.93342 -10.6767
  235 96.7313 -3.94288 10.6064
  236 243.230 -7.88856 7.50200
  237 243.270 -8.00984 -7.54936
  238 274.727 19.6148 -108.899
  239 274.764 16.4601 107.713
  240 561.372 -18.0858 -30.9723
  241 270.619 -16.0110 -47.1969
  242 270.863 -16.4881 46.6111
  243 503.720 8.39222 74.0657
  244 447.335 38.2331 4.51033
  245 483.960 -48.4374 3.54380
  246 2.79250 -9.98858 -15.6570
  247 2.62950 -10.1199 15.7975
  248 33.2503 38.2710 -40.0469
  249 35.2807 37.1647 41.8270
  250 476.106 -47.4184 -6.64816
  251 845.487 167.267 -24.0476
  252 48.1962 31.8679 -18.8760
  253 48.7441 31.8633 19.0624
  254 -16.6053 4.27933 11.7118
  255 -16.5116 4.30165 -11.6462
  256 848.622 157.955 29.2345
  257 307.630 -15.6258 -12.9055
  258 307.413 -15.3989 12.7081
  259 588.903 -38.5707 58.1834
  260 1045.04 170.668 108.177
  261 184.948 -9.91377 -27.8244
  262 184.932 -9.98340 27.8077
  263 606.297 91.1636 -52.6371
  264 1010.93 193.272 -100.277
  265 714.327 75.8738 45.5246
  266 765.518 60.2919 -153.217
  267 483.263 -24.1039 3.73128
  268 553.515 3.76464 -81.9772
  269 520.167 -37.3377 -17.9471
  270 576.812 -11.0819 19.3270
  271 5.08694 5.60038 -8.31566
  272 5.30973 5.58383 8.39403
  273 570.051 -14.3842 -146.560
  274 67.1482 19.3824 -24.0282
  275 67.4561 19.3523 24.1480
  276 557.141 -13.5894 -40.9279
  277 83.1931 92.4991 -111.664
  278 80.4315 -0.412356 -2.51591
  279 80.5202 -0.398118 2.48492
  280 587.137 -35.1890 -61.0283
  281 108.164 48.5954 -61.5187
  282 109.688 48.3578 61.6928
  283 39.6859 -1.02421 13.4595
  284 39.4524 -1.01264 -13.4640
  285 482.484 -23.0156 -3.69080
  286 83.7848 91.5745 114.452
  287 752.521 71.2431 177.881
  288 219.273 -9.08670 -10.4078
  289 219.251 -9.03596 10.2899
  290 389.169 -17.4655 -6.05793
  291 388.990 -18.7629 6.53505
  292 332.124 34.0188 -162.485
  293 530.098 -57.5428 -2.35268
  294 596.247 -4.70155 2.98474
  295 320.183 34.1689 157.509
  296 373.270 -11.6215 -2.15016
  297 373.134 -11.6167 2.45424
  298 521.061 -38.7550 18.2563
  299 592.995 -7.18636 -8.58172
  300 2.60918 2.17006 -11.0033
  301 2.85764 2.15375 11.0427
  302 752.883 148.528 -3.67099
  303 654.727 -27.5792 26.3690
  304 587.041 -4.29879 -0.609234
  305 596.704 -3.77154 0.553424
  306 590.236 -49.1636 57.3483
  307 727.407 80.9785 -41.1336
  308 644.770 119.549 29.1014
  309 294.243 -18.6466 -19.7470
  310 291.706 -18.9693 20.0734
  311 595.353 -4.64221 -1.73502
  312 398.962 -29.3988 -82.6930
  313 393.475 -31.7412 17.7563
  314 374.941 -19.6557 93.5158
  315 588.572 -7.98558 10.4278
  316 144.866 -6.62246 -17.5549
  317 144.975 -6.66921 17.4923
  318 544.261 -14.1602 144.791
  319 352.457 -28.4327 -24.5818
  320 641.195 83.9428 65.1075
  321 209.604 14.5909 -72.2500
  322 202.065 15.2749 71.7265
  323 72.5520 -1.33554 -4.55395
  324 72.6759 -1.32734 4.50480
  325 521.865 -12.1715 3.27541
  326 500.910 -8.95472 -0.0477293
  327 498.225 -9.63825 -0.110028
  328 553.519 -14.2923 43.4718
  329 59.0193 -1.90397 10.2252
  330 58.8151 -1.88713 -10.2623
  331 171.941 -4.31791 -3.78941
  332 171.973 -4.25612 3.75680
  333 5.89487 -21.8327 -7.40147
  334 5.54270 -22.0370 7.82061
  335 442.124 19.4841 50.6399
  336 660.803 -25.0522 -19.5997
  337 432.873 -24.2909 -2.16913
  338 485.919 -11.5806 -0.867207
  339 519.322 64.3081 -30.4293
  340 108.586 -3.56730 -25.0573
  341 108.734 -3.57099 25.0450
  342 421.399 -23.0035 4.26786
  343 125.839 3.72881 -35.7616
  344 126.082 3.62645 35.6728
  345 26.4919 20.4107 -3.40656
  346 26.7827 20.4121 3.53311
  347 508.808 -53.3134 57.6188
  348 1100.34 72.3015 28.3667
  349 463.665 7.64608 -59.8163
  350 382.479 -34.1714 52.6260
  351 380.546 -33.4463 -54.0788
  352 561.454 -8.46621 80.8269
  353 503.803 -3.22279 58.6487
  354 502.448 -51.5342 -59.2861
  355 306.166 -8.96877 1.33289
  356 306.115 -9.05486 -1.26009
  357 555.838 -36.1199 47.5401
  358 761.214 150.345 0.609414
  359 592.159 -7.49961 -14.2703
  360 163.646 -6.36970 -12.9776
  361 163.728 -6.37636 12.8710
  362 559.548 -50.7150 -70.5868
  363 593.651 42.8783 -79.9421
  364 410.459 22.0758 -32.6298
  365 560.031 -36.9438 -54.9605
  366 -17.7037 0.876266 -14.1246
  367 -17.7221 0.853000 14.1425
  368 470.203 -12.9405 -0.378975
  369 -6.66949 -3.93637 -8.75991
  370 -6.66031 -3.93718 8.74042
  371 360.505 194.145 -286.294
  372 16.4494 15.1108 6.15220
  373 16.8170 15.2233 -5.95434
  374 500.300 -3.39789 -58.1840
  375 279.484 -12.7139 9.77777
  376 279.661 -12.8665 -9.86104
  377 -1.59434 -19.1807 16.1372
  378 -1.56417 -19.1463 -16.1222
  379 295.004 202.969 270.230
  380 230.065 -12.5275 -37.4129
  381 230.261 -12.0241 37.4412
  382 74.7978 56.3458 -57.5615
  383 76.3082 56.2280 57.2679
  384 -25.1809 4.44710 3.81995
  385 -25.0513 4.45499 -3.74814
  386 574.068 39.4453 80.6636
  387 439.271 -45.9967 27.7890
  388 439.754 -40.5792 13.8006
  389 529.379 -59.3343 -13.6187
  390 139.010 16.7648 -48.8583
  391 139.474 16.7430 48.8000
  392 12.8041 -12.0353 4.61566
  393 12.1575 -12.3203 -3.69342
  394 545.677 77.5395 19.7719
  395 538.006 -16.7545 11.0322
  396 314.994 -24.8031 35.0802
  397 198.502 -5.34558 -44.2276
  398 198.596 -5.38313 43.9409
  399 397.519 -13.6313 -3.25632
  400 397.117 -12.1916 2.92048
  401 312.418 -25.4317 -36.9753
  402 246.052 -4.39389 -58.7857
  403 246.035 -4.72412 59.2323
  404 562.415 -50.9010 -30.5682
  405 332.752 -26.2126 23.2172
  406 511.019 -17.1186 5.51480
  407 509.928 -15.7915 -4.30048
  408 431.924 -40.3081 -15.2963
  409 607.680 -3.68233 -3.21395
  410 211.269 88.5239 -165.934
  411 577.771 -8.93820 24.4661
  412 606.549 -4.12767 5.16812
  413 227.324 -12.5325 23.2720
  414 227.397 -12.3698 -23.2561
  415 437.338 -45.4560 -28.5288
  416 66.8852 28.6679 25.9736
  417 66.5372 28.6423 -25.9854
  418 1110.98 72.2459 -57.6925
  419 502.168 -29.7769 -8.82009
  420 610.629 -3.17486 1.84753
  421 199.958 83.0554 158.509
  422 906.946 152.026 32.1176
  423 535.083 -9.79325 -2.50764
  424 406.337 -30.3835 -12.3075
  425 173.743 33.4825 -81.2892
  426 184.855 30.9837 80.7993
  427 496.539 -32.4571 8.70284
  428 530.445 -6.73005 -42.7421
  429 4.97865 -0.561677 10.1700
  430 4.71319 -0.556258 -10.1604
  431 195.212 47.6094 -107.505
  432 195.836 47.7729 107.189
  433 27.7209 10.7017 -12.2755
  434 27.9677 10.6806 12.3732
  435 446.175 -10.5304 0.106444
  436 445.641 -10.3078 0.0357527
  437 553.476 -25.6607 -37.8974
  438 -0.579189 -0.414635 19.0123
  439 -0.479409 -0.323466 -18.9386
  440 569.380 -55.1700 25.6104
  441 537.156 -15.8025 -9.53724
  442 865.877 165.386 -30.7511
  443 48.1641 -1.65665 4.95319
  444 47.9801 -1.65691 -4.99555
  445 1030.10 299.692 140.592
  446 22.5221 20.0149 -36.2318
  447 72.7280 2.93753 -24.6932
  448 72.9605 2.88726 24.6985
  449 1029.07 307.159 -137.544
  450 23.8617 22.3489 39.4096
  451 -23.1502 3.30710 -0.155857
  452 -22.9812 3.30253 0.224731
  453 62.2008 42.6909 -35.4038
  454 63.2264 42.7259 35.5810
  455 682.529 109.047 -51.2580
  456 546.254 -22.2647 -23.3982
  457 607.631 -3.23444 -1.54623
  458 571.343 -9.10628 -28.9611
  459 -5.30560 4.94676 17.2451
  460 -5.20378 5.00626 -17.1746
  461 552.080 -23.0306 27.7995
  462 364.424 -21.6141 -11.4636
  463 363.360 -21.8134 10.3025
  464 489.005 -53.6938 -14.1857
  465 351.950 -3.78044 -113.559
  466 535.152 -8.06324 43.5703
  467 436.427 -15.8304 2.24988
  468 633.946 -44.1937 -16.0666
  469 341.182 4.37182 121.456
  470 37.0562 -0.598848 9.81378
  471 36.8165 -0.588640 -9.82944
  472 702.753 138.725 -21.3435
  473 554.739 -5.74912 -0.142003
  474 552.926 -6.30493 -0.338325
  475 425.905 -29.4946 7.35360
  476 195.316 -6.90966 -7.44705
  477 195.323 -6.83794 7.37412
  478 117.302 -1.71694 -29.6396
  479 117.448 -1.73948 29.5959
  480 373.378 14.4427 19.6054
  481 100.874 -3.27303 14.5530
  482 100.723 -3.24347 -14.6121
  483 102.561 9.10385 33.5248
  484 102.227 9.23834 -33.4899
  485 543.499 -42.1784 32.8213
  486 309.905 -19.3708 -55.5831
  487 288.460 -10.3217 5.43380
  488 288.549 -10.5402 -5.43816
  489 313.092 -19.9616 55.5880
  490 843.030 203.611 -27.5128
  491 -13.4519 -1.92764 -11.1901
  492 -13.4427 -1.93839 11.1823
  493 223.302 -6.83087 -3.16201
  494 223.316 -6.74230 3.15217
  495 0.451052 -34.9548 -12.8920
  496 0.362074 -35.0708 13.0127
  497 494.901 -9.28020 0.171603
  498 371.450 17.3428 -9.73106
  499 487.248 50.8399 27.5662
  500 307.320 -2.50935 -91.5824
  501 157.877 -8.12447 21.9297
  502 157.840 -8.05762 -21.9570
  503 -32.2603 1.14393 -4.04565
  504 -32.0255 1.13670 4.07850
  505 588.119 -9.38880 -79.0541
  506 61.5790 0.209399 -3.25692
  507 61.6905 0.216714 3.22146
  508 489.573 -39.2779 -5.60414
  509 520.865 -44.6854 -16.5982
  510 110.825 87.7841 -115.059
  511 437.994 15.3688 -175.347
  512 8.46095 14.0152 6.18410
  513 8.67558 14.0473 -6.06319
  514 275.450 -13.4599 -13.5301
  515 275.331 -13.3511 13.2988
  516 743.593 37.9316 -5.82732
  517 541.031 -32.5014 -30.0267
  518 108.141 83.4377 113.546
  519 535.827 -59.5857 22.0444
  520 516.246 -49.1564 11.2805
  521 121.944 -2.95437 -9.61465
  522 122.037 -2.94436 9.53551
  523 437.074 5.14555 46.4214
  524 312.888 -23.6105 -24.2422
  525 567.784 -13.7008 16.8974
  526 -2.22012 -13.8389 -10.9236
  527 -2.22556 -13.8260 10.9060
  528 403.648 -35.2196 62.0820
  529 606.825 -44.4885 -36.6026
  530 782.708 63.9305 -39.7774
  531 431.480 -16.3105 -2.23544
  532 140.141 -2.71376 -2.74154
  533 140.193 -2.66856 2.71976
  534 277.307 2.61017 88.4583
  535 754.525 131.353 28.7445
  536 752.080 169.485 -273.448
  537 686.744 8.24650 32.4965
  538 498.370 -55.0734 11.6229
  539 1143.78 91.1875 77.6576
  540 860.763 214.923 37.1242
  541 132.552 -5.60766 23.8535
  542 132.440 -5.55424 -23.8824
  543 479.688 -40.3914 2.55633
  544 40.3808 17.7131 -12.0576
  545 40.6600 17.7070 12.1716
  546 599.546 -48.1589 36.7904
  547 501.441 27.7926 67.9417
  548 600.368 -4.44441 9.56067
  549 449.759 -28.1586 -0.998049
  550 619.795 12.9338 -184.802
  551 970.079 270.276 187.125
  552 484.510 -11.3552 0.0991453
  553 591.392 -6.61099 -15.9209
  554 98.9033 40.6581 -47.0106
  555 99.6045 40.1784 46.8317
  556 345.945 -15.1274 -7.73047
  557 345.799 -14.8078 7.84680
  558 4.55437 -36.0622 -7.79572
  559 606.650 -19.7365 69.0110
  560 26.2327 22.8355 -1.24300
  561 26.6089 22.9022 1.42340
  562 5.25836 -34.5715 9.10197
  563 554.005 -25.0035 -56.9961
  564 636.437 42.5754 -74.6686
  565 634.591 48.0235 74.7967
  566 32.7803 31.2125 27.8569
  567 31.2277 31.8197 -27.3506
  568 -9.59952 0.515375 7.83430
  569 -9.86898 0.521212 -7.81802
  570 578.705 21.6796 190.099
  571 326.194 -18.9397 14.1643
  572 326.503 -18.8754 -14.3565
  573 695.392 -5.23821 -102.192
  574 104.394 -1.46355 5.56129
  575 104.308 -1.48370 -5.61459
  576 57.3261 -1.11867 -1.27854
  577 57.4135 -1.11135 1.26608
  578 769.011 145.026 -20.6899
  579 76.0621 126.730 -125.725
  580 419.846 8.85301 -39.4254
  581 580.491 92.3058 -33.3241
  582 9.71755 2.38260 9.88113
  583 10.0683 2.51482 -9.64660
  584 564.290 285.328 318.649
  585 492.036 -15.3471 -2.01489
  586 23.6708 4.97528 -13.8247
  587 23.9154 4.93968 13.8872
  588 568.858 -45.0086 46.5992
  589 89.6222 123.161 128.010
  590 413.047 -10.4446 1.00229
  591 413.164 -10.3722 -1.00378
  592 -0.227416 -28.1847 13.7686
  593 -0.183147 -28.1402 -13.7232
  594 702.964 135.681 -1.12604
  595 446.053 -34.6412 86.0931
  596 426.697 -19.7204 -3.47990
  597 427.170 23.2500 184.767
  598 -34.3123 1.93993 8.03978
  599 -34.2792 1.95046 -8.00425
  600 694.840 13.6357 -35.3283
  601 910.300 170.676 -137.083
  602 270.742 28.6532 -125.485
  603 152.506 -6.55454 -28.8870
  604 152.659 -6.55812 28.8982
  605 623.852 -2.59134 2.36574
  606 422.711 -20.1045 2.99985
  607 558.172 -9.04079 4.94071
  608 553.979 -25.0822 55.5804
  609 36.2405 -0.949081 4.99686
  610 36.0222 -0.945200 -5.02791
  611 333.258 -12.8203 -4.59682
  612 333.220 -12.5137 4.49621
  613 210.664 4.36256 -60.5430
  614 209.368 4.42595 60.3135
  615 786.588 56.3624 58.2140
  616 1261.42 95.1332 -137.091
  617 -0.414041 -0.837291 6.76197
  618 -0.697085 -0.834707 -6.75810
  619 202.442 -8.77339 13.5828
  620 202.412 -8.76136 -13.7310
  621 737.127 46.4024 15.8968
  622 615.718 -3.04868 -0.748369
  623 614.448 -3.98358 0.208546
  624 463.569 0.207949 45.8748
  625 648.354 -33.8790 -65.2669
  626 359.928 -29.9852 28.7994
  627 -5.44383 8.43025 -6.06641
  628 -5.60446 8.41544 6.16091
  629 572.763 13.0311 84.0915
  630 233.149 -13.7075 -30.4345
  631 232.955 -13.9257 30.4895
  632 465.120 -28.0635 -0.715411
  633 570.048 -13.4150 -15.2205
  634 332.424 -26.7213 -41.3935
  635 544.556 65.8279 -51.1692
  636 365.877 -24.9321 -70.9302
  637 144.475 -3.88043 -5.12919
  638 144.526 -3.83906 5.07430
  639 335.732 -27.1624 41.6180
  640 709.661 117.252 44.3223
  641 566.697 -26.7292 70.1214
  642 463.861 -22.0741 1.13519
  643 336.691 -10.2615 2.57901
  644 336.608 -10.2788 -2.51756
  645 257.624 -10.2978 -9.86185
  646 257.546 -10.1988 9.77861
  647 544.035 -49.6542 -24.5017
  648 282.581 -16.6207 17.1406
  649 282.862 -16.5539 -17.4178
  650 554.537 84.9264 -6.78670
  651 502.941 -27.5248 9.13703
  652 621.208 -3.41592 -3.87652
  653 539.045 -9.16070 -74.6596
  654 86.6338 -3.67495 19.2020
  655 86.4582 -3.64985 -19.2111
  656 608.045 -3.91391 -8.69920
  657 113.942 59.4061 -82.1167
  658 115.849 59.2856 82.5085
  659 621.416 -33.6083 86.8762
  660 220.124 56.0267 132.182
  661 61.7595 -0.523090 19.1861
  662 61.5544 -0.510410 -19.1882
  663 531.661 -31.7628 109.717
  664 520.598 82.9241 -249.263
  665 519.274 17.2148 -74.9826
  666 676.741 123.227 39.4075
  667 456.234 -21.6663 0.878491
  668 815.670 145.107 -3.53280
  669 -35.1156 1.89041 -2.98396
  670 -34.9186 1.88594 3.02922
  671 365.812 3.06878 -132.145
  672 39.1778 -0.566273 3.76623
  673 39.0086 -0.567643 -3.79892
  674 456.551 -37.2881 -85.2177
  675 156.760 21.0647 -58.6690
  676 155.570 21.1547 58.6483
  677 7.42084 7.78563 -5.66882
  678 7.63658 7.77717 5.76394
  679 390.740 -34.2283 -22.8020
  680 550.195 -5.44989 -28.4779
  681 269.044 -9.08796 -3.46040
  682 269.067 -9.00047 3.48309
  683 197.759 -10.3105 -19.8910
  684 197.925 -10.4475 19.8328
  685 38.6589 31.7243 -14.3140
  686 39.2645 31.8014 14.5243
  687 556.805 -8.05136 1.98579
  688 256.848 -16.7044 25.7366
  689 258.401 -16.4304 -25.7231
  690 618.550 -47.2437 0.462151
  691 512.802 -51.5711 -5.70031
  692 405.750 -13.0030 -1.81195
  693 404.381 -12.2482 1.98549
  694 562.742 -57.8135 37.2436
  695 907.444 184.269 53.7654
  696 495.187 -19.3690 -134.597
  697 566.522 -16.3620 28.4804
  698 566.016 -20.1468 -75.7210
  699 185.722 -6.02954 -9.59330
  700 185.742 -5.99022 9.49559
  701 441.587 -5.03216 150.285
  702 1198.55 155.346 141.929
  703 90.0168 25.3712 -35.3048
  704 90.1550 25.5448 35.4158
  705 554.610 -6.83796 -0.928996
  706 558.824 -6.23038 0.965740
  707 240.349 128.149 -211.231
  708 591.727 -3.68496 16.0727
  709 512.144 -10.3965 0.993706
  710 681.657 134.119 -14.0907
  711 75.1024 12.4688 -26.0503
  712 75.4186 12.3931 26.1436
  713 627.778 -2.10487 0.248610
  714 516.239 -21.1722 -9.45475
  715 642.713 -7.29173 58.5731
  716 270.427 -19.1863 -39.1862
  717 271.097 -18.3957 38.8649
  718 70.6243 -2.22471 14.5198
  719 70.4294 -2.19819 -14.5499
  720 578.569 -5.16561 -2.14174
  721 499.698 107.232 263.686
  722 4.93148 5.55641 14.8658
  723 5.12126 5.67448 -14.7357
  724 581.184 -7.35889 -6.50972
  725 565.660 -11.5618 9.42270
  726 461.561 0.757241 -49.2022
  727 4.66968 -48.4392 -5.10108
  728 4.38795 -48.9499 5.61723
  729 211.897 57.8703 -132.266
  730 456.015 -45.0045 -62.9614
  731 239.073 126.870 213.046
  732 620.633 -2.22035 1.27748
  733 613.139 92.2176 52.7385
  734 456.499 41.1998 -19.2538
  735 794.439 159.989 6.23024
  736 615.090 -3.17798 5.39696
  737 -30.8919 0.889484 5.62501
  738 -31.1532 0.894298 -5.60320
  739 657.067 -33.9282 25.4040
  740 430.595 -13.9663 -2.29836
  741 162.759 -0.111551 -42.5282
  742 162.983 -0.266982 42.3204
  743 564.532 -7.90611 -3.24355
  744 990.979 140.006 -52.9604
  745 79.0307 -2.15683 -9.40601
  746 79.1996 -2.16888 9.35168
  747 625.006 -2.29221 -2.35679
  748 136.793 -6.02018 -13.0617
  749 136.898 -6.04117 12.9804
  750 619.415 -22.8273 -61.2106
  751 573.216 -6.25078 22.6209
  752 520.539 -2.70257 74.1848
  753 625.026 -2.37285 0.264648
  754 587.293 -5.58641 4.82091
  755 391.793 -22.1705 -7.52188
  756 485.925 -14.3428 1.07647
  757 553.228 -34.0734 -46.3135
  758 539.077 -34.3583 28.6802
  759 634.575 78.1974 -66.0933
  760 531.405 -30.5883 20.4322
  761 562.769 -32.8791 60.1435
  762 331.455 -23.1199 18.4181
  763 12.8186 0.716946 2.09217
  764 12.1898 0.669908 -1.49510
  765 490.989 -9.10970 -0.331986
  766 489.981 -9.05952 0.155172
  767 583.054 -3.83139 -0.157331
  768 584.960 -3.72823 0.286861
  769 562.368 -16.1384 35.5046
  770 518.488 -45.9386 81.0798
  771 429.233 -35.5046 11.0186
  772 382.901 -23.8599 10.4013
  773 1009.64 128.941 60.5644
  774 566.569 -15.1707 -21.9491
  775 335.678 61.5707 -197.565
  776 527.821 -27.0226 -17.4154
  777 28.4365 0.307145 -14.2285
  778 28.6802 0.287949 14.2510
  779 483.333 42.4589 -43.1076
  780 1164.30 35.3046 -14.9498
  781 596.914 16.8615 -81.4958
  782 25.0599 28.6616 -51.8819
  783 618.595 110.452 13.3521
  784 478.650 -31.4303 3.21501
  785 540.626 -12.9354 72.3192
  786 453.803 -46.9188 63.2962
  787 713.146 3.48004 123.655
  788 26.9705 34.1482 55.1241
  789 331.058 -1.33202 104.161
  790 457.406 -13.4190 0.655108
  791 508.826 -44.0194 -82.0069
  792 318.195 -25.1813 -29.9091
  793 252.099 12.2922 -91.8102
  794 590.943 -7.86858 79.7978
  795 382.441 -26.8908 15.4140
  796 84.7958 -2.22167 8.20042
  797 84.6613 -2.22386 -8.26349
  798 551.840 -3.15346 25.1773
  799 505.695 3.15953 -72.4111
  800 -42.0835 2.04185 4.71763
  801 -42.0196 2.04606 -4.67814
  802 372.403 -13.0309 -3.07990
  803 371.381 -12.4120 2.95487
  804 277.496 31.9748 127.169
  805 251.326 -15.1083 19.7601
  806 251.641 -14.7613 -19.9313
  807 624.343 -1.80920 -1.13794
  808 227.650 18.2036 89.6658
  809 18.8560 -0.213189 5.22895
  810 18.5946 -0.208657 -5.24649
  811 545.499 -16.6686 55.5663
  812 573.760 -6.12428 1.58204
  813 -30.6734 0.476824 8.27884
  814 -30.6823 0.487234 -8.26199
  815 361.095 -22.2540 79.0876
  816 72.5555 63.1233 -70.6584
  817 73.4062 60.4713 69.6768
  818 355.748 15.4960 8.13674
  819 4.35688 -0.441574 -5.96614
  820 4.64390 -0.445175 5.96317
  821 413.534 -38.8675 -59.4479
  822 559.492 -57.8583 -11.8100
  823 -2.83998 -2.69058 -3.60737
  824 -2.83117 -2.68384 3.59357
  825 44.3980 0.894691 -1.29689
  826 44.5003 0.899796 1.27809
  827 499.204 -44.7867 6.90299
  828 422.522 -43.0520 43.0469
  829 464.972 -9.60518 0.0715891
  830 421.572 -34.6842 -12.5179
  831 164.533 -3.02596 -1.11635
  832 164.573 -2.96671 1.10286
  833 -46.9917 1.02337 2.42354
  834 -46.8851 1.02219 -2.38428
  835 521.925 -8.41686 -1.16499
  836 474.939 19.2187 -61.9120
  837 528.255 -12.0081 -4.59357
  838 318.882 -24.8015 28.6411
  839 529.654 -8.99488 -59.2977
  840 561.730 -17.4992 -36.6589
  841 523.908 -7.46950 1.00914
  842 387.630 -13.7576 106.686
  843 414.167 -40.7011 -26.3137
  844 253.410 -1.92256 -71.2926
  845 254.763 -0.165063 71.6616
  846 355.275 -27.2869 -19.9528
  847 586.357 64.5075 69.8399
  848 550.426 -55.7110 -48.0070
  849 208.475 -6.97457 -4.96763
  850 208.477 -6.88359 4.92810
  851 423.850 -11.3157 1.31311
  852 423.877 -11.3944 -1.22591
  853 508.525 -3.64611 -38.9633
  854 178.941 -7.71848 -16.1062
  855 179.052 -7.77415 15.9948
  856 2.21651 -50.4128 -9.43713
  857 2.10658 -50.6335 9.65147
  858 98.5654 -1.42294 -0.104171
  859 98.4928 -1.44824 0.0879761
  860 518.455 -9.77353 -1.59598
  861 399.107 -38.0959 39.1861
  862 611.519 -50.4563 11.7623
  863 376.430 7.85896 31.1421
  864 530.230 -13.9544 5.37525
  865 580.608 -50.9646 -34.1980
  866 90.7801 5.17285 -29.1411
  867 91.0438 5.08488 29.1372
  868 462.688 -10.1722 -0.0480045
  869 376.707 -14.4608 -5.21387
  870 375.464 -14.3523 5.55066
  871 581.854 90.3833 37.5895
  872 206.522 -2.35580 -50.7914
  873 206.359 -2.58828 50.6035
  874 402.816 -36.8531 21.6994
  875 42.2556 26.3460 -12.5766
  876 42.6464 26.3024 12.6934
  877 342.296 -24.2108 65.2259
  878 408.248 -27.0270 -8.24538
  879 511.211 -3.78293 39.3641
  880 497.914 -55.5076 24.7730
  881 569.692 -42.6531 -50.7923
  882 398.129 -38.4034 -39.6548
  883 333.745 -23.0375 -17.7450
  884 1051.05 85.8430 -16.4824
  885 521.053 -54.9173 2.17818
  886 17.5695 18.2718 3.37677
  887 17.8473 18.3108 -3.22899
  888 454.799 -45.7860 14.4095
  889 497.061 -55.1514 -38.8715
  890 19.3698 15.5645 -2.27574
  891 19.6156 15.5724 2.39042
  892 194.461 -7.19462 39.0924
  893 194.549 -7.39363 -39.2903
  894 233.431 -12.0494 42.7701
  895 233.326 -12.3180 -43.0215
  896 718.191 143.844 15.9219
  897 -0.976920 -22.1767 -10.5090
  898 -0.984343 -22.1464 10.4998
  899 170.955 14.0160 -55.8860
  900 170.166 13.7404 55.3993
  901 1201.91 38.9198 -60.0942
  902 37.7337 -0.172598 2.17305
  903 37.5938 -0.176546 -2.19880
  904 2.41990 -54.9992 1.45760
  905 2.78661 -53.9884 -0.603446
  906 -23.7267 -0.224924 8.67933
  907 -23.7566 -0.217367 -8.67740
  908 136.920 39.9468 -65.4910
  909 139.011 38.6178 64.6391
  910 -9.59093 0.957453 -17.8647
  911 -9.64228 0.914197 17.8965
  912 44.6219 3.27257 -19.4067
  913 44.8705 3.22915 19.4389
  914 150.996 -2.06312 36.1806
  915 150.876 -2.05521 -36.3330
  916 125.397 -4.42956 -29.3108
  917 125.535 -4.42343 29.2779
  918 611.671 -2.63339 -8.72313
  919 303.608 67.6740 184.365
  920 418.173 -41.4700 24.9835
  921 301.153 -22.0331 23.4659
  922 574.106 59.9393 -69.3301
  923 1182.30 25.1321 24.1648
  924 671.470 33.8243 -61.8531
  925 121.690 -4.62050 18.5039
  926 121.556 -4.57040 -18.5600
  927 28.5635 -0.735487 -13.6177
  928 28.8061 -0.741770 13.6222
  929 0.175068 -9.42395 -19.1813
  930 0.0861763 -9.51294 19.2470
  931 311.147 -14.5486 11.0398
  932 311.293 -14.8063 -11.0803
  933 42.3672 10.0183 -17.8316
  934 42.6305 9.97519 17.9181
  935 193.443 -8.85876 -33.4493
  936 193.585 -8.86231 33.4372
  937 414.711 -1.30878 -36.5541
  938 200.013 -11.0466 -23.6814
  939 199.903 -10.9399 23.7547
  940 466.258 -14.5829 0.788825
  941 564.617 -31.6713 -64.9636
  942 254.206 -10.8376 11.4473
  943 254.306 -10.9266 -11.5719
  944 -10.3700 -1.06529 -6.26852
  945 -10.3403 -1.06782 6.25424
  946 571.096 -41.0463 -99.3231
  947 549.635 -32.4519 39.8021
  948 483.190 -34.5555 -5.11555
  949 480.386 17.0534 65.1577
  950 221.711 -12.7183 -26.5636
  951 221.736 -12.4934 26.6384
  952 532.223 21.2696 78.0859
  953 500.750 43.9492 51.4966
  954 986.556 117.783 21.1694
  955 511.985 -19.6208 6.30517
  956 277.626 -9.04543 -5.19090
  957 277.604 -8.89105 5.22683
  958 461.221 -38.4024 3.11493
  959 640.724 117.240 -30.6612
  960 556.938 -7.33486 -2.07678
  961 373.179 -10.5035 1.73888
  962 373.046 -10.4332 -1.63698
  963 49.8879 42.9740 -32.9661
  964 51.0934 42.9258 33.1884
  965 88.6393 250.458 -204.348
  966 530.823 -12.1507 58.9059
  967 652.878 -9.22293 -50.9365
  968 -7.77174 6.49233 1.61681
  969 -7.59481 6.49264 -1.52667
  970 1288.64 314.099 -247.734
  971 560.158 -59.8581 -0.393287
  972 595.694 -52.9222 -31.0564
  973 552.406 -47.0595 34.7641
  974 687.152 134.335 11.6626
  975 51.9989 59.3037 -66.1847
  976 126.867 218.709 202.362
  977 -2.76377 -6.94441 19.4642
  978 -2.70881 -6.87913 -19.4318
  979 535.291 -14.9498 7.02264
  980 858.157 150.727 -20.7300
  981 53.4500 58.1299 68.5669
  982 -2.33125 -8.10743 -6.97093
  983 -2.33138 -8.08395 6.95186
  984 461.731 -12.3086 -1.00559
  985 349.241 -28.0951 -31.3080
  986 556.868 -43.6831 -42.4715
  987 163.301 44.0617 -85.2171
  988 165.868 44.7713 85.4305
  989 543.769 -13.3675 -52.1703
  990 543.167 -18.2469 14.7293
  991 -13.3744 4.14043 15.3707
  992 -13.3015 4.17944 -15.3175
  993 333.581 -21.9024 -61.5866
  994 551.804 36.2074 -77.8443
  995 408.678 -16.6344 3.64898
  996 298.814 -9.43233 1.10189
  997 298.754 -9.48458 -1.06909
  998 -5.95517 -6.78497 -14.2984
  999 -5.96323 -6.79958 14.2848
  1000 550.549 -20.5168 -18.7111
  1001 522.702 -7.36521 0.233503
  1002 522.226 -7.37402 -0.0312392
  1003 725.158 121.461 -39.6031
  1004 137.366 11.3745 -44.6910
  1005 137.708 11.1487 44.6110
  1006 91.7537 -1.07077 -24.4984
  1007 91.9292 -1.08828 24.4802
  1008 601.176 33.7699 82.4462
  1009 562.900 -11.6981 -9.89708
  1010 105.761 15.9874 -37.0177
  1011 106.172 15.8724 37.1495
  1012 583.924 -4.24006 -1.30094
  1013 551.059 -24.4055 -29.6219
  1014 538.195 -59.6089 -29.2788
  1015 22.4745 20.5069 3.22251
  1016 21.8959 20.4102 -2.95830
  1017 -24.3267 4.48423 8.59800
  1018 -24.2319 4.49732 -8.53305
  1019 344.740 12.6053 -13.5956
  1020 921.853 233.705 -72.0874
  1021 428.641 -32.0462 -6.74624
  1022 287.218 -12.5781 -63.1984
  1023 677.768 -23.4995 -2.73777
  1024 288.331 -12.5465 64.0402
  1025 490.558 -56.2429 44.3793
  1026 555.747 -23.0873 -46.3608
  1027 200.299 -5.05831 -1.58572
  1028 200.328 -4.98239 1.57757
  1029 383.256 -30.5472 -18.1246
  1030 238.826 -9.15368 -49.9432
  1031 238.761 -9.22244 49.7261
  1032 80.8880 53.3515 -54.5856
  1033 82.1281 53.2293 54.7489
  1034 170.659 -5.55277 -5.57219
  1035 170.690 -5.49146 5.51469
  1036 493.324 -17.0243 2.39522
  1037 418.177 3.80536 -151.895
  1038 510.876 -17.8706 -6.39873
  1039 464.094 -51.0995 -28.6657
  1040 310.446 -13.9185 7.81072
  1041 310.682 -14.0127 -7.82721
  1042 591.763 -4.64250 1.64768
  1043 533.185 -13.9758 -6.55100
  1044 361.620 8.95466 25.7243
  1045 573.949 -5.77622 -21.0789
  1046 226.611 68.0720 149.307
  1047 588.963 -5.70658 -17.0837
  1048 159.960 26.6210 -65.0876
  1049 155.391 26.9034 62.6105
  1050 700.037 -7.34808 0.534947
  1051 68.0375 34.7051 -29.9775
  1052 68.6399 34.4677 29.9823
  1053 12.0497 2.32759 3.54235
  1054 12.5991 2.43532 -3.18119
  1055 103.367 -2.64715 6.58182
  1056 103.264 -2.66247 -6.64823
  1057 256.853 68.8095 -164.599
  1058 1326.13 358.541 266.710
  1059 548.966 -20.4913 19.1800
  1060 494.918 -55.1381 -22.8015
  1061 348.035 -28.6690 -48.5800
  1062 -5.26763 8.21233 12.5886
  1063 -5.13357 8.25705 -12.4979
  1064 391.312 -21.2110 6.33561
  1065 429.662 -17.2989 2.54925
  1066 -0.147787 -31.3395 10.0499
  1067 -0.137234 -31.3753 -10.0486
  1068 68.1310 41.8038 -35.1396
  1069 68.9087 41.7396 35.3358
  1070 386.316 -19.6269 -6.09982
  1071 34.6360 14.2919 12.3617
  1072 34.3765 14.3080 -12.2537
  1073 584.830 -21.9305 75.4719
  1074 425.552 -43.8572 -42.8313
  1075 350.057 -29.1244 48.5830
  1076 559.393 -10.1393 -80.5779
  1077 581.942 -7.39258 7.15742
  1078 217.824 33.8680 101.651
  1079 219.370 32.3953 -100.010
  1080 347.078 -16.3817 -85.9380
  1081 485.626 -18.7279 -2.20021
  1082 398.411 -24.8686 10.1682
  1083 464.296 -43.7290 -6.57386
  1084 626.684 -2.63899 -4.22593
  1085 347.758 -16.9598 9.05300
  1086 347.610 -17.8597 -9.23036
  1087 13.3737 15.2043 8.91215
  1088 13.6591 15.3119 -8.74683
  1089 565.061 22.0127 -83.5426
  1090 132.515 6.20244 -39.6992
  1091 132.868 6.06241 39.6115
  1092 101.760 1.55276 -28.9497
  1093 101.981 1.49988 28.9126
  1094 634.051 -19.9478 123.706
  1095 554.880 -25.6866 45.4706
  1096 277.273 -12.8967 -54.1591
  1097 635.063 -2.84552 -2.50022
  1098 723.676 138.125 -29.3995
  1099 580.389 -6.59666 -4.18663
  1100 548.865 -58.5088 11.6745
  1101 409.470 -30.3987 76.1247
  1102 637.959 -1.21453 0.271249
  1103 360.977 11.1376 -21.7819
  1104 467.456 -49.9759 -16.2225
  1105 277.736 -13.4661 53.6384
  1106 471.657 -43.3576 3.89845
  1107 582.642 -9.10996 14.5126
  1108 433.999 27.4714 33.6629
  1109 297.755 -22.1098 -43.8969
  1110 869.298 136.564 -64.6654
  1111 663.876 33.0202 65.6626
  1112 507.891 63.2713 8.15927
  1113 633.030 -0.317011 2.05685
  1114 260.167 -16.5564 -34.2282
  1115 176.680 113.072 -166.141
  1116 313.227 9.38489 -120.162
  1117 359.360 -28.1798 23.1031
  1118 305.298 -23.0825 41.4652
  1119 259.598 -15.7825 34.5353
  1120 538.666 5.65412 81.8125
  1121 405.982 -15.5389 -3.15110
  1122 625.679 -5.00379 5.92908
  1123 -4.17804 0.355046 19.1896
  1124 -4.10204 0.421753 -19.1399
  1125 424.262 -13.6341 1.97968
  1126 0.910544 5.90175 16.6225
  1127 1.04901 5.99014 -16.5253
  1128 245.726 -8.32763 6.10707
  1129 245.731 -8.44298 -6.11279
  1130 593.982 -3.41659 14.1710
  1131 480.352 -30.3708 -3.79171
  1132 450.841 -25.2636 1.38705
  1133 502.735 -35.8760 11.6819
  1134 157.627 80.2674 -125.387
  1135 492.176 -19.9758 3.68636
  1136 81.2885 1.12304 -23.9221
  1137 81.4984 1.08626 23.9138
  1138 106.770 69.9720 -89.9718
  1139 779.993 109.030 12.6541
  1140 66.3460 -2.78220 14.1068
  1141 66.1432 -2.76049 -14.1217
  1142 108.670 69.0204 87.1114
  1143 452.911 -38.5117 -4.92954
  1144 236.770 -11.4956 13.8735
  1145 236.791 -11.5411 -14.0581
  1146 910.941 194.378 -57.3210
  1147 497.559 -49.8778 -2.44969
  1148 174.230 106.251 165.877
  1149 15.8382 3.11404 -17.2371
  1150 16.9866 3.31560 18.5711
  1151 532.471 66.7249 40.8432
  1152 43.3346 22.0827 -12.9228
  1153 43.6622 22.0937 13.0212
  1154 500.704 -43.9271 -7.67595
  1155 -0.211921 -48.0102 -9.26056
  1156 -0.234426 -48.0103 9.30277
  1157 534.360 -45.1772 -22.9714
  1158 3.11949 0.606483 4.64909
  1159 2.82819 0.610624 -4.65695
  1160 86.7927 31.4991 -37.4827
  1161 87.2540 31.6395 37.1882
  1162 -18.8310 0.0408708 -5.69658
  1163 -18.5367 0.0389872 5.70355
  1164 530.271 -7.36324 -0.0938621
  1165 -50.2341 1.57522 0.171124
  1166 -50.0859 1.57468 -0.134574
  1167 288.585 -22.9541 -33.2925
  1168 7.92689 -60.9036 -9.80230
  1169 152.463 -4.44608 10.3801
  1170 152.393 -4.45901 -10.4739
  1171 454.285 -10.3751 0.981312
  1172 455.126 -10.1549 -0.895478
  1173 8.51564 -57.6148 11.4700
  1174 537.274 -28.7416 -23.8964
  1175 609.273 -3.21111 10.1664
  1176 546.417 -35.2468 -36.2803
  1177 485.817 3.99654 64.6549
  1178 3.01148 -17.1688 13.0668
  1179 3.24766 -17.0196 -12.8231
  1180 354.597 -26.4747 18.9954
  1181 -22.9856 2.39061 12.3681
  1182 -22.9428 2.41024 -12.3292
  1183 899.620 141.879 10.4862
  1184 1030.52 343.959 -241.074
  1185 558.244 -53.6654 29.0035
  1186 239.908 -7.56830 -1.04727
  1187 239.934 -7.48830 1.04827
  1188 1117.75 108.672 -101.096
  1189 92.4042 -2.33745 14.6205
  1190 92.2354 -2.30403 -14.6643
  1191 526.851 -1.70548 -25.3410
  1192 340.514 -27.8198 37.4758
  1193 552.108 -53.5730 -19.3896
  1194 534.844 -39.1614 -27.0752
  1195 331.059 -11.1878 89.8919
  1196 126.868 22.9815 -50.1279
  1197 126.815 22.7808 49.8741
  1198 164.382 61.5579 -107.183
  1199 164.635 57.0706 107.201
  1200 51.0341 13.5096 -18.9913
  1201 51.3172 13.4724 19.0948
  1202 662.506 115.667 -44.4829
  1203 36.8306 34.1914 -18.4059
  1204 37.6381 34.2553 18.6522
  1205 477.197 -37.2948 2.16747
  1206 872.779 141.665 71.5674
  1207 124.636 -5.04116 -10.2395
  1208 124.740 -5.04017 10.1570
  1209 559.174 426.959 -347.198
  1210 457.652 27.4837 -51.7843
  1211 423.764 32.1760 21.2549
  1212 61.5952 24.6419 -22.3816
  1213 61.8766 24.6474 22.4926
  1214 25.2626 -0.140439 3.38146
  1215 25.0537 -0.140254 -3.40632
  1216 527.312 -42.6053 21.3512
  1217 517.608 -21.9143 10.6442
  1218 355.757 108.452 -253.792
  1219 814.033 178.695 -15.7749
  1220 355.298 -10.0821 -98.5159
  1221 456.454 -15.6085 -1.48356
  1222 38.6447 -2.19784 -0.724411
  1223 38.7263 -2.19590 0.720470
  1224 -6.22621 3.60572 -8.56217
  1225 -5.99573 3.59160 8.61954
  1226 310.133 4.02222 -103.389
  1227 559.614 -13.4189 13.1469
  1228 368.861 8.52475 139.259
  1229 495.894 -25.6730 -6.89085
  1230 259.249 96.2727 -201.738
  1231 400.403 -18.3015 -106.004
  1232 475.161 -50.7095 13.5972
  1233 577.601 -9.74797 22.7316
  1234 506.977 -12.2202 -1.90672
  1235 287.447 -21.6015 33.4598
  1236 635.064 -33.2582 -38.1688
  1237 608.342 54.3756 77.8642
  1238 269.241 1.39428 -82.6751
  1239 594.752 -4.80327 1.37010
  1240 495.979 61.2628 -11.6793
  1241 219.682 -8.08477 -10.1445
  1242 219.658 -8.00989 10.0521
  1243 909.698 222.126 65.3433
  1244 1223.03 32.4758 56.2416
  1245 1.20981 -58.3641 -9.13660
  1246 1.17302 -58.4219 9.20899
  1247 140.803 76.4668 117.817
  1248 332.158 -10.9174 -2.71608
  1249 332.229 -10.8616 2.83387
  1250 449.122 -45.4135 -16.9141
  1251 540.182 45.0569 70.6592
  1252 554.619 -12.2220 -7.88619
  1253 636.770 -2.13386 -0.675988
  1254 1100.13 247.347 -157.963
  1255 184.807 -7.13834 10.7505
  1256 184.772 -7.15110 -10.8644
  1257 534.930 -49.5917 21.5397
  1258 924.534 238.600 -83.4387
  1259 518.115 -23.7541 -12.1857
  1260 383.153 -27.4665 -14.3154
  1261 467.041 -50.5208 28.0917
  1262 456.598 -24.0791 -0.321880
  1263 18.2584 11.8467 -25.6033
  1264 620.243 -35.7553 47.3352
  1265 504.488 -33.8298 -11.4861
  1266 20.0233 12.7184 27.8882
  1267 517.545 -38.9764 -100.180
  1268 488.004 35.3387 -207.848
  1269 798.163 109.065 -4.51170
  1270 638.995 -0.942272 -0.158852
  1271 637.975 -1.52348 0.521244
  1272 512.793 -30.8315 13.0773
  1273 203.222 24.2126 -81.7000
  1274 583.196 -50.7184 37.5726
  1275 980.104 226.586 108.947
  1276 249.416 89.3556 196.820
  1277 8.01544 2.89803 12.8980
  1278 8.27662 3.03068 -12.7184
  1279 609.737 -46.3078 -57.4841
  1280 254.851 -14.3833 -16.4986
  1281 254.823 -14.4220 16.2529
  1282 571.897 -36.9361 61.6397
  1283 29.0458 0.0438380 15.1988
  1284 28.8052 0.0549931 -15.1887
  1285 -2.87863 -11.5951 16.3433
  1286 -2.85768 -11.5703 -16.3483
  1287 112.458 -3.80352 -13.3237
  1288 112.591 -3.82504 13.2537
  1289 306.193 -20.6154 -49.4618
  1290 309.398 -11.2293 3.74392
  1291 309.382 -11.4424 -3.63232
  1292 637.354 -0.919298 0.339649
  1293 574.663 -9.34756 -25.7128
  1294 54.2645 1.92823 -19.4199
  1295 54.4970 1.89583 19.4336
  1296 307.402 -21.7736 49.1361
  1297 642.671 -0.989847 0.341380
  1298 609.354 -1.49356 -0.708320
  1299 609.286 -1.86512 0.563549
  1300 811.567 176.334 -2.18034
  1301 595.844 -5.11317 -3.34481
  1302 531.793 -7.04345 -0.0899890
  1303 588.729 -9.77296 -12.8200
  1304 634.795 -2.48992 1.58743
  1305 672.188 72.0396 65.0266
  1306 776.547 164.375 9.63838
  1307 620.407 -2.84878 -6.61200
  1308 -5.29456 -1.29456 4.71920
  1309 -5.31623 -1.29376 -4.73421
  1310 353.348 -23.1499 13.6994
  1311 353.287 -22.1843 -13.3715
  1312 678.218 79.6353 -61.2815
  1313 146.434 50.8557 -89.4135
  1314 147.371 49.5156 88.5183
  1315 468.128 0.181419 -32.3601
  1316 471.090 -9.30532 -1.00471
  1317 470.518 -9.24544 0.905047
  1318 -10.9328 -1.57163 16.5651
  1319 -10.9132 -1.54036 -16.5603
  1320 528.327 -1.39724 25.2848
  1321 794.324 157.772 -6.97332
  1322 68.4904 -2.21866 -8.38306
  1323 68.6573 -2.22372 8.32780
  1324 586.362 -55.0002 17.3002
  1325 2.82032 10.6883 12.5007
  1326 2.99435 10.7520 -12.3876
  1327 120.797 -2.73090 -2.93999
  1328 120.863 -2.69325 2.90272
  1329 468.210 -0.496525 32.8673
  1330 33.1508 0.930657 -1.32878
  1331 33.2707 0.934237 1.30988
  1332 592.658 -7.78822 7.90860
  1333 830.406 149.882 10.1720
</Section>

newXOutput 77

<Section columns = "stress_xx | stress_yy | stress_xy">
  1 659.931 -2.08211 1.20763
  2 660.878 -2.55094 -1.56678
  3 27.8202 0.598002 -1.65582
  4 -0.524797 -0.767683 -0.536720
  5 1181.01 505.896 395.881
  6 1199.17 576.328 -399.489
  7 -0.519362 -0.762884 0.529701
  8 27.7368 0.594592 1.65207
  9 664.186 -1.49789 -1.09139
  10 659.725 -2.54518 -1.62645
  11 660.478 -2.04485 1.27511
  12 657.783 -1.29731 0.384939
  13 656.927 -2.40105 -0.657395
  14 656.596 -2.33924 2.22527
  15 648.317 -1.77035 1.97101
  16 651.419 -4.79834 3.29881
  17 633.041 -4.06778 7.41274
  18 621.771 -1.99666 8.96465
  19 605.919 -2.31468 9.76229
  20 577.840 -2.06431 13.9232
  21 546.845 -1.68024 16.3187
  22 507.692 2.14468 22.6261
  23 453.601 3.35130 20.6043
  24 431.619 0.0466415 29.6480
  25 363.385 5.14217 21.1716
  26 321.435 6.63371 16.6817
  27 310.498 3.56528 12.3358
  28 298.775 9.76580 0.950973
  29 305.229 10.4082 -16.5281
  30 318.007 3.13663 -20.7123
  31 369.536 1.59781 -27.5317
  32 421.038 -2.43245 -28.3451
  33 455.525 2.78881 -20.5512
  34 508.243 2.42647 -22.6136
  35 545.526 -1.97497 -17.5141
  36 580.854 -2.24446 -13.1037
  37 603.735 -1.75427 -9.92780
  38 619.987 -2.13964 -8.15828
  39 637.586 -2.40242 -4.63418
  40 643.990 -2.59554 -4.36723
  41 650.341 -2.43168 -3.89975
  42 656.698 -2.73037 -0.539813
  43 658.972 -3.39438 -1.50355
  44 654.897 -0.180942 0.142021
  45 659.699 -1.91136 -1.47082
  46 662.028 -3.61373 1.77336
  47 664.928 -2.13726 -0.0535195
  48 633.458 -0.252369 -0.996949
  49 598.015 -3.56592 -1.83741
  50 557.581 -7.20176 -2.51763
  51 515.468 -6.49230 -1.80588
  52 478.494 -9.59032 -1.65043
  53 439.282 -10.2798 -1.47308
  54 399.568 -9.12065 -0.616514
  55 357.629 -9.56417 -0.909290
  56 322.066 -9.86496 -1.24563
  57 274.610 -9.27489 -0.963003
  58 225.695 -5.97491 -0.616703
  59 185.193 -3.87160 -0.463156
  60 135.155 -2.43085 -0.0836887
  61 98.8534 -2.19425 -2.41910
  62 65.2039 -2.83032 -0.738385
  63 31.2337 0.316406 1.63011
  64 22.1748 2.35253 0.741447
  65 19.3653 0.946924 1.78922
  66 20.0693 0.425897 1.84280
  67 12.3055 1.34755 1.03636
  68 8.94346 1.78177 3.74611
  69 6.76000 0.639886 1.66167
  70 -6.25526 1.35005 1.78419
  71 -12.7966 0.904320 3.67887
  72 -16.2634 0.272547 3.91193
  73 -30.9573 1.24246 3.25105
  74 -37.0065 1.88626 5.68572
  75 -44.1280 1.14584 2.51378
  76 -51.7125 0.845123 3.35038
  77 -55.6916 0.889774 1.70615
  78 -63.4068 2.23929 -0.910872
  79 -65.1798 1.53253 -0.638583
  80 -60.2189 1.13042 -1.70378
  81 -52.2733 1.53609 -3.71007
  82 -43.0065 0.724708 -5.99999
  83 -32.4184 0.416232 -6.38643
  84 -19.5927 -0.596824 -6.76651
  85 -8.68646 -0.492856 -4.02403
  86 -3.69580 -1.40200 -2.54265
  87 -0.584168 -3.67859 -2.22905
  88 -0.952397 -9.40028 -3.87943
  89 -1.09897 -18.0241 -6.70203
  90 -0.161130 -33.5444 -7.12854
  91 0.456832 -45.9477 -8.83915
  92 0.998152 -65.7883 -7.15693
  93 2.97684 -77.4748 -8.32798
  94 0.618873 -82.0843 -6.52953
  95 -0.0208368 -92.6588 -3.27802
  96 2.67927 -86.8580 0.597306
  97 11.0255 -111.310 7.15827
  98 10.4739 -50.2290 20.5581
  99 24.2042 -5.95808 42.7806
  100 70.4517 147.221 123.731
  101 286.446 415.286 331.897
  102 1546.47 170.173 227.437
  103 1306.78 46.5399 81.8176
  104 1246.81 19.8578 28.0552
  105 1214.05 12.8736 -0.161041
  106 1235.16 18.9179 -23.1559
  107 1318.14 39.7083 -67.5193
  108 1530.46 134.156 -210.960
  109 186.659 469.580 -274.524
  110 49.6586 116.593 -96.8054
  111 17.9208 -17.5990 -36.1724
  112 9.50854 -57.0365 -18.0662
  113 10.9527 -116.164 -5.95797
  114 2.55305 -88.9931 0.241587
  115 -0.179984 -93.7189 3.71332
  116 0.518134 -82.4863 6.76187
  117 2.92133 -77.5587 8.42531
  118 0.976912 -65.7396 7.19219
  119 0.440885 -45.8745 8.85082
  120 -0.168909 -33.4558 7.12304
  121 -1.09978 -17.9682 6.68671
  122 -0.954435 -9.35295 3.86541
  123 -0.583677 -3.66083 2.21681
  124 -3.67455 -1.39985 2.53232
  125 -8.64850 -0.495153 4.01274
  126 -19.5430 -0.602335 6.75931
  127 -32.3601 0.410022 6.38732
  128 -42.9720 0.717888 6.01132
  129 -52.2825 1.53113 3.73307
  130 -60.2734 1.12993 1.72881
  131 -65.2936 1.53095 0.663200
  132 -63.5703 2.23873 0.936652
  133 -55.9123 0.891968 -1.68331
  134 -51.9767 0.847834 -3.33307
  135 -44.4145 1.14899 -2.49974
  136 -37.3191 1.89006 -5.67920
  137 -31.2802 1.24609 -3.24554
  138 -16.5848 0.274757 -3.91167
  139 -13.1212 0.908191 -3.68289
  140 -6.56737 1.35545 -1.79051
  141 6.48123 0.643429 -1.67438
  142 8.69761 1.78557 -3.76576
  143 12.0896 1.34869 -1.05365
  144 19.9003 0.425216 -1.85982
  145 19.2304 0.945288 -1.80298
  146 22.0628 2.34976 -0.753312
  147 31.1425 0.314414 -1.63716
  148 65.1217 -2.84087 0.731394
  149 98.7789 -2.22012 2.41159
  150 135.097 -2.47647 0.0735015
  151 185.157 -3.93744 0.458005
  152 225.664 -6.05099 0.616132
  153 274.569 -9.34027 0.973743
  154 321.984 -9.89626 1.26757
  155 357.503 -9.52002 0.960600
  156 399.397 -8.96615 0.674712
  157 439.050 -9.91925 1.38692
  158 478.708 -9.69794 1.43898
  159 515.632 -7.13790 1.91101
  160 558.005 -7.08490 2.27573
  161 599.149 -3.22633 1.86336
  162 632.534 -0.292330 0.972889
  163 378.712 -34.3819 -35.8879
  164 377.258 -35.0135 35.7996
  165 117.886 31.9624 -50.1545
  166 119.029 32.0710 49.9605
  167 443.274 -19.4338 119.902
  168 464.009 -22.0990 -116.793
  169 225.515 -12.1596 16.9556
  170 225.475 -12.0444 -17.1555
  171 472.755 -18.0452 -0.193540
  172 463.711 -18.0954 0.382513
  173 635.479 113.677 -14.1716
  174 638.049 6.88289 -72.2723
  175 626.195 11.4983 78.7123
  176 158.614 -6.21080 -34.0872
  177 158.642 -6.17030 34.0345
  178 551.634 -54.2707 22.3694
  179 551.301 -42.4429 -34.5342
  180 9.47936 14.2002 11.0653
  181 9.71019 14.2893 -10.9270
  182 753.529 154.420 16.4283
  183 150.151 68.2361 -108.703
  184 160.727 68.8224 116.132
  185 532.951 -25.9220 14.9782
  186 797.462 169.926 -1.86599
  187 351.267 -13.9835 -5.95081
  188 350.732 -14.3084 5.91926
  189 546.928 -18.4136 -13.9255
  190 723.109 1.01136 -19.6279
  191 146.957 -4.44681 6.68408
  192 146.894 -4.48106 -6.75957
  193 64.4854 7.33735 -23.7850
  194 64.7637 7.26243 23.8413
  195 313.508 -11.8095 -76.9026
  196 312.294 -12.4287 77.8600
  197 373.042 -25.0938 -14.5095
  198 373.772 -24.9542 15.2267
  199 106.164 -3.68439 18.4752
  200 106.005 -3.63735 -18.5061
  201 714.768 -6.55373 56.0155
  202 589.397 -56.5883 -4.69028
  203 556.909 -7.14626 -1.57971
  204 545.173 -8.47629 1.52432
  205 565.031 66.7167 56.7115
  206 25.8698 24.1168 -11.8097
  207 26.7480 24.0883 12.2016
  208 558.332 -22.0106 65.8397
  209 520.781 40.2947 -65.8044
  210 364.844 88.4075 -240.133
  211 383.684 74.8239 223.373
  212 13.5650 12.6921 -4.07266
  213 13.7886 12.6921 4.18188
  214 556.902 -19.2877 -68.2075
  215 952.522 132.378 -9.72235
  216 462.572 -49.8820 46.5402
  217 465.884 -49.6344 -44.3030
  218 462.282 -33.9119 1.78872
  219 566.672 -10.2959 7.06786
  220 283.488 -19.8320 -30.5299
  221 279.265 -19.7610 31.3429
  222 173.101 3.17591 -50.4319
  223 173.358 3.11520 50.0527
  224 583.809 -60.0361 -13.7822
  225 458.587 -35.9698 -3.80152
  226 564.549 -10.1307 -5.21045
  227 444.586 -13.1357 -1.27996
  228 448.256 -12.3831 2.08462
  229 561.044 -25.4693 36.4628
  230 56.8709 0.279550 -19.7662
  231 57.0938 0.256930 19.7705
  232 -6.57238 -4.23682 -18.5953
  233 -6.60836 -4.28276 18.6089
  234 98.2028 -3.98988 -10.8626
  235 98.3434 -3.99947 10.7915
  236 246.580 -8.01567 7.63875
  237 246.621 -8.13836 -7.68662
  238 278.339 19.8927 -110.452
  239 278.376 16.6966 109.251
  240 568.380 -18.3311 -31.2251
  241 274.231 -16.2322 -47.9445
  242 274.479 -16.7154 47.3522
  243 510.302 8.52622 74.8257
  244 453.405 38.7475 4.55748
  245 490.073 -49.0558 3.76892
  246 2.84943 -10.0527 -15.8038
  247 2.68437 -10.1858 15.9460
  248 33.7413 38.9726 -40.7297
  249 35.7979 37.8525 42.5321
  250 482.128 -48.0250 -6.91017
  251 855.744 169.596 -24.7462
  252 48.9240 32.3268 -19.2553
  253 49.4792 32.3224 19.4443
  254 -16.7580 4.34302 11.8221
  255 -16.6631 4.36567 -11.7556
  256 858.876 160.198 30.0106
  257 311.713 -15.8583 -13.1608
  258 311.493 -15.6288 12.9613
  259 596.273 -39.0106 58.6573
  260 1057.50 172.727 109.558
  261 187.559 -10.0588 -28.2876
  262 187.544 -10.1294 28.2710
  263 614.075 92.3511 -53.1015
  264 1023.07 195.635 -101.614
  265 723.166 76.9632 45.7476
  266 774.644 61.4221 -155.380
  267 489.342 -24.4470 3.65728
  268 560.599 3.85375 -82.7796
  269 526.693 -37.8258 -18.0033
  270 583.953 -11.2432 19.4741
  271 5.31928 5.67264 -8.49513
  272 5.54510 5.65593 8.57465
  273 577.063 -14.4092 -148.579
  274 68.1724 19.6407 -24.4608
  275 68.4845 19.6104 24.5824
  276 564.162 -13.7639 -41.3077
  277 84.3433 93.9926 -113.299
  278 81.9060 -0.420034 -2.56113
  279 81.9967 -0.405627 2.52980
  280 594.498 -35.5844 -61.5372
  281 109.681 49.2777 -62.4785
  282 111.225 49.0376 62.6553
  283 40.5199 -1.04005 13.6855
  284 40.2828 -1.02833 -13.6899
  285 488.551 -23.3472 -3.62136
  286 84.9431 93.0552 116.121
  287 761.481 72.5516 180.336
  288 222.337 -9.22440 -10.6039
  289 222.314 -9.17311 10.4847
  290 394.181 -17.7316 -6.21848
  291 394.000 -19.0446 6.70291
  292 336.394 34.5236 -164.705
  293 536.744 -58.2464 -2.17322
  294 603.483 -4.79164 2.98659
  295 324.309 34.6815 159.671
  296 378.099 -11.8159 -2.20981
  297 377.961 -11.8111 2.51726
  298 527.600 -39.2584 18.3120
  299 600.250 -7.30281 -8.62832
  300 2.86427 2.19540 -11.2042
  301 3.11620 2.17891 11.2443
  302 762.343 150.357 -3.62430
  303 662.806 -27.8215 26.4099
  304 594.153 -4.38942 -0.601910
  305 603.913 -3.85168 0.546893
  306 597.533 -49.6783 58.2887
  307 736.381 82.1406 -41.2899
  308 653.012 121.068 29.3166
  309 298.164 -18.9134 -20.1093
  310 295.598 -19.2402 20.4399
  311 602.570 -4.73293 -1.72466
  312 404.067 -29.7500 -83.9088
  313 398.544 -32.1715 18.1246
  314 379.762 -19.8820 94.8664
  315 595.795 -8.11207 10.4908
  316 147.030 -6.71939 -17.8529
  317 147.141 -6.76677 17.7897
  318 550.990 -14.2022 146.785
  319 357.050 -28.8203 -25.0330
  320 649.312 85.0639 65.6532
  321 212.436 14.7834 -73.3339
  322 204.803 15.4771 72.8049
  323 73.9142 -1.35458 -4.63541
  324 74.0405 -1.34628 4.58572
  325 528.332 -12.3716 3.24875
  326 507.132 -9.12017 -0.0733845
  327 504.419 -9.81229 -0.0858862
  328 560.511 -14.4751 43.8788
  329 60.1479 -1.93175 10.4023
  330 59.9403 -1.91470 -10.4397
  331 174.473 -4.38649 -3.85734
  332 174.506 -4.32398 3.82437
  333 5.98907 -22.0009 -7.42289
  334 5.63243 -22.2078 7.84732
  335 448.096 19.7610 51.1713
  336 668.947 -25.2421 -19.5505
  337 438.385 -24.6391 -2.31464
  338 491.993 -11.7786 -0.818192
  339 526.171 65.1508 -30.7286
  340 110.252 -3.62423 -25.4723
  341 110.403 -3.62800 25.4601
  342 426.782 -23.3359 4.43678
  343 127.665 3.76629 -36.3459
  344 127.912 3.66266 36.2563
  345 26.9408 20.7004 -3.55442
  346 27.2355 20.7019 3.68273
  347 515.186 -53.9399 58.5366
  348 1113.27 73.1446 28.7035
  349 469.841 7.77097 -60.4397
  350 387.408 -34.6079 53.4583
  351 385.451 -33.8723 -54.9298
  352 568.596 -8.53701 81.6071
  353 510.359 -3.24940 59.2461
  354 508.754 -52.1392 -60.2244
  355 310.239 -9.12065 1.37669
  356 310.188 -9.20771 -1.30303
  357 562.817 -36.5666 47.9306
  358 770.765 152.195 0.525138
  359 599.445 -7.61676 -14.3785
  360 166.051 -6.46482 -13.2061
  361 166.135 -6.47161 13.0983
  362 566.493 -51.2662 -71.6805
  363 601.213 43.4758 -80.6906
  364 416.110 22.3817 -32.9763
  365 567.072 -37.3922 -55.4331
  366 -17.9077 0.895055 -14.2888
  367 -17.9262 0.871472 14.3069
  368 476.108 -13.1551 -0.447022
  369 -6.75265 -3.98432 -8.87281
  370 -6.74331 -3.98513 8.85302
  371 364.922 196.995 -290.011
  372 16.7192 15.3729 6.13394
  373 17.0915 15.4871 -5.93353
  374 506.821 -3.42581 -58.7773
  375 283.246 -12.9074 9.97262
  376 283.425 -13.0618 -10.0569
  377 -1.60591 -19.4024 16.3265
  378 -1.57538 -19.3676 -16.3114
  379 298.681 205.931 273.760
  380 233.202 -12.7069 -38.0221
  381 233.401 -12.1973 38.0508
  382 75.8621 57.1861 -58.4790
  383 77.3918 57.0678 58.1818
  384 -25.4096 4.50904 3.82455
  385 -25.2783 4.51706 -3.75176
  386 581.422 39.9933 81.4385
  387 444.867 -46.5828 28.3137
  388 445.356 -41.1106 14.1375
  389 536.011 -60.0512 -13.9984
  390 140.967 16.9822 -49.6328
  391 141.437 16.9604 49.5741
  392 12.9970 -12.0193 4.78102
  393 12.3423 -12.3080 -3.84718
  394 552.827 78.5440 19.9575
  395 544.686 -17.0029 11.0677
  396 319.143 -25.1406 35.6702
  397 201.236 -5.42909 -44.9314
  398 201.332 -5.46715 44.6415
  399 402.622 -13.8521 -3.35795
  400 402.216 -12.3949 3.01784
  401 316.536 -25.7767 -37.5893
  402 249.353 -4.45952 -59.6886
  403 249.336 -4.79388 60.1414
  404 569.450 -51.5150 -30.7232
  405 337.117 -26.5749 23.6419
  406 517.390 -17.3772 5.49000
  407 516.281 -16.0353 -4.26667
  408 437.435 -40.8369 -15.6504
  409 615.044 -3.75772 -3.21815
  410 214.055 89.7863 -168.231
  411 584.967 -9.06687 24.6793
  412 613.921 -4.20597 5.19039
  413 230.456 -12.7149 23.6738
  414 230.528 -12.5500 -23.6578
  415 442.910 -46.0354 -29.0622
  416 67.8833 29.0626 26.4440
  417 67.5306 29.0364 -26.4557
  418 1124.01 73.0881 -58.3688
  419 508.472 -30.1838 -8.78988
  420 617.988 -3.24399 1.84978
  421 202.610 84.2530 160.718
  422 918.034 153.867 32.5935
  423 541.685 -9.96261 -2.48216
  424 411.553 -30.7999 -12.6003
  425 176.112 33.9372 -82.4982
  426 187.367 31.4029 82.0008
  427 502.785 -32.8942 8.66344
  428 537.243 -6.81204 -43.1652
  429 5.33495 -0.570840 10.3433
  430 5.06566 -0.565358 -10.3335
  431 197.835 48.2687 -109.055
  432 198.467 48.4342 108.735
  433 28.2396 10.8422 -12.5288
  434 28.4898 10.8209 12.6279
  435 451.808 -10.7175 0.0840276
  436 451.268 -10.4923 0.0596795
  437 560.412 -25.9942 -38.2071
  438 -0.556479 -0.382366 19.2109
  439 -0.455442 -0.289959 -19.1363
  440 576.490 -55.8267 25.6970
  441 543.820 -16.0409 -9.55974
  442 876.540 167.415 -31.2816
  443 49.2116 -1.67924 5.04253
  444 49.0244 -1.67950 -5.08535
  445 1042.41 303.543 142.577
  446 22.8497 20.6226 -36.8474
  447 73.8961 2.96879 -25.1103
  448 74.1319 2.91790 25.1159
  449 1041.42 311.123 -139.549
  450 24.2079 22.9850 40.0656
  451 -23.3204 3.34899 -0.206227
  452 -23.1492 3.34439 0.276073
  453 63.1060 43.3156 -36.0173
  454 64.1449 43.3518 36.1970
  455 691.114 110.487 -51.6095
  456 553.067 -22.5693 -23.5537
  457 614.962 -3.30175 -1.54461
  458 578.489 -9.23014 -29.2220
  459 -5.32812 5.03340 17.4202
  460 -5.22501 5.09373 -17.3489
  461 558.971 -23.3407 28.0040
  462 369.158 -21.9270 -11.7113
  463 368.082 -22.1285 10.5371
  464 495.175 -54.3636 -14.5544
  465 356.488 -3.79622 -115.163
  466 541.993 -8.16120 43.9982
  467 441.964 -16.0804 2.34913
  468 641.759 -44.6344 -16.5298
  469 345.589 4.46839 123.162
  470 37.8924 -0.609527 9.98053
  471 37.6489 -0.599187 -9.99628
  472 711.636 140.476 -21.4311
  473 561.521 -5.86637 -0.156797
  474 559.688 -6.42923 -0.328646
  475 431.343 -29.9024 7.58051
  476 198.111 -7.01555 -7.58346
  477 198.118 -6.94300 7.50972
  478 119.046 -1.75130 -30.1294
  479 119.194 -1.77413 30.0855
  480 378.636 14.6469 19.8165
  481 102.512 -3.32198 14.8004
  482 102.358 -3.29202 -14.8601
  483 104.072 9.21720 34.0828
  484 103.733 9.35334 -34.0472
  485 550.315 -42.7093 33.0361
  486 313.978 -19.6278 -56.4465
  487 292.330 -10.4874 5.55108
  488 292.420 -10.7084 -5.55542
  489 317.204 -20.2259 56.4521
  490 853.408 206.226 -28.1448
  491 -13.6164 -1.94793 -11.3287
  492 -13.6070 -1.95882 11.3208
  493 226.427 -6.94119 -3.22171
  494 226.441 -6.85160 3.21178
  495 0.462966 -35.3438 -13.0244
  496 0.372875 -35.4612 13.1465
  497 501.066 -9.44951 0.130860
  498 376.693 17.5787 -9.83492
  499 493.745 51.5130 27.8448
  500 311.339 -2.52958 -92.9102
  501 160.179 -8.24272 22.2989
  502 160.141 -8.17495 -22.3263
  503 -32.4819 1.15592 -4.13063
  504 -32.2439 1.14861 4.16399
  505 595.536 -9.45376 -79.7809
  506 62.8284 0.210337 -3.31303
  507 62.9422 0.217739 3.27717
  508 495.746 -39.7939 -5.51031
  509 527.405 -45.2555 -16.6205
  510 112.350 89.0926 -116.735
  511 443.495 15.6673 -177.712
  512 8.65661 14.2188 6.18229
  513 8.87404 14.2515 -6.05975
  514 279.162 -13.6611 -13.7842
  515 279.041 -13.5511 13.5501
  516 752.662 38.6099 -5.54897
  517 547.807 -32.9246 -30.2327
  518 109.632 84.6935 115.203
  519 542.529 -60.2957 22.5320
  520 522.735 -49.7761 11.2300
  521 123.872 -2.99969 -9.77963
  522 123.967 -2.98958 9.69961
  523 442.978 5.22888 46.9085
  524 317.021 -23.9387 -24.6765
  525 574.807 -13.9031 17.0068
  526 -2.24431 -14.0114 -11.0607
  527 -2.24981 -13.9983 11.0429
  528 408.818 -35.6555 63.0395
  529 614.373 -44.9791 -36.7967
  530 792.170 64.9999 -40.6240
  531 436.964 -16.5656 -2.34083
  532 142.308 -2.75736 -2.78668
  533 142.361 -2.71163 2.76466
  534 280.963 2.65393 89.7481
  535 763.855 133.134 28.7486
  536 760.921 172.166 -276.998
  537 695.213 8.48972 32.5832
  538 504.648 -55.7575 11.9624
  539 1157.14 92.2618 78.5773
  540 871.272 217.750 37.9294
  541 134.529 -5.69286 24.2528
  542 134.415 -5.63872 -24.2819
  543 485.750 -40.9206 2.42263
  544 41.0371 17.9538 -12.3224
  545 41.3201 17.9478 12.4381
  546 607.009 -48.7046 36.9920
  547 508.038 28.1836 68.6356
  548 607.734 -4.51662 9.62810
  549 455.467 -28.5511 -1.14201
  550 627.323 13.3400 -187.291
  551 981.456 274.072 189.786
  552 490.562 -11.5509 0.144836
  553 598.700 -6.71008 -16.0509
  554 100.313 41.2199 -47.7728
  555 101.023 40.7339 47.5920
  556 350.468 -15.3605 -7.90360
  557 350.321 -15.0372 8.02158
  558 4.63001 -36.2765 -7.98539
  559 614.248 -19.9208 69.5993
  560 26.6549 23.1796 -1.36854
  561 27.0359 23.2474 1.55137
  562 5.34345 -34.7671 9.30822
  563 561.002 -25.3097 -57.5210
  564 644.440 43.1914 -75.3087
  565 642.584 48.7103 75.4419
  566 33.2638 31.7706 28.3656
  567 31.6913 32.3851 -27.8530
  568 -9.46112 0.519895 7.97233
  569 -9.73438 0.525799 -7.95573
  570 585.775 22.1701 192.647
  571 330.489 -19.2147 14.4486
  572 330.801 -19.1496 -14.6425
  573 703.813 -5.06926 -103.714
  574 106.137 -1.48723 5.65621
  575 106.049 -1.50761 -5.71011
  576 58.5419 -1.13230 -1.29946
  577 58.6314 -1.12488 1.28686
  578 778.504 146.980 -20.5874
  579 77.0832 128.890 -127.511
  580 425.579 8.98894 -39.8420
  581 588.016 93.4914 -33.6262
  582 9.87945 2.49627 9.92465
  583 10.2346 2.63036 -9.68718
  584 570.861 289.503 322.691
  585 498.189 -15.5884 -1.95885
  586 24.1718 5.03623 -14.0859
  587 24.4197 5.00021 14.1494
  588 575.986 -45.5472 46.9497
  589 90.8146 125.271 129.827
  590 418.316 -10.6290 1.03043
  591 418.435 -10.5557 -1.03193
  592 -0.223800 -28.5113 13.9231
  593 -0.178984 -28.4663 -13.8772
  594 711.881 137.362 -1.14034
  595 451.702 -35.0395 87.3553
  596 432.132 -20.0155 -3.62052
  597 432.534 23.6674 187.251
  598 -34.7100 1.96840 8.12233
  599 -34.6766 1.97908 -8.08635
  600 703.396 13.9550 -35.4393
  601 920.995 173.276 -139.142
  602 274.293 29.0637 -127.251
  603 154.710 -6.65381 -29.3648
  604 154.865 -6.65751 29.3764
  605 631.378 -2.64039 2.37175
  606 428.103 -20.4041 3.13593
  607 565.026 -9.19577 4.94247
  608 560.973 -25.3919 56.0898
  609 37.1267 -0.961724 5.08491
  610 36.9047 -0.957796 -5.11628
  611 337.637 -13.0238 -4.70217
  612 337.599 -12.7135 4.60033
  613 213.524 4.41335 -61.4704
  614 212.212 4.47775 61.2385
  615 796.070 57.3679 59.2835
  616 1275.90 96.2274 -138.632
  617 -0.0966326 -0.848693 6.87844
  618 -0.383808 -0.846081 -6.87445
  619 205.304 -8.90377 13.8273
  620 205.272 -8.89151 -13.9772
  621 746.150 47.1778 15.7411
  622 623.112 -3.11308 -0.750154
  623 621.830 -4.05832 0.204777
  624 469.730 0.223374 46.3534
  625 656.289 -34.1523 -66.3241
  626 364.606 -30.3893 29.3113
  627 -5.42277 8.54905 -6.08088
  628 -5.58550 8.53398 6.17666
  629 580.062 13.2453 84.8986
  630 236.334 -13.9041 -30.9451
  631 236.137 -14.1250 31.0010
  632 471.001 -28.4541 -0.592817
  633 577.088 -13.6115 -15.3166
  634 336.774 -27.0788 -42.0708
  635 551.658 66.6948 -51.6618
  636 370.602 -25.2439 -71.9945
  637 146.684 -3.93870 -5.22165
  638 146.737 -3.89685 5.16615
  639 340.120 -27.5246 42.3007
  640 718.531 118.809 44.5678
  641 573.854 -27.0366 70.7658
  642 469.715 -22.3964 1.04192
  643 341.109 -10.4345 2.62771
  644 341.025 -10.4518 -2.56555
  645 261.136 -10.4580 -10.0448
  646 261.057 -10.3578 9.96062
  647 550.854 -50.2665 -24.5969
  648 286.372 -16.8626 17.4553
  649 286.656 -16.7949 -17.7357
  650 561.792 86.0185 -6.84940
  651 509.251 -27.9048 9.11621
  652 628.726 -3.47506 -3.89436
  653 545.954 -9.25058 -75.3976
  654 88.0471 -3.72938 19.5251
  655 87.8687 -3.70393 -19.5341
  656 615.472 -3.98032 -8.76205
  657 115.524 60.2512 -83.3515
  658 117.456 60.1298 83.7488
  659 629.044 -33.8842 88.1842
  660 223.046 56.8082 134.043
  661 62.8395 -0.536042 19.5084
  662 62.6312 -0.523192 -19.5103
  663 538.270 -32.0662 111.283
  664 526.952 84.2586 -252.527
  665 526.035 17.4722 -75.7391
  666 685.303 124.817 39.6705
  667 462.005 -21.9841 0.996646
  668 825.812 146.858 -3.57555
  669 -35.4106 1.91483 -3.05808
  670 -35.2109 1.91032 3.10400
  671 370.501 3.15739 -133.982
  672 40.1416 -0.574023 3.82990
  673 39.9693 -0.575411 -3.86295
  674 462.320 -37.7177 -86.4706
  675 158.934 21.3410 -59.5770
  676 157.729 21.4328 59.5563
  677 7.66129 7.88991 -5.81997
  678 7.87993 7.88141 5.91645
  679 395.776 -34.6843 -23.2428
  680 557.174 -5.51994 -28.7537
  681 272.694 -9.23331 -3.52184
  682 272.717 -9.14482 3.54480
  683 200.546 -10.4612 -20.2366
  684 200.714 -10.5999 20.1779
  685 39.2442 32.2018 -14.6319
  686 39.8577 32.2803 14.8451
  687 563.629 -8.19548 1.96583
  688 260.325 -16.9426 26.1797
  689 261.896 -16.6652 -26.1663
  690 626.200 -47.7447 0.725030
  691 519.250 -52.2193 -5.57856
  692 410.942 -13.2172 -1.88275
  693 409.558 -12.4534 2.05762
  694 569.741 -58.4716 37.9290
  695 918.520 186.561 54.6070
  696 501.368 -19.5156 -136.463
  697 573.582 -16.5838 28.7139
  698 573.183 -20.3666 -76.4341
  699 188.399 -6.12312 -9.76725
  700 188.420 -6.08338 9.66844
  701 447.144 -5.00658 152.346
  702 1212.47 157.206 143.606
  703 91.3292 25.7127 -35.9003
  704 91.4694 25.8888 36.0130
  705 561.394 -6.96867 -0.915775
  706 565.653 -6.35190 0.953008
  707 243.443 130.028 -214.086
  708 599.049 -3.74660 16.2098
  709 518.500 -10.5773 0.951607
  710 690.328 135.796 -14.1673
  711 76.2488 12.6290 -26.5049
  712 76.5694 12.5524 26.5997
  713 635.300 -2.14806 0.242607
  714 522.685 -21.4780 -9.45729
  715 650.704 -7.29094 59.0066
  716 274.044 -19.4513 -39.8257
  717 274.723 -18.6508 39.5008
  718 71.8759 -2.25694 14.7636
  719 71.6778 -2.23008 -14.7939
  720 585.610 -5.26910 -2.13597
  721 505.798 108.861 267.110
  722 5.03481 5.68180 14.9883
  723 5.22701 5.80152 -14.8565
  724 588.297 -7.48498 -6.53222
  725 572.625 -11.7429 9.46030
  726 467.702 0.781861 -49.7156
  727 4.74152 -48.9262 -5.10910
  728 4.45623 -49.4433 5.63174
  729 214.715 58.6816 -134.131
  730 461.789 -45.5472 -63.9361
  731 242.166 128.726 215.919
  732 628.102 -2.26879 1.27475
  733 620.993 93.4181 53.1992
  734 462.663 41.7510 -19.4501
  735 804.327 161.979 6.48321
  736 622.564 -3.23592 5.42753
  737 -31.0619 0.899928 5.72681
  738 -31.3268 0.904794 -5.70464
  739 665.128 -34.2144 25.9882
  740 436.064 -14.1933 -2.38694
  741 165.044 -0.125191 -43.2093
  742 165.271 -0.282559 42.9993
  743 571.446 -8.04513 -3.23290
  744 1002.90 141.683 -53.6662
  745 80.4192 -2.18875 -9.57262
  746 80.5910 -2.20096 9.51772
  747 632.529 -2.33909 -2.36487
  748 138.874 -6.10779 -13.2912
  749 138.980 -6.12907 13.2091
  750 627.139 -23.0399 -61.6942
  751 580.397 -6.33697 22.8290
  752 527.276 -2.70966 74.9307
  753 632.518 -2.42102 0.276707
  754 594.456 -5.69158 4.83143
  755 396.839 -22.4913 -7.72921
  756 492.007 -14.5731 1.01574
  757 560.178 -34.4999 -46.6982
  758 545.831 -34.8034 28.8659
  759 642.617 79.2461 -66.6564
  760 538.053 -30.9963 20.5337
  761 569.857 -33.2743 60.6755
  762 335.808 -23.4460 18.7714
  763 13.0157 0.863569 2.22341
  764 12.3790 0.815764 -1.61875
  765 497.104 -9.27827 -0.346810
  766 496.084 -9.22753 0.167972
  767 590.122 -3.91677 -0.153366
  768 592.047 -3.81281 0.284236
  769 569.416 -16.3519 35.8173
  770 524.963 -46.4494 82.2906
  771 434.713 -35.9801 11.3086
  772 387.846 -24.2012 10.6450
  773 1021.74 130.476 61.3410
  774 573.603 -15.3852 -22.1111
  775 339.961 62.4678 -200.220
  776 534.419 -27.3913 -17.4922
  777 29.0496 0.307130 -14.4806
  778 29.2968 0.287701 14.5036
  779 489.771 43.0300 -43.5456
  780 1177.77 35.7137 -15.1151
  781 604.471 17.1345 -82.2507
  782 25.4166 29.5166 -52.7010
  783 626.565 111.849 13.4637
  784 484.688 -31.8592 3.11457
  785 547.539 -13.0770 73.0300
  786 459.552 -47.4838 64.2757
  787 721.750 3.79430 125.427
  788 27.3530 35.0699 55.9851
  789 335.353 -1.32583 105.647
  790 463.170 -13.6400 0.723010
  791 515.195 -44.5101 -83.2295
  792 322.385 -25.5260 -30.4271
  793 255.444 12.4647 -93.1462
  794 598.398 -7.91442 80.5350
  795 387.383 -27.2648 15.7410
  796 86.2834 -2.25382 8.33987
  797 86.1464 -2.25603 -8.40363
  798 558.837 -3.19749 25.4195
  799 512.288 3.22556 -73.1502
  800 -42.5611 2.06957 4.75609
  801 -42.4965 2.07385 -4.71607
  802 377.224 -13.2418 -3.17287
  803 376.191 -12.6154 3.04602
  804 281.128 32.4287 128.954
  805 254.747 -15.3266 20.1119
  806 255.065 -14.9752 -20.2852
  807 631.848 -1.84983 -1.13588
  808 230.694 18.4532 90.9769
  809 19.5020 -0.215734 5.31811
  810 19.2364 -0.211150 -5.33582
  811 552.428 -16.8721 56.1003
  812 580.750 -6.23838 1.57257
  813 -31.0467 0.486372 8.37350
  814 -31.0558 0.496924 -8.35645
  815 365.759 -22.5259 80.2563
  816 73.5849 64.0940 -71.7557
  817 74.4462 61.4094 70.7614
  818 360.821 15.7107 8.22413
  819 4.77260 -0.449858 -6.06700
  820 5.06391 -0.453507 6.06406
  821 418.819 -39.3489 -60.3724
  822 566.479 -58.5498 -11.7320
  823 -2.87722 -2.72563 -3.65582
  824 -2.86828 -2.71878 3.64181
  825 45.4599 0.904323 -1.32080
  826 45.5645 0.909486 1.30178
  827 505.492 -45.3623 6.81136
  828 427.920 -43.5941 43.7649
  829 470.812 -9.78062 0.0367699
  830 426.964 -35.1500 -12.8243
  831 166.982 -3.07840 -1.13957
  832 167.023 -3.01847 1.12593
  833 -47.5047 1.03543 2.43174
  834 -47.3969 1.03424 -2.39194
  835 528.373 -8.57239 -1.14496
  836 481.250 19.4958 -62.5534
  837 534.796 -12.2045 -4.57914
  838 323.082 -25.1429 29.1412
  839 536.449 -9.09849 -59.8871
  840 568.770 -17.7297 -36.9808
  841 530.376 -7.61355 0.989657
  842 392.592 -13.8961 108.204
  843 419.472 -41.2302 -26.8103
  844 256.789 -1.94919 -72.3603
  845 258.159 -0.168335 72.7348
  846 359.903 -27.6641 -20.3350
  847 593.881 65.3729 70.4904
  848 557.281 -56.3463 -48.8204
  849 211.426 -7.08343 -5.06178
  850 211.428 -6.99139 5.02183
  851 429.241 -11.5111 1.36219
  852 429.267 -11.5908 -1.27440
  853 515.121 -3.68601 -39.3574
  854 181.518 -7.83313 -16.3873
  855 181.630 -7.88956 16.2748
  856 2.25033 -50.9765 -9.52327
  857 2.13901 -51.1998 9.74027
  858 100.255 -1.44517 -0.0968463
  859 100.180 -1.47078 0.0804755
  860 524.875 -9.94552 -1.56619
  861 404.236 -38.5869 39.8478
  862 619.098 -51.0103 11.6501
  863 381.706 7.96880 31.4762
  864 536.799 -14.1729 5.36343
  865 587.857 -51.5606 -34.3817
  866 92.1589 5.23317 -29.6297
  867 92.4264 5.14412 29.6260
  868 468.502 -10.3547 -0.0154123
  869 381.577 -14.6894 -5.34807
  870 380.321 -14.5798 5.68925
  871 589.390 91.5500 37.9320
  872 209.344 -2.39783 -51.5870
  873 209.180 -2.63320 51.3972
  874 407.992 -37.3412 22.1290
  875 42.9126 26.7199 -12.8612
  876 43.3086 26.6758 12.9797
  877 346.747 -24.5203 66.2163
  878 413.484 -27.4052 -8.47722
  879 517.833 -3.82464 39.7620
  880 504.183 -56.1872 25.2802
  881 576.833 -43.1613 -51.1934
  882 403.245 -38.8982 -40.3220
  883 338.124 -23.3628 -18.0877
  884 1063.53 86.8470 -16.6867
  885 527.596 -55.5960 2.00277
  886 17.8814 18.5411 3.32532
  887 18.1627 18.5808 -3.17554
  888 460.576 -46.3746 14.7643
  889 503.314 -55.8167 -39.5553
  890 19.7320 15.7813 -2.39967
  891 19.9811 15.7894 2.51595
  892 197.159 -7.30355 39.7230
  893 197.248 -7.50501 -39.9231
  894 236.598 -12.2210 43.4561
  895 236.492 -12.4928 -43.7101
  896 727.252 145.655 15.9503
  897 -0.986285 -22.4553 -10.6380
  898 -0.993792 -22.4245 10.6286
  899 173.317 14.1953 -56.7534
  900 172.518 13.9166 56.2610
  901 1215.76 39.3688 -60.7652
  902 38.7008 -0.176107 2.21165
  903 38.5581 -0.180103 -2.23768
  904 2.45958 -55.5215 1.40942
  905 2.83107 -54.4981 -0.544540
  906 -24.0244 -0.225336 8.78477
  907 -24.0548 -0.217679 -8.78284
  908 138.821 40.4917 -66.4970
  909 140.940 39.1444 65.6345
  910 -9.68430 0.985369 -18.0669
  911 -9.73626 0.941523 18.0991
  912 45.4184 3.30950 -19.7457
  913 45.6706 3.26555 19.7785
  914 153.150 -2.10305 36.7700
  915 153.027 -2.09502 -36.9240
  916 127.257 -4.49938 -29.7924
  917 127.398 -4.49322 29.7593
  918 619.170 -2.67774 -8.79208
  919 307.520 68.6471 186.866
  920 423.526 -42.0084 25.4645
  921 305.150 -22.3411 23.8891
  922 581.498 60.7433 -69.9879
  923 1195.94 25.4158 24.4414
  924 679.815 34.3603 -62.3025
  925 123.566 -4.68938 18.8144
  926 123.430 -4.63862 -18.8711
  927 29.2299 -0.747833 -13.8464
  928 29.4762 -0.754194 13.8510
  929 0.197369 -9.50485 -19.3895
  930 0.107363 -9.59499 19.4560
  931 315.272 -14.7689 11.2585
  932 315.420 -15.0298 -11.2994
  933 43.0946 10.1468 -18.1620
  934 43.3616 10.1033 18.2497
  935 196.141 -8.99015 -33.9979
  936 196.286 -8.99386 33.9858
  937 420.378 -1.30851 -36.9432
  938 202.816 -11.2068 -24.0855
  939 202.706 -11.0989 24.1599
  940 472.124 -14.8174 0.872616
  941 571.735 -32.0444 -65.5509
  942 257.675 -11.0028 11.6630
  943 257.776 -11.0928 -11.7891
  944 -10.5058 -1.07763 -6.34993
  945 -10.4757 -1.08019 6.33543
  946 578.155 -41.4472 -100.768
  947 556.528 -32.8656 40.1153
  948 489.286 -35.0187 -5.02796
  949 486.749 17.3038 65.8300
  950 224.769 -12.9022 -27.0135
  951 224.795 -12.6746 27.0893
  952 539.123 21.5799 78.8685
  953 507.370 44.5430 52.0150
  954 998.433 119.176 21.4373
  955 518.375 -19.9086 6.27852
  956 281.373 -9.19291 -5.29004
  957 281.351 -9.03674 5.32640
  958 467.069 -38.9107 3.31297
  959 648.919 118.732 -30.8934
  960 563.764 -7.46981 -2.05927
  961 378.007 -10.6849 1.77298
  962 377.873 -10.6137 -1.66993
  963 50.6191 43.6313 -33.5497
  964 51.8401 43.5832 33.7749
  965 89.7414 254.443 -207.063
  966 537.628 -12.2911 59.4887
  967 660.977 -9.22981 -51.2680
  968 -7.75455 6.57945 1.57397
  969 -7.57528 6.57981 -1.48258
  970 1303.35 317.966 -250.674
  971 567.145 -60.5678 -0.623370
  972 603.066 -53.5004 -31.6807
  973 559.329 -47.6387 34.9845
  974 695.888 136.014 11.7118
  975 52.7412 60.3109 -67.2233
  976 128.483 222.257 205.112
  977 -2.77927 -7.00526 19.6863
  978 -2.72363 -6.93913 -19.6536
  979 541.927 -15.1787 7.02111
  980 868.741 152.550 -21.0661
  981 54.2104 59.1226 69.6348
  982 -2.35885 -8.21379 -7.06147
  983 -2.35896 -8.18997 7.04212
  984 467.539 -12.5162 -1.06818
  985 353.793 -28.4736 -31.8536
  986 563.852 -44.2182 -42.7865
  987 165.530 44.6677 -86.4816
  988 168.130 45.3865 86.6980
  989 550.684 -13.5323 -52.6739
  990 549.918 -18.5100 14.7998
  991 -13.5017 4.20768 15.5326
  992 -13.4279 4.24723 -15.4788
  993 337.930 -22.1854 -62.5299
  994 558.929 36.7126 -78.6062
  995 413.907 -16.8926 3.76720
  996 302.804 -9.58840 1.12892
  997 302.743 -9.64122 -1.09574
  998 -6.02295 -6.86308 -14.4757
  999 -6.03108 -6.87785 14.4618
  1000 557.394 -20.8034 -18.8232
  1001 529.151 -7.50847 0.224639
  1002 528.670 -7.51745 -0.0202466
  1003 734.192 123.079 -39.7726
  1004 139.313 11.5175 -45.4057
  1005 139.660 11.2888 45.3250
  1006 93.1918 -1.09367 -24.9074
  1007 93.3700 -1.11142 24.8893
  1008 608.799 34.2596 83.2100
  1009 569.840 -11.8813 -9.93668
  1010 107.294 16.1957 -37.6305
  1011 107.711 16.0794 37.7644
  1012 591.011 -4.33009 -1.29344
  1013 557.943 -24.7316 -29.8431
  1014 544.920 -60.3127 -29.8565
  1015 22.8238 20.8646 3.38166
  1016 22.2378 20.7663 -3.11407
  1017 -24.5692 4.54772 8.66929
  1018 -24.4733 4.56101 -8.60347
  1019 349.690 12.7752 -13.7409
  1020 933.052 236.718 -73.2722
  1021 434.112 -32.4840 -6.97037
  1022 291.014 -12.7455 -64.1604
  1023 686.079 -23.6558 -3.05946
  1024 292.142 -12.7128 65.0136
  1025 496.738 -56.9222 45.1299
  1026 562.736 -23.3807 -46.7727
  1027 203.160 -5.14240 -1.61568
  1028 203.190 -5.06561 1.60744
  1029 388.206 -30.9635 -18.4938
  1030 242.048 -9.28554 -50.7270
  1031 241.984 -9.35525 50.5076
  1032 82.0405 54.1252 -55.4595
  1033 83.2967 54.0022 55.6253
  1034 173.171 -5.63754 -5.67554
  1035 173.203 -5.57553 5.61740
  1036 499.495 -17.2854 2.33720
  1037 423.466 3.92528 -153.970
  1038 517.250 -18.1381 -6.37811
  1039 469.974 -51.7392 -29.2094
  1040 314.566 -14.1309 7.97240
  1041 314.803 -14.2261 -7.98900
  1042 598.942 -4.73387 1.63857
  1043 539.792 -14.1945 -6.54819
  1044 366.744 9.08783 26.0025
  1045 581.139 -5.85210 -21.2743
  1046 229.601 69.0358 151.389
  1047 596.275 -5.78629 -17.2353
  1048 162.164 26.9776 -66.0834
  1049 157.538 27.2631 63.5741
  1050 708.606 -7.27453 0.851948
  1051 69.0404 35.1897 -30.5080
  1052 69.6508 34.9494 30.5131
  1053 12.2433 2.46626 3.49059
  1054 12.7997 2.57554 -3.12487
  1055 105.085 -2.68679 6.70016
  1056 104.979 -2.70229 -6.76730
  1057 260.208 69.7807 -166.865
  1058 1341.14 363.042 269.877
  1059 555.798 -20.7772 19.2944
  1060 501.152 -55.8163 -23.2821
  1061 352.563 -29.0441 -49.3554
  1062 -5.27000 8.33735 12.6936
  1063 -5.13422 8.38274 -12.6017
  1064 396.351 -21.5214 6.51720
  1065 435.127 -17.5658 2.66521
  1066 -0.147400 -31.7300 10.1701
  1067 -0.136720 -31.7665 -10.1689
  1068 69.1243 42.3973 -35.7447
  1069 69.9121 42.3326 35.9439
  1070 391.298 -19.9183 -6.27583
  1071 35.2315 14.4832 12.6236
  1072 34.9686 14.4994 -12.5140
  1073 592.191 -22.1621 76.1592
  1074 430.984 -44.4101 -43.5458
  1075 354.609 -29.5052 49.3586
  1076 566.516 -10.2273 -81.3527
  1077 589.066 -7.51961 7.18528
  1078 220.736 34.3329 103.119
  1079 222.303 32.8393 -101.456
  1080 351.574 -16.5789 -87.1918
  1081 491.718 -19.0095 -2.13049
  1082 403.535 -25.2207 10.4204
  1083 470.181 -44.2963 -6.82593
  1084 634.276 -2.68578 -4.24850
  1085 352.301 -17.2147 9.26012
  1086 352.151 -18.1257 -9.43919
  1087 13.6068 15.4545 8.93671
  1088 13.8959 15.5637 -8.76924
  1089 572.295 22.3391 -84.3555
  1090 134.412 6.27391 -40.3414
  1091 134.770 6.13217 40.2529
  1092 103.293 1.56257 -29.4336
  1093 103.517 1.50902 29.3964
  1094 641.800 -19.9998 125.464
  1095 561.852 -26.0133 45.8663
  1096 280.956 -13.0742 -55.0010
  1097 642.699 -2.89156 -2.51260
  1098 732.751 139.906 -29.5050
  1099 587.477 -6.71422 -4.18980
  1100 555.731 -59.2168 11.6011
  1101 414.703 -30.7620 77.2592
  1102 645.589 -1.24407 0.264775
  1103 366.093 11.2927 -22.0163
  1104 473.378 -50.6087 -16.6084
  1105 281.426 -13.6509 54.4744
  1106 477.628 -43.9202 4.11774
  1107 589.827 -9.25032 14.6130
  1108 439.906 27.8481 34.0162
  1109 301.694 -22.4104 -44.6020
  1110 879.673 138.616 -65.8686
  1111 672.144 33.5368 66.1670
  1112 514.626 64.1008 8.24169
  1113 640.665 -0.335046 2.06085
  1114 263.669 -16.7899 -34.7972
  1115 179.026 114.703 -168.451
  1116 317.298 9.53903 -121.854
  1117 364.034 -28.5661 23.5325
  1118 309.328 -23.3954 42.1413
  1119 263.094 -16.0064 35.1081
  1120 545.604 5.76291 82.6280
  1121 411.181 -15.7835 -3.26224
  1122 633.279 -5.07739 5.97013
  1123 -4.20097 0.385737 19.3995
  1124 -4.12402 0.453351 -19.3492
  1125 429.661 -13.8573 2.06378
  1126 0.968476 6.01425 16.7782
  1127 1.10871 6.10388 -16.6799
  1128 249.108 -8.46027 6.21186
  1129 249.113 -8.57696 -6.21762
  1130 601.348 -3.46669 14.2965
  1131 486.410 -30.7866 -3.69972
  1132 456.557 -25.6230 1.52575
  1133 509.058 -36.3500 11.6673
  1134 159.755 81.4143 -127.180
  1135 498.344 -20.2713 3.62916
  1136 82.5766 1.12878 -24.3273
  1137 82.7897 1.09155 24.3192
  1138 108.253 70.9813 -91.3141
  1139 789.538 110.591 12.4365
  1140 67.5246 -2.82288 14.3500
  1141 67.3187 -2.80088 -14.3650
  1142 110.179 70.0201 88.4180
  1143 458.664 -39.0212 -5.15040
  1144 240.032 -11.6676 14.1276
  1145 240.053 -11.7136 -14.3143
  1146 922.068 196.804 -58.2157
  1147 503.829 -50.5070 -2.66936
  1148 176.551 107.799 168.185
  1149 16.0805 3.37407 -17.5864
  1150 17.2438 3.57839 18.9370
  1151 539.455 67.6015 41.2404
  1152 44.0194 22.3891 -13.2067
  1153 44.3514 22.4004 13.3065
  1154 507.010 -44.4929 -7.59454
  1155 -0.213901 -48.5941 -9.36553
  1156 -0.236679 -48.5940 9.40821
  1157 541.062 -45.7457 -23.0625
  1158 3.55045 0.612721 4.72765
  1159 3.25473 0.616915 -4.73555
  1160 88.0517 31.9303 -38.1129
  1161 88.5193 32.0727 37.8148
  1162 -18.7751 0.0407242 -5.79310
  1163 -18.4766 0.0388214 5.80023
  1164 536.801 -7.50507 -0.0733807
  1165 -50.7604 1.59527 0.150357
  1166 -50.6102 1.59474 -0.113292
  1167 292.424 -23.2693 -33.8536
  1168 8.04119 -61.3675 -10.0142
  1169 154.747 -4.51531 10.5649
  1170 154.675 -4.52836 -10.6598
  1171 460.005 -10.5600 1.00397
  1172 460.856 -10.3373 -0.917149
  1173 8.63834 -58.0371 11.7035
  1174 543.992 -29.1247 -24.0407
  1175 616.750 -3.26369 10.2468
  1176 553.268 -35.6961 -36.5501
  1177 492.205 4.06395 65.3230
  1178 3.06529 -17.3061 13.1736
  1179 3.30448 -17.1550 -12.9268
  1180 359.217 -26.8426 19.3648
  1181 -23.2415 2.42745 12.5018
  1182 -23.1982 2.44736 -12.4623
  1183 910.637 143.580 10.6438
  1184 1042.47 348.665 -244.321
  1185 565.231 -54.3158 29.1411
  1186 243.225 -7.68987 -1.07052
  1187 243.252 -7.60896 1.07154
  1188 1130.89 109.959 -102.316
  1189 93.9243 -2.37294 14.8717
  1190 93.7528 -2.33908 -14.9158
  1191 533.621 -1.72680 -25.5934
  1192 344.961 -28.1930 38.1018
  1193 559.014 -54.2234 -19.4123
  1194 541.551 -39.6613 -27.2291
  1195 335.362 -11.3173 91.1970
  1196 128.659 23.2864 -50.9226
  1197 128.607 23.0831 50.6657
  1198 166.613 62.4156 -108.735
  1199 166.870 57.8692 108.755
  1200 51.8588 13.6867 -19.3463
  1201 52.1458 13.6492 19.4513
  1202 670.906 117.165 -44.8068
  1203 37.3842 34.7207 -18.7857
  1204 38.2021 34.7859 19.0353
  1205 483.225 -37.7911 2.04016
  1206 883.174 143.799 72.8699
  1207 126.584 -5.11391 -10.4222
  1208 126.690 -5.11294 10.3388
  1209 565.558 433.051 -351.526
  1210 463.800 27.8658 -52.3223
  1211 429.571 32.6077 21.4796
  1212 62.5322 24.9768 -22.7973
  1213 62.8174 24.9824 22.9100
  1214 26.0450 -0.143018 3.43788
  1215 25.8325 -0.142830 -3.46302
  1216 533.930 -43.1482 21.4324
  1217 524.073 -22.2268 10.6577
  1218 360.230 110.074 -257.143
  1219 824.122 180.946 -16.2057
  1220 359.883 -10.1884 -99.9302
  1221 462.215 -15.8557 -1.58196
  1222 39.6519 -2.22285 -0.734559
  1223 39.7356 -2.22088 0.730572
  1224 -6.11709 3.65229 -8.73168
  1225 -5.88347 3.63803 8.78993
  1226 314.177 4.09629 -104.869
  1227 566.532 -13.6218 13.2164
  1228 373.581 8.69280 141.186
  1229 502.121 -26.0329 -6.84770
  1230 262.606 97.6513 -204.469
  1231 405.512 -18.4942 -107.513
  1232 481.172 -51.3497 13.9514
  1233 584.771 -9.88937 22.9212
  1234 513.282 -12.4240 -1.86434
  1235 291.274 -21.9000 34.0229
  1236 642.933 -33.5844 -38.3623
  1237 616.074 55.1241 78.5776
  1238 272.805 1.41696 -83.8903
  1239 601.948 -4.89677 1.36729
  1240 502.583 62.0658 -11.7986
  1241 222.756 -8.20995 -10.3241
  1242 222.733 -8.13421 10.2306
  1243 920.638 225.205 66.5873
  1244 1237.07 32.8490 56.8680
  1245 1.22780 -59.0652 -9.23792
  1246 1.19054 -59.1234 9.31117
  1247 142.718 77.5758 119.520
  1248 336.526 -11.0979 -2.78279
  1249 336.598 -11.0415 2.90190
  1250 454.832 -45.9981 -17.2989
  1251 547.200 45.6719 71.3553
  1252 561.459 -12.4151 -7.90587
  1253 644.371 -2.17379 -0.688537
  1254 1113.16 250.376 -159.957
  1255 187.468 -7.24509 10.9489
  1256 187.432 -7.25795 -11.0641
  1257 541.640 -50.2106 21.6070
  1258 935.635 241.892 -84.8906
  1259 524.593 -24.0884 -12.2091
  1260 388.102 -27.8478 -14.6279
  1261 472.955 -51.1519 28.6290
  1262 462.378 -24.4239 -0.445630
  1263 18.5354 12.2689 -26.0744
  1264 627.954 -36.1312 47.6490
  1265 510.827 -34.2820 -11.4759
  1266 20.3237 13.1515 28.3881
  1267 524.004 -39.3814 -101.629
  1268 494.045 35.9448 -210.605
  1269 807.892 110.642 -4.18048
  1270 646.615 -0.969402 -0.159348
  1271 645.586 -1.55720 0.525741
  1272 519.223 -31.2479 13.0940
  1273 205.967 24.5394 -82.9105
  1274 590.479 -51.3103 37.7960
  1275 991.949 229.409 110.463
  1276 252.671 90.6449 199.495
  1277 8.15605 3.00440 12.9872
  1278 8.42056 3.13891 -12.8053
  1279 617.249 -46.7801 -58.4310
  1280 258.320 -14.5937 -16.7975
  1281 258.292 -14.6330 16.5489
  1282 579.082 -37.3721 62.1730
  1283 29.6960 0.0408967 15.4553
  1284 29.4519 0.0521879 -15.4449
  1285 -2.90568 -11.7281 16.5414
  1286 -2.88448 -11.7030 -16.5464
  1287 114.245 -3.86071 -13.5521
  1288 114.381 -3.88254 13.4813
  1289 310.227 -20.8929 -50.2428
  1290 313.507 -11.4094 3.82931
  1291 313.490 -11.6250 -3.71641
  1292 644.976 -0.945913 0.352483
  1293 581.816 -9.48079 -25.9322
  1294 55.2032 1.94543 -19.7579
  1295 55.4391 1.91263 19.7721
  1296 311.451 -22.0656 49.9143
  1297 650.329 -1.01245 0.349027
  1298 616.684 -1.54148 -0.717736
  1299 616.614 -1.91768 0.571594
  1300 821.539 178.681 -2.56756
  1301 603.079 -5.21022 -3.34797
  1302 538.338 -7.18156 -0.112544
  1303 595.961 -9.92143 -12.9083
  1304 642.411 -2.53452 1.59061
  1305 680.599 73.0389 65.5245
  1306 786.185 166.522 9.44758
  1307 627.971 -2.89649 -6.66000
  1308 -5.36614 -1.31015 4.78175
  1309 -5.38812 -1.30934 -4.79698
  1310 357.955 -23.4799 13.9850
  1311 357.894 -22.5022 -13.6522
  1312 686.701 80.7307 -61.7289
  1313 148.443 51.5651 -90.7378
  1314 149.391 50.2081 89.8317
  1315 474.330 0.189136 -32.6959
  1316 476.993 -9.47760 -1.03742
  1317 476.414 -9.41702 0.936450
  1318 -11.0552 -1.58032 16.7633
  1319 -11.0354 -1.54864 -16.7585
  1320 535.112 -1.41596 25.5362
  1321 804.219 159.735 -7.22668
  1322 69.7699 -2.24830 -8.52632
  1323 69.9396 -2.25342 8.47046
  1324 593.660 -55.6368 17.2730
  1325 2.92018 10.8555 12.5921
  1326 3.09645 10.9201 -12.4775
  1327 122.737 -2.77312 -2.99558
  1328 122.804 -2.73503 2.95790
  1329 474.413 -0.495826 33.2088
  1330 34.0767 0.940532 -1.35294
  1331 34.1992 0.944151 1.33382
  1332 599.902 -7.91316 7.94908
  1333 840.701 151.695 10.3754
</Section>

newXOutput 78

<Section columns = "stress_xx | stress_yy | stress_xy">
  1 667.654 -2.11865 1.22194
  2 668.609 -2.59194 -1.58528
  3 28.7086 0.604476 -1.67318
  4 -0.532895 -0.778548 -0.545593
  5 1193.80 512.551 400.486
  6 1212.16 583.801 -404.112
  7 -0.527388 -0.773683 0.538482
  8 28.6231 0.601028 1.66940
  9 671.951 -1.52490 -1.10409
  10 667.453 -2.58424 -1.64709
  11 668.225 -2.07811 1.28366
  12 665.517 -1.32493 0.380739
  13 664.665 -2.43837 -0.673646
  14 664.354 -2.37662 2.23822
  15 656.021 -1.80266 1.97585
  16 659.179 -4.85917 3.31995
  17 640.648 -4.12249 7.47267
  18 629.299 -2.03039 9.03904
  19 613.324 -2.34929 9.84666
  20 585.007 -2.09558 14.0536
  21 553.735 -1.70288 16.4768
  22 514.215 2.16890 22.8539
  23 459.601 3.39040 20.8155
  24 437.397 0.0570062 29.9570
  25 368.477 5.21365 21.3946
  26 326.090 6.72089 16.8605
  27 315.039 3.62540 12.4693
  28 303.194 9.89662 0.962834
  29 309.716 10.5427 -16.7084
  30 322.623 3.18323 -20.9368
  31 374.688 1.63021 -27.8258
  32 426.710 -2.45114 -28.6395
  33 461.542 2.82182 -20.7612
  34 514.770 2.45332 -22.8405
  35 552.403 -2.00089 -17.6846
  36 588.045 -2.27519 -13.2252
  37 611.122 -1.78294 -10.0141
  38 627.497 -2.17646 -8.22354
  39 645.237 -2.43638 -4.66785
  40 651.674 -2.63740 -4.39646
  41 658.063 -2.47009 -3.92795
  42 664.454 -2.77212 -0.534963
  43 666.733 -3.44372 -1.51042
  44 662.602 -0.196817 0.152270
  45 667.436 -1.94398 -1.48190
  46 669.775 -3.66487 1.79583
  47 672.699 -2.16969 -0.0531465
  48 640.929 -0.278350 -1.00854
  49 605.143 -3.64460 -1.85756
  50 564.306 -7.33581 -2.54077
  51 521.762 -6.62644 -1.82159
  52 484.401 -9.76391 -1.66439
  53 444.771 -10.4618 -1.48420
  54 404.628 -9.28544 -0.616779
  55 362.229 -9.73066 -0.912589
  56 326.271 -10.0269 -1.25229
  57 278.283 -9.42180 -0.965912
  58 228.816 -6.07360 -0.618589
  59 187.855 -3.93634 -0.463353
  60 137.249 -2.47089 -0.0787258
  61 100.537 -2.22525 -2.44373
  62 66.5093 -2.86414 -0.743655
  63 32.1565 0.320247 1.65189
  64 22.9870 2.37863 0.755032
  65 20.1352 0.957166 1.81564
  66 20.8287 0.430582 1.87238
  67 12.9514 1.36235 1.05934
  68 9.52955 1.80196 3.80324
  69 7.28573 0.647863 1.69595
  70 -5.91547 1.36638 1.82001
  71 -12.5633 0.914162 3.73731
  72 -16.1105 0.274510 3.97554
  73 -31.0279 1.25653 3.30928
  74 -37.1841 1.90856 5.77583
  75 -44.4425 1.15947 2.56567
  76 -52.1545 0.855601 3.41121
  77 -56.2262 0.900333 1.74602
  78 -64.0826 2.26882 -0.905674
  79 -65.9091 1.55265 -0.632987
  80 -60.9187 1.14425 -1.71256
  81 -52.8972 1.55698 -3.74529
  82 -43.5365 0.736032 -6.06879
  83 -32.8295 0.423284 -6.46380
  84 -19.8452 -0.602354 -6.85067
  85 -8.80394 -0.497988 -4.07638
  86 -3.74744 -1.41952 -2.57669
  87 -0.591226 -3.72868 -2.25981
  88 -0.962845 -9.52832 -3.93017
  89 -1.11155 -18.2575 -6.78622
  90 -0.160989 -33.9719 -7.21457
  91 0.464368 -46.5193 -8.94218
  92 1.01255 -66.5979 -7.23852
  93 3.01864 -78.4094 -8.41938
  94 0.630862 -83.0319 -6.58973
  95 -0.0178165 -93.6833 -3.28704
  96 2.71264 -87.7255 0.654341
  97 11.1675 -112.379 7.30777
  98 10.6283 -50.4041 20.9207
  99 24.5391 -5.37886 43.4681
  100 71.3570 150.044 125.446
  101 289.727 421.446 335.935
  102 1563.21 172.187 229.821
  103 1321.37 47.0712 82.6866
  104 1260.82 20.0852 28.3497
  105 1227.76 13.0166 -0.162990
  106 1249.07 19.1350 -23.4027
  107 1332.82 40.1611 -68.2291
  108 1547.03 135.713 -213.145
  109 188.820 476.498 -277.849
  110 50.3032 119.043 -98.1815
  111 18.1722 -17.1688 -36.7730
  112 9.64957 -57.2979 -18.3962
  113 11.0934 -117.295 -6.09189
  114 2.58461 -89.8869 0.195089
  115 -0.178967 -94.7562 3.72774
  116 0.528879 -83.4384 6.82491
  117 2.96243 -78.4938 8.51787
  118 0.991040 -66.5481 7.27417
  119 0.448226 -46.4448 8.95394
  120 -0.168862 -33.8820 7.20896
  121 -1.11236 -18.2007 6.77066
  122 -0.964904 -9.48034 3.91594
  123 -0.590726 -3.71068 2.24739
  124 -3.72590 -1.41734 2.56622
  125 -8.76544 -0.500312 4.06492
  126 -19.7948 -0.607933 6.84335
  127 -32.7704 0.416992 6.46468
  128 -43.5013 0.729119 6.08026
  129 -52.9064 1.55195 3.76858
  130 -60.9737 1.14375 1.73793
  131 -66.0243 1.55104 0.657943
  132 -64.2482 2.26823 0.931815
  133 -56.4498 0.902547 -1.72285
  134 -52.4223 0.858337 -3.39364
  135 -44.7329 1.16266 -2.55141
  136 -37.5010 1.91240 -5.76917
  137 -31.3555 1.26020 -3.30365
  138 -16.4365 0.276746 -3.97524
  139 -12.8927 0.918081 -3.74134
  140 -6.23228 1.37184 -1.82636
  141 7.00263 0.651448 -1.70877
  142 9.27969 1.80580 -3.82310
  143 12.7319 1.36351 -1.07681
  144 20.6565 0.429893 -1.88960
  145 19.9974 0.955515 -1.82955
  146 22.8726 2.37584 -0.767031
  147 32.0631 0.318232 -1.65903
  148 66.4251 -2.87481 0.736592
  149 100.461 -2.25142 2.43615
  150 137.190 -2.51703 0.0684312
  151 187.818 -4.00292 0.458153
  152 228.785 -6.15054 0.618021
  153 278.242 -9.48790 0.976787
  154 326.189 -10.0585 1.27449
  155 362.101 -9.68592 0.964482
  156 404.455 -9.12910 0.675605
  157 444.538 -10.0970 1.39719
  158 484.618 -9.87296 1.45077
  159 521.928 -7.27979 1.92782
  160 564.734 -7.21763 2.29607
  161 606.288 -3.30118 1.88382
  162 639.998 -0.318833 0.984332
  163 383.544 -34.8281 -36.4956
  164 382.074 -35.4681 36.4056
  165 119.533 32.3890 -50.9471
  166 120.691 32.4988 50.7507
  167 448.801 -19.6160 121.567
  168 469.771 -22.3107 -118.419
  169 228.606 -12.3347 17.2549
  170 228.565 -12.2181 -17.4571
  171 478.626 -18.3180 -0.286868
  172 469.485 -18.3688 0.479182
  173 643.539 115.091 -14.2879
  174 645.922 7.05190 -72.8657
  175 633.950 11.7143 79.3958
  176 160.853 -6.30496 -34.6374
  177 160.882 -6.26401 34.5844
  178 558.447 -54.9275 22.4282
  179 558.119 -42.9668 -34.7587
  180 9.66250 14.4240 11.1231
  181 9.89625 14.5144 -10.9831
  182 762.829 156.366 16.3817
  183 152.171 69.1897 -110.265
  184 162.875 69.7822 117.785
  185 539.516 -26.2755 15.0280
  186 807.212 172.093 -1.59550
  187 355.796 -14.2013 -6.08757
  188 355.256 -14.5301 6.05580
  189 553.630 -18.6773 -13.9830
  190 731.791 1.21208 -20.1771
  191 149.167 -4.51337 6.80852
  192 149.103 -4.54800 -6.88483
  193 65.5049 7.42649 -24.1953
  194 65.7870 7.35069 24.2525
  195 317.559 -11.9558 -78.0303
  196 316.330 -12.5816 79.0006
  197 377.816 -25.4432 -14.8134
  198 378.555 -25.3017 15.5394
  199 107.821 -3.74015 18.7846
  200 107.660 -3.69249 -18.8157
  201 723.332 -6.42662 56.9856
  202 596.627 -57.2306 -4.50744
  203 563.641 -7.27948 -1.56346
  204 551.787 -8.62898 1.50375
  205 572.266 67.5888 57.2438
  206 26.2591 24.5397 -12.0936
  207 27.1484 24.5113 12.4903
  208 565.314 -22.2691 66.4546
  209 527.519 40.8367 -66.4546
  210 369.368 89.7011 -243.270
  211 388.444 75.9240 226.301
  212 13.8660 12.8634 -4.21202
  213 14.0926 12.8634 4.32277
  214 563.879 -19.5098 -68.8507
  215 963.926 133.933 -9.86067
  216 468.357 -50.4873 47.3036
  217 471.704 -50.2378 -45.0384
  218 468.064 -34.3648 1.95782
  219 573.545 -10.4633 7.08285
  220 287.227 -20.1061 -31.0435
  221 282.956 -20.0345 31.8661
  222 175.474 3.20753 -51.2155
  223 175.735 3.14622 50.8319
  224 590.963 -60.7160 -14.1858
  225 464.327 -36.4478 -3.99705
  226 571.393 -10.2978 -5.20746
  227 450.137 -13.3517 -1.34163
  228 453.846 -12.5904 2.15507
  229 567.970 -25.7973 36.7515
  230 57.8553 0.277293 -20.0996
  231 58.0814 0.254394 20.1041
  232 -6.63608 -4.27157 -18.8106
  233 -6.67248 -4.31810 18.8243
  234 99.8200 -4.04638 -11.0495
  235 99.9630 -4.05611 10.9777
  236 249.932 -8.14317 7.77632
  237 249.973 -8.26726 -7.82470
  238 281.950 20.1710 -112.007
  239 281.988 16.9335 110.790
  240 575.376 -18.5765 -31.4742
  241 277.843 -16.4535 -48.6948
  242 278.094 -16.9429 48.0959
  243 516.880 8.66086 75.5802
  244 459.476 39.2620 4.60431
  245 496.178 -49.6735 3.99809
  246 2.90686 -10.1152 -15.9490
  247 2.73974 -10.2500 16.0930
  248 34.2334 39.6788 -41.4160
  249 36.3161 38.5449 43.2406
  250 488.141 -48.6308 -7.17613
  251 865.977 171.927 -25.4529
  252 49.6540 32.7865 -19.6377
  253 50.2162 32.7824 19.8293
  254 -16.9089 4.40687 11.9312
  255 -16.8128 4.42985 -11.8639
  256 869.104 162.444 30.7950
  257 315.795 -16.0914 -13.4180
  258 315.573 -15.8592 13.2163
  259 603.630 -39.4485 59.1241
  260 1069.93 174.781 110.937
  261 190.174 -10.2040 -28.7529
  262 190.159 -10.2756 28.7363
  263 621.845 93.5380 -53.5603
  264 1035.18 197.992 -102.950
  265 731.988 78.0547 45.9619
  266 783.744 62.5603 -157.545
  267 495.412 -24.7905 3.58051
  268 567.675 3.94395 -83.5751
  269 533.209 -38.3135 -18.0554
  270 591.081 -11.4047 19.6187
  271 5.55569 5.74486 -8.67626
  272 5.78452 5.72797 8.75695
  273 584.061 -14.4301 -150.599
  274 69.1996 19.8990 -24.8962
  275 69.5159 19.8684 25.0195
  276 571.173 -13.9381 -41.6837
  277 85.4943 95.4921 -114.936
  278 83.3900 -0.427717 -2.60662
  279 83.4827 -0.413142 2.57494
  280 601.847 -35.9778 -62.0390
  281 111.200 49.9607 -63.4415
  282 112.764 49.7182 63.6211
  283 41.3613 -1.05592 13.9126
  284 41.1206 -1.04405 -13.9169
  285 494.609 -23.6792 -3.54926
  286 86.1022 94.5420 117.792
  287 770.414 73.8687 182.793
  288 225.403 -9.36238 -10.8013
  289 225.381 -9.31054 10.6807
  290 399.188 -17.9983 -6.38082
  291 399.005 -19.3270 6.87258
  292 340.659 35.0296 -166.925
  293 543.380 -58.9485 -1.98892
  294 610.701 -4.88230 2.98761
  295 328.431 35.1954 161.834
  296 382.924 -12.0110 -2.27015
  297 382.785 -12.0062 2.58094
  298 534.129 -39.7614 18.3635
  299 607.490 -7.41970 -8.67343
  300 3.12480 2.22068 -11.4064
  301 3.38017 2.20399 11.4471
  302 771.787 152.182 -3.57553
  303 670.868 -28.0606 26.4436
  304 601.247 -4.48074 -0.594254
  305 611.104 -3.93245 0.540065
  306 604.815 -50.1894 59.2330
  307 745.338 83.3049 -41.4372
  308 661.245 122.584 29.5278
  309 302.084 -19.1804 -20.4737
  310 299.489 -19.5114 20.8086
  311 609.771 -4.82426 -1.71358
  312 409.167 -30.1001 -85.1270
  313 403.607 -32.6019 18.4959
  314 384.578 -20.1073 96.2191
  315 603.002 -8.23898 10.5521
  316 149.199 -6.81645 -18.1523
  317 149.312 -6.86447 18.0885
  318 557.706 -14.2405 148.779
  319 361.639 -29.2080 -25.4871
  320 657.418 86.1851 66.1913
  321 215.268 14.9758 -74.4205
  322 207.542 15.6793 73.8859
  323 75.2858 -1.37360 -4.71733
  324 75.4145 -1.36520 4.66710
  325 534.788 -12.5724 3.22053
  326 513.343 -9.28656 -0.0995857
  327 510.600 -9.98726 -0.0611844
  328 567.493 -14.6577 44.2819
  329 61.2845 -1.95955 10.5803
  330 61.0737 -1.94228 -10.6181
  331 177.010 -4.45522 -3.92566
  332 177.044 -4.39200 3.89233
  333 6.08368 -22.1660 -7.44237
  334 5.72257 -22.3754 7.87206
  335 454.070 20.0384 51.6993
  336 677.076 -25.4283 -19.4941
  337 443.891 -24.9877 -2.46277
  338 498.057 -11.9774 -0.767843
  339 533.018 65.9930 -31.0253
  340 111.923 -3.68133 -25.8891
  341 112.076 -3.68520 25.8770
  342 432.158 -23.6688 4.60822
  343 129.496 3.80349 -36.9327
  344 129.746 3.69859 36.8423
  345 27.3921 20.9905 -3.70480
  346 27.6906 20.9922 3.83487
  347 521.553 -54.5642 59.4577
  348 1126.16 73.9849 29.0392
  349 476.016 7.89649 -61.0588
  350 392.333 -35.0438 54.2936
  351 390.351 -34.2978 -55.7837
  352 575.730 -8.60664 82.3802
  353 516.910 -3.27556 59.8390
  354 515.050 -52.7422 -61.1660
  355 314.312 -9.27315 1.42108
  356 314.259 -9.36117 -1.34656
  357 569.786 -37.0124 48.3154
  358 780.299 154.041 0.438873
  359 606.716 -7.73426 -14.4849
  360 168.461 -6.56009 -13.4358
  361 168.547 -6.56701 13.3269
  362 573.425 -51.8142 -72.7776
  363 608.765 44.0741 -81.4316
  364 421.765 22.6880 -33.3207
  365 574.103 -37.8394 -55.8996
  366 -18.1109 0.914020 -14.4524
  367 -18.1296 0.890121 14.4706
  368 482.004 -13.3705 -0.516460
  369 -6.83565 -4.03216 -8.98560
  370 -6.82616 -4.03295 8.96552
  371 369.328 199.851 -293.724
  372 16.9903 15.6365 6.11318
  373 17.3673 15.7523 -5.91024
  374 513.338 -3.45325 -59.3662
  375 287.008 -13.1013 10.1689
  376 287.189 -13.2575 -10.2541
  377 -1.61724 -19.6232 16.5151
  378 -1.58635 -19.5881 -16.4998
  379 302.351 208.900 277.288
  380 236.340 -12.8866 -38.6338
  381 236.542 -12.3708 38.6629
  382 76.9279 58.0285 -59.4000
  383 78.4769 57.9096 59.0992
  384 -25.6355 4.57104 3.82800
  385 -25.5026 4.57920 -3.75422
  386 588.767 40.5420 82.2062
  387 450.456 -47.1681 28.8419
  388 450.952 -41.6418 14.4779
  389 542.632 -60.7663 -14.3825
  390 142.926 17.1995 -50.4102
  391 143.402 17.1777 50.3510
  392 13.1905 -11.9988 4.94896
  393 12.5277 -12.2913 -4.00354
  394 559.972 79.5479 20.1411
  395 551.355 -17.2517 11.1007
  396 323.291 -25.4783 36.2631
  397 203.971 -5.51287 -45.6377
  398 204.070 -5.55145 45.3446
  399 407.720 -14.0736 -3.46087
  400 407.309 -12.5990 3.11649
  401 320.652 -26.1217 -38.2061
  402 252.654 -4.52530 -60.5943
  403 252.638 -4.86379 61.0533
  404 576.474 -52.1272 -30.8723
  405 341.480 -26.9374 24.0692
  406 523.751 -17.6365 5.46302
  407 522.622 -16.2797 -4.23084
  408 442.941 -41.3653 -16.0080
  409 622.391 -3.83367 -3.22151
  410 216.840 91.0506 -170.529
  411 592.150 -9.19573 24.8900
  412 621.276 -4.28476 5.21164
  413 233.589 -12.8975 24.0777
  414 233.662 -12.7305 -24.0615
  415 448.475 -46.6142 -29.5992
  416 68.8839 29.4575 26.9173
  417 68.5265 29.4309 -26.9290
  418 1137.00 73.9277 -59.0429
  419 514.766 -30.5908 -8.75635
  420 625.329 -3.31368 1.85155
  421 205.260 85.4527 162.929
  422 929.096 155.702 33.0701
  423 548.274 -10.1328 -2.45538
  424 416.763 -31.2165 -12.8960
  425 178.483 34.3921 -83.7099
  426 189.879 31.8221 83.2050
  427 509.022 -33.3313 8.62054
  428 544.034 -6.89381 -43.5848
  429 5.69836 -0.580024 10.5175
  430 5.42523 -0.574479 -10.5074
  431 200.458 48.9285 -110.608
  432 201.099 49.0960 110.283
  433 28.7619 10.9826 -12.7842
  434 29.0154 10.9611 12.8849
  435 457.434 -10.9057 0.0610836
  436 456.887 -10.6777 0.0841249
  437 567.336 -26.3273 -38.5123
  438 -0.533001 -0.349154 19.4080
  439 -0.430712 -0.255509 -19.3326
  440 583.588 -56.4813 25.7777
  441 550.472 -16.2798 -9.57992
  442 887.181 169.440 -31.8144
  443 50.2688 -1.70180 5.13239
  444 50.0784 -1.70206 -5.17567
  445 1054.68 307.390 144.563
  446 23.1779 21.2385 -37.4661
  447 75.0688 2.99988 -25.5295
  448 75.3080 2.94837 25.5354
  449 1053.73 315.082 -141.556
  450 24.5547 23.6294 40.7247
  451 -23.4871 3.39083 -0.257792
  452 -23.3137 3.38620 0.328610
  453 64.0130 43.9417 -36.6342
  454 65.0652 43.9790 36.8164
  455 699.686 111.928 -51.9534
  456 559.868 -22.8740 -23.7057
  457 622.275 -3.36956 -1.54250
  458 585.623 -9.35403 -29.4800
  459 -5.34942 5.12055 17.5939
  460 -5.24502 5.18172 -17.5217
  461 565.850 -23.6508 28.2048
  462 373.888 -22.2403 -11.9610
  463 372.801 -22.4440 10.7739
  464 501.336 -55.0322 -14.9271
  465 361.021 -3.81114 -116.770
  466 548.825 -8.25889 44.4225
  467 447.493 -16.3311 2.44992
  468 649.556 -45.0712 -16.9986
  469 349.991 4.56591 124.870
  470 38.7367 -0.620243 10.1481
  471 38.4896 -0.609771 -10.1639
  472 720.507 142.224 -21.5141
  473 568.288 -5.98446 -0.171867
  474 566.436 -6.55435 -0.318660
  475 436.774 -30.3103 7.81032
  476 200.910 -7.12166 -7.72070
  477 200.918 -7.04828 7.64616
  478 120.794 -1.78590 -30.6214
  479 120.945 -1.80904 30.5772
  480 383.900 14.8515 20.0263
  481 104.156 -3.37100 15.0490
  482 104.000 -3.34065 -15.1093
  483 105.586 9.33035 34.6434
  484 105.242 9.46814 -34.6070
  485 557.120 -43.2395 33.2458
  486 318.049 -19.8847 -57.3127
  487 296.199 -10.6537 5.66937
  488 296.290 -10.8772 -5.67367
  489 321.314 -20.4900 57.3189
  490 863.764 208.838 -28.7823
  491 -13.7806 -1.96808 -11.4671
  492 -13.7710 -1.97911 11.4591
  493 229.554 -7.05185 -3.28181
  494 229.570 -6.96124 3.27179
  495 0.475034 -35.7309 -13.1558
  496 0.383831 -35.8495 13.2794
  497 507.220 -9.61975 0.0891738
  498 381.942 17.8146 -9.93814
  499 500.241 52.1860 28.1212
  500 315.354 -2.54950 -94.2404
  501 162.485 -8.36114 22.6699
  502 162.446 -8.29244 -22.6974
  503 -32.6982 1.16783 -4.21637
  504 -32.4570 1.16044 4.25023
  505 602.942 -9.51707 -80.5000
  506 64.0879 0.211266 -3.36942
  507 64.2042 0.218753 3.33316
  508 501.910 -40.3095 -5.41265
  509 533.935 -45.8248 -16.6384
  510 113.875 90.4042 -118.414
  511 448.988 15.9681 -180.076
  512 8.85431 14.4229 6.17839
  513 9.07455 14.4561 -6.05423
  514 282.874 -13.8628 -14.0399
  515 282.753 -13.7515 13.8032
  516 761.712 39.2926 -5.26260
  517 554.572 -33.3475 -30.4342
  518 111.123 85.9526 116.863
  519 549.221 -61.0036 23.0240
  520 529.213 -50.3948 11.1748
  521 125.807 -3.04508 -9.94544
  522 125.904 -3.03487 9.86455
  523 448.882 5.31262 47.3922
  524 321.152 -24.2670 -25.1133
  525 581.817 -14.1059 17.1136
  526 -2.26837 -14.1835 -11.1976
  527 -2.27392 -14.1702 11.1795
  528 413.983 -36.0905 63.9999
  529 621.908 -45.4671 -36.9839
  530 801.608 66.0746 -41.4775
  531 442.441 -16.8215 -2.44791
  532 144.482 -2.80106 -2.83201
  533 144.536 -2.75480 2.80975
  534 284.618 2.69791 91.0404
  535 773.168 134.915 28.7441
  536 769.733 174.858 -280.544
  537 703.664 8.73638 32.6620
  538 510.916 -56.4402 12.3061
  539 1170.45 93.3327 79.4941
  540 881.757 220.576 38.7410
  541 136.510 -5.77827 24.6540
  542 136.394 -5.72339 -24.6832
  543 491.802 -41.4496 2.28512
  544 41.6963 18.1946 -12.5898
  545 41.9830 18.1887 12.7071
  546 614.459 -49.2478 37.1869
  547 514.632 28.5752 69.3245
  548 615.084 -4.58910 9.69420
  549 461.167 -28.9438 -1.28892
  550 634.833 13.7520 -189.780
  551 992.795 277.871 192.449
  552 496.604 -11.7474 0.191500
  553 605.993 -6.80939 -16.1791
  554 101.724 41.7821 -48.5383
  555 102.444 41.2899 48.3554
  556 354.989 -15.5944 -8.07830
  557 354.839 -15.2672 8.19792
  558 4.70603 -36.4841 -8.17719
  559 621.833 -20.1031 70.1799
  560 27.0787 23.5246 -1.49676
  561 27.4647 23.5935 1.68202
  562 5.42893 -34.9560 9.51657
  563 567.988 -25.6151 -58.0405
  564 652.430 43.8087 -75.9405
  565 650.564 49.3983 76.0787
  566 33.7484 32.3321 28.8777
  567 32.1560 32.9538 -28.3588
  568 -9.31614 0.524368 8.11115
  569 -9.59320 0.530340 -8.09424
  570 592.829 22.6656 195.193
  571 334.782 -19.4901 14.7350
  572 335.098 -19.4242 -14.9305
  573 712.212 -4.89435 -105.238
  574 107.888 -1.51094 5.75160
  575 107.798 -1.53156 -5.80609
  576 59.7684 -1.14586 -1.32047
  577 59.8600 -1.13835 1.30772
  578 787.979 148.934 -20.4765
  579 78.1042 131.060 -129.298
  580 431.313 9.12536 -40.2559
  581 595.535 94.6759 -33.9249
  582 10.0422 2.61198 9.96596
  583 10.4018 2.74793 -9.72556
  584 577.410 293.685 326.726
  585 504.331 -15.8305 -1.90098
  586 24.6773 5.09705 -14.3489
  587 24.9286 5.06062 14.4134
  588 583.102 -46.0841 47.2940
  589 92.0065 127.391 131.646
  590 423.580 -10.8143 1.05889
  591 423.700 -10.7402 -1.06040
  592 -0.220015 -28.8367 14.0768
  593 -0.174653 -28.7912 -14.0304
  594 720.785 139.040 -1.15463
  595 457.342 -35.4361 88.6199
  596 437.561 -20.3112 -3.76325
  597 437.889 24.0875 189.735
  598 -35.1062 1.99693 8.20425
  599 -35.0724 2.00777 -8.16782
  600 711.934 14.2779 -35.5420
  601 931.657 175.883 -141.205
  602 277.843 29.4750 -129.019
  603 156.917 -6.75330 -29.8448
  604 157.076 -6.75713 29.8568
  605 638.885 -2.68974 2.37721
  606 433.489 -20.7044 3.27416
  607 571.866 -9.35147 4.94282
  608 567.957 -25.7009 56.5938
  609 38.0225 -0.974341 5.17344
  610 37.7970 -0.970366 -5.20513
  611 342.014 -13.2279 -4.80851
  612 341.976 -12.9140 4.70544
  613 216.385 4.46397 -62.4005
  614 215.058 4.52937 62.1663
  615 805.527 58.3797 60.3594
  616 1290.32 97.3174 -140.167
  617 0.228698 -0.860086 6.99554
  618 -0.0626096 -0.857445 -6.99141
  619 208.168 -9.03436 14.0733
  620 208.136 -9.02187 -14.2248
  621 755.154 47.9571 15.5771
  622 630.488 -3.17797 -0.751763
  623 629.193 -4.13350 0.200870
  624 475.889 0.239147 46.8289
  625 664.207 -34.4212 -67.3855
  626 369.280 -30.7934 29.8261
  627 -5.39939 8.66801 -6.09370
  628 -5.56420 8.65267 6.19076
  629 587.351 13.4607 85.6982
  630 239.519 -14.1009 -31.4582
  631 239.321 -14.3247 31.5148
  632 476.873 -28.8450 -0.467255
  633 584.114 -13.8084 -15.4103
  634 341.121 -27.4363 -42.7511
  635 558.754 67.5614 -52.1498
  636 375.323 -25.5552 -73.0614
  637 148.900 -3.99704 -5.31465
  638 148.954 -3.95470 5.25854
  639 344.505 -27.8867 42.9862
  640 727.387 120.366 44.8055
  641 581.000 -27.3427 71.4033
  642 475.562 -22.7192 0.946228
  643 345.526 -10.6081 2.67673
  644 345.441 -10.6256 -2.61387
  645 264.649 -10.6186 -10.2289
  646 264.570 -10.5172 10.1438
  647 557.662 -50.8776 -24.6869
  648 290.162 -17.1050 17.7719
  649 290.449 -17.0363 -18.0554
  650 569.042 87.1097 -6.91144
  651 515.551 -28.2850 9.09218
  652 636.226 -3.53448 -3.91146
  653 552.856 -9.33957 -76.1295
  654 89.4665 -3.78389 19.8497
  655 89.2853 -3.75810 -19.8587
  656 622.882 -4.04703 -8.82372
  657 117.107 61.0974 -84.5896
  658 119.063 60.9751 84.9924
  659 636.656 -34.1556 89.4954
  660 225.967 57.5905 135.906
  661 63.9256 -0.549108 19.8322
  662 63.7142 -0.536088 -19.8339
  663 544.867 -32.3666 112.850
  664 533.290 85.5986 -255.789
  665 532.791 17.7304 -76.4897
  666 693.854 126.405 39.9275
  667 467.767 -22.3025 1.11718
  668 835.936 148.605 -3.61820
  669 -35.7012 1.93924 -3.13304
  670 -35.4989 1.93469 3.17963
  671 375.185 3.24717 -135.820
  672 41.1159 -0.581754 3.89387
  673 40.9405 -0.583160 -3.92729
  674 468.080 -38.1455 -87.7260
  675 161.110 21.6172 -60.4879
  676 159.891 21.7106 60.4672
  677 7.90524 7.99420 -5.97296
  678 8.12677 7.98565 6.07082
  679 400.807 -35.1403 -23.6867
  680 564.144 -5.58990 -29.0272
  681 276.345 -9.37908 -3.58362
  682 276.369 -9.28961 3.60686
  683 203.336 -10.6121 -20.5841
  684 203.507 -10.7526 20.5248
  685 39.8313 32.6807 -14.9529
  686 40.4525 32.7606 15.1690
  687 570.439 -8.34036 1.94487
  688 263.802 -17.1810 26.6251
  689 265.391 -16.9003 -26.6117
  690 633.834 -48.2424 0.993796
  691 525.688 -52.8665 -5.45230
  692 416.129 -13.4322 -1.95459
  693 414.730 -12.6595 2.13076
  694 576.728 -59.1268 38.6186
  695 929.569 188.849 55.4508
  696 507.539 -19.6595 -138.331
  697 580.630 -16.8057 28.9441
  698 580.339 -20.5850 -77.1401
  699 191.080 -6.21692 -9.94224
  700 191.103 -6.17674 9.84233
  701 452.693 -4.97869 154.408
  702 1226.35 159.060 145.276
  703 92.6442 26.0542 -36.4987
  704 92.7865 26.2327 36.6131
  705 568.163 -7.10019 -0.901999
  706 572.467 -6.47422 0.939722
  707 246.533 131.911 -216.940
  708 606.356 -3.80851 16.3452
  709 524.843 -10.7589 0.908295
  710 698.988 137.470 -14.2413
  711 77.3987 12.7890 -26.9621
  712 77.7236 12.7116 27.0583
  713 642.801 -2.19157 0.236406
  714 529.120 -21.7842 -9.45707
  715 658.681 -7.28756 59.4320
  716 277.661 -19.7163 -40.4680
  717 278.348 -18.9060 40.1393
  718 73.1347 -2.28919 15.0085
  719 72.9336 -2.26198 -15.0390
  720 592.635 -5.37332 -2.12945
  721 511.883 110.495 270.530
  722 5.13909 5.80845 15.1088
  723 5.33369 5.92984 -14.9754
  724 595.395 -7.61167 -6.55331
  725 579.576 -11.9245 9.49597
  726 473.841 0.806882 -50.2255
  727 4.81361 -49.4092 -5.11560
  728 4.52476 -49.9325 5.64471
  729 217.532 59.4938 -135.997
  730 467.555 -46.0885 -64.9137
  731 245.256 130.587 218.792
  732 635.553 -2.31762 1.27159
  733 628.837 94.6179 53.6542
  734 468.827 42.3022 -19.6450
  735 814.196 163.966 6.73977
  736 630.020 -3.29420 5.45720
  737 -31.2259 0.910342 5.82925
  738 -31.4943 0.915261 -5.80672
  739 673.171 -34.4964 26.5780
  740 441.526 -14.4210 -2.47681
  741 167.331 -0.139107 -43.8929
  742 167.562 -0.298406 43.6807
  743 578.346 -8.18484 -3.22107
  744 1014.79 143.356 -54.3716
  745 81.8156 -2.22069 -9.74016
  746 81.9902 -2.23307 9.68471
  747 640.033 -2.38631 -2.37245
  748 140.960 -6.19549 -13.5220
  749 141.069 -6.21707 13.4389
  750 634.850 -23.2501 -62.1702
  751 587.566 -6.42321 23.0349
  752 534.007 -2.71595 75.6708
  753 639.990 -2.46953 0.288945
  754 601.603 -5.79740 4.84079
  755 401.881 -22.8126 -7.93895
  756 498.079 -14.8041 0.953355
  757 567.117 -34.9257 -47.0776
  758 552.573 -35.2482 29.0472
  759 650.649 80.2952 -67.2121
  760 544.691 -31.4042 20.6313
  761 576.934 -33.6685 61.2012
  762 340.159 -23.7724 19.1270
  763 13.2135 1.01358 2.35721
  764 12.5688 0.965005 -1.74498
  765 503.207 -9.44780 -0.361861
  766 502.177 -9.39651 0.181006
  767 597.174 -4.00286 -0.149270
  768 599.118 -3.89811 0.281471
  769 576.452 -16.5653 36.1263
  770 531.427 -46.9577 83.5042
  771 440.187 -36.4554 11.6020
  772 392.787 -24.5430 10.8910
  773 1033.81 132.006 62.1165
  774 580.624 -15.5999 -22.2702
  775 344.239 63.3666 -202.876
  776 541.005 -27.7600 -17.5656
  777 29.6683 0.307036 -14.7342
  778 29.9191 0.287374 14.7577
  779 496.207 43.6013 -43.9803
  780 1191.20 36.1214 -15.2796
  781 612.018 17.4089 -82.9978
  782 25.7738 30.3831 -53.5230
  783 634.527 113.244 13.5737
  784 490.717 -32.2882 3.01091
  785 554.444 -13.2178 73.7348
  786 465.294 -48.0473 65.2581
  787 730.332 4.11520 127.200
  788 27.7359 36.0029 56.8488
  789 339.645 -1.31904 107.136
  790 468.925 -13.8618 0.792220
  791 521.553 -44.9983 -84.4548
  792 326.574 -25.8709 -30.9477
  793 258.787 12.6374 -94.4847
  794 605.842 -7.95864 81.2645
  795 392.320 -27.6390 16.0707
  796 87.7795 -2.28598 8.47999
  797 87.6400 -2.28821 -8.54445
  798 565.826 -3.24155 25.6597
  799 518.877 3.29225 -73.8837
  800 -43.0365 2.09731 4.79393
  801 -42.9712 2.10165 -4.75339
  802 382.041 -13.4534 -3.26700
  803 380.997 -12.8195 3.13833
  804 284.757 32.8831 130.740
  805 258.169 -15.5452 20.4657
  806 258.490 -15.1894 -20.6410
  807 639.333 -1.89082 -1.13346
  808 233.738 18.7030 92.2905
  809 20.1575 -0.218257 5.40772
  810 19.8878 -0.213620 -5.42558
  811 559.349 -17.0750 56.6294
  812 587.723 -6.35314 1.56245
  813 -31.4190 0.496000 8.46775
  814 -31.4284 0.506692 -8.45051
  815 370.419 -22.7972 81.4274
  816 74.6156 65.0676 -72.8565
  817 75.4875 62.3505 71.8495
  818 365.901 15.9256 8.31098
  819 5.19708 -0.458186 -6.16835
  820 5.49267 -0.461883 6.16544
  821 424.099 -39.8295 -61.2998
  822 573.455 -59.2391 -11.6485
  823 -2.91444 -2.76065 -3.70426
  824 -2.90537 -2.75370 3.69006
  825 46.5331 0.913922 -1.34486
  826 46.6400 0.919143 1.32563
  827 511.771 -45.9372 6.71555
  828 433.312 -44.1355 44.4861
  829 476.642 -9.95703 0.00116276
  830 432.350 -35.6157 -13.1338
  831 169.436 -3.13104 -1.16297
  832 169.479 -3.07042 1.14918
  833 -48.0149 1.04745 2.43932
  834 -47.9058 1.04626 -2.39899
  835 534.808 -8.72881 -1.12416
  836 487.559 19.7735 -63.1903
  837 541.325 -12.4016 -4.56305
  838 327.280 -25.4844 29.6440
  839 543.236 -9.20164 -60.4716
  840 575.797 -17.9601 -37.2989
  841 536.831 -7.75851 0.969451
  842 397.549 -14.0335 109.723
  843 424.772 -41.7588 -27.3101
  844 260.168 -1.97584 -73.4307
  845 261.554 -0.171627 73.8106
  846 364.527 -28.0416 -20.7199
  847 601.396 66.2385 71.1342
  848 564.123 -56.9789 -49.6376
  849 214.381 -7.19255 -5.15656
  850 214.384 -7.09946 5.11619
  851 434.624 -11.7074 1.41198
  852 434.652 -11.7881 -1.32360
  853 521.711 -3.72568 -39.7485
  854 184.098 -7.94797 -16.6700
  855 184.212 -8.00515 16.5562
  856 2.28427 -51.5374 -9.60839
  857 2.17154 -51.7632 9.82805
  858 101.953 -1.46742 -0.0893211
  859 101.876 -1.49332 0.0727754
  860 531.282 -10.1184 -1.53529
  861 409.359 -39.0775 40.5127
  862 626.662 -51.5611 11.5317
  863 386.986 8.07880 31.8082
  864 543.356 -14.3921 5.34978
  865 595.095 -52.1545 -34.5590
  866 93.5417 5.29329 -30.1205
  867 93.8130 5.20316 30.1171
  868 474.307 -10.5380 0.0179124
  869 386.444 -14.9188 -5.48372
  870 385.174 -14.8080 5.82928
  871 596.919 92.7157 38.2706
  872 212.166 -2.44010 -52.3853
  873 212.001 -2.67835 52.1935
  874 413.162 -37.8290 22.5618
  875 43.5718 27.0942 -13.1487
  876 43.9729 27.0498 13.2689
  877 351.195 -24.8295 67.2094
  878 418.714 -27.7837 -8.71180
  879 524.449 -3.86611 40.1568
  880 510.442 -56.8653 25.7914
  881 583.963 -43.6678 -51.5881
  882 408.355 -39.3927 -40.9923
  883 342.501 -23.6884 -18.4328
  884 1075.97 87.8477 -16.8906
  885 534.128 -56.2733 1.82267
  886 18.1951 18.8110 3.27148
  887 18.4801 18.8514 -3.11972
  888 466.345 -46.9625 15.1228
  889 509.558 -56.4802 -40.2428
  890 20.0967 15.9983 -2.52590
  891 20.3491 16.0066 2.64378
  892 199.860 -7.41275 40.3561
  893 199.948 -7.61666 -40.5583
  894 239.766 -12.3928 44.1446
  895 239.658 -12.6679 -44.4014
  896 736.299 147.463 15.9746
  897 -0.995557 -22.7334 -10.7667
  898 -1.00315 -22.7021 10.7571
  899 175.681 14.3745 -57.6235
  900 174.873 14.0927 57.1255
  901 1229.55 39.8162 -61.4332
  902 39.6789 -0.179625 2.25046
  903 39.5335 -0.183667 -2.27678
  904 2.49946 -56.0384 1.35954
  905 2.87573 -55.0023 -0.483948
  906 -24.3216 -0.225683 8.88994
  907 -24.3526 -0.217927 -8.88803
  908 140.724 41.0367 -67.5062
  909 142.871 39.6713 66.6329
  910 -9.77679 1.01366 -18.2681
  911 -9.82936 0.969227 18.3007
  912 46.2199 3.34629 -20.0866
  913 46.4756 3.30181 20.1201
  914 155.306 -2.14324 37.3619
  915 155.181 -2.13510 -37.5174
  916 129.122 -4.56943 -30.2760
  917 129.266 -4.56323 30.2428
  918 626.654 -2.72228 -8.85999
  919 311.427 69.6218 189.368
  920 428.872 -42.5464 25.9488
  921 309.146 -22.6494 24.3147
  922 588.881 61.5475 -70.6393
  923 1209.53 25.6983 24.7168
  924 688.145 34.8985 -62.7432
  925 125.449 -4.75838 19.1264
  926 125.310 -4.70694 -19.1836
  927 29.9034 -0.760217 -14.0761
  928 30.1532 -0.766656 14.0809
  929 0.220175 -9.58462 -19.5966
  930 0.129057 -9.67591 19.6638
  931 319.397 -14.9898 11.4788
  932 319.545 -15.2537 -11.5201
  933 43.8259 10.2752 -18.4945
  934 44.0966 10.2312 18.5836
  935 198.842 -9.12180 -34.5487
  936 198.989 -9.12568 34.5368
  937 426.047 -1.30777 -37.3300
  938 205.623 -11.3672 -24.4916
  939 205.512 -11.2582 24.5671
  940 477.982 -15.0526 0.958026
  941 578.842 -32.4162 -66.1317
  942 261.146 -11.1683 11.8801
  943 261.248 -11.2594 -12.0076
  944 -10.6416 -1.08992 -6.43128
  945 -10.6110 -1.09251 6.41656
  946 585.199 -41.8443 -102.215
  947 563.411 -33.2788 40.4235
  948 495.372 -35.4819 -4.93686
  949 493.110 17.5548 66.4975
  950 227.828 -13.0864 -27.4656
  951 227.856 -12.8561 27.5424
  952 546.017 21.8909 79.6450
  953 513.987 45.1370 52.5293
  954 1010.28 120.564 21.7047
  955 524.755 -20.1970 6.24940
  956 285.121 -9.34089 -5.38984
  957 285.099 -9.18294 5.42665
  958 472.909 -39.4187 3.51455
  959 657.103 120.222 -31.1215
  960 570.575 -7.60553 -2.04077
  961 382.831 -10.8671 1.80732
  962 382.695 -10.7950 -1.70313
  963 51.3517 44.2906 -34.1366
  964 52.5883 44.2426 34.3648
  965 90.8412 258.444 -209.777
  966 544.426 -12.4309 60.0668
  967 669.060 -9.23365 -51.5915
  968 -7.73435 6.66659 1.52954
  969 -7.55276 6.66701 -1.43689
  970 1318.00 321.825 -253.605
  971 574.121 -61.2752 -0.858617
  972 610.424 -54.0754 -32.3098
  973 566.241 -48.2166 35.1993
  974 704.612 137.690 11.7586
  975 53.4845 61.3233 -68.2655
  976 130.097 225.819 207.862
  977 -2.79423 -7.06530 19.9074
  978 -2.73792 -6.99833 -19.8743
  979 548.550 -15.4081 7.01749
  980 879.302 154.369 -21.4033
  981 54.9718 60.1204 70.7061
  982 -2.38636 -8.32011 -7.15195
  983 -2.38646 -8.29593 7.13232
  984 473.339 -12.7247 -1.13186
  985 358.342 -28.8521 -32.4020
  986 570.825 -44.7521 -43.0956
  987 167.759 45.2740 -87.7491
  988 170.392 46.0020 87.9683
  989 557.590 -13.6967 -53.1730
  990 556.657 -18.7735 14.8674
  991 -13.6277 4.27522 15.6934
  992 -13.5531 4.31533 -15.6389
  993 342.276 -22.4681 -63.4759
  994 566.048 37.2184 -79.3614
  995 419.130 -17.1515 3.88698
  996 306.794 -9.74504 1.15624
  997 306.732 -9.79842 -1.12267
  998 -6.09043 -6.94088 -14.6526
  999 -6.09863 -6.95580 14.6385
  1000 564.225 -21.0903 -18.9322
  1001 535.588 -7.65265 0.215515
  1002 535.101 -7.66181 -0.00900586
  1003 743.210 124.697 -39.9339
  1004 141.262 11.6602 -46.1231
  1005 141.614 11.4288 46.0418
  1006 94.6349 -1.11674 -25.3184
  1007 94.8159 -1.13472 25.3003
  1008 616.411 34.7503 83.9658
  1009 576.765 -12.0651 -9.97424
  1010 108.830 16.4039 -38.2462
  1011 109.252 16.2862 38.3821
  1012 598.081 -4.42082 -1.28542
  1013 564.815 -25.0576 -30.0605
  1014 551.633 -61.0141 -30.4384
  1015 23.1744 21.2243 3.54368
  1016 22.5810 21.1245 -3.27271
  1017 -24.8097 4.61130 8.73948
  1018 -24.7126 4.62480 -8.67281
  1019 354.647 12.9451 -13.8853
  1020 944.224 239.728 -74.4612
  1021 439.576 -32.9220 -7.19753
  1022 294.808 -12.9128 -65.1250
  1023 694.371 -23.8081 -3.38763
  1024 295.950 -12.8791 65.9897
  1025 502.908 -57.5997 45.8841
  1026 569.714 -23.6737 -47.1799
  1027 206.025 -5.22677 -1.64583
  1028 206.056 -5.14911 1.63751
  1029 393.153 -31.3799 -18.8658
  1030 245.271 -9.41761 -51.5133
  1031 245.207 -9.48826 51.2917
  1032 83.1946 54.9004 -56.3368
  1033 84.4668 54.7767 56.5052
  1034 175.688 -5.72247 -5.77954
  1035 175.721 -5.65974 5.72077
  1036 505.655 -17.5472 2.27718
  1037 428.747 4.04692 -156.046
  1038 523.613 -18.4063 -6.35513
  1039 475.845 -52.3778 -29.7569
  1040 318.684 -14.3438 8.13537
  1041 318.924 -14.4401 -8.15208
  1042 606.103 -4.82585 1.62878
  1043 546.387 -14.4138 -6.54339
  1044 371.874 9.22137 26.2790
  1045 588.317 -5.92793 -21.4676
  1046 232.589 70.0008 153.472
  1047 603.575 -5.86607 -17.3852
  1048 164.368 27.3342 -67.0821
  1049 159.687 27.6228 64.5406
  1050 717.156 -7.19660 1.17598
  1051 70.0456 35.6748 -31.0416
  1052 70.6639 35.4316 31.0471
  1053 12.4378 2.60760 3.43635
  1054 13.0011 2.71844 -3.06610
  1055 106.810 -2.72647 6.81920
  1056 106.703 -2.74214 -6.88707
  1057 263.561 70.7531 -169.132
  1058 1356.08 367.535 273.033
  1059 562.617 -21.0632 19.4055
  1060 507.377 -56.4931 -23.7667
  1061 357.087 -29.4189 -50.1337
  1062 -5.27066 8.46276 12.7971
  1063 -5.13317 8.50881 -12.7040
  1064 401.385 -21.8324 6.70096
  1065 440.586 -17.8333 2.78300
  1066 -0.146953 -32.1198 10.2900
  1067 -0.136147 -32.1569 -10.2889
  1068 70.1196 42.9917 -36.3532
  1069 70.9175 42.9265 36.5552
  1070 396.276 -20.2103 -6.45397
  1071 35.8303 14.6745 12.8879
  1072 35.5639 14.6908 -12.7767
  1073 599.541 -22.3921 76.8389
  1074 436.409 -44.9621 -44.2635
  1075 359.158 -29.8858 50.1371
  1076 573.630 -10.3139 -82.1204
  1077 596.175 -7.64725 7.21165
  1078 223.648 34.7980 104.589
  1079 225.234 33.2835 -102.905
  1080 356.066 -16.7755 -88.4479
  1081 497.800 -19.2918 -2.05856
  1082 408.653 -25.5732 10.6753
  1083 476.058 -44.8632 -7.08174
  1084 641.849 -2.73281 -4.27035
  1085 356.841 -17.4702 9.46917
  1086 356.690 -18.3923 -9.64994
  1087 13.8412 15.7059 8.95893
  1088 14.1340 15.8167 -8.78931
  1089 579.522 22.6664 -85.1612
  1090 136.313 6.34511 -40.9862
  1091 136.675 6.20167 40.8969
  1092 104.831 1.57213 -29.9198
  1093 105.058 1.51792 29.8824
  1094 649.531 -20.0464 127.224
  1095 568.812 -26.3396 46.2573
  1096 284.639 -13.2518 -55.8455
  1097 650.316 -2.93777 -2.52453
  1098 741.812 141.685 -29.6041
  1099 594.550 -6.83240 -4.19183
  1100 562.585 -59.9231 11.5224
  1101 419.930 -31.1241 78.3964
  1102 653.198 -1.27388 0.258088
  1103 371.214 11.4480 -22.2492
  1104 479.292 -51.2406 -16.9982
  1105 285.116 -13.8357 55.3130
  1106 483.590 -44.4823 4.34083
  1107 596.997 -9.39108 14.7113
  1108 445.815 28.2251 34.3672
  1109 305.633 -22.7112 -45.3099
  1110 890.019 140.673 -67.0790
  1111 680.397 34.0555 66.6628
  1112 521.360 64.9300 8.32347
  1113 648.279 -0.353381 2.06436
  1114 267.171 -17.0237 -35.3688
  1115 181.371 116.338 -170.762
  1116 321.366 9.69387 -123.547
  1117 368.704 -28.9525 23.9647
  1118 313.356 -23.7085 42.8202
  1119 266.590 -16.2305 35.6834
  1120 552.535 5.87263 83.4370
  1121 416.374 -16.0288 -3.37493
  1122 640.861 -5.15113 6.01035
  1123 -4.22307 0.417074 19.6082
  1124 -4.14518 0.485597 -19.5573
  1125 435.054 -14.0813 2.14916
  1126 1.02756 6.12758 16.9324
  1127 1.16955 6.21846 -16.8328
  1128 252.492 -8.59328 6.31716
  1129 252.497 -8.71131 -6.32296
  1130 608.701 -3.51688 14.4205
  1131 492.458 -31.2025 -3.60452
  1132 462.266 -25.9828 1.66714
  1133 515.372 -36.8238 11.6489
  1134 161.882 82.5629 -128.975
  1135 504.503 -20.5675 3.56960
  1136 83.8696 1.13433 -24.7345
  1137 84.0859 1.09663 24.7266
  1138 109.737 71.9922 -92.6596
  1139 799.061 112.155 12.2103
  1140 68.7102 -2.86360 14.5946
  1141 68.5011 -2.84132 -14.6096
  1142 111.688 71.0215 89.7279
  1143 464.409 -39.5305 -5.37477
  1144 243.296 -11.8399 14.3832
  1145 243.317 -11.8864 -14.5720
  1146 933.168 199.225 -59.1127
  1147 510.091 -51.1353 -2.89329
  1148 178.871 109.349 170.496
  1149 16.3236 3.63949 -17.9387
  1150 17.5017 3.84656 19.3059
  1151 546.435 68.4777 41.6340
  1152 44.7069 22.6958 -13.4933
  1153 45.0433 22.7074 13.5945
  1154 513.306 -45.0581 -7.50895
  1155 -0.215857 -49.1766 -9.47003
  1156 -0.238909 -49.1762 9.51318
  1157 547.753 -46.3133 -23.1488
  1158 3.99091 0.618924 4.80658
  1159 3.69078 0.623170 -4.81453
  1160 89.3129 32.3616 -38.7461
  1161 89.7868 32.5062 38.4444
  1162 -18.7115 0.0405689 -5.89011
  1163 -18.4088 0.0386470 5.89740
  1164 543.318 -7.64780 -0.0524282
  1165 -51.2830 1.61531 0.129016
  1166 -51.1310 1.61477 -0.0914358
  1167 296.263 -23.5847 -34.4173
  1168 8.15573 -61.8226 -10.2281
  1169 157.036 -4.58469 10.7507
  1170 156.963 -4.59785 -10.8466
  1171 465.717 -10.7459 1.02684
  1172 466.577 -10.5207 -0.939031
  1173 8.76128 -58.4506 11.9390
  1174 550.699 -29.5078 -24.1809
  1175 624.211 -3.31648 10.3260
  1176 560.109 -36.1449 -36.8151
  1177 498.589 4.13179 65.9864
  1178 3.11946 -17.4411 13.2786
  1179 3.36163 -17.2881 -13.0289
  1180 363.834 -27.2108 19.7368
  1181 -23.4961 2.46442 12.6346
  1182 -23.4524 2.48461 -12.5947
  1183 921.629 145.275 10.8017
  1184 1054.37 353.373 -247.566
  1185 572.206 -54.9644 29.2730
  1186 246.544 -7.81180 -1.09398
  1187 246.571 -7.72998 1.09503
  1188 1143.99 111.242 -103.532
  1189 95.4512 -2.40849 15.1241
  1190 95.2769 -2.37418 -15.1686
  1191 540.384 -1.74808 -25.8438
  1192 349.406 -28.5662 38.7308
  1193 565.909 -54.8722 -19.4296
  1194 548.247 -40.1605 -27.3782
  1195 339.662 -11.4462 92.5044
  1196 130.453 23.5911 -51.7203
  1197 130.400 23.3853 51.4603
  1198 168.843 63.2741 -110.291
  1199 169.105 58.6686 110.311
  1200 52.6869 13.8637 -19.7036
  1201 52.9778 13.8258 19.8103
  1202 679.295 118.661 -45.1246
  1203 37.9393 35.2516 -19.1688
  1204 38.7675 35.3183 19.4217
  1205 489.244 -38.2873 1.90931
  1206 893.539 145.939 74.1796
  1207 128.539 -5.18672 -10.6059
  1208 128.647 -5.18576 10.5216
  1209 571.916 439.150 -355.844
  1210 469.948 28.2484 -52.8564
  1211 435.381 33.0396 21.7027
  1212 63.4718 25.3117 -23.2159
  1213 63.7609 25.3177 23.3302
  1214 26.8381 -0.145599 3.49456
  1215 26.6220 -0.145409 -3.51997
  1216 540.538 -43.6904 21.5089
  1217 530.527 -22.5397 10.6684
  1218 364.696 111.699 -260.492
  1219 834.191 183.193 -16.6410
  1220 364.462 -10.2941 -101.347
  1221 467.967 -16.1036 -1.68209
  1222 40.6708 -2.24775 -0.744719
  1223 40.7567 -2.24574 0.740685
  1224 -6.00320 3.69884 -8.90252
  1225 -5.76644 3.68442 8.96166
  1226 318.218 4.17085 -106.350
  1227 573.437 -13.8253 13.2836
  1228 378.296 8.86220 143.114
  1229 508.338 -26.3931 -6.80151
  1230 265.960 99.0321 -207.201
  1231 410.615 -18.6857 -109.025
  1232 487.175 -51.9890 14.3095
  1233 591.928 -10.0310 23.1082
  1234 519.576 -12.6286 -1.82047
  1235 295.099 -22.1987 34.5887
  1236 650.787 -33.9074 -38.5485
  1237 623.796 55.8734 79.2833
  1238 276.367 1.43974 -85.1079
  1239 609.126 -4.99089 1.36402
  1240 509.185 62.8685 -11.9170
  1241 225.834 -8.33543 -10.5046
  1242 225.810 -8.25883 10.4101
  1243 931.549 228.285 67.8389
  1244 1251.06 33.2208 57.4915
  1245 1.24584 -59.7643 -9.33872
  1246 1.20811 -59.8228 9.41282
  1247 144.633 78.6868 121.225
  1248 340.891 -11.2790 -2.85017
  1249 340.964 -11.2219 2.97062
  1250 460.535 -46.5820 -17.6873
  1251 554.212 46.2872 72.0455
  1252 568.286 -12.6088 -7.92367
  1253 651.952 -2.21396 -0.701154
  1254 1126.15 253.398 -161.946
  1255 190.133 -7.35201 11.1485
  1256 190.095 -7.36497 -11.2650
  1257 548.340 -50.8283 21.6693
  1258 946.706 245.185 -86.3493
  1259 531.059 -24.4231 -12.2293
  1260 393.047 -28.2293 -14.9432
  1261 478.861 -51.7818 29.1699
  1262 468.150 -24.7692 -0.572055
  1263 18.8132 12.6977 -26.5486
  1264 635.651 -36.5045 47.9555
  1265 517.156 -34.7340 -11.4620
  1266 20.6250 13.5910 28.8910
  1267 530.451 -39.7835 -103.080
  1268 500.074 36.5542 -213.360
  1269 817.598 112.221 -3.84059
  1270 654.214 -0.996836 -0.159807
  1271 653.176 -1.59121 0.530182
  1272 525.643 -31.6643 13.1072
  1273 208.711 24.8663 -84.1237
  1274 597.749 -51.8999 38.0129
  1275 1003.76 232.227 111.979
  1276 255.924 91.9365 202.170
  1277 8.29750 3.11246 13.0743
  1278 8.56533 3.24881 -12.8902
  1279 624.745 -47.2487 -59.3820
  1280 261.789 -14.8044 -17.0982
  1281 261.761 -14.8443 16.8468
  1282 586.256 -37.8066 62.6994
  1283 30.3525 0.0378916 15.7131
  1284 30.1049 0.0493185 -15.7023
  1285 -2.93244 -11.8605 16.7389
  1286 -2.91100 -11.8352 -16.7441
  1287 116.039 -3.91800 -13.7817
  1288 116.177 -3.94012 13.7101
  1289 314.260 -21.1705 -51.0266
  1290 317.615 -11.5901 3.91550
  1291 317.598 -11.8082 -3.80129
  1292 652.578 -0.972831 0.365490
  1293 588.955 -9.61419 -26.1488
  1294 56.1470 1.96245 -20.0979
  1295 56.3862 1.92925 20.1124
  1296 315.499 -22.3576 50.6952
  1297 657.966 -1.03524 0.356734
  1298 623.996 -1.58999 -0.727152
  1299 623.924 -1.97083 0.579650
  1300 831.489 181.027 -2.96255
  1301 610.298 -5.30787 -3.35023
  1302 544.871 -7.32057 -0.135561
  1303 603.177 -10.0703 -12.9948
  1304 650.008 -2.57935 1.59341
  1305 688.996 74.0393 66.0139
  1306 795.805 168.668 9.24978
  1307 635.518 -2.94441 -6.70711
  1308 -5.43774 -1.32569 4.84429
  1309 -5.46003 -1.32488 -4.85974
  1310 362.559 -23.8102 14.2729
  1311 362.497 -22.8206 -13.9352
  1312 695.170 81.8270 -62.1678
  1313 150.452 52.2751 -92.0651
  1314 151.413 50.9013 91.1482
  1315 480.531 0.197005 -33.0293
  1316 482.887 -9.65086 -1.07054
  1317 482.300 -9.58959 0.968275
  1318 -11.1771 -1.58871 16.9609
  1319 -11.1571 -1.55661 -16.9561
  1320 541.889 -1.43467 25.7856
  1321 814.095 161.694 -7.48342
  1322 71.0580 -2.27789 -8.67029
  1323 71.2306 -2.28307 8.61384
  1324 600.944 -56.2710 17.2399
  1325 3.02159 11.0233 12.6816
  1326 3.20010 11.0888 -12.5655
  1327 124.684 -2.81540 -3.05154
  1328 124.753 -2.77688 3.01345
  1329 480.613 -0.494925 33.5480
  1330 35.0143 0.950362 -1.37724
  1331 35.1394 0.954020 1.35791
  1332 607.129 -8.03854 7.98814
  1333 850.975 153.504 10.5801
</Section>

newXOutput 79

<Section columns = "stress_xx | stress_yy | stress_xy">
  1 675.355 -2.15537 1.23622
  2 676.318 -2.63308 -1.60373
  3 29.6094 0.610934 -1.69044
  4 -0.541022 -0.789430 -0.554511
  5 1206.53 519.203 405.075
  6 1225.08 591.268 -408.719
  7 -0.535443 -0.784499 0.547307
  8 29.5217 0.607447 1.68662
  9 679.694 -1.55206 -1.11674
  10 675.159 -2.62341 -1.66769
  11 675.949 -2.11151 1.29204
  12 673.229 -1.35277 0.376347
  13 672.383 -2.47580 -0.690050
  14 672.093 -2.41415 2.25081
  15 663.705 -1.83516 1.98025
  16 666.920 -4.91994 3.34062
  17 648.237 -4.17722 7.53178
  18 636.812 -2.06428 9.11248
  19 620.716 -2.38398 9.93007
  20 592.164 -2.12693 14.1828
  21 560.616 -1.72553 16.6336
  22 520.733 2.19303 23.0800
  23 465.600 3.42939 21.0252
  24 443.176 0.0676327 30.2640
  25 373.575 5.28525 21.6162
  26 330.754 6.80809 17.0384
  27 319.590 3.68588 12.6021
  28 307.623 10.0275 0.974677
  29 314.213 10.6772 -16.8877
  30 327.247 3.22999 -21.1600
  31 379.846 1.66292 -28.1181
  32 432.384 -2.46949 -28.9319
  33 467.559 2.85477 -20.9697
  34 521.292 2.48006 -23.0658
  35 559.272 -2.02680 -17.8538
  36 595.223 -2.30595 -13.3455
  37 618.495 -1.81173 -10.0994
  38 634.991 -2.21348 -8.28788
  39 652.869 -2.47040 -4.70093
  40 659.340 -2.67941 -4.42509
  41 665.765 -2.50863 -3.95565
  42 672.189 -2.81398 -0.529866
  43 674.474 -3.49315 -1.51702
  44 670.286 -0.212976 0.162691
  45 675.151 -1.97675 -1.49280
  46 677.499 -3.71608 1.81827
  47 680.447 -2.20220 -0.0527503
  48 648.381 -0.304801 -1.02009
  49 612.253 -3.72393 -1.87762
  50 571.015 -7.47066 -2.56369
  51 528.044 -6.76156 -1.83712
  52 490.298 -9.93844 -1.67818
  53 450.253 -10.6446 -1.49514
  54 409.682 -9.45112 -0.616870
  55 366.825 -9.89794 -0.915695
  56 330.475 -10.1894 -1.25873
  57 281.957 -9.56914 -0.968600
  58 231.941 -6.17264 -0.620334
  59 190.523 -4.00129 -0.463417
  60 139.351 -2.51104 -0.0736271
  61 102.229 -2.25623 -2.46820
  62 67.8252 -2.89783 -0.748824
  63 33.0914 0.324096 1.67368
  64 23.8116 2.40463 0.768701
  65 20.9172 0.967368 1.84211
  66 21.5998 0.435258 1.90208
  67 13.6090 1.37709 1.08254
  68 10.1268 1.82207 3.86054
  69 7.82194 0.655842 1.73050
  70 -5.56551 1.38267 1.85611
  71 -12.3202 0.923963 3.79597
  72 -15.9487 0.276445 4.03944
  73 -31.0904 1.27055 3.36787
  74 -37.3541 1.93080 5.86629
  75 -44.7504 1.17307 2.61802
  76 -52.5907 0.866068 3.47245
  77 -56.7560 0.910868 1.78632
  78 -64.7545 2.29834 -0.900052
  79 -66.6352 1.57276 -0.627045
  80 -61.6161 1.15806 -1.72101
  81 -53.5195 1.57789 -3.78016
  82 -44.0656 0.747398 -6.13734
  83 -33.2403 0.430374 -6.54100
  84 -20.0976 -0.607827 -6.93471
  85 -8.92149 -0.503087 -4.12871
  86 -3.79914 -1.43703 -2.61075
  87 -0.598267 -3.77881 -2.29059
  88 -0.973241 -9.65646 -3.98089
  89 -1.12408 -18.4907 -6.87030
  90 -0.160791 -34.3991 -7.30040
  91 0.471941 -47.0899 -9.04487
  92 1.02697 -67.4061 -7.31978
  93 3.06051 -79.3418 -8.51032
  94 0.642950 -83.9760 -6.64926
  95 -0.0147043 -94.7028 -3.29519
  96 2.74598 -88.5861 0.712599
  97 11.3094 -113.438 7.45861
  98 10.7831 -50.5671 21.2854
  99 24.8743 -4.78362 44.1582
  100 72.2615 152.888 127.163
  101 292.996 427.620 339.962
  102 1579.86 174.196 232.191
  103 1335.90 47.6007 83.5510
  104 1274.77 20.3119 28.6426
  105 1241.42 13.1590 -0.164927
  106 1262.93 19.3515 -23.6482
  107 1347.45 40.6123 -68.9350
  108 1563.52 137.266 -215.318
  109 190.974 483.429 -281.166
  110 50.9474 121.515 -99.5592
  111 18.4240 -16.7223 -37.3764
  112 9.79101 -57.5470 -18.7283
  113 11.2339 -118.415 -6.22719
  114 2.61612 -90.7737 0.147349
  115 -0.177855 -95.7884 3.74129
  116 0.539726 -84.3870 6.88728
  117 3.00359 -79.4268 8.60996
  118 1.00520 -67.3552 7.35582
  119 0.455605 -47.0143 9.05671
  120 -0.168758 -34.3079 7.29467
  121 -1.12489 -18.4331 6.85451
  122 -0.975320 -9.60782 3.96647
  123 -0.597758 -3.76056 2.27801
  124 -3.77731 -1.43481 2.60013
  125 -8.88246 -0.505438 4.11709
  126 -20.0465 -0.613474 6.92726
  127 -33.1802 0.423999 6.54186
  128 -44.0298 0.740393 6.14893
  129 -53.5286 1.57278 3.80375
  130 -61.6716 1.15754 1.74671
  131 -66.7517 1.57112 0.652339
  132 -64.9220 2.29774 0.926554
  133 -56.9824 0.913102 -1.76281
  134 -52.8619 0.868829 -3.45461
  135 -45.0447 1.17629 -2.60352
  136 -37.6753 1.93469 -5.85950
  137 -31.4225 1.27426 -3.36212
  138 -16.2793 0.278707 -4.03909
  139 -12.6544 0.927929 -3.80002
  140 -5.88700 1.38820 -1.86251
  141 7.53451 0.659468 -1.74345
  142 9.87296 1.82597 -3.88062
  143 13.3857 1.37826 -1.10019
  144 21.4245 0.434562 -1.91949
  145 20.7766 0.965700 -1.85619
  146 23.6947 2.40181 -0.780833
  147 32.9957 0.322056 -1.68090
  148 67.7389 -2.90864 0.741688
  149 102.151 -2.28271 2.46055
  150 139.290 -2.55770 0.0632255
  151 190.485 -4.06862 0.458169
  152 231.909 -6.25043 0.619770
  153 281.915 -9.63596 0.979610
  154 330.391 -10.2213 1.28119
  155 366.696 -9.85261 0.968169
  156 409.508 -9.29292 0.676321
  157 450.018 -10.2756 1.40727
  158 490.518 -10.0489 1.46239
  159 528.213 -7.42265 1.94444
  160 571.448 -7.35115 2.31619
  161 613.410 -3.37669 1.90418
  162 647.443 -0.345804 0.995736
  163 388.372 -35.2741 -37.1063
  164 386.886 -35.9224 37.0147
  165 121.181 32.8157 -51.7427
  166 122.354 32.9267 51.5439
  167 454.320 -19.7963 123.234
  168 475.524 -22.5204 -120.046
  169 231.699 -12.5101 17.5558
  170 231.657 -12.3919 -17.7603
  171 484.488 -18.5914 -0.382182
  172 475.251 -18.6430 0.577857
  173 651.590 116.503 -14.4026
  174 653.783 7.22300 -73.4509
  175 641.693 11.9321 80.0711
  176 163.095 -6.39936 -35.1899
  177 163.125 -6.35796 35.1365
  178 565.249 -55.5829 22.4817
  179 564.926 -43.4897 -34.9780
  180 9.84707 14.6487 11.1787
  181 10.0837 14.7404 -11.0370
  182 772.113 158.309 16.3294
  183 154.193 70.1444 -111.830
  184 165.025 70.7431 119.442
  185 546.070 -26.6293 15.0745
  186 816.944 174.259 -1.31872
  187 360.323 -14.4198 -6.22562
  188 359.777 -14.7525 6.19363
  189 560.320 -18.9413 -14.0378
  190 740.454 1.41747 -20.7327
  191 151.384 -4.58004 6.93377
  192 151.318 -4.61505 -7.01090
  193 66.5284 7.51546 -24.6079
  194 66.8143 7.43877 24.6661
  195 321.608 -12.1018 -79.1604
  196 320.363 -12.7342 80.1437
  197 382.586 -25.7929 -15.1199
  198 383.334 -25.6494 15.8546
  199 109.485 -3.79603 19.0955
  200 109.321 -3.74775 -19.1267
  201 731.876 -6.29424 57.9607
  202 603.843 -57.8703 -4.31907
  203 570.359 -7.41348 -1.54642
  204 558.386 -8.78250 1.48230
  205 579.495 68.4608 57.7710
  206 26.6496 24.9651 -12.3805
  207 27.5500 24.9368 12.7821
  208 572.286 -22.5269 67.0635
  209 534.253 41.3789 -67.0995
  210 373.885 90.9977 -246.405
  211 393.197 77.0268 229.229
  212 14.1700 13.0348 -4.35346
  213 14.3996 13.0349 4.46572
  214 570.846 -19.7311 -69.4881
  215 975.301 135.482 -9.99913
  216 474.133 -51.0912 48.0705
  217 477.516 -50.8400 -45.7771
  218 473.837 -34.8179 2.13014
  219 580.404 -10.6314 7.09615
  220 290.965 -20.3804 -31.5597
  221 286.647 -20.3081 32.3918
  222 177.849 3.23891 -52.0018
  223 178.113 3.17702 51.6138
  224 598.104 -61.3932 -14.5943
  225 470.059 -36.9258 -4.19580
  226 578.222 -10.4655 -5.20293
  227 455.681 -13.5685 -1.40426
  228 459.429 -12.7986 2.22645
  229 574.884 -26.1250 37.0359
  230 58.8452 0.274919 -20.4347
  231 59.0747 0.251741 20.4395
  232 -6.69922 -4.30580 -19.0251
  233 -6.73603 -4.35291 19.0390
  234 101.445 -4.10291 -11.2374
  235 101.590 -4.11277 11.1648
  236 253.287 -8.27106 7.91470
  237 253.328 -8.39655 -7.96359
  238 285.559 20.4496 -113.564
  239 285.597 17.1708 112.332
  240 582.360 -18.8219 -31.7198
  241 281.454 -16.6750 -49.4478
  242 281.709 -17.1705 48.8424
  243 523.454 8.79613 76.3292
  244 465.549 39.7766 4.65081
  245 502.273 -50.2904 4.23129
  246 2.96478 -10.1759 -16.0927
  247 2.79561 -10.3124 16.2384
  248 34.7266 40.3896 -42.1059
  249 36.8355 39.2419 43.9527
  250 494.146 -49.2360 -7.44602
  251 876.185 174.260 -26.1677
  252 50.3859 33.2470 -20.0231
  253 50.9553 33.2431 20.2174
  254 -17.0580 4.47089 12.0391
  255 -16.9609 4.49420 -11.9710
  256 879.306 164.692 31.5876
  257 319.876 -16.3248 -13.6770
  258 319.652 -16.0900 13.4732
  259 610.975 -39.8845 59.5839
  260 1082.32 176.829 112.313
  261 192.792 -10.3494 -29.2203
  262 192.777 -10.4221 29.2038
  263 629.606 94.7242 -54.0135
  264 1047.25 200.344 -104.286
  265 740.792 79.1481 46.1675
  266 792.817 63.7064 -159.711
  267 501.473 -25.1344 3.50098
  268 574.744 4.03524 -84.3637
  269 539.714 -38.8009 -18.1033
  270 598.194 -11.5665 19.7609
  271 5.79613 5.81701 -8.85905
  272 6.02799 5.79996 8.94091
  273 591.043 -14.4468 -152.620
  274 70.2298 20.1572 -25.3342
  275 70.5503 20.1264 25.4593
  276 578.173 -14.1122 -42.0560
  277 86.6459 96.9977 -116.577
  278 84.8835 -0.435404 -2.65237
  279 84.9782 -0.420661 2.62034
  280 609.184 -36.3693 -62.5337
  281 112.721 50.6445 -64.4077
  282 114.305 50.3995 64.5900
  283 42.2099 -1.07180 14.1408
  284 41.9658 -1.05978 -14.1449
  285 500.658 -24.0117 -3.47454
  286 87.2619 96.0348 119.467
  287 779.322 75.1945 185.251
  288 228.472 -9.50064 -11.0000
  289 228.451 -9.44824 10.8781
  290 404.191 -18.2656 -6.54493
  291 404.006 -19.6099 7.04403
  292 344.919 35.5367 -169.147
  293 550.004 -59.6488 -1.79982
  294 617.902 -4.97352 2.98782
  295 332.548 35.7107 163.998
  296 387.745 -12.2069 -2.33117
  297 387.604 -12.2022 2.64529
  298 540.648 -40.2639 18.4108
  299 614.713 -7.53702 -8.71706
  300 3.39073 2.24587 -11.6099
  301 3.64956 2.22900 11.6513
  302 781.216 154.003 -3.52470
  303 678.914 -28.2964 26.4701
  304 608.324 -4.57274 -0.586270
  305 618.277 -4.01383 0.532943
  306 612.083 -50.6970 60.1813
  307 754.277 84.4712 -41.5757
  308 669.468 124.099 29.7350
  309 306.004 -19.4478 -20.8404
  310 303.379 -19.7828 21.1796
  311 616.954 -4.91618 -1.70178
  312 414.260 -30.4492 -86.3477
  313 408.666 -33.0324 18.8701
  314 389.389 -20.3317 97.5741
  315 610.194 -8.36630 10.6118
  316 151.373 -6.91364 -18.4532
  317 151.488 -6.96229 18.3888
  318 564.408 -14.2752 150.774
  319 366.225 -29.5957 -25.9439
  320 665.512 87.3064 66.7220
  321 218.100 15.1682 -75.5098
  322 210.281 15.8815 74.9697
  323 76.6666 -1.39260 -4.79973
  324 76.7978 -1.38411 4.74895
  325 541.231 -12.7741 3.19079
  326 519.542 -9.45388 -0.126329
  327 516.771 -10.1631 -0.0359264
  328 574.465 -14.8400 44.6810
  329 62.4293 -1.98736 10.7593
  330 62.2152 -1.96987 -10.7973
  331 179.552 -4.52412 -3.99437
  332 179.588 -4.46018 3.96068
  333 6.17868 -22.3280 -7.45991
  334 5.81311 -22.5400 7.89486
  335 460.044 20.3163 52.2237
  336 685.187 -25.6109 -19.4307
  337 449.390 -25.3368 -2.61350
  338 504.111 -12.1772 -0.716168
  339 539.861 66.8350 -31.3195
  340 113.599 -3.73862 -26.3078
  341 113.755 -3.74258 26.2958
  342 437.528 -24.0022 4.78215
  343 131.329 3.84040 -37.5219
  344 131.583 3.73424 37.4307
  345 27.8456 21.2810 -3.85768
  346 28.1480 21.2829 3.98950
  347 527.910 -55.1864 60.3821
  348 1139.00 74.8226 29.3739
  349 482.190 8.02265 -61.6737
  350 397.252 -35.4792 55.1317
  351 395.246 -34.7227 -56.6405
  352 582.854 -8.67510 83.1463
  353 523.456 -3.30125 60.4275
  354 521.336 -53.3431 -62.1109
  355 318.384 -9.42625 1.46604
  356 318.330 -9.51523 -1.39068
  357 576.744 -37.4573 48.6946
  358 789.818 155.883 0.350634
  359 613.972 -7.85213 -14.5896
  360 170.877 -6.65551 -13.6668
  361 170.964 -6.66256 13.5567
  362 580.344 -52.3591 -73.8781
  363 616.307 44.6732 -82.1651
  364 427.423 22.9945 -33.6628
  365 581.122 -38.2854 -56.3601
  366 -18.3132 0.933162 -14.6154
  367 -18.3321 0.908945 14.6338
  368 487.891 -13.5868 -0.587278
  369 -6.91851 -4.07987 -9.09829
  370 -6.90887 -4.08066 9.07791
  371 373.723 202.713 -297.434
  372 17.2626 15.9015 6.08994
  373 17.6443 16.0191 -5.88447
  374 519.850 -3.48021 -59.9508
  375 290.771 -13.2957 10.3667
  376 290.953 -13.4537 -10.4528
  377 -1.62833 -19.8432 16.7030
  378 -1.59707 -19.8077 -16.6877
  379 306.013 211.874 280.812
  380 239.479 -13.0665 -39.2480
  381 239.684 -12.5445 39.2775
  382 77.9952 58.8729 -60.3245
  383 79.5635 58.7535 60.0201
  384 -25.8588 4.63310 3.83030
  385 -25.7243 4.64140 -3.75554
  386 596.105 41.0914 82.9668
  387 456.037 -47.7526 29.3736
  388 456.541 -42.1726 14.8216
  389 549.242 -61.4794 -14.7712
  390 144.888 17.4166 -51.1905
  391 145.370 17.3949 51.1309
  392 13.3846 -11.9740 5.11947
  393 12.7137 -12.2703 -4.16249
  394 567.112 80.5510 20.3229
  395 558.010 -17.5011 11.1313
  396 327.438 -25.8160 36.8587
  397 206.709 -5.59690 -46.3466
  398 206.809 -5.63600 46.0504
  399 412.812 -14.2960 -3.56508
  400 412.397 -12.8040 3.21643
  401 324.767 -26.4668 -38.8256
  402 255.954 -4.59124 -61.5026
  403 255.939 -4.93384 61.9677
  404 583.486 -52.7378 -31.0156
  405 345.841 -27.3000 24.4990
  406 530.100 -17.8964 5.43388
  407 528.953 -16.5247 -4.19301
  408 448.439 -41.8935 -16.3689
  409 629.720 -3.91018 -3.22404
  410 219.623 92.3166 -172.829
  411 599.321 -9.32478 25.0981
  412 628.613 -4.36404 5.23189
  413 236.724 -13.0804 24.4836
  414 236.797 -12.9113 -24.4673
  415 454.034 -47.1922 -30.1395
  416 69.8870 29.8528 27.3936
  417 69.5249 29.8255 -27.4052
  418 1149.95 74.7645 -59.7146
  419 521.050 -30.9980 -8.71951
  420 632.651 -3.38392 1.85285
  421 207.910 86.6543 165.142
  422 940.133 157.534 33.5474
  423 554.850 -10.3037 -2.42732
  424 421.968 -31.6332 -13.1946
  425 180.854 34.8470 -84.9245
  426 192.392 32.2415 84.4120
  427 515.249 -33.7684 8.57414
  428 550.817 -6.97536 -44.0010
  429 6.06886 -0.589228 10.6926
  430 5.79189 -0.583622 -10.6822
  431 203.081 49.5887 -112.163
  432 203.730 49.7584 111.834
  433 29.2878 11.1230 -13.0419
  434 29.5447 11.1013 13.1440
  435 463.051 -11.0947 0.0376157
  436 462.498 -10.8640 0.109085
  437 574.249 -26.6602 -38.8131
  438 -0.508756 -0.315001 19.6038
  439 -0.405217 -0.220118 -19.5275
  440 590.674 -57.1339 25.8526
  441 557.111 -16.5193 -9.59778
  442 897.799 171.461 -32.3495
  443 51.3357 -1.72434 5.22279
  444 51.1421 -1.72460 -5.26652
  445 1066.91 311.233 146.550
  446 23.5068 21.8628 -38.0880
  447 76.2462 3.03080 -25.9507
  448 76.4888 2.97867 25.9570
  449 1066.00 319.038 -143.565
  450 24.9023 24.2820 41.3868
  451 -23.6503 3.43262 -0.310550
  452 -23.4747 3.42796 0.382340
  453 64.9217 44.5690 -37.2544
  454 65.9872 44.6074 37.4392
  455 708.244 113.367 -52.2897
  456 566.657 -23.1789 -23.8542
  457 629.569 -3.43786 -1.53992
  458 592.744 -9.47794 -29.7352
  459 -5.36950 5.20821 17.7663
  460 -5.26383 5.27022 -17.6932
  461 572.716 -23.9609 28.4019
  462 378.615 -22.5541 -12.2129
  463 377.516 -22.7599 11.0129
  464 507.488 -55.6996 -15.3040
  465 365.550 -3.82521 -118.378
  466 555.649 -8.35632 44.8432
  467 453.014 -16.5827 2.55224
  468 657.338 -45.5043 -17.4731
  469 354.389 4.66436 126.580
  470 39.5893 -0.630996 10.3165
  471 39.3385 -0.620392 -10.3324
  472 729.365 143.969 -21.5928
  473 575.040 -6.10339 -0.187212
  474 573.169 -6.68029 -0.308371
  475 442.199 -30.7186 8.04302
  476 203.712 -7.22798 -7.85878
  477 203.721 -7.15378 7.78342
  478 122.546 -1.82074 -31.1155
  479 122.699 -1.84418 31.0711
  480 389.168 15.0564 20.2349
  481 105.808 -3.42009 15.2988
  482 105.649 -3.38934 -15.3598
  483 107.103 9.44331 35.2066
  484 106.755 9.58274 -35.1695
  485 563.914 -43.7688 33.4503
  486 322.118 -20.1415 -58.1816
  487 300.068 -10.8204 5.78865
  488 300.160 -11.0464 -5.79293
  489 325.421 -20.7541 58.1884
  490 874.098 211.447 -29.4252
  491 -13.9444 -1.98810 -11.6053
  492 -13.9346 -1.99926 11.5970
  493 232.685 -7.16282 -3.34230
  494 232.701 -7.07120 3.33218
  495 0.487256 -36.1160 -13.2862
  496 0.394942 -36.2359 13.4112
  497 513.363 -9.79093 0.0465516
  498 387.196 18.0507 -10.0407
  499 506.735 52.8589 28.3954
  500 319.367 -2.56908 -95.5728
  501 164.796 -8.47971 23.0426
  502 164.756 -8.41009 -23.0703
  503 -32.9094 1.17967 -4.30286
  504 -32.6650 1.17220 4.33723
  505 610.337 -9.57874 -81.2115
  506 65.3577 0.212185 -3.42609
  507 65.4763 0.219758 3.38944
  508 508.065 -40.8248 -5.31120
  509 540.455 -46.3935 -16.6517
  510 115.402 91.7189 -120.096
  511 454.471 16.2713 -182.441
  512 9.05407 14.6273 6.17241
  513 9.27711 14.6611 -6.04662
  514 286.586 -14.0648 -14.2973
  515 286.464 -13.9523 14.0578
  516 770.740 39.9796 -4.96827
  517 561.326 -33.7701 -30.6313
  518 112.615 87.2149 118.527
  519 555.902 -61.7093 23.5204
  520 535.681 -51.0126 11.1151
  521 127.750 -3.09054 -10.1121
  522 127.848 -3.08022 10.0303
  523 454.786 5.39677 47.8728
  524 325.282 -24.5956 -25.5526
  525 588.812 -14.3090 17.2178
  526 -2.29229 -14.3554 -11.3343
  527 -2.29789 -14.3418 11.3159
  528 419.142 -36.5246 64.9632
  529 629.430 -45.9523 -37.1644
  530 811.023 67.1546 -42.3379
  531 447.910 -17.0781 -2.55665
  532 146.662 -2.84484 -2.87754
  533 146.718 -2.79805 2.85503
  534 288.271 2.74210 92.3350
  535 782.462 136.697 28.7312
  536 778.516 177.559 -284.086
  537 712.099 8.98647 32.7328
  538 517.174 -57.1216 12.6540
  539 1183.72 94.4005 80.4078
  540 892.218 223.400 39.5589
  541 138.497 -5.86386 25.0570
  542 138.379 -5.80825 -25.0863
  543 497.846 -41.9782 2.14382
  544 42.3583 18.4356 -12.8596
  545 42.6488 18.4297 12.9786
  546 621.896 -49.7884 37.3751
  547 521.223 28.9674 70.0082
  548 622.418 -4.66186 9.75899
  549 466.859 -29.3368 -1.43875
  550 642.325 14.1699 -192.270
  551 1004.10 281.674 195.114
  552 502.636 -11.9449 0.239131
  553 613.272 -6.90893 -16.3055
  554 103.137 42.3448 -49.3069
  555 103.867 41.8462 49.1221
  556 359.506 -15.8288 -8.25456
  557 359.356 -15.4978 8.37583
  558 4.78245 -36.6850 -8.37111
  559 629.405 -20.2832 70.7527
  560 27.5044 23.8706 -1.62765
  561 27.8952 23.9406 1.81533
  562 5.51481 -35.1383 9.72702
  563 574.964 -25.9198 -58.5545
  564 660.408 44.4273 -76.5640
  565 658.532 50.0877 76.7074
  566 34.2342 32.8970 29.3931
  567 32.6219 33.5260 -28.8679
  568 -9.16460 0.528796 8.25077
  569 -9.44546 0.534836 -8.23354
  570 599.866 23.1660 197.740
  571 339.074 -19.7660 15.0235
  572 339.392 -19.6992 -15.2206
  573 720.591 -4.71348 -106.767
  574 109.647 -1.53468 5.84744
  575 109.556 -1.55553 -5.90254
  576 61.0056 -1.15936 -1.34156
  577 61.0994 -1.15176 1.32868
  578 797.434 150.888 -20.3573
  579 79.1250 133.242 -131.087
  580 437.050 9.26225 -40.6672
  581 603.048 95.8594 -34.2202
  582 10.2057 2.72971 10.0051
  583 10.5698 2.86752 -9.76174
  584 583.935 297.875 330.754
  585 510.463 -16.0733 -1.84129
  586 25.1873 5.15775 -14.6138
  587 25.4420 5.12091 14.6793
  588 590.206 -46.6194 47.6320
  589 93.1980 129.523 133.467
  590 428.837 -11.0005 1.08767
  591 428.959 -10.9255 -1.08920
  592 -0.216060 -29.1607 14.2298
  593 -0.170154 -29.1149 -14.1829
  594 729.677 140.714 -1.16890
  595 462.975 -35.8312 89.8869
  596 442.983 -20.6076 -3.90807
  597 443.235 24.5103 192.219
  598 -35.5009 2.02553 8.28555
  599 -35.4668 2.03652 -8.24867
  600 720.454 14.6043 -35.6365
  601 942.284 178.498 -143.272
  602 281.390 29.8868 -130.788
  603 159.129 -6.85303 -30.3269
  604 159.289 -6.85698 30.3392
  605 646.373 -2.73940 2.38213
  606 438.868 -21.0052 3.41453
  607 578.691 -9.50788 4.94177
  608 574.931 -26.0092 57.0924
  609 38.9281 -0.986932 5.26246
  610 38.6990 -0.982909 -5.29447
  611 346.389 -13.4326 -4.91583
  612 346.350 -13.1150 4.81153
  613 219.246 4.51440 -63.3333
  614 217.904 4.58082 63.0969
  615 814.960 59.3977 61.4415
  616 1304.69 98.4034 -141.695
  617 0.561929 -0.871468 7.11325
  618 0.266487 -0.868798 -7.10898
  619 211.037 -9.16516 14.3207
  620 211.004 -9.15245 -14.4739
  621 764.138 48.7404 15.4048
  622 637.844 -3.24334 -0.753196
  623 636.537 -4.20911 0.196826
  624 482.047 0.255268 47.3012
  625 672.107 -34.6856 -68.4509
  626 373.951 -31.1975 30.3438
  627 -5.37367 8.78711 -6.10487
  628 -5.54057 8.77151 6.20321
  629 594.632 13.6772 86.4904
  630 242.706 -14.2980 -31.9736
  631 242.507 -14.5246 32.0310
  632 482.737 -29.2362 -0.338742
  633 591.125 -14.0056 -15.5016
  634 345.466 -27.7937 -43.4341
  635 565.845 68.4278 -52.6333
  636 380.039 -25.8659 -74.1310
  637 151.122 -4.05544 -5.40818
  638 151.178 -4.01263 5.35147
  639 348.888 -28.2487 43.6746
  640 736.227 121.924 45.0354
  641 588.137 -27.6474 72.0341
  642 481.399 -23.0425 0.848132
  643 349.940 -10.7824 2.72607
  644 349.854 -10.8001 -2.66250
  645 268.164 -10.7797 -10.4141
  646 268.084 -10.6771 10.3281
  647 564.459 -51.4874 -24.7716
  648 293.952 -17.3477 18.0905
  649 294.242 -17.2780 -18.3771
  650 576.287 88.1999 -6.97282
  651 521.841 -28.6654 9.06496
  652 643.707 -3.59419 -3.92784
  653 559.750 -9.42765 -76.8553
  654 90.8920 -3.83849 20.1759
  655 90.7080 -3.81236 -20.1847
  656 630.275 -4.11405 -8.88422
  657 118.692 61.9448 -85.8308
  658 120.672 61.8217 86.2390
  659 644.251 -34.4228 90.8098
  660 228.888 58.3734 137.770
  661 65.0178 -0.562287 20.1575
  662 64.8033 -0.549097 -20.1591
  663 551.451 -32.6639 114.420
  664 539.612 86.9442 -259.048
  665 539.542 17.9894 -77.2344
  666 702.392 127.992 40.1785
  667 473.521 -22.6215 1.24007
  668 846.040 150.348 -3.66072
  669 -35.9874 1.96363 -3.20885
  670 -35.7826 1.95904 3.25610
  671 379.863 3.33813 -137.659
  672 42.1007 -0.589465 3.95814
  673 41.9223 -0.590889 -3.99192
  674 473.832 -38.5716 -88.9839
  675 163.288 21.8932 -61.4017
  676 162.053 21.9884 61.3809
  677 8.15266 8.09850 -6.12781
  678 8.37709 8.08990 6.22703
  679 405.833 -35.5961 -24.1336
  680 571.104 -5.65978 -29.2982
  681 279.998 -9.52529 -3.64574
  682 280.022 -9.43482 3.66924
  683 206.130 -10.7632 -20.9334
  684 206.303 -10.9055 20.8736
  685 40.4200 33.1608 -15.2770
  686 41.0490 33.2421 15.4960
  687 577.233 -8.48599 1.92290
  688 267.280 -17.4197 27.0727
  689 268.886 -17.1357 -27.0594
  690 641.454 -48.7368 1.26842
  691 532.116 -53.5127 -5.32154
  692 421.310 -13.6480 -2.02746
  693 419.895 -12.8663 2.20491
  694 583.702 -59.7791 39.3126
  695 940.593 191.132 56.2968
  696 513.699 -19.8005 -140.199
  697 587.665 -17.0276 29.1710
  698 587.486 -20.8021 -77.8392
  699 193.766 -6.31092 -10.1183
  700 193.789 -6.27032 10.0173
  701 458.232 -4.94848 156.470
  702 1240.17 160.909 146.941
  703 93.9617 26.3957 -37.1001
  704 94.1061 26.5768 37.2161
  705 574.917 -7.23253 -0.887673
  706 579.266 -6.59733 0.925885
  707 249.620 133.797 -219.795
  708 613.650 -3.87070 16.4789
  709 531.175 -10.9414 0.863778
  710 707.636 139.141 -14.3129
  711 78.5520 12.9489 -27.4217
  712 78.8812 12.8706 27.5195
  713 650.283 -2.23539 0.230009
  714 535.543 -22.0909 -9.45412
  715 666.642 -7.28158 59.8493
  716 281.278 -19.9816 -41.1128
  717 281.974 -19.1615 40.7804
  718 74.4010 -2.32146 15.2545
  719 74.1967 -2.29390 -15.2853
  720 599.643 -5.47824 -2.12220
  721 517.954 112.134 273.948
  722 5.24431 5.93637 15.2274
  723 5.44132 6.05942 -15.0924
  724 602.477 -7.73894 -6.57301
  725 586.512 -12.1067 9.52970
  726 479.979 0.832305 -50.7319
  727 4.88594 -49.8882 -5.12058
  728 4.59354 -50.4178 5.65616
  729 220.349 60.3069 -137.866
  730 473.313 -46.6283 -65.8944
  731 248.343 132.450 221.665
  732 642.983 -2.36685 1.26801
  733 636.673 95.8171 54.1035
  734 474.992 42.8536 -19.8383
  735 824.047 165.949 6.99989
  736 637.458 -3.35281 5.48598
  737 -31.3838 0.920727 5.93234
  738 -31.6559 0.925699 -5.90944
  739 681.197 -34.7742 27.1732
  740 446.981 -14.6496 -2.56795
  741 169.621 -0.153296 -44.5792
  742 169.856 -0.314523 44.3648
  743 585.230 -8.32525 -3.20807
  744 1026.64 145.025 -55.0765
  745 83.2199 -2.25266 -9.90864
  746 83.3974 -2.26520 9.85264
  747 647.518 -2.43388 -2.37952
  748 143.053 -6.28329 -13.7540
  749 143.163 -6.30516 13.6701
  750 642.547 -23.4578 -62.6384
  751 594.722 -6.50949 23.2388
  752 540.733 -2.72143 76.4050
  753 647.443 -2.51838 0.301359
  754 608.735 -5.90386 4.84899
  755 406.917 -23.1344 -8.15107
  756 504.141 -15.0360 0.889322
  757 574.046 -35.3507 -47.4517
  758 559.305 -35.6926 29.2240
  759 658.669 81.3444 -67.7604
  760 551.317 -31.8120 20.7251
  761 584.001 -34.0614 61.7207
  762 344.507 -24.0991 19.4851
  763 13.4119 1.16696 2.49357
  764 12.7593 1.11763 -1.87379
  765 509.300 -9.61828 -0.377137
  766 508.258 -9.56644 0.194273
  767 604.208 -4.08965 -0.145044
  768 606.171 -3.98413 0.278567
  769 583.477 -16.7787 36.4317
  770 537.880 -47.4635 84.7206
  771 445.654 -36.9307 11.8985
  772 397.723 -24.8852 11.1394
  773 1045.84 133.533 62.8908
  774 587.633 -15.8149 -22.4264
  775 348.511 64.2673 -205.531
  776 547.581 -28.1289 -17.6354
  777 30.2928 0.306862 -14.9893
  778 30.5470 0.286968 15.0133
  779 502.641 44.1727 -44.4117
  780 1204.58 36.5277 -15.4433
  781 619.555 17.6846 -83.7371
  782 26.1315 31.2612 -54.3478
  783 642.481 114.638 13.6822
  784 496.737 -32.7173 2.90404
  785 561.340 -13.3578 74.4336
  786 471.028 -48.6093 66.2436
  787 738.891 4.44275 128.976
  788 28.1192 36.9473 57.7154
  789 343.934 -1.31166 108.626
  790 474.671 -14.0845 0.862729
  791 527.901 -45.4842 -85.6830
  792 330.760 -26.2159 -31.4711
  793 262.129 12.8102 -95.8257
  794 613.275 -8.00123 81.9863
  795 397.252 -28.0136 16.4031
  796 89.2840 -2.31814 8.62079
  797 89.1420 -2.32040 -8.68593
  798 572.804 -3.28564 25.8976
  799 525.462 3.35963 -74.6119
  800 -43.5098 2.12505 4.83116
  801 -43.4438 2.12946 -4.79009
  802 386.854 -13.6657 -3.36229
  803 385.799 -13.0244 3.23178
  804 288.384 33.3382 132.529
  805 261.592 -15.7640 20.8215
  806 261.917 -15.4039 -20.9988
  807 646.799 -1.93215 -1.13066
  808 236.782 18.9529 93.6066
  809 20.8225 -0.220757 5.49777
  810 20.5488 -0.216068 -5.51579
  811 566.260 -17.2775 57.1537
  812 594.681 -6.46857 1.55167
  813 -31.7904 0.505706 8.56160
  814 -31.8000 0.516540 -8.54417
  815 375.074 -23.0679 82.6010
  816 75.6477 66.0443 -73.9609
  817 76.5301 63.2946 72.9412
  818 370.988 16.1407 8.39730
  819 5.63027 -0.466555 -6.27019
  820 5.93015 -0.470299 6.26732
  821 429.372 -40.3090 -62.2302
  822 580.418 -59.9264 -11.5597
  823 -2.95165 -2.79564 -3.75272
  824 -2.94245 -2.78860 3.73832
  825 47.6174 0.923489 -1.36907
  826 47.7267 0.928767 1.34962
  827 518.041 -46.5114 6.61557
  828 438.697 -44.6759 45.2106
  829 482.464 -10.1344 -0.0352271
  830 437.729 -36.0815 -13.4465
  831 171.896 -3.18386 -1.18656
  832 171.940 -3.12255 1.17262
  833 -48.5222 1.05944 2.44631
  834 -48.4118 1.05824 -2.40543
  835 541.231 -8.88611 -1.10259
  836 493.867 20.0517 -63.8227
  837 547.841 -12.5995 -4.54530
  838 331.476 -25.8261 30.1495
  839 550.016 -9.30432 -61.0515
  840 582.814 -18.1904 -37.6133
  841 543.273 -7.90438 0.948532
  842 402.500 -14.1698 111.245
  843 430.065 -42.2871 -27.8133
  844 263.546 -2.00251 -74.5037
  845 264.948 -0.174939 74.8889
  846 369.147 -28.4192 -21.1073
  847 608.904 67.1043 71.7714
  848 570.952 -57.6088 -50.4588
  849 217.339 -7.30193 -5.25197
  850 217.342 -7.20779 5.21117
  851 440.001 -11.9046 1.46246
  852 440.029 -11.9862 -1.37350
  853 528.296 -3.76511 -40.1366
  854 186.683 -8.06300 -16.9542
  855 186.799 -8.12093 16.8392
  856 2.31831 -52.0956 -9.69251
  857 2.20420 -52.3239 9.91481
  858 103.659 -1.48968 -0.0815965
  859 103.581 -1.51588 0.0648767
  860 537.678 -10.2921 -1.50328
  861 414.476 -39.5676 41.1806
  862 634.211 -52.1089 11.4072
  863 392.272 8.18895 32.1382
  864 549.900 -14.6120 5.33430
  865 602.319 -52.7461 -34.7300
  866 94.9284 5.35321 -30.6137
  867 95.2035 5.26201 30.6106
  868 480.103 -10.7224 0.0519645
  869 391.306 -15.1489 -5.62080
  870 390.022 -15.0369 5.97073
  871 604.441 93.8804 38.6056
  872 214.990 -2.48260 -53.1862
  873 214.824 -2.72373 52.9926
  874 418.327 -38.3167 22.9977
  875 44.2333 27.4691 -13.4390
  876 44.6396 27.4243 13.5609
  877 355.640 -25.1382 68.2052
  878 423.938 -28.1624 -8.94910
  879 531.059 -3.90735 40.5487
  880 516.692 -57.5418 26.3066
  881 591.081 -44.1727 -51.9764
  882 413.460 -39.8866 -41.6657
  883 346.876 -24.0144 -18.7802
  884 1088.37 88.8453 -17.0941
  885 540.650 -56.9492 1.63792
  886 18.5108 19.0815 3.21528
  887 18.7994 19.1226 -3.06151
  888 472.106 -47.5499 15.4849
  889 515.791 -57.1420 -40.9340
  890 20.4640 16.2155 -2.65443
  891 20.7196 16.2240 2.77389
  892 202.562 -7.52222 40.9917
  893 202.651 -7.72857 -41.1960
  894 242.935 -12.5649 44.8358
  895 242.824 -12.8432 -45.0952
  896 745.333 149.269 15.9948
  897 -1.00474 -23.0111 -10.8951
  898 -1.01241 -22.9793 10.8853
  899 178.046 14.5535 -58.4964
  900 177.229 14.2685 57.9928
  901 1243.30 40.2621 -62.0982
  902 40.6681 -0.183151 2.28948
  903 40.5199 -0.187240 -2.31609
  904 2.53955 -56.5499 1.30795
  905 2.92059 -55.5012 -0.421674
  906 -24.6184 -0.225966 8.99485
  907 -24.6498 -0.218110 -8.99295
  908 142.628 41.5820 -68.5184
  909 144.803 40.1983 67.6343
  910 -9.86841 1.04233 -18.4685
  911 -9.92159 0.997307 18.5014
  912 47.0262 3.38293 -20.4294
  913 47.2854 3.33793 20.4635
  914 157.466 -2.18370 37.9562
  915 157.339 -2.17545 -38.1133
  916 130.991 -4.63969 -30.7617
  917 131.137 -4.63346 30.7283
  918 634.121 -2.76703 -8.92686
  919 315.330 70.5982 191.870
  920 434.212 -43.0839 26.4364
  921 313.140 -22.9580 24.7429
  922 596.258 62.3519 -71.2844
  923 1223.06 25.9797 24.9912
  924 696.459 35.4389 -63.1753
  925 127.337 -4.82749 19.4399
  926 127.196 -4.77538 -19.4975
  927 30.5837 -0.772638 -14.3069
  928 30.8371 -0.779155 14.3119
  929 0.243484 -9.66327 -19.8024
  930 0.151257 -9.75570 19.8703
  931 323.520 -15.2112 11.7007
  932 323.670 -15.4781 -11.7423
  933 44.5612 10.4035 -18.8293
  934 44.8354 10.3590 18.9197
  935 201.546 -9.25371 -35.1019
  936 201.695 -9.25775 35.0901
  937 431.718 -1.30657 -37.7143
  938 208.432 -11.5278 -24.8997
  939 208.321 -11.4177 24.9763
  940 483.830 -15.2887 1.04505
  941 585.939 -32.7867 -66.7059
  942 264.618 -11.3343 12.0986
  943 264.721 -11.4263 -12.2276
  944 -10.7773 -1.10216 -6.51256
  945 -10.7463 -1.10478 6.49763
  946 592.230 -42.2378 -103.665
  947 570.282 -33.6915 40.7268
  948 501.450 -35.9450 -4.84225
  949 499.469 17.8065 67.1602
  950 230.890 -13.2708 -27.9199
  951 230.919 -13.0379 27.9977
  952 552.905 22.2028 80.4153
  953 520.602 45.7313 53.0396
  954 1022.09 121.949 21.9716
  955 531.123 -20.4859 6.21784
  956 288.869 -9.48936 -5.49030
  957 288.847 -9.32963 5.52755
  958 478.741 -39.9266 3.71965
  959 665.278 121.710 -31.3455
  960 577.371 -7.74202 -2.02130
  961 387.651 -11.0501 1.84190
  962 387.514 -10.9772 -1.73657
  963 52.0859 44.9518 -34.7270
  964 53.3381 44.9041 34.9581
  965 91.9386 262.458 -212.489
  966 551.216 -12.5702 60.6400
  967 677.129 -9.23447 -51.9070
  968 -7.71115 6.75374 1.48352
  969 -7.52723 6.75421 -1.38962
  970 1332.60 325.676 -256.526
  971 581.084 -61.9803 -1.09900
  972 617.767 -54.6471 -32.9436
  973 573.141 -48.7933 35.4085
  974 713.324 139.363 11.8031
  975 54.2289 62.3407 -69.3113
  976 131.709 229.396 210.613
  977 -2.80865 -7.12455 20.1275
  978 -2.75167 -7.05674 -20.0941
  979 555.160 -15.6382 7.01177
  980 889.842 156.183 -21.7415
  981 55.7343 61.1234 71.7810
  982 -2.41378 -8.42637 -7.24236
  983 -2.41388 -8.40185 7.22244
  984 479.130 -12.9341 -1.19661
  985 362.888 -29.2306 -32.9534
  986 577.786 -45.2848 -43.3990
  987 169.989 45.8807 -89.0195
  988 172.655 46.6179 89.2414
  989 564.486 -13.8606 -53.6677
  990 563.384 -19.0374 14.9323
  991 -13.7524 4.34305 15.8531
  992 -13.6769 4.38372 -15.7979
  993 346.620 -22.7505 -64.4245
  994 573.160 37.7248 -80.1100
  995 424.347 -17.4112 4.00829
  996 310.783 -9.90224 1.18383
  997 310.720 -9.95617 -1.14987
  998 -6.15762 -7.01836 -14.8292
  999 -6.16589 -7.03344 14.8148
  1000 571.044 -21.3775 -19.0381
  1001 542.012 -7.79775 0.206131
  1002 541.519 -7.80709 0.00248126
  1003 752.212 126.315 -40.0872
  1004 143.214 11.8027 -46.8433
  1005 143.570 11.5685 46.7613
  1006 96.0831 -1.13999 -25.7313
  1007 96.2668 -1.15821 25.7133
  1008 624.012 35.2422 84.7137
  1009 583.677 -12.2494 -10.0098
  1010 110.369 16.6119 -38.8647
  1011 110.797 16.4930 39.0026
  1012 605.134 -4.51224 -1.27686
  1013 571.675 -25.3836 -30.2739
  1014 558.335 -61.7132 -31.0246
  1015 23.5261 21.5861 3.70855
  1016 22.9253 21.4846 -3.43420
  1017 -25.0481 4.67498 8.80859
  1018 -24.9498 4.68868 -8.74105
  1019 359.612 13.1152 -14.0288
  1020 955.369 242.736 -75.6544
  1021 445.034 -33.3601 -7.42770
  1022 298.602 -13.0802 -66.0924
  1023 702.646 -23.9564 -3.72226
  1024 299.758 -13.0453 66.9684
  1025 509.068 -58.2755 46.6419
  1026 576.681 -23.9662 -47.5823
  1027 208.895 -5.31141 -1.67618
  1028 208.927 -5.23289 1.66777
  1029 398.094 -31.7964 -19.2408
  1030 248.495 -9.54988 -52.3024
  1031 248.431 -9.62148 52.0786
  1032 84.3504 55.6769 -57.2176
  1033 85.6386 55.5525 57.3884
  1034 178.211 -5.80755 -5.88419
  1035 178.244 -5.74411 5.82479
  1036 511.805 -17.8097 2.21518
  1037 434.020 4.17028 -158.122
  1038 529.965 -18.6750 -6.32982
  1039 481.709 -53.0153 -30.3079
  1040 322.801 -14.5571 8.29961
  1041 323.044 -14.6546 -8.31643
  1042 613.247 -4.91844 1.61833
  1043 552.969 -14.6338 -6.53662
  1044 377.010 9.35529 26.5540
  1045 595.483 -6.00373 -21.6591
  1046 235.576 70.9670 155.557
  1047 610.860 -5.94591 -17.5333
  1048 166.575 27.6907 -68.0837
  1049 161.838 27.9825 65.5100
  1050 725.687 -7.11432 1.50699
  1051 71.0529 36.1603 -31.5783
  1052 71.6792 35.9143 31.5841
  1053 12.6330 2.75160 3.37966
  1054 13.2034 2.86398 -3.00487
  1055 108.544 -2.76619 6.93892
  1056 108.434 -2.78203 -7.00752
  1057 266.911 71.7266 -171.400
  1058 1370.96 372.021 276.179
  1059 569.424 -21.3495 19.5136
  1060 513.592 -57.1683 -24.2552
  1061 361.608 -29.7936 -50.9148
  1062 -5.26963 8.58854 12.8990
  1063 -5.13043 8.63525 -12.8047
  1064 406.415 -22.1439 6.88689
  1065 446.037 -18.1016 2.90260
  1066 -0.146447 -32.5089 10.4096
  1067 -0.135515 -32.5467 -10.4085
  1068 71.1168 43.5868 -36.9648
  1069 71.9248 43.5212 37.1697
  1070 401.250 -20.5029 -6.63421
  1071 36.4324 14.8658 13.1545
  1072 36.1624 14.8822 -13.0418
  1073 606.879 -22.6204 77.5113
  1074 441.828 -45.5133 -44.9843
  1075 363.703 -30.2661 50.9184
  1076 580.736 -10.3993 -82.8811
  1077 603.268 -7.77548 7.23656
  1078 226.559 35.2634 106.062
  1079 228.166 33.7280 -104.356
  1080 360.554 -16.9716 -89.7064
  1081 503.872 -19.5747 -1.98445
  1082 413.766 -25.9260 10.9328
  1083 481.927 -45.4295 -7.34125
  1084 649.405 -2.78009 -4.29146
  1085 361.379 -17.7262 9.68015
  1086 361.226 -18.6595 -9.86260
  1087 14.0770 15.9584 8.97881
  1088 14.3734 16.0708 -8.80705
  1089 586.740 22.9947 -85.9598
  1090 138.216 6.41605 -41.6336
  1091 138.584 6.27091 41.5436
  1092 106.372 1.58146 -30.4083
  1093 106.602 1.52659 30.3707
  1094 657.245 -20.0876 128.987
  1095 575.762 -26.6655 46.6434
  1096 288.322 -13.4295 -56.6927
  1097 657.913 -2.98414 -2.53601
  1098 750.858 143.463 -29.6968
  1099 601.608 -6.95120 -4.19272
  1100 569.428 -60.6274 11.4385
  1101 425.150 -31.4852 79.5361
  1102 660.786 -1.30397 0.251189
  1103 376.342 11.6034 -22.4807
  1104 485.198 -51.8715 -17.3918
  1105 288.805 -14.0207 56.1544
  1106 489.544 -45.0440 4.56770
  1107 604.153 -9.53223 14.8076
  1108 451.726 28.6024 34.7158
  1109 309.570 -23.0120 -46.0204
  1110 900.336 142.736 -68.2965
  1111 688.635 34.5762 67.1501
  1112 528.091 65.7588 8.40461
  1113 655.875 -0.372016 2.06737
  1114 270.673 -17.2577 -35.9429
  1115 183.715 117.975 -173.075
  1116 325.431 9.84941 -125.242
  1117 373.371 -29.3391 24.3997
  1118 317.383 -24.0216 43.5018
  1119 270.087 -16.4548 36.2612
  1120 559.459 5.98331 84.2394
  1121 421.561 -16.2749 -3.48914
  1122 648.425 -5.22501 6.04974
  1123 -4.24435 0.449059 19.8158
  1124 -4.16552 0.518489 -19.7643
  1125 440.440 -14.3061 2.23581
  1126 1.08779 6.24174 17.0849
  1127 1.23153 6.33386 -16.9840
  1128 255.878 -8.72667 6.42297
  1129 255.882 -8.84602 -6.42882
  1130 616.039 -3.56717 14.5431
  1131 498.498 -31.6186 -3.50613
  1132 467.966 -26.3430 1.81121
  1133 521.675 -37.2974 11.6266
  1134 164.010 83.7131 -130.773
  1135 510.651 -20.8642 3.50768
  1136 85.1674 1.13968 -25.1438
  1137 85.3868 1.10152 25.1360
  1138 111.222 73.0048 -94.0083
  1139 808.563 113.721 11.9755
  1140 69.9028 -2.90437 14.8404
  1141 69.6905 -2.88180 -14.8554
  1142 113.198 72.0247 91.0411
  1143 470.147 -40.0397 -5.60263
  1144 246.562 -12.0125 14.6404
  1145 246.583 -12.0595 -14.8313
  1146 944.242 201.642 -60.0120
  1147 516.342 -51.7625 -3.12147
  1148 181.190 110.903 172.808
  1149 16.5674 3.91027 -18.2939
  1150 17.7604 4.12009 19.6777
  1151 553.411 69.3536 42.0242
  1152 45.3969 23.0027 -13.7825
  1153 45.7377 23.0147 13.8851
  1154 519.593 -45.6228 -7.41920
  1155 -0.217790 -49.7576 -9.57405
  1156 -0.241114 -49.7569 9.61767
  1157 554.434 -46.8800 -23.2301
  1158 4.44085 0.625094 4.88590
  1159 4.13629 0.629392 -4.89389
  1160 90.5765 32.7932 -39.3825
  1161 91.0567 32.9399 39.0772
  1162 -18.6404 0.0404053 -5.98760
  1163 -18.3334 0.0384644 5.99504
  1164 549.822 -7.79141 -0.0310081
  1165 -51.8020 1.63532 0.107102
  1166 -51.6481 1.63479 -0.0690069
  1167 300.100 -23.9002 -34.9837
  1168 8.27050 -62.2687 -10.4440
  1169 159.331 -4.65421 10.9376
  1170 159.257 -4.66749 -11.0345
  1171 471.419 -10.9327 1.04991
  1172 472.289 -10.7050 -0.961124
  1173 8.88446 -58.8553 12.1765
  1174 557.394 -29.8908 -24.3173
  1175 631.656 -3.36948 10.4040
  1176 566.938 -36.5931 -37.0752
  1177 504.970 4.20004 66.6451
  1178 3.17397 -17.5738 13.3820
  1179 3.41914 -17.4189 -13.1292
  1180 368.448 -27.5792 20.1114
  1181 -23.7495 2.50151 12.7667
  1182 -23.7053 2.52197 -12.7263
  1183 932.597 146.967 10.9598
  1184 1066.24 358.082 -250.809
  1185 579.170 -55.6113 29.3991
  1186 249.865 -7.93408 -1.11765
  1187 249.894 -7.85135 1.11872
  1188 1157.05 112.521 -104.744
  1189 96.9848 -2.44408 15.3778
  1190 96.8078 -2.40933 -15.4227
  1191 547.139 -1.76932 -26.0923
  1192 353.848 -28.9394 39.3625
  1193 572.792 -55.5194 -19.4415
  1194 554.932 -40.6591 -27.5226
  1195 343.959 -11.5747 93.8141
  1196 132.250 23.8958 -52.5209
  1197 132.196 23.6874 52.2577
  1198 171.074 64.1333 -111.849
  1199 171.341 59.4688 111.871
  1200 53.5185 14.0406 -20.0635
  1201 53.8132 14.0024 20.1716
  1202 687.672 120.156 -45.4362
  1203 38.4959 35.7843 -19.5552
  1204 39.3345 35.8525 19.8113
  1205 495.255 -38.7834 1.77496
  1206 903.874 148.085 75.4965
  1207 130.501 -5.25959 -10.7906
  1208 130.611 -5.25864 10.7054
  1209 578.249 445.256 -360.153
  1210 476.096 28.6315 -53.3869
  1211 441.194 33.4715 21.9244
  1212 64.4142 25.6468 -23.6373
  1213 64.7071 25.6530 23.7532
  1214 27.6419 -0.148182 3.55149
  1215 27.4223 -0.147990 -3.57718
  1216 547.135 -44.2319 21.5809
  1217 536.970 -22.8529 10.6762
  1218 369.154 113.328 -263.839
  1219 844.241 185.438 -17.0809
  1220 369.038 -10.3991 -102.765
  1221 473.711 -16.3523 -1.78396
  1222 41.7015 -2.27252 -0.754889
  1223 41.7895 -2.27048 0.750809
  1224 -5.88458 3.74536 -9.07471
  1225 -5.64467 3.73079 9.13473
  1226 322.256 4.24591 -107.834
  1227 580.329 -14.0293 13.3484
  1228 383.005 9.03293 145.043
  1229 514.545 -26.7535 -6.75231
  1230 269.310 100.415 -209.934
  1231 415.712 -18.8758 -110.538
  1232 493.169 -52.6273 14.6715
  1233 599.072 -10.1729 23.2927
  1234 525.858 -12.8341 -1.77512
  1235 298.924 -22.4976 35.1571
  1236 658.626 -34.2274 -38.7275
  1237 631.508 56.6234 79.9813
  1238 279.927 1.46261 -86.3280
  1239 616.287 -5.08560 1.36031
  1240 515.786 63.6708 -12.0346
  1241 228.915 -8.46120 -10.6861
  1242 228.891 -8.38374 10.5906
  1243 942.431 231.368 69.0980
  1244 1265.00 33.5914 58.1121
  1245 1.26392 -60.4614 -9.43898
  1246 1.22572 -60.5203 9.51393
  1247 146.549 79.7998 122.932
  1248 345.255 -11.4607 -2.91823
  1249 345.328 -11.4031 3.04001
  1250 466.230 -47.1654 -18.0793
  1251 561.219 46.9031 72.7298
  1252 575.098 -12.8032 -7.93960
  1253 659.512 -2.25436 -0.713840
  1254 1139.10 256.413 -163.932
  1255 192.802 -7.45911 11.3494
  1256 192.763 -7.47217 -11.4671
  1257 555.028 -51.4450 21.7265
  1258 957.747 248.480 -87.8147
  1259 537.515 -24.7580 -12.2465
  1260 397.988 -28.6110 -15.2611
  1261 484.759 -52.4106 29.7145
  1262 473.914 -25.1149 -0.701138
  1263 19.0919 13.1329 -27.0259
  1264 643.333 -36.8751 48.2547
  1265 523.475 -35.1860 -11.4445
  1266 20.9271 14.0369 29.3970
  1267 536.887 -40.1827 -104.534
  1268 506.091 37.1670 -216.114
  1269 827.281 113.804 -3.49210
  1270 661.791 -1.02457 -0.160228
  1271 660.745 -1.62548 0.534567
  1272 532.052 -32.0807 13.1168
  1273 211.456 25.1932 -85.3396
  1274 605.007 -52.4873 38.2235
  1275 1015.55 235.039 113.496
  1276 259.175 93.2304 204.846
  1277 8.43980 3.22219 13.1594
  1278 8.71095 3.36039 -12.9730
  1279 632.227 -47.7136 -60.3370
  1280 265.259 -15.0154 -17.4006
  1281 265.231 -15.0559 17.1464
  1282 593.418 -38.2396 63.2192
  1283 31.0154 0.0348239 15.9721
  1284 30.7643 0.0463860 -15.9610
  1285 -2.95891 -11.9924 16.9359
  1286 -2.93723 -11.9669 -16.9412
  1287 117.839 -3.97538 -14.0123
  1288 117.979 -3.99779 13.9401
  1289 318.291 -21.4481 -51.8131
  1290 321.722 -11.7714 4.00247
  1291 321.705 -11.9919 -3.88697
  1292 660.158 -1.00005 0.378668
  1293 596.081 -9.74776 -26.3627
  1294 57.0960 1.97929 -20.4396
  1295 57.3386 1.94569 20.4546
  1296 319.545 -22.6495 51.4789
  1297 665.581 -1.05823 0.364502
  1298 631.289 -1.63908 -0.736568
  1299 631.214 -2.02455 0.587716
  1300 841.418 183.373 -3.36525
  1301 617.499 -5.40612 -3.35160
  1302 551.390 -7.46049 -0.159037
  1303 610.379 -10.2195 -13.0795
  1304 657.585 -2.62442 1.59582
  1305 697.379 75.0407 66.4948
  1306 805.407 170.813 9.04503
  1307 643.048 -2.99253 -6.75335
  1308 -5.50935 -1.34120 4.90682
  1309 -5.53195 -1.34038 -4.92248
  1310 367.160 -24.1410 14.5631
  1311 367.097 -23.1394 -14.2204
  1312 703.625 82.9242 -62.5981
  1313 152.462 52.9858 -93.3953
  1314 153.435 51.5951 92.4676
  1315 486.729 0.205029 -33.3604
  1316 488.770 -9.82509 -1.10409
  1317 488.177 -9.76314 1.00052
  1318 -11.2983 -1.59679 17.1580
  1319 -11.2781 -1.56428 -17.1532
  1320 548.659 -1.45337 26.0330
  1321 823.953 163.650 -7.74351
  1322 72.3548 -2.30744 -8.81497
  1323 72.5303 -2.31269 8.75793
  1324 608.215 -56.9027 17.2009
  1325 3.12456 11.1916 12.7692
  1326 3.30530 11.2581 -12.6517
  1327 126.638 -2.85774 -3.10787
  1328 126.709 -2.81878 3.06936
  1329 486.811 -0.493822 33.8849
  1330 35.9634 0.960147 -1.40168
  1331 36.0911 0.963844 1.38214
  1332 614.341 -8.16435 8.02579
  1333 861.230 155.309 10.7861
</Section>

newXOutput 80

<Section columns = "stress_xx | stress_yy | stress_xy">
  1 683.034 -2.19227 1.25045
  2 684.005 -2.67437 -1.62212
  3 30.5225 0.617375 -1.70759
  4 -0.549177 -0.800330 -0.563472
  5 1219.20 525.852 409.647
  6 1237.94 598.728 -413.309
  7 -0.543526 -0.795334 0.556176
  8 30.4326 0.613850 1.70374
  9 687.413 -1.57936 -1.12936
  10 682.844 -2.66268 -1.68828
  11 683.652 -2.14502 1.30023
  12 680.919 -1.38082 0.371763
  13 680.079 -2.51334 -0.706603
  14 679.810 -2.45180 2.26307
  15 671.370 -1.86784 1.98422
  16 674.641 -4.98065 3.36082
  17 655.810 -4.23196 7.59007
  18 644.308 -2.09832 9.18497
  19 628.093 -2.41876 10.0125
  20 599.309 -2.15837 14.3109
  21 567.489 -1.74818 16.7891
  22 527.246 2.21707 23.3045
  23 471.598 3.46829 21.2336
  24 448.956 0.0785212 30.5691
  25 378.680 5.35696 21.8365
  26 335.426 6.89532 17.2152
  27 324.150 3.74673 12.7341
  28 312.063 10.1585 0.986503
  29 318.720 10.8117 -17.0661
  30 331.881 3.27692 -21.3820
  31 385.010 1.69594 -28.4088
  32 438.060 -2.48749 -29.2224
  33 473.575 2.88764 -21.1768
  34 527.809 2.50668 -23.2895
  35 566.132 -2.05270 -18.0216
  36 602.390 -2.33672 -13.4648
  37 625.855 -1.84064 -10.1838
  38 642.470 -2.25067 -8.35131
  39 660.485 -2.50446 -4.73343
  40 666.987 -2.72159 -4.45312
  41 673.447 -2.54731 -3.98287
  42 679.904 -2.85595 -0.524522
  43 682.193 -3.54266 -1.52334
  44 677.948 -0.229418 0.173281
  45 682.844 -2.00967 -1.50353
  46 685.201 -3.76734 1.84068
  47 688.173 -2.23479 -0.0523310
  48 655.812 -0.331718 -1.03160
  49 619.346 -3.80389 -1.89758
  50 577.710 -7.60628 -2.58639
  51 534.314 -6.89766 -1.85247
  52 496.186 -10.1139 -1.69179
  53 455.727 -10.8283 -1.50589
  54 414.732 -9.61766 -0.616788
  55 371.418 -10.0660 -0.918609
  56 334.677 -10.3525 -1.26495
  57 285.632 -9.71691 -0.971068
  58 235.069 -6.27201 -0.621939
  59 193.196 -4.06646 -0.463348
  60 141.460 -2.55129 -0.0683932
  61 103.930 -2.28720 -2.49250
  62 69.1515 -2.93140 -0.753891
  63 34.0383 0.327952 1.69547
  64 24.6486 2.43052 0.782452
  65 21.7114 0.977529 1.86864
  66 22.3827 0.439928 1.93189
  67 14.2780 1.39177 1.10594
  68 10.7353 1.84212 3.91801
  69 8.36858 0.663823 1.76534
  70 -5.20539 1.39895 1.89249
  71 -12.0674 0.933724 3.85485
  72 -15.7780 0.278352 4.10361
  73 -31.1446 1.28452 3.42682
  74 -37.5165 1.95298 5.95711
  75 -45.0518 1.18665 2.67081
  76 -53.0209 0.876523 3.53409
  77 -57.2808 0.921379 1.82704
  78 -65.4223 2.32787 -0.894008
  79 -67.3581 1.59287 -0.620757
  80 -62.3111 1.17184 -1.72912
  81 -54.1402 1.59881 -3.81470
  82 -44.5938 0.758807 -6.20563
  83 -33.6506 0.437502 -6.61803
  84 -20.3499 -0.613242 -7.01862
  85 -9.03911 -0.508152 -4.18102
  86 -3.85092 -1.45451 -2.64482
  87 -0.605293 -3.82898 -2.32141
  88 -0.983586 -9.78469 -4.03160
  89 -1.13656 -18.7238 -6.95428
  90 -0.160538 -34.8260 -7.38603
  91 0.479553 -47.6597 -9.14722
  92 1.04143 -68.2128 -7.40072
  93 3.10245 -80.2721 -8.60078
  94 0.655139 -84.9168 -6.70814
  95 -0.0114999 -95.7174 -3.30248
  96 2.77928 -89.4396 0.772078
  97 11.4512 -114.487 7.61080
  98 10.9383 -50.7181 21.6524
  99 25.2098 -4.17242 44.8511
  100 73.1652 155.751 128.880
  101 296.253 433.807 343.980
  102 1596.43 176.200 234.547
  103 1350.37 48.1284 84.4109
  104 1288.67 20.5379 28.9339
  105 1255.02 13.3010 -0.166852
  106 1276.73 19.5672 -23.8925
  107 1362.01 41.0621 -69.6370
  108 1579.93 138.813 -217.477
  109 193.121 490.372 -284.473
  110 51.5912 124.008 -100.938
  111 18.6761 -16.2596 -37.9827
  112 9.93285 -57.7839 -19.0626
  113 11.3744 -119.525 -6.36385
  114 2.64761 -91.6533 0.0983718
  115 -0.176648 -96.8156 3.75396
  116 0.550676 -85.3323 6.94900
  117 3.04482 -80.3576 8.70158
  118 1.01939 -68.1609 7.43715
  119 0.463023 -47.5829 9.15915
  120 -0.168599 -34.7334 7.38019
  121 -1.13737 -18.6654 6.93825
  122 -0.985685 -9.73540 4.01698
  123 -0.604774 -3.81048 2.30866
  124 -3.82880 -1.45226 2.63405
  125 -8.99955 -0.510530 4.16923
  126 -20.2980 -0.618958 7.01105
  127 -33.5896 0.431045 6.61888
  128 -44.5573 0.751710 6.21735
  129 -54.1492 1.59363 3.83858
  130 -62.3672 1.17131 1.75516
  131 -67.4758 1.59120 0.646390
  132 -65.5919 2.32724 0.920871
  133 -57.5101 0.923632 -1.80320
  134 -53.2956 0.879309 -3.51597
  135 -45.3499 1.18990 -2.65608
  136 -37.8420 1.95691 -5.95017
  137 -31.4812 1.28828 -3.42095
  138 -16.1133 0.280640 -4.10322
  139 -12.4064 0.937738 -3.85892
  140 -5.53157 1.40454 -1.89893
  141 8.07681 0.667490 -1.77841
  142 10.4774 1.84607 -3.93830
  143 14.0511 1.39297 -1.12379
  144 22.2042 0.439223 -1.94949
  145 21.5680 0.975846 -1.88287
  146 24.5290 2.42768 -0.794716
  147 33.9404 0.325888 -1.70278
  148 69.0632 -2.94235 0.746684
  149 103.850 -2.31398 2.48478
  150 141.397 -2.59847 0.0578853
  151 193.156 -4.13453 0.458053
  152 235.036 -6.35065 0.621380
  153 285.589 -9.78444 0.982213
  154 334.593 -10.3847 1.28766
  155 371.288 -10.0201 0.971660
  156 414.556 -9.45763 0.676861
  157 455.490 -10.4552 1.41718
  158 496.408 -10.2258 1.47385
  159 534.485 -7.56647 1.96088
  160 578.148 -7.48546 2.33610
  161 620.514 -3.45286 1.92444
  162 654.868 -0.373241 1.00710
  163 393.196 -35.7198 -37.7200
  164 391.694 -36.3766 37.6268
  165 122.831 33.2425 -52.5413
  166 124.020 33.3546 52.3402
  167 459.831 -19.9749 124.903
  168 481.269 -22.7282 -121.676
  169 234.794 -12.6857 17.8585
  170 234.751 -12.5661 -18.0651
  171 490.342 -18.8656 -0.479466
  172 481.008 -18.9178 0.678526
  173 659.632 117.913 -14.5157
  174 661.630 7.39617 -74.0278
  175 649.423 12.1516 80.7384
  176 165.340 -6.49402 -35.7447
  177 165.372 -6.45217 35.6910
  178 572.040 -56.2368 22.5298
  179 571.722 -44.0118 -35.1920
  180 10.0331 14.8743 11.2322
  181 10.2727 14.9673 -11.0887
  182 781.381 160.251 16.2714
  183 156.214 71.1003 -113.398
  184 167.174 71.7052 121.100
  185 552.612 -26.9832 15.1179
  186 826.656 176.423 -1.03569
  187 364.846 -14.6388 -6.36495
  188 364.295 -14.9754 6.33274
  189 566.997 -19.2058 -14.0897
  190 749.096 1.62754 -21.2948
  191 153.606 -4.64680 7.05982
  192 153.539 -4.68219 -7.13777
  193 67.5558 7.60426 -25.0227
  194 67.8456 7.52668 25.0819
  195 325.655 -12.2476 -80.2930
  196 324.395 -12.8866 81.2894
  197 387.353 -26.1429 -15.4287
  198 388.109 -25.9975 16.1723
  199 111.155 -3.85203 19.4079
  200 110.988 -3.80312 -19.4393
  201 740.400 -6.15658 58.9408
  202 611.047 -58.5074 -4.12518
  203 577.063 -7.54828 -1.52859
  204 564.973 -8.93685 1.45999
  205 586.718 69.3328 58.2932
  206 27.0413 25.3931 -12.6705
  207 27.9528 25.3648 13.0770
  208 579.249 -22.7838 67.6668
  209 540.984 41.9216 -67.7394
  210 378.394 92.2973 -249.540
  211 397.942 78.1323 232.155
  212 14.4770 13.2062 -4.49697
  213 14.7095 13.2065 4.61075
  214 577.804 -19.9514 -70.1196
  215 986.648 137.028 -10.1377
  216 479.902 -51.6939 48.8406
  217 483.320 -51.4409 -46.5193
  218 479.603 -35.2710 2.30569
  219 587.248 -10.8002 7.10778
  220 294.704 -20.6549 -32.0783
  221 290.337 -20.5820 32.9200
  222 180.226 3.27005 -52.7908
  223 180.494 3.20758 52.3984
  224 605.232 -62.0676 -15.0078
  225 475.784 -37.4038 -4.39778
  226 585.038 -10.6339 -5.19686
  227 461.217 -13.7862 -1.46787
  228 465.003 -13.0076 2.29875
  229 581.787 -26.4525 37.3160
  230 59.8408 0.272430 -20.7715
  231 60.0734 0.248974 20.7766
  232 -6.76178 -4.33951 -19.2389
  233 -6.79902 -4.38721 19.2528
  234 103.077 -4.15946 -11.4262
  235 103.225 -4.16946 11.3529
  236 256.643 -8.39933 8.05389
  237 256.684 -8.52621 -8.10328
  238 289.165 20.7285 -115.124
  239 289.204 17.4084 113.877
  240 589.332 -19.0674 -31.9618
  241 285.064 -16.8966 -50.2033
  242 285.323 -17.3983 49.5915
  243 530.024 8.93204 77.0728
  244 471.623 40.2914 4.69700
  245 508.360 -50.9065 4.46849
  246 3.02321 -10.2349 -16.2348
  247 2.85198 -10.3731 16.3822
  248 35.2210 41.1049 -42.7993
  249 37.3559 39.9435 44.6682
  250 500.142 -49.8404 -7.71980
  251 886.367 176.595 -26.8905
  252 51.1199 33.7083 -20.4116
  253 51.6965 33.7046 20.6086
  254 -17.2055 4.53507 12.1460
  255 -17.1071 4.55871 -12.0769
  256 889.482 166.944 32.3884
  257 323.956 -16.5587 -13.9379
  258 323.729 -16.3212 13.7319
  259 618.308 -40.3184 60.0367
  260 1094.68 178.872 113.687
  261 195.413 -10.4951 -29.6897
  262 195.399 -10.5688 29.6734
  263 637.358 95.9097 -54.4612
  264 1059.29 202.691 -105.620
  265 749.579 80.2435 46.3643
  266 801.864 64.8603 -161.880
  267 507.524 -25.4787 3.41872
  268 581.804 4.12764 -85.1454
  269 546.209 -39.2879 -18.1471
  270 605.294 -11.7286 19.9006
  271 6.04061 5.88911 -9.04351
  272 6.27548 5.87189 9.12653
  273 598.010 -14.4593 -154.642
  274 71.2631 20.4154 -25.7749
  275 71.5877 20.3844 25.9018
  276 585.163 -14.2861 -42.4244
  277 87.7983 98.5092 -118.222
  278 86.3864 -0.443093 -2.69838
  279 86.4831 -0.428183 2.66600
  280 616.509 -36.7588 -63.0213
  281 114.243 51.3290 -65.3772
  282 115.847 51.0815 65.5622
  283 43.0659 -1.08771 14.3700
  284 42.8182 -1.07554 -14.3741
  285 506.697 -24.3447 -3.39719
  286 88.4223 97.5336 121.145
  287 788.204 76.5288 187.710
  288 231.545 -9.63916 -11.2000
  289 231.523 -9.58622 11.0767
  290 409.188 -18.5336 -6.71080
  291 409.001 -19.8934 7.21726
  292 349.175 36.0451 -171.369
  293 556.618 -60.3475 -1.60593
  294 625.086 -5.06532 2.98722
  295 336.662 36.2273 166.163
  296 392.561 -12.4036 -2.39287
  297 392.419 -12.3989 2.71031
  298 547.156 -40.7661 18.4538
  299 621.921 -7.65476 -8.75922
  300 3.66206 2.27099 -11.8147
  301 3.92434 2.25393 11.8567
  302 790.629 155.820 -3.47182
  303 686.944 -28.5290 26.4896
  304 615.384 -4.66542 -0.577960
  305 625.432 -4.09582 0.525529
  306 619.336 -51.2010 61.1334
  307 763.197 85.6396 -41.7054
  308 677.681 125.612 29.9383
  309 309.923 -19.7156 -21.2093
  310 307.269 -20.0546 21.5528
  311 624.120 -5.00870 -1.68927
  312 419.347 -30.7973 -87.5708
  313 413.719 -33.4629 19.2473
  314 394.195 -20.5552 98.9312
  315 617.370 -8.49405 10.6698
  316 153.553 -7.01095 -18.7555
  317 153.670 -7.06023 18.6905
  318 571.097 -14.3062 152.771
  319 370.808 -29.9836 -26.4034
  320 673.594 88.4278 67.2452
  321 220.932 15.3605 -76.6018
  322 213.021 16.0835 76.0562
  323 78.0568 -1.41159 -4.88258
  324 78.1904 -1.40300 4.83126
  325 547.662 -12.9765 3.15951
  326 525.730 -9.62213 -0.153611
  327 522.930 -10.3400 -0.0101163
  328 581.427 -15.0222 45.0762
  329 63.5823 -2.01519 10.9391
  330 63.3649 -1.99748 -10.9775
  331 182.100 -4.59317 -4.06346
  332 182.137 -4.52852 4.02942
  333 6.27408 -22.4869 -7.47551
  334 5.90406 -22.7015 7.91570
  335 466.019 20.5947 52.7445
  336 693.282 -25.7897 -19.3601
  337 454.882 -25.6863 -2.76681
  338 510.155 -12.3778 -0.663176
  339 546.701 67.6766 -31.6112
  340 115.280 -3.79609 -26.7283
  341 115.439 -3.80013 26.7164
  342 442.891 -24.3361 4.95856
  343 133.166 3.87704 -38.1136
  344 133.424 3.76961 38.0217
  345 28.3015 21.5719 -4.01305
  346 28.6077 21.5740 4.14663
  347 534.257 -55.8065 61.3098
  348 1151.80 75.6575 29.7075
  349 488.362 8.14944 -62.2844
  350 402.167 -35.9141 55.9728
  351 400.136 -35.1471 -57.5002
  352 589.970 -8.74238 83.9054
  353 529.996 -3.32649 61.0117
  354 527.612 -53.9419 -63.0591
  355 322.454 -9.57995 1.51159
  356 322.401 -9.66989 -1.43538
  357 583.690 -37.9012 49.0682
  358 799.321 157.721 0.260437
  359 621.214 -7.97035 -14.6924
  360 173.297 -6.75108 -13.8991
  361 173.386 -6.75827 13.7878
  362 587.250 -52.9008 -74.9819
  363 623.840 45.2731 -82.8911
  364 433.084 23.3014 -34.0028
  365 588.131 -38.7303 -56.8147
  366 -18.5148 0.952479 -14.7778
  367 -18.5337 0.927946 14.7963
  368 493.769 -13.8039 -0.659468
  369 -7.00121 -4.12748 -9.21087
  370 -6.99142 -4.12825 9.19019
  371 378.109 205.580 -301.140
  372 17.5361 16.1680 6.06423
  373 17.9225 16.2873 -5.85623
  374 526.357 -3.50668 -60.5310
  375 294.534 -13.4904 10.5658
  376 294.718 -13.6503 -10.6530
  377 -1.63917 -20.0622 16.8903
  378 -1.60755 -20.0265 -16.8748
  379 309.669 214.854 284.334
  380 242.619 -13.2466 -39.8646
  381 242.828 -12.7185 39.8946
  382 79.0640 59.7193 -61.2525
  383 80.6515 59.5995 60.9445
  384 -26.0794 4.69523 3.83144
  385 -25.9432 4.70366 -3.75570
  386 603.434 41.6415 83.7204
  387 461.612 -48.3365 29.9087
  388 462.123 -42.7031 15.1688
  389 555.841 -62.1906 -15.1644
  390 146.851 17.6335 -51.9735
  391 147.340 17.6119 51.9135
  392 13.5793 -11.9448 5.29254
  393 12.9003 -12.2448 -4.32404
  394 574.248 81.5534 20.5029
  395 564.654 -17.7510 11.1594
  396 331.582 -26.1539 37.4570
  397 209.448 -5.68120 -47.0580
  398 209.550 -5.72081 46.7587
  399 417.899 -14.5191 -3.67057
  400 417.480 -13.0097 3.31766
  401 328.879 -26.8120 -39.4477
  402 259.255 -4.65732 -62.4135
  403 259.240 -5.00403 62.8848
  404 590.487 -53.3467 -31.1532
  405 350.199 -27.6629 24.9315
  406 536.437 -18.1568 5.40258
  407 535.273 -16.7705 -4.15318
  408 453.931 -42.4214 -16.7332
  409 637.032 -3.98724 -3.22574
  410 222.405 93.5845 -175.130
  411 606.478 -9.45402 25.3037
  412 635.934 -4.44380 5.25113
  413 239.862 -13.2635 24.8916
  414 239.935 -13.0923 -24.8751
  415 459.585 -47.7695 -30.6833
  416 70.8926 30.2482 27.8728
  417 70.5258 30.2205 -27.8844
  418 1162.85 75.5986 -60.3840
  419 527.324 -31.4053 -8.67939
  420 639.954 -3.45471 1.85366
  421 210.558 87.8580 167.357
  422 951.144 159.361 34.0254
  423 561.413 -10.4755 -2.39800
  424 427.168 -32.0501 -13.4961
  425 183.226 35.3021 -86.1418
  426 194.906 32.6609 85.6217
  427 521.466 -34.2055 8.52428
  428 557.592 -7.05669 -44.4137
  429 6.44642 -0.598452 10.8685
  430 6.16561 -0.592784 -10.8579
  431 205.704 50.2495 -113.720
  432 206.361 50.4212 113.387
  433 29.8174 11.2633 -13.3017
  434 30.0776 11.2414 13.4052
  435 468.661 -11.2847 0.0136276
  436 468.101 -11.0513 0.134558
  437 581.150 -26.9928 -39.1095
  438 -0.483747 -0.279909 19.7982
  439 -0.378961 -0.183788 -19.7210
  440 597.747 -57.7845 25.9216
  441 563.738 -16.7593 -9.61336
  442 908.394 173.477 -32.8867
  443 52.4122 -1.74685 5.31370
  444 52.2154 -1.74712 -5.35789
  445 1079.11 315.071 148.538
  446 23.8364 22.4954 -38.7130
  447 77.4283 3.06153 -26.3740
  448 77.6743 3.00879 26.3807
  449 1078.25 322.989 -145.577
  450 25.2504 24.9428 42.0520
  451 -23.8101 3.47436 -0.364498
  452 -23.6323 3.46967 0.437260
  453 65.8322 45.1976 -37.8780
  454 66.9109 45.2371 38.0653
  455 716.789 114.807 -52.6185
  456 573.435 -23.4838 -23.9993
  457 636.845 -3.50666 -1.53687
  458 599.854 -9.60188 -29.9876
  459 -5.38838 5.29638 17.9372
  460 -5.28144 5.35924 -17.8633
  461 579.572 -24.2711 28.5953
  462 383.338 -22.8683 -12.4669
  463 382.227 -23.0763 11.2539
  464 513.631 -56.3658 -15.6849
  465 370.074 -3.83842 -119.988
  466 562.465 -8.45348 45.2604
  467 458.529 -16.8350 2.65607
  468 665.103 -45.9336 -17.9533
  469 358.783 4.76374 128.292
  470 40.4501 -0.641784 10.4857
  471 40.1956 -0.631049 -10.5017
  472 738.209 145.713 -21.6671
  473 581.777 -6.22313 -0.202829
  474 579.888 -6.80705 -0.297780
  475 447.618 -31.1270 8.27858
  476 206.519 -7.33450 -7.99767
  477 206.529 -7.25949 7.92152
  478 124.303 -1.85582 -31.6119
  479 124.458 -1.87957 31.5672
  480 394.443 15.2617 20.4422
  481 107.466 -3.46924 15.5499
  482 107.304 -3.43810 -15.6114
  483 108.624 9.55607 35.7724
  484 108.271 9.69713 -35.7345
  485 570.697 -44.2972 33.6498
  486 326.184 -20.3983 -59.0532
  487 303.938 -10.9876 5.90893
  488 304.030 -11.2162 -5.91317
  489 329.527 -21.0181 59.0607
  490 884.411 214.054 -30.0735
  491 -14.1078 -2.00798 -11.7431
  492 -14.0978 -2.01927 11.7347
  493 235.819 -7.27412 -3.40318
  494 235.835 -7.18149 3.39297
  495 0.499630 -36.4991 -13.4155
  496 0.406209 -36.6203 13.5420
  497 519.495 -9.96302 0.00299984
  498 392.456 18.2870 -10.1426
  499 513.228 53.5317 28.6674
  500 323.378 -2.58834 -96.9075
  501 167.111 -8.59845 23.4170
  502 167.070 -8.52790 -23.4448
  503 -33.1153 1.19144 -4.39010
  504 -32.8678 1.18388 4.42498
  505 617.720 -9.63875 -81.9153
  506 66.6375 0.213098 -3.48304
  507 66.7585 0.220756 3.44599
  508 514.211 -41.3399 -5.20597
  509 546.964 -46.9614 -16.6605
  510 116.929 93.0368 -121.781
  511 459.945 16.5767 -184.806
  512 9.25587 14.8322 6.16435
  513 9.48171 14.8665 -6.03694
  514 290.299 -14.2672 -14.5563
  515 290.176 -14.1536 14.3142
  516 779.747 40.6710 -4.66601
  517 568.069 -34.1923 -30.8240
  518 114.108 88.4805 120.193
  519 562.571 -62.4128 24.0212
  520 542.138 -51.6294 11.0508
  521 129.699 -3.13606 -10.2795
  522 129.799 -3.12565 10.1969
  523 460.691 5.48132 48.3501
  524 329.410 -24.9244 -25.9944
  525 595.794 -14.5125 17.3195
  526 -2.31607 -14.5269 -11.4708
  527 -2.32173 -14.5131 11.4521
  528 424.296 -36.9578 65.9294
  529 636.938 -46.4349 -37.3382
  530 820.414 68.2399 -43.2051
  531 453.373 -17.3355 -2.66706
  532 148.849 -2.88870 -2.92325
  533 148.907 -2.84140 2.90049
  534 291.922 2.78651 93.6319
  535 791.738 138.479 28.7098
  536 787.270 180.269 -287.625
  537 720.516 9.23999 32.7958
  538 523.423 -57.8017 13.0061
  539 1196.94 95.4650 81.3187
  540 902.654 226.223 40.3832
  541 140.488 -5.94964 25.4618
  542 140.368 -5.89330 -25.4913
  543 503.882 -42.5065 1.99876
  544 43.0231 18.6766 -13.1320
  545 43.3174 18.6708 13.2526
  546 629.319 -50.3266 37.5567
  547 527.810 29.3602 70.6867
  548 629.737 -4.73489 9.82247
  549 472.544 -29.7301 -1.59148
  550 649.798 14.5936 -194.759
  551 1015.36 285.481 197.781
  552 508.657 -12.1433 0.287722
  553 620.536 -7.00870 -16.4300
  554 104.553 42.9078 -50.0786
  555 105.292 42.4029 49.8919
  556 364.021 -16.0637 -8.43236
  557 363.869 -15.7290 8.55528
  558 4.85927 -36.8792 -8.56716
  559 636.966 -20.4612 71.3178
  560 27.9318 24.2175 -1.76121
  561 28.3275 24.2887 1.95131
  562 5.60107 -35.3139 9.93955
  563 581.931 -26.2238 -59.0632
  564 668.373 45.0472 -77.1793
  565 666.488 50.7783 77.3279
  566 34.7210 33.4653 29.9117
  567 33.0889 34.1015 -29.3803
  568 -9.00652 0.533179 8.39118
  569 -9.29117 0.539287 -8.37364
  570 606.887 23.6715 200.287
  571 343.363 -20.0422 15.3142
  572 343.685 -19.9746 -15.5129
  573 728.949 -4.52668 -108.298
  574 111.415 -1.55846 5.94375
  575 111.321 -1.57954 -5.99943
  576 62.2535 -1.17280 -1.36274
  577 62.3494 -1.16510 1.34972
  578 806.870 152.843 -20.2297
  579 80.1457 135.434 -132.879
  580 442.789 9.39963 -41.0757
  581 610.554 97.0417 -34.5122
  582 10.3700 2.84946 10.0420
  583 10.7386 2.98914 -9.79573
  584 590.438 302.072 334.775
  585 516.585 -16.3169 -1.77979
  586 25.7018 5.21833 -14.8805
  587 25.9599 5.18107 14.9470
  588 597.299 -47.1530 47.9637
  589 94.3889 131.665 135.290
  590 434.087 -11.1875 1.11677
  591 434.211 -11.1117 -1.11832
  592 -0.211936 -29.4836 14.3820
  593 -0.165486 -29.4373 -14.3346
  594 738.556 142.385 -1.18315
  595 468.600 -36.2246 91.1565
  596 448.398 -20.9045 -4.05497
  597 448.572 24.9357 194.703
  598 -35.8940 2.05419 8.36623
  599 -35.8596 2.06533 -8.32889
  600 728.958 14.9342 -35.7228
  601 952.877 181.119 -145.343
  602 284.935 30.2993 -132.560
  603 161.344 -6.95299 -30.8110
  604 161.507 -6.95707 30.8238
  605 653.842 -2.78935 2.38650
  606 444.241 -21.3067 3.55701
  607 585.502 -9.66500 4.93934
  608 581.895 -26.3168 57.5857
  609 39.8432 -0.999495 5.35196
  610 39.6105 -0.995426 -5.38429
  611 350.761 -13.6379 -5.02413
  612 350.723 -13.3167 4.91859
  613 222.109 4.56466 -64.2689
  614 220.750 4.63210 64.0301
  615 824.368 60.4219 62.5299
  616 1319.00 99.4853 -143.216
  617 0.903036 -0.882838 7.23156
  618 0.603460 -0.880140 -7.22716
  619 213.909 -9.29618 14.5694
  620 213.874 -9.28323 -14.7243
  621 773.102 49.5276 15.2243
  622 645.180 -3.30919 -0.754455
  623 643.861 -4.28516 0.192645
  624 488.202 0.271737 47.7702
  625 679.989 -34.9455 -69.5204
  626 378.618 -31.6016 30.8643
  627 -5.34563 8.90637 -6.11440
  628 -5.51461 8.89051 6.21402
  629 601.903 13.8949 87.2752
  630 245.895 -14.4953 -32.4914
  631 245.694 -14.7247 32.5496
  632 488.592 -29.6277 -0.207297
  633 598.123 -14.2031 -15.5906
  634 349.808 -28.1511 -44.1199
  635 572.931 69.2940 -53.1123
  636 384.751 -26.1761 -75.2031
  637 153.351 -4.11391 -5.50225
  638 153.408 -4.07061 5.44493
  639 353.268 -28.6107 44.3659
  640 745.052 123.480 45.2574
  641 595.263 -27.9508 72.6581
  642 487.228 -23.3664 0.747646
  643 354.351 -10.9575 2.77571
  644 354.264 -10.9753 -2.71145
  645 271.680 -10.9411 -10.6005
  646 271.600 -10.8374 10.5135
  647 571.245 -52.0958 -24.8510
  648 297.743 -17.5907 18.4110
  649 298.035 -17.5200 -18.7007
  650 583.528 89.2891 -7.03354
  651 528.121 -29.0460 9.03458
  652 651.170 -3.65418 -3.94349
  653 566.637 -9.51484 -77.5750
  654 92.3235 -3.89317 20.5036
  655 92.1367 -3.86670 -20.5123
  656 637.652 -4.18136 -8.94358
  657 120.277 62.7933 -87.0751
  658 122.283 62.6694 87.4888
  659 651.830 -34.6856 92.1275
  660 231.807 59.1571 139.637
  661 66.1161 -0.575576 20.4844
  662 65.8985 -0.562216 -20.4858
  663 558.024 -32.9583 115.992
  664 545.920 88.2954 -262.305
  665 546.288 18.2492 -77.9733
  666 710.918 129.578 40.4235
  667 479.267 -22.9410 1.36530
  668 856.125 152.087 -3.70314
  669 -36.2693 1.98800 -3.28549
  670 -36.0619 1.98337 3.33340
  671 384.536 3.43025 -139.500
  672 43.0961 -0.597155 4.02271
  673 42.9145 -0.598596 -4.05685
  674 479.576 -38.9960 -90.2444
  675 165.467 22.1691 -62.3183
  676 164.218 22.2660 62.2975
  677 8.40355 8.20281 -6.28449
  678 8.63087 8.19417 6.38508
  679 410.855 -36.0519 -24.5835
  680 578.055 -5.72957 -29.5669
  681 283.651 -9.67191 -3.70818
  682 283.676 -9.58046 3.73196
  683 208.926 -10.9145 -21.2845
  684 209.102 -11.0587 21.2241
  685 41.0103 33.6422 -15.6042
  686 41.6472 33.7250 15.8260
  687 584.013 -8.63237 1.89994
  688 270.758 -17.6586 27.5226
  689 272.382 -17.3714 -27.5094
  690 649.059 -49.2279 1.54886
  691 538.534 -54.1578 -5.18632
  692 426.484 -13.8646 -2.10135
  693 425.055 -13.0740 2.28006
  694 590.663 -60.4285 40.0107
  695 951.591 193.412 57.1449
  696 519.848 -19.9388 -142.069
  697 594.688 -17.2495 29.3946
  698 594.623 -21.0178 -78.5314
  699 196.457 -6.40513 -10.2953
  700 196.481 -6.36411 10.1932
  701 463.763 -4.91597 158.534
  702 1253.95 162.753 148.601
  703 95.2818 26.7373 -37.7044
  704 95.4283 26.9208 37.8221
  705 581.656 -7.36566 -0.872800
  706 586.050 -6.72121 0.911501
  707 252.703 135.687 -222.649
  708 620.929 -3.93314 16.6109
  709 537.495 -11.1247 0.818065
  710 716.273 140.810 -14.3820
  711 79.7086 13.1086 -27.8839
  712 80.0422 13.0294 27.9832
  713 657.745 -2.27951 0.223417
  714 541.956 -22.3980 -9.44844
  715 674.590 -7.27302 60.2587
  716 284.894 -20.2470 -41.7603
  717 285.599 -19.4170 41.4242
  718 75.6745 -2.35374 15.5017
  719 75.4671 -2.32584 -15.5327
  720 606.635 -5.58388 -2.11421
  721 524.011 113.777 277.363
  722 5.35047 6.06556 15.3441
  723 5.54988 6.19026 -15.2075
  724 609.543 -7.86679 -6.59131
  725 593.434 -12.2895 9.56152
  726 486.116 0.858130 -51.2349
  727 4.95853 -50.3631 -5.12406
  728 4.66257 -50.8989 5.66609
  729 223.165 61.1207 -139.737
  730 479.062 -47.1666 -66.8781
  731 251.427 134.318 224.537
  732 650.395 -2.41646 1.26402
  733 644.500 97.0156 54.5472
  734 481.158 43.4050 -20.0302
  735 833.879 167.929 7.26354
  736 644.879 -3.41174 5.51386
  737 -31.5358 0.931084 6.03607
  738 -31.8114 0.936107 -6.01281
  739 689.206 -35.0478 27.7740
  740 452.429 -14.8790 -2.66037
  741 171.913 -0.167758 -45.2681
  742 172.151 -0.330909 45.0515
  743 592.099 -8.46635 -3.19392
  744 1038.46 146.689 -55.7810
  745 84.6321 -2.28466 -10.0780
  746 84.8124 -2.29736 10.0215
  747 654.983 -2.48178 -2.38609
  748 145.151 -6.37118 -13.9872
  749 145.263 -6.39335 13.9025
  750 650.230 -23.6630 -63.0989
  751 601.868 -6.59582 23.4406
  752 547.452 -2.72610 77.1335
  753 654.875 -2.56756 0.313948
  754 615.849 -6.01096 4.85603
  755 411.949 -23.4566 -8.36557
  756 510.192 -15.2686 0.823653
  757 580.963 -35.7750 -47.8204
  758 566.026 -36.1366 29.3964
  759 666.678 82.3939 -68.3013
  760 557.933 -32.2198 20.8151
  761 591.056 -34.4532 62.2339
  762 348.854 -24.4261 19.8456
  763 13.6110 1.32372 2.63248
  764 12.9505 1.27361 -2.00515
  765 515.382 -9.78970 -0.392636
  766 514.329 -9.73731 0.207772
  767 611.225 -4.17714 -0.140689
  768 613.208 -4.07086 0.275526
  769 590.490 -16.9919 36.7334
  770 544.321 -47.9666 85.9398
  771 451.115 -37.4059 12.1982
  772 402.654 -25.2278 11.3901
  773 1057.84 135.054 63.6640
  774 594.628 -16.0300 -22.5796
  775 352.777 65.1697 -208.186
  776 554.145 -28.4979 -17.7018
  777 30.9229 0.306610 -15.2459
  778 31.1806 0.286485 15.2703
  779 509.074 44.7443 -44.8398
  780 1217.92 36.9328 -15.6063
  781 627.081 17.9617 -84.4686
  782 26.4897 32.1508 -55.1755
  783 650.427 116.029 13.7892
  784 502.748 -33.1466 2.79399
  785 568.229 -13.4969 75.1266
  786 476.754 -49.1697 67.2320
  787 747.428 4.77692 130.754
  788 28.5031 37.9029 58.5847
  789 348.219 -1.30370 110.118
  790 480.409 -14.3080 0.934528
  791 534.238 -45.9676 -86.9139
  792 334.945 -26.5610 -31.9971
  793 265.471 12.9833 -97.1690
  794 620.697 -8.04221 82.7005
  795 402.181 -28.3883 16.7382
  796 90.7968 -2.35032 8.76226
  797 90.6523 -2.35259 -8.82809
  798 579.773 -3.32976 26.1335
  799 532.041 3.42769 -75.3346
  800 -43.9810 2.15280 4.86777
  801 -43.9143 2.15729 -4.82617
  802 391.663 -13.8788 -3.45872
  803 390.597 -13.2300 3.32638
  804 292.009 33.7939 134.319
  805 265.017 -15.9832 21.1793
  806 265.344 -15.6187 -21.3586
  807 654.246 -1.97381 -1.12750
  808 239.825 19.2029 94.9253
  809 21.4970 -0.223234 5.58826
  810 21.2192 -0.218492 -5.60644
  811 573.162 -17.4795 57.6732
  812 601.622 -6.58466 1.54024
  813 -32.1609 0.515491 8.65505
  814 -32.1708 0.526466 -8.63743
  815 379.725 -23.3379 83.7771
  816 76.6811 67.0238 -75.0688
  817 77.5741 64.2419 74.0364
  818 376.081 16.3561 8.48309
  819 6.07216 -0.474965 -6.37252
  820 6.37633 -0.478757 6.36968
  821 434.639 -40.7877 -63.1634
  822 587.370 -60.6117 -11.4655
  823 -2.98883 -2.83062 -3.80118
  824 -2.97950 -2.82347 3.78658
  825 48.7129 0.933023 -1.39342
  826 48.8246 0.938359 1.37376
  827 524.301 -47.0851 6.51147
  828 444.077 -45.2156 45.9383
  829 488.276 -10.3127 -0.0723942
  830 443.102 -36.5472 -13.7623
  831 174.362 -3.23685 -1.21033
  832 174.407 -3.17487 1.19625
  833 -49.0267 1.07139 2.45269
  834 -48.9150 1.07018 -2.41128
  835 547.640 -9.04429 -1.08024
  836 500.173 20.3305 -64.4506
  837 554.345 -12.7981 -4.52590
  838 335.671 -26.1679 30.6576
  839 556.788 -9.40655 -61.6266
  840 589.818 -18.4205 -37.9239
  841 549.703 -8.05115 0.926905
  842 407.444 -14.3049 112.768
  843 435.353 -42.8149 -28.3196
  844 266.923 -2.02919 -75.5792
  845 268.342 -0.178272 75.9699
  846 373.765 -28.7971 -21.4973
  847 616.403 67.9703 72.4020
  848 577.770 -58.2360 -51.2838
  849 220.301 -7.41155 -5.34799
  850 220.305 -7.31636 5.30677
  851 445.370 -12.1026 1.51362
  852 445.399 -12.1853 -1.42411
  853 534.876 -3.80430 -40.5218
  854 189.272 -8.17821 -17.2399
  855 189.390 -8.23689 17.1237
  856 2.35246 -52.6509 -9.77561
  857 2.23696 -52.8818 10.0006
  858 105.375 -1.51195 -0.0736737
  859 105.295 -1.53845 0.0567807
  860 544.061 -10.4666 -1.47017
  861 419.589 -40.0572 41.8517
  862 641.746 -52.6537 11.2765
  863 397.562 8.29927 32.4662
  864 556.432 -14.8325 5.31700
  865 609.532 -53.3356 -34.8948
  866 96.3190 5.41292 -31.1093
  867 96.5979 5.32065 31.1064
  868 485.889 -10.9076 0.0867392
  869 396.164 -15.3796 -5.75930
  870 394.867 -15.2665 6.11361
  871 611.957 95.0443 38.9368
  872 217.816 -2.52535 -53.9898
  873 217.648 -2.76934 53.7943
  874 423.487 -38.8042 23.4368
  875 44.8970 27.8445 -13.7321
  876 45.3084 27.7994 13.8557
  877 360.081 -25.4467 69.2036
  878 429.157 -28.5415 -9.18912
  879 537.663 -3.94836 40.9376
  880 522.932 -58.2167 26.8258
  881 598.188 -44.6761 -52.3583
  882 418.560 -40.3800 -42.3422
  883 351.249 -24.3406 -19.1300
  884 1100.74 89.8398 -17.2971
  885 547.162 -57.6237 1.44853
  886 18.8283 19.3527 3.15670
  887 19.1205 19.3944 -3.00095
  888 477.860 -48.1366 15.8507
  889 522.016 -57.8019 -41.6290
  890 20.8338 16.4329 -2.78523
  891 21.0927 16.4417 2.90630
  892 205.266 -7.63196 41.6297
  893 205.356 -7.84074 -41.8362
  894 246.105 -12.7371 45.5295
  895 245.992 -13.0187 -45.7916
  896 754.353 151.072 16.0110
  897 -1.01382 -23.2884 -11.0232
  898 -1.02158 -23.2560 11.0132
  899 180.413 14.7323 -59.3721
  900 179.586 14.4442 58.8629
  901 1256.99 40.7064 -62.7602
  902 41.6684 -0.186684 2.32872
  903 41.5174 -0.190819 -2.35562
  904 2.57984 -57.0560 1.25467
  905 2.96565 -55.9948 -0.357722
  906 -24.9147 -0.226184 9.09949
  907 -24.9466 -0.218229 -9.09760
  908 144.533 42.1275 -69.5336
  909 146.737 40.7256 68.6388
  910 -9.95915 1.07138 -18.6679
  911 -10.0129 1.02576 18.7012
  912 47.8373 3.41942 -20.7741
  913 48.1001 3.37389 20.8089
  914 159.629 -2.22443 38.5529
  915 159.499 -2.21606 -38.7116
  916 132.865 -4.71016 -31.2494
  917 133.013 -4.70390 31.2160
  918 641.572 -2.81197 -8.99269
  919 319.229 71.5762 194.372
  920 439.547 -43.6209 26.9273
  921 317.134 -23.2667 25.1735
  922 603.627 63.1566 -71.9232
  923 1236.55 26.2600 25.2646
  924 704.758 35.9816 -63.5988
  925 129.231 -4.89671 19.7547
  926 129.087 -4.84393 -19.8129
  927 31.2709 -0.785095 -14.5387
  928 31.5280 -0.791690 14.5440
  929 0.267296 -9.74079 -20.0070
  930 0.173962 -9.83437 20.0757
  931 327.642 -15.4330 11.9242
  932 327.793 -15.7030 -11.9662
  933 45.3003 10.5317 -19.1663
  934 45.5782 10.4867 19.2581
  935 204.252 -9.38588 -35.6575
  936 204.403 -9.39009 35.6457
  937 437.391 -1.30489 -38.0961
  938 211.245 -11.6886 -25.3097
  939 211.133 -11.5774 25.3874
  940 489.669 -15.5256 1.13366
  941 593.025 -33.1559 -67.2738
  942 268.091 -11.5006 12.3186
  943 268.195 -11.5936 -12.4489
  944 -10.9129 -1.11436 -6.59379
  945 -10.8814 -1.11700 6.57864
  946 599.246 -42.6276 -105.118
  947 577.142 -34.1036 41.0251
  948 507.518 -36.4081 -4.74416
  949 505.825 18.0588 67.8182
  950 233.954 -13.4555 -28.3763
  951 233.983 -13.2199 28.4551
  952 559.788 22.5154 81.1794
  953 527.214 46.3258 53.5457
  954 1033.87 123.329 22.2380
  955 537.480 -20.7752 6.18385
  956 292.618 -9.63830 -5.59143
  957 292.595 -9.47681 5.62912
  958 484.565 -40.4343 3.92826
  959 673.444 123.196 -31.5654
  960 584.152 -7.87926 -2.00086
  961 392.466 -11.2339 1.87672
  962 392.328 -11.1601 -1.77025
  963 52.8217 45.6150 -35.3209
  964 54.0894 45.5675 35.5549
  965 93.0336 266.487 -215.199
  966 557.999 -12.7088 61.2086
  967 685.182 -9.23225 -52.2145
  968 -7.68495 6.84090 1.43591
  969 -7.49872 6.84143 -1.34076
  970 1347.13 329.518 -259.438
  971 588.035 -62.6831 -1.34449
  972 625.096 -55.2156 -33.5822
  973 580.030 -49.3686 35.6122
  974 722.024 141.034 11.8451
  975 54.9744 63.3633 -70.3607
  976 133.318 232.986 213.363
  977 -2.82254 -7.18300 20.3467
  978 -2.76488 -7.11435 -20.3130
  979 561.758 -15.8689 7.00398
  980 900.359 157.993 -22.0809
  981 56.4978 62.1315 72.8594
  982 -2.44111 -8.53258 -7.33270
  983 -2.44120 -8.50771 7.31250
  984 484.912 -13.1443 -1.26243
  985 367.430 -29.6092 -33.5076
  986 584.736 -45.8161 -43.6966
  987 172.220 46.4878 -90.2926
  988 174.919 47.2341 90.5175
  989 571.374 -14.0242 -54.1579
  990 570.098 -19.3017 14.9944
  991 -13.8759 4.41119 16.0117
  992 -13.7995 4.45240 -15.9559
  993 350.960 -23.0326 -65.3759
  994 580.265 38.2320 -80.8521
  995 429.559 -17.6715 4.13113
  996 314.772 -10.0600 1.21169
  997 314.708 -10.1145 -1.17735
  998 -6.22451 -7.09552 -15.0054
  999 -6.23285 -7.11077 14.9907
  1000 577.851 -21.6648 -19.1411
  1001 548.423 -7.94376 0.196490
  1002 547.925 -7.95327 0.0142130
  1003 761.198 127.933 -40.2324
  1004 145.168 11.9449 -47.5662
  1005 145.529 11.7080 47.4836
  1006 97.5362 -1.16341 -26.1461
  1007 97.7227 -1.18186 26.1281
  1008 631.604 35.7352 85.4538
  1009 590.575 -12.4343 -10.0433
  1010 111.911 16.8198 -39.4860
  1011 112.344 16.6995 39.6258
  1012 612.171 -4.60434 -1.26778
  1013 578.524 -25.7095 -30.4834
  1014 565.025 -62.4100 -31.6150
  1015 23.8791 21.9499 3.87626
  1016 23.2709 21.8468 -3.59855
  1017 -25.2844 4.73874 8.87661
  1018 -25.1850 4.75264 -8.80822
  1019 364.584 13.2853 -14.1714
  1020 966.486 245.740 -76.8516
  1021 450.485 -33.7983 -7.66086
  1022 302.394 -13.2475 -67.0623
  1023 710.903 -24.1007 -4.06331
  1024 303.564 -13.2114 67.9497
  1025 515.220 -58.9494 47.4033
  1026 583.637 -24.2584 -47.9801
  1027 211.768 -5.39632 -1.70672
  1028 211.801 -5.31693 1.69823
  1029 403.031 -32.2131 -19.6185
  1030 251.719 -9.68235 -53.0941
  1031 251.654 -9.75489 52.8680
  1032 85.5079 56.4548 -58.1017
  1033 86.8121 56.3297 58.2751
  1034 180.738 -5.89277 -5.98949
  1035 180.773 -5.82863 5.92946
  1036 517.945 -18.0728 2.15121
  1037 439.285 4.29534 -160.200
  1038 536.306 -18.9442 -6.30218
  1039 487.564 -53.6517 -30.8626
  1040 326.917 -14.7710 8.46513
  1041 327.162 -14.8695 -8.48205
  1042 620.374 -5.01163 1.60722
  1043 559.538 -14.8544 -6.52788
  1044 382.152 9.48959 26.8273
  1045 602.637 -6.07947 -21.8486
  1046 238.561 71.9344 157.644
  1047 618.132 -6.02582 -17.6798
  1048 168.782 28.0473 -69.0883
  1049 163.990 28.3422 66.4824
  1050 734.200 -7.02769 1.84495
  1051 72.0625 36.6464 -32.1181
  1052 72.6967 36.3974 32.1243
  1053 12.8291 2.89824 3.32051
  1054 13.4064 3.01218 -2.94119
  1055 110.285 -2.80594 7.05932
  1056 110.173 -2.82194 -7.12865
  1057 270.259 72.7013 -173.669
  1058 1385.78 376.499 279.315
  1059 576.219 -21.6361 19.6184
  1060 519.798 -57.8421 -24.7478
  1061 366.125 -30.1680 -51.6988
  1062 -5.26690 8.71470 12.9993
  1063 -5.12599 8.76208 -12.9039
  1064 411.439 -22.4559 7.07497
  1065 451.482 -18.3705 3.02399
  1066 -0.145881 -32.8973 10.5288
  1067 -0.134824 -32.9357 -10.5277
  1068 72.1160 44.1828 -37.5797
  1069 72.9341 44.1168 37.7875
  1070 406.218 -20.7960 -6.81655
  1071 37.0376 15.0571 13.4234
  1072 36.7642 15.0736 -13.3091
  1073 614.206 -22.8471 78.1762
  1074 447.240 -46.0636 -45.7084
  1075 368.244 -30.6462 51.7025
  1076 587.832 -10.4834 -83.6347
  1077 610.345 -7.90430 7.26001
  1078 229.470 35.7291 107.538
  1079 231.097 34.1726 -105.809
  1080 365.039 -17.1671 -90.9672
  1081 509.934 -19.8583 -1.90816
  1082 418.874 -26.2792 11.1929
  1083 487.788 -45.9954 -7.60446
  1084 656.942 -2.82761 -4.31186
  1085 365.913 -17.9827 9.89305
  1086 365.758 -18.9271 -10.0772
  1087 14.3142 16.2120 8.99635
  1088 14.6142 16.3260 -8.82246
  1089 593.949 23.3239 -86.7512
  1090 140.122 6.48671 -42.2836
  1091 140.495 6.33989 42.1928
  1092 107.917 1.59054 -30.8990
  1093 108.151 1.53501 30.8613
  1094 664.941 -20.1235 130.752
  1095 582.701 -26.9909 47.0247
  1096 292.003 -13.6073 -57.5426
  1097 665.490 -3.03067 -2.54704
  1098 759.889 145.239 -29.7832
  1099 608.649 -7.07061 -4.19247
  1100 576.259 -61.3299 11.3494
  1101 430.365 -31.8452 80.6785
  1102 668.353 -1.33433 0.244079
  1103 381.475 11.7591 -22.7108
  1104 491.096 -52.5016 -17.7893
  1105 292.492 -14.2057 56.9984
  1106 495.490 -45.6051 4.79832
  1107 611.295 -9.67377 14.9018
  1108 457.638 28.9800 35.0620
  1109 313.506 -23.3129 -46.7336
  1110 910.623 144.805 -69.5211
  1111 696.858 35.0990 67.6287
  1112 534.820 66.5873 8.48511
  1113 663.451 -0.390948 2.06989
  1114 274.175 -17.4919 -36.5195
  1115 186.058 119.615 -175.390
  1116 329.492 10.0056 -126.939
  1117 378.034 -29.7259 24.8373
  1118 321.408 -24.3348 44.1862
  1119 273.583 -16.6794 36.8415
  1120 566.376 6.09492 85.0353
  1121 426.742 -16.5217 -3.60488
  1122 655.971 -5.29903 6.08831
  1123 -4.26480 0.481688 20.0222
  1124 -4.18503 0.552026 -19.9701
  1125 445.819 -14.5318 2.32372
  1126 1.14916 6.35674 17.2357
  1127 1.29466 6.45010 -17.1337
  1128 259.266 -8.86043 6.52929
  1129 259.270 -8.98110 -6.53518
  1130 623.363 -3.61754 14.6643
  1131 504.528 -32.0348 -3.40457
  1132 473.659 -26.7037 1.95794
  1133 527.969 -37.7708 11.6005
  1134 166.139 84.8650 -132.574
  1135 516.789 -21.1614 3.44343
  1136 86.4700 1.14483 -25.5550
  1137 86.6925 1.10621 25.5474
  1138 112.708 74.0191 -95.3601
  1139 818.044 115.290 11.7322
  1140 71.1024 -2.94518 15.0875
  1141 70.8869 -2.92232 -15.1025
  1142 114.710 73.0297 92.3574
  1143 475.877 -40.5486 -5.83397
  1144 249.830 -12.1855 14.8991
  1145 249.851 -12.2329 -15.0922
  1146 955.291 204.055 -60.9135
  1147 522.585 -52.3888 -3.35386
  1148 183.509 112.459 175.122
  1149 16.8120 4.18641 -18.6520
  1150 18.0199 4.39897 20.0523
  1151 560.383 70.2293 42.4108
  1152 46.0895 23.3100 -14.0745
  1153 46.4346 23.3222 14.1785
  1154 525.870 -46.1869 -7.32530
  1155 -0.219699 -50.3371 -9.67759
  1156 -0.243296 -50.3362 9.72167
  1157 561.104 -47.4457 -23.3066
  1158 4.90023 0.631230 4.96558
  1159 4.59125 0.635581 -4.97362
  1160 91.8425 33.2250 -40.0218
  1161 92.3289 33.3738 39.7130
  1162 -18.5616 0.0402337 -6.08557
  1163 -18.2505 0.0382741 6.09317
  1164 556.312 -7.93591 -0.00912380
  1165 -52.3173 1.65531 0.0846171
  1166 -52.1616 1.65478 -0.0460065
  1167 303.936 -24.2159 -35.5528
  1168 8.38550 -62.7061 -10.6619
  1169 161.632 -4.72388 11.1255
  1170 161.556 -4.73727 -11.2235
  1171 477.113 -11.1204 1.07319
  1172 477.993 -10.8902 -0.983426
  1173 9.00788 -59.2513 12.4159
  1174 564.079 -30.2737 -24.4497
  1175 639.086 -3.42269 10.4808
  1176 573.757 -37.0407 -37.3304
  1177 511.347 4.26872 67.2992
  1178 3.22884 -17.7042 13.4836
  1179 3.47699 -17.5474 -13.2279
  1180 373.058 -27.9479 20.4886
  1181 -24.0016 2.53872 12.8979
  1182 -23.9569 2.55946 -12.8571
  1183 943.539 148.653 11.1182
  1184 1078.06 362.792 -254.051
  1185 586.121 -56.2566 29.5196
  1186 253.189 -8.05671 -1.14152
  1187 253.218 -7.97307 1.14262
  1188 1170.06 113.797 -105.953
  1189 98.5252 -2.47972 15.6327
  1190 98.3453 -2.44454 -15.6780
  1191 553.887 -1.79051 -26.3387
  1192 358.287 -29.3126 39.9971
  1193 579.663 -56.1648 -19.4480
  1194 561.607 -41.1571 -27.6624
  1195 348.252 -11.7026 95.1261
  1196 134.048 24.2003 -53.3244
  1197 133.994 23.9895 53.0581
  1198 173.306 64.9932 -113.410
  1199 173.577 60.2698 113.432
  1200 54.3536 14.2174 -20.4257
  1201 54.6521 14.1789 20.5354
  1202 696.038 121.651 -45.7417
  1203 39.0540 36.3188 -19.9448
  1204 39.9030 36.3883 20.2042
  1205 501.257 -39.2794 1.63711
  1206 914.179 150.236 76.8205
  1207 132.469 -5.33250 -10.9763
  1208 132.581 -5.33158 10.8903
  1209 584.557 451.368 -364.452
  1210 482.244 29.0149 -53.9136
  1211 447.008 33.9035 22.1446
  1212 65.3593 25.9820 -24.0615
  1213 65.6560 25.9885 24.1791
  1214 28.4564 -0.150765 3.60867
  1215 28.2332 -0.150572 -3.63463
  1216 553.722 -44.7727 21.6482
  1217 543.402 -23.1666 10.6811
  1218 373.604 114.962 -267.185
  1219 854.271 187.679 -17.5253
  1220 373.609 -10.5033 -104.186
  1221 479.446 -16.6018 -1.88755
  1222 42.7439 -2.29717 -0.765070
  1223 42.8340 -2.29509 0.760943
  1224 -5.76122 3.79184 -9.24823
  1225 -5.51818 3.77712 9.30913
  1226 326.291 4.32145 -109.319
  1227 587.207 -14.2337 13.4109
  1228 387.709 9.20499 146.974
  1229 520.743 -27.1143 -6.70012
  1230 272.658 101.800 -212.666
  1231 420.802 -19.0647 -112.054
  1232 499.155 -53.2647 15.0374
  1233 606.202 -10.3150 23.4747
  1234 532.130 -13.0404 -1.72829
  1235 302.748 -22.7966 35.7281
  1236 666.450 -34.5444 -38.8992
  1237 639.210 57.3740 80.6718
  1238 283.487 1.48558 -87.5505
  1239 623.430 -5.18091 1.35614
  1240 522.385 64.4728 -12.1512
  1241 231.998 -8.58725 -10.8686
  1242 231.975 -8.50894 10.7720
  1243 953.283 234.453 70.3646
  1244 1278.89 33.9606 58.7300
  1245 1.28205 -61.1565 -9.53872
  1246 1.24339 -61.2157 9.61452
  1247 148.466 80.9147 124.643
  1248 349.616 -11.6431 -2.98697
  1249 349.691 -11.5849 3.11006
  1250 471.918 -47.7481 -18.4748
  1251 568.221 47.5193 73.4082
  1252 581.897 -12.9981 -7.95368
  1253 667.051 -2.29499 -0.726593
  1254 1152.00 259.422 -165.914
  1255 195.475 -7.56637 11.5515
  1256 195.436 -7.57953 -11.6705
  1257 561.706 -52.0605 21.7787
  1258 968.757 251.777 -89.2867
  1259 543.960 -25.0933 -12.2605
  1260 402.923 -28.9930 -15.5818
  1261 490.648 -53.0383 30.2628
  1262 479.669 -25.4611 -0.832864
  1263 19.3715 13.5746 -27.5064
  1264 651.002 -37.2431 48.5466
  1265 529.784 -35.6380 -11.4233
  1266 21.2300 14.4893 29.9061
  1267 543.311 -40.5790 -105.990
  1268 512.096 37.7831 -218.868
  1269 836.942 115.389 -3.13507
  1270 669.347 -1.05260 -0.160613
  1271 668.293 -1.66002 0.538897
  1272 538.452 -32.4971 13.1229
  1273 214.202 25.5201 -86.5581
  1274 612.252 -53.0725 38.4277
  1275 1027.30 237.846 115.012
  1276 262.423 94.5264 207.522
  1277 8.58295 3.33359 13.2423
  1278 8.85740 3.47364 -13.0538
  1279 639.692 -48.1749 -61.2959
  1280 268.731 -15.2267 -17.7048
  1281 268.703 -15.2678 17.4478
  1282 600.568 -38.6710 63.7323
  1283 31.6847 0.0316944 16.2324
  1284 31.4300 0.0433914 -16.2210
  1285 -2.98510 -12.1238 17.1323
  1286 -2.96317 -12.0979 -17.1378
  1287 119.646 -4.03285 -14.2441
  1288 119.789 -4.05555 14.1712
  1289 322.320 -21.7257 -52.6023
  1290 325.829 -11.9532 4.09023
  1291 325.811 -12.1762 -3.97343
  1292 667.718 -1.02757 0.392016
  1293 603.195 -9.88150 -26.5739
  1294 58.0501 1.99594 -20.7833
  1295 58.2960 1.96194 20.7987
  1296 323.590 -22.9414 52.2653
  1297 673.175 -1.08141 0.372329
  1298 638.563 -1.68875 -0.745982
  1299 638.486 -2.07883 0.595794
  1300 851.325 185.719 -3.77561
  1301 624.683 -5.50498 -3.35208
  1302 557.895 -7.60131 -0.182968
  1303 617.565 -10.3691 -13.1623
  1304 665.141 -2.66972 1.59785
  1305 705.749 76.0433 66.9671
  1306 814.990 172.956 8.83338
  1307 650.560 -3.04086 -6.79872
  1308 -5.58099 -1.35666 4.96933
  1309 -5.60390 -1.35584 -4.98521
  1310 371.757 -24.4722 14.8556
  1311 371.694 -23.4585 -14.5079
  1312 712.066 84.0224 -63.0200
  1313 154.473 53.6971 -94.7285
  1314 155.459 52.2897 93.7899
  1315 492.925 0.213206 -33.6893
  1316 494.644 -10.0003 -1.13805
  1317 494.044 -9.93765 1.03318
  1318 -11.4190 -1.60456 17.3544
  1319 -11.3986 -1.57165 -17.3497
  1320 555.422 -1.47206 26.2784
  1321 833.793 165.602 -8.00692
  1322 73.6602 -2.33695 -8.96036
  1323 73.8387 -2.34225 8.90273
  1324 615.473 -57.5320 17.1560
  1325 3.22908 11.3606 12.8549
  1326 3.41204 11.4280 -12.7359
  1327 128.601 -2.90014 -3.16456
  1328 128.673 -2.86074 3.12565
  1329 493.006 -0.492516 34.2194
  1330 36.9240 0.969888 -1.42627
  1331 37.0543 0.973623 1.40651
  1332 621.537 -8.29059 8.06203
  1333 871.464 157.109 10.9935
</Section>

newXOutput 81

<Section columns = "stress_xx | stress_yy | stress_xy">
  1 690.691 -2.22935 1.26463
  2 691.669 -2.71580 -1.64045
  3 31.4479 0.623800 -1.72464
  4 -0.557362 -0.811248 -0.572477
  5 1231.80 532.498 414.204
  6 1250.74 606.181 -417.882
  7 -0.551639 -0.806187 0.565088
  8 31.3557 0.620237 1.72076
  9 695.111 -1.60681 -1.14193
  10 690.506 -2.70206 -1.70884
  11 691.332 -2.17866 1.30826
  12 688.589 -1.40909 0.366991
  13 687.755 -2.55099 -0.723305
  14 687.507 -2.48959 2.27498
  15 679.016 -1.90072 1.98775
  16 682.344 -5.04128 3.38055
  17 663.365 -4.28671 7.64756
  18 651.789 -2.13253 9.25653
  19 635.457 -2.45362 10.0940
  20 606.443 -2.18989 14.4377
  21 574.354 -1.77083 16.9434
  22 533.754 2.24102 23.5274
  23 477.595 3.50708 21.4405
  24 454.737 0.0896719 30.8722
  25 383.791 5.42879 22.0554
  26 340.108 6.98257 17.3910
  27 328.720 3.80793 12.8654
  28 316.513 10.2896 0.998310
  29 323.238 10.9461 -17.2436
  30 336.524 3.32401 -21.6029
  31 390.179 1.72926 -28.6978
  32 443.738 -2.50514 -29.5111
  33 479.590 2.92045 -21.3825
  34 534.321 2.53320 -23.5116
  35 572.984 -2.07858 -18.1880
  36 609.546 -2.36752 -13.5829
  37 633.200 -1.86967 -10.2672
  38 649.932 -2.28806 -8.41384
  39 668.082 -2.53856 -4.76535
  40 674.615 -2.76392 -4.48055
  41 681.110 -2.58611 -4.00960
  42 687.598 -2.89804 -0.518935
  43 689.890 -3.59226 -1.52939
  44 685.589 -0.246140 0.184039
  45 690.515 -2.04273 -1.51407
  46 692.881 -3.81867 1.86307
  47 695.876 -2.26745 -0.0518889
  48 663.223 -0.359097 -1.04307
  49 626.422 -3.88449 -1.91745
  50 584.391 -7.74268 -2.60887
  51 540.573 -7.03473 -1.86764
  52 502.064 -10.2903 -1.70524
  53 461.194 -11.0130 -1.51646
  54 419.776 -9.78507 -0.616534
  55 376.008 -10.2348 -0.921331
  56 338.878 -10.5161 -1.27095
  57 289.307 -9.86511 -0.973317
  58 238.200 -6.37171 -0.623405
  59 195.873 -4.13183 -0.463148
  60 143.575 -2.59163 -0.0630251
  61 105.640 -2.31816 -2.51664
  62 70.4882 -2.96485 -0.758858
  63 34.9973 0.331815 1.71727
  64 25.4977 2.45631 0.796286
  65 22.5178 0.987649 1.89523
  66 23.1773 0.444591 1.96183
  67 14.9585 1.40640 1.12956
  68 11.3549 1.86211 3.97565
  69 8.92563 0.671807 1.80046
  70 -4.83514 1.41519 1.92915
  71 -11.8050 0.943445 3.91396
  72 -15.5984 0.280232 4.16805
  73 -31.1907 1.29845 3.48612
  74 -37.6713 1.97511 6.04828
  75 -45.3466 1.20019 2.72405
  76 -53.4452 0.886967 3.59612
  77 -57.8006 0.931867 1.86819
  78 -66.0863 2.35740 -0.887542
  79 -68.0777 1.61298 -0.614125
  80 -63.0038 1.18559 -1.73689
  81 -54.7593 1.61975 -3.84890
  82 -45.1210 0.770259 -6.27367
  83 -34.0605 0.444668 -6.69489
  84 -20.6020 -0.618600 -7.10240
  85 -9.15680 -0.513184 -4.23331
  86 -3.90276 -1.47196 -2.67890
  87 -0.612303 -3.87919 -2.35226
  88 -0.993878 -9.91303 -4.08230
  89 -1.14899 -18.9568 -7.03815
  90 -0.160229 -35.2524 -7.47146
  91 0.487201 -48.2287 -9.24923
  92 1.05592 -69.0180 -7.48134
  93 3.14444 -81.2001 -8.69079
  94 0.667428 -85.8541 -6.76636
  95 -0.00820303 -96.7270 -3.30891
  96 2.81254 -90.2861 0.832774
  97 11.5930 -115.526 7.76434
  98 11.0939 -50.8571 22.0215
  99 25.5456 -3.54529 45.5466
  100 74.0680 158.634 130.598
  101 299.498 440.006 347.988
  102 1612.92 178.198 236.889
  103 1364.78 48.6543 85.2662
  104 1302.52 20.7632 29.2236
  105 1268.58 13.4424 -0.168765
  106 1290.48 19.7824 -24.1356
  107 1376.52 41.5104 -70.3352
  108 1596.27 140.356 -219.623
  109 195.260 497.328 -287.771
  110 52.2346 126.522 -102.319
  111 18.9286 -15.7807 -38.5917
  112 10.0751 -58.0087 -19.3991
  113 11.5147 -120.625 -6.50187
  114 2.67905 -92.5260 0.0481577
  115 -0.175345 -97.8378 3.76576
  116 0.561728 -86.2741 7.01005
  117 3.08611 -81.2861 8.79273
  118 1.03361 -68.9650 7.51815
  119 0.470478 -48.1506 9.26124
  120 -0.168383 -35.1585 7.46550
  121 -1.14981 -18.8976 7.02189
  122 -0.995998 -9.86308 4.06748
  123 -0.611775 -3.86044 2.33934
  124 -3.88035 -1.46968 2.66799
  125 -9.11670 -0.515589 4.22136
  126 -20.5494 -0.624384 7.09471
  127 -33.9986 0.438128 6.69572
  128 -45.0839 0.763069 6.28552
  129 -54.7682 1.61450 3.87307
  130 -63.0604 1.18506 1.76326
  131 -68.1967 1.61128 0.640095
  132 -66.2578 2.35675 0.914767
  133 -58.0328 0.934140 -1.84400
  134 -53.7234 0.889778 -3.57774
  135 -45.6485 1.20348 -2.70909
  136 -38.0012 1.97909 -6.04120
  137 -31.5318 1.30225 -3.48014
  138 -15.9384 0.282546 -4.16762
  139 -12.1488 0.947507 -3.91804
  140 -5.16603 1.42085 -1.93563
  141 8.62952 0.675515 -1.81365
  142 11.0929 1.86611 -3.99616
  143 14.7279 1.40761 -1.14759
  144 22.9956 0.443879 -1.97961
  145 22.3716 0.985951 -1.90962
  146 25.3756 2.45345 -0.808681
  147 34.8970 0.329728 -1.72466
  148 70.3978 -2.97593 0.751579
  149 105.559 -2.34524 2.50885
  150 143.512 -2.63933 0.0524113
  151 195.833 -4.20064 0.457804
  152 238.166 -6.45120 0.622851
  153 289.264 -9.93335 0.984597
  154 338.793 -10.5486 1.29392
  155 375.877 -10.1883 0.974959
  156 419.599 -9.62320 0.677226
  157 460.956 -10.6357 1.42691
  158 502.289 -10.4037 1.48515
  159 540.746 -7.71124 1.97713
  160 584.833 -7.62055 2.35579
  161 627.601 -3.52968 1.94460
  162 662.273 -0.401139 1.01843
  163 398.015 -36.1652 -38.3367
  164 396.497 -36.8305 38.2418
  165 124.484 33.6694 -53.3430
  166 125.687 33.7827 53.1394
  167 465.334 -20.1516 126.573
  168 487.004 -22.9340 -123.307
  169 237.892 -12.8615 18.1628
  170 237.848 -12.7404 -18.3717
  171 496.186 -19.1404 -0.578709
  172 486.757 -19.1934 0.781175
  173 667.667 119.322 -14.6271
  174 669.464 7.57143 -74.5966
  175 657.142 12.3728 81.3976
  176 167.589 -6.58892 -36.3018
  177 167.621 -6.54663 36.2477
  178 578.820 -56.8892 22.5727
  179 578.507 -44.5329 -35.4010
  180 10.2205 15.1008 11.2836
  181 10.4630 15.1951 -11.1383
  182 790.633 162.191 16.2077
  183 158.237 72.0574 -114.968
  184 169.324 72.6684 122.762
  185 559.143 -27.3374 15.1580
  186 836.351 178.585 -0.746453
  187 369.367 -14.8585 -6.50554
  188 368.810 -15.1990 6.47313
  189 573.663 -19.4708 -14.1390
  190 757.719 1.84226 -21.8632
  191 155.835 -4.71365 7.18667
  192 155.766 -4.74943 -7.26544
  193 68.5873 7.69288 -25.4398
  194 68.8809 7.61443 25.4999
  195 329.698 -12.3932 -81.4281
  196 328.423 -13.0387 82.4375
  197 392.115 -26.4932 -15.7401
  198 392.880 -26.3459 16.4924
  199 112.830 -3.90814 19.7218
  200 112.661 -3.85861 -19.7533
  201 748.904 -6.01367 59.9260
  202 618.237 -59.1419 -3.92581
  203 583.752 -7.68386 -1.50998
  204 571.545 -9.09202 1.43682
  205 593.935 70.2047 58.8104
  206 27.4342 25.8235 -12.9635
  207 28.3567 25.7953 13.3750
  208 586.203 -23.0398 68.2642
  209 547.710 42.4646 -68.3741
  210 382.895 93.6000 -252.673
  211 402.679 79.2405 235.080
  212 14.7869 13.3778 -4.64254
  213 15.0223 13.3781 4.75783
  214 584.753 -20.1710 -70.7452
  215 997.968 138.570 -10.2764
  216 485.663 -52.2952 49.6141
  217 489.116 -52.0405 -47.2648
  218 485.361 -35.7241 2.48443
  219 594.078 -10.9696 7.11774
  220 298.441 -20.9297 -32.5994
  221 294.027 -20.8561 33.4506
  222 182.605 3.30096 -53.5824
  223 182.877 3.23792 53.1857
  224 612.347 -62.7392 -15.4263
  225 481.501 -37.8818 -4.60294
  226 591.839 -10.8031 -5.18927
  227 466.745 -14.0046 -1.53243
  228 470.570 -13.2175 2.37198
  229 588.679 -26.7797 37.5919
  230 60.8418 0.269827 -21.1100
  231 61.0777 0.246093 21.1154
  232 -6.82378 -4.37270 -19.4520
  233 -6.86143 -4.42098 19.4660
  234 104.717 -4.21605 -11.6160
  235 104.867 -4.22619 11.5419
  236 260.002 -8.52798 8.19388
  237 260.043 -8.65625 -8.24377
  238 292.770 21.0078 -116.685
  239 292.810 17.6465 115.423
  240 596.292 -19.3129 -32.2002
  241 288.674 -17.1183 -50.9615
  242 288.937 -17.6262 50.3432
  243 536.589 9.06860 77.8109
  244 477.697 40.8063 4.74287
  245 514.438 -51.5219 4.70967
  246 3.08213 -10.2921 -16.3754
  247 2.90886 -10.4320 16.5244
  248 35.7165 41.8248 -43.4962
  249 37.8775 40.6497 45.3872
  250 506.130 -50.4441 -7.99747
  251 896.525 178.932 -27.6211
  252 51.8559 34.1704 -20.8032
  253 52.4396 34.1670 21.0028
  254 -17.3512 4.59940 12.2516
  255 -17.2517 4.62338 -12.1817
  256 899.632 169.199 33.1973
  257 328.035 -16.7930 -14.2006
  258 327.806 -16.5529 13.9925
  259 625.629 -40.7504 60.4826
  260 1107.00 180.910 115.059
  261 198.037 -10.6410 -30.1612
  262 198.023 -10.7158 30.1450
  263 645.103 97.0946 -54.9034
  264 1071.29 205.032 -106.954
  265 758.350 81.3409 46.5526
  266 810.885 66.0222 -164.051
  267 513.565 -25.8233 3.33375
  268 588.856 4.22113 -85.9203
  269 552.694 -39.7746 -18.1868
  270 612.380 -11.8909 20.0379
  271 6.28912 5.96116 -9.22962
  272 6.52699 5.94377 9.31381
  273 604.963 -14.4676 -156.666
  274 72.2994 20.6736 -26.2182
  275 72.6282 20.6424 26.3469
  276 592.142 -14.4597 -42.7891
  277 88.9513 100.027 -119.869
  278 87.8986 -0.450783 -2.74464
  279 87.9974 -0.435705 2.71192
  280 623.822 -37.1464 -63.5019
  281 115.767 52.0142 -66.3498
  282 117.391 51.7643 66.5375
  283 43.9291 -1.10363 14.6003
  284 43.6779 -1.09132 -14.6043
  285 512.726 -24.6781 -3.31725
  286 89.5834 99.0384 122.825
  287 797.060 77.8717 190.170
  288 234.620 -9.77795 -11.4012
  289 234.598 -9.72447 11.2766
  290 414.181 -18.8022 -6.87841
  291 413.992 -20.1775 7.39226
  292 353.426 36.5547 -173.592
  293 563.221 -61.0446 -1.40728
  294 632.253 -5.15767 2.98581
  295 340.771 36.7452 168.329
  296 397.374 -12.6010 -2.45525
  297 397.230 -12.5963 2.77599
  298 553.654 -41.2678 18.4926
  299 629.113 -7.77293 -8.79993
  300 3.93877 2.29604 -12.0207
  301 4.20450 2.27879 12.0634
  302 800.027 157.634 -3.41690
  303 694.957 -28.7583 26.5021
  304 622.427 -4.75877 -0.569327
  305 632.570 -4.17841 0.517826
  306 626.575 -51.7014 62.0894
  307 772.100 86.8101 -41.8263
  308 685.884 127.123 30.1377
  309 313.841 -19.9836 -21.5804
  310 311.159 -20.3267 21.9281
  311 631.269 -5.10180 -1.67606
  312 424.429 -31.1443 -88.7963
  313 418.768 -33.8935 19.6274
  314 398.996 -20.7778 100.291
  315 624.531 -8.62220 10.7261
  316 155.738 -7.10839 -19.0592
  317 155.857 -7.15830 18.9936
  318 577.772 -14.3336 154.769
  319 375.388 -30.3716 -26.8657
  320 681.665 89.5494 67.7610
  321 223.766 15.5527 -77.6964
  322 215.761 16.2855 77.1454
  323 79.4562 -1.43056 -4.96590
  324 79.5922 -1.42187 4.91404
  325 554.081 -13.1796 3.12672
  326 531.907 -9.79129 -0.181428
  327 529.079 -10.5177 0.0162422
  328 588.379 -15.2041 45.4675
  329 64.7432 -2.04303 11.1199
  330 64.5225 -2.02510 -11.1586
  331 184.653 -4.66236 -4.13293
  332 184.691 -4.59701 4.09853
  333 6.36988 -22.6428 -7.48917
  334 5.99542 -22.8599 7.93461
  335 471.994 20.8736 53.2619
  336 701.361 -25.9648 -19.2826
  337 460.366 -26.0362 -2.92269
  338 516.188 -12.5794 -0.608877
  339 553.538 68.5178 -31.9002
  340 116.967 -3.85373 -27.1507
  341 117.127 -3.85786 27.1389
  342 448.249 -24.6704 5.13744
  343 135.006 3.91339 -38.7078
  344 135.268 3.80471 38.6151
  345 28.7598 21.8632 -4.17091
  346 29.0698 21.8655 4.30624
  347 540.593 -56.4244 62.2408
  348 1164.56 76.4898 30.0400
  349 494.533 8.27686 -62.8909
  350 407.077 -36.3485 56.8167
  351 405.022 -35.5709 -58.3627
  352 597.076 -8.80849 84.6576
  353 536.532 -3.35127 61.5915
  354 533.878 -54.5387 -64.0105
  355 326.524 -9.73424 1.55772
  356 326.470 -9.82513 -1.48066
  357 590.626 -38.3441 49.4363
  358 808.807 159.556 0.168298
  359 628.440 -8.08893 -14.7934
  360 175.722 -6.84679 -14.1325
  361 175.813 -6.85411 14.0201
  362 594.143 -53.4393 -76.0890
  363 631.364 45.8737 -83.6097
  364 438.747 23.6087 -34.3405
  365 595.129 -39.1739 -57.2632
  366 -18.7155 0.971972 -14.9395
  367 -18.7346 0.947122 14.9582
  368 499.637 -14.0218 -0.733021
  369 -7.08377 -4.17496 -9.32335
  370 -7.07382 -4.17573 9.30237
  371 382.484 208.453 -304.842
  372 17.8109 16.4360 6.03604
  373 18.2020 16.5570 -5.82552
  374 532.860 -3.53267 -61.1069
  375 298.297 -13.6857 10.7664
  376 298.483 -13.8473 -10.8545
  377 -1.64976 -20.2805 17.0769
  378 -1.61779 -20.2443 -17.0613
  379 313.317 217.839 287.852
  380 245.761 -13.4269 -40.4838
  381 245.972 -12.8927 40.5141
  382 80.1342 60.5677 -62.1839
  383 81.7410 60.4475 61.8723
  384 -26.2973 4.75742 3.83143
  385 -26.1595 4.76599 -3.75471
  386 610.756 42.1923 84.4668
  387 467.180 -48.9195 30.4472
  388 467.698 -43.2332 15.5194
  389 562.429 -62.8999 -15.5620
  390 148.817 17.8502 -52.7594
  391 149.312 17.8287 52.6989
  392 13.7744 -11.9113 5.46816
  393 13.0874 -12.2150 -4.48816
  394 581.380 82.5550 20.6810
  395 571.285 -18.0013 11.1850
  396 335.724 -26.4917 38.0580
  397 212.189 -5.76576 -47.7720
  398 212.293 -5.80588 47.4696
  399 422.980 -14.7430 -3.77733
  400 422.557 -13.2162 3.42016
  401 332.990 -27.1572 -40.0726
  402 262.556 -4.72355 -63.3271
  403 262.541 -5.07436 63.8046
  404 597.475 -53.9538 -31.2850
  405 354.555 -28.0259 25.3664
  406 542.764 -18.4179 5.36915
  407 541.581 -17.0169 -4.11138
  408 459.416 -42.9489 -17.1008
  409 644.326 -4.06485 -3.22663
  410 225.186 94.8541 -177.432
  411 613.623 -9.58344 25.5068
  412 643.237 -4.52405 5.26938
  413 243.001 -13.4469 25.3016
  414 243.074 -13.2735 -25.2849
  415 465.130 -48.3461 -31.2305
  416 71.9007 30.6440 28.3549
  417 71.5291 30.6157 -28.3665
  418 1175.71 76.4300 -61.0512
  419 533.588 -31.8127 -8.63600
  420 647.239 -3.52604 1.85400
  421 213.205 89.0636 169.573
  422 962.130 161.183 34.5041
  423 567.962 -10.6480 -2.36741
  424 432.361 -32.4671 -13.8004
  425 185.599 35.7574 -87.3619
  426 197.420 33.0804 86.8341
  427 527.674 -34.6426 8.47097
  428 564.360 -7.13780 -44.8231
  429 6.83102 -0.607696 11.0453
  430 6.54638 -0.601966 -11.0345
  431 208.327 50.9107 -115.280
  432 208.993 51.0845 114.943
  433 30.3505 11.4036 -13.5636
  434 30.6141 11.3815 13.6686
  435 474.262 -11.4756 -0.0108773
  436 473.695 -11.2395 0.160538
  437 588.040 -27.3251 -39.4014
  438 -0.457974 -0.243879 19.9912
  439 -0.351944 -0.146523 -19.9131
  440 604.808 -58.4330 25.9848
  441 570.353 -16.9999 -9.62666
  442 918.967 175.489 -33.4262
  443 53.4983 -1.76934 5.40514
  444 53.2983 -1.76961 -5.44978
  445 1091.28 318.905 150.528
  446 24.1666 23.1363 -39.3411
  447 78.6150 3.09210 -26.7993
  448 78.8643 3.03875 26.8063
  449 1090.46 326.937 -147.590
  450 25.5993 25.6117 42.7202
  451 -23.9665 3.51605 -0.419633
  452 -23.7865 3.51133 0.493366
  453 66.7445 45.8275 -38.5049
  454 67.8364 45.8681 38.6947
  455 725.321 116.246 -52.9398
  456 580.200 -23.7888 -24.1408
  457 644.103 -3.57595 -1.53336
  458 606.951 -9.72584 -30.2372
  459 -5.40605 5.38506 18.1068
  460 -5.29784 5.44875 -18.0320
  461 586.415 -24.5812 28.7849
  462 388.058 -23.1830 -12.7230
  463 386.934 -23.3931 11.4972
  464 519.765 -57.0308 -16.0698
  465 374.594 -3.85078 -121.600
  466 569.273 -8.55039 45.6740
  467 464.035 -17.0880 2.76140
  468 672.853 -46.3592 -18.4389
  469 363.173 4.86405 130.005
  470 41.3191 -0.652607 10.6557
  471 41.0608 -0.641740 -10.6718
  472 747.041 147.453 -21.7370
  473 588.499 -6.34369 -0.218717
  474 586.591 -6.93461 -0.286890
  475 453.030 -31.5357 8.51698
  476 209.330 -7.44123 -8.13738
  477 209.340 -7.36540 8.06043
  478 126.063 -1.89114 -32.1103
  479 126.221 -1.91519 32.0654
  480 399.722 15.4672 20.6482
  481 109.131 -3.51846 15.8021
  482 108.966 -3.48692 -15.8642
  483 110.148 9.66863 36.3408
  484 109.790 9.81132 -36.3021
  485 577.469 -44.8248 33.8443
  486 330.249 -20.6549 -59.9275
  487 307.807 -11.1554 6.03020
  488 307.900 -11.3865 -6.03440
  489 333.630 -21.2819 59.9357
  490 894.701 216.658 -30.7271
  491 -14.2708 -2.02773 -11.8807
  492 -14.2607 -2.03915 11.8722
  493 238.956 -7.38573 -3.46444
  494 238.973 -7.29210 3.45414
  495 0.512158 -36.8802 -13.5439
  496 0.417631 -37.0028 13.6718
  497 525.616 -10.1360 -0.0414750
  498 397.721 18.5234 -10.2439
  499 519.720 54.2044 28.9373
  500 327.386 -2.60728 -98.2445
  501 169.431 -8.71734 23.7932
  502 169.389 -8.64587 -23.8211
  503 -33.3161 1.20314 -4.47810
  504 -33.0654 1.19549 4.51348
  505 625.093 -9.69712 -82.6115
  506 67.9275 0.214004 -3.54027
  507 68.0508 0.221748 3.50283
  508 520.347 -41.8547 -5.09698
  509 553.463 -47.5286 -16.6649
  510 118.457 94.3576 -123.469
  511 465.411 16.8845 -187.171
  512 9.45970 15.0374 6.15422
  513 9.68833 15.0723 -6.02518
  514 294.012 -14.4700 -14.8169
  515 293.888 -14.3552 14.5721
  516 788.734 41.3666 -4.35589
  517 574.801 -34.6142 -31.0124
  518 115.602 89.7493 121.862
  519 569.229 -63.1142 24.5263
  520 548.586 -52.2452 10.9820
  521 131.655 -3.18165 -10.4478
  522 131.757 -3.17113 10.3643
  523 466.596 5.56629 48.8243
  524 333.537 -25.2533 -26.4386
  525 602.763 -14.7164 17.4186
  526 -2.33972 -14.6981 -11.6070
  527 -2.34543 -14.6840 11.5881
  528 429.443 -37.3902 66.8983
  529 644.432 -46.9149 -37.5052
  530 829.781 69.3306 -44.0790
  531 458.828 -17.5936 -2.77911
  532 151.043 -2.93265 -2.96914
  533 151.102 -2.88482 2.94615
  534 295.572 2.83112 94.9313
  535 800.995 140.262 28.6802
  536 795.996 182.989 -291.160
  537 728.916 9.49694 32.8509
  538 529.663 -58.4805 13.3623
  539 1210.12 96.5262 82.2266
  540 913.067 229.045 41.2137
  541 142.484 -6.03561 25.8685
  542 142.362 -5.97854 -25.8981
  543 509.908 -43.0345 1.84996
  544 43.6908 18.9177 -13.4069
  545 43.9888 18.9120 13.5291
  546 636.729 -50.8622 37.7317
  547 534.393 29.7535 71.3602
  548 637.040 -4.80820 9.88465
  549 478.222 -30.1237 -1.74710
  550 657.253 15.0230 -197.248
  551 1026.59 289.291 200.450
  552 514.668 -12.3425 0.337266
  553 627.786 -7.10869 -16.5528
  554 105.970 43.4712 -50.8535
  555 106.718 42.9601 50.6648
  556 368.533 -16.2993 -8.61170
  557 368.379 -15.9608 8.73628
  558 4.93648 -37.0667 -8.76533
  559 644.513 -20.6371 71.8753
  560 28.3610 24.5654 -1.89742
  561 28.7615 24.6377 2.08994
  562 5.68772 -35.4829 10.1542
  563 588.886 -26.5270 -59.5664
  564 676.326 45.6686 -77.7864
  565 674.432 51.4703 77.9402
  566 35.2089 34.0370 30.4336
  567 33.5570 34.6804 -29.8959
  568 -8.84191 0.537519 8.53239
  569 -9.13036 0.543693 -8.51452
  570 613.891 24.1819 202.833
  571 347.650 -20.3188 15.6069
  572 347.975 -20.2505 -15.8072
  573 737.286 -4.33395 -109.833
  574 113.190 -1.58227 6.04051
  575 113.095 -1.60358 -6.09678
  576 63.5121 -1.18617 -1.38401
  577 63.6101 -1.17838 1.37084
  578 816.287 154.798 -20.0938
  579 81.1661 137.637 -134.671
  580 448.530 9.53750 -41.4815
  581 618.054 98.2229 -34.8009
  582 10.5351 2.97122 10.0767
  583 10.9082 3.11276 -9.82753
  584 596.918 306.277 338.790
  585 522.696 -16.5612 -1.71649
  586 26.2208 5.27879 -15.1490
  587 26.4823 5.24112 15.2166
  588 604.380 -47.6851 48.2893
  589 95.5794 133.818 137.115
  590 439.332 -11.3755 1.14620
  591 439.457 -11.2988 -1.14775
  592 -0.207642 -29.8051 14.5335
  593 -0.160651 -29.7584 -14.4856
  594 747.423 144.053 -1.19738
  595 474.217 -36.6165 92.4284
  596 453.806 -21.2021 -4.20392
  597 453.900 25.3637 197.186
  598 -36.2856 2.08292 8.44629
  599 -36.2509 2.09421 -8.40850
  600 737.443 15.2677 -35.8010
  601 963.435 183.749 -147.419
  602 288.479 30.7125 -134.333
  603 163.563 -7.05317 -31.2973
  604 163.728 -7.05738 31.3104
  605 661.292 -2.83961 2.39034
  606 449.607 -21.6087 3.70160
  607 592.299 -9.82281 4.93554
  608 588.848 -26.6237 58.0737
  609 40.7680 -1.01203 5.44195
  610 40.5317 -1.00791 -5.47459
  611 355.132 -13.8438 -5.13339
  612 355.093 -13.5190 5.02662
  613 224.972 4.61474 -65.2070
  614 223.598 4.68321 64.9660
  615 833.751 61.4523 63.6244
  616 1333.25 100.563 -144.730
  617 1.25200 -0.894197 7.35049
  618 0.948286 -0.891470 -7.34595
  619 216.784 -9.42740 14.8196
  620 216.749 -9.41422 -14.9762
  621 782.046 50.3187 15.0356
  622 652.498 -3.37552 -0.755541
  623 651.166 -4.36164 0.188329
  624 494.356 0.288554 48.2360
  625 687.854 -35.2009 -70.5939
  626 383.281 -32.0058 31.3877
  627 -5.31527 9.02578 -6.12229
  628 -5.48633 9.00965 6.22318
  629 609.166 14.1137 88.0526
  630 249.084 -14.6929 -33.0115
  631 248.882 -14.9251 33.0705
  632 494.440 -30.0194 -0.0729379
  633 605.107 -14.4010 -15.6772
  634 354.147 -28.5085 -44.8085
  635 580.012 70.1600 -53.5869
  636 389.458 -26.4857 -76.2777
  637 155.586 -4.17243 -5.59685
  638 155.644 -4.12866 5.53892
  639 357.645 -28.9726 45.0599
  640 753.862 125.037 45.4718
  641 602.379 -28.2529 73.2754
  642 493.049 -23.6907 0.644786
  643 358.760 -11.1331 2.82566
  644 358.672 -11.1511 -2.76070
  645 275.197 -11.1029 -10.7880
  646 275.116 -10.9980 10.7001
  647 578.020 -52.7029 -24.9251
  648 301.533 -17.8341 18.7333
  649 301.828 -17.7625 -19.0261
  650 590.764 90.3773 -7.09361
  651 534.391 -29.4269 9.00105
  652 658.615 -3.71445 -3.95843
  653 573.516 -9.60112 -78.2887
  654 93.7610 -3.94793 20.8328
  655 93.5714 -3.92111 -20.8415
  656 645.012 -4.24897 -9.00178
  657 121.864 63.6429 -88.3226
  658 123.894 63.5182 88.7418
  659 659.392 -34.9442 93.4482
  660 234.726 59.9415 141.506
  661 67.2204 -0.588975 20.8128
  662 66.9997 -0.575445 -20.8140
  663 564.584 -33.2496 117.566
  664 552.213 89.6520 -265.560
  665 553.029 18.5098 -78.7064
  666 719.432 131.162 40.6626
  667 485.005 -23.2611 1.49287
  668 866.191 153.821 -3.74544
  669 -36.5469 2.01236 -3.36297
  670 -36.3369 2.00769 3.41155
  671 389.204 3.52354 -141.342
  672 44.1020 -0.604824 4.08758
  673 43.9173 -0.606283 -4.12208
  674 485.312 -39.4186 -91.5073
  675 167.648 22.4448 -63.2377
  676 166.385 22.5435 63.2170
  677 8.65790 8.30713 -6.44300
  678 8.88810 8.29844 6.54496
  679 415.871 -36.5075 -25.0366
  680 584.996 -5.79928 -29.8332
  681 287.305 -9.81894 -3.77096
  682 287.330 -9.72651 3.79502
  683 211.726 -11.0661 -21.6374
  684 211.904 -11.2120 21.5764
  685 41.6024 34.1249 -15.9345
  686 42.2470 34.2091 16.1591
  687 590.778 -8.77950 1.87599
  688 274.237 -17.8978 27.9746
  689 275.879 -17.6073 -27.9616
  690 656.649 -49.7157 1.83510
  691 544.943 -54.8018 -5.04664
  692 431.653 -14.0820 -2.17626
  693 430.209 -13.2825 2.35620
  694 597.612 -61.0751 40.7131
  695 962.563 195.687 57.9950
  696 525.986 -20.0742 -143.941
  697 601.699 -17.4715 29.6150
  698 601.750 -21.2322 -79.2167
  699 199.151 -6.49954 -10.4733
  700 199.176 -6.45809 10.3702
  701 469.285 -4.88115 160.599
  702 1267.68 164.592 150.255
  703 96.6045 27.0789 -38.3116
  704 96.7530 27.2649 38.4310
  705 588.381 -7.49958 -0.857385
  706 592.819 -6.84587 0.896575
  707 255.782 137.581 -225.504
  708 628.195 -3.99586 16.7412
  709 543.803 -11.3089 0.771164
  710 724.899 142.476 -14.4486
  711 80.8686 13.2681 -28.3487
  712 81.2066 13.1881 28.4494
  713 665.186 -2.32394 0.216632
  714 548.357 -22.7056 -9.44006
  715 682.523 -7.26186 60.6601
  716 288.510 -20.5125 -42.4103
  717 289.223 -19.6728 42.0705
  718 76.9553 -2.38604 15.7500
  719 76.7448 -2.35780 -15.7812
  720 613.611 -5.69022 -2.10550
  721 530.053 115.425 280.774
  722 5.45756 6.19600 15.4589
  723 5.65937 6.32237 -15.3207
  724 616.594 -7.99521 -6.60824
  725 600.342 -12.4728 9.59145
  726 492.250 0.884358 -51.7345
  727 5.03135 -50.8340 -5.12602
  728 4.73186 -51.3761 5.67449
  729 225.979 61.9355 -141.610
  730 484.804 -47.7034 -67.8647
  731 254.508 136.189 227.410
  732 657.788 -2.46646 1.25961
  733 652.318 98.2135 54.9853
  734 487.324 43.9564 -20.2206
  735 843.694 169.905 7.53068
  736 652.282 -3.47100 5.54087
  737 -31.6817 0.941412 6.14043
  738 -31.9610 0.946488 -6.11681
  739 697.197 -35.3172 28.3802
  740 457.870 -15.1091 -2.75403
  741 174.208 -0.182492 -45.9596
  742 174.449 -0.347561 45.7407
  743 598.953 -8.60812 -3.17862
  744 1050.26 148.349 -56.4851
  745 86.0521 -2.31668 -10.2484
  746 86.2353 -2.32954 10.1913
  747 662.430 -2.53001 -2.39217
  748 147.255 -6.45916 -14.2217
  749 147.369 -6.48163 14.1361
  750 657.900 -23.8659 -63.5518
  751 609.001 -6.68219 23.6402
  752 554.165 -2.72996 77.8563
  753 662.288 -2.61707 0.326712
  754 622.948 -6.11870 4.86193
  755 416.975 -23.7793 -8.58242
  756 516.234 -15.5020 0.756358
  757 587.869 -36.1985 -48.1838
  758 572.736 -36.5802 29.5644
  759 674.676 83.4437 -68.8349
  760 564.537 -32.6274 20.9013
  761 598.102 -34.8438 62.7409
  762 353.198 -24.7534 20.2085
  763 13.8108 1.48383 2.77393
  764 13.1423 1.43296 -2.13908
  765 521.454 -9.96206 -0.408357
  766 520.389 -9.90912 0.221501
  767 618.226 -4.26532 -0.136206
  768 620.227 -4.15830 0.272349
  769 597.492 -17.2051 37.0316
  770 550.751 -48.4672 87.1619
  771 456.569 -37.8811 12.5011
  772 407.581 -25.5708 11.6431
  773 1069.81 136.572 64.4361
  774 601.610 -16.2455 -22.7300
  775 357.038 66.0739 -210.841
  776 560.698 -28.8670 -17.7648
  777 31.5586 0.306281 -15.5039
  778 31.8198 0.285926 15.5288
  779 515.506 45.3160 -45.2645
  780 1231.20 37.3365 -15.7685
  781 634.597 18.2401 -85.1924
  782 26.8484 33.0518 -56.0060
  783 658.365 117.419 13.8946
  784 508.751 -33.5760 2.68076
  785 575.110 -13.6351 75.8135
  786 482.472 -49.7286 68.2234
  787 755.944 5.11770 132.535
  788 28.8874 38.8698 59.4568
  789 352.500 -1.29515 111.613
  790 486.138 -14.5323 1.00761
  791 540.564 -46.4485 -88.1477
  792 339.128 -26.9062 -32.5257
  793 268.811 13.1565 -98.5148
  794 628.108 -8.08157 83.4071
  795 407.104 -28.7633 17.0760
  796 92.3179 -2.38249 8.90439
  797 92.1709 -2.38478 -8.97090
  798 586.733 -3.37392 26.3672
  799 538.616 3.49643 -76.0520
  800 -44.4500 2.18057 4.90377
  801 -44.3826 2.18512 -4.86164
  802 396.468 -14.0925 -3.55628
  803 395.390 -13.4363 3.42211
  804 295.632 34.2502 136.112
  805 268.442 -16.2026 21.5390
  806 268.773 -15.8338 -21.7203
  807 661.673 -2.01581 -1.12398
  808 242.868 19.4531 96.2464
  809 22.1810 -0.225686 5.67918
  810 21.8991 -0.220892 -5.69752
  811 580.055 -17.6809 58.1880
  812 608.548 -6.70139 1.52816
  813 -32.5304 0.525355 8.74810
  814 -32.5406 0.536471 -8.73029
  815 384.372 -23.6073 84.9557
  816 77.7158 68.0064 -76.1803
  817 78.6194 65.1921 75.1351
  818 381.181 16.5718 8.56835
  819 6.52272 -0.483415 -6.47534
  820 6.83118 -0.487256 6.47253
  821 439.899 -41.2653 -64.0996
  822 594.309 -61.2948 -11.3660
  823 -3.02600 -2.86557 -3.84964
  824 -3.01654 -2.85832 3.83484
  825 49.8196 0.942527 -1.41791
  826 49.9336 0.947920 1.39805
  827 530.551 -47.6582 6.40324
  828 449.449 -45.7544 46.6692
  829 494.079 -10.4920 -0.110333
  830 448.470 -37.0129 -14.0812
  831 176.833 -3.29003 -1.23429
  832 176.880 -3.22737 1.22007
  833 -49.5282 1.08330 2.45847
  834 -49.4153 1.08209 -2.41652
  835 554.038 -9.20333 -1.05714
  836 506.477 20.6100 -65.0740
  837 560.836 -12.9974 -4.50487
  838 339.863 -26.5099 31.1683
  839 563.553 -9.50831 -62.1971
  840 596.812 -18.6506 -38.2307
  841 556.120 -8.19882 0.904575
  842 412.384 -14.4389 114.294
  843 440.635 -43.3423 -28.8293
  844 270.300 -2.05589 -76.6573
  845 271.735 -0.181624 77.0534
  846 378.379 -29.1752 -21.8899
  847 623.894 68.8366 73.0261
  848 584.575 -58.8604 -52.1127
  849 223.267 -7.52142 -5.44463
  850 223.271 -7.42519 5.40299
  851 450.733 -12.3016 1.56548
  852 450.762 -12.3852 -1.47541
  853 541.449 -3.84326 -40.9041
  854 191.865 -8.29360 -17.5270
  855 191.985 -8.35303 17.4096
  856 2.38673 -53.2035 -9.85770
  857 2.26984 -53.4369 10.0853
  858 107.099 -1.53424 -0.0655536
  859 107.017 -1.56103 0.0484883
  860 550.432 -10.6420 -1.43596
  861 424.696 -40.5463 42.5258
  862 649.267 -53.1954 11.1397
  863 402.857 8.40974 32.7922
  864 562.951 -15.0537 5.29790
  865 616.732 -53.9229 -35.0534
  866 97.7135 5.47244 -31.6071
  867 97.9961 5.37910 31.6045
  868 491.667 -11.0938 0.122232
  869 401.017 -15.6111 -5.89922
  870 399.707 -15.4968 6.25789
  871 619.466 96.2072 39.2642
  872 220.642 -2.56832 -54.7961
  873 220.473 -2.81517 54.5987
  874 428.642 -39.2915 23.8789
  875 45.5629 28.2204 -14.0280
  876 45.9795 28.1749 14.1533
  877 364.519 -25.7547 70.2046
  878 434.371 -28.9209 -9.43184
  879 544.261 -3.98912 41.3235
  880 529.162 -58.8901 27.3490
  881 605.283 -45.1778 -52.7339
  882 423.654 -40.8729 -43.0217
  883 355.619 -24.6672 -19.4822
  884 1113.07 90.8311 -17.4997
  885 553.663 -58.2968 1.25454
  886 19.1478 19.6244 3.09575
  887 19.4436 19.6668 -2.93801
  888 483.606 -48.7226 16.2202
  889 528.230 -58.4600 -42.3276
  890 21.2062 16.6505 -2.91832
  891 21.4683 16.6595 3.04098
  892 207.973 -7.74195 42.2702
  893 208.062 -7.95318 -42.4788
  894 249.275 -12.9096 46.2258
  895 249.160 -13.1944 -46.4906
  896 763.359 152.873 16.0231
  897 -1.02282 -23.5652 -11.1510
  898 -1.03066 -23.5323 11.1409
  899 182.781 14.9109 -60.2506
  900 181.946 14.6196 59.7358
  901 1270.64 41.1492 -63.4193
  902 42.6796 -0.190223 2.36816
  903 42.5258 -0.194405 -2.39535
  904 2.62034 -57.5567 1.19968
  905 3.01090 -56.4831 -0.292094
  906 -25.2104 -0.226338 9.20387
  907 -25.2428 -0.218284 -9.20200
  908 146.441 42.6732 -70.5517
  909 148.672 41.2531 69.6463
  910 -10.0490 1.10080 -18.8665
  911 -10.1034 1.05460 18.9000
  912 48.6533 3.45576 -21.1207
  913 48.9195 3.40971 21.1561
  914 161.794 -2.26542 39.1521
  915 161.663 -2.25694 -39.3123
  916 134.743 -4.78085 -31.7393
  917 134.893 -4.77455 31.7057
  918 649.007 -2.85710 -9.05751
  919 323.124 72.5558 196.875
  920 444.875 -44.1576 27.4215
  921 321.127 -23.5757 25.6065
  922 610.989 63.9614 -72.5557
  923 1249.99 26.5392 25.5368
  924 713.043 36.5266 -64.0137
  925 131.131 -4.96603 20.0710
  926 130.985 -4.91258 -20.1297
  927 31.9650 -0.797588 -14.7717
  928 32.2257 -0.804260 14.7772
  929 0.291611 -9.81719 -20.2104
  930 0.197173 -9.91191 20.2798
  931 331.763 -15.6554 12.1492
  932 331.916 -15.9284 -12.1916
  933 46.0434 10.6597 -19.5055
  934 46.3248 10.6143 19.5986
  935 206.960 -9.51831 -36.2153
  936 207.114 -9.52268 36.2036
  937 443.066 -1.30275 -38.4756
  938 214.060 -11.8497 -25.7218
  939 213.947 -11.7373 25.8005
  940 495.500 -15.7632 1.22387
  941 600.100 -33.5237 -67.8352
  942 271.566 -11.6672 12.5399
  943 271.670 -11.7612 -12.6717
  944 -11.0485 -1.12651 -6.67496
  945 -11.0166 -1.12917 6.65959
  946 606.249 -43.0137 -106.573
  947 583.991 -34.5151 41.3185
  948 513.578 -36.8711 -4.64262
  949 512.179 18.3118 68.4714
  950 237.019 -13.6405 -28.8348
  951 237.050 -13.4022 28.9146
  952 566.665 22.8288 81.9373
  953 533.824 46.9206 54.0479
  954 1045.62 124.705 22.5039
  955 543.827 -21.0651 6.14745
  956 296.367 -9.78773 -5.69321
  957 296.345 -9.62447 5.73133
  958 490.381 -40.9417 4.14035
  959 681.599 124.681 -31.7813
  960 590.919 -8.01726 -1.97946
  961 397.278 -11.4186 1.91177
  962 397.138 -11.3438 -1.80417
  963 53.5590 46.2802 -35.9181
  964 54.8422 46.2328 36.1551
  965 94.1263 270.529 -217.907
  966 564.774 -12.8468 61.7724
  967 693.220 -9.22700 -52.5140
  968 -7.65577 6.92808 1.38672
  969 -7.46721 6.92867 -1.29032
  970 1361.61 333.352 -262.340
  971 594.974 -63.3837 -1.59507
  972 632.411 -55.7808 -34.2254
  973 586.908 -49.9427 35.8103
  974 730.713 142.702 11.8848
  975 55.7210 64.3909 -71.4136
  976 134.924 236.590 216.112
  977 -2.83589 -7.24066 20.5649
  978 -2.77756 -7.17117 -20.5309
  979 568.344 -16.1001 6.99413
  980 910.854 159.798 -22.4213
  981 57.2623 63.1447 73.9412
  982 -2.46836 -8.63874 -7.42298
  983 -2.46843 -8.61352 7.40249
  984 490.685 -13.3554 -1.32931
  985 371.969 -29.9877 -34.0646
  986 591.675 -46.3462 -43.9885
  987 174.451 47.0952 -91.5687
  988 177.184 47.8507 91.7963
  989 578.253 -14.1875 -54.6438
  990 576.800 -19.5663 15.0537
  991 -13.9980 4.47962 16.1692
  992 -13.9207 4.52139 -16.1128
  993 355.297 -23.3145 -66.3299
  994 587.363 38.7398 -81.5876
  995 434.764 -17.9325 4.25549
  996 318.760 -10.2183 1.23983
  997 318.695 -10.2733 -1.20511
  998 -6.29110 -7.17237 -15.1812
  999 -6.29951 -7.18778 15.1664
  1000 584.645 -21.9524 -19.2409
  1001 554.821 -8.09067 0.186593
  1002 554.318 -8.10036 0.0261875
  1003 770.167 129.551 -40.3697
  1004 147.124 12.0870 -48.2919
  1005 147.490 11.8473 48.2086
  1006 98.9944 -1.18700 -26.5628
  1007 99.1836 -1.20569 26.5448
  1008 639.185 36.2293 86.1861
  1009 597.458 -12.6197 -10.0748
  1010 113.455 17.0276 -40.1100
  1011 113.894 16.9060 40.2519
  1012 619.191 -4.69712 -1.25817
  1013 585.361 -26.0353 -30.6890
  1014 571.704 -63.1044 -32.2095
  1015 24.2333 22.3158 4.04680
  1016 23.6178 22.2111 -3.76574
  1017 -25.5187 4.80259 8.94355
  1018 -25.4181 4.81670 -8.87430
  1019 369.563 13.4555 -14.3130
  1020 977.576 248.742 -78.0528
  1021 455.930 -34.2367 -7.89699
  1022 306.184 -13.4147 -68.0349
  1023 719.141 -24.2410 -4.41075
  1024 307.368 -13.3775 68.9337
  1025 521.361 -59.6216 48.1681
  1026 590.583 -24.5501 -48.3732
  1027 214.645 -5.48150 -1.73746
  1028 214.679 -5.40125 1.72889
  1029 407.964 -32.6298 -19.9991
  1030 254.943 -9.81502 -53.8884
  1031 254.879 -9.88851 53.6601
  1032 86.6670 57.2341 -58.9892
  1033 87.9871 57.1084 59.1651
  1034 183.271 -5.97813 -6.09543
  1035 183.307 -5.91329 6.03477
  1036 524.074 -18.3366 2.08529
  1037 444.543 4.42210 -162.278
  1038 542.636 -19.2141 -6.27223
  1039 493.412 -54.2870 -31.4209
  1040 331.032 -14.9853 8.63190
  1041 331.279 -15.0849 -8.64893
  1042 627.484 -5.10543 1.59546
  1043 566.095 -15.0757 -6.51719
  1044 387.300 9.62427 27.0989
  1045 609.779 -6.15517 -22.0362
  1046 241.545 72.9031 159.732
  1047 625.391 -6.10578 -17.8246
  1048 170.991 28.4038 -70.0956
  1049 166.143 28.7018 67.4577
  1050 742.693 -6.93672 2.18981
  1051 73.0744 37.1329 -32.6610
  1052 73.7165 36.8810 32.6676
  1053 13.0260 3.04753 3.25891
  1054 13.6103 3.16301 -2.87508
  1055 112.034 -2.84571 7.18040
  1056 111.921 -2.86189 -7.25045
  1057 273.605 73.6772 -175.940
  1058 1400.54 380.969 282.440
  1059 583.002 -21.9228 19.7202
  1060 525.995 -58.5145 -25.2443
  1061 370.639 -30.5421 -52.4856
  1062 -5.26248 8.84124 13.0980
  1063 -5.11987 8.88928 -13.0015
  1064 416.459 -22.7684 7.26519
  1065 456.919 -18.6402 3.14718
  1066 -0.145256 -33.2850 10.6476
  1067 -0.134074 -33.3240 -10.6466
  1068 73.1171 44.7795 -38.1978
  1069 73.9453 44.7131 38.4085
  1070 411.182 -21.0897 -7.00098
  1071 37.6461 15.2484 13.6947
  1072 37.3691 15.2650 -13.5788
  1073 621.523 -23.0721 78.8337
  1074 452.645 -46.6130 -46.4357
  1075 372.783 -31.0261 52.4895
  1076 594.919 -10.5661 -84.3813
  1077 617.407 -8.03370 7.28202
  1078 232.381 36.1950 109.016
  1079 234.028 34.6175 -107.265
  1080 369.519 -17.3621 -92.2303
  1081 515.987 -20.1425 -1.82972
  1082 423.977 -26.6327 11.4556
  1083 493.641 -46.5609 -7.87134
  1084 664.460 -2.87537 -4.33154
  1085 370.445 -18.2397 10.1078
  1086 370.288 -19.1953 -10.2936
  1087 14.5527 16.4668 9.01156
  1088 14.8564 16.5824 -8.83554
  1089 601.151 23.6541 -87.5356
  1090 142.031 6.55711 -42.9362
  1091 142.409 6.40860 42.8447
  1092 109.467 1.59939 -31.3920
  1093 109.704 1.54320 31.3542
  1094 672.620 -20.1541 132.519
  1095 589.628 -27.3158 47.4012
  1096 295.683 -13.7852 -58.3951
  1097 673.047 -3.07735 -2.55762
  1098 768.906 147.014 -29.8632
  1099 615.675 -7.19063 -4.19111
  1100 583.079 -62.0306 11.2550
  1101 435.573 -32.2041 81.8235
  1102 675.901 -1.36497 0.236762
  1103 386.615 11.9150 -22.9395
  1104 496.985 -53.1308 -18.1905
  1105 296.179 -14.3909 57.8451
  1106 501.427 -46.1658 5.03268
  1107 618.422 -9.81569 14.9940
  1108 463.551 29.3579 35.4058
  1109 317.440 -23.6139 -47.4495
  1110 920.882 146.879 -70.7527
  1111 705.067 35.6238 68.0989
  1112 541.547 67.4155 8.56498
  1113 671.008 -0.410174 2.07192
  1114 277.678 -17.7264 -37.0986
  1115 188.400 121.257 -177.706
  1116 333.551 10.1626 -128.637
  1117 382.694 -30.1127 25.2776
  1118 325.432 -24.6480 44.8733
  1119 277.080 -16.9042 37.4243
  1120 573.286 6.20749 85.8246
  1121 431.917 -16.7692 -3.72213
  1122 663.499 -5.37317 6.12606
  1123 -4.28443 0.514961 20.2274
  1124 -4.20373 0.586205 -20.1748
  1125 451.191 -14.7582 2.41289
  1126 1.21167 6.47256 17.3849
  1127 1.35892 6.56717 -17.2816
  1128 262.656 -8.99455 6.63611
  1129 262.660 -9.11653 -6.64204
  1130 630.674 -3.66800 14.7841
  1131 510.550 -32.4511 -3.29986
  1132 479.344 -27.0648 2.10731
  1133 534.253 -38.2440 11.5706
  1134 168.267 86.0185 -134.377
  1135 522.917 -21.4593 3.37686
  1136 87.7774 1.14978 -25.9682
  1137 88.0030 1.11070 25.9608
  1138 114.196 75.0351 -96.7152
  1139 827.504 116.861 11.4805
  1140 72.3088 -2.98603 15.3359
  1141 72.0902 -2.96289 -15.3509
  1142 116.223 74.0364 93.6770
  1143 481.599 -41.0574 -6.06876
  1144 253.100 -12.3588 15.1594
  1145 253.120 -12.4066 -15.3545
  1146 966.314 206.464 -61.8171
  1147 528.818 -53.0142 -3.59045
  1148 185.828 114.018 177.438
  1149 17.0574 4.46790 -19.0130
  1150 18.2801 4.68319 20.4298
  1151 567.351 71.1046 42.7939
  1152 46.7846 23.6174 -14.3691
  1153 47.1341 23.6300 14.4746
  1154 532.138 -46.7504 -7.22730
  1155 -0.221586 -50.9152 -9.78065
  1156 -0.245453 -50.9139 9.82520
  1157 567.763 -48.0106 -23.3782
  1158 5.36903 0.637333 5.04565
  1159 5.05563 0.641736 -5.05372
  1160 93.1107 33.6570 -40.6643
  1161 93.6035 33.8079 40.3518
  1162 -18.4754 0.0400544 -6.18401
  1163 -18.1601 0.0380761 6.19178
  1164 562.789 -8.08128 0.0132212
  1165 -52.8290 1.67527 0.0615616
  1166 -52.6715 1.67475 -0.0224358
  1167 307.772 -24.5317 -36.1244
  1168 8.50074 -63.1346 -10.8818
  1169 163.938 -4.79368 11.3144
  1170 163.861 -4.80719 -11.4134
  1171 482.799 -11.3091 1.09668
  1172 483.688 -11.0764 -1.00594
  1173 9.13154 -59.6386 12.6573
  1174 570.752 -30.6565 -24.5783
  1175 646.499 -3.47610 10.5565
  1176 580.564 -37.4877 -37.5808
  1177 517.721 4.33782 67.9486
  1178 3.28406 -17.8323 13.5836
  1179 3.53519 -17.6737 -13.3249
  1180 377.665 -28.3168 20.8684
  1181 -24.2523 2.57605 13.0284
  1182 -24.2073 2.59707 -12.9871
  1183 954.457 150.336 11.2769
  1184 1089.84 367.504 -257.292
  1185 593.062 -56.9001 29.6343
  1186 256.515 -8.17967 -1.16561
  1187 256.545 -8.09513 1.16672
  1188 1183.03 115.069 -107.159
  1189 100.072 -2.51542 15.8889
  1190 99.8896 -2.47979 -15.9346
  1191 560.628 -1.81166 -26.5832
  1192 362.723 -29.6857 40.6344
  1193 586.523 -56.8086 -19.4492
  1194 568.271 -41.6545 -27.7975
  1195 352.542 -11.8301 96.4403
  1196 135.848 24.5048 -54.1307
  1197 135.795 24.2915 53.8613
  1198 175.538 65.8539 -114.974
  1199 175.814 61.0716 114.997
  1200 55.1920 14.3942 -20.7903
  1201 55.4944 14.3553 20.9017
  1202 704.392 123.144 -46.0411
  1203 39.6136 36.8549 -20.3377
  1204 40.4729 36.9260 20.6002
  1205 507.250 -39.7752 1.49579
  1206 924.455 152.393 78.1516
  1207 134.443 -5.40547 -11.1631
  1208 134.557 -5.40456 11.0762
  1209 590.839 457.486 -368.741
  1210 488.392 29.3989 -54.4365
  1211 452.826 34.3357 22.3634
  1212 66.3072 26.3173 -24.4884
  1213 66.6077 26.3241 24.6077
  1214 29.2815 -0.153350 3.66610
  1215 29.0547 -0.153154 -3.69233
  1216 560.298 -45.3128 21.7109
  1217 549.823 -23.4806 10.6832
  1218 378.047 116.600 -270.529
  1219 864.281 189.917 -17.9742
  1220 378.175 -10.6069 -105.609
  1221 485.173 -16.8521 -1.99284
  1222 43.7979 -2.32169 -0.775261
  1223 43.8902 -2.31958 0.771089
  1224 -5.63313 3.83829 -9.42308
  1225 -5.38696 3.82343 9.48487
  1226 330.323 4.39749 -110.807
  1227 594.071 -14.4386 13.4711
  1228 392.407 9.37838 148.905
  1229 526.930 -27.4754 -6.64497
  1230 276.002 103.187 -215.399
  1231 425.886 -19.2522 -113.571
  1232 505.132 -53.9011 15.4071
  1233 613.319 -10.4573 23.6541
  1234 538.390 -13.2476 -1.68001
  1235 306.572 -23.0958 36.3017
  1236 674.259 -34.8583 -39.0637
  1237 646.902 58.1254 81.3547
  1238 287.045 1.50865 -88.7755
  1239 630.555 -5.27682 1.35153
  1240 528.982 65.2745 -12.2670
  1241 235.085 -8.71358 -11.0520
  1242 235.062 -8.63443 10.9544
  1243 964.107 237.540 71.6385
  1244 1292.72 34.3286 59.3450
  1245 1.30023 -61.8496 -9.63792
  1246 1.26110 -61.9092 9.71457
  1247 150.383 82.0316 126.356
  1248 353.975 -11.8262 -3.05637
  1249 354.051 -11.7673 3.18077
  1250 477.598 -48.3303 -18.8740
  1251 575.216 48.1360 74.0808
  1252 588.683 -13.1937 -7.96591
  1253 674.569 -2.33585 -0.739412
  1254 1164.87 262.423 -167.892
  1255 198.153 -7.67380 11.7548
  1256 198.112 -7.68706 -11.8751
  1257 568.373 -52.6749 21.8260
  1258 979.738 255.075 -90.7651
  1259 550.394 -25.4289 -12.2716
  1260 407.855 -29.3752 -15.9052
  1261 496.530 -53.6648 30.8147
  1262 485.417 -25.8077 -0.967215
  1263 19.6519 14.0227 -27.9900
  1264 658.657 -37.6085 48.8312
  1265 536.083 -36.0898 -11.3984
  1266 21.5337 14.9480 30.4182
  1267 549.724 -40.9725 -107.448
  1268 518.089 38.4026 -221.620
  1269 846.581 116.977 -2.76956
  1270 676.882 -1.08093 -0.160962
  1271 675.820 -1.69484 0.543172
  1272 544.840 -32.9136 13.1256
  1273 216.947 25.8472 -87.7793
  1274 619.484 -53.6556 38.6256
  1275 1039.02 240.649 116.530
  1276 265.668 95.8247 210.199
  1277 8.72693 3.44666 13.3233
  1278 9.00469 3.58856 -13.1324
  1279 647.143 -48.6325 -62.2588
  1280 272.203 -15.4383 -18.0108
  1281 272.176 -15.4801 17.7509
  1282 607.708 -39.1010 64.2388
  1283 32.3602 0.0285041 16.4939
  1284 32.1021 0.0403356 -16.4822
  1285 -3.01100 -12.2546 17.3283
  1286 -2.98883 -12.2285 -17.3340
  1287 121.460 -4.09039 -14.4771
  1288 121.605 -4.11339 14.4034
  1289 326.347 -22.0032 -53.3941
  1290 329.934 -12.1356 4.17877
  1291 329.916 -12.3610 -4.06068
  1292 675.258 -1.05538 0.405532
  1293 610.296 -10.0154 -26.7823
  1294 59.0093 2.01241 -21.1288
  1295 59.2586 1.97801 21.1446
  1296 327.632 -23.2333 53.0544
  1297 680.747 -1.10477 0.380216
  1298 645.819 -1.73899 -0.755397
  1299 645.739 -2.13368 0.603883
  1300 861.212 188.065 -4.19356
  1301 631.850 -5.60442 -3.35168
  1302 564.387 -7.74301 -0.207350
  1303 624.736 -10.5190 -13.2434
  1304 672.678 -2.71524 1.59950
  1305 714.104 77.0469 67.4311
  1306 824.555 175.099 8.61488
  1307 658.056 -3.08940 -6.84323
  1308 -5.65265 -1.37208 5.03182
  1309 -5.67587 -1.37126 -5.04793
  1310 376.352 -24.8037 15.1503
  1311 376.288 -23.7781 -14.7977
  1312 720.492 85.1215 -63.4335
  1313 156.485 54.4091 -96.0645
  1314 157.484 52.9849 95.1152
  1315 499.118 0.221538 -34.0159
  1316 500.509 -10.1764 -1.17242
  1317 499.902 -10.1131 1.06625
  1318 -11.5390 -1.61203 17.5503
  1319 -11.5185 -1.57870 -17.5455
  1320 562.177 -1.49075 26.5219
  1321 843.615 167.551 -8.27362
  1322 74.9743 -2.36641 -9.10644
  1323 75.1556 -2.37178 9.04823
  1324 622.718 -58.1587 17.1052
  1325 3.33514 11.5301 12.9387
  1326 3.52032 11.5985 -12.8183
  1327 130.570 -2.94259 -3.22162
  1328 130.644 -2.90275 3.18229
  1329 499.200 -0.491007 34.5517
  1330 37.8962 0.979585 -1.45099
  1331 38.0291 0.983359 1.43102
  1332 628.716 -8.41726 8.09688
  1333 881.678 158.905 11.2022
</Section>

newXOutput 82

<Section columns = "stress_xx | stress_yy | stress_xy">
  1 698.326 -2.26660 1.27878
  2 699.312 -2.75736 -1.65872
  3 32.3855 0.630211 -1.74159
  4 -0.565575 -0.822185 -0.581526
  5 1244.35 539.140 418.745
  6 1263.48 613.627 -422.438
  7 -0.559780 -0.817058 0.574045
  8 32.2910 0.626609 1.73767
  9 702.786 -1.63439 -1.15447
  10 698.146 -2.74155 -1.72937
  11 698.991 -2.21242 1.31610
  12 696.237 -1.43756 0.362031
  13 695.409 -2.58876 -0.740155
  14 695.184 -2.52751 2.28655
  15 686.642 -1.93378 1.99085
  16 690.027 -5.10186 3.39982
  17 670.903 -4.34147 7.70425
  18 659.254 -2.16689 9.32715
  19 642.806 -2.48857 10.1746
  20 613.565 -2.22150 14.5635
  21 581.211 -1.79348 17.0964
  22 540.257 2.26489 23.7487
  23 483.592 3.54578 21.6460
  24 460.519 0.101085 31.1734
  25 388.907 5.50075 22.2728
  26 344.798 7.06985 17.5658
  27 333.299 3.86949 12.9960
  28 320.973 10.4208 1.01010
  29 327.765 11.0805 -17.4201
  30 341.175 3.37127 -21.8225
  31 395.353 1.76288 -28.9851
  32 449.417 -2.52244 -29.7979
  33 485.604 2.95318 -21.5868
  34 540.828 2.55960 -23.7320
  35 579.827 -2.10445 -18.3531
  36 616.690 -2.39834 -13.6999
  37 640.532 -1.89882 -10.3497
  38 657.379 -2.32563 -8.47548
  39 675.662 -2.57270 -4.79670
  40 682.224 -2.80641 -4.50739
  41 688.753 -2.62503 -4.03584
  42 695.271 -2.94024 -0.513105
  43 697.567 -3.64194 -1.53517
  44 693.209 -0.263140 0.194963
  45 698.165 -2.07594 -1.52444
  46 700.539 -3.87005 1.88542
  47 703.558 -2.30019 -0.0514240
  48 670.614 -0.386934 -1.05450
  49 633.480 -3.96572 -1.93722
  50 591.057 -7.87985 -2.63113
  51 546.819 -7.17276 -1.88263
  52 507.932 -10.4676 -1.71851
  53 466.654 -11.1985 -1.52685
  54 424.814 -9.95333 -0.616111
  55 380.595 -10.4044 -0.923863
  56 343.078 -10.6804 -1.27674
  57 292.984 -10.0137 -0.975348
  58 241.333 -6.47174 -0.624733
  59 198.555 -4.19740 -0.462816
  60 145.698 -2.63206 -0.0575234
  61 107.359 -2.34909 -2.54061
  62 71.8352 -2.99818 -0.763724
  63 35.9682 0.335687 1.73908
  64 26.3591 2.48200 0.810200
  65 23.3362 0.997731 1.92187
  66 23.9835 0.449248 1.99187
  67 15.6505 1.42097 1.15338
  68 11.9855 1.88203 4.03345
  69 9.49305 0.679793 1.83587
  70 -4.45481 1.43141 1.96609
  71 -11.5329 0.953126 3.97329
  72 -15.4100 0.282085 4.23277
  73 -31.2285 1.31233 3.54578
  74 -37.8185 1.99719 6.13980
  75 -45.6348 1.21371 2.77774
  76 -53.8636 0.897399 3.65856
  77 -58.3156 0.942331 1.90975
  78 -66.7462 2.38693 -0.880656
  79 -68.7941 1.63309 -0.607148
  80 -63.6942 1.19932 -1.74432
  81 -55.3767 1.64070 -3.88276
  82 -45.6473 0.781754 -6.34145
  83 -34.4700 0.451871 -6.77158
  84 -20.8540 -0.623901 -7.18606
  85 -9.27455 -0.518182 -4.28558
  86 -3.95468 -1.48940 -2.71299
  87 -0.619298 -3.92943 -2.38315
  88 -1.00412 -10.0415 -4.13299
  89 -1.16138 -19.1897 -7.12192
  90 -0.159865 -35.6785 -7.55670
  91 0.494888 -48.7968 -9.35090
  92 1.07043 -69.8218 -7.56163
  93 3.18650 -82.1259 -8.78032
  94 0.679816 -86.7881 -6.82393
  95 -0.00481358 -97.7315 -3.31447
  96 2.84577 -91.1257 0.894686
  97 11.7346 -116.555 7.91922
  98 11.2499 -50.9840 22.3927
  99 25.8818 -2.90229 46.2448
  100 74.9699 161.536 132.318
  101 302.732 446.217 351.986
  102 1629.33 180.191 239.218
  103 1379.14 49.1784 86.1172
  104 1316.31 20.9877 29.5118
  105 1282.08 13.5833 -0.170665
  106 1304.18 19.9969 -24.3774
  107 1390.97 41.9571 -71.0296
  108 1612.52 141.895 -221.756
  109 197.393 504.297 -291.059
  110 52.8776 129.057 -103.702
  111 19.1815 -15.2856 -39.2034
  112 10.2177 -58.2213 -19.7378
  113 11.6550 -121.714 -6.64125
  114 2.71046 -93.3916 -0.00329068
  115 -0.173946 -98.8550 3.77668
  116 0.572883 -87.2125 7.07044
  117 3.12747 -82.2124 8.88341
  118 1.04786 -69.7677 7.59883
  119 0.477971 -48.7174 9.36300
  120 -0.168112 -35.5833 7.55062
  121 -1.16220 -19.1297 7.10542
  122 -1.00626 -9.99086 4.11797
  123 -0.618759 -3.91044 2.37006
  124 -3.93197 -1.48708 2.70193
  125 -9.23393 -0.520614 4.27347
  126 -20.8007 -0.629753 7.17824
  127 -34.4072 0.445249 6.77240
  128 -45.6096 0.774471 6.35342
  129 -55.3855 1.63538 3.90723
  130 -63.7513 1.19878 1.77103
  131 -68.9144 1.63136 0.633456
  132 -66.9198 2.38626 0.908241
  133 -58.5505 0.944623 -1.88523
  134 -54.1453 0.900235 -3.63990
  135 -45.9407 1.21703 -2.76254
  136 -38.1528 2.00120 -6.13258
  137 -31.5742 1.31617 -3.53968
  138 -15.7546 0.284425 -4.23229
  139 -11.8815 0.957236 -3.97738
  140 -4.79039 1.43714 -1.97262
  141 9.19259 0.683542 -1.84917
  142 11.7196 1.88608 -4.05417
  143 15.4161 1.42220 -1.17159
  144 23.7986 0.448528 -2.00985
  145 23.1872 0.996016 -1.93642
  146 26.2344 2.47912 -0.822727
  147 35.8656 0.333576 -1.74654
  148 71.7428 -3.00940 0.756374
  149 107.275 -2.37648 2.53276
  150 145.633 -2.68028 0.0468044
  151 198.514 -4.26695 0.457425
  152 241.299 -6.55206 0.624184
  153 292.940 -10.0827 0.986763
  154 342.991 -10.7132 1.29997
  155 380.462 -10.3573 0.978065
  156 424.636 -9.78964 0.677417
  157 466.413 -10.8171 1.43647
  158 508.160 -10.5824 1.49630
  159 546.995 -7.85695 1.99320
  160 591.503 -7.75642 2.37528
  161 634.670 -3.60713 1.96467
  162 669.658 -0.429494 1.02972
  163 402.830 -36.6105 -38.9563
  164 401.296 -37.2842 38.8598
  165 126.138 34.0964 -54.1476
  166 127.356 34.2108 53.9417
  167 470.829 -20.3265 128.245
  168 492.730 -23.1379 -124.939
  169 240.993 -13.0376 18.4688
  170 240.947 -12.9150 -18.6799
  171 502.022 -19.4159 -0.679897
  172 492.497 -19.4696 0.885791
  173 675.692 120.728 -14.7370
  174 677.285 7.74878 -75.1573
  175 664.848 12.5958 82.0487
  176 169.841 -6.68407 -36.8612
  177 169.874 -6.64133 36.8067
  178 585.589 -57.5401 22.6103
  179 585.281 -45.0531 -35.6048
  180 10.4094 15.3281 11.3328
  181 10.6548 15.4237 -11.1857
  182 799.869 164.128 16.1384
  183 160.260 73.0156 -116.541
  184 171.474 73.6327 124.426
  185 565.663 -27.6917 15.1949
  186 846.026 180.745 -0.451062
  187 373.885 -15.0789 -6.64740
  188 373.322 -15.4232 6.61478
  189 580.316 -19.7361 -14.1856
  190 766.321 2.06163 -22.4379
  191 158.070 -4.78060 7.31433
  192 158.000 -4.81675 -7.39391
  193 69.6227 7.78133 -25.8591
  194 69.9202 7.70200 25.9203
  195 333.740 -12.5385 -82.5656
  196 332.449 -13.1905 83.5881
  197 396.874 -26.8439 -16.0539
  198 397.648 -26.6946 16.8150
  199 114.512 -3.96436 20.0371
  200 114.340 -3.91421 -20.0688
  201 757.387 -5.86551 60.9160
  202 625.415 -59.7739 -3.72100
  203 590.427 -7.82022 -1.49060
  204 578.105 -9.24800 1.41279
  205 601.146 71.0764 59.3226
  206 27.8282 26.2564 -13.2597
  207 28.7617 26.2283 13.6761
  208 593.147 -23.2950 68.8560
  209 554.433 43.0079 -69.0038
  210 387.389 94.9057 -255.804
  211 407.408 80.3515 238.004
  212 15.0998 13.5495 -4.79016
  213 15.3381 13.5499 4.90697
  214 591.693 -20.3897 -71.3651
  215 1009.26 140.107 -10.4153
  216 491.416 -52.8953 50.3908
  217 494.904 -52.6388 -48.0136
  218 491.111 -36.1773 2.66635
  219 600.895 -11.1396 7.12605
  220 302.179 -21.2047 -33.1229
  221 297.717 -21.1304 33.9836
  222 184.986 3.33163 -54.3767
  223 185.262 3.26802 53.9756
  224 619.448 -63.4080 -15.8497
  225 487.211 -38.3598 -4.81129
  226 598.626 -10.9729 -5.18018
  227 472.266 -14.2239 -1.59796
  228 476.129 -13.4283 2.44612
  229 595.559 -27.1067 37.8636
  230 61.8484 0.267111 -21.4501
  231 62.0876 0.243100 21.4558
  232 -6.88522 -4.40537 -19.6643
  233 -6.92327 -4.45423 19.6784
  234 106.364 -4.27266 -11.8067
  235 106.517 -4.28293 11.7319
  236 263.362 -8.65699 8.33467
  237 263.403 -8.78664 -8.38506
  238 296.373 21.2875 -118.249
  239 296.413 17.8849 116.971
  240 603.240 -19.5584 -32.4350
  241 292.284 -17.3402 -51.7223
  242 292.550 -17.8541 51.0976
  243 543.149 9.20580 78.5436
  244 483.773 41.3213 4.78841
  245 520.507 -52.1365 4.95481
  246 3.14155 -10.3477 -16.5144
  247 2.96623 -10.4893 16.6651
  248 36.2131 42.5492 -44.1966
  249 38.4001 41.3604 46.1096
  250 512.109 -51.0471 -8.27899
  251 906.658 181.271 -28.3597
  252 52.5939 34.6332 -21.1978
  253 53.1847 34.6300 21.4001
  254 -17.4952 4.66390 12.3561
  255 -17.3945 4.68821 -12.2854
  256 909.756 171.457 34.0143
  257 332.112 -17.0278 -14.4652
  258 331.881 -16.7850 14.2549
  259 632.937 -41.1805 60.9216
  260 1119.28 182.943 116.429
  261 200.664 -10.7872 -30.6348
  262 200.651 -10.8629 30.6186
  263 652.838 98.2789 -55.3400
  264 1083.27 207.368 -108.286
  265 767.103 82.4403 46.7322
  266 819.880 67.1919 -166.224
  267 519.598 -26.1684 3.24607
  268 595.900 4.31573 -86.6884
  269 559.168 -40.2610 -18.2225
  270 619.453 -12.0535 20.1728
  271 6.54163 6.03314 -9.41738
  272 6.78252 6.01559 9.50273
  273 611.900 -14.4718 -158.690
  274 73.3387 20.9318 -26.6642
  275 73.6717 20.9004 26.7946
  276 599.110 -14.6332 -43.1501
  277 90.1051 101.550 -121.519
  278 89.4202 -0.458471 -2.79116
  279 89.5210 -0.443227 2.75811
  280 631.123 -37.5320 -63.9755
  281 117.293 52.7001 -67.3256
  282 118.937 52.4478 67.5160
  283 44.7996 -1.11958 14.8316
  284 44.5448 -1.10712 -14.8355
  285 518.747 -25.0120 -3.23471
  286 90.7452 100.549 124.509
  287 805.890 79.2231 192.631
  288 237.697 -9.91700 -11.6037
  289 237.676 -9.86298 11.4778
  290 419.169 -19.0714 -7.04776
  291 418.978 -20.4622 7.56901
  292 357.673 37.0655 -175.816
  293 569.813 -61.7400 -1.20390
  294 639.403 -5.25057 2.98361
  295 344.875 37.2645 170.497
  296 402.182 -12.7992 -2.51830
  297 402.036 -12.7945 2.84232
  298 560.141 -41.7691 18.5273
  299 636.289 -7.89152 -8.83918
  300 4.22085 2.32101 -12.2281
  301 4.49003 2.30358 12.2715
  302 809.410 159.444 -3.35997
  303 702.955 -28.9844 26.5075
  304 629.452 -4.85278 -0.560373
  305 639.689 -4.26159 0.509836
  306 633.800 -52.1983 63.0492
  307 780.984 87.9827 -41.9385
  308 694.077 128.633 30.3331
  309 317.759 -20.2519 -21.9537
  310 315.047 -20.5991 22.3056
  311 638.400 -5.19549 -1.66215
  312 429.505 -31.4903 -90.0242
  313 423.812 -34.3241 20.0103
  314 403.792 -20.9995 101.652
  315 631.677 -8.75076 10.7809
  316 157.928 -7.20595 -19.3643
  317 158.049 -7.25649 19.2982
  318 584.434 -14.3573 156.767
  319 379.964 -30.7597 -27.3307
  320 689.725 90.6712 68.2694
  321 226.599 15.7449 -78.7937
  322 218.502 16.4875 78.2373
  323 80.8648 -1.44950 -5.04967
  324 81.0033 -1.44072 4.99727
  325 560.488 -13.3835 3.09243
  326 538.072 -9.96136 -0.209775
  327 535.216 -10.6962 0.0431452
  328 595.320 -15.3857 45.8548
  329 65.9123 -2.07088 11.3016
  330 65.6882 -2.05273 -11.3407
  331 187.212 -4.73171 -4.20278
  332 187.250 -4.66564 4.16803
  333 6.46608 -22.7956 -7.50091
  334 6.08719 -23.0153 7.95157
  335 477.969 21.1529 53.7757
  336 709.423 -26.1362 -19.1981
  337 465.845 -26.3866 -3.08113
  338 522.212 -12.7817 -0.553280
  339 560.372 69.3587 -32.1868
  340 118.658 -3.91154 -27.5748
  341 118.821 -3.91577 27.5632
  342 453.600 -25.0052 5.31876
  343 136.850 3.94947 -39.3044
  344 137.115 3.83954 39.2109
  345 29.2203 22.1550 -4.33126
  346 29.5341 22.1574 4.46834
  347 546.918 -57.0402 63.1750
  348 1177.28 77.3194 30.3715
  349 500.702 8.40492 -63.4932
  350 411.982 -36.7823 57.6635
  351 409.903 -35.9942 -59.2280
  352 604.173 -8.87342 85.4029
  353 543.062 -3.37559 62.1669
  354 540.134 -55.1334 -64.9651
  355 330.594 -9.88912 1.60441
  356 330.538 -9.98096 -1.52651
  357 597.551 -38.7862 49.7989
  358 818.278 161.386 0.0742305
  359 635.651 -8.20785 -14.8926
  360 178.152 -6.94264 -14.3672
  361 178.244 -6.95010 14.2536
  362 601.023 -53.9747 -77.1994
  363 638.878 46.4751 -84.3210
  364 444.414 23.9162 -34.6760
  365 602.116 -39.6164 -57.7059
  366 -18.9154 0.991639 -15.1006
  367 -18.9346 0.966473 15.1195
  368 505.496 -14.2406 -0.807926
  369 -7.16618 -4.22233 -9.43572
  370 -7.15607 -4.22308 9.41444
  371 386.849 211.332 -308.540
  372 18.0869 16.7054 6.00538
  373 18.4827 16.8281 -5.79235
  374 539.357 -3.55817 -61.6785
  375 302.061 -13.8813 10.9684
  376 302.248 -14.0447 -11.0575
  377 -1.66011 -20.4978 17.2628
  378 -1.62778 -20.4613 -17.2472
  379 316.959 220.830 291.367
  380 248.903 -13.6075 -41.1053
  381 249.118 -13.0672 41.1361
  382 81.2059 61.4182 -63.1188
  383 82.8319 61.2975 62.8036
  384 -26.5125 4.81967 3.83028
  385 -26.3731 4.82838 -3.75258
  386 618.068 42.7437 85.2063
  387 472.740 -49.5018 30.9892
  388 473.265 -43.7630 15.8734
  389 569.006 -63.6073 -15.9640
  390 150.784 18.0668 -53.5481
  391 151.286 18.0453 53.4872
  392 13.9702 -11.8734 5.64634
  393 13.2751 -12.1809 -4.65486
  394 588.508 83.5560 20.8573
  395 577.904 -18.2521 11.2083
  396 339.865 -26.8297 38.6617
  397 214.931 -5.85057 -48.4886
  398 215.037 -5.89121 48.1831
  399 428.057 -14.9676 -3.88535
  400 427.629 -13.4235 3.52393
  401 337.099 -27.5025 -40.7001
  402 265.857 -4.78993 -64.2432
  403 265.843 -5.14484 64.7270
  404 604.452 -54.5593 -31.4111
  405 358.909 -28.3892 25.8039
  406 549.080 -18.6795 5.33359
  407 547.878 -17.2639 -4.06762
  408 464.895 -43.4762 -17.4718
  409 651.602 -4.14301 -3.22670
  410 227.965 96.1254 -179.736
  411 620.755 -9.71305 25.7074
  412 650.523 -4.60478 5.28665
  413 246.141 -13.6306 25.7137
  414 246.215 -13.4551 -25.6968
  415 470.668 -48.9219 -31.7811
  416 72.9112 31.0400 28.8400
  417 72.5349 31.0111 -28.8515
  418 1188.53 77.2588 -61.7161
  419 539.842 -32.2203 -8.58937
  420 654.505 -3.59792 1.85388
  421 215.852 90.2712 171.791
  422 973.090 163.001 34.9834
  423 574.499 -10.8213 -2.33557
  424 437.550 -32.8843 -14.1075
  425 187.973 36.2127 -88.5847
  426 199.935 33.5000 88.0493
  427 533.872 -35.0798 8.41424
  428 571.120 -7.21869 -45.2291
  429 7.22265 -0.616957 11.2230
  430 6.93417 -0.611166 -11.2119
  431 210.950 51.5725 -116.842
  432 211.624 51.7482 116.501
  433 30.8872 11.5437 -13.8277
  434 31.1541 11.5215 13.9342
  435 479.855 -11.6674 -0.0358956
  436 479.282 -11.4287 0.187024
  437 594.919 -27.6572 -39.6890
  438 -0.431438 -0.206914 20.1828
  439 -0.324167 -0.108322 -20.1039
  440 611.857 -59.0794 26.0423
  441 576.955 -17.2411 -9.63770
  442 929.517 177.497 -33.9679
  443 54.5939 -1.79179 5.49710
  444 54.3908 -1.79207 -5.54219
  445 1103.41 322.735 152.518
  446 24.4975 23.7853 -39.9723
  447 79.8063 3.12250 -27.2267
  448 80.0591 3.06853 27.2340
  449 1102.63 330.880 -149.606
  450 25.9487 26.2889 43.3914
  451 -24.1194 3.55769 -0.475951
  452 -23.9372 3.55294 0.550656
  453 67.6585 46.4586 -39.1351
  454 68.7636 46.5004 39.3275
  455 733.839 117.686 -53.2536
  456 586.954 -24.0940 -24.2789
  457 651.342 -3.64573 -1.52937
  458 614.037 -9.84982 -30.4840
  459 -5.42251 5.47425 18.2750
  460 -5.31303 5.53878 -18.1993
  461 593.246 -24.8913 28.9709
  462 392.773 -23.4980 -12.9811
  463 391.638 -23.7103 11.7425
  464 525.890 -57.6945 -16.4587
  465 379.109 -3.86230 -123.214
  466 576.072 -8.64702 46.0842
  467 469.535 -17.3418 2.86823
  468 680.587 -46.7810 -18.9302
  469 367.559 4.96529 131.720
  470 42.1962 -0.663463 10.8266
  471 41.9342 -0.652465 -10.8427
  472 755.859 149.192 -21.8027
  473 595.207 -6.46506 -0.234872
  474 593.280 -7.06296 -0.275703
  475 458.436 -31.9446 8.75822
  476 212.145 -7.54816 -8.27790
  477 212.156 -7.47151 8.20015
  478 127.828 -1.92670 -32.6110
  479 127.988 -1.95105 32.5658
  480 405.007 15.6731 20.8530
  481 110.802 -3.56774 16.0555
  482 110.635 -3.53581 -16.1181
  483 111.675 9.78099 36.9117
  484 111.313 9.92532 -36.8722
  485 584.230 -45.3515 34.0337
  486 334.311 -20.9115 -60.8045
  487 311.676 -11.3236 6.15244
  488 311.770 -11.5572 -6.15661
  489 337.731 -21.5457 60.8133
  490 904.970 219.259 -31.3860
  491 -14.4335 -2.04734 -12.0180
  492 -14.4231 -2.05889 12.0093
  493 242.095 -7.49765 -3.52608
  494 242.113 -7.40301 3.51569
  495 0.524838 -37.2594 -13.6713
  496 0.429209 -37.3833 13.8006
  497 531.726 -10.3099 -0.0868665
  498 402.992 18.7599 -10.3445
  499 526.210 54.8770 29.2051
  500 331.391 -2.62589 -99.5837
  501 171.755 -8.83638 24.1710
  502 171.712 -8.76399 -24.1991
  503 -33.5117 1.21477 -4.56684
  504 -33.2578 1.20704 4.60273
  505 632.455 -9.75383 -83.3001
  506 69.2274 0.214906 -3.59778
  507 69.3532 0.222735 3.55994
  508 526.475 -42.3692 -4.98426
  509 559.952 -48.0951 -16.6648
  510 119.986 95.6816 -125.160
  511 470.867 17.1945 -189.536
  512 9.66557 15.2431 6.14201
  513 9.89699 15.2785 -6.01136
  514 297.726 -14.6732 -15.0791
  515 297.600 -14.5571 14.8317
  516 797.701 42.0666 -4.03794
  517 581.521 -35.0358 -31.1965
  518 117.097 91.0213 123.534
  519 575.875 -63.8134 25.0357
  520 555.024 -52.8601 10.9088
  521 133.618 -3.22729 -10.6168
  522 133.722 -3.21668 10.5325
  523 472.502 5.65167 49.2952
  524 337.662 -25.5825 -26.8853
  525 609.718 -14.9207 17.5153
  526 -2.36323 -14.8690 -11.7431
  527 -2.36900 -14.8547 11.7238
  528 434.585 -37.8217 67.8701
  529 651.913 -47.3921 -37.6656
  530 839.124 70.4264 -44.9597
  531 464.277 -17.8524 -2.89280
  532 153.244 -2.97667 -3.01522
  533 153.304 -2.92833 2.99199
  534 299.219 2.87595 96.2330
  535 810.235 142.046 28.6422
  536 804.693 185.719 -294.691
  537 737.299 9.75730 32.8983
  538 535.893 -59.1580 13.7227
  539 1223.25 97.5843 83.1315
  540 923.455 231.865 42.0504
  541 144.485 -6.12176 26.2770
  542 144.361 -6.06396 -26.3067
  543 515.926 -43.5621 1.69743
  544 44.3612 19.1589 -13.6842
  545 44.6630 19.1533 13.8081
  546 644.126 -51.3954 37.9002
  547 540.974 30.1474 72.0286
  548 644.327 -4.88177 9.94554
  549 483.892 -30.5176 -1.90559
  550 664.689 15.4583 -199.737
  551 1037.78 293.104 203.120
  552 520.669 -12.5426 0.387758
  553 635.022 -7.20890 -16.6737
  554 107.390 44.0350 -51.6315
  555 108.147 43.5176 51.4408
  556 373.042 -16.5355 -8.79256
  557 372.887 -16.1932 8.91879
  558 5.01409 -37.2476 -8.96560
  559 652.049 -20.8109 72.4251
  560 28.7919 24.9142 -2.03628
  561 29.1973 24.9876 2.23122
  562 5.77476 -35.6453 10.3709
  563 595.832 -26.8294 -60.0643
  564 684.267 46.2912 -78.3853
  565 682.363 52.1635 78.5444
  566 35.6979 34.6120 30.9588
  567 34.0263 35.2627 -30.4149
  568 -8.67079 0.541814 8.67438
  569 -8.96303 0.548055 -8.65619
  570 620.880 24.6973 205.379
  571 351.935 -20.5959 15.9018
  572 352.264 -20.5267 -16.1036
  573 745.602 -4.13532 -111.370
  574 114.974 -1.60610 6.13772
  575 114.877 -1.62765 -6.19458
  576 64.7812 -1.19947 -1.40536
  577 64.8814 -1.19159 1.39206
  578 825.685 156.753 -19.9498
  579 82.1864 139.850 -136.466
  580 454.272 9.67585 -41.8847
  581 625.547 99.4031 -35.0862
  582 10.7011 3.09500 10.1092
  583 11.0785 3.23840 -9.85715
  584 603.376 310.488 342.798
  585 528.798 -16.8061 -1.65141
  586 26.7442 5.33912 -15.4194
  587 27.0091 5.30104 15.4879
  588 611.450 -48.2155 48.6087
  589 96.7693 135.982 138.941
  590 444.570 -11.5643 1.17594
  591 444.697 -11.4867 -1.17751
  592 -0.203180 -30.1254 14.6843
  593 -0.155649 -30.0783 -14.6359
  594 756.278 145.718 -1.21159
  595 479.826 -37.0067 93.7028
  596 459.208 -21.5003 -4.35493
  597 459.219 25.7944 199.670
  598 -36.6757 2.11170 8.52572
  599 -36.6407 2.12315 -8.48749
  600 745.911 15.6047 -35.8712
  601 973.960 186.385 -149.498
  602 292.020 31.1262 -136.109
  603 165.785 -7.15357 -31.7856
  604 165.954 -7.15791 31.7992
  605 668.723 -2.89016 2.39364
  606 454.967 -21.9113 3.84829
  607 599.081 -9.98131 4.93037
  608 595.792 -26.9300 58.5565
  609 41.7023 -1.02454 5.53241
  610 41.4624 -1.02038 -5.56537
  611 359.500 -14.0503 -5.24360
  612 359.461 -13.7219 5.13562
  613 227.835 4.66465 -66.1479
  614 226.446 4.73414 65.9046
  615 843.111 62.4888 64.7250
  616 1347.46 101.637 -146.237
  617 1.60879 -0.905543 7.47002
  618 1.30094 -0.902788 -7.46534
  619 219.662 -9.55881 15.0712
  620 219.626 -9.54541 -15.2294
  621 790.970 51.1138 14.8388
  622 659.796 -3.44232 -0.756456
  623 658.452 -4.43854 0.183879
  624 500.508 0.305720 48.6987
  625 695.702 -35.4519 -71.6715
  626 387.941 -32.4099 31.9139
  627 -5.28260 9.14535 -6.12854
  628 -5.45573 9.12895 6.23071
  629 616.419 14.3337 88.8227
  630 252.275 -14.8907 -33.5339
  631 252.071 -15.1257 33.5937
  632 500.279 -30.4114 0.0643178
  633 612.077 -14.5993 -15.7615
  634 358.484 -28.8657 -45.4998
  635 587.088 71.0258 -54.0569
  636 394.161 -26.7948 -77.3550
  637 157.827 -4.23102 -5.69197
  638 157.887 -4.18677 5.63345
  639 362.019 -29.3344 45.7568
  640 762.657 126.594 45.6784
  641 609.484 -28.5537 73.8859
  642 498.861 -24.0156 0.539566
  643 363.167 -11.3095 2.87592
  644 363.078 -11.3276 -2.81027
  645 278.715 -11.2651 -10.9766
  646 278.634 -11.1591 10.8878
  647 584.783 -53.3088 -24.9940
  648 305.323 -18.0779 19.0576
  649 305.621 -18.0052 -19.3534
  650 597.995 91.4645 -7.15303
  651 540.651 -29.8079 8.96440
  652 666.041 -3.77499 -3.97265
  653 580.387 -9.68650 -78.9964
  654 95.2045 -4.00277 21.1635
  655 95.0120 -3.97561 -21.1721
  656 652.356 -4.31687 -9.05885
  657 123.452 64.4937 -89.5731
  658 125.507 64.3682 89.9978
  659 666.938 -35.1984 94.7721
  660 237.644 60.7266 143.377
  661 68.3308 -0.602481 21.1427
  662 68.1069 -0.588782 -21.1437
  663 571.132 -33.5380 119.142
  664 558.491 91.0142 -268.813
  665 559.765 18.7711 -79.4337
  666 727.933 132.745 40.8959
  667 490.735 -23.5817 1.62274
  668 876.238 155.551 -3.78763
  669 -36.8202 2.03671 -3.44128
  670 -36.6076 2.03199 3.49053
  671 393.866 3.61800 -143.185
  672 45.1182 -0.612470 4.15274
  673 44.9304 -0.613946 -4.18760
  674 491.038 -39.8396 -92.7727
  675 169.830 22.7203 -64.1600
  676 168.553 22.8208 64.1393
  677 8.91569 8.41146 -6.60335
  678 9.14879 8.40273 6.70667
  679 420.882 -36.9630 -25.4926
  680 591.928 -5.86891 -30.0971
  681 290.959 -9.96638 -3.83407
  682 290.986 -9.87296 3.85840
  683 214.528 -11.2178 -21.9920
  684 214.709 -11.3656 21.9305
  685 42.1961 34.6088 -16.2677
  686 42.8484 34.6945 16.4953
  687 597.529 -8.92736 1.85106
  688 277.717 -18.1373 28.4289
  689 279.376 -17.8436 -28.4160
  690 664.224 -50.2002 2.12709
  691 551.341 -55.4448 -4.90255
  692 436.817 -14.3002 -2.25217
  693 435.357 -13.4918 2.43333
  694 604.548 -61.7189 41.4196
  695 973.510 197.958 58.8473
  696 532.113 -20.2069 -145.814
  697 608.697 -17.6935 29.8322
  698 608.867 -21.4453 -79.8952
  699 201.850 -6.59414 -10.6524
  700 201.876 -6.55227 10.5482
  701 474.798 -4.84404 162.664
  702 1281.36 166.426 151.903
  703 97.9296 27.4205 -38.9218
  704 98.0802 27.6091 39.0428
  705 595.090 -7.63429 -0.841432
  706 599.573 -6.97129 0.881110
  707 258.858 139.478 -228.358
  708 635.446 -4.05883 16.8698
  709 550.100 -11.4939 0.723083
  710 733.513 144.139 -14.5127
  711 82.0320 13.4275 -28.8159
  712 82.3743 13.3467 28.9181
  713 672.608 -2.36866 0.209655
  714 554.747 -23.0137 -9.42899
  715 690.441 -7.24813 61.0535
  716 292.126 -20.7782 -43.0629
  717 292.848 -19.9287 42.7195
  718 78.2434 -2.41835 15.9994
  719 78.0297 -2.38976 -16.0308
  720 620.571 -5.79725 -2.09606
  721 536.081 117.078 284.183
  722 5.56560 6.32770 15.5718
  723 5.76979 6.45573 -15.4320
  724 623.630 -8.12421 -6.62380
  725 607.236 -12.6566 9.61948
  726 498.383 0.910988 -52.2307
  727 5.10443 -51.3009 -5.12648
  728 4.80140 -51.8492 5.68137
  729 228.793 62.7510 -143.484
  730 490.537 -48.2388 -68.8542
  731 257.586 138.064 230.282
  732 665.162 -2.51684 1.25479
  733 660.127 99.4106 55.4178
  734 493.490 44.5080 -20.4096
  735 853.489 171.878 7.80129
  736 659.668 -3.53058 5.56700
  737 -31.8217 0.951713 6.24544
  738 -32.1045 0.956840 -6.22145
  739 705.172 -35.5824 28.9918
  740 463.304 -15.3401 -2.84895
  741 176.505 -0.197495 -46.6536
  742 176.750 -0.364478 46.4326
  743 605.793 -8.75057 -3.16217
  744 1062.02 150.004 -57.1886
  745 87.4799 -2.34872 -10.4196
  746 87.6660 -2.36174 10.3620
  747 669.857 -2.57858 -2.39777
  748 149.365 -6.54723 -14.4574
  749 149.481 -6.56999 14.3710
  750 665.557 -24.0663 -63.9970
  751 616.122 -6.76860 23.8378
  752 560.873 -2.73301 78.5733
  753 669.681 -2.66692 0.339647
  754 630.031 -6.22707 4.86670
  755 421.997 -24.1024 -8.80163
  756 522.265 -15.7362 0.687448
  757 594.765 -36.6212 -48.5420
  758 579.434 -37.0234 29.7280
  759 682.663 84.4937 -69.3612
  760 571.130 -33.0350 20.9837
  761 605.136 -35.2333 63.2418
  762 357.539 -25.0809 20.5737
  763 14.0112 1.64730 2.91793
  764 13.3348 1.59567 -2.27556
  765 527.514 -10.1353 -0.424299
  766 526.439 -10.0819 0.235458
  767 625.209 -4.35419 -0.131595
  768 627.229 -4.24643 0.269036
  769 604.482 -17.4181 37.3261
  770 557.170 -48.9653 88.3866
  771 462.016 -38.3562 12.8072
  772 412.504 -25.9142 11.8984
  773 1081.75 138.085 65.2070
  774 608.580 -16.4611 -22.8775
  775 361.294 66.9799 -213.496
  776 567.240 -29.2362 -17.8243
  777 32.2000 0.305876 -15.7634
  778 32.4647 0.285290 15.7888
  779 521.936 45.8879 -45.6859
  780 1244.44 37.7389 -15.9299
  781 642.102 18.5199 -85.9085
  782 27.2076 33.9641 -56.8393
  783 666.295 118.807 13.9985
  784 514.745 -34.0055 2.56439
  785 581.982 -13.7725 76.4946
  786 488.182 -50.2859 69.2178
  787 764.437 5.46507 134.318
  788 29.2722 39.8479 60.3316
  789 356.778 -1.28602 113.109
  790 491.859 -14.7574 1.08196
  791 546.880 -46.9271 -89.3841
  792 343.309 -27.2515 -33.0569
  793 272.151 13.3300 -99.8629
  794 635.508 -8.11930 84.1061
  795 412.024 -29.1386 17.4165
  796 93.8473 -2.41466 9.04718
  797 93.6978 -2.41697 -9.11437
  798 593.683 -3.41810 26.5988
  799 545.187 3.56585 -76.7640
  800 -44.9169 2.20835 4.93915
  801 -44.8489 2.21297 -4.89650
  802 401.268 -14.3070 -3.65498
  803 400.180 -13.6433 3.51897
  804 299.252 34.7071 137.906
  805 271.869 -16.4224 21.9007
  806 272.202 -16.0492 -22.0839
  807 669.081 -2.05815 -1.12011
  808 245.911 19.7034 97.5701
  809 22.8745 -0.228115 5.77055
  810 22.5885 -0.223268 -5.78903
  811 586.939 -17.8818 58.6980
  812 615.458 -6.81877 1.51544
  813 -32.8990 0.535296 8.84076
  814 -32.9095 0.546554 -8.82275
  815 389.014 -23.8760 86.1367
  816 78.7519 68.9918 -77.2952
  817 79.6659 66.1453 76.2374
  818 386.288 16.7876 8.65307
  819 6.98192 -0.491906 -6.57863
  820 7.29467 -0.495794 6.57587
  821 445.154 -41.7420 -65.0386
  822 601.237 -61.9759 -11.2612
  823 -3.06315 -2.90050 -3.89811
  824 -3.05356 -2.89314 3.88311
  825 50.9372 0.952001 -1.44256
  826 51.0536 0.957450 1.42248
  827 536.792 -48.2306 6.29093
  828 454.816 -46.2923 47.4032
  829 499.873 -10.6721 -0.149039
  830 453.831 -37.4785 -14.4032
  831 179.311 -3.34337 -1.25843
  832 179.358 -3.28005 1.24407
  833 -50.0269 1.09518 2.46365
  834 -49.9127 1.09396 -2.42116
  835 560.423 -9.36322 -1.03329
  836 512.779 20.8900 -65.6930
  837 567.315 -13.1975 -4.48223
  838 344.054 -26.8521 31.6816
  839 570.311 -9.60962 -62.7629
  840 603.794 -18.8805 -38.5338
  841 562.524 -8.34737 0.881546
  842 417.317 -14.5718 115.821
  843 445.911 -43.8693 -29.3421
  844 273.676 -2.08260 -77.7380
  845 275.128 -0.184996 78.1395
  846 382.990 -29.5534 -22.2851
  847 631.377 69.7031 73.6435
  848 591.367 -59.4822 -52.9453
  849 226.236 -7.63152 -5.54187
  850 226.241 -7.53425 5.49982
  851 456.089 -12.5014 1.61801
  852 456.119 -12.5860 -1.52740
  853 548.017 -3.88198 -41.2834
  854 194.462 -8.40917 -17.8156
  855 194.584 -8.46935 17.6970
  856 2.42110 -53.7534 -9.93878
  857 2.30283 -53.9892 10.1690
  858 108.831 -1.55653 -0.0572375
  859 108.748 -1.58362 0.0400006
  860 556.791 -10.8182 -1.40067
  861 429.797 -41.0349 43.2030
  862 656.774 -53.7340 10.9969
  863 408.157 8.52037 33.1161
  864 569.458 -15.2754 5.27700
  865 623.920 -54.5081 -35.2058
  866 99.1119 5.53176 -32.1073
  867 99.3983 5.43736 32.1049
  868 497.436 -11.2809 0.158437
  869 405.866 -15.8432 -6.04054
  870 404.542 -15.7277 6.40358
  871 626.968 97.3691 39.5880
  872 223.469 -2.61153 -55.6049
  873 223.300 -2.86124 55.4057
  874 433.791 -39.7787 24.3242
  875 46.2310 28.5969 -14.3267
  876 46.6528 28.5510 14.4537
  877 368.954 -26.0624 71.2083
  878 439.578 -29.3005 -9.67723
  879 550.853 -4.02965 41.7065
  880 535.383 -59.5619 27.8761
  881 612.367 -45.6779 -53.1032
  882 428.743 -41.3653 -43.7043
  883 359.986 -24.9940 -19.8367
  884 1125.36 91.8193 -17.7018
  885 560.154 -58.9685 1.05596
  886 19.4691 19.8967 3.03245
  887 19.7685 19.9398 -2.87273
  888 489.344 -49.3081 16.5932
  889 534.435 -59.1164 -43.0299
  890 21.5811 16.8683 -3.05367
  891 21.8464 16.8776 3.17793
  892 210.681 -7.85221 42.9131
  893 210.771 -8.06587 -43.1238
  894 252.446 -13.0822 46.9247
  895 252.329 -13.3703 -47.1921
  896 772.351 154.671 16.0313
  897 -1.03172 -23.8415 -11.2785
  898 -1.03965 -23.8082 11.2682
  899 185.151 15.0892 -61.1317
  900 184.306 14.7949 60.6114
  901 1284.24 41.5906 -64.0753
  902 43.7019 -0.193768 2.40782
  903 43.5452 -0.197996 -2.43529
  904 2.66104 -58.0522 1.14300
  905 3.05636 -56.9660 -0.224794
  906 -25.5057 -0.226428 9.30798
  907 -25.5386 -0.218275 -9.30612
  908 148.349 43.2191 -71.5729
  909 150.609 41.7808 70.6568
  910 -10.1380 1.13060 -19.0641
  911 -10.1930 1.08380 19.0980
  912 49.4740 3.49195 -21.4691
  913 49.7438 3.44539 21.5053
  914 163.963 -2.30668 39.7537
  915 163.829 -2.29809 -39.9154
  916 136.625 -4.85175 -32.2311
  917 136.777 -4.84541 32.1974
  918 656.426 -2.90242 -9.12130
  919 327.015 73.5370 199.378
  920 450.197 -44.6938 27.9190
  921 325.118 -23.8849 26.0420
  922 618.343 64.7664 -73.1820
  923 1263.38 26.8174 25.8081
  924 721.311 37.0738 -64.4201
  925 133.036 -5.03545 20.3887
  926 132.888 -4.98133 -20.4479
  927 32.6660 -0.810115 -15.0058
  928 32.9302 -0.816864 15.0115
  929 0.316427 -9.89248 -20.4126
  930 0.220888 -9.98833 20.4827
  931 335.882 -15.8781 12.3759
  932 336.037 -16.1542 -12.4186
  933 46.7903 10.7876 -19.8468
  934 47.0754 10.7417 19.9413
  935 209.671 -9.65099 -36.7754
  936 209.827 -9.65553 36.7638
  937 448.743 -1.30014 -38.8527
  938 216.878 -12.0110 -26.1357
  939 216.765 -11.8975 26.2156
  940 501.321 -16.0017 1.31565
  941 607.165 -33.8902 -68.3902
  942 275.042 -11.8343 12.7626
  943 275.147 -11.9292 -12.8958
  944 -11.1840 -1.13861 -6.75607
  945 -11.1516 -1.14130 6.74048
  946 613.237 -43.3961 -108.030
  947 590.829 -34.9262 41.6070
  948 519.628 -37.3341 -4.53764
  949 518.531 18.5654 69.1199
  950 240.086 -13.8256 -29.2954
  951 240.118 -13.5848 29.3762
  952 573.535 23.1429 82.6891
  953 540.431 47.5156 54.5460
  954 1057.34 126.077 22.7694
  955 550.162 -21.3555 6.10865
  956 300.116 -9.93762 -5.79563
  957 300.094 -9.77261 5.83420
  958 496.190 -41.4490 4.35590
  959 689.745 126.164 -31.9932
  960 597.672 -8.15599 -1.95711
  961 402.085 -11.6039 1.94706
  962 401.944 -11.5283 -1.83833
  963 54.2978 46.9473 -36.5187
  964 55.5964 46.9002 36.7586
  965 95.2165 274.586 -220.613
  966 571.542 -12.9843 62.3316
  967 701.244 -9.21873 -52.8057
  968 -7.62360 7.01527 1.33596
  969 -7.43274 7.01592 -1.23830
  970 1376.03 337.177 -265.232
  971 601.901 -64.0820 -1.85070
  972 639.711 -56.3428 -34.8733
  973 593.775 -50.5155 36.0030
  974 739.390 144.367 11.9222
  975 56.4686 65.4235 -72.4701
  976 136.528 240.208 218.862
  977 -2.84870 -7.29752 20.7822
  978 -2.78970 -7.22719 -20.7479
  979 574.917 -16.3320 6.98223
  980 921.327 161.599 -22.7627
  981 58.0279 64.1630 75.0265
  982 -2.49552 -8.74484 -7.51319
  983 -2.49557 -8.71928 7.49242
  984 496.449 -13.5674 -1.39724
  985 376.505 -30.3662 -34.6245
  986 598.602 -46.8751 -44.2747
  987 176.684 47.7029 -92.8475
  988 179.450 48.4676 93.0779
  989 585.123 -14.3503 -55.1252
  990 583.490 -19.8313 15.1103
  991 -14.1189 4.54834 16.3257
  992 -14.0408 4.59066 -16.2686
  993 359.631 -23.5961 -67.2866
  994 594.455 39.2483 -82.3167
  995 439.964 -18.1942 4.38136
  996 322.747 -10.3771 1.26823
  997 322.682 -10.4327 -1.23313
  998 -6.35741 -7.24891 -15.3568
  999 -6.36588 -7.26447 15.3416
  1000 591.427 -22.2402 -19.3378
  1001 561.206 -8.23847 0.176443
  1002 560.698 -8.24834 0.0384031
  1003 779.120 131.169 -40.4990
  1004 149.083 12.2288 -49.0202
  1005 149.454 11.9864 48.9362
  1006 100.457 -1.21077 -26.9813
  1007 100.649 -1.22969 26.9634
  1008 646.756 36.7246 86.9106
  1009 604.328 -12.8057 -10.1044
  1010 115.002 17.2352 -40.7368
  1011 115.446 17.1123 40.8807
  1012 626.194 -4.79058 -1.24804
  1013 592.186 -26.3611 -30.8908
  1014 578.371 -63.7966 -32.8083
  1015 24.5887 22.6836 4.22018
  1016 23.9658 22.5773 -3.93576
  1017 -25.7509 4.86653 9.00940
  1018 -25.6492 4.88085 -8.93930
  1019 374.549 13.6257 -14.4537
  1020 988.639 251.740 -79.2579
  1021 461.368 -34.6752 -8.13608
  1022 309.973 -13.5820 -69.0101
  1023 727.362 -24.3773 -4.76453
  1024 311.171 -13.5436 69.9202
  1025 527.494 -60.2919 48.9365
  1026 597.518 -24.8414 -48.7617
  1027 217.527 -5.56693 -1.76839
  1028 217.561 -5.48582 1.75974
  1029 412.892 -33.0466 -20.3826
  1030 258.167 -9.94788 -54.6852
  1031 258.103 -10.0223 54.4549
  1032 87.8277 58.0148 -59.8801
  1033 89.1637 57.8884 60.0585
  1034 185.809 -6.06363 -6.20201
  1035 185.846 -5.99809 6.14072
  1036 530.193 -18.6011 2.01743
  1037 449.793 4.55057 -164.357
  1038 548.955 -19.4845 -6.23999
  1039 499.251 -54.9212 -31.9828
  1040 335.146 -15.2001 8.79993
  1041 335.396 -15.3008 -8.81706
  1042 634.577 -5.19981 1.58305
  1043 572.639 -15.2976 -6.50457
  1044 392.454 9.75932 27.3690
  1045 616.909 -6.23083 -22.2219
  1046 244.528 73.8729 161.822
  1047 632.636 -6.18581 -17.9677
  1048 173.201 28.7604 -71.1059
  1049 168.298 29.0615 68.4358
  1050 751.168 -6.84141 2.54153
  1051 74.0884 37.6198 -33.2070
  1052 74.7385 37.3651 33.2139
  1053 13.2238 3.19945 3.19487
  1054 13.8150 3.31648 -2.80653
  1055 113.791 -2.88552 7.30215
  1056 113.675 -2.90186 -7.37293
  1057 276.948 74.6542 -178.212
  1058 1415.23 385.431 285.555
  1059 589.772 -22.2098 19.8189
  1060 532.182 -59.1853 -25.7447
  1061 375.149 -30.9160 -53.2751
  1062 -5.25638 8.96816 13.1952
  1063 -5.11207 9.01686 -13.0975
  1064 421.473 -23.0814 7.45753
  1065 462.350 -18.9106 3.27215
  1066 -0.144571 -33.6719 10.7661
  1067 -0.133265 -33.7116 -10.7652
  1068 74.1202 45.3770 -38.8191
  1069 74.9585 45.3102 39.0326
  1070 416.141 -21.3839 -7.18747
  1071 38.2578 15.4397 13.9683
  1072 37.9773 15.4564 -13.8509
  1073 628.827 -23.2954 79.4838
  1074 458.045 -47.1616 -47.1661
  1075 377.317 -31.4057 53.2792
  1076 601.997 -10.6476 -85.1210
  1077 624.454 -8.16369 7.30258
  1078 235.291 36.6611 110.496
  1079 236.959 35.0626 -108.724
  1080 373.996 -17.5565 -93.4956
  1081 522.030 -20.4273 -1.74913
  1082 429.075 -26.9866 11.7208
  1083 499.486 -47.1258 -8.14186
  1084 671.961 -2.92338 -4.35051
  1085 374.974 -18.4973 10.3245
  1086 374.815 -19.4639 -10.5119
  1087 14.7926 16.7227 9.02445
  1088 15.0998 16.8400 -8.84630
  1089 608.344 23.9853 -88.3129
  1090 143.943 6.62724 -43.5914
  1091 144.326 6.47705 43.4991
  1092 111.020 1.60799 -31.8872
  1093 111.261 1.55115 31.8492
  1094 680.281 -20.1794 134.288
  1095 596.545 -27.6403 47.7730
  1096 299.362 -13.9632 -59.2502
  1097 680.585 -3.12420 -2.56777
  1098 777.907 148.788 -29.9370
  1099 622.685 -7.31124 -4.18863
  1100 589.888 -62.7294 11.1555
  1101 440.775 -32.5620 82.9709
  1102 683.427 -1.39588 0.229238
  1103 391.760 12.0710 -23.1668
  1104 502.867 -53.7591 -18.5956
  1105 299.865 -14.5761 58.6945
  1106 507.356 -46.7261 5.27075
  1107 625.535 -9.95800 15.0842
  1108 469.466 29.7361 35.7473
  1109 321.373 -23.9150 -48.1680
  1110 931.111 148.958 -71.9911
  1111 713.261 36.1506 68.5607
  1112 548.272 68.2432 8.64421
  1113 678.546 -0.429694 2.07346
  1114 281.180 -17.9610 -37.6801
  1115 190.742 122.902 -180.023
  1116 337.605 10.3202 -130.337
  1117 387.350 -30.4998 25.7206
  1118 329.454 -24.9612 45.5632
  1119 280.577 -17.1293 38.0096
  1120 580.190 6.32100 86.6075
  1121 437.087 -17.0174 -3.84087
  1122 671.010 -5.44746 6.16301
  1123 -4.30323 0.548876 20.4314
  1124 -4.22160 0.621027 -20.3783
  1125 456.557 -14.9854 2.50331
  1126 1.27533 6.58922 17.5324
  1127 1.42432 6.68507 -17.4280
  1128 266.048 -9.12902 6.74344
  1129 266.051 -9.25232 -6.74941
  1130 637.971 -3.71855 14.9025
  1131 516.563 -32.8676 -3.19202
  1132 485.022 -27.4262 2.25931
  1133 540.528 -38.7170 11.5370
  1134 170.395 87.1737 -136.182
  1135 529.036 -21.7577 3.30798
  1136 89.0895 1.15455 -26.3834
  1137 89.3182 1.11501 26.3762
  1138 115.684 76.0527 -98.0733
  1139 836.943 118.435 11.2203
  1140 73.5222 -3.02692 15.5855
  1141 73.3004 -3.00349 -15.6005
  1142 117.737 75.0448 94.9998
  1143 487.314 -41.5659 -6.30699
  1144 256.372 -12.5324 15.4211
  1145 256.392 -12.5806 -15.6184
  1146 977.311 208.869 -62.7229
  1147 535.042 -53.6386 -3.83121
  1148 188.145 115.580 179.755
  1149 17.3035 4.75471 -19.3768
  1150 18.5410 4.97273 20.8102
  1151 574.314 71.9796 43.1734
  1152 47.4823 23.9252 -14.6664
  1153 47.8361 23.9381 14.7733
  1154 538.396 -47.3133 -7.12520
  1155 -0.223449 -51.4919 -9.88324
  1156 -0.247587 -51.4903 9.92826
  1157 574.412 -48.5745 -23.4450
  1158 5.84723 0.643404 5.12608
  1159 5.52938 0.647859 -5.13420
  1160 94.3812 34.0892 -41.3098
  1161 94.8803 34.2422 40.9937
  1162 -18.3816 0.0398678 -6.28294
  1163 -18.0621 0.0378710 6.29087
  1164 569.253 -8.22752 0.0360236
  1165 -53.3371 1.69522 0.0379373
  1166 -53.1777 1.69470 0.00170372
  1167 311.607 -24.8476 -36.6986
  1168 8.61621 -63.5544 -11.1037
  1169 166.250 -4.86362 11.5043
  1170 166.171 -4.87725 -11.6044
  1171 488.475 -11.4986 1.12036
  1172 489.374 -11.2634 -1.02865
  1173 9.25544 -60.0171 12.9006
  1174 577.414 -31.0392 -24.7030
  1175 653.896 -3.52972 10.6309
  1176 587.361 -37.9341 -37.8265
  1177 524.091 4.40735 68.5934
  1178 3.33963 -17.9581 13.6819
  1179 3.59374 -17.7976 -13.4201
  1180 382.269 -28.6859 21.2507
  1181 -24.5019 2.61350 13.1581
  1182 -24.4563 2.63480 -13.1163
  1183 965.349 152.013 11.4358
  1184 1101.57 372.216 -260.530
  1185 599.990 -57.5419 29.7435
  1186 259.843 -8.30296 -1.18989
  1187 259.874 -8.21753 1.19103
  1188 1195.96 116.337 -108.362
  1189 101.626 -2.55116 16.1464
  1190 101.441 -2.51509 -16.1925
  1191 567.362 -1.83277 -26.8258
  1192 367.157 -30.0588 41.2745
  1193 593.372 -57.4508 -19.4450
  1194 574.924 -42.1512 -27.9279
  1195 356.828 -11.9571 97.7567
  1196 137.651 24.8093 -54.9400
  1197 137.597 24.5934 54.6675
  1198 177.771 66.7154 -116.540
  1199 178.051 61.8741 116.564
  1200 56.0339 14.5709 -21.1574
  1201 56.3401 14.5316 21.2703
  1202 712.734 124.636 -46.3344
  1203 40.1747 37.3928 -20.7337
  1204 41.0443 37.4653 20.9995
  1205 513.234 -40.2709 1.35103
  1206 934.701 154.556 79.4898
  1207 136.425 -5.47848 -11.3509
  1208 136.541 -5.47759 11.2631
  1209 597.097 463.610 -373.021
  1210 494.539 29.7832 -54.9558
  1211 458.645 34.7679 22.5807
  1212 67.2577 26.6527 -24.9181
  1213 67.5620 26.6598 25.0390
  1214 30.1172 -0.155934 3.72379
  1215 29.8868 -0.155736 -3.75028
  1216 566.863 -45.8522 21.7691
  1217 556.232 -23.7950 10.6826
  1218 382.482 118.241 -273.871
  1219 874.272 192.151 -18.4275
  1220 382.737 -10.7097 -107.033
  1221 490.892 -17.1032 -2.09983
  1222 44.8635 -2.34610 -0.785463
  1223 44.9580 -2.34395 0.781245
  1224 -5.50034 3.88472 -9.59926
  1225 -5.25104 3.86970 9.66194
  1226 334.352 4.47402 -112.297
  1227 600.922 -14.6441 13.5291
  1228 397.099 9.55309 150.838
  1229 533.108 -27.8368 -6.58685
  1230 279.343 104.576 -218.132
  1231 430.964 -19.4385 -115.091
  1232 511.101 -54.5366 15.7807
  1233 620.422 -10.5998 23.8311
  1234 544.638 -13.4555 -1.63027
  1235 310.394 -23.3951 36.8779
  1236 682.053 -35.1692 -39.2211
  1237 654.583 58.8775 82.0300
  1238 290.602 1.53181 -90.0029
  1239 637.663 -5.37331 1.34648
  1240 535.578 66.0758 -12.3819
  1241 238.174 -8.84019 -11.2364
  1242 238.151 -8.76019 11.1378
  1243 974.901 240.630 72.9198
  1244 1306.50 34.6952 59.9572
  1245 1.31845 -62.5407 -9.73660
  1246 1.27886 -62.6006 9.81409
  1247 152.300 83.1505 128.072
  1248 358.332 -12.0099 -3.12644
  1249 358.409 -11.9504 3.25215
  1250 483.272 -48.9119 -19.2766
  1251 582.206 48.7531 74.7476
  1252 595.454 -13.3899 -7.97630
  1253 682.066 -2.37693 -0.752298
  1254 1177.70 265.418 -169.867
  1255 200.834 -7.78139 11.9594
  1256 200.793 -7.79474 -12.0808
  1257 575.030 -53.2882 21.8684
  1258 990.689 258.376 -92.2500
  1259 556.817 -25.7648 -12.2795
  1260 412.782 -29.7577 -16.2312
  1261 502.403 -54.2903 31.3702
  1262 491.157 -26.1547 -1.10417
  1263 19.9331 14.4772 -28.4766
  1264 666.297 -37.9712 49.1086
  1265 542.373 -36.5416 -11.3700
  1266 21.8382 15.4131 30.9333
  1267 556.126 -41.3630 -108.909
  1268 524.069 39.0254 -224.372
  1269 856.197 118.569 -2.39561
  1270 684.397 -1.10955 -0.161274
  1271 683.326 -1.72991 0.547392
  1272 551.219 -33.3301 13.1247
  1273 219.694 26.1742 -89.0032
  1274 626.705 -54.2364 38.8171
  1275 1050.72 243.446 118.047
  1276 268.911 97.1251 212.877
  1277 8.87176 3.56140 13.4021
  1278 9.15282 3.70514 -13.2091
  1279 654.577 -49.0865 -63.2256
  1280 275.677 -15.6503 -18.3184
  1281 275.650 -15.6927 18.0558
  1282 614.836 -39.5294 64.7387
  1283 33.0421 0.0252540 16.7566
  1284 32.7804 0.0372195 -16.7446
  1285 -3.03662 -12.3849 17.5237
  1286 -3.01421 -12.3585 -17.5296
  1287 123.280 -4.14803 -14.7111
  1288 123.428 -4.17132 14.6368
  1289 330.372 -22.2808 -54.1886
  1290 334.038 -12.3185 4.26808
  1291 334.020 -12.5463 -4.14871
  1292 682.777 -1.08348 0.419216
  1293 617.384 -10.1494 -26.9879
  1294 59.9736 2.02870 -21.4761
  1295 60.2263 1.99390 21.4924
  1296 331.673 -23.5252 53.8462
  1297 688.298 -1.12832 0.388161
  1298 653.055 -1.78979 -0.764810
  1299 652.973 -2.18908 0.611983
  1300 871.077 190.410 -4.61906
  1301 639.001 -5.70445 -3.35041
  1302 570.866 -7.88559 -0.232182
  1303 631.891 -10.6693 -13.3227
  1304 680.194 -2.76099 1.60078
  1305 722.445 78.0515 67.8867
  1306 834.101 177.240 8.38958
  1307 665.534 -3.13814 -6.88688
  1308 -5.72432 -1.38745 5.09431
  1309 -5.74785 -1.38663 -5.11063
  1310 380.943 -25.1356 15.4474
  1311 380.879 -24.0980 -15.0897
  1312 728.905 86.2216 -63.8387
  1313 158.499 55.1216 -97.4035
  1314 159.509 53.6808 96.4434
  1315 505.310 0.230024 -34.3402
  1316 506.364 -10.3535 -1.20720
  1317 505.750 -10.2895 1.09974
  1318 -11.6585 -1.61919 17.7456
  1319 -11.6377 -1.58546 -17.7409
  1320 568.925 -1.50943 26.7634
  1321 853.419 169.496 -8.54359
  1322 76.2969 -2.39582 -9.25322
  1323 76.4812 -2.40125 9.19443
  1324 629.950 -58.7829 17.0486
  1325 3.44274 11.7003 13.0207
  1326 3.63014 11.7696 -12.8988
  1327 132.547 -2.98508 -3.27904
  1328 132.623 -2.94481 3.23930
  1329 505.390 -0.489295 34.8816
  1330 38.8798 0.989240 -1.47585
  1331 39.0153 0.993051 1.45567
  1332 635.880 -8.54436 8.13035
  1333 891.871 160.696 11.4122
</Section>

newXOutput 83

<Section columns = "stress_xx | stress_yy | stress_xy">
  1 705.939 -2.30402 1.29288
  2 706.932 -2.79906 -1.67694
  3 33.3352 0.636606 -1.75843
  4 -0.573816 -0.833139 -0.590619
  5 1256.83 545.779 423.269
  6 1276.15 621.066 -426.977
  7 -0.567949 -0.827946 0.583045
  8 33.2385 0.632967 1.75448
  9 710.439 -1.66212 -1.16696
  10 705.765 -2.78113 -1.74988
  11 706.629 -2.24630 1.32378
  12 703.864 -1.46625 0.356885
  13 703.043 -2.62663 -0.757150
  14 702.840 -2.56555 2.29778
  15 694.249 -1.96702 1.99353
  16 697.691 -5.16237 3.41863
  17 678.424 -4.39624 7.76014
  18 666.703 -2.20140 9.39685
  19 650.142 -2.52361 10.2542
  20 620.677 -2.25319 14.6880
  21 588.058 -1.81614 17.2481
  22 546.754 2.28867 23.9684
  23 489.588 3.58437 21.8502
  24 466.301 0.112760 31.4726
  25 394.029 5.57282 22.4890
  26 349.497 7.15715 17.7395
  27 337.888 3.93142 13.1259
  28 325.444 10.5521 1.02187
  29 332.302 11.2150 -17.5957
  30 345.836 3.41869 -22.0409
  31 400.533 1.79681 -29.2708
  32 455.097 -2.53940 -30.0827
  33 491.617 2.98585 -21.7896
  34 547.329 2.58589 -23.9508
  35 586.662 -2.13031 -18.5169
  36 623.822 -2.42918 -13.8158
  37 647.850 -1.92810 -10.4312
  38 664.810 -2.36338 -8.53622
  39 683.224 -2.60689 -4.82748
  40 689.815 -2.84905 -4.53364
  41 696.377 -2.66408 -4.06161
  42 702.924 -2.98255 -0.507037
  43 705.223 -3.69170 -1.54069
  44 700.808 -0.280417 0.206052
  45 705.793 -2.10929 -1.53463
  46 708.175 -3.92148 1.90775
  47 711.216 -2.33301 -0.0509365
  48 677.986 -0.415225 -1.06588
  49 640.521 -4.04757 -1.95689
  50 597.708 -8.01777 -2.65318
  51 553.053 -7.31174 -1.89745
  52 513.791 -10.6458 -1.73161
  53 472.106 -11.3849 -1.53706
  54 429.848 -10.1224 -0.615517
  55 385.179 -10.5747 -0.926207
  56 347.276 -10.8452 -1.28231
  57 296.661 -10.1627 -0.977163
  58 244.470 -6.57209 -0.625924
  59 201.242 -4.26317 -0.462354
  60 147.828 -2.67259 -0.0518890
  61 109.086 -2.38001 -2.56443
  62 73.1925 -3.03139 -0.768490
  63 36.9510 0.339568 1.76089
  64 27.2326 2.50759 0.824196
  65 24.1667 1.00777 1.94857
  66 24.8013 0.453900 2.02203
  67 16.3538 1.43548 1.17742
  68 12.6272 1.90188 4.09142
  69 10.0708 0.687783 1.87155
  70 -4.06441 1.44761 2.00332
  71 -11.2512 0.962769 4.03284
  72 -15.2128 0.283913 4.29776
  73 -31.2582 1.32616 3.60580
  74 -37.9583 2.01921 6.23166
  75 -45.9165 1.22720 2.83187
  76 -54.2762 0.907821 3.72139
  77 -58.8256 0.952772 1.95173
  78 -67.4022 2.41647 -0.873349
  79 -69.5072 1.65320 -0.599828
  80 -64.3823 1.21303 -1.75142
  81 -55.9925 1.66167 -3.91628
  82 -46.1727 0.793291 -6.40898
  83 -34.8791 0.459112 -6.84810
  84 -21.1059 -0.629146 -7.26959
  85 -9.39238 -0.523147 -4.33784
  86 -4.00666 -1.50680 -2.74709
  87 -0.626276 -3.97971 -2.41407
  88 -1.01431 -10.1700 -4.18367
  89 -1.17372 -19.4225 -7.20558
  90 -0.159445 -36.1042 -7.64173
  91 0.502611 -49.3640 -9.45224
  92 1.08498 -70.6241 -7.64161
  93 3.22862 -83.0496 -8.86939
  94 0.692304 -87.7186 -6.88084
  95 -0.00133131 -98.7312 -3.31917
  96 2.87897 -91.9583 0.957811
  97 11.8762 -117.574 8.07544
  98 11.4063 -51.0990 22.7660
  99 26.2182 -2.24345 46.9457
  100 75.8710 164.459 134.038
  101 305.954 452.441 355.973
  102 1645.67 182.179 241.533
  103 1393.43 49.7008 86.9636
  104 1330.05 21.2116 29.7983
  105 1295.53 13.7236 -0.172553
  106 1317.83 20.2108 -24.6180
  107 1405.35 42.4025 -71.7202
  108 1628.70 143.429 -223.877
  109 199.517 511.277 -294.339
  110 53.5202 131.613 -105.086
  111 19.4347 -14.7745 -39.8179
  112 10.3608 -58.4218 -20.0786
  113 11.7952 -122.794 -6.78199
  114 2.74184 -94.2502 -0.0559710
  115 -0.172451 -99.8672 3.78673
  116 0.584140 -88.1475 7.13017
  117 3.16889 -83.1365 8.97362
  118 1.06214 -70.5689 7.67919
  119 0.485502 -49.2834 9.46441
  120 -0.167784 -36.0077 7.63553
  121 -1.17454 -19.3617 7.18885
  122 -1.01647 -10.1187 4.16845
  123 -0.625728 -3.96047 2.40081
  124 -3.98367 -1.50445 2.73589
  125 -9.35122 -0.525605 4.32556
  126 -21.0518 -0.635065 7.26164
  127 -34.8154 0.452407 6.84890
  128 -46.1343 0.785915 6.42107
  129 -56.0012 1.65627 3.94104
  130 -64.4398 1.21247 1.77846
  131 -69.6289 1.65144 0.626474
  132 -67.5777 2.41577 0.901296
  133 -59.0634 0.955083 -1.92687
  134 -54.5614 0.910682 -3.70246
  135 -46.2263 1.23055 -2.81643
  136 -38.2968 2.02327 -6.22431
  137 -31.6085 1.33004 -3.59957
  138 -15.5620 0.286278 -4.29723
  139 -11.6046 0.966926 -4.03695
  140 -4.40470 1.45340 -2.00988
  141 9.76600 0.691572 -1.88497
  142 12.3572 1.90598 -4.11236
  143 16.1157 1.43673 -1.19581
  144 24.6132 0.453172 -2.04019
  145 24.0148 1.00604 -1.96327
  146 27.1053 2.50468 -0.836853
  147 36.8462 0.337433 -1.76843
  148 73.0980 -3.04273 0.761070
  149 109.001 -2.40769 2.55651
  150 147.761 -2.72133 0.0410653
  151 201.200 -4.33346 0.456916
  152 244.435 -6.65325 0.625380
  153 296.616 -10.2324 0.988713
  154 347.188 -10.8783 1.30579
  155 385.044 -10.5270 0.980979
  156 429.668 -9.95692 0.677436
  157 471.863 -10.9994 1.44585
  158 514.022 -10.7621 1.50729
  159 553.231 -8.00360 2.00909
  160 598.158 -7.89304 2.39456
  161 641.722 -3.68523 1.98464
  162 677.023 -0.458302 1.04097
  163 407.641 -37.0555 -39.5789
  164 406.091 -37.7377 39.4806
  165 127.794 34.5235 -54.9553
  166 129.028 34.6390 54.7470
  167 476.316 -20.4996 129.919
  168 498.448 -23.3398 -126.574
  169 244.095 -13.2139 18.7764
  170 244.049 -13.0899 -18.9897
  171 507.849 -19.6920 -0.783018
  172 498.229 -19.7465 0.992362
  173 683.709 122.132 -14.8453
  174 685.093 7.92820 -75.7099
  175 672.542 12.8205 82.6918
  176 172.096 -6.77945 -37.4227
  177 172.130 -6.73628 37.3680
  178 592.346 -58.1896 22.6427
  179 592.045 -45.5723 -35.8035
  180 10.5996 15.5563 11.3799
  181 10.8479 15.6533 -11.2311
  182 809.090 166.063 16.0636
  183 162.284 73.9750 -118.117
  184 173.625 74.5982 126.093
  185 572.172 -28.0462 15.2286
  186 855.683 182.904 -0.149562
  187 378.400 -15.2998 -6.79051
  188 377.831 -15.6480 6.75769
  189 586.957 -20.0018 -14.2294
  190 774.903 2.28564 -23.0189
  191 160.311 -4.84763 7.44277
  192 160.239 -4.88416 -7.52316
  193 70.6621 7.86961 -26.2807
  194 70.9634 7.78940 26.3428
  195 337.779 -12.6836 -83.7056
  196 336.473 -13.3420 84.7412
  197 401.628 -27.1949 -16.3702
  198 402.411 -27.0436 17.1400
  199 116.199 -4.02069 20.3539
  200 116.025 -3.96992 -20.3858
  201 765.850 -5.71212 61.9110
  202 632.579 -60.4032 -3.51075
  203 597.088 -7.95734 -1.47045
  204 584.650 -9.40478 1.38792
  205 608.351 71.9481 59.8298
  206 28.2234 26.6919 -13.5589
  207 29.1679 26.6638 13.9802
  208 600.082 -23.5494 69.4420
  209 561.151 43.5517 -69.6283
  210 391.875 96.2144 -258.935
  211 412.130 81.4652 240.928
  212 15.4156 13.7212 -4.93983
  213 15.6568 13.7218 5.05817
  214 598.624 -20.6075 -71.9792
  215 1020.52 141.639 -10.5542
  216 497.161 -53.4940 51.1708
  217 500.684 -53.2359 -48.7657
  218 496.853 -36.6305 2.85142
  219 607.697 -11.3103 7.13272
  220 305.916 -21.4798 -33.6489
  221 301.407 -21.4049 34.5190
  222 187.368 3.36207 -55.1737
  223 187.648 3.29790 54.7683
  224 626.537 -64.0741 -16.2780
  225 492.912 -38.8378 -5.02279
  226 605.399 -11.1433 -5.16958
  227 477.779 -14.4440 -1.66443
  228 481.680 -13.6399 2.52116
  229 602.427 -27.4334 38.1310
  230 62.8605 0.264283 -21.7919
  231 63.1029 0.239995 21.7979
  232 -6.94608 -4.43752 -19.8759
  233 -6.98454 -4.48697 19.8900
  234 108.018 -4.32929 -11.9985
  235 108.174 -4.33970 11.9229
  236 266.725 -8.78637 8.47624
  237 266.765 -8.91740 -8.52713
  238 299.974 21.5675 -119.814
  239 300.015 18.1237 118.521
  240 610.176 -19.8040 -32.6664
  241 295.893 -17.5621 -52.4857
  242 296.163 -18.0823 51.8545
  243 549.706 9.34364 79.2709
  244 489.850 41.8365 4.83364
  245 526.568 -52.7504 5.20389
  246 3.20146 -10.4015 -16.6518
  247 3.02410 -10.5448 16.8043
  248 36.7108 43.2781 -44.9005
  249 38.9238 42.0756 46.8355
  250 518.080 -51.6494 -8.56435
  251 916.766 183.612 -29.1061
  252 53.3339 35.0968 -21.5954
  253 53.9318 35.0939 21.8003
  254 -17.6374 4.72856 12.4595
  255 -17.5357 4.75320 -12.3879
  256 919.855 173.718 34.8393
  257 336.189 -17.2629 -14.7315
  258 335.956 -17.0176 14.5192
  259 640.234 -41.6085 61.3537
  260 1131.53 184.970 117.797
  261 203.294 -10.9336 -31.1104
  262 203.282 -11.0103 31.0943
  263 660.565 99.4625 -55.7713
  264 1095.21 209.699 -109.618
  265 775.839 83.5417 46.9034
  266 828.849 68.3694 -168.399
  267 525.621 -26.5138 3.15571
  268 602.937 4.41143 -87.4497
  269 565.632 -40.7471 -18.2541
  270 626.512 -12.2164 20.3052
  271 6.79815 6.10508 -9.60678
  272 7.04204 6.08736 9.69331
  273 618.823 -14.4719 -160.716
  274 74.3809 21.1899 -27.1128
  275 74.7181 21.1583 27.2450
  276 606.068 -14.8064 -43.5073
  277 91.2595 103.080 -123.172
  278 90.9511 -0.466156 -2.83794
  279 91.0540 -0.450746 2.80454
  280 638.413 -37.9156 -64.4422
  281 118.820 53.3867 -68.3046
  282 120.484 53.1321 68.4977
  283 45.6774 -1.13554 15.0640
  284 45.4190 -1.12294 -15.0678
  285 524.758 -25.3463 -3.14961
  286 91.9075 102.066 126.195
  287 814.694 80.5830 195.093
  288 240.778 -10.0563 -11.8075
  289 240.757 -10.0017 11.6802
  290 424.151 -19.3413 -7.21883
  291 423.959 -20.7475 7.74751
  292 361.914 37.5775 -178.041
  293 576.394 -62.4338 -0.995816
  294 646.535 -5.34402 2.98061
  295 348.976 37.7852 172.665
  296 406.986 -12.9981 -2.58202
  297 406.839 -12.9934 2.90930
  298 566.618 -42.2700 18.5578
  299 643.450 -8.01053 -8.87700
  300 4.50828 2.34591 -12.4367
  301 4.78090 2.32829 12.4808
  302 818.777 161.251 -3.30104
  303 710.936 -29.2072 26.5060
  304 636.461 -4.94746 -0.551100
  305 646.791 -4.34537 0.501560
  306 641.010 -52.6917 64.0129
  307 789.851 89.1574 -42.0420
  308 702.260 130.140 30.5247
  309 321.676 -20.5206 -22.3291
  310 318.935 -20.8718 22.6853
  311 645.515 -5.28975 -1.64755
  312 434.574 -31.8352 -91.2545
  313 428.850 -34.7548 20.3962
  314 408.583 -21.2203 103.016
  315 638.808 -8.87973 10.8340
  316 160.123 -7.30363 -19.6709
  317 160.246 -7.35480 19.6041
  318 591.082 -14.3773 158.767
  319 384.537 -31.1478 -27.7984
  320 697.774 91.7930 68.7705
  321 229.433 15.9370 -79.8936
  322 221.243 16.6894 79.3318
  323 82.2826 -1.46843 -5.13389
  324 82.4236 -1.45955 5.08096
  325 566.882 -13.5882 3.05664
  326 544.226 -10.1323 -0.238649
  327 541.342 -10.8757 0.0705888
  328 602.252 -15.5671 46.2383
  329 67.0893 -2.09874 11.4842
  330 66.8620 -2.08038 -11.5236
  331 189.775 -4.80119 -4.27300
  332 189.815 -4.73442 4.23791
  333 6.56267 -22.9453 -7.51072
  334 6.17935 -23.1675 7.96659
  335 483.946 21.4327 54.2860
  336 717.469 -26.3040 -19.1066
  337 471.316 -26.7374 -3.24210
  338 528.225 -12.9849 -0.496393
  339 567.203 70.1992 -32.4708
  340 120.354 -3.96953 -28.0008
  341 120.520 -3.97385 27.9893
  342 458.944 -25.3405 5.50253
  343 138.696 3.98527 -39.9034
  344 138.965 3.87409 39.8092
  345 29.6831 22.4471 -4.49408
  346 30.0008 22.4497 4.63291
  347 553.233 -57.6539 64.1125
  348 1189.96 78.1464 30.7020
  349 506.870 8.53361 -64.0912
  350 416.883 -37.2156 58.5131
  351 414.779 -36.4169 -60.0962
  352 611.261 -8.93717 86.1412
  353 549.588 -3.39944 62.7381
  354 546.379 -55.7259 -65.9230
  355 334.662 -10.0446 1.65168
  356 334.606 -10.1374 -1.57293
  357 604.464 -39.2272 50.1560
  358 827.733 163.213 -0.0217488
  359 642.847 -8.32712 -14.9901
  360 180.587 -7.03863 -14.6031
  361 180.681 -7.04622 14.4884
  362 607.890 -54.5070 -78.3130
  363 646.383 47.0773 -85.0249
  364 450.084 24.2241 -35.0094
  365 609.092 -40.0577 -58.1427
  366 -19.1145 1.01148 -15.2612
  367 -19.1339 0.985998 15.2802
  368 511.345 -14.4602 -0.884176
  369 -7.24843 -4.26958 -9.54798
  370 -7.23817 -4.27032 9.52640
  371 391.203 214.216 -312.235
  372 18.3642 16.9763 5.97226
  373 18.7646 17.1008 -5.75672
  374 545.850 -3.58319 -62.2459
  375 305.824 -14.0773 11.1718
  376 306.013 -14.2425 -11.2618
  377 -1.67022 -20.7143 17.4481
  378 -1.63753 -20.6775 -17.4323
  379 320.593 223.827 294.880
  380 252.047 -13.7883 -41.7293
  381 252.264 -13.2419 41.7605
  382 82.2790 62.2706 -64.0571
  383 83.9242 62.1495 63.7382
  384 -26.7251 4.88199 3.82798
  385 -26.5841 4.89084 -3.74930
  386 625.373 43.2958 85.9387
  387 478.294 -50.0834 31.5346
  388 478.827 -44.2925 16.2307
  389 575.573 -64.3128 -16.3704
  390 152.754 18.2832 -54.3395
  391 153.263 18.2618 54.2782
  392 14.1665 -11.8312 5.82706
  393 13.4634 -12.1424 -4.82412
  394 595.631 84.5562 21.0317
  395 584.510 -18.5034 11.2291
  396 344.004 -27.1678 39.2681
  397 217.675 -5.93564 -49.2077
  398 217.783 -5.97679 48.8991
  399 433.127 -15.1929 -3.99462
  400 432.696 -13.6315 3.62896
  401 341.206 -27.8478 -41.3302
  402 269.157 -4.85645 -65.1620
  403 269.144 -5.21545 65.6519
  404 611.417 -55.1631 -31.5314
  405 363.260 -28.7526 26.2439
  406 555.384 -18.9417 5.29592
  407 554.164 -17.5116 -4.02191
  408 470.367 -44.0031 -17.8460
  409 658.860 -4.22170 -3.22597
  410 230.742 97.3986 -182.042
  411 627.874 -9.84283 25.9055
  412 657.792 -4.68598 5.30294
  413 249.284 -13.8145 26.1277
  414 249.358 -13.6369 -26.1106
  415 476.199 -49.4970 -32.3350
  416 73.9241 31.4362 29.3280
  417 73.5432 31.4068 -29.3394
  418 1201.31 78.0849 -62.3787
  419 546.086 -32.6279 -8.53952
  420 661.753 -3.67033 1.85328
  421 218.497 91.4808 174.011
  422 984.025 164.815 35.4635
  423 581.023 -10.9953 -2.30248
  424 442.733 -33.3017 -14.4175
  425 190.348 36.6682 -89.8102
  426 202.451 33.9196 89.2671
  427 540.060 -35.5168 8.35410
  428 577.872 -7.29937 -45.6318
  429 7.62128 -0.626236 11.4016
  430 7.32896 -0.620384 -11.3902
  431 213.573 52.2347 -118.407
  432 214.256 52.4125 118.062
  433 31.4275 11.6839 -14.0939
  434 31.6978 11.6615 14.2018
  435 485.440 -11.8601 -0.0614239
  436 484.860 -11.6187 0.214010
  437 601.787 -27.9889 -39.9722
  438 -0.404142 -0.169016 20.3730
  439 -0.295633 -0.0691897 -20.2933
  440 618.894 -59.7238 26.0940
  441 583.545 -17.4828 -9.64650
  442 940.045 179.500 -34.5117
  443 55.6991 -1.81422 5.58957
  444 55.4928 -1.81449 -5.63510
  445 1115.50 326.560 154.509
  446 24.8290 24.4426 -40.6066
  447 81.0023 3.15272 -27.6560
  448 81.2584 3.09815 27.6638
  449 1114.77 334.819 -151.623
  450 26.2989 26.9741 44.0656
  451 -24.2688 3.59928 -0.533450
  452 -24.0844 3.59450 0.609128
  453 68.5742 47.0910 -39.7687
  454 69.6925 47.1339 39.9636
  455 742.344 119.124 -53.5600
  456 593.696 -24.3992 -24.4136
  457 658.563 -3.71598 -1.52493
  458 621.111 -9.97383 -30.7280
  459 -5.43778 5.56394 18.4419
  460 -5.32703 5.62931 -18.3653
  461 600.066 -25.2013 29.1533
  462 397.485 -23.8136 -13.2413
  463 396.339 -24.0280 11.9900
  464 532.006 -58.3571 -16.8515
  465 383.620 -3.87297 -124.829
  466 582.864 -8.74339 46.4909
  467 475.027 -17.5964 2.97655
  468 688.305 -47.1990 -19.4269
  469 371.940 5.06745 133.437
  470 43.0814 -0.674351 10.9982
  471 42.8157 -0.663221 -11.0144
  472 764.665 150.928 -21.8640
  473 601.900 -6.58722 -0.251294
  474 599.954 -7.19211 -0.264221
  475 463.835 -32.3537 9.00227
  476 214.964 -7.65528 -8.41923
  477 214.976 -7.57782 8.34069
  478 129.596 -1.96250 -33.1137
  479 129.759 -1.98715 33.0684
  480 410.298 15.8794 21.0565
  481 112.480 -3.61707 16.3101
  482 112.311 -3.58475 -16.3733
  483 113.205 9.89316 37.4852
  484 112.839 10.0391 -37.4449
  485 590.980 -45.8774 34.2182
  486 338.372 -21.1680 -61.6842
  487 315.545 -11.4924 6.27566
  488 315.640 -11.7284 -6.27980
  489 341.830 -21.8094 61.6936
  490 915.217 221.857 -32.0501
  491 -14.5957 -2.06682 -12.1550
  492 -14.5852 -2.07850 12.1462
  493 245.238 -7.60987 -3.58811
  494 245.256 -7.51423 3.57762
  495 0.537671 -37.6367 -13.7976
  496 0.440941 -37.7618 13.9284
  497 537.826 -10.4847 -0.133168
  498 408.269 18.9966 -10.4445
  499 532.699 55.5496 29.4707
  500 335.394 -2.64419 -100.925
  501 174.083 -8.95558 24.5506
  502 174.039 -8.88226 -24.5787
  503 -33.7021 1.22632 -4.65633
  504 -33.4451 1.21851 4.69273
  505 639.806 -9.80890 -83.9812
  506 70.5373 0.215804 -3.65556
  507 70.6655 0.223718 3.61733
  508 532.593 -42.8834 -4.86782
  509 566.430 -48.6609 -16.6603
  510 121.515 97.0086 -126.854
  511 476.314 17.5069 -191.901
  512 9.87347 15.4491 6.12775
  513 10.1077 15.4851 -5.99548
  514 301.439 -14.8768 -15.3430
  515 301.313 -14.7595 15.0929
  516 806.646 42.7709 -3.71222
  517 588.231 -35.4570 -31.3762
  518 118.592 92.2964 125.210
  519 582.511 -64.5105 25.5494
  520 561.452 -53.4740 10.8310
  521 135.587 -3.27299 -10.7867
  522 135.694 -3.26228 10.7015
  523 478.408 5.73747 49.7629
  524 341.786 -25.9119 -27.3344
  525 616.659 -15.1254 17.6094
  526 -2.38661 -15.0396 -11.8789
  527 -2.39242 -15.0250 11.8593
  528 439.721 -38.2523 68.8447
  529 659.380 -47.8667 -37.8193
  530 848.444 71.5276 -45.8470
  531 469.718 -18.1119 -3.00812
  532 155.451 -3.02077 -3.06149
  533 155.513 -2.97191 3.03801
  534 302.866 2.92099 97.5370
  535 819.456 143.830 28.5960
  536 813.362 188.459 -298.219
  537 745.665 10.0211 32.9379
  538 542.114 -59.8342 14.0871
  539 1236.34 98.6392 84.0335
  540 933.820 234.684 42.8932
  541 146.490 -6.20809 26.6873
  542 146.364 -6.14956 -26.7171
  543 521.936 -44.0894 1.54121
  544 45.0345 19.4002 -13.9641
  545 45.3400 19.3947 14.0896
  546 651.510 -51.9260 38.0621
  547 547.551 30.5420 72.6919
  548 651.599 -4.95561 10.0051
  549 489.554 -30.9118 -2.06693
  550 672.108 15.8993 -202.226
  551 1048.93 296.921 205.793
  552 526.659 -12.7436 0.439189
  553 642.243 -7.30932 -16.7929
  554 108.811 44.5992 -52.4126
  555 109.578 44.0756 52.2200
  556 377.549 -16.7722 -8.97494
  557 377.392 -16.4262 9.10283
  558 5.09209 -37.4218 -9.16798
  559 659.572 -20.9826 72.9673
  560 29.2246 25.2639 -2.17778
  561 29.6348 25.3385 2.37514
  562 5.86219 -35.8011 10.5897
  563 602.768 -27.1311 -60.5568
  564 692.195 46.9152 -78.9761
  565 690.283 52.8580 79.1406
  566 36.1880 35.1904 31.4872
  567 34.4966 35.8483 -30.9371
  568 -8.49318 0.546067 8.81715
  569 -8.78921 0.552374 -8.79864
  570 627.852 25.2176 207.924
  571 356.218 -20.8733 16.1987
  572 356.551 -20.8032 -16.4021
  573 753.897 -3.93078 -112.912
  574 116.766 -1.62996 6.23539
  575 116.667 -1.65173 -6.29283
  576 66.0608 -1.21271 -1.42680
  577 66.1632 -1.20474 1.41335
  578 835.064 158.709 -19.7976
  579 83.2064 142.075 -138.263
  580 460.016 9.81469 -42.2852
  581 633.033 100.582 -35.3683
  582 10.8678 3.22078 10.1395
  583 11.2497 3.36604 -9.88459
  584 609.811 314.707 346.799
  585 534.889 -17.0518 -1.58455
  586 27.2721 5.39933 -15.6915
  587 27.5404 5.36085 15.7611
  588 618.508 -48.7443 48.9220
  589 97.9587 138.156 140.770
  590 449.802 -11.7539 1.20599
  591 449.930 -11.6755 -1.20758
  592 -0.198549 -30.4445 14.8343
  593 -0.150479 -30.3969 -14.7854
  594 765.120 147.380 -1.22578
  595 485.427 -37.3953 94.9795
  596 464.603 -21.7991 -4.50797
  597 464.530 26.2277 202.154
  598 -37.0642 2.14055 8.60454
  599 -37.0290 2.15215 -8.56586
  600 754.362 15.9452 -35.9333
  601 984.451 189.029 -151.582
  602 295.559 31.5406 -137.886
  603 168.012 -7.25419 -32.2760
  604 168.182 -7.25866 32.2900
  605 676.136 -2.94100 2.39640
  606 460.320 -22.2146 3.99706
  607 605.849 -10.1405 4.92385
  608 602.725 -27.2355 59.0340
  609 42.6461 -1.03701 5.62334
  610 42.4026 -1.03281 -5.65662
  611 363.866 -14.2574 -5.35477
  612 363.827 -13.9254 5.24556
  613 230.700 4.71438 -67.0914
  614 229.295 4.78491 66.8458
  615 852.446 63.5315 65.8317
  616 1361.61 102.707 -147.738
  617 1.97340 -0.916876 7.59016
  618 1.66141 -0.914093 -7.58533
  619 222.544 -9.69043 15.3242
  620 222.507 -9.67680 -15.4840
  621 799.875 51.9128 14.6339
  622 667.076 -3.50959 -0.757200
  623 665.719 -4.51586 0.179296
  624 506.658 0.323235 49.1582
  625 703.531 -35.6984 -72.7530
  626 392.598 -32.8140 32.4428
  627 -5.24762 9.26506 -6.13317
  628 -5.42282 9.24840 6.23661
  629 623.663 14.5549 89.5854
  630 255.467 -15.0887 -34.0586
  631 255.261 -15.3265 34.1192
  632 506.109 -30.8036 0.204452
  633 619.034 -14.7978 -15.8436
  634 362.818 -29.2230 -46.1939
  635 594.159 71.8913 -54.5225
  636 398.860 -27.1033 -78.4347
  637 160.075 -4.28965 -5.78761
  638 160.136 -4.24493 5.72850
  639 366.391 -29.6961 46.4564
  640 771.437 128.151 45.8775
  641 616.579 -28.8531 74.4899
  642 504.665 -24.3410 0.432001
  643 367.572 -11.4865 2.92648
  644 367.482 -11.5047 -2.86014
  645 282.235 -11.4277 -11.1663
  646 282.153 -11.3206 11.0766
  647 591.536 -53.9133 -25.0578
  648 309.113 -18.3220 19.3837
  649 309.414 -18.2483 -19.6826
  650 605.222 92.5506 -7.21181
  651 546.901 -30.1891 8.92463
  652 673.450 -3.83581 -3.98616
  653 587.251 -9.77099 -79.6982
  654 96.6540 -4.05769 21.4957
  655 96.4587 -4.03018 -21.5042
  656 659.683 -4.38507 -9.11478
  657 125.041 65.3456 -90.8268
  658 127.121 65.2193 91.2569
  659 674.468 -35.4483 96.0992
  660 240.561 61.5124 145.249
  661 69.4472 -0.616094 21.4741
  662 69.2202 -0.602226 -21.4749
  663 577.667 -33.8233 120.720
  664 564.753 92.3818 -272.063
  665 566.496 19.0333 -80.1553
  666 736.422 134.327 41.1233
  667 496.456 -23.9028 1.75492
  668 886.266 157.277 -3.82971
  669 -37.0892 2.06103 -3.52043
  670 -36.8740 2.05628 3.57034
  671 398.523 3.71361 -145.030
  672 46.1449 -0.620093 4.21819
  673 45.9540 -0.621587 -4.25341
  674 496.757 -40.2589 -94.0405
  675 172.014 22.9957 -65.0851
  676 170.722 23.0980 65.0644
  677 9.17693 8.51579 -6.76552
  678 9.41291 8.50703 6.87021
  679 425.889 -37.4184 -25.9516
  680 598.850 -5.93845 -30.3587
  681 294.615 -10.1142 -3.89751
  682 294.642 -10.0198 3.92210
  683 217.334 -11.3698 -22.3484
  684 217.518 -11.5193 22.2864
  685 42.7914 35.0940 -16.6041
  686 43.4515 35.1812 16.8344
  687 604.265 -9.07595 1.82515
  688 281.198 -18.3771 28.8854
  689 282.874 -18.0800 -28.8725
  690 671.784 -50.6814 2.42481
  691 557.729 -56.0868 -4.75405
  692 441.974 -14.5191 -2.32909
  693 440.499 -13.7019 2.51144
  694 611.471 -62.3598 42.1303
  695 984.430 200.225 59.7015
  696 538.229 -20.3368 -147.687
  697 615.683 -17.9155 30.0461
  698 615.974 -21.6570 -80.5668
  699 204.553 -6.68893 -10.8325
  700 204.580 -6.64665 10.7272
  701 480.303 -4.80464 164.731
  702 1294.99 168.254 153.546
  703 99.2573 27.7622 -39.5348
  704 99.4100 27.9532 39.6574
  705 601.785 -7.76977 -0.824944
  706 606.312 -7.09748 0.865111
  707 261.930 141.380 -231.213
  708 642.683 -4.12207 16.9967
  709 556.384 -11.6798 0.673831
  710 742.115 145.799 -14.5744
  711 83.1987 13.5867 -29.2856
  712 83.5453 13.5050 29.3893
  713 680.010 -2.41369 0.202488
  714 561.127 -23.3221 -9.41525
  715 698.345 -7.23180 61.4391
  716 295.741 -21.0440 -43.7182
  717 296.472 -20.1847 43.3711
  718 79.5387 -2.45067 16.2500
  719 79.3219 -2.42174 -16.2816
  720 627.515 -5.90498 -2.08591
  721 542.094 118.735 287.588
  722 5.67456 6.46066 15.6829
  723 5.88115 6.59034 -15.5415
  724 630.650 -8.25377 -6.63800
  725 614.116 -12.8410 9.64564
  726 504.515 0.938021 -52.7235
  727 5.17774 -51.7637 -5.12544
  728 4.87119 -52.3182 5.68674
  729 231.607 63.5674 -145.361
  730 496.263 -48.7728 -69.8466
  731 260.660 139.943 233.154
  732 672.517 -2.56760 1.24956
  733 667.927 100.607 55.8447
  734 499.657 45.0596 -20.5970
  735 863.267 173.848 8.07533
  736 667.036 -3.59049 5.59226
  737 -31.9557 0.961985 6.35107
  738 -32.2421 0.967164 -6.32672
  739 713.129 -35.8434 29.6088
  740 468.731 -15.5718 -2.94511
  741 178.804 -0.212766 -47.3502
  742 179.053 -0.381659 47.1270
  743 612.617 -8.89369 -3.14460
  744 1073.74 151.655 -57.8916
  745 88.9155 -2.38078 -10.5918
  746 89.1045 -2.39396 10.5336
  747 677.265 -2.62747 -2.40287
  748 151.480 -6.63538 -14.6943
  749 151.599 -6.65843 14.6070
  750 673.200 -24.2643 -64.4347
  751 623.231 -6.85505 24.0333
  752 567.574 -2.73524 79.2846
  753 677.054 -2.71708 0.352753
  754 637.098 -6.33606 4.87033
  755 427.014 -24.4260 -9.02316
  756 528.287 -15.9711 0.616935
  757 601.650 -37.0431 -48.8950
  758 586.122 -37.4662 29.8872
  759 690.639 85.5440 -69.8802
  760 577.713 -33.4425 21.0624
  761 612.160 -35.6216 63.7365
  762 361.879 -25.4088 20.9413
  763 14.2122 1.81411 3.06445
  764 13.5280 1.76171 -2.41458
  765 533.564 -10.3095 -0.440459
  766 532.477 -10.2555 0.249642
  767 632.176 -4.44373 -0.126858
  768 634.215 -4.33525 0.265588
  769 611.461 -17.6311 37.6171
  770 563.577 -49.4608 89.6141
  771 467.457 -38.8313 13.1164
  772 417.422 -26.2580 12.1560
  773 1093.65 139.594 65.9767
  774 615.536 -16.6770 -23.0222
  775 365.544 67.8876 -216.151
  776 573.771 -29.6054 -17.8805
  777 32.8469 0.305395 -16.0243
  778 33.1151 0.284580 16.0502
  779 528.364 46.4600 -46.1041
  780 1257.63 38.1400 -16.0905
  781 649.597 18.8011 -86.6169
  782 27.5673 34.8879 -57.6754
  783 674.217 120.193 14.1009
  784 520.729 -34.4351 2.44489
  785 588.847 -13.9090 77.1699
  786 493.884 -50.8417 70.2150
  787 772.908 5.81901 136.103
  788 29.6575 40.8371 61.2091
  789 361.052 -1.27631 114.607
  790 497.571 -14.9834 1.15758
  791 553.185 -47.4033 -90.6233
  792 347.487 -27.5970 -33.5908
  793 275.489 13.5036 -101.213
  794 642.898 -8.15541 84.7976
  795 416.938 -29.5141 17.7596
  796 95.3850 -2.44684 9.19063
  797 95.2330 -2.44916 -9.25849
  798 600.623 -3.46231 26.8284
  799 551.752 3.63596 -77.4706
  800 -45.3817 2.23614 4.97393
  801 -45.3130 2.24083 -4.93076
  802 406.065 -14.5221 -3.75480
  803 404.966 -13.8510 3.61694
  804 302.869 35.1646 139.701
  805 275.297 -16.6423 22.2643
  806 275.633 -16.2649 -22.4495
  807 676.470 -2.10081 -1.11587
  808 248.953 19.9539 98.8961
  809 23.5773 -0.230518 5.86234
  810 23.2872 -0.225620 -5.88098
  811 593.813 -18.0822 59.2033
  812 622.351 -6.93679 1.50208
  813 -33.2668 0.545316 8.93301
  814 -33.2775 0.556716 -8.91481
  815 393.652 -24.1442 87.3201
  816 79.7893 69.9802 -78.4136
  817 80.7138 67.1015 77.3431
  818 391.401 17.0037 8.73727
  819 7.44974 -0.500435 -6.68241
  820 7.76678 -0.504371 6.67969
  821 450.402 -42.2178 -65.9805
  822 608.153 -62.6550 -11.1511
  823 -3.10028 -2.93540 -3.94658
  824 -3.09056 -2.92795 3.93139
  825 52.0660 0.961445 -1.46734
  826 52.1847 0.966951 1.44706
  827 543.024 -48.8024 6.17455
  828 460.176 -46.8294 48.1404
  829 505.658 -10.8533 -0.188506
  830 459.186 -37.9441 -14.7282
  831 181.793 -3.39689 -1.28275
  832 181.842 -3.33289 1.26825
  833 -50.5227 1.10702 2.46823
  834 -50.4073 1.10579 -2.42520
  835 566.795 -9.52397 -1.00868
  836 519.079 21.1706 -66.3076
  837 573.782 -13.3982 -4.45797
  838 348.242 -27.1943 32.1975
  839 577.061 -9.71046 -63.3240
  840 610.764 -19.1102 -38.8332
  841 568.916 -8.49680 0.857824
  842 422.245 -14.7036 117.350
  843 451.181 -44.3959 -29.8581
  844 277.052 -2.10933 -78.8212
  845 278.519 -0.188389 79.2281
  846 387.597 -29.9319 -22.6828
  847 638.851 70.5698 74.2545
  848 598.148 -60.1012 -53.7817
  849 229.208 -7.74186 -5.63973
  850 229.214 -7.64355 5.59725
  851 461.438 -12.7020 1.67121
  852 461.469 -12.7876 -1.58009
  853 554.579 -3.92046 -41.6598
  854 197.063 -8.52491 -18.1056
  855 197.187 -8.58584 17.9858
  856 2.45558 -54.3004 -10.0189
  857 2.33593 -54.5387 10.2517
  858 110.573 -1.57883 -0.0487263
  859 110.487 -1.60621 0.0313188
  860 563.138 -10.9952 -1.36430
  861 434.894 -41.5230 43.8832
  862 664.266 -54.2696 10.8480
  863 413.461 8.63116 33.4381
  864 575.953 -15.4979 5.25433
  865 631.095 -55.0911 -35.3521
  866 100.514 5.59088 -32.6097
  867 100.804 5.49542 32.6076
  868 503.195 -11.4689 0.195349
  869 410.711 -16.0759 -6.18326
  870 409.374 -15.9594 6.55066
  871 634.464 98.5302 39.9081
  872 226.298 -2.65497 -56.4164
  873 226.127 -2.90752 56.2153
  874 438.934 -40.2656 24.7726
  875 46.9014 28.9738 -14.6283
  876 47.3283 28.9276 14.7569
  877 373.385 -26.3697 72.2146
  878 444.780 -29.6805 -9.92528
  879 557.440 -4.06994 42.0865
  880 541.594 -60.2322 28.4071
  881 619.439 -46.1765 -53.4663
  882 433.827 -41.8573 -44.3899
  883 364.352 -25.3212 -20.1935
  884 1137.61 92.8044 -17.9035
  885 566.635 -59.6389 0.852830
  886 19.7923 20.1697 2.96680
  887 20.0953 20.2135 -2.80509
  888 495.075 -49.8929 16.9698
  889 540.630 -59.7710 -43.7358
  890 21.9584 17.0864 -3.19130
  891 22.2270 17.0959 3.31714
  892 213.392 -7.96273 43.5584
  893 213.482 -8.17881 -43.7712
  894 255.618 -13.2551 47.6261
  895 255.499 -13.5464 -47.8961
  896 781.330 156.466 16.0354
  897 -1.04053 -24.1174 -11.4058
  898 -1.04854 -24.0836 11.3952
  899 187.523 15.2674 -62.0156
  900 186.669 14.9700 61.4898
  901 1297.78 42.0304 -64.7285
  902 44.7350 -0.197318 2.44769
  903 44.5755 -0.201593 -2.47544
  904 2.70195 -58.5422 1.08463
  905 3.10201 -57.4436 -0.155826
  906 -25.8005 -0.226454 9.41183
  907 -25.8340 -0.218202 -9.40999
  908 150.259 43.7652 -72.5971
  909 152.547 42.3087 71.6703
  910 -10.2262 1.16076 -19.2608
  911 -10.2818 1.11338 19.2950
  912 50.2995 3.52800 -21.8195
  913 50.5728 3.48092 21.8562
  914 166.135 -2.34820 40.3576
  915 165.999 -2.33950 -40.5209
  916 138.511 -4.92285 -32.7250
  917 138.666 -4.91649 32.6912
  918 663.829 -2.94794 -9.18409
  919 330.901 74.5198 201.882
  920 455.513 -45.2295 28.4197
  921 329.108 -24.1944 26.4798
  922 625.689 65.5717 -73.8021
  923 1276.72 27.0945 26.0782
  924 729.565 37.6233 -64.8180
  925 134.947 -5.10498 20.7079
  926 134.797 -5.05018 -20.7675
  927 33.3737 -0.822675 -15.2409
  928 33.6415 -0.829501 15.2468
  929 0.341744 -9.96664 -20.6136
  930 0.245105 -10.0636 20.6845
  931 340.000 -16.1014 12.6040
  932 340.156 -16.3805 -12.6471
  933 47.5410 10.9154 -20.1904
  934 47.8297 10.8690 20.2862
  935 212.384 -9.78391 -37.3377
  936 212.543 -9.78863 37.3263
  937 454.422 -1.29706 -39.2274
  938 219.698 -12.1724 -26.5517
  939 219.585 -12.0579 26.6326
  940 507.134 -16.2409 1.40899
  941 614.219 -34.2554 -68.9389
  942 278.520 -12.0016 12.9866
  943 278.625 -12.0976 -13.1213
  944 -11.3194 -1.15066 -6.83711
  945 -11.2866 -1.15338 6.82130
  946 620.212 -43.7749 -109.490
  947 597.656 -35.3366 41.8907
  948 525.670 -37.7970 -4.42924
  949 524.880 18.8197 69.7637
  950 243.156 -14.0111 -29.7581
  951 243.189 -13.7675 29.8399
  952 580.400 23.4578 83.4348
  953 547.035 48.1108 55.0401
  954 1069.03 127.445 23.0344
  955 556.486 -21.6463 6.06746
  956 303.866 -10.0880 -5.89871
  957 303.844 -9.92121 5.93770
  958 501.990 -41.9561 4.57489
  959 697.881 127.645 -32.2012
  960 604.410 -8.29547 -1.93380
  961 406.887 -11.7901 1.98257
  962 406.745 -11.7136 -1.87272
  963 55.0381 47.6163 -37.1228
  964 56.3522 47.5694 37.3655
  965 96.3043 278.656 -223.318
  966 578.302 -13.1211 62.8860
  967 709.252 -9.20744 -53.0895
  968 -7.58846 7.10248 1.28361
  969 -7.39529 7.10318 -1.18471
  970 1390.39 340.994 -268.115
  971 608.816 -64.7781 -2.11136
  972 646.998 -56.9016 -35.5258
  973 600.630 -51.0870 36.1902
  974 748.055 146.030 11.9573
  975 57.2174 66.4612 -73.5300
  976 138.130 243.840 221.611
  977 -2.86097 -7.35358 20.9985
  978 -2.80131 -7.28243 -20.9639
  979 581.477 -16.5644 6.96830
  980 931.779 163.396 -23.1052
  981 58.7944 65.1863 76.1152
  982 -2.52259 -8.85090 -7.60333
  983 -2.52263 -8.82498 7.58227
  984 502.204 -13.7801 -1.46622
  985 381.038 -30.7447 -35.1871
  986 605.519 -47.4027 -44.5552
  987 178.917 48.3110 -94.1291
  988 181.716 49.0848 94.3623
  989 591.983 -14.5127 -55.6022
  990 590.167 -20.0967 15.1641
  991 -14.2385 4.61736 16.4810
  992 -14.1595 4.66023 -16.4233
  993 363.962 -23.8774 -68.2460
  994 601.540 39.7574 -83.0392
  995 445.158 -18.4566 4.50873
  996 326.734 -10.5365 1.29690
  997 326.668 -10.5926 -1.26142
  998 -6.42341 -7.32514 -15.5319
  999 -6.43195 -7.34085 15.5165
  1000 598.197 -22.5283 -19.4317
  1001 567.579 -8.38715 0.166042
  1002 567.065 -8.39720 0.0508580
  1003 788.058 132.787 -40.6205
  1004 151.045 12.3704 -49.7512
  1005 151.421 12.1253 49.6666
  1006 101.925 -1.23470 -27.4017
  1007 102.120 -1.25386 27.3839
  1008 654.316 37.2210 87.6273
  1009 611.184 -12.9923 -10.1319
  1010 116.552 17.4426 -41.3663
  1011 117.002 17.3185 41.5122
  1012 633.180 -4.88470 -1.23740
  1013 598.999 -26.6868 -31.0888
  1014 585.027 -64.4865 -33.4112
  1015 24.9453 23.0535 4.39637
  1016 24.3151 22.9455 -4.10862
  1017 -25.9811 4.93055 9.07418
  1018 -25.8782 4.94508 -9.00322
  1019 379.542 13.7961 -14.5936
  1020 999.674 254.735 -80.4669
  1021 466.800 -35.1138 -8.37810
  1022 313.761 -13.7491 -69.9878
  1023 735.565 -24.5096 -5.12463
  1024 314.972 -13.7096 70.9094
  1025 533.617 -60.9605 49.7083
  1026 604.442 -25.1322 -49.1455
  1027 220.412 -5.65261 -1.79951
  1028 220.448 -5.57065 1.79078
  1029 417.816 -33.4635 -20.7688
  1030 261.392 -10.0809 -55.4847
  1031 261.328 -10.1563 55.2522
  1032 88.9900 58.7968 -60.7743
  1033 90.3419 58.6698 60.9553
  1034 188.352 -6.14925 -6.30922
  1035 188.390 -6.08302 6.24731
  1036 536.302 -18.8663 1.94765
  1037 455.035 4.68073 -166.436
  1038 555.263 -19.7555 -6.20548
  1039 505.082 -55.5543 -32.5482
  1040 339.258 -15.4153 8.96921
  1041 339.510 -15.5171 -8.98643
  1042 641.654 -5.29478 1.56999
  1043 579.171 -15.5201 -6.49002
  1044 397.614 9.89475 27.6374
  1045 624.028 -6.30644 -22.4056
  1046 247.509 74.8440 163.914
  1047 639.867 -6.26590 -18.1091
  1048 175.412 29.1169 -72.1190
  1049 170.454 29.4211 69.4168
  1050 759.624 -6.74177 2.90008
  1051 75.1046 38.1073 -33.7560
  1052 75.7626 37.8497 33.7633
  1053 13.4223 3.35400 3.12838
  1054 14.0205 3.47258 -2.73555
  1055 115.556 -2.92534 7.42457
  1056 115.438 -2.94186 -7.49607
  1057 280.288 75.6323 -180.485
  1058 1429.86 389.885 288.659
  1059 596.531 -22.4970 19.9145
  1060 538.360 -59.8547 -26.2491
  1061 379.656 -31.2897 -54.0675
  1062 -5.24859 9.09544 13.2909
  1063 -5.10258 9.14481 -13.1920
  1064 426.483 -23.3949 7.65198
  1065 467.773 -19.1816 3.39888
  1066 -0.143828 -34.0582 10.8842
  1067 -0.132398 -34.0985 -10.8834
  1068 75.1252 45.9754 -39.4436
  1069 75.9735 45.9081 39.6600
  1070 421.096 -21.6787 -7.37603
  1071 38.8726 15.6310 14.2442
  1072 38.5887 15.6478 -14.1252
  1073 636.121 -23.5171 80.1267
  1074 463.437 -47.7094 -47.8996
  1075 381.849 -31.7850 54.0718
  1076 609.067 -10.7277 -85.8537
  1077 631.485 -8.29426 7.32172
  1078 238.201 37.1275 111.978
  1079 239.889 35.5080 -110.184
  1080 378.469 -17.7504 -94.7633
  1081 528.063 -20.7126 -1.66641
  1082 434.167 -27.3409 11.9885
  1083 505.324 -47.6903 -8.41601
  1084 679.443 -2.97162 -4.36878
  1085 379.499 -18.7554 10.5431
  1086 379.339 -19.7331 -10.7321
  1087 15.0338 16.9798 9.03503
  1088 15.3447 17.0987 -8.85475
  1089 615.530 24.3174 -89.0832
  1090 145.858 6.69711 -44.2491
  1091 146.245 6.54525 44.1560
  1092 112.578 1.61637 -32.3847
  1093 112.821 1.55888 32.3466
  1094 687.925 -20.1993 136.059
  1095 603.451 -27.9644 48.1401
  1096 303.041 -14.1413 -60.1080
  1097 688.103 -3.17120 -2.57748
  1098 786.893 150.560 -30.0045
  1099 629.679 -7.43245 -4.18504
  1100 596.685 -63.4263 11.0509
  1101 445.970 -32.9188 84.1210
  1102 690.933 -1.42705 0.221509
  1103 396.911 12.2273 -23.3927
  1104 508.740 -54.3864 -19.0043
  1105 303.551 -14.7613 59.5465
  1106 513.277 -47.2858 5.51251
  1107 632.633 -10.1007 15.1724
  1108 475.383 30.1146 36.0865
  1109 325.305 -24.2161 -48.8891
  1110 941.311 151.042 -73.2365
  1111 721.441 36.6795 69.0140
  1112 554.994 69.0707 8.72280
  1113 686.065 -0.449503 2.07453
  1114 284.683 -18.1959 -38.2642
  1115 193.083 124.550 -182.343
  1116 341.657 10.4784 -132.040
  1117 392.003 -30.8869 26.1662
  1118 333.474 -25.2745 46.2557
  1119 284.075 -17.3546 38.5974
  1120 587.086 6.43547 87.3839
  1121 442.251 -17.2663 -3.96111
  1122 678.503 -5.52187 6.19915
  1123 -4.32122 0.583432 20.6344
  1124 -4.23866 0.656488 -20.5806
  1125 461.915 -15.2134 2.59496
  1126 1.34012 6.70669 17.6783
  1127 1.49086 6.80380 -17.5727
  1128 269.441 -9.26384 6.85126
  1129 269.444 -9.38845 -6.85727
  1130 645.254 -3.76918 15.0195
  1131 522.567 -33.2843 -3.08106
  1132 490.691 -27.7881 2.41392
  1133 546.793 -39.1898 11.4996
  1134 172.524 88.3305 -137.990
  1135 535.144 -22.0566 3.23681
  1136 90.4063 1.15912 -26.8006
  1137 90.6382 1.11912 26.7935
  1138 117.174 77.0720 -99.4346
  1139 846.361 120.012 10.9519
  1140 74.7425 -3.06785 15.8363
  1141 74.5175 -3.04413 -15.8513
  1142 119.252 76.0549 96.3258
  1143 493.022 -42.0742 -6.54863
  1144 259.646 -12.7063 15.6844
  1145 259.665 -12.7549 -15.8837
  1146 988.283 211.269 -63.6307
  1147 541.256 -54.2620 -4.07612
  1148 190.462 117.145 182.074
  1149 17.5505 5.04683 -19.7436
  1150 18.8027 5.26757 21.1934
  1151 581.274 72.8543 43.5496
  1152 48.1825 24.2332 -14.9663
  1153 48.5407 24.2464 15.0747
  1154 544.645 -47.8756 -7.01904
  1155 -0.225288 -52.0671 -9.98536
  1156 -0.249696 -52.0651 10.0308
  1157 581.050 -49.1375 -23.5070
  1158 6.33478 0.649442 5.20689
  1159 6.01250 0.653950 -5.21504
  1160 95.6540 34.5217 -41.9583
  1161 96.1593 34.6768 41.6387
  1162 -18.2803 0.0396741 -6.38234
  1163 -17.9566 0.0376590 6.39043
  1164 575.704 -8.37461 0.0592799
  1165 -53.8416 1.71514 0.0137454
  1166 -53.6804 1.71462 0.0264109
  1167 315.441 -25.1636 -37.2753
  1168 8.73192 -63.9653 -11.3275
  1169 168.568 -4.93369 11.6953
  1170 168.487 -4.94743 -11.7963
  1171 494.143 -11.6891 1.14425
  1172 495.052 -11.4514 -1.05157
  1173 9.37958 -60.3870 13.1459
  1174 584.064 -31.4219 -24.8239
  1175 661.278 -3.58354 10.7041
  1176 594.146 -38.3799 -38.0673
  1177 530.459 4.47730 69.2336
  1178 3.39556 -18.0817 13.7784
  1179 3.65263 -17.9193 -13.5137
  1180 386.870 -29.0552 21.6355
  1181 -24.7501 2.65108 13.2870
  1182 -24.7041 2.67266 -13.2447
  1183 976.217 153.687 11.5949
  1184 1113.27 376.930 -263.768
  1185 606.908 -58.1820 29.8470
  1186 263.173 -8.42659 -1.21438
  1187 263.205 -8.34026 1.21555
  1188 1208.84 117.601 -109.561
  1189 103.186 -2.58694 16.4051
  1190 102.998 -2.55044 -16.4515
  1191 574.088 -1.85384 -27.0664
  1192 371.587 -30.4318 41.9174
  1193 600.209 -58.0913 -19.4356
  1194 581.566 -42.6473 -28.0538
  1195 361.111 -12.0835 99.0754
  1196 139.456 25.1136 -55.7521
  1197 139.402 24.8952 55.4765
  1198 180.004 67.5775 -118.108
  1199 180.288 62.6774 118.133
  1200 56.8791 14.7475 -21.5269
  1201 57.1893 14.7078 21.6413
  1202 721.065 126.127 -46.6217
  1203 40.7373 37.9324 -21.1330
  1204 41.6171 38.0063 21.4020
  1205 519.210 -40.7664 1.20283
  1206 944.917 156.724 80.8348
  1207 138.412 -5.55154 -11.5397
  1208 138.530 -5.55066 11.4511
  1209 603.329 469.739 -377.291
  1210 500.686 30.1680 -55.4713
  1211 464.467 35.2003 22.7965
  1212 68.2109 26.9882 -25.3506
  1213 68.5191 26.9956 25.4732
  1214 30.9635 -0.158518 3.78171
  1215 30.7295 -0.158318 -3.80848
  1216 573.419 -46.3908 21.8227
  1217 562.631 -24.1098 10.6791
  1218 386.909 119.887 -277.211
  1219 884.243 194.383 -18.8852
  1220 387.295 -10.8119 -108.460
  1221 496.602 -17.3549 -2.20850
  1222 45.9406 -2.37038 -0.795675
  1223 46.0373 -2.36820 0.791412
  1224 -5.36285 3.93111 -9.77676
  1225 -5.11042 3.91595 9.84033
  1226 338.379 4.55103 -113.789
  1227 607.760 -14.8499 13.5847
  1228 401.786 9.72912 152.773
  1229 539.276 -28.1985 -6.52581
  1230 282.680 105.968 -220.865
  1231 436.036 -19.6235 -116.612
  1232 517.062 -55.1710 16.1582
  1233 627.513 -10.7426 24.0056
  1234 550.875 -13.6642 -1.57910
  1235 314.216 -23.6946 37.4566
  1236 689.832 -35.4770 -39.3714
  1237 662.255 59.6303 82.6979
  1238 294.158 1.55507 -91.2326
  1239 644.754 -5.47038 1.34099
  1240 542.172 66.8768 -12.4959
  1241 241.266 -8.96707 -11.4217
  1242 241.244 -8.88623 11.3221
  1243 985.667 243.721 74.2083
  1244 1320.23 35.0606 60.5666
  1245 1.33672 -63.2298 -9.83475
  1246 1.29666 -63.2901 9.91308
  1247 154.218 84.2713 129.791
  1248 362.687 -12.1942 -3.19717
  1249 362.765 -12.1341 3.32417
  1250 488.938 -49.4928 -19.6828
  1251 589.191 49.3707 75.4086
  1252 602.213 -13.5866 -7.98488
  1253 689.543 -2.41823 -0.765249
  1254 1190.49 268.406 -171.837
  1255 203.520 -7.88913 12.1651
  1256 203.478 -7.90258 -12.2878
  1257 581.675 -53.9003 21.9058
  1258 1001.61 261.678 -93.7413
  1259 563.229 -26.1010 -12.2845
  1260 417.704 -30.1404 -16.5599
  1261 508.267 -54.9146 31.9292
  1262 496.889 -26.5021 -1.24373
  1263 20.2151 14.9381 -28.9664
  1264 673.924 -38.3312 49.3788
  1265 548.652 -36.9933 -11.3380
  1266 22.1435 15.8846 31.4515
  1267 562.516 -41.7507 -110.372
  1268 530.038 39.6515 -227.122
  1269 865.791 120.163 -2.01330
  1270 691.890 -1.13846 -0.161550
  1271 690.812 -1.76525 0.551558
  1272 557.587 -33.7466 13.1204
  1273 222.440 26.5013 -90.2296
  1274 633.912 -54.8150 39.0024
  1275 1062.38 246.237 119.564
  1276 272.151 98.4277 215.554
  1277 9.01743 3.67779 13.4789
  1278 9.30177 3.82338 -13.2837
  1279 661.997 -49.5368 -64.1964
  1280 279.151 -15.8625 -18.6278
  1281 279.124 -15.9055 18.3624
  1282 621.954 -39.9564 65.2319
  1283 33.7302 0.0219451 17.0206
  1284 33.4650 0.0340442 -17.0083
  1285 -3.06195 -12.5146 17.7187
  1286 -3.03930 -12.4879 -17.7247
  1287 125.107 -4.20574 -14.9463
  1288 125.257 -4.22932 14.8712
  1289 334.396 -22.5584 -54.9858
  1290 338.141 -12.5020 4.35816
  1291 338.122 -12.7322 -4.23752
  1292 690.276 -1.11188 0.433064
  1293 624.459 -10.2837 -27.1909
  1294 60.9429 2.04481 -21.8252
  1295 61.1990 2.00962 21.8419
  1296 335.712 -23.8170 54.6407
  1297 695.829 -1.15206 0.396164
  1298 660.273 -1.84115 -0.774223
  1299 660.189 -2.24504 0.620093
  1300 880.921 192.754 -5.05204
  1301 646.134 -5.80506 -3.34828
  1302 577.332 -8.02904 -0.257458
  1303 639.032 -10.8200 -13.4002
  1304 687.691 -2.80697 1.60169
  1305 730.772 79.0573 68.3340
  1306 843.630 179.379 8.15753
  1307 672.995 -3.18708 -6.92967
  1308 -5.79602 -1.40279 5.15678
  1309 -5.81986 -1.40196 -5.17332
  1310 385.531 -25.4678 15.7466
  1311 385.467 -24.4183 -15.3840
  1312 737.303 87.3226 -64.2355
  1313 160.513 55.8348 -98.7453
  1314 161.536 54.3773 97.7745
  1315 511.498 0.238665 -34.6622
  1316 512.209 -10.5316 -1.24239
  1317 511.588 -10.4669 1.13363
  1318 -11.7774 -1.62605 17.9403
  1319 -11.7564 -1.59191 -17.9356
  1320 575.665 -1.52810 27.0029
  1321 863.205 171.438 -8.81679
  1322 77.6281 -2.42518 -9.40069
  1323 77.8152 -2.43068 9.34132
  1324 637.168 -59.4047 16.9861
  1325 3.55188 11.8710 13.1009
  1326 3.74150 11.9413 -12.9775
  1327 134.532 -3.02763 -3.33681
  1328 134.609 -2.98692 3.29667
  1329 511.579 -0.487379 35.2093
  1330 39.8748 0.998852 -1.50085
  1331 40.0129 1.00270 1.48046
  1332 643.028 -8.67187 8.16244
  1333 902.045 162.484 11.6235
</Section>

newXOutput 84

<Section columns = "stress_xx | stress_yy | stress_xy">
  1 713.530 -2.34162 1.30693
  2 714.531 -2.84090 -1.69510
  3 34.2971 0.642988 -1.77517
  4 -0.582087 -0.844110 -0.599755
  5 1269.26 552.415 427.778
  6 1288.77 628.497 -431.500
  7 -0.576147 -0.838853 0.592089
  8 34.1981 0.639311 1.77119
  9 718.070 -1.68998 -1.17942
  10 713.362 -2.82081 -1.77037
  11 714.245 -2.28029 1.33128
  12 711.470 -1.49515 0.351555
  13 710.656 -2.66461 -0.774290
  14 710.476 -2.60373 2.30867
  15 701.836 -2.00045 1.99578
  16 705.337 -5.22281 3.43698
  17 685.927 -4.45103 7.81524
  18 674.137 -2.23607 9.46563
  19 657.463 -2.55873 10.3328
  20 627.777 -2.28496 14.8114
  21 594.898 -1.83880 17.3986
  22 553.247 2.31236 24.1864
  23 495.582 3.62287 22.0529
  24 472.085 0.124697 31.7700
  25 399.158 5.64500 22.7037
  26 354.204 7.24448 17.9123
  27 342.487 3.99370 13.2550
  28 329.925 10.6835 1.03362
  29 336.849 11.3493 -17.7703
  30 350.505 3.46628 -22.2581
  31 405.718 1.83105 -29.5547
  32 460.780 -2.55601 -30.3658
  33 497.629 3.01845 -21.9911
  34 553.826 2.61208 -24.1680
  35 593.489 -2.15616 -18.6793
  36 630.943 -2.46005 -13.9306
  37 655.154 -1.95749 -10.5117
  38 672.226 -2.40131 -8.59608
  39 690.769 -2.64112 -4.85769
  40 697.387 -2.89185 -4.55931
  41 703.982 -2.70326 -4.08689
  42 710.557 -3.02498 -0.500730
  43 712.859 -3.74154 -1.54594
  44 708.387 -0.297966 0.217305
  45 713.399 -2.14279 -1.54465
  46 715.789 -3.97297 1.93005
  47 718.853 -2.36590 -0.0504266
  48 685.337 -0.443967 -1.07723
  49 647.544 -4.13003 -1.97647
  50 604.345 -8.15644 -2.67500
  51 559.276 -7.45167 -1.91210
  52 519.640 -10.8250 -1.74454
  53 477.550 -11.5722 -1.54709
  54 434.876 -10.2924 -0.614755
  55 389.759 -10.7458 -0.928362
  56 351.473 -11.0105 -1.28767
  57 300.339 -10.3122 -0.978763
  58 247.610 -6.67275 -0.626979
  59 203.934 -4.32914 -0.461762
  60 149.965 -2.71321 -0.0461227
  61 110.822 -2.41090 -2.58809
  62 74.5600 -3.06447 -0.773157
  63 37.9458 0.343458 1.78270
  64 28.1182 2.53308 0.838271
  65 25.0092 1.01778 1.97533
  66 25.6307 0.458546 2.05230
  67 17.0685 1.44994 1.20166
  68 13.2800 1.92168 4.14956
  69 10.6589 0.695777 1.90750
  70 -3.66398 1.46377 2.04081
  71 -10.9600 0.972373 4.09261
  72 -15.0068 0.285714 4.36303
  73 -31.2797 1.33995 3.66616
  74 -38.0905 2.04118 6.32388
  75 -46.1918 1.24066 2.88644
  76 -54.6828 0.918233 3.78461
  77 -59.3308 0.963191 1.99413
  78 -68.0542 2.44601 -0.865624
  79 -70.2172 1.67330 -0.592164
  80 -65.0679 1.22671 -1.75818
  81 -56.6067 1.68266 -3.94946
  82 -46.6972 0.804870 -6.47625
  83 -35.2878 0.466391 -6.92445
  84 -21.3576 -0.634333 -7.35300
  85 -9.51028 -0.528078 -4.39007
  86 -4.05872 -1.52419 -2.78121
  87 -0.633238 -4.03003 -2.44502
  88 -1.02445 -10.2986 -4.23434
  89 -1.18601 -19.6552 -7.28914
  90 -0.158969 -36.5296 -7.72657
  91 0.510372 -49.9303 -9.55324
  92 1.09956 -71.4249 -7.72126
  93 3.27081 -83.9710 -8.95799
  94 0.704892 -88.6458 -6.93710
  95 0.00224396 -99.7258 -3.32302
  96 2.91214 -92.7839 1.02215
  97 12.0177 -118.582 8.23299
  98 11.5631 -51.2020 23.1415
  99 26.5550 -1.56882 47.6491
  100 76.7712 167.400 135.759
  101 309.164 458.676 359.951
  102 1661.92 184.162 243.835
  103 1407.67 50.2215 87.8056
  104 1343.73 21.4348 30.0834
  105 1308.93 13.8635 -0.174429
  106 1331.42 20.4240 -24.8574
  107 1419.68 42.8463 -72.4070
  108 1644.80 144.958 -225.984
  109 201.635 518.270 -297.609
  110 54.1624 134.189 -106.471
  111 19.6883 -14.2473 -40.4352
  112 10.5042 -58.6102 -20.4216
  113 11.9352 -123.863 -6.92408
  114 2.77318 -95.1017 -0.109881
  115 -0.170859 -100.874 3.79591
  116 0.595499 -89.0790 7.18924
  117 3.21037 -84.0585 9.06336
  118 1.07645 -71.3687 7.75922
  119 0.493071 -49.8485 9.56549
  120 -0.167401 -36.4317 7.72025
  121 -1.18683 -19.5935 7.27217
  122 -1.02662 -10.2467 4.21891
  123 -0.632681 -4.01055 2.43159
  124 -4.03543 -1.52180 2.76986
  125 -9.46858 -0.530563 4.37762
  126 -21.3027 -0.640320 7.34492
  127 -35.2231 0.459603 6.92523
  128 -46.6581 0.797402 6.48847
  129 -56.6153 1.67718 3.97452
  130 -65.1259 1.22613 1.78556
  131 -70.3401 1.67151 0.619149
  132 -68.2317 2.44529 0.893932
  133 -59.5714 0.965520 -1.96893
  134 -54.9716 0.921117 -3.76541
  135 -46.5053 1.24404 -2.87077
  136 -38.4334 2.04528 -6.31638
  137 -31.6345 1.34387 -3.65981
  138 -15.3606 0.288105 -4.36244
  139 -11.3181 0.976578 -4.09673
  140 -4.00898 1.46963 -2.04741
  141 10.3497 0.699606 -1.92104
  142 13.0059 1.92583 -4.17070
  143 16.8266 1.45121 -1.22023
  144 25.4394 0.457811 -2.07065
  145 24.8545 1.01603 -1.99018
  146 27.9883 2.53015 -0.851059
  147 37.8385 0.341299 -1.79033
  148 74.4635 -3.07595 0.765666
  149 110.735 -2.43888 2.58009
  150 149.896 -2.76245 0.0351948
  151 203.891 -4.40015 0.456277
  152 247.574 -6.75474 0.626440
  153 300.293 -10.3825 0.990446
  154 351.384 -11.0439 1.31140
  155 389.624 -10.6975 0.983704
  156 434.694 -10.1250 0.677283
  157 477.306 -11.1825 1.45506
  158 519.873 -10.9426 1.51813
  159 559.456 -8.15117 2.02479
  160 604.800 -8.03042 2.41363
  161 648.756 -3.76396 2.00451
  162 684.368 -0.487560 1.05219
  163 412.447 -37.5002 -40.2044
  164 410.882 -38.1909 40.1044
  165 129.453 34.9506 -55.7659
  166 130.701 35.0672 55.5552
  167 481.794 -20.6709 131.594
  168 504.157 -23.5398 -128.210
  169 247.200 -13.3905 19.0857
  170 247.153 -13.2650 -19.3012
  171 513.667 -19.9688 -0.888059
  172 503.953 -20.0240 1.10087
  173 691.717 123.534 -14.9521
  174 692.888 8.10971 -76.2545
  175 680.224 13.0470 83.3270
  176 174.354 -6.87508 -37.9865
  177 174.390 -6.83147 37.9315
  178 599.093 -58.8376 22.6699
  179 598.797 -46.0907 -35.9972
  180 10.7913 15.7854 11.4248
  181 11.0425 15.8837 -11.2743
  182 818.295 167.997 15.9833
  183 164.308 74.9355 -119.695
  184 175.775 75.5647 127.762
  185 578.670 -28.4010 15.2591
  186 865.321 185.061 0.157999
  187 382.912 -15.5213 -6.93487
  188 382.338 -15.8734 6.90184
  189 593.586 -20.2679 -14.2706
  190 783.465 2.51428 -23.6062
  191 162.558 -4.91475 7.57200
  192 162.485 -4.95166 -7.65319
  193 71.7054 7.95772 -26.7045
  194 72.0105 7.87664 26.7677
  195 341.816 -12.8284 -84.8481
  196 340.494 -13.4932 85.8967
  197 406.379 -27.5461 -16.6889
  198 407.170 -27.3929 17.4674
  199 117.893 -4.07712 20.6721
  200 117.716 -4.02574 -20.7042
  201 774.292 -5.55351 62.9109
  202 639.731 -61.0300 -3.29512
  203 603.734 -8.09522 -1.44953
  204 591.183 -9.56236 1.36221
  205 615.550 72.8197 60.3321
  206 28.6198 27.1298 -13.8612
  207 29.5753 27.1018 14.2873
  208 607.007 -23.8029 70.0224
  209 567.866 44.0958 -70.2479
  210 396.354 97.5261 -262.063
  211 416.843 82.5815 243.850
  212 15.7343 13.8930 -5.09155
  213 15.9785 13.8937 5.21140
  214 605.545 -20.8244 -72.5875
  215 1031.76 143.168 -10.6933
  216 502.899 -54.0915 51.9541
  217 506.455 -53.8317 -49.5211
  218 502.588 -37.0837 3.03964
  219 614.485 -11.4816 7.13776
  220 309.652 -21.7552 -34.1772
  221 305.097 -21.6796 35.0567
  222 189.753 3.39227 -55.9733
  223 190.036 3.32755 55.5635
  224 633.612 -64.7375 -16.7112
  225 498.607 -39.3158 -5.23743
  226 612.159 -11.3145 -5.15750
  227 483.284 -14.6650 -1.73184
  228 487.224 -13.8524 2.59711
  229 609.284 -27.7599 38.3943
  230 63.8780 0.261344 -22.1354
  231 64.1237 0.236781 22.1417
  232 -7.00639 -4.46916 -20.0867
  233 -7.04525 -4.51919 20.1010
  234 109.680 -4.38595 -12.1911
  235 109.838 -4.39649 12.1149
  236 270.089 -8.91610 8.61861
  237 270.130 -9.04850 -8.66999
  238 303.573 21.8479 -121.382
  239 303.614 18.3628 120.074
  240 617.100 -20.0496 -32.8942
  241 299.501 -17.7843 -53.2517
  242 299.775 -18.3105 52.6141
  243 556.257 9.48213 79.9929
  244 495.928 42.3518 4.87855
  245 532.620 -53.3635 5.45688
  246 3.26187 -10.4536 -16.7877
  247 3.08248 -10.5986 16.9418
  248 37.2097 44.0115 -45.6078
  249 39.4485 42.7954 47.5647
  250 524.042 -52.2510 -8.85352
  251 926.850 185.956 -29.8602
  252 54.0759 35.5612 -21.9961
  253 54.6809 35.5585 22.2037
  254 -17.7780 4.79339 12.5617
  255 -17.6751 4.81835 -12.4893
  256 929.928 175.982 35.6722
  257 340.264 -17.4985 -14.9996
  258 340.029 -17.2506 14.7852
  259 647.518 -42.0346 61.7789
  260 1143.75 186.993 119.162
  261 205.927 -11.0801 -31.5880
  262 205.915 -11.1579 31.5720
  263 668.284 100.646 -56.1971
  264 1107.12 212.025 -110.949
  265 784.558 84.6450 47.0660
  266 837.793 69.5547 -170.576
  267 531.635 -26.8597 3.06268
  268 609.965 4.50824 -88.2042
  269 572.085 -41.2328 -18.2817
  270 633.557 -12.3795 20.4353
  271 7.05865 6.17695 -9.79782
  272 7.30555 6.15908 9.88552
  273 625.731 -14.4678 -162.742
  274 75.4262 21.4480 -27.5640
  275 75.7675 21.4162 27.6980
  276 613.015 -14.9794 -43.8609
  277 92.4146 104.615 -124.828
  278 92.4912 -0.473838 -2.88497
  279 92.5962 -0.458262 2.85123
  280 645.690 -38.2973 -64.9020
  281 120.348 54.0741 -69.2866
  282 122.032 53.8171 69.4825
  283 46.5623 -1.15153 15.2974
  284 46.3004 -1.13877 -15.3011
  285 530.759 -25.6811 -3.06196
  286 93.0706 103.588 127.884
  287 823.473 81.9513 197.555
  288 243.861 -10.1959 -12.0124
  289 243.840 -10.1408 11.8839
  290 429.129 -19.6117 -7.39161
  291 428.935 -21.0333 7.92774
  292 366.151 38.0906 -180.266
  293 582.965 -63.1260 -0.783048
  294 653.651 -5.43802 2.97683
  295 353.072 38.3072 174.834
  296 411.785 -13.1977 -2.64640
  297 411.637 -13.1930 2.97693
  298 573.085 -42.7705 18.5842
  299 650.595 -8.12994 -8.91338
  300 4.80105 2.37073 -12.6466
  301 5.07711 2.35293 12.6913
  302 828.128 163.054 -3.24012
  303 718.902 -29.4268 26.4976
  304 643.453 -5.04278 -0.541512
  305 653.876 -4.42973 0.493003
  306 648.206 -53.1815 64.9803
  307 798.700 90.3342 -42.1369
  308 710.434 131.646 30.7124
  309 325.592 -20.7895 -22.7067
  310 322.823 -21.1448 23.0671
  311 652.612 -5.38459 -1.63225
  312 439.638 -32.1791 -92.4872
  313 433.884 -35.1855 20.7849
  314 413.369 -21.4402 104.381
  315 645.924 -9.00910 10.8855
  316 162.324 -7.40142 -19.9788
  317 162.448 -7.45322 19.9114
  318 597.717 -14.3937 160.768
  319 389.107 -31.5360 -28.2688
  320 705.811 92.9150 69.2642
  321 232.267 16.1289 -80.9961
  322 223.985 16.8912 80.4290
  323 83.7095 -1.48733 -5.21857
  324 83.8529 -1.47836 5.16510
  325 573.265 -13.7935 3.01937
  326 550.369 -10.3042 -0.268046
  327 547.456 -11.0561 0.0985692
  328 609.173 -15.7483 46.6179
  329 68.2743 -2.12661 11.6677
  330 68.0436 -2.10803 -11.7074
  331 192.344 -4.87081 -4.34361
  332 192.384 -4.80334 4.30816
  333 6.65966 -23.0920 -7.51860
  334 6.27193 -23.3167 7.97968
  335 489.922 21.7130 54.7928
  336 725.498 -26.4680 -19.0083
  337 476.780 -27.0886 -3.40559
  338 534.228 -13.1890 -0.438225
  339 574.031 71.0394 -32.7523
  340 122.055 -4.02769 -28.4286
  341 122.223 -4.03210 28.4172
  342 464.283 -25.6762 5.68871
  343 140.546 4.02079 -40.5049
  344 140.819 3.90836 40.4100
  345 30.1482 22.7396 -4.65937
  346 30.4697 22.7424 4.79995
  347 559.538 -58.2654 65.0532
  348 1202.60 78.9707 31.0314
  349 513.036 8.66294 -64.6851
  350 421.778 -37.6484 59.3655
  351 419.650 -36.8391 -60.9672
  352 618.340 -8.99974 86.8727
  353 556.108 -3.42284 63.3049
  354 552.614 -56.3165 -66.8840
  355 338.729 -10.2006 1.69950
  356 338.672 -10.2943 -1.61993
  357 611.367 -39.6674 50.5077
  358 837.172 165.037 -0.119625
  359 650.029 -8.44674 -15.0858
  360 183.026 -7.13475 -14.8402
  361 183.122 -7.14248 14.7243
  362 614.744 -55.0361 -79.4299
  363 653.878 47.6803 -85.7214
  364 455.756 24.5323 -35.3406
  365 616.057 -40.4978 -58.5735
  366 -19.3127 1.03150 -15.4211
  367 -19.3323 1.00570 15.4403
  368 517.186 -14.6806 -0.961760
  369 -7.33054 -4.31672 -9.66014
  370 -7.32012 -4.31745 9.63826
  371 395.547 217.106 -315.926
  372 18.6427 17.2486 5.93669
  373 19.0478 17.3748 -5.71865
  374 552.338 -3.60772 -62.8089
  375 309.588 -14.2737 11.3766
  376 309.778 -14.4408 -11.4675
  377 -1.68008 -20.9299 17.6327
  378 -1.64704 -20.8928 -17.6169
  379 324.220 226.829 298.389
  380 255.191 -13.9693 -42.3557
  381 255.412 -13.4168 42.3873
  382 83.3536 63.1250 -64.9987
  383 85.0179 63.0036 64.6763
  384 -26.9350 4.94437 3.82454
  385 -26.7923 4.95336 -3.74488
  386 632.670 43.8486 86.6641
  387 483.841 -50.6642 32.0833
  388 484.381 -44.8216 16.5914
  389 582.128 -65.0164 -16.7813
  390 154.727 18.4994 -55.1337
  391 155.241 18.4781 55.0720
  392 14.3633 -11.7846 6.01032
  393 13.6522 -12.0995 -4.99595
  394 602.749 85.5557 21.2043
  395 591.105 -18.7552 11.2475
  396 348.141 -27.5059 39.8771
  397 220.421 -6.02097 -49.9293
  398 220.530 -6.06263 49.6176
  399 438.193 -15.4189 -4.10514
  400 437.758 -13.8404 3.73523
  401 345.312 -28.1932 -41.9630
  402 272.458 -4.92312 -66.0834
  403 272.444 -5.28620 66.5795
  404 618.371 -55.7653 -31.6462
  405 367.609 -29.1162 26.6864
  406 561.678 -19.2045 5.25616
  407 560.439 -17.7599 -3.97426
  408 475.832 -44.5297 -18.2235
  409 666.102 -4.30093 -3.22444
  410 233.519 98.6735 -184.348
  411 634.981 -9.97280 26.1011
  412 665.044 -4.76766 5.31826
  413 252.429 -13.9987 26.5437
  414 252.502 -13.8189 -26.5265
  415 481.723 -50.0714 -32.8923
  416 74.9395 31.8327 29.8188
  417 74.5539 31.8027 -29.8302
  418 1214.05 78.9084 -63.0390
  419 552.320 -33.0357 -8.48645
  420 668.982 -3.74328 1.85223
  421 221.141 92.6924 176.232
  422 994.935 166.624 35.9441
  423 587.533 -11.1701 -2.26816
  424 447.910 -33.7191 -14.7302
  425 192.724 37.1238 -91.0385
  426 204.967 34.3394 90.4877
  427 546.239 -35.9539 8.29057
  428 584.616 -7.37982 -46.0311
  429 8.02688 -0.635532 11.5810
  430 7.73073 -0.629619 -11.5694
  431 216.196 52.8974 -119.974
  432 216.887 53.0772 119.625
  433 31.9713 11.8240 -14.3623
  434 32.2450 11.8014 14.4716
  435 491.016 -12.0537 -0.0874586
  436 490.430 -11.8096 0.241495
  437 608.643 -28.3204 -40.2512
  438 -0.376086 -0.130186 20.5619
  439 -0.266342 -0.0291266 -20.4813
  440 625.919 -60.3662 26.1400
  441 590.122 -17.7250 -9.65306
  442 950.550 181.500 -35.0576
  443 56.8138 -1.83661 5.68255
  444 56.6042 -1.83689 -5.72853
  445 1127.56 330.381 156.501
  446 25.1612 25.1081 -41.2439
  447 82.2028 3.18277 -28.0874
  448 82.4623 3.12759 28.0955
  449 1126.88 338.753 -153.643
  450 26.6496 27.6675 44.7428
  451 -24.4149 3.64082 -0.592127
  452 -24.2283 3.63601 0.668776
  453 69.4917 47.7246 -40.4055
  454 70.6231 47.7687 40.6029
  455 750.835 120.563 -53.8590
  456 600.426 -24.7045 -24.5449
  457 665.767 -3.78672 -1.52003
  458 628.172 -10.0979 -30.9693
  459 -5.45183 5.65413 18.6073
  460 -5.33983 5.72035 -18.5299
  461 606.873 -25.5114 29.3320
  462 402.194 -24.1295 -13.5035
  463 401.035 -24.3461 12.2396
  464 538.113 -59.0185 -17.2484
  465 388.126 -3.88279 -126.446
  466 589.647 -8.83950 46.8940
  467 480.512 -17.8516 3.08635
  468 696.007 -47.6132 -19.9291
  469 376.317 5.17054 135.155
  470 43.9747 -0.685270 11.1706
  471 43.7053 -0.674010 -11.1869
  472 773.457 152.661 -21.9211
  473 608.578 -6.71018 -0.267979
  474 606.613 -7.32203 -0.252446
  475 469.228 -32.7630 9.24912
  476 217.787 -7.76260 -8.56136
  477 217.799 -7.68432 8.48203
  478 131.369 -1.99853 -33.6186
  479 131.534 -2.02348 33.5731
  480 415.593 16.0859 21.2587
  481 114.165 -3.66647 16.5659
  482 113.993 -3.63375 -16.6296
  483 114.739 10.0051 38.0612
  484 114.368 10.1527 -38.0201
  485 597.719 -46.4024 34.3977
  486 342.430 -21.4244 -62.5664
  487 319.414 -11.6616 6.39985
  488 319.509 -11.9002 -6.40395
  489 345.927 -22.0730 62.5766
  490 925.442 224.453 -32.7193
  491 -14.7576 -2.08616 -12.2918
  492 -14.7469 -2.09797 12.2828
  493 248.383 -7.72239 -3.65051
  494 248.402 -7.62576 3.63994
  495 0.550657 -38.0120 -13.9230
  496 0.452829 -38.1384 14.0552
  497 543.915 -10.6604 -0.180373
  498 413.551 19.2334 -10.5438
  499 539.187 56.2220 29.7341
  500 339.394 -2.66216 -102.269
  501 176.415 -9.07492 24.9318
  502 176.370 -9.00068 -24.9600
  503 -33.8873 1.23780 -4.74655
  504 -33.6272 1.22991 4.78347
  505 647.146 -9.86231 -84.6548
  506 71.8572 0.216699 -3.71361
  507 71.9878 0.224697 3.67499
  508 538.702 -43.3973 -4.74770
  509 572.898 -49.2259 -16.6514
  510 123.046 98.3386 -128.551
  511 481.753 17.8215 -194.266
  512 10.0834 15.6556 6.11142
  513 10.3204 15.6921 -5.97754
  514 305.153 -15.0807 -15.6084
  515 305.026 -14.9622 15.3557
  516 815.572 43.4794 -3.37878
  517 594.929 -35.8779 -31.5517
  518 120.088 93.5747 126.888
  519 589.135 -65.2054 26.0674
  520 567.869 -54.0870 10.7488
  521 137.564 -3.31875 -10.9574
  522 137.672 -3.30794 10.8713
  523 484.315 5.82367 50.2275
  524 345.908 -26.2415 -27.7860
  525 623.587 -15.3305 17.7010
  526 -2.40985 -15.2099 -12.0144
  527 -2.41571 -15.1951 11.9946
  528 444.851 -38.6820 69.8221
  529 666.833 -48.3387 -37.9664
  530 857.741 72.6340 -46.7410
  531 475.152 -18.3721 -3.12505
  532 157.665 -3.06495 -3.10793
  533 157.728 -3.01557 3.08422
  534 306.510 2.96623 98.8433
  535 828.659 145.615 28.5416
  536 822.002 191.207 -301.743
  537 754.014 10.2883 32.9698
  538 548.325 -60.5091 14.4556
  539 1249.38 99.6909 84.9326
  540 944.161 237.501 43.7421
  541 148.500 -6.29460 27.0994
  542 148.372 -6.23534 -27.1293
  543 527.936 -44.6164 1.38130
  544 45.7105 19.6416 -14.2464
  545 46.0197 19.6362 14.3736
  546 658.880 -52.4542 38.2174
  547 554.124 30.9371 73.3502
  548 658.855 -5.02971 10.0635
  549 495.208 -31.3062 -2.23111
  550 679.508 16.3461 -204.715
  551 1060.05 300.741 208.467
  552 532.639 -12.9454 0.491554
  553 649.451 -7.40997 -16.9103
  554 110.234 45.1638 -53.1968
  555 111.011 44.6339 53.0023
  556 382.052 -17.0095 -9.15883
  557 381.894 -16.6598 9.28838
  558 5.17049 -37.5893 -9.37246
  559 667.082 -21.1521 73.5020
  560 29.6590 25.6145 -2.32192
  561 30.0741 25.6903 2.52168
  562 5.95001 -35.9503 10.8105
  563 609.693 -27.4321 -61.0441
  564 700.110 47.5406 -79.5588
  565 698.191 53.5538 79.7288
  566 36.6792 35.7721 32.0189
  567 34.9681 36.4372 -31.4626
  568 -8.30909 0.550277 8.96070
  569 -8.60892 0.556650 -8.94187
  570 634.808 25.7429 210.469
  571 360.500 -21.1511 16.4977
  572 360.835 -21.0802 -16.7026
  573 762.172 -3.72037 -114.456
  574 118.565 -1.65384 6.33349
  575 118.464 -1.67585 -6.39152
  576 67.3509 -1.22588 -1.44832
  577 67.4555 -1.21781 1.43474
  578 844.424 160.665 -19.6374
  579 84.2262 144.310 -140.061
  580 465.762 9.95401 -42.6830
  581 640.513 101.760 -35.6471
  582 11.0354 3.34856 10.1677
  583 11.4217 3.49568 -9.90985
  584 616.224 318.932 350.793
  585 540.969 -17.2982 -1.51593
  586 27.8045 5.45942 -15.9655
  587 28.0761 5.42053 16.0361
  588 625.555 -49.2715 49.2292
  589 99.1476 140.341 142.600
  590 455.027 -11.9445 1.23636
  591 455.157 -11.8652 -1.23796
  592 -0.193750 -30.7623 14.9835
  593 -0.145142 -30.7143 -14.9342
  594 773.949 149.039 -1.23996
  595 491.020 -37.7823 96.2586
  596 469.991 -22.0984 -4.66304
  597 469.831 26.6636 204.638
  598 -37.4513 2.16946 8.68274
  599 -37.4158 2.18122 -8.64361
  600 762.795 16.2892 -35.9874
  601 994.908 191.679 -153.670
  602 299.095 31.9557 -139.664
  603 170.242 -7.35503 -32.7684
  604 170.415 -7.35964 32.7828
  605 683.530 -2.99213 2.39865
  606 465.666 -22.5183 4.14789
  607 612.603 -10.3004 4.91599
  608 609.648 -27.5404 59.5063
  609 43.5995 -1.04946 5.71475
  610 43.3523 -1.04521 -5.74834
  611 368.229 -14.4650 -5.46689
  612 368.190 -14.1294 5.35646
  613 233.565 4.76393 -68.0375
  614 232.145 4.83550 67.7897
  615 861.756 64.5803 66.9444
  616 1375.70 103.773 -149.232
  617 2.34579 -0.928195 7.71089
  618 2.02966 -0.925385 -7.70592
  619 225.429 -9.82224 15.5785
  620 225.391 -9.80837 -15.7400
  621 808.760 52.7157 14.4210
  622 674.336 -3.57732 -0.757776
  623 672.968 -4.59359 0.174581
  624 512.806 0.341099 49.6146
  625 711.344 -35.9404 -73.8385
  626 397.250 -33.2181 32.9746
  627 -5.21034 9.38492 -6.13616
  628 -5.38760 9.36799 6.24087
  629 630.899 14.7772 90.3409
  630 258.660 -15.2870 -34.5857
  631 258.453 -15.5276 34.6470
  632 511.932 -31.1961 0.347447
  633 625.977 -14.9967 -15.9233
  634 367.149 -29.5802 -46.8906
  635 601.225 72.7566 -54.9836
  636 403.554 -27.4113 -79.5170
  637 162.329 -4.34834 -5.88378
  638 162.391 -4.30314 5.82406
  639 370.759 -30.0577 47.1589
  640 780.202 129.707 46.0689
  641 623.664 -29.1512 75.0872
  642 510.460 -24.6669 0.322106
  643 371.974 -11.6642 2.97734
  644 371.883 -11.6825 -2.91032
  645 285.755 -11.5907 -11.3571
  646 285.673 -11.4824 11.2666
  647 598.278 -54.5165 -25.1164
  648 312.903 -18.5664 19.7118
  649 313.207 -18.4918 -20.0137
  650 612.443 93.6359 -7.26994
  651 553.141 -30.5705 8.88177
  652 680.840 -3.89690 -3.99898
  653 594.107 -9.85456 -80.3939
  654 98.1093 -4.11268 21.8295
  655 97.9112 -4.08483 -21.8378
  656 666.994 -4.45355 -9.16959
  657 126.632 66.1985 -92.0835
  658 128.736 66.0716 92.5191
  659 681.981 -35.6939 97.4293
  660 243.476 62.2989 147.124
  661 70.5696 -0.629813 21.8070
  662 70.3394 -0.615775 -21.8076
  663 584.191 -34.1057 122.300
  664 571.001 93.7549 -275.311
  665 573.222 19.2963 -80.8711
  666 744.899 135.908 41.3449
  667 502.170 -24.2245 1.88939
  668 896.274 158.998 -3.87167
  669 -37.3538 2.08534 -3.60041
  670 -37.1361 2.08056 3.65099
  671 403.175 3.81038 -146.877
  672 47.1819 -0.627692 4.28393
  673 46.9878 -0.629204 -4.31951
  674 502.467 -40.6765 -95.3107
  675 174.200 23.2710 -66.0130
  676 172.894 23.3751 65.9922
  677 9.44161 8.62014 -6.92950
  678 9.68045 8.61133 7.03556
  679 430.891 -37.8737 -26.4136
  680 605.762 -6.00790 -30.6180
  681 298.271 -10.2624 -3.96127
  682 298.299 -10.1671 3.98613
  683 220.143 -11.5220 -22.7066
  684 220.329 -11.6733 22.6440
  685 43.3884 35.5805 -16.9434
  686 44.0563 35.6691 17.1766
  687 610.987 -9.22526 1.79828
  688 284.679 -18.6170 29.3440
  689 286.373 -18.3168 -29.3313
  690 679.329 -51.1594 2.72824
  691 564.107 -56.7277 -4.60119
  692 447.125 -14.7387 -2.40701
  693 445.636 -13.9127 2.59052
  694 618.382 -62.9979 42.8451
  695 995.325 202.488 60.5578
  696 544.334 -20.4639 -149.563
  697 622.656 -18.1376 30.2568
  698 623.071 -21.8674 -81.2316
  699 207.261 -6.78391 -11.0135
  700 207.288 -6.74121 10.9072
  701 485.798 -4.76296 166.798
  702 1308.57 170.078 155.184
  703 100.588 28.1039 -40.1506
  704 100.742 28.2974 40.2750
  705 608.466 -7.90603 -0.807926
  706 613.036 -7.22441 0.848581
  707 264.999 143.285 -234.067
  708 649.906 -4.18556 17.1220
  709 562.657 -11.8665 0.623415
  710 750.706 147.457 -14.6336
  711 84.3688 13.7458 -29.7579
  712 84.7197 13.6633 29.8630
  713 687.392 -2.45902 0.195132
  714 567.495 -23.6310 -9.39885
  715 706.235 -7.21289 61.8168
  716 299.356 -21.3099 -44.3759
  717 300.095 -20.4409 44.0252
  718 80.8411 -2.48300 16.5016
  719 80.6212 -2.45373 -16.5334
  720 634.442 -6.01339 -2.07505
  721 548.092 120.398 290.990
  722 5.78446 6.59486 15.7920
  723 5.99343 6.72621 -15.6490
  724 637.655 -8.38389 -6.65085
  725 620.981 -13.0259 9.66993
  726 510.644 0.965458 -53.2128
  727 5.25131 -52.2226 -5.12289
  728 4.94123 -52.7833 5.69058
  729 234.419 64.3846 -147.240
  730 501.980 -49.3052 -70.8419
  731 263.731 141.825 236.026
  732 679.853 -2.61873 1.24393
  733 675.719 101.803 56.2661
  734 505.825 45.6113 -20.7830
  735 873.026 175.814 8.35278
  736 674.387 -3.65071 5.61666
  737 -32.0838 0.972231 6.45734
  738 -32.3737 0.977460 -6.43262
  739 721.068 -36.1002 30.2312
  740 474.150 -15.8042 -3.04250
  741 181.106 -0.228305 -48.0493
  742 181.358 -0.399103 47.8240
  743 619.427 -9.03747 -3.12590
  744 1085.44 153.302 -58.5942
  745 90.3588 -2.41285 -10.7648
  746 90.5507 -2.42620 10.7061
  747 684.655 -2.67669 -2.40749
  748 153.602 -6.72361 -14.9324
  749 153.722 -6.74696 14.8443
  750 680.830 -24.4598 -64.8649
  751 630.329 -6.94155 24.2268
  752 574.270 -2.73666 79.9902
  753 684.408 -2.76757 0.366029
  754 644.149 -6.44567 4.87284
  755 432.025 -24.7500 -9.24701
  756 534.298 -16.2068 0.544828
  757 608.524 -37.4643 -49.2428
  758 592.799 -37.9086 30.0421
  759 698.604 86.5945 -70.3920
  760 584.284 -33.8498 21.1373
  761 619.173 -36.0087 64.2252
  762 366.216 -25.7370 21.3112
  763 14.4139 1.98425 3.21350
  764 13.7218 1.93109 -2.55615
  765 539.603 -10.4846 -0.456836
  766 538.505 -10.4301 0.264050
  767 639.126 -4.53394 -0.121996
  768 641.184 -4.42475 0.262007
  769 618.428 -17.8440 37.9046
  770 569.974 -49.9537 90.8444
  771 472.892 -39.3063 13.4287
  772 422.335 -26.6022 12.4158
  773 1105.51 141.099 66.7453
  774 622.480 -16.8931 -23.1640
  775 369.788 68.7971 -218.806
  776 580.291 -29.9748 -17.9333
  777 33.4995 0.304840 -16.2867
  778 33.7711 0.283796 16.3131
  779 534.791 47.0322 -46.5189
  780 1270.78 38.5398 -16.2504
  781 657.081 19.0836 -87.3177
  782 27.9275 35.8230 -58.5143
  783 682.131 121.577 14.2018
  784 526.705 -34.8649 2.32227
  785 595.703 -14.0447 77.8392
  786 499.579 -51.3960 71.2152
  787 781.357 6.17951 137.890
  788 30.0432 41.8375 62.0893
  789 365.323 -1.26602 116.108
  790 503.275 -15.2101 1.23445
  791 559.479 -47.8770 -91.8652
  792 351.664 -27.9425 -34.1272
  793 278.826 13.6774 -102.566
  794 650.276 -8.18989 85.4815
  795 421.849 -29.8898 18.1054
  796 96.9308 -2.47901 9.33473
  797 96.7763 -2.48135 -9.40327
  798 607.553 -3.50655 27.0558
  799 558.313 3.70675 -78.1719
  800 -45.8444 2.26394 5.00809
  801 -45.7750 2.26870 -4.96440
  802 410.857 -14.7379 -3.85573
  803 409.747 -14.0594 3.71603
  804 306.485 35.6227 141.499
  805 278.725 -16.8626 22.6298
  806 279.065 -16.4808 -22.8170
  807 683.840 -2.14381 -1.11129
  808 251.995 20.2044 100.225
  809 24.2895 -0.232896 5.95457
  810 23.9954 -0.227946 -5.97336
  811 600.679 -18.2821 59.7040
  812 629.230 -7.05544 1.48808
  813 -33.6335 0.555414 9.02486
  814 -33.6445 0.566955 -9.00648
  815 398.286 -24.4116 88.5058
  816 80.8280 70.9715 -79.5355
  817 81.7629 68.0607 78.4523
  818 396.520 17.2201 8.82093
  819 7.92615 -0.509003 -6.78667
  820 8.24748 -0.512986 6.78398
  821 455.644 -42.6926 -66.9251
  822 615.057 -63.3320 -11.0357
  823 -3.13739 -2.97028 -3.99506
  824 -3.12754 -2.96272 3.97966
  825 53.2056 0.970861 -1.49227
  826 53.3268 0.976424 1.47178
  827 549.246 -49.3736 6.05413
  828 465.530 -47.3656 48.8807
  829 511.434 -11.0353 -0.228730
  830 464.534 -38.4097 -15.0563
  831 184.281 -3.45057 -1.30726
  832 184.331 -3.38590 1.29261
  833 -51.0157 1.11882 2.47222
  834 -50.8990 1.11758 -2.42865
  835 573.155 -9.68555 -0.983327
  836 525.378 21.4517 -66.9177
  837 580.236 -13.5997 -4.43211
  838 352.429 -27.5368 32.7159
  839 583.803 -9.81083 -63.8805
  840 617.723 -19.3399 -39.1289
  841 575.295 -8.64709 0.833414
  842 427.167 -14.8343 118.881
  843 456.445 -44.9220 -30.3774
  844 280.427 -2.13608 -79.9069
  845 281.911 -0.191801 80.3193
  846 392.201 -30.3105 -23.0830
  847 646.318 71.4367 74.8590
  848 604.916 -60.7175 -54.6219
  849 232.184 -7.85242 -5.73818
  850 232.190 -7.75308 5.69530
  851 466.781 -12.9035 1.72509
  852 466.812 -12.9900 -1.63345
  853 561.136 -3.95870 -42.0334
  854 199.668 -8.64081 -18.3971
  855 199.794 -8.70250 18.2762
  856 2.49018 -54.8447 -10.0979
  857 2.36915 -55.0855 10.3334
  858 112.322 -1.60113 -0.0400211
  859 112.235 -1.62880 0.0224438
  860 569.472 -11.1730 -1.32685
  861 439.985 -42.0107 44.5665
  862 671.744 -54.8022 10.6932
  863 418.770 8.74211 33.7580
  864 582.435 -15.7209 5.22989
  865 638.258 -55.6719 -35.4922
  866 101.920 5.64981 -33.1145
  867 102.214 5.55329 33.1126
  868 508.946 -11.6578 0.232965
  869 415.552 -16.3094 -6.32736
  870 414.201 -16.1917 6.69912
  871 641.953 99.6903 40.2246
  872 229.128 -2.69864 -57.2305
  873 228.956 -2.95404 57.0276
  874 444.072 -40.7523 25.2240
  875 47.5740 29.3512 -14.9326
  876 48.0060 29.3047 15.0629
  877 377.812 -26.6766 73.2234
  878 449.977 -30.0607 -10.1760
  879 564.020 -4.11000 42.4636
  880 547.796 -60.9010 28.9419
  881 626.500 -46.6734 -53.8231
  882 438.905 -42.3487 -45.0785
  883 368.715 -25.6486 -20.5526
  884 1149.83 93.7864 -18.1048
  885 573.105 -60.3078 0.645163
  886 20.1174 20.4432 2.89880
  887 20.4240 20.4877 -2.73511
  888 500.799 -50.4771 17.3500
  889 546.816 -60.4238 -44.4454
  890 22.3383 17.3046 -3.33118
  891 22.6102 17.3144 3.45861
  892 216.105 -8.07350 44.2061
  893 216.195 -8.29201 -44.4210
  894 258.791 -13.4281 48.3300
  895 258.670 -13.7227 -48.6027
  896 790.294 158.259 16.0357
  897 -1.04925 -24.3929 -11.5327
  898 -1.05734 -24.3585 11.5220
  899 189.896 15.4454 -62.9022
  900 189.033 15.1449 62.3709
  901 1311.28 42.4687 -65.3786
  902 45.7790 -0.200872 2.48776
  903 45.6167 -0.205193 -2.51579
  904 2.74307 -59.0269 1.02458
  905 3.14786 -57.9159 -0.0851918
  906 -26.0948 -0.226416 9.51541
  907 -26.1288 -0.218065 -9.51359
  908 152.171 44.3116 -73.6241
  909 154.486 42.8368 72.6868
  910 -10.3135 1.19130 -19.4566
  911 -10.3697 1.14333 19.4911
  912 51.1298 3.56391 -22.1717
  913 51.4066 3.51631 22.2091
  914 168.309 -2.38997 40.9640
  915 168.171 -2.38116 -41.1287
  916 140.401 -4.99416 -33.2209
  917 140.558 -4.98776 33.1870
  918 671.216 -2.99365 -9.24587
  919 334.783 75.5042 204.386
  920 460.823 -45.7648 28.9237
  921 333.098 -24.5040 26.9201
  922 633.028 66.3772 -74.4160
  923 1290.01 27.3705 26.3474
  924 737.804 38.1750 -65.2075
  925 136.864 -5.17460 21.0284
  926 136.711 -5.11913 -21.0885
  927 34.0883 -0.835268 -15.4771
  928 34.3597 -0.842170 15.4832
  929 0.367560 -10.0397 -20.8134
  930 0.269825 -10.1378 20.8850
  931 344.117 -16.3251 12.8337
  932 344.275 -16.6072 -12.8772
  933 48.2956 11.0431 -20.5361
  934 48.5879 10.9963 20.6332
  935 215.099 -9.91709 -37.9023
  936 215.260 -9.92198 37.8910
  937 460.102 -1.29352 -39.5997
  938 222.522 -12.3341 -26.9695
  939 222.407 -12.2184 27.0516
  940 512.937 -16.4808 1.50390
  941 621.263 -34.6193 -69.4812
  942 281.998 -12.1693 13.2120
  943 282.104 -12.2662 -13.3481
  944 -11.4547 -1.16267 -6.91810
  945 -11.4215 -1.16542 6.90207
  946 627.172 -44.1500 -110.953
  947 604.472 -35.7465 42.1696
  948 531.703 -38.2598 -4.31744
  949 531.227 19.0746 70.4028
  950 246.227 -14.1967 -30.2230
  951 246.261 -13.9506 30.3057
  952 587.260 23.7735 84.1745
  953 553.637 48.7063 55.5301
  954 1080.69 128.810 23.2989
  955 562.800 -21.9377 6.02391
  956 307.616 -10.2388 -6.00242
  957 307.594 -10.0703 6.04185
  958 507.783 -42.4629 4.79730
  959 706.008 129.124 -32.4051
  960 611.133 -8.43567 -1.90956
  961 411.686 -11.9770 2.01831
  962 411.542 -11.8996 -1.90735
  963 55.7800 48.2872 -37.7301
  964 57.1095 48.2407 37.9758
  965 97.3896 282.740 -226.020
  966 585.055 -13.2574 63.4358
  967 717.245 -9.19313 -53.3654
  968 -7.55036 7.18969 1.22970
  969 -7.35488 7.19046 -1.12954
  970 1404.70 344.802 -270.989
  971 615.718 -65.4719 -2.37702
  972 654.270 -57.4572 -36.1830
  973 607.474 -51.6573 36.3719
  974 756.709 147.689 11.9900
  975 57.9671 67.5038 -74.5935
  976 139.728 247.485 224.360
  977 -2.87272 -7.40886 21.2139
  978 -2.81239 -7.33687 -21.1790
  979 588.026 -16.7974 6.95234
  980 942.208 165.188 -23.4487
  981 59.5620 66.2146 77.2073
  982 -2.54957 -8.95691 -7.69341
  983 -2.54960 -8.93064 7.67206
  984 507.951 -13.9937 -1.53624
  985 385.567 -31.1232 -35.7526
  986 612.424 -47.9291 -44.8301
  987 181.151 48.9194 -95.4134
  988 183.983 49.7024 95.6495
  989 598.835 -14.6748 -56.0750
  990 596.832 -20.3624 15.2153
  991 -14.3568 4.68667 16.6353
  992 -14.2769 4.73010 -16.5770
  993 368.290 -24.1585 -69.2079
  994 608.619 40.2673 -83.7554
  995 450.345 -18.7197 4.63758
  996 330.721 -10.6964 1.32584
  997 330.654 -10.7530 -1.28998
  998 -6.48913 -7.40106 -15.7068
  999 -6.49772 -7.41692 15.6911
  1000 604.954 -22.8165 -19.5227
  1001 573.939 -8.53670 0.155390
  1002 573.420 -8.54694 0.0635505
  1003 796.979 134.405 -40.7341
  1004 153.009 12.5118 -50.4849
  1005 153.389 12.2639 50.3997
  1006 103.398 -1.25880 -27.8240
  1007 103.596 -1.27819 27.8062
  1008 661.867 37.7185 88.3363
  1009 618.026 -13.1794 -10.1576
  1010 118.104 17.6500 -41.9985
  1011 118.560 17.5245 42.1465
  1012 640.150 -4.97948 -1.22625
  1013 605.801 -27.0125 -31.2830
  1014 591.671 -65.1740 -34.0182
  1015 25.3031 23.4254 4.57537
  1016 24.6655 23.3158 -4.28429
  1017 -26.2092 4.99467 9.13788
  1018 -26.1052 5.00941 -9.06607
  1019 384.543 13.9665 -14.7324
  1020 1010.68 257.728 -81.6798
  1021 472.225 -35.5525 -8.62305
  1022 317.547 -13.9163 -70.9681
  1023 743.751 -24.6379 -5.49100
  1024 318.772 -13.8755 71.9011
  1025 539.731 -61.6273 50.4836
  1026 611.355 -25.4227 -49.5247
  1027 223.301 -5.73854 -1.83083
  1028 223.338 -5.65573 1.82201
  1029 422.735 -33.8805 -21.1577
  1030 264.618 -10.2142 -56.2868
  1031 264.554 -10.2905 56.0521
  1032 90.1539 59.5802 -61.6718
  1033 91.5217 59.4526 61.8553
  1034 190.901 -6.23501 -6.41706
  1035 190.939 -6.16808 6.35453
  1036 542.401 -19.1320 1.87595
  1037 460.269 4.81258 -168.517
  1038 561.561 -20.0270 -6.16870
  1039 510.905 -56.1863 -33.1172
  1040 343.370 -15.6310 9.13973
  1041 343.624 -15.7339 -9.15705
  1042 648.713 -5.39033 1.55629
  1043 585.691 -15.7433 -6.47356
  1044 402.779 10.0306 27.9041
  1045 631.135 -6.38200 -22.5876
  1046 250.488 75.8162 166.007
  1047 647.085 -6.34605 -18.2489
  1048 177.625 29.4734 -73.1349
  1049 172.612 29.7806 70.4006
  1050 768.062 -6.63781 3.26541
  1051 76.1230 38.5951 -34.3081
  1052 76.7889 38.3347 34.3157
  1053 13.6217 3.51118 3.05946
  1054 14.2268 3.63130 -2.66215
  1055 117.328 -2.96520 7.54766
  1056 117.208 -2.98188 -7.61987
  1057 283.627 76.6116 -182.759
  1058 1444.44 394.332 291.753
  1059 603.277 -22.7843 20.0070
  1060 544.528 -60.5226 -26.7573
  1061 384.160 -31.6631 -54.8626
  1062 -5.23912 9.22310 13.3849
  1063 -5.09142 9.27314 -13.2849
  1064 431.487 -23.7089 7.84852
  1065 473.190 -19.4533 3.52737
  1066 -0.143025 -34.4437 11.0020
  1067 -0.131472 -34.4847 -11.0012
  1068 76.1321 46.5745 -40.0712
  1069 76.9905 46.5069 40.2906
  1070 426.045 -21.9740 -7.56662
  1071 39.4907 15.8224 14.5224
  1072 39.2032 15.8392 -14.4018
  1073 643.404 -23.7371 80.7622
  1074 468.823 -48.2563 -48.6363
  1075 386.376 -32.1641 54.8671
  1076 616.127 -10.8066 -86.5795
  1077 638.501 -8.42539 7.33944
  1078 241.110 37.5942 113.463
  1079 242.818 35.9535 -111.647
  1080 382.937 -17.9438 -96.0331
  1081 534.086 -20.9986 -1.58158
  1082 439.255 -27.6955 12.2588
  1083 511.153 -48.2542 -8.69377
  1084 686.907 -3.02010 -4.38634
  1085 384.022 -19.0140 10.7635
  1086 383.860 -20.0027 -10.9542
  1087 15.2763 17.2380 9.04329
  1088 15.5908 17.3585 -8.86090
  1089 622.707 24.6505 -89.8465
  1090 147.775 6.76672 -44.9093
  1091 148.168 6.61318 44.8155
  1092 114.139 1.62451 -32.8844
  1093 114.386 1.56636 32.8461
  1094 695.551 -20.2140 137.832
  1095 610.346 -28.2880 48.5025
  1096 306.718 -14.3194 -60.9683
  1097 695.602 -3.21836 -2.58676
  1098 795.864 152.330 -30.0659
  1099 636.658 -7.55424 -4.18036
  1100 603.471 -64.1214 10.9412
  1101 451.160 -33.2745 85.2735
  1102 698.419 -1.45849 0.213577
  1103 402.068 12.3838 -23.6172
  1104 514.605 -55.0129 -19.4168
  1105 307.235 -14.9467 60.4011
  1106 519.189 -47.8451 5.75794
  1107 639.717 -10.2438 15.2586
  1108 481.301 30.4934 36.4233
  1109 329.235 -24.5173 -49.6128
  1110 951.483 153.131 -74.4886
  1111 729.606 37.2104 69.4590
  1112 561.714 69.8977 8.80077
  1113 693.565 -0.469602 2.07512
  1114 288.186 -18.4310 -38.8507
  1115 195.422 126.201 -184.663
  1116 345.705 10.6374 -133.743
  1117 396.652 -31.2742 26.6145
  1118 337.493 -25.5879 46.9508
  1119 287.572 -17.5801 39.1876
  1120 593.976 6.55089 88.1539
  1121 447.409 -17.5159 -4.08283
  1122 685.978 -5.59641 6.23449
  1123 -4.33838 0.618627 20.8361
  1124 -4.25490 0.692589 -20.7818
  1125 467.267 -15.4422 2.68784
  1126 1.40605 6.82500 17.8226
  1127 1.55852 6.92334 -17.7157
  1128 272.837 -9.39900 6.95957
  1129 272.839 -9.52491 -6.96562
  1130 652.523 -3.81990 15.1352
  1131 528.562 -33.7010 -2.96702
  1132 496.353 -28.1503 2.57113
  1133 553.048 -39.6624 11.4584
  1134 174.652 89.4888 -139.800
  1135 541.242 -22.3561 3.16337
  1136 91.7278 1.16350 -27.2197
  1137 91.9629 1.12304 27.2129
  1138 118.665 78.0929 -100.799
  1139 855.758 121.591 10.6751
  1140 75.9696 -3.10881 16.0884
  1141 75.7414 -3.08480 -16.1034
  1142 120.768 77.0668 97.6549
  1143 498.722 -42.5823 -6.79366
  1144 262.921 -12.8805 15.9491
  1145 262.941 -12.9296 -16.1505
  1146 999.229 213.665 -64.5406
  1147 547.461 -54.8844 -4.32515
  1148 192.778 118.713 184.394
  1149 17.7981 5.34426 -20.1133
  1150 19.0651 5.56771 21.5794
  1151 588.229 73.7287 43.9222
  1152 48.8852 24.5414 -15.2689
  1153 49.2478 24.5550 15.3787
  1154 550.884 -48.4374 -6.90883
  1155 -0.227105 -52.6408 -10.0870
  1156 -0.251781 -52.6386 10.1329
  1157 587.677 -49.6996 -23.5642
  1158 6.83166 0.655449 5.28806
  1159 6.50495 0.660009 -5.29626
  1160 96.9290 34.9543 -42.6098
  1161 97.4407 35.1116 42.2866
  1162 -18.1716 0.0394737 -6.48221
  1163 -17.8437 0.0374404 6.49047
  1164 582.141 -8.52254 0.0829869
  1165 -54.3425 1.73504 -0.0110129
  1166 -54.1794 1.73453 0.0516843
  1167 319.274 -25.4798 -37.8547
  1168 8.84786 -64.3675 -11.5534
  1169 170.891 -5.00389 11.8872
  1170 170.809 -5.01774 -11.9893
  1171 499.803 -11.8804 1.16834
  1172 500.721 -11.6403 -1.07469
  1173 9.50395 -60.7481 13.3932
  1174 590.704 -31.8044 -24.9410
  1175 668.644 -3.63756 10.7762
  1176 600.920 -38.8252 -38.3035
  1177 536.822 4.54768 69.8692
  1178 3.45183 -18.2029 13.8733
  1179 3.71187 -18.0386 -13.6057
  1180 391.467 -29.4248 22.0229
  1181 -24.9970 2.68877 13.4151
  1182 -24.9506 2.71063 -13.3723
  1183 987.060 155.356 11.7544
  1184 1124.92 381.645 -267.003
  1185 613.813 -58.8204 29.9450
  1186 266.506 -8.55053 -1.23907
  1187 266.538 -8.46332 1.24026
  1188 1221.69 118.862 -110.756
  1189 104.753 -2.62277 16.6651
  1190 104.562 -2.58583 -16.7119
  1191 580.807 -1.87486 -27.3051
  1192 376.014 -30.8048 42.5630
  1193 607.034 -58.7301 -19.4208
  1194 588.198 -43.1427 -28.1750
  1195 365.391 -12.2095 100.396
  1196 141.262 25.4179 -56.5671
  1197 141.208 25.1969 56.2883
  1198 182.237 68.4404 -119.680
  1199 182.526 63.4814 119.705
  1200 57.7277 14.9240 -21.8987
  1201 58.0417 14.8840 22.0147
  1202 729.384 127.617 -46.9029
  1203 41.3013 38.4737 -21.5355
  1204 42.1915 38.5491 21.8077
  1205 525.177 -41.2619 1.05123
  1206 955.104 158.898 82.1868
  1207 140.406 -5.62464 -11.7296
  1208 140.526 -5.62378 11.6400
  1209 609.537 475.875 -381.551
  1210 506.832 30.5533 -55.9832
  1211 470.291 35.6327 23.0109
  1212 69.1668 27.3239 -25.7859
  1213 69.4788 27.3315 25.9101
  1214 31.8203 -0.161100 3.83988
  1215 31.5826 -0.160899 -3.86691
  1216 579.963 -46.9288 21.8719
  1217 569.019 -24.4249 10.6729
  1218 391.329 121.537 -280.549
  1219 894.195 196.611 -19.3472
  1220 391.848 -10.9134 -109.889
  1221 502.304 -17.6075 -2.31884
  1222 47.0293 -2.39453 -0.805898
  1223 47.1282 -2.39232 0.801589
  1224 -5.22067 3.97748 -9.95558
  1225 -4.96512 3.96217 10.0200
  1226 342.402 4.62853 -115.282
  1227 614.584 -15.0563 13.6381
  1228 406.467 9.90646 154.708
  1229 545.435 -28.5605 -6.46184
  1230 286.014 107.361 -223.599
  1231 441.101 -19.8073 -118.135
  1232 523.014 -55.8046 16.5394
  1233 634.590 -10.8856 24.1776
  1234 557.101 -13.8738 -1.52649
  1235 318.037 -23.9943 38.0379
  1236 697.597 -35.7818 -39.5145
  1237 669.917 60.3839 83.3582
  1238 297.712 1.57842 -92.4648
  1239 651.827 -5.56803 1.33506
  1240 548.765 67.6775 -12.6091
  1241 244.362 -9.09422 -11.6081
  1242 244.339 -9.01253 11.5074
  1243 996.404 246.815 75.5040
  1244 1333.91 35.4247 61.1733
  1245 1.35503 -63.9169 -9.93238
  1246 1.31452 -63.9775 10.0115
  1247 156.137 85.3940 131.512
  1248 367.040 -12.3792 -3.26855
  1249 367.118 -12.3185 3.39685
  1250 494.596 -50.0732 -20.0924
  1251 596.170 49.9887 76.0637
  1252 608.957 -13.7840 -7.99165
  1253 696.999 -2.45975 -0.778264
  1254 1203.24 271.387 -173.804
  1255 206.210 -7.99703 12.3721
  1256 206.167 -8.01056 -12.4960
  1257 588.310 -54.5113 21.9383
  1258 1012.50 264.982 -95.2388
  1259 569.630 -26.4375 -12.2864
  1260 422.622 -30.5233 -16.8913
  1261 514.124 -55.5378 32.4919
  1262 502.612 -26.8500 -1.38586
  1263 20.4979 15.4054 -29.4592
  1264 681.537 -38.6887 49.6418
  1265 554.922 -37.4449 -11.3024
  1266 22.4497 16.3624 31.9727
  1267 568.895 -42.1356 -111.838
  1268 535.994 40.2809 -229.872
  1269 875.362 121.760 -1.62267
  1270 699.363 -1.16766 -0.161790
  1271 698.277 -1.80085 0.555669
  1272 563.945 -34.1631 13.1127
  1273 225.187 26.8285 -91.4587
  1274 641.108 -55.3915 39.1814
  1275 1074.01 249.024 121.082
  1276 275.389 99.7325 218.233
  1277 9.16393 3.79584 13.5536
  1278 9.45156 3.94328 -13.3562
  1279 669.401 -49.9835 -65.1710
  1280 282.627 -16.0751 -18.9389
  1281 282.600 -16.1187 18.6707
  1282 629.060 -40.3818 65.7187
  1283 34.4246 0.0185782 17.2858
  1284 34.1559 0.0308105 -17.2732
  1285 -3.08700 -12.6437 17.9131
  1286 -3.06411 -12.6168 -17.9193
  1287 126.940 -4.26352 -15.1826
  1288 127.092 -4.28741 15.1068
  1289 338.418 -22.8360 -55.7856
  1290 342.243 -12.6859 4.44901
  1291 342.224 -12.9186 -4.32709
  1292 697.754 -1.14056 0.447077
  1293 631.521 -10.4180 -27.3912
  1294 61.9173 2.06074 -22.1762
  1295 62.1767 2.02515 22.1933
  1296 339.749 -24.1088 55.4378
  1297 703.338 -1.17597 0.404224
  1298 667.473 -1.89307 -0.783635
  1299 667.386 -2.30154 0.628214
  1300 890.744 195.099 -5.49244
  1301 653.251 -5.90625 -3.34528
  1302 583.784 -8.17335 -0.283176
  1303 646.158 -10.9710 -13.4760
  1304 695.169 -2.85316 1.60223
  1305 739.085 80.0641 68.7729
  1306 853.140 181.518 7.91877
  1307 680.439 -3.23622 -6.97163
  1308 -5.86773 -1.41808 5.21923
  1309 -5.89188 -1.41725 -5.23600
  1310 390.116 -25.8004 16.0481
  1311 390.051 -24.7390 -15.6804
  1312 745.686 88.4245 -64.6241
  1313 162.528 56.5487 -100.090
  1314 163.563 55.0745 99.1085
  1315 517.685 0.247462 -34.9820
  1316 518.045 -10.7105 -1.27798
  1317 517.417 -10.6452 1.16793
  1318 -11.8957 -1.63260 18.1344
  1319 -11.8745 -1.59805 -18.1297
  1320 582.398 -1.54676 27.2405
  1321 872.972 173.377 -9.09320
  1322 78.9677 -2.45449 -9.54885
  1323 79.1578 -2.46005 9.48891
  1324 644.374 -60.0239 16.9180
  1325 3.66256 12.0424 13.1791
  1326 3.85439 12.1136 -13.0543
  1327 136.524 -3.07021 -3.39494
  1328 136.603 -3.02907 3.35440
  1329 517.765 -0.485261 35.5347
  1330 40.8811 1.00842 -1.52599
  1331 41.0219 1.01231 1.50539
  1332 650.160 -8.79980 8.19317
  1333 912.198 164.266 11.8361
</Section>

newXOutput 85

<Section columns = "stress_xx | stress_yy | stress_xy">
  1 721.100 -2.37938 1.32095
  2 722.108 -2.88286 -1.71320
  3 35.2711 0.649357 -1.79181
  4 -0.590385 -0.855100 -0.608934
  5 1281.62 559.047 432.270
  6 1301.32 635.921 -436.005
  7 -0.584374 -0.849776 0.601176
  8 35.1698 0.645642 1.78779
  9 725.679 -1.71799 -1.19184
  10 720.938 -2.86060 -1.79083
  11 721.839 -2.31441 1.33861
  12 719.055 -1.52424 0.346041
  13 718.248 -2.70270 -0.791573
  14 718.091 -2.64203 2.31924
  15 709.405 -2.03406 1.99761
  16 712.963 -5.28319 3.45488
  17 693.414 -4.50582 7.86955
  18 681.555 -2.27089 9.53350
  19 664.770 -2.59393 10.4105
  20 634.866 -2.31682 14.9336
  21 601.729 -1.86146 17.5478
  22 559.734 2.33597 24.4029
  23 501.576 3.66127 22.2542
  24 477.869 0.136897 32.0654
  25 404.291 5.71731 22.9171
  26 358.920 7.33183 18.0840
  27 347.094 4.05635 13.3834
  28 334.416 10.8150 1.04536
  29 341.406 11.4837 -17.9441
  30 355.183 3.51403 -22.4741
  31 410.908 1.86560 -29.8370
  32 466.463 -2.57228 -30.6469
  33 503.640 3.05099 -22.1911
  34 560.317 2.63815 -24.3837
  35 600.308 -2.18199 -18.8403
  36 638.052 -2.49093 -14.0443
  37 662.444 -1.98700 -10.5913
  38 679.626 -2.43942 -8.65506
  39 698.297 -2.67540 -4.88735
  40 704.941 -2.93480 -4.58439
  41 711.567 -2.74256 -4.11171
  42 718.170 -3.06751 -0.494187
  43 720.473 -3.79147 -1.55093
  44 715.944 -0.315788 0.228720
  45 720.984 -2.17642 -1.55450
  46 723.382 -4.02452 1.95231
  47 726.468 -2.39887 -0.0498944
  48 692.669 -0.473156 -1.08853
  49 654.551 -4.21310 -1.99595
  50 610.967 -8.29586 -2.69661
  51 565.487 -7.59253 -1.92657
  52 525.479 -11.0050 -1.75731
  53 482.987 -11.7604 -1.55694
  54 439.898 -10.4631 -0.613825
  55 394.337 -10.9176 -0.930331
  56 355.668 -11.1764 -1.29282
  57 304.017 -10.4620 -0.980148
  58 250.753 -6.77371 -0.627897
  59 206.630 -4.39529 -0.461040
  60 152.108 -2.75391 -0.0402252
  61 112.566 -2.44176 -2.61158
  62 75.9378 -3.09742 -0.777725
  63 38.9523 0.347357 1.80452
  64 29.0159 2.55846 0.852426
  65 25.8637 1.02774 2.00213
  66 26.4715 0.463188 2.08268
  67 17.7945 1.46434 1.22610
  68 13.9437 1.94141 4.20786
  69 11.2572 0.703774 1.94374
  70 -3.25355 1.47992 2.07859
  71 -10.6591 0.981938 4.15260
  72 -14.7920 0.287490 4.42856
  73 -31.2931 1.35369 3.72688
  74 -38.2152 2.06310 6.41644
  75 -46.4605 1.25410 2.94145
  76 -55.0837 0.928634 3.84823
  77 -59.8310 0.973586 2.03694
  78 -68.7022 2.47554 -0.857481
  79 -70.9239 1.69341 -0.584159
  80 -65.7513 1.24036 -1.76460
  81 -57.2193 1.70365 -3.98231
  82 -47.2207 0.816492 -6.54327
  83 -35.6960 0.473707 -7.00064
  84 -21.6091 -0.639464 -7.43628
  85 -9.62824 -0.532977 -4.44229
  86 -4.11084 -1.54155 -2.81533
  87 -0.640185 -4.08038 -2.47600
  88 -1.03453 -10.4273 -4.28500
  89 -1.19826 -19.8877 -7.37259
  90 -0.158439 -36.9546 -7.81121
  91 0.518171 -50.4958 -9.65390
  92 1.11417 -72.2244 -7.80059
  93 3.31306 -84.8903 -9.04613
  94 0.717580 -89.5696 -6.99270
  95 0.00591244 -100.715 -3.32600
  96 2.94527 -93.6026 1.08769
  97 12.1591 -119.581 8.39187
  98 11.7203 -51.2931 23.5191
  99 26.8920 -0.878446 48.3552
  100 77.6705 170.361 137.481
  101 312.363 464.924 363.918
  102 1678.10 186.139 246.123
  103 1421.85 50.7404 88.6433
  104 1357.37 21.6573 30.3669
  105 1322.29 14.0028 -0.176291
  106 1344.96 20.6366 -25.0956
  107 1433.96 43.2887 -73.0902
  108 1660.82 146.483 -228.079
  109 203.745 525.274 -300.870
  110 54.8042 136.786 -107.858
  111 19.9423 -13.7041 -41.0551
  112 10.6480 -58.7865 -20.7668
  113 12.0752 -124.922 -7.06752
  114 2.80449 -95.9462 -0.165019
  115 -0.169171 -101.876 3.80423
  116 0.606961 -90.0072 7.24765
  117 3.25192 -84.9782 9.15263
  118 1.09080 -72.1670 7.83892
  119 0.500678 -50.4128 9.66622
  120 -0.166963 -36.8553 7.80477
  121 -1.19908 -19.8252 7.35538
  122 -1.03673 -10.3748 4.26937
  123 -0.639617 -4.06065 2.46240
  124 -4.08726 -1.53912 2.80384
  125 -9.58601 -0.535488 4.42967
  126 -21.5535 -0.645518 7.42807
  127 -35.6305 0.466837 7.00140
  128 -47.1810 0.808931 6.55561
  129 -57.2277 1.69811 4.00766
  130 -65.8098 1.23978 1.79231
  131 -71.0481 1.69159 0.611481
  132 -68.8817 2.47480 0.886150
  133 -60.0744 0.975935 -2.01141
  134 -55.3759 0.931542 -3.82875
  135 -46.7779 1.25751 -2.92554
  136 -38.5624 2.06723 -6.40880
  137 -31.6525 1.35766 -3.72041
  138 -15.1505 0.289906 -4.42793
  139 -11.0221 0.986191 -4.15673
  140 -3.60326 1.48584 -2.08522
  141 10.9437 0.707644 -1.95739
  142 13.6655 1.94561 -4.22921
  143 17.5489 1.46563 -1.24485
  144 26.2770 0.462445 -2.10122
  145 25.7061 1.02598 -2.01715
  146 28.8834 2.55551 -0.865343
  147 38.8427 0.345174 -1.81223
  148 75.8391 -3.10904 0.770165
  149 112.477 -2.47005 2.60352
  150 152.039 -2.80366 0.0291937
  151 206.586 -4.46703 0.455510
  152 250.715 -6.85654 0.627363
  153 303.971 -10.5330 0.991965
  154 355.578 -11.2101 1.31680
  155 394.200 -10.8687 0.986240
  156 439.716 -10.2940 0.676959
  157 482.742 -11.3666 1.46410
  158 525.715 -11.1241 1.52881
  159 565.669 -8.29966 2.04032
  160 611.426 -8.16855 2.43250
  161 655.774 -3.84331 2.02429
  162 691.694 -0.517264 1.06336
  163 417.249 -37.9448 -40.8327
  164 415.668 -38.6438 40.7311
  165 131.113 35.3778 -56.5795
  166 132.377 35.4956 56.3664
  167 487.265 -20.8404 133.271
  168 509.856 -23.7379 -129.848
  169 250.307 -13.5673 19.3966
  170 250.259 -13.4403 -19.6143
  171 519.476 -20.2463 -0.995007
  172 509.668 -20.3022 1.21132
  173 699.717 124.935 -15.0573
  174 700.670 8.29331 -76.7911
  175 687.894 13.2752 83.9542
  176 176.615 -6.97095 -38.5526
  177 176.652 -6.92689 38.4972
  178 605.828 -59.4841 22.6919
  179 605.538 -46.6081 -36.1858
  180 10.9844 16.0154 11.4677
  181 11.2385 16.1150 -11.3153
  182 827.484 169.928 15.8974
  183 166.333 75.8971 -121.277
  184 177.927 76.5323 129.433
  185 585.157 -28.7559 15.2866
  186 874.941 187.216 0.471576
  187 387.421 -15.7434 -7.08046
  188 386.842 -16.0993 7.04724
  189 600.203 -20.5344 -14.3091
  190 792.008 2.74755 -24.1997
  191 164.812 -4.98195 7.70201
  192 164.737 -5.01923 -7.78401
  193 72.7527 8.04565 -27.1306
  194 73.0616 7.96371 27.1947
  195 345.850 -12.9730 -85.9929
  196 344.513 -13.6442 87.0546
  197 411.126 -27.8977 -17.0100
  198 411.926 -27.7426 17.7972
  199 119.592 -4.13367 20.9918
  200 119.412 -4.08166 -21.0240
  201 782.715 -5.38968 63.9156
  202 646.869 -61.6542 -3.07411
  203 610.367 -8.23386 -1.42786
  204 597.701 -9.72073 1.33566
  205 622.744 73.6913 60.8295
  206 29.0174 27.5701 -14.1665
  207 29.9838 27.5423 14.5975
  208 613.923 -24.0556 70.5972
  209 574.576 44.6402 -70.8623
  210 400.825 98.8408 -265.191
  211 421.549 83.7006 246.771
  212 16.0560 14.0650 -5.24531
  213 16.3031 14.0657 5.36668
  214 612.457 -21.0405 -73.1902
  215 1042.97 144.693 -10.8325
  216 508.628 -54.6876 52.7406
  217 512.219 -54.4263 -50.2798
  218 508.314 -37.5370 3.23098
  219 621.259 -11.6535 7.14118
  220 313.388 -22.0308 -34.7080
  221 308.786 -21.9546 35.5969
  222 192.139 3.42224 -56.7756
  223 192.426 3.35698 56.3615
  224 640.675 -65.3981 -17.1492
  225 504.293 -39.7937 -5.45519
  226 618.904 -11.4862 -5.14393
  227 488.782 -14.8867 -1.80019
  228 492.759 -14.0656 2.67395
  229 616.130 -28.0862 38.6535
  230 64.9010 0.258297 -22.4805
  231 65.1500 0.233458 22.4871
  232 -7.06612 -4.50028 -20.2968
  233 -7.10539 -4.55089 20.3111
  234 111.349 -4.44262 -12.3847
  235 111.510 -4.45330 12.3078
  236 273.455 -9.04618 8.76176
  237 273.496 -9.17996 -8.81363
  238 307.170 22.1286 -122.951
  239 307.212 18.6023 121.628
  240 624.012 -20.2952 -33.1185
  241 303.109 -18.0065 -54.0202
  242 303.386 -18.5388 53.3763
  243 562.805 9.62126 80.7094
  244 502.007 42.8672 4.92315
  245 538.663 -53.9758 5.71377
  246 3.32277 -10.5040 -16.9221
  247 3.14134 -10.6507 17.0779
  248 37.7096 44.7494 -46.3186
  249 39.9743 43.5196 48.2974
  250 529.996 -52.8518 -9.14649
  251 936.908 188.301 -30.6219
  252 54.8199 36.0263 -22.3998
  253 55.4320 36.0239 22.6100
  254 -17.9168 4.85837 12.6628
  255 -17.8128 4.88367 -12.5896
  256 939.975 178.249 36.5129
  257 344.338 -17.7345 -15.2696
  258 344.101 -17.4840 15.0531
  259 654.790 -42.4587 62.1974
  260 1155.93 189.010 120.525
  261 208.563 -11.2269 -32.0676
  262 208.552 -11.3058 32.0518
  263 675.994 101.828 -56.6175
  264 1118.99 214.345 -112.278
  265 793.260 85.7503 47.2202
  266 846.710 70.7478 -172.754
  267 537.640 -27.2059 2.96700
  268 616.985 4.60615 -88.9520
  269 578.528 -41.7182 -18.3053
  270 640.589 -12.5428 20.5631
  271 7.32314 6.24877 -9.99049
  272 7.57303 6.23074 10.0794
  273 632.624 -14.4595 -164.770
  274 76.4744 21.7061 -28.0179
  275 76.8199 21.6741 28.1537
  276 619.952 -15.1523 -44.2107
  277 93.5703 106.156 -126.486
  278 94.0406 -0.481513 -2.93225
  279 94.1477 -0.465772 2.89818
  280 652.956 -38.6771 -65.3548
  281 121.879 54.7621 -70.2718
  282 123.582 54.5028 70.4704
  283 47.4544 -1.16752 15.5319
  284 47.1890 -1.15462 -15.5355
  285 536.752 -26.0163 -2.97177
  286 94.2342 105.116 129.576
  287 832.225 83.3281 200.019
  288 246.947 -10.3357 -12.2187
  289 246.927 -10.2800 12.0888
  290 434.102 -19.8827 -7.56610
  291 433.906 -21.3197 8.10969
  292 370.384 38.6050 -182.492
  293 589.525 -63.8165 -0.565624
  294 660.750 -5.53256 2.97226
  295 357.163 38.8304 177.004
  296 416.581 -13.3981 -2.71144
  297 416.431 -13.3934 3.04520
  298 579.541 -43.2705 18.6064
  299 657.724 -8.24977 -8.94835
  300 5.09915 2.39548 -12.8578
  301 5.37864 2.37750 12.9032
  302 837.465 164.853 -3.17722
  303 726.851 -29.6432 26.4822
  304 650.428 -5.13875 -0.531611
  305 660.943 -4.51468 0.484165
  306 655.388 -53.6678 65.9514
  307 807.531 91.5131 -42.2233
  308 718.597 133.150 30.8962
  309 329.507 -21.0587 -23.0864
  310 326.710 -21.4180 23.4511
  311 659.693 -5.47999 -1.61627
  312 444.696 -32.5220 -93.7222
  313 438.913 -35.6163 21.1764
  314 418.149 -21.6592 105.749
  315 653.024 -9.13887 10.9354
  316 164.529 -7.49932 -20.2881
  317 164.656 -7.55175 20.2202
  318 604.339 -14.4065 162.770
  319 393.673 -31.9244 -28.7419
  320 713.836 94.0372 69.7507
  321 235.101 16.3209 -82.1011
  322 226.728 17.0929 81.5288
  323 85.1455 -1.50621 -5.30369
  324 85.2914 -1.49714 5.24970
  325 579.635 -13.9996 2.98062
  326 556.501 -10.4769 -0.297962
  327 553.560 -11.2373 0.127082
  328 616.084 -15.9292 46.9936
  329 69.4672 -2.15449 11.8521
  330 69.2333 -2.13568 -11.8921
  331 194.917 -4.94056 -4.41458
  332 194.959 -4.87239 4.37879
  333 6.75705 -23.2356 -7.52457
  334 6.36490 -23.4629 7.99083
  335 495.899 21.9938 55.2962
  336 733.511 -26.6284 -18.9030
  337 482.238 -27.4403 -3.57159
  338 540.221 -13.3939 -0.378785
  339 580.855 71.8792 -33.0314
  340 123.761 -4.08602 -28.8582
  341 123.932 -4.09052 28.8469
  342 469.615 -26.0123 5.87730
  343 142.400 4.05604 -41.1087
  344 142.676 3.94237 41.0131
  345 30.6156 23.0325 -4.82712
  346 30.9410 23.0355 4.96945
  347 565.832 -58.8748 65.9971
  348 1215.19 79.7925 31.3597
  349 519.201 8.79290 -65.2749
  350 426.669 -38.0806 60.2207
  351 424.517 -37.2608 -61.8409
  352 625.410 -9.06114 87.5974
  353 562.623 -3.44577 63.8674
  354 558.840 -56.9049 -67.8481
  355 342.795 -10.3572 1.74789
  356 342.738 -10.4518 -1.66748
  357 618.259 -40.1066 50.8539
  358 846.596 166.857 -0.219384
  359 657.195 -8.56669 -15.1798
  360 185.471 -7.23100 -15.0785
  361 185.568 -7.23887 14.9615
  362 621.585 -55.5621 -80.5500
  363 661.364 48.2841 -86.4107
  364 461.431 24.8409 -35.6696
  365 623.011 -40.9367 -58.9986
  366 -19.5102 1.05169 -15.5804
  367 -19.5299 1.02557 15.5998
  368 523.017 -14.9017 -1.04067
  369 -7.41250 -4.36374 -9.77219
  370 -7.40191 -4.36446 9.75001
  371 399.881 220.002 -319.612
  372 18.9224 17.5224 5.89867
  373 19.3321 17.6503 -5.67813
  374 558.821 -3.63177 -63.3678
  375 313.352 -14.4705 11.5828
  376 313.544 -14.6394 -11.6747
  377 -1.68970 -21.1447 17.8166
  378 -1.65630 -21.1072 -17.8007
  379 327.840 229.836 301.895
  380 258.337 -14.1506 -42.9845
  381 258.561 -13.5920 43.0165
  382 84.4296 63.9814 -65.9438
  383 86.1130 63.8596 65.6178
  384 -27.1422 5.00681 3.81996
  385 -26.9980 5.01594 -3.73932
  386 639.958 44.4021 87.3826
  387 489.381 -51.2443 32.6354
  388 489.928 -45.3504 16.9554
  389 588.673 -65.7181 -17.1964
  390 156.701 18.7155 -55.9307
  391 157.222 18.6943 55.8686
  392 14.5607 -11.7337 6.19611
  393 13.8416 -12.0523 -5.17034
  394 609.863 86.5544 21.3751
  395 597.687 -19.0074 11.2636
  396 352.276 -27.8440 40.4888
  397 223.168 -6.10654 -50.6534
  398 223.279 -6.14871 50.3386
  399 443.253 -15.6457 -4.21689
  400 442.813 -14.0500 3.84275
  401 349.415 -28.5386 -42.5984
  402 275.758 -4.98994 -67.0073
  403 275.745 -5.35709 67.5096
  404 625.313 -56.3657 -31.7553
  405 371.955 -29.4799 27.1314
  406 567.960 -19.4679 5.21431
  407 566.703 -18.0088 -3.92468
  408 481.291 -45.0560 -18.6043
  409 673.326 -4.38068 -3.22211
  410 236.293 99.9501 -186.656
  411 642.075 -10.1029 26.2943
  412 672.279 -4.84980 5.33261
  413 255.575 -14.1831 26.9617
  414 255.649 -14.0012 -26.9444
  415 487.240 -50.6450 -33.4530
  416 75.9573 32.2295 30.3126
  417 75.5670 32.1989 -30.3239
  418 1226.74 79.7292 -63.6971
  419 558.544 -33.4437 -8.43021
  420 676.193 -3.81675 1.85071
  421 223.785 93.9058 178.455
  422 1005.82 168.429 36.4254
  423 594.031 -11.3457 -2.23261
  424 453.082 -34.1367 -15.0458
  425 195.100 37.5795 -92.2694
  426 207.484 34.7592 91.7109
  427 552.408 -36.3910 8.22369
  428 591.353 -7.46005 -46.4270
  429 8.43946 -0.644844 11.7613
  430 8.13947 -0.638870 -11.7494
  431 218.819 53.5605 -121.544
  432 219.518 53.7424 121.190
  433 32.5187 11.9640 -14.6328
  434 32.7957 11.9412 14.7436
  435 496.585 -12.2482 -0.113996
  436 495.993 -12.0014 0.269475
  437 615.488 -28.6515 -40.5258
  438 -0.347272 -0.0904271 20.7494
  439 -0.236295 0.0118648 -20.6679
  440 632.932 -61.0066 26.1803
  441 596.688 -17.9677 -9.65740
  442 961.033 183.495 -35.6056
  443 57.9379 -1.85898 5.77604
  444 57.7251 -1.85926 -5.82246
  445 1139.59 334.197 158.494
  446 25.4940 25.7817 -41.8843
  447 83.4079 3.21266 -28.5208
  448 83.6708 3.15687 28.5293
  449 1138.95 342.684 -155.664
  450 27.0010 28.3689 45.4230
  451 -24.5575 3.68231 -0.651979
  452 -24.3687 3.67747 0.729600
  453 70.4108 48.3594 -41.0456
  454 71.5554 48.4047 41.2456
  455 759.313 122.001 -54.1506
  456 607.145 -25.0099 -24.6728
  457 672.952 -3.85792 -1.51467
  458 635.222 -10.2219 -31.2079
  459 -5.46470 5.74483 18.7714
  460 -5.35143 5.81189 -18.6932
  461 613.669 -25.8215 29.5071
  462 406.898 -24.4459 -13.7678
  463 405.728 -24.6645 12.4913
  464 544.211 -59.6787 -17.6492
  465 392.628 -3.89178 -128.065
  466 596.422 -8.93535 47.2938
  467 485.989 -18.1076 3.19761
  468 703.693 -48.0237 -20.4368
  469 380.689 5.27454 136.875
  470 44.8761 -0.696219 11.3439
  471 44.6029 -0.684828 -11.3602
  472 782.237 154.393 -21.9739
  473 615.241 -6.83392 -0.284927
  474 613.258 -7.45273 -0.240381
  475 474.614 -33.1725 9.49874
  476 220.614 -7.87009 -8.70428
  477 220.627 -7.79101 8.62417
  478 133.145 -2.03479 -34.1256
  479 133.313 -2.06004 34.0798
  480 420.893 16.2928 21.4597
  481 115.857 -3.71592 16.8228
  482 115.682 -3.68281 -16.8871
  483 116.275 10.1169 38.6397
  484 115.900 10.2661 -38.5978
  485 604.448 -46.9265 34.5723
  486 346.486 -21.6807 -63.4513
  487 323.283 -11.8313 6.52500
  488 323.379 -12.0723 -6.52906
  489 350.021 -22.3365 63.4621
  490 935.645 227.046 -33.3937
  491 -14.9191 -2.10536 -12.4283
  492 -14.9082 -2.11731 12.4191
  493 251.532 -7.83519 -3.71328
  494 251.551 -7.73757 3.70262
  495 0.563796 -38.3853 -14.0474
  496 0.464871 -38.5130 14.1810
  497 549.993 -10.8370 -0.228476
  498 418.839 19.4704 -10.6425
  499 545.673 56.8943 29.9955
  500 343.391 -2.67981 -103.615
  501 178.752 -9.19440 25.3147
  502 178.705 -9.11924 -25.3430
  503 -34.0674 1.24922 -4.83752
  504 -33.8042 1.24124 4.87495
  505 654.476 -9.91407 -85.3209
  506 73.1870 0.217592 -3.77193
  507 73.3200 0.225676 3.73293
  508 544.802 -43.9109 -4.62390
  509 579.356 -49.7903 -16.6382
  510 124.577 99.6716 -130.250
  511 487.182 18.1385 -196.632
  512 10.2953 15.8624 6.09304
  513 10.5351 15.8995 -5.95754
  514 308.867 -15.2849 -15.8754
  515 308.739 -15.1653 15.6200
  516 824.477 44.1923 -3.03765
  517 601.617 -36.2985 -31.7229
  518 121.585 94.8562 128.569
  519 595.748 -65.8982 26.5896
  520 574.277 -54.6990 10.6621
  521 139.547 -3.36456 -11.1288
  522 139.658 -3.35366 11.0419
  523 490.221 5.91029 50.6889
  524 350.028 -26.5713 -28.2399
  525 630.502 -15.5359 17.7902
  526 -2.43295 -15.3799 -12.1498
  527 -2.43887 -15.3648 12.1297
  528 449.975 -39.1109 70.8022
  529 674.274 -48.8080 -38.1069
  530 867.014 73.7456 -47.6415
  531 480.580 -18.6330 -3.24359
  532 159.885 -3.10919 -3.15456
  533 159.950 -3.05929 3.13061
  534 310.153 3.01169 100.152
  535 837.843 147.401 28.4791
  536 830.614 193.966 -305.263
  537 762.346 10.5589 32.9940
  538 554.527 -61.1826 14.8282
  539 1262.38 100.739 85.8287
  540 954.477 240.317 44.5970
  541 150.514 -6.38128 27.5133
  542 150.384 -6.32130 -27.5433
  543 533.928 -45.1430 1.21774
  544 46.3894 19.8831 -14.5312
  545 46.7023 19.8778 14.6600
  546 666.237 -52.9798 38.3664
  547 560.694 31.3328 74.0035
  548 666.096 -5.10407 10.1205
  549 500.856 -31.7008 -2.39810
  550 686.890 16.7987 -207.204
  551 1071.13 304.564 211.142
  552 538.609 -13.1480 0.544846
  553 656.644 -7.51083 -17.0260
  554 111.660 45.7287 -53.9841
  555 112.445 45.1926 53.7876
  556 386.553 -17.2473 -9.34422
  557 386.393 -16.8939 9.47542
  558 5.24928 -37.7503 -9.57904
  559 674.580 -21.3196 74.0291
  560 30.0952 25.9661 -2.46868
  561 30.5150 26.0430 2.67086
  562 6.03822 -36.0929 11.0334
  563 616.609 -27.7323 -61.5261
  564 708.014 48.1673 -80.1334
  565 706.086 54.2508 80.3089
  566 37.1715 36.3572 32.5538
  567 35.4407 37.0294 -31.9913
  568 -8.11854 0.554446 9.10503
  569 -8.42216 0.560884 -9.08587
  570 641.748 26.2730 213.014
  571 364.779 -21.4292 16.7987
  572 365.118 -21.3575 -17.0051
  573 770.426 -3.50408 -116.003
  574 120.373 -1.67775 6.43204
  575 120.270 -1.69998 -6.49065
  576 68.6515 -1.23898 -1.46993
  577 68.7582 -1.23082 1.45621
  578 853.765 162.622 -19.4691
  579 85.2458 146.556 -141.861
  580 471.510 10.0938 -43.0781
  581 647.987 102.937 -35.9226
  582 11.2037 3.47833 10.1936
  583 11.5945 3.62731 -9.93295
  584 622.614 323.164 354.781
  585 547.040 -17.5453 -1.44557
  586 28.3412 5.51939 -16.2413
  587 28.6162 5.48010 16.3129
  588 632.590 -49.7970 49.5303
  589 100.336 142.537 144.431
  590 460.246 -12.1358 1.26704
  591 460.378 -12.0557 -1.26865
  592 -0.188782 -31.0788 15.1320
  593 -0.139638 -31.0305 -15.0822
  594 782.766 150.695 -1.25411
  595 496.605 -38.1678 97.5401
  596 475.373 -22.3984 -4.82012
  597 475.124 27.1022 207.121
  598 -37.8368 2.19844 8.76032
  599 -37.8010 2.21034 -8.72074
  600 771.211 16.6367 -36.0335
  601 1005.33 194.337 -155.761
  602 302.630 32.3713 -141.445
  603 172.475 -7.45609 -33.2629
  604 172.651 -7.46083 33.2777
  605 690.905 -3.04355 2.40036
  606 471.006 -22.8227 4.30078
  607 619.343 -10.4609 4.90678
  608 616.560 -27.8446 59.9733
  609 44.5623 -1.06188 5.80663
  610 44.3115 -1.05758 -5.84053
  611 372.591 -14.6732 -5.57995
  612 372.551 -14.3340 5.46830
  613 236.431 4.81331 -68.9862
  614 234.996 4.88592 68.7362
  615 871.043 65.6353 68.0631
  616 1389.74 104.835 -150.719
  617 2.72594 -0.939501 7.83222
  618 2.40568 -0.936663 -7.82710
  619 228.317 -9.95423 15.8342
  620 228.278 -9.94013 -15.9973
  621 817.625 53.5224 14.2002
  622 681.577 -3.64550 -0.758183
  623 680.197 -4.67174 0.169735
  624 518.952 0.359312 50.0677
  625 719.139 -36.1780 -74.9279
  626 401.899 -33.6222 33.5091
  627 -5.17076 9.50494 -6.13753
  628 -5.35008 9.48773 6.24351
  629 638.125 15.0007 91.0892
  630 261.855 -15.4855 -35.1149
  631 261.646 -15.7289 35.1771
  632 517.746 -31.5888 0.493286
  633 632.905 -15.1959 -16.0008
  634 371.478 -29.9373 -47.5901
  635 608.285 73.6217 -55.4403
  636 408.244 -27.7187 -80.6017
  637 164.589 -4.40707 -5.98046
  638 164.653 -4.36140 5.92015
  639 375.125 -30.4193 47.8640
  640 788.951 131.263 46.2528
  641 630.738 -29.4479 75.6779
  642 516.247 -24.9933 0.209897
  643 376.374 -11.8425 3.02851
  644 376.282 -11.8610 -2.96080
  645 289.277 -11.7540 -11.5491
  646 289.195 -11.6446 11.4576
  647 605.008 -55.1184 -25.1699
  648 316.692 -18.8112 20.0416
  649 316.999 -18.7355 -20.3465
  650 619.660 94.7201 -7.32742
  651 559.370 -30.9521 8.83585
  652 688.212 -3.95826 -4.01110
  653 600.955 -9.93724 -81.0838
  654 99.5706 -4.16774 22.1647
  655 99.3697 -4.13955 -22.1729
  656 674.289 -4.52231 -9.22329
  657 128.223 67.0526 -93.3433
  658 130.352 66.9249 93.7843
  659 689.479 -35.9352 98.7625
  660 246.391 63.0860 149.000
  661 71.6979 -0.643635 22.1414
  662 71.4646 -0.629429 -22.1418
  663 590.702 -34.3850 123.882
  664 577.234 95.1335 -278.557
  665 579.942 19.5600 -81.5812
  666 753.364 137.487 41.5606
  667 507.876 -24.5467 2.02612
  668 906.264 160.715 -3.91352
  669 -37.6142 2.10964 -3.68122
  670 -37.3939 2.10481 3.73246
  671 407.821 3.90830 -148.724
  672 48.2292 -0.635267 4.34997
  673 48.0320 -0.636797 -4.38590
  674 508.169 -41.0923 -96.5834
  675 176.388 23.5461 -66.9436
  676 175.067 23.6520 66.9229
  677 9.70970 8.72449 -7.09530
  678 9.95142 8.71565 7.20273
  679 435.888 -38.3288 -26.8786
  680 612.665 -6.07728 -30.8749
  681 301.929 -10.4111 -4.02535
  682 301.957 -10.3147 4.05048
  683 222.955 -11.6743 -23.0665
  684 223.143 -11.8274 23.0034
  685 43.9870 36.0682 -17.2858
  686 44.6626 36.1583 17.5218
  687 617.694 -9.37528 1.77045
  688 288.160 -18.8573 29.8048
  689 289.872 -18.5538 -29.7922
  690 686.860 -51.6341 3.03733
  691 570.476 -57.3675 -4.44398
  692 452.271 -14.9592 -2.48592
  693 450.767 -14.1244 2.67058
  694 625.280 -63.6331 43.5640
  695 1006.19 204.747 61.4160
  696 550.429 -20.5883 -151.439
  697 629.617 -18.3596 30.4644
  698 630.158 -22.0765 -81.8897
  699 209.972 -6.87907 -11.1956
  700 210.000 -6.83595 11.0882
  701 491.285 -4.71900 168.866
  702 1322.11 171.896 156.815
  703 101.920 28.4456 -40.7694
  704 102.077 28.6417 40.8954
  705 615.132 -8.04305 -0.790381
  706 619.745 -7.35209 0.831524
  707 268.065 145.193 -236.921
  708 657.115 -4.24932 17.2456
  709 568.919 -12.0540 0.571844
  710 759.286 149.112 -14.6904
  711 85.5422 13.9048 -30.2325
  712 85.8974 13.8214 30.3392
  713 694.755 -2.50463 0.187589
  714 573.853 -23.9403 -9.37982
  715 714.110 -7.19140 62.1867
  716 302.971 -21.5760 -45.0362
  717 303.718 -20.6973 44.6818
  718 82.1508 -2.51534 16.7544
  719 81.9277 -2.48572 -16.7864
  720 641.354 -6.12247 -2.06349
  721 554.077 122.064 294.389
  722 5.89529 6.73032 15.8993
  723 6.10663 6.86332 -15.7547
  724 644.644 -8.51456 -6.66236
  725 627.833 -13.2113 9.69237
  726 516.772 0.993298 -53.6988
  727 5.32512 -52.6775 -5.11884
  728 5.01153 -53.2443 5.69292
  729 237.231 65.2026 -149.120
  730 507.689 -49.8363 -71.8401
  731 266.799 143.710 238.898
  732 687.170 -2.67023 1.23790
  733 683.501 102.998 56.6820
  734 511.992 46.1630 -20.9676
  735 882.767 177.776 8.63361
  736 681.721 -3.71124 5.64020
  737 -32.2059 0.982449 6.56424
  738 -32.4994 0.987729 -6.53915
  739 728.991 -36.3528 30.8589
  740 479.563 -16.0374 -3.14112
  741 183.410 -0.244109 -48.7509
  742 183.666 -0.416807 48.5235
  743 626.223 -9.18191 -3.10608
  744 1097.10 154.944 -59.2962
  745 91.8098 -2.44495 -10.9388
  746 92.0046 -2.45845 10.8796
  747 692.025 -2.72623 -2.41163
  748 155.728 -6.81192 -15.1717
  749 155.851 -6.83557 15.0828
  750 688.447 -24.6530 -65.2876
  751 637.415 -7.02808 24.4182
  752 580.959 -2.73726 80.6901
  753 691.742 -2.81839 0.379472
  754 651.183 -6.55589 4.87424
  755 437.032 -25.0744 -9.47316
  756 540.300 -16.4432 0.471139
  757 615.387 -37.8848 -49.5854
  758 599.465 -38.3505 30.1927
  759 706.558 87.6453 -70.8966
  760 590.844 -34.2571 21.2085
  761 626.176 -36.3947 64.7077
  762 370.551 -26.0654 21.6834
  763 14.6163 2.15772 3.36506
  764 13.9163 2.10380 -2.70025
  765 545.631 -10.6606 -0.473429
  766 544.523 -10.6055 0.278682
  767 646.060 -4.62482 -0.117009
  768 648.136 -4.51494 0.258293
  769 625.384 -18.0568 38.1885
  770 576.359 -50.4441 92.0773
  771 478.320 -39.7812 13.7441
  772 427.244 -26.9468 12.6780
  773 1117.35 142.600 67.5126
  774 629.411 -17.1093 -23.3030
  775 374.027 69.7083 -221.461
  776 586.800 -30.3443 -17.9827
  777 34.1576 0.304211 -16.5505
  778 34.4327 0.282940 16.5774
  779 541.216 47.6046 -46.9305
  780 1283.88 38.9383 -16.4096
  781 664.555 19.3675 -88.0109
  782 28.2881 36.7694 -59.3560
  783 690.036 122.959 14.3012
  784 532.672 -35.2947 2.19656
  785 602.552 -14.1795 78.5028
  786 505.265 -51.9487 72.2182
  787 789.785 6.54655 139.680
  788 30.4294 42.8489 62.9722
  789 369.589 -1.25516 117.610
  790 508.970 -15.4376 1.31257
  791 565.763 -48.3483 -93.1098
  792 355.839 -28.2882 -34.6663
  793 282.162 13.8513 -103.921
  794 657.644 -8.22275 86.1581
  795 426.754 -30.2658 18.4537
  796 98.4849 -2.51118 9.47947
  797 98.3278 -2.51353 -9.54868
  798 614.474 -3.55082 27.2812
  799 564.868 3.77822 -78.8679
  800 -46.3050 2.29175 5.04165
  801 -46.2349 2.29658 -4.99743
  802 415.645 -14.9544 -3.95777
  803 414.525 -14.2685 3.81622
  804 310.098 36.0814 143.298
  805 282.155 -17.0831 22.9972
  806 282.497 -16.6970 -23.1864
  807 691.190 -2.18712 -1.10635
  808 255.036 20.4551 101.556
  809 25.0111 -0.235249 6.04722
  810 24.7128 -0.230247 -6.06616
  811 607.535 -18.4814 60.1999
  812 636.092 -7.17471 1.47346
  813 -33.9994 0.565590 9.11632
  814 -34.0107 0.577271 -9.09775
  815 402.915 -24.6785 89.6940
  816 81.8679 71.9657 -80.6608
  817 82.8133 69.0229 79.5649
  818 401.646 17.4366 8.90407
  819 8.41112 -0.517608 -6.89140
  820 8.73675 -0.521639 6.88876
  821 460.880 -43.1664 -67.8726
  822 621.949 -64.0070 -10.9151
  823 -3.17448 -3.00514 -4.04354
  824 -3.16450 -2.99748 4.02795
  825 54.3563 0.980249 -1.51734
  826 54.4799 0.985868 1.49665
  827 555.459 -49.9441 5.92968
  828 470.877 -47.9010 49.6241
  829 517.200 -11.2182 -0.269705
  830 469.877 -38.8752 -15.3874
  831 186.775 -3.50441 -1.33194
  832 186.826 -3.43907 1.31716
  833 -51.5057 1.13059 2.47560
  834 -51.3878 1.12934 -2.43150
  835 579.502 -9.84796 -0.957236
  836 531.674 21.7335 -67.5235
  837 586.678 -13.8019 -4.40467
  838 356.613 -27.8793 33.2369
  839 590.538 -9.91074 -64.4325
  840 624.670 -19.5694 -39.4210
  841 581.661 -8.79825 0.808320
  842 432.083 -14.9638 120.414
  843 461.703 -45.4478 -30.8998
  844 283.801 -2.16284 -80.9951
  845 285.301 -0.195234 81.4129
  846 396.802 -30.6894 -23.4857
  847 653.776 72.3039 75.4570
  848 611.672 -61.3312 -55.4659
  849 235.164 -7.96321 -5.83724
  850 235.170 -7.86284 5.79394
  851 472.116 -13.1058 1.77963
  852 472.148 -13.1933 -1.68749
  853 567.687 -3.99670 -42.4040
  854 202.277 -8.75689 -18.6900
  855 202.405 -8.81932 18.5679
  856 2.52488 -55.3862 -10.1760
  857 2.40247 -55.6295 10.4140
  858 114.081 -1.62343 -0.0311231
  859 113.992 -1.65139 0.0133768
  860 575.795 -11.3517 -1.28834
  861 445.070 -42.4978 45.2527
  862 679.208 -55.3317 10.5323
  863 424.084 8.85322 34.0759
  864 588.905 -15.9446 5.20369
  865 645.408 -56.2505 -35.6262
  866 103.330 5.70854 -33.6215
  867 103.628 5.61096 33.6199
  868 514.687 -11.8475 0.271280
  869 420.388 -16.5435 -6.47284
  870 419.024 -16.4246 6.84896
  871 649.435 100.849 40.5373
  872 231.958 -2.74254 -58.0472
  873 231.786 -3.00077 57.8424
  874 449.205 -41.2389 25.6784
  875 48.2488 29.7292 -15.2397
  876 48.6859 29.6823 15.3717
  877 382.237 -26.9832 74.2348
  878 455.168 -30.4412 -10.4293
  879 570.595 -4.14982 42.8378
  880 553.988 -61.5682 29.4807
  881 633.549 -47.1688 -54.1738
  882 443.978 -42.8396 -45.7701
  883 373.075 -25.9763 -20.9139
  884 1162.01 94.7653 -18.3056
  885 579.565 -60.9753 0.432987
  886 20.4444 20.7173 2.82846
  887 20.7546 20.7625 -2.66279
  888 506.514 -51.0606 17.7338
  889 552.992 -61.0748 -45.1585
  890 22.7207 17.5231 -3.47331
  891 22.9958 17.5331 3.60234
  892 218.819 -8.18453 44.8562
  893 218.910 -8.40546 -45.0732
  894 261.964 -13.6014 49.0365
  895 261.841 -13.8992 -49.3117
  896 799.245 160.049 16.0320
  897 -1.05788 -24.6679 -11.6594
  898 -1.06605 -24.6330 11.6485
  899 192.271 15.6232 -63.7915
  900 191.398 15.3196 63.2547
  901 1324.72 42.9056 -66.0259
  902 46.8338 -0.204430 2.52804
  903 46.6686 -0.208797 -2.55635
  904 2.78438 -59.5063 0.962833
  905 3.19391 -58.3829 -0.0128955
  906 -26.3887 -0.226314 9.61874
  907 -26.4231 -0.217865 -9.61693
  908 154.084 44.8581 -74.6542
  909 156.427 43.3650 73.7062
  910 -10.3999 1.22222 -19.6514
  911 -10.4567 1.17366 19.6864
  912 51.9648 3.59967 -22.5257
  913 52.2451 3.55156 22.5638
  914 170.487 -2.43201 41.5727
  915 170.347 -2.42309 -41.7390
  916 142.296 -5.06568 -33.7189
  917 142.455 -5.05925 33.6849
  918 678.587 -3.03954 -9.30665
  919 338.661 76.4901 206.890
  920 466.127 -46.2996 29.4308
  921 337.086 -24.8139 27.3628
  922 640.360 67.1829 -75.0237
  923 1303.26 27.6455 26.6155
  924 746.027 38.7289 -65.5886
  925 138.787 -5.24431 21.3503
  926 138.631 -5.18818 -21.4109
  927 34.8096 -0.847892 -15.7143
  928 35.0846 -0.854871 15.7207
  929 0.393875 -10.1116 -21.0120
  930 0.295047 -10.2109 21.0843
  931 348.233 -16.5492 13.0650
  932 348.392 -16.8344 -13.1088
  933 49.0540 11.1706 -20.8840
  934 49.3499 11.1233 20.9825
  935 217.817 -10.0505 -38.4692
  936 217.980 -10.0556 38.4580
  937 465.784 -1.28951 -39.9696
  938 225.348 -12.4960 -27.3893
  939 225.233 -12.3792 27.4725
  940 518.732 -16.7216 1.60034
  941 628.296 -34.9818 -70.0172
  942 285.478 -12.3373 13.4388
  943 285.585 -12.4352 -13.5763
  944 -11.5900 -1.17463 -6.99903
  945 -11.5563 -1.17740 6.98278
  946 634.119 -44.5215 -112.418
  947 611.277 -36.1559 42.4436
  948 537.727 -38.7226 -4.20227
  949 537.572 19.3302 71.0372
  950 249.299 -14.3827 -30.6898
  951 249.335 -14.1339 30.7736
  952 594.113 24.0900 84.9080
  953 560.236 49.3020 56.0162
  954 1092.31 130.170 23.5630
  955 569.103 -22.2295 5.97801
  956 311.367 -10.3900 -6.10677
  957 311.345 -10.2198 6.14663
  958 513.567 -42.9696 5.02311
  959 714.125 130.602 -32.6052
  960 617.842 -8.57660 -1.88438
  961 416.480 -12.1647 2.05428
  962 416.336 -12.0864 -1.94221
  963 56.5234 48.9601 -38.3409
  964 57.8683 48.9138 38.5895
  965 98.4726 286.838 -228.721
  966 591.799 -13.3931 63.9810
  967 725.223 -9.17580 -53.6336
  968 -7.50929 7.27692 1.17422
  969 -7.31151 7.27775 -1.07281
  970 1418.95 348.602 -273.853
  971 622.609 -66.1634 -2.64766
  972 661.528 -58.0096 -36.8447
  973 614.307 -52.2263 36.5483
  974 765.351 149.346 12.0204
  975 58.7179 68.5514 -75.6604
  976 141.324 251.143 227.108
  977 -2.88392 -7.46334 21.4283
  978 -2.82293 -7.39052 -21.3931
  979 594.561 -17.0309 6.93438
  980 952.615 166.976 -23.7932
  981 60.3305 67.2480 78.3028
  982 -2.57646 -9.06286 -7.78342
  983 -2.57647 -9.03624 7.76178
  984 513.688 -14.2082 -1.60728
  985 390.093 -31.5017 -36.3208
  986 619.318 -48.4542 -45.0994
  987 183.386 49.5282 -96.7006
  988 186.251 50.3203 96.9394
  989 605.678 -14.8365 -56.5433
  990 603.486 -20.6285 15.2637
  991 -14.4739 4.75627 16.7885
  992 -14.3931 4.80025 -16.7295
  993 372.615 -24.4393 -70.1724
  994 615.690 40.7778 -84.4650
  995 455.527 -18.9834 4.76792
  996 334.707 -10.8568 1.35505
  997 334.639 -10.9140 -1.31881
  998 -6.55455 -7.47666 -15.8812
  999 -6.56321 -7.49268 15.8653
  1000 611.699 -23.1050 -19.6107
  1001 580.286 -8.68712 0.144490
  1002 579.762 -8.69754 0.0764789
  1003 805.884 136.023 -40.8400
  1004 154.975 12.6529 -51.2213
  1005 155.360 12.4023 51.1354
  1006 104.876 -1.28306 -28.2481
  1007 105.076 -1.30268 28.2304
  1008 669.406 38.2171 89.0376
  1009 624.855 -13.3670 -10.1812
  1010 119.660 17.8572 -42.6335
  1011 120.120 17.7305 42.7834
  1012 647.103 -5.07492 -1.21459
  1013 612.591 -27.3381 -31.4734
  1014 598.304 -65.8593 -34.6293
  1015 25.6620 23.7993 4.75718
  1016 25.0172 23.6880 -4.46278
  1017 -26.4353 5.05887 9.20050
  1018 -26.3301 5.07382 -9.12784
  1019 389.550 14.1370 -14.8704
  1020 1021.66 260.717 -82.8964
  1021 477.644 -35.9913 -8.87089
  1022 321.331 -14.0834 -71.9510
  1023 751.918 -24.7623 -5.86361
  1024 322.571 -14.0414 72.8953
  1025 545.835 -62.2923 51.2623
  1026 618.257 -25.7127 -49.8994
  1027 226.195 -5.82472 -1.86233
  1028 226.232 -5.74106 1.85343
  1029 427.650 -34.2976 -21.5494
  1030 267.843 -10.3476 -57.0914
  1031 267.779 -10.4249 56.8545
  1032 91.3194 60.3650 -62.5727
  1033 92.7031 60.2368 62.7587
  1034 193.454 -6.32089 -6.52552
  1035 193.493 -6.25326 6.46238
  1036 548.489 -19.3985 1.80234
  1037 465.495 4.94612 -170.598
  1038 567.847 -20.2991 -6.12966
  1039 516.720 -56.8172 -33.6897
  1040 347.480 -15.8471 9.31147
  1041 347.737 -15.9511 -9.32888
  1042 655.755 -5.48646 1.54195
  1043 592.198 -15.9671 -6.45520
  1044 407.950 10.1667 28.1693
  1045 638.229 -6.45752 -22.7676
  1046 253.466 76.7896 168.102
  1047 654.289 -6.42626 -18.3870
  1048 179.839 29.8298 -74.1536
  1049 174.771 30.1401 71.3873
  1050 776.480 -6.52953 3.63749
  1051 77.1436 39.0835 -34.8632
  1052 77.8174 38.8202 34.8712
  1053 13.8219 3.67097 2.98811
  1054 14.4339 3.79264 -2.58633
  1055 119.108 -3.00507 7.67141
  1056 118.986 -3.02192 -7.74433
  1057 286.962 77.5920 -185.034
  1058 1458.95 398.770 294.837
  1059 610.011 -23.0719 20.0965
  1060 550.688 -61.1891 -27.2694
  1061 388.660 -32.0363 -55.6604
  1062 -5.22797 9.35114 13.4775
  1063 -5.07859 9.40184 -13.3762
  1064 436.487 -24.0234 8.04715
  1065 478.600 -19.7257 3.65760
  1066 -0.142164 -34.8285 11.1195
  1067 -0.130487 -34.8702 -11.1187
  1068 77.1409 47.1744 -40.7021
  1069 78.0093 47.1064 40.9243
  1070 430.990 -22.2699 -7.75925
  1071 40.1119 16.0137 14.8029
  1072 39.8209 16.0306 -14.6807
  1073 650.675 -23.9555 81.3905
  1074 474.203 -48.8024 -49.3760
  1075 390.900 -32.5430 55.6651
  1076 623.179 -10.8841 -87.2984
  1077 645.502 -8.55710 7.35575
  1078 244.019 38.0610 114.951
  1079 245.747 36.3993 -113.113
  1080 387.402 -18.1366 -97.3052
  1081 540.100 -21.2852 -1.49465
  1082 444.337 -28.0504 12.5316
  1083 516.974 -48.8177 -8.97511
  1084 694.353 -3.06882 -4.40321
  1085 388.542 -19.2731 10.9858
  1086 388.378 -20.2729 -11.1781
  1087 15.5202 17.4974 9.04924
  1088 15.8383 17.6195 -8.86474
  1089 629.876 24.9845 -90.6028
  1090 149.696 6.83606 -45.5721
  1091 150.093 6.68086 45.4776
  1092 115.704 1.63242 -33.3863
  1093 115.955 1.57362 33.3479
  1094 703.160 -20.2234 139.607
  1095 617.230 -28.6111 48.8603
  1096 310.394 -14.4977 -61.8312
  1097 703.082 -3.26567 -2.59560
  1098 804.821 154.099 -30.1210
  1099 643.621 -7.67662 -4.17458
  1100 610.245 -64.8146 10.8264
  1101 456.343 -33.6291 86.4286
  1102 705.885 -1.49019 0.205443
  1103 407.230 12.5404 -23.8403
  1104 520.462 -55.6385 -19.8330
  1105 310.918 -15.1321 61.2583
  1106 525.093 -48.4039 6.00702
  1107 646.787 -10.3872 15.3428
  1108 487.220 30.8725 36.7578
  1109 333.164 -24.8185 -50.3390
  1110 961.625 155.226 -75.7475
  1111 737.756 37.7434 69.8956
  1112 568.432 70.7245 8.87811
  1113 701.047 -0.489986 2.07524
  1114 291.690 -18.6663 -39.4396
  1115 197.761 127.854 -186.986
  1116 349.750 10.7971 -135.449
  1117 401.297 -31.6616 27.0653
  1118 341.510 -25.9013 47.6487
  1119 291.070 -17.8058 39.7802
  1120 600.858 6.66726 88.9175
  1121 452.561 -17.7662 -4.20602
  1122 693.435 -5.67108 6.26903
  1123 -4.35473 0.654461 21.0367
  1124 -4.27032 0.729328 -20.9819
  1125 472.612 -15.6718 2.78195
  1126 1.47312 6.94412 17.9652
  1127 1.62732 7.04371 -17.8571
  1128 276.234 -9.53449 7.06838
  1129 276.236 -9.66171 -7.07447
  1130 659.778 -3.87071 15.2495
  1131 534.548 -34.1179 -2.84989
  1132 502.008 -28.5130 2.73091
  1133 559.293 -40.1348 11.4136
  1134 176.781 90.6488 -141.612
  1135 547.331 -22.6561 3.08767
  1136 93.0540 1.16769 -27.6408
  1137 93.2922 1.12678 27.6342
  1138 120.157 79.1154 -102.166
  1139 865.135 123.173 10.3902
  1140 77.2035 -3.14980 16.3416
  1141 76.9721 -3.12551 -16.3567
  1142 122.285 78.0803 98.9872
  1143 504.414 -43.0902 -7.04207
  1144 266.199 -13.0550 16.2153
  1145 266.218 -13.1045 -16.4189
  1146 1010.15 216.058 -65.4526
  1147 553.657 -55.5059 -4.57829
  1148 195.093 120.283 186.716
  1149 18.0466 5.64696 -20.4858
  1150 19.3283 5.87312 21.9683
  1151 595.180 74.6028 44.2914
  1152 49.5905 24.8499 -15.5742
  1153 49.9574 24.8638 15.6854
  1154 557.114 -48.9985 -6.79459
  1155 -0.228897 -53.2131 -10.1882
  1156 -0.253842 -53.2105 10.2345
  1157 594.293 -50.2608 -23.6167
  1158 7.33784 0.661425 5.36960
  1159 7.00669 0.666037 -5.37783
  1160 98.2063 35.3872 -43.2643
  1161 98.7243 35.5466 42.9375
  1162 -18.0553 0.0392669 -6.58255
  1163 -17.7232 0.0372155 6.59097
  1164 588.566 -8.67132 0.107141
  1165 -54.8397 1.75492 -0.0363362
  1166 -54.6749 1.75441 0.0775227
  1167 323.106 -25.7960 -38.4365
  1168 8.96404 -64.7609 -11.7812
  1169 173.219 -5.07422 12.0802
  1170 173.136 -5.08818 -12.1833
  1171 505.454 -12.0726 1.19262
  1172 506.381 -11.8300 -1.09801
  1173 9.62856 -61.1006 13.6424
  1174 597.332 -32.1868 -25.0542
  1175 675.995 -3.69178 10.8471
  1176 607.684 -39.2698 -38.5349
  1177 543.182 4.61849 70.5002
  1178 3.50845 -18.3219 13.9665
  1179 3.77145 -18.1558 -13.6959
  1180 396.061 -29.7946 22.4128
  1181 -25.2427 2.72658 13.5424
  1182 -25.1958 2.74872 -13.4992
  1183 997.879 157.020 11.9140
  1184 1136.53 386.360 -270.236
  1185 620.707 -59.4572 30.0374
  1186 269.840 -8.67479 -1.26397
  1187 269.873 -8.58669 1.26518
  1188 1234.49 120.119 -111.948
  1189 106.327 -2.65864 16.9263
  1190 106.133 -2.62125 -16.9734
  1191 587.518 -1.89584 -27.5418
  1192 380.439 -31.1778 43.2113
  1193 613.848 -59.3673 -19.4009
  1194 594.818 -43.6375 -28.2918
  1195 369.667 -12.3350 101.719
  1196 143.071 25.7220 -57.3849
  1197 143.017 25.4986 57.1030
  1198 184.471 69.3040 -121.254
  1199 184.765 64.2862 121.280
  1200 58.5797 15.1004 -22.2729
  1201 58.8976 15.0600 22.3905
  1202 737.692 129.106 -47.1782
  1203 41.8669 39.0166 -21.9411
  1204 42.7672 39.0936 22.2165
  1205 531.136 -41.7571 0.896233
  1206 965.261 161.077 83.5455
  1207 142.407 -5.69778 -11.9204
  1208 142.529 -5.69693 11.8300
  1209 615.720 482.016 -385.801
  1210 512.978 30.9390 -56.4914
  1211 476.118 36.0653 23.2239
  1212 70.1254 27.6597 -26.2239
  1213 70.4411 27.6676 26.3497
  1214 32.6876 -0.163682 3.89830
  1215 32.4463 -0.163479 -3.92559
  1216 586.498 -47.4661 21.9165
  1217 575.396 -24.7403 10.6639
  1218 395.740 123.191 -283.886
  1219 904.127 198.835 -19.8135
  1220 396.397 -11.0142 -111.320
  1221 507.997 -17.8607 -2.43085
  1222 48.1294 -2.41857 -0.816131
  1223 48.2305 -2.41632 0.811777
  1224 -5.07381 4.02381 -10.1357
  1225 -4.81514 4.00836 10.2011
  1226 346.422 4.70651 -116.778
  1227 621.395 -15.2631 13.6893
  1228 411.142 10.0851 156.645
  1229 551.583 -28.9228 -6.39498
  1230 289.345 108.756 -226.332
  1231 446.160 -19.9898 -119.660
  1232 528.957 -56.4372 16.9244
  1233 641.654 -11.0288 24.3472
  1234 563.316 -14.0841 -1.47246
  1235 321.857 -24.2941 38.6217
  1236 705.347 -36.0836 -39.6507
  1237 677.568 61.1381 84.0112
  1238 301.265 1.60187 -93.6993
  1239 658.883 -5.66624 1.32871
  1240 555.355 68.4778 -12.7214
  1241 247.460 -9.22162 -11.7953
  1242 247.438 -9.13910 11.6937
  1243 1007.11 249.911 76.8067
  1244 1347.53 35.7876 61.7772
  1245 1.37340 -64.6021 -10.0295
  1246 1.33242 -64.6629 10.1095
  1247 158.055 86.5186 133.236
  1248 371.390 -12.5647 -3.34058
  1249 371.470 -12.5034 3.47017
  1250 500.247 -50.6529 -20.5055
  1251 603.143 50.6071 76.7132
  1252 615.688 -13.9819 -7.99662
  1253 704.435 -2.50149 -0.791342
  1254 1215.95 274.361 -175.768
  1255 208.904 -8.10507 12.5802
  1256 208.860 -8.11870 -12.7054
  1257 594.935 -55.1212 21.9660
  1258 1023.36 268.288 -96.7425
  1259 576.021 -26.7743 -12.2854
  1260 427.535 -30.9064 -17.2252
  1261 519.972 -56.1599 33.0581
  1262 508.328 -27.1983 -1.53055
  1263 20.7816 15.8790 -29.9551
  1264 689.136 -39.0435 49.8978
  1265 561.181 -37.8964 -11.2633
  1266 22.7566 16.8465 32.4969
  1267 575.263 -42.5176 -113.305
  1268 541.938 40.9136 -232.621
  1269 884.912 123.360 -1.22379
  1270 706.815 -1.19714 -0.161995
  1271 705.721 -1.83671 0.559727
  1272 570.292 -34.5796 13.1016
  1273 227.934 27.1556 -92.6903
  1274 648.291 -55.9657 39.3542
  1275 1085.61 251.805 122.600
  1276 278.624 101.039 220.911
  1277 9.31127 3.91554 13.6263
  1278 9.60218 4.06483 -13.4267
  1279 676.790 -50.4266 -66.1494
  1280 286.104 -16.2879 -19.2517
  1281 286.077 -16.3321 18.9808
  1282 636.154 -40.8057 66.1989
  1283 35.1252 0.0151543 17.5523
  1284 34.8530 0.0275194 -17.5393
  1285 -3.11176 -12.7723 18.1070
  1286 -3.08864 -12.7452 -18.1133
  1287 128.780 -4.32139 -15.4200
  1288 128.934 -4.34556 15.3435
  1289 342.438 -23.1136 -56.5880
  1290 346.344 -12.8704 4.54062
  1291 346.324 -13.1055 -4.41743
  1292 705.213 -1.16953 0.461253
  1293 638.571 -10.5526 -27.5888
  1294 62.8967 2.07649 -22.5290
  1295 63.1595 2.04052 22.5466
  1296 343.784 -24.4006 56.2376
  1297 710.826 -1.20007 0.412340
  1298 674.653 -1.94554 -0.793047
  1299 674.564 -2.35858 0.636345
  1300 900.546 197.443 -5.94021
  1301 660.350 -6.00801 -3.34143
  1302 590.224 -8.31852 -0.309333
  1303 653.269 -11.1224 -13.5500
  1304 702.626 -2.89958 1.60240
  1305 747.384 81.0720 69.2036
  1306 862.632 183.655 7.67335
  1307 687.866 -3.28556 -7.01274
  1308 -5.93946 -1.43333 5.28167
  1309 -5.96392 -1.43250 -5.29866
  1310 394.698 -26.1333 16.3518
  1311 394.632 -25.0600 -15.9791
  1312 754.056 89.5274 -65.0044
  1313 164.544 57.2631 -101.437
  1314 165.591 55.7724 100.445
  1315 523.868 0.256414 -35.2995
  1316 523.872 -10.8904 -1.31397
  1317 523.237 -10.8244 1.20262
  1318 -12.0134 -1.63885 18.3280
  1319 -11.9921 -1.60389 -18.3233
  1320 589.123 -1.56541 27.4762
  1321 882.722 175.312 -9.37279
  1322 80.3159 -2.48375 -9.69770
  1323 80.5089 -2.48937 9.63718
  1324 651.567 -60.6407 16.8440
  1325 3.77477 12.2143 13.2555
  1326 3.96880 12.2865 -13.1293
  1327 138.523 -3.11284 -3.45342
  1328 138.604 -3.07127 3.41248
  1329 523.948 -0.482938 35.8578
  1330 41.8987 1.01795 -1.55126
  1331 42.0423 1.02188 1.53045
  1332 657.276 -8.92814 8.22254
  1333 922.332 166.045 12.0499
</Section>

newXOutput 86

<Section columns = "stress_xx | stress_yy | stress_xy">
  1 728.648 -2.41731 1.33491
  2 729.663 -2.92497 -1.73124
  3 36.2571 0.655712 -1.80835
  4 -0.598712 -0.866107 -0.618157
  5 1293.93 565.676 436.746
  6 1313.81 643.338 -440.494
  7 -0.592629 -0.860718 0.610307
  8 36.1535 0.651960 1.80430
  9 733.266 -1.74612 -1.20422
  10 728.492 -2.90048 -1.81127
  11 729.413 -2.34864 1.34578
  12 726.619 -1.55355 0.340346
  13 725.820 -2.74090 -0.808998
  14 725.687 -2.68046 2.32947
  15 716.954 -2.06785 1.99903
  16 720.571 -5.34350 3.47233
  17 700.883 -4.56063 7.92308
  18 688.957 -2.30586 9.60046
  19 672.064 -2.62922 10.4874
  20 641.943 -2.34875 15.0547
  21 608.551 -1.88412 17.6957
  22 566.217 2.35950 24.6179
  23 507.569 3.69957 22.4541
  24 483.653 0.149360 32.3589
  25 409.431 5.78974 23.1291
  26 363.644 7.41922 18.2547
  27 351.711 4.11935 13.5110
  28 338.917 10.9465 1.05708
  29 345.972 11.6180 -18.1169
  30 359.869 3.56196 -22.6889
  31 416.104 1.90045 -30.1177
  32 472.148 -2.58819 -30.9262
  33 509.650 3.08346 -22.3898
  34 566.803 2.66412 -24.5977
  35 607.118 -2.20781 -19.0001
  36 645.149 -2.52184 -14.1569
  37 669.721 -2.01663 -10.6700
  38 687.011 -2.47771 -8.71316
  39 705.807 -2.70971 -4.91644
  40 712.477 -2.97790 -4.60891
  41 719.133 -2.78198 -4.13605
  42 725.762 -3.11015 -0.487411
  43 728.067 -3.84147 -1.55566
  44 723.481 -0.333879 0.240295
  45 728.548 -2.21020 -1.56417
  46 730.952 -4.07612 1.97455
  47 734.061 -2.43190 -0.0493401
  48 699.981 -0.502787 -1.09979
  49 661.540 -4.29678 -2.01534
  50 617.574 -8.43601 -2.71801
  51 571.686 -7.73431 -1.94086
  52 531.309 -11.1859 -1.76990
  53 488.417 -11.9494 -1.56661
  54 444.916 -10.6347 -0.612729
  55 398.911 -11.0901 -0.932114
  56 359.861 -11.3429 -1.29775
  57 307.697 -10.6122 -0.981321
  58 253.898 -6.87498 -0.628680
  59 209.332 -4.46162 -0.460191
  60 154.259 -2.79469 -0.0341973
  61 114.319 -2.47261 -2.63492
  62 77.3257 -3.13025 -0.782195
  63 39.9706 0.351267 1.82634
  64 29.9256 2.58375 0.866660
  65 26.7301 1.03767 2.02900
  66 27.3239 0.467826 2.11318
  67 18.5318 1.47869 1.25075
  68 14.6183 1.96108 4.26632
  69 11.8658 0.711776 1.98024
  70 -2.83315 1.49604 2.11664
  71 -10.3488 0.991466 4.21280
  72 -14.5685 0.289242 4.49436
  73 -31.2985 1.36739 3.78795
  74 -38.3324 2.08496 6.50935
  75 -46.7227 1.26751 2.99690
  76 -55.4787 0.939025 3.91224
  77 -60.3263 0.983959 2.08017
  78 -69.3463 2.50509 -0.848920
  79 -71.6274 1.71351 -0.575812
  80 -66.4323 1.25399 -1.77069
  81 -57.8302 1.72466 -4.01482
  82 -47.7433 0.828155 -6.61003
  83 -36.1039 0.481060 -7.07665
  84 -21.8605 -0.644538 -7.51944
  85 -9.74627 -0.537842 -4.49449
  86 -4.16304 -1.55889 -2.84947
  87 -0.647116 -4.13078 -2.50701
  88 -1.04457 -10.5562 -4.33564
  89 -1.21046 -20.1202 -7.45594
  90 -0.157853 -37.3792 -7.89565
  91 0.526006 -51.0605 -9.75422
  92 1.12880 -73.0223 -7.87959
  93 3.35537 -85.8073 -9.13381
  94 0.730368 -90.4899 -7.04766
  95 0.00967433 -101.700 -3.32812
  96 2.97837 -94.4143 1.15444
  97 12.3004 -120.570 8.55207
  98 11.8779 -51.3723 23.8988
  99 27.2294 -0.172375 49.0638
  100 78.5689 173.341 139.203
  101 315.550 471.183 367.876
  102 1694.20 188.112 248.398
  103 1435.97 51.2576 89.4766
  104 1370.95 21.8791 30.6489
  105 1335.59 14.1417 -0.178141
  106 1358.46 20.8486 -25.3325
  107 1448.17 43.7297 -73.7696
  108 1676.76 148.003 -230.161
  109 205.849 532.289 -304.121
  110 55.4455 139.403 -109.246
  111 20.1965 -13.1449 -41.6777
  112 10.7923 -58.9507 -21.1141
  113 12.2151 -125.971 -7.21231
  114 2.83576 -96.7837 -0.221382
  115 -0.167386 -102.874 3.81167
  116 0.618524 -90.9319 7.30540
  117 3.29352 -85.8957 9.24144
  118 1.10517 -72.9638 7.91831
  119 0.508322 -50.9762 9.76662
  120 -0.166469 -37.2785 7.88908
  121 -1.21128 -20.0569 7.43849
  122 -1.04678 -10.5029 4.31981
  123 -0.646538 -4.11080 2.49325
  124 -4.13916 -1.55643 2.83783
  125 -9.70351 -0.540379 4.48170
  126 -21.8041 -0.650659 7.51110
  127 -36.0374 0.474108 7.07739
  128 -47.7029 0.820502 6.62249
  129 -57.8386 1.71905 4.04046
  130 -66.4913 1.25339 1.79874
  131 -71.7528 1.71166 0.603472
  132 -69.5278 2.50432 0.877951
  133 -60.5726 0.986326 -2.05430
  134 -55.7743 0.941957 -3.89249
  135 -47.0440 1.27095 -2.98075
  136 -38.6840 2.08913 -6.50156
  137 -31.6624 1.37140 -3.78136
  138 -14.9316 0.291683 -4.49368
  139 -10.7165 0.995766 -4.21694
  140 -3.18758 1.50202 -2.12331
  141 11.5479 0.715686 -1.99401
  142 14.3361 1.96533 -4.28788
  143 18.2824 1.48000 -1.26968
  144 27.1262 0.467075 -2.13190
  145 26.5696 1.03589 -2.04416
  146 29.7905 2.58078 -0.879707
  147 39.8586 0.349060 -1.83413
  148 77.2249 -3.14201 0.774565
  149 114.229 -2.50119 2.62679
  150 154.188 -2.84496 0.0230628
  151 209.286 -4.53410 0.454615
  152 253.860 -6.95864 0.628152
  153 307.649 -10.6839 0.993271
  154 359.771 -11.3768 1.32199
  155 398.772 -11.0407 0.988588
  156 444.732 -10.4638 0.676465
  157 488.170 -11.5515 1.47296
  158 531.548 -11.3064 1.53933
  159 571.871 -8.44906 2.05567
  160 618.038 -8.30742 2.45116
  161 662.774 -3.92328 2.04396
  162 699.001 -0.547409 1.07450
  163 422.047 -38.3890 -41.4640
  164 420.450 -39.0966 41.3607
  165 132.775 35.8051 -57.3961
  166 134.054 35.9240 57.1806
  167 492.728 -21.0081 134.950
  168 515.547 -23.9340 -131.488
  169 253.417 -13.7443 19.7091
  170 253.367 -13.6158 -19.9290
  171 525.276 -20.5244 -1.10385
  172 515.375 -20.5810 1.32367
  173 707.708 126.333 -15.1609
  174 708.439 8.47898 -77.3197
  175 695.551 13.5052 84.5736
  176 178.880 -7.06705 -39.1208
  177 178.918 -7.02256 39.0651
  178 612.552 -60.1291 22.7087
  179 612.269 -47.1246 -36.3694
  180 11.1790 16.2462 11.5083
  181 11.4359 16.3471 -11.3543
  182 836.657 171.857 15.8061
  183 168.359 76.8599 -122.861
  184 180.078 77.5010 131.108
  185 591.632 -29.1110 15.3109
  186 884.542 189.369 0.791123
  187 391.928 -15.9661 -7.22728
  188 391.342 -16.3259 7.19387
  189 606.808 -20.8013 -14.3450
  190 800.530 2.98543 -24.7993
  191 167.071 -5.04923 7.83280
  192 166.994 -5.08688 -7.91559
  193 73.8038 8.13342 -27.5588
  194 74.1165 8.05061 27.6239
  195 349.881 -13.1173 -87.1401
  196 348.529 -13.7948 88.2149
  197 415.869 -28.2496 -17.3335
  198 416.678 -28.0925 18.1293
  199 121.297 -4.19031 21.3129
  200 121.115 -4.13768 -21.3453
  201 791.118 -5.22066 64.9252
  202 653.995 -62.2758 -2.84777
  203 616.985 -8.37324 -1.40543
  204 604.207 -9.87987 1.30828
  205 629.931 74.5627 61.3219
  206 29.4161 28.0130 -14.4749
  207 30.3934 27.9852 14.9107
  208 620.829 -24.3074 71.1663
  209 581.283 45.1851 -71.4718
  210 405.289 100.159 -268.317
  211 426.247 84.8223 249.691
  212 16.3805 14.2370 -5.40110
  213 16.6305 14.2379 5.52398
  214 619.360 -21.2557 -73.7871
  215 1054.15 146.213 -10.9718
  216 514.350 -55.2825 53.5303
  217 517.975 -55.0196 -51.0417
  218 514.034 -37.9903 3.42541
  219 628.020 -11.8261 7.14299
  220 317.124 -22.3066 -35.2411
  221 312.475 -22.2298 36.1394
  222 194.527 3.45198 -57.5804
  223 194.818 3.38618 57.1620
  224 647.724 -66.0559 -17.5921
  225 509.973 -40.2717 -5.67605
  226 625.635 -11.6587 -5.12890
  227 494.272 -15.1092 -1.86947
  228 498.287 -14.2797 2.75168
  229 622.964 -28.4122 38.9085
  230 65.9295 0.255140 -22.8273
  231 66.1817 0.230028 22.8342
  232 -7.12530 -4.53089 -20.5062
  233 -7.16497 -4.58208 20.5206
  234 113.026 -4.49931 -12.5793
  235 113.188 -4.51012 12.5016
  236 276.823 -9.17661 8.90568
  237 276.864 -9.31175 -8.95804
  238 310.765 22.4097 -124.523
  239 310.808 18.8422 123.185
  240 630.912 -20.5409 -33.3394
  241 306.716 -18.2289 -54.7912
  242 306.997 -18.7673 54.1410
  243 569.348 9.76104 81.4206
  244 508.087 43.3828 4.96743
  245 544.697 -54.5874 5.97453
  246 3.38416 -10.5527 -17.0549
  247 3.20071 -10.7011 17.2123
  248 38.2107 45.4917 -47.0328
  249 40.5012 44.2483 49.0335
  250 535.942 -53.4520 -9.44322
  251 946.943 190.649 -31.3913
  252 55.5658 36.4922 -22.8064
  253 56.1850 36.4901 23.0193
  254 -18.0540 4.92351 12.7627
  255 -17.9488 4.94914 -12.6887
  256 949.997 180.519 37.3615
  257 348.411 -17.9709 -15.5413
  258 348.172 -17.7178 15.3227
  259 662.050 -42.8808 62.6090
  260 1168.07 191.022 121.886
  261 211.202 -11.3740 -32.5492
  262 211.191 -11.4538 32.5335
  263 683.695 103.010 -57.0324
  264 1130.83 216.660 -113.607
  265 801.945 86.8576 47.3660
  266 855.602 71.9486 -174.934
  267 543.635 -27.5524 2.86869
  268 623.997 4.70517 -89.6931
  269 584.961 -42.2032 -18.3249
  270 647.607 -12.7064 20.6884
  271 7.59160 6.32054 -10.1848
  272 7.84448 6.30235 10.2748
  273 639.503 -14.4472 -166.798
  274 77.5255 21.9641 -28.4743
  275 77.8752 21.9319 28.6119
  276 626.879 -15.3249 -44.5569
  277 94.7267 107.703 -128.148
  278 95.5991 -0.489182 -2.97978
  279 95.7083 -0.473276 2.94537
  280 660.210 -39.0548 -65.8009
  281 123.410 55.4508 -71.2601
  282 125.134 55.1892 71.4615
  283 48.3537 -1.18354 15.7674
  284 48.0847 -1.17049 -15.7709
  285 542.735 -26.3519 -2.87906
  286 95.3985 106.651 131.270
  287 840.953 84.7132 202.483
  288 250.035 -10.4757 -12.4261
  289 250.016 -10.4195 12.2950
  290 439.070 -20.1543 -7.74228
  291 438.872 -21.6067 8.29335
  292 374.611 39.1205 -184.719
  293 596.075 -64.5054 -0.343568
  294 667.832 -5.62763 2.96692
  295 361.251 39.3551 179.175
  296 421.372 -13.5991 -2.77713
  297 421.221 -13.5945 3.11410
  298 585.987 -43.7702 18.6246
  299 664.837 -8.37000 -8.98191
  300 5.40255 2.42017 -13.0702
  301 5.68548 2.40200 13.1163
  302 846.785 166.649 -3.11238
  303 734.785 -29.8563 26.4600
  304 657.386 -5.23536 -0.521398
  305 667.992 -4.60020 0.475049
  306 662.555 -54.1506 66.9263
  307 816.344 92.6940 -42.3011
  308 726.751 134.652 31.0762
  309 333.422 -21.3282 -23.4682
  310 330.596 -21.6916 23.8371
  311 666.756 -5.57595 -1.59962
  312 449.748 -32.8638 -94.9596
  313 443.937 -36.0471 21.5708
  314 422.925 -21.8773 107.119
  315 660.110 -9.26903 10.9837
  316 166.739 -7.59733 -20.5988
  317 166.868 -7.65039 20.5303
  318 610.947 -14.4157 164.772
  319 398.237 -32.3128 -29.2176
  320 721.851 95.1595 70.2300
  321 237.936 16.5127 -83.2088
  322 229.471 17.2946 82.6312
  323 86.5906 -1.52506 -5.38926
  324 86.7390 -1.51589 5.33474
  325 585.994 -14.2064 2.94040
  326 562.621 -10.6505 -0.328395
  327 559.652 -11.4194 0.156125
  328 622.985 -16.1099 47.3656
  329 70.6680 -2.18237 12.0373
  330 70.4308 -2.16335 -12.0777
  331 197.496 -5.01044 -4.48592
  332 197.539 -4.94158 4.44978
  333 6.85483 -23.3762 -7.52862
  334 6.45828 -23.6060 8.00007
  335 501.876 22.2751 55.7961
  336 741.508 -26.7852 -18.7910
  337 487.688 -27.7923 -3.74008
  338 546.204 -13.5996 -0.318082
  339 587.676 72.7187 -33.3079
  340 125.472 -4.14451 -29.2896
  341 125.645 -4.14910 29.2784
  342 474.940 -26.3489 6.06828
  343 144.256 4.09102 -41.7150
  344 144.536 3.97611 41.6186
  345 31.0853 23.3258 -4.99732
  346 31.4145 23.3290 5.14139
  347 572.116 -59.4821 66.9442
  348 1227.75 80.6116 31.6870
  349 525.364 8.92349 -65.8605
  350 431.555 -38.5123 61.0786
  351 429.379 -37.6819 -62.7175
  352 632.470 -9.12135 88.3152
  353 569.133 -3.46825 64.4256
  354 565.055 -57.4913 -68.8154
  355 346.861 -10.5143 1.79684
  356 346.802 -10.6099 -1.71560
  357 625.139 -40.5448 51.1947
  358 856.003 168.673 -0.321009
  359 664.347 -8.68698 -15.2721
  360 187.920 -7.32737 -15.3180
  361 188.019 -7.33538 15.1998
  362 628.413 -56.0850 -81.6733
  363 668.840 48.8886 -87.0927
  364 467.108 25.1497 -35.9965
  365 629.955 -41.3745 -59.4179
  366 -19.7068 1.07205 -15.7390
  367 -19.7267 1.04562 15.7586
  368 528.839 -15.1237 -1.12090
  369 -7.49431 -4.41065 -9.88414
  370 -7.48356 -4.41135 9.86165
  371 404.205 222.903 -323.295
  372 19.2034 17.7977 5.85820
  373 19.6177 17.9273 -5.63518
  374 565.299 -3.65533 -63.9223
  375 317.116 -14.6677 11.7903
  376 317.309 -14.8383 -11.8832
  377 -1.69907 -21.3586 17.9999
  378 -1.66533 -21.3207 -17.9839
  379 331.453 232.849 305.398
  380 261.484 -14.3320 -43.6156
  381 261.711 -13.7674 43.6481
  382 85.5071 64.8397 -66.8922
  383 87.2095 64.7176 66.5627
  384 -27.3468 5.06931 3.81424
  385 -27.2009 5.07859 -3.73263
  386 647.238 44.9563 88.0941
  387 494.914 -51.8236 33.1908
  388 495.468 -45.8789 17.3227
  389 595.207 -66.4180 -17.6159
  390 158.677 18.9314 -56.7304
  391 159.205 18.9102 56.6679
  392 14.7587 -11.6785 6.38442
  393 14.0316 -12.0008 -5.34727
  394 616.972 87.5525 21.5440
  395 604.257 -19.2601 11.2774
  396 356.409 -28.1823 41.1031
  397 225.916 -6.19237 -51.3799
  398 226.030 -6.23504 51.0621
  399 448.307 -15.8732 -4.32987
  400 447.864 -14.2603 3.95150
  401 353.517 -28.8841 -43.2364
  402 279.058 -5.05689 -67.9338
  403 279.046 -5.42811 68.4423
  404 632.243 -56.9644 -31.8588
  405 376.299 -29.8438 27.5789
  406 574.232 -19.7318 5.17040
  407 572.955 -18.2583 -3.87319
  408 486.743 -45.5820 -18.9884
  409 680.532 -4.46097 -3.21899
  410 239.066 101.228 -188.966
  411 649.156 -10.2333 26.4851
  412 679.497 -4.93240 5.34600
  413 258.723 -14.3678 27.3817
  414 258.797 -14.1838 -27.3642
  415 492.750 -51.2179 -34.0169
  416 76.9776 32.6265 30.8092
  417 76.5825 32.5953 -30.8205
  418 1239.39 80.5475 -64.3529
  419 564.759 -33.8517 -8.37079
  420 683.386 -3.89074 1.84874
  421 226.427 95.1212 180.680
  422 1016.68 170.230 36.9073
  423 600.516 -11.5220 -2.19585
  424 458.248 -34.5544 -15.3641
  425 197.477 38.0353 -93.5030
  426 210.002 35.1790 92.9367
  427 558.568 -36.8280 8.15345
  428 598.082 -7.54006 -46.8197
  429 8.85897 -0.654171 11.9424
  430 8.55515 -0.648137 -11.9303
  431 221.442 54.2241 -123.116
  432 222.149 54.4081 122.758
  433 33.0697 12.1039 -14.9054
  434 33.3500 12.0810 15.0176
  435 502.145 -12.4436 -0.141034
  436 501.547 -12.1941 0.297946
  437 622.322 -28.9824 -40.7961
  438 -0.317700 -0.0497410 20.9355
  439 -0.205495 0.0537826 -20.8532
  440 639.933 -61.6449 26.2150
  441 603.241 -18.2110 -9.65954
  442 971.493 185.486 -36.1557
  443 59.0714 -1.88131 5.87004
  444 58.8554 -1.88159 -5.91690
  445 1151.58 338.010 160.487
  446 25.8275 26.4635 -42.5277
  447 84.6175 3.24238 -28.9562
  448 84.8838 3.18599 28.9650
  449 1150.99 346.610 -157.687
  450 27.3531 29.0784 46.1061
  451 -24.6967 3.72375 -0.713003
  452 -24.5057 3.71888 0.791595
  453 71.3317 48.9955 -41.6890
  454 72.4893 49.0420 41.8915
  455 767.778 123.439 -54.4350
  456 613.851 -25.3154 -24.7974
  457 680.119 -3.92959 -1.50886
  458 642.259 -10.3460 -31.4437
  459 -5.47636 5.83603 18.9342
  460 -5.36184 5.90393 -18.8551
  461 620.453 -26.1315 29.6786
  462 411.599 -24.7626 -14.0341
  463 410.418 -24.9834 12.7450
  464 550.300 -60.3376 -18.0539
  465 397.125 -3.89993 -129.686
  466 603.189 -9.03092 47.6901
  467 491.459 -18.3643 3.31032
  468 711.364 -48.4304 -20.9498
  469 385.058 5.37945 138.597
  470 45.7854 -0.707197 11.5179
  471 45.5085 -0.695675 -11.5343
  472 791.003 156.121 -22.0225
  473 621.889 -6.95844 -0.302134
  474 619.889 -7.58420 -0.228028
  475 479.994 -33.5822 9.75113
  476 223.445 -7.97776 -8.84800
  477 223.458 -7.89788 8.76710
  478 134.926 -2.07128 -34.6347
  479 135.096 -2.09683 34.5887
  480 426.199 16.5000 21.6594
  481 117.555 -3.76542 17.0808
  482 117.378 -3.73192 -17.1457
  483 117.815 10.2285 39.2207
  484 117.435 10.3793 -39.1781
  485 611.165 -47.4498 34.7420
  486 350.540 -21.9370 -64.3388
  487 327.152 -12.0014 6.65110
  488 327.248 -12.2449 -6.65512
  489 354.113 -22.5998 64.3503
  490 945.827 229.637 -34.0731
  491 -15.0802 -2.12443 -12.5645
  492 -15.0691 -2.13651 12.5552
  493 254.683 -7.94829 -3.77643
  494 254.703 -7.84968 3.76568
  495 0.577087 -38.7567 -14.1707
  496 0.477069 -38.8857 14.3058
  497 556.060 -11.0145 -0.277470
  498 424.131 19.7075 -10.7406
  499 552.157 57.5666 30.2547
  500 347.386 -2.69714 -104.963
  501 181.093 -9.31403 25.6992
  502 181.045 -9.23795 -25.7277
  503 -34.2424 1.26056 -4.92923
  504 -33.9760 1.25249 4.96717
  505 661.794 -9.96417 -85.9796
  506 74.5267 0.218486 -3.83052
  507 74.6621 0.226653 3.79113
  508 550.893 -44.4242 -4.49646
  509 585.804 -50.3539 -16.6206
  510 126.108 101.008 -131.953
  511 492.602 18.4577 -198.997
  512 10.5093 16.0697 6.07261
  513 10.7518 16.1073 -5.93550
  514 312.582 -15.4895 -16.1440
  515 312.453 -15.3687 15.8860
  516 833.361 44.9094 -2.68890
  517 608.293 -36.7187 -31.8899
  518 123.083 96.1407 130.253
  519 602.350 -66.5888 27.1160
  520 580.674 -55.3101 10.5711
  521 141.537 -3.41042 -11.3010
  522 141.650 -3.39942 11.2133
  523 496.128 5.99732 51.1471
  524 354.146 -26.9012 -28.6962
  525 637.403 -15.7417 17.8769
  526 -2.45592 -15.5495 -12.2849
  527 -2.46189 -15.5342 12.2645
  528 455.093 -39.5389 71.7851
  529 681.700 -49.2746 -38.2408
  530 876.264 74.8624 -48.5486
  531 486.000 -18.8946 -3.36372
  532 162.112 -3.15349 -3.20136
  533 162.178 -3.10309 3.17718
  534 313.794 3.05735 101.463
  535 847.010 149.187 28.4085
  536 839.198 196.733 -308.779
  537 770.662 10.8329 33.0106
  538 560.719 -61.8549 15.2048
  539 1275.33 101.785 86.7220
  540 964.770 243.132 45.4578
  541 152.534 -6.46814 27.9289
  542 152.401 -6.40743 -27.9591
  543 539.912 -45.6693 1.05054
  544 47.0710 20.1247 -14.8184
  545 47.3876 20.1194 14.9489
  546 673.581 -53.5030 38.5089
  547 567.261 31.7291 74.6517
  548 673.321 -5.17869 10.1764
  549 506.495 -32.0957 -2.56789
  550 694.254 17.2569 -209.693
  551 1082.17 308.390 213.819
  552 544.569 -13.3515 0.599059
  553 663.822 -7.61190 -17.1399
  554 113.087 46.2941 -54.7745
  555 113.882 45.7517 54.5760
  556 391.050 -17.4857 -9.53109
  557 390.889 -17.1285 9.66395
  558 5.32847 -37.9046 -9.78771
  559 682.066 -21.4849 74.5488
  560 30.5330 26.3186 -2.61806
  561 30.9577 26.3967 2.82264
  562 6.12681 -36.2289 11.2584
  563 623.514 -28.0317 -62.0028
  564 715.905 48.7954 -80.7000
  565 713.970 54.9492 80.8812
  566 37.6648 36.9456 33.0919
  567 35.9144 37.6249 -32.5233
  568 -7.92156 0.558572 9.25014
  569 -8.22895 0.565076 -9.23065
  570 648.672 26.8081 215.558
  571 369.056 -21.7077 17.1018
  572 369.398 -21.6353 -17.3096
  573 778.660 -3.28194 -117.554
  574 122.188 -1.70167 6.53104
  575 122.083 -1.72412 -6.59022
  576 69.9624 -1.25201 -1.49162
  577 70.0714 -1.24376 1.47776
  578 863.088 164.579 -19.2928
  579 86.2651 148.812 -143.663
  580 477.259 10.2341 -43.4707
  581 655.454 104.113 -36.1949
  582 11.3729 3.61009 10.2174
  583 11.7680 3.76093 -9.95387
  584 628.982 327.403 358.761
  585 553.100 -17.7931 -1.37346
  586 28.8824 5.57925 -16.5189
  587 29.1608 5.53954 16.5915
  588 639.613 -50.3210 49.8254
  589 101.524 144.743 146.265
  590 465.459 -12.3280 1.29803
  591 465.592 -12.2470 -1.29965
  592 -0.183646 -31.3941 15.2798
  593 -0.133968 -31.3454 -15.2295
  594 791.570 152.347 -1.26825
  595 502.182 -38.5516 98.8239
  596 480.748 -22.6989 -4.97919
  597 480.408 27.5433 209.605
  598 -38.2208 2.22747 8.83728
  599 -38.1848 2.23953 -8.79726
  600 779.610 16.9878 -36.0718
  601 1015.72 197.002 -157.856
  602 306.162 32.7876 -143.227
  603 174.712 -7.55736 -33.7594
  604 174.891 -7.56223 33.7746
  605 698.262 -3.09525 2.40156
  606 476.340 -23.1276 4.45571
  607 626.068 -10.6221 4.89625
  608 623.463 -28.1481 60.4352
  609 45.5345 -1.07426 5.89897
  610 45.2801 -1.06992 -5.93318
  611 376.950 -14.8820 -5.69395
  612 376.910 -14.5392 5.58108
  613 239.298 4.86251 -69.9375
  614 237.847 4.93618 69.6853
  615 880.306 66.6962 69.1877
  616 1403.73 105.893 -152.200
  617 3.11383 -0.950792 7.95414
  618 2.78944 -0.947927 -7.94888
  619 231.209 -10.0864 16.0913
  620 231.169 -10.0721 -16.2560
  621 826.471 54.3331 13.9713
  622 688.800 -3.71414 -0.758424
  623 687.408 -4.75029 0.164760
  624 525.096 0.377875 50.5178
  625 726.917 -36.4111 -76.0213
  626 406.545 -34.0263 34.0463
  627 -5.12889 9.62510 -6.13728
  628 -5.31026 9.60762 6.24453
  629 645.342 15.2253 91.8302
  630 265.050 -15.6843 -35.6465
  631 264.840 -15.9305 35.7094
  632 523.551 -31.9818 0.641950
  633 639.821 -15.3955 -16.0760
  634 375.804 -30.2943 -48.2923
  635 615.341 74.4866 -55.8926
  636 412.929 -28.0256 -81.6889
  637 166.855 -4.46584 -6.07765
  638 166.921 -4.41971 6.01675
  639 379.488 -30.7807 48.5719
  640 797.686 132.820 46.4291
  641 637.802 -29.7433 76.2620
  642 522.025 -25.3202 0.0953878
  643 380.771 -12.0214 3.07997
  644 380.678 -12.0400 -3.01158
  645 292.800 -11.9177 -11.7421
  646 292.717 -11.8072 11.6497
  647 611.728 -55.7190 -25.2182
  648 320.481 -19.0562 20.3733
  649 320.791 -18.9796 -20.6812
  650 626.872 95.8033 -7.38427
  651 565.590 -31.3339 8.78686
  652 695.567 -4.01988 -4.02252
  653 607.796 -10.0190 -81.7677
  654 101.038 -4.22287 22.5014
  655 100.834 -4.19435 -22.5095
  656 681.567 -4.59136 -9.27587
  657 129.816 67.9078 -94.6061
  658 131.969 67.7794 95.0526
  659 696.960 -36.1723 100.099
  660 249.305 63.8739 150.878
  661 72.8322 -0.657560 22.4773
  662 72.5957 -0.643184 -22.4775
  663 597.201 -34.6614 125.467
  664 583.451 96.5174 -281.800
  665 586.658 19.8246 -82.2856
  666 761.816 139.065 41.7707
  667 513.573 -24.8694 2.16511
  668 916.234 162.428 -3.95526
  669 -37.8702 2.13392 -3.76285
  670 -37.6474 2.12906 3.81476
  671 412.462 4.00737 -150.573
  672 49.2868 -0.642817 4.41629
  673 49.0864 -0.644365 -4.45257
  674 513.862 -41.5065 -97.8585
  675 178.577 23.8211 -67.8770
  676 177.241 23.9288 67.8563
  677 9.98121 8.82885 -7.26290
  678 10.2258 8.81998 7.37170
  679 440.879 -38.7838 -27.3465
  680 619.559 -6.14656 -31.1296
  681 305.587 -10.5600 -4.08975
  682 305.615 -10.4628 4.11515
  683 225.769 -11.8269 -23.4282
  684 225.961 -11.9818 23.3645
  685 44.5873 36.5572 -17.6312
  686 45.2706 36.6488 17.8701
  687 624.387 -9.52601 1.74167
  688 291.643 -19.0977 30.2677
  689 293.371 -18.7910 -30.2553
  690 694.375 -52.1055 3.35205
  691 576.834 -58.0063 -4.28244
  692 457.410 -15.1803 -2.56581
  693 455.892 -14.3368 2.75159
  694 632.165 -64.2655 44.2870
  695 1017.04 207.002 62.2761
  696 556.512 -20.7099 -153.317
  697 636.566 -18.5817 30.6688
  698 637.235 -22.2842 -82.5410
  699 212.688 -6.97441 -11.3786
  700 212.717 -6.93088 11.2701
  701 496.763 -4.67276 170.935
  702 1335.60 173.709 158.442
  703 103.255 28.7874 -41.3910
  704 103.414 28.9859 41.5187
  705 621.783 -8.18082 -0.772313
  706 626.439 -7.48050 0.813944
  707 271.126 147.106 -239.775
  708 664.309 -4.31332 17.3675
  709 575.169 -12.2422 0.519127
  710 767.853 150.764 -14.7448
  711 86.7188 14.0635 -30.7097
  712 87.0784 13.9793 30.8178
  713 702.098 -2.55054 0.179861
  714 580.200 -24.2501 -9.35817
  715 721.971 -7.16733 62.5488
  716 306.585 -21.8422 -45.6990
  717 307.341 -20.9538 45.3410
  718 83.4675 -2.54769 17.0082
  719 83.2413 -2.51773 -17.0404
  720 648.250 -6.23223 -2.05122
  721 560.047 123.736 297.785
  722 6.00705 6.86701 16.0047
  723 6.22076 7.00168 -15.8586
  724 651.618 -8.64579 -6.67254
  725 634.671 -13.3972 9.71298
  726 522.898 1.02154 -54.1815
  727 5.39917 -53.1283 -5.11330
  728 5.08208 -53.7013 5.69375
  729 240.041 66.0214 -151.003
  730 513.391 -50.3658 -72.8412
  731 269.863 145.600 241.769
  732 694.468 -2.72210 1.23147
  733 691.274 104.193 57.0924
  734 518.160 46.7149 -21.1507
  735 892.490 179.735 8.91779
  736 689.037 -3.77209 5.66289
  737 -32.3221 0.992640 6.67177
  738 -32.6191 0.997971 -6.64631
  739 736.897 -36.6013 31.4919
  740 484.968 -16.2714 -3.24095
  741 185.717 -0.260178 -49.4550
  742 185.975 -0.434772 49.2255
  743 633.003 -9.32699 -3.08516
  744 1108.74 156.582 -59.9977
  745 93.2685 -2.47705 -11.1137
  746 93.4662 -2.49072 11.0539
  747 699.377 -2.77609 -2.41530
  748 157.861 -6.90030 -15.4122
  749 157.986 -6.92424 15.3225
  750 696.050 -24.8437 -65.7028
  751 644.489 -7.11465 24.6076
  752 587.642 -2.73704 81.3844
  753 699.057 -2.86951 0.393081
  754 658.202 -6.66672 4.87454
  755 442.034 -25.3993 -9.70159
  756 546.291 -16.6804 0.395878
  757 622.239 -38.3044 -49.9228
  758 606.120 -38.7921 30.3390
  759 714.501 88.6963 -71.3940
  760 597.394 -34.6643 21.2761
  761 633.168 -36.7794 65.1842
  762 374.883 -26.3941 22.0579
  763 14.8193 2.33450 3.51914
  764 14.1115 2.27983 -2.84687
  765 551.649 -10.8375 -0.490236
  766 550.529 -10.7819 0.293536
  767 652.977 -4.71635 -0.111898
  768 655.071 -4.60580 0.254448
  769 632.328 -18.2694 38.4689
  770 582.733 -50.9320 93.3129
  771 483.741 -40.2560 14.0627
  772 432.149 -27.2918 12.9423
  773 1129.15 144.096 68.2788
  774 636.328 -17.3259 -23.4393
  775 378.260 70.6213 -224.115
  776 593.298 -30.7138 -18.0288
  777 34.8212 0.303509 -16.8157
  778 35.0998 0.282011 16.8432
  779 547.640 48.1772 -47.3389
  780 1296.93 39.3355 -16.5680
  781 672.018 19.6527 -88.6965
  782 28.6492 37.7270 -60.2003
  783 697.933 124.340 14.3991
  784 538.631 -35.7247 2.06779
  785 609.392 -14.3135 79.1606
  786 510.943 -52.4999 73.2241
  787 798.190 6.92012 141.472
  788 30.8160 43.8714 63.8578
  789 373.853 -1.24372 119.114
  790 514.656 -15.6659 1.39192
  791 572.036 -48.8173 -94.3570
  792 360.012 -28.6340 -35.2078
  793 285.498 14.0255 -105.279
  794 665.000 -8.25398 86.8271
  795 431.656 -30.6419 18.8047
  796 100.047 -2.54334 9.62486
  797 99.8874 -2.54571 -9.69474
  798 621.385 -3.59512 27.5045
  799 571.419 3.85038 -79.5586
  800 -46.7634 2.31957 5.07460
  801 -46.6927 2.32447 -5.02986
  802 420.429 -15.1715 -4.06091
  803 419.298 -14.4782 3.91750
  804 313.708 36.5407 145.098
  805 285.585 -17.3039 23.3665
  806 285.931 -16.9135 -23.5576
  807 698.522 -2.23076 -1.10107
  808 258.077 20.7059 102.889
  809 25.7420 -0.237576 6.14030
  810 25.4396 -0.232522 -6.15939
  811 614.382 -18.6803 60.6912
  812 642.939 -7.29461 1.45822
  813 -34.3644 0.575844 9.20737
  814 -34.3759 0.587666 -9.18862
  815 407.539 -24.9447 90.8845
  816 82.9092 72.9628 -81.7895
  817 83.8649 69.9880 80.6810
  818 406.778 17.6535 8.98668
  819 8.90462 -0.526251 -6.99661
  820 9.23456 -0.530329 6.99400
  821 466.109 -43.6393 -68.8229
  822 628.829 -64.6799 -10.7893
  823 -3.21155 -3.03997 -4.09202
  824 -3.20144 -3.03221 4.07623
  825 55.5178 0.989610 -1.54255
  826 55.6438 0.995286 1.52165
  827 561.662 -50.5141 5.80123
  828 476.218 -48.4356 50.3706
  829 522.958 -11.4020 -0.311425
  830 475.213 -39.3407 -15.7215
  831 189.274 -3.55840 -1.35680
  832 189.326 -3.49240 1.34188
  833 -51.9930 1.14232 2.47839
  834 -51.8738 1.14106 -2.43375
  835 585.837 -10.0112 -0.930411
  836 537.969 22.0159 -68.1248
  837 593.108 -14.0047 -4.37564
  838 360.796 -28.2221 33.7605
  839 597.266 -10.0102 -64.9798
  840 631.606 -19.7987 -39.7094
  841 588.014 -8.95025 0.782548
  842 436.993 -15.0923 121.949
  843 466.955 -45.9731 -31.4253
  844 287.174 -2.18962 -82.0857
  845 288.691 -0.198686 82.5091
  846 401.399 -31.0684 -23.8908
  847 661.226 73.1713 76.0485
  848 618.416 -61.9421 -56.3135
  849 238.146 -8.07421 -5.93689
  850 238.154 -7.97282 5.89318
  851 477.445 -13.3089 1.83483
  852 477.477 -13.3974 -1.74221
  853 574.232 -4.03447 -42.7718
  854 204.890 -8.87312 -18.9844
  855 205.020 -8.93630 18.8611
  856 2.55970 -55.9250 -10.2531
  857 2.43591 -56.1707 10.4937
  858 115.848 -1.64573 -0.0220333
  859 115.757 -1.67399 0.00411887
  860 582.105 -11.5311 -1.24877
  861 450.150 -42.9845 45.9420
  862 686.657 -55.8582 10.3655
  863 429.402 8.96450 34.3918
  864 595.363 -16.1688 5.17575
  865 652.547 -56.8270 -35.7542
  866 104.744 5.76708 -34.1307
  867 105.045 5.66845 34.1295
  868 520.420 -12.0382 0.310287
  869 425.220 -16.7782 -6.61969
  870 423.842 -16.6582 7.00016
  871 656.910 102.008 40.8465
  872 234.790 -2.78666 -58.8665
  873 234.616 -3.04773 58.6599
  874 454.333 -41.7253 26.1359
  875 48.9257 30.1076 -15.5495
  876 49.3680 30.0604 15.6832
  877 386.657 -27.2894 75.2487
  878 460.353 -30.8220 -10.6852
  879 577.163 -4.18941 43.2091
  880 560.171 -62.2338 30.0233
  881 640.586 -47.6625 -54.5183
  882 449.046 -43.3301 -46.4647
  883 377.433 -26.3043 -21.2776
  884 1174.16 95.7412 -18.5060
  885 586.015 -61.6415 0.216327
  886 20.7733 20.9921 2.75578
  887 21.0870 21.0380 -2.58814
  888 512.223 -51.6436 18.1211
  889 559.158 -61.7240 -45.8752
  890 23.1056 17.7418 -3.61769
  891 23.3839 17.7520 3.74831
  892 221.536 -8.29581 45.5087
  893 221.626 -8.51915 -45.7278
  894 265.138 -13.7749 49.7454
  895 265.013 -14.0759 -50.0233
  896 808.183 161.837 16.0244
  897 -1.06642 -24.9425 -11.7857
  898 -1.07467 -24.9070 11.7747
  899 194.647 15.8007 -64.6835
  900 193.765 15.4942 64.1411
  901 1338.12 43.3409 -66.6703
  902 47.8994 -0.207991 2.56852
  903 47.7314 -0.212404 -2.59712
  904 2.82591 -59.9804 0.899408
  905 3.24016 -58.8446 0.0610597
  906 -26.6820 -0.226149 9.72179
  907 -26.7170 -0.217602 -9.72001
  908 155.999 45.4048 -75.6871
  909 158.370 43.8935 74.7285
  910 -10.4854 1.25350 -19.8454
  911 -10.5428 1.20435 19.8807
  912 52.8045 3.63529 -22.8816
  913 53.0884 3.58666 22.9204
  914 172.667 -2.47430 42.1838
  915 172.525 -2.46527 -42.3516
  916 144.194 -5.13739 -34.2188
  917 144.356 -5.13093 34.1847
  918 685.943 -3.08562 -9.36644
  919 342.535 77.4777 209.395
  920 471.425 -46.8340 29.9412
  921 341.073 -25.1240 27.8078
  922 647.684 67.9888 -75.6252
  923 1316.46 27.9195 26.8826
  924 754.236 39.2851 -65.9613
  925 140.715 -5.31412 21.6736
  926 140.557 -5.25731 -21.7347
  927 35.5377 -0.860547 -15.9526
  928 35.8163 -0.867602 15.9593
  929 0.420689 -10.1825 -21.2094
  930 0.320769 -10.2828 21.2824
  931 352.348 -16.7738 13.2977
  932 352.508 -17.0620 -13.3419
  933 49.8162 11.2981 -21.2340
  934 50.1158 11.2503 21.3339
  935 220.537 -10.1842 -39.0382
  936 220.703 -10.1894 39.0272
  937 471.468 -1.28504 -40.3371
  938 228.177 -12.6580 -27.8110
  939 228.061 -12.5402 27.8952
  940 524.517 -16.9630 1.69832
  941 635.319 -35.3431 -70.5469
  942 288.959 -12.5056 13.6669
  943 289.066 -12.6045 -13.8058
  944 -11.7252 -1.18654 -7.07989
  945 -11.6911 -1.18934 7.06342
  946 641.051 -44.8893 -113.885
  947 618.071 -36.5647 42.7129
  948 543.741 -39.1853 -4.08374
  949 543.914 19.5864 71.6669
  950 252.374 -14.5688 -31.1588
  951 252.411 -14.3174 31.2436
  952 600.960 24.4072 85.6356
  953 566.831 49.8980 56.4983
  954 1103.90 131.526 23.8265
  955 575.394 -22.5218 5.92977
  956 315.118 -10.5417 -6.21175
  957 315.096 -10.3698 6.25205
  958 519.344 -43.4760 5.25230
  959 722.231 132.077 -32.8013
  960 624.537 -8.71824 -1.85828
  961 421.271 -12.3531 2.09048
  962 421.124 -12.2740 -1.97730
  963 57.2682 49.6349 -38.9550
  964 58.6285 49.5889 39.2065
  965 99.5531 290.949 -231.419
  966 598.537 -13.5282 64.5216
  967 733.186 -9.15545 -53.8941
  968 -7.46526 7.36417 1.11717
  969 -7.26519 7.36506 -1.01452
  970 1433.14 352.394 -276.707
  971 629.488 -66.8527 -2.92324
  972 668.771 -58.5588 -37.5109
  973 621.129 -52.7940 36.7192
  974 773.981 151.001 12.0486
  975 59.4698 69.6040 -76.7307
  976 142.918 254.815 229.856
  977 -2.89460 -7.51704 21.6418
  978 -2.83295 -7.44339 -21.6063
  979 601.085 -17.2650 6.91443
  980 963.000 168.759 -24.1387
  981 61.1001 68.2863 79.4017
  982 -2.60326 -9.16876 -7.87336
  983 -2.60326 -9.14179 7.85144
  984 519.417 -14.4234 -1.67936
  985 394.616 -31.8802 -36.8917
  986 626.201 -48.9780 -45.3631
  987 185.622 50.1372 -97.9904
  988 188.519 50.9385 98.2321
  989 612.512 -14.9977 -57.0074
  990 610.126 -20.8950 15.3095
  991 -14.5897 4.82616 16.9407
  992 -14.5080 4.87070 -16.8810
  993 376.937 -24.7198 -71.1395
  994 622.755 41.2890 -85.1683
  995 460.703 -19.2478 4.89972
  996 338.692 -11.0177 1.38451
  997 338.623 -11.0754 -1.34790
  998 -6.61967 -7.55195 -16.0554
  999 -6.62839 -7.56812 16.0392
  1000 618.432 -23.3937 -19.6957
  1001 586.621 -8.83840 0.133344
  1002 586.091 -8.84900 0.0896414
  1003 814.773 137.641 -40.9381
  1004 156.944 12.7939 -51.9603
  1005 157.334 12.5406 51.8738
  1006 106.359 -1.30749 -28.6741
  1007 106.562 -1.32734 28.6564
  1008 676.936 38.7169 89.7312
  1009 631.669 -13.5551 -10.2030
  1010 121.217 18.0642 -43.2712
  1011 121.684 17.9362 43.4231
  1012 654.040 -5.17101 -1.20242
  1013 619.369 -27.6636 -31.6600
  1014 604.926 -66.5422 -35.2444
  1015 26.0222 24.1751 4.94179
  1016 25.3701 24.0622 -4.64407
  1017 -26.6593 5.12317 9.26205
  1018 -26.5530 5.13832 -9.18854
  1019 394.564 14.3077 -15.0075
  1020 1032.62 263.704 -84.1167
  1021 483.056 -36.4303 -9.12162
  1022 325.114 -14.2504 -72.9364
  1023 760.068 -24.8827 -6.24242
  1024 326.367 -14.2072 73.8921
  1025 551.930 -62.9555 52.0445
  1026 625.149 -26.0023 -50.2695
  1027 229.092 -5.91113 -1.89402
  1028 229.130 -5.82662 1.88505
  1029 432.560 -34.7148 -21.9439
  1030 271.069 -10.4813 -57.8985
  1031 271.005 -10.5595 57.6595
  1032 92.4865 61.1510 -63.4768
  1033 93.8860 61.0223 63.6654
  1034 196.012 -6.40689 -6.63461
  1035 196.053 -6.33857 6.57086
  1036 554.567 -19.6655 1.72685
  1037 470.714 5.08135 -172.679
  1038 574.122 -20.5717 -6.08840
  1039 522.527 -57.4471 -34.2657
  1040 351.589 -16.0637 9.48444
  1041 351.848 -16.1688 -9.50194
  1042 662.781 -5.58317 1.52698
  1043 598.693 -16.1915 -6.43495
  1044 413.127 10.3033 28.4328
  1045 645.312 -6.53299 -22.9458
  1046 256.443 77.7642 170.198
  1047 661.480 -6.50653 -18.5235
  1048 182.054 30.1863 -75.1751
  1049 176.931 30.4996 72.3768
  1050 784.881 -6.41695 4.01627
  1051 78.1663 39.5723 -35.4214
  1052 78.8480 39.3061 35.4298
  1053 14.0228 3.83336 2.91434
  1054 14.6418 3.95658 -2.50810
  1055 120.896 -3.04496 7.79582
  1056 120.772 -3.06198 -7.86945
  1057 290.295 78.5735 -187.310
  1058 1473.40 403.201 297.910
  1059 616.733 -23.3597 20.1830
  1060 556.837 -61.8541 -27.7853
  1061 393.157 -32.4092 -56.4609
  1062 -5.21515 9.47954 13.5684
  1063 -5.06408 9.53092 -13.4660
  1064 441.482 -24.3383 8.24785
  1065 484.003 -19.9987 3.78956
  1066 -0.141244 -35.2126 11.2365
  1067 -0.129445 -35.2550 -11.2358
  1068 78.1516 47.7750 -41.3360
  1069 79.0300 47.7067 41.5611
  1070 435.930 -22.5662 -7.95390
  1071 40.7363 16.2050 15.0857
  1072 40.4418 16.2220 -14.9620
  1073 657.935 -24.1722 82.0115
  1074 479.576 -49.3476 -50.1188
  1075 395.421 -32.9216 56.4659
  1076 630.221 -10.9603 -88.0105
  1077 652.487 -8.68936 7.37067
  1078 246.928 38.5281 116.440
  1079 248.676 36.8452 -114.580
  1080 391.863 -18.3289 -98.5795
  1081 546.104 -21.5724 -1.40562
  1082 449.413 -28.4056 12.8069
  1083 522.787 -49.3807 -9.26001
  1084 701.782 -3.11776 -4.41940
  1085 393.059 -19.5327 11.2099
  1086 392.894 -20.5435 -11.4038
  1087 15.7654 17.7578 9.05289
  1088 16.0871 17.8816 -8.86628
  1089 637.036 25.3196 -91.3522
  1090 151.619 6.90514 -46.2374
  1091 152.021 6.74828 46.1422
  1092 117.274 1.64009 -33.8904
  1093 117.527 1.58065 33.8519
  1094 710.751 -20.2275 141.384
  1095 624.103 -28.9337 49.2134
  1096 314.070 -14.6760 -62.6966
  1097 710.542 -3.31313 -2.60402
  1098 813.762 155.867 -30.1701
  1099 650.569 -7.79958 -4.16772
  1100 617.008 -65.5060 10.7065
  1101 461.520 -33.9827 87.5861
  1102 713.330 -1.52216 0.197109
  1103 412.398 12.6973 -24.0619
  1104 526.311 -56.2631 -20.2529
  1105 314.600 -15.3177 62.1180
  1106 530.989 -48.9622 6.25973
  1107 653.843 -10.5310 15.4251
  1108 493.140 31.2519 37.0900
  1109 337.091 -25.1198 -51.0679
  1110 971.739 157.326 -77.0131
  1111 745.892 38.2784 70.3240
  1112 575.147 71.5509 8.95482
  1113 708.509 -0.510656 2.07489
  1114 295.193 -18.9018 -40.0310
  1115 200.099 129.509 -189.309
  1116 353.792 10.9574 -137.156
  1117 405.940 -32.0491 27.5188
  1118 345.525 -26.2147 48.3492
  1119 294.568 -18.0318 40.3752
  1120 607.734 6.78458 89.6747
  1121 457.708 -18.0171 -4.33067
  1122 700.875 -5.74588 6.30279
  1123 -4.37026 0.690932 21.2361
  1124 -4.28493 0.766702 -21.1808
  1125 477.951 -15.9021 2.87727
  1126 1.54131 7.06406 18.1062
  1127 1.69725 7.16490 -17.9969
  1128 279.633 -9.67032 7.17767
  1129 279.635 -9.79883 -7.18380
  1130 667.020 -3.92160 15.3624
  1131 540.525 -34.5349 -2.72972
  1132 507.654 -28.8760 2.89326
  1133 565.529 -40.6069 11.3650
  1134 178.910 91.8104 -143.427
  1135 553.409 -22.9567 3.00972
  1136 94.3849 1.17169 -28.0639
  1137 94.6262 1.13032 28.0574
  1138 121.650 80.1395 -103.537
  1139 874.490 124.757 10.0970
  1140 78.4442 -3.19083 16.5962
  1141 78.2096 -3.16625 -16.6112
  1142 123.803 79.0956 100.323
  1143 510.099 -43.5979 -7.29383
  1144 269.478 -13.2297 16.4831
  1145 269.497 -13.2797 -16.6886
  1146 1021.04 218.446 -66.3665
  1147 559.843 -56.1265 -4.83550
  1148 197.407 121.856 189.039
  1149 18.2958 5.95494 -20.8611
  1150 19.5922 6.18380 22.3599
  1151 602.127 75.4767 44.6571
  1152 50.2982 25.1587 -15.8821
  1153 50.6695 25.1729 15.9947
  1154 563.334 -49.5591 -6.67636
  1155 -0.230667 -53.7839 -10.2889
  1156 -0.255879 -53.7810 10.3357
  1157 600.899 -50.8211 -23.6644
  1158 7.85330 0.667371 5.45150
  1159 7.51770 0.672034 -5.45977
  1160 99.4859 35.8202 -43.9217
  1161 100.010 35.9817 43.5915
  1162 -17.9316 0.0390540 -6.68336
  1163 -17.5953 0.0369847 6.69195
  1164 594.978 -8.82093 0.131739
  1165 -55.3334 1.77477 -0.0622232
  1166 -55.1667 1.77427 0.103925
  1167 326.938 -26.1124 -39.0209
  1168 9.08046 -65.1455 -12.0110
  1169 175.553 -5.14467 12.2742
  1170 175.468 -5.15874 -12.3782
  1171 511.096 -12.2657 1.21710
  1172 512.033 -12.0207 -1.12154
  1173 9.75341 -61.4444 13.8935
  1174 603.949 -32.5692 -25.1637
  1175 683.329 -3.74620 10.9168
  1176 614.436 -39.7139 -38.7616
  1177 549.539 4.68973 71.1267
  1178 3.56543 -18.4386 14.0580
  1179 3.83138 -18.2706 -13.7845
  1180 400.652 -30.1646 22.8051
  1181 -25.4871 2.76452 13.6689
  1182 -25.4398 2.78694 -13.6253
  1183 1008.67 158.681 12.0739
  1184 1148.10 391.077 -273.468
  1185 627.590 -60.0922 30.1243
  1186 273.177 -8.79935 -1.28906
  1187 273.211 -8.71037 1.29029
  1188 1247.25 121.373 -113.137
  1189 107.907 -2.69454 17.1887
  1190 107.710 -2.65672 -17.2362
  1191 594.222 -1.91677 -27.7766
  1192 384.860 -31.5508 43.8624
  1193 620.651 -60.0028 -19.3757
  1194 601.429 -44.1317 -28.4039
  1195 373.940 -12.4600 103.045
  1196 144.882 26.0261 -58.2055
  1197 144.828 25.8002 57.9206
  1198 186.705 70.1683 -122.830
  1199 187.004 65.0917 122.858
  1200 59.4351 15.2767 -22.6495
  1201 59.7568 15.2360 22.7687
  1202 745.988 130.594 -47.4475
  1203 42.4338 39.5613 -22.3499
  1204 43.3445 39.6398 22.6286
  1205 537.086 -42.2523 0.737871
  1206 975.390 163.262 84.9110
  1207 144.413 -5.77095 -12.1122
  1208 144.538 -5.77012 12.0209
  1209 621.878 488.163 -390.041
  1210 519.124 31.3252 -56.9959
  1211 481.946 36.4980 23.4354
  1212 71.0866 27.9955 -26.6646
  1213 71.4061 28.0038 26.7921
  1214 33.5653 -0.166261 3.95696
  1215 33.3203 -0.166057 -3.98452
  1216 593.021 -48.0026 21.9567
  1217 581.762 -25.0562 10.6522
  1218 400.145 124.848 -287.220
  1219 914.039 201.057 -20.2841
  1220 400.941 -11.1142 -112.753
  1221 513.682 -18.1147 -2.54451
  1222 49.2409 -2.44248 -0.826374
  1223 49.3443 -2.44019 0.821975
  1224 -4.92229 4.07012 -10.3171
  1225 -4.66051 4.05452 10.3834
  1226 350.440 4.78497 -118.276
  1227 628.193 -15.4704 13.7382
  1228 415.812 10.2651 158.583
  1229 557.722 -29.2853 -6.32523
  1230 292.673 110.154 -229.066
  1231 451.212 -20.1710 -121.187
  1232 534.893 -57.0688 17.3132
  1233 648.705 -11.1722 24.5143
  1234 569.520 -14.2952 -1.41702
  1235 325.677 -24.5940 39.2080
  1236 713.082 -36.3823 -39.7798
  1237 685.210 61.8931 84.6567
  1238 304.817 1.62541 -94.9362
  1239 665.922 -5.76502 1.32192
  1240 561.944 69.2777 -12.8328
  1241 250.560 -9.34929 -11.9835
  1242 250.539 -9.26593 11.8809
  1243 1017.79 253.009 78.1165
  1244 1361.11 36.1492 62.3783
  1245 1.39181 -65.2852 -10.1260
  1246 1.35037 -65.3464 10.2069
  1247 159.974 87.6451 134.963
  1248 375.738 -12.7509 -3.41326
  1249 375.819 -12.6890 3.54413
  1250 505.891 -51.2321 -20.9221
  1251 610.110 51.2260 77.3568
  1252 622.406 -14.1804 -7.99981
  1253 711.851 -2.54344 -0.804484
  1254 1228.62 277.328 -177.727
  1255 211.603 -8.21325 12.7895
  1256 211.557 -8.22697 -12.9159
  1257 601.548 -55.7300 21.9889
  1258 1034.20 271.596 -98.2524
  1259 582.401 -27.1114 -12.2814
  1260 432.444 -31.2897 -17.5618
  1261 525.813 -56.7809 33.6278
  1262 514.036 -27.5469 -1.67778
  1263 21.0661 16.3589 -30.4541
  1264 696.721 -39.3956 50.1466
  1265 567.431 -38.3478 -11.2207
  1266 23.0643 17.3369 33.0241
  1267 581.619 -42.8967 -114.775
  1268 547.870 41.5496 -235.368
  1269 894.439 124.963 -0.816708
  1270 714.246 -1.22690 -0.162163
  1271 713.145 -1.87282 0.563731
  1272 576.630 -34.9962 13.0871
  1273 230.681 27.4829 -93.9245
  1274 655.462 -56.5378 39.5208
  1275 1097.18 254.582 124.118
  1276 281.856 102.349 223.590
  1277 9.45944 4.03689 13.6970
  1278 9.75363 4.18802 -13.4951
  1279 684.164 -50.8660 -67.1317
  1280 289.581 -16.5010 -19.5662
  1281 289.555 -16.5459 19.2925
  1282 643.238 -41.2280 66.6727
  1283 35.8320 0.0116744 17.8199
  1284 35.5563 0.0241718 -17.8066
  1285 -3.13624 -12.9004 18.3004
  1286 -3.11288 -12.8730 -18.3069
  1287 130.626 -4.37932 -15.6585
  1288 130.783 -4.40379 15.5813
  1289 346.456 -23.3912 -57.3930
  1290 350.444 -13.0554 4.63298
  1291 350.424 -13.2929 -4.50853
  1292 712.651 -1.19879 0.475589
  1293 645.608 -10.6872 -27.7837
  1294 63.8811 2.09207 -22.8836
  1295 64.1473 2.05570 22.9016
  1296 347.817 -24.6924 57.0400
  1297 718.294 -1.22435 0.420513
  1298 681.816 -1.99856 -0.802458
  1299 681.724 -2.41617 0.644487
  1300 910.327 199.787 -6.39530
  1301 667.433 -6.11034 -3.33673
  1302 596.650 -8.46453 -0.335925
  1303 660.365 -11.2741 -13.6223
  1304 710.064 -2.94621 1.60222
  1305 755.669 82.0810 69.6261
  1306 872.106 185.792 7.42133
  1307 695.277 -3.33510 -7.05301
  1308 -6.01122 -1.44853 5.34410
  1309 -6.03599 -1.44770 -5.36131
  1310 399.276 -26.4666 16.6576
  1311 399.210 -25.3815 -16.2800
  1312 762.412 90.6312 -65.3765
  1313 166.560 57.9782 -102.788
  1314 167.621 56.4708 101.785
  1315 530.050 0.265522 -35.6149
  1316 529.688 -11.0712 -1.35035
  1317 529.047 -11.0045 1.23772
  1318 -12.1305 -1.64479 18.5209
  1319 -12.1090 -1.60943 -18.5163
  1320 595.841 -1.58405 27.7099
  1321 892.453 177.244 -9.65552
  1322 81.6724 -2.51296 -9.84722
  1323 81.8684 -2.51864 9.78613
  1324 658.747 -61.2550 16.7644
  1325 3.88850 12.3868 13.3301
  1326 4.08474 12.4600 -13.2024
  1327 140.530 -3.15550 -3.51225
  1328 140.612 -3.11350 3.47091
  1329 530.129 -0.480412 36.1787
  1330 42.9277 1.02744 -1.57666
  1331 43.0739 1.03140 1.55565
  1332 664.377 -9.05690 8.25056
  1333 932.445 167.819 12.2649
</Section>

newXOutput 87

<Section columns = "stress_xx | stress_yy | stress_xy">
  1 3.21206e-08 -7.86713e-11 5.60683e-11
  2 0.00000 0.00000 -1.06644e-12
  3 0.00000 0.00000 -9.09639e-13
  4 4.54747e-13 1.81899e-12 -1.81042e-13
  5 2.72848e-12 6.82121e-13 -1.65259e-13
  6 -1.15624e-07 -9.96429e-08 5.90917e-08
  7 3.57886e-10 3.50155e-10 -1.53806e-10
  8 -3.34749e-08 9.23137e-11 2.56088e-10
  9 3.26133e-08 -5.09317e-11 -1.59612e-10
  10 3.23074e-08 -1.16112e-10 -2.82690e-10
  11 3.27821e-08 -5.76013e-11 -1.29656e-10
  12 3.31188e-08 7.11680e-11 -3.71979e-10
  13 3.37213e-08 -1.78867e-11 -6.05719e-10
  14 3.51683e-08 4.75969e-11 -5.66139e-10
  15 3.62654e-08 3.79714e-11 -1.03250e-09
  16 3.94934e-08 -1.07775e-10 -1.19590e-09
  17 4.05491e-08 3.64707e-10 -1.82673e-09
  18 4.42167e-08 5.79803e-10 -2.47998e-09
  19 4.90551e-08 4.47471e-10 -3.08801e-09
  20 5.57669e-08 5.12046e-10 -3.46248e-09
  21 6.52096e-08 7.32750e-10 -4.43164e-09
  22 7.55656e-08 5.02951e-10 -7.26631e-09
  23 9.67484e-08 6.09361e-10 -9.08884e-09
  24 1.05179e-07 6.74299e-09 -1.81780e-08
  25 1.59178e-07 1.19013e-08 -3.09084e-08
  26 2.40932e-07 2.23581e-08 -6.56211e-08
  27 3.18102e-07 1.13222e-07 -1.49771e-07
  28 5.31911e-07 2.55231e-07 -2.63948e-07
  29 9.00569e-07 5.34150e-07 -1.37576e-07
  30 1.01288e-06 6.18647e-07 2.96606e-08
  31 -5.13865e-11 -5.34328e-11 -1.66512e-11
  32 -3.18323e-11 -3.11502e-11 -1.35045e-11
  33 -7.73070e-12 -2.27374e-12 -1.57473e-12
  34 -1.59162e-12 -1.59162e-12 3.22135e-13
  35 -3.94114e-12 -1.51582e-12 -5.14299e-13
  36 -3.03165e-13 -6.06330e-13 5.27211e-13
  37 -3.03165e-13 -6.06330e-13 5.28779e-13
  38 6.82121e-13 -2.27374e-13 1.13892e-14
  39 -6.06330e-13 -1.21266e-12 -1.18317e-13
  40 0.00000 0.00000 -2.22534e-13
  41 0.00000 0.00000 3.07196e-13
  42 -2.42532e-12 -6.06330e-13 -9.16366e-13
  43 1.21266e-12 3.03165e-13 -1.99096e-12
  44 -1.81899e-12 -4.54747e-13 -9.99843e-14
  45 0.00000 0.00000 1.46736e-13
  46 -1.21266e-12 -3.03165e-13 -1.01948e-12
  47 0.00000 0.00000 -2.04710e-12
  48 0.00000 0.00000 2.07844e-13
  49 0.00000 0.00000 -4.95653e-14
  50 4.54747e-13 -6.82121e-13 -2.41525e-13
  51 -1.51582e-12 -9.09495e-13 -1.15014e-13
  52 -1.51582e-12 -9.09495e-13 -3.48401e-13
  53 0.00000 0.00000 5.79118e-13
  54 4.85064e-12 1.21266e-12 -4.51219e-14
  55 1.21266e-12 3.03165e-13 -4.79317e-14
  56 2.42532e-12 6.06330e-13 -2.82734e-13
  57 2.27374e-13 -1.13687e-12 3.19179e-14
  58 -3.03165e-13 -6.06330e-13 -1.96154e-13
  59 -1.21266e-12 -3.03165e-13 -6.54481e-13
  60 1.81899e-12 4.54747e-13 -3.23880e-13
  61 0.00000 0.00000 2.06544e-13
  62 0.00000 0.00000 -3.13633e-13
  63 0.00000 0.00000 5.18233e-13
  64 -3.03165e-13 -6.06330e-13 1.13612e-12
  65 6.06330e-13 -9.09495e-13 -6.78343e-13
  66 0.00000 0.00000 -1.84347e-13
  67 9.09495e-13 -3.03165e-13 -1.62539e-13
  68 1.51582e-12 -1.21266e-12 -1.20950e-12
  69 -2.12215e-12 -2.12215e-12 -1.26122e-12
  70 -6.06330e-13 -1.21266e-12 -1.06622e-12
  71 -2.12215e-12 6.06330e-13 8.29705e-13
  72 -2.72848e-12 -1.81899e-12 4.86283e-13
  73 7.27014e-27 1.81754e-27 1.42061e-12
  74 2.42532e-12 6.06330e-13 -1.41145e-12
  75 9.09495e-13 -3.03165e-13 -1.37477e-12
  76 -3.03165e-13 -6.06330e-13 2.61082e-13
  77 -6.06330e-13 -1.21266e-12 1.36529e-12
  78 -5.45697e-12 -2.42532e-12 -4.87731e-13
  79 7.27014e-27 1.81754e-27 -9.91090e-13
  80 -6.06330e-13 -1.21266e-12 -1.86081e-13
  81 -3.03165e-13 -6.06330e-13 -3.09628e-13
  82 0.00000 0.00000 2.56091e-13
  83 -2.42532e-12 -6.06330e-13 -1.03867e-12
  84 -3.86535e-12 -1.13687e-12 1.90376e-12
  85 2.42532e-12 6.06330e-13 1.24450e-13
  86 5.15380e-12 1.51582e-12 -2.02537e-12
  87 5.45697e-12 2.72848e-12 3.74811e-13
  88 7.27596e-12 4.54747e-13 5.13400e-13
  89 3.18323e-12 -4.54747e-13 -1.06521e-13
  90 -5.15380e-12 -1.51582e-12 3.82518e-13
  91 -2.27374e-13 -4.54747e-13 6.73745e-13
  92 1.03076e-11 3.03165e-12 9.17411e-13
  93 4.85064e-12 9.09495e-13 -1.60451e-13
  94 -3.03165e-13 -6.06330e-13 -1.26230e-13
  95 -1.21266e-12 -3.03165e-13 -5.14106e-13
  96 -2.95586e-12 -9.09495e-13 -4.46763e-13
  97 -1.54614e-11 -4.54747e-12 7.22803e-14
  98 -3.86535e-12 -1.13687e-12 -2.62516e-13
  99 -3.33481e-12 3.03165e-13 -9.75095e-13
  100 -3.03165e-12 1.51582e-12 -6.26699e-13
  101 -1.51582e-12 -9.09495e-13 4.64129e-13
  102 3.94842e-09 4.10031e-09 -4.55805e-10
  103 2.97011e-09 5.88807e-09 1.41089e-09
  104 -2.53931e-09 5.99781e-09 3.52328e-09
  105 -1.49015e-08 5.90414e-09 7.30478e-09
  106 -3.56110e-08 6.14303e-09 1.13936e-08
  107 -6.34370e-08 3.85323e-09 1.77888e-08
  108 -1.15859e-07 -1.32328e-08 4.12441e-08
  109 -2.01753e-08 -1.04546e-07 3.45797e-08
  110 -5.01768e-09 -5.59136e-08 1.28901e-08
  111 -1.94692e-09 -3.39254e-08 7.01442e-09
  112 -1.27693e-09 -2.46794e-08 4.77356e-09
  113 -5.48425e-10 -1.71453e-08 2.67686e-09
  114 -1.00272e-10 -1.31074e-08 2.31458e-09
  115 -1.47641e-10 -8.58502e-09 1.64254e-09
  116 -2.04939e-10 -5.50760e-09 1.19527e-09
  117 -2.13731e-10 -2.77002e-09 7.82165e-10
  118 1.81899e-12 -1.31089e-09 5.52972e-10
  119 4.06999e-11 -4.34284e-10 5.72973e-10
  120 5.03254e-11 4.92340e-10 2.87240e-10
  121 1.36197e-10 6.60293e-10 3.93199e-11
  122 1.29603e-10 9.44965e-10 -1.18074e-10
  123 2.25858e-10 5.34177e-10 -1.86669e-10
  124 6.11484e-10 2.50111e-10 -1.46813e-10
  125 8.14604e-10 1.87053e-10 -1.15463e-10
  126 6.05041e-10 1.19826e-10 1.10582e-10
  127 2.89522e-10 1.54311e-10 2.88191e-10
  128 -8.94943e-10 1.39153e-10 5.90071e-10
  129 -2.73728e-09 2.06455e-10 9.51438e-10
  130 -4.74817e-09 3.71377e-10 1.04232e-09
  131 -7.41541e-09 3.14079e-10 1.12155e-09
  132 -9.77495e-09 3.05287e-10 1.38465e-09
  133 -1.29479e-08 4.36861e-10 1.47025e-09
  134 -1.61269e-08 4.14426e-10 1.43871e-09
  135 -1.83300e-08 4.76575e-10 1.56093e-09
  136 -2.16466e-08 5.33267e-10 1.29893e-09
  137 -2.36666e-08 5.20534e-10 1.23532e-09
  138 -2.58369e-08 4.38680e-10 9.42267e-10
  139 -2.80876e-08 4.25037e-10 7.45073e-10
  140 -2.92988e-08 3.56219e-10 8.28017e-10
  141 -3.00470e-08 2.53446e-10 7.55029e-10
  142 -3.16847e-08 3.85626e-10 4.05538e-10
  143 -3.23810e-08 3.04681e-10 4.90422e-10
  144 -3.26721e-08 1.44306e-10 2.28879e-10
  145 -3.35188e-08 1.72501e-10 1.02837e-10
  146 -3.36252e-08 3.14685e-10 1.60158e-10
  147 -3.29408e-08 4.22915e-11 -5.16378e-11
  148 -2.92212e-08 -1.45292e-10 2.18604e-10
  149 -2.55304e-08 2.21917e-10 4.18915e-10
  150 -2.18120e-08 6.00949e-10 2.34935e-10
  151 -1.69017e-08 9.17074e-10 2.27701e-10
  152 -1.29867e-08 1.18598e-09 2.24873e-10
  153 -8.33052e-09 1.28875e-09 2.78326e-10
  154 -3.69406e-09 1.51916e-09 2.36224e-10
  155 -1.20053e-10 1.69894e-09 1.63080e-10
  156 4.26068e-09 1.72774e-09 5.45021e-11
  157 8.53167e-09 1.38577e-09 7.41307e-11
  158 1.28942e-08 1.09594e-09 3.89641e-11
  159 1.69748e-08 9.12830e-10 4.02532e-11
  160 2.16562e-08 4.16321e-10 4.69418e-11
  161 2.60476e-08 3.00740e-10 5.38505e-11
  162 2.93946e-08 2.50717e-10 1.58975e-11
  163 -1.19156e-08 9.80587e-09 2.80626e-09
  164 -2.59856e-13 -1.03942e-12 8.10072e-13
  165 -1.28236e-08 -1.16946e-09 1.32264e-08
  166 -9.09495e-13 -7.57912e-13 -5.13558e-13
  167 -1.03942e-12 2.59856e-13 3.24673e-14
  168 -3.06488e-08 7.19475e-09 1.30883e-08
  169 0.00000 0.00000 9.73803e-13
  170 -1.38019e-08 2.96647e-09 2.44700e-09
  171 1.04337e-08 3.36986e-09 -2.08230e-09
  172 -3.48640e-12 -1.21266e-12 8.03583e-13
  173 -1.70789e-08 -6.37979e-08 7.21713e-08
  174 -1.21266e-12 7.57912e-13 1.03989e-12
  175 -1.00588e-08 2.40425e-08 -9.21931e-09
  176 -1.68050e-08 3.58947e-09 7.09753e-09
  177 1.21266e-12 3.03165e-13 4.64990e-13
  178 -1.12632e-09 1.40248e-08 -9.94259e-09
  179 2.42532e-12 -3.03165e-13 -1.13098e-12
  180 -3.82867e-09 -3.48943e-09 5.87138e-09
  181 2.88007e-12 3.03165e-13 8.22814e-13
  182 -2.66803e-08 -6.24186e-09 4.16136e-08
  183 -1.42396e-08 -1.03013e-08 1.92949e-08
  184 3.33481e-12 1.06108e-12 2.96174e-13
  185 1.72095e-08 4.93840e-09 -6.16537e-09
  186 1.26511e-09 -1.43824e-08 7.18584e-09
  187 -1.75478e-09 2.55877e-09 1.14696e-10
  188 2.18279e-12 5.45697e-13 7.69902e-13
  189 7.79567e-13 -2.59856e-13 7.66243e-13
  190 -3.88335e-08 1.78564e-09 6.93303e-09
  191 4.54747e-13 -6.82121e-13 1.20044e-13
  192 -2.01676e-08 9.58835e-10 1.20746e-09
  193 -1.43405e-08 1.13384e-09 8.16881e-09
  194 3.33481e-12 3.03165e-13 4.01448e-13
  195 -1.94386e-08 7.61156e-09 1.07548e-08
  196 -2.72848e-12 -7.57912e-13 8.81012e-13
  197 -4.07029e-09 6.02631e-09 2.73583e-10
  198 2.12215e-12 0.00000 -1.01590e-13
  199 -1.16935e-12 -5.19711e-13 6.25539e-13
  200 -2.03955e-08 1.71648e-09 3.79523e-09
  201 5.19711e-13 1.29928e-13 3.76799e-13
  202 -3.03165e-13 -1.51582e-13 1.51654e-13
  203 -1.97057e-12 -7.57912e-13 -5.85713e-13
  204 2.03719e-08 9.78010e-10 -1.01625e-09
  205 -2.81372e-08 6.15904e-08 9.99404e-09
  206 -3.61873e-09 -9.49907e-09 9.13262e-09
  207 4.54747e-13 9.09495e-13 -1.14379e-12
  208 3.24621e-08 1.17760e-08 -1.93128e-08
  209 -1.29928e-13 3.37812e-12 7.22129e-13
  210 -3.33824e-08 -1.93080e-08 2.92703e-08
  211 1.36424e-12 4.54747e-13 5.37513e-14
  212 -8.73585e-09 -6.94551e-10 6.74890e-09
  213 -1.21266e-12 -3.03165e-13 1.57244e-13
  214 1.21266e-12 -1.36424e-12 -7.73717e-13
  215 -1.99863e-08 -1.66274e-08 4.35289e-08
  216 1.06108e-12 0.00000 8.21964e-13
  217 -1.71819e-08 1.30038e-08 2.01568e-09
  218 -1.36424e-12 -6.06330e-13 -7.05343e-13
  219 2.41096e-08 1.68211e-09 -2.72195e-09
  220 -1.26396e-08 6.13636e-09 4.24781e-09
  221 -6.06330e-13 -7.57912e-13 2.60374e-13
  222 -1.60358e-08 3.65966e-09 1.07363e-08
  223 9.09495e-13 -3.03165e-13 9.59776e-14
  224 -2.09216e-08 1.55110e-08 -2.79022e-09
  225 2.19734e-09 7.81665e-09 -3.10887e-09
  226 -1.51582e-12 -9.09495e-13 8.59035e-13
  227 8.68877e-09 1.73859e-09 -6.28378e-10
  228 4.54747e-13 -1.51582e-13 4.14918e-13
  229 2.64114e-08 6.04344e-09 -1.09314e-08
  230 -1.82031e-08 1.29270e-09 5.54898e-09
  231 2.12215e-12 4.54747e-13 -1.92255e-13
  232 3.03165e-12 6.06330e-13 8.82583e-13
  233 -1.07245e-09 -1.21918e-09 1.39273e-09
  234 -2.32564e-08 9.12072e-10 1.94536e-09
  235 -1.21266e-12 -3.03165e-13 -3.99198e-13
  236 1.03942e-12 2.59856e-13 -3.80385e-13
  237 -1.12373e-08 1.74610e-09 6.33224e-10
  238 -2.14854e-08 2.00525e-09 1.65294e-08
  239 7.57912e-13 7.57912e-13 5.72552e-13
  240 3.63798e-13 -5.45261e-28 7.21374e-13
  241 -1.55263e-08 7.07754e-09 7.14626e-09
  242 -3.18323e-12 -1.06108e-12 -1.23994e-12
  243 4.84357e-08 3.00139e-08 -3.49039e-08
  244 -8.90367e-08 1.42519e-07 3.88698e-08
  245 -9.09495e-13 -5.45697e-13 -6.77019e-13
  246 -7.79567e-13 -6.49639e-13 -6.15811e-13
  247 -1.12063e-09 -4.56761e-09 3.54571e-09
  248 -4.05598e-09 -1.72437e-08 1.14238e-08
  249 5.45697e-13 1.63709e-12 6.30984e-13
  250 -4.22096e-09 1.16652e-08 -3.86993e-09
  251 -4.18903e-08 -2.71334e-08 2.10149e-08
  252 -7.43112e-09 -4.41232e-09 1.06303e-08
  253 1.27329e-12 0.00000 3.49361e-14
  254 -3.96873e-09 -5.35389e-10 3.09277e-09
  255 -2.57690e-12 -9.09495e-13 -2.92265e-13
  256 1.27329e-12 0.00000 2.50320e-13
  257 -7.01439e-09 3.86917e-09 1.09274e-09
  258 -3.63798e-13 -1.81899e-13 -9.71168e-13
  259 -4.66798e-10 1.81436e-08 -1.49634e-08
  260 -1.29658e-09 -3.86262e-09 1.14890e-08
  261 -1.63350e-08 3.71074e-09 4.99073e-09
  262 1.29928e-13 -2.59856e-13 -7.25120e-13
  263 -2.15762e-09 -7.15105e-08 1.46582e-08
  264 -4.05418e-08 -2.38526e-08 4.45412e-08
  265 -2.95534e-08 1.64852e-09 1.28500e-08
  266 -5.78398e-08 -1.97660e-08 2.02310e-08
  267 1.05593e-08 4.98494e-09 -3.73961e-09
  268 1.81899e-12 0.00000 9.09647e-13
  269 -1.70530e-12 -1.47793e-12 3.99997e-13
  270 3.25961e-08 2.27475e-09 -5.79080e-09
  271 -1.17482e-08 2.76227e-10 5.63797e-09
  272 -2.33870e-12 -9.09495e-13 -6.15540e-13
  273 -4.16534e-08 5.37511e-10 1.68675e-08
  274 -1.17387e-08 -2.31791e-10 9.78940e-09
  275 4.28762e-12 1.03942e-12 3.01660e-13
  276 3.37812e-12 3.89783e-13 -8.31422e-13
  277 -8.83054e-09 -2.86451e-08 1.81730e-08
  278 -2.70514e-08 2.84823e-10 3.74274e-10
  279 9.09495e-13 -3.03165e-13 5.06000e-13
  280 3.24820e-12 1.29928e-13 5.00946e-13
  281 -1.13564e-08 -5.75653e-09 1.50444e-08
  282 2.38742e-12 1.13687e-13 1.03712e-12
  283 -2.33870e-12 -1.03942e-12 -2.94144e-13
  284 -2.23658e-08 7.95548e-10 3.15950e-09
  285 1.55913e-12 3.89783e-13 3.73520e-13
  286 1.68906e-12 5.19711e-13 -5.06275e-13
  287 7.79567e-13 1.29928e-13 4.10271e-13
  288 -1.36722e-08 2.07664e-09 1.58440e-09
  289 -1.42921e-12 -6.49639e-13 6.02387e-13
  290 1.67828e-09 3.54274e-09 -5.80932e-10
  291 -2.85841e-12 -7.79567e-13 6.08173e-13
  292 -2.75476e-08 -3.52572e-09 2.16243e-08
  293 1.16935e-12 -6.49639e-13 5.30055e-13
  294 2.78370e-08 5.48165e-10 -1.23187e-09
  295 -4.28762e-12 -1.16935e-12 -7.69651e-13
  296 1.77170e-09 1.84070e-09 -9.32427e-11
  297 6.82121e-13 1.13687e-13 4.99001e-13
  298 1.07209e-08 8.72369e-09 -8.40611e-09
  299 -2.59856e-12 -7.79567e-13 -6.42419e-13
  300 -1.58702e-08 6.23913e-10 4.45700e-09
  301 2.59856e-12 6.49639e-13 9.59351e-13
  302 -4.33223e-09 -3.95424e-08 4.74804e-08
  303 -2.50937e-08 1.40615e-08 -2.50970e-09
  304 0.00000 0.00000 -5.13777e-13
  305 2.66586e-08 2.65183e-10 -3.14153e-10
  306 1.21266e-12 3.03165e-13 1.02105e-12
  307 2.59856e-12 2.20877e-12 5.15358e-13
  308 -3.45794e-08 1.12324e-08 5.32321e-08
  309 -9.60927e-09 4.98676e-09 2.20856e-09
  310 9.09495e-13 -3.03165e-13 -7.00458e-13
  311 7.79567e-13 -2.59856e-13 9.71911e-13
  312 -2.27110e-08 1.01602e-08 9.23575e-09
  313 -1.97057e-12 -1.36424e-12 6.09624e-13
  314 1.81899e-12 6.06330e-13 -2.12527e-13
  315 3.09453e-08 1.37561e-09 -3.50007e-09
  316 -1.90297e-08 1.89954e-09 2.98514e-09
  317 -1.29928e-13 -2.59856e-13 3.60665e-13
  318 -1.51582e-13 1.66741e-12 4.54749e-13
  319 -8.67719e-09 7.74374e-09 1.80767e-09
  320 -2.61007e-08 2.41635e-08 1.60499e-08
  321 -1.71849e-08 3.08910e-09 1.33983e-08
  322 -9.09495e-13 7.00508e-28 2.38940e-13
  323 -2.69929e-08 2.92857e-10 7.89090e-10
  324 0.00000 0.00000 -1.12208e-13
  325 1.82769e-08 1.81672e-09 -2.01304e-09
  326 1.60295e-08 1.05644e-09 -5.88890e-10
  327 1.42921e-12 1.29928e-13 1.03527e-12
  328 4.31285e-08 4.81305e-09 -1.21757e-08
  329 -1.29928e-13 -2.59856e-13 -5.35344e-13
  330 -2.45910e-08 7.43057e-10 2.25484e-09
  331 -1.79035e-08 8.67090e-10 4.36825e-10
  332 -7.95808e-13 -4.54747e-13 -2.24296e-13
  333 -1.81899e-13 -3.63798e-13 1.98745e-12
  334 -9.71704e-10 -7.74962e-09 4.49342e-09
  335 7.05429e-08 6.52071e-08 -5.58081e-08
  336 6.06330e-13 1.51582e-13 1.95533e-13
  337 3.87611e-09 5.32009e-09 -1.68647e-09
  338 2.54659e-12 5.45697e-13 3.76400e-13
  339 -1.50306e-08 -1.78868e-07 1.07821e-07
  340 -1.85863e-08 2.23508e-09 5.51494e-09
  341 -3.18323e-12 -9.09495e-13 1.14489e-12
  342 5.19711e-13 1.29928e-13 -2.03678e-13
  343 -1.59507e-08 2.75941e-09 8.88515e-09
  344 7.27596e-13 1.81899e-13 6.55493e-13
  345 -7.25486e-09 -2.28247e-09 7.98558e-09
  346 -5.45697e-13 9.09495e-13 1.50461e-12
  347 2.12215e-12 2.52435e-29 5.07807e-13
  348 -1.51419e-08 -3.38756e-09 2.25310e-08
  349 -2.13731e-11 -1.03076e-11 4.75323e-12
  350 -2.18279e-12 -5.45697e-13 -1.05936e-12
  351 -1.69948e-08 1.06440e-08 5.47473e-09
  352 1.93920e-08 2.19171e-08 -2.25830e-08
  353 6.24909e-08 1.02695e-08 -2.16060e-08
  354 -2.40047e-08 1.32043e-08 3.97832e-09
  355 1.06108e-12 0.00000 -7.94722e-13
  356 -4.98509e-09 1.78625e-09 3.49171e-10
  357 1.68438e-08 1.10189e-08 -1.45783e-08
  358 -2.20001e-08 -1.86853e-08 5.71646e-08
  359 0.00000 5.19711e-13 -7.79215e-15
  360 -1.81088e-08 1.68029e-09 2.03067e-09
  361 -4.54747e-13 4.54747e-13 -1.32117e-12
  362 -3.14221e-08 1.13873e-08 6.09571e-09
  363 3.48640e-12 3.94114e-12 1.59097e-12
  364 5.79903e-08 -1.45608e-07 1.68930e-07
  365 1.45519e-12 -3.63798e-13 3.49872e-13
  366 1.03942e-12 -6.49639e-13 -4.06967e-13
  367 -1.36580e-09 -3.75751e-10 1.29435e-09
  368 1.18334e-08 2.32116e-09 -1.39136e-09
  369 1.81899e-12 1.06108e-12 5.63787e-13
  370 8.79178e-11 7.13953e-11 -5.38473e-11
  371 -3.74041e-08 -4.50655e-08 3.56120e-08
  372 -3.51961e-09 -5.47919e-09 6.78521e-09
  373 1.03942e-12 2.59856e-13 -1.01689e-12
  374 -9.09495e-13 -4.24431e-12 -7.38855e-13
  375 -2.18279e-12 -1.27329e-12 -1.34234e-12
  376 -8.54961e-09 2.68810e-09 1.08592e-09
  377 -3.82139e-10 -1.53174e-09 1.18234e-09
  378 -7.57912e-13 -6.06330e-13 -6.43062e-13
  379 -9.09495e-13 -5.45697e-13 -1.77253e-12
  380 -1.52713e-08 5.46697e-09 6.26811e-09
  381 4.39589e-12 7.57912e-13 9.99025e-13
  382 -8.17560e-09 -1.16338e-08 1.46640e-08
  383 -4.54747e-13 3.03165e-13 -4.55266e-13
  384 -6.58914e-09 -1.85234e-10 3.51397e-09
  385 6.06330e-13 1.51582e-13 4.30320e-13
  386 -5.52624e-09 4.09991e-08 -1.13583e-08
  387 -2.57690e-12 -9.09495e-13 -2.48521e-13
  388 -9.09495e-13 -3.03165e-13 -6.50150e-13
  389 -1.39483e-08 1.50150e-08 -3.80965e-09
  390 -1.48055e-08 1.60417e-09 1.19343e-08
  391 3.63798e-13 -5.45697e-13 -1.03957e-12
  392 5.45697e-12 2.18279e-12 -6.83087e-14
  393 -1.64073e-09 -1.18982e-08 6.32969e-09
  394 -6.15658e-08 5.01354e-08 6.23099e-08
  395 2.07137e-08 3.08667e-09 -4.34664e-09
  396 6.06330e-13 1.51582e-13 -5.60550e-13
  397 -1.62277e-08 4.83957e-09 8.64178e-09
  398 2.27374e-12 3.03165e-13 -5.29575e-13
  399 3.66781e-09 2.56969e-09 -4.66399e-10
  400 -9.09495e-13 -5.45697e-13 -1.97769e-13
  401 -1.29664e-08 7.66325e-09 4.48504e-09
  402 -1.70623e-08 6.02677e-09 1.00369e-08
  403 2.12215e-12 0.00000 -6.62289e-13
  404 -6.06330e-13 -1.21266e-12 5.09058e-13
  405 1.27329e-12 0.00000 -8.39456e-13
  406 1.62958e-08 2.89256e-09 -3.23138e-09
  407 -2.18279e-12 -5.45697e-13 -3.70099e-13
  408 -5.17260e-09 1.00161e-08 -1.46142e-09
  409 -1.51582e-13 -3.03165e-13 4.60236e-13
  410 -1.99496e-08 -1.65137e-08 2.40765e-08
  411 4.04407e-08 2.20537e-09 -6.57191e-09
  412 3.10788e-08 8.03993e-10 -1.85552e-09
  413 1.45519e-12 3.63798e-13 1.55723e-12
  414 -1.41710e-08 3.98650e-09 3.64971e-09
  415 -1.11595e-08 1.18404e-08 2.24500e-10
  416 -1.97057e-12 -7.57912e-13 -2.39588e-12
  417 -1.00396e-08 -2.08699e-09 1.09650e-08
  418 -3.39083e-08 -4.97439e-09 3.35874e-08
  419 -2.72848e-12 -1.21266e-12 -1.34727e-13
  420 2.86592e-08 2.99224e-10 -5.32005e-10
  421 1.81899e-12 4.54747e-13 -5.93596e-13
  422 -7.29278e-09 -2.07386e-08 3.11014e-08
  423 1.45519e-12 3.63798e-13 -1.69200e-12
  424 -2.30702e-09 7.33271e-09 -9.58695e-10
  425 -1.58516e-08 -8.36008e-10 1.57615e-08
  426 -1.21266e-12 3.03165e-13 -2.47418e-13
  427 9.38435e-09 7.04222e-09 -5.69595e-09
  428 -2.54659e-12 -1.27329e-12 -5.57870e-13
  429 -1.81899e-13 -3.63798e-13 -5.30481e-13
  430 -2.08829e-08 5.81895e-10 2.91721e-09
  431 -1.74527e-08 -4.19035e-09 1.84540e-08
  432 1.81899e-12 4.54747e-13 5.95714e-13
  433 -1.13589e-08 6.53017e-11 7.41956e-09
  434 -1.63709e-12 -7.27596e-13 1.07440e-13
  435 9.81890e-09 1.44773e-09 -2.73136e-10
  436 5.45697e-13 -1.81899e-13 -8.84102e-13
  437 1.81899e-12 -3.89472e-28 7.41295e-14
  438 -1.74878e-09 -2.75395e-09 3.14478e-09
  439 -5.45697e-12 -1.63709e-12 -9.15857e-13
  440 -6.61172e-09 1.63289e-08 -1.01348e-08
  441 -9.09495e-13 -3.03165e-13 6.89480e-13
  442 -2.56827e-08 -1.79956e-08 4.85056e-08
  443 -2.18279e-12 -5.45697e-13 8.28015e-13
  444 -2.79639e-08 3.10138e-10 1.07710e-09
  445 1.74274e-09 2.96935e-09 1.12372e-09
  446 -2.42547e-09 -2.43531e-08 8.96323e-09
  447 -1.65910e-08 1.55342e-09 7.09925e-09
  448 5.63887e-12 1.09139e-12 4.14929e-13
  449 -5.59774e-08 -4.78622e-08 3.69332e-08
  450 -6.06330e-13 -1.51582e-13 9.88382e-14
  451 -9.03141e-09 2.73758e-10 3.82542e-09
  452 2.59856e-12 6.49639e-13 6.19862e-13
  453 -7.60610e-09 -7.19653e-09 1.26160e-08
  454 3.03165e-13 7.57912e-13 1.94210e-12
  455 1.60308e-09 -1.01492e-08 -2.23143e-10
  456 -1.45519e-12 -3.63798e-13 -7.83184e-13
  457 -1.51582e-12 -9.09495e-13 1.61194e-12
  458 -4.39238e-27 -7.27596e-13 -5.77946e-14
  459 -2.82247e-09 -1.70970e-09 3.38420e-09
  460 2.27374e-12 3.03165e-13 -5.32598e-14
  461 2.46576e-08 5.09757e-09 -8.58140e-09
  462 -2.36014e-09 4.59731e-09 -9.51799e-12
  463 -3.63798e-13 -7.27596e-13 1.06766e-13
  464 -9.10150e-09 1.35198e-08 -3.40440e-09
  465 -2.49667e-08 5.57739e-09 1.47766e-08
  466 5.46167e-08 4.40165e-09 -1.25564e-08
  467 -1.81899e-13 -3.63798e-13 8.65346e-13
  468 -2.97115e-08 1.19829e-08 1.00828e-09
  469 2.27374e-12 3.03165e-13 -4.09972e-13
  470 -1.03942e-12 -2.59856e-13 -3.45522e-13
  471 -2.46107e-08 6.21575e-10 2.25924e-09
  472 1.86765e-09 -6.01638e-08 3.06137e-08
  473 2.20674e-08 5.49486e-10 -3.88913e-10
  474 2.27374e-12 3.03165e-13 -8.94979e-13
  475 1.13687e-12 -1.13687e-13 -6.81309e-13
  476 -1.56335e-08 1.33468e-09 9.67796e-10
  477 -1.21266e-12 -9.09495e-13 -5.86158e-14
  478 -1.71253e-08 2.64799e-09 7.13156e-09
  479 2.27374e-12 3.03165e-13 4.33189e-13
  480 9.76575e-08 1.09189e-07 -1.05316e-07
  481 1.97057e-12 1.51582e-13 -3.56539e-13
  482 -2.19249e-08 1.27496e-09 2.69753e-09
  483 1.51582e-13 -4.54747e-13 4.34488e-14
  484 -1.46413e-08 1.57706e-09 9.72010e-09
  485 1.18530e-08 1.09414e-08 -1.16693e-08
  486 -1.68106e-08 8.50887e-09 7.70098e-09
  487 1.66741e-12 1.51582e-13 -2.78562e-15
  488 -7.06086e-09 2.10533e-09 5.74374e-10
  489 3.63798e-13 -5.45697e-13 6.67831e-13
  490 -3.14905e-08 -2.39406e-08 3.81040e-08
  491 -1.55913e-12 -5.19711e-13 1.17162e-12
  492 -2.95716e-10 -8.52326e-11 3.58761e-10
  493 -1.29539e-08 1.23252e-09 3.46936e-10
  494 -1.21266e-12 -3.03165e-13 1.03098e-13
  495 4.24431e-12 9.09495e-13 1.55649e-13
  496 -2.31466e-10 -3.90507e-09 2.06596e-09
  497 1.51283e-08 1.53120e-09 -1.01659e-09
  498 8.44250e-08 2.85577e-07 -6.51013e-08
  499 -5.34010e-08 1.07083e-07 8.56948e-09
  500 -2.08255e-08 6.20230e-09 1.29564e-08
  501 5.19711e-13 1.29928e-13 5.77988e-13
  502 -1.78560e-08 2.55932e-09 3.94978e-09
  503 -1.42692e-08 5.86018e-10 2.58678e-09
  504 -7.57912e-13 -4.54747e-13 1.73619e-12
  505 9.09495e-13 2.59856e-13 1.66709e-12
  506 -2.87193e-08 2.58600e-10 4.33597e-10
  507 -7.57912e-13 -4.54747e-13 7.32303e-13
  508 -1.21266e-12 -9.09495e-13 1.07351e-12
  509 3.63798e-13 -5.45697e-13 9.52390e-13
  510 -1.13694e-08 -2.01946e-08 1.96417e-08
  511 -3.49416e-08 -2.27753e-09 2.12423e-08
  512 -5.66539e-09 -1.89402e-09 6.14855e-09
  513 -2.27374e-12 -9.09495e-13 7.77696e-13
  514 -9.48148e-09 3.18206e-09 1.42502e-09
  515 1.42921e-12 7.79567e-13 -6.25970e-13
  516 -4.54747e-13 4.54747e-13 -6.62007e-14
  517 6.06330e-13 -9.09495e-13 -1.03349e-12
  518 -1.81754e-27 -4.54384e-28 -2.90942e-13
  519 -3.89783e-13 -3.89783e-13 -6.96120e-13
  520 5.06952e-10 1.19557e-08 -7.52319e-09
  521 -2.19146e-08 8.88758e-10 1.35362e-09
  522 1.81899e-13 -5.45697e-13 6.84366e-14
  523 9.24658e-08 2.10716e-08 -3.48634e-08
  524 -9.83099e-09 6.23056e-09 2.57649e-09
  525 2.83050e-08 2.69923e-09 -5.31504e-09
  526 1.81899e-12 -1.81899e-13 2.32200e-12
  527 -6.94854e-11 -1.08412e-10 1.94522e-10
  528 -1.55913e-12 -3.89783e-13 -1.01281e-12
  529 1.81899e-12 4.54747e-13 -2.30188e-13
  530 -4.52914e-08 -1.31691e-08 1.33364e-08
  531 6.76391e-09 2.94009e-09 -1.08812e-09
  532 -2.10610e-08 6.05178e-10 1.96775e-10
  533 -7.27596e-13 -1.81899e-13 -4.14320e-13
  534 -5.19711e-13 -1.29928e-13 2.08087e-13
  535 -2.99711e-08 -9.23119e-09 2.37989e-08
  536 -6.72176e-08 -4.16627e-08 3.25589e-08
  537 -2.88236e-08 8.44869e-09 3.20507e-09
  538 -3.63798e-13 -7.27596e-13 -1.23690e-12
  539 -5.53716e-09 3.94114e-11 1.24169e-08
  540 9.83619e-10 -1.44178e-09 2.34619e-09
  541 -2.57690e-12 -7.57912e-13 3.29833e-13
  542 -1.84197e-08 2.53749e-09 4.88102e-09
  543 2.16878e-09 9.34797e-09 -4.89894e-09
  544 -9.54969e-09 -8.72812e-10 8.61274e-09
  545 6.36646e-12 1.81899e-12 1.67032e-12
  546 -1.15167e-08 1.71995e-08 -9.88618e-09
  547 2.04216e-08 5.91977e-08 -3.63507e-08
  548 3.53111e-08 9.58304e-10 -3.24052e-09
  549 4.32088e-09 6.18417e-09 -2.52607e-09
  550 -4.88948e-08 -8.52542e-09 2.16650e-08
  551 -3.89783e-13 -3.89783e-13 3.29727e-13
  552 1.29928e-13 -2.59856e-13 1.33214e-13
  553 1.06108e-12 -9.08768e-28 8.12554e-16
  554 -1.13193e-08 -3.55749e-09 1.34654e-08
  555 -1.36424e-12 -1.36424e-12 -7.34983e-13
  556 -2.36711e-09 3.13867e-09 1.52074e-10
  557 -1.81899e-12 -1.06108e-12 3.00028e-13
  558 -8.38736e-10 -1.56653e-08 4.81822e-09
  559 -5.47743e-09 2.03415e-08 -1.34009e-08
  560 -5.47048e-09 -4.30997e-09 8.10830e-09
  561 1.29928e-12 -2.59856e-13 1.07511e-12
  562 1.63709e-12 1.09139e-12 -3.34568e-13
  563 4.28762e-12 3.89783e-13 1.59405e-13
  564 2.12215e-12 2.72848e-12 1.28958e-12
  565 -1.91459e-08 2.30339e-08 2.21635e-09
  566 2.72848e-12 2.50111e-12 -1.28341e-12
  567 -3.92845e-09 -1.30581e-08 1.04932e-08
  568 2.72848e-12 6.82121e-13 -9.39696e-13
  569 -1.90181e-08 5.64910e-10 2.71334e-09
  570 1.16935e-12 7.79567e-13 -2.53473e-13
  571 -7.79567e-13 -2.59856e-13 -6.53739e-13
  572 -6.15130e-09 4.66220e-09 1.01091e-09
  573 -4.74462e-08 -3.52217e-09 1.34661e-08
  574 5.19711e-13 1.29928e-13 3.65297e-13
  575 -2.42557e-08 5.36342e-10 6.52240e-10
  576 -2.98169e-08 -4.39589e-12 9.93702e-11
  577 1.06108e-12 0.00000 8.80933e-14
  578 0.00000 0.00000 0.00000
  579 -8.13205e-09 -4.31909e-08 1.80926e-08
  580 -2.58556e-11 -1.89695e-11 -2.68494e-12
  581 -1.06317e-08 -1.31043e-07 6.43846e-08
  582 -2.08608e-09 -6.25702e-09 5.50948e-09
  583 -3.63507e-27 -9.08768e-28 1.00806e-12
  584 -1.29928e-13 -2.59856e-13 -2.46813e-14
  585 -2.42532e-12 -6.06330e-13 8.13544e-15
  586 -1.38792e-08 7.25928e-10 6.35852e-09
  587 4.54747e-13 -1.51582e-13 -9.25732e-13
  588 5.09590e-09 1.49902e-08 -1.42712e-08
  589 -1.94892e-12 2.59856e-13 -1.71154e-12
  590 9.09495e-13 0.00000 -1.75037e-14
  591 6.24004e-09 1.57070e-09 -1.87073e-10
  592 -2.41016e-10 -2.25983e-09 1.43455e-09
  593 6.49639e-13 -6.49639e-13 -8.35257e-13
  594 -1.76005e-08 -3.21865e-08 6.28382e-08
  595 -1.42921e-12 -7.79567e-13 -2.99466e-13
  596 5.13432e-09 4.07442e-09 -1.43568e-09
  597 7.57912e-13 3.03165e-13 1.85780e-13
  598 -2.87465e-09 -2.33870e-11 1.64267e-09
  599 -5.19711e-13 -1.29928e-13 -2.94843e-13
  600 1.06108e-12 1.51582e-12 1.48861e-13
  601 -6.70501e-08 -3.93662e-08 2.07246e-08
  602 -2.21962e-08 -6.40804e-10 1.85504e-08
  603 -1.72627e-08 3.15595e-09 6.00005e-09
  604 -6.06330e-13 -1.51582e-13 7.45922e-13
  605 3.17814e-08 2.59466e-10 -1.00251e-09
  606 -3.63798e-12 -9.09495e-13 1.20457e-12
  607 2.33849e-08 1.29936e-09 -1.97986e-09
  608 3.05116e-08 9.13815e-09 -1.60154e-08
  609 -1.02318e-12 -1.25056e-12 -6.78696e-13
  610 -2.80668e-08 2.91152e-10 1.11102e-09
  611 -2.66846e-09 2.08885e-09 2.05925e-10
  612 5.19711e-13 1.29928e-13 7.04263e-13
  613 -1.68793e-08 4.47956e-09 1.14939e-08
  614 2.42532e-12 6.06330e-13 -5.59997e-13
  615 -6.49639e-13 -3.89783e-13 -2.76917e-13
  616 -6.90529e-08 -6.72526e-09 3.36445e-08
  617 -1.29928e-12 -1.03942e-12 -3.82389e-14
  618 -2.31488e-08 4.33179e-10 1.96424e-09
  619 -1.36424e-12 -6.06330e-13 -9.71580e-13
  620 -1.51343e-08 2.23205e-09 2.02001e-09
  621 -3.57006e-08 -3.14103e-09 9.63240e-09
  622 1.81899e-12 4.54747e-13 -3.00978e-13
  623 2.83930e-08 -7.63976e-12 -1.55209e-10
  624 8.33046e-08 8.94743e-09 -2.21725e-08
  625 -3.85332e-08 6.09712e-09 7.85284e-09
  626 -6.49639e-13 -3.89783e-13 5.44229e-13
  627 -2.04636e-12 -5.68434e-13 -8.58507e-13
  628 -6.09111e-09 -7.37941e-10 4.89816e-09
  629 6.38907e-09 3.08466e-08 -1.86995e-08
  630 -1.45696e-08 4.95116e-09 5.12298e-09
  631 6.49639e-13 -6.49639e-13 -6.64390e-14
  632 1.21266e-12 3.03165e-13 1.36486e-13
  633 -1.94892e-12 -3.89472e-28 -2.20421e-13
  634 -1.35406e-08 8.80876e-09 4.69703e-09
  635 -2.32800e-09 -1.31978e-07 3.02903e-08
  636 -1.97824e-08 9.56319e-09 8.38537e-09
  637 -2.04411e-08 6.81393e-10 7.26298e-10
  638 1.09139e-12 -3.63798e-13 -6.31277e-14
  639 1.27329e-12 -1.81899e-13 1.58762e-12
  640 -2.79658e-08 3.38670e-09 2.59367e-08
  641 1.76716e-08 1.61881e-08 -1.96891e-08
  642 8.97178e-09 4.19875e-09 -2.46838e-09
  643 -7.79567e-13 -2.59856e-13 6.04046e-15
  644 -1.82730e-09 1.70101e-09 -5.05510e-11
  645 -1.01250e-08 2.28556e-09 8.97206e-10
  646 -7.79567e-13 -6.49639e-13 4.72251e-14
  647 -1.55913e-12 -1.29928e-12 -1.94305e-13
  648 -6.06330e-13 1.51582e-13 -8.92828e-13
  649 -9.43661e-09 4.02330e-09 1.69636e-09
  650 -4.92478e-08 -4.86828e-08 9.84519e-08
  651 1.24716e-08 5.79151e-09 -5.30279e-09
  652 -2.07885e-12 -5.19711e-13 -1.12416e-13
  653 -5.19296e-28 -2.20877e-12 -9.26329e-13
  654 -3.03165e-12 -1.66741e-12 4.46413e-14
  655 -2.02450e-08 1.56266e-09 4.31692e-09
  656 -9.09495e-13 0.00000 -1.41965e-13
  657 -1.15449e-08 -8.97398e-09 1.68936e-08
  658 1.55913e-12 2.59856e-13 -7.28582e-13
  659 1.51582e-12 1.51582e-12 1.16125e-12
  660 -1.21266e-12 -3.03165e-13 1.27778e-12
  661 -6.49639e-13 -3.89783e-13 -7.34319e-13
  662 -1.97311e-08 1.36138e-09 4.77383e-09
  663 -1.81899e-12 -1.51582e-13 -1.46597e-13
  664 -4.68494e-08 -2.19401e-08 2.91944e-08
  665 -5.06718e-12 -1.81899e-12 1.28922e-12
  666 -2.95668e-08 1.01692e-08 3.81794e-08
  667 -3.03165e-13 -1.51582e-13 -1.34301e-14
  668 -1.36205e-08 -2.49937e-08 5.07480e-08
  669 -1.14752e-08 3.27418e-10 2.83315e-09
  670 -3.11827e-12 -1.55913e-12 1.00258e-12
  671 -2.72160e-08 3.55314e-09 1.69004e-08
  672 -1.03942e-12 -2.59856e-13 -4.58920e-14
  673 -2.99034e-08 1.80600e-10 5.62539e-10
  674 -2.63816e-08 1.07035e-08 8.67117e-09
  675 -1.51818e-08 1.58107e-09 1.30231e-08
  676 -1.63709e-12 -7.27596e-13 -3.62577e-13
  677 -1.00734e-08 -1.28390e-10 6.10290e-09
  678 -7.57912e-13 -4.54747e-13 1.10512e-12
  679 -7.99017e-09 9.13977e-09 7.72553e-10
  680 -1.94892e-12 -1.16935e-12 -6.99135e-13
  681 -8.56679e-09 1.38178e-09 1.34152e-10
  682 -1.42921e-12 -1.03942e-12 6.69546e-14
  683 -1.56041e-08 3.09176e-09 3.28670e-09
  684 1.03942e-12 2.59856e-13 7.33706e-13
  685 -5.85299e-09 -6.16884e-09 1.00572e-08
  686 1.68906e-12 5.19711e-13 -3.60820e-13
  687 2.27284e-08 9.57178e-10 -1.45257e-09
  688 1.81899e-12 0.00000 1.51336e-12
  689 -1.26198e-08 5.12370e-09 3.53292e-09
  690 5.19711e-13 1.29928e-13 1.10099e-12
  691 9.09495e-13 2.27374e-13 1.19528e-13
  692 4.94902e-09 2.04166e-09 -3.67681e-10
  693 0.00000 0.00000 1.90211e-13
  694 6.06330e-13 1.51582e-13 5.40299e-13
  695 -5.84675e-11 -1.34709e-08 1.54081e-08
  696 -3.51985e-08 4.75302e-09 1.52921e-08
  697 3.25946e-08 3.89233e-09 -8.61911e-09
  698 2.88007e-12 -6.06330e-13 -5.57116e-13
  699 -1.64785e-08 1.59874e-09 1.37558e-09
  700 -2.27374e-12 -9.09495e-13 -2.42777e-14
  701 -1.21266e-12 1.51582e-13 -1.14953e-12
  702 2.56250e-09 4.44084e-09 3.03431e-09
  703 -1.20225e-08 -7.32013e-10 1.15611e-08
  704 2.98834e-12 3.89783e-13 -8.94751e-13
  705 -3.03165e-12 -7.57912e-13 -6.84533e-13
  706 2.26482e-08 5.77399e-10 -6.36464e-10
  707 -2.39907e-08 -2.97958e-08 2.84228e-08
  708 4.01886e-08 1.04016e-09 -3.98390e-09
  709 1.71115e-08 1.64952e-09 -1.56591e-09
  710 -4.74574e-09 -5.92750e-08 5.49451e-08
  711 -1.33029e-08 7.95353e-10 9.36077e-09
  712 5.45697e-12 1.21266e-12 1.45343e-13
  713 3.00639e-08 6.93815e-11 -3.11409e-10
  714 1.06108e-12 0.00000 3.31282e-13
  715 -1.79321e-08 1.71003e-08 -5.45491e-09
  716 -1.45458e-08 6.69089e-09 5.87088e-09
  717 2.46863e-12 3.89783e-13 -1.23738e-12
  718 -7.27596e-13 -1.81899e-13 7.00251e-13
  719 -2.28436e-08 9.49331e-10 2.95513e-09
  720 3.63798e-13 -5.45697e-13 1.89936e-13
  721 -1.81899e-12 -4.54747e-13 -1.29226e-12
  722 -2.33092e-09 -4.12786e-09 4.72577e-09
  723 6.82121e-13 -1.13687e-13 -1.10494e-12
  724 -1.81899e-12 -5.19711e-13 1.24607e-13
  725 2.57396e-08 1.86005e-09 -3.54965e-09
  726 -6.66963e-12 -1.10655e-11 -1.75269e-13
  727 2.72848e-12 7.79567e-13 3.63326e-13
  728 -6.56395e-10 -8.65683e-09 3.27900e-09
  729 -1.90860e-08 -7.20943e-09 2.06015e-08
  730 -2.15963e-08 1.24587e-08 5.08285e-09
  731 -1.55913e-12 -5.19711e-13 -2.18683e-12
  732 3.00423e-08 1.80989e-10 -6.14194e-10
  733 -3.23544e-08 3.50889e-08 2.87525e-08
  734 -1.03218e-07 -1.26832e-07 1.74844e-07
  735 6.04944e-10 -3.22539e-08 2.62018e-08
  736 3.32989e-08 5.90868e-10 -1.80028e-09
  737 5.45697e-13 -1.81899e-13 2.02818e-13
  738 -1.68369e-08 4.65297e-10 2.25076e-09
  739 2.42532e-12 6.06330e-13 5.98643e-13
  740 7.33183e-09 2.24684e-09 -8.54338e-10
  741 -1.60768e-08 3.80184e-09 9.46750e-09
  742 1.36424e-12 -4.54747e-13 -7.09339e-13
  743 1.94892e-12 2.59856e-13 5.84809e-13
  744 -3.02857e-08 -1.51774e-08 4.40637e-08
  745 -2.41295e-08 7.68523e-10 2.04610e-09
  746 3.03165e-13 -4.54747e-13 -9.11688e-13
  747 1.29928e-12 -1.29928e-13 1.57153e-13
  748 -1.99522e-08 1.42472e-09 2.38079e-09
  749 -1.81899e-12 -4.54747e-13 5.49800e-13
  750 1.81899e-12 4.54747e-13 9.90847e-13
  751 4.74569e-08 1.55835e-09 -5.90100e-09
  752 4.46336e-08 1.98455e-08 -2.74132e-08
  753 -1.93268e-12 -6.82121e-13 3.98226e-13
  754 2.76151e-08 1.00135e-09 -1.95081e-09
  755 -3.09488e-10 5.14228e-09 -5.38828e-10
  756 1.34243e-08 2.51248e-09 -1.94534e-09
  757 2.33870e-12 -1.29928e-13 -1.22979e-13
  758 1.64713e-08 7.73629e-09 -1.01835e-08
  759 1.55913e-12 1.94892e-12 7.39449e-13
  760 1.67328e-08 6.42142e-09 -7.82439e-09
  761 1.86077e-08 1.25789e-08 -1.73598e-08
  762 1.55913e-12 3.89783e-13 -7.19739e-13
  763 -7.57912e-13 6.06330e-13 2.07764e-13
  764 -1.79322e-09 -1.01657e-08 6.56942e-09
  765 1.49257e-08 1.01075e-09 -2.81993e-10
  766 -7.57912e-13 -4.54747e-13 3.30144e-13
  767 2.42532e-12 6.06330e-13 -4.69467e-13
  768 2.53029e-08 3.43941e-10 -1.62664e-10
  769 3.66576e-08 4.29160e-09 -1.00778e-08
  770 1.51582e-13 -7.57912e-13 4.96197e-13
  771 1.21266e-12 3.03165e-13 1.85844e-13
  772 3.03165e-13 -4.54747e-13 -4.74953e-13
  773 -6.77346e-09 -8.29338e-09 2.17840e-08
  774 -1.13687e-13 3.41061e-13 2.11859e-13
  775 -2.95534e-08 -1.11436e-08 2.55836e-08
  776 1.13687e-13 -5.68434e-13 -2.26395e-13
  777 -1.74876e-08 8.78269e-10 4.95517e-09
  778 3.03165e-12 7.57912e-13 8.74146e-13
  779 -1.60500e-08 -2.44815e-07 8.41935e-08
  780 -2.58897e-08 1.80379e-09 1.87983e-08
  781 7.57912e-13 1.81899e-12 1.80221e-12
  782 -3.01898e-09 -3.19633e-08 9.65854e-09
  783 -3.93299e-08 -7.51035e-09 7.21351e-08
  784 7.41268e-09 6.75633e-09 -4.41868e-09
  785 3.76005e-08 1.46747e-08 -2.28476e-08
  786 1.06108e-12 0.00000 -4.74748e-13
  787 2.18279e-12 5.45697e-13 1.00305e-12
  788 0.00000 0.00000 -4.05871e-13
  789 0.00000 3.03165e-13 -3.90494e-15
  790 0.00000 -6.06330e-13 6.25529e-13
  791 -2.87904e-08 1.11010e-08 7.55242e-09
  792 -1.13857e-08 7.28824e-09 3.44377e-09
  793 -1.94511e-08 3.47258e-09 1.47590e-08
  794 2.40925e-09 2.36385e-08 -1.71135e-08
  795 -9.09495e-13 -1.36424e-12 4.69342e-13
  796 -6.82121e-13 -3.41061e-13 1.26358e-13
  797 -2.50168e-08 5.57407e-10 1.21708e-09
  798 5.59844e-08 1.35515e-09 -6.86181e-09
  799 -3.48640e-12 -5.60855e-12 1.24710e-12
  800 -4.45531e-09 1.62042e-10 1.78669e-09
  801 -2.72848e-12 -1.21266e-12 -7.88544e-14
  802 1.15172e-09 2.31724e-09 -7.58655e-11
  803 0.00000 0.00000 1.11512e-12
  804 1.55913e-12 3.89783e-13 -5.77380e-13
  805 -2.59856e-13 -5.19711e-13 1.69619e-12
  806 -1.22220e-08 3.90225e-09 2.75985e-09
  807 -1.81899e-13 -3.63798e-13 8.92913e-13
  808 -1.81899e-13 2.00089e-12 4.22047e-13
  809 1.36424e-12 -4.54747e-13 -1.09682e-12
  810 -2.77416e-08 2.60267e-10 1.16821e-09
  811 4.24428e-08 7.84221e-09 -1.61095e-08
  812 2.45101e-08 4.23067e-10 -8.37213e-10
  813 -1.21963e-09 8.94336e-12 9.18454e-10
  814 -7.57912e-13 -4.54747e-13 5.61810e-14
  815 -6.06330e-13 -3.03165e-13 -2.68119e-13
  816 -7.89156e-09 -1.58118e-08 1.55756e-08
  817 -1.68906e-12 -6.49639e-13 -5.05288e-13
  818 1.41872e-07 1.70308e-07 -1.30600e-07
  819 -2.55347e-08 5.01738e-10 1.50509e-09
  820 -1.81899e-12 -4.54747e-13 -1.07257e-13
  821 -1.90479e-08 1.16861e-08 5.43912e-09
  822 -7.57912e-13 -1.36424e-12 1.40695e-12
  823 4.09273e-12 1.81899e-12 -1.73631e-14
  824 3.16049e-10 3.07409e-10 -1.68191e-10
  825 -3.10074e-08 2.00544e-10 2.39059e-10
  826 -9.09495e-13 -7.57912e-13 1.33994e-12
  827 2.38799e-09 1.07699e-08 -6.34681e-09
  828 -1.51582e-12 -9.09495e-13 -3.18322e-13
  829 1.18156e-08 1.60123e-09 -5.48202e-10
  830 -2.88141e-09 8.46311e-09 -1.49228e-09
  831 -1.86417e-08 8.54743e-10 2.39420e-10
  832 -1.45519e-12 -3.63798e-13 -9.94763e-13
  833 -6.62794e-09 3.87748e-10 1.86697e-09
  834 1.06108e-12 0.00000 -3.14007e-13
  835 -1.81899e-12 -4.54747e-13 8.46471e-13
  836 -7.09406e-12 4.18368e-12 -1.29723e-12
  837 -2.59856e-13 -5.19711e-13 -2.58904e-13
  838 -1.94892e-12 -7.79567e-13 -7.62514e-13
  839 -1.06108e-12 -2.57690e-12 -1.22487e-12
  840 -3.03165e-13 -1.51582e-13 -9.59925e-13
  841 1.86466e-08 1.01081e-09 -7.52780e-10
  842 -7.27596e-13 1.81899e-13 -9.45123e-14
  843 -9.52726e-09 1.06158e-08 5.33098e-10
  844 -1.79178e-08 5.87397e-09 1.15489e-08
  845 -4.54747e-13 -4.54747e-13 6.03552e-13
  846 -6.50107e-09 6.69130e-09 1.03794e-09
  847 -2.10481e-08 4.35653e-08 4.11956e-09
  848 -2.60090e-08 1.36999e-08 2.37942e-09
  849 -1.44076e-08 1.22054e-09 6.58096e-10
  850 -1.81899e-12 -6.06330e-13 -5.19533e-14
  851 1.06108e-12 0.00000 -1.81562e-13
  852 7.21775e-09 1.70257e-09 -3.72357e-10
  853 4.54747e-13 -1.51582e-12 -6.91080e-13
  854 -1.68814e-08 2.24873e-09 2.56064e-09
  855 -1.81899e-12 -4.54747e-13 -6.31338e-13
  856 3.50805e-12 5.19711e-13 1.88503e-12
  857 -2.51021e-10 -5.36537e-09 2.07227e-09
  858 0.00000 0.00000 2.42044e-13
  859 -2.53607e-08 3.23001e-10 3.49561e-10
  860 -5.19711e-13 -1.29928e-13 -5.35880e-13
  861 -2.57690e-12 -1.21266e-12 -7.27852e-13
  862 -2.04109e-08 1.56900e-08 -4.82443e-09
  863 1.45154e-07 2.25160e-08 -5.45760e-08
  864 1.94917e-08 2.05834e-09 -2.71047e-09
  865 2.72848e-12 1.51582e-13 2.73694e-14
  866 -1.54978e-08 1.76351e-09 8.35241e-09
  867 1.03942e-12 2.59856e-13 4.70684e-13
  868 -7.57912e-13 -4.54747e-13 -1.37732e-13
  869 1.14384e-09 2.93327e-09 -2.80498e-10
  870 -3.03165e-13 -1.51582e-13 5.48626e-13
  871 -4.40057e-08 4.15430e-08 4.34733e-08
  872 -1.64946e-08 4.89839e-09 9.94422e-09
  873 4.54747e-12 6.06330e-13 -1.34592e-12
  874 4.54747e-13 -4.54747e-13 1.10515e-12
  875 -7.76241e-09 -3.02927e-09 9.54626e-09
  876 -9.09495e-13 5.19711e-13 2.29789e-13
  877 -2.72848e-12 -9.09495e-13 -1.54630e-13
  878 -4.00827e-10 6.33398e-09 -1.02374e-09
  879 6.58127e-08 4.20520e-09 -1.24392e-08
  880 -3.03165e-13 -6.06330e-13 -3.94502e-13
  881 3.03165e-13 -4.54747e-13 6.44887e-13
  882 -1.35166e-08 1.08351e-08 2.89570e-09
  883 -6.88791e-09 5.75225e-09 1.32084e-09
  884 -2.40411e-08 -7.61020e-09 3.38784e-08
  885 -5.91604e-09 1.37345e-08 -6.44313e-09
  886 -5.53215e-09 -2.87203e-09 7.10066e-09
  887 0.00000 3.03165e-13 8.31502e-13
  888 -4.69906e-12 -1.51582e-12 -3.67311e-13
  889 -1.87621e-08 1.42412e-08 6.21113e-10
  890 -7.62566e-09 -1.30785e-09 7.31085e-09
  891 1.51582e-12 1.51582e-13 1.51584e-12
  892 3.03165e-12 7.57912e-13 9.09807e-13
  893 -1.61081e-08 4.72028e-09 7.43053e-09
  894 -1.51582e-13 -3.03165e-13 2.24638e-13
  895 -1.57872e-08 5.79682e-09 7.46283e-09
  896 -2.63156e-08 -4.11956e-09 5.23800e-08
  897 -3.78956e-12 -1.06108e-12 1.06817e-12
  898 -5.15380e-12 -1.59768e-10 3.96350e-10
  899 -1.58851e-08 2.72424e-09 1.20253e-08
  900 9.09495e-13 -3.03165e-13 4.12138e-13
  901 -4.49997e-08 2.17551e-09 2.28350e-08
  902 -1.51582e-13 -3.03165e-13 -2.38289e-13
  903 -3.09437e-08 1.50521e-10 3.88292e-10
  904 -4.08818e-10 -1.14337e-08 3.56447e-09
  905 5.60855e-12 1.51582e-12 -1.06809e-13
  906 -2.01726e-10 7.69433e-11 4.64228e-10
  907 -3.09228e-12 -9.09495e-13 -1.10219e-13
  908 -1.36800e-08 -2.41395e-09 1.49293e-08
  909 -1.36424e-12 -1.36424e-12 -6.15357e-13
  910 -9.09495e-13 -7.57912e-13 1.03092e-12
  911 -1.78291e-09 -1.04546e-09 1.98017e-09
  912 -1.57790e-08 1.14051e-09 6.57500e-09
  913 1.42921e-12 1.29928e-13 8.27781e-14
  914 3.11827e-12 7.79567e-13 3.44578e-13
  915 -1.64474e-08 3.48791e-09 8.23306e-09
  916 -1.76387e-08 2.72303e-09 6.45617e-09
  917 5.45697e-13 -1.81899e-13 2.35509e-12
  918 1.81899e-13 -9.09495e-13 -1.42722e-13
  919 1.81899e-12 4.54747e-13 -6.01178e-14
  920 -3.33481e-12 -1.97057e-12 -3.96024e-13
  921 -1.36424e-12 -6.06330e-13 -2.58067e-13
  922 3.48640e-12 3.94114e-12 5.38019e-13
  923 -1.09353e-08 4.22763e-09 9.85992e-09
  924 3.63798e-12 2.72848e-12 1.29841e-12
  925 -1.09139e-12 -3.63798e-13 -8.39655e-14
  926 -2.01040e-08 1.77661e-09 3.32955e-09
  927 -2.09588e-08 7.46513e-10 3.49492e-09
  928 -9.09495e-13 -5.45697e-13 2.65268e-14
  929 -4.85064e-12 -2.12215e-12 -9.68207e-13
  930 -1.09427e-09 -2.80837e-09 2.53483e-09
  931 -7.57912e-13 -1.06108e-12 -9.55096e-13
  932 -5.94597e-09 3.28555e-09 7.15699e-10
  933 -1.29470e-08 5.20231e-10 7.81479e-09
  934 5.30539e-12 9.09495e-13 1.50194e-13
  935 -1.60967e-08 4.37816e-09 6.23812e-09
  936 -6.06330e-13 -3.03165e-13 4.56407e-13
  937 -5.45697e-11 -5.34783e-11 -9.22261e-12
  938 -1.56895e-08 3.48464e-09 4.08573e-09
  939 3.63798e-12 9.09495e-13 -4.07692e-13
  940 1.94892e-12 2.59856e-13 1.45104e-13
  941 2.57690e-12 -1.51582e-13 1.38563e-13
  942 7.27596e-13 1.81899e-13 -4.85575e-13
  943 -1.08252e-08 2.60789e-09 1.36255e-09
  944 5.45697e-13 7.27596e-13 1.55724e-12
  945 4.80759e-10 1.64982e-10 -8.34123e-11
  946 -3.63031e-08 7.86546e-09 1.04634e-08
  947 1.98394e-08 8.36262e-09 -1.24108e-08
  948 -1.51582e-12 -9.09495e-13 2.26904e-14
  949 5.02456e-08 4.23150e-08 -4.14280e-08
  950 -1.47631e-08 4.23879e-09 4.31581e-09
  951 2.72848e-12 3.63798e-13 -3.96251e-13
  952 1.76286e-08 4.12946e-08 -2.81295e-08
  953 -9.19746e-09 7.86096e-08 -1.98941e-08
  954 -1.46683e-08 -1.25698e-08 3.34553e-08
  955 1.61075e-08 3.65283e-09 -3.95248e-09
  956 -7.86213e-09 1.78973e-09 3.16045e-10
  957 6.06330e-13 1.51582e-13 -6.98785e-13
  958 -1.66741e-12 -1.21266e-12 1.46789e-13
  959 -4.83033e-09 -9.67201e-08 4.04389e-08
  960 3.03165e-13 -4.54747e-13 -3.71107e-13
  961 1.81899e-12 3.63798e-13 -8.58732e-16
  962 1.95469e-09 1.65473e-09 -1.16207e-10
  963 -6.17365e-09 -9.69188e-09 1.21513e-08
  964 1.36424e-12 2.27374e-12 7.06173e-13
  965 -1.04752e-08 -6.63604e-08 2.58616e-08
  966 4.99308e-08 8.95761e-09 -1.81438e-08
  967 1.51582e-13 6.06330e-13 -1.60051e-13
  968 -8.05903e-09 -1.44064e-10 4.99077e-09
  969 2.18279e-12 5.45697e-13 1.28621e-13
  970 -9.28321e-08 -4.58252e-08 4.79032e-08
  971 -1.45231e-08 1.57491e-08 -5.59198e-09
  972 -2.76926e-08 1.33869e-08 9.35969e-10
  973 5.75953e-09 1.29127e-08 -1.22897e-08
  974 -2.71933e-08 -1.00139e-08 6.25288e-08
  975 -5.71284e-09 -2.13436e-08 1.38698e-08
  976 -1.45519e-12 -3.02923e-29 1.35253e-13
  977 -1.11049e-09 -1.94071e-09 1.88946e-09
  978 -3.33481e-12 -1.21266e-12 -8.32341e-13
  979 2.02796e-08 2.50535e-09 -3.56245e-09
  980 -2.05907e-08 -1.82429e-08 5.09154e-08
  981 -1.81899e-12 -4.54747e-13 7.62826e-13
  982 2.85841e-12 -1.29928e-13 -1.12516e-13
  983 8.01655e-11 4.46172e-10 -9.21578e-11
  984 1.11961e-08 1.84282e-09 -9.59016e-10
  985 -1.11366e-08 8.68113e-09 2.85186e-09
  986 -1.51582e-12 -1.21266e-12 1.23688e-13
  987 -1.52007e-08 -3.28949e-09 1.66300e-08
  988 -1.51582e-13 -3.03165e-13 -3.42967e-13
  989 -1.00974e-28 -1.36424e-12 -7.67767e-13
  990 2.17845e-08 3.76137e-09 -5.49914e-09
  991 -2.80594e-09 -9.61942e-10 2.66410e-09
  992 -4.54747e-13 -9.09495e-13 -1.61318e-12
  993 -1.78291e-08 9.16937e-09 7.91623e-09
  994 -1.81899e-13 4.18368e-12 1.22601e-12
  995 -1.51582e-13 -3.03165e-13 4.23415e-13
  996 2.54659e-12 0.00000 4.28008e-14
  997 -5.60376e-09 1.52777e-09 1.34094e-10
  998 3.50805e-12 5.19711e-13 1.58170e-12
  999 -3.58081e-10 -4.29281e-10 4.22698e-10
  1000 2.18279e-12 5.45697e-13 2.08463e-13
  1001 1.84972e-08 7.54274e-10 -2.70101e-10
  1002 3.03165e-13 -4.54747e-13 -2.60763e-13
  1003 1.19023e-09 -4.69511e-09 6.20156e-10
  1004 -1.51664e-08 2.23129e-09 1.09062e-08
  1005 -6.06330e-13 -9.09495e-13 5.30160e-13
  1006 -1.81199e-08 1.91706e-09 6.07848e-09
  1007 1.66741e-12 1.51582e-13 5.34797e-13
  1008 -9.07403e-09 3.04615e-08 -7.57780e-09
  1009 -2.12215e-12 -6.06330e-13 6.98494e-13
  1010 -1.37240e-08 8.83769e-10 1.09542e-08
  1011 2.59856e-13 -1.29928e-13 -7.82649e-13
  1012 -4.85064e-12 -1.21266e-12 -4.89827e-13
  1013 -3.03165e-13 -1.51582e-13 -2.94776e-13
  1014 -2.01856e-08 1.50156e-08 -9.44381e-10
  1015 3.03165e-12 6.06330e-13 -3.81966e-13
  1016 -3.62919e-09 -7.62611e-09 8.18559e-09
  1017 -4.73101e-09 -2.84672e-10 3.07960e-09
  1018 -7.27596e-13 -1.81899e-13 -1.30504e-13
  1019 7.15764e-07 4.07262e-07 9.74559e-08
  1020 -3.98009e-08 -3.31875e-08 3.65283e-08
  1021 1.84991e-10 7.21011e-09 -1.87343e-09
  1022 -1.76688e-08 7.54744e-09 9.45634e-09
  1023 -3.28986e-08 9.11677e-09 2.69505e-09
  1024 -1.21266e-12 -9.09495e-13 1.71972e-12
  1025 1.45519e-12 3.63798e-13 -1.67873e-13
  1026 1.45519e-12 3.63798e-13 -2.87739e-15
  1027 -1.51545e-08 1.07821e-09 1.93145e-10
  1028 -1.81899e-12 -4.54747e-13 -1.21086e-14
  1029 -5.54185e-09 7.69054e-09 1.66969e-10
  1030 -1.63785e-08 6.00843e-09 8.71144e-09
  1031 -1.21266e-12 -3.03165e-13 -2.07249e-13
  1032 -8.97726e-09 -8.92087e-09 1.45250e-08
  1033 -1.21169e-28 -3.02923e-29 2.25882e-12
  1034 -1.79236e-08 1.00808e-09 8.09676e-10
  1035 9.09495e-13 -9.09495e-13 -1.31790e-13
  1036 1.39362e-08 2.98483e-09 -2.64043e-09
  1037 -3.17197e-08 1.88775e-09 1.84253e-08
  1038 3.03165e-13 0.00000 -8.04561e-13
  1039 -1.26911e-08 1.30355e-08 -3.97258e-10
  1040 -5.19711e-13 -1.03942e-12 -2.48154e-13
  1041 -5.34991e-09 2.44459e-09 5.38274e-10
  1042 2.68417e-08 4.76575e-10 -9.80757e-10
  1043 -3.48640e-12 -1.21266e-12 9.37419e-13
  1044 1.66163e-07 6.84875e-08 -8.47921e-08
  1045 1.36424e-12 -4.54747e-13 2.92265e-13
  1046 -1.81899e-12 -4.54747e-13 -1.45089e-12
  1047 -4.54747e-13 -9.09495e-13 8.58913e-13
  1048 -1.50914e-08 4.30711e-10 1.42069e-08
  1049 -4.09273e-12 -1.81899e-12 3.06928e-13
  1050 -1.45519e-12 -3.63798e-13 -3.25094e-13
  1051 -9.33975e-09 -3.42349e-09 1.17465e-08
  1052 -3.03165e-13 -6.06330e-13 -5.02211e-13
  1053 -2.13868e-09 -8.13831e-09 6.32451e-09
  1054 -1.51582e-13 -3.03165e-13 1.88832e-12
  1055 -5.45697e-13 -7.27596e-13 7.75705e-14
  1056 -2.38151e-08 6.51198e-10 1.12247e-09
  1057 -2.32822e-08 -1.07302e-08 2.35796e-08
  1058 1.81171e-09 3.26654e-09 -2.30005e-10
  1059 2.34512e-08 4.32965e-09 -7.04782e-09
  1060 -1.37708e-08 1.40206e-08 -1.83054e-09
  1061 -1.53638e-08 9.62180e-09 5.54212e-09
  1062 -4.19868e-09 -1.47293e-09 4.25312e-09
  1063 -1.36424e-12 -6.06330e-13 -1.20837e-13
  1064 9.09495e-13 -3.03165e-13 -3.73574e-14
  1065 -2.57690e-12 -9.09495e-13 1.72507e-12
  1066 3.52884e-11 -5.49517e-10 5.78778e-10
  1067 -4.91127e-12 -2.00089e-12 2.67548e-13
  1068 -8.68749e-09 -5.30023e-09 1.24557e-08
  1069 -1.36424e-12 -6.06330e-13 -1.09490e-12
  1070 2.10821e-10 4.25898e-09 -3.69814e-10
  1071 -2.42532e-12 -6.06330e-13 -8.07423e-14
  1072 -1.04743e-08 -3.19233e-10 8.01728e-09
  1073 6.51471e-09 2.08396e-08 -1.84961e-08
  1074 -1.51975e-08 1.20679e-08 2.65877e-09
  1075 -1.94892e-12 -1.16935e-12 2.21660e-13
  1076 -4.54747e-13 -9.09495e-13 -2.54492e-13
  1077 2.76794e-08 1.12741e-09 -2.54293e-09
  1078 1.51582e-12 1.51582e-12 4.45369e-13
  1079 -1.84790e-08 -4.61634e-10 1.68511e-08
  1080 -2.13415e-08 8.34698e-09 1.09595e-08
  1081 -2.72848e-12 -7.57912e-13 -9.36369e-13
  1082 2.36469e-12 -3.63798e-13 -8.43953e-13
  1083 -2.11791e-09 1.06097e-08 -3.74102e-09
  1084 0.00000 0.00000 1.06014e-13
  1085 -5.19711e-13 -6.49639e-13 -3.11887e-13
  1086 -3.16517e-09 3.90823e-09 3.87678e-10
  1087 -3.70756e-09 -4.42333e-09 6.39269e-09
  1088 5.45697e-12 1.13687e-12 -6.22298e-13
  1089 -5.45697e-13 5.45697e-13 9.61132e-13
  1090 -1.55017e-08 2.62116e-09 9.82708e-09
  1091 -1.51582e-12 -9.09495e-13 -3.13050e-13
  1092 -1.63659e-08 2.35514e-09 7.78173e-09
  1093 3.03165e-12 7.57912e-13 6.21281e-13
  1094 4.72937e-12 2.54659e-12 1.86620e-12
  1095 2.91273e-08 7.25913e-09 -1.36281e-08
  1096 -1.66219e-08 7.23245e-09 8.40797e-09
  1097 -7.27596e-13 -1.81899e-13 -3.59418e-13
  1098 3.78107e-09 -3.38265e-08 8.57914e-09
  1099 1.45519e-12 3.63798e-13 8.29018e-13
  1100 -7.49757e-09 1.55231e-08 -8.13854e-09
  1101 2.72848e-12 1.81899e-13 -6.78306e-13
  1102 3.14632e-08 7.22139e-11 -3.74979e-10
  1103 3.34153e-07 8.44229e-08 1.12235e-07
  1104 -8.24245e-09 1.23532e-08 -2.57579e-09
  1105 -7.57912e-13 -4.54747e-13 4.12815e-13
  1106 -1.21266e-12 -9.09495e-13 -4.80026e-13
  1107 3.21309e-08 1.61913e-09 -4.48473e-09
  1108 3.24150e-08 1.07464e-07 -5.81050e-08
  1109 -1.43738e-08 7.78400e-09 5.77502e-09
  1110 -5.40535e-08 -2.81443e-08 1.67627e-08
  1111 -2.20824e-08 1.55616e-08 2.13603e-09
  1112 -7.73369e-08 5.27927e-08 8.74875e-08
  1113 3.40724e-08 3.19778e-10 -1.07530e-09
  1114 -1.41285e-08 5.99975e-09 5.29336e-09
  1115 -1.76336e-08 -2.40949e-08 2.42353e-08
  1116 -2.35630e-08 3.23162e-09 1.65733e-08
  1117 -3.63798e-12 -1.51582e-12 5.61890e-14
  1118 2.88007e-12 3.03165e-13 -1.78905e-13
  1119 2.00089e-12 1.81899e-13 -1.70103e-13
  1120 2.61629e-08 2.80615e-08 -2.77360e-08
  1121 4.16185e-09 2.82271e-09 -5.95038e-10
  1122 3.69038e-08 2.24797e-10 -1.77590e-09
  1123 -1.81020e-09 -1.87735e-09 2.58005e-09
  1124 -1.21266e-12 -3.03165e-13 6.93512e-13
  1125 -4.54747e-13 -9.09495e-13 8.02936e-13
  1126 -2.80822e-09 -2.78472e-09 4.10584e-09
  1127 1.21266e-12 3.03165e-13 -2.47836e-13
  1128 -2.18279e-12 -5.45697e-13 -8.02714e-13
  1129 -1.08641e-08 1.42263e-09 2.97093e-10
  1130 4.55031e-08 9.23137e-10 -3.70075e-09
  1131 -1.45519e-12 -3.63798e-13 -9.22043e-13
  1132 7.27596e-13 1.81899e-13 1.41824e-15
  1133 8.06618e-09 8.09853e-09 -6.51449e-09
  1134 -1.52048e-08 -1.43192e-08 2.06934e-08
  1135 1.30984e-08 3.78532e-09 -3.24798e-09
  1136 -1.72557e-08 1.81414e-09 6.69070e-09
  1137 4.54747e-12 1.06108e-12 -3.21151e-13
  1138 -1.08374e-08 -1.26242e-08 1.76099e-08
  1139 -3.52931e-08 -1.20654e-08 1.76774e-08
  1140 -3.27418e-12 -1.45519e-12 1.07599e-12
  1141 -2.19765e-08 1.04501e-09 3.44828e-09
  1142 1.45519e-12 1.81899e-13 -7.02976e-13
  1143 -7.73070e-10 8.97277e-09 -3.12472e-09
  1144 6.06330e-13 1.51582e-13 6.60904e-13
  1145 -1.24487e-08 2.81792e-09 1.83401e-09
  1146 -3.13961e-08 -2.23819e-08 4.49263e-08
  1147 -3.93356e-09 1.23523e-08 -5.15985e-09
  1148 4.72937e-12 1.45519e-12 7.13928e-14
  1149 -2.22811e-09 -1.57021e-08 7.77092e-09
  1150 4.85064e-12 3.03165e-12 -1.23236e-12
  1151 -4.37003e-08 7.46184e-08 2.18345e-08
  1152 -8.82619e-09 -1.79443e-09 9.22782e-09
  1153 3.03165e-13 7.57912e-13 -1.25349e-13
  1154 -7.57912e-13 -4.54747e-13 1.42983e-12
  1155 4.54747e-12 1.27329e-12 -3.12389e-13
  1156 9.40418e-11 -1.97124e-09 8.73368e-10
  1157 3.63798e-13 -5.45697e-13 7.89314e-14
  1158 0.00000 3.63798e-13 -5.42702e-13
  1159 -2.74993e-08 3.99632e-10 1.11447e-09
  1160 -1.10773e-08 -2.02999e-09 1.22717e-08
  1161 -1.81899e-13 -3.63798e-13 -4.49945e-13
  1162 -2.18883e-08 4.11637e-10 1.66558e-09
  1163 2.18279e-12 5.45697e-13 -4.06967e-14
  1164 0.00000 0.00000 -2.96080e-14
  1165 -8.90122e-09 3.58887e-10 1.86517e-09
  1166 -3.81988e-12 -1.27329e-12 -2.30449e-13
  1167 -1.31407e-08 6.82539e-09 4.70040e-09
  1168 -7.58973e-10 -1.84245e-08 4.32093e-09
  1169 -4.54747e-13 4.54747e-13 -4.20131e-13
  1170 -1.92272e-08 1.38455e-09 1.61747e-09
  1171 -7.57912e-13 -4.54747e-13 -4.29238e-14
  1172 1.08941e-08 1.24768e-09 -2.58298e-10
  1173 -5.76013e-12 -1.66741e-12 4.72474e-13
  1174 -1.81899e-12 -1.09139e-12 -2.05337e-12
  1175 3.99032e-08 7.95080e-10 -3.00922e-09
  1176 5.45697e-12 5.45697e-13 -7.28357e-13
  1177 6.84809e-08 1.78508e-08 -3.01088e-08
  1178 -7.37600e-10 -5.83744e-09 3.80580e-09
  1179 -2.72848e-12 -1.06108e-12 2.53111e-12
  1180 2.91038e-12 7.27596e-13 -1.68041e-13
  1181 -2.50366e-09 -2.85945e-10 1.94574e-09
  1182 -2.54659e-12 -1.27329e-12 -3.60800e-14
  1183 -1.24192e-08 -2.12382e-08 4.05379e-08
  1184 -8.16660e-08 -6.38296e-08 3.69342e-08
  1185 -4.52928e-11 1.52360e-08 -1.14554e-08
  1186 -1.13449e-08 1.19981e-09 1.91734e-10
  1187 -1.81899e-12 -1.09139e-12 1.70978e-13
  1188 -4.67744e-08 -1.05039e-08 3.93720e-08
  1189 3.63798e-13 0.00000 3.01947e-13
  1190 -2.17726e-08 1.20253e-09 3.09127e-09
  1191 -4.72937e-12 -1.81899e-12 1.57048e-13
  1192 5.09317e-12 1.09139e-12 1.14128e-12
  1193 -3.41061e-12 -2.50111e-12 1.89789e-12
  1194 2.57690e-12 -3.03165e-13 -5.12974e-13
  1195 -1.27329e-12 3.63798e-13 -2.44167e-13
  1196 -1.39112e-08 4.47623e-10 1.26433e-08
  1197 -6.06330e-13 -1.51582e-13 -9.82432e-13
  1198 -1.54390e-08 -7.70615e-09 1.88957e-08
  1199 -1.45519e-12 -3.63798e-13 9.67034e-13
  1200 -1.20253e-08 1.65892e-10 8.64305e-09
  1201 1.63709e-12 5.45697e-13 -3.02458e-13
  1202 3.35907e-10 -5.01968e-08 8.21895e-09
  1203 -5.16357e-09 -7.97008e-09 1.05251e-08
  1204 4.91127e-12 2.54659e-12 8.74058e-13
  1205 4.95508e-09 8.30369e-09 -4.75788e-09
  1206 9.09495e-13 -1.81899e-13 1.72084e-12
  1207 -2.12722e-08 1.02273e-09 1.87317e-09
  1208 1.21266e-12 3.03165e-13 3.04593e-13
  1209 -6.00545e-08 -8.69389e-08 4.32717e-08
  1210 2.72848e-12 4.91127e-12 -1.96093e-12
  1211 6.81848e-09 1.53314e-07 -5.98337e-08
  1212 -1.04312e-08 -1.22309e-09 1.01911e-08
  1213 5.82077e-12 1.09139e-12 3.67035e-14
  1214 1.81899e-12 -1.81899e-13 -2.42459e-13
  1215 -3.04330e-08 1.90994e-10 5.51049e-10
  1216 7.02312e-09 1.02947e-08 -8.90529e-09
  1217 1.62378e-08 4.34405e-09 -4.76136e-09
  1218 -3.53457e-08 -2.57169e-08 3.16752e-08
  1219 -2.75824e-08 -1.73626e-08 4.37778e-08
  1220 -2.33316e-08 7.15409e-09 1.26644e-08
  1221 9.56425e-09 3.10265e-09 -1.71792e-09
  1222 -3.21058e-08 -2.45564e-10 -1.04881e-11
  1223 0.00000 0.00000 -3.93729e-13
  1224 -1.35193e-08 3.34694e-10 4.57987e-09
  1225 -2.36469e-12 -7.27596e-13 4.91393e-13
  1226 -2.23346e-08 4.68420e-09 1.48076e-08
  1227 2.52836e-08 2.57296e-09 -4.55496e-09
  1228 -2.18279e-12 -1.21169e-28 -7.66798e-13
  1229 -1.36424e-12 -6.06330e-13 2.84558e-13
  1230 -2.46200e-08 -1.94383e-08 2.72255e-08
  1231 -2.62647e-08 7.90866e-09 1.24977e-08
  1232 -1.97057e-12 -7.57912e-13 -4.03901e-13
  1233 3.61558e-08 2.05659e-09 -6.43465e-09
  1234 2.42532e-12 6.06330e-13 -8.50759e-13
  1235 3.63798e-13 0.00000 -1.29986e-12
  1236 4.36557e-12 1.09139e-12 4.55152e-13
  1237 -1.75982e-08 3.26252e-08 3.83695e-12
  1238 -1.92464e-08 5.39567e-09 1.29935e-08
  1239 2.66913e-08 2.59206e-10 -4.96737e-10
  1240 -9.78795e-08 -3.20715e-08 1.31988e-07
  1241 -1.34622e-08 1.79953e-09 1.01416e-09
  1242 -3.63798e-13 -1.81899e-13 4.36606e-13
  1243 -1.81899e-13 -3.63798e-13 6.11468e-13
  1244 -1.74423e-09 5.27416e-09 4.43971e-09
  1245 1.14596e-11 3.27418e-12 7.74771e-13
  1246 -6.63931e-11 -2.99278e-09 9.55837e-10
  1247 3.94114e-12 1.21266e-12 -1.12729e-12
  1248 -2.48037e-09 1.84573e-09 1.58414e-10
  1249 7.27596e-13 1.81899e-13 -4.79981e-13
  1250 -6.81697e-09 1.12652e-08 -1.82601e-09
  1251 -4.41575e-09 5.63064e-08 -1.47844e-08
  1252 -3.63798e-12 -9.09495e-13 1.45660e-12
  1253 3.07335e-08 -2.19795e-11 -2.22302e-10
  1254 -5.56341e-08 -3.25122e-08 4.48104e-08
  1255 -1.45519e-12 2.18104e-27 -1.08260e-12
  1256 -1.65388e-08 1.71567e-09 1.77894e-09
  1257 3.44274e-09 1.25904e-08 -9.66498e-09
  1258 -5.24610e-08 -4.29936e-08 2.42250e-08
  1259 -2.18279e-12 -1.81899e-12 -6.07467e-14
  1260 -4.08691e-09 6.74790e-09 2.17185e-11
  1261 6.06330e-13 -9.09495e-13 3.08518e-13
  1262 6.69525e-09 5.34078e-09 -2.70806e-09
  1263 -2.33316e-09 -1.92243e-08 8.48072e-09
  1264 -1.37467e-08 1.73944e-08 -9.12145e-09
  1265 -3.63798e-13 -1.81899e-13 7.11655e-13
  1266 -1.51582e-12 7.57912e-13 9.37496e-13
  1267 -3.26714e-08 9.01400e-09 1.03963e-08
  1268 -4.13394e-08 -9.00006e-09 2.50389e-08
  1269 0.00000 3.03165e-13 -1.07109e-13
  1270 -6.06330e-13 -1.51582e-13 -1.25068e-13
  1271 3.07323e-08 1.89478e-11 -4.03659e-11
  1272 1.30905e-08 6.45668e-09 -6.48444e-09
  1273 -1.73050e-08 1.19308e-09 1.51055e-08
  1274 -5.31436e-09 1.72460e-08 -1.15942e-08
  1275 3.61761e-09 -2.63390e-10 5.20087e-09
  1276 2.36469e-12 7.27596e-13 9.21309e-13
  1277 -2.14459e-09 -5.20458e-09 5.12898e-09
  1278 5.68434e-12 1.59162e-12 -1.29719e-12
  1279 -3.38481e-08 1.03515e-08 5.15674e-09
  1280 -1.14253e-08 3.35876e-09 2.07772e-09
  1281 9.09495e-13 9.09495e-13 1.01260e-12
  1282 1.01545e-08 1.53339e-08 -1.72328e-08
  1283 2.42532e-12 6.06330e-13 1.26624e-13
  1284 -1.94647e-08 8.16878e-10 4.15513e-09
  1285 -4.50806e-10 -9.31929e-10 7.81026e-10
  1286 2.42532e-12 4.54747e-13 3.44322e-12
  1287 -2.16076e-08 1.26875e-09 2.38045e-09
  1288 5.45697e-13 -1.81899e-13 -1.31866e-14
  1289 -1.54153e-08 8.29762e-09 6.64239e-09
  1290 -7.27596e-13 -1.81899e-13 -1.07564e-12
  1291 -4.81705e-09 1.88047e-09 3.36073e-10
  1292 -3.63798e-13 -7.27596e-13 1.49677e-12
  1293 -1.21266e-12 -9.09495e-13 -8.58458e-14
  1294 -1.69768e-08 1.42882e-09 6.26001e-09
  1295 9.09495e-13 -1.81899e-13 3.38585e-13
  1296 -1.06108e-12 -1.06108e-12 -2.41851e-13
  1297 -1.45519e-12 -3.63798e-13 -8.71406e-13
  1298 2.78074e-08 2.57569e-10 -1.78512e-10
  1299 1.45519e-12 3.63798e-13 6.86566e-13
  1300 -3.33133e-08 -2.20937e-08 2.78443e-08
  1301 1.09139e-12 -3.63798e-13 9.62702e-13
  1302 1.95652e-08 7.86531e-10 -5.85918e-10
  1303 -2.04636e-12 2.27374e-13 1.48366e-13
  1304 3.20719e-08 1.25692e-10 -6.09076e-10
  1305 -2.50568e-08 1.42236e-08 1.16818e-08
  1306 -2.91686e-08 -1.32706e-08 3.39799e-08
  1307 -5.45697e-13 -1.09139e-12 -3.14176e-13
  1308 5.34237e-10 1.89357e-10 -1.64294e-10
  1309 6.18456e-12 1.81899e-12 -9.32002e-13
  1310 -2.91038e-12 -7.27596e-13 1.82094e-13
  1311 -4.39559e-09 5.22286e-09 3.33563e-10
  1312 1.51582e-12 1.51582e-12 5.41112e-13
  1313 -1.40168e-08 -5.67579e-09 1.73661e-08
  1314 2.72848e-12 1.81899e-13 6.59868e-13
  1315 -3.78956e-12 -4.54747e-12 -2.00174e-12
  1316 1.26218e-08 1.23000e-09 -4.72479e-10
  1317 1.45519e-12 3.63798e-13 2.75374e-13
  1318 -9.81527e-10 -6.70479e-10 1.03480e-09
  1319 9.09495e-13 -7.27596e-13 7.89302e-13
  1320 6.46085e-08 1.34623e-09 -7.30459e-09
  1321 -2.43958e-08 -1.46215e-08 5.08653e-08
  1322 -2.57414e-08 4.29645e-10 1.43695e-09
  1323 -1.63709e-12 -7.27596e-13 2.34035e-13
  1324 -1.38875e-08 1.64149e-08 -7.63963e-09
  1325 -3.98359e-09 -2.35787e-09 5.08758e-09
  1326 0.00000 0.00000 1.06367e-12
  1327 -2.28776e-08 5.45242e-10 5.22721e-10
  1328 -6.06330e-13 -1.51582e-13 4.34716e-13
  1329 8.51160e-08 4.42424e-09 -1.33796e-08
  1330 -3.19713e-08 1.96633e-10 2.59907e-10
  1331 -3.63798e-13 -7.27596e-13 2.25547e-13
  1332 3.01696e-08 1.05883e-09 -2.69471e-09
  1333 -7.35636e-09 -2.83544e-08 4.05189e-08
</Section>

