newXOutput 1

<Section columns = "stress_xx | stress_yy | stress_xy">
  1 0.00000 0.00000 0.00000
  2 0.00000 0.00000 0.00000
  3 0.00000 0.00000 0.00000
  4 0.00000 0.00000 0.00000
  5 0.00000 0.00000 0.00000
  6 0.00000 0.00000 0.00000
  7 0.00000 0.00000 0.00000
  8 0.00000 0.00000 0.00000
</Section>

newXOutput 2

<Section columns = "stress_xx | stress_yy | stress_xy">
  1 20.6577 -7.13044e-10 4.97993e-16
  2 20.6577 -7.13044e-10 6.38405e-16
  3 20.6577 -7.13044e-10 2.78314e-15
  4 20.6577 -7.13044e-10 3.08284e-15
  5 20.6577 -7.13044e-10 -6.26674e-16
  6 20.6577 -7.13044e-10 -5.61320e-16
  7 20.6577 -7.13044e-10 -3.99646e-16
  8 20.6577 -7.13044e-10 -9.44472e-16
</Section>

newXOutput 3

<Section columns = "stress_xx | stress_yy | stress_xy">
  1 41.2185 -0.00389820 -2.62943e-14
  2 41.2185 -0.00389820 -2.55477e-14
  3 41.2185 -0.00389820 -1.41126e-15
  4 41.2185 -0.00389820 -6.64679e-16
  5 41.2185 -0.00389820 -1.28567e-14
  6 41.2185 -0.00389820 -1.29217e-14
  7 41.2185 -0.00389820 -1.57896e-14
  8 41.2185 -0.00389820 -1.75312e-14
</Section>

newXOutput 4

<Section columns = "stress_xx | stress_yy | stress_xy">
  1 61.6850 -0.00389012 1.72269e-14
  2 61.6850 -0.00389012 1.74130e-14
  3 61.6850 -0.00389012 1.29045e-14
  4 61.6850 -0.00389012 1.30022e-14
  5 61.6850 -0.00389012 -9.98303e-16
  6 61.6850 -0.00389012 -8.49064e-16
  7 61.6850 -0.00389012 6.12802e-16
  8 61.6850 -0.00389012 6.94920e-15
</Section>

newXOutput 5

<Section columns = "stress_xx | stress_yy | stress_xy">
  1 82.0568 -0.00388296 -2.71597e-14
  2 82.0568 -0.00388296 -2.66032e-14
  3 82.0568 -0.00388296 -1.44015e-14
  4 82.0568 -0.00388296 -1.39564e-14
  5 82.0568 -0.00388296 4.77887e-15
  6 82.0568 -0.00388296 4.05931e-15
  7 82.0568 -0.00388296 -2.34848e-14
  8 82.0568 -0.00388296 -2.61202e-14
</Section>

newXOutput 6

<Section columns = "stress_xx | stress_yy | stress_xy">
  1 102.334 -0.00387583 -3.06071e-15
  2 102.334 -0.00387583 -2.22844e-15
  3 102.334 -0.00387583 -1.97304e-14
  4 102.334 -0.00387583 -1.89171e-14
  5 102.334 -0.00387583 -8.99243e-15
  6 102.334 -0.00387583 -9.34145e-15
  7 102.334 -0.00387583 4.66862e-15
  8 102.334 -0.00387583 2.31463e-15
</Section>

newXOutput 7

<Section columns = "stress_xx | stress_yy | stress_xy">
  1 122.518 -0.00386872 5.66941e-14
  2 122.518 -0.00386872 5.70629e-14
  3 122.518 -0.00386872 2.20418e-14
  4 122.518 -0.00386872 2.26949e-14
  5 122.518 -0.00386872 2.07364e-14
  6 122.518 -0.00386872 1.95303e-14
  7 122.518 -0.00386872 3.55686e-14
  8 122.518 -0.00386872 3.04981e-14
</Section>

newXOutput 8

<Section columns = "stress_xx | stress_yy | stress_xy">
  1 142.609 -0.00386164 -2.23538e-14
  2 142.609 -0.00386164 -2.11589e-14
  3 142.609 -0.00386164 -1.26623e-14
  4 142.609 -0.00386164 -1.11846e-14
  5 142.609 -0.00386164 7.22424e-15
  6 142.609 -0.00386164 6.70807e-15
  7 142.609 -0.00386164 1.67903e-14
  8 142.609 -0.00386164 1.22786e-14
</Section>

newXOutput 9

<Section columns = "stress_xx | stress_yy | stress_xy">
  1 162.607 -0.00385458 -2.55817e-14
  2 162.607 -0.00385458 -2.37489e-14
  3 162.607 -0.00385458 -2.19565e-14
  4 162.607 -0.00385458 -2.07128e-14
  5 162.607 -0.00385458 4.39802e-15
  6 162.607 -0.00385458 3.14725e-15
  7 162.607 -0.00385458 -5.97155e-14
  8 162.607 -0.00385458 -6.45881e-14
</Section>

newXOutput 10

<Section columns = "stress_xx | stress_yy | stress_xy">
  1 182.514 -0.00384755 -1.00594e-14
  2 182.514 -0.00384755 -8.78035e-15
  3 182.514 -0.00384755 -4.15243e-15
  4 182.514 -0.00384755 -3.18711e-15
  5 182.514 -0.00384755 -2.08848e-14
  6 182.514 -0.00384755 -1.74809e-14
  7 182.514 -0.00384755 -2.81747e-14
  8 182.514 -0.00384755 3.69378e-15
</Section>

newXOutput 11

<Section columns = "stress_xx | stress_yy | stress_xy">
  1 202.328 -0.00384054 2.13462e-14
  2 202.328 -0.00384054 2.20749e-14
  3 202.328 -0.00384054 3.76213e-15
  4 202.328 -0.00384054 7.04823e-15
  5 202.328 -0.00384054 5.99204e-15
  6 202.328 -0.00384054 1.87451e-14
  7 202.328 -0.00384054 -1.13191e-14
  8 202.328 -0.00384054 2.03269e-14
</Section>

newXOutput 12

<Section columns = "stress_xx | stress_yy | stress_xy">
  1 222.052 -0.00383356 -1.22304e-14
  2 222.052 -0.00383356 -1.09591e-14
  3 222.052 -0.00383356 -2.09373e-14
  4 222.052 -0.00383356 -1.99789e-14
  5 222.052 -0.00383356 -5.52831e-14
  6 222.052 -0.00383356 -5.26053e-14
  7 222.052 -0.00383356 -4.31749e-14
  8 222.052 -0.00383356 -1.62395e-14
</Section>

newXOutput 13

<Section columns = "stress_xx | stress_yy | stress_xy">
  1 241.685 -0.00382660 1.69205e-14
  2 241.685 -0.00382660 1.89123e-14
  3 241.685 -0.00382660 7.20723e-15
  4 241.685 -0.00382660 8.92740e-15
  5 241.685 -0.00382660 -6.66190e-14
  6 241.685 -0.00382660 -6.84122e-14
  7 241.685 -0.00382660 1.46338e-14
  8 241.685 -0.00382660 2.76940e-15
</Section>

newXOutput 14

<Section columns = "stress_xx | stress_yy | stress_xy">
  1 261.229 -0.00381966 1.28956e-14
  2 261.229 -0.00381966 1.56035e-14
  3 261.229 -0.00381966 9.15164e-15
  4 261.229 -0.00381966 1.08744e-14
  5 261.229 -0.00381966 4.96144e-14
  6 261.229 -0.00381966 4.61271e-14
  7 261.229 -0.00381966 2.16903e-14
  8 261.229 -0.00381966 1.05678e-14
</Section>

newXOutput 15

<Section columns = "stress_xx | stress_yy | stress_xy">
  1 280.683 -0.00381275 -5.18780e-15
  2 280.683 -0.00381275 -1.94807e-15
  3 280.683 -0.00381275 -1.41358e-14
  4 280.683 -0.00381275 -1.24193e-14
  5 280.683 -0.00381275 2.77108e-15
  6 280.683 -0.00381275 -6.21826e-16
  7 280.683 -0.00381275 -2.57130e-14
  8 280.683 -0.00381275 -3.60979e-14
</Section>

newXOutput 16

<Section columns = "stress_xx | stress_yy | stress_xy">
  1 300.048 -0.00380586 -3.11536e-14
  2 300.048 -0.00380586 -2.75647e-14
  3 300.048 -0.00380586 -2.39467e-14
  4 300.048 -0.00380586 -2.11598e-14
  5 300.048 -0.00380586 -1.31229e-14
  6 300.048 -0.00380586 -1.52555e-14
  7 300.048 -0.00380586 -4.02081e-14
  8 300.048 -0.00380586 -4.98598e-14
</Section>

newXOutput 17

<Section columns = "stress_xx | stress_yy | stress_xy">
  1 319.325 -0.00379899 -3.42375e-15
  2 319.325 -0.00379899 -2.03423e-16
  3 319.325 -0.00379899 3.66449e-14
  4 319.325 -0.00379899 4.36803e-14
  5 319.325 -0.00379899 3.82484e-14
  6 319.325 -0.00379899 5.43198e-14
  7 319.325 -0.00379899 -4.67095e-14
  8 319.325 -0.00379899 -5.59902e-14
</Section>

newXOutput 18

<Section columns = "stress_xx | stress_yy | stress_xy">
  1 338.514 -0.00379215 -3.07275e-15
  2 338.514 -0.00379215 4.94691e-16
  3 338.514 -0.00379215 1.12041e-15
  4 338.514 -0.00379215 3.71023e-15
  5 338.514 -0.00379215 -2.39524e-14
  6 338.514 -0.00379215 -2.62627e-14
  7 338.514 -0.00379215 2.19288e-14
  8 338.514 -0.00379215 1.23034e-14
</Section>

newXOutput 19

<Section columns = "stress_xx | stress_yy | stress_xy">
  1 357.616 -0.00378533 -2.66710e-14
  2 357.616 -0.00378533 -2.20472e-14
  3 357.616 -0.00378533 2.09502e-15
  4 357.616 -0.00378533 5.20956e-15
  5 357.616 -0.00378533 -3.88729e-14
  6 357.616 -0.00378533 -4.15380e-14
  7 357.616 -0.00378533 -7.46365e-14
  8 357.616 -0.00378533 -8.49601e-14
</Section>

newXOutput 20

<Section columns = "stress_xx | stress_yy | stress_xy">
  1 376.631 -0.00377854 1.77867e-14
  2 376.631 -0.00377854 2.27514e-14
  3 376.631 -0.00377854 3.98324e-14
  4 376.631 -0.00377854 4.82453e-14
  5 376.631 -0.00377854 5.03524e-14
  6 376.631 -0.00377854 6.72422e-14
  7 376.631 -0.00377854 5.69839e-14
  8 376.631 -0.00377854 4.84486e-14
</Section>

newXOutput 21

<Section columns = "stress_xx | stress_yy | stress_xy">
  1 395.560 -0.00377177 -1.60421e-14
  2 395.560 -0.00377177 -9.67800e-15
  3 395.560 -0.00377177 -1.91068e-14
  4 395.560 -0.00377177 -1.56593e-14
  5 395.560 -0.00377177 1.32408e-13
  6 395.560 -0.00377177 1.30101e-13
  7 395.560 -0.00377177 9.25966e-14
  8 395.560 -0.00377177 8.40712e-14
</Section>

newXOutput 22

<Section columns = "stress_xx | stress_yy | stress_xy">
  1 414.403 -0.00376502 7.60569e-16
  2 414.403 -0.00376502 8.16320e-15
  3 414.403 -0.00376502 1.51607e-15
  4 414.403 -0.00376502 4.77598e-15
  5 414.403 -0.00376502 8.66870e-15
  6 414.403 -0.00376502 3.89293e-15
  7 414.403 -0.00376502 -8.21695e-14
  8 414.403 -0.00376502 -1.00963e-13
</Section>

newXOutput 23

<Section columns = "stress_xx | stress_yy | stress_xy">
  1 433.160 -0.00375829 -2.91483e-14
  2 433.160 -0.00375829 -6.80158e-16
  3 433.160 -0.00375829 6.94699e-15
  4 433.160 -0.00375829 -3.43530e-14
  5 433.160 -0.00375829 5.14504e-14
  6 433.160 -0.00375829 -1.56882e-14
  7 433.160 -0.00375829 1.53798e-14
  8 433.160 -0.00375829 4.61000e-14
</Section>

newXOutput 24

<Section columns = "stress_xx | stress_yy | stress_xy">
  1 451.833 -0.00375159 -8.05003e-15
  2 451.833 -0.00375159 1.75302e-14
  3 451.833 -0.00375159 5.62700e-14
  4 451.833 -0.00375159 3.15658e-14
  5 451.833 -0.00375159 8.49173e-14
  6 451.833 -0.00375159 1.08921e-13
  7 451.833 -0.00375159 -4.40429e-14
  8 451.833 -0.00375159 7.89526e-14
</Section>

newXOutput 25

<Section columns = "stress_xx | stress_yy | stress_xy">
  1 470.421 -0.00374491 -2.72035e-14
  2 470.421 -0.00374491 -7.28917e-15
  3 470.421 -0.00374491 -3.68968e-14
  4 470.421 -0.00374491 -5.75176e-14
  5 470.421 -0.00374491 -5.63171e-14
  6 470.421 -0.00374491 -9.00977e-14
  7 470.421 -0.00374491 -1.38380e-13
  8 470.421 -0.00374491 -1.51509e-13
</Section>

newXOutput 26

<Section columns = "stress_xx | stress_yy | stress_xy">
  1 488.925 -0.00373825 2.21159e-14
  2 488.925 -0.00373825 4.02295e-14
  3 488.925 -0.00373825 8.77122e-14
  4 488.925 -0.00373825 6.85535e-14
  5 488.925 -0.00373825 6.45666e-14
  6 488.925 -0.00373825 3.70282e-14
  7 488.925 -0.00373825 1.74323e-14
  8 488.925 -0.00373825 5.35648e-15
</Section>

newXOutput 27

<Section columns = "stress_xx | stress_yy | stress_xy">
  1 507.347 -0.00373162 -1.95537e-14
  2 507.347 -0.00373162 -2.88284e-15
  3 507.347 -0.00373162 -6.07115e-14
  4 507.347 -0.00373162 -7.08629e-14
  5 507.347 -0.00373162 4.75536e-15
  6 507.347 -0.00373162 1.35916e-14
  7 507.347 -0.00373162 5.52194e-15
  8 507.347 -0.00373162 -6.89606e-15
</Section>

newXOutput 28

<Section columns = "stress_xx | stress_yy | stress_xy">
  1 525.685 -0.00372500 2.86881e-14
  2 525.685 -0.00372500 2.41865e-14
  3 525.685 -0.00372500 3.67239e-14
  4 525.685 -0.00372500 6.59710e-14
  5 525.685 -0.00372500 4.73299e-14
  6 525.685 -0.00372500 8.13381e-14
  7 525.685 -0.00372500 1.05453e-13
  8 525.685 -0.00372500 1.03776e-13
</Section>

newXOutput 29

<Section columns = "stress_xx | stress_yy | stress_xy">
  1 543.940 -0.00371841 -3.36553e-14
  2 543.940 -0.00371841 -1.77734e-14
  3 543.940 -0.00371841 -2.98958e-14
  4 543.940 -0.00371841 -2.09348e-14
  5 543.940 -0.00371841 -6.19082e-14
  6 543.940 -0.00371841 -9.62009e-14
  7 543.940 -0.00371841 -1.23301e-13
  8 543.940 -0.00371841 -2.00615e-13
</Section>

newXOutput 30

<Section columns = "stress_xx | stress_yy | stress_xy">
  1 562.114 -0.00371184 -6.39913e-15
  2 562.114 -0.00371184 1.11572e-14
  3 562.114 -0.00371184 -1.64236e-14
  4 562.114 -0.00371184 -9.72867e-15
  5 562.114 -0.00371184 4.25304e-14
  6 562.114 -0.00371184 3.27683e-14
  7 562.114 -0.00371184 4.92366e-15
  8 562.114 -0.00371184 -1.71147e-14
</Section>

newXOutput 31

<Section columns = "stress_xx | stress_yy | stress_xy">
  1 580.206 -0.00370530 -4.60512e-14
  2 580.206 -0.00370530 -2.88897e-14
  3 580.206 -0.00370530 -8.30211e-14
  4 580.206 -0.00370530 -7.66911e-14
  5 580.206 -0.00370530 1.57089e-14
  6 580.206 -0.00370530 5.96387e-15
  7 580.206 -0.00370530 -3.59337e-14
  8 580.206 -0.00370530 -5.75943e-14
</Section>

newXOutput 32

<Section columns = "stress_xx | stress_yy | stress_xy">
  1 598.218 -0.00369877 9.55599e-14
  2 598.218 -0.00369877 8.63627e-15
  3 598.218 -0.00369877 -7.59961e-15
  4 598.218 -0.00369877 -4.28671e-14
  5 598.218 -0.00369877 -1.49096e-13
  6 598.218 -0.00369877 -6.90278e-14
  7 598.218 -0.00369877 -2.44008e-13
  8 598.218 -0.00369877 -1.60232e-13
</Section>

newXOutput 33

<Section columns = "stress_xx | stress_yy | stress_xy">
  1 616.148 -0.00369227 -1.09960e-13
  2 616.148 -0.00369227 -7.51563e-14
  3 616.148 -0.00369227 2.47802e-13
  4 616.148 -0.00369227 2.69446e-13
  5 616.148 -0.00369227 -1.90647e-13
  6 616.148 -0.00369227 -1.94216e-13
  7 616.148 -0.00369227 1.51850e-13
  8 616.148 -0.00369227 1.29573e-13
</Section>

newXOutput 34

<Section columns = "stress_xx | stress_yy | stress_xy">
  1 633.999 -0.00368579 -1.90928e-14
  2 633.999 -0.00368579 1.15263e-14
  3 633.999 -0.00368579 7.63880e-14
  4 633.999 -0.00368579 9.89864e-14
  5 633.999 -0.00368579 5.99692e-14
  6 633.999 -0.00368579 6.35435e-14
  7 633.999 -0.00368579 1.87389e-13
  8 633.999 -0.00368579 1.73313e-13
</Section>

newXOutput 35

<Section columns = "stress_xx | stress_yy | stress_xy">
  1 651.770 -0.00367933 -5.09476e-15
  2 651.770 -0.00367933 2.27209e-14
  3 651.770 -0.00367933 -8.40016e-15
  4 651.770 -0.00367933 1.27732e-14
  5 651.770 -0.00367933 -5.45199e-14
  6 651.770 -0.00367933 -5.09677e-14
  7 651.770 -0.00367933 -1.45753e-13
  8 651.770 -0.00367933 -1.59818e-13
</Section>

newXOutput 36

<Section columns = "stress_xx | stress_yy | stress_xy">
  1 669.461 -0.00367289 -2.56741e-14
  2 669.461 -0.00367289 3.41302e-15
  3 669.461 -0.00367289 -1.80353e-14
  4 669.461 -0.00367289 3.68364e-16
  5 669.461 -0.00367289 -1.71701e-13
  6 669.461 -0.00367289 -1.58904e-13
  7 669.461 -0.00367289 -1.93262e-13
  8 669.461 -0.00367289 -7.59470e-14
</Section>

newXOutput 37

<Section columns = "stress_xx | stress_yy | stress_xy">
  1 687.074 -0.00366648 1.90329e-14
  2 687.074 -0.00366648 4.93839e-14
  3 687.074 -0.00366648 2.42991e-14
  4 687.074 -0.00366648 5.30153e-14
  5 687.074 -0.00366648 1.97788e-13
  6 687.074 -0.00366648 2.28370e-13
  7 687.074 -0.00366648 5.74983e-14
  8 687.074 -0.00366648 3.19900e-14
</Section>

newXOutput 38

<Section columns = "stress_xx | stress_yy | stress_xy">
  1 704.609 -0.00366008 4.61033e-14
  2 704.609 -0.00366008 1.04598e-15
  3 704.609 -0.00366008 3.82849e-14
  4 704.609 -0.00366008 -8.31895e-15
  5 704.609 -0.00366008 -1.27070e-14
  6 704.609 -0.00366008 -3.91464e-14
  7 704.609 -0.00366008 2.18736e-14
  8 704.609 -0.00366008 1.05325e-14
</Section>

newXOutput 39

<Section columns = "stress_xx | stress_yy | stress_xy">
  1 722.065 -0.00365371 -2.61685e-14
  2 722.065 -0.00365371 1.33931e-14
  3 722.065 -0.00365371 1.18364e-14
  4 722.065 -0.00365371 3.77845e-14
  5 722.065 -0.00365371 -1.42921e-14
  6 722.065 -0.00365371 -1.95439e-14
  7 722.065 -0.00365371 -1.26599e-13
  8 722.065 -0.00365371 -1.56041e-13
</Section>

newXOutput 40

<Section columns = "stress_xx | stress_yy | stress_xy">
  1 739.445 -0.00364736 6.26668e-15
  2 739.445 -0.00364736 4.23702e-14
  3 739.445 -0.00364736 2.92165e-14
  4 739.445 -0.00364736 5.40841e-14
  5 739.445 -0.00364736 -1.50926e-14
  6 739.445 -0.00364736 -1.93376e-14
  7 739.445 -0.00364736 -2.76435e-14
  8 739.445 -0.00364736 -5.63612e-14
</Section>

newXOutput 41

<Section columns = "stress_xx | stress_yy | stress_xy">
  1 756.747 -0.00364103 4.49507e-14
  2 756.747 -0.00364103 -6.90444e-14
  3 756.747 -0.00364103 -7.94632e-14
  4 756.747 -0.00364103 -1.15667e-13
  5 756.747 -0.00364103 -2.42884e-14
  6 756.747 -0.00364103 -1.81995e-14
  7 756.747 -0.00364103 3.87893e-14
  8 756.747 -0.00364103 2.79255e-15
</Section>

newXOutput 42

<Section columns = "stress_xx | stress_yy | stress_xy">
  1 773.973 -0.00363472 -7.41896e-15
  2 773.973 -0.00363472 3.84454e-14
  3 773.973 -0.00363472 -5.94330e-14
  4 773.973 -0.00363472 -2.74020e-14
  5 773.973 -0.00363472 -9.69607e-14
  6 773.973 -0.00363472 -1.01204e-13
  7 773.973 -0.00363472 -1.87443e-13
  8 773.973 -0.00363472 -2.20706e-13
</Section>

newXOutput 43

<Section columns = "stress_xx | stress_yy | stress_xy">
  1 791.122 -0.00362843 1.50391e-14
  2 791.122 -0.00362843 2.56434e-14
  3 791.122 -0.00362843 7.65470e-14
  4 791.122 -0.00362843 8.23035e-14
  5 791.122 -0.00362843 5.93685e-13
  6 791.122 -0.00362843 6.11335e-13
  7 791.122 -0.00362843 4.18088e-15
  8 791.122 -0.00362843 1.37136e-13
</Section>

newXOutput 44

<Section columns = "stress_xx | stress_yy | stress_xy">
  1 808.196 -0.00362216 -8.05982e-15
  2 808.196 -0.00362216 1.19207e-15
  3 808.196 -0.00362216 -5.55193e-14
  4 808.196 -0.00362216 -2.85821e-14
  5 808.196 -0.00362216 -3.08776e-13
  6 808.196 -0.00362216 -2.38986e-13
  7 808.196 -0.00362216 -1.46203e-13
  8 808.196 -0.00362216 -1.62811e-13
</Section>

newXOutput 45

<Section columns = "stress_xx | stress_yy | stress_xy">
  1 825.194 -0.00361591 -2.29006e-14
  2 825.194 -0.00361591 -8.40398e-15
  3 825.194 -0.00361591 -1.44482e-13
  4 825.194 -0.00361591 -1.35679e-13
  5 825.194 -0.00361591 3.32251e-14
  6 825.194 -0.00361591 2.38493e-14
  7 825.194 -0.00361591 -1.10235e-13
  8 825.194 -0.00361591 -1.32095e-13
</Section>

newXOutput 46

<Section columns = "stress_xx | stress_yy | stress_xy">
  1 842.118 -0.00360968 -6.34709e-14
  2 842.118 -0.00360968 -4.90162e-14
  3 842.118 -0.00360968 2.05957e-13
  4 842.118 -0.00360968 2.15716e-13
  5 842.118 -0.00360968 1.53589e-14
  6 842.118 -0.00360968 5.23833e-15
  7 842.118 -0.00360968 -1.09312e-13
  8 842.118 -0.00360968 -1.47709e-13
</Section>

newXOutput 47

<Section columns = "stress_xx | stress_yy | stress_xy">
  1 858.967 -0.00360348 1.13984e-14
  2 858.967 -0.00360348 2.71216e-14
  3 858.967 -0.00360348 1.84439e-13
  4 858.967 -0.00360348 2.13310e-13
  5 858.967 -0.00360348 5.69241e-14
  6 858.967 -0.00360348 1.22389e-13
  7 858.967 -0.00360348 -2.80066e-14
  8 858.967 -0.00360348 -3.06272e-14
</Section>

newXOutput 48

<Section columns = "stress_xx | stress_yy | stress_xy">
  1 875.742 -0.00359729 5.66859e-14
  2 875.742 -0.00359729 -7.91884e-14
  3 875.742 -0.00359729 -3.91244e-14
  4 875.742 -0.00359729 -9.23636e-14
  5 875.742 -0.00359729 -8.40089e-14
  6 875.742 -0.00359729 -7.70306e-14
  7 875.742 -0.00359729 -6.52628e-14
  8 875.742 -0.00359729 -1.06821e-13
</Section>

newXOutput 49

<Section columns = "stress_xx | stress_yy | stress_xy">
  1 892.444 -0.00359112 -4.70896e-14
  2 892.444 -0.00359112 -1.64757e-14
  3 892.444 -0.00359112 -1.52874e-13
  4 892.444 -0.00359112 -1.45383e-13
  5 892.444 -0.00359112 -2.67446e-13
  6 892.444 -0.00359112 -2.34767e-13
  7 892.444 -0.00359112 -2.18008e-13
  8 892.444 -0.00359112 -1.63103e-13
</Section>

newXOutput 50

<Section columns = "stress_xx | stress_yy | stress_xy">
  1 909.072 -0.00358498 -2.97078e-14
  2 909.072 -0.00358498 -2.19139e-14
  3 909.072 -0.00358498 2.91493e-13
  4 909.072 -0.00358498 2.97877e-13
  5 909.072 -0.00358498 -1.87225e-13
  6 909.072 -0.00358498 -2.12359e-13
  7 909.072 -0.00358498 7.80835e-14
  8 909.072 -0.00358498 3.58670e-14
</Section>

newXOutput 51

<Section columns = "stress_xx | stress_yy | stress_xy">
  1 925.628 -0.00357885 -4.22023e-15
  2 925.628 -0.00357885 6.14163e-15
  3 925.628 -0.00357885 9.65262e-14
  4 925.628 -0.00357885 1.04507e-13
  5 925.628 -0.00357885 4.74266e-14
  6 925.628 -0.00357885 2.33213e-14
  7 925.628 -0.00357885 -7.51227e-14
  8 925.628 -0.00357885 -1.15923e-13
</Section>

newXOutput 52

<Section columns = "stress_xx | stress_yy | stress_xy">
  1 942.111 -0.00357275 -5.38665e-14
  2 942.111 -0.00357275 -5.45123e-14
  3 942.111 -0.00357275 -6.84901e-14
  4 942.111 -0.00357275 -6.91359e-14
  5 942.111 -0.00357275 -1.27913e-15
  6 942.111 -0.00357275 -2.50852e-14
  7 942.111 -0.00357275 3.52318e-15
  8 942.111 -0.00357275 -6.94315e-14
</Section>

newXOutput 53

<Section columns = "stress_xx | stress_yy | stress_xy">
  1 958.522 -0.00356666 4.78767e-14
  2 958.522 -0.00356666 3.24230e-14
  3 958.522 -0.00356666 -1.88334e-14
  4 958.522 -0.00356666 5.51344e-15
  5 958.522 -0.00356666 -2.21268e-13
  6 958.522 -0.00356666 -1.74355e-13
  7 958.522 -0.00356666 -2.71829e-13
  8 958.522 -0.00356666 -2.55129e-13
</Section>

newXOutput 54

<Section columns = "stress_xx | stress_yy | stress_xy">
  1 974.861 -0.00356060 7.01655e-15
  2 974.861 -0.00356060 1.88008e-15
  3 974.861 -0.00356060 1.15474e-13
  4 974.861 -0.00356060 1.08928e-13
  5 974.861 -0.00356060 4.19439e-13
  6 974.861 -0.00356060 3.86546e-13
  7 974.861 -0.00356060 1.18834e-13
  8 974.861 -0.00356060 1.77658e-13
</Section>

newXOutput 55

<Section columns = "stress_xx | stress_yy | stress_xy">
  1 991.130 -0.00355455 2.55506e-14
  2 991.130 -0.00355455 1.65875e-14
  3 991.130 -0.00355455 4.88658e-14
  4 991.130 -0.00355455 3.89424e-14
  5 991.130 -0.00355455 7.92755e-15
  6 991.130 -0.00355455 1.99694e-14
  7 991.130 -0.00355455 -7.96780e-14
  8 991.130 -0.00355455 1.36529e-13
</Section>

newXOutput 56

<Section columns = "stress_xx | stress_yy | stress_xy">
  1 1007.33 -0.00354852 3.71043e-15
  2 1007.33 -0.00354852 -3.31188e-15
  3 1007.33 -0.00354852 -9.46116e-14
  4 1007.33 -0.00354852 -8.60275e-14
  5 1007.33 -0.00354852 -6.74100e-14
  6 1007.33 -0.00354852 -2.63400e-14
  7 1007.33 -0.00354852 -2.43752e-13
  8 1007.33 -0.00354852 -2.76309e-13
</Section>

newXOutput 57

<Section columns = "stress_xx | stress_yy | stress_xy">
  1 1023.45 -0.00354252 8.82056e-15
  2 1023.45 -0.00354252 8.82056e-15
  3 1023.45 -0.00354252 9.69646e-14
  4 1023.45 -0.00354252 8.15516e-14
  5 1023.45 -0.00354252 1.39410e-13
  6 1023.45 -0.00354252 1.45278e-13
  7 1023.45 -0.00354252 6.66172e-14
  8 1023.45 -0.00354252 9.62667e-14
</Section>

newXOutput 58

<Section columns = "stress_xx | stress_yy | stress_xy">
  1 1039.51 -0.00353653 5.66099e-14
  2 1039.51 -0.00353653 2.80459e-14
  3 1039.51 -0.00353653 3.50037e-15
  4 1039.51 -0.00353653 -2.29807e-14
  5 1039.51 -0.00353653 2.31903e-15
  6 1039.51 -0.00353653 -6.23087e-14
  7 1039.51 -0.00353653 -3.98307e-14
  8 1039.51 -0.00353653 -1.57586e-13
</Section>

newXOutput 59

<Section columns = "stress_xx | stress_yy | stress_xy">
  1 1055.50 -0.00353056 -3.78269e-14
  2 1055.50 -0.00353056 -8.84625e-14
  3 1055.50 -0.00353056 -6.85567e-14
  4 1055.50 -0.00353056 -6.34931e-14
  5 1055.50 -0.00353056 -3.86798e-14
  6 1055.50 -0.00353056 9.11368e-16
  7 1055.50 -0.00353056 -5.44380e-14
  8 1055.50 -0.00353056 -6.17817e-14
</Section>

newXOutput 60

<Section columns = "stress_xx | stress_yy | stress_xy">
  1 1071.42 -0.00352461 -1.26855e-14
  2 1071.42 -0.00352461 1.44537e-14
  3 1071.42 -0.00352461 -1.23814e-13
  4 1071.42 -0.00352461 -9.08244e-14
  5 1071.42 -0.00352461 -7.42895e-14
  6 1071.42 -0.00352461 -5.48708e-14
  7 1071.42 -0.00352461 -1.90125e-13
  8 1071.42 -0.00352461 2.85891e-14
</Section>

newXOutput 61

<Section columns = "stress_xx | stress_yy | stress_xy">
  1 1087.27 -0.00351869 4.18789e-14
  2 1087.27 -0.00351869 -1.54635e-15
  3 1087.27 -0.00351869 -2.91262e-14
  4 1087.27 -0.00351869 -4.56383e-14
  5 1087.27 -0.00351869 -6.26014e-14
  6 1087.27 -0.00351869 -5.34247e-14
  7 1087.27 -0.00351869 5.92513e-14
  8 1087.27 -0.00351869 5.43538e-14
</Section>

newXOutput 62

<Section columns = "stress_xx | stress_yy | stress_xy">
  1 1103.05 -0.00351278 9.34574e-15
  2 1103.05 -0.00351278 -3.08184e-14
  3 1103.05 -0.00351278 1.03045e-14
  4 1103.05 -0.00351278 -3.96797e-15
  5 1103.05 -0.00351278 -1.07380e-13
  6 1103.05 -0.00351278 -9.76238e-14
  7 1103.05 -0.00351278 -2.75180e-13
  8 1103.05 -0.00351278 -2.80120e-13
</Section>

newXOutput 63

<Section columns = "stress_xx | stress_yy | stress_xy">
  1 1118.76 -0.00350689 2.22185e-14
  2 1118.76 -0.00350689 -3.53538e-14
  3 1118.76 -0.00350689 1.96602e-13
  4 1118.76 -0.00350689 1.66096e-13
  5 1118.76 -0.00350689 1.73511e-13
  6 1118.76 -0.00350689 1.77586e-13
  7 1118.76 -0.00350689 5.26387e-13
  8 1118.76 -0.00350689 5.25160e-13
</Section>

newXOutput 64

<Section columns = "stress_xx | stress_yy | stress_xy">
  1 1134.40 -0.00350101 7.56965e-14
  2 1134.40 -0.00350101 4.55889e-15
  3 1134.40 -0.00350101 2.72890e-13
  4 1134.40 -0.00350101 2.29362e-13
  5 1134.40 -0.00350101 4.75585e-14
  6 1134.40 -0.00350101 4.59846e-14
  7 1134.40 -0.00350101 -2.46606e-13
  8 1134.40 -0.00350101 -2.46638e-13
</Section>

newXOutput 65

<Section columns = "stress_xx | stress_yy | stress_xy">
  1 1149.98 -0.00349516 -4.59799e-14
  2 1149.98 -0.00349516 -2.98014e-14
  3 1149.98 -0.00349516 -1.46217e-13
  4 1149.98 -0.00349516 -1.01267e-13
  5 1149.98 -0.00349516 -2.22694e-13
  6 1149.98 -0.00349516 -2.64731e-13
  7 1149.98 -0.00349516 -2.64362e-14
  8 1149.98 -0.00349516 -1.97020e-13
</Section>

newXOutput 66

<Section columns = "stress_xx | stress_yy | stress_xy">
  1 1165.49 -0.00348933 2.63366e-14
  2 1165.49 -0.00348933 1.02039e-14
  3 1165.49 -0.00348933 -4.68455e-14
  4 1165.49 -0.00348933 -3.24295e-14
  5 1165.49 -0.00348933 2.40027e-13
  6 1165.49 -0.00348933 2.55339e-13
  7 1165.49 -0.00348933 -2.36719e-13
  8 1165.49 -0.00348933 -5.94954e-14
</Section>

newXOutput 67

<Section columns = "stress_xx | stress_yy | stress_xy">
  1 1180.94 -0.00348351 -6.74955e-14
  2 1180.94 -0.00348351 -1.39269e-13
  3 1180.94 -0.00348351 1.38341e-13
  4 1180.94 -0.00348351 1.21776e-13
  5 1180.94 -0.00348351 -2.63903e-13
  6 1180.94 -0.00348351 -2.63672e-13
  7 1180.94 -0.00348351 7.06075e-15
  8 1180.94 -0.00348351 -4.38747e-14
</Section>

newXOutput 68

<Section columns = "stress_xx | stress_yy | stress_xy">
  1 1196.31 -0.00347771 6.99594e-14
  2 1196.31 -0.00347771 6.25554e-14
  3 1196.31 -0.00347771 2.43130e-14
  4 1196.31 -0.00347771 2.44494e-14
  5 1196.31 -0.00347771 2.70471e-13
  6 1196.31 -0.00347771 2.65744e-13
  7 1196.31 -0.00347771 -1.48494e-13
  8 1196.31 -0.00347771 -1.78364e-13
</Section>

newXOutput 69

<Section columns = "stress_xx | stress_yy | stress_xy">
  1 1211.62 -0.00347194 1.56110e-14
  2 1211.62 -0.00347194 2.91467e-14
  3 1211.62 -0.00347194 1.09075e-13
  4 1211.62 -0.00347194 1.04286e-13
  5 1211.62 -0.00347194 5.87222e-15
  6 1211.62 -0.00347194 -1.30132e-14
  7 1211.62 -0.00347194 -1.91417e-14
  8 1211.62 -0.00347194 -4.65216e-14
</Section>

newXOutput 70

<Section columns = "stress_xx | stress_yy | stress_xy">
  1 1226.87 -0.00346618 5.60277e-14
  2 1226.87 -0.00346618 -3.47745e-14
  3 1226.87 -0.00346618 -3.70468e-14
  4 1226.87 -0.00346618 -4.36673e-14
  5 1226.87 -0.00346618 2.78730e-14
  6 1226.87 -0.00346618 5.13528e-14
  7 1226.87 -0.00346618 -8.29279e-14
  8 1226.87 -0.00346618 -1.26238e-13
</Section>

newXOutput 71

<Section columns = "stress_xx | stress_yy | stress_xy">
  1 1242.05 -0.00346043 1.57389e-14
  2 1242.05 -0.00346043 -7.23609e-14
  3 1242.05 -0.00346043 -1.27297e-14
  4 1242.05 -0.00346043 -1.87235e-14
  5 1242.05 -0.00346043 -2.34817e-13
  6 1242.05 -0.00346043 -2.10200e-13
  7 1242.05 -0.00346043 -4.11096e-13
  8 1242.05 -0.00346043 -4.50668e-13
</Section>

newXOutput 72

<Section columns = "stress_xx | stress_yy | stress_xy">
  1 1257.17 -0.00345471 6.13174e-14
  2 1257.17 -0.00345471 -2.28748e-14
  3 1257.17 -0.00345471 -1.16648e-13
  4 1257.17 -0.00345471 -1.22019e-13
  5 1257.17 -0.00345471 -2.11904e-14
  6 1257.17 -0.00345471 4.55590e-15
  7 1257.17 -0.00345471 7.19257e-14
  8 1257.17 -0.00345471 3.72897e-14
</Section>

newXOutput 73

<Section columns = "stress_xx | stress_yy | stress_xy">
  1 1272.22 -0.00344901 5.39219e-14
  2 1272.22 -0.00344901 -2.15170e-14
  3 1272.22 -0.00344901 1.36276e-13
  4 1272.22 -0.00344901 1.35784e-13
  5 1272.22 -0.00344901 -2.47964e-13
  6 1272.22 -0.00344901 -2.21702e-13
  7 1272.22 -0.00344901 -1.73799e-14
  8 1272.22 -0.00344901 -5.19737e-14
</Section>

newXOutput 74

<Section columns = "stress_xx | stress_yy | stress_xy">
  1 1287.20 -0.00344332 5.32086e-15
  2 1287.20 -0.00344332 -6.62668e-14
  3 1287.20 -0.00344332 7.66676e-14
  4 1287.20 -0.00344332 7.85998e-14
  5 1287.20 -0.00344332 3.84496e-13
  6 1287.20 -0.00344332 4.07023e-13
  7 1287.20 -0.00344332 -6.27052e-14
  8 1287.20 -0.00344332 -1.05750e-13
</Section>

newXOutput 75

<Section columns = "stress_xx | stress_yy | stress_xy">
  1 1302.13 -0.00343765 -5.06359e-14
  2 1302.13 -0.00343765 1.03029e-13
  3 1302.13 -0.00343765 -5.31838e-14
  4 1302.13 -0.00343765 -3.79512e-14
  5 1302.13 -0.00343765 -2.92137e-13
  6 1302.13 -0.00343765 -3.51971e-13
  7 1302.13 -0.00343765 -2.04990e-13
  8 1302.13 -0.00343765 -2.14091e-13
</Section>

newXOutput 76

<Section columns = "stress_xx | stress_yy | stress_xy">
  1 1316.99 -0.00343200 -2.74280e-14
  2 1316.99 -0.00343200 2.32483e-14
  3 1316.99 -0.00343200 1.02172e-14
  4 1316.99 -0.00343200 3.62629e-14
  5 1316.99 -0.00343200 1.19034e-13
  6 1316.99 -0.00343200 8.95104e-14
  7 1316.99 -0.00343200 5.44766e-14
  8 1316.99 -0.00343200 -1.86019e-14
</Section>

newXOutput 77

<Section columns = "stress_xx | stress_yy | stress_xy">
  1 1331.78 -0.00342637 -5.75374e-14
  2 1331.78 -0.00342637 -1.18153e-14
  3 1331.78 -0.00342637 -1.14821e-13
  4 1331.78 -0.00342637 -8.70469e-14
  5 1331.78 -0.00342637 1.02709e-13
  6 1331.78 -0.00342637 8.10679e-14
  7 1331.78 -0.00342637 -1.29073e-13
  8 1331.78 -0.00342637 -1.94783e-13
</Section>

newXOutput 78

<Section columns = "stress_xx | stress_yy | stress_xy">
  1 1346.52 -0.00342075 -9.94600e-14
  2 1346.52 -0.00342075 -5.86648e-14
  3 1346.52 -0.00342075 -2.71325e-13
  4 1346.52 -0.00342075 -2.50735e-13
  5 1346.52 -0.00342075 -4.52195e-13
  6 1346.52 -0.00342075 -4.79394e-13
  7 1346.52 -0.00342075 -1.99612e-13
  8 1346.52 -0.00342075 -2.54395e-13
</Section>

newXOutput 79

<Section columns = "stress_xx | stress_yy | stress_xy">
  1 1361.19 -0.00341516 -5.93686e-14
  2 1361.19 -0.00341516 -1.50974e-14
  3 1361.19 -0.00341516 -1.19777e-13
  4 1361.19 -0.00341516 -9.51559e-14
  5 1361.19 -0.00341516 1.12300e-13
  6 1361.19 -0.00341516 9.19343e-14
  7 1361.19 -0.00341516 -1.22360e-13
  8 1361.19 -0.00341516 -1.80633e-13
</Section>

newXOutput 80

<Section columns = "stress_xx | stress_yy | stress_xy">
  1 1375.80 -0.00340958 -4.24045e-14
  2 1375.80 -0.00340958 -5.91092e-14
  3 1375.80 -0.00340958 -1.53657e-13
  4 1375.80 -0.00340958 -1.87574e-13
  5 1375.80 -0.00340958 2.26798e-14
  6 1375.80 -0.00340958 2.68101e-14
  7 1375.80 -0.00340958 -4.22694e-14
  8 1375.80 -0.00340958 4.56595e-15
</Section>

newXOutput 81

<Section columns = "stress_xx | stress_yy | stress_xy">
  1 1390.35 -0.00340402 -1.53225e-14
  2 1390.35 -0.00340402 -1.65123e-14
  3 1390.35 -0.00340402 -1.12533e-13
  4 1390.35 -0.00340402 -1.04120e-13
  5 1390.35 -0.00340402 -3.40123e-13
  6 1390.35 -0.00340402 -3.56848e-13
  7 1390.35 -0.00340402 -2.14449e-13
  8 1390.35 -0.00340402 -2.78457e-13
</Section>

newXOutput 82

<Section columns = "stress_xx | stress_yy | stress_xy">
  1 1404.83 -0.00339847 -4.15614e-14
  2 1404.83 -0.00339847 1.89541e-14
  3 1404.83 -0.00339847 -9.43726e-14
  4 1404.83 -0.00339847 -9.25118e-14
  5 1404.83 -0.00339847 -4.69647e-14
  6 1404.83 -0.00339847 -8.38355e-14
  7 1404.83 -0.00339847 -3.20130e-13
  8 1404.83 -0.00339847 -3.49602e-13
</Section>

newXOutput 83

<Section columns = "stress_xx | stress_yy | stress_xy">
  1 1419.26 -0.00339295 4.50939e-15
  2 1419.26 -0.00339295 6.72238e-14
  3 1419.26 -0.00339295 -3.54013e-14
  4 1419.26 -0.00339295 -2.88162e-14
  5 1419.26 -0.00339295 1.36927e-13
  6 1419.26 -0.00339295 1.03096e-13
  7 1419.26 -0.00339295 2.79583e-13
  8 1419.26 -0.00339295 2.48955e-13
</Section>

newXOutput 84

<Section columns = "stress_xx | stress_yy | stress_xy">
  1 1433.62 -0.00338744 3.31562e-14
  2 1433.62 -0.00338744 -2.70246e-14
  3 1433.62 -0.00338744 7.91205e-14
  4 1433.62 -0.00338744 7.09337e-14
  5 1433.62 -0.00338744 5.20430e-14
  6 1433.62 -0.00338744 9.97135e-14
  7 1433.62 -0.00338744 -2.12100e-13
  8 1433.62 -0.00338744 2.68587e-14
</Section>

newXOutput 85

<Section columns = "stress_xx | stress_yy | stress_xy">
  1 1447.93 -0.00338195 -3.60418e-14
  2 1447.93 -0.00338195 7.49803e-15
  3 1447.93 -0.00338195 -5.39856e-14
  4 1447.93 -0.00338195 -5.86231e-14
  5 1447.93 -0.00338195 -1.87969e-13
  6 1447.93 -0.00338195 -2.26222e-13
  7 1447.93 -0.00338195 -4.25793e-13
  8 1447.93 -0.00338195 -4.86925e-13
</Section>

newXOutput 86

<Section columns = "stress_xx | stress_yy | stress_xy">
  1 1462.17 -0.00337647 -3.23207e-14
  2 1462.17 -0.00337647 -9.21694e-14
  3 1462.17 -0.00337647 -2.40625e-13
  4 1462.17 -0.00337647 -2.44666e-13
  5 1462.17 -0.00337647 6.77976e-14
  6 1462.17 -0.00337647 1.12345e-13
  7 1462.17 -0.00337647 -1.45874e-13
  8 1462.17 -0.00337647 7.84306e-14
</Section>

newXOutput 87

<Section columns = "stress_xx | stress_yy | stress_xy">
  1 1476.35 -0.00337101 -2.54355e-14
  2 1476.35 -0.00337101 -7.45867e-14
  3 1476.35 -0.00337101 1.29038e-13
  4 1476.35 -0.00337101 1.34951e-13
  5 1476.35 -0.00337101 -2.14854e-13
  6 1476.35 -0.00337101 -1.99829e-13
  7 1476.35 -0.00337101 1.23232e-13
  8 1476.35 -0.00337101 7.98558e-14
</Section>

newXOutput 88

<Section columns = "stress_xx | stress_yy | stress_xy">
  1 1490.48 -0.00336557 -3.04935e-14
  2 1490.48 -0.00336557 -7.60082e-14
  3 1490.48 -0.00336557 -9.69887e-14
  4 1490.48 -0.00336557 -8.70105e-14
  5 1490.48 -0.00336557 -2.05620e-13
  6 1490.48 -0.00336557 -1.85988e-13
  7 1490.48 -0.00336557 -1.66154e-13
  8 1490.48 -0.00336557 -2.04796e-13
</Section>

newXOutput 89

<Section columns = "stress_xx | stress_yy | stress_xy">
  1 1504.54 -0.00336015 2.28904e-15
  2 1504.54 -0.00336015 5.69891e-14
  3 1504.54 -0.00336015 6.09371e-14
  4 1504.54 -0.00336015 7.32119e-14
  5 1504.54 -0.00336015 7.48939e-14
  6 1504.54 -0.00336015 4.78984e-14
  7 1504.54 -0.00336015 -6.03950e-14
  8 1504.54 -0.00336015 -9.66560e-14
</Section>

newXOutput 90

<Section columns = "stress_xx | stress_yy | stress_xy">
  1 1518.55 -0.00335474 3.09204e-14
  2 1518.55 -0.00335474 4.94905e-14
  3 1518.55 -0.00335474 1.05767e-13
  4 1518.55 -0.00335474 1.04607e-13
  5 1518.55 -0.00335474 1.21925e-13
  6 1518.55 -0.00335474 1.11479e-13
  7 1518.55 -0.00335474 -1.94611e-13
  8 1518.55 -0.00335474 -1.94611e-13
</Section>

newXOutput 91

<Section columns = "stress_xx | stress_yy | stress_xy">
  1 1532.50 -0.00334935 -5.98384e-15
  2 1532.50 -0.00334935 1.60076e-14
  3 1532.50 -0.00334935 -2.65076e-14
  4 1532.50 -0.00334935 -3.04643e-14
  5 1532.50 -0.00334935 9.94252e-15
  6 1532.50 -0.00334935 -1.85582e-14
  7 1532.50 -0.00334935 -9.85937e-15
  8 1532.50 -0.00334935 -1.21743e-14
</Section>

newXOutput 92

<Section columns = "stress_xx | stress_yy | stress_xy">
  1 1546.38 -0.00334398 2.60206e-14
  2 1546.38 -0.00334398 4.79517e-14
  3 1546.38 -0.00334398 7.22842e-14
  4 1546.38 -0.00334398 6.89085e-14
  5 1546.38 -0.00334398 8.83353e-15
  6 1546.38 -0.00334398 -2.25010e-14
  7 1546.38 -0.00334398 -2.20438e-13
  8 1546.38 -0.00334398 -2.29672e-13
</Section>

newXOutput 93

<Section columns = "stress_xx | stress_yy | stress_xy">
  1 1560.22 -0.00333862 2.17597e-14
  2 1560.22 -0.00333862 -1.15222e-13
  3 1560.22 -0.00333862 -4.79788e-14
  4 1560.22 -0.00333862 -5.59567e-14
  5 1560.22 -0.00333862 -1.98817e-14
  6 1560.22 -0.00333862 4.60489e-14
  7 1560.22 -0.00333862 -1.83174e-13
  8 1560.22 -0.00333862 5.01677e-14
</Section>

newXOutput 94

<Section columns = "stress_xx | stress_yy | stress_xy">
  1 1573.99 -0.00333328 2.27420e-14
  2 1573.99 -0.00333328 4.68491e-14
  3 1573.99 -0.00333328 6.96407e-14
  4 1573.99 -0.00333328 9.89069e-14
  5 1573.99 -0.00333328 -1.13778e-13
  6 1573.99 -0.00333328 -6.82989e-15
  7 1573.99 -0.00333328 -1.77858e-13
  8 1573.99 -0.00333328 -2.45322e-13
</Section>

newXOutput 95

<Section columns = "stress_xx | stress_yy | stress_xy">
  1 1587.71 -0.00332796 -6.51574e-14
  2 1587.71 -0.00332796 -5.37092e-14
  3 1587.71 -0.00332796 -2.34537e-13
  4 1587.71 -0.00332796 -2.33392e-13
  5 1587.71 -0.00332796 -5.77167e-14
  6 1587.71 -0.00332796 -1.51784e-14
  7 1587.71 -0.00332796 -1.69990e-13
  8 1587.71 -0.00332796 7.22316e-14
</Section>

newXOutput 96

<Section columns = "stress_xx | stress_yy | stress_xy">
  1 1601.36 -0.00332265 1.80432e-14
  2 1601.36 -0.00332265 2.37517e-14
  3 1601.36 -0.00332265 4.17464e-14
  4 1601.36 -0.00332265 7.03938e-14
  5 1601.36 -0.00332265 -3.72899e-13
  6 1601.36 -0.00332265 -2.49590e-13
  7 1601.36 -0.00332265 -4.32056e-13
  8 1601.36 -0.00332265 -4.83377e-13
</Section>

newXOutput 97

<Section columns = "stress_xx | stress_yy | stress_xy">
  1 1614.97 -0.00331736 -3.46638e-14
  2 1614.97 -0.00331736 -3.23867e-14
  3 1614.97 -0.00331736 9.45313e-15
  4 1614.97 -0.00331736 -2.24783e-16
  5 1614.97 -0.00331736 3.39886e-13
  6 1614.97 -0.00331736 3.40455e-13
  7 1614.97 -0.00331736 2.00013e-13
  8 1614.97 -0.00331736 2.22785e-13
</Section>

newXOutput 98

<Section columns = "stress_xx | stress_yy | stress_xy">
  1 1628.51 -0.00331209 5.50676e-14
  2 1628.51 -0.00331209 5.50676e-14
  3 1628.51 -0.00331209 9.35368e-14
  4 1628.51 -0.00331209 7.71164e-14
  5 1628.51 -0.00331209 -8.04706e-14
  6 1628.51 -0.00331209 -1.06253e-13
  7 1628.51 -0.00331209 -4.29649e-13
  8 1628.51 -0.00331209 -4.72949e-13
</Section>

newXOutput 99

<Section columns = "stress_xx | stress_yy | stress_xy">
  1 1642.00 -0.00330683 4.97378e-15
  2 1642.00 -0.00330683 1.85624e-14
  3 1642.00 -0.00330683 1.49937e-13
  4 1642.00 -0.00330683 1.45407e-13
  5 1642.00 -0.00330683 6.73341e-14
  6 1642.00 -0.00330683 6.16722e-14
  7 1642.00 -0.00330683 -7.51946e-14
  8 1642.00 -0.00330683 -6.38707e-14
</Section>

newXOutput 100

<Section columns = "stress_xx | stress_yy | stress_xy">
  1 1655.44 -0.00330159 2.20403e-14
  2 1655.44 -0.00330159 2.88161e-14
  3 1655.44 -0.00330159 6.13477e-14
  4 1655.44 -0.00330159 4.66967e-14
  5 1655.44 -0.00330159 2.60482e-13
  6 1655.44 -0.00330159 2.65013e-13
  7 1655.44 -0.00330159 -2.81298e-13
  8 1655.44 -0.00330159 -6.45254e-14
</Section>

newXOutput 101

<Section columns = "stress_xx | stress_yy | stress_xy">
  1 1668.82 -0.00329637 -3.12382e-14
  2 1668.82 -0.00329637 -2.22283e-14
  3 1668.82 -0.00329637 -2.81724e-14
  4 1668.82 -0.00329637 -3.88488e-14
  5 1668.82 -0.00329637 -5.63889e-14
  6 1668.82 -0.00329637 -8.43326e-14
  7 1668.82 -0.00329637 -5.42168e-14
  8 1668.82 -0.00329637 -1.04232e-13
</Section>

newXOutput 102

<Section columns = "stress_xx | stress_yy | stress_xy">
  1 1682.14 -0.00329116 -1.22761e-13
  2 1682.14 -0.00329116 -1.05913e-13
  3 1682.14 -0.00329116 -3.35705e-13
  4 1682.14 -0.00329116 -3.54784e-13
  5 1682.14 -0.00329116 1.97734e-14
  6 1682.14 -0.00329116 -4.33068e-15
  7 1682.14 -0.00329116 -1.96498e-13
  8 1682.14 -0.00329116 -1.84721e-14
</Section>

newXOutput 103

<Section columns = "stress_xx | stress_yy | stress_xy">
  1 1695.41 -0.00328597 -3.37730e-14
  2 1695.41 -0.00328597 -1.47306e-14
  3 1695.41 -0.00328597 1.07191e-14
  4 1695.41 -0.00328597 7.92782e-15
  5 1695.41 -0.00328597 2.11700e-13
  6 1695.41 -0.00328597 1.77108e-13
  7 1695.41 -0.00328597 -2.16237e-14
  8 1695.41 -0.00328597 -9.06155e-14
</Section>

newXOutput 104

<Section columns = "stress_xx | stress_yy | stress_xy">
  1 1708.62 -0.00328079 -9.52794e-15
  2 1708.62 -0.00328079 5.26051e-16
  3 1708.62 -0.00328079 -1.71210e-13
  4 1708.62 -0.00328079 -1.63946e-13
  5 1708.62 -0.00328079 -1.01572e-13
  6 1708.62 -0.00328079 -9.75733e-14
  7 1708.62 -0.00328079 -1.14934e-13
  8 1708.62 -0.00328079 -8.70058e-14
</Section>

newXOutput 105

<Section columns = "stress_xx | stress_yy | stress_xy">
  1 1721.78 -0.00327563 -1.08481e-15
  2 1721.78 -0.00327563 2.23111e-14
  3 1721.78 -0.00327563 7.33843e-15
  4 1721.78 -0.00327563 2.73874e-14
  5 1721.78 -0.00327563 1.75263e-14
  6 1721.78 -0.00327563 -5.31652e-14
  7 1721.78 -0.00327563 -7.40704e-14
  8 1721.78 -0.00327563 -2.56531e-13
</Section>

newXOutput 106

<Section columns = "stress_xx | stress_yy | stress_xy">
  1 1734.88 -0.00327048 1.10602e-14
  2 1734.88 -0.00327048 2.55043e-14
  3 1734.88 -0.00327048 2.69783e-15
  4 1734.88 -0.00327048 2.04751e-14
  5 1734.88 -0.00327048 2.87758e-13
  6 1734.88 -0.00327048 2.37181e-13
  7 1734.88 -0.00327048 5.73146e-14
  8 1734.88 -0.00327048 -1.13644e-13
</Section>

newXOutput 107

<Section columns = "stress_xx | stress_yy | stress_xy">
  1 1747.94 -0.00326535 5.39566e-14
  2 1747.94 -0.00326535 6.50374e-14
  3 1747.94 -0.00326535 9.68988e-14
  4 1747.94 -0.00326535 1.07407e-13
  5 1747.94 -0.00326535 7.45064e-14
  6 1747.94 -0.00326535 3.68064e-14
  7 1747.94 -0.00326535 4.23916e-14
  8 1747.94 -0.00326535 -6.72632e-14
</Section>

newXOutput 108

<Section columns = "stress_xx | stress_yy | stress_xy">
  1 1760.93 -0.00326024 1.67139e-14
  2 1760.93 -0.00326024 1.00833e-14
  3 1760.93 -0.00326024 -9.80318e-14
  4 1760.93 -0.00326024 -9.63991e-14
  5 1760.93 -0.00326024 -5.07407e-14
  6 1760.93 -0.00326024 -7.84322e-14
  7 1760.93 -0.00326024 -3.60385e-13
  8 1760.93 -0.00326024 -4.49954e-13
</Section>

newXOutput 109

<Section columns = "stress_xx | stress_yy | stress_xy">
  1 1773.88 -0.00325514 -4.38912e-14
  2 1773.88 -0.00325514 -1.41339e-14
  3 1773.88 -0.00325514 1.54160e-13
  4 1773.88 -0.00325514 1.70109e-13
  5 1773.88 -0.00325514 -1.18566e-13
  6 1773.88 -0.00325514 -1.56629e-13
  7 1773.88 -0.00325514 2.17970e-13
  8 1773.88 -0.00325514 1.63966e-13
</Section>

newXOutput 110

<Section columns = "stress_xx | stress_yy | stress_xy">
  1 1786.77 -0.00325006 -3.96544e-15
  2 1786.77 -0.00325006 2.68111e-14
  3 1786.77 -0.00325006 -7.23054e-14
  4 1786.77 -0.00325006 -1.92767e-14
  5 1786.77 -0.00325006 -1.64112e-13
  6 1786.77 -0.00325006 -7.74533e-14
  7 1786.77 -0.00325006 -1.41488e-13
  8 1786.77 -0.00325006 -2.61554e-13
</Section>

newXOutput 111

<Section columns = "stress_xx | stress_yy | stress_xy">
  1 1799.61 -0.00324499 -5.96518e-15
  2 1799.61 -0.00324499 -9.25381e-15
  3 1799.61 -0.00324499 1.32393e-13
  4 1799.61 -0.00324499 1.36229e-13
  5 1799.61 -0.00324499 -2.65120e-13
  6 1799.61 -0.00324499 -2.76721e-13
  7 1799.61 -0.00324499 1.97915e-14
  8 1799.61 -0.00324499 -6.27822e-14
</Section>

newXOutput 112

<Section columns = "stress_xx | stress_yy | stress_xy">
  1 1812.39 -0.00323994 4.39528e-14
  2 1812.39 -0.00323994 4.50461e-14
  3 1812.39 -0.00323994 2.74538e-14
  4 1812.39 -0.00323994 3.23735e-14
  5 1812.39 -0.00323994 2.43300e-14
  6 1812.39 -0.00323994 1.05607e-14
  7 1812.39 -0.00323994 -1.05623e-13
  8 1812.39 -0.00323994 -1.90262e-13
</Section>

newXOutput 113

<Section columns = "stress_xx | stress_yy | stress_xy">
  1 1825.13 -0.00323490 -4.94081e-14
  2 1825.13 -0.00323490 -5.37695e-14
  3 1825.13 -0.00323490 5.10212e-14
  4 1825.13 -0.00323490 5.32018e-14
  5 1825.13 -0.00323490 -4.75405e-13
  6 1825.13 -0.00323490 -4.86425e-13
  7 1825.13 -0.00323490 -6.18005e-13
  8 1825.13 -0.00323490 -6.97066e-13
</Section>

newXOutput 114

<Section columns = "stress_xx | stress_yy | stress_xy">
  1 1837.81 -0.00322988 5.87854e-14
  2 1837.81 -0.00322988 5.98728e-14
  3 1837.81 -0.00322988 -6.85580e-14
  4 1837.81 -0.00322988 -6.91666e-14
  5 1837.81 -0.00322988 7.66288e-14
  6 1837.81 -0.00322988 5.79788e-14
  7 1837.81 -0.00322988 3.16209e-13
  8 1837.81 -0.00322988 3.05335e-13
</Section>

newXOutput 115

<Section columns = "stress_xx | stress_yy | stress_xy">
  1 1850.44 -0.00322487 -2.84670e-14
  2 1850.44 -0.00322487 -2.41290e-14
  3 1850.44 -0.00322487 2.89704e-14
  4 1850.44 -0.00322487 3.21526e-14
  5 1850.44 -0.00322487 -5.36814e-14
  6 1850.44 -0.00322487 -7.89563e-14
  7 1850.44 -0.00322487 -1.60858e-13
  8 1850.44 -0.00322487 -2.37528e-13
</Section>

newXOutput 116

<Section columns = "stress_xx | stress_yy | stress_xy">
  1 1863.02 -0.00321988 -7.00506e-14
  2 1863.02 -0.00321988 -7.22138e-14
  3 1863.02 -0.00321988 -1.44296e-13
  4 1863.02 -0.00321988 -1.42210e-13
  5 1863.02 -0.00321988 1.55931e-14
  6 1863.02 -0.00321988 -8.03013e-15
  7 1863.02 -0.00321988 -6.76102e-13
  8 1863.02 -0.00321988 -7.53748e-13
</Section>

newXOutput 117

<Section columns = "stress_xx | stress_yy | stress_xy">
  1 1875.55 -0.00321491 4.28712e-14
  2 1875.55 -0.00321491 1.48243e-14
  3 1875.55 -0.00321491 -7.40626e-14
  4 1875.55 -0.00321491 -9.03278e-14
  5 1875.55 -0.00321491 3.86338e-13
  6 1875.55 -0.00321491 3.68673e-13
  7 1875.55 -0.00321491 4.13625e-13
  8 1875.55 -0.00321491 3.58740e-13
</Section>

newXOutput 118

<Section columns = "stress_xx | stress_yy | stress_xy">
  1 1888.02 -0.00320995 6.28979e-14
  2 1888.02 -0.00320995 6.93530e-14
  3 1888.02 -0.00320995 5.89812e-15
  4 1888.02 -0.00320995 4.19361e-15
  5 1888.02 -0.00320995 -6.21913e-14
  6 1888.02 -0.00320995 -1.01903e-13
  7 1888.02 -0.00320995 1.10398e-15
  8 1888.02 -0.00320995 -9.24648e-14
</Section>

newXOutput 119

<Section columns = "stress_xx | stress_yy | stress_xy">
  1 1900.45 -0.00320500 6.40640e-14
  2 1900.45 -0.00320500 7.80129e-14
  3 1900.45 -0.00320500 1.14605e-13
  4 1900.45 -0.00320500 1.21579e-13
  5 1900.45 -0.00320500 -8.18894e-14
  6 1900.45 -0.00320500 -1.03543e-13
  7 1900.45 -0.00320500 -5.57098e-14
  8 1900.45 -0.00320500 -1.46983e-13
</Section>

newXOutput 120

<Section columns = "stress_xx | stress_yy | stress_xy">
  1 1912.83 -0.00320007 4.00916e-14
  2 1912.83 -0.00320007 -3.26775e-14
  3 1912.83 -0.00320007 1.24255e-13
  4 1912.83 -0.00320007 9.36527e-14
  5 1912.83 -0.00320007 3.86316e-13
  6 1912.83 -0.00320007 3.91150e-13
  7 1912.83 -0.00320007 -2.74372e-13
  8 1912.83 -0.00320007 -3.00223e-13
</Section>

newXOutput 121

<Section columns = "stress_xx | stress_yy | stress_xy">
  1 1925.15 -0.00319515 9.70787e-15
  2 1925.15 -0.00319515 2.89191e-14
  3 1925.15 -0.00319515 2.18876e-13
  4 1925.15 -0.00319515 2.29973e-13
  5 1925.15 -0.00319515 2.28671e-13
  6 1925.15 -0.00319515 2.13396e-13
  7 1925.15 -0.00319515 2.86715e-13
  8 1925.15 -0.00319515 2.77109e-13
</Section>

newXOutput 122

<Section columns = "stress_xx | stress_yy | stress_xy">
  1 1937.43 -0.00319025 -4.52852e-14
  2 1937.43 -0.00319025 -2.29316e-14
  3 1937.43 -0.00319025 -3.30203e-14
  4 1937.43 -0.00319025 -2.24918e-14
  5 1937.43 -0.00319025 -2.63975e-13
  6 1937.43 -0.00319025 -2.81895e-13
  7 1937.43 -0.00319025 -3.32864e-13
  8 1937.43 -0.00319025 -3.43508e-13
</Section>

newXOutput 123

<Section columns = "stress_xx | stress_yy | stress_xy">
  1 1949.65 -0.00318537 8.04837e-14
  2 1949.65 -0.00318537 -1.61253e-14
  3 1949.65 -0.00318537 1.48667e-14
  4 1949.65 -0.00318537 -2.54755e-14
  5 1949.65 -0.00318537 4.72349e-14
  6 1949.65 -0.00318537 3.47813e-14
  7 1949.65 -0.00318537 -1.61693e-13
  8 1949.65 -0.00318537 -2.50269e-13
</Section>

newXOutput 124

<Section columns = "stress_xx | stress_yy | stress_xy">
  1 1961.83 -0.00318049 9.02284e-14
  2 1961.83 -0.00318049 7.75225e-14
  3 1961.83 -0.00318049 2.53982e-13
  4 1961.83 -0.00318049 2.44324e-13
  5 1961.83 -0.00318049 1.76105e-13
  6 1961.83 -0.00318049 2.24877e-13
  7 1961.83 -0.00318049 -2.06257e-13
  8 1961.83 -0.00318049 3.03262e-13
</Section>

newXOutput 125

<Section columns = "stress_xx | stress_yy | stress_xy">
  1 1973.96 -0.00317564 -3.39038e-14
  2 1973.96 -0.00317564 -4.65761e-14
  3 1973.96 -0.00317564 -1.31202e-13
  4 1973.96 -0.00317564 -1.39257e-13
  5 1973.96 -0.00317564 -1.62289e-14
  6 1973.96 -0.00317564 -4.04169e-14
  7 1973.96 -0.00317564 -2.90281e-13
  8 1973.96 -0.00317564 -3.11402e-13
</Section>

newXOutput 126

<Section columns = "stress_xx | stress_yy | stress_xy">
  1 1986.04 -0.00317079 -4.50069e-14
  2 1986.04 -0.00317079 4.13584e-14
  3 1986.04 -0.00317079 -1.34172e-13
  4 1986.04 -0.00317079 -1.06261e-13
  5 1986.04 -0.00317079 -4.09454e-13
  6 1986.04 -0.00317079 -4.29992e-13
  7 1986.04 -0.00317079 -7.19190e-13
  8 1986.04 -0.00317079 -7.29722e-13
</Section>

newXOutput 127

<Section columns = "stress_xx | stress_yy | stress_xy">
  1 1998.07 -0.00316597 -2.94694e-14
  2 1998.07 -0.00316597 -1.19809e-13
  3 1998.07 -0.00316597 -2.76302e-13
  4 1998.07 -0.00316597 -2.54768e-13
  5 1998.07 -0.00316597 7.09771e-14
  6 1998.07 -0.00316597 1.04297e-13
  7 1998.07 -0.00316597 -9.31745e-14
  8 1998.07 -0.00316597 -2.07469e-13
</Section>

newXOutput 128

<Section columns = "stress_xx | stress_yy | stress_xy">
  1 2010.05 -0.00316115 2.95770e-15
  2 2010.05 -0.00316115 -6.82849e-14
  3 2010.05 -0.00316115 -9.58675e-14
  4 2010.05 -0.00316115 -1.05450e-13
  5 2010.05 -0.00316115 8.66916e-14
  6 2010.05 -0.00316115 7.85544e-14
  7 2010.05 -0.00316115 1.94938e-13
  8 2010.05 -0.00316115 1.02850e-13
</Section>

newXOutput 129

<Section columns = "stress_xx | stress_yy | stress_xy">
  1 2021.99 -0.00315635 -4.37259e-14
  2 2021.99 -0.00315635 -3.95462e-14
  3 2021.99 -0.00315635 -1.79773e-13
  4 2021.99 -0.00315635 -1.75752e-13
  5 2021.99 -0.00315635 1.23312e-13
  6 2021.99 -0.00315635 9.73952e-14
  7 2021.99 -0.00315635 1.02044e-13
  8 2021.99 -0.00315635 2.26400e-14
</Section>

newXOutput 130

<Section columns = "stress_xx | stress_yy | stress_xy">
  1 2033.87 -0.00315157 9.42229e-14
  2 2033.87 -0.00315157 8.38012e-14
  3 2033.87 -0.00315157 1.44052e-13
  4 2033.87 -0.00315157 1.42844e-13
  5 2033.87 -0.00315157 -2.69352e-13
  6 2033.87 -0.00315157 -2.81689e-13
  7 2033.87 -0.00315157 -4.95139e-13
  8 2033.87 -0.00315157 -5.51503e-13
</Section>

newXOutput 131

<Section columns = "stress_xx | stress_yy | stress_xy">
  1 2045.71 -0.00314680 -3.04368e-15
  2 2045.71 -0.00314680 -1.13592e-14
  3 2045.71 -0.00314680 -1.18377e-13
  4 2045.71 -0.00314680 -1.19587e-13
  5 2045.71 -0.00314680 -3.58457e-13
  6 2045.71 -0.00314680 -3.74957e-13
  7 2045.71 -0.00314680 -6.55751e-13
  8 2045.71 -0.00314680 -7.18300e-13
</Section>

newXOutput 132

<Section columns = "stress_xx | stress_yy | stress_xy">
  1 2057.50 -0.00314204 -2.17509e-14
  2 2057.50 -0.00314204 -3.21180e-14
  3 2057.50 -0.00314204 -8.66365e-15
  4 2057.50 -0.00314204 -7.80443e-15
  5 2057.50 -0.00314204 1.72067e-13
  6 2057.50 -0.00314204 1.59721e-13
  7 2057.50 -0.00314204 4.12914e-13
  8 2057.50 -0.00314204 3.52507e-13
</Section>

newXOutput 133

<Section columns = "stress_xx | stress_yy | stress_xy">
  1 2069.25 -0.00313730 -1.59975e-14
  2 2069.25 -0.00313730 -2.63374e-14
  3 2069.25 -0.00313730 -1.02661e-13
  4 2069.25 -0.00313730 -1.05947e-13
  5 2069.25 -0.00313730 2.34990e-14
  6 2069.25 -0.00313730 7.50884e-14
  7 2069.25 -0.00313730 -5.33440e-13
  8 2069.25 -0.00313730 -8.00046e-14
</Section>

newXOutput 134

<Section columns = "stress_xx | stress_yy | stress_xy">
  1 2080.95 -0.00313257 3.67663e-14
  2 2080.95 -0.00313257 2.64535e-14
  3 2080.95 -0.00313257 9.17929e-14
  4 2080.95 -0.00313257 9.36661e-14
  5 2080.95 -0.00313257 3.67910e-13
  6 2080.95 -0.00313257 3.52461e-13
  7 2080.95 -0.00313257 2.94540e-13
  8 2080.95 -0.00313257 2.26007e-13
</Section>

newXOutput 135

<Section columns = "stress_xx | stress_yy | stress_xy">
  1 2092.60 -0.00312785 2.69054e-14
  2 2092.60 -0.00312785 1.86768e-14
  3 2092.60 -0.00312785 1.58921e-13
  4 2092.60 -0.00312785 1.49468e-13
  5 2092.60 -0.00312785 -4.58371e-13
  6 2092.60 -0.00312785 -4.95417e-13
  7 2092.60 -0.00312785 -6.86068e-13
  8 2092.60 -0.00312785 -7.73032e-13
</Section>

newXOutput 136

<Section columns = "stress_xx | stress_yy | stress_xy">
  1 2104.20 -0.00312315 7.16647e-14
  2 2104.20 -0.00312315 1.04493e-13
  3 2104.20 -0.00312315 3.12788e-13
  4 2104.20 -0.00312315 3.24073e-13
  5 2104.20 -0.00312315 -1.69909e-13
  6 2104.20 -0.00312315 -1.43638e-13
  7 2104.20 -0.00312315 -6.66505e-13
  8 2104.20 -0.00312315 -6.50748e-13
</Section>

newXOutput 137

<Section columns = "stress_xx | stress_yy | stress_xy">
  1 2115.76 -0.00311847 8.98852e-15
  2 2115.76 -0.00311847 3.35456e-14
  3 2115.76 -0.00311847 1.55715e-14
  4 2115.76 -0.00311847 2.35501e-14
  5 2115.76 -0.00311847 -6.22620e-14
  6 2115.76 -0.00311847 -8.28165e-14
  7 2115.76 -0.00311847 3.33059e-13
  8 2115.76 -0.00311847 2.77055e-13
</Section>

newXOutput 138

<Section columns = "stress_xx | stress_yy | stress_xy">
  1 2127.27 -0.00311379 -3.31835e-14
  2 2127.27 -0.00311379 -4.13479e-14
  3 2127.27 -0.00311379 -2.33474e-13
  4 2127.27 -0.00311379 -2.27901e-13
  5 2127.27 -0.00311379 4.38934e-13
  6 2127.27 -0.00311379 5.68408e-13
  7 2127.27 -0.00311379 -9.15973e-14
  8 2127.27 -0.00311379 3.12322e-13
</Section>

newXOutput 139

<Section columns = "stress_xx | stress_yy | stress_xy">
  1 2122.56 -0.243072 0.376656
  2 2122.56 -0.243072 -0.376656
  3 2116.24 -0.00190628 0.188504
  4 2116.24 -0.00190628 -0.188504
  5 2116.24 -0.00190628 -0.188504
  6 2116.24 -0.00190628 0.188504
  7 2122.56 -0.243072 -0.376656
  8 2122.56 -0.243072 0.376656
</Section>

newXOutput 140

<Section columns = "stress_xx | stress_yy | stress_xy">
  1 2106.75 -0.622939 0.986425
  2 2106.75 -0.622939 -0.986425
  3 2090.07 0.313499 0.494415
  4 2090.07 0.313499 -0.494415
  5 2090.07 0.313499 -0.494415
  6 2090.07 0.313499 0.494415
  7 2106.75 -0.622939 -0.986425
  8 2106.75 -0.622939 0.986425
</Section>

newXOutput 141

<Section columns = "stress_xx | stress_yy | stress_xy">
  1 2091.05 -1.00615 1.57731
  2 2091.05 -1.00615 -1.57731
  3 2064.37 0.505894 0.791717
  4 2064.37 0.505894 -0.791717
  5 2064.37 0.505894 -0.791717
  6 2064.37 0.505894 0.791717
  7 2091.05 -1.00615 -1.57731
  8 2091.05 -1.00615 1.57731
</Section>

newXOutput 142

<Section columns = "stress_xx | stress_yy | stress_xy">
  1 2075.49 -1.38167 2.14592
  2 2075.49 -1.38167 -2.14592
  3 2039.20 0.694085 1.07861
  4 2039.20 0.694085 -1.07861
  5 2039.20 0.694085 -1.07861
  6 2039.20 0.694085 1.07861
  7 2075.49 -1.38167 -2.14592
  8 2075.49 -1.38167 2.14592
</Section>

newXOutput 143

<Section columns = "stress_xx | stress_yy | stress_xy">
  1 2060.09 -1.74904 2.69317
  2 2060.09 -1.74904 -2.69317
  3 2014.54 0.877932 1.35545
  4 2014.54 0.877932 -1.35545
  5 2014.54 0.877932 -1.35545
  6 2014.54 0.877932 1.35545
  7 2060.09 -1.74904 -2.69317
  8 2060.09 -1.74904 2.69317
</Section>

newXOutput 144

<Section columns = "stress_xx | stress_yy | stress_xy">
  1 2044.83 -2.10789 3.21990
  2 2044.83 -2.10789 -3.21990
  3 1990.38 1.05732 1.62258
  4 1990.38 1.05732 -1.62258
  5 1990.38 1.05732 -1.62258
  6 1990.38 1.05732 1.62258
  7 2044.83 -2.10789 -3.21990
  8 2044.83 -2.10789 3.21990
</Section>

newXOutput 145

<Section columns = "stress_xx | stress_yy | stress_xy">
  1 2029.73 -2.45792 3.72694
  2 2029.73 -2.45792 -3.72694
  3 1966.70 1.23218 1.88034
  4 1966.70 1.23218 -1.88034
  5 1966.70 1.23218 -1.88034
  6 1966.70 1.23218 1.88034
  7 2029.73 -2.45792 -3.72694
  8 2029.73 -2.45792 3.72694
</Section>

newXOutput 146

<Section columns = "stress_xx | stress_yy | stress_xy">
  1 2014.77 -2.79893 4.21506
  2 2014.77 -2.79893 -4.21506
  3 1943.48 1.40245 2.12903
  4 1943.48 1.40245 -2.12903
  5 1943.48 1.40245 -2.12903
  6 1943.48 1.40245 2.12903
  7 2014.77 -2.79893 -4.21506
  8 2014.77 -2.79893 4.21506
</Section>

newXOutput 147

<Section columns = "stress_xx | stress_yy | stress_xy">
  1 1999.95 -3.13073 4.68502
  2 1999.95 -3.13073 -4.68502
  3 1920.71 1.56810 2.36898
  4 1920.71 1.56810 -2.36898
  5 1920.71 1.56810 -2.36898
  6 1920.71 1.56810 2.36898
  7 1999.95 -3.13073 -4.68502
  8 1999.95 -3.13073 4.68502
</Section>

newXOutput 148

<Section columns = "stress_xx | stress_yy | stress_xy">
  1 1985.27 -3.45323 5.13751
  2 1985.27 -3.45323 -5.13751
  3 1898.38 1.72913 2.60048
  4 1898.38 1.72913 -2.60048
  5 1898.38 1.72913 -2.60048
  6 1898.38 1.72913 2.60048
  7 1985.27 -3.45323 -5.13751
  8 1985.27 -3.45323 5.13751
</Section>

newXOutput 149

<Section columns = "stress_xx | stress_yy | stress_xy">
  1 1970.73 -3.76635 5.57322
  2 1970.73 -3.76635 -5.57322
  3 1876.47 1.88553 2.82382
  4 1876.47 1.88553 -2.82382
  5 1876.47 1.88553 -2.82382
  6 1876.47 1.88553 2.82382
  7 1970.73 -3.76635 -5.57322
  8 1970.73 -3.76635 5.57322
</Section>

newXOutput 150

<Section columns = "stress_xx | stress_yy | stress_xy">
  1 1956.33 -4.07007 5.99278
  2 1956.33 -4.07007 -5.99278
  3 1854.98 2.03731 3.03926
  4 1854.98 2.03731 -3.03926
  5 1854.98 2.03731 -3.03926
  6 1854.98 2.03731 3.03926
  7 1956.33 -4.07007 -5.99278
  8 1956.33 -4.07007 5.99278
</Section>

newXOutput 151

<Section columns = "stress_xx | stress_yy | stress_xy">
  1 1942.07 -4.36439 6.39681
  2 1942.07 -4.36439 -6.39681
  3 1833.88 2.18450 3.24709
  4 1833.88 2.18450 -3.24709
  5 1833.88 2.18450 -3.24709
  6 1833.88 2.18450 3.24709
  7 1942.07 -4.36439 -6.39681
  8 1942.07 -4.36439 6.39681
</Section>

newXOutput 152

<Section columns = "stress_xx | stress_yy | stress_xy">
  1 1927.94 -4.64936 6.78590
  2 1927.94 -4.64936 -6.78590
  3 1813.16 2.32713 3.44756
  4 1813.16 2.32713 -3.44756
  5 1813.16 2.32713 -3.44756
  6 1813.16 2.32713 3.44756
  7 1927.94 -4.64936 -6.78590
  8 1927.94 -4.64936 6.78590
</Section>

newXOutput 153

<Section columns = "stress_xx | stress_yy | stress_xy">
  1 1913.93 -4.92502 7.16060
  2 1913.93 -4.92502 -7.16060
  3 1792.83 2.46523 3.64091
  4 1792.83 2.46523 -3.64091
  5 1792.83 2.46523 -3.64091
  6 1792.83 2.46523 3.64091
  7 1913.93 -4.92502 -7.16060
  8 1913.93 -4.92502 7.16060
</Section>

newXOutput 154

<Section columns = "stress_xx | stress_yy | stress_xy">
  1 1900.06 -5.19148 7.52145
  2 1900.06 -5.19148 -7.52145
  3 1772.85 2.59886 3.82738
  4 1772.85 2.59886 -3.82738
  5 1772.85 2.59886 -3.82738
  6 1772.85 2.59886 3.82738
  7 1900.06 -5.19148 -7.52145
  8 1900.06 -5.19148 7.52145
</Section>

newXOutput 155

<Section columns = "stress_xx | stress_yy | stress_xy">
  1 1886.32 -5.44882 7.86895
  2 1886.32 -5.44882 -7.86895
  3 1753.23 2.72805 4.00719
  4 1753.23 2.72805 -4.00719
  5 1753.23 2.72805 -4.00719
  6 1753.23 2.72805 4.00719
  7 1886.32 -5.44882 -7.86895
  8 1886.32 -5.44882 7.86895
</Section>

newXOutput 156

<Section columns = "stress_xx | stress_yy | stress_xy">
  1 1872.69 -5.69717 8.20359
  2 1872.69 -5.69717 -8.20359
  3 1733.94 2.85288 4.18057
  4 1733.94 2.85288 -4.18057
  5 1733.94 2.85288 -4.18057
  6 1733.94 2.85288 4.18057
  7 1872.69 -5.69717 -8.20359
  8 1872.69 -5.69717 8.20359
</Section>

newXOutput 157

<Section columns = "stress_xx | stress_yy | stress_xy">
  1 1859.20 -5.93667 8.52582
  2 1859.20 -5.93667 -8.52582
  3 1714.99 2.97339 4.34772
  4 1714.99 2.97339 -4.34772
  5 1714.99 2.97339 -4.34772
  6 1714.99 2.97339 4.34772
  7 1859.20 -5.93667 -8.52582
  8 1859.20 -5.93667 8.52582
</Section>

newXOutput 158

<Section columns = "stress_xx | stress_yy | stress_xy">
  1 1845.82 -6.16744 8.83609
  2 1845.82 -6.16744 -8.83609
  3 1696.37 3.08966 4.50886
  4 1696.37 3.08966 -4.50886
  5 1696.37 3.08966 -4.50886
  6 1696.37 3.08966 4.50886
  7 1845.82 -6.16744 -8.83609
  8 1845.82 -6.16744 8.83609
</Section>

newXOutput 159

<Section columns = "stress_xx | stress_yy | stress_xy">
  1 1832.56 -6.38965 9.13483
  2 1832.56 -6.38965 -9.13483
  3 1678.05 3.20174 4.66416
  4 1678.05 3.20174 -4.66416
  5 1678.05 3.20174 -4.66416
  6 1678.05 3.20174 4.66416
  7 1832.56 -6.38965 -9.13483
  8 1832.56 -6.38965 9.13483
</Section>

newXOutput 160

<Section columns = "stress_xx | stress_yy | stress_xy">
  1 1819.41 -6.60345 9.42243
  2 1819.41 -6.60345 -9.42243
  3 1660.04 3.30972 4.81383
  4 1660.04 3.30972 -4.81383
  5 1660.04 3.30972 -4.81383
  6 1660.04 3.30972 4.81383
  7 1819.41 -6.60345 -9.42243
  8 1819.41 -6.60345 9.42243
</Section>

newXOutput 161

<Section columns = "stress_xx | stress_yy | stress_xy">
  1 1806.38 -6.80900 9.69928
  2 1806.38 -6.80900 -9.69928
  3 1642.32 3.41366 4.95803
  4 1642.32 3.41366 -4.95803
  5 1642.32 3.41366 -4.95803
  6 1642.32 3.41366 4.95803
  7 1806.38 -6.80900 -9.69928
  8 1806.38 -6.80900 9.69928
</Section>

newXOutput 162

<Section columns = "stress_xx | stress_yy | stress_xy">
  1 1793.46 -7.00649 9.96574
  2 1793.46 -7.00649 -9.96574
  3 1624.89 3.51364 5.09695
  4 1624.89 3.51364 -5.09695
  5 1624.89 3.51364 -5.09695
  6 1624.89 3.51364 5.09695
  7 1793.46 -7.00649 -9.96574
  8 1793.46 -7.00649 9.96574
</Section>

newXOutput 163

<Section columns = "stress_xx | stress_yy | stress_xy">
  1 1780.65 -7.19607 10.2222
  2 1780.65 -7.19607 -10.2222
  3 1607.75 3.60973 5.23075
  4 1607.75 3.60973 -5.23075
  5 1607.75 3.60973 -5.23075
  6 1607.75 3.60973 5.23075
  7 1780.65 -7.19607 -10.2222
  8 1780.65 -7.19607 10.2222
</Section>

newXOutput 164

<Section columns = "stress_xx | stress_yy | stress_xy">
  1 1767.95 -7.37793 10.4689
  2 1767.95 -7.37793 -10.4689
  3 1590.87 3.70202 5.35959
  4 1590.87 3.70202 -5.35959
  5 1590.87 3.70202 -5.35959
  6 1590.87 3.70202 5.35959
  7 1767.95 -7.37793 -10.4689
  8 1767.95 -7.37793 10.4689
</Section>

newXOutput 165

<Section columns = "stress_xx | stress_yy | stress_xy">
  1 1755.36 -7.55225 10.7063
  2 1755.36 -7.55225 -10.7063
  3 1574.25 3.79058 5.48363
  4 1574.25 3.79058 -5.48363
  5 1574.25 3.79058 -5.48363
  6 1574.25 3.79058 5.48363
  7 1755.36 -7.55225 -10.7063
  8 1755.36 -7.55225 10.7063
</Section>

newXOutput 166

<Section columns = "stress_xx | stress_yy | stress_xy">
  1 1742.87 -7.71919 10.9346
  2 1742.87 -7.71919 -10.9346
  3 1557.90 3.87549 5.60301
  4 1557.90 3.87549 -5.60301
  5 1557.90 3.87549 -5.60301
  6 1557.90 3.87549 5.60301
  7 1742.87 -7.71919 -10.9346
  8 1742.87 -7.71919 10.9346
</Section>

newXOutput 167

<Section columns = "stress_xx | stress_yy | stress_xy">
  1 1730.48 -7.87895 11.1542
  2 1730.48 -7.87895 -11.1542
  3 1541.79 3.95684 5.71787
  4 1541.79 3.95684 -5.71787
  5 1541.79 3.95684 -5.71787
  6 1541.79 3.95684 5.71787
  7 1730.48 -7.87895 -11.1542
  8 1730.48 -7.87895 11.1542
</Section>

newXOutput 168

<Section columns = "stress_xx | stress_yy | stress_xy">
  1 1718.19 -8.03169 11.3653
  2 1718.19 -8.03169 -11.3653
  3 1525.93 4.03470 5.82836
  4 1525.93 4.03470 -5.82836
  5 1525.93 4.03470 -5.82836
  6 1525.93 4.03470 5.82836
  7 1718.19 -8.03169 -11.3653
  8 1718.19 -8.03169 11.3653
</Section>

newXOutput 169

<Section columns = "stress_xx | stress_yy | stress_xy">
  1 1706.01 -8.17759 11.5682
  2 1706.01 -8.17759 -11.5682
  3 1510.30 4.10916 5.93461
  4 1510.30 4.10916 -5.93461
  5 1510.30 4.10916 -5.93461
  6 1510.30 4.10916 5.93461
  7 1706.01 -8.17759 -11.5682
  8 1706.01 -8.17759 11.5682
</Section>

newXOutput 170

<Section columns = "stress_xx | stress_yy | stress_xy">
  1 1693.92 -8.31684 11.7631
  2 1693.92 -8.31684 -11.7631
  3 1494.91 4.18029 6.03675
  4 1494.91 4.18029 -6.03675
  5 1494.91 4.18029 -6.03675
  6 1494.91 4.18029 6.03675
  7 1693.92 -8.31684 -11.7631
  8 1693.92 -8.31684 11.7631
</Section>

newXOutput 171

<Section columns = "stress_xx | stress_yy | stress_xy">
  1 1681.92 -8.44959 11.9503
  2 1681.92 -8.44959 -11.9503
  3 1479.74 4.24818 6.13489
  4 1479.74 4.24818 -6.13489
  5 1479.74 4.24818 -6.13489
  6 1479.74 4.24818 6.13489
  7 1681.92 -8.44959 -11.9503
  8 1681.92 -8.44959 11.9503
</Section>

newXOutput 172

<Section columns = "stress_xx | stress_yy | stress_xy">
  1 1670.02 -8.57604 12.1301
  2 1670.02 -8.57604 -12.1301
  3 1464.79 4.31290 6.22916
  4 1464.79 4.31290 -6.22916
  5 1464.79 4.31290 -6.22916
  6 1464.79 4.31290 6.22916
  7 1670.02 -8.57604 -12.1301
  8 1670.02 -8.57604 12.1301
</Section>

newXOutput 173

<Section columns = "stress_xx | stress_yy | stress_xy">
  1 1658.21 -8.69634 12.3027
  2 1658.21 -8.69634 -12.3027
  3 1450.05 4.37453 6.31968
  4 1450.05 4.37453 -6.31968
  5 1450.05 4.37453 -6.31968
  6 1450.05 4.37453 6.31968
  7 1658.21 -8.69634 -12.3027
  8 1658.21 -8.69634 12.3027
</Section>

newXOutput 174

<Section columns = "stress_xx | stress_yy | stress_xy">
  1 1646.50 -8.81066 12.4683
  2 1646.50 -8.81066 -12.4683
  3 1435.53 4.43316 6.40655
  4 1435.53 4.43316 -6.40655
  5 1435.53 4.43316 -6.40655
  6 1435.53 4.43316 6.40655
  7 1646.50 -8.81066 -12.4683
  8 1646.50 -8.81066 12.4683
</Section>

newXOutput 175

<Section columns = "stress_xx | stress_yy | stress_xy">
  1 1634.87 -8.91916 12.6271
  2 1634.87 -8.91916 -12.6271
  3 1421.20 4.48886 6.48988
  4 1421.20 4.48886 -6.48988
  5 1421.20 4.48886 -6.48988
  6 1421.20 4.48886 6.48988
  7 1634.87 -8.91916 -12.6271
  8 1634.87 -8.91916 12.6271
</Section>

newXOutput 176

<Section columns = "stress_xx | stress_yy | stress_xy">
  1 1623.33 -9.02202 12.7794
  2 1623.33 -9.02202 -12.7794
  3 1407.08 4.54170 6.56977
  4 1407.08 4.54170 -6.56977
  5 1407.08 4.54170 -6.56977
  6 1407.08 4.54170 6.56977
  7 1623.33 -9.02202 -12.7794
  8 1623.33 -9.02202 12.7794
</Section>

newXOutput 177

<Section columns = "stress_xx | stress_yy | stress_xy">
  1 1611.88 -9.11938 12.9252
  2 1611.88 -9.11938 -12.9252
  3 1393.14 4.59176 6.64633
  4 1393.14 4.59176 -6.64633
  5 1393.14 4.59176 -6.64633
  6 1393.14 4.59176 6.64633
  7 1611.88 -9.11938 -12.9252
  8 1611.88 -9.11938 12.9252
</Section>

newXOutput 178

<Section columns = "stress_xx | stress_yy | stress_xy">
  1 1600.52 -9.21141 13.0649
  2 1600.52 -9.21141 -13.0649
  3 1379.40 4.63912 6.71965
  4 1379.40 4.63912 -6.71965
  5 1379.40 4.63912 -6.71965
  6 1379.40 4.63912 6.71965
  7 1600.52 -9.21141 -13.0649
  8 1600.52 -9.21141 13.0649
</Section>

newXOutput 179

<Section columns = "stress_xx | stress_yy | stress_xy">
  1 1589.23 -9.29825 13.1986
  2 1589.23 -9.29825 -13.1986
  3 1365.84 4.68385 6.78982
  4 1365.84 4.68385 -6.78982
  5 1365.84 4.68385 -6.78982
  6 1365.84 4.68385 6.78982
  7 1589.23 -9.29825 -13.1986
  8 1589.23 -9.29825 13.1986
</Section>

newXOutput 180

<Section columns = "stress_xx | stress_yy | stress_xy">
  1 1578.03 -9.38005 13.3264
  2 1578.03 -9.38005 -13.3264
  3 1352.47 4.72602 6.85693
  4 1352.47 4.72602 -6.85693
  5 1352.47 4.72602 -6.85693
  6 1352.47 4.72602 6.85693
  7 1578.03 -9.38005 -13.3264
  8 1578.03 -9.38005 13.3264
</Section>

newXOutput 181

<Section columns = "stress_xx | stress_yy | stress_xy">
  1 1566.91 -9.45697 13.4486
  2 1566.91 -9.45697 -13.4486
  3 1339.26 4.76570 6.92107
  4 1339.26 4.76570 -6.92107
  5 1339.26 4.76570 -6.92107
  6 1339.26 4.76570 6.92107
  7 1566.91 -9.45697 -13.4486
  8 1566.91 -9.45697 13.4486
</Section>

newXOutput 182

<Section columns = "stress_xx | stress_yy | stress_xy">
  1 1555.88 -9.52914 13.5653
  2 1555.88 -9.52914 -13.5653
  3 1326.23 4.80296 6.98232
  4 1326.23 4.80296 -6.98232
  5 1326.23 4.80296 -6.98232
  6 1326.23 4.80296 6.98232
  7 1555.88 -9.52914 -13.5653
  8 1555.88 -9.52914 13.5653
</Section>

newXOutput 183

<Section columns = "stress_xx | stress_yy | stress_xy">
  1 1544.92 -9.59670 13.6767
  2 1544.92 -9.59670 -13.6767
  3 1313.37 4.83787 7.04077
  4 1313.37 4.83787 -7.04077
  5 1313.37 4.83787 -7.04077
  6 1313.37 4.83787 7.04077
  7 1544.92 -9.59670 -13.6767
  8 1544.92 -9.59670 13.6767
</Section>

newXOutput 184

<Section columns = "stress_xx | stress_yy | stress_xy">
  1 1534.03 -9.65979 13.7829
  2 1534.03 -9.65979 -13.7829
  3 1300.67 4.87050 7.09649
  4 1300.67 4.87050 -7.09649
  5 1300.67 4.87050 -7.09649
  6 1300.67 4.87050 7.09649
  7 1534.03 -9.65979 -13.7829
  8 1534.03 -9.65979 13.7829
</Section>

newXOutput 185

<Section columns = "stress_xx | stress_yy | stress_xy">
  1 1523.23 -9.71854 13.8841
  2 1523.23 -9.71854 -13.8841
  3 1288.14 4.90090 7.14955
  4 1288.14 4.90090 -7.14955
  5 1288.14 4.90090 -7.14955
  6 1288.14 4.90090 7.14955
  7 1523.23 -9.71854 -13.8841
  8 1523.23 -9.71854 13.8841
</Section>

newXOutput 186

<Section columns = "stress_xx | stress_yy | stress_xy">
  1 1512.50 -9.77308 13.9803
  2 1512.50 -9.77308 -13.9803
  3 1275.75 4.92916 7.20004
  4 1275.75 4.92916 -7.20004
  5 1275.75 4.92916 -7.20004
  6 1275.75 4.92916 7.20004
  7 1512.50 -9.77308 -13.9803
  8 1512.50 -9.77308 13.9803
</Section>

newXOutput 187

<Section columns = "stress_xx | stress_yy | stress_xy">
  1 1501.84 -9.82354 14.0719
  2 1501.84 -9.82354 -14.0719
  3 1263.53 4.95531 7.24802
  4 1263.53 4.95531 -7.24802
  5 1263.53 4.95531 -7.24802
  6 1263.53 4.95531 7.24802
  7 1501.84 -9.82354 -14.0719
  8 1501.84 -9.82354 14.0719
</Section>

newXOutput 188

<Section columns = "stress_xx | stress_yy | stress_xy">
  1 1491.25 -9.87004 14.1588
  2 1491.25 -9.87004 -14.1588
  3 1251.45 4.97944 7.29355
  4 1251.45 4.97944 -7.29355
  5 1251.45 4.97944 -7.29355
  6 1251.45 4.97944 7.29355
  7 1491.25 -9.87004 -14.1588
  8 1491.25 -9.87004 14.1588
</Section>

newXOutput 189

<Section columns = "stress_xx | stress_yy | stress_xy">
  1 1480.74 -9.91270 14.2412
  2 1480.74 -9.91270 -14.2412
  3 1239.52 5.00160 7.33672
  4 1239.52 5.00160 -7.33672
  5 1239.52 5.00160 -7.33672
  6 1239.52 5.00160 7.33672
  7 1480.74 -9.91270 -14.2412
  8 1480.74 -9.91270 14.2412
</Section>

newXOutput 190

<Section columns = "stress_xx | stress_yy | stress_xy">
  1 1470.30 -9.95165 14.3192
  2 1470.30 -9.95165 -14.3192
  3 1227.73 5.02184 7.37757
  4 1227.73 5.02184 -7.37757
  5 1227.73 5.02184 -7.37757
  6 1227.73 5.02184 7.37757
  7 1470.30 -9.95165 -14.3192
  8 1470.30 -9.95165 14.3192
</Section>

newXOutput 191

<Section columns = "stress_xx | stress_yy | stress_xy">
  1 1459.92 -9.98698 14.3930
  2 1459.92 -9.98698 -14.3930
  3 1216.09 5.04022 7.41618
  4 1216.09 5.04022 -7.41618
  5 1216.09 5.04022 -7.41618
  6 1216.09 5.04022 7.41618
  7 1459.92 -9.98698 -14.3930
  8 1459.92 -9.98698 14.3930
</Section>

newXOutput 192

<Section columns = "stress_xx | stress_yy | stress_xy">
  1 1449.62 -10.0188 14.4627
  2 1449.62 -10.0188 -14.4627
  3 1204.58 5.05681 7.45259
  4 1204.58 5.05681 -7.45259
  5 1204.58 5.05681 -7.45259
  6 1204.58 5.05681 7.45259
  7 1449.62 -10.0188 -14.4627
  8 1449.62 -10.0188 14.4627
</Section>

newXOutput 193

<Section columns = "stress_xx | stress_yy | stress_xy">
  1 1439.38 -10.0473 14.5284
  2 1439.38 -10.0473 -14.5284
  3 1193.21 5.07165 7.48689
  4 1193.21 5.07165 -7.48689
  5 1193.21 5.07165 -7.48689
  6 1193.21 5.07165 7.48689
  7 1439.38 -10.0473 -14.5284
  8 1439.38 -10.0473 14.5284
</Section>

newXOutput 194

<Section columns = "stress_xx | stress_yy | stress_xy">
  1 1429.21 -10.0724 14.5901
  2 1429.21 -10.0724 -14.5901
  3 1181.96 5.08479 7.51910
  4 1181.96 5.08479 -7.51910
  5 1181.96 5.08479 -7.51910
  6 1181.96 5.08479 7.51910
  7 1429.21 -10.0724 -14.5901
  8 1429.21 -10.0724 14.5901
</Section>

newXOutput 195

<Section columns = "stress_xx | stress_yy | stress_xy">
  1 1419.11 -10.0944 14.6480
  2 1419.11 -10.0944 -14.6480
  3 1170.85 5.09630 7.54930
  4 1170.85 5.09630 -7.54930
  5 1170.85 5.09630 -7.54930
  6 1170.85 5.09630 7.54930
  7 1419.11 -10.0944 -14.6480
  8 1419.11 -10.0944 14.6480
</Section>

newXOutput 196

<Section columns = "stress_xx | stress_yy | stress_xy">
  1 1409.07 -10.1133 14.7022
  2 1409.07 -10.1133 -14.7022
  3 1159.87 5.10621 7.57754
  4 1159.87 5.10621 -7.57754
  5 1159.87 5.10621 -7.57754
  6 1159.87 5.10621 7.57754
  7 1409.07 -10.1133 -14.7022
  8 1409.07 -10.1133 14.7022
</Section>

newXOutput 197

<Section columns = "stress_xx | stress_yy | stress_xy">
  1 1399.09 -10.1292 14.7528
  2 1399.09 -10.1292 -14.7528
  3 1149.00 5.11458 7.60386
  4 1149.00 5.11458 -7.60386
  5 1149.00 5.11458 -7.60386
  6 1149.00 5.11458 7.60386
  7 1399.09 -10.1292 -14.7528
  8 1399.09 -10.1292 14.7528
</Section>

newXOutput 198

<Section columns = "stress_xx | stress_yy | stress_xy">
  1 1389.18 -10.1423 14.7999
  2 1389.18 -10.1423 -14.7999
  3 1138.26 5.12146 7.62832
  4 1138.26 5.12146 -7.62832
  5 1138.26 5.12146 -7.62832
  6 1138.26 5.12146 7.62832
  7 1389.18 -10.1423 -14.7999
  8 1389.18 -10.1423 14.7999
</Section>

newXOutput 199

<Section columns = "stress_xx | stress_yy | stress_xy">
  1 1379.33 -10.1525 14.8436
  2 1379.33 -10.1525 -14.8436
  3 1127.64 5.12689 7.65097
  4 1127.64 5.12689 -7.65097
  5 1127.64 5.12689 -7.65097
  6 1127.64 5.12689 7.65097
  7 1379.33 -10.1525 -14.8436
  8 1379.33 -10.1525 14.8436
</Section>

newXOutput 200

<Section columns = "stress_xx | stress_yy | stress_xy">
  1 1369.54 -10.1600 14.8840
  2 1369.54 -10.1600 -14.8840
  3 1117.14 5.13092 7.67185
  4 1117.14 5.13092 -7.67185
  5 1117.14 5.13092 -7.67185
  6 1117.14 5.13092 7.67185
  7 1369.54 -10.1600 -14.8840
  8 1369.54 -10.1600 14.8840
</Section>

newXOutput 201

<Section columns = "stress_xx | stress_yy | stress_xy">
  1 1359.81 -10.1649 14.9210
  2 1359.81 -10.1649 -14.9210
  3 1106.75 5.13359 7.69101
  4 1106.75 5.13359 -7.69101
  5 1106.75 5.13359 -7.69101
  6 1106.75 5.13359 7.69101
  7 1359.81 -10.1649 -14.9210
  8 1359.81 -10.1649 14.9210
</Section>

newXOutput 202

<Section columns = "stress_xx | stress_yy | stress_xy">
  1 1350.13 -10.1672 14.9550
  2 1350.13 -10.1672 -14.9550
  3 1096.47 5.13495 7.70849
  4 1096.47 5.13495 -7.70849
  5 1096.47 5.13495 -7.70849
  6 1096.47 5.13495 7.70849
  7 1350.13 -10.1672 -14.9550
  8 1350.13 -10.1672 14.9550
</Section>

newXOutput 203

<Section columns = "stress_xx | stress_yy | stress_xy">
  1 1340.52 -10.1671 14.9858
  2 1340.52 -10.1671 -14.9858
  3 1086.30 5.13503 7.72433
  4 1086.30 5.13503 -7.72433
  5 1086.30 5.13503 -7.72433
  6 1086.30 5.13503 7.72433
  7 1340.52 -10.1671 -14.9858
  8 1340.52 -10.1671 14.9858
</Section>

newXOutput 204

<Section columns = "stress_xx | stress_yy | stress_xy">
  1 1330.97 -10.1646 15.0137
  2 1330.97 -10.1646 -15.0137
  3 1076.24 5.13389 7.73858
  4 1076.24 5.13389 -7.73858
  5 1076.24 5.13389 -7.73858
  6 1076.24 5.13389 7.73858
  7 1330.97 -10.1646 -15.0137
  8 1330.97 -10.1646 15.0137
</Section>

newXOutput 205

<Section columns = "stress_xx | stress_yy | stress_xy">
  1 1321.47 -10.1599 15.0386
  2 1321.47 -10.1599 -15.0386
  3 1066.29 5.13155 7.75128
  4 1066.29 5.13155 -7.75128
  5 1066.29 5.13155 -7.75128
  6 1066.29 5.13155 7.75128
  7 1321.47 -10.1599 -15.0386
  8 1321.47 -10.1599 15.0386
</Section>

newXOutput 206

<Section columns = "stress_xx | stress_yy | stress_xy">
  1 1312.03 -10.1528 15.0606
  2 1312.03 -10.1528 -15.0606
  3 1056.44 5.12805 7.76247
  4 1056.44 5.12805 -7.76247
  5 1056.44 5.12805 -7.76247
  6 1056.44 5.12805 7.76247
  7 1312.03 -10.1528 -15.0606
  8 1312.03 -10.1528 15.0606
</Section>

newXOutput 207

<Section columns = "stress_xx | stress_yy | stress_xy">
  1 1302.64 -10.1437 15.0799
  2 1302.64 -10.1437 -15.0799
  3 1046.69 5.12344 7.77218
  4 1046.69 5.12344 -7.77218
  5 1046.69 5.12344 -7.77218
  6 1046.69 5.12344 7.77218
  7 1302.64 -10.1437 -15.0799
  8 1302.64 -10.1437 15.0799
</Section>

newXOutput 208

<Section columns = "stress_xx | stress_yy | stress_xy">
  1 1293.31 -10.1324 15.0965
  2 1293.31 -10.1324 -15.0965
  3 1037.04 5.11776 7.78045
  4 1037.04 5.11776 -7.78045
  5 1037.04 5.11776 -7.78045
  6 1037.04 5.11776 7.78045
  7 1293.31 -10.1324 -15.0965
  8 1293.31 -10.1324 15.0965
</Section>

newXOutput 209

<Section columns = "stress_xx | stress_yy | stress_xy">
  1 1284.03 -10.1191 15.1104
  2 1284.03 -10.1191 -15.1104
  3 1027.49 5.11102 7.78732
  4 1027.49 5.11102 -7.78732
  5 1027.49 5.11102 -7.78732
  6 1027.49 5.11102 7.78732
  7 1284.03 -10.1191 -15.1104
  8 1284.03 -10.1191 15.1104
</Section>

newXOutput 210

<Section columns = "stress_xx | stress_yy | stress_xy">
  1 1274.81 -10.1039 15.1217
  2 1274.81 -10.1039 -15.1217
  3 1018.04 5.10328 7.79283
  4 1018.04 5.10328 -7.79283
  5 1018.04 5.10328 -7.79283
  6 1018.04 5.10328 7.79283
  7 1274.81 -10.1039 -15.1217
  8 1274.81 -10.1039 15.1217
</Section>

newXOutput 211

<Section columns = "stress_xx | stress_yy | stress_xy">
  1 1265.64 -10.0868 15.1305
  2 1265.64 -10.0868 -15.1305
  3 1008.68 5.09457 7.79700
  4 1008.68 5.09457 -7.79700
  5 1008.68 5.09457 -7.79700
  6 1008.68 5.09457 7.79700
  7 1265.64 -10.0868 -15.1305
  8 1265.64 -10.0868 15.1305
</Section>

newXOutput 212

<Section columns = "stress_xx | stress_yy | stress_xy">
  1 1256.52 -10.0679 15.1369
  2 1256.52 -10.0679 -15.1369
  3 999.412 5.08491 7.79988
  4 999.412 5.08491 -7.79988
  5 999.412 5.08491 -7.79988
  6 999.412 5.08491 7.79988
  7 1256.52 -10.0679 -15.1369
  8 1256.52 -10.0679 15.1369
</Section>

newXOutput 213

<Section columns = "stress_xx | stress_yy | stress_xy">
  1 1247.45 -10.0472 15.1408
  2 1247.45 -10.0472 -15.1408
  3 990.237 5.07434 7.80148
  4 990.237 5.07434 -7.80148
  5 990.237 5.07434 -7.80148
  6 990.237 5.07434 7.80148
  7 1247.45 -10.0472 -15.1408
  8 1247.45 -10.0472 15.1408
</Section>

newXOutput 214

<Section columns = "stress_xx | stress_yy | stress_xy">
  1 1238.43 -10.0248 15.1425
  2 1238.43 -10.0248 -15.1425
  3 981.152 5.06289 7.80185
  4 981.152 5.06289 -7.80185
  5 981.152 5.06289 -7.80185
  6 981.152 5.06289 7.80185
  7 1238.43 -10.0248 -15.1425
  8 1238.43 -10.0248 15.1425
</Section>

newXOutput 215

<Section columns = "stress_xx | stress_yy | stress_xy">
  1 1229.46 -10.0008 15.1418
  2 1229.46 -10.0008 -15.1418
  3 972.155 5.05059 7.80101
  4 972.155 5.05059 -7.80101
  5 972.155 5.05059 -7.80101
  6 972.155 5.05059 7.80101
  7 1229.46 -10.0008 -15.1418
  8 1229.46 -10.0008 15.1418
</Section>

newXOutput 216

<Section columns = "stress_xx | stress_yy | stress_xy">
  1 1220.54 -9.97518 15.1389
  2 1220.54 -9.97518 -15.1389
  3 963.244 5.03747 7.79900
  4 963.244 5.03747 -7.79900
  5 963.244 5.03747 -7.79900
  6 963.244 5.03747 7.79900
  7 1220.54 -9.97518 -15.1389
  8 1220.54 -9.97518 15.1389
</Section>

newXOutput 217

<Section columns = "stress_xx | stress_yy | stress_xy">
  1 1211.67 -9.94803 15.1339
  2 1211.67 -9.94803 -15.1339
  3 954.419 5.02356 7.79584
  4 954.419 5.02356 -7.79584
  5 954.419 5.02356 -7.79584
  6 954.419 5.02356 7.79584
  7 1211.67 -9.94803 -15.1339
  8 1211.67 -9.94803 15.1339
</Section>

newXOutput 218

<Section columns = "stress_xx | stress_yy | stress_xy">
  1 1202.85 -9.91940 15.1267
  2 1202.85 -9.91940 -15.1267
  3 945.677 5.00888 7.79156
  4 945.677 5.00888 -7.79156
  5 945.677 5.00888 -7.79156
  6 945.677 5.00888 7.79156
  7 1202.85 -9.91940 -15.1267
  8 1202.85 -9.91940 15.1267
</Section>

newXOutput 219

<Section columns = "stress_xx | stress_yy | stress_xy">
  1 1194.07 -9.88935 15.1175
  2 1194.07 -9.88935 -15.1175
  3 937.017 4.99346 7.78619
  4 937.017 4.99346 -7.78619
  5 937.017 4.99346 -7.78619
  6 937.017 4.99346 7.78619
  7 1194.07 -9.88935 -15.1175
  8 1194.07 -9.88935 15.1175
</Section>

newXOutput 220

<Section columns = "stress_xx | stress_yy | stress_xy">
  1 1185.35 -9.85791 15.1062
  2 1185.35 -9.85791 -15.1062
  3 928.438 4.97733 7.77975
  4 928.438 4.97733 -7.77975
  5 928.438 4.97733 -7.77975
  6 928.438 4.97733 7.77975
  7 1185.35 -9.85791 -15.1062
  8 1185.35 -9.85791 15.1062
</Section>

newXOutput 221

<Section columns = "stress_xx | stress_yy | stress_xy">
  1 1176.66 -9.82515 15.0930
  2 1176.66 -9.82515 -15.0930
  3 919.939 4.96051 7.77227
  4 919.939 4.96051 -7.77227
  5 919.939 4.96051 -7.77227
  6 919.939 4.96051 7.77227
  7 1176.66 -9.82515 -15.0930
  8 1176.66 -9.82515 15.0930
</Section>

newXOutput 222

<Section columns = "stress_xx | stress_yy | stress_xy">
  1 1168.03 -9.79110 15.0778
  2 1168.03 -9.79110 -15.0778
  3 911.517 4.94304 7.76378
  4 911.517 4.94304 -7.76378
  5 911.517 4.94304 -7.76378
  6 911.517 4.94304 7.76378
  7 1168.03 -9.79110 -15.0778
  8 1168.03 -9.79110 15.0778
</Section>

newXOutput 223

<Section columns = "stress_xx | stress_yy | stress_xy">
  1 1159.44 -9.75582 15.0608
  2 1159.44 -9.75582 -15.0608
  3 903.172 4.92492 7.75430
  4 903.172 4.92492 -7.75430
  5 903.172 4.92492 -7.75430
  6 903.172 4.92492 7.75430
  7 1159.44 -9.75582 -15.0608
  8 1159.44 -9.75582 15.0608
</Section>

newXOutput 224

<Section columns = "stress_xx | stress_yy | stress_xy">
  1 1150.89 -9.71933 15.0419
  2 1150.89 -9.71933 -15.0419
  3 894.903 4.90619 7.74385
  4 894.903 4.90619 -7.74385
  5 894.903 4.90619 -7.74385
  6 894.903 4.90619 7.74385
  7 1150.89 -9.71933 -15.0419
  8 1150.89 -9.71933 15.0419
</Section>

newXOutput 225

<Section columns = "stress_xx | stress_yy | stress_xy">
  1 1142.39 -9.68170 15.0212
  2 1142.39 -9.68170 -15.0212
  3 886.708 4.88686 7.73246
  4 886.708 4.88686 -7.73246
  5 886.708 4.88686 -7.73246
  6 886.708 4.88686 7.73246
  7 1142.39 -9.68170 -15.0212
  8 1142.39 -9.68170 15.0212
</Section>

newXOutput 226

<Section columns = "stress_xx | stress_yy | stress_xy">
  1 1133.93 -9.64296 14.9988
  2 1133.93 -9.64296 -14.9988
  3 878.586 4.86696 7.72015
  4 878.586 4.86696 -7.72015
  5 878.586 4.86696 -7.72015
  6 878.586 4.86696 7.72015
  7 1133.93 -9.64296 -14.9988
  8 1133.93 -9.64296 14.9988
</Section>

newXOutput 227

<Section columns = "stress_xx | stress_yy | stress_xy">
  1 1125.52 -9.60315 14.9747
  2 1125.52 -9.60315 -14.9747
  3 870.535 4.84652 7.70694
  4 870.535 4.84652 -7.70694
  5 870.535 4.84652 -7.70694
  6 870.535 4.84652 7.70694
  7 1125.52 -9.60315 -14.9747
  8 1125.52 -9.60315 14.9747
</Section>

newXOutput 228

<Section columns = "stress_xx | stress_yy | stress_xy">
  1 1117.14 -9.56231 14.9489
  2 1117.14 -9.56231 -14.9489
  3 862.555 4.82554 7.69285
  4 862.555 4.82554 -7.69285
  5 862.555 4.82554 -7.69285
  6 862.555 4.82554 7.69285
  7 1117.14 -9.56231 -14.9489
  8 1117.14 -9.56231 14.9489
</Section>

newXOutput 229

<Section columns = "stress_xx | stress_yy | stress_xy">
  1 1108.81 -9.52048 14.9214
  2 1108.81 -9.52048 -14.9214
  3 854.645 4.80406 7.67790
  4 854.645 4.80406 -7.67790
  5 854.645 4.80406 -7.67790
  6 854.645 4.80406 7.67790
  7 1108.81 -9.52048 -14.9214
  8 1108.81 -9.52048 14.9214
</Section>

newXOutput 230

<Section columns = "stress_xx | stress_yy | stress_xy">
  1 1100.52 -9.47770 14.8924
  2 1100.52 -9.47770 -14.8924
  3 846.804 4.78208 7.66212
  4 846.804 4.78208 -7.66212
  5 846.804 4.78208 -7.66212
  6 846.804 4.78208 7.66212
  7 1100.52 -9.47770 -14.8924
  8 1100.52 -9.47770 14.8924
</Section>

newXOutput 231

<Section columns = "stress_xx | stress_yy | stress_xy">
  1 1092.27 -9.43400 14.8618
  2 1092.27 -9.43400 -14.8618
  3 839.029 4.75964 7.64553
  4 839.029 4.75964 -7.64553
  5 839.029 4.75964 -7.64553
  6 839.029 4.75964 7.64553
  7 1092.27 -9.43400 -14.8618
  8 1092.27 -9.43400 14.8618
</Section>

newXOutput 232

<Section columns = "stress_xx | stress_yy | stress_xy">
  1 1084.07 -9.38941 14.8297
  2 1084.07 -9.38941 -14.8297
  3 831.321 4.73674 7.62814
  4 831.321 4.73674 -7.62814
  5 831.321 4.73674 -7.62814
  6 831.321 4.73674 7.62814
  7 1084.07 -9.38941 -14.8297
  8 1084.07 -9.38941 14.8297
</Section>

newXOutput 233

<Section columns = "stress_xx | stress_yy | stress_xy">
  1 1075.90 -9.34397 14.7961
  2 1075.90 -9.34397 -14.7961
  3 823.678 4.71340 7.60996
  4 823.678 4.71340 -7.60996
  5 823.678 4.71340 -7.60996
  6 823.678 4.71340 7.60996
  7 1075.90 -9.34397 -14.7961
  8 1075.90 -9.34397 14.7961
</Section>

newXOutput 234

<Section columns = "stress_xx | stress_yy | stress_xy">
  1 1067.77 -9.29772 14.7610
  2 1067.77 -9.29772 -14.7610
  3 816.099 4.68965 7.59103
  4 816.099 4.68965 -7.59103
  5 816.099 4.68965 -7.59103
  6 816.099 4.68965 7.59103
  7 1067.77 -9.29772 -14.7610
  8 1067.77 -9.29772 14.7610
</Section>

newXOutput 235

<Section columns = "stress_xx | stress_yy | stress_xy">
  1 1059.68 -9.25068 14.7246
  2 1059.68 -9.25068 -14.7246
  3 808.584 4.66550 7.57136
  4 808.584 4.66550 -7.57136
  5 808.584 4.66550 -7.57136
  6 808.584 4.66550 7.57136
  7 1059.68 -9.25068 -14.7246
  8 1059.68 -9.25068 14.7246
</Section>

newXOutput 236

<Section columns = "stress_xx | stress_yy | stress_xy">
  1 1051.63 -9.20289 14.6867
  2 1051.63 -9.20289 -14.6867
  3 801.131 4.64096 7.55097
  4 801.131 4.64096 -7.55097
  5 801.131 4.64096 -7.55097
  6 801.131 4.64096 7.55097
  7 1051.63 -9.20289 -14.6867
  8 1051.63 -9.20289 14.6867
</Section>

newXOutput 237

<Section columns = "stress_xx | stress_yy | stress_xy">
  1 1043.62 -9.15438 14.6475
  2 1043.62 -9.15438 -14.6475
  3 793.739 4.61606 7.52986
  4 793.739 4.61606 -7.52986
  5 793.739 4.61606 -7.52986
  6 793.739 4.61606 7.52986
  7 1043.62 -9.15438 -14.6475
  8 1043.62 -9.15438 14.6475
</Section>

newXOutput 238

<Section columns = "stress_xx | stress_yy | stress_xy">
  1 1035.65 -9.10517 14.6069
  2 1035.65 -9.10517 -14.6069
  3 786.408 4.59080 7.50807
  4 786.408 4.59080 -7.50807
  5 786.408 4.59080 -7.50807
  6 786.408 4.59080 7.50807
  7 1035.65 -9.10517 -14.6069
  8 1035.65 -9.10517 14.6069
</Section>

newXOutput 239

<Section columns = "stress_xx | stress_yy | stress_xy">
  1 1027.71 -9.05530 14.5651
  2 1027.71 -9.05530 -14.5651
  3 779.136 4.56520 7.48560
  4 779.136 4.56520 -7.48560
  5 779.136 4.56520 -7.48560
  6 779.136 4.56520 7.48560
  7 1027.71 -9.05530 -14.5651
  8 1027.71 -9.05530 14.5651
</Section>

newXOutput 240

<Section columns = "stress_xx | stress_yy | stress_xy">
  1 1019.81 -9.00478 14.5220
  2 1019.81 -9.00478 -14.5220
  3 771.922 4.53928 7.46248
  4 771.922 4.53928 -7.46248
  5 771.922 4.53928 -7.46248
  6 771.922 4.53928 7.46248
  7 1019.81 -9.00478 -14.5220
  8 1019.81 -9.00478 14.5220
</Section>

newXOutput 241

<Section columns = "stress_xx | stress_yy | stress_xy">
  1 1011.95 -8.95366 14.4776
  2 1011.95 -8.95366 -14.4776
  3 764.767 4.51305 7.43871
  4 764.767 4.51305 -7.43871
  5 764.767 4.51305 -7.43871
  6 764.767 4.51305 7.43871
  7 1011.95 -8.95366 -14.4776
  8 1011.95 -8.95366 14.4776
</Section>

newXOutput 242

<Section columns = "stress_xx | stress_yy | stress_xy">
  1 1004.13 -8.90195 14.4321
  2 1004.13 -8.90195 -14.4321
  3 757.668 4.48652 7.41431
  4 757.668 4.48652 -7.41431
  5 757.668 4.48652 -7.41431
  6 757.668 4.48652 7.41431
  7 1004.13 -8.90195 -14.4321
  8 1004.13 -8.90195 14.4321
</Section>

newXOutput 243

<Section columns = "stress_xx | stress_yy | stress_xy">
  1 996.335 -8.84968 14.3853
  2 996.335 -8.84968 -14.3853
  3 750.625 4.45971 7.38930
  4 750.625 4.45971 -7.38930
  5 750.625 4.45971 -7.38930
  6 750.625 4.45971 7.38930
  7 996.335 -8.84968 -14.3853
  8 996.335 -8.84968 14.3853
</Section>

newXOutput 244

<Section columns = "stress_xx | stress_yy | stress_xy">
  1 988.580 -8.79687 14.3374
  2 988.580 -8.79687 -14.3374
  3 743.638 4.43263 7.36369
  4 743.638 4.43263 -7.36369
  5 743.638 4.43263 -7.36369
  6 743.638 4.43263 7.36369
  7 988.580 -8.79687 -14.3374
  8 988.580 -8.79687 14.3374
</Section>

newXOutput 245

<Section columns = "stress_xx | stress_yy | stress_xy">
  1 980.861 -8.74355 14.2884
  2 980.861 -8.74355 -14.2884
  3 736.705 4.40529 7.33750
  4 736.705 4.40529 -7.33750
  5 736.705 4.40529 -7.33750
  6 736.705 4.40529 7.33750
  7 980.861 -8.74355 -14.2884
  8 980.861 -8.74355 14.2884
</Section>

newXOutput 246

<Section columns = "stress_xx | stress_yy | stress_xy">
  1 973.176 -8.68974 14.2383
  2 973.176 -8.68974 -14.2383
  3 729.825 4.37770 7.31073
  4 729.825 4.37770 -7.31073
  5 729.825 4.37770 -7.31073
  6 729.825 4.37770 7.31073
  7 973.176 -8.68974 -14.2383
  8 973.176 -8.68974 14.2383
</Section>

newXOutput 247

<Section columns = "stress_xx | stress_yy | stress_xy">
  1 965.526 -8.63547 14.1870
  2 965.526 -8.63547 -14.1870
  3 722.998 4.34988 7.28341
  4 722.998 4.34988 -7.28341
  5 722.998 4.34988 -7.28341
  6 722.998 4.34988 7.28341
  7 965.526 -8.63547 -14.1870
  8 965.526 -8.63547 14.1870
</Section>

newXOutput 248

<Section columns = "stress_xx | stress_yy | stress_xy">
  1 957.909 -8.58075 14.1348
  2 957.909 -8.58075 -14.1348
  3 716.224 4.32184 7.25554
  4 716.224 4.32184 -7.25554
  5 716.224 4.32184 -7.25554
  6 716.224 4.32184 7.25554
  7 957.909 -8.58075 -14.1348
  8 957.909 -8.58075 14.1348
</Section>

newXOutput 249

<Section columns = "stress_xx | stress_yy | stress_xy">
  1 950.326 -8.52560 14.0815
  2 950.326 -8.52560 -14.0815
  3 709.501 4.29358 7.22714
  4 709.501 4.29358 -7.22714
  5 709.501 4.29358 -7.22714
  6 709.501 4.29358 7.22714
  7 950.326 -8.52560 -14.0815
  8 950.326 -8.52560 14.0815
</Section>

newXOutput 250

<Section columns = "stress_xx | stress_yy | stress_xy">
  1 942.777 -8.47005 14.0271
  2 942.777 -8.47005 -14.0271
  3 702.828 4.26513 7.19822
  4 702.828 4.26513 -7.19822
  5 702.828 4.26513 -7.19822
  6 702.828 4.26513 7.19822
  7 942.777 -8.47005 -14.0271
  8 942.777 -8.47005 14.0271
</Section>

newXOutput 251

<Section columns = "stress_xx | stress_yy | stress_xy">
  1 935.260 -8.41412 13.9718
  2 935.260 -8.41412 -13.9718
  3 696.206 4.23648 7.16879
  4 696.206 4.23648 -7.16879
  5 696.206 4.23648 -7.16879
  6 696.206 4.23648 7.16879
  7 935.260 -8.41412 -13.9718
  8 935.260 -8.41412 13.9718
</Section>

newXOutput 252

<Section columns = "stress_xx | stress_yy | stress_xy">
  1 927.776 -8.35783 13.9155
  2 927.776 -8.35783 -13.9155
  3 689.632 4.20766 7.13886
  4 689.632 4.20766 -7.13886
  5 689.632 4.20766 -7.13886
  6 689.632 4.20766 7.13886
  7 927.776 -8.35783 -13.9155
  8 927.776 -8.35783 13.9155
</Section>

newXOutput 253

<Section columns = "stress_xx | stress_yy | stress_xy">
  1 920.325 -8.30119 13.8583
  2 920.325 -8.30119 -13.8583
  3 683.107 4.17866 7.10846
  4 683.107 4.17866 -7.10846
  5 683.107 4.17866 -7.10846
  6 683.107 4.17866 7.10846
  7 920.325 -8.30119 -13.8583
  8 920.325 -8.30119 13.8583
</Section>

newXOutput 254

<Section columns = "stress_xx | stress_yy | stress_xy">
  1 912.905 -8.24422 13.8002
  2 912.905 -8.24422 -13.8002
  3 676.630 4.14950 7.07758
  4 676.630 4.14950 -7.07758
  5 676.630 4.14950 -7.07758
  6 676.630 4.14950 7.07758
  7 912.905 -8.24422 -13.8002
  8 912.905 -8.24422 13.8002
</Section>

newXOutput 255

<Section columns = "stress_xx | stress_yy | stress_xy">
  1 905.517 -8.18694 13.7411
  2 905.517 -8.18694 -13.7411
  3 670.201 4.12019 7.04623
  4 670.201 4.12019 -7.04623
  5 670.201 4.12019 -7.04623
  6 670.201 4.12019 7.04623
  7 905.517 -8.18694 -13.7411
  8 905.517 -8.18694 13.7411
</Section>

newXOutput 256

<Section columns = "stress_xx | stress_yy | stress_xy">
  1 898.160 -8.12937 13.6812
  2 898.160 -8.12937 -13.6812
  3 663.818 4.09073 7.01444
  4 663.818 4.09073 -7.01444
  5 663.818 4.09073 -7.01444
  6 663.818 4.09073 7.01444
  7 898.160 -8.12937 -13.6812
  8 898.160 -8.12937 13.6812
</Section>

newXOutput 257

<Section columns = "stress_xx | stress_yy | stress_xy">
  1 890.834 -8.07152 13.6204
  2 890.834 -8.07152 -13.6204
  3 657.480 4.06114 6.98220
  4 657.480 4.06114 -6.98220
  5 657.480 4.06114 -6.98220
  6 657.480 4.06114 6.98220
  7 890.834 -8.07152 -13.6204
  8 890.834 -8.07152 13.6204
</Section>

newXOutput 258

<Section columns = "stress_xx | stress_yy | stress_xy">
  1 883.539 -8.01342 13.5587
  2 883.539 -8.01342 -13.5587
  3 651.188 4.03143 6.94954
  4 651.188 4.03143 -6.94954
  5 651.188 4.03143 -6.94954
  6 651.188 4.03143 6.94954
  7 883.539 -8.01342 -13.5587
  8 883.539 -8.01342 13.5587
</Section>

newXOutput 259

<Section columns = "stress_xx | stress_yy | stress_xy">
  1 876.274 -7.95507 13.4962
  2 876.274 -7.95507 -13.4962
  3 644.941 4.00160 6.91645
  4 644.941 4.00160 -6.91645
  5 644.941 4.00160 -6.91645
  6 644.941 4.00160 6.91645
  7 876.274 -7.95507 -13.4962
  8 876.274 -7.95507 13.4962
</Section>

newXOutput 260

<Section columns = "stress_xx | stress_yy | stress_xy">
  1 869.039 -7.89649 13.4329
  2 869.039 -7.89649 -13.4329
  3 638.738 3.97165 6.88295
  4 638.738 3.97165 -6.88295
  5 638.738 3.97165 -6.88295
  6 638.738 3.97165 6.88295
  7 869.039 -7.89649 -13.4329
  8 869.039 -7.89649 13.4329
</Section>

newXOutput 261

<Section columns = "stress_xx | stress_yy | stress_xy">
  1 861.834 -7.83769 13.3688
  2 861.834 -7.83769 -13.3688
  3 632.579 3.94161 6.84906
  4 632.579 3.94161 -6.84906
  5 632.579 3.94161 -6.84906
  6 632.579 3.94161 6.84906
  7 861.834 -7.83769 -13.3688
  8 861.834 -7.83769 13.3688
</Section>

newXOutput 262

<Section columns = "stress_xx | stress_yy | stress_xy">
  1 854.658 -7.77870 13.3040
  2 854.658 -7.77870 -13.3040
  3 626.462 3.91146 6.81477
  4 626.462 3.91146 -6.81477
  5 626.462 3.91146 -6.81477
  6 626.462 3.91146 6.81477
  7 854.658 -7.77870 -13.3040
  8 854.658 -7.77870 13.3040
</Section>

newXOutput 263

<Section columns = "stress_xx | stress_yy | stress_xy">
  1 847.512 -7.71952 13.2384
  2 847.512 -7.71952 -13.2384
  3 620.388 3.88124 6.78010
  4 620.388 3.88124 -6.78010
  5 620.388 3.88124 -6.78010
  6 620.388 3.88124 6.78010
  7 847.512 -7.71952 -13.2384
  8 847.512 -7.71952 13.2384
</Section>

newXOutput 264

<Section columns = "stress_xx | stress_yy | stress_xy">
  1 840.394 -7.66017 13.1720
  2 840.394 -7.66017 -13.1720
  3 614.355 3.85093 6.74505
  4 614.355 3.85093 -6.74505
  5 614.355 3.85093 -6.74505
  6 614.355 3.85093 6.74505
  7 840.394 -7.66017 -13.1720
  8 840.394 -7.66017 13.1720
</Section>

newXOutput 265

<Section columns = "stress_xx | stress_yy | stress_xy">
  1 833.305 -7.60066 13.1050
  2 833.305 -7.60066 -13.1050
  3 608.364 3.82054 6.70964
  4 608.364 3.82054 -6.70964
  5 608.364 3.82054 -6.70964
  6 608.364 3.82054 6.70964
  7 833.305 -7.60066 -13.1050
  8 833.305 -7.60066 13.1050
</Section>

newXOutput 266

<Section columns = "stress_xx | stress_yy | stress_xy">
  1 826.244 -7.54100 13.0372
  2 826.244 -7.54100 -13.0372
  3 602.414 3.79009 6.67388
  4 602.414 3.79009 -6.67388
  5 602.414 3.79009 -6.67388
  6 602.414 3.79009 6.67388
  7 826.244 -7.54100 -13.0372
  8 826.244 -7.54100 13.0372
</Section>

newXOutput 267

<Section columns = "stress_xx | stress_yy | stress_xy">
  1 819.212 -7.48120 12.9687
  2 819.212 -7.48120 -12.9687
  3 596.504 3.75958 6.63777
  4 596.504 3.75958 -6.63777
  5 596.504 3.75958 -6.63777
  6 596.504 3.75958 6.63777
  7 819.212 -7.48120 -12.9687
  8 819.212 -7.48120 12.9687
</Section>

newXOutput 268

<Section columns = "stress_xx | stress_yy | stress_xy">
  1 812.207 -7.42129 12.8995
  2 812.207 -7.42129 -12.8995
  3 590.633 3.72901 6.60131
  4 590.633 3.72901 -6.60131
  5 590.633 3.72901 -6.60131
  6 590.633 3.72901 6.60131
  7 812.207 -7.42129 -12.8995
  8 812.207 -7.42129 12.8995
</Section>

newXOutput 269

<Section columns = "stress_xx | stress_yy | stress_xy">
  1 805.229 -7.36126 12.8297
  2 805.229 -7.36126 -12.8297
  3 584.802 3.69839 6.56453
  4 584.802 3.69839 -6.56453
  5 584.802 3.69839 -6.56453
  6 584.802 3.69839 6.56453
  7 805.229 -7.36126 -12.8297
  8 805.229 -7.36126 12.8297
</Section>

newXOutput 270

<Section columns = "stress_xx | stress_yy | stress_xy">
  1 798.279 -7.30113 12.7592
  2 798.279 -7.30113 -12.7592
  3 579.010 3.66773 6.52742
  4 579.010 3.66773 -6.52742
  5 579.010 3.66773 -6.52742
  6 579.010 3.66773 6.52742
  7 798.279 -7.30113 -12.7592
  8 798.279 -7.30113 12.7592
</Section>

newXOutput 271

<Section columns = "stress_xx | stress_yy | stress_xy">
  1 791.356 -7.24092 12.6881
  2 791.356 -7.24092 -12.6881
  3 573.255 3.63703 6.49000
  4 573.255 3.63703 -6.49000
  5 573.255 3.63703 -6.49000
  6 573.255 3.63703 6.49000
  7 791.356 -7.24092 -12.6881
  8 791.356 -7.24092 12.6881
</Section>

newXOutput 272

<Section columns = "stress_xx | stress_yy | stress_xy">
  1 784.459 -7.18062 12.6164
  2 784.459 -7.18062 -12.6164
  3 567.539 3.60630 6.45227
  4 567.539 3.60630 -6.45227
  5 567.539 3.60630 -6.45227
  6 567.539 3.60630 6.45227
  7 784.459 -7.18062 -12.6164
  8 784.459 -7.18062 12.6164
</Section>

newXOutput 273

<Section columns = "stress_xx | stress_yy | stress_xy">
  1 777.589 -7.12026 12.5441
  2 777.589 -7.12026 -12.5441
  3 561.859 3.57554 6.41424
  4 561.859 3.57554 -6.41424
  5 561.859 3.57554 -6.41424
  6 561.859 3.57554 6.41424
  7 777.589 -7.12026 -12.5441
  8 777.589 -7.12026 12.5441
</Section>

newXOutput 274

<Section columns = "stress_xx | stress_yy | stress_xy">
  1 770.745 -7.05984 12.4712
  2 770.745 -7.05984 -12.4712
  3 556.217 3.54477 6.37591
  4 556.217 3.54477 -6.37591
  5 556.217 3.54477 -6.37591
  6 556.217 3.54477 6.37591
  7 770.745 -7.05984 -12.4712
  8 770.745 -7.05984 12.4712
</Section>

newXOutput 275

<Section columns = "stress_xx | stress_yy | stress_xy">
  1 763.928 -6.99937 12.3977
  2 763.928 -6.99937 -12.3977
  3 550.611 3.51397 6.33730
  4 550.611 3.51397 -6.33730
  5 550.611 3.51397 -6.33730
  6 550.611 3.51397 6.33730
  7 763.928 -6.99937 -12.3977
  8 763.928 -6.99937 12.3977
</Section>

newXOutput 276

<Section columns = "stress_xx | stress_yy | stress_xy">
  1 757.135 -6.93886 12.3236
  2 757.135 -6.93886 -12.3236
  3 545.040 3.48316 6.29840
  4 545.040 3.48316 -6.29840
  5 545.040 3.48316 -6.29840
  6 545.040 3.48316 6.29840
  7 757.135 -6.93886 -12.3236
  8 757.135 -6.93886 12.3236
</Section>

newXOutput 277

<Section columns = "stress_xx | stress_yy | stress_xy">
  1 750.369 -6.87833 12.2490
  2 750.369 -6.87833 -12.2490
  3 539.506 3.45234 6.25924
  4 539.506 3.45234 -6.25924
  5 539.506 3.45234 -6.25924
  6 539.506 3.45234 6.25924
  7 750.369 -6.87833 -12.2490
  8 750.369 -6.87833 12.2490
</Section>

newXOutput 278

<Section columns = "stress_xx | stress_yy | stress_xy">
  1 743.627 -6.81777 12.1738
  2 743.627 -6.81777 -12.1738
  3 534.006 3.42153 6.21980
  4 534.006 3.42153 -6.21980
  5 534.006 3.42153 -6.21980
  6 534.006 3.42153 6.21980
  7 743.627 -6.81777 -12.1738
  8 743.627 -6.81777 12.1738
</Section>

newXOutput 279

<Section columns = "stress_xx | stress_yy | stress_xy">
  1 736.911 -6.75719 12.0981
  2 736.911 -6.75719 -12.0981
  3 528.541 3.39071 6.18011
  4 528.541 3.39071 -6.18011
  5 528.541 3.39071 -6.18011
  6 528.541 3.39071 6.18011
  7 736.911 -6.75719 -12.0981
  8 736.911 -6.75719 12.0981
</Section>

newXOutput 280

<Section columns = "stress_xx | stress_yy | stress_xy">
  1 730.219 -6.69662 12.0219
  2 730.219 -6.69662 -12.0219
  3 523.110 3.35989 6.14016
  4 523.110 3.35989 -6.14016
  5 523.110 3.35989 -6.14016
  6 523.110 3.35989 6.14016
  7 730.219 -6.69662 -12.0219
  8 730.219 -6.69662 12.0219
</Section>

newXOutput 281

<Section columns = "stress_xx | stress_yy | stress_xy">
  1 723.552 -6.63604 11.9452
  2 723.552 -6.63604 -11.9452
  3 517.712 3.32909 6.09996
  4 517.712 3.32909 -6.09996
  5 517.712 3.32909 -6.09996
  6 517.712 3.32909 6.09996
  7 723.552 -6.63604 -11.9452
  8 723.552 -6.63604 11.9452
</Section>

newXOutput 282

<Section columns = "stress_xx | stress_yy | stress_xy">
  1 716.910 -6.57548 11.8680
  2 716.910 -6.57548 -11.8680
  3 512.348 3.29830 6.05953
  4 512.348 3.29830 -6.05953
  5 512.348 3.29830 -6.05953
  6 512.348 3.29830 6.05953
  7 716.910 -6.57548 -11.8680
  8 716.910 -6.57548 11.8680
</Section>

newXOutput 283

<Section columns = "stress_xx | stress_yy | stress_xy">
  1 710.291 -6.51494 11.7903
  2 710.291 -6.51494 -11.7903
  3 507.017 3.26753 6.01885
  4 507.017 3.26753 -6.01885
  5 507.017 3.26753 -6.01885
  6 507.017 3.26753 6.01885
  7 710.291 -6.51494 -11.7903
  8 710.291 -6.51494 11.7903
</Section>

newXOutput 284

<Section columns = "stress_xx | stress_yy | stress_xy">
  1 703.696 -6.45442 11.7121
  2 703.696 -6.45442 -11.7121
  3 501.719 3.23678 5.97795
  4 501.719 3.23678 -5.97795
  5 501.719 3.23678 -5.97795
  6 501.719 3.23678 5.97795
  7 703.696 -6.45442 -11.7121
  8 703.696 -6.45442 11.7121
</Section>

newXOutput 285

<Section columns = "stress_xx | stress_yy | stress_xy">
  1 697.125 -6.39393 11.6335
  2 697.125 -6.39393 -11.6335
  3 496.453 3.20605 5.93682
  4 496.453 3.20605 -5.93682
  5 496.453 3.20605 -5.93682
  6 496.453 3.20605 5.93682
  7 697.125 -6.39393 -11.6335
  8 697.125 -6.39393 11.6335
</Section>

newXOutput 286

<Section columns = "stress_xx | stress_yy | stress_xy">
  1 690.578 -6.33349 11.5544
  2 690.578 -6.33349 -11.5544
  3 491.218 3.17535 5.89547
  4 491.218 3.17535 -5.89547
  5 491.218 3.17535 -5.89547
  6 491.218 3.17535 5.89547
  7 690.578 -6.33349 -11.5544
  8 690.578 -6.33349 11.5544
</Section>

newXOutput 287

<Section columns = "stress_xx | stress_yy | stress_xy">
  1 684.054 -6.27309 11.4748
  2 684.054 -6.27309 -11.4748
  3 486.015 3.14468 5.85391
  4 486.015 3.14468 -5.85391
  5 486.015 3.14468 -5.85391
  6 486.015 3.14468 5.85391
  7 684.054 -6.27309 -11.4748
  8 684.054 -6.27309 11.4748
</Section>

newXOutput 288

<Section columns = "stress_xx | stress_yy | stress_xy">
  1 677.552 -6.21274 11.3949
  2 677.552 -6.21274 -11.3949
  3 480.843 3.11405 5.81215
  4 480.843 3.11405 -5.81215
  5 480.843 3.11405 -5.81215
  6 480.843 3.11405 5.81215
  7 677.552 -6.21274 -11.3949
  8 677.552 -6.21274 11.3949
</Section>

newXOutput 289

<Section columns = "stress_xx | stress_yy | stress_xy">
  1 671.074 -6.15246 11.3145
  2 671.074 -6.15246 -11.3145
  3 475.702 3.08346 5.77017
  4 475.702 3.08346 -5.77017
  5 475.702 3.08346 -5.77017
  6 475.702 3.08346 5.77017
  7 671.074 -6.15246 -11.3145
  8 671.074 -6.15246 11.3145
</Section>

newXOutput 290

<Section columns = "stress_xx | stress_yy | stress_xy">
  1 664.618 -6.09223 11.2337
  2 664.618 -6.09223 -11.2337
  3 470.591 3.05290 5.72800
  4 470.591 3.05290 -5.72800
  5 470.591 3.05290 -5.72800
  6 470.591 3.05290 5.72800
  7 664.618 -6.09223 -11.2337
  8 664.618 -6.09223 11.2337
</Section>

newXOutput 291

<Section columns = "stress_xx | stress_yy | stress_xy">
  1 658.185 -6.03208 11.1525
  2 658.185 -6.03208 -11.1525
  3 465.510 3.02239 5.68564
  4 465.510 3.02239 -5.68564
  5 465.510 3.02239 -5.68564
  6 465.510 3.02239 5.68564
  7 658.185 -6.03208 -11.1525
  8 658.185 -6.03208 11.1525
</Section>

newXOutput 292

<Section columns = "stress_xx | stress_yy | stress_xy">
  1 651.774 -5.97201 11.0709
  2 651.774 -5.97201 -11.0709
  3 460.459 2.99193 5.64309
  4 460.459 2.99193 -5.64309
  5 460.459 2.99193 -5.64309
  6 460.459 2.99193 5.64309
  7 651.774 -5.97201 -11.0709
  8 651.774 -5.97201 11.0709
</Section>

newXOutput 293

<Section columns = "stress_xx | stress_yy | stress_xy">
  1 645.385 -5.91202 10.9889
  2 645.385 -5.91202 -10.9889
  3 455.437 2.96151 5.60036
  4 455.437 2.96151 -5.60036
  5 455.437 2.96151 -5.60036
  6 455.437 2.96151 5.60036
  7 645.385 -5.91202 -10.9889
  8 645.385 -5.91202 10.9889
</Section>

newXOutput 294

<Section columns = "stress_xx | stress_yy | stress_xy">
  1 639.018 -5.85211 10.9065
  2 639.018 -5.85211 -10.9065
  3 450.444 2.93115 5.55744
  4 450.444 2.93115 -5.55744
  5 450.444 2.93115 -5.55744
  6 450.444 2.93115 5.55744
  7 639.018 -5.85211 -10.9065
  8 639.018 -5.85211 10.9065
</Section>

newXOutput 295

<Section columns = "stress_xx | stress_yy | stress_xy">
  1 632.673 -5.79230 10.8238
  2 632.673 -5.79230 -10.8238
  3 445.480 2.90084 5.51436
  4 445.480 2.90084 -5.51436
  5 445.480 2.90084 -5.51436
  6 445.480 2.90084 5.51436
  7 632.673 -5.79230 -10.8238
  8 632.673 -5.79230 10.8238
</Section>

newXOutput 296

<Section columns = "stress_xx | stress_yy | stress_xy">
  1 626.349 -5.73258 10.7407
  2 626.349 -5.73258 -10.7407
  3 440.544 2.87058 5.47110
  4 440.544 2.87058 -5.47110
  5 440.544 2.87058 -5.47110
  6 440.544 2.87058 5.47110
  7 626.349 -5.73258 -10.7407
  8 626.349 -5.73258 10.7407
</Section>

newXOutput 297

<Section columns = "stress_xx | stress_yy | stress_xy">
  1 620.046 -5.67297 10.6572
  2 620.046 -5.67297 -10.6572
  3 435.636 2.84039 5.42768
  4 435.636 2.84039 -5.42768
  5 435.636 2.84039 -5.42768
  6 435.636 2.84039 5.42768
  7 620.046 -5.67297 -10.6572
  8 620.046 -5.67297 10.6572
</Section>

newXOutput 298

<Section columns = "stress_xx | stress_yy | stress_xy">
  1 613.765 -5.61346 10.5735
  2 613.765 -5.61346 -10.5735
  3 430.756 2.81026 5.38410
  4 430.756 2.81026 -5.38410
  5 430.756 2.81026 -5.38410
  6 430.756 2.81026 5.38410
  7 613.765 -5.61346 -10.5735
  8 613.765 -5.61346 10.5735
</Section>

newXOutput 299

<Section columns = "stress_xx | stress_yy | stress_xy">
  1 607.505 -5.55406 10.4893
  2 607.505 -5.55406 -10.4893
  3 425.903 2.78019 5.34036
  4 425.903 2.78019 -5.34036
  5 425.903 2.78019 -5.34036
  6 425.903 2.78019 5.34036
  7 607.505 -5.55406 -10.4893
  8 607.505 -5.55406 10.4893
</Section>

newXOutput 300

<Section columns = "stress_xx | stress_yy | stress_xy">
  1 601.265 -5.49478 10.4049
  2 601.265 -5.49478 -10.4049
  3 421.078 2.75018 5.29647
  4 421.078 2.75018 -5.29647
  5 421.078 2.75018 -5.29647
  6 421.078 2.75018 5.29647
  7 601.265 -5.49478 -10.4049
  8 601.265 -5.49478 10.4049
</Section>

newXOutput 301

<Section columns = "stress_xx | stress_yy | stress_xy">
  1 595.046 -5.43562 10.3201
  2 595.046 -5.43562 -10.3201
  3 416.279 2.72025 5.25243
  4 416.279 2.72025 -5.25243
  5 416.279 2.72025 -5.25243
  6 416.279 2.72025 5.25243
  7 595.046 -5.43562 -10.3201
  8 595.046 -5.43562 10.3201
</Section>

newXOutput 302

<Section columns = "stress_xx | stress_yy | stress_xy">
  1 588.847 -5.37658 10.2350
  2 588.847 -5.37658 -10.2350
  3 411.506 2.69038 5.20824
  4 411.506 2.69038 -5.20824
  5 411.506 2.69038 -5.20824
  6 411.506 2.69038 5.20824
  7 588.847 -5.37658 -10.2350
  8 588.847 -5.37658 10.2350
</Section>

newXOutput 303

<Section columns = "stress_xx | stress_yy | stress_xy">
  1 582.669 -5.31767 10.1496
  2 582.669 -5.31767 -10.1496
  3 406.760 2.66059 5.16392
  4 406.760 2.66059 -5.16392
  5 406.760 2.66059 -5.16392
  6 406.760 2.66059 5.16392
  7 582.669 -5.31767 -10.1496
  8 582.669 -5.31767 10.1496
</Section>

newXOutput 304

<Section columns = "stress_xx | stress_yy | stress_xy">
  1 576.510 -5.25889 10.0639
  2 576.510 -5.25889 -10.0639
  3 402.040 2.63087 5.11945
  4 402.040 2.63087 -5.11945
  5 402.040 2.63087 -5.11945
  6 402.040 2.63087 5.11945
  7 576.510 -5.25889 -10.0639
  8 576.510 -5.25889 10.0639
</Section>

newXOutput 305

<Section columns = "stress_xx | stress_yy | stress_xy">
  1 570.372 -5.20024 9.97796
  2 570.372 -5.20024 -9.97796
  3 397.345 2.60122 5.07486
  4 397.345 2.60122 -5.07486
  5 397.345 2.60122 -5.07486
  6 397.345 2.60122 5.07486
  7 570.372 -5.20024 -9.97796
  8 570.372 -5.20024 9.97796
</Section>

newXOutput 306

<Section columns = "stress_xx | stress_yy | stress_xy">
  1 564.253 -5.14174 9.89170
  2 564.253 -5.14174 -9.89170
  3 392.675 2.57165 5.03013
  4 392.675 2.57165 -5.03013
  5 392.675 2.57165 -5.03013
  6 392.675 2.57165 5.03013
  7 564.253 -5.14174 -9.89170
  8 564.253 -5.14174 9.89170
</Section>

newXOutput 307

<Section columns = "stress_xx | stress_yy | stress_xy">
  1 558.154 -5.08337 9.80515
  2 558.154 -5.08337 -9.80515
  3 388.031 2.54216 4.98528
  4 388.031 2.54216 -4.98528
  5 388.031 2.54216 -4.98528
  6 388.031 2.54216 4.98528
  7 558.154 -5.08337 -9.80515
  8 558.154 -5.08337 9.80515
</Section>

newXOutput 308

<Section columns = "stress_xx | stress_yy | stress_xy">
  1 552.074 -5.02515 9.71834
  2 552.074 -5.02515 -9.71834
  3 383.412 2.51275 4.94031
  4 383.412 2.51275 -4.94031
  5 383.412 2.51275 -4.94031
  6 383.412 2.51275 4.94031
  7 552.074 -5.02515 -9.71834
  8 552.074 -5.02515 9.71834
</Section>

newXOutput 309

<Section columns = "stress_xx | stress_yy | stress_xy">
  1 546.014 -4.96708 9.63127
  2 546.014 -4.96708 -9.63127
  3 378.817 2.48342 4.89522
  4 378.817 2.48342 -4.89522
  5 378.817 2.48342 -4.89522
  6 378.817 2.48342 4.89522
  7 546.014 -4.96708 -9.63127
  8 546.014 -4.96708 9.63127
</Section>

newXOutput 310

<Section columns = "stress_xx | stress_yy | stress_xy">
  1 539.972 -4.90915 9.54393
  2 539.972 -4.90915 -9.54393
  3 374.246 2.45417 4.85001
  4 374.246 2.45417 -4.85001
  5 374.246 2.45417 -4.85001
  6 374.246 2.45417 4.85001
  7 539.972 -4.90915 -9.54393
  8 539.972 -4.90915 9.54393
</Section>

newXOutput 311

<Section columns = "stress_xx | stress_yy | stress_xy">
  1 533.950 -4.85139 9.45635
  2 533.950 -4.85139 -9.45635
  3 369.700 2.42501 4.80469
  4 369.700 2.42501 -4.80469
  5 369.700 2.42501 -4.80469
  6 369.700 2.42501 4.80469
  7 533.950 -4.85139 -9.45635
  8 533.950 -4.85139 9.45635
</Section>

newXOutput 312

<Section columns = "stress_xx | stress_yy | stress_xy">
  1 527.946 -4.79378 9.36852
  2 527.946 -4.79378 -9.36852
  3 365.177 2.39594 4.75926
  4 365.177 2.39594 -4.75926
  5 365.177 2.39594 -4.75926
  6 365.177 2.39594 4.75926
  7 527.946 -4.79378 -9.36852
  8 527.946 -4.79378 9.36852
</Section>

newXOutput 313

<Section columns = "stress_xx | stress_yy | stress_xy">
  1 521.961 -4.73632 9.28045
  2 521.961 -4.73632 -9.28045
  3 360.678 2.36695 4.71373
  4 360.678 2.36695 -4.71373
  5 360.678 2.36695 -4.71373
  6 360.678 2.36695 4.71373
  7 521.961 -4.73632 -9.28045
  8 521.961 -4.73632 9.28045
</Section>

newXOutput 314

<Section columns = "stress_xx | stress_yy | stress_xy">
  1 515.995 -4.67904 9.19215
  2 515.995 -4.67904 -9.19215
  3 356.202 2.33805 4.66809
  4 356.202 2.33805 -4.66809
  5 356.202 2.33805 -4.66809
  6 356.202 2.33805 4.66809
  7 515.995 -4.67904 -9.19215
  8 515.995 -4.67904 9.19215
</Section>

newXOutput 315

<Section columns = "stress_xx | stress_yy | stress_xy">
  1 510.047 -4.62191 9.10362
  2 510.047 -4.62191 -9.10362
  3 351.749 2.30923 4.62235
  4 351.749 2.30923 -4.62235
  5 351.749 2.30923 -4.62235
  6 351.749 2.30923 4.62235
  7 510.047 -4.62191 -9.10362
  8 510.047 -4.62191 9.10362
</Section>

newXOutput 316

<Section columns = "stress_xx | stress_yy | stress_xy">
  1 504.117 -4.56495 9.01487
  2 504.117 -4.56495 -9.01487
  3 347.319 2.28051 4.57652
  4 347.319 2.28051 -4.57652
  5 347.319 2.28051 -4.57652
  6 347.319 2.28051 4.57652
  7 504.117 -4.56495 -9.01487
  8 504.117 -4.56495 9.01487
</Section>

newXOutput 317

<Section columns = "stress_xx | stress_yy | stress_xy">
  1 498.205 -4.50816 8.92590
  2 498.205 -4.50816 -8.92590
  3 342.911 2.25188 4.53059
  4 342.911 2.25188 -4.53059
  5 342.911 2.25188 -4.53059
  6 342.911 2.25188 4.53059
  7 498.205 -4.50816 -8.92590
  8 498.205 -4.50816 8.92590
</Section>

newXOutput 318

<Section columns = "stress_xx | stress_yy | stress_xy">
  1 492.311 -4.45155 8.83672
  2 492.311 -4.45155 -8.83672
  3 338.526 2.22335 4.48457
  4 338.526 2.22335 -4.48457
  5 338.526 2.22335 -4.48457
  6 338.526 2.22335 4.48457
  7 492.311 -4.45155 -8.83672
  8 492.311 -4.45155 8.83672
</Section>

newXOutput 319

<Section columns = "stress_xx | stress_yy | stress_xy">
  1 486.435 -4.39510 8.74734
  2 486.435 -4.39510 -8.74734
  3 334.163 2.19491 4.43846
  4 334.163 2.19491 -4.43846
  5 334.163 2.19491 -4.43846
  6 334.163 2.19491 4.43846
  7 486.435 -4.39510 -8.74734
  8 486.435 -4.39510 8.74734
</Section>

newXOutput 320

<Section columns = "stress_xx | stress_yy | stress_xy">
  1 480.576 -4.33883 8.65776
  2 480.576 -4.33883 -8.65776
  3 329.822 2.16656 4.39227
  4 329.822 2.16656 -4.39227
  5 329.822 2.16656 -4.39227
  6 329.822 2.16656 4.39227
  7 480.576 -4.33883 -8.65776
  8 480.576 -4.33883 8.65776
</Section>

newXOutput 321

<Section columns = "stress_xx | stress_yy | stress_xy">
  1 474.735 -4.28274 8.56798
  2 474.735 -4.28274 -8.56798
  3 325.502 2.13830 4.34599
  4 325.502 2.13830 -4.34599
  5 325.502 2.13830 -4.34599
  6 325.502 2.13830 4.34599
  7 474.735 -4.28274 -8.56798
  8 474.735 -4.28274 8.56798
</Section>

newXOutput 322

<Section columns = "stress_xx | stress_yy | stress_xy">
  1 468.911 -4.22683 8.47801
  2 468.911 -4.22683 -8.47801
  3 321.204 2.11015 4.29964
  4 321.204 2.11015 -4.29964
  5 321.204 2.11015 -4.29964
  6 321.204 2.11015 4.29964
  7 468.911 -4.22683 -8.47801
  8 468.911 -4.22683 8.47801
</Section>

newXOutput 323

<Section columns = "stress_xx | stress_yy | stress_xy">
  1 463.104 -4.17110 8.38786
  2 463.104 -4.17110 -8.38786
  3 316.927 2.08209 4.25320
  4 316.927 2.08209 -4.25320
  5 316.927 2.08209 -4.25320
  6 316.927 2.08209 4.25320
  7 463.104 -4.17110 -8.38786
  8 463.104 -4.17110 8.38786
</Section>

newXOutput 324

<Section columns = "stress_xx | stress_yy | stress_xy">
  1 457.315 -4.11556 8.29753
  2 457.315 -4.11556 -8.29753
  3 312.671 2.05413 4.20669
  4 312.671 2.05413 -4.20669
  5 312.671 2.05413 -4.20669
  6 312.671 2.05413 4.20669
  7 457.315 -4.11556 -8.29753
  8 457.315 -4.11556 8.29753
</Section>

newXOutput 325

<Section columns = "stress_xx | stress_yy | stress_xy">
  1 451.542 -4.06019 8.20702
  2 451.542 -4.06019 -8.20702
  3 308.436 2.02627 4.16011
  4 308.436 2.02627 -4.16011
  5 308.436 2.02627 -4.16011
  6 308.436 2.02627 4.16011
  7 451.542 -4.06019 -8.20702
  8 451.542 -4.06019 8.20702
</Section>

newXOutput 326

<Section columns = "stress_xx | stress_yy | stress_xy">
  1 445.786 -4.00502 8.11635
  2 445.786 -4.00502 -8.11635
  3 304.222 1.99850 4.11346
  4 304.222 1.99850 -4.11346
  5 304.222 1.99850 -4.11346
  6 304.222 1.99850 4.11346
  7 445.786 -4.00502 -8.11635
  8 445.786 -4.00502 8.11635
</Section>

newXOutput 327

<Section columns = "stress_xx | stress_yy | stress_xy">
  1 440.047 -3.95003 8.02551
  2 440.047 -3.95003 -8.02551
  3 300.027 1.97084 4.06674
  4 300.027 1.97084 -4.06674
  5 300.027 1.97084 -4.06674
  6 300.027 1.97084 4.06674
  7 440.047 -3.95003 -8.02551
  8 440.047 -3.95003 8.02551
</Section>

newXOutput 328

<Section columns = "stress_xx | stress_yy | stress_xy">
  1 434.325 -3.89523 7.93451
  2 434.325 -3.89523 -7.93451
  3 295.853 1.94328 4.01996
  4 295.853 1.94328 -4.01996
  5 295.853 1.94328 -4.01996
  6 295.853 1.94328 4.01996
  7 434.325 -3.89523 -7.93451
  8 434.325 -3.89523 7.93451
</Section>

newXOutput 329

<Section columns = "stress_xx | stress_yy | stress_xy">
  1 428.619 -3.84063 7.84335
  2 428.619 -3.84063 -7.84335
  3 291.699 1.91582 3.97311
  4 291.699 1.91582 -3.97311
  5 291.699 1.91582 -3.97311
  6 291.699 1.91582 3.97311
  7 428.619 -3.84063 -7.84335
  8 428.619 -3.84063 7.84335
</Section>

newXOutput 330

<Section columns = "stress_xx | stress_yy | stress_xy">
  1 422.929 -3.78621 7.75204
  2 422.929 -3.78621 -7.75204
  3 287.565 1.88846 3.92621
  4 287.565 1.88846 -3.92621
  5 287.565 1.88846 -3.92621
  6 287.565 1.88846 3.92621
  7 422.929 -3.78621 -7.75204
  8 422.929 -3.78621 7.75204
</Section>

newXOutput 331

<Section columns = "stress_xx | stress_yy | stress_xy">
  1 417.255 -3.73199 7.66058
  2 417.255 -3.73199 -7.66058
  3 283.451 1.86120 3.87924
  4 283.451 1.86120 -3.87924
  5 283.451 1.86120 -3.87924
  6 283.451 1.86120 3.87924
  7 417.255 -3.73199 -7.66058
  8 417.255 -3.73199 7.66058
</Section>

newXOutput 332

<Section columns = "stress_xx | stress_yy | stress_xy">
  1 411.597 -3.67796 7.56898
  2 411.597 -3.67796 -7.56898
  3 279.355 1.83405 3.83222
  4 279.355 1.83405 -3.83222
  5 279.355 1.83405 -3.83222
  6 279.355 1.83405 3.83222
  7 411.597 -3.67796 -7.56898
  8 411.597 -3.67796 7.56898
</Section>

newXOutput 333

<Section columns = "stress_xx | stress_yy | stress_xy">
  1 405.956 -3.62412 7.47724
  2 405.956 -3.62412 -7.47724
  3 275.279 1.80700 3.78514
  4 275.279 1.80700 -3.78514
  5 275.279 1.80700 -3.78514
  6 275.279 1.80700 3.78514
  7 405.956 -3.62412 -7.47724
  8 405.956 -3.62412 7.47724
</Section>

newXOutput 334

<Section columns = "stress_xx | stress_yy | stress_xy">
  1 400.330 -3.57049 7.38536
  2 400.330 -3.57049 -7.38536
  3 271.222 1.78005 3.73801
  4 271.222 1.78005 -3.73801
  5 271.222 1.78005 -3.73801
  6 271.222 1.78005 3.73801
  7 400.330 -3.57049 -7.38536
  8 400.330 -3.57049 7.38536
</Section>

newXOutput 335

<Section columns = "stress_xx | stress_yy | stress_xy">
  1 394.719 -3.51705 7.29336
  2 394.719 -3.51705 -7.29336
  3 267.184 1.75321 3.69083
  4 267.184 1.75321 -3.69083
  5 267.184 1.75321 -3.69083
  6 267.184 1.75321 3.69083
  7 394.719 -3.51705 -7.29336
  8 394.719 -3.51705 7.29336
</Section>

newXOutput 336

<Section columns = "stress_xx | stress_yy | stress_xy">
  1 389.125 -3.46381 7.20122
  2 389.125 -3.46381 -7.20122
  3 263.165 1.72647 3.64360
  4 263.165 1.72647 -3.64360
  5 263.165 1.72647 -3.64360
  6 263.165 1.72647 3.64360
  7 389.125 -3.46381 -7.20122
  8 389.125 -3.46381 7.20122
</Section>

newXOutput 337

<Section columns = "stress_xx | stress_yy | stress_xy">
  1 383.545 -3.41077 7.10896
  2 383.545 -3.41077 -7.10896
  3 259.164 1.69984 3.59633
  4 259.164 1.69984 -3.59633
  5 259.164 1.69984 -3.59633
  6 259.164 1.69984 3.59633
  7 383.545 -3.41077 -7.10896
  8 383.545 -3.41077 7.10896
</Section>

newXOutput 338

<Section columns = "stress_xx | stress_yy | stress_xy">
  1 377.981 -3.35793 7.01659
  2 377.981 -3.35793 -7.01659
  3 255.181 1.67331 3.54901
  4 255.181 1.67331 -3.54901
  5 255.181 1.67331 -3.54901
  6 255.181 1.67331 3.54901
  7 377.981 -3.35793 -7.01659
  8 377.981 -3.35793 7.01659
</Section>

newXOutput 339

<Section columns = "stress_xx | stress_yy | stress_xy">
  1 372.433 -3.30529 6.92409
  2 372.433 -3.30529 -6.92409
  3 251.216 1.64689 3.50165
  4 251.216 1.64689 -3.50165
  5 251.216 1.64689 -3.50165
  6 251.216 1.64689 3.50165
  7 372.433 -3.30529 -6.92409
  8 372.433 -3.30529 6.92409
</Section>

newXOutput 340

<Section columns = "stress_xx | stress_yy | stress_xy">
  1 366.899 -3.25285 6.83149
  2 366.899 -3.25285 -6.83149
  3 247.269 1.62057 3.45425
  4 247.269 1.62057 -3.45425
  5 247.269 1.62057 -3.45425
  6 247.269 1.62057 3.45425
  7 366.899 -3.25285 -6.83149
  8 366.899 -3.25285 6.83149
</Section>

newXOutput 341

<Section columns = "stress_xx | stress_yy | stress_xy">
  1 361.380 -3.20062 6.73877
  2 361.380 -3.20062 -6.73877
  3 243.341 1.59437 3.40681
  4 243.341 1.59437 -3.40681
  5 243.341 1.59437 -3.40681
  6 243.341 1.59437 3.40681
  7 361.380 -3.20062 -6.73877
  8 361.380 -3.20062 6.73877
</Section>

newXOutput 342

<Section columns = "stress_xx | stress_yy | stress_xy">
  1 355.876 -3.14859 6.64596
  2 355.876 -3.14859 -6.64596
  3 239.429 1.56826 3.35933
  4 239.429 1.56826 -3.35933
  5 239.429 1.56826 -3.35933
  6 239.429 1.56826 3.35933
  7 355.876 -3.14859 -6.64596
  8 355.876 -3.14859 6.64596
</Section>

newXOutput 343

<Section columns = "stress_xx | stress_yy | stress_xy">
  1 350.387 -3.09676 6.55303
  2 350.387 -3.09676 -6.55303
  3 235.535 1.54227 3.31182
  4 235.535 1.54227 -3.31182
  5 235.535 1.54227 -3.31182
  6 235.535 1.54227 3.31182
  7 350.387 -3.09676 -6.55303
  8 350.387 -3.09676 6.55303
</Section>

newXOutput 344

<Section columns = "stress_xx | stress_yy | stress_xy">
  1 344.913 -3.04513 6.46001
  2 344.913 -3.04513 -6.46001
  3 231.659 1.51638 3.26428
  4 231.659 1.51638 -3.26428
  5 231.659 1.51638 -3.26428
  6 231.659 1.51638 3.26428
  7 344.913 -3.04513 -6.46001
  8 344.913 -3.04513 6.46001
</Section>

newXOutput 345

<Section columns = "stress_xx | stress_yy | stress_xy">
  1 339.453 -2.99372 6.36690
  2 339.453 -2.99372 -6.36690
  3 227.799 1.49060 3.21670
  4 227.799 1.49060 -3.21670
  5 227.799 1.49060 -3.21670
  6 227.799 1.49060 3.21670
  7 339.453 -2.99372 -6.36690
  8 339.453 -2.99372 6.36690
</Section>

newXOutput 346

<Section columns = "stress_xx | stress_yy | stress_xy">
  1 334.008 -2.94250 6.27369
  2 334.008 -2.94250 -6.27369
  3 223.957 1.46492 3.16909
  4 223.957 1.46492 -3.16909
  5 223.957 1.46492 -3.16909
  6 223.957 1.46492 3.16909
  7 334.008 -2.94250 -6.27369
  8 334.008 -2.94250 6.27369
</Section>

newXOutput 347

<Section columns = "stress_xx | stress_yy | stress_xy">
  1 328.577 -2.89150 6.18040
  2 328.577 -2.89150 -6.18040
  3 220.131 1.43935 3.12146
  4 220.131 1.43935 -3.12146
  5 220.131 1.43935 -3.12146
  6 220.131 1.43935 3.12146
  7 328.577 -2.89150 -6.18040
  8 328.577 -2.89150 6.18040
</Section>

newXOutput 348

<Section columns = "stress_xx | stress_yy | stress_xy">
  1 323.160 -2.84070 6.08702
  2 323.160 -2.84070 -6.08702
  3 216.322 1.41389 3.07379
  4 216.322 1.41389 -3.07379
  5 216.322 1.41389 -3.07379
  6 216.322 1.41389 3.07379
  7 323.160 -2.84070 -6.08702
  8 323.160 -2.84070 6.08702
</Section>

newXOutput 349

<Section columns = "stress_xx | stress_yy | stress_xy">
  1 317.757 -2.79010 5.99356
  2 317.757 -2.79010 -5.99356
  3 212.529 1.38854 3.02611
  4 212.529 1.38854 -3.02611
  5 212.529 1.38854 -3.02611
  6 212.529 1.38854 3.02611
  7 317.757 -2.79010 -5.99356
  8 317.757 -2.79010 5.99356
</Section>

newXOutput 350

<Section columns = "stress_xx | stress_yy | stress_xy">
  1 312.369 -2.73972 5.90001
  2 312.369 -2.73972 -5.90001
  3 208.753 1.36330 2.97839
  4 208.753 1.36330 -2.97839
  5 208.753 1.36330 -2.97839
  6 208.753 1.36330 2.97839
  7 312.369 -2.73972 -5.90001
  8 312.369 -2.73972 5.90001
</Section>

newXOutput 351

<Section columns = "stress_xx | stress_yy | stress_xy">
  1 306.994 -2.68954 5.80640
  2 306.994 -2.68954 -5.80640
  3 204.993 1.33816 2.93066
  4 204.993 1.33816 -2.93066
  5 204.993 1.33816 -2.93066
  6 204.993 1.33816 2.93066
  7 306.994 -2.68954 -5.80640
  8 306.994 -2.68954 5.80640
</Section>

newXOutput 352

<Section columns = "stress_xx | stress_yy | stress_xy">
  1 301.633 -2.63956 5.71270
  2 301.633 -2.63956 -5.71270
  3 201.249 1.31313 2.88290
  4 201.249 1.31313 -2.88290
  5 201.249 1.31313 -2.88290
  6 201.249 1.31313 2.88290
  7 301.633 -2.63956 -5.71270
  8 301.633 -2.63956 5.71270
</Section>

newXOutput 353

<Section columns = "stress_xx | stress_yy | stress_xy">
  1 296.286 -2.58980 5.61894
  2 296.286 -2.58980 -5.61894
  3 197.521 1.28821 2.83513
  4 197.521 1.28821 -2.83513
  5 197.521 1.28821 -2.83513
  6 197.521 1.28821 2.83513
  7 296.286 -2.58980 -5.61894
  8 296.286 -2.58980 5.61894
</Section>

newXOutput 354

<Section columns = "stress_xx | stress_yy | stress_xy">
  1 290.952 -2.54024 5.52511
  2 290.952 -2.54024 -5.52511
  3 193.809 1.26339 2.78734
  4 193.809 1.26339 -2.78734
  5 193.809 1.26339 -2.78734
  6 193.809 1.26339 2.78734
  7 290.952 -2.54024 -5.52511
  8 290.952 -2.54024 5.52511
</Section>

newXOutput 355

<Section columns = "stress_xx | stress_yy | stress_xy">
  1 285.632 -2.49090 5.43122
  2 285.632 -2.49090 -5.43122
  3 190.112 1.23869 2.73953
  4 190.112 1.23869 -2.73953
  5 190.112 1.23869 -2.73953
  6 190.112 1.23869 2.73953
  7 285.632 -2.49090 -5.43122
  8 285.632 -2.49090 5.43122
</Section>

newXOutput 356

<Section columns = "stress_xx | stress_yy | stress_xy">
  1 280.326 -2.44176 5.33726
  2 280.326 -2.44176 -5.33726
  3 186.431 1.21409 2.69170
  4 186.431 1.21409 -2.69170
  5 186.431 1.21409 -2.69170
  6 186.431 1.21409 2.69170
  7 280.326 -2.44176 -5.33726
  8 280.326 -2.44176 5.33726
</Section>

newXOutput 357

<Section columns = "stress_xx | stress_yy | stress_xy">
  1 275.033 -2.39283 5.24324
  2 275.033 -2.39283 -5.24324
  3 182.765 1.18960 2.64386
  4 182.765 1.18960 -2.64386
  5 182.765 1.18960 -2.64386
  6 182.765 1.18960 2.64386
  7 275.033 -2.39283 -5.24324
  8 275.033 -2.39283 5.24324
</Section>

newXOutput 358

<Section columns = "stress_xx | stress_yy | stress_xy">
  1 269.753 -2.34411 5.14917
  2 269.753 -2.34411 -5.14917
  3 179.114 1.16522 2.59601
  4 179.114 1.16522 -2.59601
  5 179.114 1.16522 -2.59601
  6 179.114 1.16522 2.59601
  7 269.753 -2.34411 -5.14917
  8 269.753 -2.34411 5.14917
</Section>

newXOutput 359

<Section columns = "stress_xx | stress_yy | stress_xy">
  1 264.486 -2.29559 5.05504
  2 264.486 -2.29559 -5.05504
  3 175.478 1.14094 2.54815
  4 175.478 1.14094 -2.54815
  5 175.478 1.14094 -2.54815
  6 175.478 1.14094 2.54815
  7 264.486 -2.29559 -5.05504
  8 264.486 -2.29559 5.05504
</Section>

newXOutput 360

<Section columns = "stress_xx | stress_yy | stress_xy">
  1 259.232 -2.24729 4.96086
  2 259.232 -2.24729 -4.96086
  3 171.857 1.11677 2.50027
  4 171.857 1.11677 -2.50027
  5 171.857 1.11677 -2.50027
  6 171.857 1.11677 2.50027
  7 259.232 -2.24729 -4.96086
  8 259.232 -2.24729 4.96086
</Section>

newXOutput 361

<Section columns = "stress_xx | stress_yy | stress_xy">
  1 253.991 -2.19919 4.86663
  2 253.991 -2.19919 -4.86663
  3 168.251 1.09271 2.45239
  4 168.251 1.09271 -2.45239
  5 168.251 1.09271 -2.45239
  6 168.251 1.09271 2.45239
  7 253.991 -2.19919 -4.86663
  8 253.991 -2.19919 4.86663
</Section>

newXOutput 362

<Section columns = "stress_xx | stress_yy | stress_xy">
  1 248.763 -2.15130 4.77236
  2 248.763 -2.15130 -4.77236
  3 164.660 1.06876 2.40450
  4 164.660 1.06876 -2.40450
  5 164.660 1.06876 -2.40450
  6 164.660 1.06876 2.40450
  7 248.763 -2.15130 -4.77236
  8 248.763 -2.15130 4.77236
</Section>

newXOutput 363

<Section columns = "stress_xx | stress_yy | stress_xy">
  1 243.548 -2.10362 4.67804
  2 243.548 -2.10362 -4.67804
  3 161.083 1.04491 2.35660
  4 161.083 1.04491 -2.35660
  5 161.083 1.04491 -2.35660
  6 161.083 1.04491 2.35660
  7 243.548 -2.10362 -4.67804
  8 243.548 -2.10362 4.67804
</Section>

newXOutput 364

<Section columns = "stress_xx | stress_yy | stress_xy">
  1 238.345 -2.05615 4.58367
  2 238.345 -2.05615 -4.58367
  3 157.521 1.02118 2.30870
  4 157.521 1.02118 -2.30870
  5 157.521 1.02118 -2.30870
  6 157.521 1.02118 2.30870
  7 238.345 -2.05615 -4.58367
  8 238.345 -2.05615 4.58367
</Section>

newXOutput 365

<Section columns = "stress_xx | stress_yy | stress_xy">
  1 233.155 -2.00889 4.48927
  2 233.155 -2.00889 -4.48927
  3 153.973 0.997544 2.26079
  4 153.973 0.997544 -2.26079
  5 153.973 0.997544 -2.26079
  6 153.973 0.997544 2.26079
  7 233.155 -2.00889 -4.48927
  8 233.155 -2.00889 4.48927
</Section>

newXOutput 366

<Section columns = "stress_xx | stress_yy | stress_xy">
  1 227.978 -1.96184 4.39483
  2 227.978 -1.96184 -4.39483
  3 150.439 0.974020 2.21289
  4 150.439 0.974020 -2.21289
  5 150.439 0.974020 -2.21289
  6 150.439 0.974020 2.21289
  7 227.978 -1.96184 -4.39483
  8 227.978 -1.96184 4.39483
</Section>

newXOutput 367

<Section columns = "stress_xx | stress_yy | stress_xy">
  1 222.813 -1.91499 4.30035
  2 222.813 -1.91499 -4.30035
  3 146.919 0.950602 2.16497
  4 146.919 0.950602 -2.16497
  5 146.919 0.950602 -2.16497
  6 146.919 0.950602 2.16497
  7 222.813 -1.91499 -4.30035
  8 222.813 -1.91499 4.30035
</Section>

newXOutput 368

<Section columns = "stress_xx | stress_yy | stress_xy">
  1 217.660 -1.86835 4.20585
  2 217.660 -1.86835 -4.20585
  3 143.412 0.927290 2.11706
  4 143.412 0.927290 -2.11706
  5 143.412 0.927290 -2.11706
  6 143.412 0.927290 2.11706
  7 217.660 -1.86835 -4.20585
  8 217.660 -1.86835 4.20585
</Section>

newXOutput 369

<Section columns = "stress_xx | stress_yy | stress_xy">
  1 212.520 -1.82192 4.11131
  2 212.520 -1.82192 -4.11131
  3 139.920 0.904085 2.06915
  4 139.920 0.904085 -2.06915
  5 139.920 0.904085 -2.06915
  6 139.920 0.904085 2.06915
  7 212.520 -1.82192 -4.11131
  8 212.520 -1.82192 4.11131
</Section>

newXOutput 370

<Section columns = "stress_xx | stress_yy | stress_xy">
  1 207.392 -1.77570 4.01674
  2 207.392 -1.77570 -4.01674
  3 136.441 0.880986 2.02124
  4 136.441 0.880986 -2.02124
  5 136.441 0.880986 -2.02124
  6 136.441 0.880986 2.02124
  7 207.392 -1.77570 -4.01674
  8 207.392 -1.77570 4.01674
</Section>

newXOutput 371

<Section columns = "stress_xx | stress_yy | stress_xy">
  1 202.276 -1.72969 3.92214
  2 202.276 -1.72969 -3.92214
  3 132.976 0.857993 1.97333
  4 132.976 0.857993 -1.97333
  5 132.976 0.857993 -1.97333
  6 132.976 0.857993 1.97333
  7 202.276 -1.72969 -3.92214
  8 202.276 -1.72969 3.92214
</Section>

newXOutput 372

<Section columns = "stress_xx | stress_yy | stress_xy">
  1 197.172 -1.68388 3.82752
  2 197.172 -1.68388 -3.82752
  3 129.525 0.835106 1.92542
  4 129.525 0.835106 -1.92542
  5 129.525 0.835106 -1.92542
  6 129.525 0.835106 1.92542
  7 197.172 -1.68388 -3.82752
  8 197.172 -1.68388 3.82752
</Section>

newXOutput 373

<Section columns = "stress_xx | stress_yy | stress_xy">
  1 192.080 -1.63828 3.73288
  2 192.080 -1.63828 -3.73288
  3 126.086 0.812325 1.87752
  4 126.086 0.812325 -1.87752
  5 126.086 0.812325 -1.87752
  6 126.086 0.812325 1.87752
  7 192.080 -1.63828 -3.73288
  8 192.080 -1.63828 3.73288
</Section>

newXOutput 374

<Section columns = "stress_xx | stress_yy | stress_xy">
  1 186.999 -1.59288 3.63821
  2 186.999 -1.59288 -3.63821
  3 122.661 0.789649 1.82962
  4 122.661 0.789649 -1.82962
  5 122.661 0.789649 -1.82962
  6 122.661 0.789649 1.82962
  7 186.999 -1.59288 -3.63821
  8 186.999 -1.59288 3.63821
</Section>

newXOutput 375

<Section columns = "stress_xx | stress_yy | stress_xy">
  1 181.931 -1.54770 3.54353
  2 181.931 -1.54770 -3.54353
  3 119.249 0.767078 1.78173
  4 119.249 0.767078 -1.78173
  5 119.249 0.767078 -1.78173
  6 119.249 0.767078 1.78173
  7 181.931 -1.54770 -3.54353
  8 181.931 -1.54770 3.54353
</Section>

newXOutput 376

<Section columns = "stress_xx | stress_yy | stress_xy">
  1 176.874 -1.50271 3.44883
  2 176.874 -1.50271 -3.44883
  3 115.850 0.744611 1.73384
  4 115.850 0.744611 -1.73384
  5 115.850 0.744611 -1.73384
  6 115.850 0.744611 1.73384
  7 176.874 -1.50271 -3.44883
  8 176.874 -1.50271 3.44883
</Section>

newXOutput 377

<Section columns = "stress_xx | stress_yy | stress_xy">
  1 171.829 -1.45794 3.35412
  2 171.829 -1.45794 -3.35412
  3 112.464 0.722250 1.68596
  4 112.464 0.722250 -1.68596
  5 112.464 0.722250 -1.68596
  6 112.464 0.722250 1.68596
  7 171.829 -1.45794 -3.35412
  8 171.829 -1.45794 3.35412
</Section>

newXOutput 378

<Section columns = "stress_xx | stress_yy | stress_xy">
  1 166.795 -1.41336 3.25939
  2 166.795 -1.41336 -3.25939
  3 109.090 0.699993 1.63809
  4 109.090 0.699993 -1.63809
  5 109.090 0.699993 -1.63809
  6 109.090 0.699993 1.63809
  7 166.795 -1.41336 -3.25939
  8 166.795 -1.41336 3.25939
</Section>

newXOutput 379

<Section columns = "stress_xx | stress_yy | stress_xy">
  1 161.773 -1.36900 3.16465
  2 161.773 -1.36900 -3.16465
  3 105.729 0.677840 1.59024
  4 105.729 0.677840 -1.59024
  5 105.729 0.677840 -1.59024
  6 105.729 0.677840 1.59024
  7 161.773 -1.36900 -3.16465
  8 161.773 -1.36900 3.16465
</Section>

newXOutput 380

<Section columns = "stress_xx | stress_yy | stress_xy">
  1 156.762 -1.32484 3.06990
  2 156.762 -1.32484 -3.06990
  3 102.381 0.655791 1.54239
  4 102.381 0.655791 -1.54239
  5 102.381 0.655791 -1.54239
  6 102.381 0.655791 1.54239
  7 156.762 -1.32484 -3.06990
  8 156.762 -1.32484 3.06990
</Section>

newXOutput 381

<Section columns = "stress_xx | stress_yy | stress_xy">
  1 151.762 -1.28088 2.97514
  2 151.762 -1.28088 -2.97514
  3 99.0451 0.633845 1.49455
  4 99.0451 0.633845 -1.49455
  5 99.0451 0.633845 -1.49455
  6 99.0451 0.633845 1.49455
  7 151.762 -1.28088 -2.97514
  8 151.762 -1.28088 2.97514
</Section>

newXOutput 382

<Section columns = "stress_xx | stress_yy | stress_xy">
  1 146.774 -1.23712 2.88038
  2 146.774 -1.23712 -2.88038
  3 95.7215 0.612003 1.44672
  4 95.7215 0.612003 -1.44672
  5 95.7215 0.612003 -1.44672
  6 95.7215 0.612003 1.44672
  7 146.774 -1.23712 -2.88038
  8 146.774 -1.23712 2.88038
</Section>

newXOutput 383

<Section columns = "stress_xx | stress_yy | stress_xy">
  1 141.797 -1.19357 2.78561
  2 141.797 -1.19357 -2.78561
  3 92.4102 0.590264 1.39891
  4 92.4102 0.590264 -1.39891
  5 92.4102 0.590264 -1.39891
  6 92.4102 0.590264 1.39891
  7 141.797 -1.19357 -2.78561
  8 141.797 -1.19357 2.78561
</Section>

newXOutput 384

<Section columns = "stress_xx | stress_yy | stress_xy">
  1 136.830 -1.15023 2.69084
  2 136.830 -1.15023 -2.69084
  3 89.1110 0.568627 1.35111
  4 89.1110 0.568627 -1.35111
  5 89.1110 0.568627 -1.35111
  6 89.1110 0.568627 1.35111
  7 136.830 -1.15023 -2.69084
  8 136.830 -1.15023 2.69084
</Section>

newXOutput 385

<Section columns = "stress_xx | stress_yy | stress_xy">
  1 131.875 -1.10708 2.59606
  2 131.875 -1.10708 -2.59606
  3 85.8239 0.547093 1.30332
  4 85.8239 0.547093 -1.30332
  5 85.8239 0.547093 -1.30332
  6 85.8239 0.547093 1.30332
  7 131.875 -1.10708 -2.59606
  8 131.875 -1.10708 2.59606
</Section>

newXOutput 386

<Section columns = "stress_xx | stress_yy | stress_xy">
  1 126.931 -1.06414 2.50129
  2 126.931 -1.06414 -2.50129
  3 82.5486 0.525662 1.25555
  4 82.5486 0.525662 -1.25555
  5 82.5486 0.525662 -1.25555
  6 82.5486 0.525662 1.25555
  7 126.931 -1.06414 -2.50129
  8 126.931 -1.06414 2.50129
</Section>

newXOutput 387

<Section columns = "stress_xx | stress_yy | stress_xy">
  1 121.998 -1.02140 2.40652
  2 121.998 -1.02140 -2.40652
  3 79.2852 0.504332 1.20780
  4 79.2852 0.504332 -1.20780
  5 79.2852 0.504332 -1.20780
  6 79.2852 0.504332 1.20780
  7 121.998 -1.02140 -2.40652
  8 121.998 -1.02140 2.40652
</Section>

newXOutput 388

<Section columns = "stress_xx | stress_yy | stress_xy">
  1 117.075 -0.978854 2.31175
  2 117.075 -0.978854 -2.31175
  3 76.0336 0.483103 1.16006
  4 76.0336 0.483103 -1.16006
  5 76.0336 0.483103 -1.16006
  6 76.0336 0.483103 1.16006
  7 117.075 -0.978854 -2.31175
  8 117.075 -0.978854 2.31175
</Section>

newXOutput 389

<Section columns = "stress_xx | stress_yy | stress_xy">
  1 112.163 -0.936514 2.21699
  2 112.163 -0.936514 -2.21699
  3 72.7935 0.461976 1.11234
  4 72.7935 0.461976 -1.11234
  5 72.7935 0.461976 -1.11234
  6 72.7935 0.461976 1.11234
  7 112.163 -0.936514 -2.21699
  8 112.163 -0.936514 2.21699
</Section>

newXOutput 390

<Section columns = "stress_xx | stress_yy | stress_xy">
  1 107.262 -0.894374 2.12223
  2 107.262 -0.894374 -2.12223
  3 69.5651 0.440950 1.06463
  4 69.5651 0.440950 -1.06463
  5 69.5651 0.440950 -1.06463
  6 69.5651 0.440950 1.06463
  7 107.262 -0.894374 -2.12223
  8 107.262 -0.894374 2.12223
</Section>

newXOutput 391

<Section columns = "stress_xx | stress_yy | stress_xy">
  1 102.371 -0.852433 2.02748
  2 102.371 -0.852433 -2.02748
  3 66.3480 0.420024 1.01695
  4 66.3480 0.420024 -1.01695
  5 66.3480 0.420024 -1.01695
  6 66.3480 0.420024 1.01695
  7 102.371 -0.852433 -2.02748
  8 102.371 -0.852433 2.02748
</Section>

newXOutput 392

<Section columns = "stress_xx | stress_yy | stress_xy">
  1 97.4909 -0.810691 1.93274
  2 97.4909 -0.810691 -1.93274
  3 63.1423 0.399199 0.969282
  4 63.1423 0.399199 -0.969282
  5 63.1423 0.399199 -0.969282
  6 63.1423 0.399199 0.969282
  7 97.4909 -0.810691 -1.93274
  8 97.4909 -0.810691 1.93274
</Section>

newXOutput 393

<Section columns = "stress_xx | stress_yy | stress_xy">
  1 92.6212 -0.769148 1.83801
  2 92.6212 -0.769148 -1.83801
  3 59.9479 0.378474 0.921636
  4 59.9479 0.378474 -0.921636
  5 59.9479 0.378474 -0.921636
  6 59.9479 0.378474 0.921636
  7 92.6212 -0.769148 -1.83801
  8 92.6212 -0.769148 1.83801
</Section>

newXOutput 394

<Section columns = "stress_xx | stress_yy | stress_xy">
  1 87.7618 -0.727803 1.74329
  2 87.7618 -0.727803 -1.74329
  3 56.7647 0.357848 0.874011
  4 56.7647 0.357848 -0.874011
  5 56.7647 0.357848 -0.874011
  6 56.7647 0.357848 0.874011
  7 87.7618 -0.727803 -1.74329
  8 87.7618 -0.727803 1.74329
</Section>

newXOutput 395

<Section columns = "stress_xx | stress_yy | stress_xy">
  1 82.9127 -0.686655 1.64859
  2 82.9127 -0.686655 -1.64859
  3 53.5925 0.337321 0.826407
  4 53.5925 0.337321 -0.826407
  5 53.5925 0.337321 -0.826407
  6 53.5925 0.337321 0.826407
  7 82.9127 -0.686655 -1.64859
  8 82.9127 -0.686655 1.64859
</Section>

newXOutput 396

<Section columns = "stress_xx | stress_yy | stress_xy">
  1 78.0738 -0.645704 1.55390
  2 78.0738 -0.645704 -1.55390
  3 50.4313 0.316894 0.778824
  4 50.4313 0.316894 -0.778824
  5 50.4313 0.316894 -0.778824
  6 50.4313 0.316894 0.778824
  7 78.0738 -0.645704 -1.55390
  8 78.0738 -0.645704 1.55390
</Section>

newXOutput 397

<Section columns = "stress_xx | stress_yy | stress_xy">
  1 73.2452 -0.604950 1.45922
  2 73.2452 -0.604950 -1.45922
  3 47.2811 0.296565 0.731263
  4 47.2811 0.296565 -0.731263
  5 47.2811 0.296565 -0.731263
  6 47.2811 0.296565 0.731263
  7 73.2452 -0.604950 -1.45922
  8 73.2452 -0.604950 1.45922
</Section>

newXOutput 398

<Section columns = "stress_xx | stress_yy | stress_xy">
  1 68.4266 -0.564391 1.36457
  2 68.4266 -0.564391 -1.36457
  3 44.1416 0.276334 0.683726
  4 44.1416 0.276334 -0.683726
  5 44.1416 0.276334 -0.683726
  6 44.1416 0.276334 0.683726
  7 68.4266 -0.564391 -1.36457
  8 68.4266 -0.564391 1.36457
</Section>

newXOutput 399

<Section columns = "stress_xx | stress_yy | stress_xy">
  1 63.6180 -0.524027 1.26993
  2 63.6180 -0.524027 -1.26993
  3 41.0129 0.256201 0.636212
  4 41.0129 0.256201 -0.636212
  5 41.0129 0.256201 -0.636212
  6 41.0129 0.256201 0.636212
  7 63.6180 -0.524027 -1.26993
  8 63.6180 -0.524027 1.26993
</Section>

newXOutput 400

<Section columns = "stress_xx | stress_yy | stress_xy">
  1 58.8805 -0.483493 1.17454
  2 58.8805 -0.483493 -1.17454
  3 37.9285 0.243051 0.588335
  4 37.9285 0.243051 -0.588335
  5 37.9285 0.243051 -0.588335
  6 37.9285 0.243051 0.588335
  7 58.8805 -0.483493 -1.17454
  8 58.8805 -0.483493 1.17454
</Section>

newXOutput 401

<Section columns = "stress_xx | stress_yy | stress_xy">
  1 54.0914 -0.443522 1.07995
  2 54.0914 -0.443522 -1.07995
  3 34.8208 0.223047 0.540874
  4 34.8208 0.223047 -0.540874
  5 34.8208 0.223047 -0.540874
  6 34.8208 0.223047 0.540874
  7 54.0914 -0.443522 -1.07995
  8 54.0914 -0.443522 1.07995
</Section>

newXOutput 402

<Section columns = "stress_xx | stress_yy | stress_xy">
  1 49.3121 -0.403745 0.985376
  2 49.3121 -0.403745 -0.985376
  3 31.7235 0.203138 0.493437
  4 31.7235 0.203138 -0.493437
  5 31.7235 0.203138 -0.493437
  6 31.7235 0.203138 0.493437
  7 49.3121 -0.403745 -0.985376
  8 49.3121 -0.403745 0.985376
</Section>

newXOutput 403

<Section columns = "stress_xx | stress_yy | stress_xy">
  1 44.5426 -0.364160 0.890829
  2 44.5426 -0.364160 -0.890829
  3 28.6366 0.183327 0.446026
  4 28.6366 0.183327 -0.446026
  5 28.6366 0.183327 -0.446026
  6 28.6366 0.183327 0.446026
  7 44.5426 -0.364160 -0.890829
  8 44.5426 -0.364160 0.890829
</Section>

newXOutput 404

<Section columns = "stress_xx | stress_yy | stress_xy">
  1 39.7829 -0.324767 0.796307
  2 39.7829 -0.324767 -0.796307
  3 25.5600 0.163612 0.398642
  4 25.5600 0.163612 -0.398642
  5 25.5600 0.163612 -0.398642
  6 25.5600 0.163612 0.398642
  7 39.7829 -0.324767 -0.796307
  8 39.7829 -0.324767 0.796307
</Section>

newXOutput 405

<Section columns = "stress_xx | stress_yy | stress_xy">
  1 35.0328 -0.285566 0.701809
  2 35.0328 -0.285566 -0.701809
  3 22.4936 0.143994 0.351284
  4 22.4936 0.143994 -0.351284
  5 22.4936 0.143994 -0.351284
  6 22.4936 0.143994 0.351284
  7 35.0328 -0.285566 -0.701809
  8 35.0328 -0.285566 0.701809
</Section>

newXOutput 406

<Section columns = "stress_xx | stress_yy | stress_xy">
  1 30.2923 -0.246556 0.607338
  2 30.2923 -0.246556 -0.607338
  3 19.4374 0.124472 0.303953
  4 19.4374 0.124472 -0.303953
  5 19.4374 0.124472 -0.303953
  6 19.4374 0.124472 0.303953
  7 30.2923 -0.246556 -0.607338
  8 30.2923 -0.246556 0.607338
</Section>

newXOutput 407

<Section columns = "stress_xx | stress_yy | stress_xy">
  1 25.5613 -0.207736 0.512895
  2 25.5613 -0.207736 -0.512895
  3 16.3913 0.105045 0.256649
  4 16.3913 0.105045 -0.256649
  5 16.3913 0.105045 -0.256649
  6 16.3913 0.105045 0.256649
  7 25.5613 -0.207736 -0.512895
  8 25.5613 -0.207736 0.512895
</Section>

newXOutput 408

<Section columns = "stress_xx | stress_yy | stress_xy">
  1 20.8398 -0.169105 0.418480
  2 20.8398 -0.169105 -0.418480
  3 13.3552 0.0857144 0.209374
  4 13.3552 0.0857144 -0.209374
  5 13.3552 0.0857144 -0.209374
  6 13.3552 0.0857144 0.209374
  7 20.8398 -0.169105 -0.418480
  8 20.8398 -0.169105 0.418480
</Section>

newXOutput 409

<Section columns = "stress_xx | stress_yy | stress_xy">
  1 16.1278 -0.130664 0.324094
  2 16.1278 -0.130664 -0.324094
  3 10.3290 0.0664784 0.162128
  4 10.3290 0.0664784 -0.162128
  5 10.3290 0.0664784 -0.162128
  6 10.3290 0.0664784 0.162128
  7 16.1278 -0.130664 -0.324094
  8 16.1278 -0.130664 0.324094
</Section>

newXOutput 410

<Section columns = "stress_xx | stress_yy | stress_xy">
  1 11.4251 -0.0924104 0.229739
  2 11.4251 -0.0924104 -0.229739
  3 7.31267 0.0473370 0.114910
  4 7.31267 0.0473370 -0.114910
  5 7.31267 0.0473370 -0.114910
  6 7.31267 0.0473370 0.114910
  7 11.4251 -0.0924104 -0.229739
  8 11.4251 -0.0924104 0.229739
</Section>

newXOutput 411

<Section columns = "stress_xx | stress_yy | stress_xy">
  1 6.73170 -0.0543449 0.135416
  2 6.73170 -0.0543449 -0.135416
  3 4.30608 0.0282898 0.0677220
  4 4.30608 0.0282898 -0.0677220
  5 4.30608 0.0282898 -0.0677220
  6 4.30608 0.0282898 0.0677220
  7 6.73170 -0.0543449 -0.135416
  8 6.73170 -0.0543449 0.135416
</Section>

newXOutput 412

<Section columns = "stress_xx | stress_yy | stress_xy">
  1 2.04756 -0.0164665 0.0411250
  2 2.04756 -0.0164665 -0.0411250
  3 1.30919 0.00933641 0.0205638
  4 1.30919 0.00933641 -0.0205638
  5 1.30919 0.00933641 -0.0205638
  6 1.30919 0.00933641 0.0205638
  7 2.04756 -0.0164665 -0.0411250
  8 2.04756 -0.0164665 0.0411250
</Section>

newXOutput 413

<Section columns = "stress_xx | stress_yy | stress_xy">
  1 -0.000313240 -6.14780e-05 7.24134e-08
  2 -0.000313240 -6.14780e-05 -7.24134e-08
  3 -0.000156771 -3.12519e-05 3.62067e-08
  4 -0.000156771 -3.12519e-05 -3.62067e-08
  5 -0.000156771 -3.12519e-05 -3.62048e-08
  6 -0.000156771 -3.12519e-05 3.62090e-08
  7 -0.000313240 -6.14780e-05 -7.24136e-08
  8 -0.000313240 -6.14780e-05 7.24155e-08
</Section>

newXOutput 414

<Section columns = "stress_xx | stress_yy | stress_xy">
  1 -3.63798e-12 -9.09495e-13 -3.44812e-14
  2 -3.63798e-12 -9.09495e-13 3.55295e-14
  3 -1.81899e-12 -4.54747e-13 -1.77648e-14
  4 -1.81899e-12 -4.54747e-13 1.72406e-14
  5 -2.53629e-12 -8.13395e-13 1.52703e-12
  6 -2.01119e-12 -5.50847e-13 1.52633e-12
  7 -5.07257e-12 -1.62679e-12 1.81900e-12
  8 -4.02238e-12 -1.10169e-12 1.59556e-12
</Section>

