newXOutput 1

<Section columns = "stress_xx | stress_yy | stress_xy">
  1 0.00000 0.00000 0.00000
  2 0.00000 0.00000 0.00000
  3 0.00000 0.00000 0.00000
  4 0.00000 0.00000 0.00000
  5 0.00000 0.00000 0.00000
  6 0.00000 0.00000 0.00000
  7 0.00000 0.00000 0.00000
  8 0.00000 0.00000 0.00000
  9 0.00000 0.00000 0.00000
  10 0.00000 0.00000 0.00000
  11 0.00000 0.00000 0.00000
  12 0.00000 0.00000 0.00000
  13 0.00000 0.00000 0.00000
  14 0.00000 0.00000 0.00000
  15 0.00000 0.00000 0.00000
  16 0.00000 0.00000 0.00000
  17 0.00000 0.00000 0.00000
  18 0.00000 0.00000 0.00000
  19 0.00000 0.00000 0.00000
  20 0.00000 0.00000 0.00000
  21 0.00000 0.00000 0.00000
  22 0.00000 0.00000 0.00000
  23 0.00000 0.00000 0.00000
  24 0.00000 0.00000 0.00000
  25 0.00000 0.00000 0.00000
  26 0.00000 0.00000 0.00000
  27 0.00000 0.00000 0.00000
  28 0.00000 0.00000 0.00000
  29 0.00000 0.00000 0.00000
  30 0.00000 0.00000 0.00000
  31 0.00000 0.00000 0.00000
  32 0.00000 0.00000 0.00000
  33 0.00000 0.00000 0.00000
  34 0.00000 0.00000 0.00000
  35 0.00000 0.00000 0.00000
  36 0.00000 0.00000 0.00000
  37 0.00000 0.00000 0.00000
  38 0.00000 0.00000 0.00000
  39 0.00000 0.00000 0.00000
  40 0.00000 0.00000 0.00000
  41 0.00000 0.00000 0.00000
  42 0.00000 0.00000 0.00000
  43 0.00000 0.00000 0.00000
  44 0.00000 0.00000 0.00000
  45 0.00000 0.00000 0.00000
  46 0.00000 0.00000 0.00000
  47 0.00000 0.00000 0.00000
  48 0.00000 0.00000 0.00000
  49 0.00000 0.00000 0.00000
  50 0.00000 0.00000 0.00000
  51 0.00000 0.00000 0.00000
  52 0.00000 0.00000 0.00000
  53 0.00000 0.00000 0.00000
  54 0.00000 0.00000 0.00000
  55 0.00000 0.00000 0.00000
  56 0.00000 0.00000 0.00000
  57 0.00000 0.00000 0.00000
  58 0.00000 0.00000 0.00000
  59 0.00000 0.00000 0.00000
  60 0.00000 0.00000 0.00000
  61 0.00000 0.00000 0.00000
  62 0.00000 0.00000 0.00000
  63 0.00000 0.00000 0.00000
  64 0.00000 0.00000 0.00000
  65 0.00000 0.00000 0.00000
  66 0.00000 0.00000 0.00000
  67 0.00000 0.00000 0.00000
  68 0.00000 0.00000 0.00000
  69 0.00000 0.00000 0.00000
  70 0.00000 0.00000 0.00000
  71 0.00000 0.00000 0.00000
  72 0.00000 0.00000 0.00000
  73 0.00000 0.00000 0.00000
  74 0.00000 0.00000 0.00000
  75 0.00000 0.00000 0.00000
  76 0.00000 0.00000 0.00000
  77 0.00000 0.00000 0.00000
  78 0.00000 0.00000 0.00000
  79 0.00000 0.00000 0.00000
  80 0.00000 0.00000 0.00000
  81 0.00000 0.00000 0.00000
  82 0.00000 0.00000 0.00000
  83 0.00000 0.00000 0.00000
  84 0.00000 0.00000 0.00000
  85 0.00000 0.00000 0.00000
  86 0.00000 0.00000 0.00000
  87 0.00000 0.00000 0.00000
  88 0.00000 0.00000 0.00000
  89 0.00000 0.00000 0.00000
  90 0.00000 0.00000 0.00000
  91 0.00000 0.00000 0.00000
  92 0.00000 0.00000 0.00000
  93 0.00000 0.00000 0.00000
  94 0.00000 0.00000 0.00000
  95 0.00000 0.00000 0.00000
  96 0.00000 0.00000 0.00000
  97 0.00000 0.00000 0.00000
  98 0.00000 0.00000 0.00000
  99 0.00000 0.00000 0.00000
  100 0.00000 0.00000 0.00000
  101 0.00000 0.00000 0.00000
  102 0.00000 0.00000 0.00000
  103 0.00000 0.00000 0.00000
  104 0.00000 0.00000 0.00000
  105 0.00000 0.00000 0.00000
  106 0.00000 0.00000 0.00000
  107 0.00000 0.00000 0.00000
  108 0.00000 0.00000 0.00000
  109 0.00000 0.00000 0.00000
  110 0.00000 0.00000 0.00000
  111 0.00000 0.00000 0.00000
  112 0.00000 0.00000 0.00000
  113 0.00000 0.00000 0.00000
  114 0.00000 0.00000 0.00000
  115 0.00000 0.00000 0.00000
  116 0.00000 0.00000 0.00000
  117 0.00000 0.00000 0.00000
  118 0.00000 0.00000 0.00000
  119 0.00000 0.00000 0.00000
  120 0.00000 0.00000 0.00000
  121 0.00000 0.00000 0.00000
  122 0.00000 0.00000 0.00000
  123 0.00000 0.00000 0.00000
  124 0.00000 0.00000 0.00000
  125 0.00000 0.00000 0.00000
  126 0.00000 0.00000 0.00000
  127 0.00000 0.00000 0.00000
  128 0.00000 0.00000 0.00000
  129 0.00000 0.00000 0.00000
  130 0.00000 0.00000 0.00000
  131 0.00000 0.00000 0.00000
  132 0.00000 0.00000 0.00000
  133 0.00000 0.00000 0.00000
  134 0.00000 0.00000 0.00000
  135 0.00000 0.00000 0.00000
  136 0.00000 0.00000 0.00000
  137 0.00000 0.00000 0.00000
  138 0.00000 0.00000 0.00000
  139 0.00000 0.00000 0.00000
  140 0.00000 0.00000 0.00000
  141 0.00000 0.00000 0.00000
  142 0.00000 0.00000 0.00000
  143 0.00000 0.00000 0.00000
  144 0.00000 0.00000 0.00000
  145 0.00000 0.00000 0.00000
  146 0.00000 0.00000 0.00000
  147 0.00000 0.00000 0.00000
  148 0.00000 0.00000 0.00000
  149 0.00000 0.00000 0.00000
  150 0.00000 0.00000 0.00000
  151 0.00000 0.00000 0.00000
  152 0.00000 0.00000 0.00000
  153 0.00000 0.00000 0.00000
  154 0.00000 0.00000 0.00000
  155 0.00000 0.00000 0.00000
  156 0.00000 0.00000 0.00000
  157 0.00000 0.00000 0.00000
  158 0.00000 0.00000 0.00000
  159 0.00000 0.00000 0.00000
  160 0.00000 0.00000 0.00000
  161 0.00000 0.00000 0.00000
  162 0.00000 0.00000 0.00000
  163 0.00000 0.00000 0.00000
  164 0.00000 0.00000 0.00000
  165 0.00000 0.00000 0.00000
  166 0.00000 0.00000 0.00000
  167 0.00000 0.00000 0.00000
  168 0.00000 0.00000 0.00000
  169 0.00000 0.00000 0.00000
  170 0.00000 0.00000 0.00000
  171 0.00000 0.00000 0.00000
  172 0.00000 0.00000 0.00000
  173 0.00000 0.00000 0.00000
  174 0.00000 0.00000 0.00000
  175 0.00000 0.00000 0.00000
  176 0.00000 0.00000 0.00000
  177 0.00000 0.00000 0.00000
  178 0.00000 0.00000 0.00000
  179 0.00000 0.00000 0.00000
  180 0.00000 0.00000 0.00000
  181 0.00000 0.00000 0.00000
  182 0.00000 0.00000 0.00000
  183 0.00000 0.00000 0.00000
  184 0.00000 0.00000 0.00000
  185 0.00000 0.00000 0.00000
  186 0.00000 0.00000 0.00000
  187 0.00000 0.00000 0.00000
  188 0.00000 0.00000 0.00000
  189 0.00000 0.00000 0.00000
  190 0.00000 0.00000 0.00000
  191 0.00000 0.00000 0.00000
  192 0.00000 0.00000 0.00000
  193 0.00000 0.00000 0.00000
  194 0.00000 0.00000 0.00000
  195 0.00000 0.00000 0.00000
  196 0.00000 0.00000 0.00000
  197 0.00000 0.00000 0.00000
  198 0.00000 0.00000 0.00000
  199 0.00000 0.00000 0.00000
  200 0.00000 0.00000 0.00000
  201 0.00000 0.00000 0.00000
  202 0.00000 0.00000 0.00000
  203 0.00000 0.00000 0.00000
  204 0.00000 0.00000 0.00000
  205 0.00000 0.00000 0.00000
  206 0.00000 0.00000 0.00000
  207 0.00000 0.00000 0.00000
  208 0.00000 0.00000 0.00000
  209 0.00000 0.00000 0.00000
  210 0.00000 0.00000 0.00000
  211 0.00000 0.00000 0.00000
  212 0.00000 0.00000 0.00000
  213 0.00000 0.00000 0.00000
  214 0.00000 0.00000 0.00000
  215 0.00000 0.00000 0.00000
  216 0.00000 0.00000 0.00000
  217 0.00000 0.00000 0.00000
  218 0.00000 0.00000 0.00000
  219 0.00000 0.00000 0.00000
  220 0.00000 0.00000 0.00000
  221 0.00000 0.00000 0.00000
  222 0.00000 0.00000 0.00000
  223 0.00000 0.00000 0.00000
  224 0.00000 0.00000 0.00000
  225 0.00000 0.00000 0.00000
  226 0.00000 0.00000 0.00000
  227 0.00000 0.00000 0.00000
  228 0.00000 0.00000 0.00000
  229 0.00000 0.00000 0.00000
  230 0.00000 0.00000 0.00000
  231 0.00000 0.00000 0.00000
  232 0.00000 0.00000 0.00000
  233 0.00000 0.00000 0.00000
  234 0.00000 0.00000 0.00000
  235 0.00000 0.00000 0.00000
  236 0.00000 0.00000 0.00000
  237 0.00000 0.00000 0.00000
  238 0.00000 0.00000 0.00000
  239 0.00000 0.00000 0.00000
  240 0.00000 0.00000 0.00000
  241 0.00000 0.00000 0.00000
  242 0.00000 0.00000 0.00000
  243 0.00000 0.00000 0.00000
  244 0.00000 0.00000 0.00000
  245 0.00000 0.00000 0.00000
  246 0.00000 0.00000 0.00000
  247 0.00000 0.00000 0.00000
  248 0.00000 0.00000 0.00000
  249 0.00000 0.00000 0.00000
  250 0.00000 0.00000 0.00000
  251 0.00000 0.00000 0.00000
  252 0.00000 0.00000 0.00000
  253 0.00000 0.00000 0.00000
  254 0.00000 0.00000 0.00000
  255 0.00000 0.00000 0.00000
  256 0.00000 0.00000 0.00000
  257 0.00000 0.00000 0.00000
  258 0.00000 0.00000 0.00000
  259 0.00000 0.00000 0.00000
  260 0.00000 0.00000 0.00000
  261 0.00000 0.00000 0.00000
  262 0.00000 0.00000 0.00000
  263 0.00000 0.00000 0.00000
  264 0.00000 0.00000 0.00000
  265 0.00000 0.00000 0.00000
  266 0.00000 0.00000 0.00000
  267 0.00000 0.00000 0.00000
  268 0.00000 0.00000 0.00000
  269 0.00000 0.00000 0.00000
  270 0.00000 0.00000 0.00000
  271 0.00000 0.00000 0.00000
  272 0.00000 0.00000 0.00000
  273 0.00000 0.00000 0.00000
  274 0.00000 0.00000 0.00000
  275 0.00000 0.00000 0.00000
  276 0.00000 0.00000 0.00000
  277 0.00000 0.00000 0.00000
  278 0.00000 0.00000 0.00000
  279 0.00000 0.00000 0.00000
  280 0.00000 0.00000 0.00000
  281 0.00000 0.00000 0.00000
  282 0.00000 0.00000 0.00000
  283 0.00000 0.00000 0.00000
  284 0.00000 0.00000 0.00000
  285 0.00000 0.00000 0.00000
  286 0.00000 0.00000 0.00000
  287 0.00000 0.00000 0.00000
  288 0.00000 0.00000 0.00000
  289 0.00000 0.00000 0.00000
  290 0.00000 0.00000 0.00000
  291 0.00000 0.00000 0.00000
  292 0.00000 0.00000 0.00000
  293 0.00000 0.00000 0.00000
  294 0.00000 0.00000 0.00000
  295 0.00000 0.00000 0.00000
  296 0.00000 0.00000 0.00000
  297 0.00000 0.00000 0.00000
  298 0.00000 0.00000 0.00000
  299 0.00000 0.00000 0.00000
  300 0.00000 0.00000 0.00000
  301 0.00000 0.00000 0.00000
  302 0.00000 0.00000 0.00000
  303 0.00000 0.00000 0.00000
  304 0.00000 0.00000 0.00000
  305 0.00000 0.00000 0.00000
  306 0.00000 0.00000 0.00000
  307 0.00000 0.00000 0.00000
  308 0.00000 0.00000 0.00000
  309 0.00000 0.00000 0.00000
  310 0.00000 0.00000 0.00000
  311 0.00000 0.00000 0.00000
  312 0.00000 0.00000 0.00000
  313 0.00000 0.00000 0.00000
  314 0.00000 0.00000 0.00000
  315 0.00000 0.00000 0.00000
  316 0.00000 0.00000 0.00000
  317 0.00000 0.00000 0.00000
  318 0.00000 0.00000 0.00000
  319 0.00000 0.00000 0.00000
  320 0.00000 0.00000 0.00000
  321 0.00000 0.00000 0.00000
  322 0.00000 0.00000 0.00000
  323 0.00000 0.00000 0.00000
  324 0.00000 0.00000 0.00000
  325 0.00000 0.00000 0.00000
  326 0.00000 0.00000 0.00000
  327 0.00000 0.00000 0.00000
  328 0.00000 0.00000 0.00000
  329 0.00000 0.00000 0.00000
  330 0.00000 0.00000 0.00000
  331 0.00000 0.00000 0.00000
  332 0.00000 0.00000 0.00000
  333 0.00000 0.00000 0.00000
  334 0.00000 0.00000 0.00000
  335 0.00000 0.00000 0.00000
  336 0.00000 0.00000 0.00000
  337 0.00000 0.00000 0.00000
  338 0.00000 0.00000 0.00000
  339 0.00000 0.00000 0.00000
  340 0.00000 0.00000 0.00000
  341 0.00000 0.00000 0.00000
  342 0.00000 0.00000 0.00000
  343 0.00000 0.00000 0.00000
  344 0.00000 0.00000 0.00000
  345 0.00000 0.00000 0.00000
  346 0.00000 0.00000 0.00000
  347 0.00000 0.00000 0.00000
  348 0.00000 0.00000 0.00000
  349 0.00000 0.00000 0.00000
  350 0.00000 0.00000 0.00000
  351 0.00000 0.00000 0.00000
  352 0.00000 0.00000 0.00000
  353 0.00000 0.00000 0.00000
  354 0.00000 0.00000 0.00000
  355 0.00000 0.00000 0.00000
  356 0.00000 0.00000 0.00000
  357 0.00000 0.00000 0.00000
  358 0.00000 0.00000 0.00000
  359 0.00000 0.00000 0.00000
  360 0.00000 0.00000 0.00000
  361 0.00000 0.00000 0.00000
  362 0.00000 0.00000 0.00000
  363 0.00000 0.00000 0.00000
  364 0.00000 0.00000 0.00000
  365 0.00000 0.00000 0.00000
  366 0.00000 0.00000 0.00000
  367 0.00000 0.00000 0.00000
  368 0.00000 0.00000 0.00000
  369 0.00000 0.00000 0.00000
  370 0.00000 0.00000 0.00000
  371 0.00000 0.00000 0.00000
  372 0.00000 0.00000 0.00000
  373 0.00000 0.00000 0.00000
  374 0.00000 0.00000 0.00000
  375 0.00000 0.00000 0.00000
  376 0.00000 0.00000 0.00000
  377 0.00000 0.00000 0.00000
  378 0.00000 0.00000 0.00000
  379 0.00000 0.00000 0.00000
  380 0.00000 0.00000 0.00000
  381 0.00000 0.00000 0.00000
  382 0.00000 0.00000 0.00000
  383 0.00000 0.00000 0.00000
  384 0.00000 0.00000 0.00000
  385 0.00000 0.00000 0.00000
  386 0.00000 0.00000 0.00000
  387 0.00000 0.00000 0.00000
  388 0.00000 0.00000 0.00000
  389 0.00000 0.00000 0.00000
  390 0.00000 0.00000 0.00000
  391 0.00000 0.00000 0.00000
  392 0.00000 0.00000 0.00000
  393 0.00000 0.00000 0.00000
  394 0.00000 0.00000 0.00000
  395 0.00000 0.00000 0.00000
  396 0.00000 0.00000 0.00000
  397 0.00000 0.00000 0.00000
  398 0.00000 0.00000 0.00000
  399 0.00000 0.00000 0.00000
  400 0.00000 0.00000 0.00000
  401 0.00000 0.00000 0.00000
  402 0.00000 0.00000 0.00000
  403 0.00000 0.00000 0.00000
  404 0.00000 0.00000 0.00000
  405 0.00000 0.00000 0.00000
  406 0.00000 0.00000 0.00000
  407 0.00000 0.00000 0.00000
  408 0.00000 0.00000 0.00000
  409 0.00000 0.00000 0.00000
  410 0.00000 0.00000 0.00000
  411 0.00000 0.00000 0.00000
  412 0.00000 0.00000 0.00000
  413 0.00000 0.00000 0.00000
  414 0.00000 0.00000 0.00000
  415 0.00000 0.00000 0.00000
  416 0.00000 0.00000 0.00000
  417 0.00000 0.00000 0.00000
  418 0.00000 0.00000 0.00000
  419 0.00000 0.00000 0.00000
  420 0.00000 0.00000 0.00000
  421 0.00000 0.00000 0.00000
  422 0.00000 0.00000 0.00000
  423 0.00000 0.00000 0.00000
  424 0.00000 0.00000 0.00000
  425 0.00000 0.00000 0.00000
  426 0.00000 0.00000 0.00000
  427 0.00000 0.00000 0.00000
  428 0.00000 0.00000 0.00000
  429 0.00000 0.00000 0.00000
  430 0.00000 0.00000 0.00000
  431 0.00000 0.00000 0.00000
  432 0.00000 0.00000 0.00000
  433 0.00000 0.00000 0.00000
  434 0.00000 0.00000 0.00000
  435 0.00000 0.00000 0.00000
  436 0.00000 0.00000 0.00000
  437 0.00000 0.00000 0.00000
  438 0.00000 0.00000 0.00000
  439 0.00000 0.00000 0.00000
  440 0.00000 0.00000 0.00000
  441 0.00000 0.00000 0.00000
  442 0.00000 0.00000 0.00000
  443 0.00000 0.00000 0.00000
  444 0.00000 0.00000 0.00000
  445 0.00000 0.00000 0.00000
  446 0.00000 0.00000 0.00000
  447 0.00000 0.00000 0.00000
  448 0.00000 0.00000 0.00000
  449 0.00000 0.00000 0.00000
  450 0.00000 0.00000 0.00000
  451 0.00000 0.00000 0.00000
  452 0.00000 0.00000 0.00000
  453 0.00000 0.00000 0.00000
  454 0.00000 0.00000 0.00000
  455 0.00000 0.00000 0.00000
  456 0.00000 0.00000 0.00000
  457 0.00000 0.00000 0.00000
  458 0.00000 0.00000 0.00000
  459 0.00000 0.00000 0.00000
  460 0.00000 0.00000 0.00000
  461 0.00000 0.00000 0.00000
  462 0.00000 0.00000 0.00000
  463 0.00000 0.00000 0.00000
  464 0.00000 0.00000 0.00000
  465 0.00000 0.00000 0.00000
  466 0.00000 0.00000 0.00000
  467 0.00000 0.00000 0.00000
  468 0.00000 0.00000 0.00000
  469 0.00000 0.00000 0.00000
  470 0.00000 0.00000 0.00000
  471 0.00000 0.00000 0.00000
  472 0.00000 0.00000 0.00000
  473 0.00000 0.00000 0.00000
  474 0.00000 0.00000 0.00000
  475 0.00000 0.00000 0.00000
  476 0.00000 0.00000 0.00000
  477 0.00000 0.00000 0.00000
  478 0.00000 0.00000 0.00000
  479 0.00000 0.00000 0.00000
  480 0.00000 0.00000 0.00000
  481 0.00000 0.00000 0.00000
  482 0.00000 0.00000 0.00000
  483 0.00000 0.00000 0.00000
  484 0.00000 0.00000 0.00000
  485 0.00000 0.00000 0.00000
  486 0.00000 0.00000 0.00000
  487 0.00000 0.00000 0.00000
  488 0.00000 0.00000 0.00000
  489 0.00000 0.00000 0.00000
  490 0.00000 0.00000 0.00000
  491 0.00000 0.00000 0.00000
  492 0.00000 0.00000 0.00000
  493 0.00000 0.00000 0.00000
  494 0.00000 0.00000 0.00000
  495 0.00000 0.00000 0.00000
  496 0.00000 0.00000 0.00000
  497 0.00000 0.00000 0.00000
  498 0.00000 0.00000 0.00000
  499 0.00000 0.00000 0.00000
  500 0.00000 0.00000 0.00000
  501 0.00000 0.00000 0.00000
  502 0.00000 0.00000 0.00000
  503 0.00000 0.00000 0.00000
  504 0.00000 0.00000 0.00000
  505 0.00000 0.00000 0.00000
  506 0.00000 0.00000 0.00000
  507 0.00000 0.00000 0.00000
  508 0.00000 0.00000 0.00000
  509 0.00000 0.00000 0.00000
  510 0.00000 0.00000 0.00000
  511 0.00000 0.00000 0.00000
  512 0.00000 0.00000 0.00000
  513 0.00000 0.00000 0.00000
  514 0.00000 0.00000 0.00000
  515 0.00000 0.00000 0.00000
  516 0.00000 0.00000 0.00000
  517 0.00000 0.00000 0.00000
  518 0.00000 0.00000 0.00000
  519 0.00000 0.00000 0.00000
  520 0.00000 0.00000 0.00000
  521 0.00000 0.00000 0.00000
  522 0.00000 0.00000 0.00000
  523 0.00000 0.00000 0.00000
  524 0.00000 0.00000 0.00000
  525 0.00000 0.00000 0.00000
  526 0.00000 0.00000 0.00000
  527 0.00000 0.00000 0.00000
  528 0.00000 0.00000 0.00000
  529 0.00000 0.00000 0.00000
  530 0.00000 0.00000 0.00000
  531 0.00000 0.00000 0.00000
  532 0.00000 0.00000 0.00000
  533 0.00000 0.00000 0.00000
  534 0.00000 0.00000 0.00000
  535 0.00000 0.00000 0.00000
  536 0.00000 0.00000 0.00000
  537 0.00000 0.00000 0.00000
  538 0.00000 0.00000 0.00000
  539 0.00000 0.00000 0.00000
  540 0.00000 0.00000 0.00000
  541 0.00000 0.00000 0.00000
  542 0.00000 0.00000 0.00000
  543 0.00000 0.00000 0.00000
  544 0.00000 0.00000 0.00000
  545 0.00000 0.00000 0.00000
  546 0.00000 0.00000 0.00000
  547 0.00000 0.00000 0.00000
  548 0.00000 0.00000 0.00000
  549 0.00000 0.00000 0.00000
  550 0.00000 0.00000 0.00000
  551 0.00000 0.00000 0.00000
  552 0.00000 0.00000 0.00000
  553 0.00000 0.00000 0.00000
  554 0.00000 0.00000 0.00000
  555 0.00000 0.00000 0.00000
  556 0.00000 0.00000 0.00000
  557 0.00000 0.00000 0.00000
  558 0.00000 0.00000 0.00000
  559 0.00000 0.00000 0.00000
  560 0.00000 0.00000 0.00000
  561 0.00000 0.00000 0.00000
  562 0.00000 0.00000 0.00000
  563 0.00000 0.00000 0.00000
  564 0.00000 0.00000 0.00000
  565 0.00000 0.00000 0.00000
  566 0.00000 0.00000 0.00000
  567 0.00000 0.00000 0.00000
  568 0.00000 0.00000 0.00000
  569 0.00000 0.00000 0.00000
  570 0.00000 0.00000 0.00000
  571 0.00000 0.00000 0.00000
  572 0.00000 0.00000 0.00000
  573 0.00000 0.00000 0.00000
  574 0.00000 0.00000 0.00000
  575 0.00000 0.00000 0.00000
  576 0.00000 0.00000 0.00000
  577 0.00000 0.00000 0.00000
  578 0.00000 0.00000 0.00000
  579 0.00000 0.00000 0.00000
  580 0.00000 0.00000 0.00000
  581 0.00000 0.00000 0.00000
  582 0.00000 0.00000 0.00000
  583 0.00000 0.00000 0.00000
  584 0.00000 0.00000 0.00000
  585 0.00000 0.00000 0.00000
  586 0.00000 0.00000 0.00000
  587 0.00000 0.00000 0.00000
  588 0.00000 0.00000 0.00000
  589 0.00000 0.00000 0.00000
  590 0.00000 0.00000 0.00000
  591 0.00000 0.00000 0.00000
  592 0.00000 0.00000 0.00000
  593 0.00000 0.00000 0.00000
  594 0.00000 0.00000 0.00000
  595 0.00000 0.00000 0.00000
  596 0.00000 0.00000 0.00000
  597 0.00000 0.00000 0.00000
  598 0.00000 0.00000 0.00000
  599 0.00000 0.00000 0.00000
  600 0.00000 0.00000 0.00000
  601 0.00000 0.00000 0.00000
  602 0.00000 0.00000 0.00000
  603 0.00000 0.00000 0.00000
  604 0.00000 0.00000 0.00000
  605 0.00000 0.00000 0.00000
  606 0.00000 0.00000 0.00000
  607 0.00000 0.00000 0.00000
  608 0.00000 0.00000 0.00000
  609 0.00000 0.00000 0.00000
  610 0.00000 0.00000 0.00000
  611 0.00000 0.00000 0.00000
  612 0.00000 0.00000 0.00000
  613 0.00000 0.00000 0.00000
  614 0.00000 0.00000 0.00000
  615 0.00000 0.00000 0.00000
  616 0.00000 0.00000 0.00000
  617 0.00000 0.00000 0.00000
  618 0.00000 0.00000 0.00000
  619 0.00000 0.00000 0.00000
  620 0.00000 0.00000 0.00000
  621 0.00000 0.00000 0.00000
  622 0.00000 0.00000 0.00000
  623 0.00000 0.00000 0.00000
  624 0.00000 0.00000 0.00000
  625 0.00000 0.00000 0.00000
  626 0.00000 0.00000 0.00000
  627 0.00000 0.00000 0.00000
  628 0.00000 0.00000 0.00000
  629 0.00000 0.00000 0.00000
  630 0.00000 0.00000 0.00000
  631 0.00000 0.00000 0.00000
  632 0.00000 0.00000 0.00000
  633 0.00000 0.00000 0.00000
  634 0.00000 0.00000 0.00000
  635 0.00000 0.00000 0.00000
  636 0.00000 0.00000 0.00000
  637 0.00000 0.00000 0.00000
  638 0.00000 0.00000 0.00000
  639 0.00000 0.00000 0.00000
  640 0.00000 0.00000 0.00000
  641 0.00000 0.00000 0.00000
  642 0.00000 0.00000 0.00000
  643 0.00000 0.00000 0.00000
  644 0.00000 0.00000 0.00000
  645 0.00000 0.00000 0.00000
  646 0.00000 0.00000 0.00000
  647 0.00000 0.00000 0.00000
  648 0.00000 0.00000 0.00000
  649 0.00000 0.00000 0.00000
  650 0.00000 0.00000 0.00000
  651 0.00000 0.00000 0.00000
  652 0.00000 0.00000 0.00000
  653 0.00000 0.00000 0.00000
  654 0.00000 0.00000 0.00000
  655 0.00000 0.00000 0.00000
  656 0.00000 0.00000 0.00000
  657 0.00000 0.00000 0.00000
  658 0.00000 0.00000 0.00000
  659 0.00000 0.00000 0.00000
  660 0.00000 0.00000 0.00000
  661 0.00000 0.00000 0.00000
  662 0.00000 0.00000 0.00000
  663 0.00000 0.00000 0.00000
  664 0.00000 0.00000 0.00000
  665 0.00000 0.00000 0.00000
  666 0.00000 0.00000 0.00000
  667 0.00000 0.00000 0.00000
  668 0.00000 0.00000 0.00000
  669 0.00000 0.00000 0.00000
  670 0.00000 0.00000 0.00000
  671 0.00000 0.00000 0.00000
  672 0.00000 0.00000 0.00000
  673 0.00000 0.00000 0.00000
  674 0.00000 0.00000 0.00000
  675 0.00000 0.00000 0.00000
  676 0.00000 0.00000 0.00000
  677 0.00000 0.00000 0.00000
  678 0.00000 0.00000 0.00000
  679 0.00000 0.00000 0.00000
  680 0.00000 0.00000 0.00000
  681 0.00000 0.00000 0.00000
  682 0.00000 0.00000 0.00000
  683 0.00000 0.00000 0.00000
  684 0.00000 0.00000 0.00000
  685 0.00000 0.00000 0.00000
  686 0.00000 0.00000 0.00000
  687 0.00000 0.00000 0.00000
  688 0.00000 0.00000 0.00000
  689 0.00000 0.00000 0.00000
  690 0.00000 0.00000 0.00000
  691 0.00000 0.00000 0.00000
  692 0.00000 0.00000 0.00000
  693 0.00000 0.00000 0.00000
  694 0.00000 0.00000 0.00000
  695 0.00000 0.00000 0.00000
  696 0.00000 0.00000 0.00000
  697 0.00000 0.00000 0.00000
  698 0.00000 0.00000 0.00000
  699 0.00000 0.00000 0.00000
  700 0.00000 0.00000 0.00000
  701 0.00000 0.00000 0.00000
  702 0.00000 0.00000 0.00000
  703 0.00000 0.00000 0.00000
  704 0.00000 0.00000 0.00000
  705 0.00000 0.00000 0.00000
  706 0.00000 0.00000 0.00000
  707 0.00000 0.00000 0.00000
  708 0.00000 0.00000 0.00000
  709 0.00000 0.00000 0.00000
  710 0.00000 0.00000 0.00000
  711 0.00000 0.00000 0.00000
  712 0.00000 0.00000 0.00000
  713 0.00000 0.00000 0.00000
  714 0.00000 0.00000 0.00000
  715 0.00000 0.00000 0.00000
  716 0.00000 0.00000 0.00000
  717 0.00000 0.00000 0.00000
  718 0.00000 0.00000 0.00000
  719 0.00000 0.00000 0.00000
  720 0.00000 0.00000 0.00000
  721 0.00000 0.00000 0.00000
  722 0.00000 0.00000 0.00000
  723 0.00000 0.00000 0.00000
  724 0.00000 0.00000 0.00000
  725 0.00000 0.00000 0.00000
  726 0.00000 0.00000 0.00000
  727 0.00000 0.00000 0.00000
  728 0.00000 0.00000 0.00000
  729 0.00000 0.00000 0.00000
  730 0.00000 0.00000 0.00000
  731 0.00000 0.00000 0.00000
  732 0.00000 0.00000 0.00000
  733 0.00000 0.00000 0.00000
  734 0.00000 0.00000 0.00000
  735 0.00000 0.00000 0.00000
  736 0.00000 0.00000 0.00000
  737 0.00000 0.00000 0.00000
  738 0.00000 0.00000 0.00000
  739 0.00000 0.00000 0.00000
  740 0.00000 0.00000 0.00000
  741 0.00000 0.00000 0.00000
  742 0.00000 0.00000 0.00000
  743 0.00000 0.00000 0.00000
  744 0.00000 0.00000 0.00000
  745 0.00000 0.00000 0.00000
  746 0.00000 0.00000 0.00000
  747 0.00000 0.00000 0.00000
  748 0.00000 0.00000 0.00000
  749 0.00000 0.00000 0.00000
  750 0.00000 0.00000 0.00000
  751 0.00000 0.00000 0.00000
  752 0.00000 0.00000 0.00000
  753 0.00000 0.00000 0.00000
  754 0.00000 0.00000 0.00000
  755 0.00000 0.00000 0.00000
  756 0.00000 0.00000 0.00000
  757 0.00000 0.00000 0.00000
  758 0.00000 0.00000 0.00000
  759 0.00000 0.00000 0.00000
  760 0.00000 0.00000 0.00000
  761 0.00000 0.00000 0.00000
  762 0.00000 0.00000 0.00000
  763 0.00000 0.00000 0.00000
  764 0.00000 0.00000 0.00000
  765 0.00000 0.00000 0.00000
  766 0.00000 0.00000 0.00000
  767 0.00000 0.00000 0.00000
  768 0.00000 0.00000 0.00000
  769 0.00000 0.00000 0.00000
  770 0.00000 0.00000 0.00000
  771 0.00000 0.00000 0.00000
  772 0.00000 0.00000 0.00000
  773 0.00000 0.00000 0.00000
  774 0.00000 0.00000 0.00000
  775 0.00000 0.00000 0.00000
  776 0.00000 0.00000 0.00000
  777 0.00000 0.00000 0.00000
  778 0.00000 0.00000 0.00000
  779 0.00000 0.00000 0.00000
  780 0.00000 0.00000 0.00000
  781 0.00000 0.00000 0.00000
  782 0.00000 0.00000 0.00000
  783 0.00000 0.00000 0.00000
  784 0.00000 0.00000 0.00000
  785 0.00000 0.00000 0.00000
  786 0.00000 0.00000 0.00000
  787 0.00000 0.00000 0.00000
  788 0.00000 0.00000 0.00000
  789 0.00000 0.00000 0.00000
  790 0.00000 0.00000 0.00000
  791 0.00000 0.00000 0.00000
  792 0.00000 0.00000 0.00000
  793 0.00000 0.00000 0.00000
  794 0.00000 0.00000 0.00000
  795 0.00000 0.00000 0.00000
  796 0.00000 0.00000 0.00000
  797 0.00000 0.00000 0.00000
  798 0.00000 0.00000 0.00000
  799 0.00000 0.00000 0.00000
  800 0.00000 0.00000 0.00000
  801 0.00000 0.00000 0.00000
  802 0.00000 0.00000 0.00000
  803 0.00000 0.00000 0.00000
  804 0.00000 0.00000 0.00000
  805 0.00000 0.00000 0.00000
  806 0.00000 0.00000 0.00000
  807 0.00000 0.00000 0.00000
  808 0.00000 0.00000 0.00000
  809 0.00000 0.00000 0.00000
  810 0.00000 0.00000 0.00000
  811 0.00000 0.00000 0.00000
  812 0.00000 0.00000 0.00000
  813 0.00000 0.00000 0.00000
  814 0.00000 0.00000 0.00000
  815 0.00000 0.00000 0.00000
  816 0.00000 0.00000 0.00000
  817 0.00000 0.00000 0.00000
  818 0.00000 0.00000 0.00000
  819 0.00000 0.00000 0.00000
  820 0.00000 0.00000 0.00000
  821 0.00000 0.00000 0.00000
  822 0.00000 0.00000 0.00000
  823 0.00000 0.00000 0.00000
  824 0.00000 0.00000 0.00000
  825 0.00000 0.00000 0.00000
  826 0.00000 0.00000 0.00000
  827 0.00000 0.00000 0.00000
  828 0.00000 0.00000 0.00000
  829 0.00000 0.00000 0.00000
  830 0.00000 0.00000 0.00000
  831 0.00000 0.00000 0.00000
  832 0.00000 0.00000 0.00000
  833 0.00000 0.00000 0.00000
  834 0.00000 0.00000 0.00000
  835 0.00000 0.00000 0.00000
  836 0.00000 0.00000 0.00000
  837 0.00000 0.00000 0.00000
  838 0.00000 0.00000 0.00000
  839 0.00000 0.00000 0.00000
  840 0.00000 0.00000 0.00000
  841 0.00000 0.00000 0.00000
  842 0.00000 0.00000 0.00000
  843 0.00000 0.00000 0.00000
  844 0.00000 0.00000 0.00000
  845 0.00000 0.00000 0.00000
  846 0.00000 0.00000 0.00000
  847 0.00000 0.00000 0.00000
  848 0.00000 0.00000 0.00000
  849 0.00000 0.00000 0.00000
  850 0.00000 0.00000 0.00000
  851 0.00000 0.00000 0.00000
  852 0.00000 0.00000 0.00000
  853 0.00000 0.00000 0.00000
  854 0.00000 0.00000 0.00000
  855 0.00000 0.00000 0.00000
  856 0.00000 0.00000 0.00000
  857 0.00000 0.00000 0.00000
  858 0.00000 0.00000 0.00000
  859 0.00000 0.00000 0.00000
  860 0.00000 0.00000 0.00000
  861 0.00000 0.00000 0.00000
  862 0.00000 0.00000 0.00000
  863 0.00000 0.00000 0.00000
  864 0.00000 0.00000 0.00000
  865 0.00000 0.00000 0.00000
  866 0.00000 0.00000 0.00000
  867 0.00000 0.00000 0.00000
  868 0.00000 0.00000 0.00000
  869 0.00000 0.00000 0.00000
  870 0.00000 0.00000 0.00000
  871 0.00000 0.00000 0.00000
  872 0.00000 0.00000 0.00000
  873 0.00000 0.00000 0.00000
  874 0.00000 0.00000 0.00000
  875 0.00000 0.00000 0.00000
  876 0.00000 0.00000 0.00000
  877 0.00000 0.00000 0.00000
  878 0.00000 0.00000 0.00000
  879 0.00000 0.00000 0.00000
  880 0.00000 0.00000 0.00000
  881 0.00000 0.00000 0.00000
  882 0.00000 0.00000 0.00000
  883 0.00000 0.00000 0.00000
  884 0.00000 0.00000 0.00000
  885 0.00000 0.00000 0.00000
  886 0.00000 0.00000 0.00000
  887 0.00000 0.00000 0.00000
  888 0.00000 0.00000 0.00000
  889 0.00000 0.00000 0.00000
  890 0.00000 0.00000 0.00000
  891 0.00000 0.00000 0.00000
  892 0.00000 0.00000 0.00000
  893 0.00000 0.00000 0.00000
  894 0.00000 0.00000 0.00000
  895 0.00000 0.00000 0.00000
  896 0.00000 0.00000 0.00000
  897 0.00000 0.00000 0.00000
  898 0.00000 0.00000 0.00000
  899 0.00000 0.00000 0.00000
  900 0.00000 0.00000 0.00000
  901 0.00000 0.00000 0.00000
  902 0.00000 0.00000 0.00000
  903 0.00000 0.00000 0.00000
  904 0.00000 0.00000 0.00000
  905 0.00000 0.00000 0.00000
  906 0.00000 0.00000 0.00000
  907 0.00000 0.00000 0.00000
  908 0.00000 0.00000 0.00000
  909 0.00000 0.00000 0.00000
  910 0.00000 0.00000 0.00000
  911 0.00000 0.00000 0.00000
  912 0.00000 0.00000 0.00000
  913 0.00000 0.00000 0.00000
  914 0.00000 0.00000 0.00000
  915 0.00000 0.00000 0.00000
  916 0.00000 0.00000 0.00000
  917 0.00000 0.00000 0.00000
  918 0.00000 0.00000 0.00000
  919 0.00000 0.00000 0.00000
  920 0.00000 0.00000 0.00000
  921 0.00000 0.00000 0.00000
  922 0.00000 0.00000 0.00000
  923 0.00000 0.00000 0.00000
  924 0.00000 0.00000 0.00000
  925 0.00000 0.00000 0.00000
  926 0.00000 0.00000 0.00000
  927 0.00000 0.00000 0.00000
  928 0.00000 0.00000 0.00000
  929 0.00000 0.00000 0.00000
  930 0.00000 0.00000 0.00000
  931 0.00000 0.00000 0.00000
  932 0.00000 0.00000 0.00000
  933 0.00000 0.00000 0.00000
  934 0.00000 0.00000 0.00000
  935 0.00000 0.00000 0.00000
  936 0.00000 0.00000 0.00000
  937 0.00000 0.00000 0.00000
  938 0.00000 0.00000 0.00000
  939 0.00000 0.00000 0.00000
  940 0.00000 0.00000 0.00000
  941 0.00000 0.00000 0.00000
  942 0.00000 0.00000 0.00000
  943 0.00000 0.00000 0.00000
  944 0.00000 0.00000 0.00000
  945 0.00000 0.00000 0.00000
  946 0.00000 0.00000 0.00000
  947 0.00000 0.00000 0.00000
  948 0.00000 0.00000 0.00000
  949 0.00000 0.00000 0.00000
  950 0.00000 0.00000 0.00000
  951 0.00000 0.00000 0.00000
  952 0.00000 0.00000 0.00000
  953 0.00000 0.00000 0.00000
  954 0.00000 0.00000 0.00000
  955 0.00000 0.00000 0.00000
  956 0.00000 0.00000 0.00000
  957 0.00000 0.00000 0.00000
  958 0.00000 0.00000 0.00000
  959 0.00000 0.00000 0.00000
  960 0.00000 0.00000 0.00000
  961 0.00000 0.00000 0.00000
  962 0.00000 0.00000 0.00000
  963 0.00000 0.00000 0.00000
  964 0.00000 0.00000 0.00000
  965 0.00000 0.00000 0.00000
  966 0.00000 0.00000 0.00000
  967 0.00000 0.00000 0.00000
  968 0.00000 0.00000 0.00000
  969 0.00000 0.00000 0.00000
  970 0.00000 0.00000 0.00000
  971 0.00000 0.00000 0.00000
  972 0.00000 0.00000 0.00000
  973 0.00000 0.00000 0.00000
  974 0.00000 0.00000 0.00000
  975 0.00000 0.00000 0.00000
  976 0.00000 0.00000 0.00000
  977 0.00000 0.00000 0.00000
  978 0.00000 0.00000 0.00000
  979 0.00000 0.00000 0.00000
  980 0.00000 0.00000 0.00000
  981 0.00000 0.00000 0.00000
  982 0.00000 0.00000 0.00000
  983 0.00000 0.00000 0.00000
  984 0.00000 0.00000 0.00000
  985 0.00000 0.00000 0.00000
  986 0.00000 0.00000 0.00000
  987 0.00000 0.00000 0.00000
  988 0.00000 0.00000 0.00000
  989 0.00000 0.00000 0.00000
  990 0.00000 0.00000 0.00000
  991 0.00000 0.00000 0.00000
  992 0.00000 0.00000 0.00000
  993 0.00000 0.00000 0.00000
  994 0.00000 0.00000 0.00000
  995 0.00000 0.00000 0.00000
  996 0.00000 0.00000 0.00000
  997 0.00000 0.00000 0.00000
  998 0.00000 0.00000 0.00000
  999 0.00000 0.00000 0.00000
  1000 0.00000 0.00000 0.00000
  1001 0.00000 0.00000 0.00000
  1002 0.00000 0.00000 0.00000
  1003 0.00000 0.00000 0.00000
  1004 0.00000 0.00000 0.00000
  1005 0.00000 0.00000 0.00000
  1006 0.00000 0.00000 0.00000
  1007 0.00000 0.00000 0.00000
  1008 0.00000 0.00000 0.00000
  1009 0.00000 0.00000 0.00000
  1010 0.00000 0.00000 0.00000
  1011 0.00000 0.00000 0.00000
  1012 0.00000 0.00000 0.00000
  1013 0.00000 0.00000 0.00000
  1014 0.00000 0.00000 0.00000
  1015 0.00000 0.00000 0.00000
  1016 0.00000 0.00000 0.00000
  1017 0.00000 0.00000 0.00000
  1018 0.00000 0.00000 0.00000
  1019 0.00000 0.00000 0.00000
  1020 0.00000 0.00000 0.00000
  1021 0.00000 0.00000 0.00000
  1022 0.00000 0.00000 0.00000
  1023 0.00000 0.00000 0.00000
  1024 0.00000 0.00000 0.00000
  1025 0.00000 0.00000 0.00000
  1026 0.00000 0.00000 0.00000
  1027 0.00000 0.00000 0.00000
  1028 0.00000 0.00000 0.00000
  1029 0.00000 0.00000 0.00000
  1030 0.00000 0.00000 0.00000
  1031 0.00000 0.00000 0.00000
  1032 0.00000 0.00000 0.00000
  1033 0.00000 0.00000 0.00000
  1034 0.00000 0.00000 0.00000
  1035 0.00000 0.00000 0.00000
  1036 0.00000 0.00000 0.00000
  1037 0.00000 0.00000 0.00000
  1038 0.00000 0.00000 0.00000
  1039 0.00000 0.00000 0.00000
  1040 0.00000 0.00000 0.00000
  1041 0.00000 0.00000 0.00000
  1042 0.00000 0.00000 0.00000
  1043 0.00000 0.00000 0.00000
  1044 0.00000 0.00000 0.00000
  1045 0.00000 0.00000 0.00000
  1046 0.00000 0.00000 0.00000
  1047 0.00000 0.00000 0.00000
  1048 0.00000 0.00000 0.00000
  1049 0.00000 0.00000 0.00000
  1050 0.00000 0.00000 0.00000
  1051 0.00000 0.00000 0.00000
  1052 0.00000 0.00000 0.00000
  1053 0.00000 0.00000 0.00000
  1054 0.00000 0.00000 0.00000
  1055 0.00000 0.00000 0.00000
  1056 0.00000 0.00000 0.00000
  1057 0.00000 0.00000 0.00000
  1058 0.00000 0.00000 0.00000
  1059 0.00000 0.00000 0.00000
  1060 0.00000 0.00000 0.00000
  1061 0.00000 0.00000 0.00000
  1062 0.00000 0.00000 0.00000
  1063 0.00000 0.00000 0.00000
  1064 0.00000 0.00000 0.00000
  1065 0.00000 0.00000 0.00000
  1066 0.00000 0.00000 0.00000
  1067 0.00000 0.00000 0.00000
  1068 0.00000 0.00000 0.00000
  1069 0.00000 0.00000 0.00000
  1070 0.00000 0.00000 0.00000
  1071 0.00000 0.00000 0.00000
  1072 0.00000 0.00000 0.00000
  1073 0.00000 0.00000 0.00000
  1074 0.00000 0.00000 0.00000
  1075 0.00000 0.00000 0.00000
  1076 0.00000 0.00000 0.00000
  1077 0.00000 0.00000 0.00000
  1078 0.00000 0.00000 0.00000
  1079 0.00000 0.00000 0.00000
  1080 0.00000 0.00000 0.00000
  1081 0.00000 0.00000 0.00000
  1082 0.00000 0.00000 0.00000
  1083 0.00000 0.00000 0.00000
  1084 0.00000 0.00000 0.00000
  1085 0.00000 0.00000 0.00000
  1086 0.00000 0.00000 0.00000
  1087 0.00000 0.00000 0.00000
  1088 0.00000 0.00000 0.00000
  1089 0.00000 0.00000 0.00000
  1090 0.00000 0.00000 0.00000
  1091 0.00000 0.00000 0.00000
  1092 0.00000 0.00000 0.00000
  1093 0.00000 0.00000 0.00000
  1094 0.00000 0.00000 0.00000
  1095 0.00000 0.00000 0.00000
  1096 0.00000 0.00000 0.00000
  1097 0.00000 0.00000 0.00000
  1098 0.00000 0.00000 0.00000
  1099 0.00000 0.00000 0.00000
  1100 0.00000 0.00000 0.00000
  1101 0.00000 0.00000 0.00000
  1102 0.00000 0.00000 0.00000
  1103 0.00000 0.00000 0.00000
  1104 0.00000 0.00000 0.00000
  1105 0.00000 0.00000 0.00000
  1106 0.00000 0.00000 0.00000
  1107 0.00000 0.00000 0.00000
  1108 0.00000 0.00000 0.00000
  1109 0.00000 0.00000 0.00000
  1110 0.00000 0.00000 0.00000
  1111 0.00000 0.00000 0.00000
  1112 0.00000 0.00000 0.00000
  1113 0.00000 0.00000 0.00000
  1114 0.00000 0.00000 0.00000
  1115 0.00000 0.00000 0.00000
  1116 0.00000 0.00000 0.00000
  1117 0.00000 0.00000 0.00000
  1118 0.00000 0.00000 0.00000
  1119 0.00000 0.00000 0.00000
  1120 0.00000 0.00000 0.00000
  1121 0.00000 0.00000 0.00000
  1122 0.00000 0.00000 0.00000
  1123 0.00000 0.00000 0.00000
  1124 0.00000 0.00000 0.00000
  1125 0.00000 0.00000 0.00000
  1126 0.00000 0.00000 0.00000
  1127 0.00000 0.00000 0.00000
  1128 0.00000 0.00000 0.00000
  1129 0.00000 0.00000 0.00000
  1130 0.00000 0.00000 0.00000
  1131 0.00000 0.00000 0.00000
  1132 0.00000 0.00000 0.00000
  1133 0.00000 0.00000 0.00000
  1134 0.00000 0.00000 0.00000
  1135 0.00000 0.00000 0.00000
  1136 0.00000 0.00000 0.00000
  1137 0.00000 0.00000 0.00000
  1138 0.00000 0.00000 0.00000
  1139 0.00000 0.00000 0.00000
  1140 0.00000 0.00000 0.00000
  1141 0.00000 0.00000 0.00000
  1142 0.00000 0.00000 0.00000
  1143 0.00000 0.00000 0.00000
  1144 0.00000 0.00000 0.00000
  1145 0.00000 0.00000 0.00000
  1146 0.00000 0.00000 0.00000
  1147 0.00000 0.00000 0.00000
  1148 0.00000 0.00000 0.00000
  1149 0.00000 0.00000 0.00000
  1150 0.00000 0.00000 0.00000
  1151 0.00000 0.00000 0.00000
  1152 0.00000 0.00000 0.00000
  1153 0.00000 0.00000 0.00000
  1154 0.00000 0.00000 0.00000
  1155 0.00000 0.00000 0.00000
  1156 0.00000 0.00000 0.00000
  1157 0.00000 0.00000 0.00000
  1158 0.00000 0.00000 0.00000
  1159 0.00000 0.00000 0.00000
  1160 0.00000 0.00000 0.00000
  1161 0.00000 0.00000 0.00000
  1162 0.00000 0.00000 0.00000
  1163 0.00000 0.00000 0.00000
  1164 0.00000 0.00000 0.00000
  1165 0.00000 0.00000 0.00000
  1166 0.00000 0.00000 0.00000
  1167 0.00000 0.00000 0.00000
  1168 0.00000 0.00000 0.00000
  1169 0.00000 0.00000 0.00000
  1170 0.00000 0.00000 0.00000
  1171 0.00000 0.00000 0.00000
  1172 0.00000 0.00000 0.00000
  1173 0.00000 0.00000 0.00000
  1174 0.00000 0.00000 0.00000
  1175 0.00000 0.00000 0.00000
  1176 0.00000 0.00000 0.00000
  1177 0.00000 0.00000 0.00000
  1178 0.00000 0.00000 0.00000
  1179 0.00000 0.00000 0.00000
  1180 0.00000 0.00000 0.00000
  1181 0.00000 0.00000 0.00000
  1182 0.00000 0.00000 0.00000
  1183 0.00000 0.00000 0.00000
  1184 0.00000 0.00000 0.00000
  1185 0.00000 0.00000 0.00000
  1186 0.00000 0.00000 0.00000
  1187 0.00000 0.00000 0.00000
  1188 0.00000 0.00000 0.00000
  1189 0.00000 0.00000 0.00000
  1190 0.00000 0.00000 0.00000
  1191 0.00000 0.00000 0.00000
  1192 0.00000 0.00000 0.00000
  1193 0.00000 0.00000 0.00000
  1194 0.00000 0.00000 0.00000
  1195 0.00000 0.00000 0.00000
  1196 0.00000 0.00000 0.00000
  1197 0.00000 0.00000 0.00000
  1198 0.00000 0.00000 0.00000
  1199 0.00000 0.00000 0.00000
  1200 0.00000 0.00000 0.00000
  1201 0.00000 0.00000 0.00000
  1202 0.00000 0.00000 0.00000
  1203 0.00000 0.00000 0.00000
  1204 0.00000 0.00000 0.00000
  1205 0.00000 0.00000 0.00000
  1206 0.00000 0.00000 0.00000
  1207 0.00000 0.00000 0.00000
  1208 0.00000 0.00000 0.00000
  1209 0.00000 0.00000 0.00000
  1210 0.00000 0.00000 0.00000
  1211 0.00000 0.00000 0.00000
  1212 0.00000 0.00000 0.00000
  1213 0.00000 0.00000 0.00000
  1214 0.00000 0.00000 0.00000
  1215 0.00000 0.00000 0.00000
  1216 0.00000 0.00000 0.00000
  1217 0.00000 0.00000 0.00000
  1218 0.00000 0.00000 0.00000
  1219 0.00000 0.00000 0.00000
  1220 0.00000 0.00000 0.00000
  1221 0.00000 0.00000 0.00000
  1222 0.00000 0.00000 0.00000
  1223 0.00000 0.00000 0.00000
  1224 0.00000 0.00000 0.00000
  1225 0.00000 0.00000 0.00000
  1226 0.00000 0.00000 0.00000
  1227 0.00000 0.00000 0.00000
  1228 0.00000 0.00000 0.00000
  1229 0.00000 0.00000 0.00000
  1230 0.00000 0.00000 0.00000
  1231 0.00000 0.00000 0.00000
  1232 0.00000 0.00000 0.00000
  1233 0.00000 0.00000 0.00000
  1234 0.00000 0.00000 0.00000
  1235 0.00000 0.00000 0.00000
  1236 0.00000 0.00000 0.00000
  1237 0.00000 0.00000 0.00000
  1238 0.00000 0.00000 0.00000
  1239 0.00000 0.00000 0.00000
  1240 0.00000 0.00000 0.00000
  1241 0.00000 0.00000 0.00000
  1242 0.00000 0.00000 0.00000
  1243 0.00000 0.00000 0.00000
  1244 0.00000 0.00000 0.00000
  1245 0.00000 0.00000 0.00000
  1246 0.00000 0.00000 0.00000
  1247 0.00000 0.00000 0.00000
  1248 0.00000 0.00000 0.00000
  1249 0.00000 0.00000 0.00000
  1250 0.00000 0.00000 0.00000
  1251 0.00000 0.00000 0.00000
  1252 0.00000 0.00000 0.00000
  1253 0.00000 0.00000 0.00000
  1254 0.00000 0.00000 0.00000
  1255 0.00000 0.00000 0.00000
  1256 0.00000 0.00000 0.00000
  1257 0.00000 0.00000 0.00000
  1258 0.00000 0.00000 0.00000
  1259 0.00000 0.00000 0.00000
  1260 0.00000 0.00000 0.00000
  1261 0.00000 0.00000 0.00000
  1262 0.00000 0.00000 0.00000
  1263 0.00000 0.00000 0.00000
  1264 0.00000 0.00000 0.00000
  1265 0.00000 0.00000 0.00000
  1266 0.00000 0.00000 0.00000
  1267 0.00000 0.00000 0.00000
  1268 0.00000 0.00000 0.00000
  1269 0.00000 0.00000 0.00000
  1270 0.00000 0.00000 0.00000
  1271 0.00000 0.00000 0.00000
  1272 0.00000 0.00000 0.00000
  1273 0.00000 0.00000 0.00000
  1274 0.00000 0.00000 0.00000
  1275 0.00000 0.00000 0.00000
  1276 0.00000 0.00000 0.00000
  1277 0.00000 0.00000 0.00000
  1278 0.00000 0.00000 0.00000
  1279 0.00000 0.00000 0.00000
  1280 0.00000 0.00000 0.00000
  1281 0.00000 0.00000 0.00000
  1282 0.00000 0.00000 0.00000
  1283 0.00000 0.00000 0.00000
</Section>

newXOutput 2

<Section columns = "stress_xx | stress_yy | stress_xy">
  1 22.4496 0.00557144 0.0491703
  2 22.4529 0.00571187 -0.0493848
  3 11.3350 -0.00762508 -0.0178520
  4 -0.147778 -0.147334 -0.212195
  5 42.3304 15.4123 12.9288
  6 41.9092 16.0348 -13.0774
  7 -0.171272 -0.141131 0.224273
  8 11.3342 -0.00767722 0.0177859
  9 22.6294 -0.0327888 0.0166631
  10 22.5699 -0.0539378 -0.00730119
  11 22.4978 -0.0315399 0.0607119
  12 22.4276 -0.0475194 0.0240802
  13 22.2785 -0.0384352 0.0960294
  14 22.1456 -0.0398730 0.0744403
  15 21.8483 -0.0357503 0.135648
  16 21.4412 -0.0186975 0.198007
  17 21.0744 -0.0233846 0.216663
  18 20.5454 -0.0388820 0.257765
  19 19.8301 0.00236067 0.375470
  20 19.1686 -0.0287888 0.352250
  21 18.4384 -0.0411000 0.490111
  22 17.3807 0.0298077 0.421691
  23 16.6322 0.0402258 0.494574
  24 15.6575 0.0707139 0.383360
  25 14.9910 0.0672081 0.384770
  26 14.0235 0.100709 0.194980
  27 13.8235 0.159712 0.207938
  28 13.7047 0.127118 -0.0609907
  29 13.8715 0.0670724 -0.136047
  30 14.1765 0.0698493 -0.166144
  31 14.9001 0.0917257 -0.333402
  32 15.6025 0.0722383 -0.425345
  33 16.6482 0.0109317 -0.506910
  34 17.4876 -0.0127753 -0.467265
  35 18.3948 -0.0332847 -0.464222
  36 19.2227 -0.0221694 -0.330829
  37 19.9463 -0.0215251 -0.286597
  38 20.5521 -0.0374338 -0.243985
  39 21.1027 -0.0246287 -0.174866
  40 21.4563 -0.0270172 -0.187723
  41 21.7974 -0.0370191 -0.138273
  42 22.1287 -0.0453374 -0.0660423
  43 22.3013 -0.0352330 -0.0739446
  44 22.4014 -0.0177683 -0.0484338
  45 22.3536 -0.00373150 -0.0438969
  46 22.5987 -0.0556461 0.00341623
  47 22.6394 -0.0346783 -0.0172273
  48 21.7986 0.00151228 -0.0302102
  49 21.2457 -0.0661147 -0.0510270
  50 20.5804 -0.103111 -0.0382265
  51 19.7757 -0.165491 -0.0510793
  52 19.0214 -0.185404 -0.0656346
  53 18.2223 -0.245317 -0.0614697
  54 17.5202 -0.280608 -0.0374702
  55 16.9051 -0.324488 -0.0182648
  56 16.1976 -0.271981 -0.0187968
  57 15.3828 -0.259547 -0.0243202
  58 14.5959 -0.209753 -0.0118205
  59 13.8486 -0.138698 -0.00668489
  60 13.1359 -0.102372 -0.00263037
  61 12.5067 -0.0570906 0.00358453
  62 11.8576 -0.0188008 -0.0208955
  63 11.3459 0.0151503 0.0208386
  64 11.1218 0.0493692 0.0121139
  65 11.2919 -0.00154786 0.0320253
  66 11.1352 -0.00935207 0.0377221
  67 10.9977 -0.0127168 0.0473680
  68 10.8065 -0.00393308 0.0637732
  69 10.5644 -0.00239440 0.0817853
  70 10.3987 -0.0189291 0.163774
  71 9.87137 0.0148429 0.180066
  72 9.50867 -0.00262566 0.209601
  73 8.96798 -0.0117391 0.236865
  74 8.34073 -0.0187201 0.289518
  75 7.55827 -0.00538713 0.351526
  76 6.60335 0.00361249 0.385207
  77 5.79853 -0.0114833 0.549208
  78 4.17238 0.0536809 0.513005
  79 3.08809 0.0466471 0.542862
  80 1.81016 -0.00572661 0.594894
  81 0.769814 0.107203 0.608526
  82 -0.404370 0.154866 0.345538
  83 -1.23210 0.155964 0.0987947
  84 -1.13641 0.144685 -0.0933235
  85 -1.02314 0.117662 -0.318360
  86 -0.595009 -0.0468622 -0.293114
  87 -0.0791087 -0.571360 -0.320906
  88 0.0459924 -1.06644 -0.412619
  89 0.143210 -1.74271 -0.260439
  90 0.327036 -1.89150 -0.0548852
  91 0.704418 -0.833536 0.836097
  92 2.17121 2.64921 3.10327
  93 13.6377 11.3076 11.4114
  94 50.9185 7.46137 8.69391
  95 45.5336 1.08143 2.88840
  96 42.0055 0.436645 0.884019
  97 40.6960 0.364431 0.0728031
  98 41.3656 0.493526 -0.757790
  99 45.3820 0.993615 -2.28187
  100 54.4242 3.61166 -7.62255
  101 7.98583 11.3674 -9.43804
  102 1.63167 1.51098 -2.51622
  103 0.764786 -0.755953 -0.844050
  104 0.303475 -1.92040 -0.0799387
  105 0.0743370 -1.34957 0.304567
  106 0.102528 -1.33863 0.362011
  107 0.00105485 -0.498682 0.354701
  108 -0.619879 -0.0344272 0.280231
  109 -1.05639 0.0882231 0.280169
  110 -1.19491 0.176713 0.100470
  111 -1.27428 0.154534 -0.0881054
  112 -0.490587 0.158780 -0.321163
  113 0.691612 0.108229 -0.578715
  114 1.72994 0.00526147 -0.584996
  115 3.00610 0.0505078 -0.544440
  116 4.09787 0.0552277 -0.517550
  117 5.74066 -0.0117026 -0.554606
  118 6.55363 0.00414639 -0.389554
  119 7.51508 -0.00515650 -0.356542
  120 8.31828 -0.0205162 -0.292253
  121 8.93893 -0.0113228 -0.237813
  122 9.48707 -0.00191916 -0.212185
  123 9.85408 0.0146188 -0.182494
  124 10.3869 -0.0190918 -0.165843
  125 10.5554 -0.00250183 -0.0830765
  126 10.8003 -0.00403188 -0.0648442
  127 10.9936 -0.0128774 -0.0482256
  128 11.1326 -0.00948915 -0.0383273
  129 11.2902 -0.00167264 -0.0324183
  130 11.1207 0.0492759 -0.0123027
  131 11.3449 0.0151103 -0.0209529
  132 11.8565 -0.0189457 0.0208178
  133 12.5054 -0.0574521 -0.00373652
  134 13.1348 -0.103190 0.00244901
  135 13.8479 -0.139842 0.00650644
  136 14.5958 -0.211399 0.0116487
  137 15.3833 -0.261605 0.0241877
  138 16.1988 -0.274337 0.0186806
  139 16.9069 -0.327067 0.0182255
  140 17.5223 -0.283160 0.0375592
  141 18.2250 -0.247640 0.0617180
  142 19.0233 -0.187046 0.0665473
  143 19.7765 -0.166952 0.0553719
  144 20.5832 -0.0958969 0.0391169
  145 21.2607 -0.0637444 0.0499482
  146 21.8004 -0.00181211 0.0298019
  147 19.1987 -1.80099 -0.355232
  148 19.1848 -1.77717 0.362316
  149 19.9531 2.88537 -1.09991
  150 21.4642 1.27547 2.38987
  151 16.2306 -1.54374 -3.42208
  152 16.3562 -1.54384 3.30411
  153 15.5511 -0.682452 0.343425
  154 15.5536 -0.692719 -0.344152
  155 22.9007 0.812421 -1.94683
  156 19.1466 -0.673043 0.576520
  157 19.1392 -0.655616 -0.568996
  158 24.7470 5.61199 0.365662
  159 19.4832 -0.0299846 -2.27945
  160 14.2419 -1.15399 -1.50847
  161 14.2397 -1.14353 1.49282
  162 19.5511 -0.435054 2.08393
  163 18.3793 1.33246 1.32970
  164 7.45597 1.25410 -4.07737
  165 8.31339 1.18409 4.30384
  166 24.3411 0.233392 0.560569
  167 19.6629 -0.741900 -1.50029
  168 26.2017 5.77197 -0.404149
  169 17.6259 -0.491044 0.0801058
  170 17.6217 -0.488914 -0.0781802
  171 20.0232 -0.213002 -0.257872
  172 20.0961 -0.187656 0.224689
  173 13.4940 -0.213265 -0.223460
  174 13.4946 -0.210859 0.221807
  175 21.7231 -0.636620 4.33777
  176 17.7404 0.722050 -1.42899
  177 11.4881 -0.877629 -2.48752
  178 11.5232 -0.870925 2.46839
  179 12.8459 -0.450355 -0.791631
  180 12.8459 -0.444780 0.784250
  181 19.7710 -0.504789 1.27391
  182 17.8967 -1.23812 0.121046
  183 17.8277 -1.22881 -0.0885889
  184 20.5492 -1.97365 -0.0834000
  185 20.6486 -1.87986 -0.177267
  186 28.5404 6.69717 -0.674417
  187 20.3634 3.30134 1.03309
  188 20.4930 1.26434 -2.35796
  189 21.6827 -0.265401 -5.09303
  190 20.4460 -1.14247 -1.74832
  191 20.6150 -0.810062 2.01829
  192 17.0979 -1.94793 1.59032
  193 17.1075 -1.93513 -1.58412
  194 18.0972 0.222075 1.72854
  195 8.06893 -0.179851 -3.02502
  196 8.09119 -0.199243 3.00389
  197 32.4424 4.91186 0.680404
  198 19.3305 -1.14357 1.01188
  199 20.1061 -0.349565 -0.849774
  200 15.6397 -0.394886 -0.142039
  201 15.6392 -0.392382 0.141275
  202 19.1263 -0.244935 -1.59617
  203 21.8722 3.22986 -1.93517
  204 18.0312 1.61170 -0.267860
  205 11.4915 -0.434578 1.13811
  206 11.4729 -0.436345 -1.14841
  207 20.4818 -0.202261 0.486154
  208 19.7089 0.372800 2.33745
  209 15.9177 -1.18899 -0.653339
  210 15.7960 -1.12647 0.677509
  211 23.4284 3.47806 1.86576
  212 27.9802 3.61867 0.155760
  213 1.70337 1.39074 -1.02298
  214 1.56993 1.28575 0.861898
  215 11.2653 3.17095 7.34969
  216 19.1297 -1.26638 -0.822852
  217 20.5706 -0.194611 -0.440259
  218 17.8676 0.146937 -1.59016
  219 12.2209 -0.138447 -0.347764
  220 12.2239 -0.136809 0.343884
  221 17.0892 -0.812317 -0.0457524
  222 17.0967 -0.816542 0.0355637
  223 19.3184 -0.255528 1.36740
  224 22.6035 -1.31606 0.197579
  225 22.0886 4.58079 -0.574065
  226 17.3277 -1.69131 -0.663605
  227 22.1567 -0.377719 1.66837
  228 18.7684 -0.292497 0.117771
  229 18.7694 -0.289613 -0.117563
  230 17.1875 -1.68287 0.699903
  231 19.8126 -1.24564 1.44677
  232 28.4755 3.40395 -1.30097
  233 5.99213 3.58060 -5.19705
  234 16.3265 0.553633 0.335668
  235 19.7295 1.74586 1.95978
  236 21.2331 -0.139188 -2.17765
  237 19.7609 -0.702031 -1.97369
  238 10.0966 -0.345786 -1.44172
  239 10.1349 -0.340228 1.43543
  240 19.8118 -0.226960 -1.07693
  241 18.9021 -0.459808 0.329082
  242 18.8933 -0.458623 -0.320435
  243 3.67955 0.375187 -1.87210
  244 3.74902 0.329444 1.86688
  245 21.2625 -1.85044 -1.37875
  246 21.0829 -0.0482032 0.0772766
  247 21.1109 -0.0493855 -0.0808657
  248 19.2264 1.59323 -1.78515
  249 16.6960 0.303094 1.02763
  250 36.7418 5.89589 3.91779
  251 36.4914 4.15901 -2.48531
  252 25.7458 5.64182 -0.116474
  253 16.0382 -0.756451 4.60271
  254 14.6685 -0.472259 -4.82639
  255 16.7077 -0.341666 -0.0296140
  256 16.7056 -0.338965 0.0291429
  257 13.6233 -0.390008 0.462833
  258 13.6246 -0.395792 -0.468126
  259 20.4110 -0.200958 0.689262
  260 19.7377 -1.39630 -1.23118
  261 12.2418 -0.0321563 -0.0779173
  262 12.2432 -0.0316655 0.0772399
  263 19.4859 -0.773658 -0.967334
  264 7.84460 -0.265511 -1.98881
  265 7.88348 -0.266479 1.97221
  266 19.7008 -0.842683 1.61340
  267 14.9145 -1.58398 2.74432
  268 14.9587 -1.61263 -2.73633
  269 16.5968 0.615795 -0.478219
  270 14.3154 -0.235501 -0.149172
  271 14.3157 -0.233640 0.148354
  272 18.2516 -0.0509141 1.28657
  273 22.0055 4.07330 1.35158
  274 11.3287 -0.154360 0.606040
  275 11.3198 -0.155783 -0.612355
  276 20.3174 -1.68296 0.955615
  277 18.8084 -2.09804 -1.72740
  278 21.1387 -0.0774670 0.233804
  279 14.2313 -0.878045 -1.01428
  280 14.2021 -0.867537 1.00923
  281 26.5368 2.39696 6.47192
  282 11.9226 -0.955612 3.31082
  283 19.3794 2.73573 -0.117567
  284 25.0384 2.70338 -1.40544
  285 18.6714 -1.44668 0.437805
  286 18.8134 -2.15703 1.53519
  287 11.9651 -0.938598 -3.35328
  288 2.12878 2.61530 2.29773
  289 19.4889 -0.777177 0.984012
  290 25.8317 3.30438 1.19771
  291 21.3328 -0.0687033 -0.202621
  292 18.8998 0.655039 -2.05395
  293 18.8204 -1.05966 0.607672
  294 18.4099 -1.55997 -0.141877
  295 18.8160 0.859575 1.97371
  296 20.2129 -1.68517 -0.875698
  297 28.8225 5.68459 -0.403262
  298 18.8151 -1.01763 -0.583251
  299 15.8319 4.34175 -9.11251
  300 19.2980 -2.04040 -0.150060
  301 19.1546 -2.09533 0.375740
  302 13.8164 -1.27280 -2.16318
  303 12.1369 -0.0564644 -0.172577
  304 12.1391 -0.0554945 0.170750
  305 13.8198 -1.27320 2.14953
  306 20.3364 -0.0281314 -2.38728
  307 22.1533 -0.911663 -1.20602
  308 16.5912 -1.02013 -0.288418
  309 16.5771 -1.02228 0.295010
  310 20.2132 -1.73843 2.87008
  311 19.9886 -0.149386 0.816640
  312 24.6734 0.0336905 0.742198
  313 16.2072 -0.585507 -0.145782
  314 16.2075 -0.582937 0.144333
  315 14.6212 -0.401154 -0.286906
  316 14.6201 -0.396959 0.286127
  317 16.5020 0.209142 -0.995039
  318 21.7310 1.59601 -2.33108
  319 34.2739 9.15100 -4.13979
  320 19.9074 -0.144932 -0.0906110
  321 19.8934 -0.142700 0.0923947
  322 10.3814 0.0134388 4.13130
  323 14.5731 -0.690423 -0.646061
  324 14.5410 -0.687229 0.647387
  325 10.3807 -0.00891637 -4.11575
  326 20.5919 2.44275 -1.93484
  327 23.3349 1.14186 1.87923
  328 20.2309 -1.44468 -3.21261
  329 18.3768 -0.701527 0.313952
  330 18.3565 -0.695492 -0.305019
  331 19.7230 -0.384593 -0.495714
  332 18.2680 -0.0382911 -1.20455
  333 20.7421 0.100313 2.35682
  334 20.8481 -0.127923 -0.480879
  335 12.0954 -0.764906 1.65770
  336 12.0825 -0.769724 -1.67283
  337 19.1648 -0.0445729 2.15556
  338 11.3668 -0.106121 -0.354461
  339 11.3738 -0.105077 0.350434
  340 19.8559 -0.435304 0.733522
  341 23.7533 4.89532 -1.08263
  342 19.7091 -0.388382 0.512241
  343 20.8373 2.63552 1.94834
  344 19.9887 -0.363401 2.27614
  345 15.6116 -0.300320 0.0451239
  346 15.6124 -0.302562 -0.0456740
  347 18.7930 -0.0699386 -1.90911
  348 25.1816 5.32838 0.808815
  349 20.7010 3.83734 0.0408802
  350 12.7284 1.49670 -6.20854
  351 1.12821 0.567368 -0.756754
  352 1.25770 0.612355 0.823400
  353 -0.111437 0.119047 0.425776
  354 -0.0246937 0.0503979 -0.440422
  355 37.8594 2.62351 0.925856
  356 17.1817 -1.41423 -0.331525
  357 19.8764 -0.419115 -0.716627
  358 17.8060 -0.299434 0.0546696
  359 17.8039 -0.296533 -0.0547112
  360 18.9003 2.08985 -0.964798
  361 16.1938 -1.67186 1.30277
  362 1.32060 1.93604 -1.36454
  363 16.2139 -1.67247 -1.33100
  364 19.1671 2.18388 1.02680
  365 19.7739 -0.512643 -1.21869
  366 21.0547 -1.16169 -1.54720
  367 22.2387 4.76518 0.398140
  368 21.1174 -1.30342 1.32715
  369 8.23153 -0.219715 1.33647
  370 8.17583 -0.215586 -1.34701
  371 4.54925 0.127904 -1.81939
  372 4.60692 0.107269 1.81047
  373 16.7947 0.0399040 1.01008
  374 33.3231 9.51780 3.34485
  375 20.5205 -0.117033 -0.594190
  376 15.7305 -1.35909 -0.983355
  377 15.7136 -1.35439 0.981684
  378 19.6147 -0.442250 -1.50920
  379 22.6050 -1.09019 0.468527
  380 17.1808 -1.41240 0.345893
  381 25.0163 0.0912950 -1.68682
  382 13.4652 -0.122434 -0.0503940
  383 13.4662 -0.121267 0.0497853
  384 19.2167 -0.107464 -0.947054
  385 9.91260 -0.156890 -0.875677
  386 9.91986 -0.161582 0.863647
  387 23.1622 2.95498 -2.04626
  388 12.3960 0.890479 5.74508
  389 18.0170 -0.948657 0.230296
  390 18.0355 -0.946510 -0.231541
  391 21.1217 3.60677 -1.24777
  392 20.0867 -0.586756 -2.17587
  393 20.3054 -2.06409 1.45534
  394 16.6461 -0.445742 -0.0408785
  395 16.6434 -0.442992 0.0398048
  396 19.4163 -1.49352 0.888620
  397 21.0762 -0.0864014 0.361279
  398 12.6427 -0.490720 -1.00224
  399 12.6470 -0.490279 0.991953
  400 19.5853 0.656589 -2.30017
  401 18.5901 -0.385443 0.181478
  402 18.5898 -0.386085 -0.178479
  403 19.1263 -0.221351 1.77136
  404 17.6201 1.27050 0.455519
  405 19.9375 -0.831059 1.92391
  406 29.1189 6.15687 0.936450
  407 9.30304 -0.505292 -2.66074
  408 9.33082 -0.505713 2.63771
  409 4.09465 2.25728 -3.05360
  410 21.6845 -0.0446434 0.109397
  411 10.3273 -0.100166 -0.552020
  412 10.3423 -0.0980360 0.546375
  413 19.6362 -0.502114 1.48473
  414 17.7957 -1.94064 0.771425
  415 20.2766 -0.226117 0.353549
  416 20.4610 1.04588 2.42023
  417 4.31450 2.40340 3.20281
  418 17.8257 -1.93111 -0.695303
  419 18.4374 -1.72008 0.0220357
  420 5.61835 -0.113800 -1.66296
  421 5.66866 -0.118689 1.64998
  422 14.0753 -1.10453 -3.99634
  423 21.2465 -0.305363 2.13375
  424 14.0115 -1.12408 3.95768
  425 19.5812 -1.09066 -1.30532
  426 17.8993 1.19373 -1.00580
  427 19.5873 -0.833618 1.22926
  428 21.3078 -0.0765101 -0.253209
  429 0.577694 0.571132 0.174623
  430 4.12254 4.62907 4.57119
  431 18.6636 -0.0699835 0.904572
  432 15.3031 0.193393 0.431603
  433 15.6063 0.239933 -0.588214
  434 13.3201 -0.240769 -0.325953
  435 13.3203 -0.237478 0.323122
  436 19.3108 -1.49321 -0.828519
  437 19.4248 -0.374654 -1.99359
  438 15.3995 0.269467 -0.159931
  439 29.1547 6.91926 1.12469
  440 3.75515 1.31243 -2.27588
  441 4.16322 1.20569 2.44689
  442 18.0007 -0.636828 0.190429
  443 17.9932 -0.634575 -0.184991
  444 24.0481 5.40588 -0.0932642
  445 15.4268 5.86005 9.30995
  446 23.4142 -0.351674 -0.656934
  447 12.9807 -0.706578 -1.36128
  448 12.9858 -0.701144 1.34761
  449 12.9864 -0.313275 0.521857
  450 12.9851 -0.315876 -0.527786
  451 17.8051 0.381886 -1.63214
  452 21.8148 -0.0151510 -0.0749214
  453 17.2385 0.773504 0.909261
  454 22.2258 2.75638 2.15303
  455 18.4609 -1.37397 -0.355767
  456 20.2724 -0.213318 -0.342560
  457 21.4054 -0.0675500 0.233535
  458 21.7563 -0.0152296 0.0430598
  459 21.7788 -0.0191989 -0.0332201
  460 11.2354 -0.0259997 0.128167
  461 11.2305 -0.0263563 -0.129874
  462 20.2700 -1.27593 1.57361
  463 17.9870 0.697790 1.57935
  464 18.9265 0.0740504 -2.09580
  465 19.9725 -0.402802 0.923360
  466 29.6623 4.49733 -5.26548
  467 19.9850 -1.09887 -1.71783
  468 0.0858088 0.361206 0.0865778
  469 0.0885947 0.362850 0.0119551
  470 15.6129 -0.910183 0.521229
  471 15.5562 -0.899135 -0.516653
  472 25.3365 0.315463 2.71822
  473 6.92735 6.01176 -6.93403
  474 19.6572 -0.0532780 0.716495
  475 22.6393 -1.33374 -1.44650
  476 11.5632 -0.690473 1.92948
  477 24.0175 4.26678 -1.55001
  478 19.6931 -1.05600 1.45642
  479 16.3564 -0.799288 -0.210630
  480 16.3710 -0.785271 0.209406
  481 16.7897 0.0834593 -0.893516
  482 11.5254 -0.688306 -1.94397
  483 17.2711 -0.000402029 0.902726
  484 16.8317 -1.91998 -2.41097
  485 16.7870 -1.92292 2.41653
  486 20.3822 -0.123920 0.653557
  487 18.1896 1.70843 0.188536
  488 18.9945 0.263398 6.29064
  489 27.7621 5.73968 -0.0365219
  490 19.0856 -0.298838 0.186769
  491 19.0876 -0.297567 -0.191207
  492 14.3112 -0.270985 -0.194171
  493 14.3112 -0.268445 0.193080
  494 7.47532 0.379650 3.43531
  495 19.7701 -0.942347 -1.66838
  496 17.8668 -0.377458 0.0698730
  497 17.8650 -0.375715 -0.0692795
  498 15.4799 -1.65409 1.97532
  499 7.62846 0.496640 -3.52647
  500 19.8383 -1.60830 -0.940932
  501 0.298088 -0.0185820 0.233682
  502 16.9448 0.856819 0.0644993
  503 19.1698 -0.195785 -0.0639460
  504 19.1685 -0.199110 0.0630054
  505 15.4939 -1.65207 -1.99223
  506 22.6693 -1.19498 1.93657
  507 22.2637 0.812880 2.22440
  508 20.6498 -0.113657 -0.177449
  509 19.7771 -1.63190 0.950217
  510 11.8002 -0.0174357 -0.0204845
  511 11.8014 -0.0173084 0.0202215
  512 19.6934 -0.747562 -1.75529
  513 18.8920 1.39693 1.73965
  514 21.9796 0.545775 -2.19303
  515 11.7307 -0.0247499 -0.0714181
  516 11.7326 -0.0244403 0.0707696
  517 39.4829 5.69777 -5.14430
  518 19.7032 2.35867 1.54304
  519 20.6707 -0.101560 0.159083
  520 18.4812 -1.75722 0.0216875
  521 15.3003 -0.524810 0.274527
  522 15.3012 -0.529327 -0.274008
  523 21.6835 -1.30868 0.866134
  524 20.7163 -0.402762 -2.22012
  525 23.1124 4.60213 1.25080
  526 19.0985 0.326112 2.16975
  527 19.4676 -0.351201 0.333731
  528 18.9509 -2.00814 -2.28022
  529 19.5111 -0.474353 1.70841
  530 39.1343 1.78220 -0.726071
  531 21.5367 -1.61433 -0.310658
  532 20.5209 -0.107791 -0.0477153
  533 20.5250 -0.116747 0.0439935
  534 39.5320 2.65839 2.56292
  535 18.5814 -0.0101401 1.84540
  536 26.5930 4.36770 -0.854861
  537 19.7921 -0.520677 -0.909595
  538 8.40507 -0.0870048 -0.600513
  539 8.43529 -0.0828917 0.593632
  540 13.1634 -1.24064 -2.76948
  541 13.1712 -1.21958 2.74685
  542 19.4578 -0.335014 -0.329689
  543 21.1128 0.780950 -2.40011
  544 18.5189 -1.26200 0.425654
  545 19.7974 2.27838 -1.60649
  546 20.1432 -0.218544 0.880472
  547 25.5781 1.18824 0.0872500
  548 17.0734 -0.588793 -0.00265011
  549 17.0670 -0.586014 0.00166553
  550 18.6599 -0.875172 0.475026
  551 27.9221 5.40540 0.0113876
  552 19.5547 0.857048 2.25618
  553 8.25596 2.14252 5.11233
  554 19.1785 -1.15617 4.12727
  555 25.7297 1.04564 -4.49292
  556 20.0022 1.65783 -2.10932
  557 17.9256 -1.53520 -3.56369
  558 19.3876 -2.11672 -0.521304
  559 20.3167 -2.04348 -0.852504
  560 2.53550 3.17851 -3.01954
  561 20.4073 -0.235299 -0.570394
  562 30.9577 6.05768 -1.62348
  563 18.7666 -0.836532 -0.511735
  564 18.9418 -0.602066 0.421009
  565 18.9236 -0.587148 -0.407112
  566 12.5836 -0.0854170 -0.154160
  567 12.5852 -0.0842912 0.152762
  568 1.57979 0.197813 -0.972066
  569 1.68913 0.206647 0.996261
  570 9.34359 -0.451204 -2.03662
  571 9.42105 -0.453394 2.03142
  572 19.1958 -1.03125 -0.873287
  573 19.6282 -2.12502 0.577867
  574 20.1825 -1.90424 0.371384
  575 16.2938 -0.288797 -0.0438616
  576 16.2924 -0.286306 0.0435368
  577 15.5613 -1.62323 -3.05512
  578 17.5614 -1.42701 3.78363
  579 15.1612 -1.52448 3.07593
  580 19.6908 -0.430966 -2.14919
  581 11.9187 -0.218154 0.601411
  582 11.9133 -0.220586 -0.607564
  583 18.6150 1.02020 -1.74376
  584 18.6815 -0.0322434 -0.821356
  585 23.5096 5.18062 -0.582576
  586 15.1021 -0.239168 -0.0497321
  587 15.1019 -0.237289 0.0493988
  588 20.1007 -0.0548860 -0.475080
  589 13.5265 -0.485892 -0.647421
  590 13.5253 -0.483764 0.640564
  591 11.1892 0.550896 4.92491
  592 19.5662 -0.888779 -1.24483
  593 10.6834 -0.548649 3.52605
  594 19.2256 -0.987385 0.886942
  595 20.3373 -0.265255 0.625488
  596 20.1189 -0.155678 -0.160928
  597 13.6479 -0.185476 -0.137208
  598 13.6486 -0.183788 0.136171
  599 22.5264 4.55190 -1.11113
  600 10.6770 -0.525191 -3.54177
  601 19.1645 -0.817477 -0.724300
  602 17.1594 -0.312246 -0.0120296
  603 17.1574 -0.309485 0.0119450
  604 33.0943 4.49293 -0.769384
  605 10.9362 -0.0799417 0.335868
  606 10.9265 -0.0807634 -0.339662
  607 17.5648 0.390079 1.48495
  608 25.9028 2.06235 -0.706797
  609 11.9530 0.116812 -4.89519
  610 5.88096 0.176663 -2.62296
  611 5.93514 0.139234 2.60862
  612 14.9105 -0.901745 0.781712
  613 15.0806 -0.928271 -0.753575
  614 25.9996 5.22107 0.797758
  615 20.0269 -0.162408 0.148632
  616 16.7085 0.451009 -0.892302
  617 21.1673 3.84580 0.985609
  618 21.0790 3.99273 -0.655144
  619 17.3327 -0.971728 -0.0188388
  620 17.4738 -0.948029 -0.0454122
  621 12.5076 2.68895 -7.09731
  622 14.6965 -0.528058 -0.421026
  623 14.6966 -0.521499 0.418873
  624 39.1580 7.99418 5.98893
  625 19.6889 -0.636034 1.88031
  626 10.8441 -0.408831 -1.30505
  627 31.5376 6.75982 4.21289
  628 10.8708 -0.406188 1.29876
  629 19.0406 -0.739894 -4.85962
  630 12.8334 -0.0762976 -0.0571168
  631 12.8347 -0.0756133 0.0567199
  632 16.0303 0.132562 0.777006
  633 7.02392 -0.113088 -1.17649
  634 7.06965 -0.113334 1.16587
  635 17.1000 -1.22837 0.229508
  636 17.9961 -1.45228 0.0662927
  637 21.5188 -0.0359071 -0.208257
  638 11.4278 -0.0238667 0.0919931
  639 11.4245 -0.0242592 -0.0932629
  640 16.0290 -0.367946 -0.0525247
  641 16.0277 -0.365425 0.0517433
  642 18.6992 -2.06251 2.31212
  643 21.3670 2.39643 -2.16867
  644 13.9314 -0.682181 -0.838196
  645 13.9190 -0.670216 0.830979
  646 16.7633 -1.22903 -0.382908
  647 26.7528 5.88382 -0.0241071
  648 20.0556 -1.93028 -0.254939
  649 17.2314 -0.407891 0.0154028
  650 17.2284 -0.405339 -0.0152229
  651 24.0282 2.60617 1.81078
  652 20.0554 -0.272703 -0.957738
  653 17.3832 -0.0277543 -0.736853
  654 7.84280 -0.265696 -2.54911
  655 7.87025 -0.274278 2.52568
  656 16.7323 -1.46698 -0.686663
  657 25.3028 5.67532 0.0288471
  658 19.3915 2.63798 -0.694978
  659 12.5332 -0.129908 -0.290937
  660 12.5351 -0.128027 0.287933
  661 18.2423 -0.503931 -0.174785
  662 18.2459 -0.505035 0.179331
  663 34.8795 4.58331 1.99822
  664 21.9506 -0.0456373 0.0612138
  665 21.0325 -0.0708668 0.349772
  666 20.9328 -0.0743463 -0.403280
  667 19.7881 -1.83376 0.539384
  668 14.1668 -0.178832 -0.0686994
  669 14.1673 -0.177361 0.0682634
  670 20.9743 3.39395 1.50802
  671 27.2456 6.10076 -0.139229
  672 14.5662 -1.11775 -1.18975
  673 14.5594 -1.10583 1.18232
  674 18.5108 -1.91246 -0.196664
  675 19.3855 1.15164 -2.11907
  676 23.4265 0.0481501 1.16254
  677 15.1156 -0.294160 -0.124412
  678 15.1153 -0.291905 0.123626
  679 13.0802 -1.16359 -2.50145
  680 19.5936 -1.88860 -0.350678
  681 16.1626 -1.79650 2.17358
  682 7.59883 2.43763 -4.92386
  683 14.9885 -1.41332 1.67335
  684 18.0473 0.00422535 0.686275
  685 13.0906 -1.14983 2.48239
  686 19.1523 -0.834577 0.733157
  687 14.9968 -1.40806 -1.69115
  688 15.0165 0.181568 0.161938
  689 11.5834 -0.336173 0.919092
  690 11.5728 -0.336857 -0.926994
  691 16.1769 -1.84346 -2.19935
  692 20.1270 -1.31486 -1.52422
  693 18.4129 -0.236898 -0.0430421
  694 18.4156 -0.239902 0.0432140
  695 20.5990 -1.29780 1.52855
  696 18.6639 -1.95248 0.266721
  697 22.7611 2.08828 2.17918
  698 20.4596 -0.371884 2.26808
  699 19.6853 -0.693113 1.41591
  700 18.5746 1.52126 -1.32234
  701 22.6115 3.83163 1.71370
  702 19.4687 -0.263183 -1.33391
  703 19.4932 -0.629396 0.780141
  704 19.9372 3.14609 0.376755
  705 19.7936 -0.323973 1.18085
  706 6.09297 4.11357 5.13961
  707 18.4556 -2.11810 -1.25343
  708 21.3756 0.398453 2.32519
  709 21.6502 -0.661017 -1.74454
  710 21.8087 -0.0156177 0.120681
  711 19.6933 -0.660729 -1.13719
  712 18.4771 -2.13524 1.12157
  713 36.7829 3.25394 -0.549060
  714 10.4620 -0.0520496 0.352439
  715 10.4486 -0.0526613 -0.356437
  716 20.0472 -0.341115 -0.558073
  717 21.9530 -0.0107557 -0.116110
  718 16.6967 -1.49014 0.690798
  719 20.2007 -0.739939 2.07688
  720 31.3885 7.20602 -1.78650
  721 19.1454 -1.38450 0.783860
  722 21.3512 -1.39350 -1.02368
  723 19.5022 -0.611294 -0.768267
  724 21.9751 -0.0235834 -0.0431312
  725 19.6301 0.00316200 2.31111
  726 0.853223 0.585771 0.985579
  727 22.5934 -0.914062 -3.02331
  728 24.4621 1.40595 1.27770
  729 20.2843 -2.06154 0.731629
  730 14.0272 -0.359415 0.348071
  731 14.0284 -0.364802 -0.350401
  732 19.5211 9.03451 -9.77774
  733 20.6120 -1.35046 -1.43050
  734 14.9514 0.0615121 -0.309352
  735 17.7802 0.0905495 1.45718
  736 19.8203 -0.980575 1.69870
  737 18.9997 -1.60096 0.491982
  738 19.9141 -1.80147 -2.48236
  739 18.8728 -1.49340 -0.519299
  740 22.5193 -1.07861 -0.543609
  741 20.7139 -0.144978 0.332003
  742 18.2931 -1.10186 0.324988
  743 33.9723 6.80799 -3.53365
  744 19.6058 -0.504191 0.629020
  745 19.2118 0.311514 -2.23119
  746 16.5979 -0.198277 5.49342
  747 20.6616 1.67382 2.30592
  748 17.7620 -1.41063 0.0327877
  749 13.5075 -1.09364 -1.81447
  750 13.5066 -1.08996 1.79733
  751 18.7137 2.10427 -0.309893
  752 19.1704 -0.218006 2.01026
  753 19.4278 -0.456034 -1.73919
  754 18.3150 -1.12348 -0.332320
  755 17.6829 -1.59901 0.298096
  756 20.0995 3.34620 -0.431102
  757 18.9749 -1.64180 -0.416539
  758 19.0166 -1.19920 0.753284
  759 19.3381 -0.221535 0.129367
  760 19.3521 -0.214503 -0.128911
  761 26.0260 5.79070 0.285225
  762 21.3872 -1.80807 -0.377649
  763 19.7553 -0.589153 1.12844
  764 20.7306 -0.143656 -0.305402
  765 20.7650 0.145978 -2.37844
  766 23.8474 1.22248 -1.58438
  767 11.0265 -0.0159954 -0.161343
  768 11.0333 -0.0158081 0.159332
  769 0.141919 -0.419159 -0.303579
  770 20.1524 -0.0170304 0.441350
  771 18.2456 -0.0380395 -1.62193
  772 18.9385 -0.176167 1.44935
  773 17.6659 2.03749 8.16742
  774 21.5856 4.50063 -0.0527943
  775 15.2239 -1.12177 0.898232
  776 2.35801 0.0656102 -0.977232
  777 2.44281 0.0493846 0.988285
  778 18.7461 -0.134756 -1.62642
  779 15.2712 -1.13384 -0.897245
  780 20.6037 -0.158958 0.260117
  781 10.0423 -0.448783 1.74063
  782 9.94986 -0.447502 -1.74335
  783 19.6065 -0.488547 -0.613445
  784 12.0577 -0.329624 -0.795861
  785 12.0634 -0.327177 0.787359
  786 20.4596 -0.174224 -0.672371
  787 15.2888 -0.425711 -0.217740
  788 15.2884 -0.422485 0.217691
  789 22.3796 -0.141891 -1.76544
  790 19.9637 -0.203198 -2.33646
  791 9.64161 -0.0690744 -0.454184
  792 9.66255 -0.0684439 0.448134
  793 0.298675 0.251491 -0.562275
  794 0.394607 0.264662 0.593668
  795 15.7483 0.0702571 -0.565578
  796 18.2763 -2.05511 -0.889363
  797 -0.219871 -0.155506 0.370121
  798 -0.189446 -0.177090 -0.363117
  799 19.0521 -0.359947 0.268654
  800 20.7208 -1.60395 -0.922902
  801 21.2153 3.16681 -1.76771
  802 20.7047 -0.141046 -0.246308
  803 45.9246 9.02286 -8.62247
  804 19.0485 -0.358335 -0.265459
  805 28.8985 5.58807 0.370748
  806 20.3018 0.595606 -2.42773
  807 22.5676 1.69921 -2.21866
  808 3.37020 -0.0405669 -0.913839
  809 3.44650 -0.0463262 0.911819
  810 12.2325 -0.194356 0.463401
  811 12.2289 -0.196133 -0.468525
  812 11.5422 -0.0340586 0.0850347
  813 11.5399 -0.0343950 -0.0859224
  814 22.7348 3.84976 -1.70826
  815 12.9867 -0.0943057 -0.121386
  816 12.9880 -0.0931637 0.120450
  817 19.2328 -0.192706 -2.09523
  818 28.5923 2.64192 1.99054
  819 17.0642 0.364751 -1.24568
  820 5.56951 -0.0535193 0.991538
  821 5.51305 -0.0539758 -1.00045
  822 22.9730 0.490959 5.77367
  823 20.0215 -0.344161 0.576006
  824 17.5041 1.14714 -0.519807
  825 7.72919 -0.0166619 0.683375
  826 7.68303 -0.0128341 -0.689255
  827 11.8564 -0.0714951 -0.223927
  828 11.8598 -0.0704627 0.221296
  829 2.07591 1.87461 1.51834
  830 18.3636 0.428952 1.86831
  831 20.5521 3.04191 -1.49841
  832 22.2723 2.59003 -2.17480
  833 14.3140 -0.568960 -0.569967
  834 14.3037 -0.564001 0.568397
  835 22.9953 4.96328 0.793584
  836 20.0352 -0.136611 -0.0364269
  837 20.0353 -0.135490 0.0400764
  838 19.6814 -0.576199 -1.41723
  839 16.3330 -1.11156 0.464266
  840 18.1549 -2.04279 0.899389
  841 21.5676 -1.76693 1.43150
  842 16.1516 -0.478670 -0.0961364
  843 16.1506 -0.476338 0.0949242
  844 18.4452 1.70441 0.845798
  845 17.2432 0.222590 -1.34927
  846 4.80152 5.26250 5.34411
  847 17.7423 -1.58659 -0.252944
  848 17.7885 -0.796342 0.157370
  849 17.7984 -0.797138 -0.158072
  850 19.5751 -0.282417 2.21544
  851 19.4955 -1.27304 -1.12883
  852 17.3007 -1.16101 -0.0944329
  853 41.2687 1.33991 -2.10192
  854 16.4171 -1.57629 1.00181
  855 16.4060 -1.59785 -1.02061
  856 19.5796 -0.227033 1.13801
  857 29.9582 7.64730 -1.35651
  858 15.3426 -1.42326 -1.30639
  859 17.0782 -1.93608 1.19231
  860 15.3354 -1.40516 1.29306
  861 16.6767 -0.682384 -0.0953674
  862 16.6753 -0.679423 0.0940110
  863 2.30360 1.03748 1.32942
  864 21.0649 1.58060 -2.35394
  865 15.9460 -0.639213 -0.215585
  866 15.9482 -0.632126 0.216573
  867 15.7133 -0.266010 -0.0248309
  868 15.7125 -0.263825 0.0245654
  869 17.4442 -0.336967 0.0360788
  870 17.4419 -0.334276 -0.0361045
  871 13.8944 -0.293001 -0.304217
  872 13.8945 -0.289438 0.302449
  873 16.0219 -0.866529 -0.350706
  874 16.0232 -0.859655 0.352100
  875 0.350616 -0.285506 -0.0839220
  876 24.5416 4.60796 1.39096
  877 21.0919 -0.727440 -1.96295
  878 17.0679 -1.90858 -1.20780
  879 18.4866 -0.583850 0.280101
  880 18.4778 -0.576990 -0.274140
  881 20.1359 0.0327446 2.38442
  882 22.1748 -1.58274 -0.653290
  883 19.7248 1.27248 -7.04767
  884 8.56852 -0.115472 3.41584
  885 -0.456500 0.200589 -0.187210
  886 -0.409011 0.225590 0.213718
  887 2.28260 1.10380 -1.35495
  888 19.7656 -0.549480 0.907082
  889 20.9299 -0.115840 -0.388110
  890 18.7609 -1.79108 2.90200
  891 8.54715 -0.104456 -3.43124
  892 20.9131 -1.69598 0.724878
  893 23.5330 -0.755810 2.41548
  894 16.3920 0.0624371 0.601145
  895 19.0686 1.81487 1.44969
  896 10.1035 -0.579453 2.53387
  897 10.0623 -0.584265 -2.55318
  898 12.1492 -0.607526 -1.41179
  899 13.0195 -0.611574 -4.38521
  900 20.8410 -0.474823 2.16205
  901 28.9886 6.67839 0.627611
  902 20.8719 0.812100 2.40039
  903 19.7367 -0.408405 -1.28537
  904 13.3073 -0.548154 4.49635
  905 25.3360 4.64388 -1.13173
  906 2.34366 2.03641 -1.89192
  907 17.9933 -0.0402202 -0.654639
  908 12.1618 -0.602125 1.39714
  909 14.9888 -0.345470 0.195753
  910 14.9892 -0.348243 -0.196464
  911 19.5259 -1.26644 1.16049
  912 20.4338 -0.100183 0.106304
  913 14.9054 0.153056 -5.48366
  914 21.6174 -0.0372399 0.184973
  915 21.4152 -0.0293394 -0.230609
  916 15.3475 0.124801 -0.517476
  917 20.5660 -0.0791995 -0.394059
  918 15.0689 -0.732539 -0.505326
  919 15.0789 -0.720747 0.506507
  920 -0.544803 0.172927 -0.320116
  921 -0.729064 0.104119 0.329754
  922 20.4350 -0.0912414 -0.106148
  923 6.36238 -0.137305 2.29876
  924 6.31844 -0.122020 -2.31354
  925 21.5930 3.17393 1.87780
  926 40.2564 0.722113 0.660087
  927 20.2567 2.26592 1.92788
  928 23.3713 -0.851269 0.456604
  929 20.0775 -1.10596 1.72500
  930 25.0605 5.28161 -0.857709
  931 14.9744 0.0518798 0.389236
  932 19.3461 -0.432264 -0.405192
  933 19.9558 1.07523 -2.32936
  934 24.5286 0.669873 -0.753070
  935 18.7991 -1.15812 -0.621249
  936 9.08598 -0.0574929 -0.511220
  937 9.09760 -0.0554954 0.503224
  938 19.8882 -0.449255 -1.03417
  939 0.584921 0.769038 0.0693127
  940 19.0804 -1.97627 0.0103684
  941 16.0793 0.454334 -0.0537032
  942 24.8438 5.52425 -0.571531
  943 3.74791 2.80556 -3.24080
  944 18.9411 -0.140035 -1.29914
  945 12.7890 -0.234313 -0.427592
  946 12.7904 -0.231357 0.423063
  947 0.0895979 -0.570520 0.443745
  948 12.6702 -0.970401 -2.02885
  949 19.4209 -1.11313 -1.08970
  950 11.4768 0.0242811 -0.0341604
  951 11.4782 0.0244388 0.0338418
  952 19.4158 2.36335 -1.16790
  953 21.3028 -0.0388653 -0.0377403
  954 21.3015 -0.0399688 0.0483664
  955 12.6742 -0.967155 2.01291
  956 19.5818 -0.0205609 -0.519979
  957 22.7663 0.163454 1.72272
  958 20.1646 -0.259652 0.452401
  959 2.96780 0.810647 -1.72315
  960 20.9805 -0.106465 0.354051
  961 18.6854 0.143672 2.01088
  962 19.7157 2.74725 1.03956
  963 19.8285 0.232118 -2.39101
  964 13.3973 -0.750280 -1.19273
  965 21.5913 -0.750625 1.69236
  966 13.4053 -0.746763 1.17866
  967 0.548738 0.626226 0.0358686
  968 2.11604 0.406387 1.25847
  969 10.7246 -0.206842 0.836946
  970 10.7106 -0.207306 -0.842844
  971 19.3591 -0.441846 0.423507
  972 20.6134 3.62107 0.583828
  973 10.4211 0.989126 -5.15950
  974 17.2635 -1.09139 0.0696631
  975 16.1948 -1.70984 -1.57143
  976 23.8004 4.59192 1.38417
  977 18.2509 -0.305288 0.0657939
  978 18.2505 -0.303210 -0.0658145
  979 20.1074 -0.350647 -0.758703
  980 18.2587 1.56776 -0.781160
  981 43.8132 12.6027 8.51347
  982 3.54779 0.226058 -1.69988
  983 3.61383 0.188588 1.70472
  984 0.263121 -0.495631 0.0133544
  985 18.3384 1.00591 1.60315
  986 16.1861 -1.71953 1.55808
  987 20.2122 -0.943971 -1.93540
  988 22.0141 1.80793 2.36168
  989 21.3475 -1.72203 -1.82279
  990 31.3100 6.61963 2.03435
  991 17.8873 -0.274210 0.00508994
  992 17.8849 -0.271450 -0.00502552
  993 21.0779 -0.844951 1.87298
  994 1.39660 1.99890 2.29341
  995 8.98828 -0.203221 1.20676
  996 8.95670 -0.200672 -1.22188
  997 10.9015 -0.560276 1.63896
  998 10.8615 -0.552346 -1.64675
  999 12.3412 -0.536813 1.16232
  1000 13.4856 -0.121361 -0.0569694
  1001 13.4865 -0.120365 0.0566652
  1002 35.9416 10.9066 -6.76095
  1003 31.9251 7.98132 3.04795
  1004 12.3315 -0.540021 -1.17400
  1005 21.7233 -0.0892305 2.05589
  1006 19.1643 1.99119 -1.40019
  1007 13.5331 -1.15071 3.62693
  1008 17.5608 -2.07206 -1.85827
  1009 20.1033 -0.154580 -0.774892
  1010 8.83888 0.648596 4.17267
  1011 11.3608 -0.873004 2.89998
  1012 17.4387 0.878676 -0.998513
  1013 20.2956 -0.392469 -2.28769
  1014 27.1293 9.94272 11.2732
  1015 16.3617 0.484154 0.705681
  1016 22.7388 4.97461 -0.0944585
  1017 16.8992 0.633846 -6.25004
  1018 16.9733 -1.80401 -1.01410
  1019 21.9883 -0.00934955 -0.0957587
  1020 20.7049 1.91021 -2.24813
  1021 11.6550 -0.0873981 0.292576
  1022 11.6501 -0.0883134 -0.296000
  1023 0.406283 -0.00300125 -0.503833
  1024 13.3900 -0.642234 -0.989494
  1025 11.3483 -0.884579 -2.92478
  1026 13.3773 -0.640262 0.976472
  1027 19.8145 -0.594059 2.11478
  1028 17.7342 -1.10449 0.101619
  1029 18.5052 0.333292 -1.94302
  1030 19.0267 2.38358 0.407914
  1031 26.5867 1.45395 0.551685
  1032 19.6887 -1.48767 1.12873
  1033 12.1437 -0.994887 -2.22116
  1034 18.3207 0.638287 -1.81115
  1035 13.6635 -1.13390 -3.64976
  1036 26.6065 5.86414 -0.0390028
  1037 17.7329 1.15196 0.908135
  1038 22.9697 -0.144871 -1.39348
  1039 17.0807 -1.80360 0.916286
  1040 19.6422 -0.611287 1.65368
  1041 19.5468 -1.02190 1.24926
  1042 19.4405 -0.967204 1.09697
  1043 24.1452 3.04398 -1.84841
  1044 19.3264 -0.305441 1.64647
  1045 17.5254 -2.07797 1.82579
  1046 18.7131 -0.754890 0.429671
  1047 12.1504 -0.996276 2.20616
  1048 17.4986 -1.30527 -0.0975629
  1049 9.93995 -0.474967 -3.10436
  1050 14.4096 -1.50809 2.43481
  1051 19.7323 -0.124692 -0.890132
  1052 19.1418 -0.213148 -1.85633
  1053 16.5426 -1.33220 -0.582517
  1054 9.95746 -0.490314 3.07677
  1055 17.6757 0.0358927 -1.26728
  1056 13.0562 -0.898431 -1.55760
  1057 24.2110 5.21668 0.900638
  1058 5.13741 0.904596 -2.88242
  1059 43.1291 3.05720 4.24696
  1060 9.49627 0.754152 -4.38136
  1061 19.4477 -1.60595 -0.770158
  1062 13.0582 -0.890059 1.54269
  1063 17.4612 0.172472 1.40948
  1064 9.48918 -0.206655 0.997567
  1065 9.48309 -0.211903 -1.00901
  1066 19.6198 -0.538638 -1.95579
  1067 21.1578 -0.0822110 0.156630
  1068 20.5818 -0.0377732 0.400227
  1069 20.2234 0.678920 2.41707
  1070 18.8267 -0.141635 1.73553
  1071 14.7574 1.54341 6.77369
  1072 22.1498 -0.00712327 0.0495883
  1073 20.2822 2.76753 1.53605
  1074 16.9304 0.231793 1.20878
  1075 20.8949 -0.0702220 0.387956
  1076 12.9008 -0.156178 -0.234150
  1077 12.9021 -0.154316 0.232132
  1078 8.06992 -0.240758 -1.66069
  1079 8.10619 -0.249347 1.64713
  1080 16.9832 0.829746 0.505218
  1081 26.7310 1.27933 -1.56288
  1082 24.5465 -0.134981 -3.38334
  1083 19.0376 -0.0139359 -0.534442
  1084 14.4187 -1.51983 -2.45495
  1085 16.5767 -1.26663 0.507073
  1086 19.1615 -0.0413510 0.558464
  1087 20.2407 -1.45625 -1.31051
  1088 12.0648 -0.0365845 0.143467
  1089 12.0629 -0.0371754 -0.144616
  1090 19.4094 -1.65205 0.770116
  1091 18.4103 -0.358737 0.112392
  1092 18.4074 -0.358905 -0.110882
  1093 17.8894 -1.81275 0.504092
  1094 23.4046 -0.772641 0.0639404
  1095 9.89722 -0.0204749 -0.281930
  1096 9.91510 -0.0197593 0.278396
  1097 15.7281 -0.970938 -4.18116
  1098 16.5772 -0.397295 0.0370872
  1099 16.5793 -0.400029 -0.0378734
  1100 10.1226 5.27763 7.43059
  1101 23.3491 1.89911 -2.03018
  1102 3.21565 1.62771 -2.11044
  1103 20.1816 -0.275398 -0.438085
  1104 5.13107 1.82829 -3.29926
  1105 10.8013 -0.702147 -2.11789
  1106 22.1791 -0.0111406 0.0276427
  1107 22.1913 -0.00964149 -0.0210002
  1108 19.7423 -1.11646 -1.49289
  1109 17.4932 -1.95168 -2.61533
  1110 5.13822 0.769907 2.74686
  1111 21.4430 2.13416 2.21628
  1112 19.5818 -0.167759 -0.0437241
  1113 19.5832 -0.168076 0.0458305
  1114 21.5760 -1.41588 3.14934
  1115 21.8875 4.44133 0.867111
  1116 12.6268 -0.328562 -0.619556
  1117 12.6290 -0.326731 0.614004
  1118 9.74454 1.15009 5.20147
  1119 18.4639 0.0877375 -1.88487
  1120 5.63114 1.86968 3.56259
  1121 24.3592 -0.466905 -0.812427
  1122 23.5060 5.28733 0.279605
  1123 16.0324 -1.29641 0.745745
  1124 14.3465 0.0641320 -0.0757316
  1125 20.6988 -0.164153 0.511073
  1126 21.5220 -0.0163772 0.201211
  1127 4.19874 0.0112935 -0.828664
  1128 4.26923 0.00884688 0.822269
  1129 16.3369 0.255606 -0.891918
  1130 17.1519 -0.504783 0.0121504
  1131 17.1472 -0.501760 -0.0123756
  1132 1.74213 2.30062 -2.42788
  1133 2.83205 5.48091 -5.08598
  1134 17.3915 -0.681839 -0.0533280
  1135 17.3995 -0.682508 0.0526487
  1136 18.0235 -0.422704 0.127535
  1137 18.0209 -0.421373 -0.125632
  1138 4.55819 2.93952 3.55349
  1139 13.8738 -0.187207 -0.106899
  1140 13.8745 -0.185669 0.106167
  1141 17.6244 1.31883 -0.0223229
  1142 23.5025 2.62228 -7.85164
  1143 21.8157 3.79477 -1.48342
  1144 19.9604 -0.756736 -2.01777
  1145 19.6751 -0.969852 -1.49951
  1146 16.0465 -1.30933 -0.759747
  1147 15.8231 0.0446725 0.550642
  1148 18.0755 1.11526 -1.33831
  1149 17.7967 0.944246 1.27428
  1150 18.7002 -0.731738 -0.422940
  1151 17.7826 -1.08127 -0.113898
  1152 16.0538 -1.06453 -0.541723
  1153 19.2229 -0.109012 1.04240
  1154 35.0404 3.55994 0.501556
  1155 19.3785 -0.407328 1.90073
  1156 19.3648 1.27326 2.03452
  1157 17.9766 -1.78086 -0.330211
  1158 1.98570 0.375089 -1.21090
  1159 18.3153 -0.842919 -0.340946
  1160 11.5656 -0.0249878 -0.00555433
  1161 11.5666 -0.0249004 0.00544378
  1162 22.5554 -0.594105 1.22579
  1163 21.5056 -1.80308 0.504042
  1164 31.0613 5.62801 1.28236
  1165 6.78198 -0.0190766 -0.698770
  1166 6.83051 -0.0175037 0.692614
  1167 16.1848 -0.331441 -0.0421127
  1168 16.1835 -0.328933 0.0415402
  1169 18.3838 -1.62897 0.134076
  1170 14.4891 0.0568130 0.246985
  1171 18.8440 -1.34060 0.611448
  1172 0.968699 1.15349 -0.462164
  1173 3.18895 1.64700 2.06754
  1174 12.4499 -0.651819 4.04712
  1175 21.7014 4.18454 -1.05669
  1176 20.9806 -0.0516516 -0.305599
  1177 22.2829 -0.0285379 0.0215429
  1178 22.3101 -0.0418703 -0.0152257
  1179 12.1241 -0.0390993 -0.0214800
  1180 12.1254 -0.0388166 0.0212375
  1181 19.9907 1.28451 2.32586
  1182 30.1248 5.23429 -0.109897
  1183 20.5522 3.43083 -1.04854
  1184 15.4455 -1.11349 4.15340
  1185 12.3832 -0.623056 -4.04035
  1186 13.6533 -0.948676 -1.38442
  1187 19.3624 -0.520686 0.526884
  1188 27.2270 5.95026 -0.127882
  1189 13.6526 -0.942245 1.37145
  1190 19.8382 -0.319708 0.399815
  1191 17.2801 0.625699 1.21270
  1192 19.2768 0.594933 2.22187
  1193 27.9196 6.27061 0.407253
  1194 16.2209 -0.430911 0.0822452
  1195 16.2224 -0.433525 -0.0833076
  1196 20.0749 -0.354096 0.786308
  1197 11.3281 -0.135907 0.463525
  1198 11.3201 -0.137377 -0.468706
  1199 19.6597 -0.239111 -0.195076
  1200 7.94896 4.67959 -7.13754
  1201 17.0036 -0.945843 -4.44296
  1202 15.7385 -0.509494 -0.187091
  1203 15.7394 -0.506645 0.187059
  1204 21.2650 -0.0767121 0.137024
  1205 19.9764 -0.232777 0.321860
  1206 1.00111 1.18469 0.826153
  1207 21.9385 -0.0157628 0.110529
  1208 2.44373 2.98440 2.95852
  1209 19.4706 -0.263274 -0.247046
  1210 -0.0366005 -0.493256 -0.429157
  1211 13.5408 -1.31861 -3.12061
  1212 13.4977 -1.28565 3.08673
  1213 21.9393 -0.0306905 -0.120539
  1214 18.4386 -0.970372 -0.393688
  1215 21.2432 -0.0675173 -0.144233
  1216 16.6176 -0.545021 -0.0520172
  1217 16.6150 -0.542360 0.0504495
  1218 19.6458 -0.236903 0.184863
  1219 18.3014 -0.826942 0.337349
  1220 17.5542 -0.560953 -0.0902114
  1221 17.5614 -0.563177 0.0927867
  1222 21.2314 -0.0697186 -0.118991
  1223 18.1575 -1.89616 -2.96523
  1224 20.7190 -0.0981276 -0.125576
  1225 19.5609 -0.271840 0.261042
  1226 13.1291 -0.162419 -0.168496
  1227 13.1302 -0.160725 0.167099
  1228 14.8624 -0.230597 -0.0752851
  1229 14.8623 -0.228708 0.0746895
  1230 24.7713 3.83880 1.60949
  1231 20.7728 -1.57973 1.05186
  1232 14.1237 -0.0473367 5.16141
  1233 10.7563 -0.0244209 0.177370
  1234 10.7471 -0.0246542 -0.179565
  1235 19.5326 -0.352124 1.44349
  1236 18.7598 -0.259869 0.0707813
  1237 18.7614 -0.258721 -0.0707338
  1238 21.3239 4.20574 0.488400
  1239 19.7994 -2.06232 2.27776
  1240 10.8580 -0.169551 0.659948
  1241 10.8466 -0.171000 -0.665896
  1242 18.7168 -0.438540 0.237435
  1243 18.7130 -0.441294 -0.232420
  1244 19.3530 -0.513179 -0.510306
  1245 17.4064 0.000978776 0.657580
  1246 31.1588 7.72945 -2.32980
  1247 19.6743 -0.705793 -1.32169
  1248 3.12022 0.798594 1.77792
  1249 20.3531 -1.07089 1.82904
  1250 15.8348 0.326577 -0.486778
  1251 1.09384 0.882268 0.573056
  1252 27.2685 2.87217 0.207609
  1253 19.8387 -0.891877 -1.81846
  1254 15.9195 0.210077 0.744291
  1255 10.8823 -0.702826 2.11163
  1256 20.2184 -1.55274 1.19413
  1257 29.9131 5.37736 1.23331
  1258 6.51597 1.01136 3.52191
  1259 20.3637 -0.218965 -0.674287
  1260 40.6253 0.442755 -0.422351
  1261 42.1037 0.643195 1.90183
  1262 45.1505 1.58872 -4.48011
  1263 19.6180 -0.600241 -1.60693
  1264 19.6505 -0.884238 1.40901
  1265 19.9961 -1.41133 1.36794
  1266 -0.594724 0.0570467 0.385984
  1267 -0.544791 0.0421508 -0.415839
  1268 19.5124 -2.14438 -0.936169
  1269 20.0441 -2.01288 -1.50918
  1270 14.6104 0.0843004 -0.306162
  1271 19.4438 -2.18632 1.52168
  1272 20.7232 -0.970082 -1.86388
  1273 0.311326 0.574413 -0.0199072
  1274 16.6275 -0.301308 0.0445455
  1275 16.6291 -0.303913 -0.0446652
  1276 20.6989 -0.142710 0.468432
  1277 19.8399 -0.313207 -0.378388
  1278 18.5958 -2.03254 -0.408711
  1279 16.8359 -0.927452 0.157094
  1280 16.7451 -0.915349 -0.186130
  1281 19.9596 -0.404053 1.04659
  1282 20.4396 -0.739097 -2.09124
  1283 1.13778 0.920251 -0.542365
</Section>

