newXOutput 1

<Section columns = "stress_xx | stress_yy | stress_xy">
  1 0.00000 0.00000 0.00000
  2 0.00000 0.00000 0.00000
  3 0.00000 0.00000 0.00000
  4 0.00000 0.00000 0.00000
  5 0.00000 0.00000 0.00000
  6 0.00000 0.00000 0.00000
  7 0.00000 0.00000 0.00000
  8 0.00000 0.00000 0.00000
</Section>

newXOutput 2

<Section columns = "stress_xx | stress_yy | stress_xy">
  1 35.4594 0.00000 -2.39593e-15
  2 35.4594 0.00000 -2.27921e-15
  3 35.4594 0.00000 -3.98860e-15
  4 35.4594 0.00000 -3.70147e-15
  5 35.4594 0.00000 -2.85142e-15
  6 35.4594 0.00000 -2.78706e-15
  7 35.4594 0.00000 -5.76434e-16
  8 35.4594 0.00000 -1.12207e-15
</Section>

newXOutput 3

<Section columns = "stress_xx | stress_yy | stress_xy">
  1 70.8378 0.00000 -3.88710e-16
  2 70.8378 0.00000 -1.10126e-16
  3 70.8378 0.00000 2.73024e-15
  4 70.8378 0.00000 3.18484e-15
  5 70.8378 0.00000 5.04958e-15
  6 70.8378 0.00000 5.26797e-15
  7 70.8378 0.00000 6.34428e-15
  8 70.8378 0.00000 5.71686e-15
</Section>

newXOutput 4

<Section columns = "stress_xx | stress_yy | stress_xy">
  1 106.145 0.00000 -2.54482e-14
  2 106.145 0.00000 -2.48480e-14
  3 106.145 0.00000 -5.68427e-15
  4 106.145 0.00000 -4.92241e-15
  5 106.145 0.00000 -1.78929e-14
  6 106.145 0.00000 -1.58383e-14
  7 106.145 0.00000 -3.68127e-14
  8 106.145 0.00000 -2.66900e-14
</Section>

newXOutput 5

<Section columns = "stress_xx | stress_yy | stress_xy">
  1 141.383 0.00000 1.02098e-14
  2 141.383 0.00000 1.04853e-14
  3 141.383 0.00000 6.95072e-15
  4 141.383 0.00000 7.34303e-15
  5 141.383 0.00000 -5.92036e-15
  6 141.383 0.00000 -5.91569e-15
  7 141.383 0.00000 -1.96082e-16
  8 141.383 0.00000 1.71251e-16
</Section>

newXOutput 6

<Section columns = "stress_xx | stress_yy | stress_xy">
  1 176.551 0.00000 -8.83969e-15
  2 176.551 0.00000 -7.92649e-15
  3 176.551 0.00000 -1.17937e-14
  4 176.551 0.00000 -1.06739e-14
  5 176.551 0.00000 5.76892e-15
  6 176.551 0.00000 5.49854e-15
  7 176.551 0.00000 -2.56699e-15
  8 176.551 0.00000 -5.30122e-15
</Section>

newXOutput 7

<Section columns = "stress_xx | stress_yy | stress_xy">
  1 211.651 0.00000 1.16282e-14
  2 211.651 0.00000 1.25363e-14
  3 211.651 0.00000 1.26257e-15
  4 211.651 0.00000 2.26145e-15
  5 211.651 0.00000 -1.17448e-15
  6 211.651 0.00000 1.32003e-15
  7 211.651 0.00000 -4.45575e-15
  8 211.651 0.00000 9.84860e-15
</Section>

newXOutput 8

<Section columns = "stress_xx | stress_yy | stress_xy">
  1 246.682 0.00000 -2.16351e-14
  2 246.682 0.00000 -2.03709e-14
  3 246.682 0.00000 -1.82433e-15
  4 246.682 0.00000 -6.50482e-16
  5 246.682 0.00000 2.59105e-14
  6 246.682 0.00000 2.54563e-14
  7 246.682 0.00000 2.52831e-15
  8 246.682 0.00000 -2.93190e-15
</Section>

newXOutput 9

<Section columns = "stress_xx | stress_yy | stress_xy">
  1 281.645 0.00000 1.07063e-14
  2 281.645 0.00000 1.10654e-14
  3 281.645 0.00000 6.38519e-15
  4 281.645 0.00000 9.32512e-15
  5 281.645 0.00000 1.68339e-14
  6 281.645 0.00000 2.50292e-14
  7 281.645 0.00000 -4.01906e-14
  8 281.645 0.00000 -4.49285e-14
</Section>

newXOutput 10

<Section columns = "stress_xx | stress_yy | stress_xy">
  1 316.542 0.00000 3.70969e-14
  2 316.542 0.00000 3.74540e-14
  3 316.542 0.00000 2.97326e-14
  4 316.542 0.00000 3.25792e-14
  5 316.542 0.00000 3.44370e-14
  6 316.542 0.00000 4.21830e-14
  7 316.542 0.00000 4.74754e-15
  8 316.542 0.00000 -7.04648e-16
</Section>

newXOutput 11

<Section columns = "stress_xx | stress_yy | stress_xy">
  1 351.372 0.00000 -2.39906e-14
  2 351.372 0.00000 -2.25703e-14
  3 351.372 0.00000 -9.73295e-15
  4 351.372 0.00000 -9.34023e-15
  5 351.372 0.00000 -1.84160e-14
  6 351.372 0.00000 -2.05904e-14
  7 351.372 0.00000 6.27760e-17
  8 351.372 0.00000 -5.38549e-15
</Section>

newXOutput 12

<Section columns = "stress_xx | stress_yy | stress_xy">
  1 386.136 0.00000 5.30869e-15
  2 386.136 0.00000 7.60331e-15
  3 386.136 0.00000 1.35410e-14
  4 386.136 0.00000 1.41418e-14
  5 386.136 0.00000 -5.92616e-15
  6 386.136 0.00000 -1.01828e-14
  7 386.136 0.00000 -4.85533e-15
  8 386.136 0.00000 -1.57441e-14
</Section>

newXOutput 13

<Section columns = "stress_xx | stress_yy | stress_xy">
  1 420.835 0.00000 2.94080e-14
  2 420.835 0.00000 3.08119e-14
  3 420.835 0.00000 -2.04695e-14
  4 420.835 0.00000 -2.04024e-14
  5 420.835 0.00000 -5.97679e-14
  6 420.835 0.00000 -6.36702e-14
  7 420.835 0.00000 -2.64251e-14
  8 420.835 0.00000 -3.64288e-14
</Section>

newXOutput 14

<Section columns = "stress_xx | stress_yy | stress_xy">
  1 455.469 0.00000 3.51542e-14
  2 455.469 0.00000 3.56776e-14
  3 455.469 0.00000 -1.33494e-15
  4 455.469 0.00000 -8.11523e-16
  5 455.469 0.00000 3.43009e-14
  6 455.469 0.00000 3.24205e-14
  7 455.469 0.00000 3.77903e-14
  8 455.469 0.00000 2.65677e-14
</Section>

newXOutput 15

<Section columns = "stress_xx | stress_yy | stress_xy">
  1 490.039 0.00000 -2.38188e-14
  2 490.039 0.00000 -2.20842e-14
  3 490.039 0.00000 8.09095e-15
  4 490.039 0.00000 1.40967e-14
  5 490.039 0.00000 -2.90090e-14
  6 490.039 0.00000 -1.27684e-14
  7 490.039 0.00000 -4.68160e-14
  8 490.039 0.00000 -4.88975e-14
</Section>

newXOutput 16

<Section columns = "stress_xx | stress_yy | stress_xy">
  1 524.545 0.00000 -3.10347e-14
  2 524.545 0.00000 -2.96551e-14
  3 524.545 0.00000 5.94650e-15
  4 524.545 0.00000 6.86349e-15
  5 524.545 0.00000 6.34731e-15
  6 524.545 0.00000 2.01767e-15
  7 524.545 0.00000 -3.15031e-14
  8 524.545 0.00000 -4.40865e-14
</Section>

newXOutput 17

<Section columns = "stress_xx | stress_yy | stress_xy">
  1 558.989 0.00000 -2.34770e-14
  2 558.989 0.00000 -1.93627e-14
  3 558.989 0.00000 2.82272e-14
  4 558.989 0.00000 2.94779e-14
  5 558.989 0.00000 -3.80932e-14
  6 558.989 0.00000 -4.06348e-14
  7 558.989 0.00000 -1.12775e-13
  8 558.989 0.00000 -1.12775e-13
</Section>

newXOutput 18

<Section columns = "stress_xx | stress_yy | stress_xy">
  1 593.370 0.00000 -1.93230e-14
  2 593.370 0.00000 -1.62555e-14
  3 593.370 0.00000 -5.77654e-14
  4 593.370 0.00000 -5.68668e-14
  5 593.370 0.00000 -1.81182e-14
  6 593.370 0.00000 -2.22700e-14
  7 593.370 0.00000 4.66793e-14
  8 593.370 0.00000 3.61753e-14
</Section>

newXOutput 19

<Section columns = "stress_xx | stress_yy | stress_xy">
  1 627.689 0.00000 -1.35216e-14
  2 627.689 0.00000 -8.77827e-15
  3 627.689 0.00000 -3.02465e-14
  4 627.689 0.00000 -2.85101e-14
  5 627.689 0.00000 -7.98183e-14
  6 627.689 0.00000 -8.43064e-14
  7 627.689 0.00000 -1.07924e-13
  8 627.689 0.00000 -1.19101e-13
</Section>

newXOutput 20

<Section columns = "stress_xx | stress_yy | stress_xy">
  1 661.946 0.00000 2.39257e-14
  2 661.946 0.00000 3.03248e-14
  3 661.946 0.00000 3.96986e-14
  4 661.946 0.00000 4.81872e-14
  5 661.946 0.00000 3.78072e-14
  6 661.946 0.00000 5.29649e-14
  7 661.946 0.00000 3.87701e-14
  8 661.946 0.00000 2.72655e-14
</Section>

newXOutput 21

<Section columns = "stress_xx | stress_yy | stress_xy">
  1 696.143 0.00000 -2.27824e-14
  2 696.143 0.00000 -1.60869e-14
  3 696.143 0.00000 -5.35678e-14
  4 696.143 0.00000 -5.10228e-14
  5 696.143 0.00000 2.95050e-14
  6 696.143 0.00000 2.45238e-14
  7 696.143 0.00000 6.39184e-14
  8 696.143 0.00000 5.20898e-14
</Section>

newXOutput 22

<Section columns = "stress_xx | stress_yy | stress_xy">
  1 730.280 0.00000 5.24705e-15
  2 730.280 0.00000 1.02384e-14
  3 730.280 0.00000 2.18251e-15
  4 730.280 0.00000 5.04095e-15
  5 730.280 0.00000 1.16713e-14
  6 730.280 0.00000 6.59127e-15
  7 730.280 0.00000 -7.58174e-14
  8 730.280 0.00000 -9.71200e-14
</Section>

newXOutput 23

<Section columns = "stress_xx | stress_yy | stress_xy">
  1 764.357 0.00000 2.14827e-14
  2 764.357 0.00000 2.71053e-14
  3 764.357 0.00000 -2.73189e-14
  4 764.357 0.00000 -2.51173e-14
  5 764.357 0.00000 1.41229e-14
  6 764.357 0.00000 1.84424e-14
  7 764.357 0.00000 -3.16931e-14
  8 764.357 0.00000 3.37325e-14
</Section>

newXOutput 24

<Section columns = "stress_xx | stress_yy | stress_xy">
  1 798.376 0.00000 2.83569e-14
  2 798.376 0.00000 3.42740e-14
  3 798.376 0.00000 5.29381e-14
  4 798.376 0.00000 5.51184e-14
  5 798.376 0.00000 1.32665e-13
  6 798.376 0.00000 1.27098e-13
  7 798.376 0.00000 2.18951e-14
  8 798.376 0.00000 1.92652e-14
</Section>

newXOutput 25

<Section columns = "stress_xx | stress_yy | stress_xy">
  1 832.335 0.00000 2.95543e-14
  2 832.335 0.00000 3.60887e-14
  3 832.335 0.00000 2.58686e-14
  4 832.335 0.00000 2.85176e-14
  5 832.335 0.00000 3.11761e-15
  6 832.335 0.00000 -4.82499e-15
  7 832.335 0.00000 -9.07012e-14
  8 832.335 0.00000 -1.12298e-13
</Section>

newXOutput 26

<Section columns = "stress_xx | stress_yy | stress_xy">
  1 866.237 0.00000 -1.64684e-15
  2 866.237 0.00000 6.14610e-15
  3 866.237 0.00000 3.85099e-15
  4 866.237 0.00000 7.58511e-15
  5 866.237 0.00000 -3.35667e-14
  6 866.237 0.00000 -3.69222e-14
  7 866.237 0.00000 -4.54574e-14
  8 866.237 0.00000 -6.57435e-14
</Section>

newXOutput 27

<Section columns = "stress_xx | stress_yy | stress_xy">
  1 900.081 0.00000 3.48854e-14
  2 900.081 0.00000 -1.02924e-14
  3 900.081 0.00000 4.92207e-14
  4 900.081 0.00000 2.48756e-14
  5 900.081 0.00000 1.34052e-13
  6 900.081 0.00000 1.55387e-13
  7 900.081 0.00000 5.75234e-14
  8 900.081 0.00000 9.67550e-14
</Section>

newXOutput 28

<Section columns = "stress_xx | stress_yy | stress_xy">
  1 933.868 0.00000 2.78119e-15
  2 933.868 0.00000 1.81911e-15
  3 933.868 0.00000 -4.07230e-14
  4 933.868 0.00000 -4.12040e-14
  5 933.868 0.00000 -1.34843e-16
  6 933.868 0.00000 2.43070e-15
  7 933.868 0.00000 -1.44853e-13
  8 933.868 0.00000 -1.39722e-13
</Section>

newXOutput 29

<Section columns = "stress_xx | stress_yy | stress_xy">
  1 967.598 0.00000 1.11089e-14
  2 967.598 0.00000 1.01528e-14
  3 967.598 0.00000 3.55359e-14
  4 967.598 0.00000 3.34664e-14
  5 967.598 0.00000 5.63396e-15
  6 967.598 0.00000 4.09955e-16
  7 967.598 0.00000 -3.05864e-15
  8 967.598 0.00000 -1.72782e-14
</Section>

newXOutput 30

<Section columns = "stress_xx | stress_yy | stress_xy">
  1 1001.27 0.00000 -4.04944e-14
  2 1001.27 0.00000 -3.09938e-14
  3 1001.27 0.00000 -1.06199e-13
  4 1001.27 0.00000 -1.21723e-13
  5 1001.27 0.00000 -5.84797e-14
  6 1001.27 0.00000 -1.13416e-13
  7 1001.27 0.00000 -8.01350e-14
  8 1001.27 0.00000 -1.56416e-13
</Section>

newXOutput 31

<Section columns = "stress_xx | stress_yy | stress_xy">
  1 1034.89 0.00000 5.27346e-14
  2 1034.89 0.00000 5.33640e-14
  3 1034.89 0.00000 7.21125e-14
  4 1034.89 0.00000 6.80070e-14
  5 1034.89 0.00000 1.21830e-13
  6 1034.89 0.00000 1.09496e-13
  7 1034.89 0.00000 1.61675e-13
  8 1034.89 0.00000 1.38889e-13
</Section>

newXOutput 32

<Section columns = "stress_xx | stress_yy | stress_xy">
  1 1068.46 0.00000 -2.66141e-14
  2 1068.46 0.00000 -2.53633e-14
  3 1068.46 0.00000 -1.01557e-13
  4 1068.46 0.00000 -1.04707e-13
  5 1068.46 0.00000 -5.40819e-14
  6 1068.46 0.00000 -6.54479e-14
  7 1068.46 0.00000 -1.99416e-13
  8 1068.46 0.00000 -2.21557e-13
</Section>

newXOutput 33

<Section columns = "stress_xx | stress_yy | stress_xy">
  1 1101.97 0.00000 -1.02571e-13
  2 1101.97 0.00000 -1.01950e-13
  3 1101.97 0.00000 3.39967e-13
  4 1101.97 0.00000 3.41489e-13
  5 1101.97 0.00000 -1.73950e-13
  6 1101.97 0.00000 -1.73796e-13
  7 1101.97 0.00000 6.07976e-14
  8 1101.97 0.00000 5.17199e-14
</Section>

newXOutput 34

<Section columns = "stress_xx | stress_yy | stress_xy">
  1 1135.42 0.00000 -2.88389e-14
  2 1135.42 0.00000 -2.88389e-14
  3 1135.42 0.00000 1.72502e-13
  4 1135.42 0.00000 1.73079e-13
  5 1135.42 0.00000 -2.19096e-14
  6 1135.42 0.00000 -2.14975e-14
  7 1135.42 0.00000 9.84373e-14
  8 1135.42 0.00000 9.11424e-14
</Section>

newXOutput 35

<Section columns = "stress_xx | stress_yy | stress_xy">
  1 1168.83 0.00000 2.75304e-14
  2 1168.83 0.00000 2.93706e-14
  3 1168.83 0.00000 1.55338e-13
  4 1168.83 0.00000 1.68862e-13
  5 1168.83 0.00000 -5.13632e-14
  6 1168.83 0.00000 8.06977e-15
  7 1168.83 0.00000 -1.62916e-13
  8 1168.83 0.00000 -2.04972e-14
</Section>

newXOutput 36

<Section columns = "stress_xx | stress_yy | stress_xy">
  1 1202.18 0.00000 -2.76511e-14
  2 1202.18 0.00000 -1.66816e-14
  3 1202.18 0.00000 -6.81079e-16
  4 1202.18 0.00000 -1.41222e-14
  5 1202.18 0.00000 -3.12466e-14
  6 1202.18 0.00000 -5.30080e-14
  7 1202.18 0.00000 -8.67321e-14
  8 1202.18 0.00000 1.21173e-14
</Section>

newXOutput 37

<Section columns = "stress_xx | stress_yy | stress_xy">
  1 1235.48 0.00000 -6.32985e-15
  2 1235.48 0.00000 -1.48636e-15
  3 1235.48 0.00000 -1.81456e-14
  4 1235.48 0.00000 -1.08804e-14
  5 1235.48 0.00000 2.98746e-13
  6 1235.48 0.00000 3.03158e-13
  7 1235.48 0.00000 1.39436e-13
  8 1235.48 0.00000 1.24631e-13
</Section>

newXOutput 38

<Section columns = "stress_xx | stress_yy | stress_xy">
  1 1268.72 0.00000 -3.92635e-14
  2 1268.72 0.00000 -3.38503e-14
  3 1268.72 0.00000 -2.06793e-13
  4 1268.72 0.00000 -1.99950e-13
  5 1268.72 0.00000 -6.83546e-14
  6 1268.72 0.00000 -4.83351e-14
  7 1268.72 0.00000 -2.19258e-13
  8 1268.72 0.00000 -8.29038e-14
</Section>

newXOutput 39

<Section columns = "stress_xx | stress_yy | stress_xy">
  1 1301.92 0.00000 2.09904e-14
  2 1301.92 0.00000 3.59274e-14
  3 1301.92 0.00000 1.87755e-14
  4 1301.92 0.00000 1.72002e-14
  5 1301.92 0.00000 -5.49869e-14
  6 1301.92 0.00000 -9.26154e-14
  7 1301.92 0.00000 4.00480e-14
  8 1301.92 0.00000 -2.40965e-14
</Section>

newXOutput 40

<Section columns = "stress_xx | stress_yy | stress_xy">
  1 1335.06 0.00000 4.28658e-15
  2 1335.06 0.00000 1.31892e-14
  3 1335.06 0.00000 7.77533e-15
  4 1335.06 0.00000 1.54010e-14
  5 1335.06 0.00000 -3.29933e-14
  6 1335.06 0.00000 -3.73455e-14
  7 1335.06 0.00000 -1.88573e-13
  8 1335.06 0.00000 -2.10604e-13
</Section>

newXOutput 41

<Section columns = "stress_xx | stress_yy | stress_xy">
  1 1368.16 0.00000 -2.02488e-14
  2 1368.16 0.00000 -1.14057e-14
  3 1368.16 0.00000 -3.00021e-15
  4 1368.16 0.00000 3.68114e-15
  5 1368.16 0.00000 -1.24568e-14
  6 1368.16 0.00000 -1.71262e-14
  7 1368.16 0.00000 -5.38067e-14
  8 1368.16 0.00000 -7.46453e-14
</Section>

newXOutput 42

<Section columns = "stress_xx | stress_yy | stress_xy">
  1 1401.20 0.00000 -6.53293e-14
  2 1401.20 0.00000 -6.70860e-14
  3 1401.20 0.00000 2.55405e-14
  4 1401.20 0.00000 1.86689e-14
  5 1401.20 0.00000 -3.11099e-13
  6 1401.20 0.00000 -2.99600e-13
  7 1401.20 0.00000 1.21287e-13
  8 1401.20 0.00000 9.34258e-14
</Section>

newXOutput 43

<Section columns = "stress_xx | stress_yy | stress_xy">
  1 1434.20 0.00000 2.39814e-14
  2 1434.20 0.00000 1.40941e-14
  3 1434.20 0.00000 5.34251e-14
  4 1434.20 0.00000 5.73811e-14
  5 1434.20 0.00000 9.01232e-14
  6 1434.20 0.00000 1.17754e-13
  7 1434.20 0.00000 3.43248e-14
  8 1434.20 0.00000 6.48011e-14
</Section>

newXOutput 44

<Section columns = "stress_xx | stress_yy | stress_xy">
  1 1467.15 0.00000 4.00206e-15
  2 1467.15 0.00000 4.00206e-15
  3 1467.15 0.00000 1.53707e-14
  4 1467.15 0.00000 1.20700e-14
  5 1467.15 0.00000 2.65170e-14
  6 1467.15 0.00000 1.68754e-14
  7 1467.15 0.00000 -1.09408e-13
  8 1467.15 0.00000 -1.29078e-13
</Section>

newXOutput 45

<Section columns = "stress_xx | stress_yy | stress_xy">
  1 1500.04 0.00000 -6.92564e-14
  2 1500.04 0.00000 -5.72089e-14
  3 1500.04 0.00000 4.98042e-14
  4 1500.04 0.00000 7.25058e-14
  5 1500.04 0.00000 -3.25701e-13
  6 1500.04 0.00000 -3.11636e-13
  7 1500.04 0.00000 9.74662e-14
  8 1500.04 0.00000 8.52502e-14
</Section>

newXOutput 46

<Section columns = "stress_xx | stress_yy | stress_xy">
  1 1532.90 0.00000 1.11375e-14
  2 1532.90 0.00000 -2.57206e-16
  3 1532.90 0.00000 1.00189e-14
  4 1532.90 0.00000 9.06916e-16
  5 1532.90 0.00000 4.11681e-14
  6 1532.90 0.00000 2.93425e-14
  7 1532.90 0.00000 -1.01284e-13
  8 1532.90 0.00000 -1.32094e-13
</Section>

newXOutput 47

<Section columns = "stress_xx | stress_yy | stress_xy">
  1 1565.70 0.00000 -4.08631e-15
  2 1565.70 0.00000 -1.25730e-14
  3 1565.70 0.00000 9.36983e-15
  4 1565.70 0.00000 1.43375e-15
  5 1565.70 0.00000 -2.04479e-13
  6 1565.70 0.00000 -2.11209e-13
  7 1565.70 0.00000 -1.11553e-13
  8 1565.70 0.00000 -1.03632e-13
</Section>

newXOutput 48

<Section columns = "stress_xx | stress_yy | stress_xy">
  1 1598.46 0.00000 1.29408e-14
  2 1598.46 0.00000 3.76613e-14
  3 1598.46 0.00000 -4.25522e-15
  4 1598.46 0.00000 1.45320e-14
  5 1598.46 0.00000 7.41834e-14
  6 1598.46 0.00000 6.82045e-14
  7 1598.46 0.00000 -5.05632e-15
  8 1598.46 0.00000 -4.38688e-14
</Section>

newXOutput 49

<Section columns = "stress_xx | stress_yy | stress_xy">
  1 1631.17 0.00000 -9.28176e-15
  2 1631.17 0.00000 -1.15133e-14
  3 1631.17 0.00000 -1.78542e-13
  4 1631.17 0.00000 -1.82779e-13
  5 1631.17 0.00000 -8.85567e-14
  6 1631.17 0.00000 -1.01019e-13
  7 1631.17 0.00000 -1.74094e-13
  8 1631.17 0.00000 -2.06784e-13
</Section>

newXOutput 50

<Section columns = "stress_xx | stress_yy | stress_xy">
  1 1663.83 0.00000 4.75582e-14
  2 1663.83 0.00000 4.42346e-14
  3 1663.83 0.00000 7.13112e-14
  4 1663.83 0.00000 6.85415e-14
  5 1663.83 0.00000 1.91475e-13
  6 1663.83 0.00000 1.92860e-13
  7 1663.83 0.00000 -2.76569e-14
  8 1663.83 0.00000 -2.26715e-14
</Section>

newXOutput 51

<Section columns = "stress_xx | stress_yy | stress_xy">
  1 1696.45 0.00000 -7.95975e-14
  2 1696.45 0.00000 -7.02477e-14
  3 1696.45 0.00000 1.89752e-13
  4 1696.45 0.00000 2.05611e-13
  5 1696.45 0.00000 -3.18898e-13
  6 1696.45 0.00000 -3.06199e-13
  7 1696.45 0.00000 7.38792e-14
  8 1696.45 0.00000 9.09289e-14
</Section>

newXOutput 52

<Section columns = "stress_xx | stress_yy | stress_xy">
  1 1729.03 0.00000 5.57060e-14
  2 1729.03 0.00000 4.58771e-14
  3 1729.03 0.00000 2.00161e-13
  4 1729.03 0.00000 1.99069e-13
  5 1729.03 0.00000 7.49869e-14
  6 1729.03 0.00000 8.35037e-14
  7 1729.03 0.00000 -1.32023e-13
  8 1729.03 0.00000 -1.50689e-13
</Section>

newXOutput 53

<Section columns = "stress_xx | stress_yy | stress_xy">
  1 1761.56 0.00000 -2.48745e-15
  2 1761.56 0.00000 -1.44139e-14
  3 1761.56 0.00000 -2.95325e-14
  4 1761.56 0.00000 -3.45404e-14
  5 1761.56 0.00000 2.53438e-14
  6 1761.56 0.00000 2.36317e-14
  7 1761.56 0.00000 5.35110e-14
  8 1761.56 0.00000 3.41418e-14
</Section>

newXOutput 54

<Section columns = "stress_xx | stress_yy | stress_xy">
  1 1794.05 0.00000 -3.51987e-14
  2 1794.05 0.00000 2.10354e-14
  3 1794.05 0.00000 -1.49484e-13
  4 1794.05 0.00000 -1.18946e-13
  5 1794.05 0.00000 1.39922e-13
  6 1794.05 0.00000 1.10097e-13
  7 1794.05 0.00000 1.68518e-13
  8 1794.05 0.00000 7.59417e-14
</Section>

newXOutput 55

<Section columns = "stress_xx | stress_yy | stress_xy">
  1 1826.49 0.00000 1.14636e-14
  2 1826.49 0.00000 -3.33802e-14
  3 1826.49 0.00000 2.32075e-13
  4 1826.49 0.00000 1.90525e-13
  5 1826.49 0.00000 -3.51528e-13
  6 1826.49 0.00000 -3.85595e-13
  7 1826.49 0.00000 -1.59726e-13
  8 1826.49 0.00000 -1.94178e-13
</Section>

newXOutput 56

<Section columns = "stress_xx | stress_yy | stress_xy">
  1 1858.89 0.00000 -5.34199e-14
  2 1858.89 0.00000 -7.03897e-14
  3 1858.89 0.00000 8.25997e-14
  4 1858.89 0.00000 8.94713e-14
  5 1858.89 0.00000 3.84773e-13
  6 1858.89 0.00000 4.51342e-13
  7 1858.89 0.00000 -3.47528e-13
  8 1858.89 0.00000 -3.71613e-13
</Section>

newXOutput 57

<Section columns = "stress_xx | stress_yy | stress_xy">
  1 1891.25 0.00000 -6.59082e-16
  2 1891.25 0.00000 3.39560e-14
  3 1891.25 0.00000 -1.19856e-13
  4 1891.25 0.00000 -1.02286e-13
  5 1891.25 0.00000 -1.04456e-13
  6 1891.25 0.00000 -1.08025e-13
  7 1891.25 0.00000 -2.88760e-14
  8 1891.25 0.00000 -6.46691e-14
</Section>

newXOutput 58

<Section columns = "stress_xx | stress_yy | stress_xy">
  1 1923.56 0.00000 6.85246e-14
  2 1923.56 0.00000 8.21082e-14
  3 1923.56 0.00000 4.61495e-14
  4 1923.56 0.00000 5.03659e-14
  5 1923.56 0.00000 -2.38991e-13
  6 1923.56 0.00000 -2.54798e-13
  7 1923.56 0.00000 -6.81720e-14
  8 1923.56 0.00000 -1.08708e-13
</Section>

newXOutput 59

<Section columns = "stress_xx | stress_yy | stress_xy">
  1 1955.84 0.00000 -5.21644e-14
  2 1955.84 0.00000 -3.76458e-14
  3 1955.84 0.00000 1.10093e-13
  4 1955.84 0.00000 1.14257e-13
  5 1955.84 0.00000 3.50384e-13
  6 1955.84 0.00000 3.34057e-13
  7 1955.84 0.00000 3.30530e-14
  8 1955.84 0.00000 -7.48976e-15
</Section>

newXOutput 60

<Section columns = "stress_xx | stress_yy | stress_xy">
  1 1988.07 0.00000 3.89260e-14
  2 1988.07 0.00000 -1.14176e-14
  3 1988.07 0.00000 -6.56066e-14
  4 1988.07 0.00000 -8.97492e-14
  5 1988.07 0.00000 -1.77996e-14
  6 1988.07 0.00000 9.41970e-15
  7 1988.07 0.00000 -2.90615e-13
  8 1988.07 0.00000 -2.66412e-13
</Section>

newXOutput 61

<Section columns = "stress_xx | stress_yy | stress_xy">
  1 2020.27 0.00000 1.00737e-13
  2 2020.27 0.00000 1.03801e-13
  3 2020.27 0.00000 2.09398e-13
  4 2020.27 0.00000 2.09372e-13
  5 2020.27 0.00000 1.61332e-13
  6 2020.27 0.00000 1.53182e-13
  7 2020.27 0.00000 -1.95891e-13
  8 2020.27 0.00000 -2.23171e-13
</Section>

newXOutput 62

<Section columns = "stress_xx | stress_yy | stress_xy">
  1 2052.42 0.00000 -9.08530e-14
  2 2052.42 0.00000 -8.78125e-14
  3 2052.42 0.00000 -2.41169e-13
  4 2052.42 0.00000 -2.42230e-13
  5 2052.42 0.00000 -4.00903e-13
  6 2052.42 0.00000 -3.93210e-13
  7 2052.42 0.00000 -2.45738e-14
  8 2052.42 0.00000 -1.81308e-14
</Section>

newXOutput 63

<Section columns = "stress_xx | stress_yy | stress_xy">
  1 2084.53 0.00000 -4.38686e-14
  2 2084.53 0.00000 -3.18007e-14
  3 2084.53 0.00000 -1.09378e-13
  4 2084.53 0.00000 -1.17995e-13
  5 2084.53 0.00000 3.62598e-13
  6 2084.53 0.00000 3.11202e-13
  7 2084.53 0.00000 2.96683e-13
  8 2084.53 0.00000 1.99606e-13
</Section>

newXOutput 64

<Section columns = "stress_xx | stress_yy | stress_xy">
  1 2116.61 0.00000 4.44006e-14
  2 2116.61 0.00000 5.23832e-14
  3 2116.61 0.00000 1.42365e-13
  4 2116.61 0.00000 1.37785e-13
  5 2116.61 0.00000 -7.64787e-14
  6 2116.61 0.00000 -1.02770e-13
  7 2116.61 0.00000 -3.73994e-13
  8 2116.61 0.00000 -4.23556e-13
</Section>

newXOutput 65

<Section columns = "stress_xx | stress_yy | stress_xy">
  1 2148.64 0.00000 -3.95997e-15
  2 2148.64 0.00000 3.95997e-15
  3 2148.64 0.00000 6.79810e-14
  4 2148.64 0.00000 6.29196e-14
  5 2148.64 0.00000 7.07010e-14
  6 2148.64 0.00000 8.63683e-14
  7 2148.64 0.00000 -1.65709e-13
  8 2148.64 0.00000 9.56554e-14
</Section>

newXOutput 66

<Section columns = "stress_xx | stress_yy | stress_xy">
  1 2180.64 0.00000 -3.39567e-14
  2 2180.64 0.00000 -3.49389e-14
  3 2180.64 0.00000 -1.48562e-13
  4 2180.64 0.00000 -1.28848e-13
  5 2180.64 0.00000 1.65251e-13
  6 2180.64 0.00000 1.84504e-13
  7 2180.64 0.00000 6.32463e-16
  8 2180.64 0.00000 -1.54136e-14
</Section>

newXOutput 67

<Section columns = "stress_xx | stress_yy | stress_xy">
  1 2212.60 0.00000 -7.45729e-15
  2 2212.60 0.00000 -4.04303e-14
  3 2212.60 0.00000 2.85399e-13
  4 2212.60 0.00000 2.59503e-13
  5 2212.60 0.00000 -2.59005e-13
  6 2212.60 0.00000 -2.61825e-13
  7 2212.60 0.00000 -2.29879e-14
  8 2212.60 0.00000 -2.39591e-14
</Section>

newXOutput 68

<Section columns = "stress_xx | stress_yy | stress_xy">
  1 2244.52 0.00000 1.26422e-13
  2 2244.52 0.00000 1.24489e-13
  3 2244.52 0.00000 1.20072e-13
  4 2244.52 0.00000 1.16690e-13
  5 2244.52 0.00000 -9.88165e-14
  6 2244.52 0.00000 -9.57950e-14
  7 2244.52 0.00000 -2.72668e-13
  8 2244.52 0.00000 -2.90114e-13
</Section>

newXOutput 69

<Section columns = "stress_xx | stress_yy | stress_xy">
  1 2276.40 0.00000 -9.30350e-14
  2 2276.40 0.00000 -7.57786e-14
  3 2276.40 0.00000 -2.63569e-13
  4 2276.40 0.00000 -2.35828e-13
  5 2276.40 0.00000 -1.39342e-13
  6 2276.40 0.00000 -7.91757e-14
  7 2276.40 0.00000 2.56000e-13
  8 2276.40 0.00000 2.10575e-13
</Section>

newXOutput 70

<Section columns = "stress_xx | stress_yy | stress_xy">
  1 2308.25 0.00000 -2.73705e-14
  2 2308.25 0.00000 -1.21565e-14
  3 2308.25 0.00000 -1.97268e-14
  4 2308.25 0.00000 -1.51904e-14
  5 2308.25 0.00000 1.30100e-13
  6 2308.25 0.00000 1.16611e-13
  7 2308.25 0.00000 -2.13747e-13
  8 2308.25 0.00000 -2.20403e-13
</Section>

newXOutput 71

<Section columns = "stress_xx | stress_yy | stress_xy">
  1 2340.06 0.00000 -1.27899e-14
  2 2340.06 0.00000 1.35595e-15
  3 2340.06 0.00000 3.95597e-14
  4 2340.06 0.00000 4.21495e-14
  5 2340.06 0.00000 -2.62907e-14
  6 2340.06 0.00000 -6.69746e-15
  7 2340.06 0.00000 -3.36944e-13
  8 2340.06 0.00000 -7.59348e-14
</Section>

newXOutput 72

<Section columns = "stress_xx | stress_yy | stress_xy">
  1 2371.84 0.00000 2.81065e-14
  2 2371.84 0.00000 7.53111e-15
  3 2371.84 0.00000 8.67583e-14
  4 2371.84 0.00000 9.32600e-14
  5 2371.84 0.00000 3.84331e-14
  6 2371.84 0.00000 1.10482e-13
  7 2371.84 0.00000 1.71644e-13
  8 2371.84 0.00000 1.54358e-13
</Section>

newXOutput 73

<Section columns = "stress_xx | stress_yy | stress_xy">
  1 2403.58 0.00000 3.98046e-14
  2 2403.58 0.00000 4.72241e-14
  3 2403.58 0.00000 -3.69026e-14
  4 2403.58 0.00000 -3.99672e-14
  5 2403.58 0.00000 -2.57645e-13
  6 2403.58 0.00000 -2.80436e-13
  7 2403.58 0.00000 -5.05339e-13
  8 2403.58 0.00000 -5.51584e-13
</Section>

newXOutput 74

<Section columns = "stress_xx | stress_yy | stress_xy">
  1 2435.29 0.00000 -6.24723e-14
  2 2435.29 0.00000 -5.69545e-14
  3 2435.29 0.00000 -2.35508e-13
  4 2435.29 0.00000 -2.38111e-13
  5 2435.29 0.00000 3.65676e-13
  6 2435.29 0.00000 3.19246e-13
  7 2435.29 0.00000 2.72547e-13
  8 2435.29 0.00000 1.76188e-13
</Section>

newXOutput 75

<Section columns = "stress_xx | stress_yy | stress_xy">
  1 2466.96 0.00000 3.02514e-14
  2 2466.96 0.00000 2.66041e-14
  3 2466.96 0.00000 -5.41626e-14
  4 2466.96 0.00000 -5.35759e-14
  5 2466.96 0.00000 -1.19922e-16
  6 2466.96 0.00000 -9.17075e-16
  7 2466.96 0.00000 3.45221e-14
  8 2466.96 0.00000 1.38747e-14
</Section>

newXOutput 76

<Section columns = "stress_xx | stress_yy | stress_xy">
  1 2498.60 0.00000 8.73303e-15
  2 2498.60 0.00000 6.92500e-15
  3 2498.60 0.00000 7.23527e-14
  4 2498.60 0.00000 7.15541e-14
  5 2498.60 0.00000 -4.70647e-14
  6 2498.60 0.00000 -5.25143e-14
  7 2498.60 0.00000 -1.61305e-13
  8 2498.60 0.00000 -1.86658e-13
</Section>

newXOutput 77

<Section columns = "stress_xx | stress_yy | stress_xy">
  1 2530.21 0.00000 -1.22425e-15
  2 2530.21 0.00000 -3.28037e-16
  3 2530.21 0.00000 -6.28978e-14
  4 2530.21 0.00000 -6.41623e-14
  5 2530.21 0.00000 1.24985e-13
  6 2530.21 0.00000 1.17649e-13
  7 2530.21 0.00000 -2.47914e-13
  8 2530.21 0.00000 -2.73414e-13
</Section>

newXOutput 78

<Section columns = "stress_xx | stress_yy | stress_xy">
  1 2561.78 0.00000 -4.76726e-15
  2 2561.78 0.00000 3.22848e-15
  3 2561.78 0.00000 -3.07009e-14
  4 2561.78 0.00000 -5.06094e-14
  5 2561.78 0.00000 -1.20253e-13
  6 2561.78 0.00000 -1.60956e-13
  7 2561.78 0.00000 -2.13803e-13
  8 2561.78 0.00000 -2.61662e-13
</Section>

newXOutput 79

<Section columns = "stress_xx | stress_yy | stress_xy">
  1 2593.32 0.00000 -4.18862e-14
  2 2593.32 0.00000 -4.01249e-14
  3 2593.32 0.00000 -1.45599e-13
  4 2593.32 0.00000 -1.45130e-13
  5 2593.32 0.00000 -4.53967e-13
  6 2593.32 0.00000 -4.62780e-13
  7 2593.32 0.00000 -4.56269e-14
  8 2593.32 0.00000 -7.67074e-14
</Section>

newXOutput 80

<Section columns = "stress_xx | stress_yy | stress_xy">
  1 2624.82 0.00000 -1.37701e-13
  2 2624.82 0.00000 -1.39446e-13
  3 2624.82 0.00000 -1.61959e-13
  4 2624.82 0.00000 -1.60647e-13
  5 2624.82 0.00000 1.33095e-13
  6 2624.82 0.00000 1.69984e-13
  7 2624.82 0.00000 -8.78646e-14
  8 2624.82 0.00000 1.95874e-13
</Section>

newXOutput 81

<Section columns = "stress_xx | stress_yy | stress_xy">
  1 2656.30 0.00000 3.00502e-14
  2 2656.30 0.00000 3.43754e-14
  3 2656.30 0.00000 1.11696e-13
  4 2656.30 0.00000 1.06916e-13
  5 2656.30 0.00000 1.96977e-13
  6 2656.30 0.00000 1.64242e-13
  7 2656.30 0.00000 -2.77634e-15
  8 2656.30 0.00000 -6.86622e-14
</Section>

newXOutput 82

<Section columns = "stress_xx | stress_yy | stress_xy">
  1 2687.74 0.00000 9.46857e-14
  2 2687.74 0.00000 6.01527e-14
  3 2687.74 0.00000 5.28276e-14
  4 2687.74 0.00000 3.67992e-14
  5 2687.74 0.00000 -1.99106e-13
  6 2687.74 0.00000 -2.07692e-13
  7 2687.74 0.00000 -3.64841e-13
  8 2687.74 0.00000 -3.98800e-13
</Section>

newXOutput 83

<Section columns = "stress_xx | stress_yy | stress_xy">
  1 2719.16 0.00000 -2.11364e-14
  2 2719.16 0.00000 -1.85881e-14
  3 2719.16 0.00000 -5.05901e-14
  4 2719.16 0.00000 -5.02387e-14
  5 2719.16 0.00000 3.64410e-13
  6 2719.16 0.00000 3.52780e-13
  7 2719.16 0.00000 3.73429e-13
  8 2719.16 0.00000 3.37691e-13
</Section>

newXOutput 84

<Section columns = "stress_xx | stress_yy | stress_xy">
  1 2750.54 0.00000 -3.84359e-14
  2 2750.54 0.00000 -3.59110e-14
  3 2750.54 0.00000 4.04914e-14
  4 2750.54 0.00000 3.53426e-14
  5 2750.54 0.00000 -2.39918e-14
  6 2750.54 0.00000 -6.30829e-15
  7 2750.54 0.00000 -3.86676e-13
  8 2750.54 0.00000 -1.23431e-13
</Section>

newXOutput 85

<Section columns = "stress_xx | stress_yy | stress_xy">
  1 2781.89 0.00000 -1.04373e-13
  2 2781.89 0.00000 -1.08543e-13
  3 2781.89 0.00000 -1.50803e-13
  4 2781.89 0.00000 -1.51345e-13
  5 2781.89 0.00000 -2.64680e-13
  6 2781.89 0.00000 -2.79982e-13
  7 2781.89 0.00000 -4.72154e-13
  8 2781.89 0.00000 -5.48894e-13
</Section>

newXOutput 86

<Section columns = "stress_xx | stress_yy | stress_xy">
  1 2813.22 0.00000 2.33759e-14
  2 2813.22 0.00000 2.00716e-14
  3 2813.22 0.00000 -3.20638e-14
  4 2813.22 0.00000 -2.93228e-14
  5 2813.22 0.00000 6.75529e-13
  6 2813.22 0.00000 6.67484e-13
  7 2813.22 0.00000 3.13882e-13
  8 2813.22 0.00000 2.74644e-13
</Section>

newXOutput 87

<Section columns = "stress_xx | stress_yy | stress_xy">
  1 2844.51 0.00000 1.31747e-13
  2 2844.51 0.00000 1.26019e-13
  3 2844.51 0.00000 3.48893e-13
  4 2844.51 0.00000 3.43807e-13
  5 2844.51 0.00000 -5.71362e-14
  6 2844.51 0.00000 -7.38527e-14
  7 2844.51 0.00000 -4.61487e-13
  8 2844.51 0.00000 -5.04852e-13
</Section>

newXOutput 88

<Section columns = "stress_xx | stress_yy | stress_xy">
  1 2875.78 0.00000 -8.32175e-14
  2 2875.78 0.00000 -8.24070e-14
  3 2875.78 0.00000 -9.66015e-14
  4 2875.78 0.00000 -9.92347e-14
  5 2875.78 0.00000 6.50202e-13
  6 2875.78 0.00000 6.30245e-13
  7 2875.78 0.00000 5.32894e-13
  8 2875.78 0.00000 4.84670e-13
</Section>

newXOutput 89

<Section columns = "stress_xx | stress_yy | stress_xy">
  1 2907.01 0.00000 -4.98321e-14
  2 2907.01 0.00000 -5.30429e-14
  3 2907.01 0.00000 -2.42162e-13
  4 2907.01 0.00000 -2.47608e-13
  5 2907.01 0.00000 3.08417e-14
  6 2907.01 0.00000 1.13193e-14
  7 2907.01 0.00000 -3.57180e-13
  8 2907.01 0.00000 -4.02947e-13
</Section>

newXOutput 90

<Section columns = "stress_xx | stress_yy | stress_xy">
  1 2938.22 0.00000 -3.71174e-14
  2 2938.22 0.00000 -5.54008e-14
  3 2938.22 0.00000 -2.60275e-13
  4 2938.22 0.00000 -2.33279e-13
  5 2938.22 0.00000 -1.37644e-13
  6 2938.22 0.00000 2.21646e-14
  7 2938.22 0.00000 -3.65059e-13
  8 2938.22 0.00000 -3.19521e-13
</Section>

newXOutput 91

<Section columns = "stress_xx | stress_yy | stress_xy">
  1 2969.40 0.00000 5.25693e-14
  2 2969.40 0.00000 9.56208e-14
  3 2969.40 0.00000 1.93353e-13
  4 2969.40 0.00000 2.08810e-13
  5 2969.40 0.00000 6.82457e-13
  6 2969.40 0.00000 6.56451e-13
  7 2969.40 0.00000 1.41690e-13
  8 2969.40 0.00000 1.30670e-13
</Section>

newXOutput 92

<Section columns = "stress_xx | stress_yy | stress_xy">
  1 3000.56 0.00000 -9.29884e-14
  2 3000.56 0.00000 -9.45472e-14
  3 3000.56 0.00000 -7.89368e-14
  4 3000.56 0.00000 -8.50022e-14
  5 3000.56 0.00000 -5.08833e-13
  6 3000.56 0.00000 -5.28561e-13
  7 3000.56 0.00000 -3.91899e-13
  8 3000.56 0.00000 -3.91899e-13
</Section>

newXOutput 93

<Section columns = "stress_xx | stress_yy | stress_xy">
  1 3031.69 0.00000 3.36524e-14
  2 3031.69 0.00000 5.10382e-15
  3 3031.69 0.00000 -6.72356e-14
  4 3031.69 0.00000 -8.15099e-14
  5 3031.69 0.00000 1.51657e-13
  6 3031.69 0.00000 1.54963e-13
  7 3031.69 0.00000 4.96622e-14
  8 3031.69 0.00000 -1.54862e-15
</Section>

newXOutput 94

<Section columns = "stress_xx | stress_yy | stress_xy">
  1 3062.79 0.00000 -2.28793e-14
  2 3062.79 0.00000 -2.25664e-15
  3 3062.79 0.00000 -1.83556e-14
  4 3062.79 0.00000 -3.08956e-14
  5 3062.79 0.00000 -7.70366e-14
  6 3062.79 0.00000 -8.42079e-14
  7 3062.79 0.00000 -3.45657e-13
  8 3062.79 0.00000 -5.38401e-14
</Section>

newXOutput 95

<Section columns = "stress_xx | stress_yy | stress_xy">
  1 3093.86 0.00000 8.26193e-15
  2 3093.86 0.00000 2.21378e-15
  3 3093.86 0.00000 3.11204e-14
  4 3093.86 0.00000 2.20388e-14
  5 3093.86 0.00000 3.61367e-14
  6 3093.86 0.00000 1.20625e-14
  7 3093.86 0.00000 -2.43181e-13
  8 3093.86 0.00000 -3.08182e-13
</Section>

newXOutput 96

<Section columns = "stress_xx | stress_yy | stress_xy">
  1 3124.91 0.00000 1.08994e-13
  2 3124.91 0.00000 1.10490e-13
  3 3124.91 0.00000 3.42826e-13
  4 3124.91 0.00000 3.41260e-13
  5 3124.91 0.00000 1.20911e-13
  6 3124.91 0.00000 9.01178e-14
  7 3124.91 0.00000 6.12163e-15
  8 3124.91 0.00000 -7.98340e-14
</Section>

newXOutput 97

<Section columns = "stress_xx | stress_yy | stress_xy">
  1 3155.94 0.00000 3.03445e-15
  2 3155.94 0.00000 8.13077e-16
  3 3155.94 0.00000 -1.62867e-14
  4 3155.94 0.00000 -2.04882e-14
  5 3155.94 0.00000 2.30142e-13
  6 3155.94 0.00000 2.10687e-13
  7 3155.94 0.00000 -9.67849e-14
  8 3155.94 0.00000 -1.00487e-13
</Section>

newXOutput 98

<Section columns = "stress_xx | stress_yy | stress_xy">
  1 3186.94 0.00000 3.89979e-14
  2 3186.94 0.00000 3.89979e-14
  3 3186.94 0.00000 -2.28308e-13
  4 3186.94 0.00000 -2.30695e-13
  5 3186.94 0.00000 -6.35645e-13
  6 3186.94 0.00000 -6.55491e-13
  7 3186.94 0.00000 -7.14716e-13
  8 3186.94 0.00000 -7.20577e-13
</Section>

newXOutput 99

<Section columns = "stress_xx | stress_yy | stress_xy">
  1 3217.91 0.00000 1.62497e-15
  2 3217.91 0.00000 -1.79471e-14
  3 3217.91 0.00000 4.04150e-15
  4 3217.91 0.00000 -1.11812e-14
  5 3217.91 0.00000 -2.37457e-13
  6 3217.91 0.00000 -2.43256e-13
  7 3217.91 0.00000 -3.30237e-13
  8 3217.91 0.00000 -3.30962e-13
</Section>

newXOutput 100

<Section columns = "stress_xx | stress_yy | stress_xy">
  1 3248.87 0.00000 -4.92321e-16
  2 3248.87 0.00000 -2.55912e-14
  3 3248.87 0.00000 1.46205e-13
  4 3248.87 0.00000 1.28327e-13
  5 3248.87 0.00000 6.29287e-13
  6 3248.87 0.00000 6.21965e-13
  7 3248.87 0.00000 1.98553e-13
  8 3248.87 0.00000 1.65450e-13
</Section>

newXOutput 101

<Section columns = "stress_xx | stress_yy | stress_xy">
  1 3279.79 0.00000 -1.14845e-13
  2 3279.79 0.00000 -1.38963e-13
  3 3279.79 0.00000 -2.87144e-13
  4 3279.79 0.00000 -3.02764e-13
  5 3279.79 0.00000 -8.83580e-14
  6 3279.79 0.00000 -1.11132e-13
  7 3279.79 0.00000 -3.33748e-13
  8 3279.79 0.00000 -4.01320e-13
</Section>

newXOutput 102

<Section columns = "stress_xx | stress_yy | stress_xy">
  1 3310.70 0.00000 -3.86070e-14
  2 3310.70 0.00000 -4.14132e-14
  3 3310.70 0.00000 -2.27331e-13
  4 3310.70 0.00000 -2.32671e-13
  5 3310.70 0.00000 -2.88375e-15
  6 3310.70 0.00000 -4.62572e-14
  7 3310.70 0.00000 -1.56305e-13
  8 3310.70 0.00000 -2.64356e-13
</Section>

newXOutput 103

<Section columns = "stress_xx | stress_yy | stress_xy">
  1 3341.58 0.00000 7.09437e-16
  2 3341.58 0.00000 1.56746e-17
  3 3341.58 0.00000 -3.03213e-13
  4 3341.58 0.00000 -3.07518e-13
  5 3341.58 0.00000 -4.69574e-13
  6 3341.58 0.00000 -4.90565e-13
  7 3341.58 0.00000 -4.22504e-13
  8 3341.58 0.00000 -4.27361e-13
</Section>

newXOutput 104

<Section columns = "stress_xx | stress_yy | stress_xy">
  1 3372.44 0.00000 1.04423e-14
  2 3372.44 0.00000 9.75629e-15
  3 3372.44 0.00000 9.05840e-14
  4 3372.44 0.00000 9.05840e-14
  5 3372.44 0.00000 1.52329e-13
  6 3372.44 0.00000 1.51986e-13
  7 3372.44 0.00000 1.33933e-13
  8 3372.44 0.00000 1.32561e-13
</Section>

newXOutput 105

<Section columns = "stress_xx | stress_yy | stress_xy">
  1 3403.28 0.00000 -1.16495e-13
  2 3403.28 0.00000 -1.29381e-13
  3 3403.28 0.00000 -2.49727e-13
  4 3403.28 0.00000 -2.59492e-13
  5 3403.28 0.00000 1.97374e-14
  6 3403.28 0.00000 -3.51117e-15
  7 3403.28 0.00000 -1.96714e-13
  8 3403.28 0.00000 -2.65839e-13
</Section>

newXOutput 106

<Section columns = "stress_xx | stress_yy | stress_xy">
  1 3434.10 0.00000 9.65759e-14
  2 3434.10 0.00000 4.96787e-14
  3 3434.10 0.00000 -8.05750e-14
  4 3434.10 0.00000 -1.01007e-13
  5 3434.10 0.00000 2.41781e-13
  6 3434.10 0.00000 2.54503e-13
  7 3434.10 0.00000 -2.44586e-13
  8 3434.10 0.00000 -2.83788e-13
</Section>

newXOutput 107

<Section columns = "stress_xx | stress_yy | stress_xy">
  1 3464.90 0.00000 -4.49182e-14
  2 3464.90 0.00000 -1.08061e-13
  3 3464.90 0.00000 -9.46150e-14
  4 3464.90 0.00000 -1.24199e-13
  5 3464.90 0.00000 -1.04724e-12
  6 3464.90 0.00000 -1.00806e-12
  7 3464.90 0.00000 -7.67782e-13
  8 3464.90 0.00000 -5.17379e-13
</Section>

newXOutput 108

<Section columns = "stress_xx | stress_yy | stress_xy">
  1 3495.67 0.00000 -4.38449e-14
  2 3495.67 0.00000 -6.67642e-14
  3 3495.67 0.00000 -3.01999e-13
  4 3495.67 0.00000 -3.59183e-13
  5 3495.67 0.00000 9.09843e-13
  6 3495.67 0.00000 8.36718e-13
  7 3495.67 0.00000 7.97817e-14
  8 3495.67 0.00000 -4.39259e-15
</Section>

newXOutput 109

<Section columns = "stress_xx | stress_yy | stress_xy">
  1 3526.43 0.00000 1.28927e-13
  2 3526.43 0.00000 1.30221e-13
  3 3526.43 0.00000 2.42625e-13
  4 3526.43 0.00000 2.59153e-13
  5 3526.43 0.00000 1.12453e-13
  6 3526.43 0.00000 1.04486e-13
  7 3526.43 0.00000 2.65273e-13
  8 3526.43 0.00000 1.88171e-13
</Section>

newXOutput 110

<Section columns = "stress_xx | stress_yy | stress_xy">
  1 3557.16 0.00000 -1.44247e-13
  2 3557.16 0.00000 -1.41051e-13
  3 3557.16 0.00000 -8.82830e-14
  4 3557.16 0.00000 -8.82371e-14
  5 3557.16 0.00000 5.00157e-13
  6 3557.16 0.00000 4.75666e-13
  7 3557.16 0.00000 1.04027e-13
  8 3557.16 0.00000 2.87116e-14
</Section>

newXOutput 111

<Section columns = "stress_xx | stress_yy | stress_xy">
  1 3587.88 0.00000 -1.83297e-14
  2 3587.88 0.00000 -6.69458e-14
  3 3587.88 0.00000 -4.93603e-13
  4 3587.88 0.00000 -5.20462e-13
  5 3587.88 0.00000 -2.41161e-13
  6 3587.88 0.00000 -2.62240e-13
  7 3587.88 0.00000 -1.59373e-13
  8 3587.88 0.00000 -1.48007e-13
</Section>

newXOutput 112

<Section columns = "stress_xx | stress_yy | stress_xy">
  1 3618.57 0.00000 1.00662e-13
  2 3618.57 0.00000 9.38019e-14
  3 3618.57 0.00000 6.99499e-13
  4 3618.57 0.00000 7.27232e-13
  5 3618.57 0.00000 -3.19008e-13
  6 3618.57 0.00000 -2.48341e-13
  7 3618.57 0.00000 -9.34026e-13
  8 3618.57 0.00000 -8.64491e-13
</Section>

newXOutput 113

<Section columns = "stress_xx | stress_yy | stress_xy">
  1 3649.25 0.00000 1.80692e-13
  2 3649.25 0.00000 1.78228e-13
  3 3649.25 0.00000 4.56949e-13
  4 3649.25 0.00000 4.51542e-13
  5 3649.25 0.00000 3.09384e-13
  6 3649.25 0.00000 3.68289e-13
  7 3649.25 0.00000 -2.08087e-13
  8 3649.25 0.00000 3.61226e-13
</Section>

newXOutput 114

<Section columns = "stress_xx | stress_yy | stress_xy">
  1 3679.91 0.00000 -3.20376e-14
  2 3679.91 0.00000 -1.19566e-13
  3 3679.91 0.00000 -2.10567e-14
  4 3679.91 0.00000 -7.57070e-14
  5 3679.91 0.00000 4.24883e-14
  6 3679.91 0.00000 8.41828e-15
  7 3679.91 0.00000 -1.82393e-14
  8 3679.91 0.00000 -9.41860e-14
</Section>

newXOutput 115

<Section columns = "stress_xx | stress_yy | stress_xy">
  1 3710.55 0.00000 1.53448e-14
  2 3710.55 0.00000 -8.06664e-15
  3 3710.55 0.00000 4.55375e-14
  4 3710.55 0.00000 3.05129e-14
  5 3710.55 0.00000 8.02345e-14
  6 3710.55 0.00000 1.51193e-13
  7 3710.55 0.00000 -6.24671e-13
  8 3710.55 0.00000 -3.18921e-14
</Section>

newXOutput 116

<Section columns = "stress_xx | stress_yy | stress_xy">
  1 3741.18 0.00000 -1.16894e-14
  2 3741.18 0.00000 -9.45089e-14
  3 3741.18 0.00000 -1.83268e-13
  4 3741.18 0.00000 -2.26456e-13
  5 3741.18 0.00000 -3.15075e-15
  6 3741.18 0.00000 -1.34113e-14
  7 3741.18 0.00000 -7.00306e-13
  8 3741.18 0.00000 -7.76574e-13
</Section>

newXOutput 117

<Section columns = "stress_xx | stress_yy | stress_xy">
  1 3771.78 0.00000 1.20480e-13
  2 3771.78 0.00000 1.23988e-13
  3 3771.78 0.00000 -2.81313e-14
  4 3771.78 0.00000 1.69177e-14
  5 3771.78 0.00000 -1.54387e-13
  6 3771.78 0.00000 -4.73432e-14
  7 3771.78 0.00000 7.86943e-14
  8 3771.78 0.00000 -6.09970e-14
</Section>

newXOutput 118

<Section columns = "stress_xx | stress_yy | stress_xy">
  1 3802.37 0.00000 8.79063e-14
  2 3802.37 0.00000 1.18851e-14
  3 3802.37 0.00000 1.10517e-13
  4 3802.37 0.00000 1.05394e-13
  5 3802.37 0.00000 -7.63831e-14
  6 3802.37 0.00000 4.73539e-14
  7 3802.37 0.00000 -2.34203e-14
  8 3802.37 0.00000 -1.09245e-13
</Section>

newXOutput 119

<Section columns = "stress_xx | stress_yy | stress_xy">
  1 3832.95 0.00000 1.25233e-13
  2 3832.95 0.00000 1.17266e-13
  3 3832.95 0.00000 3.66382e-13
  4 3832.95 0.00000 3.17873e-13
  5 3832.95 0.00000 1.69198e-13
  6 3832.95 0.00000 9.83292e-14
  7 3832.95 0.00000 -1.76929e-13
  8 3832.95 0.00000 -2.59378e-13
</Section>

newXOutput 120

<Section columns = "stress_xx | stress_yy | stress_xy">
  1 3863.50 0.00000 -1.61741e-13
  2 3863.50 0.00000 -1.67354e-13
  3 3863.50 0.00000 -2.85892e-13
  4 3863.50 0.00000 -2.90382e-13
  5 3863.50 0.00000 1.36222e-14
  6 3863.50 0.00000 4.69562e-16
  7 3863.50 0.00000 -5.65209e-13
  8 3863.50 0.00000 -6.47747e-13
</Section>

newXOutput 121

<Section columns = "stress_xx | stress_yy | stress_xy">
  1 3894.04 0.00000 -5.86586e-14
  2 3894.04 0.00000 -1.00333e-13
  3 3894.04 0.00000 -2.84393e-13
  4 3894.04 0.00000 -3.09031e-13
  5 3894.04 0.00000 -1.41364e-13
  6 3894.04 0.00000 -1.64917e-13
  7 3894.04 0.00000 -4.55373e-13
  8 3894.04 0.00000 -5.24715e-13
</Section>

newXOutput 122

<Section columns = "stress_xx | stress_yy | stress_xy">
  1 3924.57 0.00000 1.20078e-13
  2 3924.57 0.00000 1.10256e-13
  3 3924.57 0.00000 1.81914e-13
  4 3924.57 0.00000 1.70250e-13
  5 3924.57 0.00000 2.99751e-13
  6 3924.57 0.00000 2.62562e-13
  7 3924.57 0.00000 4.36318e-13
  8 3924.57 0.00000 3.64516e-13
</Section>

newXOutput 123

<Section columns = "stress_xx | stress_yy | stress_xy">
  1 3955.08 0.00000 -9.35306e-14
  2 3955.08 0.00000 -1.02136e-13
  3 3955.08 0.00000 -9.39596e-14
  4 3955.08 0.00000 -1.03737e-13
  5 3955.08 0.00000 -1.54391e-13
  6 3955.08 0.00000 -1.80933e-13
  7 3955.08 0.00000 -7.43493e-13
  8 3955.08 0.00000 -8.15542e-13
</Section>

newXOutput 124

<Section columns = "stress_xx | stress_yy | stress_xy">
  1 3985.58 0.00000 9.79099e-14
  2 3985.58 0.00000 9.47297e-14
  3 3985.58 0.00000 7.21805e-14
  4 3985.58 0.00000 6.56384e-14
  5 3985.58 0.00000 4.17490e-13
  6 3985.58 0.00000 3.89777e-13
  7 3985.58 0.00000 6.73799e-13
  8 3985.58 0.00000 5.98322e-13
</Section>

newXOutput 125

<Section columns = "stress_xx | stress_yy | stress_xy">
  1 4016.06 0.00000 -1.58751e-13
  2 4016.06 0.00000 -1.66062e-13
  3 4016.06 0.00000 -4.03505e-13
  4 4016.06 0.00000 -4.05072e-13
  5 4016.06 0.00000 -3.56368e-13
  6 4016.06 0.00000 -3.50102e-13
  7 4016.06 0.00000 -8.43752e-13
  8 4016.06 0.00000 -8.35397e-13
</Section>

newXOutput 126

<Section columns = "stress_xx | stress_yy | stress_xy">
  1 4046.53 0.00000 2.25263e-14
  2 4046.53 0.00000 1.32671e-14
  3 4046.53 0.00000 4.86331e-13
  4 4046.53 0.00000 4.76719e-13
  5 4046.53 0.00000 2.71967e-13
  6 4046.53 0.00000 3.40428e-13
  7 4046.53 0.00000 -3.75379e-13
  8 4046.53 0.00000 2.82093e-13
</Section>

newXOutput 127

<Section columns = "stress_xx | stress_yy | stress_xy">
  1 4076.99 0.00000 1.51576e-13
  2 4076.99 0.00000 1.48537e-13
  3 4076.99 0.00000 9.60768e-14
  4 4076.99 0.00000 9.00661e-14
  5 4076.99 0.00000 -5.06436e-13
  6 4076.99 0.00000 -5.60302e-13
  7 4076.99 0.00000 -6.25711e-13
  8 4076.99 0.00000 -6.94388e-13
</Section>

newXOutput 128

<Section columns = "stress_xx | stress_yy | stress_xy">
  1 4107.43 0.00000 -1.49085e-13
  2 4107.43 0.00000 -1.53075e-13
  3 4107.43 0.00000 -8.81353e-14
  4 4107.43 0.00000 -9.46444e-14
  5 4107.43 0.00000 1.22386e-13
  6 4107.43 0.00000 9.07939e-14
  7 4107.43 0.00000 -5.20356e-14
  8 4107.43 0.00000 -1.36308e-13
</Section>

newXOutput 129

<Section columns = "stress_xx | stress_yy | stress_xy">
  1 4137.86 0.00000 3.78121e-14
  2 4137.86 0.00000 2.99573e-14
  3 4137.86 0.00000 -8.63821e-14
  4 4137.86 0.00000 -9.52975e-15
  5 4137.86 0.00000 5.99454e-14
  6 4137.86 0.00000 3.64215e-13
  7 4137.86 0.00000 -5.84697e-13
  8 4137.86 0.00000 7.33804e-14
</Section>

newXOutput 130

<Section columns = "stress_xx | stress_yy | stress_xy">
  1 4168.27 0.00000 3.05768e-16
  2 4168.27 0.00000 -3.63775e-14
  3 4168.27 0.00000 -2.74034e-13
  4 4168.27 0.00000 -2.62668e-13
  5 4168.27 0.00000 -6.61435e-13
  6 4168.27 0.00000 -6.61262e-13
  7 4168.27 0.00000 -6.28634e-13
  8 4168.27 0.00000 -7.17901e-13
</Section>

newXOutput 131

<Section columns = "stress_xx | stress_yy | stress_xy">
  1 4198.68 0.00000 -7.97702e-15
  2 4198.68 0.00000 -1.17791e-14
  3 4198.68 0.00000 -2.84307e-14
  4 4198.68 0.00000 1.58444e-14
  5 4198.68 0.00000 -2.48789e-14
  6 4198.68 0.00000 2.00955e-13
  7 4198.68 0.00000 -1.96351e-13
  8 4198.68 0.00000 3.44408e-13
</Section>

newXOutput 132

<Section columns = "stress_xx | stress_yy | stress_xy">
  1 4229.07 0.00000 -4.01441e-15
  2 4229.07 0.00000 -1.05583e-14
  3 4229.07 0.00000 7.66688e-14
  4 4229.07 0.00000 1.48750e-13
  5 4229.07 0.00000 2.36101e-13
  6 4229.07 0.00000 4.06827e-13
  7 4229.07 0.00000 -7.29036e-13
  8 4229.07 0.00000 -8.10836e-13
</Section>

newXOutput 133

<Section columns = "stress_xx | stress_yy | stress_xy">
  1 4259.46 0.00000 -5.09332e-14
  2 4259.46 0.00000 -1.24843e-13
  3 4259.46 0.00000 -1.29892e-13
  4 4259.46 0.00000 -1.67766e-13
  5 4259.46 0.00000 -4.92978e-13
  6 4259.46 0.00000 -5.21866e-13
  7 4259.46 0.00000 -6.39462e-14
  8 4259.46 0.00000 -1.80535e-13
</Section>

newXOutput 134

<Section columns = "stress_xx | stress_yy | stress_xy">
  1 4289.83 0.00000 1.55037e-13
  2 4289.83 0.00000 1.50519e-13
  3 4289.83 0.00000 4.15159e-13
  4 4289.83 0.00000 4.50450e-13
  5 4289.83 0.00000 -7.29088e-14
  6 4289.83 0.00000 5.93648e-14
  7 4289.83 0.00000 -4.47737e-13
  8 4289.83 0.00000 -5.31610e-13
</Section>

newXOutput 135

<Section columns = "stress_xx | stress_yy | stress_xy">
  1 4320.19 0.00000 1.99632e-14
  2 4320.19 0.00000 1.99632e-14
  3 4320.19 0.00000 7.23409e-14
  4 4320.19 0.00000 1.00481e-13
  5 4320.19 0.00000 4.39825e-13
  6 4320.19 0.00000 4.41627e-13
  7 4320.19 0.00000 -1.51692e-13
  8 4320.19 0.00000 -2.34780e-13
</Section>

newXOutput 136

<Section columns = "stress_xx | stress_yy | stress_xy">
  1 4350.54 0.00000 -1.50424e-13
  2 4350.54 0.00000 -1.42575e-13
  3 4350.54 0.00000 -4.45319e-13
  4 4350.54 0.00000 -4.75521e-13
  5 4350.54 0.00000 4.95031e-13
  6 4350.54 0.00000 4.50629e-13
  7 4350.54 0.00000 -4.54856e-13
  8 4350.54 0.00000 -5.36320e-13
</Section>

newXOutput 137

<Section columns = "stress_xx | stress_yy | stress_xy">
  1 4380.88 0.00000 3.91258e-14
  2 4380.88 0.00000 6.30726e-15
  3 4380.88 0.00000 2.67133e-13
  4 4380.88 0.00000 2.45142e-13
  5 4380.88 0.00000 2.61676e-13
  6 4380.88 0.00000 3.21561e-13
  7 4380.88 0.00000 -2.26960e-13
  8 4380.88 0.00000 3.61487e-13
</Section>

newXOutput 138

<Section columns = "stress_xx | stress_yy | stress_xy">
  1 4411.22 0.00000 -7.17189e-14
  2 4411.22 0.00000 -7.59221e-14
  3 4411.22 0.00000 -3.93027e-13
  4 4411.22 0.00000 -4.02400e-13
  5 4411.22 0.00000 -7.67300e-13
  6 4411.22 0.00000 -8.04807e-13
  7 4411.22 0.00000 -1.43659e-13
  8 4411.22 0.00000 -2.34677e-13
</Section>

newXOutput 139

<Section columns = "stress_xx | stress_yy | stress_xy">
  1 4412.38 0.00000 0.406732
  2 4412.38 0.00000 -0.406732
  3 4407.44 0.00000 0.203511
  4 4407.44 0.00000 -0.203511
  5 4407.44 0.00000 -0.203511
  6 4407.44 0.00000 0.203511
  7 4412.38 0.00000 -0.406732
  8 4412.38 0.00000 0.406732
</Section>

newXOutput 140

<Section columns = "stress_xx | stress_yy | stress_xy">
  1 4404.77 0.00000 0.870460
  2 4404.77 0.00000 -0.870460
  3 4388.80 0.00000 0.435896
  4 4388.80 0.00000 -0.435896
  5 4388.80 0.00000 -0.435896
  6 4388.80 0.00000 0.435896
  7 4404.77 0.00000 -0.870460
  8 4404.77 0.00000 0.870460
</Section>

newXOutput 141

<Section columns = "stress_xx | stress_yy | stress_xy">
  1 4391.92 0.00000 1.35644
  2 4391.92 0.00000 -1.35644
  3 4366.13 0.00000 0.679836
  4 4366.13 0.00000 -0.679836
  5 4366.13 0.00000 -0.679836
  6 4366.13 0.00000 0.679836
  7 4391.92 0.00000 -1.35644
  8 4391.92 0.00000 1.35644
</Section>

newXOutput 142

<Section columns = "stress_xx | stress_yy | stress_xy">
  1 4378.93 0.00000 1.79358
  2 4378.93 0.00000 -1.79358
  3 4343.42 0.00000 0.899620
  4 4343.42 0.00000 -0.899620
  5 4343.42 0.00000 -0.899620
  6 4343.42 0.00000 0.899620
  7 4378.93 0.00000 -1.79358
  8 4378.93 0.00000 1.79358
</Section>

newXOutput 143

<Section columns = "stress_xx | stress_yy | stress_xy">
  1 4364.26 0.00000 2.10872
  2 4364.26 0.00000 -2.10872
  3 4319.21 0.00000 1.05827
  4 4319.21 0.00000 -1.05827
  5 4319.21 0.00000 -1.05827
  6 4319.21 0.00000 1.05827
  7 4364.26 0.00000 -2.10872
  8 4364.26 0.00000 2.10872
</Section>

newXOutput 144

<Section columns = "stress_xx | stress_yy | stress_xy">
  1 4350.73 0.00000 2.15246
  2 4350.73 0.00000 -2.15246
  3 4295.35 0.00000 1.08030
  4 4295.35 0.00000 -1.08030
  5 4295.35 0.00000 -1.08030
  6 4295.35 0.00000 1.08030
  7 4350.73 0.00000 -2.15246
  8 4350.73 0.00000 2.15246
</Section>

newXOutput 145

<Section columns = "stress_xx | stress_yy | stress_xy">
  1 4337.06 0.00000 2.17751
  2 4337.06 0.00000 -2.17751
  3 4271.54 0.00000 1.09292
  4 4271.54 0.00000 -1.09292
  5 4271.54 0.00000 -1.09292
  6 4271.54 0.00000 1.09292
  7 4337.06 0.00000 -2.17751
  8 4337.06 0.00000 2.17751
</Section>

newXOutput 146

<Section columns = "stress_xx | stress_yy | stress_xy">
  1 4323.19 0.00000 2.08883
  2 4323.19 0.00000 -2.08883
  3 4247.44 0.00000 1.04824
  4 4247.44 0.00000 -1.04824
  5 4247.44 0.00000 -1.04824
  6 4247.44 0.00000 1.04824
  7 4323.19 0.00000 -2.08883
  8 4323.19 0.00000 2.08883
</Section>

newXOutput 147

<Section columns = "stress_xx | stress_yy | stress_xy">
  1 4309.66 0.00000 2.10401
  2 4309.66 0.00000 -2.10401
  3 4224.11 0.00000 1.05588
  4 4224.11 0.00000 -1.05588
  5 4224.11 0.00000 -1.05588
  6 4224.11 0.00000 1.05588
  7 4309.66 0.00000 -2.10401
  8 4309.66 0.00000 2.10401
</Section>

newXOutput 148

<Section columns = "stress_xx | stress_yy | stress_xy">
  1 4296.18 0.00000 2.10504
  2 4296.18 0.00000 -2.10504
  3 4200.97 0.00000 1.05640
  4 4200.97 0.00000 -1.05640
  5 4200.97 0.00000 -1.05640
  6 4200.97 0.00000 1.05640
  7 4296.18 0.00000 -2.10504
  8 4296.18 0.00000 2.10504
</Section>

newXOutput 149

<Section columns = "stress_xx | stress_yy | stress_xy">
  1 4282.75 0.00000 2.09503
  2 4282.75 0.00000 -2.09503
  3 4178.02 0.00000 1.05136
  4 4178.02 0.00000 -1.05136
  5 4178.02 0.00000 -1.05136
  6 4178.02 0.00000 1.05136
  7 4282.75 0.00000 -2.09503
  8 4282.75 0.00000 2.09503
</Section>

newXOutput 150

<Section columns = "stress_xx | stress_yy | stress_xy">
  1 4269.38 0.00000 2.07651
  2 4269.38 0.00000 -2.07651
  3 4155.28 0.00000 1.04202
  4 4155.28 0.00000 -1.04202
  5 4155.28 0.00000 -1.04202
  6 4155.28 0.00000 1.04202
  7 4269.38 0.00000 -2.07651
  8 4269.38 0.00000 2.07651
</Section>

newXOutput 151

<Section columns = "stress_xx | stress_yy | stress_xy">
  1 4256.34 0.00000 2.15119
  2 4256.34 0.00000 -2.15119
  3 4133.23 0.00000 1.07964
  4 4133.23 0.00000 -1.07964
  5 4133.23 0.00000 -1.07964
  6 4133.23 0.00000 1.07964
  7 4256.34 0.00000 -2.15119
  8 4256.34 0.00000 2.15119
</Section>

newXOutput 152

<Section columns = "stress_xx | stress_yy | stress_xy">
  1 4243.02 0.00000 2.10024
  2 4243.02 0.00000 -2.10024
  3 4110.80 0.00000 1.05397
  4 4110.80 0.00000 -1.05397
  5 4110.80 0.00000 -1.05397
  6 4110.80 0.00000 1.05397
  7 4243.02 0.00000 -2.10024
  8 4243.02 0.00000 2.10024
</Section>

newXOutput 153

<Section columns = "stress_xx | stress_yy | stress_xy">
  1 4229.77 0.00000 2.05001
  2 4229.77 0.00000 -2.05001
  3 4088.60 0.00000 1.02867
  4 4088.60 0.00000 -1.02867
  5 4088.60 0.00000 -1.02867
  6 4088.60 0.00000 1.02867
  7 4229.77 0.00000 -2.05001
  8 4229.77 0.00000 2.05001
</Section>

newXOutput 154

<Section columns = "stress_xx | stress_yy | stress_xy">
  1 4216.89 0.00000 2.10049
  2 4216.89 0.00000 -2.10049
  3 4067.12 0.00000 1.05409
  4 4067.12 0.00000 -1.05409
  5 4067.12 0.00000 -1.05409
  6 4067.12 0.00000 1.05409
  7 4216.89 0.00000 -2.10049
  8 4216.89 0.00000 2.10049
</Section>

newXOutput 155

<Section columns = "stress_xx | stress_yy | stress_xy">
  1 4204.02 0.00000 2.13285
  2 4204.02 0.00000 -2.13285
  3 4045.77 0.00000 1.07038
  4 4045.77 0.00000 -1.07038
  5 4045.77 0.00000 -1.07038
  6 4045.77 0.00000 1.07038
  7 4204.02 0.00000 -2.13285
  8 4204.02 0.00000 2.13285
</Section>

newXOutput 156

<Section columns = "stress_xx | stress_yy | stress_xy">
  1 4190.88 0.00000 2.04665
  2 4190.88 0.00000 -2.04665
  3 4024.06 0.00000 1.02697
  4 4024.06 0.00000 -1.02697
  5 4024.06 0.00000 -1.02697
  6 4024.06 0.00000 1.02697
  7 4190.88 0.00000 -2.04665
  8 4190.88 0.00000 2.04665
</Section>

newXOutput 157

<Section columns = "stress_xx | stress_yy | stress_xy">
  1 4178.12 0.00000 2.07053
  2 4178.12 0.00000 -2.07053
  3 4003.09 0.00000 1.03899
  4 4003.09 0.00000 -1.03899
  5 4003.09 0.00000 -1.03899
  6 4003.09 0.00000 1.03899
  7 4178.12 0.00000 -2.07053
  8 4178.12 0.00000 2.07053
</Section>

newXOutput 158

<Section columns = "stress_xx | stress_yy | stress_xy">
  1 4165.39 0.00000 2.08141
  2 4165.39 0.00000 -2.08141
  3 3982.27 0.00000 1.04447
  4 3982.27 0.00000 -1.04447
  5 3982.27 0.00000 -1.04447
  6 3982.27 0.00000 1.04447
  7 4165.39 0.00000 -2.08141
  8 4165.39 0.00000 2.08141
</Section>

newXOutput 159

<Section columns = "stress_xx | stress_yy | stress_xy">
  1 4152.69 0.00000 2.08171
  2 4152.69 0.00000 -2.08171
  3 3961.59 0.00000 1.04462
  4 3961.59 0.00000 -1.04462
  5 3961.59 0.00000 -1.04462
  6 3961.59 0.00000 1.04462
  7 4152.69 0.00000 -2.08171
  8 4152.69 0.00000 2.08171
</Section>

newXOutput 160

<Section columns = "stress_xx | stress_yy | stress_xy">
  1 4140.03 0.00000 2.07349
  2 4140.03 0.00000 -2.07349
  3 3941.06 0.00000 1.04047
  4 3941.06 0.00000 -1.04047
  5 3941.06 0.00000 -1.04047
  6 3941.06 0.00000 1.04047
  7 4140.03 0.00000 -2.07349
  8 4140.03 0.00000 2.07349
</Section>

newXOutput 161

<Section columns = "stress_xx | stress_yy | stress_xy">
  1 4127.41 0.00000 2.05848
  2 4127.41 0.00000 -2.05848
  3 3920.70 0.00000 1.03291
  4 3920.70 0.00000 -1.03291
  5 3920.70 0.00000 -1.03291
  6 3920.70 0.00000 1.03291
  7 4127.41 0.00000 -2.05848
  8 4127.41 0.00000 2.05848
</Section>

newXOutput 162

<Section columns = "stress_xx | stress_yy | stress_xy">
  1 4114.82 0.00000 2.03812
  2 4114.82 0.00000 -2.03812
  3 3900.49 0.00000 1.02266
  4 3900.49 0.00000 -1.02266
  5 3900.49 0.00000 -1.02266
  6 3900.49 0.00000 1.02266
  7 4114.82 0.00000 -2.03812
  8 4114.82 0.00000 2.03812
</Section>

newXOutput 163

<Section columns = "stress_xx | stress_yy | stress_xy">
  1 4102.28 0.00000 2.01357
  2 4102.28 0.00000 -2.01357
  3 3880.45 0.00000 1.01030
  4 3880.45 0.00000 -1.01030
  5 3880.45 0.00000 -1.01030
  6 3880.45 0.00000 1.01030
  7 4102.28 0.00000 -2.01357
  8 4102.28 0.00000 2.01357
</Section>

newXOutput 164

<Section columns = "stress_xx | stress_yy | stress_xy">
  1 4090.05 0.00000 2.09289
  2 4090.05 0.00000 -2.09289
  3 3861.04 0.00000 1.05023
  4 3861.04 0.00000 -1.05023
  5 3861.04 0.00000 -1.05023
  6 3861.04 0.00000 1.05023
  7 4090.05 0.00000 -2.09289
  8 4090.05 0.00000 2.09289
</Section>

newXOutput 165

<Section columns = "stress_xx | stress_yy | stress_xy">
  1 4077.59 0.00000 2.04204
  2 4077.59 0.00000 -2.04204
  3 3841.27 0.00000 1.02463
  4 3841.27 0.00000 -1.02463
  5 3841.27 0.00000 -1.02463
  6 3841.27 0.00000 1.02463
  7 4077.59 0.00000 -2.04204
  8 4077.59 0.00000 2.04204
</Section>

newXOutput 166

<Section columns = "stress_xx | stress_yy | stress_xy">
  1 4065.41 0.00000 2.10256
  2 4065.41 0.00000 -2.10256
  3 3822.12 0.00000 1.05510
  4 3822.12 0.00000 -1.05510
  5 3822.12 0.00000 -1.05510
  6 3822.12 0.00000 1.05510
  7 4065.41 0.00000 -2.10256
  8 4065.41 0.00000 2.10256
</Section>

newXOutput 167

<Section columns = "stress_xx | stress_yy | stress_xy">
  1 4053.00 0.00000 2.03484
  2 4053.00 0.00000 -2.03484
  3 3802.60 0.00000 1.02100
  4 3802.60 0.00000 -1.02100
  5 3802.60 0.00000 -1.02100
  6 3802.60 0.00000 1.02100
  7 4053.00 0.00000 -2.03484
  8 4053.00 0.00000 2.03484
</Section>

newXOutput 168

<Section columns = "stress_xx | stress_yy | stress_xy">
  1 4040.88 0.00000 2.08225
  2 4040.88 0.00000 -2.08225
  3 3783.71 0.00000 1.04487
  4 3783.71 0.00000 -1.04487
  5 3783.71 0.00000 -1.04487
  6 3783.71 0.00000 1.04487
  7 4040.88 0.00000 -2.08225
  8 4040.88 0.00000 2.08225
</Section>

newXOutput 169

<Section columns = "stress_xx | stress_yy | stress_xy">
  1 4028.52 0.00000 2.00393
  2 4028.52 0.00000 -2.00393
  3 3764.46 0.00000 1.00543
  4 3764.46 0.00000 -1.00543
  5 3764.46 0.00000 -1.00543
  6 3764.46 0.00000 1.00543
  7 4028.52 0.00000 -2.00393
  8 4028.52 0.00000 2.00393
</Section>

newXOutput 170

<Section columns = "stress_xx | stress_yy | stress_xy">
  1 4016.46 0.00000 2.04230
  2 4016.46 0.00000 -2.04230
  3 3745.84 0.00000 1.02474
  4 3745.84 0.00000 -1.02474
  5 3745.84 0.00000 -1.02474
  6 3745.84 0.00000 1.02474
  7 4016.46 0.00000 -2.04230
  8 4016.46 0.00000 2.04230
</Section>

newXOutput 171

<Section columns = "stress_xx | stress_yy | stress_xy">
  1 4004.46 0.00000 2.06782
  2 4004.46 0.00000 -2.06782
  3 3727.35 0.00000 1.03759
  4 3727.35 0.00000 -1.03759
  5 3727.35 0.00000 -1.03759
  6 3727.35 0.00000 1.03759
  7 4004.46 0.00000 -2.06782
  8 4004.46 0.00000 2.06782
</Section>

newXOutput 172

<Section columns = "stress_xx | stress_yy | stress_xy">
  1 3992.46 0.00000 2.08296
  2 3992.46 0.00000 -2.08296
  3 3708.95 0.00000 1.04522
  4 3708.95 0.00000 -1.04522
  5 3708.95 0.00000 -1.04522
  6 3708.95 0.00000 1.04522
  7 3992.46 0.00000 -2.08296
  8 3992.46 0.00000 2.08296
</Section>

newXOutput 173

<Section columns = "stress_xx | stress_yy | stress_xy">
  1 3980.17 0.00000 1.97705
  2 3980.17 0.00000 -1.97705
  3 3690.16 0.00000 0.991888
  4 3690.16 0.00000 -0.991888
  5 3690.16 0.00000 -0.991888
  6 3690.16 0.00000 0.991888
  7 3980.17 0.00000 -1.97705
  8 3980.17 0.00000 1.97705
</Section>

newXOutput 174

<Section columns = "stress_xx | stress_yy | stress_xy">
  1 3968.20 0.00000 1.99368
  2 3968.20 0.00000 -1.99368
  3 3672.02 0.00000 1.00026
  4 3672.02 0.00000 -1.00026
  5 3672.02 0.00000 -1.00026
  6 3672.02 0.00000 1.00026
  7 3968.20 0.00000 -1.99368
  8 3968.20 0.00000 1.99368
</Section>

newXOutput 175

<Section columns = "stress_xx | stress_yy | stress_xy">
  1 3956.29 0.00000 2.00116
  2 3956.29 0.00000 -2.00116
  3 3654.00 0.00000 1.00402
  4 3654.00 0.00000 -1.00402
  5 3654.00 0.00000 -1.00402
  6 3654.00 0.00000 1.00402
  7 3956.29 0.00000 -2.00116
  8 3956.29 0.00000 2.00116
</Section>

newXOutput 176

<Section columns = "stress_xx | stress_yy | stress_xy">
  1 3944.38 0.00000 2.00143
  2 3944.38 0.00000 -2.00143
  3 3636.09 0.00000 1.00415
  4 3636.09 0.00000 -1.00415
  5 3636.09 0.00000 -1.00415
  6 3636.09 0.00000 1.00415
  7 3944.38 0.00000 -2.00143
  8 3944.38 0.00000 2.00143
</Section>

newXOutput 177

<Section columns = "stress_xx | stress_yy | stress_xy">
  1 3932.49 0.00000 1.99569
  2 3932.49 0.00000 -1.99569
  3 3618.27 0.00000 1.00126
  4 3618.27 0.00000 -1.00126
  5 3618.27 0.00000 -1.00126
  6 3618.27 0.00000 1.00126
  7 3932.49 0.00000 -1.99569
  8 3932.49 0.00000 1.99569
</Section>

newXOutput 178

<Section columns = "stress_xx | stress_yy | stress_xy">
  1 3920.61 0.00000 1.98497
  2 3920.61 0.00000 -1.98497
  3 3600.56 0.00000 0.995867
  4 3600.56 0.00000 -0.995867
  5 3600.56 0.00000 -0.995867
  6 3600.56 0.00000 0.995867
  7 3920.61 0.00000 -1.98497
  8 3920.61 0.00000 1.98497
</Section>

newXOutput 179

<Section columns = "stress_xx | stress_yy | stress_xy">
  1 3908.75 0.00000 1.97017
  2 3908.75 0.00000 -1.97017
  3 3582.95 0.00000 0.988412
  4 3582.95 0.00000 -0.988412
  5 3582.95 0.00000 -0.988412
  6 3582.95 0.00000 0.988412
  7 3908.75 0.00000 -1.97017
  8 3908.75 0.00000 1.97017
</Section>

newXOutput 180

<Section columns = "stress_xx | stress_yy | stress_xy">
  1 3896.90 0.00000 1.95203
  2 3896.90 0.00000 -1.95203
  3 3565.44 0.00000 0.979277
  4 3565.44 0.00000 -0.979277
  5 3565.44 0.00000 -0.979277
  6 3565.44 0.00000 0.979277
  7 3896.90 0.00000 -1.95203
  8 3896.90 0.00000 1.95203
</Section>

newXOutput 181

<Section columns = "stress_xx | stress_yy | stress_xy">
  1 3885.06 0.00000 1.93118
  2 3885.06 0.00000 -1.93118
  3 3548.03 0.00000 0.968782
  4 3548.03 0.00000 -0.968782
  5 3548.03 0.00000 -0.968782
  6 3548.03 0.00000 0.968782
  7 3885.06 0.00000 -1.93118
  8 3885.06 0.00000 1.93118
</Section>

newXOutput 182

<Section columns = "stress_xx | stress_yy | stress_xy">
  1 3873.23 0.00000 1.90818
  2 3873.23 0.00000 -1.90818
  3 3530.73 0.00000 0.957203
  4 3530.73 0.00000 -0.957203
  5 3530.73 0.00000 -0.957203
  6 3530.73 0.00000 0.957203
  7 3873.23 0.00000 -1.90818
  8 3873.23 0.00000 1.90818
</Section>

newXOutput 183

<Section columns = "stress_xx | stress_yy | stress_xy">
  1 3861.42 0.00000 1.88347
  2 3861.42 0.00000 -1.88347
  3 3513.53 0.00000 0.944770
  4 3513.53 0.00000 -0.944770
  5 3513.53 0.00000 -0.944770
  6 3513.53 0.00000 0.944770
  7 3861.42 0.00000 -1.88347
  8 3861.42 0.00000 1.88347
</Section>

newXOutput 184

<Section columns = "stress_xx | stress_yy | stress_xy">
  1 3849.63 0.00000 1.85746
  2 3849.63 0.00000 -1.85746
  3 3496.42 0.00000 0.931679
  4 3496.42 0.00000 -0.931679
  5 3496.42 0.00000 -0.931679
  6 3496.42 0.00000 0.931679
  7 3849.63 0.00000 -1.85746
  8 3849.63 0.00000 1.85746
</Section>

newXOutput 185

<Section columns = "stress_xx | stress_yy | stress_xy">
  1 3837.84 0.00000 1.83047
  2 3837.84 0.00000 -1.83047
  3 3479.42 0.00000 0.918094
  4 3479.42 0.00000 -0.918094
  5 3479.42 0.00000 -0.918094
  6 3479.42 0.00000 0.918094
  7 3837.84 0.00000 -1.83047
  8 3837.84 0.00000 1.83047
</Section>

newXOutput 186

<Section columns = "stress_xx | stress_yy | stress_xy">
  1 3826.07 0.00000 1.80276
  2 3826.07 0.00000 -1.80276
  3 3462.51 0.00000 0.904155
  4 3462.51 0.00000 -0.904155
  5 3462.51 0.00000 -0.904155
  6 3462.51 0.00000 0.904155
  7 3826.07 0.00000 -1.80276
  8 3826.07 0.00000 1.80276
</Section>

newXOutput 187

<Section columns = "stress_xx | stress_yy | stress_xy">
  1 3814.30 0.00000 1.77458
  2 3814.30 0.00000 -1.77458
  3 3445.69 0.00000 0.889976
  4 3445.69 0.00000 -0.889976
  5 3445.69 0.00000 -0.889976
  6 3445.69 0.00000 0.889976
  7 3814.30 0.00000 -1.77458
  8 3814.30 0.00000 1.77458
</Section>

newXOutput 188

<Section columns = "stress_xx | stress_yy | stress_xy">
  1 3802.55 0.00000 1.74611
  2 3802.55 0.00000 -1.74611
  3 3428.97 0.00000 0.875654
  4 3428.97 0.00000 -0.875654
  5 3428.97 0.00000 -0.875654
  6 3428.97 0.00000 0.875654
  7 3802.55 0.00000 -1.74611
  8 3802.55 0.00000 1.74611
</Section>

newXOutput 189

<Section columns = "stress_xx | stress_yy | stress_xy">
  1 3792.00 0.00000 1.81588
  2 3792.00 0.00000 -1.81588
  3 3413.40 0.00000 0.910752
  4 3413.40 0.00000 -0.910752
  5 3413.40 0.00000 -0.910752
  6 3413.40 0.00000 0.910752
  7 3792.00 0.00000 -1.81588
  8 3792.00 0.00000 1.81588
</Section>

newXOutput 190

<Section columns = "stress_xx | stress_yy | stress_xy">
  1 3779.36 0.00000 1.77654
  2 3779.36 0.00000 -1.77654
  3 3396.20 0.00000 0.890957
  4 3396.20 0.00000 -0.890957
  5 3396.20 0.00000 -0.890957
  6 3396.20 0.00000 0.890957
  7 3779.36 0.00000 -1.77654
  8 3779.36 0.00000 1.77654
</Section>

newXOutput 191

<Section columns = "stress_xx | stress_yy | stress_xy">
  1 3767.58 0.00000 1.73378
  2 3767.58 0.00000 -1.73378
  3 3379.67 0.00000 0.869446
  4 3379.67 0.00000 -0.869446
  5 3379.67 0.00000 -0.869446
  6 3379.67 0.00000 0.869446
  7 3767.58 0.00000 -1.73378
  8 3767.58 0.00000 1.73378
</Section>

newXOutput 192

<Section columns = "stress_xx | stress_yy | stress_xy">
  1 3757.06 0.00000 1.79149
  2 3757.06 0.00000 -1.79149
  3 3364.33 0.00000 0.898474
  4 3364.33 0.00000 -0.898474
  5 3364.33 0.00000 -0.898474
  6 3364.33 0.00000 0.898474
  7 3757.06 0.00000 -1.79149
  8 3757.06 0.00000 1.79149
</Section>

newXOutput 193

<Section columns = "stress_xx | stress_yy | stress_xy">
  1 3744.34 0.00000 1.74264
  2 3744.34 0.00000 -1.74264
  3 3347.31 0.00000 0.873904
  4 3347.31 0.00000 -0.873904
  5 3347.31 0.00000 -0.873904
  6 3347.31 0.00000 0.873904
  7 3744.34 0.00000 -1.74264
  8 3744.34 0.00000 1.74264
</Section>

newXOutput 194

<Section columns = "stress_xx | stress_yy | stress_xy">
  1 3732.53 0.00000 1.69217
  2 3732.53 0.00000 -1.69217
  3 3330.98 0.00000 0.848517
  4 3330.98 0.00000 -0.848517
  5 3330.98 0.00000 -0.848517
  6 3330.98 0.00000 0.848517
  7 3732.53 0.00000 -1.69217
  8 3732.53 0.00000 1.69217
</Section>

newXOutput 195

<Section columns = "stress_xx | stress_yy | stress_xy">
  1 3722.03 0.00000 1.74178
  2 3722.03 0.00000 -1.74178
  3 3315.86 0.00000 0.873468
  4 3315.86 0.00000 -0.873468
  5 3315.86 0.00000 -0.873468
  6 3315.86 0.00000 0.873468
  7 3722.03 0.00000 -1.74178
  8 3722.03 0.00000 1.74178
</Section>

newXOutput 196

<Section columns = "stress_xx | stress_yy | stress_xy">
  1 3709.23 0.00000 1.68838
  2 3709.23 0.00000 -1.68838
  3 3298.99 0.00000 0.846609
  4 3298.99 0.00000 -0.846609
  5 3298.99 0.00000 -0.846609
  6 3298.99 0.00000 0.846609
  7 3709.23 0.00000 -1.68838
  8 3709.23 0.00000 1.68838
</Section>

newXOutput 197

<Section columns = "stress_xx | stress_yy | stress_xy">
  1 3698.74 0.00000 1.73023
  2 3698.74 0.00000 -1.73023
  3 3284.00 0.00000 0.867656
  4 3284.00 0.00000 -0.867656
  5 3284.00 0.00000 -0.867656
  6 3284.00 0.00000 0.867656
  7 3698.74 0.00000 -1.73023
  8 3698.74 0.00000 1.73023
</Section>

newXOutput 198

<Section columns = "stress_xx | stress_yy | stress_xy">
  1 3685.86 0.00000 1.67063
  2 3685.86 0.00000 -1.67063
  3 3267.21 0.00000 0.837684
  4 3267.21 0.00000 -0.837684
  5 3267.21 0.00000 -0.837684
  6 3267.21 0.00000 0.837684
  7 3685.86 0.00000 -1.67063
  8 3685.86 0.00000 1.67063
</Section>

newXOutput 199

<Section columns = "stress_xx | stress_yy | stress_xy">
  1 3675.37 0.00000 1.70659
  2 3675.37 0.00000 -1.70659
  3 3252.35 0.00000 0.855765
  4 3252.35 0.00000 -0.855765
  5 3252.35 0.00000 -0.855765
  6 3252.35 0.00000 0.855765
  7 3675.37 0.00000 -1.70659
  8 3675.37 0.00000 1.70659
</Section>

newXOutput 200

<Section columns = "stress_xx | stress_yy | stress_xy">
  1 3662.40 0.00000 1.64311
  2 3662.40 0.00000 -1.64311
  3 3235.63 0.00000 0.823844
  4 3235.63 0.00000 -0.823844
  5 3235.63 0.00000 -0.823844
  6 3235.63 0.00000 0.823844
  7 3662.40 0.00000 -1.64311
  8 3662.40 0.00000 1.64311
</Section>

newXOutput 201

<Section columns = "stress_xx | stress_yy | stress_xy">
  1 3651.92 0.00000 1.67457
  2 3651.92 0.00000 -1.67457
  3 3220.88 0.00000 0.839659
  4 3220.88 0.00000 -0.839659
  5 3220.88 0.00000 -0.839659
  6 3220.88 0.00000 0.839659
  7 3651.92 0.00000 -1.67457
  8 3651.92 0.00000 1.67457
</Section>

newXOutput 202

<Section columns = "stress_xx | stress_yy | stress_xy">
  1 3638.86 0.00000 1.60893
  2 3638.86 0.00000 -1.60893
  3 3204.23 0.00000 0.806653
  4 3204.23 0.00000 -0.806653
  5 3204.23 0.00000 -0.806653
  6 3204.23 0.00000 0.806653
  7 3638.86 0.00000 -1.60893
  8 3638.86 0.00000 1.60893
</Section>

newXOutput 203

<Section columns = "stress_xx | stress_yy | stress_xy">
  1 3628.37 0.00000 1.63692
  2 3628.37 0.00000 -1.63692
  3 3189.61 0.00000 0.820728
  4 3189.61 0.00000 -0.820728
  5 3189.61 0.00000 -0.820728
  6 3189.61 0.00000 0.820728
  7 3628.37 0.00000 -1.63692
  8 3628.37 0.00000 1.63692
</Section>

newXOutput 204

<Section columns = "stress_xx | stress_yy | stress_xy">
  1 3616.76 0.00000 1.66401
  2 3616.76 0.00000 -1.66401
  3 3174.27 0.00000 0.834346
  4 3174.27 0.00000 -0.834346
  5 3174.27 0.00000 -0.834346
  6 3174.27 0.00000 0.834346
  7 3616.76 0.00000 -1.66401
  8 3616.76 0.00000 1.66401
</Section>

newXOutput 205

<Section columns = "stress_xx | stress_yy | stress_xy">
  1 3603.51 0.00000 1.58940
  2 3603.51 0.00000 -1.58940
  3 3157.67 0.00000 0.796833
  4 3157.67 0.00000 -0.796833
  5 3157.67 0.00000 -0.796833
  6 3157.67 0.00000 0.796833
  7 3603.51 0.00000 -1.58940
  8 3603.51 0.00000 1.58940
</Section>

newXOutput 206

<Section columns = "stress_xx | stress_yy | stress_xy">
  1 3593.00 0.00000 1.60899
  2 3593.00 0.00000 -1.60899
  3 3143.18 0.00000 0.806683
  4 3143.18 0.00000 -0.806683
  5 3143.18 0.00000 -0.806683
  6 3143.18 0.00000 0.806683
  7 3593.00 0.00000 -1.60899
  8 3593.00 0.00000 1.60899
</Section>

newXOutput 207

<Section columns = "stress_xx | stress_yy | stress_xy">
  1 3581.28 0.00000 1.62894
  2 3581.28 0.00000 -1.62894
  3 3127.94 0.00000 0.816708
  4 3127.94 0.00000 -0.816708
  5 3127.94 0.00000 -0.816708
  6 3127.94 0.00000 0.816708
  7 3581.28 0.00000 -1.62894
  8 3581.28 0.00000 1.62894
</Section>

newXOutput 208

<Section columns = "stress_xx | stress_yy | stress_xy">
  1 3567.84 0.00000 1.55004
  2 3567.84 0.00000 -1.55004
  3 3111.38 0.00000 0.777046
  4 3111.38 0.00000 -0.777046
  5 3111.38 0.00000 -0.777046
  6 3111.38 0.00000 0.777046
  7 3567.84 0.00000 -1.55004
  8 3567.84 0.00000 1.55004
</Section>

newXOutput 209

<Section columns = "stress_xx | stress_yy | stress_xy">
  1 3557.29 0.00000 1.56409
  2 3557.29 0.00000 -1.56409
  3 3097.02 0.00000 0.784107
  4 3097.02 0.00000 -0.784107
  5 3097.02 0.00000 -0.784107
  6 3097.02 0.00000 0.784107
  7 3557.29 0.00000 -1.56409
  8 3557.29 0.00000 1.56409
</Section>

newXOutput 210

<Section columns = "stress_xx | stress_yy | stress_xy">
  1 3545.46 0.00000 1.57942
  2 3545.46 0.00000 -1.57942
  3 3081.86 0.00000 0.791811
  4 3081.86 0.00000 -0.791811
  5 3081.86 0.00000 -0.791811
  6 3081.86 0.00000 0.791811
  7 3545.46 0.00000 -1.57942
  8 3545.46 0.00000 1.57942
</Section>

newXOutput 211

<Section columns = "stress_xx | stress_yy | stress_xy">
  1 3531.81 0.00000 1.49930
  2 3531.81 0.00000 -1.49930
  3 3065.33 0.00000 0.751544
  4 3065.33 0.00000 -0.751544
  5 3065.33 0.00000 -0.751544
  6 3065.33 0.00000 0.751544
  7 3531.81 0.00000 -1.49930
  8 3531.81 0.00000 1.49930
</Section>

newXOutput 212

<Section columns = "stress_xx | stress_yy | stress_xy">
  1 3521.23 0.00000 1.50968
  2 3521.23 0.00000 -1.50968
  3 3051.09 0.00000 0.756757
  4 3051.09 0.00000 -0.756757
  5 3051.09 0.00000 -0.756757
  6 3051.09 0.00000 0.756757
  7 3521.23 0.00000 -1.50968
  8 3521.23 0.00000 1.50968
</Section>

newXOutput 213

<Section columns = "stress_xx | stress_yy | stress_xy">
  1 3509.27 0.00000 1.52205
  2 3509.27 0.00000 -1.52205
  3 3036.00 0.00000 0.762974
  4 3036.00 0.00000 -0.762974
  5 3036.00 0.00000 -0.762974
  6 3036.00 0.00000 0.762974
  7 3509.27 0.00000 -1.52205
  8 3509.27 0.00000 1.52205
</Section>

newXOutput 214

<Section columns = "stress_xx | stress_yy | stress_xy">
  1 3497.23 0.00000 1.53001
  2 3497.23 0.00000 -1.53001
  3 3020.88 0.00000 0.766974
  4 3020.88 0.00000 -0.766974
  5 3020.88 0.00000 -0.766974
  6 3020.88 0.00000 0.766974
  7 3497.23 0.00000 -1.53001
  8 3497.23 0.00000 1.53001
</Section>

newXOutput 215

<Section columns = "stress_xx | stress_yy | stress_xy">
  1 3483.25 0.00000 1.44629
  2 3483.25 0.00000 -1.44629
  3 3004.33 0.00000 0.724904
  4 3004.33 0.00000 -0.724904
  5 3004.33 0.00000 -0.724904
  6 3004.33 0.00000 0.724904
  7 3483.25 0.00000 -1.44629
  8 3483.25 0.00000 1.44629
</Section>

newXOutput 216

<Section columns = "stress_xx | stress_yy | stress_xy">
  1 3472.58 0.00000 1.45082
  2 3472.58 0.00000 -1.45082
  3 2990.22 0.00000 0.727176
  4 2990.22 0.00000 -0.727176
  5 2990.22 0.00000 -0.727176
  6 2990.22 0.00000 0.727176
  7 3472.58 0.00000 -1.45082
  8 3472.58 0.00000 1.45082
</Section>

newXOutput 217

<Section columns = "stress_xx | stress_yy | stress_xy">
  1 3460.40 0.00000 1.45840
  2 3460.40 0.00000 -1.45840
  3 2975.16 0.00000 0.730987
  4 2975.16 0.00000 -0.730987
  5 2975.16 0.00000 -0.730987
  6 2975.16 0.00000 0.730987
  7 3460.40 0.00000 -1.45840
  8 3460.40 0.00000 1.45840
</Section>

newXOutput 218

<Section columns = "stress_xx | stress_yy | stress_xy">
  1 3448.13 0.00000 1.46235
  2 3448.13 0.00000 -1.46235
  3 2960.07 0.00000 0.732967
  4 2960.07 0.00000 -0.732967
  5 2960.07 0.00000 -0.732967
  6 2960.07 0.00000 0.732967
  7 3448.13 0.00000 -1.46235
  8 3448.13 0.00000 1.46235
</Section>

newXOutput 219

<Section columns = "stress_xx | stress_yy | stress_xy">
  1 3435.79 0.00000 1.46303
  2 3435.79 0.00000 -1.46303
  3 2944.97 0.00000 0.733311
  4 2944.97 0.00000 -0.733311
  5 2944.97 0.00000 -0.733311
  6 2944.97 0.00000 0.733311
  7 3435.79 0.00000 -1.46303
  8 3435.79 0.00000 1.46303
</Section>

newXOutput 220

<Section columns = "stress_xx | stress_yy | stress_xy">
  1 3421.33 0.00000 1.37700
  2 3421.33 0.00000 -1.37700
  3 2928.33 0.00000 0.690087
  4 2928.33 0.00000 -0.690087
  5 2928.33 0.00000 -0.690087
  6 2928.33 0.00000 0.690087
  7 3421.33 0.00000 -1.37700
  8 3421.33 0.00000 1.37700
</Section>

newXOutput 221

<Section columns = "stress_xx | stress_yy | stress_xy">
  1 3410.51 0.00000 1.37573
  2 3410.51 0.00000 -1.37573
  3 2914.32 0.00000 0.689449
  4 2914.32 0.00000 -0.689449
  5 2914.32 0.00000 -0.689449
  6 2914.32 0.00000 0.689449
  7 3410.51 0.00000 -1.37573
  8 3410.51 0.00000 1.37573
</Section>

newXOutput 222

<Section columns = "stress_xx | stress_yy | stress_xy">
  1 3398.01 0.00000 1.37867
  2 3398.01 0.00000 -1.37867
  3 2899.24 0.00000 0.690924
  4 2899.24 0.00000 -0.690924
  5 2899.24 0.00000 -0.690924
  6 2899.24 0.00000 0.690924
  7 3398.01 0.00000 -1.37867
  8 3398.01 0.00000 1.37867
</Section>

newXOutput 223

<Section columns = "stress_xx | stress_yy | stress_xy">
  1 3385.39 0.00000 1.37876
  2 3385.39 0.00000 -1.37876
  3 2884.13 0.00000 0.690969
  4 2884.13 0.00000 -0.690969
  5 2884.13 0.00000 -0.690969
  6 2884.13 0.00000 0.690969
  7 3385.39 0.00000 -1.37876
  8 3385.39 0.00000 1.37876
</Section>

newXOutput 224

<Section columns = "stress_xx | stress_yy | stress_xy">
  1 3372.69 0.00000 1.37628
  2 3372.69 0.00000 -1.37628
  3 2868.99 0.00000 0.689723
  4 2868.99 0.00000 -0.689723
  5 2868.99 0.00000 -0.689723
  6 2868.99 0.00000 0.689723
  7 3372.69 0.00000 -1.37628
  8 3372.69 0.00000 1.37628
</Section>

newXOutput 225

<Section columns = "stress_xx | stress_yy | stress_xy">
  1 3357.67 0.00000 1.29273
  2 3357.67 0.00000 -1.29273
  3 2852.19 0.00000 0.647760
  4 2852.19 0.00000 -0.647760
  5 2852.19 0.00000 -0.647760
  6 2852.19 0.00000 0.647760
  7 3357.67 0.00000 -1.29273
  8 3357.67 0.00000 1.29273
</Section>

newXOutput 226

<Section columns = "stress_xx | stress_yy | stress_xy">
  1 3346.65 0.00000 1.28869
  2 3346.65 0.00000 -1.28869
  3 2838.22 0.00000 0.645731
  4 2838.22 0.00000 -0.645731
  5 2838.22 0.00000 -0.645731
  6 2838.22 0.00000 0.645731
  7 3346.65 0.00000 -1.28869
  8 3346.65 0.00000 1.28869
</Section>

newXOutput 227

<Section columns = "stress_xx | stress_yy | stress_xy">
  1 3333.75 0.00000 1.28961
  2 3333.75 0.00000 -1.28961
  3 2823.07 0.00000 0.646195
  4 2823.07 0.00000 -0.646195
  5 2823.07 0.00000 -0.646195
  6 2823.07 0.00000 0.646195
  7 3333.75 0.00000 -1.28961
  8 3333.75 0.00000 1.28961
</Section>

newXOutput 228

<Section columns = "stress_xx | stress_yy | stress_xy">
  1 3320.72 0.00000 1.28816
  2 3320.72 0.00000 -1.28816
  3 2807.86 0.00000 0.645465
  4 2807.86 0.00000 -0.645465
  5 2807.86 0.00000 -0.645465
  6 2807.86 0.00000 0.645465
  7 3320.72 0.00000 -1.28816
  8 3320.72 0.00000 1.28816
</Section>

newXOutput 229

<Section columns = "stress_xx | stress_yy | stress_xy">
  1 3305.19 0.00000 1.21082
  2 3305.19 0.00000 -1.21082
  3 2790.88 0.00000 0.606634
  4 2790.88 0.00000 -0.606634
  5 2790.88 0.00000 -0.606634
  6 2790.88 0.00000 0.606634
  7 3305.19 0.00000 -1.21082
  8 3305.19 0.00000 1.21082
</Section>

newXOutput 230

<Section columns = "stress_xx | stress_yy | stress_xy">
  1 3293.98 0.00000 1.20716
  2 3293.98 0.00000 -1.20716
  3 2776.92 0.00000 0.604796
  4 2776.92 0.00000 -0.604796
  5 2776.92 0.00000 -0.604796
  6 2776.92 0.00000 0.604796
  7 3293.98 0.00000 -1.20716
  8 3293.98 0.00000 1.20716
</Section>

newXOutput 231

<Section columns = "stress_xx | stress_yy | stress_xy">
  1 3280.71 0.00000 1.20873
  2 3280.71 0.00000 -1.20873
  3 2761.65 0.00000 0.605584
  4 2761.65 0.00000 -0.605584
  5 2761.65 0.00000 -0.605584
  6 2761.65 0.00000 0.605584
  7 3280.71 0.00000 -1.20873
  8 3280.71 0.00000 1.20873
</Section>

newXOutput 232

<Section columns = "stress_xx | stress_yy | stress_xy">
  1 3267.28 0.00000 1.20802
  2 3267.28 0.00000 -1.20802
  3 2746.30 0.00000 0.605223
  4 2746.30 0.00000 -0.605223
  5 2746.30 0.00000 -0.605223
  6 2746.30 0.00000 0.605223
  7 3267.28 0.00000 -1.20802
  8 3267.28 0.00000 1.20802
</Section>

newXOutput 233

<Section columns = "stress_xx | stress_yy | stress_xy">
  1 3251.17 0.00000 1.13623
  2 3251.17 0.00000 -1.13623
  3 2729.09 0.00000 0.569191
  4 2729.09 0.00000 -0.569191
  5 2729.09 0.00000 -0.569191
  6 2729.09 0.00000 0.569191
  7 3251.17 0.00000 -1.13623
  8 3251.17 0.00000 1.13623
</Section>

newXOutput 234

<Section columns = "stress_xx | stress_yy | stress_xy">
  1 3239.71 0.00000 1.13275
  2 3239.71 0.00000 -1.13275
  3 2715.07 0.00000 0.567440
  4 2715.07 0.00000 -0.567440
  5 2715.07 0.00000 -0.567440
  6 2715.07 0.00000 0.567440
  7 3239.71 0.00000 -1.13275
  8 3239.71 0.00000 1.13275
</Section>

newXOutput 235

<Section columns = "stress_xx | stress_yy | stress_xy">
  1 3226.00 0.00000 1.13476
  2 3226.00 0.00000 -1.13476
  3 2699.62 0.00000 0.568448
  4 2699.62 0.00000 -0.568448
  5 2699.62 0.00000 -0.568448
  6 2699.62 0.00000 0.568448
  7 3226.00 0.00000 -1.13476
  8 3226.00 0.00000 1.13476
</Section>

newXOutput 236

<Section columns = "stress_xx | stress_yy | stress_xy">
  1 3209.42 0.00000 1.06995
  2 3209.42 0.00000 -1.06995
  3 2682.20 0.00000 0.535927
  4 2682.20 0.00000 -0.535927
  5 2682.20 0.00000 -0.535927
  6 2682.20 0.00000 0.535927
  7 3209.42 0.00000 -1.06995
  8 3209.42 0.00000 1.06995
</Section>

newXOutput 237

<Section columns = "stress_xx | stress_yy | stress_xy">
  1 3197.74 0.00000 1.06830
  2 3197.74 0.00000 -1.06830
  3 2668.11 0.00000 0.535096
  4 2668.11 0.00000 -0.535096
  5 2668.11 0.00000 -0.535096
  6 2668.11 0.00000 0.535096
  7 3197.74 0.00000 -1.06830
  8 3197.74 0.00000 1.06830
</Section>

newXOutput 238

<Section columns = "stress_xx | stress_yy | stress_xy">
  1 3183.66 0.00000 1.07211
  2 3183.66 0.00000 -1.07211
  3 2652.50 0.00000 0.537009
  4 2652.50 0.00000 -0.537009
  5 2652.50 0.00000 -0.537009
  6 2652.50 0.00000 0.537009
  7 3183.66 0.00000 -1.07211
  8 3183.66 0.00000 1.07211
</Section>

newXOutput 239

<Section columns = "stress_xx | stress_yy | stress_xy">
  1 3166.55 0.00000 1.01276
  2 3166.55 0.00000 -1.01276
  3 2634.81 0.00000 0.507228
  4 2634.81 0.00000 -0.507228
  5 2634.81 0.00000 -0.507228
  6 2634.81 0.00000 0.507228
  7 3166.55 0.00000 -1.01276
  8 3166.55 0.00000 1.01276
</Section>

newXOutput 240

<Section columns = "stress_xx | stress_yy | stress_xy">
  1 3154.61 0.00000 1.01216
  2 3154.61 0.00000 -1.01216
  3 2620.62 0.00000 0.506927
  4 2620.62 0.00000 -0.506927
  5 2620.62 0.00000 -0.506927
  6 2620.62 0.00000 0.506927
  7 3154.61 0.00000 -1.01216
  8 3154.61 0.00000 1.01216
</Section>

newXOutput 241

<Section columns = "stress_xx | stress_yy | stress_xy">
  1 3137.18 0.00000 0.959744
  2 3137.18 0.00000 -0.959744
  3 2602.78 0.00000 0.480634
  4 2602.78 0.00000 -0.480634
  5 2602.78 0.00000 -0.480634
  6 2602.78 0.00000 0.480634
  7 3137.18 0.00000 -0.959744
  8 3137.18 0.00000 0.959744
</Section>

newXOutput 242

<Section columns = "stress_xx | stress_yy | stress_xy">
  1 3125.06 0.00000 0.961886
  2 3125.06 0.00000 -0.961886
  3 2588.51 0.00000 0.481708
  4 2588.51 0.00000 -0.481708
  5 2588.51 0.00000 -0.481708
  6 2588.51 0.00000 0.481708
  7 3125.06 0.00000 -0.961886
  8 3125.06 0.00000 0.961886
</Section>

newXOutput 243

<Section columns = "stress_xx | stress_yy | stress_xy">
  1 3107.23 0.00000 0.914977
  2 3107.23 0.00000 -0.914977
  3 2570.46 0.00000 0.458180
  4 2570.46 0.00000 -0.458180
  5 2570.46 0.00000 -0.458180
  6 2570.46 0.00000 0.458180
  7 3107.23 0.00000 -0.914977
  8 3107.23 0.00000 0.914977
</Section>

newXOutput 244

<Section columns = "stress_xx | stress_yy | stress_xy">
  1 3094.90 0.00000 0.918977
  2 3094.90 0.00000 -0.918977
  3 2556.09 0.00000 0.460186
  4 2556.09 0.00000 -0.460186
  5 2556.09 0.00000 -0.460186
  6 2556.09 0.00000 0.460186
  7 3094.90 0.00000 -0.918977
  8 3094.90 0.00000 0.918977
</Section>

newXOutput 245

<Section columns = "stress_xx | stress_yy | stress_xy">
  1 3076.65 0.00000 0.876382
  2 3076.65 0.00000 -0.876382
  3 2537.81 0.00000 0.438825
  4 2537.81 0.00000 -0.438825
  5 2537.81 0.00000 -0.438825
  6 2537.81 0.00000 0.438825
  7 3076.65 0.00000 -0.876382
  8 3076.65 0.00000 0.876382
</Section>

newXOutput 246

<Section columns = "stress_xx | stress_yy | stress_xy">
  1 3064.08 0.00000 0.881609
  2 3064.08 0.00000 -0.881609
  3 2523.31 0.00000 0.441446
  4 2523.31 0.00000 -0.441446
  5 2523.31 0.00000 -0.441446
  6 2523.31 0.00000 0.441446
  7 3064.08 0.00000 -0.881609
  8 3064.08 0.00000 0.881609
</Section>

newXOutput 247

<Section columns = "stress_xx | stress_yy | stress_xy">
  1 3045.36 0.00000 0.842453
  2 3045.36 0.00000 -0.842453
  3 2504.76 0.00000 0.421812
  4 2504.76 0.00000 -0.421812
  5 2504.76 0.00000 -0.421812
  6 2504.76 0.00000 0.421812
  7 3045.36 0.00000 -0.842453
  8 3045.36 0.00000 0.842453
</Section>

newXOutput 248

<Section columns = "stress_xx | stress_yy | stress_xy">
  1 3029.33 0.00000 0.801525
  2 3029.33 0.00000 -0.801525
  3 2487.95 0.00000 0.401292
  4 2487.95 0.00000 -0.401292
  5 2487.95 0.00000 -0.401292
  6 2487.95 0.00000 0.401292
  7 3029.33 0.00000 -0.801525
  8 3029.33 0.00000 0.801525
</Section>

newXOutput 249

<Section columns = "stress_xx | stress_yy | stress_xy">
  1 3013.11 0.00000 0.766456
  2 3013.11 0.00000 -0.766456
  3 2471.04 0.00000 0.383712
  4 2471.04 0.00000 -0.383712
  5 2471.04 0.00000 -0.383712
  6 2471.04 0.00000 0.383712
  7 3013.11 0.00000 -0.766456
  8 3013.11 0.00000 0.766456
</Section>

newXOutput 250

<Section columns = "stress_xx | stress_yy | stress_xy">
  1 2996.70 0.00000 0.736188
  2 2996.70 0.00000 -0.736188
  3 2454.03 0.00000 0.368540
  4 2454.03 0.00000 -0.368540
  5 2454.03 0.00000 -0.368540
  6 2454.03 0.00000 0.368540
  7 2996.70 0.00000 -0.736188
  8 2996.70 0.00000 0.736188
</Section>

newXOutput 251

<Section columns = "stress_xx | stress_yy | stress_xy">
  1 2980.10 0.00000 0.709879
  2 2980.10 0.00000 -0.709879
  3 2436.91 0.00000 0.355354
  4 2436.91 0.00000 -0.355354
  5 2436.91 0.00000 -0.355354
  6 2436.91 0.00000 0.355354
  7 2980.10 0.00000 -0.709879
  8 2980.10 0.00000 0.709879
</Section>

newXOutput 252

<Section columns = "stress_xx | stress_yy | stress_xy">
  1 2963.29 0.00000 0.686840
  2 2963.29 0.00000 -0.686840
  3 2419.66 0.00000 0.343807
  4 2419.66 0.00000 -0.343807
  5 2419.66 0.00000 -0.343807
  6 2419.66 0.00000 0.343807
  7 2963.29 0.00000 -0.686840
  8 2963.29 0.00000 0.686840
</Section>

newXOutput 253

<Section columns = "stress_xx | stress_yy | stress_xy">
  1 2946.26 0.00000 0.666504
  2 2946.26 0.00000 -0.666504
  3 2402.29 0.00000 0.333617
  4 2402.29 0.00000 -0.333617
  5 2402.29 0.00000 -0.333617
  6 2402.29 0.00000 0.333617
  7 2946.26 0.00000 -0.666504
  8 2946.26 0.00000 0.666504
</Section>

newXOutput 254

<Section columns = "stress_xx | stress_yy | stress_xy">
  1 2929.00 0.00000 0.648408
  2 2929.00 0.00000 -0.648408
  3 2384.77 0.00000 0.324549
  4 2384.77 0.00000 -0.324549
  5 2384.77 0.00000 -0.324549
  6 2384.77 0.00000 0.324549
  7 2929.00 0.00000 -0.648408
  8 2929.00 0.00000 0.648408
</Section>

newXOutput 255

<Section columns = "stress_xx | stress_yy | stress_xy">
  1 2911.50 0.00000 0.632168
  2 2911.50 0.00000 -0.632168
  3 2367.09 0.00000 0.316412
  4 2367.09 0.00000 -0.316412
  5 2367.09 0.00000 -0.316412
  6 2367.09 0.00000 0.316412
  7 2911.50 0.00000 -0.632168
  8 2911.50 0.00000 0.632168
</Section>

newXOutput 256

<Section columns = "stress_xx | stress_yy | stress_xy">
  1 2893.74 0.00000 0.617473
  2 2893.74 0.00000 -0.617473
  3 2349.26 0.00000 0.309049
  4 2349.26 0.00000 -0.309049
  5 2349.26 0.00000 -0.309049
  6 2349.26 0.00000 0.309049
  7 2893.74 0.00000 -0.617473
  8 2893.74 0.00000 0.617473
</Section>

newXOutput 257

<Section columns = "stress_xx | stress_yy | stress_xy">
  1 2875.72 0.00000 0.604065
  2 2875.72 0.00000 -0.604065
  3 2331.26 0.00000 0.302331
  4 2331.26 0.00000 -0.302331
  5 2331.26 0.00000 -0.302331
  6 2331.26 0.00000 0.302331
  7 2875.72 0.00000 -0.604065
  8 2875.72 0.00000 0.604065
</Section>

newXOutput 258

<Section columns = "stress_xx | stress_yy | stress_xy">
  1 2857.43 0.00000 0.591733
  2 2857.43 0.00000 -0.591733
  3 2313.07 0.00000 0.296153
  4 2313.07 0.00000 -0.296153
  5 2313.07 0.00000 -0.296153
  6 2313.07 0.00000 0.296153
  7 2857.43 0.00000 -0.591733
  8 2857.43 0.00000 0.591733
</Section>

newXOutput 259

<Section columns = "stress_xx | stress_yy | stress_xy">
  1 2838.84 0.00000 0.580303
  2 2838.84 0.00000 -0.580303
  3 2294.70 0.00000 0.290427
  4 2294.70 0.00000 -0.290427
  5 2294.70 0.00000 -0.290427
  6 2294.70 0.00000 0.290427
  7 2838.84 0.00000 -0.580303
  8 2838.84 0.00000 0.580303
</Section>

newXOutput 260

<Section columns = "stress_xx | stress_yy | stress_xy">
  1 2819.96 0.00000 0.569634
  2 2819.96 0.00000 -0.569634
  3 2276.13 0.00000 0.285082
  4 2276.13 0.00000 -0.285082
  5 2276.13 0.00000 -0.285082
  6 2276.13 0.00000 0.285082
  7 2819.96 0.00000 -0.569634
  8 2819.96 0.00000 0.569634
</Section>

newXOutput 261

<Section columns = "stress_xx | stress_yy | stress_xy">
  1 2800.76 0.00000 0.559608
  2 2800.76 0.00000 -0.559608
  3 2257.35 0.00000 0.280060
  4 2257.35 0.00000 -0.280060
  5 2257.35 0.00000 -0.280060
  6 2257.35 0.00000 0.280060
  7 2800.76 0.00000 -0.559608
  8 2800.76 0.00000 0.559608
</Section>

newXOutput 262

<Section columns = "stress_xx | stress_yy | stress_xy">
  1 2781.23 0.00000 0.550130
  2 2781.23 0.00000 -0.550130
  3 2238.34 0.00000 0.275312
  4 2238.34 0.00000 -0.275312
  5 2238.34 0.00000 -0.275312
  6 2238.34 0.00000 0.275312
  7 2781.23 0.00000 -0.550130
  8 2781.23 0.00000 0.550130
</Section>

newXOutput 263

<Section columns = "stress_xx | stress_yy | stress_xy">
  1 2761.36 0.00000 0.541119
  2 2761.36 0.00000 -0.541119
  3 2219.11 0.00000 0.270798
  4 2219.11 0.00000 -0.270798
  5 2219.11 0.00000 -0.270798
  6 2219.11 0.00000 0.270798
  7 2761.36 0.00000 -0.541119
  8 2761.36 0.00000 0.541119
</Section>

newXOutput 264

<Section columns = "stress_xx | stress_yy | stress_xy">
  1 2741.13 0.00000 0.532512
  2 2741.13 0.00000 -0.532512
  3 2199.63 0.00000 0.266487
  4 2199.63 0.00000 -0.266487
  5 2199.63 0.00000 -0.266487
  6 2199.63 0.00000 0.266487
  7 2741.13 0.00000 -0.532512
  8 2741.13 0.00000 0.532512
</Section>

newXOutput 265

<Section columns = "stress_xx | stress_yy | stress_xy">
  1 2720.54 0.00000 0.524254
  2 2720.54 0.00000 -0.524254
  3 2179.90 0.00000 0.262351
  4 2179.90 0.00000 -0.262351
  5 2179.90 0.00000 -0.262351
  6 2179.90 0.00000 0.262351
  7 2720.54 0.00000 -0.524254
  8 2720.54 0.00000 0.524254
</Section>

newXOutput 266

<Section columns = "stress_xx | stress_yy | stress_xy">
  1 2699.55 0.00000 0.516302
  2 2699.55 0.00000 -0.516302
  3 2159.90 0.00000 0.258367
  4 2159.90 0.00000 -0.258367
  5 2159.90 0.00000 -0.258367
  6 2159.90 0.00000 0.258367
  7 2699.55 0.00000 -0.516302
  8 2699.55 0.00000 0.516302
</Section>

newXOutput 267

<Section columns = "stress_xx | stress_yy | stress_xy">
  1 2678.15 0.00000 0.508617
  2 2678.15 0.00000 -0.508617
  3 2139.61 0.00000 0.254519
  4 2139.61 0.00000 -0.254519
  5 2139.61 0.00000 -0.254519
  6 2139.61 0.00000 0.254519
  7 2678.15 0.00000 -0.508617
  8 2678.15 0.00000 0.508617
</Section>

newXOutput 268

<Section columns = "stress_xx | stress_yy | stress_xy">
  1 2656.33 0.00000 0.501171
  2 2656.33 0.00000 -0.501171
  3 2119.03 0.00000 0.250789
  4 2119.03 0.00000 -0.250789
  5 2119.03 0.00000 -0.250789
  6 2119.03 0.00000 0.250789
  7 2656.33 0.00000 -0.501171
  8 2656.33 0.00000 0.501171
</Section>

newXOutput 269

<Section columns = "stress_xx | stress_yy | stress_xy">
  1 2634.07 0.00000 0.493938
  2 2634.07 0.00000 -0.493938
  3 2098.15 0.00000 0.247166
  4 2098.15 0.00000 -0.247166
  5 2098.15 0.00000 -0.247166
  6 2098.15 0.00000 0.247166
  7 2634.07 0.00000 -0.493938
  8 2634.07 0.00000 0.493938
</Section>

newXOutput 270

<Section columns = "stress_xx | stress_yy | stress_xy">
  1 2611.34 0.00000 0.486896
  2 2611.34 0.00000 -0.486896
  3 2076.93 0.00000 0.243640
  4 2076.93 0.00000 -0.243640
  5 2076.93 0.00000 -0.243640
  6 2076.93 0.00000 0.243640
  7 2611.34 0.00000 -0.486896
  8 2611.34 0.00000 0.486896
</Section>

newXOutput 271

<Section columns = "stress_xx | stress_yy | stress_xy">
  1 2588.13 0.00000 0.480030
  2 2588.13 0.00000 -0.480030
  3 2055.38 0.00000 0.240201
  4 2055.38 0.00000 -0.240201
  5 2055.38 0.00000 -0.240201
  6 2055.38 0.00000 0.240201
  7 2588.13 0.00000 -0.480030
  8 2588.13 0.00000 0.480030
</Section>

newXOutput 272

<Section columns = "stress_xx | stress_yy | stress_xy">
  1 2564.40 0.00000 0.473323
  2 2564.40 0.00000 -0.473323
  3 2033.46 0.00000 0.236842
  4 2033.46 0.00000 -0.236842
  5 2033.46 0.00000 -0.236842
  6 2033.46 0.00000 0.236842
  7 2564.40 0.00000 -0.473323
  8 2564.40 0.00000 0.473323
</Section>

newXOutput 273

<Section columns = "stress_xx | stress_yy | stress_xy">
  1 2540.14 0.00000 0.466764
  2 2540.14 0.00000 -0.466764
  3 2011.16 0.00000 0.233558
  4 2011.16 0.00000 -0.233558
  5 2011.16 0.00000 -0.233558
  6 2011.16 0.00000 0.233558
  7 2540.14 0.00000 -0.466764
  8 2540.14 0.00000 0.466764
</Section>

newXOutput 274

<Section columns = "stress_xx | stress_yy | stress_xy">
  1 2515.32 0.00000 0.460342
  2 2515.32 0.00000 -0.460342
  3 1988.47 0.00000 0.230342
  4 1988.47 0.00000 -0.230342
  5 1988.47 0.00000 -0.230342
  6 1988.47 0.00000 0.230342
  7 2515.32 0.00000 -0.460342
  8 2515.32 0.00000 0.460342
</Section>

newXOutput 275

<Section columns = "stress_xx | stress_yy | stress_xy">
  1 2489.90 0.00000 0.454049
  2 2489.90 0.00000 -0.454049
  3 1965.35 0.00000 0.227191
  4 1965.35 0.00000 -0.227191
  5 1965.35 0.00000 -0.227191
  6 1965.35 0.00000 0.227191
  7 2489.90 0.00000 -0.454049
  8 2489.90 0.00000 0.454049
</Section>

newXOutput 276

<Section columns = "stress_xx | stress_yy | stress_xy">
  1 2463.87 0.00000 0.447877
  2 2463.87 0.00000 -0.447877
  3 1941.79 0.00000 0.224100
  4 1941.79 0.00000 -0.224100
  5 1941.79 0.00000 -0.224100
  6 1941.79 0.00000 0.224100
  7 2463.87 0.00000 -0.447877
  8 2463.87 0.00000 0.447877
</Section>

newXOutput 277

<Section columns = "stress_xx | stress_yy | stress_xy">
  1 2437.18 0.00000 0.441819
  2 2437.18 0.00000 -0.441819
  3 1917.77 0.00000 0.221066
  4 1917.77 0.00000 -0.221066
  5 1917.77 0.00000 -0.221066
  6 1917.77 0.00000 0.221066
  7 2437.18 0.00000 -0.441819
  8 2437.18 0.00000 0.441819
</Section>

newXOutput 278

<Section columns = "stress_xx | stress_yy | stress_xy">
  1 2409.80 0.00000 0.435871
  2 2409.80 0.00000 -0.435871
  3 1893.24 0.00000 0.218088
  4 1893.24 0.00000 -0.218088
  5 1893.24 0.00000 -0.218088
  6 1893.24 0.00000 0.218088
  7 2409.80 0.00000 -0.435871
  8 2409.80 0.00000 0.435871
</Section>

newXOutput 279

<Section columns = "stress_xx | stress_yy | stress_xy">
  1 2381.69 0.00000 0.430026
  2 2381.69 0.00000 -0.430026
  3 1868.20 0.00000 0.215161
  4 1868.20 0.00000 -0.215161
  5 1868.20 0.00000 -0.215161
  6 1868.20 0.00000 0.215161
  7 2381.69 0.00000 -0.430026
  8 2381.69 0.00000 0.430026
</Section>

newXOutput 280

<Section columns = "stress_xx | stress_yy | stress_xy">
  1 2352.81 0.00000 0.424281
  2 2352.81 0.00000 -0.424281
  3 1842.60 0.00000 0.212285
  4 1842.60 0.00000 -0.212285
  5 1842.60 0.00000 -0.212285
  6 1842.60 0.00000 0.212285
  7 2352.81 0.00000 -0.424281
  8 2352.81 0.00000 0.424281
</Section>

newXOutput 281

<Section columns = "stress_xx | stress_yy | stress_xy">
  1 2323.12 0.00000 0.418632
  2 2323.12 0.00000 -0.418632
  3 1816.41 0.00000 0.209456
  4 1816.41 0.00000 -0.209456
  5 1816.41 0.00000 -0.209456
  6 1816.41 0.00000 0.209456
  7 2323.12 0.00000 -0.418632
  8 2323.12 0.00000 0.418632
</Section>

newXOutput 282

<Section columns = "stress_xx | stress_yy | stress_xy">
  1 2292.56 0.00000 0.413076
  2 2292.56 0.00000 -0.413076
  3 1789.60 0.00000 0.206674
  4 1789.60 0.00000 -0.206674
  5 1789.60 0.00000 -0.206674
  6 1789.60 0.00000 0.206674
  7 2292.56 0.00000 -0.413076
  8 2292.56 0.00000 0.413076
</Section>

newXOutput 283

<Section columns = "stress_xx | stress_yy | stress_xy">
  1 2261.08 0.00000 0.407609
  2 2261.08 0.00000 -0.407609
  3 1762.13 0.00000 0.203937
  4 1762.13 0.00000 -0.203937
  5 1762.13 0.00000 -0.203937
  6 1762.13 0.00000 0.203937
  7 2261.08 0.00000 -0.407609
  8 2261.08 0.00000 0.407609
</Section>

newXOutput 284

<Section columns = "stress_xx | stress_yy | stress_xy">
  1 2228.63 0.00000 0.402229
  2 2228.63 0.00000 -0.402229
  3 1733.95 0.00000 0.201243
  4 1733.95 0.00000 -0.201243
  5 1733.95 0.00000 -0.201243
  6 1733.95 0.00000 0.201243
  7 2228.63 0.00000 -0.402229
  8 2228.63 0.00000 0.402229
</Section>

newXOutput 285

<Section columns = "stress_xx | stress_yy | stress_xy">
  1 2195.13 0.00000 0.396934
  2 2195.13 0.00000 -0.396934
  3 1705.01 0.00000 0.198592
  4 1705.01 0.00000 -0.198592
  5 1705.01 0.00000 -0.198592
  6 1705.01 0.00000 0.198592
  7 2195.13 0.00000 -0.396934
  8 2195.13 0.00000 0.396934
</Section>

newXOutput 286

<Section columns = "stress_xx | stress_yy | stress_xy">
  1 2160.53 0.00000 0.391720
  2 2160.53 0.00000 -0.391720
  3 1675.27 0.00000 0.195981
  4 1675.27 0.00000 -0.195981
  5 1675.27 0.00000 -0.195981
  6 1675.27 0.00000 0.195981
  7 2160.53 0.00000 -0.391720
  8 2160.53 0.00000 0.391720
</Section>

newXOutput 287

<Section columns = "stress_xx | stress_yy | stress_xy">
  1 2124.73 0.00000 0.386585
  2 2124.73 0.00000 -0.386585
  3 1644.66 0.00000 0.193411
  4 1644.66 0.00000 -0.193411
  5 1644.66 0.00000 -0.193411
  6 1644.66 0.00000 0.193411
  7 2124.73 0.00000 -0.386585
  8 2124.73 0.00000 0.386585
</Section>

newXOutput 288

<Section columns = "stress_xx | stress_yy | stress_xy">
  1 2087.65 0.00000 0.381528
  2 2087.65 0.00000 -0.381528
  3 1613.13 0.00000 0.190879
  4 1613.13 0.00000 -0.190879
  5 1613.13 0.00000 -0.190879
  6 1613.13 0.00000 0.190879
  7 2087.65 0.00000 -0.381528
  8 2087.65 0.00000 0.381528
</Section>

newXOutput 289

<Section columns = "stress_xx | stress_yy | stress_xy">
  1 2049.19 0.00000 0.376546
  2 2049.19 0.00000 -0.376546
  3 1580.59 0.00000 0.188385
  4 1580.59 0.00000 -0.188385
  5 1580.59 0.00000 -0.188385
  6 1580.59 0.00000 0.188385
  7 2049.19 0.00000 -0.376546
  8 2049.19 0.00000 0.376546
</Section>

newXOutput 290

<Section columns = "stress_xx | stress_yy | stress_xy">
  1 2009.25 0.00000 0.371637
  2 2009.25 0.00000 -0.371637
  3 1546.97 0.00000 0.185928
  4 1546.97 0.00000 -0.185927
  5 1546.97 0.00000 -0.185927
  6 1546.97 0.00000 0.185928
  7 2009.25 0.00000 -0.371637
  8 2009.25 0.00000 0.371637
</Section>

newXOutput 291

<Section columns = "stress_xx | stress_yy | stress_xy">
  1 1967.69 0.00000 0.366800
  2 1967.69 0.00000 -0.366800
  3 1512.19 0.00000 0.183505
  4 1512.19 0.00000 -0.183506
  5 1512.19 0.00000 -0.183506
  6 1512.19 0.00000 0.183505
  7 1967.69 0.00000 -0.366800
  8 1967.69 0.00000 0.366800
</Section>

newXOutput 292

<Section columns = "stress_xx | stress_yy | stress_xy">
  1 1924.39 0.00000 0.362032
  2 1924.39 0.00000 -0.362032
  3 1476.12 0.00000 0.181119
  4 1476.12 0.00000 -0.181118
  5 1476.12 0.00000 -0.181118
  6 1476.12 0.00000 0.181119
  7 1924.39 0.00000 -0.362032
  8 1924.39 0.00000 0.362032
</Section>

newXOutput 293

<Section columns = "stress_xx | stress_yy | stress_xy">
  1 1879.17 0.00000 0.357331
  2 1879.17 0.00000 -0.357331
  3 1438.67 0.00000 0.178765
  4 1438.67 0.00000 -0.178766
  5 1438.67 0.00000 -0.178766
  6 1438.67 0.00000 0.178765
  7 1879.17 0.00000 -0.357331
  8 1879.17 0.00000 0.357331
</Section>

newXOutput 294

<Section columns = "stress_xx | stress_yy | stress_xy">
  1 1831.86 0.00000 0.352695
  2 1831.86 0.00000 -0.352695
  3 1399.69 0.00000 0.176446
  4 1399.69 0.00000 -0.176444
  5 1399.69 0.00000 -0.176444
  6 1399.69 0.00000 0.176446
  7 1831.86 0.00000 -0.352695
  8 1831.86 0.00000 0.352695
</Section>

newXOutput 295

<Section columns = "stress_xx | stress_yy | stress_xy">
  1 1782.24 0.00000 0.348123
  2 1782.24 0.00000 -0.348122
  3 1359.04 0.00000 0.174154
  4 1359.04 0.00000 -0.174157
  5 1359.04 0.00000 -0.174157
  6 1359.04 0.00000 0.174154
  7 1782.24 0.00000 -0.348122
  8 1782.24 0.00000 0.348123
</Section>

newXOutput 296

<Section columns = "stress_xx | stress_yy | stress_xy">
  1 1730.05 0.00000 0.343610
  2 1730.05 0.00000 -0.343611
  3 1316.52 0.00000 0.171898
  4 1316.52 0.00000 -0.171895
  5 1316.52 0.00000 -0.171895
  6 1316.52 0.00000 0.171898
  7 1730.05 0.00000 -0.343611
  8 1730.05 0.00000 0.343610
</Section>

newXOutput 297

<Section columns = "stress_xx | stress_yy | stress_xy">
  1 1675.01 0.00000 0.339156
  2 1675.01 0.00000 -0.339155
  3 1271.93 0.00000 0.169665
  4 1271.93 0.00000 -0.169669
  5 1271.93 0.00000 -0.169669
  6 1271.93 0.00000 0.169665
  7 1675.01 0.00000 -0.339155
  8 1675.01 0.00000 0.339156
</Section>

newXOutput 298

<Section columns = "stress_xx | stress_yy | stress_xy">
  1 1619.74 0.00000 0.355344
  2 1619.74 0.00000 -0.355343
  3 1227.01 0.00000 0.177767
  4 1227.01 0.00000 -0.177771
  5 1227.01 0.00000 -0.177771
  6 1227.01 0.00000 0.177767
  7 1619.74 0.00000 -0.355343
  8 1619.74 0.00000 0.355344
</Section>

newXOutput 299

<Section columns = "stress_xx | stress_yy | stress_xy">
  1 1557.66 0.00000 0.370982
  2 1557.66 0.00000 -0.370981
  3 1177.34 0.00000 0.185594
  4 1177.34 0.00000 -0.185599
  5 1177.34 0.00000 -0.185599
  6 1177.34 0.00000 0.185594
  7 1557.66 0.00000 -0.370981
  8 1557.66 0.00000 0.370982
</Section>

newXOutput 300

<Section columns = "stress_xx | stress_yy | stress_xy">
  1 1491.31 0.00000 0.383990
  2 1491.31 0.00000 -0.383989
  3 1124.57 0.00000 0.192105
  4 1124.57 0.00000 -0.192110
  5 1124.57 0.00000 -0.192110
  6 1124.57 0.00000 0.192105
  7 1491.31 0.00000 -0.383989
  8 1491.31 0.00000 0.383990
</Section>

newXOutput 301

<Section columns = "stress_xx | stress_yy | stress_xy">
  1 1420.09 0.00000 0.394673
  2 1420.09 0.00000 -0.394672
  3 1068.26 0.00000 0.197453
  4 1068.26 0.00000 -0.197458
  5 1068.26 0.00000 -0.197458
  6 1068.26 0.00000 0.197453
  7 1420.09 0.00000 -0.394672
  8 1420.09 0.00000 0.394673
</Section>

newXOutput 302

<Section columns = "stress_xx | stress_yy | stress_xy">
  1 1343.14 0.00000 0.403311
  2 1343.14 0.00000 -0.403309
  3 1007.81 0.00000 0.201776
  4 1007.81 0.00000 -0.201781
  5 1007.81 0.00000 -0.201781
  6 1007.81 0.00000 0.201776
  7 1343.14 0.00000 -0.403309
  8 1343.14 0.00000 0.403311
</Section>

newXOutput 303

<Section columns = "stress_xx | stress_yy | stress_xy">
  1 1259.39 0.00000 0.410134
  2 1259.39 0.00000 -0.410132
  3 942.435 0.00000 0.205192
  4 942.435 0.00000 -0.205196
  5 942.435 0.00000 -0.205196
  6 942.435 0.00000 0.205192
  7 1259.39 0.00000 -0.410132
  8 1259.39 0.00000 0.410134
</Section>

newXOutput 304

<Section columns = "stress_xx | stress_yy | stress_xy">
  1 1167.39 0.00000 0.415327
  2 1167.39 0.00000 -0.415326
  3 871.084 0.00000 0.207791
  4 871.084 0.00000 -0.207795
  5 871.084 0.00000 -0.207795
  6 871.084 0.00000 0.207791
  7 1167.39 0.00000 -0.415326
  8 1167.39 0.00000 0.415327
</Section>

newXOutput 305

<Section columns = "stress_xx | stress_yy | stress_xy">
  1 1065.11 0.00000 0.419023
  2 1065.11 0.00000 -0.419022
  3 792.305 0.00000 0.209641
  4 792.305 0.00000 -0.209644
  5 792.305 0.00000 -0.209644
  6 792.305 0.00000 0.209641
  7 1065.11 0.00000 -0.419022
  8 1065.11 0.00000 0.419023
</Section>

newXOutput 306

<Section columns = "stress_xx | stress_yy | stress_xy">
  1 949.624 0.00000 0.421282
  2 949.624 0.00000 -0.421281
  3 703.986 0.00000 0.210772
  4 703.986 0.00000 -0.210774
  5 703.986 0.00000 -0.210774
  6 703.986 0.00000 0.210772
  7 949.624 0.00000 -0.421281
  8 949.624 0.00000 0.421282
</Section>

newXOutput 307

<Section columns = "stress_xx | stress_yy | stress_xy">
  1 816.396 0.00000 0.422053
  2 816.396 0.00000 -0.422052
  3 602.866 0.00000 0.211157
  4 602.866 0.00000 -0.211158
  5 602.866 0.00000 -0.211158
  6 602.866 0.00000 0.211157
  7 816.396 0.00000 -0.422052
  8 816.396 0.00000 0.422053
</Section>

newXOutput 308

<Section columns = "stress_xx | stress_yy | stress_xy">
  1 654.664 0.00000 0.396588
  2 654.664 0.00000 -0.396588
  3 481.271 0.00000 0.198409
  4 481.271 0.00000 -0.198409
  5 481.271 0.00000 -0.198409
  6 481.271 0.00000 0.198409
  7 654.664 0.00000 -0.396588
  8 654.664 0.00000 0.396588
</Section>

newXOutput 309

<Section columns = "stress_xx | stress_yy | stress_xy">
  1 443.273 0.00000 0.331253
  2 443.273 0.00000 -0.331253
  3 324.079 0.00000 0.165706
  4 324.079 0.00000 -0.165706
  5 324.079 0.00000 -0.165706
  6 324.079 0.00000 0.165706
  7 443.273 0.00000 -0.331253
  8 443.273 0.00000 0.331253
</Section>

newXOutput 310

<Section columns = "stress_xx | stress_yy | stress_xy">
  1 108.414 0.00000 0.220110
  2 108.414 0.00000 -0.220110
  3 78.5598 0.00000 0.110089
  4 78.5598 0.00000 -0.110089
  5 78.5598 0.00000 -0.110089
  6 78.5598 0.00000 0.110089
  7 108.414 0.00000 -0.220110
  8 108.414 0.00000 0.220110
</Section>

newXOutput 311

<Section columns = "stress_xx | stress_yy | stress_xy">
  1 0.0155825 0.00000 0.127429
  2 0.0155825 0.00000 -0.127429
  3 -0.00778606 0.00000 0.0637259
  4 -0.00778606 0.00000 -0.0637259
  5 -0.00778606 0.00000 -0.0637259
  6 -0.00778606 0.00000 0.0637259
  7 0.0155825 0.00000 -0.127429
  8 0.0155825 0.00000 0.127429
</Section>

