newXOutput 1

<Section columns = "stress_xx | stress_yy | stress_xy">
  1 0.00000 0.00000 0.00000
  2 0.00000 0.00000 0.00000
  3 0.00000 0.00000 0.00000
  4 0.00000 0.00000 0.00000
  5 0.00000 0.00000 0.00000
  6 0.00000 0.00000 0.00000
  7 0.00000 0.00000 0.00000
  8 0.00000 0.00000 0.00000
  9 0.00000 0.00000 0.00000
  10 0.00000 0.00000 0.00000
  11 0.00000 0.00000 0.00000
  12 0.00000 0.00000 0.00000
  13 0.00000 0.00000 0.00000
  14 0.00000 0.00000 0.00000
  15 0.00000 0.00000 0.00000
  16 0.00000 0.00000 0.00000
  17 0.00000 0.00000 0.00000
  18 0.00000 0.00000 0.00000
  19 0.00000 0.00000 0.00000
  20 0.00000 0.00000 0.00000
  21 0.00000 0.00000 0.00000
  22 0.00000 0.00000 0.00000
  23 0.00000 0.00000 0.00000
  24 0.00000 0.00000 0.00000
</Section>

newXOutput 2

<Section columns = "stress_xx | stress_yy | stress_xy">
  1 1.64839 4.43415e-15 1.69518e-15
  2 1.64839 5.88229e-16 6.72569e-16
  3 1.64839 3.12836e-15 1.38525e-15
  4 1.64839 -6.67011e-16 8.40032e-16
  5 1.64839 2.66444e-15 1.09025e-15
  6 1.64839 -9.75644e-16 1.13255e-15
  7 1.64839 2.46719e-15 9.22683e-16
  8 1.64839 -1.05825e-15 1.35550e-15
  9 1.64839 1.77759e-15 6.75954e-16
  10 1.64839 -1.61964e-15 1.36936e-15
  11 1.64839 1.13660e-15 4.44373e-16
  12 1.64839 -8.50459e-16 9.45928e-16
  13 1.64839 -1.29526e-16 2.00175e-16
  14 1.64839 -3.72375e-16 9.60298e-16
  15 1.64839 -1.64515e-15 1.62768e-16
  16 1.64839 -4.40816e-16 1.15077e-15
  17 1.64839 -2.50782e-15 1.90225e-16
  18 1.64839 1.33810e-15 9.41039e-16
  19 1.64839 -3.43690e-15 1.11705e-16
  20 1.64839 2.68949e-15 6.48001e-16
  21 1.64839 -3.89489e-15 -1.51110e-16
  22 1.64839 1.10844e-15 7.63359e-16
  23 1.64839 -3.88241e-15 -3.97333e-16
  24 1.64839 -1.17760e-16 7.61877e-16
</Section>

newXOutput 3

<Section columns = "stress_xx | stress_yy | stress_xy">
  1 3.29678 5.32233e-15 2.15139e-15
  2 3.29678 1.98920e-15 8.81647e-16
  3 3.29678 3.07091e-15 1.69904e-15
  4 3.29678 1.22362e-16 1.00947e-15
  5 3.29678 2.53031e-15 1.21442e-15
  6 3.29678 1.21650e-16 1.26414e-15
  7 3.29678 1.42716e-16 9.81338e-16
  8 3.29678 -1.19344e-15 1.25805e-15
  9 3.29678 -9.65041e-17 1.14455e-15
  10 3.29678 -1.09499e-15 1.93867e-15
  11 3.29678 7.22262e-16 1.05092e-15
  12 3.29678 -4.31516e-16 1.78460e-15
  13 3.29678 7.79101e-16 7.50868e-16
  14 3.29678 -8.60375e-16 1.21768e-15
  15 3.29678 8.18766e-16 5.14966e-16
  16 3.29678 -2.33906e-16 1.24514e-15
  17 3.29678 -1.33156e-15 8.70143e-17
  18 3.29678 4.90301e-16 7.86965e-16
  19 3.29678 -1.10083e-15 8.49509e-18
  20 3.29678 4.51277e-15 6.36939e-16
  21 3.29678 -1.54032e-15 -2.39209e-16
  22 3.29678 2.61619e-15 6.03753e-16
  23 3.29678 -2.51651e-15 -7.06964e-16
  24 3.29678 -1.34290e-15 2.11554e-16
</Section>

newXOutput 4

<Section columns = "stress_xx | stress_yy | stress_xy">
  1 4.94518 2.61424e-15 1.69543e-15
  2 4.94518 5.02925e-17 1.32455e-15
  3 4.94518 2.96448e-15 1.44440e-15
  4 4.94518 1.44140e-16 1.29933e-15
  5 4.94518 2.96448e-15 9.41707e-16
  6 4.94518 1.44140e-16 8.69460e-16
  7 4.94518 2.68294e-15 8.20892e-16
  8 4.94518 -1.41938e-15 1.10489e-15
  9 4.94518 2.05116e-15 5.49978e-16
  10 4.94518 -1.79477e-15 1.07319e-15
  11 4.94518 1.02558e-15 4.36447e-16
  12 4.94518 -1.28198e-15 9.52101e-16
  13 4.94518 4.87644e-16 -1.21470e-17
  14 4.94518 -1.56352e-15 5.59902e-16
  15 4.94518 -2.12128e-15 -4.27555e-16
  16 4.94518 -1.40628e-15 5.58420e-16
  17 4.94518 -3.71915e-15 -1.40048e-16
  18 4.94518 4.91534e-16 8.30816e-16
  19 4.94518 -3.56581e-15 -1.92394e-16
  20 4.94518 9.95120e-16 4.92445e-16
  21 4.94518 -5.80998e-15 -2.00492e-16
  22 4.94518 8.56294e-16 7.48248e-16
  23 4.94518 -9.24370e-15 5.92813e-18
  24 4.94518 1.01210e-15 1.66163e-15
</Section>

newXOutput 5

<Section columns = "stress_xx | stress_yy | stress_xy">
  1 6.59357 2.61424e-15 1.61849e-15
  2 6.59357 1.58866e-15 6.23942e-16
  3 6.59357 1.93890e-15 1.24973e-15
  4 6.59357 4.00535e-16 5.81886e-16
  5 6.59357 1.42080e-15 7.02200e-16
  6 6.59357 1.93008e-16 1.04435e-15
  7 6.59357 -5.94967e-17 4.73682e-16
  8 6.59357 -7.34835e-16 1.01956e-15
  9 6.59357 1.45182e-17 4.37929e-16
  10 6.59357 -1.15909e-15 1.29600e-15
  11 6.59357 2.54554e-15 1.11705e-16
  12 6.59357 1.51996e-15 6.83755e-16
  13 6.59357 3.31473e-15 -2.32090e-17
  14 6.59357 -2.74803e-16 6.61630e-16
  15 6.59357 1.16298e-15 -4.06913e-16
  16 6.59357 -2.17015e-15 3.68593e-16
  17 6.59357 -1.50013e-15 -6.04441e-17
  18 6.59357 -1.95874e-15 5.94173e-16
  19 6.59357 8.75084e-16 -8.08692e-16
  20 6.59357 5.43601e-15 -6.34082e-17
  21 6.59357 -1.18813e-15 -9.27410e-16
  22 6.59357 1.63222e-15 -3.91143e-17
  23 6.59357 -5.75475e-15 -1.37561e-15
  24 6.59357 -8.83149e-15 -2.91953e-16
</Section>

newXOutput 6

<Section columns = "stress_xx | stress_yy | stress_xy">
  1 8.24196 4.71570e-15 2.25927e-15
  2 8.24196 1.12617e-15 1.25919e-15
  3 8.24196 4.01521e-15 2.04594e-15
  4 8.24196 4.25681e-16 1.34060e-15
  5 8.24196 3.92136e-15 1.50188e-15
  6 8.24196 -6.93746e-16 1.44697e-15
  7 8.24196 1.60707e-15 1.00336e-15
  8 8.24196 -2.23885e-15 1.30450e-15
  9 8.24196 1.37402e-16 1.01996e-15
  10 8.24196 -1.91376e-15 1.49028e-15
  11 8.24196 -3.56980e-16 1.57433e-15
  12 8.24196 -5.48488e-15 2.10104e-15
  13 8.24196 -3.20779e-15 8.31610e-16
  14 8.24196 -4.69197e-15 1.32109e-15
  15 8.24196 -7.63871e-16 6.93732e-16
  16 8.24196 2.00229e-15 1.37857e-15
  17 8.24196 -5.29861e-15 2.72793e-16
  18 8.24196 -2.53245e-15 1.01808e-15
  19 8.24196 -7.54278e-15 4.87311e-16
  20 8.24196 -2.41488e-15 8.94224e-16
  21 8.24196 -1.78414e-15 8.09486e-16
  22 8.24196 3.04770e-15 1.66756e-15
  23 8.24196 -7.18893e-16 7.49042e-16
  24 8.24196 5.10949e-15 2.22341e-15
</Section>

newXOutput 7

<Section columns = "stress_xx | stress_yy | stress_xy">
  1 9.89035 4.85310e-15 2.22605e-15
  2 9.89035 1.77636e-15 -3.51675e-16
  3 9.89035 3.17733e-15 2.10071e-15
  4 9.89035 1.00585e-16 8.86116e-16
  5 9.89035 3.50242e-15 1.90480e-15
  6 9.89035 1.45126e-15 2.60272e-15
  7 9.89035 1.58866e-15 1.53601e-15
  8 9.89035 1.07587e-15 2.27724e-15
  9 9.89035 4.44089e-15 8.75461e-16
  10 9.89035 3.92810e-15 1.09403e-15
  11 9.89035 3.17733e-15 1.22746e-15
  12 9.89035 2.66454e-15 1.34025e-15
  13 9.89035 2.42655e-15 1.37344e-15
  14 9.89035 -1.67577e-15 1.88504e-15
  15 9.89035 3.31473e-15 2.97881e-16
  16 9.89035 7.50777e-16 1.07339e-15
  17 9.89035 1.49093e-15 1.06746e-15
  18 9.89035 4.16324e-15 7.81434e-16
  19 9.89035 -2.96838e-15 3.96645e-16
  20 9.89035 1.94279e-15 9.08250e-16
  21 9.89035 -3.28284e-15 2.97881e-16
  22 9.89035 5.24689e-15 1.68376e-15
  23 9.89035 2.19426e-15 -7.66401e-17
  24 9.89035 1.40678e-14 1.84889e-15
</Section>

newXOutput 8

<Section columns = "stress_xx | stress_yy | stress_xy">
  1 11.5387 5.22849e-15 1.23746e-15
  2 11.5387 3.17733e-15 -6.67036e-16
  3 11.5387 1.03621e-15 1.58826e-15
  4 11.5387 -6.10527e-16 8.16807e-16
  5 11.5387 3.16670e-15 1.46983e-15
  6 11.5387 7.11112e-16 1.76341e-15
  7 11.5387 2.66454e-15 5.72843e-16
  8 11.5387 2.15175e-15 1.24662e-15
  9 11.5387 -2.28915e-15 1.16702e-15
  10 11.5387 -1.26357e-15 1.93442e-15
  11 11.5387 -2.85223e-15 1.40662e-15
  12 11.5387 -3.87781e-15 1.57986e-15
  13 11.5387 1.21327e-15 6.77536e-16
  14 11.5387 -8.37886e-16 1.70884e-15
  15 11.5387 -6.13375e-16 1.22233e-15
  16 11.5387 -4.20291e-15 2.42687e-15
  17 11.5387 -1.96405e-15 4.18769e-16
  18 11.5387 -2.47684e-15 1.56287e-15
  19 11.5387 4.36309e-16 -8.19754e-16
  20 11.5387 6.99421e-15 4.29037e-16
  21 11.5387 -2.62202e-15 -7.59310e-16
  22 11.5387 4.26098e-15 -1.26816e-16
  23 11.5387 -3.53146e-15 -9.46570e-16
  24 11.5387 2.40529e-15 -2.53633e-16
</Section>

newXOutput 9

<Section columns = "stress_xx | stress_yy | stress_xy">
  1 13.1871 8.66922e-16 2.05112e-15
  2 13.1871 -1.61770e-15 1.96450e-15
  3 13.1871 1.10491e-15 1.40852e-15
  4 13.1871 -7.29521e-16 7.16127e-16
  5 13.1871 3.75388e-16 3.64544e-16
  6 13.1871 3.75388e-16 -3.31358e-16
  7 13.1871 3.45213e-15 7.18423e-16
  8 13.1871 -6.50192e-16 1.18469e-15
  9 13.1871 3.25096e-16 4.46027e-16
  10 13.1871 -2.75164e-15 9.87854e-16
  11 13.1871 2.37987e-16 3.39165e-16
  12 13.1871 3.31473e-15 1.65650e-15
  13 13.1871 -9.46251e-16 1.49216e-15
  14 13.1871 3.88559e-15 3.14786e-15
  15 13.1871 -4.88498e-15 -4.45233e-16
  16 13.1871 -5.72287e-15 4.73285e-16
  17 13.1871 1.55678e-15 -2.21241e-17
  18 13.1871 -5.29719e-15 7.75506e-16
  19 13.1871 1.51996e-15 -1.04533e-15
  20 13.1871 2.22045e-15 -4.12841e-16
  21 13.1871 -3.41246e-15 -1.84889e-15
  22 13.1871 1.31101e-15 -1.32744e-16
  23 13.1871 -6.35465e-15 -1.35348e-15
  24 13.1871 -1.22675e-15 9.34714e-16
</Section>

newXOutput 10

<Section columns = "stress_xx | stress_yy | stress_xy">
  1 14.8355 2.42655e-15 1.37047e-15
  2 14.8355 3.75388e-16 2.34473e-16
  3 14.8355 4.76599e-15 1.71033e-15
  4 14.8355 2.20204e-15 2.19872e-15
  5 14.8355 6.11666e-15 9.19312e-16
  6 14.8355 1.50155e-15 5.28595e-16
  7 14.8355 2.28915e-15 3.71557e-16
  8 14.8355 7.50777e-16 2.80891e-16
  9 14.8355 -2.23885e-15 4.57089e-16
  10 14.8355 8.37886e-16 8.86126e-16
  11 14.8355 -2.81541e-15 2.25581e-16
  12 14.8355 -8.45610e-15 6.04441e-17
  13 14.8355 2.70135e-15 -2.03456e-16
  14 14.8355 -6.01608e-15 5.94173e-16
  15 14.8355 5.23911e-15 6.28154e-16
  16 14.8355 2.56680e-15 1.77225e-15
  17 14.8355 2.92093e-15 1.09551e-15
  18 14.8355 2.73324e-15 1.95358e-15
  19 14.8355 -1.08365e-15 -9.40642e-16
  20 14.8355 3.09800e-15 2.63901e-16
  21 14.8355 -5.66195e-15 -9.24446e-16
  22 14.8355 1.22105e-15 -1.71065e-16
  23 14.8355 -7.65503e-15 -1.32109e-15
  24 14.8355 2.60077e-15 -6.60546e-16
</Section>

newXOutput 11

<Section columns = "stress_xx | stress_yy | stress_xy">
  1 16.4839 4.85310e-15 2.69724e-15
  2 16.4839 7.50777e-16 1.47354e-15
  3 16.4839 2.05116e-15 2.17707e-15
  4 16.4839 -2.05116e-15 9.75092e-16
  5 16.4839 -1.45126e-15 1.58134e-15
  6 16.4839 -5.55358e-15 2.17956e-15
  7 16.4839 -6.13375e-16 8.42672e-16
  8 16.4839 -3.17733e-15 2.18213e-15
  9 16.4839 1.72606e-15 1.13976e-15
  10 16.4839 -8.37886e-16 1.83270e-15
  11 16.4839 2.80194e-15 8.28646e-16
  12 16.4839 -2.74803e-16 1.59605e-15
  13 16.4839 -2.90252e-15 -1.15595e-15
  14 16.4839 -5.97926e-15 -1.60712e-15
  15 16.4839 -2.05116e-15 -1.48030e-15
  16 16.4839 2.56395e-15 -6.82670e-16
  17 16.4839 6.79096e-15 5.77977e-16
  18 16.4839 1.07849e-14 1.16622e-15
  19 16.4839 -8.91860e-15 -4.29037e-16
  20 16.4839 -2.25233e-15 -3.83200e-17
  21 16.4839 -2.07078e-14 4.95409e-16
  22 16.4839 -3.46067e-15 1.27684e-15
  23 16.4839 -1.33170e-14 1.32109e-15
  24 16.4839 3.68442e-15 6.60546e-16
</Section>

newXOutput 12

<Section columns = "stress_xx | stress_yy | stress_xy">
  1 18.1323 2.80194e-15 1.21010e-15
  2 18.1323 2.80194e-15 -5.78566e-16
  3 18.1323 7.50777e-16 1.77220e-15
  4 18.1323 1.77636e-15 1.13809e-15
  5 18.1323 3.75388e-16 1.73798e-15
  6 18.1323 1.40097e-15 1.82055e-15
  7 18.1323 -2.52713e-15 9.35508e-16
  8 18.1323 -4.57829e-15 2.50669e-16
  9 18.1323 -4.67888e-15 3.41335e-16
  10 18.1323 -7.75562e-15 1.68100e-16
  11 18.1323 -3.75388e-16 1.59092e-15
  12 18.1323 -2.42655e-15 2.16297e-15
  13 18.1323 1.67577e-15 1.84455e-15
  14 18.1323 -2.42655e-15 3.10954e-15
  15 18.1323 -2.80194e-15 3.80449e-16
  16 18.1323 -7.50777e-16 1.62924e-15
  17 18.1323 -8.38455e-15 1.81650e-15
  18 18.1323 1.65452e-15 2.22341e-15
  19 18.1323 4.18165e-15 2.02588e-15
  20 18.1323 -2.78068e-15 3.29087e-15
  21 18.1323 1.59644e-15 -1.97528e-16
  22 18.1323 -6.82493e-15 1.39773e-15
  23 18.1323 -1.12503e-14 -1.14410e-15
  24 18.1323 -6.71448e-15 0.00000
</Section>

newXOutput 13

<Section columns = "stress_xx | stress_yy | stress_xy">
  1 19.7807 -7.50777e-16 1.32487e-15
  2 19.7807 -2.80194e-15 5.50448e-16
  3 19.7807 -3.75388e-16 1.35034e-15
  4 19.7807 -1.40097e-15 9.34387e-16
  5 19.7807 1.77636e-15 4.48197e-16
  6 19.7807 1.77636e-15 -3.57531e-16
  7 19.7807 9.67507e-16 5.66915e-16
  8 19.7807 1.55963e-15 1.04830e-15
  9 19.7807 3.98617e-15 4.29831e-16
  10 19.7807 2.36848e-15 1.31813e-15
  11 19.7807 7.48082e-15 -1.65136e-16
  12 19.7807 8.50640e-15 -6.16297e-16
  13 19.7807 -6.50192e-16 2.09385e-16
  14 19.7807 2.42655e-15 7.81434e-16
  15 19.7807 -8.50640e-15 4.12841e-16
  16 19.7807 -8.50640e-15 9.68694e-16
  17 19.7807 -9.55323e-15 0.00000
  18 19.7807 -1.03621e-14 0.00000
  19 19.7807 -8.08850e-15 -1.89314e-15
  20 19.7807 3.78500e-15 -2.79546e-15
  21 19.7807 -3.64760e-15 3.18417e-16
  22 19.7807 3.74819e-15 7.69578e-16
  23 19.7807 -2.01170e-16 -6.36833e-16
  24 19.7807 -6.35465e-15 1.89314e-15
</Section>

newXOutput 14

<Section columns = "stress_xx | stress_yy | stress_xy">
  1 21.4126 -0.000124545 2.49090e-05
  2 21.4126 -0.000124545 -2.49090e-05
  3 21.4126 -0.000241278 7.31646e-05
  4 21.4126 -0.000241278 -7.31646e-05
  5 21.4127 -0.000810298 0.000283480
  6 21.4127 -0.000810298 -0.000283480
  7 21.4129 -0.00289826 0.00102519
  8 21.4129 -0.00289826 -0.00102519
  9 21.4138 -0.0104192 0.00368868
  10 21.4138 -0.0104192 -0.00368868
  11 21.4109 0.0143613 0.00288626
  12 21.4109 0.0143613 -0.00288626
  13 21.4109 0.0143613 -0.00288626
  14 21.4109 0.0143613 0.00288626
  15 21.4138 -0.0104192 -0.00368868
  16 21.4138 -0.0104192 0.00368868
  17 21.4129 -0.00289826 -0.00102519
  18 21.4129 -0.00289826 0.00102519
  19 21.4127 -0.000810298 -0.000283480
  20 21.4127 -0.000810298 0.000283480
  21 21.4126 -0.000241278 -7.31646e-05
  22 21.4126 -0.000241278 7.31646e-05
  23 21.4126 -0.000124545 -2.49090e-05
  24 21.4126 -0.000124545 2.49090e-05
</Section>

newXOutput 15

<Section columns = "stress_xx | stress_yy | stress_xy">
  1 23.0327 -0.000338108 6.76216e-05
  2 23.0327 -0.000338108 -6.76216e-05
  3 23.0327 -0.000655008 0.000198623
  4 23.0327 -0.000655008 -0.000198623
  5 23.0329 -0.00219975 0.000769575
  6 23.0329 -0.00219975 -0.000769575
  7 23.0336 -0.00786804 0.00278313
  8 23.0336 -0.00786804 -0.00278313
  9 23.0359 -0.0282854 0.0100138
  10 23.0359 -0.0282854 -0.0100138
  11 23.0252 0.0380385 0.00783545
  12 23.0252 0.0380385 -0.00783545
  13 23.0252 0.0380385 -0.00783545
  14 23.0252 0.0380385 0.00783545
  15 23.0359 -0.0282854 -0.0100138
  16 23.0359 -0.0282854 0.0100138
  17 23.0336 -0.00786804 -0.00278313
  18 23.0336 -0.00786804 0.00278313
  19 23.0329 -0.00219975 -0.000769575
  20 23.0329 -0.00219975 0.000769575
  21 23.0327 -0.000655008 -0.000198623
  22 23.0327 -0.000655008 0.000198623
  23 23.0327 -0.000338108 -6.76216e-05
  24 23.0327 -0.000338108 6.76216e-05
</Section>

newXOutput 16

<Section columns = "stress_xx | stress_yy | stress_xy">
  1 24.6512 -0.000561009 0.000112202
  2 24.6512 -0.000561009 -0.000112202
  3 24.6513 -0.00108683 0.000329568
  4 24.6513 -0.00108683 -0.000329568
  5 24.6516 -0.00364996 0.00127693
  6 24.6516 -0.00364996 -0.00127693
  7 24.6526 -0.0130551 0.00461795
  8 24.6526 -0.0130551 -0.00461795
  9 24.6565 -0.0469328 0.0166155
  10 24.6565 -0.0469328 -0.0166155
  11 24.6405 0.0638248 0.0130010
  12 24.6405 0.0638248 -0.0130010
  13 24.6405 0.0638248 -0.0130010
  14 24.6405 0.0638248 0.0130010
  15 24.6565 -0.0469328 -0.0166155
  16 24.6565 -0.0469328 0.0166155
  17 24.6526 -0.0130551 -0.00461795
  18 24.6526 -0.0130551 0.00461795
  19 24.6516 -0.00364996 -0.00127693
  20 24.6516 -0.00364996 0.00127693
  21 24.6513 -0.00108683 -0.000329568
  22 24.6513 -0.00108683 0.000329568
  23 24.6512 -0.000561009 -0.000112202
  24 24.6512 -0.000561009 0.000112202
</Section>

newXOutput 17

<Section columns = "stress_xx | stress_yy | stress_xy">
  1 26.2685 -0.000791711 0.000158342
  2 26.2685 -0.000791711 -0.000158342
  3 26.2686 -0.00153376 0.000465094
  4 26.2686 -0.00153376 -0.000465094
  5 26.2690 -0.00515092 0.00180203
  6 26.2690 -0.00515092 -0.00180203
  7 26.2705 -0.0184237 0.00651696
  8 26.2705 -0.0184237 -0.00651696
  9 26.2759 -0.0662328 0.0234483
  10 26.2759 -0.0662328 -0.0234483
  11 26.2544 0.0905276 0.0183474
  12 26.2544 0.0905276 -0.0183474
  13 26.2544 0.0905276 -0.0183474
  14 26.2544 0.0905276 0.0183474
  15 26.2759 -0.0662328 -0.0234483
  16 26.2759 -0.0662328 0.0234483
  17 26.2705 -0.0184237 -0.00651696
  18 26.2705 -0.0184237 0.00651696
  19 26.2690 -0.00515092 -0.00180203
  20 26.2690 -0.00515092 0.00180203
  21 26.2686 -0.00153376 -0.000465094
  22 26.2686 -0.00153376 0.000465094
  23 26.2685 -0.000791711 -0.000158342
  24 26.2685 -0.000791711 0.000158342
</Section>

newXOutput 18

<Section columns = "stress_xx | stress_yy | stress_xy">
  1 27.8844 -0.00103114 0.000206228
  2 27.8844 -0.00103114 -0.000206228
  3 27.8845 -0.00199760 0.000605748
  4 27.8845 -0.00199760 -0.000605748
  5 27.8851 -0.00670866 0.00234700
  6 27.8851 -0.00670866 -0.00234700
  7 27.8870 -0.0239954 0.00848782
  8 27.8870 -0.0239954 -0.00848782
  9 27.8941 -0.0862628 0.0305395
  10 27.8941 -0.0862628 -0.0305395
  11 27.8669 0.118226 0.0238960
  12 27.8669 0.118226 -0.0238960
  13 27.8669 0.118226 -0.0238960
  14 27.8669 0.118226 0.0238960
  15 27.8941 -0.0862628 -0.0305395
  16 27.8941 -0.0862628 0.0305395
  17 27.8870 -0.0239954 -0.00848782
  18 27.8870 -0.0239954 0.00848782
  19 27.8851 -0.00670866 -0.00234700
  20 27.8851 -0.00670866 0.00234700
  21 27.8845 -0.00199760 -0.000605748
  22 27.8845 -0.00199760 0.000605748
  23 27.8844 -0.00103114 -0.000206228
  24 27.8844 -0.00103114 0.000206228
</Section>

newXOutput 19

<Section columns = "stress_xx | stress_yy | stress_xy">
  1 29.4989 -0.00128024 0.000256048
  2 29.4989 -0.00128024 -0.000256048
  3 29.4990 -0.00248017 0.000752083
  4 29.4990 -0.00248017 -0.000752083
  5 29.4997 -0.00832932 0.00291398
  6 29.4997 -0.00832932 -0.00291398
  7 29.5022 -0.0297922 0.0105383
  8 29.5022 -0.0297922 -0.0105383
  9 29.5110 -0.107102 0.0379171
  10 29.5110 -0.107102 -0.0379171
  11 29.4777 0.147030 0.0296687
  12 29.4777 0.147030 -0.0296687
  13 29.4777 0.147030 -0.0296687
  14 29.4777 0.147030 0.0296687
  15 29.5110 -0.107102 -0.0379171
  16 29.5110 -0.107102 0.0379171
  17 29.5022 -0.0297922 -0.0105383
  18 29.5022 -0.0297922 0.0105383
  19 29.4997 -0.00832932 -0.00291398
  20 29.4997 -0.00832932 0.00291398
  21 29.4990 -0.00248017 -0.000752083
  22 29.4990 -0.00248017 0.000752083
  23 29.4989 -0.00128024 -0.000256048
  24 29.4989 -0.00128024 0.000256048
</Section>

newXOutput 20

<Section columns = "stress_xx | stress_yy | stress_xy">
  1 31.1118 -0.00154002 0.000308003
  2 31.1118 -0.00154002 -0.000308003
  3 31.1119 -0.00298344 0.000904690
  4 31.1119 -0.00298344 -0.000904690
  5 31.1127 -0.0100195 0.00350527
  6 31.1127 -0.0100195 -0.00350527
  7 31.1157 -0.0358374 0.0126766
  8 31.1157 -0.0358374 -0.0126766
  9 31.1263 -0.128834 0.0456110
  10 31.1263 -0.128834 -0.0456110
  11 31.0867 0.177056 0.0356889
  12 31.0867 0.177056 -0.0356889
  13 31.0867 0.177056 -0.0356889
  14 31.0867 0.177056 0.0356889
  15 31.1263 -0.128834 -0.0456110
  16 31.1263 -0.128834 0.0456110
  17 31.1157 -0.0358374 -0.0126766
  18 31.1157 -0.0358374 0.0126766
  19 31.1127 -0.0100195 -0.00350527
  20 31.1127 -0.0100195 0.00350527
  21 31.1119 -0.00298344 -0.000904690
  22 31.1119 -0.00298344 0.000904690
  23 31.1118 -0.00154002 -0.000308003
  24 31.1118 -0.00154002 0.000308003
</Section>

newXOutput 21

<Section columns = "stress_xx | stress_yy | stress_xy">
  1 32.7229 -0.00181156 0.000362311
  2 32.7229 -0.00181156 -0.000362311
  3 32.7231 -0.00350948 0.00106421
  4 32.7231 -0.00350948 -0.00106421
  5 32.7240 -0.0117861 0.00412332
  6 32.7240 -0.0117861 -0.00412332
  7 32.7275 -0.0421564 0.0149118
  8 32.7275 -0.0421564 -0.0149118
  9 32.7399 -0.151551 0.0536533
  10 32.7399 -0.151551 -0.0536533
  11 32.6938 0.208431 0.0419817
  12 32.6938 0.208431 -0.0419817
  13 32.6938 0.208431 -0.0419817
  14 32.6938 0.208431 0.0419817
  15 32.7399 -0.151551 -0.0536533
  16 32.7399 -0.151551 0.0536533
  17 32.7275 -0.0421564 -0.0149118
  18 32.7275 -0.0421564 0.0149118
  19 32.7240 -0.0117861 -0.00412332
  20 32.7240 -0.0117861 0.00412332
  21 32.7231 -0.00350948 -0.00106421
  22 32.7231 -0.00350948 0.00106421
  23 32.7229 -0.00181156 -0.000362311
  24 32.7229 -0.00181156 0.000362311
</Section>

newXOutput 22

<Section columns = "stress_xx | stress_yy | stress_xy">
  1 34.3320 -0.00209602 0.000419205
  2 34.3320 -0.00209602 -0.000419205
  3 34.3322 -0.00406057 0.00123132
  4 34.3322 -0.00406057 -0.00123132
  5 34.3333 -0.0136369 0.00477081
  6 34.3333 -0.0136369 -0.00477081
  7 34.3373 -0.0487761 0.0172534
  8 34.3373 -0.0487761 -0.0172534
  9 34.3517 -0.175349 0.0620784
  10 34.3517 -0.175349 -0.0620784
  11 34.2988 0.241288 0.0485741
  12 34.2988 0.241288 -0.0485741
  13 34.2988 0.241288 -0.0485741
  14 34.2988 0.241288 0.0485741
  15 34.3517 -0.175349 -0.0620784
  16 34.3517 -0.175349 0.0620784
  17 34.3373 -0.0487761 -0.0172534
  18 34.3373 -0.0487761 0.0172534
  19 34.3333 -0.0136369 -0.00477081
  20 34.3333 -0.0136369 0.00477081
  21 34.3322 -0.00406057 -0.00123132
  22 34.3322 -0.00406057 0.00123132
  23 34.3320 -0.00209602 -0.000419205
  24 34.3320 -0.00209602 0.000419205
</Section>

newXOutput 23

<Section columns = "stress_xx | stress_yy | stress_xy">
  1 35.9390 -0.00239468 0.000478936
  2 35.9390 -0.00239468 -0.000478936
  3 35.9393 -0.00463915 0.00140677
  4 35.9393 -0.00463915 -0.00140677
  5 35.9405 -0.0155799 0.00545058
  6 35.9405 -0.0155799 -0.00545058
  7 35.9451 -0.0557261 0.0197118
  8 35.9451 -0.0557261 -0.0197118
  9 35.9615 -0.200334 0.0709237
  10 35.9615 -0.200334 -0.0709237
  11 35.9013 0.275773 0.0554952
  12 35.9013 0.275773 -0.0554952
  13 35.9013 0.275773 -0.0554952
  14 35.9013 0.275773 0.0554952
  15 35.9615 -0.200334 -0.0709237
  16 35.9615 -0.200334 0.0709237
  17 35.9451 -0.0557261 -0.0197118
  18 35.9451 -0.0557261 0.0197118
  19 35.9405 -0.0155799 -0.00545058
  20 35.9405 -0.0155799 0.00545058
  21 35.9393 -0.00463915 -0.00140677
  22 35.9393 -0.00463915 0.00140677
  23 35.9390 -0.00239468 -0.000478936
  24 35.9390 -0.00239468 0.000478936
</Section>

newXOutput 24

<Section columns = "stress_xx | stress_yy | stress_xy">
  1 37.5437 -0.00270888 0.000541777
  2 37.5437 -0.00270888 -0.000541777
  3 37.5440 -0.00524785 0.00159135
  4 37.5440 -0.00524785 -0.00159135
  5 37.5454 -0.0176242 0.00616575
  6 37.5454 -0.0176242 -0.00616575
  7 37.5506 -0.0630379 0.0222982
  8 37.5506 -0.0630379 -0.0222982
  9 37.5692 -0.226619 0.0802296
  10 37.5692 -0.226619 -0.0802296
  11 37.5013 0.312043 0.0627767
  12 37.5013 0.312043 -0.0627767
  13 37.5013 0.312043 -0.0627767
  14 37.5013 0.312043 0.0627767
  15 37.5692 -0.226619 -0.0802296
  16 37.5692 -0.226619 0.0802296
  17 37.5506 -0.0630379 -0.0222982
  18 37.5506 -0.0630379 0.0222982
  19 37.5454 -0.0176242 -0.00616575
  20 37.5454 -0.0176242 0.00616575
  21 37.5440 -0.00524785 -0.00159135
  22 37.5440 -0.00524785 0.00159135
  23 37.5437 -0.00270888 -0.000541777
  24 37.5437 -0.00270888 0.000541777
</Section>

newXOutput 25

<Section columns = "stress_xx | stress_yy | stress_xy">
  1 39.1458 -0.00304010 0.000608021
  2 39.1458 -0.00304010 -0.000608021
  3 39.1461 -0.00588951 0.00178592
  4 39.1461 -0.00588951 -0.00178592
  5 39.1477 -0.0197791 0.00691965
  6 39.1477 -0.0197791 -0.00691965
  7 39.1535 -0.0707456 0.0250246
  8 39.1535 -0.0707456 -0.0250246
  9 39.1744 -0.254328 0.0900394
  10 39.1744 -0.254328 -0.0900394
  11 39.0985 0.350267 0.0704525
  12 39.0985 0.350267 -0.0704525
  13 39.0985 0.350267 -0.0704525
  14 39.0985 0.350267 0.0704525
  15 39.1744 -0.254328 -0.0900394
  16 39.1744 -0.254328 0.0900394
  17 39.1535 -0.0707456 -0.0250246
  18 39.1535 -0.0707456 0.0250246
  19 39.1477 -0.0197791 -0.00691965
  20 39.1477 -0.0197791 0.00691965
  21 39.1461 -0.00588951 -0.00178592
  22 39.1461 -0.00588951 0.00178592
  23 39.1458 -0.00304010 -0.000608021
  24 39.1458 -0.00304010 0.000608021
</Section>

newXOutput 26

<Section columns = "stress_xx | stress_yy | stress_xy">
  1 40.7451 -0.00338992 0.000677984
  2 40.7451 -0.00338992 -0.000677984
  3 40.7455 -0.00656721 0.00199142
  4 40.7455 -0.00656721 -0.00199142
  5 40.7472 -0.0220550 0.00771587
  6 40.7472 -0.0220550 -0.00771587
  7 40.7537 -0.0788861 0.0279041
  8 40.7537 -0.0788861 -0.0279041
  9 40.7770 -0.283593 0.100400
  10 40.7770 -0.283593 -0.100400
  11 40.6926 0.390627 0.0785593
  12 40.6926 0.390627 -0.0785593
  13 40.6926 0.390627 -0.0785593
  14 40.6926 0.390627 0.0785593
  15 40.7770 -0.283593 -0.100400
  16 40.7770 -0.283593 0.100400
  17 40.7537 -0.0788861 -0.0279041
  18 40.7537 -0.0788861 0.0279041
  19 40.7472 -0.0220550 -0.00771587
  20 40.7472 -0.0220550 0.00771587
  21 40.7455 -0.00656721 -0.00199142
  22 40.7455 -0.00656721 0.00199142
  23 40.7451 -0.00338992 -0.000677984
  24 40.7451 -0.00338992 0.000677984
</Section>

newXOutput 27

<Section columns = "stress_xx | stress_yy | stress_xy">
  1 42.3413 -0.00376002 0.000752004
  2 42.3413 -0.00376002 -0.000752004
  3 42.3417 -0.00728420 0.00220884
  4 42.3417 -0.00728420 -0.00220884
  5 42.3437 -0.0244630 0.00855827
  6 42.3437 -0.0244630 -0.00855827
  7 42.3509 -0.0874987 0.0309506
  8 42.3509 -0.0874987 -0.0309506
  9 42.3767 -0.314555 0.111361
  10 42.3767 -0.314555 -0.111361
  11 42.2832 0.433317 0.0871362
  12 42.2832 0.433317 -0.0871362
  13 42.2832 0.433317 -0.0871362
  14 42.2832 0.433317 0.0871362
  15 42.3767 -0.314555 -0.111361
  16 42.3767 -0.314555 0.111361
  17 42.3509 -0.0874987 -0.0309506
  18 42.3509 -0.0874987 0.0309506
  19 42.3437 -0.0244630 -0.00855827
  20 42.3437 -0.0244630 0.00855827
  21 42.3417 -0.00728420 -0.00220884
  22 42.3417 -0.00728420 0.00220884
  23 42.3413 -0.00376002 -0.000752004
  24 42.3413 -0.00376002 0.000752004
</Section>

newXOutput 28

<Section columns = "stress_xx | stress_yy | stress_xy">
  1 43.9342 -0.00415221 0.000830442
  2 43.9342 -0.00415221 -0.000830442
  3 43.9346 -0.00804398 0.00243924
  4 43.9346 -0.00804398 -0.00243924
  5 43.9368 -0.0270146 0.00945095
  6 43.9368 -0.0270146 -0.00945095
  7 43.9447 -0.0966253 0.0341789
  8 43.9447 -0.0966253 -0.0341789
  9 43.9733 -0.347365 0.122977
  10 43.9733 -0.347365 -0.122977
  11 43.8702 0.478546 0.0962250
  12 43.8702 0.478546 -0.0962250
  13 43.8702 0.478546 -0.0962250
  14 43.8702 0.478546 0.0962250
  15 43.9733 -0.347365 -0.122977
  16 43.9733 -0.347365 0.122977
  17 43.9447 -0.0966253 -0.0341789
  18 43.9447 -0.0966253 0.0341789
  19 43.9368 -0.0270146 -0.00945095
  20 43.9368 -0.0270146 0.00945095
  21 43.9346 -0.00804398 -0.00243924
  22 43.9346 -0.00804398 0.00243924
  23 43.9342 -0.00415221 -0.000830442
  24 43.9342 -0.00415221 0.000830442
</Section>

newXOutput 29

<Section columns = "stress_xx | stress_yy | stress_xy">
  1 45.5234 -0.00456839 0.000913678
  2 45.5234 -0.00456839 -0.000913678
  3 45.5239 -0.00885022 0.00268372
  4 45.5239 -0.00885022 -0.00268372
  5 45.5262 -0.0297222 0.0103982
  6 45.5262 -0.0297222 -0.0103982
  7 45.5350 -0.106310 0.0376047
  8 45.5350 -0.106310 -0.0376047
  9 45.5664 -0.382181 0.135303
  10 45.5664 -0.382181 -0.135303
  11 45.4532 0.526532 0.105870
  12 45.4532 0.526532 -0.105870
  13 45.4532 0.526532 -0.105870
  14 45.4532 0.526532 0.105870
  15 45.5664 -0.382181 -0.135303
  16 45.5664 -0.382181 0.135303
  17 45.5350 -0.106310 -0.0376047
  18 45.5350 -0.106310 0.0376047
  19 45.5262 -0.0297222 -0.0103982
  20 45.5262 -0.0297222 0.0103982
  21 45.5239 -0.00885022 -0.00268372
  22 45.5239 -0.00885022 0.00268372
  23 45.5234 -0.00456839 -0.000913678
  24 45.5234 -0.00456839 0.000913678
</Section>

newXOutput 30

<Section columns = "stress_xx | stress_yy | stress_xy">
  1 47.1086 -0.00501054 0.00100211
  2 47.1086 -0.00501054 -0.00100211
  3 47.1091 -0.00970679 0.00294347
  4 47.1091 -0.00970679 -0.00294347
  5 47.1117 -0.0325989 0.0114046
  6 47.1117 -0.0325989 -0.0114046
  7 47.1213 -0.116599 0.0412442
  8 47.1213 -0.116599 -0.0412442
  9 47.1557 -0.419171 0.148398
  10 47.1557 -0.419171 -0.148398
  11 47.0318 0.577506 0.116116
  12 47.0318 0.577506 -0.116116
  13 47.0318 0.577506 -0.116116
  14 47.0318 0.577506 0.116116
  15 47.1557 -0.419171 -0.148398
  16 47.1557 -0.419171 0.148398
  17 47.1213 -0.116599 -0.0412442
  18 47.1213 -0.116599 0.0412442
  19 47.1117 -0.0325989 -0.0114046
  20 47.1117 -0.0325989 0.0114046
  21 47.1091 -0.00970679 -0.00294347
  22 47.1091 -0.00970679 0.00294347
  23 47.1086 -0.00501054 -0.00100211
  24 47.1086 -0.00501054 0.00100211
</Section>

newXOutput 31

<Section columns = "stress_xx | stress_yy | stress_xy">
  1 48.6894 -0.00548072 0.00109614
  2 48.6894 -0.00548072 -0.00109614
  3 48.6900 -0.0106177 0.00321968
  4 48.6900 -0.0106177 -0.00321968
  5 48.6929 -0.0356579 0.0124748
  6 48.6929 -0.0356579 -0.0124748
  7 48.7033 -0.127541 0.0451146
  8 48.7033 -0.127541 -0.0451146
  9 48.7410 -0.458505 0.162324
  10 48.7410 -0.458505 -0.162324
  11 48.6057 0.631706 0.127012
  12 48.6057 0.631706 -0.127012
  13 48.6057 0.631706 -0.127012
  14 48.6057 0.631706 0.127012
  15 48.7410 -0.458505 -0.162324
  16 48.7410 -0.458505 0.162324
  17 48.7033 -0.127541 -0.0451146
  18 48.7033 -0.127541 0.0451146
  19 48.6929 -0.0356579 -0.0124748
  20 48.6929 -0.0356579 0.0124748
  21 48.6900 -0.0106177 -0.00321968
  22 48.6900 -0.0106177 0.00321968
  23 48.6894 -0.00548072 -0.00109614
  24 48.6894 -0.00548072 0.00109614
</Section>

newXOutput 32

<Section columns = "stress_xx | stress_yy | stress_xy">
  1 50.2656 -0.00598104 0.00119621
  2 50.2656 -0.00598104 -0.00119621
  3 50.2662 -0.0115869 0.00351359
  4 50.2662 -0.0115869 -0.00351359
  5 50.2693 -0.0389130 0.0136136
  6 50.2693 -0.0389130 -0.0136136
  7 50.2808 -0.139183 0.0492329
  8 50.2808 -0.139183 -0.0492329
  9 50.3219 -0.500360 0.177142
  10 50.3219 -0.500360 -0.177142
  11 50.1744 0.689374 0.138607
  12 50.1744 0.689374 -0.138607
  13 50.1744 0.689374 -0.138607
  14 50.1744 0.689374 0.138607
  15 50.3219 -0.500360 -0.177142
  16 50.3219 -0.500360 0.177142
  17 50.2808 -0.139183 -0.0492329
  18 50.2808 -0.139183 0.0492329
  19 50.2693 -0.0389130 -0.0136136
  20 50.2693 -0.0389130 0.0136136
  21 50.2662 -0.0115869 -0.00351359
  22 50.2662 -0.0115869 0.00351359
  23 50.2656 -0.00598104 -0.00119621
  24 50.2656 -0.00598104 0.00119621
</Section>

newXOutput 33

<Section columns = "stress_xx | stress_yy | stress_xy">
  1 51.8367 -0.00651359 0.00130272
  2 51.8367 -0.00651359 -0.00130272
  3 51.8374 -0.0126186 0.00382644
  4 51.8374 -0.0126186 -0.00382644
  5 51.8407 -0.0423779 0.0148257
  6 51.8407 -0.0423779 -0.0148257
  7 51.8532 -0.151577 0.0536166
  8 51.8532 -0.151577 -0.0536166
  9 51.8980 -0.544913 0.192914
  10 51.8980 -0.544913 -0.192914
  11 51.7376 0.750757 0.150949
  12 51.7376 0.750757 -0.150949
  13 51.7376 0.750757 -0.150949
  14 51.7376 0.750757 0.150949
  15 51.8980 -0.544913 -0.192914
  16 51.8980 -0.544913 0.192914
  17 51.8532 -0.151577 -0.0536166
  18 51.8532 -0.151577 0.0536166
  19 51.8407 -0.0423779 -0.0148257
  20 51.8407 -0.0423779 0.0148257
  21 51.8374 -0.0126186 -0.00382644
  22 51.8374 -0.0126186 0.00382644
  23 51.8367 -0.00651359 -0.00130272
  24 51.8367 -0.00651359 0.00130272
</Section>

newXOutput 34

<Section columns = "stress_xx | stress_yy | stress_xy">
  1 53.4023 -0.00708050 0.00141610
  2 53.4023 -0.00708050 -0.00141610
  3 53.4030 -0.0137169 0.00415948
  4 53.4030 -0.0137169 -0.00415948
  5 53.4067 -0.0460662 0.0161161
  6 53.4067 -0.0460662 -0.0161161
  7 53.4202 -0.164769 0.0582831
  8 53.4202 -0.164769 -0.0582831
  9 53.4689 -0.592339 0.209705
  10 53.4689 -0.592339 -0.209705
  11 53.2950 0.816096 0.164086
  12 53.2950 0.816096 -0.164086
  13 53.2950 0.816096 -0.164086
  14 53.2950 0.816096 0.164086
  15 53.4689 -0.592339 -0.209705
  16 53.4689 -0.592339 0.209705
  17 53.4202 -0.164769 -0.0582831
  18 53.4202 -0.164769 0.0582831
  19 53.4067 -0.0460662 -0.0161161
  20 53.4067 -0.0460662 0.0161161
  21 53.4030 -0.0137169 -0.00415948
  22 53.4030 -0.0137169 0.00415948
  23 53.4023 -0.00708050 -0.00141610
  24 53.4023 -0.00708050 0.00141610
</Section>

newXOutput 35

<Section columns = "stress_xx | stress_yy | stress_xy">
  1 54.9621 -0.00768384 0.00153677
  2 54.9621 -0.00768384 -0.00153677
  3 54.9629 -0.0148857 0.00451391
  4 54.9629 -0.0148857 -0.00451391
  5 54.9669 -0.0499916 0.0174894
  6 54.9669 -0.0499916 -0.0174894
  7 54.9815 -0.178809 0.0632495
  8 54.9815 -0.178809 -0.0632495
  9 55.0344 -0.642813 0.227574
  10 55.0344 -0.642813 -0.227574
  11 54.8459 0.885633 0.178068
  12 54.8459 0.885633 -0.178068
  13 54.8459 0.885633 -0.178068
  14 54.8459 0.885633 0.178068
  15 55.0344 -0.642813 -0.227574
  16 55.0344 -0.642813 0.227574
  17 54.9815 -0.178809 -0.0632495
  18 54.9815 -0.178809 0.0632495
  19 54.9669 -0.0499916 -0.0174894
  20 54.9669 -0.0499916 0.0174894
  21 54.9629 -0.0148857 -0.00451391
  22 54.9629 -0.0148857 0.00451391
  23 54.9621 -0.00768384 -0.00153677
  24 54.9621 -0.00768384 0.00153677
</Section>

newXOutput 36

<Section columns = "stress_xx | stress_yy | stress_xy">
  1 56.5156 -0.00832564 0.00166513
  2 56.5156 -0.00832564 -0.00166513
  3 56.5165 -0.0161290 0.00489094
  4 56.5165 -0.0161290 -0.00489094
  5 56.5208 -0.0541672 0.0189502
  6 56.5208 -0.0541672 -0.0189502
  7 56.5367 -0.193744 0.0685325
  8 56.5367 -0.193744 -0.0685325
  9 56.5939 -0.696505 0.246582
  10 56.5939 -0.696505 -0.246582
  11 56.3902 0.959601 0.192942
  12 56.3902 0.959601 -0.192942
  13 56.3902 0.959601 -0.192942
  14 56.3902 0.959601 0.192942
  15 56.5939 -0.696505 -0.246582
  16 56.5939 -0.696505 0.246582
  17 56.5367 -0.193744 -0.0685325
  18 56.5367 -0.193744 0.0685325
  19 56.5208 -0.0541672 -0.0189502
  20 56.5208 -0.0541672 0.0189502
  21 56.5165 -0.0161290 -0.00489094
  22 56.5165 -0.0161290 0.00489094
  23 56.5156 -0.00832564 -0.00166513
  24 56.5156 -0.00832564 0.00166513
</Section>

newXOutput 37

<Section columns = "stress_xx | stress_yy | stress_xy">
  1 58.0624 -0.00900792 0.00180158
  2 58.0624 -0.00900792 -0.00180158
  3 58.0634 -0.0174508 0.00529175
  4 58.0634 -0.0174508 -0.00529175
  5 58.0681 -0.0586061 0.0205031
  6 58.0681 -0.0586061 -0.0205031
  7 58.0853 -0.209621 0.0741486
  8 58.0853 -0.209621 -0.0741486
  9 58.1472 -0.753583 0.266789
  10 58.1472 -0.753583 -0.266789
  11 57.9272 1.03823 0.208753
  12 57.9272 1.03823 -0.208753
  13 57.9272 1.03823 -0.208753
  14 57.9272 1.03823 0.208753
  15 58.1472 -0.753583 -0.266789
  16 58.1472 -0.753583 0.266789
  17 58.0853 -0.209621 -0.0741486
  18 58.0853 -0.209621 0.0741486
  19 58.0681 -0.0586061 -0.0205031
  20 58.0681 -0.0586061 0.0205031
  21 58.0634 -0.0174508 -0.00529175
  22 58.0634 -0.0174508 0.00529175
  23 58.0624 -0.00900792 -0.00180158
  24 58.0624 -0.00900792 0.00180158
</Section>

newXOutput 38

<Section columns = "stress_xx | stress_yy | stress_xy">
  1 59.6022 -0.00973270 0.00194654
  2 59.6022 -0.00973270 -0.00194654
  3 59.6033 -0.0188549 0.00571752
  4 59.6033 -0.0188549 -0.00571752
  5 59.6083 -0.0633216 0.0221528
  6 59.6083 -0.0633216 -0.0221528
  7 59.6269 -0.226488 0.0801147
  8 59.6269 -0.226488 -0.0801147
  9 59.6938 -0.814216 0.288256
  10 59.6938 -0.814216 -0.288256
  11 59.4566 1.12175 0.225549
  12 59.4566 1.12175 -0.225549
  13 59.4566 1.12175 -0.225549
  14 59.4566 1.12175 0.225549
  15 59.6938 -0.814216 -0.288256
  16 59.6938 -0.814216 0.288256
  17 59.6269 -0.226488 -0.0801147
  18 59.6269 -0.226488 0.0801147
  19 59.6083 -0.0633216 -0.0221528
  20 59.6083 -0.0633216 0.0221528
  21 59.6033 -0.0188549 -0.00571752
  22 59.6033 -0.0188549 0.00571752
  23 59.6022 -0.00973270 -0.00194654
  24 59.6022 -0.00973270 0.00194654
</Section>

newXOutput 39

<Section columns = "stress_xx | stress_yy | stress_xy">
  1 61.1345 -0.0105021 0.00210042
  2 61.1345 -0.0105021 -0.00210042
  3 61.1356 -0.0203454 0.00616950
  4 61.1356 -0.0203454 -0.00616950
  5 61.1410 -0.0683273 0.0239041
  6 61.1410 -0.0683273 -0.0239041
  7 61.1611 -0.244392 0.0864479
  8 61.1611 -0.244392 -0.0864479
  9 61.2333 -0.878582 0.311043
  10 61.2333 -0.878582 -0.311043
  11 60.9778 1.21039 0.243380
  12 60.9778 1.21039 -0.243380
  13 60.9778 1.21039 -0.243380
  14 60.9778 1.21039 0.243380
  15 61.2333 -0.878582 -0.311043
  16 61.2333 -0.878582 0.311043
  17 61.1611 -0.244392 -0.0864479
  18 61.1611 -0.244392 0.0864479
  19 61.1410 -0.0683273 -0.0239041
  20 61.1410 -0.0683273 0.0239041
  21 61.1356 -0.0203454 -0.00616950
  22 61.1356 -0.0203454 0.00616950
  23 61.1345 -0.0105021 -0.00210042
  24 61.1345 -0.0105021 0.00210042
</Section>

newXOutput 40

<Section columns = "stress_xx | stress_yy | stress_xy">
  1 62.6587 -0.0113183 0.00226367
  2 62.6587 -0.0113183 -0.00226367
  3 62.6599 -0.0219268 0.00664902
  4 62.6599 -0.0219268 -0.00664902
  5 62.6658 -0.0736379 0.0257620
  6 62.6658 -0.0736379 -0.0257620
  7 62.6874 -0.263387 0.0931670
  8 62.6874 -0.263387 -0.0931670
  9 62.7652 -0.946868 0.335218
  10 62.7652 -0.946868 -0.335218
  11 62.4902 1.30440 0.262296
  12 62.4902 1.30440 -0.262296
  13 62.4902 1.30440 -0.262296
  14 62.4902 1.30440 0.262296
  15 62.7652 -0.946868 -0.335218
  16 62.7652 -0.946868 0.335218
  17 62.6874 -0.263387 -0.0931670
  18 62.6874 -0.263387 0.0931670
  19 62.6658 -0.0736379 -0.0257620
  20 62.6658 -0.0736379 0.0257620
  21 62.6599 -0.0219268 -0.00664902
  22 62.6599 -0.0219268 0.00664902
  23 62.6587 -0.0113183 -0.00226367
  24 62.6587 -0.0113183 0.00226367
</Section>

newXOutput 41

<Section columns = "stress_xx | stress_yy | stress_xy">
  1 64.1743 -0.0121840 0.00243681
  2 64.1743 -0.0121840 -0.00243681
  3 64.1756 -0.0236038 0.00715757
  4 64.1756 -0.0236038 -0.00715757
  5 64.1819 -0.0792701 0.0277324
  6 64.1819 -0.0792701 -0.0277324
  7 64.2052 -0.283532 0.100293
  8 64.2052 -0.283532 -0.100293
  9 64.2889 -1.01929 0.360857
  10 64.2889 -1.01929 -0.360857
  11 63.9933 1.40407 0.282357
  12 63.9933 1.40407 -0.282357
  13 63.9933 1.40407 -0.282357
  14 63.9933 1.40407 0.282357
  15 64.2889 -1.01929 -0.360857
  16 64.2889 -1.01929 0.360857
  17 64.2052 -0.283532 -0.100293
  18 64.2052 -0.283532 0.100293
  19 64.1819 -0.0792701 -0.0277324
  20 64.1819 -0.0792701 0.0277324
  21 64.1756 -0.0236038 -0.00715757
  22 64.1756 -0.0236038 0.00715757
  23 64.1743 -0.0121840 -0.00243681
  24 64.1743 -0.0121840 0.00243681
</Section>

newXOutput 42

<Section columns = "stress_xx | stress_yy | stress_xy">
  1 65.6806 -0.0131021 0.00262042
  2 65.6806 -0.0131021 -0.00262042
  3 65.6820 -0.0253824 0.00769689
  4 65.6820 -0.0253824 -0.00769689
  5 65.6888 -0.0852431 0.0298220
  6 65.6888 -0.0852431 -0.0298220
  7 65.7139 -0.304896 0.107850
  8 65.7139 -0.304896 -0.107850
  9 65.8039 -1.09609 0.388048
  10 65.8039 -1.09609 -0.388048
  11 65.4862 1.50972 0.303633
  12 65.4862 1.50972 -0.303633
  13 65.4862 1.50972 -0.303633
  14 65.4862 1.50972 0.303633
  15 65.8039 -1.09609 -0.388048
  16 65.8039 -1.09609 0.388048
  17 65.7139 -0.304896 -0.107850
  18 65.7139 -0.304896 0.107850
  19 65.6888 -0.0852431 -0.0298220
  20 65.6888 -0.0852431 0.0298220
  21 65.6820 -0.0253824 -0.00769689
  22 65.6820 -0.0253824 0.00769689
  23 65.6806 -0.0131021 -0.00262042
  24 65.6806 -0.0131021 0.00262042
</Section>

newXOutput 43

<Section columns = "stress_xx | stress_yy | stress_xy">
  1 67.1770 -0.0140761 0.00281522
  2 67.1770 -0.0140761 -0.00281522
  3 67.1785 -0.0272693 0.00826907
  4 67.1785 -0.0272693 -0.00826907
  5 67.1858 -0.0915800 0.0320389
  6 67.1858 -0.0915800 -0.0320389
  7 67.2126 -0.327562 0.115867
  8 67.2126 -0.327562 -0.115867
  9 67.3094 -1.17757 0.416895
  10 67.3094 -1.17757 -0.416895
  11 66.9682 1.62174 0.326205
  12 66.9682 1.62174 -0.326205
  13 66.9682 1.62174 -0.326205
  14 66.9682 1.62174 0.326205
  15 67.3094 -1.17757 -0.416895
  16 67.3094 -1.17757 0.416895
  17 67.2126 -0.327562 -0.115867
  18 67.2126 -0.327562 0.115867
  19 67.1858 -0.0915800 -0.0320389
  20 67.1858 -0.0915800 0.0320389
  21 67.1785 -0.0272693 -0.00826907
  22 67.1785 -0.0272693 0.00826907
  23 67.1770 -0.0140761 -0.00281522
  24 67.1770 -0.0140761 0.00281522
</Section>

newXOutput 44

<Section columns = "stress_xx | stress_yy | stress_xy">
  1 68.6623 -0.0151103 0.00302205
  2 68.6623 -0.0151103 -0.00302205
  3 68.6639 -0.0292727 0.00887659
  4 68.6639 -0.0292727 -0.00887659
  5 68.6718 -0.0983083 0.0343928
  6 68.6718 -0.0983083 -0.0343928
  7 68.7006 -0.351628 0.124380
  8 68.7006 -0.351628 -0.124380
  9 68.8045 -1.26409 0.447524
  10 68.8045 -1.26409 -0.447524
  11 68.4382 1.74058 0.350171
  12 68.4382 1.74058 -0.350171
  13 68.4382 1.74058 -0.350171
  14 68.4382 1.74058 0.350171
  15 68.8045 -1.26409 -0.447524
  16 68.8045 -1.26409 0.447524
  17 68.7006 -0.351628 -0.124380
  18 68.7006 -0.351628 0.124380
  19 68.6718 -0.0983083 -0.0343928
  20 68.6718 -0.0983083 0.0343928
  21 68.6639 -0.0292727 -0.00887659
  22 68.6639 -0.0292727 0.00887659
  23 68.6623 -0.0151103 -0.00302205
  24 68.6623 -0.0151103 0.00302205
</Section>

newXOutput 45

<Section columns = "stress_xx | stress_yy | stress_xy">
  1 70.1356 -0.0162097 0.00324195
  2 70.1356 -0.0162097 -0.00324195
  3 70.1373 -0.0314027 0.00952249
  4 70.1373 -0.0314027 -0.00952249
  5 70.1457 -0.105462 0.0368953
  6 70.1457 -0.105462 -0.0368953
  7 70.1767 -0.377213 0.133430
  8 70.1767 -0.377213 -0.133430
  9 70.2881 -1.35607 0.480087
  10 70.2881 -1.35607 -0.480087
  11 69.8949 1.86681 0.375651
  12 69.8949 1.86681 -0.375651
  13 69.8949 1.86681 -0.375651
  14 69.8949 1.86681 0.375651
  15 70.2881 -1.35607 -0.480087
  16 70.2881 -1.35607 0.480087
  17 70.1767 -0.377213 -0.133430
  18 70.1767 -0.377213 0.133430
  19 70.1457 -0.105462 -0.0368953
  20 70.1457 -0.105462 0.0368953
  21 70.1373 -0.0314027 -0.00952249
  22 70.1373 -0.0314027 0.00952249
  23 70.1356 -0.0162097 -0.00324195
  24 70.1356 -0.0162097 0.00324195
</Section>

newXOutput 46

<Section columns = "stress_xx | stress_yy | stress_xy">
  1 71.5954 -0.0173807 0.00347614
  2 71.5954 -0.0173807 -0.00347614
  3 71.5973 -0.0336712 0.0102104
  4 71.5973 -0.0336712 -0.0102104
  5 71.6063 -0.113080 0.0395606
  6 71.6063 -0.113080 -0.0395606
  7 71.6395 -0.404463 0.143069
  8 71.6395 -0.404463 -0.143069
  9 71.7590 -1.45403 0.514768
  10 71.7590 -1.45403 -0.514768
  11 71.3369 2.00111 0.402787
  12 71.3369 2.00111 -0.402787
  13 71.3369 2.00111 -0.402787
  14 71.3369 2.00111 0.402787
  15 71.7590 -1.45403 -0.514768
  16 71.7590 -1.45403 0.514768
  17 71.6395 -0.404463 -0.143069
  18 71.6395 -0.404463 0.143069
  19 71.6063 -0.113080 -0.0395606
  20 71.6063 -0.113080 0.0395606
  21 71.5973 -0.0336712 -0.0102104
  22 71.5973 -0.0336712 0.0102104
  23 71.5954 -0.0173807 -0.00347614
  24 71.5954 -0.0173807 0.00347614
</Section>

newXOutput 47

<Section columns = "stress_xx | stress_yy | stress_xy">
  1 73.0401 -0.0186306 0.00372612
  2 73.0401 -0.0186306 -0.00372612
  3 73.0421 -0.0360926 0.0109447
  4 73.0421 -0.0360926 -0.0109447
  5 73.0518 -0.121212 0.0424056
  6 73.0518 -0.121212 -0.0424056
  7 73.0874 -0.433550 0.153358
  8 73.0874 -0.433550 -0.153358
  9 73.2155 -1.55860 0.551787
  10 73.2155 -1.55860 -0.551787
  11 72.7624 2.14429 0.431753
  12 72.7624 2.14429 -0.431753
  13 72.7624 2.14429 -0.431753
  14 72.7624 2.14429 0.431753
  15 73.2155 -1.55860 -0.551787
  16 73.2155 -1.55860 0.551787
  17 73.0874 -0.433550 -0.153358
  18 73.0874 -0.433550 0.153358
  19 73.0518 -0.121212 -0.0424056
  20 73.0518 -0.121212 0.0424056
  21 73.0421 -0.0360926 -0.0109447
  22 73.0421 -0.0360926 0.0109447
  23 73.0401 -0.0186306 -0.00372612
  24 73.0401 -0.0186306 0.00372612
</Section>

newXOutput 48

<Section columns = "stress_xx | stress_yy | stress_xy">
  1 74.4678 -0.0199683 0.00399366
  2 74.4678 -0.0199683 -0.00399366
  3 74.4699 -0.0386841 0.0117305
  4 74.4699 -0.0386841 -0.0117305
  5 74.4803 -0.129915 0.0454503
  6 74.4803 -0.129915 -0.0454503
  7 74.5184 -0.464678 0.164369
  8 74.5184 -0.464678 -0.164369
  9 74.6557 -1.67050 0.591406
  10 74.6557 -1.67050 -0.591406
  11 74.1692 2.29732 0.462753
  12 74.1692 2.29732 -0.462753
  13 74.1692 2.29732 -0.462753
  14 74.1692 2.29732 0.462753
  15 74.6557 -1.67050 -0.591406
  16 74.6557 -1.67050 0.591406
  17 74.5184 -0.464678 -0.164369
  18 74.5184 -0.464678 0.164369
  19 74.4803 -0.129915 -0.0454503
  20 74.4803 -0.129915 0.0454503
  21 74.4699 -0.0386841 -0.0117305
  22 74.4699 -0.0386841 0.0117305
  23 74.4678 -0.0199683 -0.00399366
  24 74.4678 -0.0199683 0.00399366
</Section>

newXOutput 49

<Section columns = "stress_xx | stress_yy | stress_xy">
  1 75.8759 -0.0214042 0.00428084
  2 75.8759 -0.0214042 -0.00428084
  3 75.8782 -0.0414658 0.0125740
  4 75.8782 -0.0414658 -0.0125740
  5 75.8894 -0.139257 0.0487186
  6 75.8894 -0.139257 -0.0487186
  7 75.9302 -0.498093 0.176189
  8 75.9302 -0.498093 -0.176189
  9 76.0774 -1.79063 0.633933
  10 76.0774 -1.79063 -0.633933
  11 75.5547 2.46132 0.496029
  12 75.5547 2.46132 -0.496029
  13 75.5547 2.46132 -0.496029
  14 75.5547 2.46132 0.496029
  15 76.0774 -1.79063 -0.633933
  16 76.0774 -1.79063 0.633933
  17 75.9302 -0.498093 -0.176189
  18 75.9302 -0.498093 0.176189
  19 75.8894 -0.139257 -0.0487186
  20 75.8894 -0.139257 0.0487186
  21 75.8782 -0.0414658 -0.0125740
  22 75.8782 -0.0414658 0.0125740
  23 75.8759 -0.0214042 -0.00428084
  24 75.8759 -0.0214042 0.00428084
</Section>

newXOutput 50

<Section columns = "stress_xx | stress_yy | stress_xy">
  1 77.2486 -0.0230016 0.00460032
  2 77.2486 -0.0230016 -0.00460032
  3 77.2510 -0.0445604 0.0135124
  4 77.2510 -0.0445604 -0.0135124
  5 77.2630 -0.149650 0.0523545
  6 77.2630 -0.149650 -0.0523545
  7 77.3069 -0.535266 0.189338
  8 77.3069 -0.535266 -0.189338
  9 77.4650 -1.92426 0.681244
  10 77.4650 -1.92426 -0.681244
  11 76.9424 2.66519 0.533048
  12 76.9424 2.66519 -0.533048
  13 76.9424 2.66519 -0.533048
  14 76.9424 2.66519 0.533048
  15 77.4650 -1.92426 -0.681244
  16 77.4650 -1.92426 0.681244
  17 77.3069 -0.535266 -0.189338
  18 77.3069 -0.535266 0.189338
  19 77.2630 -0.149650 -0.0523545
  20 77.2630 -0.149650 0.0523545
  21 77.2510 -0.0445604 -0.0135124
  22 77.2510 -0.0445604 0.0135124
  23 77.2486 -0.0230016 -0.00460032
  24 77.2486 -0.0230016 0.00460032
</Section>

newXOutput 51

<Section columns = "stress_xx | stress_yy | stress_xy">
  1 78.6061 -0.0246775 0.00493549
  2 78.6061 -0.0246775 -0.00493549
  3 78.6088 -0.0478070 0.0144969
  4 78.6088 -0.0478070 -0.0144969
  5 78.6216 -0.160553 0.0561689
  6 78.6216 -0.160553 -0.0561689
  7 78.6687 -0.574264 0.203132
  8 78.6687 -0.574264 -0.203132
  9 78.8383 -2.06446 0.730878
  10 78.8383 -2.06446 -0.730878
  11 78.2777 2.85936 0.571885
  12 78.2777 2.85936 -0.571885
  13 78.2777 2.85936 -0.571885
  14 78.2777 2.85936 0.571885
  15 78.8383 -2.06446 -0.730878
  16 78.8383 -2.06446 0.730878
  17 78.6687 -0.574264 -0.203132
  18 78.6687 -0.574264 0.203132
  19 78.6216 -0.160553 -0.0561689
  20 78.6216 -0.160553 0.0561689
  21 78.6088 -0.0478070 -0.0144969
  22 78.6088 -0.0478070 0.0144969
  23 78.6061 -0.0246775 -0.00493549
  24 78.6061 -0.0246775 0.00493549
</Section>

newXOutput 52

<Section columns = "stress_xx | stress_yy | stress_xy">
  1 79.9332 -0.0264940 0.00529880
  2 79.9332 -0.0264940 -0.00529880
  3 79.9361 -0.0513261 0.0155640
  4 79.9361 -0.0513261 -0.0155640
  5 79.9498 -0.172372 0.0603036
  6 79.9498 -0.172372 -0.0603036
  7 80.0004 -0.616536 0.218085
  8 80.0004 -0.616536 -0.218085
  9 80.1825 -2.21643 0.784678
  10 80.1825 -2.21643 -0.784678
  11 79.5806 3.06983 0.613982
  12 79.5806 3.06983 -0.613982
  13 79.5806 3.06983 -0.613982
  14 79.5806 3.06983 0.613982
  15 80.1825 -2.21643 -0.784678
  16 80.1825 -2.21643 0.784678
  17 80.0004 -0.616536 -0.218085
  18 80.0004 -0.616536 0.218085
  19 79.9498 -0.172372 -0.0603036
  20 79.9498 -0.172372 0.0603036
  21 79.9361 -0.0513261 -0.0155640
  22 79.9361 -0.0513261 0.0155640
  23 79.9332 -0.0264940 -0.00529880
  24 79.9332 -0.0264940 0.00529880
</Section>

newXOutput 53

<Section columns = "stress_xx | stress_yy | stress_xy">
  1 81.2249 -0.0284681 0.00569362
  2 81.2249 -0.0284681 -0.00569362
  3 81.2280 -0.0551505 0.0167237
  4 81.2280 -0.0551505 -0.0167237
  5 81.2428 -0.185215 0.0647969
  6 81.2428 -0.185215 -0.0647969
  7 81.2971 -0.662475 0.234335
  8 81.2971 -0.662475 -0.234335
  9 81.4928 -2.38158 0.843146
  10 81.4928 -2.38158 -0.843146
  11 80.8460 3.29854 0.659731
  12 80.8460 3.29854 -0.659731
  13 80.8460 3.29854 -0.659731
  14 80.8460 3.29854 0.659731
  15 81.4928 -2.38158 -0.843146
  16 81.4928 -2.38158 0.843146
  17 81.2971 -0.662475 -0.234335
  18 81.2971 -0.662475 0.234335
  19 81.2428 -0.185215 -0.0647969
  20 81.2428 -0.185215 0.0647969
  21 81.2280 -0.0551505 -0.0167237
  22 81.2280 -0.0551505 0.0167237
  23 81.2249 -0.0284681 -0.00569362
  24 81.2249 -0.0284681 0.00569362
</Section>

newXOutput 54

<Section columns = "stress_xx | stress_yy | stress_xy">
  1 82.4757 -0.0306170 0.00612339
  2 82.4757 -0.0306170 -0.00612339
  3 82.4789 -0.0593135 0.0179861
  4 82.4789 -0.0593135 -0.0179861
  5 82.4949 -0.199196 0.0696880
  6 82.4949 -0.199196 -0.0696880
  7 82.5533 -0.712481 0.252023
  8 82.5533 -0.712481 -0.252023
  9 82.7638 -2.56135 0.906789
  10 82.7638 -2.56135 -0.906789
  11 82.0681 3.54749 0.709529
  12 82.0681 3.54749 -0.709529
  13 82.0681 3.54749 -0.709529
  14 82.0681 3.54749 0.709529
  15 82.7638 -2.56135 -0.906789
  16 82.7638 -2.56135 0.906789
  17 82.5533 -0.712481 -0.252023
  18 82.5533 -0.712481 0.252023
  19 82.4949 -0.199196 -0.0696880
  20 82.4949 -0.199196 0.0696880
  21 82.4789 -0.0593135 -0.0179861
  22 82.4789 -0.0593135 0.0179861
  23 82.4757 -0.0306170 -0.00612339
  24 82.4757 -0.0306170 0.00612339
</Section>

newXOutput 55

<Section columns = "stress_xx | stress_yy | stress_xy">
  1 83.6793 -0.0329563 0.00659125
  2 83.6793 -0.0329563 -0.00659125
  3 83.6828 -0.0638453 0.0193603
  4 83.6828 -0.0638453 -0.0193603
  5 83.6999 -0.214416 0.0750125
  6 83.6999 -0.214416 -0.0750125
  7 83.7628 -0.766919 0.271279
  8 83.7628 -0.766919 -0.271279
  9 83.9894 -2.75705 0.976073
  10 83.9894 -2.75705 -0.976073
  11 83.2406 3.81850 0.763741
  12 83.2406 3.81850 -0.763741
  13 83.2406 3.81850 -0.763741
  14 83.2406 3.81850 0.763741
  15 83.9894 -2.75705 -0.976073
  16 83.9894 -2.75705 0.976073
  17 83.7628 -0.766919 -0.271279
  18 83.7628 -0.766919 0.271279
  19 83.6999 -0.214416 -0.0750125
  20 83.6999 -0.214416 0.0750125
  21 83.6828 -0.0638453 -0.0193603
  22 83.6828 -0.0638453 0.0193603
  23 83.6793 -0.0329563 -0.00659125
  24 83.6793 -0.0329563 0.00659125
</Section>

newXOutput 56

<Section columns = "stress_xx | stress_yy | stress_xy">
  1 84.8295 -0.0354974 0.00709948
  2 84.8295 -0.0354974 -0.00709948
  3 84.8332 -0.0687682 0.0208531
  4 84.8332 -0.0687682 -0.0208531
  5 84.8517 -0.230948 0.0807965
  6 84.8517 -0.230948 -0.0807965
  7 84.9195 -0.826053 0.292197
  8 84.9195 -0.826053 -0.292197
  9 85.1635 -2.96963 1.05133
  10 85.1635 -2.96963 -1.05133
  11 84.3569 4.11288 0.822631
  12 84.3569 4.11288 -0.822631
  13 84.3569 4.11288 -0.822631
  14 84.3569 4.11288 0.822631
  15 85.1635 -2.96963 -1.05133
  16 85.1635 -2.96963 1.05133
  17 84.9195 -0.826053 -0.292197
  18 84.9195 -0.826053 0.292197
  19 84.8517 -0.230948 -0.0807965
  20 84.8517 -0.230948 0.0807965
  21 84.8332 -0.0687682 -0.0208531
  22 84.8332 -0.0687682 0.0208531
  23 84.8295 -0.0354974 -0.00709948
  24 84.8295 -0.0354974 0.00709948
</Section>

newXOutput 57

<Section columns = "stress_xx | stress_yy | stress_xy">
  1 85.9205 -0.0382435 0.00764871
  2 85.9205 -0.0382435 -0.00764871
  3 85.9245 -0.0740883 0.0224664
  4 85.9245 -0.0740883 -0.0224664
  5 85.9444 -0.248815 0.0870470
  6 85.9444 -0.248815 -0.0870470
  7 86.0174 -0.889958 0.314802
  8 86.0174 -0.889958 -0.314802
  9 86.2803 -3.19937 1.13267
  10 86.2803 -3.19937 -1.13267
  11 85.4113 4.43102 0.886271
  12 85.4113 4.43102 -0.886271
  13 85.4113 4.43102 -0.886271
  14 85.4113 4.43102 0.886271
  15 86.2803 -3.19937 -1.13267
  16 86.2803 -3.19937 1.13267
  17 86.0174 -0.889958 -0.314802
  18 86.0174 -0.889958 0.314802
  19 85.9444 -0.248815 -0.0870470
  20 85.9444 -0.248815 0.0870470
  21 85.9245 -0.0740883 -0.0224664
  22 85.9245 -0.0740883 0.0224664
  23 85.9205 -0.0382435 -0.00764871
  24 85.9205 -0.0382435 0.00764871
</Section>

newXOutput 58

<Section columns = "stress_xx | stress_yy | stress_xy">
  1 86.9479 -0.0411855 0.00823710
  2 86.9479 -0.0411855 -0.00823710
  3 86.9523 -0.0797876 0.0241946
  4 86.9523 -0.0797876 -0.0241946
  5 86.9737 -0.267956 0.0937433
  6 86.9737 -0.267956 -0.0937433
  7 87.0523 -0.958419 0.339018
  8 87.0523 -0.958419 -0.339018
  9 87.3355 -3.44549 1.21980
  10 87.3355 -3.44549 -1.21980
  11 86.3996 4.77185 0.954449
  12 86.3996 4.77185 -0.954449
  13 86.3996 4.77185 -0.954449
  14 86.3996 4.77185 0.954449
  15 87.3355 -3.44549 -1.21980
  16 87.3355 -3.44549 1.21980
  17 87.0523 -0.958419 -0.339018
  18 87.0523 -0.958419 0.339018
  19 86.9737 -0.267956 -0.0937433
  20 86.9737 -0.267956 0.0937433
  21 86.9523 -0.0797876 -0.0241946
  22 86.9523 -0.0797876 0.0241946
  23 86.9479 -0.0411855 -0.00823710
  24 86.9479 -0.0411855 0.00823710
</Section>

newXOutput 59

<Section columns = "stress_xx | stress_yy | stress_xy">
  1 87.9099 -0.0442987 0.00885974
  2 87.9099 -0.0442987 -0.00885974
  3 87.9146 -0.0858187 0.0260235
  4 87.9146 -0.0858187 -0.0260235
  5 87.9377 -0.288210 0.100829
  6 87.9377 -0.288210 -0.100829
  7 88.0222 -1.03087 0.364645
  8 88.0222 -1.03087 -0.364645
  9 88.3268 -3.70593 1.31200
  10 88.3268 -3.70593 -1.31200
  11 87.3202 5.13254 1.02660
  12 87.3202 5.13254 -1.02660
  13 87.3202 5.13254 -1.02660
  14 87.3202 5.13254 1.02660
  15 88.3268 -3.70593 -1.31200
  16 88.3268 -3.70593 1.31200
  17 88.0222 -1.03087 -0.364645
  18 88.0222 -1.03087 0.364645
  19 87.9377 -0.288210 -0.100829
  20 87.9377 -0.288210 0.100829
  21 87.9146 -0.0858187 -0.0260235
  22 87.9146 -0.0858187 0.0260235
  23 87.9099 -0.0442987 -0.00885974
  24 87.9099 -0.0442987 0.00885974
</Section>

newXOutput 60

<Section columns = "stress_xx | stress_yy | stress_xy">
  1 88.8076 -0.0475435 0.00950870
  2 88.8076 -0.0475435 -0.00950870
  3 88.8126 -0.0921048 0.0279297
  4 88.8126 -0.0921048 -0.0279297
  5 88.8374 -0.309321 0.108215
  6 88.8374 -0.309321 -0.108215
  7 88.9281 -1.10638 0.391354
  8 88.9281 -1.10638 -0.391354
  9 89.2549 -3.97738 1.40811
  10 89.2549 -3.97738 -1.40811
  11 88.1746 5.50850 1.10179
  12 88.1746 5.50850 -1.10179
  13 88.1746 5.50850 -1.10179
  14 88.1746 5.50850 1.10179
  15 89.2549 -3.97738 -1.40811
  16 89.2549 -3.97738 1.40811
  17 88.9281 -1.10638 -0.391354
  18 88.9281 -1.10638 0.391354
  19 88.8374 -0.309321 -0.108215
  20 88.8374 -0.309321 0.108215
  21 88.8126 -0.0921048 -0.0279297
  22 88.8126 -0.0921048 0.0279297
  23 88.8076 -0.0475435 -0.00950870
  24 88.8076 -0.0475435 0.00950870
</Section>

newXOutput 61

<Section columns = "stress_xx | stress_yy | stress_xy">
  1 89.6448 -0.0508698 0.0101740
  2 89.6448 -0.0508698 -0.0101740
  3 89.6502 -0.0985488 0.0298837
  4 89.6502 -0.0985488 -0.0298837
  5 89.6767 -0.330962 0.115786
  6 89.6767 -0.330962 -0.115786
  7 89.7738 -1.18378 0.418735
  8 89.7738 -1.18378 -0.418735
  9 90.1235 -4.25566 1.50662
  10 90.1235 -4.25566 -1.50662
  11 88.9676 5.89393 1.17888
  12 88.9676 5.89393 -1.17888
  13 88.9676 5.89393 -1.17888
  14 88.9676 5.89393 1.17888
  15 90.1235 -4.25566 -1.50662
  16 90.1235 -4.25566 1.50662
  17 89.7738 -1.18378 -0.418735
  18 89.7738 -1.18378 0.418735
  19 89.6767 -0.330962 -0.115786
  20 89.6767 -0.330962 0.115786
  21 89.6502 -0.0985488 -0.0298837
  22 89.6502 -0.0985488 0.0298837
  23 89.6448 -0.0508698 -0.0101740
  24 89.6448 -0.0508698 0.0101740
</Section>

newXOutput 62

<Section columns = "stress_xx | stress_yy | stress_xy">
  1 90.4276 -0.0542245 0.0108449
  2 90.4276 -0.0542245 -0.0108449
  3 90.4334 -0.105048 0.0318544
  4 90.4334 -0.105048 -0.0318544
  5 90.4616 -0.352788 0.123422
  6 90.4616 -0.352788 -0.123422
  7 90.5651 -1.26185 0.446349
  8 90.5651 -1.26185 -0.446349
  9 90.9378 -4.53630 1.60598
  10 90.9378 -4.53630 -1.60598
  11 89.7058 6.28267 1.25662
  12 89.7058 6.28267 -1.25662
  13 89.7058 6.28267 -1.25662
  14 89.7058 6.28267 1.25662
  15 90.9378 -4.53630 -1.60598
  16 90.9378 -4.53630 1.60598
  17 90.5651 -1.26185 -0.446349
  18 90.5651 -1.26185 0.446349
  19 90.4616 -0.352788 -0.123422
  20 90.4616 -0.352788 0.123422
  21 90.4334 -0.105048 -0.0318544
  22 90.4334 -0.105048 0.0318544
  23 90.4276 -0.0542245 -0.0108449
  24 90.4276 -0.0542245 0.0108449
</Section>

newXOutput 63

<Section columns = "stress_xx | stress_yy | stress_xy">
  1 91.1625 -0.0575590 0.0115118
  2 91.1625 -0.0575590 -0.0115118
  3 91.1686 -0.111508 0.0338133
  4 91.1686 -0.111508 -0.0338133
  5 91.1985 -0.374482 0.131011
  6 91.1985 -0.374482 -0.131011
  7 91.3084 -1.33944 0.473796
  8 91.3084 -1.33944 -0.473796
  9 91.7041 -4.81526 1.70474
  10 91.7041 -4.81526 -1.70474
  11 90.3964 6.66908 1.33389
  12 90.3964 6.66908 -1.33389
  13 90.3964 6.66908 -1.33389
  14 90.3964 6.66908 1.33389
  15 91.7041 -4.81526 -1.70474
  16 91.7041 -4.81526 1.70474
  17 91.3084 -1.33944 -0.473796
  18 91.3084 -1.33944 0.473796
  19 91.1985 -0.374482 -0.131011
  20 91.1985 -0.374482 0.131011
  21 91.1686 -0.111508 -0.0338133
  22 91.1686 -0.111508 0.0338133
  23 91.1625 -0.0575590 -0.0115118
  24 91.1625 -0.0575590 0.0115118
</Section>

newXOutput 64

<Section columns = "stress_xx | stress_yy | stress_xy">
  1 91.8554 -0.0608337 0.0121667
  2 91.8554 -0.0608337 -0.0121667
  3 91.8619 -0.117852 0.0357371
  4 91.8619 -0.117852 -0.0357371
  5 91.8936 -0.395788 0.138465
  6 91.8936 -0.395788 -0.138465
  7 92.0097 -1.41565 0.500752
  8 92.0097 -1.41565 -0.500752
  9 92.4279 -5.08921 1.80172
  10 92.4279 -5.08921 -1.80172
  11 91.0458 7.04856 1.40978
  12 91.0458 7.04856 -1.40978
  13 91.0458 7.04856 -1.40978
  14 91.0458 7.04856 1.40978
  15 92.4279 -5.08921 -1.80172
  16 92.4279 -5.08921 1.80172
  17 92.0097 -1.41565 -0.500752
  18 92.0097 -1.41565 0.500752
  19 91.8936 -0.395788 -0.138465
  20 91.8936 -0.395788 0.138465
  21 91.8619 -0.117852 -0.0357371
  22 91.8619 -0.117852 0.0357371
  23 91.8554 -0.0608337 -0.0121667
  24 91.8554 -0.0608337 0.0121667
</Section>

newXOutput 65

<Section columns = "stress_xx | stress_yy | stress_xy">
  1 92.5113 -0.0640197 0.0128039
  2 92.5113 -0.0640197 -0.0128039
  3 92.5182 -0.124024 0.0376087
  4 92.5182 -0.124024 -0.0376087
  5 92.5515 -0.416517 0.145717
  6 92.5515 -0.416517 -0.145717
  7 92.6736 -1.48979 0.526978
  8 92.6736 -1.48979 -0.526978
  9 93.1138 -5.35575 1.89609
  10 93.1138 -5.35575 -1.89609
  11 91.6593 7.41776 1.48362
  12 91.6593 7.41776 -1.48362
  13 91.6593 7.41776 -1.48362
  14 91.6593 7.41776 1.48362
  15 93.1138 -5.35575 -1.89609
  16 93.1138 -5.35575 1.89609
  17 92.6736 -1.48979 -0.526978
  18 92.6736 -1.48979 0.526978
  19 92.5515 -0.416517 -0.145717
  20 92.5515 -0.416517 0.145717
  21 92.5182 -0.124024 -0.0376087
  22 92.5182 -0.124024 0.0376087
  23 92.5113 -0.0640197 -0.0128039
  24 92.5113 -0.0640197 0.0128039
</Section>

newXOutput 66

<Section columns = "stress_xx | stress_yy | stress_xy">
  1 93.1336 -0.0670974 0.0134195
  2 93.1336 -0.0670974 -0.0134195
  3 93.1408 -0.129986 0.0394167
  4 93.1408 -0.129986 -0.0394167
  5 93.1757 -0.436540 0.152722
  6 93.1757 -0.436540 -0.152722
  7 93.3037 -1.56141 0.552312
  8 93.3037 -1.56141 -0.552312
  9 93.7650 -5.61322 1.98724
  10 93.7650 -5.61322 -1.98724
  11 92.2407 7.77440 1.55494
  12 92.2407 7.77440 -1.55494
  13 92.2407 7.77440 -1.55494
  14 92.2407 7.77440 1.55494
  15 93.7650 -5.61322 -1.98724
  16 93.7650 -5.61322 1.98724
  17 93.3037 -1.56141 -0.552312
  18 93.3037 -1.56141 0.552312
  19 93.1757 -0.436540 -0.152722
  20 93.1757 -0.436540 0.152722
  21 93.1408 -0.129986 -0.0394167
  22 93.1408 -0.129986 0.0394167
  23 93.1336 -0.0670974 -0.0134195
  24 93.1336 -0.0670974 0.0134195
</Section>

newXOutput 67

<Section columns = "stress_xx | stress_yy | stress_xy">
  1 93.7246 -0.0700544 0.0140109
  2 93.7246 -0.0700544 -0.0140109
  3 93.7321 -0.135715 0.0411538
  4 93.7321 -0.135715 -0.0411538
  5 93.7685 -0.455779 0.159452
  6 93.7685 -0.455779 -0.159452
  7 93.9023 -1.63022 0.576652
  8 93.9023 -1.63022 -0.576652
  9 94.3839 -5.86060 2.07482
  10 94.3839 -5.86060 -2.07482
  11 92.7924 8.11706 1.62347
  12 92.7924 8.11706 -1.62347
  13 92.7924 8.11706 -1.62347
  14 92.7924 8.11706 1.62347
  15 94.3839 -5.86060 -2.07482
  16 94.3839 -5.86060 2.07482
  17 93.9023 -1.63022 -0.576652
  18 93.9023 -1.63022 0.576652
  19 93.7685 -0.455779 -0.159452
  20 93.7685 -0.455779 0.159452
  21 93.7321 -0.135715 -0.0411538
  22 93.7321 -0.135715 0.0411538
  23 93.7246 -0.0700544 -0.0140109
  24 93.7246 -0.0700544 0.0140109
</Section>

newXOutput 68

<Section columns = "stress_xx | stress_yy | stress_xy">
  1 94.2858 -0.0728835 0.0145767
  2 94.2858 -0.0728835 -0.0145767
  3 94.2935 -0.141195 0.0428158
  4 94.2935 -0.141195 -0.0428158
  5 94.3314 -0.474185 0.165892
  6 94.3314 -0.474185 -0.165892
  7 94.4706 -1.69606 0.599940
  8 94.4706 -1.69606 -0.599940
  9 94.9716 -6.09727 2.15861
  10 94.9716 -6.09727 -2.15861
  11 93.3159 8.44489 1.68903
  12 93.3159 8.44489 -1.68903
  13 93.3159 8.44489 -1.68903
  14 93.3159 8.44489 1.68903
  15 94.9716 -6.09727 -2.15861
  16 94.9716 -6.09727 2.15861
  17 94.4706 -1.69606 -0.599940
  18 94.4706 -1.69606 0.599940
  19 94.3314 -0.474185 -0.165892
  20 94.3314 -0.474185 0.165892
  21 94.2935 -0.141195 -0.0428158
  22 94.2935 -0.141195 0.0428158
  23 94.2858 -0.0728835 -0.0145767
  24 94.2858 -0.0728835 0.0145767
</Section>

newXOutput 69

<Section columns = "stress_xx | stress_yy | stress_xy">
  1 94.8178 -0.0755809 0.0151162
  2 94.8178 -0.0755809 -0.0151162
  3 94.8259 -0.146421 0.0444004
  4 94.8259 -0.146421 -0.0444004
  5 94.8652 -0.491735 0.172032
  6 94.8652 -0.491735 -0.172032
  7 95.0094 -1.75883 0.622144
  8 95.0094 -1.75883 -0.622144
  9 95.5290 -6.32294 2.23850
  10 95.5290 -6.32294 -2.23850
  11 93.8120 8.75746 1.75154
  12 93.8120 8.75746 -1.75154
  13 93.8120 8.75746 -1.75154
  14 93.8120 8.75746 1.75154
  15 95.5290 -6.32294 -2.23850
  16 95.5290 -6.32294 2.23850
  17 95.0094 -1.75883 -0.622144
  18 95.0094 -1.75883 0.622144
  19 94.8652 -0.491735 -0.172032
  20 94.8652 -0.491735 0.172032
  21 94.8259 -0.146421 -0.0444004
  22 94.8259 -0.146421 0.0444004
  23 94.8178 -0.0755809 -0.0151162
  24 94.8178 -0.0755809 0.0151162
</Section>

newXOutput 70

<Section columns = "stress_xx | stress_yy | stress_xy">
  1 95.3497 -0.0782783 0.0156557
  2 95.3497 -0.0782783 -0.0156557
  3 95.3581 -0.151647 0.0459850
  4 95.3581 -0.151647 -0.0459850
  5 95.3988 -0.509284 0.178171
  6 95.3988 -0.509284 -0.178171
  7 95.5482 -1.82160 0.644348
  8 95.5482 -1.82160 -0.644348
  9 96.0863 -6.54859 2.31839
  10 96.0863 -6.54859 -2.31839
  11 94.2656 8.98412 1.81405
  12 94.2656 8.98412 -1.81405
  13 94.2656 8.98412 -1.81405
  14 94.2656 8.98412 1.81405
  15 96.0863 -6.54859 -2.31839
  16 96.0863 -6.54859 2.31839
  17 95.5482 -1.82160 -0.644348
  18 95.5482 -1.82160 0.644348
  19 95.3988 -0.509284 -0.178171
  20 95.3988 -0.509284 0.178171
  21 95.3581 -0.151647 -0.0459850
  22 95.3581 -0.151647 0.0459850
  23 95.3497 -0.0782783 -0.0156557
  24 95.3497 -0.0782783 0.0156557
</Section>

newXOutput 71

<Section columns = "stress_xx | stress_yy | stress_xy">
  1 95.7987 -0.0805854 0.0161171
  2 95.7987 -0.0805854 -0.0161171
  3 95.8073 -0.156116 0.0473403
  4 95.8073 -0.156116 -0.0473403
  5 95.8493 -0.524294 0.183422
  6 95.8493 -0.524294 -0.183422
  7 96.0031 -1.87529 0.663338
  8 96.0031 -1.87529 -0.663338
  9 96.5571 -6.74159 2.38671
  10 96.5571 -6.74159 -2.38671
  11 94.7264 9.33730 1.86752
  12 94.7264 9.33730 -1.86752
  13 94.7264 9.33730 -1.86752
  14 94.7264 9.33730 1.86752
  15 96.5571 -6.74159 -2.38671
  16 96.5571 -6.74159 2.38671
  17 96.0031 -1.87529 -0.663338
  18 96.0031 -1.87529 0.663338
  19 95.8493 -0.524294 -0.183422
  20 95.8493 -0.524294 0.183422
  21 95.8073 -0.156116 -0.0473403
  22 95.8073 -0.156116 0.0473403
  23 95.7987 -0.0805854 -0.0161171
  24 95.7987 -0.0805854 0.0161171
</Section>

newXOutput 72

<Section columns = "stress_xx | stress_yy | stress_xy">
  1 96.2734 -0.0830158 0.0166032
  2 96.2734 -0.0830158 -0.0166032
  3 96.2822 -0.160824 0.0487680
  4 96.2822 -0.160824 -0.0487680
  5 96.3254 -0.540106 0.188954
  6 96.3254 -0.540106 -0.188954
  7 96.4838 -1.93184 0.683344
  8 96.4838 -1.93184 -0.683344
  9 97.0546 -6.94492 2.45870
  10 97.0546 -6.94492 -2.45870
  11 95.1298 9.53862 1.92384
  12 95.1298 9.53862 -1.92384
  13 95.1298 9.53862 -1.92384
  14 95.1298 9.53862 1.92384
  15 97.0546 -6.94492 -2.45870
  16 97.0546 -6.94492 2.45870
  17 96.4838 -1.93184 -0.683344
  18 96.4838 -1.93184 0.683344
  19 96.3254 -0.540106 -0.188954
  20 96.3254 -0.540106 0.188954
  21 96.2822 -0.160824 -0.0487680
  22 96.2822 -0.160824 0.0487680
  23 96.2734 -0.0830158 -0.0166032
  24 96.2734 -0.0830158 0.0166032
</Section>

newXOutput 73

<Section columns = "stress_xx | stress_yy | stress_xy">
  1 96.6988 -0.0852070 0.0170414
  2 96.6988 -0.0852070 -0.0170414
  3 96.7079 -0.165069 0.0500553
  4 96.7079 -0.165069 -0.0500553
  5 96.7522 -0.554363 0.193942
  6 96.7522 -0.554363 -0.193942
  7 96.9148 -1.98284 0.701382
  8 96.9148 -1.98284 -0.701382
  9 97.5006 -7.12823 2.52360
  10 97.5006 -7.12823 -2.52360
  11 95.5223 9.78507 1.97462
  12 95.5223 9.78507 -1.97462
  13 95.5223 9.78507 -1.97462
  14 95.5223 9.78507 1.97462
  15 97.5006 -7.12823 -2.52360
  16 97.5006 -7.12823 2.52360
  17 96.9148 -1.98284 -0.701382
  18 96.9148 -1.98284 0.701382
  19 96.7522 -0.554363 -0.193942
  20 96.7522 -0.554363 0.193942
  21 96.7079 -0.165069 -0.0500553
  22 96.7079 -0.165069 0.0500553
  23 96.6988 -0.0852070 -0.0170414
  24 96.6988 -0.0852070 0.0170414
</Section>

newXOutput 74

<Section columns = "stress_xx | stress_yy | stress_xy">
  1 97.0932 -0.0872552 0.0174510
  2 97.0932 -0.0872552 -0.0174510
  3 97.1025 -0.169037 0.0512585
  4 97.1025 -0.169037 -0.0512585
  5 97.1479 -0.567688 0.198604
  6 97.1479 -0.567688 -0.198604
  7 97.3145 -2.03050 0.718241
  8 97.3145 -2.03050 -0.718241
  9 97.9143 -7.29958 2.58426
  10 97.9143 -7.29958 -2.58426
  11 95.8908 10.0245 2.02209
  12 95.8908 10.0245 -2.02209
  13 95.8908 10.0245 -2.02209
  14 95.8908 10.0245 2.02209
  15 97.9143 -7.29958 -2.58426
  16 97.9143 -7.29958 2.58426
  17 97.3145 -2.03050 -0.718241
  18 97.3145 -2.03050 0.718241
  19 97.1479 -0.567688 -0.198604
  20 97.1479 -0.567688 0.198604
  21 97.1025 -0.169037 -0.0512585
  22 97.1025 -0.169037 0.0512585
  23 97.0932 -0.0872552 -0.0174510
  24 97.0932 -0.0872552 0.0174510
</Section>

newXOutput 75

<Section columns = "stress_xx | stress_yy | stress_xy">
  1 97.4602 -0.0891731 0.0178346
  2 97.4602 -0.0891731 -0.0178346
  3 97.4697 -0.172753 0.0523852
  4 97.4697 -0.172753 -0.0523852
  5 97.5161 -0.580166 0.202969
  6 97.5161 -0.580166 -0.202969
  7 97.6863 -2.07513 0.734028
  8 97.6863 -2.07513 -0.734028
  9 98.2993 -7.46002 2.64106
  10 98.2993 -7.46002 -2.64106
  11 96.2342 10.2502 2.06653
  12 96.2342 10.2502 -2.06653
  13 96.2342 10.2502 -2.06653
  14 96.2342 10.2502 2.06653
  15 98.2993 -7.46002 -2.64106
  16 98.2993 -7.46002 2.64106
  17 97.6863 -2.07513 -0.734028
  18 97.6863 -2.07513 0.734028
  19 97.5161 -0.580166 -0.202969
  20 97.5161 -0.580166 0.202969
  21 97.4697 -0.172753 -0.0523852
  22 97.4697 -0.172753 0.0523852
  23 97.4602 -0.0891731 -0.0178346
  24 97.4602 -0.0891731 0.0178346
</Section>

newXOutput 76

<Section columns = "stress_xx | stress_yy | stress_xy">
  1 97.8007 -0.0909650 0.0181930
  2 97.8007 -0.0909650 -0.0181930
  3 97.8104 -0.176224 0.0534379
  4 97.8104 -0.176224 -0.0534379
  5 97.8577 -0.591825 0.207048
  6 97.8577 -0.591825 -0.207048
  7 98.0313 -2.11683 0.748778
  8 98.0313 -2.11683 -0.748778
  9 98.6567 -7.60993 2.69413
  10 98.6567 -7.60993 -2.69413
  11 96.5531 10.4617 2.10806
  12 96.5531 10.4617 -2.10806
  13 96.5531 10.4617 -2.10806
  14 96.5531 10.4617 2.10806
  15 98.6567 -7.60993 -2.69413
  16 98.6567 -7.60993 2.69413
  17 98.0313 -2.11683 -0.748778
  18 98.0313 -2.11683 0.748778
  19 97.8577 -0.591825 -0.207048
  20 97.8577 -0.591825 0.207048
  21 97.8104 -0.176224 -0.0534379
  22 97.8104 -0.176224 0.0534379
  23 97.8007 -0.0909650 -0.0181930
  24 97.8007 -0.0909650 0.0181930
</Section>

newXOutput 77

<Section columns = "stress_xx | stress_yy | stress_xy">
  1 98.1158 -0.0926346 0.0185269
  2 98.1158 -0.0926346 -0.0185269
  3 98.1257 -0.179459 0.0544187
  4 98.1257 -0.179459 -0.0544187
  5 98.1739 -0.602687 0.210848
  6 98.1739 -0.602687 -0.210848
  7 98.3507 -2.15568 0.762522
  8 98.3507 -2.15568 -0.762522
  9 98.9875 -7.74961 2.74358
  10 98.9875 -7.74961 -2.74358
  11 96.8481 10.6592 2.14675
  12 96.8481 10.6592 -2.14675
  13 96.8481 10.6592 -2.14675
  14 96.8481 10.6592 2.14675
  15 98.9875 -7.74961 -2.74358
  16 98.9875 -7.74961 2.74358
  17 98.3507 -2.15568 -0.762522
  18 98.3507 -2.15568 0.762522
  19 98.1739 -0.602687 -0.210848
  20 98.1739 -0.602687 0.210848
  21 98.1257 -0.179459 -0.0544187
  22 98.1257 -0.179459 0.0544187
  23 98.1158 -0.0926346 -0.0185269
  24 98.1158 -0.0926346 0.0185269
</Section>

newXOutput 78

<Section columns = "stress_xx | stress_yy | stress_xy">
  1 98.4064 -0.0941857 0.0188371
  2 98.4064 -0.0941857 -0.0188371
  3 98.4165 -0.182464 0.0553298
  4 98.4165 -0.182464 -0.0553298
  5 98.4655 -0.612778 0.214378
  6 98.4655 -0.612778 -0.214378
  7 98.6452 -2.19178 0.775289
  8 98.6452 -2.19178 -0.775289
  9 99.2928 -7.87937 2.78952
  10 99.2928 -7.87937 -2.78952
  11 97.1203 10.8430 2.18270
  12 97.1203 10.8430 -2.18270
  13 97.1203 10.8430 -2.18270
  14 97.1203 10.8430 2.18270
  15 99.2928 -7.87937 -2.78952
  16 99.2928 -7.87937 2.78952
  17 98.6452 -2.19178 -0.775289
  18 98.6452 -2.19178 0.775289
  19 98.4655 -0.612778 -0.214378
  20 98.4655 -0.612778 0.214378
  21 98.4165 -0.182464 -0.0553298
  22 98.4165 -0.182464 0.0553298
  23 98.4064 -0.0941857 -0.0188371
  24 98.4064 -0.0941857 0.0188371
</Section>

newXOutput 79

<Section columns = "stress_xx | stress_yy | stress_xy">
  1 98.6738 -0.0956224 0.0191245
  2 98.6738 -0.0956224 -0.0191245
  3 98.6840 -0.185247 0.0561739
  4 98.6840 -0.185247 -0.0561739
  5 98.7337 -0.622126 0.217648
  6 98.7337 -0.622126 -0.217648
  7 98.9162 -2.22521 0.787116
  8 98.9162 -2.22521 -0.787116
  9 99.5736 -7.99956 2.83207
  10 99.5736 -7.99956 -2.83207
  11 97.3707 11.0136 2.21599
  12 97.3707 11.0136 -2.21599
  13 97.3707 11.0136 -2.21599
  14 97.3707 11.0136 2.21599
  15 99.5736 -7.99956 -2.83207
  16 99.5736 -7.99956 2.83207
  17 98.9162 -2.22521 -0.787116
  18 98.9162 -2.22521 0.787116
  19 98.7337 -0.622126 -0.217648
  20 98.7337 -0.622126 0.217648
  21 98.6840 -0.185247 -0.0561739
  22 98.6840 -0.185247 0.0561739
  23 98.6738 -0.0956224 -0.0191245
  24 98.6738 -0.0956224 0.0191245
</Section>

newXOutput 80

<Section columns = "stress_xx | stress_yy | stress_xy">
  1 98.9190 -0.0969496 0.0193899
  2 98.9190 -0.0969496 -0.0193899
  3 98.9293 -0.187818 0.0569535
  4 98.9293 -0.187818 -0.0569535
  5 98.9797 -0.630761 0.220669
  6 98.9797 -0.630761 -0.220669
  7 99.1648 -2.25609 0.798040
  8 99.1648 -2.25609 -0.798040
  9 99.8313 -8.11059 2.87138
  10 99.8313 -8.11059 -2.87138
  11 97.6004 11.1715 2.24675
  12 97.6004 11.1715 -2.24675
  13 97.6004 11.1715 -2.24675
  14 97.6004 11.1715 2.24675
  15 99.8313 -8.11059 -2.87138
  16 99.8313 -8.11059 2.87138
  17 99.1648 -2.25609 -0.798040
  18 99.1648 -2.25609 0.798040
  19 98.9797 -0.630761 -0.220669
  20 98.9797 -0.630761 0.220669
  21 98.9293 -0.187818 -0.0569535
  22 98.9293 -0.187818 0.0569535
  23 98.9190 -0.0969496 -0.0193899
  24 98.9190 -0.0969496 0.0193899
</Section>

newXOutput 81

<Section columns = "stress_xx | stress_yy | stress_xy">
  1 99.1433 -0.0981722 0.0196344
  2 99.1433 -0.0981722 -0.0196344
  3 99.1538 -0.190186 0.0576717
  4 99.1538 -0.190186 -0.0576717
  5 99.2048 -0.638715 0.223452
  6 99.2048 -0.638715 -0.223452
  7 99.3922 -2.28454 0.808104
  8 99.3922 -2.28454 -0.808104
  9 100.067 -8.21287 2.90759
  10 100.067 -8.21287 -2.90759
  11 97.8105 11.3172 2.27508
  12 97.8105 11.3172 -2.27508
  13 97.8105 11.3172 -2.27508
  14 97.8105 11.3172 2.27508
  15 100.067 -8.21287 -2.90759
  16 100.067 -8.21287 2.90759
  17 99.3922 -2.28454 -0.808104
  18 99.3922 -2.28454 0.808104
  19 99.2048 -0.638715 -0.223452
  20 99.2048 -0.638715 0.223452
  21 99.1538 -0.190186 -0.0576717
  22 99.1538 -0.190186 0.0576717
  23 99.1433 -0.0981722 -0.0196344
  24 99.1433 -0.0981722 0.0196344
</Section>

newXOutput 82

<Section columns = "stress_xx | stress_yy | stress_xy">
  1 99.3480 -0.0992955 0.0198591
  2 99.3480 -0.0992955 -0.0198591
  3 99.3586 -0.192363 0.0583316
  4 99.3586 -0.192363 -0.0583316
  5 99.4103 -0.646023 0.226009
  6 99.4103 -0.646023 -0.226009
  7 99.5998 -2.31068 0.817350
  8 99.5998 -2.31068 -0.817350
  9 100.282 -8.30684 2.94086
  10 100.282 -8.30684 -2.94086
  11 98.0023 11.4514 2.30111
  12 98.0023 11.4514 -2.30111
  13 98.0023 11.4514 -2.30111
  14 98.0023 11.4514 2.30111
  15 100.282 -8.30684 -2.94086
  16 100.282 -8.30684 2.94086
  17 99.5998 -2.31068 -0.817350
  18 99.5998 -2.31068 0.817350
  19 99.4103 -0.646023 -0.226009
  20 99.4103 -0.646023 0.226009
  21 99.3586 -0.192363 -0.0583316
  22 99.3586 -0.192363 0.0583316
  23 99.3480 -0.0992955 -0.0198591
  24 99.3480 -0.0992955 0.0198591
</Section>

newXOutput 83

<Section columns = "stress_xx | stress_yy | stress_xy">
  1 99.5345 -0.100325 0.0200650
  2 99.5345 -0.100325 -0.0200650
  3 99.5452 -0.194357 0.0589364
  4 99.5452 -0.194357 -0.0589364
  5 99.5974 -0.652721 0.228352
  6 99.5974 -0.652721 -0.228352
  7 99.7888 -2.33464 0.825825
  8 99.7888 -2.33464 -0.825825
  9 100.479 -8.39297 2.97135
  10 100.479 -8.39297 -2.97135
  11 98.1770 11.5745 2.32497
  12 98.1770 11.5745 -2.32497
  13 98.1770 11.5745 -2.32497
  14 98.1770 11.5745 2.32497
  15 100.479 -8.39297 -2.97135
  16 100.479 -8.39297 2.97135
  17 99.7888 -2.33464 -0.825825
  18 99.7888 -2.33464 0.825825
  19 99.5974 -0.652721 -0.228352
  20 99.5974 -0.652721 0.228352
  21 99.5452 -0.194357 -0.0589364
  22 99.5452 -0.194357 0.0589364
  23 99.5345 -0.100325 -0.0200650
  24 99.5345 -0.100325 0.0200650
</Section>

newXOutput 84

<Section columns = "stress_xx | stress_yy | stress_xy">
  1 99.7039 -0.101266 0.0202533
  2 99.7039 -0.101266 -0.0202533
  3 99.7147 -0.196181 0.0594894
  4 99.7147 -0.196181 -0.0594894
  5 99.7674 -0.658845 0.230495
  6 99.7674 -0.658845 -0.230495
  7 99.9607 -2.35655 0.833573
  8 99.9607 -2.35655 -0.833573
  9 100.657 -8.47172 2.99923
  10 100.657 -8.47172 -2.99923
  11 98.3358 11.6874 2.34678
  12 98.3358 11.6874 -2.34678
  13 98.3358 11.6874 -2.34678
  14 98.3358 11.6874 2.34678
  15 100.657 -8.47172 -2.99923
  16 100.657 -8.47172 2.99923
  17 99.9607 -2.35655 -0.833573
  18 99.9607 -2.35655 0.833573
  19 99.7674 -0.658845 -0.230495
  20 99.7674 -0.658845 0.230495
  21 99.7147 -0.196181 -0.0594894
  22 99.7147 -0.196181 0.0594894
  23 99.7039 -0.101266 -0.0202533
  24 99.7039 -0.101266 0.0202533
</Section>

newXOutput 85

<Section columns = "stress_xx | stress_yy | stress_xy">
  1 99.8577 -0.102125 0.0204250
  2 99.8577 -0.102125 -0.0204250
  3 99.8686 -0.197844 0.0599939
  4 99.8686 -0.197844 -0.0599939
  5 99.9217 -0.664433 0.232449
  6 99.9217 -0.664433 -0.232449
  7 100.117 -2.37653 0.840643
  8 100.117 -2.37653 -0.840643
  9 100.819 -8.54356 3.02466
  10 100.819 -8.54356 -3.02466
  11 98.4798 11.7905 2.36669
  12 98.4798 11.7905 -2.36669
  13 98.4798 11.7905 -2.36669
  14 98.4798 11.7905 2.36669
  15 100.819 -8.54356 -3.02466
  16 100.819 -8.54356 3.02466
  17 100.117 -2.37653 -0.840643
  18 100.117 -2.37653 0.840643
  19 99.9217 -0.664433 -0.232449
  20 99.9217 -0.664433 0.232449
  21 99.8686 -0.197844 -0.0599939
  22 99.8686 -0.197844 0.0599939
  23 99.8577 -0.102125 -0.0204250
  24 99.8577 -0.102125 0.0204250
</Section>

newXOutput 86

<Section columns = "stress_xx | stress_yy | stress_xy">
  1 99.9969 -0.102907 0.0205814
  2 99.9969 -0.102907 -0.0205814
  3 100.008 -0.199359 0.0604533
  4 100.008 -0.199359 -0.0604533
  5 100.061 -0.669520 0.234229
  6 100.061 -0.669520 -0.234229
  7 100.258 -2.39473 0.847079
  8 100.258 -2.39473 -0.847079
  9 100.965 -8.60898 3.04782
  10 100.965 -8.60898 -3.04782
  11 98.6102 11.8846 2.38481
  12 98.6102 11.8846 -2.38481
  13 98.6102 11.8846 -2.38481
  14 98.6102 11.8846 2.38481
  15 100.965 -8.60898 -3.04782
  16 100.965 -8.60898 3.04782
  17 100.258 -2.39473 -0.847079
  18 100.258 -2.39473 0.847079
  19 100.061 -0.669520 -0.234229
  20 100.061 -0.669520 0.234229
  21 100.008 -0.199359 -0.0604533
  22 100.008 -0.199359 0.0604533
  23 99.9969 -0.102907 -0.0205814
  24 99.9969 -0.102907 0.0205814
</Section>

newXOutput 87

<Section columns = "stress_xx | stress_yy | stress_xy">
  1 100.123 -0.103618 0.0207235
  2 100.123 -0.103618 -0.0207235
  3 100.134 -0.200736 0.0608707
  4 100.134 -0.200736 -0.0608707
  5 100.188 -0.674143 0.235846
  6 100.188 -0.674143 -0.235846
  7 100.385 -2.41127 0.852928
  8 100.385 -2.41127 -0.852928
  9 101.098 -8.66842 3.06887
  10 101.098 -8.66842 -3.06887
  11 98.7282 11.9702 2.40128
  12 98.7282 11.9702 -2.40128
  13 98.7282 11.9702 -2.40128
  14 98.7282 11.9702 2.40128
  15 101.098 -8.66842 -3.06887
  16 101.098 -8.66842 3.06887
  17 100.385 -2.41127 -0.852928
  18 100.385 -2.41127 0.852928
  19 100.188 -0.674143 -0.235846
  20 100.188 -0.674143 0.235846
  21 100.134 -0.200736 -0.0608707
  22 100.134 -0.200736 0.0608707
  23 100.123 -0.103618 -0.0207235
  24 100.123 -0.103618 0.0207235
</Section>

newXOutput 88

<Section columns = "stress_xx | stress_yy | stress_xy">
  1 100.236 -0.104262 0.0208524
  2 100.236 -0.104262 -0.0208524
  3 100.248 -0.201985 0.0612494
  4 100.248 -0.201985 -0.0612494
  5 100.302 -0.678337 0.237314
  6 100.302 -0.678337 -0.237314
  7 100.501 -2.42627 0.858234
  8 100.501 -2.42627 -0.858234
  9 101.218 -8.72235 3.08796
  10 101.218 -8.72235 -3.08796
  11 98.8347 12.0480 2.41621
  12 98.8347 12.0480 -2.41621
  13 98.8347 12.0480 -2.41621
  14 98.8347 12.0480 2.41621
  15 101.218 -8.72235 -3.08796
  16 101.218 -8.72235 3.08796
  17 100.501 -2.42627 -0.858234
  18 100.501 -2.42627 0.858234
  19 100.302 -0.678337 -0.237314
  20 100.302 -0.678337 0.237314
  21 100.248 -0.201985 -0.0612494
  22 100.248 -0.201985 0.0612494
  23 100.236 -0.104262 -0.0208524
  24 100.236 -0.104262 0.0208524
</Section>

newXOutput 89

<Section columns = "stress_xx | stress_yy | stress_xy">
  1 100.339 -0.104846 0.0209692
  2 100.339 -0.104846 -0.0209692
  3 100.350 -0.203115 0.0615923
  4 100.350 -0.203115 -0.0615923
  5 100.405 -0.682135 0.238642
  6 100.405 -0.682135 -0.238642
  7 100.605 -2.43985 0.863039
  8 100.605 -2.43985 -0.863039
  9 101.326 -8.77119 3.10525
  10 101.326 -8.77119 -3.10525
  11 98.9308 12.1186 2.42974
  12 98.9308 12.1186 -2.42974
  13 98.9308 12.1186 -2.42974
  14 98.9308 12.1186 2.42974
  15 101.326 -8.77119 -3.10525
  16 101.326 -8.77119 3.10525
  17 100.605 -2.43985 -0.863039
  18 100.605 -2.43985 0.863039
  19 100.405 -0.682135 -0.238642
  20 100.405 -0.682135 0.238642
  21 100.350 -0.203115 -0.0615923
  22 100.350 -0.203115 0.0615923
  23 100.339 -0.104846 -0.0209692
  24 100.339 -0.104846 0.0209692
</Section>

newXOutput 90

<Section columns = "stress_xx | stress_yy | stress_xy">
  1 100.431 -0.105374 0.0210748
  2 100.431 -0.105374 -0.0210748
  3 100.442 -0.204138 0.0619024
  4 100.442 -0.204138 -0.0619024
  5 100.497 -0.685570 0.239844
  6 100.497 -0.685570 -0.239844
  7 100.698 -2.45214 0.867385
  8 100.698 -2.45214 -0.867385
  9 101.423 -8.81535 3.12088
  10 101.423 -8.81535 -3.12088
  11 99.0173 12.1824 2.44198
  12 99.0173 12.1824 -2.44198
  13 99.0173 12.1824 -2.44198
  14 99.0173 12.1824 2.44198
  15 101.423 -8.81535 -3.12088
  16 101.423 -8.81535 3.12088
  17 100.698 -2.45214 -0.867385
  18 100.698 -2.45214 0.867385
  19 100.497 -0.685570 -0.239844
  20 100.497 -0.685570 0.239844
  21 100.442 -0.204138 -0.0619024
  22 100.442 -0.204138 0.0619024
  23 100.431 -0.105374 -0.0210748
  24 100.431 -0.105374 0.0210748
</Section>

newXOutput 91

<Section columns = "stress_xx | stress_yy | stress_xy">
  1 100.514 -0.105851 0.0211701
  2 100.514 -0.105851 -0.0211701
  3 100.526 -0.205062 0.0621825
  4 100.526 -0.205062 -0.0621825
  5 100.581 -0.688672 0.240929
  6 100.581 -0.688672 -0.240929
  7 100.783 -2.46323 0.871309
  8 100.783 -2.46323 -0.871309
  9 101.510 -8.85523 3.13500
  10 101.510 -8.85523 -3.13500
  11 99.0952 12.2402 2.45302
  12 99.0952 12.2402 -2.45302
  13 99.0952 12.2402 -2.45302
  14 99.0952 12.2402 2.45302
  15 101.510 -8.85523 -3.13500
  16 101.510 -8.85523 3.13500
  17 100.783 -2.46323 -0.871309
  18 100.783 -2.46323 0.871309
  19 100.581 -0.688672 -0.240929
  20 100.581 -0.688672 0.240929
  21 100.526 -0.205062 -0.0621825
  22 100.526 -0.205062 0.0621825
  23 100.514 -0.105851 -0.0211701
  24 100.514 -0.105851 0.0211701
</Section>

newXOutput 92

<Section columns = "stress_xx | stress_yy | stress_xy">
  1 100.589 -0.106281 0.0212561
  2 100.589 -0.106281 -0.0212561
  3 100.600 -0.205895 0.0624351
  4 100.600 -0.205895 -0.0624351
  5 100.656 -0.691469 0.241908
  6 100.656 -0.691469 -0.241908
  7 100.858 -2.47324 0.874849
  8 100.858 -2.47324 -0.874849
  9 101.589 -8.89121 3.14774
  10 101.589 -8.89121 -3.14774
  11 99.1652 12.2923 2.46299
  12 99.1652 12.2923 -2.46299
  13 99.1652 12.2923 -2.46299
  14 99.1652 12.2923 2.46299
  15 101.589 -8.89121 -3.14774
  16 101.589 -8.89121 3.14774
  17 100.858 -2.47324 -0.874849
  18 100.858 -2.47324 0.874849
  19 100.656 -0.691469 -0.241908
  20 100.656 -0.691469 0.241908
  21 100.600 -0.205895 -0.0624351
  22 100.600 -0.205895 0.0624351
  23 100.589 -0.106281 -0.0212561
  24 100.589 -0.106281 0.0212561
</Section>

newXOutput 93

<Section columns = "stress_xx | stress_yy | stress_xy">
  1 100.656 -0.106668 0.0213336
  2 100.656 -0.106668 -0.0213336
  3 100.667 -0.206645 0.0626627
  4 100.667 -0.206645 -0.0626627
  5 100.723 -0.693990 0.242790
  6 100.723 -0.693990 -0.242790
  7 100.927 -2.48225 0.878038
  8 100.927 -2.48225 -0.878038
  9 101.660 -8.92362 3.15921
  10 101.660 -8.92362 -3.15921
  11 99.2281 12.3394 2.47197
  12 99.2281 12.3394 -2.47197
  13 99.2281 12.3394 -2.47197
  14 99.2281 12.3394 2.47197
  15 101.660 -8.92362 -3.15921
  16 101.660 -8.92362 3.15921
  17 100.927 -2.48225 -0.878038
  18 100.927 -2.48225 0.878038
  19 100.723 -0.693990 -0.242790
  20 100.723 -0.693990 0.242790
  21 100.667 -0.206645 -0.0626627
  22 100.667 -0.206645 0.0626627
  23 100.656 -0.106668 -0.0213336
  24 100.656 -0.106668 0.0213336
</Section>

newXOutput 94

<Section columns = "stress_xx | stress_yy | stress_xy">
  1 100.716 -0.107017 0.0214034
  2 100.716 -0.107017 -0.0214034
  3 100.728 -0.207321 0.0628675
  4 100.728 -0.207321 -0.0628675
  5 100.783 -0.696258 0.243583
  6 100.783 -0.696258 -0.243583
  7 100.988 -2.49037 0.880908
  8 100.988 -2.49037 -0.880908
  9 101.723 -8.95279 3.16954
  10 101.723 -8.95279 -3.16954
  11 99.2845 12.3817 2.48005
  12 99.2845 12.3817 -2.48005
  13 99.2845 12.3817 -2.48005
  14 99.2845 12.3817 2.48005
  15 101.723 -8.95279 -3.16954
  16 101.723 -8.95279 3.16954
  17 100.988 -2.49037 -0.880908
  18 100.988 -2.49037 0.880908
  19 100.783 -0.696258 -0.243583
  20 100.783 -0.696258 0.243583
  21 100.728 -0.207321 -0.0628675
  22 100.728 -0.207321 0.0628675
  23 100.716 -0.107017 -0.0214034
  24 100.716 -0.107017 0.0214034
</Section>

newXOutput 95

<Section columns = "stress_xx | stress_yy | stress_xy">
  1 100.770 -0.107330 0.0214661
  2 100.770 -0.107330 -0.0214661
  3 100.782 -0.207928 0.0630517
  4 100.782 -0.207928 -0.0630517
  5 100.838 -0.698298 0.244297
  6 100.838 -0.698298 -0.244297
  7 101.042 -2.49766 0.883489
  8 101.042 -2.49766 -0.883489
  9 101.780 -8.97902 3.17883
  10 101.780 -8.97902 -3.17883
  11 99.3351 12.4199 2.48731
  12 99.3351 12.4199 -2.48731
  13 99.3351 12.4199 -2.48731
  14 99.3351 12.4199 2.48731
  15 101.780 -8.97902 -3.17883
  16 101.780 -8.97902 3.17883
  17 101.042 -2.49766 -0.883489
  18 101.042 -2.49766 0.883489
  19 100.838 -0.698298 -0.244297
  20 100.838 -0.698298 0.244297
  21 100.782 -0.207928 -0.0630517
  22 100.782 -0.207928 0.0630517
  23 100.770 -0.107330 -0.0214661
  24 100.770 -0.107330 0.0214661
</Section>

newXOutput 96

<Section columns = "stress_xx | stress_yy | stress_xy">
  1 100.819 -0.107612 0.0215224
  2 100.819 -0.107612 -0.0215224
  3 100.830 -0.208474 0.0632172
  4 100.830 -0.208474 -0.0632172
  5 100.886 -0.700131 0.244938
  6 100.886 -0.700131 -0.244938
  7 101.092 -2.50422 0.885808
  8 101.092 -2.50422 -0.885808
  9 101.831 -9.00258 3.18717
  10 101.831 -9.00258 -3.18717
  11 99.3805 12.4541 2.49384
  12 99.3805 12.4541 -2.49384
  13 99.3805 12.4541 -2.49384
  14 99.3805 12.4541 2.49384
  15 101.831 -9.00258 -3.18717
  16 101.831 -9.00258 3.18717
  17 101.092 -2.50422 -0.885808
  18 101.092 -2.50422 0.885808
  19 100.886 -0.700131 -0.244938
  20 100.886 -0.700131 0.244938
  21 100.830 -0.208474 -0.0632172
  22 100.830 -0.208474 0.0632172
  23 100.819 -0.107612 -0.0215224
  24 100.819 -0.107612 0.0215224
</Section>

newXOutput 97

<Section columns = "stress_xx | stress_yy | stress_xy">
  1 100.862 -0.107865 0.0215730
  2 100.862 -0.107865 -0.0215730
  3 100.874 -0.208964 0.0633658
  4 100.874 -0.208964 -0.0633658
  5 100.930 -0.701776 0.245514
  6 100.930 -0.701776 -0.245514
  7 101.136 -2.51010 0.887889
  8 101.136 -2.51010 -0.887889
  9 101.877 -9.02374 3.19466
  10 101.877 -9.02374 -3.19466
  11 99.4212 12.4849 2.49970
  12 99.4212 12.4849 -2.49970
  13 99.4212 12.4849 -2.49970
  14 99.4212 12.4849 2.49970
  15 101.877 -9.02374 -3.19466
  16 101.877 -9.02374 3.19466
  17 101.136 -2.51010 -0.887889
  18 101.136 -2.51010 0.887889
  19 100.930 -0.701776 -0.245514
  20 100.930 -0.701776 0.245514
  21 100.874 -0.208964 -0.0633658
  22 100.874 -0.208964 0.0633658
  23 100.862 -0.107865 -0.0215730
  24 100.862 -0.107865 0.0215730
</Section>

newXOutput 98

<Section columns = "stress_xx | stress_yy | stress_xy">
  1 100.901 -0.108092 0.0216184
  2 100.901 -0.108092 -0.0216184
  3 100.913 -0.209403 0.0634990
  4 100.913 -0.209403 -0.0634990
  5 100.969 -0.703252 0.246030
  6 100.969 -0.703252 -0.246030
  7 101.175 -2.51538 0.889757
  8 101.175 -2.51538 -0.889757
  9 101.918 -9.04272 3.20138
  10 101.918 -9.04272 -3.20138
  11 99.4576 12.5126 2.50496
  12 99.4576 12.5126 -2.50496
  13 99.4576 12.5126 -2.50496
  14 99.4576 12.5126 2.50496
  15 101.918 -9.04272 -3.20138
  16 101.918 -9.04272 3.20138
  17 101.175 -2.51538 -0.889757
  18 101.175 -2.51538 0.889757
  19 100.969 -0.703252 -0.246030
  20 100.969 -0.703252 0.246030
  21 100.913 -0.209403 -0.0634990
  22 100.913 -0.209403 0.0634990
  23 100.901 -0.108092 -0.0216184
  24 100.901 -0.108092 0.0216184
</Section>

newXOutput 99

<Section columns = "stress_xx | stress_yy | stress_xy">
  1 100.936 -0.108295 0.0216590
  2 100.936 -0.108295 -0.0216590
  3 100.947 -0.209797 0.0636185
  4 100.947 -0.209797 -0.0636185
  5 101.004 -0.704576 0.246493
  6 101.004 -0.704576 -0.246493
  7 101.210 -2.52012 0.891431
  8 101.210 -2.52012 -0.891431
  9 101.955 -9.05973 3.20740
  10 101.955 -9.05973 -3.20740
  11 99.4902 12.5374 2.50967
  12 99.4902 12.5374 -2.50967
  13 99.4902 12.5374 -2.50967
  14 99.4902 12.5374 2.50967
  15 101.955 -9.05973 -3.20740
  16 101.955 -9.05973 3.20740
  17 101.210 -2.52012 -0.891431
  18 101.210 -2.52012 0.891431
  19 101.004 -0.704576 -0.246493
  20 101.004 -0.704576 0.246493
  21 100.947 -0.209797 -0.0636185
  22 100.947 -0.209797 0.0636185
  23 100.936 -0.108295 -0.0216590
  24 100.936 -0.108295 0.0216590
</Section>

newXOutput 100

<Section columns = "stress_xx | stress_yy | stress_xy">
  1 100.967 -0.108477 0.0216955
  2 100.967 -0.108477 -0.0216955
  3 100.978 -0.210151 0.0637256
  4 100.978 -0.210151 -0.0637256
  5 101.035 -0.705761 0.246908
  6 101.035 -0.705761 -0.246908
  7 101.242 -2.52436 0.892932
  8 101.242 -2.52436 -0.892932
  9 101.988 -9.07498 3.21280
  10 101.988 -9.07498 -3.21280
  11 99.5194 12.5596 2.51390
  12 99.5194 12.5596 -2.51390
  13 99.5194 12.5596 -2.51390
  14 99.5194 12.5596 2.51390
  15 101.988 -9.07498 -3.21280
  16 101.988 -9.07498 3.21280
  17 101.242 -2.52436 -0.892932
  18 101.242 -2.52436 0.892932
  19 101.035 -0.705761 -0.246908
  20 101.035 -0.705761 0.246908
  21 100.978 -0.210151 -0.0637256
  22 100.978 -0.210151 0.0637256
  23 100.967 -0.108477 -0.0216955
  24 100.967 -0.108477 0.0216955
</Section>

