newXOutput 1

<Section columns = "stress_xx | stress_yy | stress_xy">
  1 0.00000 0.00000 0.00000
  2 0.00000 0.00000 0.00000
  3 0.00000 0.00000 0.00000
  4 0.00000 0.00000 0.00000
  5 0.00000 0.00000 0.00000
  6 0.00000 0.00000 0.00000
  7 0.00000 0.00000 0.00000
  8 0.00000 0.00000 0.00000
  9 0.00000 0.00000 0.00000
  10 0.00000 0.00000 0.00000
  11 0.00000 0.00000 0.00000
  12 0.00000 0.00000 0.00000
</Section>

newXOutput 2

<Section columns = "stress_xx | stress_yy | stress_xy">
  1 24.8991 0.00000 -2.85702e-14
  2 24.8991 0.00000 -2.64542e-14
  3 24.8991 0.00000 -1.41765e-14
  4 24.8991 0.00000 -1.32361e-14
  5 24.8991 0.00000 -9.01650e-15
  6 24.8991 0.00000 -8.82106e-15
  7 24.8991 0.00000 -2.51994e-15
  8 24.8991 0.00000 -1.46602e-15
  9 24.8991 0.00000 -7.53308e-15
  10 24.8991 0.00000 -4.27333e-15
  11 24.8991 0.00000 -2.48900e-14
  12 24.8991 0.00000 -2.13695e-14
</Section>

newXOutput 3

<Section columns = "stress_xx | stress_yy | stress_xy">
  1 49.8102 0.00000 -6.07519e-15
  2 49.8102 0.00000 -4.58142e-15
  3 49.8102 0.00000 6.72538e-16
  4 49.8102 0.00000 1.71613e-15
  5 49.8102 0.00000 2.03837e-16
  6 49.8102 0.00000 5.48420e-16
  7 49.8102 0.00000 -2.21255e-15
  8 49.8102 0.00000 -1.53674e-15
  9 49.8102 0.00000 5.68195e-15
  10 49.8102 0.00000 9.31646e-15
  11 49.8102 0.00000 -6.74543e-15
  12 49.8102 0.00000 -8.23592e-17
</Section>

newXOutput 4

<Section columns = "stress_xx | stress_yy | stress_xy">
  1 74.7332 0.00000 -5.05132e-14
  2 74.7332 0.00000 -4.53497e-14
  3 74.7332 0.00000 -1.68862e-14
  4 74.7332 0.00000 -1.38993e-14
  5 74.7332 0.00000 -1.62402e-14
  6 74.7332 0.00000 -1.56440e-14
  7 74.7332 0.00000 -5.53253e-15
  8 74.7332 0.00000 -4.63160e-15
  9 74.7332 0.00000 -5.90993e-15
  10 74.7332 0.00000 -9.75877e-15
  11 74.7332 0.00000 8.42137e-16
  12 74.7332 0.00000 -2.64535e-15
</Section>

newXOutput 5

<Section columns = "stress_xx | stress_yy | stress_xy">
  1 99.6681 0.00000 1.93542e-14
  2 99.6681 0.00000 2.27560e-14
  3 99.6681 0.00000 1.66151e-14
  4 99.6681 0.00000 1.89775e-14
  5 99.6681 0.00000 2.15215e-14
  6 99.6681 0.00000 2.25915e-14
  7 99.6681 0.00000 1.27087e-14
  8 99.6681 0.00000 1.35014e-14
  9 99.6681 0.00000 -8.29291e-15
  10 99.6681 0.00000 -2.89419e-15
  11 99.6681 0.00000 -3.45046e-16
  12 99.6681 0.00000 -3.30226e-15
</Section>

newXOutput 6

<Section columns = "stress_xx | stress_yy | stress_xy">
  1 124.615 0.00000 -8.70440e-14
  2 124.615 0.00000 -7.50723e-14
  3 124.615 0.00000 -2.18924e-14
  4 124.615 0.00000 -1.66232e-14
  5 124.615 0.00000 -2.16468e-14
  6 124.615 0.00000 -2.21529e-14
  7 124.615 0.00000 -2.72255e-14
  8 124.615 0.00000 -2.75886e-14
  9 124.615 0.00000 -3.74850e-14
  10 124.615 0.00000 -2.45652e-14
  11 124.615 0.00000 -1.57279e-14
  12 124.615 0.00000 6.93224e-15
</Section>

newXOutput 7

<Section columns = "stress_xx | stress_yy | stress_xy">
  1 149.574 0.00000 -6.16036e-14
  2 149.574 0.00000 -5.13049e-14
  3 149.574 0.00000 -1.28965e-14
  4 149.574 0.00000 -9.85618e-15
  5 149.574 0.00000 -6.36180e-15
  6 149.574 0.00000 -7.24717e-15
  7 149.574 0.00000 7.19595e-15
  8 149.574 0.00000 7.40415e-15
  9 149.574 0.00000 -1.37011e-14
  10 149.574 0.00000 -5.75239e-15
  11 149.574 0.00000 -3.25800e-14
  12 149.574 0.00000 -4.92493e-14
</Section>

newXOutput 8

<Section columns = "stress_xx | stress_yy | stress_xy">
  1 174.545 0.00000 1.26541e-14
  2 174.545 0.00000 2.37095e-14
  3 174.545 0.00000 2.58553e-14
  4 174.545 0.00000 3.07608e-14
  5 174.545 0.00000 2.86129e-14
  6 174.545 0.00000 2.88661e-14
  7 174.545 0.00000 2.97927e-14
  8 174.545 0.00000 3.35486e-14
  9 174.545 0.00000 1.43718e-15
  10 174.545 0.00000 1.15614e-14
  11 174.545 0.00000 -1.93295e-14
  12 174.545 0.00000 -1.78104e-14
</Section>

newXOutput 9

<Section columns = "stress_xx | stress_yy | stress_xy">
  1 199.528 0.00000 -3.53270e-14
  2 199.528 0.00000 -2.65782e-14
  3 199.528 0.00000 -1.86552e-14
  4 199.528 0.00000 -1.42808e-14
  5 199.528 0.00000 -2.36095e-14
  6 199.528 0.00000 -2.06925e-14
  7 199.528 0.00000 -4.25845e-14
  8 199.528 0.00000 -5.49863e-14
  9 199.528 0.00000 1.07962e-13
  10 199.528 0.00000 6.13735e-14
  11 199.528 0.00000 -2.13248e-13
  12 199.528 0.00000 -2.77517e-13
</Section>

newXOutput 10

<Section columns = "stress_xx | stress_yy | stress_xy">
  1 224.523 0.00000 3.00990e-14
  2 224.523 0.00000 4.08883e-14
  3 224.523 0.00000 1.79113e-15
  4 224.523 0.00000 9.67518e-15
  5 224.523 0.00000 2.13890e-14
  6 224.523 0.00000 2.12633e-14
  7 224.523 0.00000 4.27191e-14
  8 224.523 0.00000 4.60503e-14
  9 224.523 0.00000 -9.75919e-14
  10 224.523 0.00000 -7.85035e-14
  11 224.523 0.00000 1.10841e-13
  12 224.523 0.00000 1.18123e-13
</Section>

newXOutput 11

<Section columns = "stress_xx | stress_yy | stress_xy">
  1 249.531 0.00000 -2.12220e-14
  2 249.531 0.00000 -1.28270e-14
  3 249.531 0.00000 -3.87612e-14
  4 249.531 0.00000 -3.22742e-14
  5 249.531 0.00000 -5.05221e-14
  6 249.531 0.00000 -4.78510e-14
  7 249.531 0.00000 -4.30513e-14
  8 249.531 0.00000 -3.92950e-14
  9 249.531 0.00000 -1.05106e-13
  10 249.531 0.00000 -8.38498e-14
  11 249.531 0.00000 8.47952e-14
  12 249.531 0.00000 6.18533e-14
</Section>

newXOutput 12

<Section columns = "stress_xx | stress_yy | stress_xy">
  1 274.550 0.00000 -1.47393e-14
  2 274.550 0.00000 -2.50928e-15
  3 274.550 0.00000 5.60856e-15
  4 274.550 0.00000 1.34434e-14
  5 274.550 0.00000 -1.67305e-14
  6 274.550 0.00000 -1.19690e-14
  7 274.550 0.00000 1.19210e-15
  8 274.550 0.00000 1.18370e-14
  9 274.550 0.00000 -3.23212e-14
  10 274.550 0.00000 -7.53947e-16
  11 274.550 0.00000 -1.92954e-14
  12 274.550 0.00000 3.55359e-14
</Section>

newXOutput 13

<Section columns = "stress_xx | stress_yy | stress_xy">
  1 299.582 0.00000 9.45803e-16
  2 299.582 0.00000 1.26583e-14
  3 299.582 0.00000 -2.12806e-14
  4 299.582 0.00000 -9.29485e-15
  5 299.582 0.00000 2.01338e-14
  6 299.582 0.00000 2.26220e-14
  7 299.582 0.00000 4.81749e-14
  8 299.582 0.00000 5.07400e-14
  9 299.582 0.00000 -5.82456e-14
  10 299.582 0.00000 -7.19713e-14
  11 299.582 0.00000 9.04826e-15
  12 299.582 0.00000 3.68367e-15
</Section>

newXOutput 14

<Section columns = "stress_xx | stress_yy | stress_xy">
  1 324.625 0.00000 -5.24356e-14
  2 324.625 0.00000 -3.24993e-14
  3 324.625 0.00000 1.42716e-15
  4 324.625 0.00000 -6.62404e-15
  5 324.625 0.00000 1.30590e-13
  6 324.625 0.00000 1.18074e-13
  7 324.625 0.00000 -1.48731e-13
  8 324.625 0.00000 -1.55032e-13
  9 324.625 0.00000 2.39104e-14
  10 324.625 0.00000 -4.76780e-14
  11 324.625 0.00000 1.15041e-13
  12 324.625 0.00000 1.96114e-14
</Section>

newXOutput 15

<Section columns = "stress_xx | stress_yy | stress_xy">
  1 349.681 0.00000 2.99160e-14
  2 349.681 0.00000 3.37559e-14
  3 349.681 0.00000 3.12405e-14
  4 349.681 0.00000 3.81523e-14
  5 349.681 0.00000 -4.45541e-14
  6 349.681 0.00000 -4.28810e-14
  7 349.681 0.00000 3.34589e-15
  8 349.681 0.00000 2.23771e-16
  9 349.681 0.00000 -2.63402e-14
  10 349.681 0.00000 -1.13645e-14
  11 349.681 0.00000 -7.48497e-14
  12 349.681 0.00000 -4.87382e-14
</Section>

newXOutput 16

<Section columns = "stress_xx | stress_yy | stress_xy">
  1 374.750 0.00000 4.98673e-14
  2 374.750 0.00000 4.98673e-14
  3 374.750 0.00000 1.11907e-14
  4 374.750 0.00000 1.81134e-14
  5 374.750 0.00000 -2.80711e-14
  6 374.750 0.00000 -2.37019e-14
  7 374.750 0.00000 3.16043e-14
  8 374.750 0.00000 3.41880e-14
  9 374.750 0.00000 -2.32522e-14
  10 374.750 0.00000 1.64612e-14
  11 374.750 0.00000 3.00008e-14
  12 374.750 0.00000 1.30272e-14
</Section>

newXOutput 17

<Section columns = "stress_xx | stress_yy | stress_xy">
  1 399.830 0.00000 4.25164e-14
  2 399.830 0.00000 4.40572e-14
  3 399.830 0.00000 -5.26646e-15
  4 399.830 0.00000 5.13376e-15
  5 399.830 0.00000 4.54123e-14
  6 399.830 0.00000 5.05600e-14
  7 399.830 0.00000 1.26436e-13
  8 399.830 0.00000 1.28987e-13
  9 399.830 0.00000 -3.64899e-14
  10 399.830 0.00000 1.08419e-15
  11 399.830 0.00000 -8.75657e-14
  12 399.830 0.00000 -7.81343e-14
</Section>

newXOutput 18

<Section columns = "stress_xx | stress_yy | stress_xy">
  1 424.923 0.00000 3.36595e-14
  2 424.923 0.00000 3.52027e-14
  3 424.923 0.00000 -1.54920e-14
  4 424.923 0.00000 -9.31930e-15
  5 424.923 0.00000 -3.57115e-14
  6 424.923 0.00000 -2.12717e-14
  7 424.923 0.00000 -9.79099e-15
  8 424.923 0.00000 -1.34994e-14
  9 424.923 0.00000 1.10715e-13
  10 424.923 0.00000 6.51428e-14
  11 424.923 0.00000 1.42384e-13
  12 424.923 0.00000 1.35244e-13
</Section>

newXOutput 19

<Section columns = "stress_xx | stress_yy | stress_xy">
  1 450.028 0.00000 4.51288e-14
  2 450.028 0.00000 4.64745e-14
  3 450.028 0.00000 -1.00132e-14
  4 450.028 0.00000 -3.50693e-15
  5 450.028 0.00000 -3.81233e-14
  6 450.028 0.00000 -2.98523e-14
  7 450.028 0.00000 -3.61690e-15
  8 450.028 0.00000 1.73672e-14
  9 450.028 0.00000 -9.28232e-14
  10 450.028 0.00000 -4.32540e-14
  11 450.028 0.00000 -6.17031e-14
  12 450.028 0.00000 -1.06300e-13
</Section>

newXOutput 20

<Section columns = "stress_xx | stress_yy | stress_xy">
  1 475.145 0.00000 1.76335e-14
  2 475.145 0.00000 2.16986e-14
  3 475.145 0.00000 -3.39675e-14
  4 475.145 0.00000 -2.11436e-14
  5 475.145 0.00000 -7.47662e-14
  6 475.145 0.00000 -6.89613e-14
  7 475.145 0.00000 3.78994e-14
  8 475.145 0.00000 5.56037e-14
  9 475.145 0.00000 3.53584e-14
  10 475.145 0.00000 6.83920e-14
  11 475.145 0.00000 -6.30904e-14
  12 475.145 0.00000 -4.24046e-14
</Section>

newXOutput 21

<Section columns = "stress_xx | stress_yy | stress_xy">
  1 500.275 0.00000 3.38532e-14
  2 500.275 0.00000 4.74556e-14
  3 500.275 0.00000 2.14675e-15
  4 500.275 0.00000 1.99170e-14
  5 500.275 0.00000 -7.49096e-14
  6 500.275 0.00000 -7.02584e-14
  7 500.275 0.00000 -5.80176e-14
  8 500.275 0.00000 -3.13826e-14
  9 500.275 0.00000 5.59489e-15
  10 500.275 0.00000 7.31511e-14
  11 500.275 0.00000 1.67409e-18
  12 500.275 0.00000 1.76571e-14
</Section>

newXOutput 22

<Section columns = "stress_xx | stress_yy | stress_xy">
  1 525.417 0.00000 2.75632e-14
  2 525.417 0.00000 3.33688e-14
  3 525.417 0.00000 -9.18445e-15
  4 525.417 0.00000 7.57609e-15
  5 525.417 0.00000 -4.01788e-14
  6 525.417 0.00000 -3.21193e-14
  7 525.417 0.00000 1.05352e-13
  8 525.417 0.00000 1.03673e-13
  9 525.417 0.00000 -3.94775e-14
  10 525.417 0.00000 1.68956e-15
  11 525.417 0.00000 1.75690e-13
  12 525.417 0.00000 2.49787e-13
</Section>

newXOutput 23

<Section columns = "stress_xx | stress_yy | stress_xy">
  1 550.572 0.00000 -1.81993e-15
  2 550.572 0.00000 1.29046e-15
  3 550.572 0.00000 -9.64743e-15
  4 550.572 0.00000 -1.87145e-15
  5 550.572 0.00000 -6.95807e-15
  6 550.572 0.00000 4.70590e-15
  7 550.572 0.00000 -8.44249e-14
  8 550.572 0.00000 -8.26263e-14
  9 550.572 0.00000 -6.21304e-14
  10 550.572 0.00000 -7.76363e-14
  11 550.572 0.00000 -4.81015e-14
  12 550.572 0.00000 -1.88559e-13
</Section>

newXOutput 24

<Section columns = "stress_xx | stress_yy | stress_xy">
  1 575.739 0.00000 3.19849e-13
  2 575.739 0.00000 3.36556e-13
  3 575.739 0.00000 -2.60756e-13
  4 575.739 0.00000 -2.55275e-13
  5 575.739 0.00000 1.83521e-13
  6 575.739 0.00000 1.57042e-13
  7 575.739 0.00000 2.92485e-14
  8 575.739 0.00000 2.48772e-14
  9 575.739 0.00000 -1.73206e-14
  10 575.739 0.00000 4.29656e-14
  11 575.739 0.00000 -7.92115e-14
  12 575.739 0.00000 -4.51557e-14
</Section>

newXOutput 25

<Section columns = "stress_xx | stress_yy | stress_xy">
  1 600.918 0.00000 4.22655e-14
  2 600.918 0.00000 5.00656e-14
  3 600.918 0.00000 -2.78600e-13
  4 600.918 0.00000 -2.73920e-13
  5 600.918 0.00000 1.72423e-13
  6 600.918 0.00000 1.64147e-13
  7 600.918 0.00000 8.48604e-14
  8 600.918 0.00000 7.25939e-14
  9 600.918 0.00000 -9.74661e-14
  10 600.918 0.00000 -1.07398e-13
  11 600.918 0.00000 1.25634e-13
  12 600.918 0.00000 1.05332e-13
</Section>

newXOutput 26

<Section columns = "stress_xx | stress_yy | stress_xy">
  1 626.110 0.00000 8.94017e-14
  2 626.110 0.00000 8.59447e-14
  3 626.110 0.00000 -1.10186e-13
  4 626.110 0.00000 -1.16427e-13
  5 626.110 0.00000 2.05854e-13
  6 626.110 0.00000 2.01948e-13
  7 626.110 0.00000 7.63976e-14
  8 626.110 0.00000 6.76383e-14
  9 626.110 0.00000 2.83549e-14
  10 626.110 0.00000 5.23820e-14
  11 626.110 0.00000 4.80596e-14
  12 626.110 0.00000 4.62797e-14
</Section>

newXOutput 27

<Section columns = "stress_xx | stress_yy | stress_xy">
  1 651.314 0.00000 5.47631e-14
  2 651.314 0.00000 6.13449e-14
  3 651.314 0.00000 -1.31428e-13
  4 651.314 0.00000 -1.19719e-13
  5 651.314 0.00000 1.20751e-14
  6 651.314 0.00000 6.90880e-15
  7 651.314 0.00000 -2.43221e-14
  8 651.314 0.00000 -3.62059e-14
  9 651.314 0.00000 -1.26321e-13
  10 651.314 0.00000 -1.04656e-13
  11 651.314 0.00000 -7.56477e-14
  12 651.314 0.00000 -8.36923e-14
</Section>

newXOutput 28

<Section columns = "stress_xx | stress_yy | stress_xy">
  1 676.531 0.00000 1.21302e-13
  2 676.531 0.00000 1.15057e-13
  3 676.531 0.00000 -2.08298e-14
  4 676.531 0.00000 -1.75386e-14
  5 676.531 0.00000 1.17105e-13
  6 676.531 0.00000 1.11934e-13
  7 676.531 0.00000 6.57479e-14
  8 676.531 0.00000 5.30768e-14
  9 676.531 0.00000 4.37750e-15
  10 676.531 0.00000 -9.83772e-15
  11 676.531 0.00000 -3.52959e-14
  12 676.531 0.00000 -6.49807e-14
</Section>

newXOutput 29

<Section columns = "stress_xx | stress_yy | stress_xy">
  1 701.760 0.00000 -2.27380e-13
  2 701.760 0.00000 -2.27380e-13
  3 701.760 0.00000 1.53082e-13
  4 701.760 0.00000 1.81335e-13
  5 701.760 0.00000 -1.90802e-13
  6 701.760 0.00000 -1.91270e-13
  7 701.760 0.00000 3.03166e-14
  8 701.760 0.00000 -6.68837e-15
  9 701.760 0.00000 -4.42669e-14
  10 701.760 0.00000 -1.04549e-14
  11 701.760 0.00000 -8.94100e-14
  12 701.760 0.00000 1.62781e-15
</Section>

newXOutput 30

<Section columns = "stress_xx | stress_yy | stress_xy">
  1 727.002 0.00000 2.34812e-13
  2 727.002 0.00000 2.63066e-13
  3 727.002 0.00000 -4.13333e-14
  4 727.002 0.00000 -2.65590e-14
  5 727.002 0.00000 5.02435e-16
  6 727.002 0.00000 -6.25202e-15
  7 727.002 0.00000 -4.11115e-14
  8 727.002 0.00000 -5.30063e-14
  9 727.002 0.00000 -7.34626e-14
  10 727.002 0.00000 -9.37623e-14
  11 727.002 0.00000 9.96072e-14
  12 727.002 0.00000 2.98441e-15
</Section>

newXOutput 31

<Section columns = "stress_xx | stress_yy | stress_xy">
  1 752.256 0.00000 7.60105e-14
  2 752.256 0.00000 8.70315e-14
  3 752.256 0.00000 -1.11729e-13
  4 752.256 0.00000 -9.99203e-14
  5 752.256 0.00000 -5.47295e-14
  6 752.256 0.00000 -5.51941e-14
  7 752.256 0.00000 1.81606e-15
  8 752.256 0.00000 -1.00823e-14
  9 752.256 0.00000 -3.19507e-14
  10 752.256 0.00000 -7.55179e-14
  11 752.256 0.00000 -4.45409e-14
  12 752.256 0.00000 -5.98457e-14
</Section>

newXOutput 32

<Section columns = "stress_xx | stress_yy | stress_xy">
  1 777.523 0.00000 6.02730e-14
  2 777.523 0.00000 7.60413e-14
  3 777.523 0.00000 -5.96897e-14
  4 777.523 0.00000 -4.54983e-14
  5 777.523 0.00000 3.84735e-14
  6 777.523 0.00000 3.48571e-14
  7 777.523 0.00000 5.14235e-14
  8 777.523 0.00000 3.55794e-14
  9 777.523 0.00000 4.39017e-14
  10 777.523 0.00000 3.61399e-14
  11 777.523 0.00000 7.23663e-14
  12 777.523 0.00000 7.55200e-14
</Section>

newXOutput 33

<Section columns = "stress_xx | stress_yy | stress_xy">
  1 802.803 0.00000 3.61083e-14
  2 802.803 0.00000 5.99903e-14
  3 802.803 0.00000 -6.52285e-14
  4 802.803 0.00000 -4.26355e-14
  5 802.803 0.00000 4.07587e-14
  6 802.803 0.00000 3.47705e-14
  7 802.803 0.00000 7.49789e-14
  8 802.803 0.00000 5.91252e-14
  9 802.803 0.00000 7.28788e-14
  10 802.803 0.00000 -2.03405e-14
  11 802.803 0.00000 2.75277e-14
  12 802.803 0.00000 -8.87386e-14
</Section>

newXOutput 34

<Section columns = "stress_xx | stress_yy | stress_xy">
  1 828.095 0.00000 6.19422e-14
  2 828.095 0.00000 -1.88016e-14
  3 828.095 0.00000 -4.15950e-14
  4 828.095 0.00000 -8.92100e-14
  5 828.095 0.00000 1.63896e-13
  6 828.095 0.00000 1.50783e-13
  7 828.095 0.00000 -1.27743e-13
  8 828.095 0.00000 -1.16491e-13
  9 828.095 0.00000 -1.53553e-13
  10 828.095 0.00000 3.91647e-15
  11 828.095 0.00000 -1.23070e-14
  12 828.095 0.00000 5.32619e-14
</Section>

newXOutput 35

<Section columns = "stress_xx | stress_yy | stress_xy">
  1 853.400 0.00000 5.83451e-14
  2 853.400 0.00000 8.99361e-14
  3 853.400 0.00000 -7.96761e-15
  4 853.400 0.00000 -7.34299e-15
  5 853.400 0.00000 -4.77363e-16
  6 853.400 0.00000 -1.91511e-14
  7 853.400 0.00000 -3.98207e-13
  8 853.400 0.00000 -3.94279e-13
  9 853.400 0.00000 -2.67604e-13
  10 853.400 0.00000 -2.15380e-13
  11 853.400 0.00000 -2.25811e-13
  12 853.400 0.00000 -1.32811e-13
</Section>

newXOutput 36

<Section columns = "stress_xx | stress_yy | stress_xy">
  1 878.717 0.00000 7.91393e-14
  2 878.717 0.00000 1.07695e-13
  3 878.717 0.00000 1.72557e-14
  4 878.717 0.00000 1.48760e-14
  5 878.717 0.00000 1.74173e-13
  6 878.717 0.00000 1.49128e-13
  7 878.717 0.00000 -1.12684e-13
  8 878.717 0.00000 -1.10323e-13
  9 878.717 0.00000 -1.78794e-13
  10 878.717 0.00000 -1.47339e-13
  11 878.717 0.00000 -1.13488e-13
  12 878.717 0.00000 -1.74414e-13
</Section>

newXOutput 37

<Section columns = "stress_xx | stress_yy | stress_xy">
  1 904.048 0.00000 6.73740e-14
  2 904.048 0.00000 7.22495e-14
  3 904.048 0.00000 -3.26046e-14
  4 904.048 0.00000 -4.11729e-14
  5 904.048 0.00000 -1.41388e-13
  6 904.048 0.00000 -1.63291e-13
  7 904.048 0.00000 -4.90896e-14
  8 904.048 0.00000 -4.67100e-14
  9 904.048 0.00000 -1.96260e-14
  10 904.048 0.00000 2.94250e-14
  11 904.048 0.00000 4.23999e-14
  12 904.048 0.00000 1.24177e-13
</Section>

newXOutput 38

<Section columns = "stress_xx | stress_yy | stress_xy">
  1 929.390 0.00000 1.53927e-13
  2 929.390 0.00000 1.26876e-13
  3 929.390 0.00000 -1.07752e-13
  4 929.390 0.00000 -1.27643e-13
  5 929.390 0.00000 3.25783e-14
  6 929.390 0.00000 1.66658e-14
  7 929.390 0.00000 -2.41373e-13
  8 929.390 0.00000 -2.41481e-13
  9 929.390 0.00000 -5.00100e-14
  10 929.390 0.00000 -2.70640e-14
  11 929.390 0.00000 -5.49221e-14
  12 929.390 0.00000 4.02470e-14
</Section>

newXOutput 39

<Section columns = "stress_xx | stress_yy | stress_xy">
  1 954.746 0.00000 -1.59724e-14
  2 954.746 0.00000 -2.04971e-14
  3 954.746 0.00000 9.42295e-14
  4 954.746 0.00000 1.23262e-13
  5 954.746 0.00000 -3.94027e-14
  6 954.746 0.00000 -1.25795e-15
  7 954.746 0.00000 -1.32254e-14
  8 954.746 0.00000 -3.53832e-14
  9 954.746 0.00000 1.36258e-13
  10 954.746 0.00000 8.85256e-14
  11 954.746 0.00000 3.63459e-14
  12 954.746 0.00000 8.74543e-14
</Section>

newXOutput 40

<Section columns = "stress_xx | stress_yy | stress_xy">
  1 980.114 0.00000 1.57902e-13
  2 980.114 0.00000 1.19872e-13
  3 980.114 0.00000 -1.37251e-13
  4 980.114 0.00000 -1.61640e-13
  5 980.114 0.00000 5.00007e-14
  6 980.114 0.00000 3.08480e-14
  7 980.114 0.00000 -1.61661e-13
  8 980.114 0.00000 -1.55277e-13
  9 980.114 0.00000 6.58521e-14
  10 980.114 0.00000 6.62714e-14
  11 980.114 0.00000 1.28186e-13
  12 980.114 0.00000 -6.79018e-14
</Section>

newXOutput 41

<Section columns = "stress_xx | stress_yy | stress_xy">
  1 1005.50 0.00000 1.29673e-13
  2 1005.50 0.00000 8.84072e-14
  3 1005.50 0.00000 3.44782e-14
  4 1005.50 0.00000 8.45655e-15
  5 1005.50 0.00000 1.66023e-13
  6 1005.50 0.00000 1.46043e-13
  7 1005.50 0.00000 -3.97042e-14
  8 1005.50 0.00000 -4.13959e-14
  9 1005.50 0.00000 1.05596e-13
  10 1005.50 0.00000 1.95871e-13
  11 1005.50 0.00000 1.81309e-14
  12 1005.50 0.00000 2.99716e-14
</Section>

newXOutput 42

<Section columns = "stress_xx | stress_yy | stress_xy">
  1 1030.89 0.00000 9.07695e-14
  2 1030.89 0.00000 4.91076e-14
  3 1030.89 0.00000 -5.48228e-14
  4 1030.89 0.00000 -9.30603e-14
  5 1030.89 0.00000 -4.86150e-14
  6 1030.89 0.00000 -6.62245e-14
  7 1030.89 0.00000 9.07011e-14
  8 1030.89 0.00000 8.98124e-14
  9 1030.89 0.00000 2.59389e-13
  10 1030.89 0.00000 1.91422e-13
  11 1030.89 0.00000 1.03116e-14
  12 1030.89 0.00000 -7.66382e-14
</Section>

newXOutput 43

<Section columns = "stress_xx | stress_yy | stress_xy">
  1 1056.30 0.00000 2.91102e-14
  2 1056.30 0.00000 8.48909e-14
  3 1056.30 0.00000 -4.81074e-14
  4 1056.30 0.00000 -1.61776e-14
  5 1056.30 0.00000 5.34272e-14
  6 1056.30 0.00000 5.57487e-14
  7 1056.30 0.00000 -2.76004e-14
  8 1056.30 0.00000 -5.46063e-14
  9 1056.30 0.00000 1.83329e-15
  10 1056.30 0.00000 -7.62013e-15
  11 1056.30 0.00000 3.56422e-14
  12 1056.30 0.00000 1.29253e-14
</Section>

newXOutput 44

<Section columns = "stress_xx | stress_yy | stress_xy">
  1 1081.71 0.00000 7.96899e-14
  2 1081.71 0.00000 3.31254e-14
  3 1081.71 0.00000 3.89112e-14
  4 1081.71 0.00000 4.45311e-14
  5 1081.71 0.00000 3.38948e-14
  6 1081.71 0.00000 7.15496e-14
  7 1081.71 0.00000 -1.05017e-13
  8 1081.71 0.00000 -1.39266e-13
  9 1081.71 0.00000 1.82030e-13
  10 1081.71 0.00000 1.43532e-13
  11 1081.71 0.00000 -3.76496e-13
  12 1081.71 0.00000 -4.21848e-13
</Section>

newXOutput 45

<Section columns = "stress_xx | stress_yy | stress_xy">
  1 1107.15 0.00000 4.67737e-14
  2 1107.15 0.00000 -4.97940e-15
  3 1107.15 0.00000 -3.48867e-14
  4 1107.15 0.00000 -5.18326e-14
  5 1107.15 0.00000 -5.97534e-15
  6 1107.15 0.00000 4.29974e-14
  7 1107.15 0.00000 -5.37808e-14
  8 1107.15 0.00000 -4.86587e-14
  9 1107.15 0.00000 -3.16057e-13
  10 1107.15 0.00000 -1.90718e-13
  11 1107.15 0.00000 3.04006e-13
  12 1107.15 0.00000 3.52875e-13
</Section>

newXOutput 46

<Section columns = "stress_xx | stress_yy | stress_xy">
  1 1132.59 0.00000 8.44352e-15
  2 1132.59 0.00000 1.11514e-13
  3 1132.59 0.00000 -6.81078e-14
  4 1132.59 0.00000 2.75333e-15
  5 1132.59 0.00000 -3.76453e-14
  6 1132.59 0.00000 -4.32820e-14
  7 1132.59 0.00000 7.12758e-14
  8 1132.59 0.00000 3.25555e-14
  9 1132.59 0.00000 9.26651e-14
  10 1132.59 0.00000 -1.13414e-13
  11 1132.59 0.00000 -6.02084e-14
  12 1132.59 0.00000 -2.41220e-13
</Section>

newXOutput 47

<Section columns = "stress_xx | stress_yy | stress_xy">
  1 1158.05 0.00000 1.04798e-13
  2 1158.05 0.00000 9.18948e-14
  3 1158.05 0.00000 7.31577e-15
  4 1158.05 0.00000 2.02189e-14
  5 1158.05 0.00000 4.13988e-14
  6 1158.05 0.00000 8.08507e-14
  7 1158.05 0.00000 3.58298e-13
  8 1158.05 0.00000 3.63993e-13
  9 1158.05 0.00000 1.39353e-13
  10 1158.05 0.00000 3.28693e-13
  11 1158.05 0.00000 3.34482e-14
  12 1158.05 0.00000 1.96700e-13
</Section>

newXOutput 48

<Section columns = "stress_xx | stress_yy | stress_xy">
  1 1183.52 0.00000 6.59792e-14
  2 1183.52 0.00000 7.72862e-14
  3 1183.52 0.00000 7.56103e-14
  4 1183.52 0.00000 6.83415e-14
  5 1183.52 0.00000 1.39423e-14
  6 1183.52 0.00000 2.00085e-14
  7 1183.52 0.00000 -2.67714e-14
  8 1183.52 0.00000 7.07260e-14
  9 1183.52 0.00000 -2.52374e-13
  10 1183.52 0.00000 -2.69402e-13
  11 1183.52 0.00000 -1.57825e-14
  12 1183.52 0.00000 -1.11926e-13
</Section>

newXOutput 49

<Section columns = "stress_xx | stress_yy | stress_xy">
  1 1209.00 0.00000 1.12326e-13
  2 1209.00 0.00000 1.48364e-13
  3 1209.00 0.00000 -1.06907e-13
  4 1209.00 0.00000 -9.84409e-14
  5 1209.00 0.00000 9.63007e-14
  6 1209.00 0.00000 6.71822e-14
  7 1209.00 0.00000 1.55600e-13
  8 1209.00 0.00000 1.48267e-13
  9 1209.00 0.00000 2.65207e-13
  10 1209.00 0.00000 1.86633e-13
  11 1209.00 0.00000 3.56509e-14
  12 1209.00 0.00000 -4.43049e-14
</Section>

newXOutput 50

<Section columns = "stress_xx | stress_yy | stress_xy">
  1 1234.50 0.00000 8.26385e-14
  2 1234.50 0.00000 8.61498e-14
  3 1234.50 0.00000 -8.37674e-14
  4 1234.50 0.00000 -5.81501e-14
  5 1234.50 0.00000 -3.98693e-14
  6 1234.50 0.00000 -2.45275e-14
  7 1234.50 0.00000 -1.43853e-13
  8 1234.50 0.00000 -2.04188e-13
  9 1234.50 0.00000 4.02138e-14
  10 1234.50 0.00000 8.70645e-14
  11 1234.50 0.00000 -2.22385e-13
  12 1234.50 0.00000 -1.80845e-13
</Section>

newXOutput 51

<Section columns = "stress_xx | stress_yy | stress_xy">
  1 1260.01 0.00000 8.17596e-14
  2 1260.01 0.00000 1.14874e-13
  3 1260.01 0.00000 -2.88239e-14
  4 1260.01 0.00000 1.76381e-14
  5 1260.01 0.00000 -2.82476e-13
  6 1260.01 0.00000 -2.62239e-13
  7 1260.01 0.00000 7.03796e-14
  8 1260.01 0.00000 5.95090e-14
  9 1260.01 0.00000 -6.92824e-14
  10 1260.01 0.00000 -2.54657e-13
  11 1260.01 0.00000 1.92770e-13
  12 1260.01 0.00000 3.42969e-14
</Section>

newXOutput 52

<Section columns = "stress_xx | stress_yy | stress_xy">
  1 1285.53 0.00000 5.14467e-14
  2 1285.53 0.00000 8.06950e-14
  3 1285.53 0.00000 -6.82166e-14
  4 1285.53 0.00000 -3.89683e-14
  5 1285.53 0.00000 -6.00979e-14
  6 1285.53 0.00000 -3.65761e-14
  7 1285.53 0.00000 1.13080e-13
  8 1285.53 0.00000 9.40085e-14
  9 1285.53 0.00000 -1.94177e-13
  10 1285.53 0.00000 -1.59841e-13
  11 1285.53 0.00000 -1.71308e-13
  12 1285.53 0.00000 -1.41430e-13
</Section>

newXOutput 53

<Section columns = "stress_xx | stress_yy | stress_xy">
  1 1311.07 0.00000 1.24072e-13
  2 1311.07 0.00000 9.80356e-14
  3 1311.07 0.00000 -2.50523e-13
  4 1311.07 0.00000 -2.58659e-13
  5 1311.07 0.00000 1.83689e-13
  6 1311.07 0.00000 1.96134e-13
  7 1311.07 0.00000 -1.08681e-13
  8 1311.07 0.00000 -6.36099e-14
  9 1311.07 0.00000 -6.01272e-14
  10 1311.07 0.00000 4.43282e-14
  11 1311.07 0.00000 -7.05344e-14
  12 1311.07 0.00000 1.58042e-13
</Section>

newXOutput 54

<Section columns = "stress_xx | stress_yy | stress_xy">
  1 1336.61 0.00000 -1.05252e-13
  2 1336.61 0.00000 -1.11770e-13
  3 1336.61 0.00000 1.26880e-13
  4 1336.61 0.00000 1.18732e-13
  5 1336.61 0.00000 -2.72296e-13
  6 1336.61 0.00000 -2.71511e-13
  7 1336.61 0.00000 1.91140e-13
  8 1336.61 0.00000 1.85107e-13
  9 1336.61 0.00000 -6.84283e-14
  10 1336.61 0.00000 -6.70445e-14
  11 1336.61 0.00000 -3.02802e-13
  12 1336.61 0.00000 -4.79399e-13
</Section>

newXOutput 55

<Section columns = "stress_xx | stress_yy | stress_xy">
  1 1362.18 0.00000 1.74615e-13
  2 1362.18 0.00000 2.20314e-13
  3 1362.18 0.00000 2.37003e-14
  4 1362.18 0.00000 4.32857e-14
  5 1362.18 0.00000 -8.26604e-14
  6 1362.18 0.00000 -1.07983e-13
  7 1362.18 0.00000 2.09324e-13
  8 1362.18 0.00000 1.73932e-13
  9 1362.18 0.00000 4.88545e-14
  10 1362.18 0.00000 1.01947e-15
  11 1362.18 0.00000 8.63919e-15
  12 1362.18 0.00000 -4.68527e-14
</Section>

newXOutput 56

<Section columns = "stress_xx | stress_yy | stress_xy">
  1 1387.75 0.00000 3.61758e-14
  2 1387.75 0.00000 6.22494e-14
  3 1387.75 0.00000 -1.69001e-14
  4 1387.75 0.00000 -1.40985e-14
  5 1387.75 0.00000 3.82707e-14
  6 1387.75 0.00000 1.45505e-14
  7 1387.75 0.00000 1.76473e-13
  8 1387.75 0.00000 1.77017e-13
  9 1387.75 0.00000 9.27224e-14
  10 1387.75 0.00000 5.92899e-14
  11 1387.75 0.00000 -8.98286e-14
  12 1387.75 0.00000 -1.17231e-13
</Section>

newXOutput 57

<Section columns = "stress_xx | stress_yy | stress_xy">
  1 1413.34 0.00000 5.22358e-14
  2 1413.34 0.00000 9.54576e-14
  3 1413.34 0.00000 -1.81881e-14
  4 1413.34 0.00000 2.02941e-14
  5 1413.34 0.00000 4.26733e-15
  6 1413.34 0.00000 5.18905e-15
  7 1413.34 0.00000 -1.48096e-15
  8 1413.34 0.00000 5.82274e-14
  9 1413.34 0.00000 -5.64936e-14
  10 1413.34 0.00000 -2.40985e-14
  11 1413.34 0.00000 -2.05986e-13
  12 1413.34 0.00000 -2.45272e-13
</Section>

newXOutput 58

<Section columns = "stress_xx | stress_yy | stress_xy">
  1 1438.94 0.00000 1.55098e-13
  2 1438.94 0.00000 9.21815e-14
  3 1438.94 0.00000 5.03505e-14
  4 1438.94 0.00000 1.71591e-14
  5 1438.94 0.00000 4.48941e-14
  6 1438.94 0.00000 7.35724e-14
  7 1438.94 0.00000 4.17607e-15
  8 1438.94 0.00000 9.69661e-15
  9 1438.94 0.00000 1.27153e-13
  10 1438.94 0.00000 9.06930e-14
  11 1438.94 0.00000 1.58957e-13
  12 1438.94 0.00000 1.42564e-13
</Section>

newXOutput 59

<Section columns = "stress_xx | stress_yy | stress_xy">
  1 1464.55 0.00000 3.63944e-14
  2 1464.55 0.00000 1.19122e-13
  3 1464.55 0.00000 -3.63569e-14
  4 1464.55 0.00000 1.82282e-14
  5 1464.55 0.00000 7.17234e-14
  6 1464.55 0.00000 3.47796e-14
  7 1464.55 0.00000 -3.69798e-14
  8 1464.55 0.00000 -6.58894e-14
  9 1464.55 0.00000 2.03731e-14
  10 1464.55 0.00000 6.14066e-14
  11 1464.55 0.00000 -2.75597e-13
  12 1464.55 0.00000 -2.69747e-13
</Section>

newXOutput 60

<Section columns = "stress_xx | stress_yy | stress_xy">
  1 1490.17 0.00000 2.72818e-13
  2 1490.17 0.00000 3.14904e-13
  3 1490.17 0.00000 -8.03804e-15
  4 1490.17 0.00000 -1.33815e-14
  5 1490.17 0.00000 9.73351e-14
  6 1490.17 0.00000 5.95197e-14
  7 1490.17 0.00000 3.41913e-15
  8 1490.17 0.00000 6.55411e-14
  9 1490.17 0.00000 4.19163e-13
  10 1490.17 0.00000 4.56978e-13
  11 1490.17 0.00000 2.78402e-13
  12 1490.17 0.00000 3.07996e-13
</Section>

newXOutput 61

<Section columns = "stress_xx | stress_yy | stress_xy">
  1 1515.81 0.00000 3.78494e-14
  2 1515.81 0.00000 4.84089e-14
  3 1515.81 0.00000 -2.70039e-13
  4 1515.81 0.00000 -2.79504e-13
  5 1515.81 0.00000 -1.72767e-13
  6 1515.81 0.00000 -1.78565e-13
  7 1515.81 0.00000 4.96053e-13
  8 1515.81 0.00000 5.68688e-13
  9 1515.81 0.00000 -3.09696e-13
  10 1515.81 0.00000 -2.88657e-13
  11 1515.81 0.00000 -2.61981e-13
  12 1515.81 0.00000 -3.84007e-15
</Section>

newXOutput 62

<Section columns = "stress_xx | stress_yy | stress_xy">
  1 1541.47 0.00000 1.60171e-13
  2 1541.47 0.00000 1.74062e-13
  3 1541.47 0.00000 -3.11912e-14
  4 1541.47 0.00000 -2.41782e-14
  5 1541.47 0.00000 -1.01267e-13
  6 1541.47 0.00000 -1.20220e-13
  7 1541.47 0.00000 6.67727e-14
  8 1541.47 0.00000 8.72003e-14
  9 1541.47 0.00000 -9.97258e-14
  10 1541.47 0.00000 -5.93235e-14
  11 1541.47 0.00000 2.91712e-13
  12 1541.47 0.00000 9.84390e-14
</Section>

newXOutput 63

<Section columns = "stress_xx | stress_yy | stress_xy">
  1 1567.13 0.00000 1.62785e-13
  2 1567.13 0.00000 9.34282e-14
  3 1567.13 0.00000 -1.25586e-13
  4 1567.13 0.00000 -1.55310e-13
  5 1567.13 0.00000 -3.02457e-13
  6 1567.13 0.00000 -3.06570e-13
  7 1567.13 0.00000 1.74814e-13
  8 1567.13 0.00000 1.59019e-13
  9 1567.13 0.00000 6.62657e-14
  10 1567.13 0.00000 7.95952e-14
  11 1567.13 0.00000 -2.31001e-13
  12 1567.13 0.00000 -3.11971e-13
</Section>

newXOutput 64

<Section columns = "stress_xx | stress_yy | stress_xy">
  1 1592.81 0.00000 3.23213e-14
  2 1592.81 0.00000 9.51638e-14
  3 1592.81 0.00000 -9.89718e-14
  4 1592.81 0.00000 -5.76281e-14
  5 1592.81 0.00000 2.01958e-13
  6 1592.81 0.00000 2.06112e-13
  7 1592.81 0.00000 1.07350e-14
  8 1592.81 0.00000 -1.66006e-14
  9 1592.81 0.00000 -9.27495e-14
  10 1592.81 0.00000 -7.89894e-14
  11 1592.81 0.00000 -2.64525e-14
  12 1592.81 0.00000 -4.99215e-14
</Section>

newXOutput 65

<Section columns = "stress_xx | stress_yy | stress_xy">
  1 1618.50 0.00000 2.70358e-13
  2 1618.50 0.00000 2.70358e-13
  3 1618.50 0.00000 -1.23031e-13
  4 1618.50 0.00000 -1.29655e-13
  5 1618.50 0.00000 3.60628e-13
  6 1618.50 0.00000 3.69563e-13
  7 1618.50 0.00000 -1.76213e-13
  8 1618.50 0.00000 -9.87108e-14
  9 1618.50 0.00000 -1.56689e-13
  10 1618.50 0.00000 -1.67780e-13
  11 1618.50 0.00000 -2.30653e-13
  12 1618.50 0.00000 1.47400e-13
</Section>

newXOutput 66

<Section columns = "stress_xx | stress_yy | stress_xy">
  1 1645.11 0.00000 1.75378e-13
  2 1645.11 0.00000 1.66204e-13
  3 1645.11 0.00000 -1.73388e-13
  4 1645.11 0.00000 -1.74617e-13
  5 1645.11 0.00000 1.19950e-13
  6 1645.11 0.00000 1.10858e-13
  7 1645.11 0.00000 3.48443e-13
  8 1645.11 0.00000 3.42642e-13
  9 1645.11 0.00000 5.80245e-13
  10 1645.11 0.00000 6.49966e-13
  11 1645.11 0.00000 -1.39614e-13
  12 1645.11 0.00000 6.69480e-15
</Section>

newXOutput 67

<Section columns = "stress_xx | stress_yy | stress_xy">
  1 1674.17 0.00000 9.59878e-14
  2 1674.17 0.00000 1.06612e-13
  3 1674.17 0.00000 -1.38828e-13
  4 1674.17 0.00000 -1.28362e-13
  5 1674.17 0.00000 -5.04998e-14
  6 1674.17 0.00000 -7.12272e-14
  7 1674.17 0.00000 -9.89022e-14
  8 1674.17 0.00000 -9.30585e-14
  9 1674.17 0.00000 2.32834e-13
  10 1674.17 0.00000 1.62295e-13
  11 1674.17 0.00000 4.88387e-13
  12 1674.17 0.00000 -1.82619e-14
</Section>

newXOutput 68

<Section columns = "stress_xx | stress_yy | stress_xy">
  1 1703.26 0.00000 1.10348e-13
  2 1703.26 0.00000 1.10348e-13
  3 1703.26 0.00000 -6.72902e-15
  4 1703.26 0.00000 -6.72902e-15
  5 1703.26 0.00000 2.26288e-13
  6 1703.26 0.00000 2.18842e-13
  7 1703.26 0.00000 4.43759e-13
  8 1703.26 0.00000 4.06250e-13
  9 1703.26 0.00000 2.68798e-13
  10 1703.26 0.00000 1.14144e-13
  11 1703.26 0.00000 -3.58018e-14
  12 1703.26 0.00000 -2.71714e-13
</Section>

newXOutput 69

<Section columns = "stress_xx | stress_yy | stress_xy">
  1 1732.39 0.00000 1.25050e-13
  2 1732.39 0.00000 1.01729e-13
  3 1732.39 0.00000 -1.24662e-13
  4 1732.39 0.00000 -7.95579e-14
  5 1732.39 0.00000 -1.55101e-13
  6 1732.39 0.00000 -4.82259e-14
  7 1732.39 0.00000 -6.86514e-13
  8 1732.39 0.00000 -7.11916e-13
  9 1732.39 0.00000 -5.45802e-14
  10 1732.39 0.00000 6.38938e-15
  11 1732.39 0.00000 7.37421e-14
  12 1732.39 0.00000 -2.23945e-13
</Section>

newXOutput 70

<Section columns = "stress_xx | stress_yy | stress_xy">
  1 1761.55 0.00000 1.33881e-13
  2 1761.55 0.00000 1.54754e-13
  3 1761.55 0.00000 7.36257e-15
  4 1761.55 0.00000 -3.34865e-14
  5 1761.55 0.00000 -3.73288e-13
  6 1761.55 0.00000 -4.37050e-13
  7 1761.55 0.00000 5.78201e-14
  8 1761.55 0.00000 5.37057e-14
  9 1761.55 0.00000 6.76738e-13
  10 1761.55 0.00000 6.63581e-13
  11 1761.55 0.00000 -1.18805e-13
  12 1761.55 0.00000 3.55741e-13
</Section>

newXOutput 71

<Section columns = "stress_xx | stress_yy | stress_xy">
  1 1790.76 0.00000 7.69206e-14
  2 1790.76 0.00000 8.69440e-14
  3 1790.76 0.00000 -1.08380e-13
  4 1790.76 0.00000 -1.22001e-13
  5 1790.76 0.00000 -2.33073e-13
  6 1790.76 0.00000 -2.45805e-13
  7 1790.76 0.00000 2.02606e-13
  8 1790.76 0.00000 2.03590e-13
  9 1790.76 0.00000 -3.08381e-13
  10 1790.76 0.00000 -3.08236e-13
  11 1790.76 0.00000 3.21543e-14
  12 1790.76 0.00000 -1.58937e-13
</Section>

newXOutput 72

<Section columns = "stress_xx | stress_yy | stress_xy">
  1 1820.00 0.00000 1.43464e-13
  2 1820.00 0.00000 1.67655e-13
  3 1820.00 0.00000 -9.31699e-15
  4 1820.00 0.00000 -1.25347e-14
  5 1820.00 0.00000 -1.42793e-15
  6 1820.00 0.00000 -2.44394e-14
  7 1820.00 0.00000 -1.83233e-13
  8 1820.00 0.00000 -1.99105e-13
  9 1820.00 0.00000 1.35135e-15
  10 1820.00 0.00000 5.89144e-15
  11 1820.00 0.00000 -1.26134e-13
  12 1820.00 0.00000 4.67023e-14
</Section>

newXOutput 73

<Section columns = "stress_xx | stress_yy | stress_xy">
  1 1849.28 0.00000 2.50895e-13
  2 1849.28 0.00000 1.93419e-13
  3 1849.28 0.00000 -5.12904e-14
  4 1849.28 0.00000 -1.07064e-13
  5 1849.28 0.00000 -4.33581e-14
  6 1849.28 0.00000 -4.28701e-14
  7 1849.28 0.00000 2.88997e-13
  8 1849.28 0.00000 4.41381e-13
  9 1849.28 0.00000 2.70305e-14
  10 1849.28 0.00000 2.67634e-13
  11 1849.28 0.00000 -7.01471e-14
  12 1849.28 0.00000 -1.20527e-13
</Section>

newXOutput 74

<Section columns = "stress_xx | stress_yy | stress_xy">
  1 1878.60 0.00000 2.56851e-13
  2 1878.60 0.00000 2.43429e-13
  3 1878.60 0.00000 -2.65567e-13
  4 1878.60 0.00000 -2.58856e-13
  5 1878.60 0.00000 -3.95970e-14
  6 1878.60 0.00000 2.09085e-15
  7 1878.60 0.00000 -3.62365e-13
  8 1878.60 0.00000 -3.67491e-13
  9 1878.60 0.00000 -5.95218e-14
  10 1878.60 0.00000 -1.54412e-13
  11 1878.60 0.00000 2.47467e-13
  12 1878.60 0.00000 3.08641e-14
</Section>

newXOutput 75

<Section columns = "stress_xx | stress_yy | stress_xy">
  1 1907.96 0.00000 -9.92962e-14
  2 1907.96 0.00000 -1.69864e-13
  3 1907.96 0.00000 -2.19944e-13
  4 1907.96 0.00000 -2.68670e-13
  5 1907.96 0.00000 -1.15382e-13
  6 1907.96 0.00000 -9.49633e-14
  7 1907.96 0.00000 -6.84641e-14
  8 1907.96 0.00000 -6.70199e-14
  9 1907.96 0.00000 2.25375e-13
  10 1907.96 0.00000 6.30716e-14
  11 1907.96 0.00000 5.16905e-16
  12 1907.96 0.00000 -2.31935e-13
</Section>

newXOutput 76

<Section columns = "stress_xx | stress_yy | stress_xy">
  1 1937.36 0.00000 2.08905e-13
  2 1937.36 0.00000 1.17019e-13
  3 1937.36 0.00000 1.89603e-13
  4 1937.36 0.00000 1.47025e-13
  5 1937.36 0.00000 1.77616e-13
  6 1937.36 0.00000 2.16572e-13
  7 1937.36 0.00000 -3.87365e-14
  8 1937.36 0.00000 -2.51911e-15
  9 1937.36 0.00000 4.26520e-14
  10 1937.36 0.00000 5.96418e-14
  11 1937.36 0.00000 3.48220e-13
  12 1937.36 0.00000 -1.27525e-13
</Section>

newXOutput 77

<Section columns = "stress_xx | stress_yy | stress_xy">
  1 1966.80 0.00000 3.23768e-13
  2 1966.80 0.00000 2.90942e-13
  3 1966.80 0.00000 -1.36792e-13
  4 1966.80 0.00000 -1.43030e-13
  5 1966.80 0.00000 -2.68840e-13
  6 1966.80 0.00000 -2.06071e-13
  7 1966.80 0.00000 2.86815e-13
  8 1966.80 0.00000 2.56695e-13
  9 1966.80 0.00000 7.18757e-14
  10 1966.80 0.00000 4.28468e-14
  11 1966.80 0.00000 -3.37987e-13
  12 1966.80 0.00000 -4.58455e-13
</Section>

newXOutput 78

<Section columns = "stress_xx | stress_yy | stress_xy">
  1 1996.28 0.00000 -1.19201e-13
  2 1996.28 0.00000 -9.89519e-14
  3 1996.28 0.00000 -4.03050e-14
  4 1996.28 0.00000 -9.82029e-16
  5 1996.28 0.00000 1.19782e-13
  6 1996.28 0.00000 1.39237e-13
  7 1996.28 0.00000 -2.09974e-13
  8 1996.28 0.00000 -2.04030e-13
  9 1996.28 0.00000 2.13529e-14
  10 1996.28 0.00000 1.85601e-13
  11 1996.28 0.00000 -2.10581e-13
  12 1996.28 0.00000 -2.04949e-14
</Section>

newXOutput 79

<Section columns = "stress_xx | stress_yy | stress_xy">
  1 2025.79 0.00000 3.07715e-13
  2 2025.79 0.00000 2.07363e-13
  3 2025.79 0.00000 2.86168e-13
  4 2025.79 0.00000 2.47729e-13
  5 2025.79 0.00000 8.65061e-15
  6 2025.79 0.00000 4.43250e-14
  7 2025.79 0.00000 -1.29638e-13
  8 2025.79 0.00000 -1.39217e-13
  9 2025.79 0.00000 -3.75730e-13
  10 2025.79 0.00000 -2.71048e-13
  11 2025.79 0.00000 -1.54641e-13
  12 2025.79 0.00000 1.35090e-13
</Section>

newXOutput 80

<Section columns = "stress_xx | stress_yy | stress_xy">
  1 2055.35 0.00000 1.08210e-13
  2 2055.35 0.00000 1.45439e-13
  3 2055.35 0.00000 -8.13188e-15
  4 2055.35 0.00000 8.79019e-15
  5 2055.35 0.00000 4.62144e-14
  6 2055.35 0.00000 5.72659e-14
  7 2055.35 0.00000 4.76903e-13
  8 2055.35 0.00000 5.33002e-13
  9 2055.35 0.00000 -6.87178e-13
  10 2055.35 0.00000 -6.68592e-13
  11 2055.35 0.00000 -4.73082e-13
  12 2055.35 0.00000 -6.03175e-13
</Section>

newXOutput 81

<Section columns = "stress_xx | stress_yy | stress_xy">
  1 2084.94 0.00000 1.45240e-13
  2 2084.94 0.00000 1.77794e-13
  3 2084.94 0.00000 1.98881e-14
  4 2084.94 0.00000 2.76921e-14
  5 2084.94 0.00000 -3.10810e-13
  6 2084.94 0.00000 -2.98435e-13
  7 2084.94 0.00000 -1.74898e-13
  8 2084.94 0.00000 -1.55536e-13
  9 2084.94 0.00000 6.22697e-13
  10 2084.94 0.00000 8.29592e-13
  11 2084.94 0.00000 1.90433e-13
  12 2084.94 0.00000 6.37661e-13
</Section>

newXOutput 82

<Section columns = "stress_xx | stress_yy | stress_xy">
  1 2114.58 0.00000 1.47752e-13
  2 2114.58 0.00000 1.85751e-13
  3 2114.58 0.00000 1.17321e-13
  4 2114.58 0.00000 1.60735e-13
  5 2114.58 0.00000 1.90611e-13
  6 2114.58 0.00000 2.10463e-13
  7 2114.58 0.00000 -4.28684e-13
  8 2114.58 0.00000 -3.94012e-13
  9 2114.58 0.00000 -3.80760e-13
  10 2114.58 0.00000 -5.97529e-13
  11 2114.58 0.00000 -8.06180e-13
  12 2114.58 0.00000 -9.17637e-13
</Section>

newXOutput 83

<Section columns = "stress_xx | stress_yy | stress_xy">
  1 2144.25 0.00000 3.25241e-13
  2 2144.25 0.00000 2.43668e-13
  3 2144.25 0.00000 -1.93290e-13
  4 2144.25 0.00000 -2.16569e-13
  5 2144.25 0.00000 2.36855e-13
  6 2144.25 0.00000 2.44394e-13
  7 2144.25 0.00000 1.21272e-13
  8 2144.25 0.00000 7.78346e-14
  9 2144.25 0.00000 4.85638e-13
  10 2144.25 0.00000 3.03668e-13
  11 2144.25 0.00000 5.64519e-13
  12 2144.25 0.00000 3.74251e-13
</Section>

newXOutput 84

<Section columns = "stress_xx | stress_yy | stress_xy">
  1 2173.96 0.00000 3.88682e-16
  2 2173.96 0.00000 4.80039e-15
  3 2173.96 0.00000 -1.88724e-13
  4 2173.96 0.00000 -1.56383e-13
  5 2173.96 0.00000 -3.15756e-13
  6 2173.96 0.00000 -2.82435e-13
  7 2173.96 0.00000 -9.51526e-14
  8 2173.96 0.00000 -1.65964e-14
  9 2173.96 0.00000 -6.10431e-14
  10 2173.96 0.00000 -9.69736e-14
  11 2173.96 0.00000 -5.11500e-13
  12 2173.96 0.00000 -6.67023e-13
</Section>

newXOutput 85

<Section columns = "stress_xx | stress_yy | stress_xy">
  1 2203.72 0.00000 3.75298e-13
  2 2203.72 0.00000 3.11894e-13
  3 2203.72 0.00000 2.17865e-13
  4 2203.72 0.00000 1.98862e-13
  5 2203.72 0.00000 3.64329e-13
  6 2203.72 0.00000 3.87502e-13
  7 2203.72 0.00000 1.67297e-13
  8 2203.72 0.00000 1.39167e-13
  9 2203.72 0.00000 1.53976e-13
  10 2203.72 0.00000 2.92797e-13
  11 2203.72 0.00000 7.28255e-14
  12 2203.72 0.00000 3.20175e-13
</Section>

newXOutput 86

<Section columns = "stress_xx | stress_yy | stress_xy">
  1 2233.51 0.00000 -4.64044e-16
  2 2233.51 0.00000 -3.29936e-15
  3 2233.51 0.00000 -1.11274e-13
  4 2233.51 0.00000 -1.22227e-13
  5 2233.51 0.00000 -2.37151e-13
  6 2233.51 0.00000 -2.48839e-13
  7 2233.51 0.00000 -2.93083e-13
  8 2233.51 0.00000 -3.50733e-13
  9 2233.51 0.00000 1.26154e-13
  10 2233.51 0.00000 1.01344e-13
  11 2233.51 0.00000 -8.30590e-14
  12 2233.51 0.00000 4.50204e-14
</Section>

newXOutput 87

<Section columns = "stress_xx | stress_yy | stress_xy">
  1 2263.35 0.00000 1.51676e-13
  2 2263.35 0.00000 1.75602e-13
  3 2263.35 0.00000 1.10259e-13
  4 2263.35 0.00000 1.37604e-13
  5 2263.35 0.00000 -1.53844e-13
  6 2263.35 0.00000 -1.64172e-13
  7 2263.35 0.00000 -4.09796e-13
  8 2263.35 0.00000 -4.68848e-13
  9 2263.35 0.00000 3.96852e-14
  10 2263.35 0.00000 -1.45172e-13
  11 2263.35 0.00000 -2.21032e-13
  12 2263.35 0.00000 -2.03113e-13
</Section>

newXOutput 88

<Section columns = "stress_xx | stress_yy | stress_xy">
  1 2293.22 0.00000 2.15118e-13
  2 2293.22 0.00000 2.03952e-13
  3 2293.22 0.00000 -2.44225e-13
  4 2293.22 0.00000 -2.69527e-13
  5 2293.22 0.00000 -1.30690e-13
  6 2293.22 0.00000 -1.51567e-13
  7 2293.22 0.00000 -5.02735e-13
  8 2293.22 0.00000 -4.61574e-13
  9 2293.22 0.00000 1.93130e-13
  10 2293.22 0.00000 4.49894e-13
  11 2293.22 0.00000 4.62673e-13
  12 2293.22 0.00000 9.17505e-13
</Section>

newXOutput 89

<Section columns = "stress_xx | stress_yy | stress_xy">
  1 2323.14 0.00000 -5.42815e-15
  2 2323.14 0.00000 6.56159e-14
  3 2323.14 0.00000 1.36746e-13
  4 2323.14 0.00000 2.29822e-13
  5 2323.14 0.00000 1.42357e-13
  6 2323.14 0.00000 2.27696e-13
  7 2323.14 0.00000 -1.33722e-13
  8 2323.14 0.00000 -1.00599e-13
  9 2323.14 0.00000 -2.46645e-13
  10 2323.14 0.00000 -2.50671e-13
  11 2323.14 0.00000 -5.33756e-13
  12 2323.14 0.00000 -7.02582e-13
</Section>

newXOutput 90

<Section columns = "stress_xx | stress_yy | stress_xy">
  1 2353.10 0.00000 3.00212e-13
  2 2353.10 0.00000 2.67081e-13
  3 2353.10 0.00000 1.01346e-14
  4 2353.10 0.00000 -4.29441e-14
  5 2353.10 0.00000 3.17629e-13
  6 2353.10 0.00000 3.27091e-13
  7 2353.10 0.00000 -1.62603e-13
  8 2353.10 0.00000 -1.43103e-13
  9 2353.10 0.00000 3.37035e-13
  10 2353.10 0.00000 1.91573e-13
  11 2353.10 0.00000 5.36877e-13
  12 2353.10 0.00000 1.91711e-13
</Section>

newXOutput 91

<Section columns = "stress_xx | stress_yy | stress_xy">
  1 2383.10 0.00000 1.25449e-13
  2 2383.10 0.00000 1.35761e-13
  3 2383.10 0.00000 -9.92181e-14
  4 2383.10 0.00000 -9.40621e-14
  5 2383.10 0.00000 1.94115e-13
  6 2383.10 0.00000 2.03825e-13
  7 2383.10 0.00000 1.67115e-13
  8 2383.10 0.00000 1.57393e-13
  9 2383.10 0.00000 -4.11786e-14
  10 2383.10 0.00000 -1.59479e-14
  11 2383.10 0.00000 -1.71131e-13
  12 2383.10 0.00000 -3.48447e-13
</Section>

newXOutput 92

<Section columns = "stress_xx | stress_yy | stress_xy">
  1 2413.13 0.00000 1.26913e-13
  2 2413.13 0.00000 1.63385e-13
  3 2413.13 0.00000 -1.44667e-13
  4 2413.13 0.00000 -1.29873e-13
  5 2413.13 0.00000 -8.53362e-14
  6 2413.13 0.00000 -3.07716e-14
  7 2413.13 0.00000 -1.00266e-14
  8 2413.13 0.00000 7.16673e-14
  9 2413.13 0.00000 -4.28955e-14
  10 2413.13 0.00000 9.38935e-16
  11 2413.13 0.00000 1.91905e-13
  12 2413.13 0.00000 3.90434e-13
</Section>

newXOutput 93

<Section columns = "stress_xx | stress_yy | stress_xy">
  1 2443.21 0.00000 1.27285e-13
  2 2443.21 0.00000 1.41072e-13
  3 2443.21 0.00000 -1.47034e-13
  4 2443.21 0.00000 -1.53928e-13
  5 2443.21 0.00000 2.97064e-13
  6 2443.21 0.00000 2.38613e-13
  7 2443.21 0.00000 1.40320e-14
  8 2443.21 0.00000 -3.85157e-14
  9 2443.21 0.00000 -5.66805e-13
  10 2443.21 0.00000 -4.66822e-13
  11 2443.21 0.00000 -2.26659e-13
  12 2443.21 0.00000 -3.73818e-14
</Section>

newXOutput 94

<Section columns = "stress_xx | stress_yy | stress_xy">
  1 2473.34 0.00000 1.52018e-13
  2 2473.34 0.00000 1.25759e-13
  3 2473.34 0.00000 2.08627e-15
  4 2473.34 0.00000 -2.02248e-14
  5 2473.34 0.00000 1.14282e-16
  6 2473.34 0.00000 4.09218e-15
  7 2473.34 0.00000 -2.24955e-13
  8 2473.34 0.00000 -2.78544e-13
  9 2473.34 0.00000 2.08474e-13
  10 2473.34 0.00000 -3.06679e-14
  11 2473.34 0.00000 -4.99298e-14
  12 2473.34 0.00000 -2.87182e-13
</Section>

newXOutput 95

<Section columns = "stress_xx | stress_yy | stress_xy">
  1 2503.50 0.00000 1.23865e-13
  2 2503.50 0.00000 1.49852e-13
  3 2503.50 0.00000 -5.28596e-14
  4 2503.50 0.00000 -2.22766e-14
  5 2503.50 0.00000 2.36692e-13
  6 2503.50 0.00000 2.45682e-13
  7 2503.50 0.00000 -2.16006e-14
  8 2503.50 0.00000 -1.04272e-13
  9 2503.50 0.00000 7.90024e-14
  10 2503.50 0.00000 -3.27002e-14
  11 2503.50 0.00000 -1.45477e-14
  12 2503.50 0.00000 -1.55872e-13
</Section>

newXOutput 96

<Section columns = "stress_xx | stress_yy | stress_xy">
  1 2533.70 0.00000 1.58577e-13
  2 2533.70 0.00000 1.83538e-13
  3 2533.70 0.00000 -3.28205e-14
  4 2533.70 0.00000 -6.17455e-15
  5 2533.70 0.00000 1.72684e-13
  6 2533.70 0.00000 1.64390e-13
  7 2533.70 0.00000 -6.22023e-14
  8 2533.70 0.00000 -1.63382e-13
  9 2533.70 0.00000 -4.54891e-13
  10 2533.70 0.00000 -5.43893e-13
  11 2533.70 0.00000 -1.18207e-13
  12 2533.70 0.00000 -2.04203e-13
</Section>

newXOutput 97

<Section columns = "stress_xx | stress_yy | stress_xy">
  1 2563.95 0.00000 1.98765e-13
  2 2563.95 0.00000 2.16792e-13
  3 2563.95 0.00000 -6.61019e-14
  4 2563.95 0.00000 -4.28899e-14
  5 2563.95 0.00000 -8.28743e-14
  6 2563.95 0.00000 -8.98066e-14
  7 2563.95 0.00000 -1.32909e-13
  8 2563.95 0.00000 -2.13807e-13
  9 2563.95 0.00000 -9.61792e-14
  10 2563.95 0.00000 9.65700e-15
  11 2563.95 0.00000 1.35244e-13
  12 2563.95 0.00000 4.28045e-13
</Section>

newXOutput 98

<Section columns = "stress_xx | stress_yy | stress_xy">
  1 2594.24 0.00000 2.52079e-13
  2 2594.24 0.00000 1.28966e-13
  3 2594.24 0.00000 -1.00599e-13
  4 2594.24 0.00000 -1.31886e-13
  5 2594.24 0.00000 2.16147e-13
  6 2594.24 0.00000 3.04055e-13
  7 2594.24 0.00000 6.42184e-14
  8 2594.24 0.00000 1.22003e-13
  9 2594.24 0.00000 1.72254e-13
  10 2594.24 0.00000 -7.95774e-14
  11 2594.24 0.00000 -2.68237e-13
  12 2594.24 0.00000 -4.41285e-13
</Section>

newXOutput 99

<Section columns = "stress_xx | stress_yy | stress_xy">
  1 2624.57 0.00000 -1.27908e-13
  2 2624.57 0.00000 -5.25639e-14
  3 2624.57 0.00000 -2.12578e-13
  4 2624.57 0.00000 -1.54904e-13
  5 2624.57 0.00000 -4.14395e-13
  6 2624.57 0.00000 -4.19732e-13
  7 2624.57 0.00000 -1.56909e-13
  8 2624.57 0.00000 -2.13908e-13
  9 2624.57 0.00000 6.34718e-13
  10 2624.57 0.00000 5.52720e-13
  11 2624.57 0.00000 1.13838e-14
  12 2624.57 0.00000 1.49742e-13
</Section>

newXOutput 100

<Section columns = "stress_xx | stress_yy | stress_xy">
  1 2654.94 0.00000 2.65271e-13
  2 2654.94 0.00000 2.72232e-13
  3 2654.94 0.00000 1.75139e-13
  4 2654.94 0.00000 2.16906e-13
  5 2654.94 0.00000 3.18531e-13
  6 2654.94 0.00000 3.45034e-13
  7 2654.94 0.00000 4.34787e-13
  8 2654.94 0.00000 3.47063e-13
  9 2654.94 0.00000 2.66422e-13
  10 2654.94 0.00000 2.09526e-13
  11 2654.94 0.00000 -1.72579e-13
  12 2654.94 0.00000 -3.65066e-14
</Section>

newXOutput 101

<Section columns = "stress_xx | stress_yy | stress_xy">
  1 2685.36 0.00000 1.46789e-13
  2 2685.36 0.00000 1.77600e-13
  3 2685.36 0.00000 -8.25684e-14
  4 2685.36 0.00000 -2.25036e-15
  5 2685.36 0.00000 -1.36992e-13
  6 2685.36 0.00000 -9.76276e-14
  7 2685.36 0.00000 -1.06890e-13
  8 2685.36 0.00000 -1.79073e-13
  9 2685.36 0.00000 -7.87618e-14
  10 2685.36 0.00000 1.43292e-14
  11 2685.36 0.00000 -6.18009e-13
  12 2685.36 0.00000 -5.91065e-13
</Section>

newXOutput 102

<Section columns = "stress_xx | stress_yy | stress_xy">
  1 2715.82 0.00000 2.23042e-13
  2 2715.82 0.00000 2.52254e-13
  3 2715.82 0.00000 7.81429e-14
  4 2715.82 0.00000 2.00987e-13
  5 2715.82 0.00000 5.03897e-13
  6 2715.82 0.00000 5.42289e-13
  7 2715.82 0.00000 8.28459e-13
  8 2715.82 0.00000 7.67075e-13
  9 2715.82 0.00000 2.88995e-13
  10 2715.82 0.00000 2.75873e-13
  11 2715.82 0.00000 2.13746e-13
  12 2715.82 0.00000 1.83735e-13
</Section>

newXOutput 103

<Section columns = "stress_xx | stress_yy | stress_xy">
  1 2746.32 0.00000 1.61658e-13
  2 2746.32 0.00000 1.75758e-13
  3 2746.32 0.00000 -8.79240e-14
  4 2746.32 0.00000 -9.17744e-14
  5 2746.32 0.00000 -1.92403e-13
  6 2746.32 0.00000 -2.21681e-13
  7 2746.32 0.00000 -3.94779e-14
  8 2746.32 0.00000 -9.85214e-14
  9 2746.32 0.00000 -7.61168e-15
  10 2746.32 0.00000 5.41542e-15
  11 2746.32 0.00000 9.36057e-14
  12 2746.32 0.00000 -2.37341e-14
</Section>

newXOutput 104

<Section columns = "stress_xx | stress_yy | stress_xy">
  1 2776.86 0.00000 2.20702e-13
  2 2776.86 0.00000 7.96555e-14
  3 2776.86 0.00000 -9.44675e-14
  4 2776.86 0.00000 -1.68920e-13
  5 2776.86 0.00000 -3.46636e-14
  6 2776.86 0.00000 -4.99732e-14
  7 2776.86 0.00000 3.62089e-13
  8 2776.86 0.00000 2.54187e-13
  9 2776.86 0.00000 1.05495e-13
  10 2776.86 0.00000 2.55557e-14
  11 2776.86 0.00000 -2.99417e-13
  12 2776.86 0.00000 -1.22880e-13
</Section>

newXOutput 105

<Section columns = "stress_xx | stress_yy | stress_xy">
  1 2807.44 0.00000 1.80029e-13
  2 2807.44 0.00000 2.08066e-13
  3 2807.44 0.00000 1.28332e-13
  4 2807.44 0.00000 1.35341e-13
  5 2807.44 0.00000 3.61371e-13
  6 2807.44 0.00000 2.69890e-13
  7 2807.44 0.00000 5.49190e-13
  8 2807.44 0.00000 4.17004e-13
  9 2807.44 0.00000 -7.27431e-14
  10 2807.44 0.00000 4.54136e-14
  11 2807.44 0.00000 7.96045e-14
  12 2807.44 0.00000 3.86262e-13
</Section>

newXOutput 106

<Section columns = "stress_xx | stress_yy | stress_xy">
  1 2838.07 0.00000 3.62994e-13
  2 2838.07 0.00000 3.89230e-13
  3 2838.07 0.00000 -1.86118e-13
  4 2838.07 0.00000 -1.53768e-13
  5 2838.07 0.00000 -5.02657e-14
  6 2838.07 0.00000 -7.26171e-14
  7 2838.07 0.00000 -1.20596e-13
  8 2838.07 0.00000 -1.72917e-13
  9 2838.07 0.00000 -7.49269e-14
  10 2838.07 0.00000 -3.87522e-13
  11 2838.07 0.00000 -2.90316e-13
  12 2838.07 0.00000 -8.70149e-13
</Section>

newXOutput 107

<Section columns = "stress_xx | stress_yy | stress_xy">
  1 2868.75 0.00000 1.47472e-13
  2 2868.75 0.00000 1.59649e-13
  3 2868.75 0.00000 -1.65434e-13
  4 2868.75 0.00000 -1.47167e-13
  5 2868.75 0.00000 5.07124e-14
  6 2868.75 0.00000 4.23968e-14
  7 2868.75 0.00000 4.68940e-13
  8 2868.75 0.00000 4.01519e-13
  9 2868.75 0.00000 -1.22220e-13
  10 2868.75 0.00000 -2.50539e-13
  11 2868.75 0.00000 -2.93482e-13
  12 2868.75 0.00000 -4.30032e-13
</Section>

newXOutput 108

<Section columns = "stress_xx | stress_yy | stress_xy">
  1 2899.46 0.00000 -9.81825e-14
  2 2899.46 0.00000 6.64384e-14
  3 2899.46 0.00000 -2.72464e-13
  4 2899.46 0.00000 -1.97784e-13
  5 2899.46 0.00000 -7.77451e-14
  6 2899.46 0.00000 -1.13744e-13
  7 2899.46 0.00000 -5.10781e-13
  8 2899.46 0.00000 -6.28000e-13
  9 2899.46 0.00000 4.21996e-13
  10 2899.46 0.00000 3.87009e-13
  11 2899.46 0.00000 1.68726e-13
  12 2899.46 0.00000 1.15582e-13
</Section>

newXOutput 109

<Section columns = "stress_xx | stress_yy | stress_xy">
  1 2930.22 0.00000 5.42138e-13
  2 2930.22 0.00000 4.96050e-13
  3 2930.22 0.00000 4.58000e-13
  4 2930.22 0.00000 4.55602e-13
  5 2930.22 0.00000 3.33830e-13
  6 2930.22 0.00000 3.29034e-13
  7 2930.22 0.00000 -3.67787e-14
  8 2930.22 0.00000 -1.15607e-13
  9 2930.22 0.00000 -2.06121e-13
  10 2930.22 0.00000 -1.60847e-13
  11 2930.22 0.00000 -5.52560e-14
  12 2930.22 0.00000 -1.34255e-13
</Section>

newXOutput 110

<Section columns = "stress_xx | stress_yy | stress_xy">
  1 2961.03 0.00000 9.45604e-14
  2 2961.03 0.00000 6.63313e-14
  3 2961.03 0.00000 -1.92744e-13
  4 2961.03 0.00000 -1.99801e-13
  5 2961.03 0.00000 -3.67713e-14
  6 2961.03 0.00000 -4.50926e-14
  7 2961.03 0.00000 5.92428e-14
  8 2961.03 0.00000 -3.25898e-14
  9 2961.03 0.00000 1.46806e-13
  10 2961.03 0.00000 -1.58086e-13
  11 2961.03 0.00000 4.03425e-13
  12 2961.03 0.00000 1.63020e-13
</Section>

newXOutput 111

<Section columns = "stress_xx | stress_yy | stress_xy">
  1 2991.87 0.00000 2.73610e-13
  2 2991.87 0.00000 2.73610e-13
  3 2991.87 0.00000 -9.74134e-14
  4 2991.87 0.00000 -8.32797e-14
  5 2991.87 0.00000 -1.38788e-13
  6 2991.87 0.00000 -1.42321e-13
  7 2991.87 0.00000 5.81230e-13
  8 2991.87 0.00000 4.94155e-13
  9 2991.87 0.00000 -1.80740e-13
  10 2991.87 0.00000 -3.14889e-13
  11 2991.87 0.00000 -3.58640e-13
  12 2991.87 0.00000 -4.32227e-13
</Section>

newXOutput 112

<Section columns = "stress_xx | stress_yy | stress_xy">
  1 3022.76 0.00000 1.93535e-13
  2 3022.76 0.00000 1.72305e-13
  3 3022.76 0.00000 6.87376e-14
  4 3022.76 0.00000 7.58141e-14
  5 3022.76 0.00000 3.61810e-13
  6 3022.76 0.00000 3.65348e-13
  7 3022.76 0.00000 6.52116e-13
  8 3022.76 0.00000 5.67659e-13
  9 3022.76 0.00000 -1.12475e-13
  10 3022.76 0.00000 -9.87436e-14
  11 3022.76 0.00000 3.80135e-13
  12 3022.76 0.00000 3.37779e-13
</Section>

newXOutput 113

<Section columns = "stress_xx | stress_yy | stress_xy">
  1 3053.70 0.00000 2.67303e-13
  2 3053.70 0.00000 3.70008e-13
  3 3053.70 0.00000 8.89575e-14
  4 3053.70 0.00000 1.31999e-13
  5 3053.70 0.00000 -1.39661e-14
  6 3053.70 0.00000 -5.95924e-14
  7 3053.70 0.00000 -1.13984e-13
  8 3053.70 0.00000 -1.67564e-13
  9 3053.70 0.00000 -2.21521e-13
  10 3053.70 0.00000 -1.74097e-13
  11 3053.70 0.00000 -6.60343e-13
  12 3053.70 0.00000 -1.80092e-13
</Section>

newXOutput 114

<Section columns = "stress_xx | stress_yy | stress_xy">
  1 3084.68 0.00000 1.89430e-13
  2 3084.68 0.00000 1.34491e-13
  3 3084.68 0.00000 -6.80161e-14
  4 3084.68 0.00000 -8.83626e-14
  5 3084.68 0.00000 -1.54698e-13
  6 3084.68 0.00000 -2.14540e-13
  7 3084.68 0.00000 -3.56380e-13
  8 3084.68 0.00000 -4.11593e-13
  9 3084.68 0.00000 -1.94283e-13
  10 3084.68 0.00000 -1.93407e-13
  11 3084.68 0.00000 -2.71500e-13
  12 3084.68 0.00000 -2.79007e-13
</Section>

newXOutput 115

<Section columns = "stress_xx | stress_yy | stress_xy">
  1 3115.70 0.00000 2.21895e-13
  2 3115.70 0.00000 2.50316e-13
  3 3115.70 0.00000 1.08491e-14
  4 3115.70 0.00000 1.79545e-14
  5 3115.70 0.00000 -8.72712e-14
  6 3115.70 0.00000 -1.13365e-13
  7 3115.70 0.00000 -1.23697e-16
  8 3115.70 0.00000 3.82360e-15
  9 3115.70 0.00000 2.11587e-13
  10 3115.70 0.00000 2.33001e-13
  11 3115.70 0.00000 3.74580e-13
  12 3115.70 0.00000 -7.34611e-14
</Section>

newXOutput 116

<Section columns = "stress_xx | stress_yy | stress_xy">
  1 3146.77 0.00000 2.85876e-13
  2 3146.77 0.00000 2.58378e-13
  3 3146.77 0.00000 1.82911e-14
  4 3146.77 0.00000 2.58868e-14
  5 3146.77 0.00000 4.55772e-15
  6 3146.77 0.00000 2.82427e-14
  7 3146.77 0.00000 9.63781e-14
  8 3146.77 0.00000 -5.21811e-15
  9 3146.77 0.00000 -1.41519e-13
  10 3146.77 0.00000 -2.58501e-13
  11 3146.77 0.00000 -2.57128e-13
  12 3146.77 0.00000 -2.57128e-13
</Section>

newXOutput 117

<Section columns = "stress_xx | stress_yy | stress_xy">
  1 3177.89 0.00000 1.69357e-13
  2 3177.89 0.00000 1.55108e-13
  3 3177.89 0.00000 -5.65275e-14
  4 3177.89 0.00000 -4.73517e-14
  5 3177.89 0.00000 -4.23182e-14
  6 3177.89 0.00000 3.82305e-15
  7 3177.89 0.00000 -2.06186e-13
  8 3177.89 0.00000 -1.51258e-13
  9 3177.89 0.00000 1.85119e-13
  10 3177.89 0.00000 2.78094e-13
  11 3177.89 0.00000 4.44029e-13
  12 3177.89 0.00000 5.50178e-13
</Section>

newXOutput 118

<Section columns = "stress_xx | stress_yy | stress_xy">
  1 3209.05 0.00000 3.25664e-13
  2 3209.05 0.00000 2.62935e-13
  3 3209.05 0.00000 -2.98557e-13
  4 3209.05 0.00000 -3.49303e-13
  5 3209.05 0.00000 4.48722e-13
  6 3209.05 0.00000 4.51914e-13
  7 3209.05 0.00000 -1.93486e-13
  8 3209.05 0.00000 -2.29872e-13
  9 3209.05 0.00000 -5.60372e-14
  10 3209.05 0.00000 -2.93497e-13
  11 3209.05 0.00000 4.96019e-14
  12 3209.05 0.00000 -1.06044e-13
</Section>

newXOutput 119

<Section columns = "stress_xx | stress_yy | stress_xy">
  1 3240.25 0.00000 1.95278e-14
  2 3240.25 0.00000 -1.96902e-14
  3 3240.25 0.00000 1.21937e-13
  4 3240.25 0.00000 1.89471e-13
  5 3240.25 0.00000 2.59946e-13
  6 3240.25 0.00000 3.06570e-13
  7 3240.25 0.00000 -8.78342e-14
  8 3240.25 0.00000 -7.46454e-14
  9 3240.25 0.00000 -1.45693e-13
  10 3240.25 0.00000 3.57000e-14
  11 3240.25 0.00000 -3.45697e-13
  12 3240.25 0.00000 -1.03349e-13
</Section>

newXOutput 120

<Section columns = "stress_xx | stress_yy | stress_xy">
  1 3271.50 0.00000 3.46634e-13
  2 3271.50 0.00000 2.31128e-13
  3 3271.50 0.00000 -6.90833e-14
  4 3271.50 0.00000 -1.19683e-13
  5 3271.50 0.00000 -2.14273e-13
  6 3271.50 0.00000 -2.15459e-13
  7 3271.50 0.00000 1.24830e-13
  8 3271.50 0.00000 9.73136e-14
  9 3271.50 0.00000 -1.55922e-13
  10 3271.50 0.00000 -2.60632e-14
  11 3271.50 0.00000 -5.14523e-13
  12 3271.50 0.00000 2.13269e-14
</Section>

newXOutput 121

<Section columns = "stress_xx | stress_yy | stress_xy">
  1 3302.79 0.00000 1.84541e-13
  2 3302.79 0.00000 2.03580e-13
  3 3302.79 0.00000 -4.93423e-15
  4 3302.79 0.00000 6.23232e-14
  5 3302.79 0.00000 1.18668e-13
  6 3302.79 0.00000 4.18447e-14
  7 3302.79 0.00000 2.33003e-13
  8 3302.79 0.00000 1.56154e-13
  9 3302.79 0.00000 2.82787e-13
  10 3302.79 0.00000 6.16815e-13
  11 3302.79 0.00000 -4.48648e-13
  12 3302.79 0.00000 -3.29966e-13
</Section>

newXOutput 122

<Section columns = "stress_xx | stress_yy | stress_xy">
  1 3334.13 0.00000 2.71768e-13
  2 3334.13 0.00000 2.80731e-13
  3 3334.13 0.00000 8.90861e-14
  4 3334.13 0.00000 1.16651e-13
  5 3334.13 0.00000 -2.32324e-13
  6 3334.13 0.00000 -3.08617e-13
  7 3334.13 0.00000 -3.09444e-13
  8 3334.13 0.00000 -4.50989e-13
  9 3334.13 0.00000 -5.92758e-14
  10 3334.13 0.00000 1.39578e-14
  11 3334.13 0.00000 3.45213e-13
  12 3334.13 0.00000 1.70770e-13
</Section>

newXOutput 123

<Section columns = "stress_xx | stress_yy | stress_xy">
  1 3365.52 0.00000 4.65673e-13
  2 3365.52 0.00000 4.90597e-13
  3 3365.52 0.00000 -2.94491e-13
  4 3365.52 0.00000 -2.09829e-13
  5 3365.52 0.00000 2.13215e-13
  6 3365.52 0.00000 2.67741e-13
  7 3365.52 0.00000 1.51050e-13
  8 3365.52 0.00000 5.17520e-14
  9 3365.52 0.00000 6.07533e-13
  10 3365.52 0.00000 5.77308e-13
  11 3365.52 0.00000 4.56408e-14
  12 3365.52 0.00000 -4.87510e-14
</Section>

newXOutput 124

<Section columns = "stress_xx | stress_yy | stress_xy">
  1 3396.95 0.00000 3.74315e-15
  2 3396.95 0.00000 -2.86932e-14
  3 3396.95 0.00000 -1.72147e-13
  4 3396.95 0.00000 -1.98560e-13
  5 3396.95 0.00000 -9.60806e-14
  6 3396.95 0.00000 -1.26437e-13
  7 3396.95 0.00000 4.81727e-13
  8 3396.95 0.00000 4.09726e-13
  9 3396.95 0.00000 3.27159e-13
  10 3396.95 0.00000 2.13702e-13
  11 3396.95 0.00000 7.27248e-13
  12 3396.95 0.00000 4.18748e-13
</Section>

newXOutput 125

<Section columns = "stress_xx | stress_yy | stress_xy">
  1 3428.43 0.00000 4.07874e-13
  2 3428.43 0.00000 3.42057e-13
  3 3428.43 0.00000 2.66771e-13
  4 3428.43 0.00000 2.15859e-13
  5 3428.43 0.00000 1.01604e-13
  6 3428.43 0.00000 1.17268e-13
  7 3428.43 0.00000 3.46303e-13
  8 3428.43 0.00000 4.29244e-13
  9 3428.43 0.00000 -1.61571e-13
  10 3428.43 0.00000 -8.98622e-14
  11 3428.43 0.00000 6.14549e-14
  12 3428.43 0.00000 1.31086e-13
</Section>

newXOutput 126

<Section columns = "stress_xx | stress_yy | stress_xy">
  1 3459.96 0.00000 1.97030e-13
  2 3459.96 0.00000 1.39341e-13
  3 3459.96 0.00000 4.04712e-14
  4 3459.96 0.00000 4.04712e-14
  5 3459.96 0.00000 -2.30321e-13
  6 3459.96 0.00000 -2.56699e-13
  7 3459.96 0.00000 1.92465e-13
  8 3459.96 0.00000 8.46181e-14
  9 3459.96 0.00000 2.59916e-13
  10 3459.96 0.00000 9.77982e-14
  11 3459.96 0.00000 -3.95058e-13
  12 3459.96 0.00000 -4.29009e-13
</Section>

newXOutput 127

<Section columns = "stress_xx | stress_yy | stress_xy">
  1 3491.53 0.00000 2.75268e-13
  2 3491.53 0.00000 2.25790e-13
  3 3491.53 0.00000 -1.53002e-13
  4 3491.53 0.00000 -1.45781e-13
  5 3491.53 0.00000 -5.24180e-13
  6 3491.53 0.00000 -5.51393e-13
  7 3491.53 0.00000 1.41017e-13
  8 3491.53 0.00000 1.89951e-15
  9 3491.53 0.00000 9.75407e-13
  10 3491.53 0.00000 1.01432e-12
  11 3491.53 0.00000 2.72307e-13
  12 3491.53 0.00000 9.59967e-13
</Section>

newXOutput 128

<Section columns = "stress_xx | stress_yy | stress_xy">
  1 3523.15 0.00000 1.89072e-13
  2 3523.15 0.00000 2.25223e-13
  3 3523.15 0.00000 -3.42065e-13
  4 3523.15 0.00000 -2.65659e-13
  5 3523.15 0.00000 2.15303e-13
  6 3523.15 0.00000 2.54434e-13
  7 3523.15 0.00000 2.05548e-13
  8 3523.15 0.00000 1.00199e-13
  9 3523.15 0.00000 -2.56122e-13
  10 3523.15 0.00000 -4.11965e-13
  11 3523.15 0.00000 -6.47615e-13
  12 3523.15 0.00000 1.13651e-13
</Section>

newXOutput 129

<Section columns = "stress_xx | stress_yy | stress_xy">
  1 3554.81 0.00000 2.42921e-13
  2 3554.81 0.00000 7.09011e-14
  3 3554.81 0.00000 -2.41612e-13
  4 3554.81 0.00000 -3.96450e-13
  5 3554.81 0.00000 -7.77140e-14
  6 3554.81 0.00000 -8.60697e-14
  7 3554.81 0.00000 -7.49507e-14
  8 3554.81 0.00000 -1.93797e-14
  9 3554.81 0.00000 7.81820e-14
  10 3554.81 0.00000 5.93340e-18
  11 3554.81 0.00000 1.29403e-13
  12 3554.81 0.00000 2.16925e-13
</Section>

newXOutput 130

<Section columns = "stress_xx | stress_yy | stress_xy">
  1 3586.53 0.00000 1.74581e-13
  2 3586.53 0.00000 2.06742e-13
  3 3586.53 0.00000 -2.83876e-13
  4 3586.53 0.00000 -2.67011e-13
  5 3586.53 0.00000 9.14073e-14
  6 3586.53 0.00000 1.04799e-13
  7 3586.53 0.00000 4.14674e-13
  8 3586.53 0.00000 3.52820e-13
  9 3586.53 0.00000 4.92109e-13
  10 3586.53 0.00000 4.85550e-13
  11 3586.53 0.00000 4.57141e-13
  12 3586.53 0.00000 1.03689e-13
</Section>

newXOutput 131

<Section columns = "stress_xx | stress_yy | stress_xy">
  1 3618.29 0.00000 2.44455e-13
  2 3618.29 0.00000 2.62106e-13
  3 3618.29 0.00000 -1.94587e-13
  4 3618.29 0.00000 -1.50246e-13
  5 3618.29 0.00000 8.76357e-14
  6 3618.29 0.00000 1.41669e-13
  7 3618.29 0.00000 -6.63821e-13
  8 3618.29 0.00000 -7.57302e-13
  9 3618.29 0.00000 -3.91075e-13
  10 3618.29 0.00000 -5.58545e-13
  11 3618.29 0.00000 6.81801e-13
  12 3618.29 0.00000 2.56322e-13
</Section>

newXOutput 132

<Section columns = "stress_xx | stress_yy | stress_xy">
  1 3650.09 0.00000 3.20446e-13
  2 3650.09 0.00000 3.42252e-13
  3 3650.09 0.00000 -6.39333e-14
  4 3650.09 0.00000 -1.25838e-14
  5 3650.09 0.00000 8.58513e-14
  6 3650.09 0.00000 1.17070e-13
  7 3650.09 0.00000 -1.78093e-13
  8 3650.09 0.00000 -3.01982e-13
  9 3650.09 0.00000 6.77652e-14
  10 3650.09 0.00000 -2.54854e-13
  11 3650.09 0.00000 2.84607e-13
  12 3650.09 0.00000 -7.70309e-13
</Section>

newXOutput 133

<Section columns = "stress_xx | stress_yy | stress_xy">
  1 3681.95 0.00000 2.58789e-13
  2 3681.95 0.00000 2.74611e-13
  3 3681.95 0.00000 8.92477e-14
  4 3681.95 0.00000 1.54895e-13
  5 3681.95 0.00000 -6.33308e-14
  6 3681.95 0.00000 -2.48172e-14
  7 3681.95 0.00000 -4.19612e-13
  8 3681.95 0.00000 -5.12094e-13
  9 3681.95 0.00000 -1.84379e-13
  10 3681.95 0.00000 -2.07330e-13
  11 3681.95 0.00000 -2.01154e-13
  12 3681.95 0.00000 6.50664e-13
</Section>

newXOutput 134

<Section columns = "stress_xx | stress_yy | stress_xy">
  1 3713.85 0.00000 4.97902e-13
  2 3713.85 0.00000 3.36648e-13
  3 3713.85 0.00000 6.58431e-14
  4 3713.85 0.00000 2.21149e-14
  5 3713.85 0.00000 -3.08319e-14
  6 3713.85 0.00000 9.29049e-14
  7 3713.85 0.00000 -1.75910e-13
  8 3713.85 0.00000 -2.14607e-13
  9 3713.85 0.00000 3.24581e-13
  10 3713.85 0.00000 2.36482e-13
  11 3713.85 0.00000 -2.73816e-13
  12 3713.85 0.00000 -2.63815e-13
</Section>

newXOutput 135

<Section columns = "stress_xx | stress_yy | stress_xy">
  1 3745.80 0.00000 2.66451e-13
  2 3745.80 0.00000 3.35140e-13
  3 3745.80 0.00000 6.27602e-14
  4 3745.80 0.00000 1.30798e-13
  5 3745.80 0.00000 6.95210e-14
  6 3745.80 0.00000 1.28885e-13
  7 3745.80 0.00000 4.57740e-14
  8 3745.80 0.00000 -6.14210e-14
  9 3745.80 0.00000 6.75819e-15
  10 3745.80 0.00000 -1.83015e-13
  11 3745.80 0.00000 -1.62299e-14
  12 3745.80 0.00000 -5.31934e-13
</Section>

newXOutput 136

<Section columns = "stress_xx | stress_yy | stress_xy">
  1 3777.80 0.00000 2.27916e-13
  2 3777.80 0.00000 2.84756e-13
  3 3777.80 0.00000 1.13606e-13
  4 3777.80 0.00000 1.91589e-13
  5 3777.80 0.00000 2.95293e-13
  6 3777.80 0.00000 3.50519e-13
  7 3777.80 0.00000 9.83703e-13
  8 3777.80 0.00000 8.43988e-13
  9 3777.80 0.00000 1.67401e-13
  10 3777.80 0.00000 -1.26496e-13
  11 3777.80 0.00000 4.83408e-13
  12 3777.80 0.00000 -6.61788e-14
</Section>

newXOutput 137

<Section columns = "stress_xx | stress_yy | stress_xy">
  1 3809.85 0.00000 2.62774e-13
  2 3809.85 0.00000 2.96252e-13
  3 3809.85 0.00000 2.42728e-14
  4 3809.85 0.00000 1.26758e-13
  5 3809.85 0.00000 4.17530e-14
  6 3809.85 0.00000 1.18415e-13
  7 3809.85 0.00000 7.09517e-13
  8 3809.85 0.00000 6.08901e-13
  9 3809.85 0.00000 2.24228e-13
  10 3809.85 0.00000 2.98682e-14
  11 3809.85 0.00000 5.64963e-13
  12 3809.85 0.00000 -3.97859e-13
</Section>

newXOutput 138

<Section columns = "stress_xx | stress_yy | stress_xy">
  1 3841.94 0.00000 4.16987e-13
  2 3841.94 0.00000 3.70976e-13
  3 3841.94 0.00000 -2.70397e-13
  4 3841.94 0.00000 -3.11421e-13
  5 3841.94 0.00000 3.87833e-13
  6 3841.94 0.00000 3.51329e-13
  7 3841.94 0.00000 -8.35860e-14
  8 3841.94 0.00000 -2.19754e-13
  9 3841.94 0.00000 -1.08178e-13
  10 3841.94 0.00000 -6.23181e-14
  11 3841.94 0.00000 -3.74800e-13
  12 3841.94 0.00000 6.07937e-13
</Section>

newXOutput 139

<Section columns = "stress_xx | stress_yy | stress_xy">
  1 3874.09 0.00000 1.47920e-13
  2 3874.09 0.00000 1.29100e-13
  3 3874.09 0.00000 1.28422e-13
  4 3874.09 0.00000 1.52428e-13
  5 3874.09 0.00000 1.38556e-13
  6 3874.09 0.00000 2.03979e-13
  7 3874.09 0.00000 3.29466e-13
  8 3874.09 0.00000 2.46609e-13
  9 3874.09 0.00000 -1.15346e-13
  10 3874.09 0.00000 -1.10753e-13
  11 3874.09 0.00000 -4.93926e-13
  12 3874.09 0.00000 -2.30488e-13
</Section>

newXOutput 140

<Section columns = "stress_xx | stress_yy | stress_xy">
  1 3906.28 0.00000 4.27570e-13
  2 3906.28 0.00000 5.94150e-13
  3 3906.28 0.00000 -4.69214e-14
  4 3906.28 0.00000 7.67508e-14
  5 3906.28 0.00000 5.74781e-13
  6 3906.28 0.00000 5.80664e-13
  7 3906.28 0.00000 -3.50081e-13
  8 3906.28 0.00000 -3.78274e-13
  9 3906.28 0.00000 3.47912e-13
  10 3906.28 0.00000 3.51449e-13
  11 3906.28 0.00000 -3.80893e-13
  12 3906.28 0.00000 -7.91464e-13
</Section>

newXOutput 141

<Section columns = "stress_xx | stress_yy | stress_xy">
  1 3938.52 0.00000 7.63325e-14
  2 3938.52 0.00000 1.67497e-13
  3 3938.52 0.00000 -3.64164e-13
  4 3938.52 0.00000 -3.00194e-13
  5 3938.52 0.00000 3.21181e-13
  6 3938.52 0.00000 3.16482e-13
  7 3938.52 0.00000 2.04326e-13
  8 3938.52 0.00000 1.54678e-13
  9 3938.52 0.00000 1.13053e-12
  10 3938.52 0.00000 8.87063e-13
  11 3938.52 0.00000 1.74030e-12
  12 3938.52 0.00000 6.40209e-13
</Section>

newXOutput 142

<Section columns = "stress_xx | stress_yy | stress_xy">
  1 3970.82 0.00000 2.27329e-13
  2 3970.82 0.00000 2.49424e-13
  3 3970.82 0.00000 -1.06217e-13
  4 3970.82 0.00000 -6.93919e-14
  5 3970.82 0.00000 6.57837e-14
  6 3970.82 0.00000 8.95224e-14
  7 3970.82 0.00000 4.91329e-13
  8 3970.82 0.00000 4.78682e-13
  9 3970.82 0.00000 2.24929e-13
  10 3970.82 0.00000 4.46086e-13
  11 3970.82 0.00000 -4.01872e-13
  12 3970.82 0.00000 -1.53464e-13
</Section>

newXOutput 143

<Section columns = "stress_xx | stress_yy | stress_xy">
  1 4003.16 0.00000 3.71804e-13
  2 4003.16 0.00000 2.52981e-13
  3 4003.16 0.00000 -6.47644e-14
  4 4003.16 0.00000 -1.43027e-13
  5 4003.16 0.00000 2.73093e-13
  6 4003.16 0.00000 2.95848e-13
  7 4003.16 0.00000 7.52676e-13
  8 4003.16 0.00000 6.68346e-13
  9 4003.16 0.00000 1.29350e-12
  10 4003.16 0.00000 1.25167e-12
  11 4003.16 0.00000 3.54445e-14
  12 4003.16 0.00000 -2.07810e-13
</Section>

newXOutput 144

<Section columns = "stress_xx | stress_yy | stress_xy">
  1 4035.55 0.00000 3.16055e-13
  2 4035.55 0.00000 3.38208e-13
  3 4035.55 0.00000 -1.66502e-13
  4 4035.55 0.00000 -1.19735e-13
  5 4035.55 0.00000 -2.89909e-13
  6 4035.55 0.00000 -2.62601e-13
  7 4035.55 0.00000 -6.13249e-13
  8 4035.55 0.00000 -6.50893e-13
  9 4035.55 0.00000 -7.21124e-13
  10 4035.55 0.00000 -3.70785e-13
  11 4035.55 0.00000 -4.17185e-13
  12 4035.55 0.00000 -6.68616e-14
</Section>

newXOutput 145

<Section columns = "stress_xx | stress_yy | stress_xy">
  1 4067.99 0.00000 2.55616e-13
  2 4067.99 0.00000 2.51659e-13
  3 4067.99 0.00000 -5.52895e-14
  4 4067.99 0.00000 -5.28922e-14
  5 4067.99 0.00000 -1.24925e-13
  6 4067.99 0.00000 -1.03328e-13
  7 4067.99 0.00000 -3.01621e-13
  8 4067.99 0.00000 -3.90442e-13
  9 4067.99 0.00000 -8.55046e-13
  10 4067.99 0.00000 -1.03344e-12
  11 4067.99 0.00000 3.96702e-13
  12 4067.99 0.00000 -3.48764e-13
</Section>

newXOutput 146

<Section columns = "stress_xx | stress_yy | stress_xy">
  1 4100.48 0.00000 3.12693e-13
  2 4100.48 0.00000 3.14191e-13
  3 4100.48 0.00000 -3.77596e-14
  4 4100.48 0.00000 -7.21918e-15
  5 4100.48 0.00000 -4.48089e-13
  6 4100.48 0.00000 -4.51121e-13
  7 4100.48 0.00000 6.24512e-13
  8 4100.48 0.00000 5.29771e-13
  9 4100.48 0.00000 6.35792e-13
  10 4100.48 0.00000 3.18600e-13
  11 4100.48 0.00000 9.16791e-13
  12 4100.48 0.00000 5.08684e-14
</Section>

newXOutput 147

<Section columns = "stress_xx | stress_yy | stress_xy">
  1 4133.02 0.00000 5.20342e-13
  2 4133.02 0.00000 4.19946e-13
  3 4133.02 0.00000 -1.21236e-13
  4 4133.02 0.00000 -1.36891e-13
  5 4133.02 0.00000 4.97645e-15
  6 4133.02 0.00000 8.10515e-14
  7 4133.02 0.00000 -1.20794e-13
  8 4133.02 0.00000 -1.77846e-13
  9 4133.02 0.00000 2.09629e-14
  10 4133.02 0.00000 1.22564e-13
  11 4133.02 0.00000 -4.06301e-13
  12 4133.02 0.00000 6.52277e-13
</Section>

newXOutput 148

<Section columns = "stress_xx | stress_yy | stress_xy">
  1 4165.62 0.00000 1.98614e-13
  2 4165.62 0.00000 1.08761e-13
  3 4165.62 0.00000 -1.71005e-13
  4 4165.62 0.00000 -1.48738e-13
  5 4165.62 0.00000 2.68374e-13
  6 4165.62 0.00000 3.12336e-13
  7 4165.62 0.00000 -2.44080e-14
  8 4165.62 0.00000 -1.36968e-13
  9 4165.62 0.00000 -9.19367e-14
  10 4165.62 0.00000 2.55161e-13
  11 4165.62 0.00000 -4.60538e-13
  12 4165.62 0.00000 7.30166e-14
</Section>

newXOutput 149

<Section columns = "stress_xx | stress_yy | stress_xy">
  1 4198.26 0.00000 1.71401e-13
  2 4198.26 0.00000 1.97527e-13
  3 4198.26 0.00000 -2.32486e-14
  4 4198.26 0.00000 2.64983e-14
  5 4198.26 0.00000 -3.75900e-13
  6 4198.26 0.00000 -3.62950e-13
  7 4198.26 0.00000 2.56566e-13
  8 4198.26 0.00000 2.00802e-13
  9 4198.26 0.00000 -2.93196e-13
  10 4198.26 0.00000 -2.54866e-13
  11 4198.26 0.00000 -2.05634e-14
  12 4198.26 0.00000 -2.42082e-13
</Section>

newXOutput 150

<Section columns = "stress_xx | stress_yy | stress_xy">
  1 4230.95 0.00000 3.22337e-13
  2 4230.95 0.00000 3.82635e-13
  3 4230.95 0.00000 -3.42914e-13
  4 4230.95 0.00000 -2.51179e-13
  5 4230.95 0.00000 3.42314e-14
  6 4230.95 0.00000 5.48872e-14
  7 4230.95 0.00000 2.61346e-13
  8 4230.95 0.00000 2.46157e-13
  9 4230.95 0.00000 -2.05617e-13
  10 4230.95 0.00000 -1.38640e-13
  11 4230.95 0.00000 3.21160e-13
  12 4230.95 0.00000 -5.80275e-13
</Section>

newXOutput 151

<Section columns = "stress_xx | stress_yy | stress_xy">
  1 4263.70 0.00000 1.70585e-13
  2 4263.70 0.00000 2.28641e-13
  3 4263.70 0.00000 4.90219e-14
  4 4263.70 0.00000 1.14918e-13
  5 4263.70 0.00000 3.74007e-14
  6 4263.70 0.00000 5.20958e-14
  7 4263.70 0.00000 8.22410e-13
  8 4263.70 0.00000 7.89983e-13
  9 4263.70 0.00000 9.13041e-13
  10 4263.70 0.00000 1.08886e-12
  11 4263.70 0.00000 3.06254e-13
  12 4263.70 0.00000 7.88051e-13
</Section>

newXOutput 152

<Section columns = "stress_xx | stress_yy | stress_xy">
  1 4296.49 0.00000 3.16415e-13
  2 4296.49 0.00000 3.33832e-13
  3 4296.49 0.00000 -5.97354e-14
  4 4296.49 0.00000 -3.45548e-14
  5 4296.49 0.00000 2.93993e-13
  6 4296.49 0.00000 3.05185e-13
  7 4296.49 0.00000 -1.24197e-14
  8 4296.49 0.00000 -2.96418e-14
  9 4296.49 0.00000 -1.51625e-13
  10 4296.49 0.00000 -5.59582e-14
  11 4296.49 0.00000 -8.11345e-13
  12 4296.49 0.00000 -9.34519e-13
</Section>

newXOutput 153

<Section columns = "stress_xx | stress_yy | stress_xy">
  1 4329.34 0.00000 4.81753e-13
  2 4329.34 0.00000 3.47012e-13
  3 4329.34 0.00000 5.15010e-13
  4 4329.34 0.00000 4.92966e-13
  5 4329.34 0.00000 1.93669e-13
  6 4329.34 0.00000 2.81834e-13
  7 4329.34 0.00000 5.46610e-14
  8 4329.34 0.00000 -8.12414e-15
  9 4329.34 0.00000 1.38887e-14
  10 4329.34 0.00000 7.43791e-15
  11 4329.34 0.00000 2.74535e-13
  12 4329.34 0.00000 5.26180e-13
</Section>

newXOutput 154

<Section columns = "stress_xx | stress_yy | stress_xy">
  1 4362.24 0.00000 4.45172e-13
  2 4362.24 0.00000 4.60566e-13
  3 4362.24 0.00000 -7.70665e-14
  4 4362.24 0.00000 -7.75560e-14
  5 4362.24 0.00000 -2.40432e-13
  6 4362.24 0.00000 -1.83679e-13
  7 4362.24 0.00000 -3.63660e-13
  8 4362.24 0.00000 -1.33167e-13
  9 4362.24 0.00000 -1.76309e-13
  10 4362.24 0.00000 -5.72587e-14
  11 4362.24 0.00000 4.82395e-14
  12 4362.24 0.00000 -2.96884e-13
</Section>

newXOutput 155

<Section columns = "stress_xx | stress_yy | stress_xy">
  1 4395.19 0.00000 9.09143e-14
  2 4395.19 0.00000 5.73178e-14
  3 4395.19 0.00000 -5.00553e-13
  4 4395.19 0.00000 -4.76259e-13
  5 4395.19 0.00000 -5.55741e-13
  6 4395.19 0.00000 -4.76056e-13
  7 4395.19 0.00000 1.09835e-13
  8 4395.19 0.00000 -1.09353e-15
  9 4395.19 0.00000 9.09078e-13
  10 4395.19 0.00000 5.45603e-13
  11 4395.19 0.00000 8.09867e-13
  12 4395.19 0.00000 3.26360e-13
</Section>

newXOutput 156

<Section columns = "stress_xx | stress_yy | stress_xy">
  1 4428.20 0.00000 3.37105e-13
  2 4428.20 0.00000 3.90922e-13
  3 4428.20 0.00000 1.57018e-14
  4 4428.20 0.00000 3.74030e-14
  5 4428.20 0.00000 2.39535e-13
  6 4428.20 0.00000 2.88987e-13
  7 4428.20 0.00000 1.23042e-13
  8 4428.20 0.00000 1.58112e-13
  9 4428.20 0.00000 2.13934e-14
  10 4428.20 0.00000 2.16835e-13
  11 4428.20 0.00000 2.44957e-14
  12 4428.20 0.00000 3.75950e-13
</Section>

newXOutput 157

<Section columns = "stress_xx | stress_yy | stress_xy">
  1 4461.25 0.00000 1.08567e-13
  2 4461.25 0.00000 1.27157e-13
  3 4461.25 0.00000 -2.82775e-13
  4 4461.25 0.00000 -2.59347e-13
  5 4461.25 0.00000 1.44509e-13
  6 4461.25 0.00000 1.50232e-13
  7 4461.25 0.00000 5.00551e-13
  8 4461.25 0.00000 4.49574e-13
  9 4461.25 0.00000 2.96993e-14
  10 4461.25 0.00000 2.59012e-14
  11 4461.25 0.00000 -6.30582e-13
  12 4461.25 0.00000 -5.09357e-13
</Section>

newXOutput 158

<Section columns = "stress_xx | stress_yy | stress_xy">
  1 4494.36 0.00000 3.85360e-13
  2 4494.36 0.00000 4.11894e-13
  3 4494.36 0.00000 1.79074e-13
  4 4494.36 0.00000 1.18091e-13
  5 4494.36 0.00000 1.76902e-13
  6 4494.36 0.00000 5.82478e-14
  7 4494.36 0.00000 2.07781e-13
  8 4494.36 0.00000 1.61774e-13
  9 4494.36 0.00000 -3.70950e-13
  10 4494.36 0.00000 -3.81224e-13
  11 4494.36 0.00000 -4.33341e-13
  12 4494.36 0.00000 -6.05319e-13
</Section>

newXOutput 159

<Section columns = "stress_xx | stress_yy | stress_xy">
  1 4527.52 0.00000 2.56856e-13
  2 4527.52 0.00000 2.90477e-13
  3 4527.52 0.00000 8.81567e-14
  4 4527.52 0.00000 1.07838e-13
  5 4527.52 0.00000 4.59788e-13
  6 4527.52 0.00000 4.36728e-13
  7 4527.52 0.00000 -1.07084e-13
  8 4527.52 0.00000 -1.63032e-13
  9 4527.52 0.00000 -2.88669e-14
  10 4527.52 0.00000 -2.25753e-13
  11 4527.52 0.00000 1.02340e-12
  12 4527.52 0.00000 2.65387e-14
</Section>

newXOutput 160

<Section columns = "stress_xx | stress_yy | stress_xy">
  1 4560.74 0.00000 3.81623e-13
  2 4560.74 0.00000 3.36981e-13
  3 4560.74 0.00000 6.82650e-14
  4 4560.74 0.00000 -3.48930e-14
  5 4560.74 0.00000 -5.99602e-14
  6 4560.74 0.00000 -9.81039e-14
  7 4560.74 0.00000 -2.81196e-14
  8 4560.74 0.00000 -1.06307e-14
  9 4560.74 0.00000 -2.44835e-13
  10 4560.74 0.00000 9.45883e-14
  11 4560.74 0.00000 3.09296e-13
  12 4560.74 0.00000 9.04498e-13
</Section>

newXOutput 161

<Section columns = "stress_xx | stress_yy | stress_xy">
  1 4594.01 0.00000 2.67704e-13
  2 4594.01 0.00000 2.67704e-13
  3 4594.01 0.00000 -8.50691e-14
  4 4594.01 0.00000 -3.51041e-14
  5 4594.01 0.00000 -1.47299e-13
  6 4594.01 0.00000 -4.70048e-14
  7 4594.01 0.00000 8.72668e-13
  8 4594.01 0.00000 7.98609e-13
  9 4594.01 0.00000 5.47603e-13
  10 4594.01 0.00000 6.33634e-13
  11 4594.01 0.00000 -1.90351e-13
  12 4594.01 0.00000 -4.24675e-13
</Section>

newXOutput 162

<Section columns = "stress_xx | stress_yy | stress_xy">
  1 4627.33 0.00000 3.21593e-13
  2 4627.33 0.00000 3.59379e-13
  3 4627.33 0.00000 3.62075e-14
  4 4627.33 0.00000 3.99861e-14
  5 4627.33 0.00000 -4.08577e-14
  6 4627.33 0.00000 -6.52637e-15
  7 4627.33 0.00000 -4.76881e-13
  8 4627.33 0.00000 -4.90356e-13
  9 4627.33 0.00000 -3.43898e-13
  10 4627.33 0.00000 -5.41119e-13
  11 4627.33 0.00000 3.28103e-13
  12 4627.33 0.00000 1.12574e-14
</Section>

newXOutput 163

<Section columns = "stress_xx | stress_yy | stress_xy">
  1 4660.70 0.00000 3.34291e-13
  2 4660.70 0.00000 4.06670e-13
  3 4660.70 0.00000 -6.89610e-14
  4 4660.70 0.00000 -1.09734e-13
  5 4660.70 0.00000 -6.11645e-14
  6 4660.70 0.00000 -1.37657e-13
  7 4660.70 0.00000 2.47065e-13
  8 4660.70 0.00000 1.93326e-13
  9 4660.70 0.00000 2.74141e-13
  10 4660.70 0.00000 6.56945e-13
  11 4660.70 0.00000 -7.56251e-13
  12 4660.70 0.00000 -1.12883e-13
</Section>

newXOutput 164

<Section columns = "stress_xx | stress_yy | stress_xy">
  1 4694.13 0.00000 1.96105e-13
  2 4694.13 0.00000 3.24905e-13
  3 4694.13 0.00000 1.12673e-14
  4 4694.13 0.00000 2.95803e-14
  5 4694.13 0.00000 2.99223e-13
  6 4694.13 0.00000 2.34195e-13
  7 4694.13 0.00000 -2.33583e-14
  8 4694.13 0.00000 -7.41594e-14
  9 4694.13 0.00000 -7.19214e-13
  10 4694.13 0.00000 -3.68832e-13
  11 4694.13 0.00000 7.66878e-13
  12 4694.13 0.00000 1.32800e-13
</Section>

newXOutput 165

<Section columns = "stress_xx | stress_yy | stress_xy">
  1 4727.62 0.00000 3.71731e-13
  2 4727.62 0.00000 4.92102e-13
  3 4727.62 0.00000 -5.39311e-14
  4 4727.62 0.00000 6.55941e-14
  5 4727.62 0.00000 -4.13820e-14
  6 4727.62 0.00000 -2.12382e-14
  7 4727.62 0.00000 -6.52090e-13
  8 4727.62 0.00000 -6.16905e-13
  9 4727.62 0.00000 2.92643e-13
  10 4727.62 0.00000 -5.06590e-13
  11 4727.62 0.00000 6.46244e-13
  12 4727.62 0.00000 3.74808e-13
</Section>

newXOutput 166

<Section columns = "stress_xx | stress_yy | stress_xy">
  1 4761.15 0.00000 3.01750e-13
  2 4761.15 0.00000 1.84757e-13
  3 4761.15 0.00000 8.20507e-15
  4 4761.15 0.00000 -1.72002e-13
  5 4761.15 0.00000 6.24892e-14
  6 4761.15 0.00000 -4.75300e-14
  7 4761.15 0.00000 9.30070e-13
  8 4761.15 0.00000 8.79457e-13
  9 4761.15 0.00000 3.52439e-13
  10 4761.15 0.00000 6.17861e-13
  11 4761.15 0.00000 -8.40977e-13
  12 4761.15 0.00000 -8.77254e-13
</Section>

newXOutput 167

<Section columns = "stress_xx | stress_yy | stress_xy">
  1 4783.38 0.00000 0.0570168
  2 4783.38 0.00000 -0.0570168
  3 4783.31 0.00000 0.338001
  4 4783.31 0.00000 -0.338001
  5 4776.48 0.00000 0.309506
  6 4776.48 0.00000 -0.309506
  7 4776.48 0.00000 -0.309506
  8 4776.48 0.00000 0.309506
  9 4783.31 0.00000 -0.338001
  10 4783.31 0.00000 0.338001
  11 4783.38 0.00000 -0.0570168
  12 4783.38 0.00000 0.0570168
</Section>

newXOutput 168

<Section columns = "stress_xx | stress_yy | stress_xy">
  1 4780.39 0.00000 0.336607
  2 4780.39 0.00000 -0.336607
  3 4780.52 0.00000 1.32115
  4 4780.52 0.00000 -1.32115
  5 4759.74 0.00000 1.15304
  6 4759.74 0.00000 -1.15304
  7 4759.74 0.00000 -1.15304
  8 4759.74 0.00000 1.15304
  9 4780.52 0.00000 -1.32115
  10 4780.52 0.00000 1.32115
  11 4780.39 0.00000 -0.336607
  12 4780.39 0.00000 0.336607
</Section>

newXOutput 169

<Section columns = "stress_xx | stress_yy | stress_xy">
  1 4785.46 0.00000 0.975434
  2 4785.46 0.00000 -0.975434
  3 4784.86 0.00000 1.74627
  4 4784.86 0.00000 -1.74627
  5 4749.96 0.00000 1.25875
  6 4749.96 0.00000 -1.25875
  7 4749.96 0.00000 -1.25875
  8 4749.96 0.00000 1.25875
  9 4784.86 0.00000 -1.74627
  10 4784.86 0.00000 1.74627
  11 4785.46 0.00000 -0.975434
  12 4785.46 0.00000 0.975434
</Section>

newXOutput 170

<Section columns = "stress_xx | stress_yy | stress_xy">
  1 4786.24 0.00000 1.28689
  2 4786.24 0.00000 -1.28689
  3 4785.41 0.00000 2.09701
  4 4785.41 0.00000 -2.09701
  5 4736.64 0.00000 1.45382
  6 4736.64 0.00000 -1.45382
  7 4736.64 0.00000 -1.45382
  8 4736.64 0.00000 1.45382
  9 4785.41 0.00000 -2.09701
  10 4785.41 0.00000 2.09701
  11 4786.24 0.00000 -1.28689
  12 4786.24 0.00000 1.28689
</Section>

newXOutput 171

<Section columns = "stress_xx | stress_yy | stress_xy">
  1 4784.85 0.00000 1.44325
  2 4784.85 0.00000 -1.44325
  3 4783.94 0.00000 2.18129
  4 4783.94 0.00000 -2.18129
  5 4721.82 0.00000 1.45990
  6 4721.82 0.00000 -1.45990
  7 4721.82 0.00000 -1.45990
  8 4721.82 0.00000 1.45990
  9 4783.94 0.00000 -2.18129
  10 4783.94 0.00000 2.18129
  11 4784.85 0.00000 -1.44325
  12 4784.85 0.00000 1.44325
</Section>

newXOutput 172

<Section columns = "stress_xx | stress_yy | stress_xy">
  1 4784.78 0.00000 1.53881
  2 4784.78 0.00000 -1.53881
  3 4783.74 0.00000 2.36497
  4 4783.74 0.00000 -2.36497
  5 4707.10 0.00000 1.59586
  6 4707.10 0.00000 -1.59586
  7 4707.10 0.00000 -1.59586
  8 4707.10 0.00000 1.59586
  9 4783.74 0.00000 -2.36497
  10 4783.74 0.00000 2.36497
  11 4784.78 0.00000 -1.53881
  12 4784.78 0.00000 1.53881
</Section>

newXOutput 173

<Section columns = "stress_xx | stress_yy | stress_xy">
  1 4781.07 0.00000 1.59188
  2 4781.07 0.00000 -1.59188
  3 4780.04 0.00000 2.35307
  4 4780.04 0.00000 -2.35307
  5 4689.55 0.00000 1.55739
  6 4689.55 0.00000 -1.55739
  7 4689.55 0.00000 -1.55739
  8 4689.55 0.00000 1.55739
  9 4780.04 0.00000 -2.35307
  10 4780.04 0.00000 2.35307
  11 4781.07 0.00000 -1.59188
  12 4781.07 0.00000 1.59188
</Section>

newXOutput 174

<Section columns = "stress_xx | stress_yy | stress_xy">
  1 4777.43 0.00000 1.58050
  2 4777.43 0.00000 -1.58050
  3 4776.40 0.00000 2.31484
  4 4776.40 0.00000 -2.31484
  5 4671.47 0.00000 1.52484
  6 4671.47 0.00000 -1.52484
  7 4671.47 0.00000 -1.52484
  8 4671.47 0.00000 1.52484
  9 4776.40 0.00000 -2.31484
  10 4776.40 0.00000 2.31484
  11 4777.43 0.00000 -1.58050
  12 4777.43 0.00000 1.58050
</Section>

newXOutput 175

<Section columns = "stress_xx | stress_yy | stress_xy">
  1 4772.36 0.00000 1.57091
  2 4772.36 0.00000 -1.57091
  3 4771.34 0.00000 2.29827
  4 4771.34 0.00000 -2.29827
  5 4651.61 0.00000 1.51306
  6 4651.61 0.00000 -1.51306
  7 4651.61 0.00000 -1.51306
  8 4651.61 0.00000 1.51306
  9 4771.34 0.00000 -2.29827
  10 4771.34 0.00000 2.29827
  11 4772.36 0.00000 -1.57091
  12 4772.36 0.00000 1.57091
</Section>

newXOutput 176

<Section columns = "stress_xx | stress_yy | stress_xy">
  1 4765.80 0.00000 1.57116
  2 4765.80 0.00000 -1.57116
  3 4764.78 0.00000 2.29688
  4 4764.78 0.00000 -2.29688
  5 4629.90 0.00000 1.51155
  6 4629.90 0.00000 -1.51155
  7 4629.90 0.00000 -1.51155
  8 4629.90 0.00000 1.51155
  9 4764.78 0.00000 -2.29688
  10 4764.78 0.00000 2.29688
  11 4765.80 0.00000 -1.57116
  12 4765.80 0.00000 1.57116
</Section>

newXOutput 177

<Section columns = "stress_xx | stress_yy | stress_xy">
  1 4757.62 0.00000 1.57899
  2 4757.62 0.00000 -1.57899
  3 4756.60 0.00000 2.30605
  4 4756.60 0.00000 -2.30605
  5 4606.22 0.00000 1.51681
  6 4606.22 0.00000 -1.51681
  7 4606.22 0.00000 -1.51681
  8 4606.22 0.00000 1.51681
  9 4756.60 0.00000 -2.30605
  10 4756.60 0.00000 2.30605
  11 4757.62 0.00000 -1.57899
  12 4757.62 0.00000 1.57899
</Section>

newXOutput 178

<Section columns = "stress_xx | stress_yy | stress_xy">
  1 4747.68 0.00000 1.59221
  2 4747.68 0.00000 -1.59221
  3 4746.65 0.00000 2.32311
  4 4746.65 0.00000 -2.32311
  5 4580.42 0.00000 1.52727
  6 4580.42 0.00000 -1.52727
  7 4580.42 0.00000 -1.52727
  8 4580.42 0.00000 1.52727
  9 4746.65 0.00000 -2.32311
  10 4746.65 0.00000 2.32311
  11 4747.68 0.00000 -1.59221
  12 4747.68 0.00000 1.59221
</Section>

newXOutput 179

<Section columns = "stress_xx | stress_yy | stress_xy">
  1 4735.79 0.00000 1.60949
  2 4735.79 0.00000 -1.60949
  3 4734.75 0.00000 2.34689
  4 4734.75 0.00000 -2.34689
  5 4552.30 0.00000 1.54241
  6 4552.30 0.00000 -1.54241
  7 4552.30 0.00000 -1.54241
  8 4552.30 0.00000 1.54241
  9 4734.75 0.00000 -2.34689
  10 4734.75 0.00000 2.34689
  11 4735.79 0.00000 -1.60949
  12 4735.79 0.00000 1.60949
</Section>

newXOutput 180

<Section columns = "stress_xx | stress_yy | stress_xy">
  1 4721.74 0.00000 1.63014
  2 4721.74 0.00000 -1.63014
  3 4720.69 0.00000 2.37726
  4 4720.69 0.00000 -2.37726
  5 4521.62 0.00000 1.56246
  6 4521.62 0.00000 -1.56246
  7 4521.62 0.00000 -1.56246
  8 4521.62 0.00000 1.56246
  9 4720.69 0.00000 -2.37726
  10 4720.69 0.00000 2.37726
  11 4721.74 0.00000 -1.63014
  12 4721.74 0.00000 1.63014
</Section>

newXOutput 181

<Section columns = "stress_xx | stress_yy | stress_xy">
  1 4705.24 0.00000 1.65387
  2 4705.24 0.00000 -1.65387
  3 4704.18 0.00000 2.41507
  4 4704.18 0.00000 -2.41507
  5 4488.07 0.00000 1.58841
  6 4488.07 0.00000 -1.58841
  7 4488.07 0.00000 -1.58841
  8 4488.07 0.00000 1.58841
  9 4704.18 0.00000 -2.41507
  10 4704.18 0.00000 2.41507
  11 4705.24 0.00000 -1.65387
  12 4705.24 0.00000 1.65387
</Section>

newXOutput 182

<Section columns = "stress_xx | stress_yy | stress_xy">
  1 4685.94 0.00000 1.68056
  2 4685.94 0.00000 -1.68056
  3 4684.87 0.00000 2.46218
  4 4684.87 0.00000 -2.46218
  5 4451.25 0.00000 1.62219
  6 4451.25 0.00000 -1.62219
  7 4451.25 0.00000 -1.62219
  8 4451.25 0.00000 1.62219
  9 4684.87 0.00000 -2.46218
  10 4684.87 0.00000 2.46218
  11 4685.94 0.00000 -1.68056
  12 4685.94 0.00000 1.68056
</Section>

newXOutput 183

<Section columns = "stress_xx | stress_yy | stress_xy">
  1 4663.35 0.00000 1.71000
  2 4663.35 0.00000 -1.71000
  3 4662.27 0.00000 2.52196
  4 4662.27 0.00000 -2.52196
  5 4410.64 0.00000 1.66727
  6 4410.64 0.00000 -1.66727
  7 4410.64 0.00000 -1.66727
  8 4410.64 0.00000 1.66727
  9 4662.27 0.00000 -2.52196
  10 4662.27 0.00000 2.52196
  11 4663.35 0.00000 -1.71000
  12 4663.35 0.00000 1.71000
</Section>

newXOutput 184

<Section columns = "stress_xx | stress_yy | stress_xy">
  1 4641.30 0.00000 1.73448
  2 4641.30 0.00000 -1.73448
  3 4640.01 0.00000 2.24544
  4 4640.01 0.00000 -2.24544
  5 4370.25 0.00000 1.37838
  6 4370.25 0.00000 -1.37838
  7 4370.25 0.00000 -1.37838
  8 4370.25 0.00000 1.37838
  9 4640.01 0.00000 -2.24544
  10 4640.01 0.00000 2.24544
  11 4641.30 0.00000 -1.73448
  12 4641.30 0.00000 1.73448
</Section>

newXOutput 185

<Section columns = "stress_xx | stress_yy | stress_xy">
  1 4612.36 0.00000 1.70026
  2 4612.36 0.00000 -1.70026
  3 4611.05 0.00000 2.15583
  4 4611.05 0.00000 -2.15583
  5 4322.25 0.00000 1.30584
  6 4322.25 0.00000 -1.30584
  7 4322.25 0.00000 -1.30584
  8 4322.25 0.00000 1.30584
  9 4611.05 0.00000 -2.15583
  10 4611.05 0.00000 2.15583
  11 4612.36 0.00000 -1.70026
  12 4612.36 0.00000 1.70026
</Section>

newXOutput 186

<Section columns = "stress_xx | stress_yy | stress_xy">
  1 4571.24 0.00000 1.50453
  2 4571.24 0.00000 -1.50453
  3 4570.27 0.00000 2.08520
  4 4570.27 0.00000 -2.08520
  5 4261.65 0.00000 1.33311
  6 4261.65 0.00000 -1.33311
  7 4261.65 0.00000 -1.33311
  8 4261.65 0.00000 1.33311
  9 4570.27 0.00000 -2.08520
  10 4570.27 0.00000 2.08520
  11 4571.24 0.00000 -1.50453
  12 4571.24 0.00000 1.50453
</Section>

newXOutput 187

<Section columns = "stress_xx | stress_yy | stress_xy">
  1 4537.90 0.00000 1.50337
  2 4537.90 0.00000 -1.50337
  3 4536.61 0.00000 1.65499
  4 4536.61 0.00000 -1.65499
  5 4207.79 0.00000 0.903345
  6 4207.79 0.00000 -0.903345
  7 4207.79 0.00000 -0.903345
  8 4207.79 0.00000 0.903345
  9 4536.61 0.00000 -1.65499
  10 4536.61 0.00000 1.65499
  11 4537.90 0.00000 -1.50337
  12 4537.90 0.00000 1.50337
</Section>

newXOutput 188

<Section columns = "stress_xx | stress_yy | stress_xy">
  1 4471.98 0.00000 0.617053
  2 4471.98 0.00000 -0.617053
  3 4471.80 0.00000 1.09840
  4 4471.80 0.00000 -1.09840
  5 4121.05 0.00000 0.789954
  6 4121.05 0.00000 -0.789954
  7 4121.05 0.00000 -0.789954
  8 4121.05 0.00000 0.789954
  9 4471.80 0.00000 -1.09840
  10 4471.80 0.00000 1.09840
  11 4471.98 0.00000 -0.617053
  12 4471.98 0.00000 0.617053
</Section>

