newXOutput 1

<Section columns = "stress_xx | stress_yy | stress_xy">
  1 0.00000 0.00000 0.00000
  2 0.00000 0.00000 0.00000
  3 0.00000 0.00000 0.00000
  4 0.00000 0.00000 0.00000
  5 0.00000 0.00000 0.00000
  6 0.00000 0.00000 0.00000
  7 0.00000 0.00000 0.00000
  8 0.00000 0.00000 0.00000
  9 0.00000 0.00000 0.00000
  10 0.00000 0.00000 0.00000
  11 0.00000 0.00000 0.00000
  12 0.00000 0.00000 0.00000
  13 0.00000 0.00000 0.00000
  14 0.00000 0.00000 0.00000
  15 0.00000 0.00000 0.00000
  16 0.00000 0.00000 0.00000
  17 0.00000 0.00000 0.00000
  18 0.00000 0.00000 0.00000
  19 0.00000 0.00000 0.00000
  20 0.00000 0.00000 0.00000
  21 0.00000 0.00000 0.00000
  22 0.00000 0.00000 0.00000
  23 0.00000 0.00000 0.00000
  24 0.00000 0.00000 0.00000
  25 0.00000 0.00000 0.00000
  26 0.00000 0.00000 0.00000
  27 0.00000 0.00000 0.00000
  28 0.00000 0.00000 0.00000
  29 0.00000 0.00000 0.00000
  30 0.00000 0.00000 0.00000
  31 0.00000 0.00000 0.00000
  32 0.00000 0.00000 0.00000
  33 0.00000 0.00000 0.00000
  34 0.00000 0.00000 0.00000
  35 0.00000 0.00000 0.00000
  36 0.00000 0.00000 0.00000
  37 0.00000 0.00000 0.00000
  38 0.00000 0.00000 0.00000
  39 0.00000 0.00000 0.00000
  40 0.00000 0.00000 0.00000
  41 0.00000 0.00000 0.00000
  42 0.00000 0.00000 0.00000
  43 0.00000 0.00000 0.00000
  44 0.00000 0.00000 0.00000
  45 0.00000 0.00000 0.00000
  46 0.00000 0.00000 0.00000
  47 0.00000 0.00000 0.00000
  48 0.00000 0.00000 0.00000
  49 0.00000 0.00000 0.00000
  50 0.00000 0.00000 0.00000
  51 0.00000 0.00000 0.00000
  52 0.00000 0.00000 0.00000
  53 0.00000 0.00000 0.00000
  54 0.00000 0.00000 0.00000
  55 0.00000 0.00000 0.00000
  56 0.00000 0.00000 0.00000
  57 0.00000 0.00000 0.00000
  58 0.00000 0.00000 0.00000
  59 0.00000 0.00000 0.00000
  60 0.00000 0.00000 0.00000
  61 0.00000 0.00000 0.00000
  62 0.00000 0.00000 0.00000
  63 0.00000 0.00000 0.00000
  64 0.00000 0.00000 0.00000
  65 0.00000 0.00000 0.00000
  66 0.00000 0.00000 0.00000
  67 0.00000 0.00000 0.00000
  68 0.00000 0.00000 0.00000
  69 0.00000 0.00000 0.00000
  70 0.00000 0.00000 0.00000
  71 0.00000 0.00000 0.00000
  72 0.00000 0.00000 0.00000
  73 0.00000 0.00000 0.00000
  74 0.00000 0.00000 0.00000
  75 0.00000 0.00000 0.00000
  76 0.00000 0.00000 0.00000
  77 0.00000 0.00000 0.00000
  78 0.00000 0.00000 0.00000
  79 0.00000 0.00000 0.00000
  80 0.00000 0.00000 0.00000
  81 0.00000 0.00000 0.00000
  82 0.00000 0.00000 0.00000
  83 0.00000 0.00000 0.00000
  84 0.00000 0.00000 0.00000
  85 0.00000 0.00000 0.00000
  86 0.00000 0.00000 0.00000
  87 0.00000 0.00000 0.00000
  88 0.00000 0.00000 0.00000
  89 0.00000 0.00000 0.00000
  90 0.00000 0.00000 0.00000
  91 0.00000 0.00000 0.00000
  92 0.00000 0.00000 0.00000
  93 0.00000 0.00000 0.00000
  94 0.00000 0.00000 0.00000
  95 0.00000 0.00000 0.00000
  96 0.00000 0.00000 0.00000
  97 0.00000 0.00000 0.00000
  98 0.00000 0.00000 0.00000
  99 0.00000 0.00000 0.00000
  100 0.00000 0.00000 0.00000
  101 0.00000 0.00000 0.00000
  102 0.00000 0.00000 0.00000
  103 0.00000 0.00000 0.00000
  104 0.00000 0.00000 0.00000
  105 0.00000 0.00000 0.00000
  106 0.00000 0.00000 0.00000
  107 0.00000 0.00000 0.00000
  108 0.00000 0.00000 0.00000
  109 0.00000 0.00000 0.00000
  110 0.00000 0.00000 0.00000
  111 0.00000 0.00000 0.00000
  112 0.00000 0.00000 0.00000
  113 0.00000 0.00000 0.00000
  114 0.00000 0.00000 0.00000
  115 0.00000 0.00000 0.00000
  116 0.00000 0.00000 0.00000
  117 0.00000 0.00000 0.00000
  118 0.00000 0.00000 0.00000
  119 0.00000 0.00000 0.00000
  120 0.00000 0.00000 0.00000
  121 0.00000 0.00000 0.00000
  122 0.00000 0.00000 0.00000
  123 0.00000 0.00000 0.00000
  124 0.00000 0.00000 0.00000
  125 0.00000 0.00000 0.00000
  126 0.00000 0.00000 0.00000
  127 0.00000 0.00000 0.00000
  128 0.00000 0.00000 0.00000
  129 0.00000 0.00000 0.00000
  130 0.00000 0.00000 0.00000
  131 0.00000 0.00000 0.00000
  132 0.00000 0.00000 0.00000
  133 0.00000 0.00000 0.00000
  134 0.00000 0.00000 0.00000
  135 0.00000 0.00000 0.00000
  136 0.00000 0.00000 0.00000
  137 0.00000 0.00000 0.00000
  138 0.00000 0.00000 0.00000
  139 0.00000 0.00000 0.00000
  140 0.00000 0.00000 0.00000
  141 0.00000 0.00000 0.00000
  142 0.00000 0.00000 0.00000
  143 0.00000 0.00000 0.00000
  144 0.00000 0.00000 0.00000
  145 0.00000 0.00000 0.00000
  146 0.00000 0.00000 0.00000
  147 0.00000 0.00000 0.00000
  148 0.00000 0.00000 0.00000
  149 0.00000 0.00000 0.00000
  150 0.00000 0.00000 0.00000
  151 0.00000 0.00000 0.00000
  152 0.00000 0.00000 0.00000
  153 0.00000 0.00000 0.00000
  154 0.00000 0.00000 0.00000
  155 0.00000 0.00000 0.00000
  156 0.00000 0.00000 0.00000
  157 0.00000 0.00000 0.00000
  158 0.00000 0.00000 0.00000
  159 0.00000 0.00000 0.00000
  160 0.00000 0.00000 0.00000
  161 0.00000 0.00000 0.00000
  162 0.00000 0.00000 0.00000
  163 0.00000 0.00000 0.00000
  164 0.00000 0.00000 0.00000
  165 0.00000 0.00000 0.00000
  166 0.00000 0.00000 0.00000
  167 0.00000 0.00000 0.00000
  168 0.00000 0.00000 0.00000
  169 0.00000 0.00000 0.00000
  170 0.00000 0.00000 0.00000
  171 0.00000 0.00000 0.00000
  172 0.00000 0.00000 0.00000
  173 0.00000 0.00000 0.00000
  174 0.00000 0.00000 0.00000
  175 0.00000 0.00000 0.00000
  176 0.00000 0.00000 0.00000
  177 0.00000 0.00000 0.00000
  178 0.00000 0.00000 0.00000
  179 0.00000 0.00000 0.00000
  180 0.00000 0.00000 0.00000
  181 0.00000 0.00000 0.00000
  182 0.00000 0.00000 0.00000
  183 0.00000 0.00000 0.00000
  184 0.00000 0.00000 0.00000
  185 0.00000 0.00000 0.00000
  186 0.00000 0.00000 0.00000
  187 0.00000 0.00000 0.00000
  188 0.00000 0.00000 0.00000
  189 0.00000 0.00000 0.00000
  190 0.00000 0.00000 0.00000
  191 0.00000 0.00000 0.00000
  192 0.00000 0.00000 0.00000
  193 0.00000 0.00000 0.00000
  194 0.00000 0.00000 0.00000
  195 0.00000 0.00000 0.00000
  196 0.00000 0.00000 0.00000
  197 0.00000 0.00000 0.00000
  198 0.00000 0.00000 0.00000
  199 0.00000 0.00000 0.00000
  200 0.00000 0.00000 0.00000
  201 0.00000 0.00000 0.00000
  202 0.00000 0.00000 0.00000
  203 0.00000 0.00000 0.00000
  204 0.00000 0.00000 0.00000
  205 0.00000 0.00000 0.00000
  206 0.00000 0.00000 0.00000
  207 0.00000 0.00000 0.00000
  208 0.00000 0.00000 0.00000
  209 0.00000 0.00000 0.00000
  210 0.00000 0.00000 0.00000
  211 0.00000 0.00000 0.00000
  212 0.00000 0.00000 0.00000
  213 0.00000 0.00000 0.00000
  214 0.00000 0.00000 0.00000
  215 0.00000 0.00000 0.00000
  216 0.00000 0.00000 0.00000
  217 0.00000 0.00000 0.00000
  218 0.00000 0.00000 0.00000
  219 0.00000 0.00000 0.00000
  220 0.00000 0.00000 0.00000
  221 0.00000 0.00000 0.00000
  222 0.00000 0.00000 0.00000
  223 0.00000 0.00000 0.00000
  224 0.00000 0.00000 0.00000
  225 0.00000 0.00000 0.00000
  226 0.00000 0.00000 0.00000
  227 0.00000 0.00000 0.00000
  228 0.00000 0.00000 0.00000
  229 0.00000 0.00000 0.00000
  230 0.00000 0.00000 0.00000
  231 0.00000 0.00000 0.00000
  232 0.00000 0.00000 0.00000
  233 0.00000 0.00000 0.00000
  234 0.00000 0.00000 0.00000
  235 0.00000 0.00000 0.00000
  236 0.00000 0.00000 0.00000
  237 0.00000 0.00000 0.00000
  238 0.00000 0.00000 0.00000
  239 0.00000 0.00000 0.00000
  240 0.00000 0.00000 0.00000
  241 0.00000 0.00000 0.00000
  242 0.00000 0.00000 0.00000
  243 0.00000 0.00000 0.00000
  244 0.00000 0.00000 0.00000
  245 0.00000 0.00000 0.00000
  246 0.00000 0.00000 0.00000
  247 0.00000 0.00000 0.00000
  248 0.00000 0.00000 0.00000
  249 0.00000 0.00000 0.00000
  250 0.00000 0.00000 0.00000
  251 0.00000 0.00000 0.00000
  252 0.00000 0.00000 0.00000
  253 0.00000 0.00000 0.00000
  254 0.00000 0.00000 0.00000
  255 0.00000 0.00000 0.00000
  256 0.00000 0.00000 0.00000
  257 0.00000 0.00000 0.00000
  258 0.00000 0.00000 0.00000
  259 0.00000 0.00000 0.00000
  260 0.00000 0.00000 0.00000
  261 0.00000 0.00000 0.00000
  262 0.00000 0.00000 0.00000
  263 0.00000 0.00000 0.00000
  264 0.00000 0.00000 0.00000
  265 0.00000 0.00000 0.00000
  266 0.00000 0.00000 0.00000
  267 0.00000 0.00000 0.00000
  268 0.00000 0.00000 0.00000
  269 0.00000 0.00000 0.00000
  270 0.00000 0.00000 0.00000
  271 0.00000 0.00000 0.00000
  272 0.00000 0.00000 0.00000
  273 0.00000 0.00000 0.00000
  274 0.00000 0.00000 0.00000
  275 0.00000 0.00000 0.00000
  276 0.00000 0.00000 0.00000
  277 0.00000 0.00000 0.00000
  278 0.00000 0.00000 0.00000
  279 0.00000 0.00000 0.00000
  280 0.00000 0.00000 0.00000
  281 0.00000 0.00000 0.00000
  282 0.00000 0.00000 0.00000
  283 0.00000 0.00000 0.00000
  284 0.00000 0.00000 0.00000
  285 0.00000 0.00000 0.00000
  286 0.00000 0.00000 0.00000
  287 0.00000 0.00000 0.00000
  288 0.00000 0.00000 0.00000
  289 0.00000 0.00000 0.00000
  290 0.00000 0.00000 0.00000
  291 0.00000 0.00000 0.00000
  292 0.00000 0.00000 0.00000
  293 0.00000 0.00000 0.00000
  294 0.00000 0.00000 0.00000
  295 0.00000 0.00000 0.00000
  296 0.00000 0.00000 0.00000
  297 0.00000 0.00000 0.00000
  298 0.00000 0.00000 0.00000
  299 0.00000 0.00000 0.00000
  300 0.00000 0.00000 0.00000
  301 0.00000 0.00000 0.00000
  302 0.00000 0.00000 0.00000
  303 0.00000 0.00000 0.00000
  304 0.00000 0.00000 0.00000
  305 0.00000 0.00000 0.00000
  306 0.00000 0.00000 0.00000
  307 0.00000 0.00000 0.00000
  308 0.00000 0.00000 0.00000
  309 0.00000 0.00000 0.00000
  310 0.00000 0.00000 0.00000
  311 0.00000 0.00000 0.00000
  312 0.00000 0.00000 0.00000
  313 0.00000 0.00000 0.00000
  314 0.00000 0.00000 0.00000
  315 0.00000 0.00000 0.00000
  316 0.00000 0.00000 0.00000
  317 0.00000 0.00000 0.00000
  318 0.00000 0.00000 0.00000
  319 0.00000 0.00000 0.00000
  320 0.00000 0.00000 0.00000
  321 0.00000 0.00000 0.00000
  322 0.00000 0.00000 0.00000
  323 0.00000 0.00000 0.00000
  324 0.00000 0.00000 0.00000
  325 0.00000 0.00000 0.00000
  326 0.00000 0.00000 0.00000
  327 0.00000 0.00000 0.00000
  328 0.00000 0.00000 0.00000
  329 0.00000 0.00000 0.00000
  330 0.00000 0.00000 0.00000
  331 0.00000 0.00000 0.00000
  332 0.00000 0.00000 0.00000
  333 0.00000 0.00000 0.00000
  334 0.00000 0.00000 0.00000
  335 0.00000 0.00000 0.00000
  336 0.00000 0.00000 0.00000
  337 0.00000 0.00000 0.00000
  338 0.00000 0.00000 0.00000
  339 0.00000 0.00000 0.00000
  340 0.00000 0.00000 0.00000
  341 0.00000 0.00000 0.00000
  342 0.00000 0.00000 0.00000
  343 0.00000 0.00000 0.00000
  344 0.00000 0.00000 0.00000
  345 0.00000 0.00000 0.00000
  346 0.00000 0.00000 0.00000
  347 0.00000 0.00000 0.00000
  348 0.00000 0.00000 0.00000
  349 0.00000 0.00000 0.00000
  350 0.00000 0.00000 0.00000
  351 0.00000 0.00000 0.00000
  352 0.00000 0.00000 0.00000
  353 0.00000 0.00000 0.00000
  354 0.00000 0.00000 0.00000
  355 0.00000 0.00000 0.00000
  356 0.00000 0.00000 0.00000
  357 0.00000 0.00000 0.00000
  358 0.00000 0.00000 0.00000
  359 0.00000 0.00000 0.00000
  360 0.00000 0.00000 0.00000
  361 0.00000 0.00000 0.00000
  362 0.00000 0.00000 0.00000
  363 0.00000 0.00000 0.00000
  364 0.00000 0.00000 0.00000
  365 0.00000 0.00000 0.00000
  366 0.00000 0.00000 0.00000
  367 0.00000 0.00000 0.00000
  368 0.00000 0.00000 0.00000
  369 0.00000 0.00000 0.00000
  370 0.00000 0.00000 0.00000
  371 0.00000 0.00000 0.00000
  372 0.00000 0.00000 0.00000
  373 0.00000 0.00000 0.00000
  374 0.00000 0.00000 0.00000
  375 0.00000 0.00000 0.00000
  376 0.00000 0.00000 0.00000
  377 0.00000 0.00000 0.00000
  378 0.00000 0.00000 0.00000
  379 0.00000 0.00000 0.00000
  380 0.00000 0.00000 0.00000
  381 0.00000 0.00000 0.00000
  382 0.00000 0.00000 0.00000
  383 0.00000 0.00000 0.00000
  384 0.00000 0.00000 0.00000
  385 0.00000 0.00000 0.00000
  386 0.00000 0.00000 0.00000
  387 0.00000 0.00000 0.00000
  388 0.00000 0.00000 0.00000
  389 0.00000 0.00000 0.00000
  390 0.00000 0.00000 0.00000
  391 0.00000 0.00000 0.00000
  392 0.00000 0.00000 0.00000
  393 0.00000 0.00000 0.00000
  394 0.00000 0.00000 0.00000
  395 0.00000 0.00000 0.00000
  396 0.00000 0.00000 0.00000
  397 0.00000 0.00000 0.00000
  398 0.00000 0.00000 0.00000
  399 0.00000 0.00000 0.00000
  400 0.00000 0.00000 0.00000
  401 0.00000 0.00000 0.00000
  402 0.00000 0.00000 0.00000
  403 0.00000 0.00000 0.00000
  404 0.00000 0.00000 0.00000
  405 0.00000 0.00000 0.00000
  406 0.00000 0.00000 0.00000
  407 0.00000 0.00000 0.00000
  408 0.00000 0.00000 0.00000
  409 0.00000 0.00000 0.00000
  410 0.00000 0.00000 0.00000
  411 0.00000 0.00000 0.00000
  412 0.00000 0.00000 0.00000
  413 0.00000 0.00000 0.00000
  414 0.00000 0.00000 0.00000
  415 0.00000 0.00000 0.00000
  416 0.00000 0.00000 0.00000
  417 0.00000 0.00000 0.00000
  418 0.00000 0.00000 0.00000
  419 0.00000 0.00000 0.00000
  420 0.00000 0.00000 0.00000
  421 0.00000 0.00000 0.00000
  422 0.00000 0.00000 0.00000
  423 0.00000 0.00000 0.00000
  424 0.00000 0.00000 0.00000
  425 0.00000 0.00000 0.00000
  426 0.00000 0.00000 0.00000
  427 0.00000 0.00000 0.00000
  428 0.00000 0.00000 0.00000
  429 0.00000 0.00000 0.00000
  430 0.00000 0.00000 0.00000
  431 0.00000 0.00000 0.00000
  432 0.00000 0.00000 0.00000
  433 0.00000 0.00000 0.00000
  434 0.00000 0.00000 0.00000
  435 0.00000 0.00000 0.00000
  436 0.00000 0.00000 0.00000
  437 0.00000 0.00000 0.00000
  438 0.00000 0.00000 0.00000
  439 0.00000 0.00000 0.00000
  440 0.00000 0.00000 0.00000
  441 0.00000 0.00000 0.00000
  442 0.00000 0.00000 0.00000
  443 0.00000 0.00000 0.00000
  444 0.00000 0.00000 0.00000
  445 0.00000 0.00000 0.00000
  446 0.00000 0.00000 0.00000
  447 0.00000 0.00000 0.00000
  448 0.00000 0.00000 0.00000
  449 0.00000 0.00000 0.00000
  450 0.00000 0.00000 0.00000
  451 0.00000 0.00000 0.00000
  452 0.00000 0.00000 0.00000
  453 0.00000 0.00000 0.00000
  454 0.00000 0.00000 0.00000
  455 0.00000 0.00000 0.00000
  456 0.00000 0.00000 0.00000
  457 0.00000 0.00000 0.00000
  458 0.00000 0.00000 0.00000
  459 0.00000 0.00000 0.00000
  460 0.00000 0.00000 0.00000
  461 0.00000 0.00000 0.00000
  462 0.00000 0.00000 0.00000
  463 0.00000 0.00000 0.00000
  464 0.00000 0.00000 0.00000
  465 0.00000 0.00000 0.00000
  466 0.00000 0.00000 0.00000
  467 0.00000 0.00000 0.00000
  468 0.00000 0.00000 0.00000
  469 0.00000 0.00000 0.00000
  470 0.00000 0.00000 0.00000
  471 0.00000 0.00000 0.00000
  472 0.00000 0.00000 0.00000
  473 0.00000 0.00000 0.00000
  474 0.00000 0.00000 0.00000
  475 0.00000 0.00000 0.00000
  476 0.00000 0.00000 0.00000
  477 0.00000 0.00000 0.00000
  478 0.00000 0.00000 0.00000
  479 0.00000 0.00000 0.00000
  480 0.00000 0.00000 0.00000
  481 0.00000 0.00000 0.00000
  482 0.00000 0.00000 0.00000
  483 0.00000 0.00000 0.00000
  484 0.00000 0.00000 0.00000
  485 0.00000 0.00000 0.00000
  486 0.00000 0.00000 0.00000
  487 0.00000 0.00000 0.00000
  488 0.00000 0.00000 0.00000
  489 0.00000 0.00000 0.00000
  490 0.00000 0.00000 0.00000
  491 0.00000 0.00000 0.00000
  492 0.00000 0.00000 0.00000
  493 0.00000 0.00000 0.00000
  494 0.00000 0.00000 0.00000
  495 0.00000 0.00000 0.00000
  496 0.00000 0.00000 0.00000
  497 0.00000 0.00000 0.00000
  498 0.00000 0.00000 0.00000
  499 0.00000 0.00000 0.00000
  500 0.00000 0.00000 0.00000
  501 0.00000 0.00000 0.00000
  502 0.00000 0.00000 0.00000
  503 0.00000 0.00000 0.00000
  504 0.00000 0.00000 0.00000
  505 0.00000 0.00000 0.00000
  506 0.00000 0.00000 0.00000
  507 0.00000 0.00000 0.00000
  508 0.00000 0.00000 0.00000
  509 0.00000 0.00000 0.00000
  510 0.00000 0.00000 0.00000
  511 0.00000 0.00000 0.00000
  512 0.00000 0.00000 0.00000
  513 0.00000 0.00000 0.00000
  514 0.00000 0.00000 0.00000
  515 0.00000 0.00000 0.00000
  516 0.00000 0.00000 0.00000
  517 0.00000 0.00000 0.00000
  518 0.00000 0.00000 0.00000
  519 0.00000 0.00000 0.00000
  520 0.00000 0.00000 0.00000
  521 0.00000 0.00000 0.00000
  522 0.00000 0.00000 0.00000
  523 0.00000 0.00000 0.00000
  524 0.00000 0.00000 0.00000
  525 0.00000 0.00000 0.00000
  526 0.00000 0.00000 0.00000
  527 0.00000 0.00000 0.00000
  528 0.00000 0.00000 0.00000
  529 0.00000 0.00000 0.00000
  530 0.00000 0.00000 0.00000
  531 0.00000 0.00000 0.00000
  532 0.00000 0.00000 0.00000
  533 0.00000 0.00000 0.00000
  534 0.00000 0.00000 0.00000
  535 0.00000 0.00000 0.00000
  536 0.00000 0.00000 0.00000
  537 0.00000 0.00000 0.00000
  538 0.00000 0.00000 0.00000
  539 0.00000 0.00000 0.00000
  540 0.00000 0.00000 0.00000
  541 0.00000 0.00000 0.00000
  542 0.00000 0.00000 0.00000
  543 0.00000 0.00000 0.00000
  544 0.00000 0.00000 0.00000
  545 0.00000 0.00000 0.00000
  546 0.00000 0.00000 0.00000
  547 0.00000 0.00000 0.00000
  548 0.00000 0.00000 0.00000
  549 0.00000 0.00000 0.00000
  550 0.00000 0.00000 0.00000
  551 0.00000 0.00000 0.00000
  552 0.00000 0.00000 0.00000
  553 0.00000 0.00000 0.00000
  554 0.00000 0.00000 0.00000
  555 0.00000 0.00000 0.00000
  556 0.00000 0.00000 0.00000
  557 0.00000 0.00000 0.00000
  558 0.00000 0.00000 0.00000
  559 0.00000 0.00000 0.00000
  560 0.00000 0.00000 0.00000
  561 0.00000 0.00000 0.00000
  562 0.00000 0.00000 0.00000
  563 0.00000 0.00000 0.00000
  564 0.00000 0.00000 0.00000
  565 0.00000 0.00000 0.00000
  566 0.00000 0.00000 0.00000
  567 0.00000 0.00000 0.00000
  568 0.00000 0.00000 0.00000
  569 0.00000 0.00000 0.00000
  570 0.00000 0.00000 0.00000
  571 0.00000 0.00000 0.00000
  572 0.00000 0.00000 0.00000
  573 0.00000 0.00000 0.00000
  574 0.00000 0.00000 0.00000
  575 0.00000 0.00000 0.00000
  576 0.00000 0.00000 0.00000
  577 0.00000 0.00000 0.00000
  578 0.00000 0.00000 0.00000
  579 0.00000 0.00000 0.00000
  580 0.00000 0.00000 0.00000
  581 0.00000 0.00000 0.00000
  582 0.00000 0.00000 0.00000
  583 0.00000 0.00000 0.00000
  584 0.00000 0.00000 0.00000
  585 0.00000 0.00000 0.00000
  586 0.00000 0.00000 0.00000
  587 0.00000 0.00000 0.00000
  588 0.00000 0.00000 0.00000
  589 0.00000 0.00000 0.00000
  590 0.00000 0.00000 0.00000
  591 0.00000 0.00000 0.00000
  592 0.00000 0.00000 0.00000
  593 0.00000 0.00000 0.00000
  594 0.00000 0.00000 0.00000
  595 0.00000 0.00000 0.00000
  596 0.00000 0.00000 0.00000
  597 0.00000 0.00000 0.00000
  598 0.00000 0.00000 0.00000
  599 0.00000 0.00000 0.00000
  600 0.00000 0.00000 0.00000
  601 0.00000 0.00000 0.00000
  602 0.00000 0.00000 0.00000
  603 0.00000 0.00000 0.00000
  604 0.00000 0.00000 0.00000
  605 0.00000 0.00000 0.00000
  606 0.00000 0.00000 0.00000
  607 0.00000 0.00000 0.00000
  608 0.00000 0.00000 0.00000
  609 0.00000 0.00000 0.00000
  610 0.00000 0.00000 0.00000
  611 0.00000 0.00000 0.00000
  612 0.00000 0.00000 0.00000
  613 0.00000 0.00000 0.00000
  614 0.00000 0.00000 0.00000
  615 0.00000 0.00000 0.00000
  616 0.00000 0.00000 0.00000
  617 0.00000 0.00000 0.00000
  618 0.00000 0.00000 0.00000
  619 0.00000 0.00000 0.00000
  620 0.00000 0.00000 0.00000
  621 0.00000 0.00000 0.00000
  622 0.00000 0.00000 0.00000
  623 0.00000 0.00000 0.00000
  624 0.00000 0.00000 0.00000
  625 0.00000 0.00000 0.00000
  626 0.00000 0.00000 0.00000
  627 0.00000 0.00000 0.00000
  628 0.00000 0.00000 0.00000
  629 0.00000 0.00000 0.00000
  630 0.00000 0.00000 0.00000
  631 0.00000 0.00000 0.00000
  632 0.00000 0.00000 0.00000
  633 0.00000 0.00000 0.00000
  634 0.00000 0.00000 0.00000
  635 0.00000 0.00000 0.00000
  636 0.00000 0.00000 0.00000
  637 0.00000 0.00000 0.00000
  638 0.00000 0.00000 0.00000
  639 0.00000 0.00000 0.00000
  640 0.00000 0.00000 0.00000
  641 0.00000 0.00000 0.00000
  642 0.00000 0.00000 0.00000
  643 0.00000 0.00000 0.00000
  644 0.00000 0.00000 0.00000
  645 0.00000 0.00000 0.00000
  646 0.00000 0.00000 0.00000
  647 0.00000 0.00000 0.00000
  648 0.00000 0.00000 0.00000
  649 0.00000 0.00000 0.00000
  650 0.00000 0.00000 0.00000
  651 0.00000 0.00000 0.00000
  652 0.00000 0.00000 0.00000
  653 0.00000 0.00000 0.00000
  654 0.00000 0.00000 0.00000
  655 0.00000 0.00000 0.00000
  656 0.00000 0.00000 0.00000
  657 0.00000 0.00000 0.00000
  658 0.00000 0.00000 0.00000
  659 0.00000 0.00000 0.00000
  660 0.00000 0.00000 0.00000
  661 0.00000 0.00000 0.00000
  662 0.00000 0.00000 0.00000
  663 0.00000 0.00000 0.00000
  664 0.00000 0.00000 0.00000
  665 0.00000 0.00000 0.00000
  666 0.00000 0.00000 0.00000
  667 0.00000 0.00000 0.00000
  668 0.00000 0.00000 0.00000
  669 0.00000 0.00000 0.00000
  670 0.00000 0.00000 0.00000
  671 0.00000 0.00000 0.00000
  672 0.00000 0.00000 0.00000
  673 0.00000 0.00000 0.00000
  674 0.00000 0.00000 0.00000
  675 0.00000 0.00000 0.00000
  676 0.00000 0.00000 0.00000
  677 0.00000 0.00000 0.00000
  678 0.00000 0.00000 0.00000
  679 0.00000 0.00000 0.00000
  680 0.00000 0.00000 0.00000
  681 0.00000 0.00000 0.00000
  682 0.00000 0.00000 0.00000
  683 0.00000 0.00000 0.00000
  684 0.00000 0.00000 0.00000
  685 0.00000 0.00000 0.00000
  686 0.00000 0.00000 0.00000
  687 0.00000 0.00000 0.00000
  688 0.00000 0.00000 0.00000
  689 0.00000 0.00000 0.00000
  690 0.00000 0.00000 0.00000
  691 0.00000 0.00000 0.00000
  692 0.00000 0.00000 0.00000
  693 0.00000 0.00000 0.00000
  694 0.00000 0.00000 0.00000
  695 0.00000 0.00000 0.00000
  696 0.00000 0.00000 0.00000
  697 0.00000 0.00000 0.00000
  698 0.00000 0.00000 0.00000
  699 0.00000 0.00000 0.00000
  700 0.00000 0.00000 0.00000
  701 0.00000 0.00000 0.00000
  702 0.00000 0.00000 0.00000
  703 0.00000 0.00000 0.00000
  704 0.00000 0.00000 0.00000
  705 0.00000 0.00000 0.00000
  706 0.00000 0.00000 0.00000
  707 0.00000 0.00000 0.00000
  708 0.00000 0.00000 0.00000
  709 0.00000 0.00000 0.00000
  710 0.00000 0.00000 0.00000
  711 0.00000 0.00000 0.00000
  712 0.00000 0.00000 0.00000
  713 0.00000 0.00000 0.00000
  714 0.00000 0.00000 0.00000
  715 0.00000 0.00000 0.00000
  716 0.00000 0.00000 0.00000
  717 0.00000 0.00000 0.00000
  718 0.00000 0.00000 0.00000
  719 0.00000 0.00000 0.00000
  720 0.00000 0.00000 0.00000
  721 0.00000 0.00000 0.00000
  722 0.00000 0.00000 0.00000
  723 0.00000 0.00000 0.00000
  724 0.00000 0.00000 0.00000
  725 0.00000 0.00000 0.00000
  726 0.00000 0.00000 0.00000
  727 0.00000 0.00000 0.00000
  728 0.00000 0.00000 0.00000
  729 0.00000 0.00000 0.00000
  730 0.00000 0.00000 0.00000
  731 0.00000 0.00000 0.00000
  732 0.00000 0.00000 0.00000
  733 0.00000 0.00000 0.00000
  734 0.00000 0.00000 0.00000
  735 0.00000 0.00000 0.00000
  736 0.00000 0.00000 0.00000
  737 0.00000 0.00000 0.00000
  738 0.00000 0.00000 0.00000
  739 0.00000 0.00000 0.00000
  740 0.00000 0.00000 0.00000
  741 0.00000 0.00000 0.00000
  742 0.00000 0.00000 0.00000
  743 0.00000 0.00000 0.00000
  744 0.00000 0.00000 0.00000
  745 0.00000 0.00000 0.00000
  746 0.00000 0.00000 0.00000
  747 0.00000 0.00000 0.00000
  748 0.00000 0.00000 0.00000
  749 0.00000 0.00000 0.00000
  750 0.00000 0.00000 0.00000
  751 0.00000 0.00000 0.00000
  752 0.00000 0.00000 0.00000
  753 0.00000 0.00000 0.00000
  754 0.00000 0.00000 0.00000
  755 0.00000 0.00000 0.00000
  756 0.00000 0.00000 0.00000
  757 0.00000 0.00000 0.00000
  758 0.00000 0.00000 0.00000
  759 0.00000 0.00000 0.00000
  760 0.00000 0.00000 0.00000
  761 0.00000 0.00000 0.00000
  762 0.00000 0.00000 0.00000
  763 0.00000 0.00000 0.00000
  764 0.00000 0.00000 0.00000
  765 0.00000 0.00000 0.00000
  766 0.00000 0.00000 0.00000
  767 0.00000 0.00000 0.00000
  768 0.00000 0.00000 0.00000
  769 0.00000 0.00000 0.00000
  770 0.00000 0.00000 0.00000
  771 0.00000 0.00000 0.00000
  772 0.00000 0.00000 0.00000
  773 0.00000 0.00000 0.00000
  774 0.00000 0.00000 0.00000
  775 0.00000 0.00000 0.00000
  776 0.00000 0.00000 0.00000
  777 0.00000 0.00000 0.00000
  778 0.00000 0.00000 0.00000
  779 0.00000 0.00000 0.00000
  780 0.00000 0.00000 0.00000
  781 0.00000 0.00000 0.00000
  782 0.00000 0.00000 0.00000
  783 0.00000 0.00000 0.00000
  784 0.00000 0.00000 0.00000
  785 0.00000 0.00000 0.00000
  786 0.00000 0.00000 0.00000
  787 0.00000 0.00000 0.00000
  788 0.00000 0.00000 0.00000
  789 0.00000 0.00000 0.00000
  790 0.00000 0.00000 0.00000
  791 0.00000 0.00000 0.00000
  792 0.00000 0.00000 0.00000
  793 0.00000 0.00000 0.00000
  794 0.00000 0.00000 0.00000
  795 0.00000 0.00000 0.00000
  796 0.00000 0.00000 0.00000
  797 0.00000 0.00000 0.00000
  798 0.00000 0.00000 0.00000
  799 0.00000 0.00000 0.00000
  800 0.00000 0.00000 0.00000
  801 0.00000 0.00000 0.00000
  802 0.00000 0.00000 0.00000
  803 0.00000 0.00000 0.00000
  804 0.00000 0.00000 0.00000
  805 0.00000 0.00000 0.00000
  806 0.00000 0.00000 0.00000
  807 0.00000 0.00000 0.00000
  808 0.00000 0.00000 0.00000
  809 0.00000 0.00000 0.00000
  810 0.00000 0.00000 0.00000
  811 0.00000 0.00000 0.00000
  812 0.00000 0.00000 0.00000
  813 0.00000 0.00000 0.00000
  814 0.00000 0.00000 0.00000
  815 0.00000 0.00000 0.00000
  816 0.00000 0.00000 0.00000
  817 0.00000 0.00000 0.00000
  818 0.00000 0.00000 0.00000
  819 0.00000 0.00000 0.00000
  820 0.00000 0.00000 0.00000
  821 0.00000 0.00000 0.00000
  822 0.00000 0.00000 0.00000
  823 0.00000 0.00000 0.00000
  824 0.00000 0.00000 0.00000
  825 0.00000 0.00000 0.00000
  826 0.00000 0.00000 0.00000
  827 0.00000 0.00000 0.00000
  828 0.00000 0.00000 0.00000
  829 0.00000 0.00000 0.00000
  830 0.00000 0.00000 0.00000
  831 0.00000 0.00000 0.00000
  832 0.00000 0.00000 0.00000
  833 0.00000 0.00000 0.00000
  834 0.00000 0.00000 0.00000
  835 0.00000 0.00000 0.00000
  836 0.00000 0.00000 0.00000
  837 0.00000 0.00000 0.00000
  838 0.00000 0.00000 0.00000
  839 0.00000 0.00000 0.00000
  840 0.00000 0.00000 0.00000
  841 0.00000 0.00000 0.00000
  842 0.00000 0.00000 0.00000
  843 0.00000 0.00000 0.00000
  844 0.00000 0.00000 0.00000
  845 0.00000 0.00000 0.00000
  846 0.00000 0.00000 0.00000
  847 0.00000 0.00000 0.00000
  848 0.00000 0.00000 0.00000
  849 0.00000 0.00000 0.00000
  850 0.00000 0.00000 0.00000
  851 0.00000 0.00000 0.00000
  852 0.00000 0.00000 0.00000
  853 0.00000 0.00000 0.00000
  854 0.00000 0.00000 0.00000
  855 0.00000 0.00000 0.00000
  856 0.00000 0.00000 0.00000
  857 0.00000 0.00000 0.00000
  858 0.00000 0.00000 0.00000
  859 0.00000 0.00000 0.00000
  860 0.00000 0.00000 0.00000
  861 0.00000 0.00000 0.00000
  862 0.00000 0.00000 0.00000
  863 0.00000 0.00000 0.00000
  864 0.00000 0.00000 0.00000
  865 0.00000 0.00000 0.00000
  866 0.00000 0.00000 0.00000
  867 0.00000 0.00000 0.00000
  868 0.00000 0.00000 0.00000
  869 0.00000 0.00000 0.00000
  870 0.00000 0.00000 0.00000
  871 0.00000 0.00000 0.00000
  872 0.00000 0.00000 0.00000
  873 0.00000 0.00000 0.00000
  874 0.00000 0.00000 0.00000
  875 0.00000 0.00000 0.00000
  876 0.00000 0.00000 0.00000
  877 0.00000 0.00000 0.00000
  878 0.00000 0.00000 0.00000
  879 0.00000 0.00000 0.00000
  880 0.00000 0.00000 0.00000
  881 0.00000 0.00000 0.00000
  882 0.00000 0.00000 0.00000
  883 0.00000 0.00000 0.00000
  884 0.00000 0.00000 0.00000
  885 0.00000 0.00000 0.00000
  886 0.00000 0.00000 0.00000
  887 0.00000 0.00000 0.00000
  888 0.00000 0.00000 0.00000
  889 0.00000 0.00000 0.00000
  890 0.00000 0.00000 0.00000
  891 0.00000 0.00000 0.00000
  892 0.00000 0.00000 0.00000
  893 0.00000 0.00000 0.00000
  894 0.00000 0.00000 0.00000
  895 0.00000 0.00000 0.00000
  896 0.00000 0.00000 0.00000
  897 0.00000 0.00000 0.00000
  898 0.00000 0.00000 0.00000
  899 0.00000 0.00000 0.00000
  900 0.00000 0.00000 0.00000
  901 0.00000 0.00000 0.00000
  902 0.00000 0.00000 0.00000
  903 0.00000 0.00000 0.00000
  904 0.00000 0.00000 0.00000
  905 0.00000 0.00000 0.00000
  906 0.00000 0.00000 0.00000
  907 0.00000 0.00000 0.00000
  908 0.00000 0.00000 0.00000
  909 0.00000 0.00000 0.00000
  910 0.00000 0.00000 0.00000
  911 0.00000 0.00000 0.00000
  912 0.00000 0.00000 0.00000
  913 0.00000 0.00000 0.00000
  914 0.00000 0.00000 0.00000
  915 0.00000 0.00000 0.00000
  916 0.00000 0.00000 0.00000
  917 0.00000 0.00000 0.00000
  918 0.00000 0.00000 0.00000
  919 0.00000 0.00000 0.00000
  920 0.00000 0.00000 0.00000
  921 0.00000 0.00000 0.00000
  922 0.00000 0.00000 0.00000
  923 0.00000 0.00000 0.00000
  924 0.00000 0.00000 0.00000
  925 0.00000 0.00000 0.00000
  926 0.00000 0.00000 0.00000
  927 0.00000 0.00000 0.00000
  928 0.00000 0.00000 0.00000
  929 0.00000 0.00000 0.00000
  930 0.00000 0.00000 0.00000
  931 0.00000 0.00000 0.00000
  932 0.00000 0.00000 0.00000
  933 0.00000 0.00000 0.00000
  934 0.00000 0.00000 0.00000
  935 0.00000 0.00000 0.00000
  936 0.00000 0.00000 0.00000
  937 0.00000 0.00000 0.00000
  938 0.00000 0.00000 0.00000
  939 0.00000 0.00000 0.00000
  940 0.00000 0.00000 0.00000
  941 0.00000 0.00000 0.00000
  942 0.00000 0.00000 0.00000
  943 0.00000 0.00000 0.00000
  944 0.00000 0.00000 0.00000
  945 0.00000 0.00000 0.00000
  946 0.00000 0.00000 0.00000
  947 0.00000 0.00000 0.00000
  948 0.00000 0.00000 0.00000
  949 0.00000 0.00000 0.00000
  950 0.00000 0.00000 0.00000
  951 0.00000 0.00000 0.00000
  952 0.00000 0.00000 0.00000
  953 0.00000 0.00000 0.00000
  954 0.00000 0.00000 0.00000
  955 0.00000 0.00000 0.00000
  956 0.00000 0.00000 0.00000
  957 0.00000 0.00000 0.00000
  958 0.00000 0.00000 0.00000
  959 0.00000 0.00000 0.00000
  960 0.00000 0.00000 0.00000
  961 0.00000 0.00000 0.00000
  962 0.00000 0.00000 0.00000
  963 0.00000 0.00000 0.00000
  964 0.00000 0.00000 0.00000
  965 0.00000 0.00000 0.00000
  966 0.00000 0.00000 0.00000
  967 0.00000 0.00000 0.00000
  968 0.00000 0.00000 0.00000
  969 0.00000 0.00000 0.00000
  970 0.00000 0.00000 0.00000
  971 0.00000 0.00000 0.00000
  972 0.00000 0.00000 0.00000
  973 0.00000 0.00000 0.00000
  974 0.00000 0.00000 0.00000
  975 0.00000 0.00000 0.00000
  976 0.00000 0.00000 0.00000
  977 0.00000 0.00000 0.00000
  978 0.00000 0.00000 0.00000
  979 0.00000 0.00000 0.00000
  980 0.00000 0.00000 0.00000
  981 0.00000 0.00000 0.00000
  982 0.00000 0.00000 0.00000
  983 0.00000 0.00000 0.00000
  984 0.00000 0.00000 0.00000
  985 0.00000 0.00000 0.00000
  986 0.00000 0.00000 0.00000
  987 0.00000 0.00000 0.00000
  988 0.00000 0.00000 0.00000
  989 0.00000 0.00000 0.00000
  990 0.00000 0.00000 0.00000
  991 0.00000 0.00000 0.00000
  992 0.00000 0.00000 0.00000
  993 0.00000 0.00000 0.00000
  994 0.00000 0.00000 0.00000
  995 0.00000 0.00000 0.00000
  996 0.00000 0.00000 0.00000
  997 0.00000 0.00000 0.00000
  998 0.00000 0.00000 0.00000
  999 0.00000 0.00000 0.00000
  1000 0.00000 0.00000 0.00000
  1001 0.00000 0.00000 0.00000
  1002 0.00000 0.00000 0.00000
  1003 0.00000 0.00000 0.00000
  1004 0.00000 0.00000 0.00000
  1005 0.00000 0.00000 0.00000
  1006 0.00000 0.00000 0.00000
  1007 0.00000 0.00000 0.00000
  1008 0.00000 0.00000 0.00000
  1009 0.00000 0.00000 0.00000
  1010 0.00000 0.00000 0.00000
  1011 0.00000 0.00000 0.00000
  1012 0.00000 0.00000 0.00000
  1013 0.00000 0.00000 0.00000
  1014 0.00000 0.00000 0.00000
  1015 0.00000 0.00000 0.00000
  1016 0.00000 0.00000 0.00000
  1017 0.00000 0.00000 0.00000
  1018 0.00000 0.00000 0.00000
  1019 0.00000 0.00000 0.00000
  1020 0.00000 0.00000 0.00000
  1021 0.00000 0.00000 0.00000
  1022 0.00000 0.00000 0.00000
  1023 0.00000 0.00000 0.00000
  1024 0.00000 0.00000 0.00000
  1025 0.00000 0.00000 0.00000
  1026 0.00000 0.00000 0.00000
  1027 0.00000 0.00000 0.00000
  1028 0.00000 0.00000 0.00000
  1029 0.00000 0.00000 0.00000
  1030 0.00000 0.00000 0.00000
  1031 0.00000 0.00000 0.00000
  1032 0.00000 0.00000 0.00000
  1033 0.00000 0.00000 0.00000
  1034 0.00000 0.00000 0.00000
  1035 0.00000 0.00000 0.00000
  1036 0.00000 0.00000 0.00000
  1037 0.00000 0.00000 0.00000
  1038 0.00000 0.00000 0.00000
  1039 0.00000 0.00000 0.00000
  1040 0.00000 0.00000 0.00000
  1041 0.00000 0.00000 0.00000
  1042 0.00000 0.00000 0.00000
  1043 0.00000 0.00000 0.00000
  1044 0.00000 0.00000 0.00000
  1045 0.00000 0.00000 0.00000
  1046 0.00000 0.00000 0.00000
  1047 0.00000 0.00000 0.00000
  1048 0.00000 0.00000 0.00000
  1049 0.00000 0.00000 0.00000
  1050 0.00000 0.00000 0.00000
  1051 0.00000 0.00000 0.00000
  1052 0.00000 0.00000 0.00000
  1053 0.00000 0.00000 0.00000
  1054 0.00000 0.00000 0.00000
  1055 0.00000 0.00000 0.00000
  1056 0.00000 0.00000 0.00000
  1057 0.00000 0.00000 0.00000
  1058 0.00000 0.00000 0.00000
  1059 0.00000 0.00000 0.00000
  1060 0.00000 0.00000 0.00000
  1061 0.00000 0.00000 0.00000
  1062 0.00000 0.00000 0.00000
  1063 0.00000 0.00000 0.00000
  1064 0.00000 0.00000 0.00000
  1065 0.00000 0.00000 0.00000
  1066 0.00000 0.00000 0.00000
  1067 0.00000 0.00000 0.00000
  1068 0.00000 0.00000 0.00000
  1069 0.00000 0.00000 0.00000
  1070 0.00000 0.00000 0.00000
  1071 0.00000 0.00000 0.00000
  1072 0.00000 0.00000 0.00000
  1073 0.00000 0.00000 0.00000
  1074 0.00000 0.00000 0.00000
  1075 0.00000 0.00000 0.00000
  1076 0.00000 0.00000 0.00000
  1077 0.00000 0.00000 0.00000
  1078 0.00000 0.00000 0.00000
  1079 0.00000 0.00000 0.00000
  1080 0.00000 0.00000 0.00000
  1081 0.00000 0.00000 0.00000
  1082 0.00000 0.00000 0.00000
  1083 0.00000 0.00000 0.00000
  1084 0.00000 0.00000 0.00000
  1085 0.00000 0.00000 0.00000
  1086 0.00000 0.00000 0.00000
  1087 0.00000 0.00000 0.00000
  1088 0.00000 0.00000 0.00000
  1089 0.00000 0.00000 0.00000
  1090 0.00000 0.00000 0.00000
  1091 0.00000 0.00000 0.00000
  1092 0.00000 0.00000 0.00000
  1093 0.00000 0.00000 0.00000
  1094 0.00000 0.00000 0.00000
  1095 0.00000 0.00000 0.00000
  1096 0.00000 0.00000 0.00000
  1097 0.00000 0.00000 0.00000
  1098 0.00000 0.00000 0.00000
  1099 0.00000 0.00000 0.00000
  1100 0.00000 0.00000 0.00000
  1101 0.00000 0.00000 0.00000
  1102 0.00000 0.00000 0.00000
  1103 0.00000 0.00000 0.00000
  1104 0.00000 0.00000 0.00000
  1105 0.00000 0.00000 0.00000
  1106 0.00000 0.00000 0.00000
  1107 0.00000 0.00000 0.00000
  1108 0.00000 0.00000 0.00000
  1109 0.00000 0.00000 0.00000
  1110 0.00000 0.00000 0.00000
  1111 0.00000 0.00000 0.00000
  1112 0.00000 0.00000 0.00000
  1113 0.00000 0.00000 0.00000
  1114 0.00000 0.00000 0.00000
  1115 0.00000 0.00000 0.00000
  1116 0.00000 0.00000 0.00000
  1117 0.00000 0.00000 0.00000
  1118 0.00000 0.00000 0.00000
  1119 0.00000 0.00000 0.00000
  1120 0.00000 0.00000 0.00000
  1121 0.00000 0.00000 0.00000
  1122 0.00000 0.00000 0.00000
  1123 0.00000 0.00000 0.00000
  1124 0.00000 0.00000 0.00000
  1125 0.00000 0.00000 0.00000
  1126 0.00000 0.00000 0.00000
  1127 0.00000 0.00000 0.00000
  1128 0.00000 0.00000 0.00000
  1129 0.00000 0.00000 0.00000
  1130 0.00000 0.00000 0.00000
  1131 0.00000 0.00000 0.00000
  1132 0.00000 0.00000 0.00000
  1133 0.00000 0.00000 0.00000
  1134 0.00000 0.00000 0.00000
  1135 0.00000 0.00000 0.00000
  1136 0.00000 0.00000 0.00000
  1137 0.00000 0.00000 0.00000
  1138 0.00000 0.00000 0.00000
  1139 0.00000 0.00000 0.00000
  1140 0.00000 0.00000 0.00000
  1141 0.00000 0.00000 0.00000
  1142 0.00000 0.00000 0.00000
  1143 0.00000 0.00000 0.00000
  1144 0.00000 0.00000 0.00000
  1145 0.00000 0.00000 0.00000
  1146 0.00000 0.00000 0.00000
  1147 0.00000 0.00000 0.00000
  1148 0.00000 0.00000 0.00000
  1149 0.00000 0.00000 0.00000
  1150 0.00000 0.00000 0.00000
  1151 0.00000 0.00000 0.00000
  1152 0.00000 0.00000 0.00000
  1153 0.00000 0.00000 0.00000
  1154 0.00000 0.00000 0.00000
  1155 0.00000 0.00000 0.00000
  1156 0.00000 0.00000 0.00000
  1157 0.00000 0.00000 0.00000
  1158 0.00000 0.00000 0.00000
  1159 0.00000 0.00000 0.00000
  1160 0.00000 0.00000 0.00000
  1161 0.00000 0.00000 0.00000
  1162 0.00000 0.00000 0.00000
  1163 0.00000 0.00000 0.00000
  1164 0.00000 0.00000 0.00000
  1165 0.00000 0.00000 0.00000
  1166 0.00000 0.00000 0.00000
  1167 0.00000 0.00000 0.00000
  1168 0.00000 0.00000 0.00000
  1169 0.00000 0.00000 0.00000
  1170 0.00000 0.00000 0.00000
  1171 0.00000 0.00000 0.00000
  1172 0.00000 0.00000 0.00000
  1173 0.00000 0.00000 0.00000
  1174 0.00000 0.00000 0.00000
  1175 0.00000 0.00000 0.00000
  1176 0.00000 0.00000 0.00000
  1177 0.00000 0.00000 0.00000
  1178 0.00000 0.00000 0.00000
  1179 0.00000 0.00000 0.00000
  1180 0.00000 0.00000 0.00000
  1181 0.00000 0.00000 0.00000
  1182 0.00000 0.00000 0.00000
  1183 0.00000 0.00000 0.00000
  1184 0.00000 0.00000 0.00000
  1185 0.00000 0.00000 0.00000
  1186 0.00000 0.00000 0.00000
  1187 0.00000 0.00000 0.00000
  1188 0.00000 0.00000 0.00000
  1189 0.00000 0.00000 0.00000
  1190 0.00000 0.00000 0.00000
  1191 0.00000 0.00000 0.00000
  1192 0.00000 0.00000 0.00000
  1193 0.00000 0.00000 0.00000
  1194 0.00000 0.00000 0.00000
  1195 0.00000 0.00000 0.00000
  1196 0.00000 0.00000 0.00000
  1197 0.00000 0.00000 0.00000
  1198 0.00000 0.00000 0.00000
  1199 0.00000 0.00000 0.00000
  1200 0.00000 0.00000 0.00000
  1201 0.00000 0.00000 0.00000
  1202 0.00000 0.00000 0.00000
  1203 0.00000 0.00000 0.00000
  1204 0.00000 0.00000 0.00000
  1205 0.00000 0.00000 0.00000
  1206 0.00000 0.00000 0.00000
  1207 0.00000 0.00000 0.00000
  1208 0.00000 0.00000 0.00000
  1209 0.00000 0.00000 0.00000
  1210 0.00000 0.00000 0.00000
  1211 0.00000 0.00000 0.00000
  1212 0.00000 0.00000 0.00000
  1213 0.00000 0.00000 0.00000
  1214 0.00000 0.00000 0.00000
  1215 0.00000 0.00000 0.00000
  1216 0.00000 0.00000 0.00000
  1217 0.00000 0.00000 0.00000
  1218 0.00000 0.00000 0.00000
  1219 0.00000 0.00000 0.00000
  1220 0.00000 0.00000 0.00000
  1221 0.00000 0.00000 0.00000
  1222 0.00000 0.00000 0.00000
  1223 0.00000 0.00000 0.00000
  1224 0.00000 0.00000 0.00000
  1225 0.00000 0.00000 0.00000
  1226 0.00000 0.00000 0.00000
  1227 0.00000 0.00000 0.00000
  1228 0.00000 0.00000 0.00000
  1229 0.00000 0.00000 0.00000
  1230 0.00000 0.00000 0.00000
  1231 0.00000 0.00000 0.00000
  1232 0.00000 0.00000 0.00000
  1233 0.00000 0.00000 0.00000
  1234 0.00000 0.00000 0.00000
  1235 0.00000 0.00000 0.00000
  1236 0.00000 0.00000 0.00000
  1237 0.00000 0.00000 0.00000
  1238 0.00000 0.00000 0.00000
  1239 0.00000 0.00000 0.00000
  1240 0.00000 0.00000 0.00000
  1241 0.00000 0.00000 0.00000
  1242 0.00000 0.00000 0.00000
  1243 0.00000 0.00000 0.00000
  1244 0.00000 0.00000 0.00000
  1245 0.00000 0.00000 0.00000
  1246 0.00000 0.00000 0.00000
  1247 0.00000 0.00000 0.00000
  1248 0.00000 0.00000 0.00000
  1249 0.00000 0.00000 0.00000
  1250 0.00000 0.00000 0.00000
  1251 0.00000 0.00000 0.00000
  1252 0.00000 0.00000 0.00000
  1253 0.00000 0.00000 0.00000
  1254 0.00000 0.00000 0.00000
  1255 0.00000 0.00000 0.00000
  1256 0.00000 0.00000 0.00000
  1257 0.00000 0.00000 0.00000
  1258 0.00000 0.00000 0.00000
  1259 0.00000 0.00000 0.00000
  1260 0.00000 0.00000 0.00000
  1261 0.00000 0.00000 0.00000
  1262 0.00000 0.00000 0.00000
  1263 0.00000 0.00000 0.00000
  1264 0.00000 0.00000 0.00000
  1265 0.00000 0.00000 0.00000
  1266 0.00000 0.00000 0.00000
  1267 0.00000 0.00000 0.00000
  1268 0.00000 0.00000 0.00000
  1269 0.00000 0.00000 0.00000
  1270 0.00000 0.00000 0.00000
  1271 0.00000 0.00000 0.00000
  1272 0.00000 0.00000 0.00000
  1273 0.00000 0.00000 0.00000
  1274 0.00000 0.00000 0.00000
  1275 0.00000 0.00000 0.00000
  1276 0.00000 0.00000 0.00000
  1277 0.00000 0.00000 0.00000
  1278 0.00000 0.00000 0.00000
  1279 0.00000 0.00000 0.00000
  1280 0.00000 0.00000 0.00000
  1281 0.00000 0.00000 0.00000
  1282 0.00000 0.00000 0.00000
  1283 0.00000 0.00000 0.00000
</Section>

newXOutput 2

<Section columns = "stress_xx | stress_yy | stress_xy">
  1 22.4496 0.00557144 0.0491703
  2 22.4529 0.00571187 -0.0493848
  3 11.3350 -0.00762508 -0.0178520
  4 -0.147778 -0.147334 -0.212195
  5 42.3304 15.4123 12.9288
  6 41.9092 16.0348 -13.0774
  7 -0.171272 -0.141131 0.224273
  8 11.3342 -0.00767722 0.0177859
  9 22.6294 -0.0327888 0.0166631
  10 22.5699 -0.0539378 -0.00730119
  11 22.4978 -0.0315399 0.0607119
  12 22.4276 -0.0475194 0.0240802
  13 22.2785 -0.0384352 0.0960294
  14 22.1456 -0.0398730 0.0744403
  15 21.8483 -0.0357503 0.135648
  16 21.4412 -0.0186975 0.198007
  17 21.0744 -0.0233846 0.216663
  18 20.5454 -0.0388820 0.257765
  19 19.8301 0.00236067 0.375470
  20 19.1686 -0.0287888 0.352250
  21 18.4384 -0.0411000 0.490111
  22 17.3807 0.0298077 0.421691
  23 16.6322 0.0402258 0.494574
  24 15.6575 0.0707139 0.383360
  25 14.9910 0.0672081 0.384770
  26 14.0235 0.100709 0.194980
  27 13.8235 0.159712 0.207938
  28 13.7047 0.127118 -0.0609907
  29 13.8715 0.0670724 -0.136047
  30 14.1765 0.0698493 -0.166144
  31 14.9001 0.0917257 -0.333402
  32 15.6025 0.0722383 -0.425345
  33 16.6482 0.0109317 -0.506910
  34 17.4876 -0.0127753 -0.467265
  35 18.3948 -0.0332847 -0.464222
  36 19.2227 -0.0221694 -0.330829
  37 19.9463 -0.0215251 -0.286597
  38 20.5521 -0.0374338 -0.243985
  39 21.1027 -0.0246287 -0.174866
  40 21.4563 -0.0270172 -0.187723
  41 21.7974 -0.0370191 -0.138273
  42 22.1287 -0.0453374 -0.0660423
  43 22.3013 -0.0352330 -0.0739446
  44 22.4014 -0.0177683 -0.0484338
  45 22.3536 -0.00373150 -0.0438969
  46 22.5987 -0.0556461 0.00341623
  47 22.6394 -0.0346783 -0.0172273
  48 21.7986 0.00151228 -0.0302102
  49 21.2457 -0.0661147 -0.0510270
  50 20.5804 -0.103111 -0.0382265
  51 19.7757 -0.165491 -0.0510793
  52 19.0214 -0.185404 -0.0656346
  53 18.2223 -0.245317 -0.0614697
  54 17.5202 -0.280608 -0.0374702
  55 16.9051 -0.324488 -0.0182648
  56 16.1976 -0.271981 -0.0187968
  57 15.3828 -0.259547 -0.0243202
  58 14.5959 -0.209753 -0.0118205
  59 13.8486 -0.138698 -0.00668489
  60 13.1359 -0.102372 -0.00263037
  61 12.5067 -0.0570906 0.00358453
  62 11.8576 -0.0188008 -0.0208955
  63 11.3459 0.0151503 0.0208386
  64 11.1218 0.0493692 0.0121139
  65 11.2919 -0.00154786 0.0320253
  66 11.1352 -0.00935207 0.0377221
  67 10.9977 -0.0127168 0.0473680
  68 10.8065 -0.00393308 0.0637732
  69 10.5644 -0.00239440 0.0817853
  70 10.3987 -0.0189291 0.163774
  71 9.87137 0.0148429 0.180066
  72 9.50867 -0.00262566 0.209601
  73 8.96798 -0.0117391 0.236865
  74 8.34073 -0.0187201 0.289518
  75 7.55827 -0.00538713 0.351526
  76 6.60335 0.00361249 0.385207
  77 5.79853 -0.0114833 0.549208
  78 4.17238 0.0536809 0.513005
  79 3.08809 0.0466471 0.542862
  80 1.81016 -0.00572661 0.594894
  81 0.769814 0.107203 0.608526
  82 -0.404370 0.154866 0.345538
  83 -1.23210 0.155964 0.0987947
  84 -1.13641 0.144685 -0.0933235
  85 -1.02314 0.117662 -0.318360
  86 -0.595009 -0.0468622 -0.293114
  87 -0.0791087 -0.571360 -0.320906
  88 0.0459924 -1.06644 -0.412619
  89 0.143210 -1.74271 -0.260439
  90 0.327036 -1.89150 -0.0548852
  91 0.704418 -0.833536 0.836097
  92 2.17121 2.64921 3.10327
  93 13.6377 11.3076 11.4114
  94 50.9185 7.46137 8.69391
  95 45.5336 1.08143 2.88840
  96 42.0055 0.436645 0.884019
  97 40.6960 0.364431 0.0728031
  98 41.3656 0.493526 -0.757790
  99 45.3820 0.993615 -2.28187
  100 54.4242 3.61166 -7.62255
  101 7.98583 11.3674 -9.43804
  102 1.63167 1.51098 -2.51622
  103 0.764786 -0.755953 -0.844050
  104 0.303475 -1.92040 -0.0799387
  105 0.0743370 -1.34957 0.304567
  106 0.102528 -1.33863 0.362011
  107 0.00105485 -0.498682 0.354701
  108 -0.619879 -0.0344272 0.280231
  109 -1.05639 0.0882231 0.280169
  110 -1.19491 0.176713 0.100470
  111 -1.27428 0.154534 -0.0881054
  112 -0.490587 0.158780 -0.321163
  113 0.691612 0.108229 -0.578715
  114 1.72994 0.00526147 -0.584996
  115 3.00610 0.0505078 -0.544440
  116 4.09787 0.0552277 -0.517550
  117 5.74066 -0.0117026 -0.554606
  118 6.55363 0.00414639 -0.389554
  119 7.51508 -0.00515650 -0.356542
  120 8.31828 -0.0205162 -0.292253
  121 8.93893 -0.0113228 -0.237813
  122 9.48707 -0.00191916 -0.212185
  123 9.85408 0.0146188 -0.182494
  124 10.3869 -0.0190918 -0.165843
  125 10.5554 -0.00250183 -0.0830765
  126 10.8003 -0.00403188 -0.0648442
  127 10.9936 -0.0128774 -0.0482256
  128 11.1326 -0.00948915 -0.0383273
  129 11.2902 -0.00167264 -0.0324183
  130 11.1207 0.0492759 -0.0123027
  131 11.3449 0.0151103 -0.0209529
  132 11.8565 -0.0189457 0.0208178
  133 12.5054 -0.0574521 -0.00373652
  134 13.1348 -0.103190 0.00244901
  135 13.8479 -0.139842 0.00650644
  136 14.5958 -0.211399 0.0116487
  137 15.3833 -0.261605 0.0241877
  138 16.1988 -0.274337 0.0186806
  139 16.9069 -0.327067 0.0182255
  140 17.5223 -0.283160 0.0375592
  141 18.2250 -0.247640 0.0617180
  142 19.0233 -0.187046 0.0665473
  143 19.7765 -0.166952 0.0553719
  144 20.5832 -0.0958969 0.0391169
  145 21.2607 -0.0637444 0.0499482
  146 21.8004 -0.00181211 0.0298019
  147 19.1987 -1.80099 -0.355232
  148 19.1848 -1.77717 0.362316
  149 19.9531 2.88537 -1.09991
  150 21.4642 1.27547 2.38987
  151 16.2306 -1.54374 -3.42208
  152 16.3562 -1.54384 3.30411
  153 15.5511 -0.682452 0.343425
  154 15.5536 -0.692719 -0.344152
  155 22.9007 0.812421 -1.94683
  156 19.1466 -0.673043 0.576520
  157 19.1392 -0.655616 -0.568996
  158 24.7470 5.61199 0.365662
  159 19.4832 -0.0299846 -2.27945
  160 14.2419 -1.15399 -1.50847
  161 14.2397 -1.14353 1.49282
  162 19.5511 -0.435054 2.08393
  163 18.3793 1.33246 1.32970
  164 7.45597 1.25410 -4.07737
  165 8.31339 1.18409 4.30384
  166 24.3411 0.233392 0.560569
  167 19.6629 -0.741900 -1.50029
  168 26.2017 5.77197 -0.404149
  169 17.6259 -0.491044 0.0801058
  170 17.6217 -0.488914 -0.0781802
  171 20.0232 -0.213002 -0.257872
  172 20.0961 -0.187656 0.224689
  173 13.4940 -0.213265 -0.223460
  174 13.4946 -0.210859 0.221807
  175 21.7231 -0.636620 4.33777
  176 17.7404 0.722050 -1.42899
  177 11.4881 -0.877629 -2.48752
  178 11.5232 -0.870925 2.46839
  179 12.8459 -0.450355 -0.791631
  180 12.8459 -0.444780 0.784250
  181 19.7710 -0.504789 1.27391
  182 17.8967 -1.23812 0.121046
  183 17.8277 -1.22881 -0.0885889
  184 20.5492 -1.97365 -0.0834000
  185 20.6486 -1.87986 -0.177267
  186 28.5404 6.69717 -0.674417
  187 20.3634 3.30134 1.03309
  188 20.4930 1.26434 -2.35796
  189 21.6827 -0.265401 -5.09303
  190 20.4460 -1.14247 -1.74832
  191 20.6150 -0.810062 2.01829
  192 17.0979 -1.94793 1.59032
  193 17.1075 -1.93513 -1.58412
  194 18.0972 0.222075 1.72854
  195 8.06893 -0.179851 -3.02502
  196 8.09119 -0.199243 3.00389
  197 32.4424 4.91186 0.680404
  198 19.3305 -1.14357 1.01188
  199 20.1061 -0.349565 -0.849774
  200 15.6397 -0.394886 -0.142039
  201 15.6392 -0.392382 0.141275
  202 19.1263 -0.244935 -1.59617
  203 21.8722 3.22986 -1.93517
  204 18.0312 1.61170 -0.267860
  205 11.4915 -0.434578 1.13811
  206 11.4729 -0.436345 -1.14841
  207 20.4818 -0.202261 0.486154
  208 19.7089 0.372800 2.33745
  209 15.9177 -1.18899 -0.653339
  210 15.7960 -1.12647 0.677509
  211 23.4284 3.47806 1.86576
  212 27.9802 3.61867 0.155760
  213 1.70337 1.39074 -1.02298
  214 1.56993 1.28575 0.861898
  215 11.2653 3.17095 7.34969
  216 19.1297 -1.26638 -0.822852
  217 20.5706 -0.194611 -0.440259
  218 17.8676 0.146937 -1.59016
  219 12.2209 -0.138447 -0.347764
  220 12.2239 -0.136809 0.343884
  221 17.0892 -0.812317 -0.0457524
  222 17.0967 -0.816542 0.0355637
  223 19.3184 -0.255528 1.36740
  224 22.6035 -1.31606 0.197579
  225 22.0886 4.58079 -0.574065
  226 17.3277 -1.69131 -0.663605
  227 22.1567 -0.377719 1.66837
  228 18.7684 -0.292497 0.117771
  229 18.7694 -0.289613 -0.117563
  230 17.1875 -1.68287 0.699903
  231 19.8126 -1.24564 1.44677
  232 28.4755 3.40395 -1.30097
  233 5.99213 3.58060 -5.19705
  234 16.3265 0.553633 0.335668
  235 19.7295 1.74586 1.95978
  236 21.2331 -0.139188 -2.17765
  237 19.7609 -0.702031 -1.97369
  238 10.0966 -0.345786 -1.44172
  239 10.1349 -0.340228 1.43543
  240 19.8118 -0.226960 -1.07693
  241 18.9021 -0.459808 0.329082
  242 18.8933 -0.458623 -0.320435
  243 3.67955 0.375187 -1.87210
  244 3.74902 0.329444 1.86688
  245 21.2625 -1.85044 -1.37875
  246 21.0829 -0.0482032 0.0772766
  247 21.1109 -0.0493855 -0.0808657
  248 19.2264 1.59323 -1.78515
  249 16.6960 0.303094 1.02763
  250 36.7418 5.89589 3.91779
  251 36.4914 4.15901 -2.48531
  252 25.7458 5.64182 -0.116474
  253 16.0382 -0.756451 4.60271
  254 14.6685 -0.472259 -4.82639
  255 16.7077 -0.341666 -0.0296140
  256 16.7056 -0.338965 0.0291429
  257 13.6233 -0.390008 0.462833
  258 13.6246 -0.395792 -0.468126
  259 20.4110 -0.200958 0.689262
  260 19.7377 -1.39630 -1.23118
  261 12.2418 -0.0321563 -0.0779173
  262 12.2432 -0.0316655 0.0772399
  263 19.4859 -0.773658 -0.967334
  264 7.84460 -0.265511 -1.98881
  265 7.88348 -0.266479 1.97221
  266 19.7008 -0.842683 1.61340
  267 14.9145 -1.58398 2.74432
  268 14.9587 -1.61263 -2.73633
  269 16.5968 0.615795 -0.478219
  270 14.3154 -0.235501 -0.149172
  271 14.3157 -0.233640 0.148354
  272 18.2516 -0.0509141 1.28657
  273 22.0055 4.07330 1.35158
  274 11.3287 -0.154360 0.606040
  275 11.3198 -0.155783 -0.612355
  276 20.3174 -1.68296 0.955615
  277 18.8084 -2.09804 -1.72740
  278 21.1387 -0.0774670 0.233804
  279 14.2313 -0.878045 -1.01428
  280 14.2021 -0.867537 1.00923
  281 26.5368 2.39696 6.47192
  282 11.9226 -0.955612 3.31082
  283 19.3794 2.73573 -0.117567
  284 25.0384 2.70338 -1.40544
  285 18.6714 -1.44668 0.437805
  286 18.8134 -2.15703 1.53519
  287 11.9651 -0.938598 -3.35328
  288 2.12878 2.61530 2.29773
  289 19.4889 -0.777177 0.984012
  290 25.8317 3.30438 1.19771
  291 21.3328 -0.0687033 -0.202621
  292 18.8998 0.655039 -2.05395
  293 18.8204 -1.05966 0.607672
  294 18.4099 -1.55997 -0.141877
  295 18.8160 0.859575 1.97371
  296 20.2129 -1.68517 -0.875698
  297 28.8225 5.68459 -0.403262
  298 18.8151 -1.01763 -0.583251
  299 15.8319 4.34175 -9.11251
  300 19.2980 -2.04040 -0.150060
  301 19.1546 -2.09533 0.375740
  302 13.8164 -1.27280 -2.16318
  303 12.1369 -0.0564644 -0.172577
  304 12.1391 -0.0554945 0.170750
  305 13.8198 -1.27320 2.14953
  306 20.3364 -0.0281314 -2.38728
  307 22.1533 -0.911663 -1.20602
  308 16.5912 -1.02013 -0.288418
  309 16.5771 -1.02228 0.295010
  310 20.2132 -1.73843 2.87008
  311 19.9886 -0.149386 0.816640
  312 24.6734 0.0336905 0.742198
  313 16.2072 -0.585507 -0.145782
  314 16.2075 -0.582937 0.144333
  315 14.6212 -0.401154 -0.286906
  316 14.6201 -0.396959 0.286127
  317 16.5020 0.209142 -0.995039
  318 21.7310 1.59601 -2.33108
  319 34.2739 9.15100 -4.13979
  320 19.9074 -0.144932 -0.0906110
  321 19.8934 -0.142700 0.0923947
  322 10.3814 0.0134388 4.13130
  323 14.5731 -0.690423 -0.646061
  324 14.5410 -0.687229 0.647387
  325 10.3807 -0.00891637 -4.11575
  326 20.5919 2.44275 -1.93484
  327 23.3349 1.14186 1.87923
  328 20.2309 -1.44468 -3.21261
  329 18.3768 -0.701527 0.313952
  330 18.3565 -0.695492 -0.305019
  331 19.7230 -0.384593 -0.495714
  332 18.2680 -0.0382911 -1.20455
  333 20.7421 0.100313 2.35682
  334 20.8481 -0.127923 -0.480879
  335 12.0954 -0.764906 1.65770
  336 12.0825 -0.769724 -1.67283
  337 19.1648 -0.0445729 2.15556
  338 11.3668 -0.106121 -0.354461
  339 11.3738 -0.105077 0.350434
  340 19.8559 -0.435304 0.733522
  341 23.7533 4.89532 -1.08263
  342 19.7091 -0.388382 0.512241
  343 20.8373 2.63552 1.94834
  344 19.9887 -0.363401 2.27614
  345 15.6116 -0.300320 0.0451239
  346 15.6124 -0.302562 -0.0456740
  347 18.7930 -0.0699386 -1.90911
  348 25.1816 5.32838 0.808815
  349 20.7010 3.83734 0.0408802
  350 12.7284 1.49670 -6.20854
  351 1.12821 0.567368 -0.756754
  352 1.25770 0.612355 0.823400
  353 -0.111437 0.119047 0.425776
  354 -0.0246937 0.0503979 -0.440422
  355 37.8594 2.62351 0.925856
  356 17.1817 -1.41423 -0.331525
  357 19.8764 -0.419115 -0.716627
  358 17.8060 -0.299434 0.0546696
  359 17.8039 -0.296533 -0.0547112
  360 18.9003 2.08985 -0.964798
  361 16.1938 -1.67186 1.30277
  362 1.32060 1.93604 -1.36454
  363 16.2139 -1.67247 -1.33100
  364 19.1671 2.18388 1.02680
  365 19.7739 -0.512643 -1.21869
  366 21.0547 -1.16169 -1.54720
  367 22.2387 4.76518 0.398140
  368 21.1174 -1.30342 1.32715
  369 8.23153 -0.219715 1.33647
  370 8.17583 -0.215586 -1.34701
  371 4.54925 0.127904 -1.81939
  372 4.60692 0.107269 1.81047
  373 16.7947 0.0399040 1.01008
  374 33.3231 9.51780 3.34485
  375 20.5205 -0.117033 -0.594190
  376 15.7305 -1.35909 -0.983355
  377 15.7136 -1.35439 0.981684
  378 19.6147 -0.442250 -1.50920
  379 22.6050 -1.09019 0.468527
  380 17.1808 -1.41240 0.345893
  381 25.0163 0.0912950 -1.68682
  382 13.4652 -0.122434 -0.0503940
  383 13.4662 -0.121267 0.0497853
  384 19.2167 -0.107464 -0.947054
  385 9.91260 -0.156890 -0.875677
  386 9.91986 -0.161582 0.863647
  387 23.1622 2.95498 -2.04626
  388 12.3960 0.890479 5.74508
  389 18.0170 -0.948657 0.230296
  390 18.0355 -0.946510 -0.231541
  391 21.1217 3.60677 -1.24777
  392 20.0867 -0.586756 -2.17587
  393 20.3054 -2.06409 1.45534
  394 16.6461 -0.445742 -0.0408785
  395 16.6434 -0.442992 0.0398048
  396 19.4163 -1.49352 0.888620
  397 21.0762 -0.0864014 0.361279
  398 12.6427 -0.490720 -1.00224
  399 12.6470 -0.490279 0.991953
  400 19.5853 0.656589 -2.30017
  401 18.5901 -0.385443 0.181478
  402 18.5898 -0.386085 -0.178479
  403 19.1263 -0.221351 1.77136
  404 17.6201 1.27050 0.455519
  405 19.9375 -0.831059 1.92391
  406 29.1189 6.15687 0.936450
  407 9.30304 -0.505292 -2.66074
  408 9.33082 -0.505713 2.63771
  409 4.09465 2.25728 -3.05360
  410 21.6845 -0.0446434 0.109397
  411 10.3273 -0.100166 -0.552020
  412 10.3423 -0.0980360 0.546375
  413 19.6362 -0.502114 1.48473
  414 17.7957 -1.94064 0.771425
  415 20.2766 -0.226117 0.353549
  416 20.4610 1.04588 2.42023
  417 4.31450 2.40340 3.20281
  418 17.8257 -1.93111 -0.695303
  419 18.4374 -1.72008 0.0220357
  420 5.61835 -0.113800 -1.66296
  421 5.66866 -0.118689 1.64998
  422 14.0753 -1.10453 -3.99634
  423 21.2465 -0.305363 2.13375
  424 14.0115 -1.12408 3.95768
  425 19.5812 -1.09066 -1.30532
  426 17.8993 1.19373 -1.00580
  427 19.5873 -0.833618 1.22926
  428 21.3078 -0.0765101 -0.253209
  429 0.577694 0.571132 0.174623
  430 4.12254 4.62907 4.57119
  431 18.6636 -0.0699835 0.904572
  432 15.3031 0.193393 0.431603
  433 15.6063 0.239933 -0.588214
  434 13.3201 -0.240769 -0.325953
  435 13.3203 -0.237478 0.323122
  436 19.3108 -1.49321 -0.828519
  437 19.4248 -0.374654 -1.99359
  438 15.3995 0.269467 -0.159931
  439 29.1547 6.91926 1.12469
  440 3.75515 1.31243 -2.27588
  441 4.16322 1.20569 2.44689
  442 18.0007 -0.636828 0.190429
  443 17.9932 -0.634575 -0.184991
  444 24.0481 5.40588 -0.0932642
  445 15.4268 5.86005 9.30995
  446 23.4142 -0.351674 -0.656934
  447 12.9807 -0.706578 -1.36128
  448 12.9858 -0.701144 1.34761
  449 12.9864 -0.313275 0.521857
  450 12.9851 -0.315876 -0.527786
  451 17.8051 0.381886 -1.63214
  452 21.8148 -0.0151510 -0.0749214
  453 17.2385 0.773504 0.909261
  454 22.2258 2.75638 2.15303
  455 18.4609 -1.37397 -0.355767
  456 20.2724 -0.213318 -0.342560
  457 21.4054 -0.0675500 0.233535
  458 21.7563 -0.0152296 0.0430598
  459 21.7788 -0.0191989 -0.0332201
  460 11.2354 -0.0259997 0.128167
  461 11.2305 -0.0263563 -0.129874
  462 20.2700 -1.27593 1.57361
  463 17.9870 0.697790 1.57935
  464 18.9265 0.0740504 -2.09580
  465 19.9725 -0.402802 0.923360
  466 29.6623 4.49733 -5.26548
  467 19.9850 -1.09887 -1.71783
  468 0.0858088 0.361206 0.0865778
  469 0.0885947 0.362850 0.0119551
  470 15.6129 -0.910183 0.521229
  471 15.5562 -0.899135 -0.516653
  472 25.3365 0.315463 2.71822
  473 6.92735 6.01176 -6.93403
  474 19.6572 -0.0532780 0.716495
  475 22.6393 -1.33374 -1.44650
  476 11.5632 -0.690473 1.92948
  477 24.0175 4.26678 -1.55001
  478 19.6931 -1.05600 1.45642
  479 16.3564 -0.799288 -0.210630
  480 16.3710 -0.785271 0.209406
  481 16.7897 0.0834593 -0.893516
  482 11.5254 -0.688306 -1.94397
  483 17.2711 -0.000402029 0.902726
  484 16.8317 -1.91998 -2.41097
  485 16.7870 -1.92292 2.41653
  486 20.3822 -0.123920 0.653557
  487 18.1896 1.70843 0.188536
  488 18.9945 0.263398 6.29064
  489 27.7621 5.73968 -0.0365219
  490 19.0856 -0.298838 0.186769
  491 19.0876 -0.297567 -0.191207
  492 14.3112 -0.270985 -0.194171
  493 14.3112 -0.268445 0.193080
  494 7.47532 0.379650 3.43531
  495 19.7701 -0.942347 -1.66838
  496 17.8668 -0.377458 0.0698730
  497 17.8650 -0.375715 -0.0692795
  498 15.4799 -1.65409 1.97532
  499 7.62846 0.496640 -3.52647
  500 19.8383 -1.60830 -0.940932
  501 0.298088 -0.0185820 0.233682
  502 16.9448 0.856819 0.0644993
  503 19.1698 -0.195785 -0.0639460
  504 19.1685 -0.199110 0.0630054
  505 15.4939 -1.65207 -1.99223
  506 22.6693 -1.19498 1.93657
  507 22.2637 0.812880 2.22440
  508 20.6498 -0.113657 -0.177449
  509 19.7771 -1.63190 0.950217
  510 11.8002 -0.0174357 -0.0204845
  511 11.8014 -0.0173084 0.0202215
  512 19.6934 -0.747562 -1.75529
  513 18.8920 1.39693 1.73965
  514 21.9796 0.545775 -2.19303
  515 11.7307 -0.0247499 -0.0714181
  516 11.7326 -0.0244403 0.0707696
  517 39.4829 5.69777 -5.14430
  518 19.7032 2.35867 1.54304
  519 20.6707 -0.101560 0.159083
  520 18.4812 -1.75722 0.0216875
  521 15.3003 -0.524810 0.274527
  522 15.3012 -0.529327 -0.274008
  523 21.6835 -1.30868 0.866134
  524 20.7163 -0.402762 -2.22012
  525 23.1124 4.60213 1.25080
  526 19.0985 0.326112 2.16975
  527 19.4676 -0.351201 0.333731
  528 18.9509 -2.00814 -2.28022
  529 19.5111 -0.474353 1.70841
  530 39.1343 1.78220 -0.726071
  531 21.5367 -1.61433 -0.310658
  532 20.5209 -0.107791 -0.0477153
  533 20.5250 -0.116747 0.0439935
  534 39.5320 2.65839 2.56292
  535 18.5814 -0.0101401 1.84540
  536 26.5930 4.36770 -0.854861
  537 19.7921 -0.520677 -0.909595
  538 8.40507 -0.0870048 -0.600513
  539 8.43529 -0.0828917 0.593632
  540 13.1634 -1.24064 -2.76948
  541 13.1712 -1.21958 2.74685
  542 19.4578 -0.335014 -0.329689
  543 21.1128 0.780950 -2.40011
  544 18.5189 -1.26200 0.425654
  545 19.7974 2.27838 -1.60649
  546 20.1432 -0.218544 0.880472
  547 25.5781 1.18824 0.0872500
  548 17.0734 -0.588793 -0.00265011
  549 17.0670 -0.586014 0.00166553
  550 18.6599 -0.875172 0.475026
  551 27.9221 5.40540 0.0113876
  552 19.5547 0.857048 2.25618
  553 8.25596 2.14252 5.11233
  554 19.1785 -1.15617 4.12727
  555 25.7297 1.04564 -4.49292
  556 20.0022 1.65783 -2.10932
  557 17.9256 -1.53520 -3.56369
  558 19.3876 -2.11672 -0.521304
  559 20.3167 -2.04348 -0.852504
  560 2.53550 3.17851 -3.01954
  561 20.4073 -0.235299 -0.570394
  562 30.9577 6.05768 -1.62348
  563 18.7666 -0.836532 -0.511735
  564 18.9418 -0.602066 0.421009
  565 18.9236 -0.587148 -0.407112
  566 12.5836 -0.0854170 -0.154160
  567 12.5852 -0.0842912 0.152762
  568 1.57979 0.197813 -0.972066
  569 1.68913 0.206647 0.996261
  570 9.34359 -0.451204 -2.03662
  571 9.42105 -0.453394 2.03142
  572 19.1958 -1.03125 -0.873287
  573 19.6282 -2.12502 0.577867
  574 20.1825 -1.90424 0.371384
  575 16.2938 -0.288797 -0.0438616
  576 16.2924 -0.286306 0.0435368
  577 15.5613 -1.62323 -3.05512
  578 17.5614 -1.42701 3.78363
  579 15.1612 -1.52448 3.07593
  580 19.6908 -0.430966 -2.14919
  581 11.9187 -0.218154 0.601411
  582 11.9133 -0.220586 -0.607564
  583 18.6150 1.02020 -1.74376
  584 18.6815 -0.0322434 -0.821356
  585 23.5096 5.18062 -0.582576
  586 15.1021 -0.239168 -0.0497321
  587 15.1019 -0.237289 0.0493988
  588 20.1007 -0.0548860 -0.475080
  589 13.5265 -0.485892 -0.647421
  590 13.5253 -0.483764 0.640564
  591 11.1892 0.550896 4.92491
  592 19.5662 -0.888779 -1.24483
  593 10.6834 -0.548649 3.52605
  594 19.2256 -0.987385 0.886942
  595 20.3373 -0.265255 0.625488
  596 20.1189 -0.155678 -0.160928
  597 13.6479 -0.185476 -0.137208
  598 13.6486 -0.183788 0.136171
  599 22.5264 4.55190 -1.11113
  600 10.6770 -0.525191 -3.54177
  601 19.1645 -0.817477 -0.724300
  602 17.1594 -0.312246 -0.0120296
  603 17.1574 -0.309485 0.0119450
  604 33.0943 4.49293 -0.769384
  605 10.9362 -0.0799417 0.335868
  606 10.9265 -0.0807634 -0.339662
  607 17.5648 0.390079 1.48495
  608 25.9028 2.06235 -0.706797
  609 11.9530 0.116812 -4.89519
  610 5.88096 0.176663 -2.62296
  611 5.93514 0.139234 2.60862
  612 14.9105 -0.901745 0.781712
  613 15.0806 -0.928271 -0.753575
  614 25.9996 5.22107 0.797758
  615 20.0269 -0.162408 0.148632
  616 16.7085 0.451009 -0.892302
  617 21.1673 3.84580 0.985609
  618 21.0790 3.99273 -0.655144
  619 17.3327 -0.971728 -0.0188388
  620 17.4738 -0.948029 -0.0454122
  621 12.5076 2.68895 -7.09731
  622 14.6965 -0.528058 -0.421026
  623 14.6966 -0.521499 0.418873
  624 39.1580 7.99418 5.98893
  625 19.6889 -0.636034 1.88031
  626 10.8441 -0.408831 -1.30505
  627 31.5376 6.75982 4.21289
  628 10.8708 -0.406188 1.29876
  629 19.0406 -0.739894 -4.85962
  630 12.8334 -0.0762976 -0.0571168
  631 12.8347 -0.0756133 0.0567199
  632 16.0303 0.132562 0.777006
  633 7.02392 -0.113088 -1.17649
  634 7.06965 -0.113334 1.16587
  635 17.1000 -1.22837 0.229508
  636 17.9961 -1.45228 0.0662927
  637 21.5188 -0.0359071 -0.208257
  638 11.4278 -0.0238667 0.0919931
  639 11.4245 -0.0242592 -0.0932629
  640 16.0290 -0.367946 -0.0525247
  641 16.0277 -0.365425 0.0517433
  642 18.6992 -2.06251 2.31212
  643 21.3670 2.39643 -2.16867
  644 13.9314 -0.682181 -0.838196
  645 13.9190 -0.670216 0.830979
  646 16.7633 -1.22903 -0.382908
  647 26.7528 5.88382 -0.0241071
  648 20.0556 -1.93028 -0.254939
  649 17.2314 -0.407891 0.0154028
  650 17.2284 -0.405339 -0.0152229
  651 24.0282 2.60617 1.81078
  652 20.0554 -0.272703 -0.957738
  653 17.3832 -0.0277543 -0.736853
  654 7.84280 -0.265696 -2.54911
  655 7.87025 -0.274278 2.52568
  656 16.7323 -1.46698 -0.686663
  657 25.3028 5.67532 0.0288471
  658 19.3915 2.63798 -0.694978
  659 12.5332 -0.129908 -0.290937
  660 12.5351 -0.128027 0.287933
  661 18.2423 -0.503931 -0.174785
  662 18.2459 -0.505035 0.179331
  663 34.8795 4.58331 1.99822
  664 21.9506 -0.0456373 0.0612138
  665 21.0325 -0.0708668 0.349772
  666 20.9328 -0.0743463 -0.403280
  667 19.7881 -1.83376 0.539384
  668 14.1668 -0.178832 -0.0686994
  669 14.1673 -0.177361 0.0682634
  670 20.9743 3.39395 1.50802
  671 27.2456 6.10076 -0.139229
  672 14.5662 -1.11775 -1.18975
  673 14.5594 -1.10583 1.18232
  674 18.5108 -1.91246 -0.196664
  675 19.3855 1.15164 -2.11907
  676 23.4265 0.0481501 1.16254
  677 15.1156 -0.294160 -0.124412
  678 15.1153 -0.291905 0.123626
  679 13.0802 -1.16359 -2.50145
  680 19.5936 -1.88860 -0.350678
  681 16.1626 -1.79650 2.17358
  682 7.59883 2.43763 -4.92386
  683 14.9885 -1.41332 1.67335
  684 18.0473 0.00422535 0.686275
  685 13.0906 -1.14983 2.48239
  686 19.1523 -0.834577 0.733157
  687 14.9968 -1.40806 -1.69115
  688 15.0165 0.181568 0.161938
  689 11.5834 -0.336173 0.919092
  690 11.5728 -0.336857 -0.926994
  691 16.1769 -1.84346 -2.19935
  692 20.1270 -1.31486 -1.52422
  693 18.4129 -0.236898 -0.0430421
  694 18.4156 -0.239902 0.0432140
  695 20.5990 -1.29780 1.52855
  696 18.6639 -1.95248 0.266721
  697 22.7611 2.08828 2.17918
  698 20.4596 -0.371884 2.26808
  699 19.6853 -0.693113 1.41591
  700 18.5746 1.52126 -1.32234
  701 22.6115 3.83163 1.71370
  702 19.4687 -0.263183 -1.33391
  703 19.4932 -0.629396 0.780141
  704 19.9372 3.14609 0.376755
  705 19.7936 -0.323973 1.18085
  706 6.09297 4.11357 5.13961
  707 18.4556 -2.11810 -1.25343
  708 21.3756 0.398453 2.32519
  709 21.6502 -0.661017 -1.74454
  710 21.8087 -0.0156177 0.120681
  711 19.6933 -0.660729 -1.13719
  712 18.4771 -2.13524 1.12157
  713 36.7829 3.25394 -0.549060
  714 10.4620 -0.0520496 0.352439
  715 10.4486 -0.0526613 -0.356437
  716 20.0472 -0.341115 -0.558073
  717 21.9530 -0.0107557 -0.116110
  718 16.6967 -1.49014 0.690798
  719 20.2007 -0.739939 2.07688
  720 31.3885 7.20602 -1.78650
  721 19.1454 -1.38450 0.783860
  722 21.3512 -1.39350 -1.02368
  723 19.5022 -0.611294 -0.768267
  724 21.9751 -0.0235834 -0.0431312
  725 19.6301 0.00316200 2.31111
  726 0.853223 0.585771 0.985579
  727 22.5934 -0.914062 -3.02331
  728 24.4621 1.40595 1.27770
  729 20.2843 -2.06154 0.731629
  730 14.0272 -0.359415 0.348071
  731 14.0284 -0.364802 -0.350401
  732 19.5211 9.03451 -9.77774
  733 20.6120 -1.35046 -1.43050
  734 14.9514 0.0615121 -0.309352
  735 17.7802 0.0905495 1.45718
  736 19.8203 -0.980575 1.69870
  737 18.9997 -1.60096 0.491982
  738 19.9141 -1.80147 -2.48236
  739 18.8728 -1.49340 -0.519299
  740 22.5193 -1.07861 -0.543609
  741 20.7139 -0.144978 0.332003
  742 18.2931 -1.10186 0.324988
  743 33.9723 6.80799 -3.53365
  744 19.6058 -0.504191 0.629020
  745 19.2118 0.311514 -2.23119
  746 16.5979 -0.198277 5.49342
  747 20.6616 1.67382 2.30592
  748 17.7620 -1.41063 0.0327877
  749 13.5075 -1.09364 -1.81447
  750 13.5066 -1.08996 1.79733
  751 18.7137 2.10427 -0.309893
  752 19.1704 -0.218006 2.01026
  753 19.4278 -0.456034 -1.73919
  754 18.3150 -1.12348 -0.332320
  755 17.6829 -1.59901 0.298096
  756 20.0995 3.34620 -0.431102
  757 18.9749 -1.64180 -0.416539
  758 19.0166 -1.19920 0.753284
  759 19.3381 -0.221535 0.129367
  760 19.3521 -0.214503 -0.128911
  761 26.0260 5.79070 0.285225
  762 21.3872 -1.80807 -0.377649
  763 19.7553 -0.589153 1.12844
  764 20.7306 -0.143656 -0.305402
  765 20.7650 0.145978 -2.37844
  766 23.8474 1.22248 -1.58438
  767 11.0265 -0.0159954 -0.161343
  768 11.0333 -0.0158081 0.159332
  769 0.141919 -0.419159 -0.303579
  770 20.1524 -0.0170304 0.441350
  771 18.2456 -0.0380395 -1.62193
  772 18.9385 -0.176167 1.44935
  773 17.6659 2.03749 8.16742
  774 21.5856 4.50063 -0.0527943
  775 15.2239 -1.12177 0.898232
  776 2.35801 0.0656102 -0.977232
  777 2.44281 0.0493846 0.988285
  778 18.7461 -0.134756 -1.62642
  779 15.2712 -1.13384 -0.897245
  780 20.6037 -0.158958 0.260117
  781 10.0423 -0.448783 1.74063
  782 9.94986 -0.447502 -1.74335
  783 19.6065 -0.488547 -0.613445
  784 12.0577 -0.329624 -0.795861
  785 12.0634 -0.327177 0.787359
  786 20.4596 -0.174224 -0.672371
  787 15.2888 -0.425711 -0.217740
  788 15.2884 -0.422485 0.217691
  789 22.3796 -0.141891 -1.76544
  790 19.9637 -0.203198 -2.33646
  791 9.64161 -0.0690744 -0.454184
  792 9.66255 -0.0684439 0.448134
  793 0.298675 0.251491 -0.562275
  794 0.394607 0.264662 0.593668
  795 15.7483 0.0702571 -0.565578
  796 18.2763 -2.05511 -0.889363
  797 -0.219871 -0.155506 0.370121
  798 -0.189446 -0.177090 -0.363117
  799 19.0521 -0.359947 0.268654
  800 20.7208 -1.60395 -0.922902
  801 21.2153 3.16681 -1.76771
  802 20.7047 -0.141046 -0.246308
  803 45.9246 9.02286 -8.62247
  804 19.0485 -0.358335 -0.265459
  805 28.8985 5.58807 0.370748
  806 20.3018 0.595606 -2.42773
  807 22.5676 1.69921 -2.21866
  808 3.37020 -0.0405669 -0.913839
  809 3.44650 -0.0463262 0.911819
  810 12.2325 -0.194356 0.463401
  811 12.2289 -0.196133 -0.468525
  812 11.5422 -0.0340586 0.0850347
  813 11.5399 -0.0343950 -0.0859224
  814 22.7348 3.84976 -1.70826
  815 12.9867 -0.0943057 -0.121386
  816 12.9880 -0.0931637 0.120450
  817 19.2328 -0.192706 -2.09523
  818 28.5923 2.64192 1.99054
  819 17.0642 0.364751 -1.24568
  820 5.56951 -0.0535193 0.991538
  821 5.51305 -0.0539758 -1.00045
  822 22.9730 0.490959 5.77367
  823 20.0215 -0.344161 0.576006
  824 17.5041 1.14714 -0.519807
  825 7.72919 -0.0166619 0.683375
  826 7.68303 -0.0128341 -0.689255
  827 11.8564 -0.0714951 -0.223927
  828 11.8598 -0.0704627 0.221296
  829 2.07591 1.87461 1.51834
  830 18.3636 0.428952 1.86831
  831 20.5521 3.04191 -1.49841
  832 22.2723 2.59003 -2.17480
  833 14.3140 -0.568960 -0.569967
  834 14.3037 -0.564001 0.568397
  835 22.9953 4.96328 0.793584
  836 20.0352 -0.136611 -0.0364269
  837 20.0353 -0.135490 0.0400764
  838 19.6814 -0.576199 -1.41723
  839 16.3330 -1.11156 0.464266
  840 18.1549 -2.04279 0.899389
  841 21.5676 -1.76693 1.43150
  842 16.1516 -0.478670 -0.0961364
  843 16.1506 -0.476338 0.0949242
  844 18.4452 1.70441 0.845798
  845 17.2432 0.222590 -1.34927
  846 4.80152 5.26250 5.34411
  847 17.7423 -1.58659 -0.252944
  848 17.7885 -0.796342 0.157370
  849 17.7984 -0.797138 -0.158072
  850 19.5751 -0.282417 2.21544
  851 19.4955 -1.27304 -1.12883
  852 17.3007 -1.16101 -0.0944329
  853 41.2687 1.33991 -2.10192
  854 16.4171 -1.57629 1.00181
  855 16.4060 -1.59785 -1.02061
  856 19.5796 -0.227033 1.13801
  857 29.9582 7.64730 -1.35651
  858 15.3426 -1.42326 -1.30639
  859 17.0782 -1.93608 1.19231
  860 15.3354 -1.40516 1.29306
  861 16.6767 -0.682384 -0.0953674
  862 16.6753 -0.679423 0.0940110
  863 2.30360 1.03748 1.32942
  864 21.0649 1.58060 -2.35394
  865 15.9460 -0.639213 -0.215585
  866 15.9482 -0.632126 0.216573
  867 15.7133 -0.266010 -0.0248309
  868 15.7125 -0.263825 0.0245654
  869 17.4442 -0.336967 0.0360788
  870 17.4419 -0.334276 -0.0361045
  871 13.8944 -0.293001 -0.304217
  872 13.8945 -0.289438 0.302449
  873 16.0219 -0.866529 -0.350706
  874 16.0232 -0.859655 0.352100
  875 0.350616 -0.285506 -0.0839220
  876 24.5416 4.60796 1.39096
  877 21.0919 -0.727440 -1.96295
  878 17.0679 -1.90858 -1.20780
  879 18.4866 -0.583850 0.280101
  880 18.4778 -0.576990 -0.274140
  881 20.1359 0.0327446 2.38442
  882 22.1748 -1.58274 -0.653290
  883 19.7248 1.27248 -7.04767
  884 8.56852 -0.115472 3.41584
  885 -0.456500 0.200589 -0.187210
  886 -0.409011 0.225590 0.213718
  887 2.28260 1.10380 -1.35495
  888 19.7656 -0.549480 0.907082
  889 20.9299 -0.115840 -0.388110
  890 18.7609 -1.79108 2.90200
  891 8.54715 -0.104456 -3.43124
  892 20.9131 -1.69598 0.724878
  893 23.5330 -0.755810 2.41548
  894 16.3920 0.0624371 0.601145
  895 19.0686 1.81487 1.44969
  896 10.1035 -0.579453 2.53387
  897 10.0623 -0.584265 -2.55318
  898 12.1492 -0.607526 -1.41179
  899 13.0195 -0.611574 -4.38521
  900 20.8410 -0.474823 2.16205
  901 28.9886 6.67839 0.627611
  902 20.8719 0.812100 2.40039
  903 19.7367 -0.408405 -1.28537
  904 13.3073 -0.548154 4.49635
  905 25.3360 4.64388 -1.13173
  906 2.34366 2.03641 -1.89192
  907 17.9933 -0.0402202 -0.654639
  908 12.1618 -0.602125 1.39714
  909 14.9888 -0.345470 0.195753
  910 14.9892 -0.348243 -0.196464
  911 19.5259 -1.26644 1.16049
  912 20.4338 -0.100183 0.106304
  913 14.9054 0.153056 -5.48366
  914 21.6174 -0.0372399 0.184973
  915 21.4152 -0.0293394 -0.230609
  916 15.3475 0.124801 -0.517476
  917 20.5660 -0.0791995 -0.394059
  918 15.0689 -0.732539 -0.505326
  919 15.0789 -0.720747 0.506507
  920 -0.544803 0.172927 -0.320116
  921 -0.729064 0.104119 0.329754
  922 20.4350 -0.0912414 -0.106148
  923 6.36238 -0.137305 2.29876
  924 6.31844 -0.122020 -2.31354
  925 21.5930 3.17393 1.87780
  926 40.2564 0.722113 0.660087
  927 20.2567 2.26592 1.92788
  928 23.3713 -0.851269 0.456604
  929 20.0775 -1.10596 1.72500
  930 25.0605 5.28161 -0.857709
  931 14.9744 0.0518798 0.389236
  932 19.3461 -0.432264 -0.405192
  933 19.9558 1.07523 -2.32936
  934 24.5286 0.669873 -0.753070
  935 18.7991 -1.15812 -0.621249
  936 9.08598 -0.0574929 -0.511220
  937 9.09760 -0.0554954 0.503224
  938 19.8882 -0.449255 -1.03417
  939 0.584921 0.769038 0.0693127
  940 19.0804 -1.97627 0.0103684
  941 16.0793 0.454334 -0.0537032
  942 24.8438 5.52425 -0.571531
  943 3.74791 2.80556 -3.24080
  944 18.9411 -0.140035 -1.29914
  945 12.7890 -0.234313 -0.427592
  946 12.7904 -0.231357 0.423063
  947 0.0895979 -0.570520 0.443745
  948 12.6702 -0.970401 -2.02885
  949 19.4209 -1.11313 -1.08970
  950 11.4768 0.0242811 -0.0341604
  951 11.4782 0.0244388 0.0338418
  952 19.4158 2.36335 -1.16790
  953 21.3028 -0.0388653 -0.0377403
  954 21.3015 -0.0399688 0.0483664
  955 12.6742 -0.967155 2.01291
  956 19.5818 -0.0205609 -0.519979
  957 22.7663 0.163454 1.72272
  958 20.1646 -0.259652 0.452401
  959 2.96780 0.810647 -1.72315
  960 20.9805 -0.106465 0.354051
  961 18.6854 0.143672 2.01088
  962 19.7157 2.74725 1.03956
  963 19.8285 0.232118 -2.39101
  964 13.3973 -0.750280 -1.19273
  965 21.5913 -0.750625 1.69236
  966 13.4053 -0.746763 1.17866
  967 0.548738 0.626226 0.0358686
  968 2.11604 0.406387 1.25847
  969 10.7246 -0.206842 0.836946
  970 10.7106 -0.207306 -0.842844
  971 19.3591 -0.441846 0.423507
  972 20.6134 3.62107 0.583828
  973 10.4211 0.989126 -5.15950
  974 17.2635 -1.09139 0.0696631
  975 16.1948 -1.70984 -1.57143
  976 23.8004 4.59192 1.38417
  977 18.2509 -0.305288 0.0657939
  978 18.2505 -0.303210 -0.0658145
  979 20.1074 -0.350647 -0.758703
  980 18.2587 1.56776 -0.781160
  981 43.8132 12.6027 8.51347
  982 3.54779 0.226058 -1.69988
  983 3.61383 0.188588 1.70472
  984 0.263121 -0.495631 0.0133544
  985 18.3384 1.00591 1.60315
  986 16.1861 -1.71953 1.55808
  987 20.2122 -0.943971 -1.93540
  988 22.0141 1.80793 2.36168
  989 21.3475 -1.72203 -1.82279
  990 31.3100 6.61963 2.03435
  991 17.8873 -0.274210 0.00508994
  992 17.8849 -0.271450 -0.00502552
  993 21.0779 -0.844951 1.87298
  994 1.39660 1.99890 2.29341
  995 8.98828 -0.203221 1.20676
  996 8.95670 -0.200672 -1.22188
  997 10.9015 -0.560276 1.63896
  998 10.8615 -0.552346 -1.64675
  999 12.3412 -0.536813 1.16232
  1000 13.4856 -0.121361 -0.0569694
  1001 13.4865 -0.120365 0.0566652
  1002 35.9416 10.9066 -6.76095
  1003 31.9251 7.98132 3.04795
  1004 12.3315 -0.540021 -1.17400
  1005 21.7233 -0.0892305 2.05589
  1006 19.1643 1.99119 -1.40019
  1007 13.5331 -1.15071 3.62693
  1008 17.5608 -2.07206 -1.85827
  1009 20.1033 -0.154580 -0.774892
  1010 8.83888 0.648596 4.17267
  1011 11.3608 -0.873004 2.89998
  1012 17.4387 0.878676 -0.998513
  1013 20.2956 -0.392469 -2.28769
  1014 27.1293 9.94272 11.2732
  1015 16.3617 0.484154 0.705681
  1016 22.7388 4.97461 -0.0944585
  1017 16.8992 0.633846 -6.25004
  1018 16.9733 -1.80401 -1.01410
  1019 21.9883 -0.00934955 -0.0957587
  1020 20.7049 1.91021 -2.24813
  1021 11.6550 -0.0873981 0.292576
  1022 11.6501 -0.0883134 -0.296000
  1023 0.406283 -0.00300125 -0.503833
  1024 13.3900 -0.642234 -0.989494
  1025 11.3483 -0.884579 -2.92478
  1026 13.3773 -0.640262 0.976472
  1027 19.8145 -0.594059 2.11478
  1028 17.7342 -1.10449 0.101619
  1029 18.5052 0.333292 -1.94302
  1030 19.0267 2.38358 0.407914
  1031 26.5867 1.45395 0.551685
  1032 19.6887 -1.48767 1.12873
  1033 12.1437 -0.994887 -2.22116
  1034 18.3207 0.638287 -1.81115
  1035 13.6635 -1.13390 -3.64976
  1036 26.6065 5.86414 -0.0390028
  1037 17.7329 1.15196 0.908135
  1038 22.9697 -0.144871 -1.39348
  1039 17.0807 -1.80360 0.916286
  1040 19.6422 -0.611287 1.65368
  1041 19.5468 -1.02190 1.24926
  1042 19.4405 -0.967204 1.09697
  1043 24.1452 3.04398 -1.84841
  1044 19.3264 -0.305441 1.64647
  1045 17.5254 -2.07797 1.82579
  1046 18.7131 -0.754890 0.429671
  1047 12.1504 -0.996276 2.20616
  1048 17.4986 -1.30527 -0.0975629
  1049 9.93995 -0.474967 -3.10436
  1050 14.4096 -1.50809 2.43481
  1051 19.7323 -0.124692 -0.890132
  1052 19.1418 -0.213148 -1.85633
  1053 16.5426 -1.33220 -0.582517
  1054 9.95746 -0.490314 3.07677
  1055 17.6757 0.0358927 -1.26728
  1056 13.0562 -0.898431 -1.55760
  1057 24.2110 5.21668 0.900638
  1058 5.13741 0.904596 -2.88242
  1059 43.1291 3.05720 4.24696
  1060 9.49627 0.754152 -4.38136
  1061 19.4477 -1.60595 -0.770158
  1062 13.0582 -0.890059 1.54269
  1063 17.4612 0.172472 1.40948
  1064 9.48918 -0.206655 0.997567
  1065 9.48309 -0.211903 -1.00901
  1066 19.6198 -0.538638 -1.95579
  1067 21.1578 -0.0822110 0.156630
  1068 20.5818 -0.0377732 0.400227
  1069 20.2234 0.678920 2.41707
  1070 18.8267 -0.141635 1.73553
  1071 14.7574 1.54341 6.77369
  1072 22.1498 -0.00712327 0.0495883
  1073 20.2822 2.76753 1.53605
  1074 16.9304 0.231793 1.20878
  1075 20.8949 -0.0702220 0.387956
  1076 12.9008 -0.156178 -0.234150
  1077 12.9021 -0.154316 0.232132
  1078 8.06992 -0.240758 -1.66069
  1079 8.10619 -0.249347 1.64713
  1080 16.9832 0.829746 0.505218
  1081 26.7310 1.27933 -1.56288
  1082 24.5465 -0.134981 -3.38334
  1083 19.0376 -0.0139359 -0.534442
  1084 14.4187 -1.51983 -2.45495
  1085 16.5767 -1.26663 0.507073
  1086 19.1615 -0.0413510 0.558464
  1087 20.2407 -1.45625 -1.31051
  1088 12.0648 -0.0365845 0.143467
  1089 12.0629 -0.0371754 -0.144616
  1090 19.4094 -1.65205 0.770116
  1091 18.4103 -0.358737 0.112392
  1092 18.4074 -0.358905 -0.110882
  1093 17.8894 -1.81275 0.504092
  1094 23.4046 -0.772641 0.0639404
  1095 9.89722 -0.0204749 -0.281930
  1096 9.91510 -0.0197593 0.278396
  1097 15.7281 -0.970938 -4.18116
  1098 16.5772 -0.397295 0.0370872
  1099 16.5793 -0.400029 -0.0378734
  1100 10.1226 5.27763 7.43059
  1101 23.3491 1.89911 -2.03018
  1102 3.21565 1.62771 -2.11044
  1103 20.1816 -0.275398 -0.438085
  1104 5.13107 1.82829 -3.29926
  1105 10.8013 -0.702147 -2.11789
  1106 22.1791 -0.0111406 0.0276427
  1107 22.1913 -0.00964149 -0.0210002
  1108 19.7423 -1.11646 -1.49289
  1109 17.4932 -1.95168 -2.61533
  1110 5.13822 0.769907 2.74686
  1111 21.4430 2.13416 2.21628
  1112 19.5818 -0.167759 -0.0437241
  1113 19.5832 -0.168076 0.0458305
  1114 21.5760 -1.41588 3.14934
  1115 21.8875 4.44133 0.867111
  1116 12.6268 -0.328562 -0.619556
  1117 12.6290 -0.326731 0.614004
  1118 9.74454 1.15009 5.20147
  1119 18.4639 0.0877375 -1.88487
  1120 5.63114 1.86968 3.56259
  1121 24.3592 -0.466905 -0.812427
  1122 23.5060 5.28733 0.279605
  1123 16.0324 -1.29641 0.745745
  1124 14.3465 0.0641320 -0.0757316
  1125 20.6988 -0.164153 0.511073
  1126 21.5220 -0.0163772 0.201211
  1127 4.19874 0.0112935 -0.828664
  1128 4.26923 0.00884688 0.822269
  1129 16.3369 0.255606 -0.891918
  1130 17.1519 -0.504783 0.0121504
  1131 17.1472 -0.501760 -0.0123756
  1132 1.74213 2.30062 -2.42788
  1133 2.83205 5.48091 -5.08598
  1134 17.3915 -0.681839 -0.0533280
  1135 17.3995 -0.682508 0.0526487
  1136 18.0235 -0.422704 0.127535
  1137 18.0209 -0.421373 -0.125632
  1138 4.55819 2.93952 3.55349
  1139 13.8738 -0.187207 -0.106899
  1140 13.8745 -0.185669 0.106167
  1141 17.6244 1.31883 -0.0223229
  1142 23.5025 2.62228 -7.85164
  1143 21.8157 3.79477 -1.48342
  1144 19.9604 -0.756736 -2.01777
  1145 19.6751 -0.969852 -1.49951
  1146 16.0465 -1.30933 -0.759747
  1147 15.8231 0.0446725 0.550642
  1148 18.0755 1.11526 -1.33831
  1149 17.7967 0.944246 1.27428
  1150 18.7002 -0.731738 -0.422940
  1151 17.7826 -1.08127 -0.113898
  1152 16.0538 -1.06453 -0.541723
  1153 19.2229 -0.109012 1.04240
  1154 35.0404 3.55994 0.501556
  1155 19.3785 -0.407328 1.90073
  1156 19.3648 1.27326 2.03452
  1157 17.9766 -1.78086 -0.330211
  1158 1.98570 0.375089 -1.21090
  1159 18.3153 -0.842919 -0.340946
  1160 11.5656 -0.0249878 -0.00555433
  1161 11.5666 -0.0249004 0.00544378
  1162 22.5554 -0.594105 1.22579
  1163 21.5056 -1.80308 0.504042
  1164 31.0613 5.62801 1.28236
  1165 6.78198 -0.0190766 -0.698770
  1166 6.83051 -0.0175037 0.692614
  1167 16.1848 -0.331441 -0.0421127
  1168 16.1835 -0.328933 0.0415402
  1169 18.3838 -1.62897 0.134076
  1170 14.4891 0.0568130 0.246985
  1171 18.8440 -1.34060 0.611448
  1172 0.968699 1.15349 -0.462164
  1173 3.18895 1.64700 2.06754
  1174 12.4499 -0.651819 4.04712
  1175 21.7014 4.18454 -1.05669
  1176 20.9806 -0.0516516 -0.305599
  1177 22.2829 -0.0285379 0.0215429
  1178 22.3101 -0.0418703 -0.0152257
  1179 12.1241 -0.0390993 -0.0214800
  1180 12.1254 -0.0388166 0.0212375
  1181 19.9907 1.28451 2.32586
  1182 30.1248 5.23429 -0.109897
  1183 20.5522 3.43083 -1.04854
  1184 15.4455 -1.11349 4.15340
  1185 12.3832 -0.623056 -4.04035
  1186 13.6533 -0.948676 -1.38442
  1187 19.3624 -0.520686 0.526884
  1188 27.2270 5.95026 -0.127882
  1189 13.6526 -0.942245 1.37145
  1190 19.8382 -0.319708 0.399815
  1191 17.2801 0.625699 1.21270
  1192 19.2768 0.594933 2.22187
  1193 27.9196 6.27061 0.407253
  1194 16.2209 -0.430911 0.0822452
  1195 16.2224 -0.433525 -0.0833076
  1196 20.0749 -0.354096 0.786308
  1197 11.3281 -0.135907 0.463525
  1198 11.3201 -0.137377 -0.468706
  1199 19.6597 -0.239111 -0.195076
  1200 7.94896 4.67959 -7.13754
  1201 17.0036 -0.945843 -4.44296
  1202 15.7385 -0.509494 -0.187091
  1203 15.7394 -0.506645 0.187059
  1204 21.2650 -0.0767121 0.137024
  1205 19.9764 -0.232777 0.321860
  1206 1.00111 1.18469 0.826153
  1207 21.9385 -0.0157628 0.110529
  1208 2.44373 2.98440 2.95852
  1209 19.4706 -0.263274 -0.247046
  1210 -0.0366005 -0.493256 -0.429157
  1211 13.5408 -1.31861 -3.12061
  1212 13.4977 -1.28565 3.08673
  1213 21.9393 -0.0306905 -0.120539
  1214 18.4386 -0.970372 -0.393688
  1215 21.2432 -0.0675173 -0.144233
  1216 16.6176 -0.545021 -0.0520172
  1217 16.6150 -0.542360 0.0504495
  1218 19.6458 -0.236903 0.184863
  1219 18.3014 -0.826942 0.337349
  1220 17.5542 -0.560953 -0.0902114
  1221 17.5614 -0.563177 0.0927867
  1222 21.2314 -0.0697186 -0.118991
  1223 18.1575 -1.89616 -2.96523
  1224 20.7190 -0.0981276 -0.125576
  1225 19.5609 -0.271840 0.261042
  1226 13.1291 -0.162419 -0.168496
  1227 13.1302 -0.160725 0.167099
  1228 14.8624 -0.230597 -0.0752851
  1229 14.8623 -0.228708 0.0746895
  1230 24.7713 3.83880 1.60949
  1231 20.7728 -1.57973 1.05186
  1232 14.1237 -0.0473367 5.16141
  1233 10.7563 -0.0244209 0.177370
  1234 10.7471 -0.0246542 -0.179565
  1235 19.5326 -0.352124 1.44349
  1236 18.7598 -0.259869 0.0707813
  1237 18.7614 -0.258721 -0.0707338
  1238 21.3239 4.20574 0.488400
  1239 19.7994 -2.06232 2.27776
  1240 10.8580 -0.169551 0.659948
  1241 10.8466 -0.171000 -0.665896
  1242 18.7168 -0.438540 0.237435
  1243 18.7130 -0.441294 -0.232420
  1244 19.3530 -0.513179 -0.510306
  1245 17.4064 0.000978776 0.657580
  1246 31.1588 7.72945 -2.32980
  1247 19.6743 -0.705793 -1.32169
  1248 3.12022 0.798594 1.77792
  1249 20.3531 -1.07089 1.82904
  1250 15.8348 0.326577 -0.486778
  1251 1.09384 0.882268 0.573056
  1252 27.2685 2.87217 0.207609
  1253 19.8387 -0.891877 -1.81846
  1254 15.9195 0.210077 0.744291
  1255 10.8823 -0.702826 2.11163
  1256 20.2184 -1.55274 1.19413
  1257 29.9131 5.37736 1.23331
  1258 6.51597 1.01136 3.52191
  1259 20.3637 -0.218965 -0.674287
  1260 40.6253 0.442755 -0.422351
  1261 42.1037 0.643195 1.90183
  1262 45.1505 1.58872 -4.48011
  1263 19.6180 -0.600241 -1.60693
  1264 19.6505 -0.884238 1.40901
  1265 19.9961 -1.41133 1.36794
  1266 -0.594724 0.0570467 0.385984
  1267 -0.544791 0.0421508 -0.415839
  1268 19.5124 -2.14438 -0.936169
  1269 20.0441 -2.01288 -1.50918
  1270 14.6104 0.0843004 -0.306162
  1271 19.4438 -2.18632 1.52168
  1272 20.7232 -0.970082 -1.86388
  1273 0.311326 0.574413 -0.0199072
  1274 16.6275 -0.301308 0.0445455
  1275 16.6291 -0.303913 -0.0446652
  1276 20.6989 -0.142710 0.468432
  1277 19.8399 -0.313207 -0.378388
  1278 18.5958 -2.03254 -0.408711
  1279 16.8359 -0.927452 0.157094
  1280 16.7451 -0.915349 -0.186130
  1281 19.9596 -0.404053 1.04659
  1282 20.4396 -0.739097 -2.09124
  1283 1.13778 0.920251 -0.542365
</Section>

newXOutput 3

<Section columns = "stress_xx | stress_yy | stress_xy">
  1 44.7430 0.00990523 0.0973536
  2 44.7492 0.0102110 -0.0977707
  3 22.6978 -0.0148475 -0.0353454
  4 -0.295366 -0.294358 -0.424144
  5 84.1430 30.7926 25.7694
  6 83.3090 32.0291 -26.0463
  7 -0.342358 -0.281848 0.448437
  8 22.6959 -0.0149508 0.0352166
  9 45.0986 -0.0659150 0.0328121
  10 44.9815 -0.108146 -0.0150294
  11 44.8404 -0.0638032 0.119777
  12 44.7028 -0.0955316 0.0467889
  13 44.4103 -0.0774732 0.189412
  14 44.1493 -0.0802229 0.146385
  15 43.5638 -0.0718586 0.267792
  16 42.7605 -0.0383746 0.391103
  17 42.0371 -0.0473858 0.428352
  18 40.9922 -0.0778868 0.510074
  19 39.5772 0.00409068 0.743629
  20 38.2687 -0.0576678 0.698165
  21 36.8218 -0.0818710 0.972121
  22 34.7262 0.0592956 0.836971
  23 33.2412 0.0805345 0.982087
  24 31.3073 0.141220 0.761677
  25 29.9839 0.135007 0.764681
  26 28.0631 0.201485 0.387648
  27 27.6656 0.319394 0.413516
  28 27.4293 0.254646 -0.121328
  29 27.7606 0.135134 -0.270441
  30 28.3665 0.140129 -0.330352
  31 29.8032 0.183584 -0.662695
  32 31.1978 0.144603 -0.845039
  33 33.2723 0.0224757 -1.00677
  34 34.9372 -0.0251423 -0.927379
  35 36.7352 -0.0662309 -0.920730
  36 38.3752 -0.0444331 -0.655797
  37 39.8072 -0.0433513 -0.567689
  38 41.0049 -0.0750624 -0.482885
  39 42.0925 -0.0496530 -0.345542
  40 42.7900 -0.0547883 -0.370713
  41 43.4629 -0.0745164 -0.272944
  42 44.1154 -0.0910673 -0.129767
  43 44.4550 -0.0709466 -0.145663
  44 44.6511 -0.0363199 -0.0951701
  45 44.5550 -0.00865742 -0.0862864
  46 45.0380 -0.111407 0.00730902
  47 45.1182 -0.0696400 -0.0339189
  48 43.4549 0.000782367 -0.0598444
  49 42.3607 -0.134797 -0.101492
  50 41.0430 -0.209238 -0.0754078
  51 39.4483 -0.333825 -0.100903
  52 37.9524 -0.373380 -0.129400
  53 36.3668 -0.492166 -0.121290
  54 34.9732 -0.561935 -0.0735563
  55 33.7521 -0.648447 -0.0354112
  56 32.3474 -0.543202 -0.0363740
  57 30.7296 -0.517717 -0.0475435
  58 29.1674 -0.417823 -0.0226696
  59 27.6839 -0.275727 -0.0126605
  60 26.2693 -0.203123 -0.00471898
  61 25.0208 -0.112784 0.00751159
  62 23.7337 -0.0368062 -0.0413229
  63 22.7190 0.0304221 0.0418068
  64 22.2741 0.0982419 0.0245652
  65 22.6099 -0.00286265 0.0644098
  66 22.2971 -0.0183189 0.0759888
  67 22.0217 -0.0250066 0.0953735
  68 21.6394 -0.00752751 0.128118
  69 21.1555 -0.00457850 0.164106
  70 20.8225 -0.0372764 0.327793
  71 19.7702 0.0296725 0.360240
  72 19.0454 -0.00506466 0.418885
  73 17.9650 -0.0231918 0.473478
  74 16.7122 -0.0370863 0.578571
  75 15.1493 -0.0105697 0.702477
  76 13.2421 0.00729534 0.770048
  77 11.6324 -0.0226178 1.09801
  78 8.38424 0.106987 1.02622
  79 6.21581 0.0929204 1.08598
  80 3.65765 -0.0119338 1.19084
  81 1.57273 0.213580 1.21925
  82 -0.781563 0.309134 0.694592
  83 -2.44424 0.311484 0.201481
  84 -2.26053 0.289592 -0.182282
  85 -2.04151 0.235801 -0.634099
  86 -1.18798 -0.0928476 -0.584802
  87 -0.157261 -1.14075 -0.640525
  88 0.0929540 -2.12768 -0.822346
  89 0.287375 -3.47043 -0.515616
  90 0.655198 -3.75474 -0.101315
  91 1.40993 -1.61502 1.68468
  92 4.33807 5.37299 6.21930
  93 27.1395 22.6653 22.7614
  94 101.250 14.8527 17.2698
  95 90.5781 2.15115 5.73057
  96 83.5968 0.869823 1.75386
  97 81.0063 0.726667 0.143979
  98 82.3333 0.983114 -1.50409
  99 90.2816 1.97779 -4.52739
  100 108.166 7.18727 -15.1256
  101 15.9058 22.8089 -18.8382
  102 3.25926 3.11624 -5.04891
  103 1.53117 -1.45987 -1.70551
  104 0.608266 -3.80943 -0.170196
  105 0.150295 -2.68514 0.602486
  106 0.206133 -2.67131 0.721050
  107 0.00258533 -0.995117 0.708050
  108 -1.23776 -0.0678325 0.558866
  109 -2.10778 0.176815 0.557784
  110 -2.37707 0.353603 0.196427
  111 -2.52769 0.308519 -0.180190
  112 -0.952845 0.316938 -0.645897
  113 1.41757 0.215613 -1.15968
  114 3.49852 0.0100008 -1.17104
  115 6.05308 0.100604 -1.08908
  116 8.23636 0.110055 -1.03524
  117 11.5175 -0.0230577 -1.10872
  118 13.1434 0.00835881 -0.778669
  119 15.0636 -0.0101181 -0.712435
  120 16.6677 -0.0406641 -0.583971
  121 17.9072 -0.0223545 -0.475335
  122 19.0024 -0.00365785 -0.424004
  123 19.7357 0.0292293 -0.365044
  124 20.7988 -0.0375990 -0.331886
  125 21.1374 -0.00479106 -0.166658
  126 21.6268 -0.00772340 -0.130234
  127 22.0132 -0.0253254 -0.0970669
  128 22.2917 -0.0185910 -0.0771833
  129 22.6062 -0.00310951 -0.0651849
  130 22.2717 0.0980606 -0.0249370
  131 22.7168 0.0303438 -0.0420322
  132 23.7312 -0.0370929 0.0411716
  133 25.0181 -0.113500 -0.00781012
  134 26.2668 -0.204738 0.00436316
  135 27.6823 -0.277985 0.0123108
  136 29.1669 -0.421071 0.0223327
  137 30.7306 -0.521780 0.0472837
  138 32.3499 -0.547858 0.0361447
  139 33.7557 -0.653548 0.0353329
  140 34.9774 -0.566984 0.0737327
  141 36.3723 -0.496762 0.121783
  142 37.9562 -0.376624 0.131209
  143 39.4500 -0.336711 0.109417
  144 41.0487 -0.194840 0.0771614
  145 42.3908 -0.130065 0.0993414
  146 43.4587 -0.00585071 0.0590311
  147 38.3094 -3.59404 -0.681732
  148 38.2813 -3.54646 0.695843
  149 39.8383 5.75844 -2.18173
  150 42.8310 2.54349 4.73368
  151 32.3909 -3.08279 -6.84684
  152 32.6423 -3.08274 6.61177
  153 31.0611 -1.36059 0.695638
  154 31.0659 -1.38097 -0.697040
  155 45.6804 1.62120 -3.84312
  156 38.2055 -1.34490 1.13217
  157 38.1905 -1.31022 -1.11741
  158 49.3822 11.1875 0.716387
  159 38.8913 -0.0601801 -4.52079
  160 28.4498 -2.30143 -3.02144
  161 28.4458 -2.28067 2.99040
  162 39.0229 -0.869323 4.13006
  163 36.7074 2.66195 2.64055
  164 14.9069 2.50074 -8.15847
  165 16.6159 2.36157 8.61078
  166 48.5339 0.469812 1.07466
  167 39.2385 -1.48197 -2.96750
  168 52.2680 11.5113 -0.770763
  169 35.1834 -0.981076 0.150227
  170 35.1750 -0.976892 -0.146426
  171 39.9412 -0.428413 -0.505766
  172 40.0855 -0.377943 0.440508
  173 26.9777 -0.424168 -0.449727
  174 26.9791 -0.419405 0.446469
  175 43.3067 -1.26226 8.68034
  176 35.4376 1.44380 -2.83805
  177 22.9609 -1.75218 -4.97398
  178 23.0310 -1.73883 4.93607
  179 25.6824 -0.897075 -1.58568
  180 25.6826 -0.886014 1.57109
  181 39.4527 -1.00900 2.51978
  182 35.7210 -2.47021 0.221852
  183 35.5841 -2.45165 -0.157510
  184 40.9914 -3.93876 -0.197458
  185 41.1905 -3.75165 -0.321917
  186 56.9161 13.3571 -1.38255
  187 40.6553 6.58713 2.04875
  188 40.9024 2.52247 -4.67511
  189 43.2220 -0.520101 -10.1854
  190 40.7952 -2.28116 -3.45505
  191 41.1332 -1.61820 3.99285
  192 34.1260 -3.88709 3.19271
  193 34.1445 -3.86145 -3.18042
  194 36.1439 0.444387 3.43168
  195 16.1397 -0.361803 -6.05047
  196 16.1840 -0.400329 6.00853
  197 64.6681 9.78430 1.35894
  198 38.5736 -2.28295 1.99322
  199 40.1143 -0.699749 -1.67859
  200 31.2388 -0.787475 -0.289892
  201 31.2379 -0.782538 0.288386
  202 38.1809 -0.489398 -3.16439
  203 43.6511 6.44317 -3.83168
  204 36.0174 3.22012 -0.531765
  205 22.9833 -0.866008 2.27652
  206 22.9461 -0.869486 -2.29690
  207 40.8547 -0.406406 0.958029
  208 39.3418 0.743661 4.63663
  209 31.7862 -2.37098 -1.31802
  210 31.5449 -2.24624 1.36559
  211 46.7432 6.93812 3.68435
  212 55.7731 7.23662 0.367214
  213 3.41748 2.78292 -2.06113
  214 3.15044 2.57283 1.73754
  215 22.4865 6.33507 14.6867
  216 38.1737 -2.52769 -1.61637
  217 41.0300 -0.391001 -0.867469
  218 35.6882 0.294579 -3.15711
  219 24.4470 -0.275024 -0.697066
  220 24.4532 -0.271778 0.689395
  221 34.1168 -1.62063 -0.105000
  222 34.1319 -1.62915 0.0847202
  223 38.5610 -0.510622 2.70980
  224 45.0749 -2.62393 0.430673
  225 44.0913 9.13574 -1.13529
  226 34.5869 -3.37397 -1.34366
  227 44.1968 -0.754767 3.28996
  228 37.4509 -0.586479 0.228959
  229 37.4529 -0.580758 -0.228557
  230 34.3085 -3.35717 1.41564
  231 39.5342 -2.48696 2.85660
  232 56.7457 6.81371 -2.65175
  233 11.9790 7.15587 -10.4005
  234 32.6322 1.10872 0.667265
  235 39.3889 3.48444 3.88858
  236 42.3650 -0.279187 -4.30900
  237 39.4368 -1.40222 -3.90881
  238 20.2010 -0.689460 -2.88172
  239 20.2773 -0.678415 2.86937
  240 39.5362 -0.454329 -2.13193
  241 37.7180 -0.919829 0.643823
  242 37.7004 -0.917530 -0.626705
  243 7.37683 0.747727 -3.75115
  244 7.51484 0.656499 3.74055
  245 42.4039 -3.69159 -2.78092
  246 42.0393 -0.0993838 0.151218
  247 42.0945 -0.101776 -0.158516
  248 38.3894 3.18098 -3.54305
  249 33.3653 0.607713 2.04174
  250 73.1983 11.7442 7.80947
  251 72.6923 8.28399 -4.94980
  252 51.3690 11.2457 -0.222053
  253 32.0034 -1.51136 9.20279
  254 29.2763 -0.945787 -9.64854
  255 33.3600 -0.682521 -0.0637391
  256 33.3560 -0.677187 0.0627969
  257 27.2314 -0.776717 0.929815
  258 27.2339 -0.788191 -0.940291
  259 40.7191 -0.403145 1.36170
  260 39.3841 -2.78729 -2.42674
  261 24.4942 -0.0632731 -0.156623
  262 24.4974 -0.0623024 0.155288
  263 38.8821 -1.54558 -1.90772
  264 15.7027 -0.530467 -3.97635
  265 15.7800 -0.532386 3.94343
  266 39.3143 -1.68302 3.19167
  267 29.7782 -3.16235 5.49193
  268 29.8656 -3.21952 -5.47589
  269 33.1687 1.23283 -0.950145
  270 28.6097 -0.468892 -0.300408
  271 28.6105 -0.465216 0.298794
  272 36.4495 -0.101073 2.55297
  273 43.9219 8.12443 2.67523
  274 22.6669 -0.306974 1.21252
  275 22.6492 -0.309791 -1.22501
  276 40.5350 -3.35936 1.87451
  277 37.5246 -4.18716 -3.47064
  278 42.1533 -0.157431 0.459895
  279 28.4335 -1.75033 -2.03375
  280 28.3758 -1.72946 2.02378
  281 52.8565 4.81854 12.9398
  282 23.8189 -1.90984 6.62110
  283 38.6985 5.46101 -0.233096
  284 49.9334 5.39801 -2.75617
  285 37.2612 -2.88680 0.849502
  286 37.5357 -4.30471 3.08730
  287 23.9030 -1.87600 -6.70541
  288 4.26350 5.23886 4.61267
  289 38.8881 -1.55252 1.94073
  290 51.5108 6.59709 2.33976
  291 42.5370 -0.139697 -0.398563
  292 37.7375 1.30845 -4.07661
  293 37.5579 -2.11527 1.19067
  294 36.7409 -3.11260 -0.260056
  295 37.5720 1.71666 3.91795
  296 40.3274 -3.36357 -1.71579
  297 57.4832 11.3272 -0.815005
  298 37.5473 -2.03149 -1.14263
  299 31.5615 8.67929 -18.1957
  300 38.5039 -4.07169 -0.326526
  301 38.2186 -4.18138 0.776087
  302 27.5985 -2.53982 -4.32830
  303 24.2834 -0.111795 -0.346491
  304 24.2882 -0.109874 0.342885
  305 27.6056 -2.54067 4.30123
  306 40.5853 -0.0571363 -4.73119
  307 44.1865 -1.81936 -2.36833
  308 33.1262 -2.03448 -0.590036
  309 33.0986 -2.03879 0.603310
  310 40.3128 -3.46729 5.75234
  311 39.8874 -0.299375 1.61649
  312 49.1885 0.0764192 1.52290
  313 32.3653 -1.16781 -0.300487
  314 32.3660 -1.16275 0.297620
  315 29.2152 -0.799256 -0.578781
  316 29.2133 -0.790947 0.577262
  317 32.9804 0.419429 -1.97683
  318 43.3624 3.18375 -4.61575
  319 68.3086 18.2486 -8.28270
  320 39.7096 -0.292863 -0.177307
  321 39.6821 -0.288396 0.180854
  322 20.7424 0.0229258 8.26175
  323 29.1157 -1.37604 -1.29871
  324 29.0523 -1.36977 1.30142
  325 20.7408 -0.0219452 -8.23063
  326 41.1044 4.87416 -3.83628
  327 46.5443 2.27852 3.70671
  328 40.3457 -2.88104 -6.43559
  329 36.6753 -1.40111 0.610800
  330 36.6350 -1.38916 -0.593080
  331 39.3485 -0.770275 -0.974791
  332 36.4818 -0.0760429 -2.39006
  333 41.3912 0.198508 4.66882
  334 41.5834 -0.257345 -0.949373
  335 24.1788 -1.52547 3.31601
  336 24.1529 -1.53502 -3.34600
  337 38.2598 -0.0889827 4.27607
  338 22.7469 -0.210782 -0.709830
  339 22.7612 -0.208713 0.701868
  340 39.6152 -0.871074 1.44638
  341 47.3995 9.76269 -2.13357
  342 39.3211 -0.777749 1.00749
  343 41.5926 5.25796 3.86237
  344 39.8928 -0.726466 4.51071
  345 31.1838 -0.599094 0.0932271
  346 31.1853 -0.603521 -0.0943156
  347 37.5219 -0.139397 -3.78755
  348 50.2398 10.6258 1.58241
  349 41.3291 7.65576 0.0810446
  350 25.4068 2.98527 -12.4078
  351 2.27317 1.13338 -1.52329
  352 2.53140 1.22344 1.65627
  353 -0.217002 0.240811 0.844958
  354 -0.0448768 0.104296 -0.874463
  355 75.3962 5.22475 1.84103
  356 34.2988 -2.82096 -0.679953
  357 39.6555 -0.838879 -1.41296
  358 35.5405 -0.599555 0.105353
  359 35.5364 -0.593811 -0.105443
  360 37.7441 4.17292 -1.91510
  361 32.3308 -3.33533 2.61628
  362 2.64821 3.88589 -2.74673
  363 32.3704 -3.33642 -2.67239
  364 38.2744 4.36022 2.03818
  365 39.4579 -1.02478 -2.40997
  366 42.0042 -2.31937 -3.05160
  367 44.3907 9.50304 0.787182
  368 42.1275 -2.60224 2.61262
  369 16.4817 -0.438198 2.67165
  370 16.3709 -0.429952 -2.69247
  371 9.12170 0.254321 -3.64110
  372 9.23617 0.213252 3.62334
  373 33.5614 0.0816070 2.00630
  374 66.4072 18.9924 6.72063
  375 40.9383 -0.235152 -1.17493
  376 31.4120 -2.71040 -1.97680
  377 31.3787 -2.70117 1.97349
  378 39.1456 -0.883898 -2.98834
  379 45.0805 -2.17476 0.896956
  380 34.2970 -2.81739 0.708670
  381 49.8637 0.192035 -3.40590
  382 26.9223 -0.243183 -0.102506
  383 26.9244 -0.240877 0.101308
  384 38.3609 -0.215065 -1.87709
  385 19.8413 -0.312390 -1.75014
  386 19.8558 -0.321769 1.72627
  387 46.2113 5.89520 -4.04355
  388 24.7472 1.77577 11.4842
  389 35.9606 -1.89321 0.441834
  390 35.9973 -1.88899 -0.444264
  391 42.1638 7.19553 -2.47195
  392 40.0857 -1.17220 -4.30987
  393 40.5020 -4.11845 2.93156
  394 33.2374 -0.889771 -0.0894572
  395 33.2322 -0.884352 0.0873198
  396 38.7435 -2.98083 1.74524
  397 42.0348 -0.174129 0.712820
  398 25.2761 -0.977588 -2.00604
  399 25.2848 -0.976761 1.98568
  400 39.0976 1.31055 -4.56330
  401 37.0976 -0.771573 0.352547
  402 37.0970 -0.772894 -0.346627
  403 38.1813 -0.442451 3.51225
  404 35.2008 2.53959 0.905075
  405 39.7866 -1.65991 3.80804
  406 58.0723 12.2706 1.88667
  407 18.6048 -1.00998 -5.32050
  408 18.6602 -1.01079 5.27479
  409 8.19627 4.51046 -6.12054
  410 43.2318 -0.0914801 0.214819
  411 20.6724 -0.198959 -1.10357
  412 20.7024 -0.194728 1.09239
  413 39.1877 -1.00337 2.93917
  414 35.5167 -3.87206 1.56092
  415 40.4454 -0.454342 0.694930
  416 40.8382 2.08624 4.79899
  417 8.63373 4.80244 6.41724
  418 35.5762 -3.85287 -1.40903
  419 36.7948 -3.43197 0.0201362
  420 11.2603 -0.227990 -3.32638
  421 11.3602 -0.237704 3.30061
  422 28.1000 -2.20766 -7.99150
  423 42.3906 -0.611058 4.22116
  424 27.9740 -2.24638 7.91461
  425 39.0739 -2.17759 -2.57695
  426 35.7544 2.38599 -1.99750
  427 39.0856 -1.66509 2.42781
  428 42.4893 -0.154984 -0.498569
  429 1.16023 1.15284 0.363282
  430 8.24549 9.27308 9.15606
  431 37.2664 -0.139561 1.79393
  432 30.6018 0.388686 0.857998
  433 31.2033 0.481665 -1.16900
  434 26.6311 -0.478921 -0.654923
  435 26.6318 -0.472398 0.649332
  436 38.5338 -2.98013 -1.62582
  437 38.7722 -0.748655 -3.95166
  438 30.7927 0.541137 -0.317824
  439 58.1379 13.8000 2.28157
  440 7.52160 2.62048 -4.56312
  441 8.33606 2.40722 4.90409
  442 35.9280 -1.27180 0.366464
  443 35.9130 -1.26739 -0.355686
  444 47.9928 10.7768 -0.183009
  445 30.7381 11.7355 18.5910
  446 46.6921 -0.698997 -1.26985
  447 25.9440 -1.40869 -2.72442
  448 25.9542 -1.39792 2.69734
  449 25.9654 -0.623584 1.04660
  450 25.9626 -0.628729 -1.05833
  451 35.5651 0.764317 -3.24108
  452 43.4891 -0.0323169 -0.146894
  453 34.4422 1.54744 1.80651
  454 44.3504 5.49808 4.26150
  455 36.8431 -2.74171 -0.687396
  456 40.4363 -0.428899 -0.673422
  457 42.6828 -0.137115 0.459796
  458 43.3719 -0.0327544 0.0844019
  459 43.4161 -0.0407085 -0.0649648
  460 22.4917 -0.0513178 0.257072
  461 22.4818 -0.0520247 -0.260446
  462 40.4440 -2.54748 3.10723
  463 35.9270 1.39504 3.13644
  464 37.7875 0.148027 -4.15830
  465 39.8493 -0.806009 1.82388
  466 59.0748 9.01525 -10.5519
  467 39.8789 -2.19415 -3.39635
  468 0.184091 0.722841 0.180971
  469 0.189106 0.726657 0.0156945
  470 31.1821 -1.81477 1.05250
  471 31.0694 -1.79260 -1.04301
  472 50.4958 0.646811 5.46195
  473 13.8264 12.0347 -13.8621
  474 39.2332 -0.107170 1.41931
  475 45.1397 -2.65770 -2.92032
  476 23.1168 -1.37741 3.85831
  477 47.9181 8.51143 -3.05526
  478 39.2968 -2.10857 2.87763
  479 32.6608 -1.59401 -0.432417
  480 32.6899 -1.56615 0.430021
  481 33.5516 0.167522 -1.77457
  482 23.0415 -1.37302 -3.88697
  483 34.5066 0.000202884 1.79233
  484 33.5921 -3.83238 -4.83006
  485 33.5032 -3.83825 4.84158
  486 40.6651 -0.248682 1.29259
  487 36.3323 3.41308 0.374586
  488 37.8740 0.532535 12.5703
  489 55.3781 11.4376 -0.0727022
  490 38.0808 -0.599293 0.364614
  491 38.0846 -0.596772 -0.373452
  492 28.6006 -0.539553 -0.391875
  493 28.6008 -0.534529 0.389728
  494 14.9493 0.754848 6.87430
  495 39.4519 -1.88185 -3.29992
  496 35.6614 -0.754985 0.132607
  497 35.6578 -0.751554 -0.131447
  498 30.9078 -3.30075 3.95716
  499 15.2544 0.988016 -7.05623
  500 39.5829 -3.21016 -1.84722
  501 0.600047 -0.0260889 0.456894
  502 33.8597 1.71426 0.128364
  503 38.2470 -0.394078 -0.124620
  504 38.2444 -0.400678 0.122746
  505 30.9351 -3.29661 -3.99082
  506 45.1987 -2.37945 3.89675
  507 44.4156 1.62062 4.39895
  508 41.1824 -0.230119 -0.348066
  509 39.4608 -3.25715 1.86583
  510 23.6191 -0.0341244 -0.0414220
  511 23.6218 -0.0338721 0.0409043
  512 39.3008 -1.49307 -3.47451
  513 37.7249 2.78937 3.45344
  514 43.8501 1.08801 -4.33733
  515 23.4798 -0.0487658 -0.143340
  516 23.4837 -0.0481525 0.142061
  517 78.6275 11.3470 -10.2398
  518 39.3391 4.70749 3.06189
  519 41.2237 -0.206131 0.311943
  520 36.8818 -3.50617 0.0672231
  521 30.5638 -1.04617 0.556330
  522 30.5653 -1.05512 -0.555269
  523 43.2504 -2.61209 1.69195
  524 41.3367 -0.805357 -4.39521
  525 46.1244 9.17782 2.47067
  526 38.1301 0.651208 4.30548
  527 38.8401 -0.703719 0.654274
  528 37.8054 -4.00781 -4.57352
  529 38.9413 -0.947904 3.38410
  530 77.9177 3.54980 -1.44441
  531 42.9562 -3.22127 -0.585473
  532 40.9253 -0.218643 -0.0930475
  533 40.9338 -0.236474 0.0856179
  534 78.7110 5.29216 5.09667
  535 37.1031 -0.0198356 3.66183
  536 53.0278 8.72093 -1.65346
  537 39.4900 -1.04116 -1.79536
  538 16.8366 -0.173289 -1.19998
  539 16.8967 -0.165089 1.18633
  540 26.2938 -2.47716 -5.53932
  541 26.3097 -2.43514 5.49431
  542 38.8203 -0.671513 -0.646439
  543 42.1307 1.55721 -4.75467
  544 36.9584 -2.51844 0.826981
  545 39.5263 4.54753 -3.18715
  546 40.1909 -0.438036 1.74132
  547 50.9927 2.37944 0.127010
  548 34.0858 -1.17519 -0.0161403
  549 34.0733 -1.16973 0.0141635
  550 37.2385 -1.74732 0.928655
  551 55.6701 10.7920 -0.0307767
  552 39.0378 1.71049 4.47671
  553 16.4954 4.27820 10.2260
  554 38.2501 -2.30533 8.25726
  555 51.2656 2.10711 -8.99656
  556 39.9299 3.30865 -4.18422
  557 35.7611 -3.06441 -7.13161
  558 38.6809 -4.22415 -1.06722
  559 40.5257 -4.07788 -1.72968
  560 5.07376 6.37376 -6.05457
  561 40.7079 -0.472308 -1.12478
  562 61.7225 12.0725 -3.25384
  563 37.4504 -1.67054 -1.00203
  564 37.7975 -1.20329 0.824431
  565 37.7614 -1.17363 -0.796922
  566 25.1714 -0.169301 -0.309869
  567 25.1747 -0.167072 0.307112
  568 3.18597 0.394289 -1.94898
  569 3.40344 0.411984 1.99728
  570 18.6926 -0.900666 -4.07175
  571 18.8469 -0.905068 4.06162
  572 38.3051 -2.05903 -1.71870
  573 39.1592 -4.24074 1.18056
  574 40.2642 -3.80051 0.710268
  575 32.5384 -0.576801 -0.0897817
  576 32.5356 -0.571880 0.0891343
  577 31.0622 -3.24116 -6.11336
  578 35.0371 -2.84865 7.57004
  579 30.2666 -3.04423 6.15455
  580 39.3005 -0.861105 -4.25939
  581 23.8416 -0.434009 1.20420
  582 23.8307 -0.438830 -1.21637
  583 37.1737 2.03816 -3.46197
  584 37.3016 -0.0644342 -1.62884
  585 46.9192 10.3294 -1.14866
  586 30.1723 -0.476671 -0.100657
  587 30.1718 -0.472962 0.0999978
  588 40.1110 -0.110115 -0.940619
  589 27.0368 -0.967808 -1.29878
  590 27.0346 -0.963619 1.28520
  591 22.3474 1.09611 9.84701
  592 39.0437 -1.77501 -2.45834
  593 21.3482 -1.09829 7.05171
  594 38.3644 -1.97147 1.74608
  595 40.5703 -0.531917 1.23390
  596 40.1297 -0.314218 -0.315293
  597 27.2842 -0.368865 -0.276659
  598 27.2859 -0.365529 0.274617
  599 44.9598 9.07803 -2.19638
  600 21.3351 -1.05167 -7.08285
  601 38.2420 -1.63283 -1.42434
  602 34.2571 -0.624369 -0.0263151
  603 34.2530 -0.618908 0.0261417
  604 65.9590 8.94959 -1.53584
  605 21.8896 -0.158845 0.671990
  606 21.8702 -0.160473 -0.679495
  607 35.0887 0.780667 2.94932
  608 51.6423 4.12369 -1.35934
  609 23.8689 0.229136 -9.78673
  610 11.7729 0.350202 -5.24960
  611 11.8807 0.275753 5.22096
  612 29.7851 -1.79767 1.57091
  613 30.1229 -1.85056 -1.51516
  614 51.8593 10.4154 1.54987
  615 39.9475 -0.327642 0.290917
  616 33.3899 0.903489 -1.77279
  617 42.2557 7.67192 1.95278
  618 42.0811 7.96484 -1.29802
  619 34.6006 -1.93863 -0.0534416
  620 34.8811 -1.89157 -0.0745176
  621 24.9595 5.36995 -14.1818
  622 29.3634 -1.05217 -0.847999
  623 29.3639 -1.03916 0.843766
  624 77.9943 15.9250 11.9355
  625 39.2937 -1.27057 3.72360
  626 21.6921 -0.814849 -2.60923
  627 62.8167 13.5315 8.47684
  628 21.7454 -0.809624 2.59682
  629 37.9730 -1.47417 -9.71732
  630 25.6687 -0.151070 -0.114769
  631 25.6714 -0.149718 0.113986
  632 32.0450 0.266325 1.54389
  633 14.0731 -0.225597 -2.35148
  634 14.1639 -0.226092 2.33042
  635 34.1372 -2.45023 0.475228
  636 35.9182 -2.89740 0.111128
  637 42.9097 -0.0729686 -0.410590
  638 22.8760 -0.0471233 0.184874
  639 22.8691 -0.0479013 -0.187382
  640 32.0122 -0.734242 -0.110019
  641 32.0097 -0.729269 0.108470
  642 37.3062 -4.11629 4.63646
  643 42.6434 4.78093 -4.29679
  644 27.8394 -1.35949 -1.68096
  645 27.8149 -1.33570 1.66664
  646 33.4677 -2.45116 -0.780223
  647 53.3687 11.7297 -0.0246090
  648 40.0120 -3.85231 -0.478673
  649 34.3999 -0.815067 0.0234422
  650 34.3939 -0.810035 -0.0231007
  651 47.9278 5.20043 3.56872
  652 40.0164 -0.546202 -1.89406
  653 34.7291 -0.0546684 -1.46279
  654 15.6935 -0.531948 -5.09765
  655 15.7480 -0.548989 5.05112
  656 33.4041 -2.92605 -1.38731
  657 50.4890 11.3119 0.0553350
  658 38.7219 5.26591 -1.37905
  659 25.0687 -0.257997 -0.583782
  660 25.0727 -0.254270 0.577846
  661 36.4074 -1.00733 -0.337497
  662 36.4147 -1.00947 0.346492
  663 69.5002 9.12864 3.98292
  664 43.7573 -0.0927181 0.120139
  665 41.9501 -0.142866 0.690536
  666 41.7533 -0.149575 -0.796908
  667 39.4811 -3.65978 1.04664
  668 28.3151 -0.355875 -0.138503
  669 28.3163 -0.352971 0.137643
  670 41.8687 6.77074 2.98886
  671 54.3465 12.1629 -0.304870
  672 29.0970 -2.22876 -2.38557
  673 29.0837 -2.20510 2.37087
  674 36.9398 -3.81591 -0.416657
  675 38.7030 2.29903 -4.20519
  676 46.7188 0.0970429 2.27750
  677 30.1984 -0.586297 -0.252611
  678 30.1979 -0.581846 0.251059
  679 26.1312 -2.32265 -5.00318
  680 39.0938 -3.76903 -0.671056
  681 32.2635 -3.58561 4.35460
  682 15.1855 4.86649 -9.85011
  683 29.9327 -2.81963 3.35300
  684 36.0461 0.00852047 1.36170
  685 26.1522 -2.29527 4.96535
  686 38.2178 -1.66683 1.44177
  687 29.9488 -2.80906 -3.38833
  688 30.0324 0.364808 0.321906
  689 23.1695 -0.669514 1.83876
  690 23.1483 -0.670841 -1.85439
  691 32.2913 -3.67928 -4.40601
  692 40.1597 -2.62503 -3.00935
  693 36.7450 -0.475592 -0.0832684
  694 36.7506 -0.481546 0.0836037
  695 41.0979 -2.59120 3.01594
  696 37.2440 -3.89597 0.556973
  697 45.4098 4.16556 4.30825
  698 40.8275 -0.743752 4.49235
  699 39.2826 -1.38481 2.80028
  700 37.0955 3.03862 -2.62537
  701 45.1233 7.64237 3.38919
  702 38.8580 -0.526067 -2.64267
  703 38.8951 -1.25798 1.53695
  704 39.8082 6.27853 0.747499
  705 39.4995 -0.647973 2.33714
  706 12.1772 8.22429 10.2848
  707 36.8251 -4.22687 -2.52455
  708 42.6508 0.793423 4.60329
  709 43.1900 -1.32006 -3.44344
  710 43.4794 -0.0328243 0.237316
  711 39.2957 -1.32040 -2.24647
  712 36.8687 -4.26100 2.26146
  713 73.2666 6.48149 -1.09321
  714 20.9440 -0.103331 0.705017
  715 20.9172 -0.104541 -0.712927
  716 39.9926 -0.683420 -1.09924
  717 43.7651 -0.0228682 -0.228484
  718 33.3337 -2.97230 1.39560
  719 40.3105 -1.47815 4.11160
  720 62.5472 14.3937 -3.62654
  721 38.2048 -2.76326 1.53804
  722 42.5908 -2.78142 -2.00707
  723 38.9127 -1.22196 -1.51349
  724 43.8052 -0.0488519 -0.0842942
  725 39.1831 0.00549944 4.58317
  726 1.70951 1.19935 1.98600
  727 45.0417 -1.81705 -6.06353
  728 48.7822 2.80843 2.50322
  729 40.4626 -4.11367 1.48904
  730 28.0351 -0.715758 0.700611
  731 28.0374 -0.726440 -0.705208
  732 38.8634 18.0907 -19.5271
  733 41.1232 -2.69605 -2.82057
  734 29.9031 0.125089 -0.614955
  735 35.5152 0.181775 2.89301
  736 39.5516 -1.95821 3.35962
  737 37.9140 -3.19477 0.955756
  738 39.7188 -3.59479 -4.97813
  739 37.6619 -2.98020 -1.01121
  740 44.9108 -2.15139 -1.04694
  741 41.3129 -0.292209 0.653270
  742 36.5094 -2.19886 0.628532
  743 67.7098 13.5663 -7.05442
  744 39.1174 -1.00852 1.23811
  745 38.3548 0.622072 -4.42701
  746 33.1123 -0.394188 10.9809
  747 41.2391 3.33919 4.57204
  748 35.4528 -2.81428 0.0857787
  749 26.9870 -2.18156 -3.63098
  750 26.9855 -2.17430 3.59700
  751 37.3741 4.20233 -0.615039
  752 38.2693 -0.435771 3.98635
  753 38.7768 -0.911056 -3.44581
  754 36.5531 -2.24212 -0.642977
  755 35.2946 -3.18998 0.615453
  756 40.1313 6.67723 -0.854635
  757 37.8647 -3.27632 -0.805289
  758 37.9485 -2.39368 1.47889
  759 38.5811 -0.445419 0.252656
  760 38.6088 -0.431429 -0.251726
  761 51.9245 11.5431 0.549302
  762 42.6556 -3.60756 -0.786250
  763 39.4193 -1.17753 2.22962
  764 41.3450 -0.289677 -0.600586
  765 41.4370 0.289988 -4.71173
  766 47.5619 2.44133 -3.11703
  767 22.0739 -0.0313588 -0.323184
  768 22.0877 -0.0309874 0.319210
  769 0.286252 -0.829196 -0.599799
  770 40.2139 -0.0347802 0.873670
  771 36.4374 -0.0750027 -3.21882
  772 37.8096 -0.351867 2.87394
  773 35.2212 4.08005 16.3124
  774 43.0907 8.97653 -0.104575
  775 30.4064 -2.23677 1.80511
  776 4.74694 0.130314 -1.95717
  777 4.91543 0.0979591 1.97924
  778 37.4284 -0.268940 -3.22609
  779 30.5001 -2.26074 -1.80323
  780 41.0926 -0.320414 0.510994
  781 20.0891 -0.895407 3.47973
  782 19.9048 -0.892817 -3.48493
  783 39.1186 -0.977364 -1.20737
  784 24.1148 -0.656239 -1.59279
  785 24.1262 -0.651400 1.57596
  786 40.8157 -0.349881 -1.32849
  787 30.5415 -0.848510 -0.441517
  788 30.5409 -0.842133 0.441441
  789 44.6411 -0.283464 -3.48277
  790 39.8440 -0.406489 -4.63135
  791 19.3061 -0.137421 -0.907887
  792 19.3478 -0.136165 0.895894
  793 0.620410 0.502309 -1.12995
  794 0.811170 0.528700 1.19277
  795 31.4859 0.141096 -1.12366
  796 36.4709 -4.10079 -1.79774
  797 -0.437601 -0.309103 0.737719
  798 -0.377438 -0.352745 -0.724322
  799 38.0150 -0.721045 0.525485
  800 41.3370 -3.20152 -1.80815
  801 42.3462 6.31781 -3.50259
  802 41.2924 -0.284586 -0.483953
  803 91.3751 17.9811 -17.1573
  804 38.0078 -0.717878 -0.519206
  805 57.6349 11.1345 0.749329
  806 40.5194 1.18785 -4.81335
  807 45.0237 3.38989 -4.38761
  808 6.77408 -0.0814500 -1.82885
  809 6.92557 -0.0929217 1.82486
  810 24.4680 -0.386643 0.928531
  811 24.4607 -0.390160 -0.938663
  812 23.1049 -0.0673457 0.170624
  813 23.1001 -0.0680132 -0.172376
  814 45.3683 7.67912 -3.37735
  815 25.9722 -0.187042 -0.244140
  816 25.9749 -0.184785 0.242294
  817 38.3934 -0.384923 -4.15521
  818 56.9703 5.29785 4.02461
  819 34.0955 0.730730 -2.47446
  820 11.1697 -0.106914 1.98285
  821 11.0576 -0.107832 -2.00053
  822 45.7837 0.994057 11.5425
  823 39.9421 -0.689483 1.13457
  824 34.9701 2.29338 -1.03246
  825 15.4861 -0.0328643 1.36569
  826 15.3944 -0.0252249 -1.37734
  827 23.7247 -0.141739 -0.449127
  828 23.7317 -0.139693 0.443928
  829 4.15987 3.75301 3.05240
  830 36.6729 0.857577 3.70921
  831 41.0285 6.06958 -2.97095
  832 44.4427 5.16711 -4.30436
  833 28.6022 -1.13365 -1.14540
  834 28.5821 -1.12385 1.14236
  835 45.8949 9.89701 1.56703
  836 39.9627 -0.276313 -0.0711701
  837 39.9630 -0.274059 0.0784151
  838 39.2756 -1.15158 -2.80411
  839 32.6128 -2.21682 0.941175
  840 36.2297 -4.07621 1.81717
  841 43.0108 -3.52383 2.88738
  842 32.2551 -0.954887 -0.200061
  843 32.2534 -0.950299 0.197661
  844 36.8396 3.40454 1.67967
  845 34.4505 0.446232 -2.67976
  846 9.59302 10.5646 10.6957
  847 35.4126 -3.16514 -0.525518
  848 35.5064 -1.58947 0.298671
  849 35.5261 -1.59116 -0.300100
  850 39.0720 -0.564578 4.39212
  851 38.9024 -2.54132 -2.22456
  852 34.5365 -2.31591 -0.205709
  853 82.1468 2.66653 -4.17632
  854 32.7763 -3.14434 2.01577
  855 32.7539 -3.18721 -2.05322
  856 39.0779 -0.453973 2.25416
  857 59.7306 15.2577 -2.75215
  858 30.6389 -2.83877 -2.62091
  859 34.0888 -3.86291 2.39859
  860 30.6251 -2.80279 2.59440
  861 33.2977 -1.36130 -0.201629
  862 33.2949 -1.35547 0.198929
  863 4.62001 2.07314 2.67123
  864 42.0396 3.15316 -4.66488
  865 31.8459 -1.27470 -0.440399
  866 31.8505 -1.26064 0.442385
  867 31.3858 -0.530794 -0.0509484
  868 31.3842 -0.526478 0.0504225
  869 34.8224 -0.674061 0.0668527
  870 34.8178 -0.668740 -0.0669148
  871 27.7722 -0.583236 -0.611898
  872 27.7725 -0.576178 0.608414
  873 31.9955 -1.72774 -0.712071
  874 31.9982 -1.71415 0.714928
  875 0.704665 -0.552224 -0.180090
  876 48.9608 9.19171 2.73651
  877 42.0808 -1.45310 -3.88060
  878 34.0677 -3.80797 -2.42935
  879 36.8930 -1.16672 0.545031
  880 36.8756 -1.15312 -0.533237
  881 40.1874 0.0641707 4.72678
  882 44.2203 -3.15638 -1.33819
  883 39.3227 2.55221 -14.0808
  884 17.1319 -0.233859 6.83287
  885 -0.895390 0.400931 -0.380270
  886 -0.801115 0.451007 0.433118
  887 4.57864 2.20561 -2.72283
  888 39.4374 -1.09865 1.79009
  889 41.7431 -0.233634 -0.765162
  890 37.4256 -3.57461 5.81281
  891 17.0893 -0.212077 -6.86344
  892 41.7179 -3.38524 1.41277
  893 46.9127 -1.49953 4.85304
  894 32.7639 0.125249 1.19411
  895 38.0773 3.62364 2.87781
  896 20.2023 -1.15745 5.06609
  897 20.1202 -1.16705 -5.10438
  898 24.2893 -1.21113 -2.82404
  899 25.9961 -1.22433 -8.76821
  900 41.5844 -0.949246 4.27920
  901 57.7959 13.3307 1.30559
  902 41.6528 1.61912 4.75695
  903 39.3865 -0.816565 -2.54406
  904 26.5689 -1.09735 8.99015
  905 50.5381 9.26566 -2.21507
  906 4.69590 4.07464 -3.80068
  907 35.9388 -0.0798177 -1.29893
  908 24.3145 -1.20041 2.79500
  909 29.9462 -0.688541 0.396328
  910 29.9469 -0.694019 -0.397724
  911 38.9627 -2.52812 2.28752
  912 40.7537 -0.203589 0.208093
  913 29.7443 0.303404 -10.9603
  914 43.1047 -0.0755470 0.364515
  915 42.7070 -0.0597115 -0.455089
  916 30.6900 0.250551 -1.02842
  917 41.0306 -0.158552 -0.779698
  918 30.1020 -1.46014 -1.01843
  919 30.1220 -1.43673 1.02087
  920 -1.08216 0.346801 -0.635106
  921 -1.45070 0.208828 0.655235
  922 40.7558 -0.185717 -0.207955
  923 12.7388 -0.275811 4.59916
  924 12.6515 -0.245419 -4.62852
  925 43.0963 6.33127 3.71939
  926 80.1371 1.43806 1.31036
  927 40.4380 4.52144 3.82392
  928 46.6007 -1.69427 0.949159
  929 40.0629 -2.20840 3.41017
  930 49.9987 10.5331 -1.67909
  931 29.9497 0.105216 0.773674
  932 38.5997 -0.865324 -0.794817
  933 39.8348 2.14574 -4.62058
  934 48.9096 1.34189 -1.45736
  935 37.5158 -2.31158 -1.21667
  936 18.1966 -0.114316 -1.02152
  937 18.2196 -0.110340 1.00564
  938 39.6827 -0.898581 -2.04360
  939 1.17661 1.54327 0.150984
  940 38.0724 -3.94359 -0.00584483
  941 32.1416 0.910720 -0.106676
  942 49.5723 11.0144 -1.11865
  943 7.50094 5.61249 -6.49674
  944 37.8145 -0.279699 -2.57601
  945 25.5748 -0.466116 -0.857512
  946 25.5779 -0.460259 0.848556
  947 0.181817 -1.13519 0.881843
  948 25.3196 -1.93598 -4.05784
  949 38.7538 -2.22239 -2.14802
  950 22.9775 0.0486495 -0.0686953
  951 22.9804 0.0489594 0.0680673
  952 38.7687 4.71789 -2.31758
  953 42.4737 -0.0805507 -0.0743375
  954 42.4714 -0.0827200 0.0953898
  955 25.3278 -1.92957 4.02623
  956 39.0847 -0.0418081 -1.03021
  957 45.4102 0.325646 3.39621
  958 40.2245 -0.521044 0.890283
  959 5.95131 1.61806 -3.45639
  960 41.8430 -0.214877 0.697752
  961 37.3101 0.287594 3.99093
  962 39.3661 5.48310 2.06287
  963 39.5781 0.462786 -4.74183
  964 26.7742 -1.49563 -2.38839
  965 43.0722 -1.49947 3.33950
  966 26.7902 -1.48869 2.36049
  967 1.10505 1.25713 0.0597374
  968 4.25156 0.810803 2.52486
  969 21.4594 -0.411820 1.67357
  970 21.4313 -0.412709 -1.68522
  971 38.6256 -0.884326 0.831091
  972 41.1543 7.22470 1.15752
  973 20.8147 1.97128 -10.3165
  974 34.4628 -2.17718 0.155686
  975 32.3306 -3.41147 -3.15260
  976 47.4901 9.15803 2.72982
  977 36.4238 -0.611503 0.126146
  978 36.4230 -0.607396 -0.126199
  979 40.1150 -0.702149 -1.49735
  980 36.4690 3.13221 -1.55118
  981 87.1844 25.1264 16.9747
  982 7.11797 0.450068 -3.40471
  983 7.24914 0.375378 3.41428
  984 0.527960 -0.973073 0.0368340
  985 36.6250 2.01005 3.18348
  986 32.3138 -3.43089 3.12606
  987 40.3321 -1.88512 -3.82925
  988 43.9249 3.60576 4.67542
  989 42.5711 -3.43441 -3.66714
  990 62.4237 13.1933 4.07549
  991 35.7019 -0.549338 0.00840832
  992 35.6972 -0.543876 -0.00828596
  993 42.0523 -1.68777 3.70143
  994 2.79414 4.03948 4.60374
  995 17.9937 -0.405109 2.41192
  996 17.9309 -0.400022 -2.44187
  997 21.8022 -1.11733 3.27714
  998 21.7226 -1.10145 -3.29252
  999 24.6739 -1.06996 2.32613
  1000 26.9630 -0.240990 -0.114290
  1001 26.9651 -0.239023 0.113690
  1002 71.5598 21.7822 -13.5313
  1003 63.6446 15.9129 6.10766
  1004 24.6544 -1.07630 -2.34925
  1005 43.3384 -0.179738 4.06412
  1006 38.2678 3.97547 -2.77900
  1007 27.0240 -2.29938 7.25327
  1008 35.0443 -4.13525 -3.72878
  1009 40.1138 -0.309709 -1.53364
  1010 17.6657 1.29113 8.34679
  1011 22.7037 -1.74399 5.79936
  1012 34.8396 1.75716 -1.98349
  1013 40.5018 -0.784607 -4.53189
  1014 53.9738 19.9202 22.4994
  1015 32.7021 0.969608 1.40246
  1016 45.3870 9.91971 -0.186623
  1017 33.7068 1.26766 -12.4897
  1018 33.8810 -3.59892 -2.04219
  1019 43.8334 -0.0204149 -0.188329
  1020 41.3260 3.81122 -4.45719
  1021 23.3227 -0.173426 0.586166
  1022 23.3129 -0.175239 -0.592935
  1023 0.815560 0.0229545 -1.02240
  1024 26.7620 -1.27996 -1.98211
  1025 22.6785 -1.76707 -5.84858
  1026 26.7368 -1.27610 1.95631
  1027 39.5449 -1.18684 4.18940
  1028 35.3984 -2.20369 0.184681
  1029 36.9533 0.666264 -3.85685
  1030 37.9964 4.75893 0.809730
  1031 52.9920 2.91598 1.15094
  1032 39.2861 -2.96949 2.22247
  1033 24.2691 -1.98542 -4.44225
  1034 36.5883 1.27577 -3.59603
  1035 27.2827 -2.26597 -7.29846
  1036 53.0810 11.6875 -0.0864940
  1037 35.4241 2.30253 1.80400
  1038 45.8121 -0.288205 -2.73936
  1039 34.0952 -3.59826 1.84767
  1040 39.1996 -1.22134 3.27362
  1041 39.0050 -2.04042 2.46600
  1042 38.7928 -1.93132 2.16372
  1043 48.1632 6.07398 -3.64416
  1044 38.5767 -0.610458 3.26319
  1045 34.9745 -4.14702 3.66390
  1046 37.3438 -1.50774 0.840018
  1047 24.2828 -1.98825 4.41259
  1048 34.9294 -2.60364 -0.213441
  1049 19.8704 -0.950456 -6.20762
  1050 28.7764 -3.01020 4.87265
  1051 39.3806 -0.249950 -1.76288
  1052 38.2119 -0.425909 -3.68097
  1053 33.0281 -2.65703 -1.17849
  1054 19.9054 -0.980962 6.15287
  1055 35.3079 0.0725229 -2.51588
  1056 26.0918 -1.79164 -3.11722
  1057 48.3121 10.4015 1.77323
  1058 10.2838 1.80401 -5.77218
  1059 85.8360 6.08326 8.44069
  1060 18.9755 1.50124 -8.76264
  1061 38.8057 -3.20515 -1.50835
  1062 26.0962 -1.77502 3.08766
  1063 34.8828 0.345993 2.79917
  1064 18.9948 -0.411947 1.99403
  1065 18.9827 -0.422392 -2.01673
  1066 39.1578 -1.07599 -3.87490
  1067 42.1895 -0.166929 0.307336
  1068 41.0623 -0.0763734 0.791668
  1069 40.3642 1.35381 4.79284
  1070 37.5884 -0.282839 3.44246
  1071 29.4440 3.08270 13.5344
  1072 44.1527 -0.0154078 0.0971703
  1073 40.4913 5.52243 3.04658
  1074 33.8304 0.464749 2.40128
  1075 41.6801 -0.141201 0.766970
  1076 25.7999 -0.310232 -0.470281
  1077 25.8025 -0.306542 0.466298
  1078 16.1561 -0.480581 -3.31978
  1079 16.2282 -0.497731 3.29295
  1080 33.9359 1.65997 1.00390
  1081 53.2726 2.56759 -3.16370
  1082 48.9211 -0.256545 -6.78364
  1083 38.0078 -0.0281725 -1.05947
  1084 28.7940 -3.03359 -4.91273
  1085 33.0962 -2.52630 1.02799
  1086 38.2533 -0.0828515 1.10700
  1087 40.3846 -2.90712 -2.58257
  1088 24.1423 -0.0721331 0.287618
  1089 24.1384 -0.0733034 -0.289888
  1090 38.7295 -3.29714 1.50824
  1091 36.7405 -0.718212 0.216928
  1092 36.7346 -0.718573 -0.213954
  1093 35.7042 -3.61662 1.02757
  1094 46.6680 -1.53903 0.0879849
  1095 19.8185 -0.0406529 -0.563699
  1096 19.8542 -0.0392324 0.556704
  1097 31.3880 -1.94045 -8.36110
  1098 33.1008 -0.793257 0.0803760
  1099 33.1051 -0.798649 -0.0819425
  1100 20.2022 10.5514 14.8489
  1101 46.5766 3.78957 -4.00854
  1102 6.44156 3.25281 -4.23500
  1103 40.2577 -0.552453 -0.862006
  1104 10.2671 3.64982 -6.60774
  1105 21.5973 -1.40125 -4.23460
  1106 44.2081 -0.0238139 0.0544888
  1107 44.2318 -0.0208253 -0.0413270
  1108 39.3951 -2.22919 -2.94949
  1109 34.9060 -3.89570 -5.23931
  1110 10.2857 1.53541 5.50069
  1111 42.7935 4.25721 4.39074
  1112 39.0639 -0.338400 -0.0855247
  1113 39.0666 -0.339012 0.0896956
  1114 43.0197 -2.82004 6.31187
  1115 43.6899 8.85799 1.71630
  1116 25.2493 -0.654132 -1.24142
  1117 25.2539 -0.650518 1.23045
  1118 19.4667 2.29309 10.4013
  1119 36.8704 0.175833 -3.74086
  1120 11.2643 3.73316 7.13322
  1121 48.5621 -0.925363 -1.66112
  1122 46.9138 10.5411 0.551547
  1123 32.0135 -2.58542 1.50309
  1124 28.7028 0.129745 -0.150548
  1125 41.2879 -0.329546 1.00873
  1126 42.9184 -0.0339477 0.396907
  1127 8.43333 0.0221793 -1.65740
  1128 8.57325 0.0173200 1.64470
  1129 32.6526 0.512899 -1.77224
  1130 34.2420 -1.00784 0.0148431
  1131 34.2327 -1.00188 -0.0153070
  1132 3.48577 4.65744 -4.87542
  1133 5.65917 11.0308 -10.1835
  1134 34.7178 -1.36093 -0.0937024
  1135 34.7335 -1.36218 0.0923138
  1136 35.9727 -0.845210 0.245625
  1137 35.9675 -0.842605 -0.241872
  1138 9.11844 5.87663 7.11907
  1139 27.7333 -0.372429 -0.215506
  1140 27.7348 -0.369392 0.214061
  1141 35.2092 2.63608 -0.0441890
  1142 46.8244 5.26384 -15.6849
  1143 43.5433 7.56978 -2.93638
  1144 39.8329 -1.51142 -3.99509
  1145 39.2619 -1.93676 -2.96418
  1146 32.0412 -2.61109 -1.53108
  1147 31.6349 0.0901377 1.09413
  1148 36.1036 2.22877 -2.65776
  1149 35.5501 1.88753 2.53110
  1150 37.3180 -1.46165 -0.826749
  1151 35.4946 -2.15748 -0.209300
  1152 32.0576 -2.12264 -1.09458
  1153 38.3732 -0.218081 2.06609
  1154 69.8164 7.08994 0.998425
  1155 38.6805 -0.813813 3.76722
  1156 38.6628 2.54161 4.03765
  1157 35.8777 -3.55289 -0.681092
  1158 3.99206 0.748172 -2.42976
  1159 36.5533 -1.68289 -0.662892
  1160 23.1545 -0.0491967 -0.0113430
  1161 23.1568 -0.0490229 0.0111257
  1162 44.9864 -1.18583 2.40630
  1163 42.8912 -3.59714 1.03875
  1164 61.9306 11.2129 2.56694
  1165 13.5957 -0.0376399 -1.39662
  1166 13.6921 -0.0344994 1.38443
  1167 32.3219 -0.661625 -0.0878934
  1168 32.3192 -0.656672 0.0867559
  1169 36.6887 -3.25015 0.244413
  1170 28.9864 0.114671 0.491100
  1171 37.6052 -2.67549 1.19566
  1172 1.94436 2.31500 -0.940064
  1173 6.38732 3.29174 4.14845
  1174 24.8644 -1.30463 8.09236
  1175 43.3187 8.34658 -2.09192
  1176 41.8500 -0.103792 -0.604234
  1177 44.4138 -0.0577527 0.0421584
  1178 44.4671 -0.0842839 -0.0296551
  1179 24.2615 -0.0770351 -0.0433385
  1180 24.2644 -0.0764757 0.0428611
  1181 39.9050 2.56299 4.61391
  1182 60.0694 10.4266 -0.219028
  1183 41.0311 6.84527 -2.07869
  1184 30.8271 -2.22484 8.30570
  1185 24.7312 -1.24749 -8.07871
  1186 27.2810 -1.89158 -2.77219
  1187 38.6332 -1.04138 1.03527
  1188 54.3015 11.8718 -0.211630
  1189 27.2798 -1.87884 2.74649
  1190 39.5760 -0.641025 0.785442
  1191 34.5243 1.25186 2.40917
  1192 38.4853 1.18777 4.40905
  1193 55.6859 12.5020 0.844288
  1194 32.3932 -0.859824 0.170864
  1195 32.3962 -0.864976 -0.172972
  1196 40.0509 -0.709131 1.55202
  1197 22.6680 -0.270240 0.927964
  1198 22.6520 -0.273154 -0.938209
  1199 39.2196 -0.480457 -0.381653
  1200 15.8757 9.35192 -14.2690
  1201 33.9241 -1.88848 -8.88527
  1202 31.4345 -1.01589 -0.381709
  1203 31.4363 -1.01027 0.381663
  1204 42.4008 -0.155758 0.269285
  1205 39.8493 -0.467806 0.632073
  1206 2.00750 2.38455 1.66876
  1207 43.7384 -0.0324714 0.217493
  1208 4.89157 5.98675 5.93558
  1209 38.8450 -0.528597 -0.483667
  1210 -0.0716501 -0.982309 -0.854986
  1211 27.0416 -2.63358 -6.24142
  1212 26.9564 -2.56786 6.17398
  1213 43.7398 -0.0621278 -0.237353
  1214 36.7987 -1.93696 -0.766425
  1215 42.3581 -0.137458 -0.283094
  1216 33.1805 -1.08756 -0.113408
  1217 33.1754 -1.08233 0.110291
  1218 39.1920 -0.476088 0.361539
  1219 36.5257 -1.65093 0.655902
  1220 35.0410 -1.12035 -0.168763
  1221 35.0552 -1.12471 0.173852
  1222 42.3339 -0.141930 -0.233435
  1223 36.2252 -3.78462 -5.93820
  1224 41.3186 -0.199258 -0.246006
  1225 39.0244 -0.545634 0.511458
  1226 26.2540 -0.322676 -0.339081
  1227 26.2564 -0.319322 0.336328
  1228 29.6960 -0.459485 -0.153003
  1229 29.6960 -0.455755 0.151828
  1230 49.4112 7.65913 3.16719
  1231 41.4401 -3.15348 2.06518
  1232 28.1908 -0.0966519 10.3180
  1233 21.5350 -0.0481573 0.355171
  1234 21.5166 -0.0486202 -0.359513
  1235 38.9839 -0.703798 2.85924
  1236 37.4336 -0.521537 0.136964
  1237 37.4367 -0.519267 -0.136871
  1238 42.5688 8.38918 0.967491
  1239 39.4930 -4.11481 4.57033
  1240 21.7284 -0.337435 1.31999
  1241 21.7055 -0.340301 -1.33175
  1242 37.3497 -0.877367 0.462663
  1243 37.3419 -0.882910 -0.452741
  1244 38.6143 -1.02651 -1.00245
  1245 34.7760 0.00224553 1.30531
  1246 62.1223 15.4114 -4.67484
  1247 39.2600 -1.41007 -2.61293
  1248 6.25525 1.59419 3.56551
  1249 40.6110 -2.13853 3.61619
  1250 31.6565 0.655096 -0.967363
  1251 2.20020 1.76464 1.15778
  1252 54.3561 5.74311 0.359758
  1253 39.5892 -1.78109 -3.59833
  1254 31.8248 0.421810 1.47926
  1255 21.7587 -1.40266 4.22239
  1256 40.3394 -3.09951 2.35075
  1257 59.6161 10.7544 2.52571
  1258 13.0326 2.01702 7.04972
  1259 40.6238 -0.439503 -1.33117
  1260 80.8666 0.882552 -0.839065
  1261 83.7948 1.27887 3.77647
  1262 89.8370 3.15515 -8.90069
  1263 39.1513 -1.19934 -3.18095
  1264 39.2124 -1.76599 2.78477
  1265 39.8983 -2.81750 2.69810
  1266 -1.18595 0.114964 0.768761
  1267 -1.08600 0.0853854 -0.828674
  1268 38.9273 -4.27939 -1.89476
  1269 39.9819 -4.01663 -3.03904
  1270 29.2269 0.169628 -0.608629
  1271 38.7892 -4.36269 3.06219
  1272 41.3473 -1.93722 -3.68432
  1273 0.631792 1.15090 -0.0297242
  1274 33.2010 -0.602118 0.0898754
  1275 33.2041 -0.607268 -0.0901168
  1276 41.2864 -0.287344 0.923772
  1277 39.5791 -0.628098 -0.743094
  1278 37.1077 -4.05564 -0.840136
  1279 33.6134 -1.84991 0.327781
  1280 33.4328 -1.82567 -0.385201
  1281 39.8260 -0.808287 2.06920
  1282 40.7855 -1.47638 -4.13911
  1283 2.28822 1.84055 -1.09748
</Section>

newXOutput 4

<Section columns = "stress_xx | stress_yy | stress_xy">
  1 66.8820 0.0130310 0.144569
  2 66.8907 0.0135265 -0.145177
  3 34.0873 -0.0216719 -0.0524860
  4 -0.442762 -0.441071 -0.635846
  5 125.445 46.1402 38.5217
  6 124.207 47.9822 -38.9071
  7 -0.513258 -0.422153 0.672491
  8 34.0840 -0.0218254 0.0522978
  9 67.4096 -0.0993661 0.0484582
  10 67.2368 -0.162614 -0.0231718
  11 67.0296 -0.0967694 0.177230
  12 66.8272 -0.144021 0.0681595
  13 66.3968 -0.117097 0.280204
  14 66.0125 -0.121037 0.215891
  15 65.1480 -0.108316 0.396500
  16 63.9590 -0.0590123 0.579383
  17 62.8889 -0.0719924 0.635160
  18 61.3408 -0.117012 0.757026
  19 59.2415 0.00519846 1.10460
  20 57.3003 -0.0866329 1.03784
  21 55.1498 -0.122317 1.44614
  22 52.0358 0.0884682 1.24592
  23 49.8263 0.120925 1.46262
  24 46.9485 0.211523 1.13500
  25 44.9777 0.203393 1.13978
  26 42.1177 0.302329 0.578022
  27 41.5253 0.479049 0.616755
  28 41.1727 0.382582 -0.181017
  29 41.6662 0.204177 -0.403196
  30 42.5691 0.210835 -0.492638
  31 44.7084 0.275574 -0.987916
  32 46.7851 0.217095 -1.25914
  33 49.8718 0.0346256 -1.49966
  34 52.3484 -0.0371057 -1.38043
  35 55.0209 -0.0988440 -1.36963
  36 57.4574 -0.0667897 -0.974994
  37 59.5828 -0.0654738 -0.843368
  38 61.3589 -0.112882 -0.716790
  39 62.9704 -0.0750659 -0.512106
  40 64.0022 -0.0832982 -0.549064
  41 64.9976 -0.112480 -0.404086
  42 65.9615 -0.137179 -0.191226
  43 66.4628 -0.107127 -0.215203
  44 66.7507 -0.0556352 -0.140247
  45 66.6060 -0.0147491 -0.127202
  46 67.3201 -0.167273 0.0116646
  47 67.4382 -0.104874 -0.0500864
  48 64.9705 -0.00213527 -0.0889122
  49 63.3464 -0.205976 -0.151400
  50 61.3888 -0.318295 -0.111564
  51 59.0184 -0.504914 -0.149494
  52 56.7934 -0.563843 -0.191332
  53 54.4339 -0.740480 -0.179492
  54 52.3593 -0.843928 -0.108285
  55 50.5412 -0.971843 -0.0514625
  56 48.4494 -0.813640 -0.0527563
  57 46.0402 -0.774498 -0.0696910
  58 43.7139 -0.624208 -0.0325670
  59 41.5052 -0.411094 -0.0179418
  60 39.3994 -0.302263 -0.00627763
  61 37.5417 -0.167096 0.0117731
  62 35.6273 -0.0540254 -0.0612900
  63 34.1183 0.0458143 0.0628996
  64 33.4558 0.146625 0.0373456
  65 33.9529 -0.00394666 0.0971422
  66 33.4847 -0.0269049 0.114785
  67 33.0711 -0.0368742 0.143998
  68 32.4977 -0.0107872 0.193016
  69 31.7721 -0.00655415 0.246942
  70 31.2704 -0.0550485 0.492033
  71 29.6956 0.0444897 0.540501
  72 28.6094 -0.00731798 0.627840
  73 26.9903 -0.0343595 0.709824
  74 25.1138 -0.0550998 0.867143
  75 22.7725 -0.0155471 1.05284
  76 19.9156 0.0110505 1.15450
  77 17.5009 -0.0334027 1.64638
  78 12.6351 0.159924 1.53961
  79 9.38269 0.138827 1.62931
  80 5.54212 -0.0186107 1.78780
  81 2.40847 0.319140 1.83212
  82 -1.13177 0.462809 1.04713
  83 -3.63655 0.466563 0.308031
  84 -3.37243 0.434719 -0.266905
  85 -3.05514 0.354415 -0.947231
  86 -1.77892 -0.137962 -0.875070
  87 -0.234464 -1.70816 -0.958863
  88 0.140877 -3.18372 -1.22920
  89 0.432485 -5.18326 -0.765560
  90 0.984471 -5.58987 -0.139354
  91 2.11649 -2.34488 2.54558
  92 6.50045 8.17036 9.34763
  93 40.5070 34.0711 34.0498
  94 151.003 22.1748 25.7291
  95 135.140 3.20935 8.52735
  96 124.779 1.29958 2.60979
  97 120.936 1.08673 0.213561
  98 122.908 1.46882 -2.23912
  99 134.706 2.95268 -6.73727
  100 161.235 10.7274 -22.5111
  101 23.7603 34.3224 -28.1998
  102 4.88273 4.81475 -7.59766
  103 2.29913 -2.11216 -2.58417
  104 0.914361 -5.66728 -0.270691
  105 0.227864 -4.00679 0.893798
  106 0.310808 -3.99805 1.07713
  107 0.00458815 -1.48931 1.06005
  108 -1.85365 -0.100222 0.835912
  109 -3.15418 0.265772 0.832858
  110 -3.54655 0.530667 0.287901
  111 -3.76035 0.461958 -0.276226
  112 -1.38697 0.474480 -0.974168
  113 2.17758 0.322163 -1.74286
  114 5.30538 0.0142292 -1.75809
  115 9.14049 0.150297 -1.63390
  116 12.4150 0.164489 -1.55305
  117 17.3300 -0.0340645 -1.66230
  118 19.7687 0.0126392 -1.16733
  119 22.6448 -0.0148839 -1.06766
  120 25.0475 -0.0604451 -0.875140
  121 26.9042 -0.0330967 -0.712553
  122 28.5451 -0.00521698 -0.635444
  123 29.6440 0.0438324 -0.547632
  124 31.2348 -0.0555279 -0.498107
  125 31.7449 -0.00686958 -0.250726
  126 32.4786 -0.0110784 -0.196152
  127 33.0580 -0.0373487 -0.146506
  128 33.4762 -0.0273098 -0.116553
  129 33.9469 -0.00431295 -0.0982887
  130 33.4517 0.146361 -0.0378946
  131 34.1146 0.0456994 -0.0632330
  132 35.6231 -0.0544509 0.0610689
  133 37.5373 -0.168157 -0.0122129
  134 39.3955 -0.304655 0.00575403
  135 41.5026 -0.414438 0.0174279
  136 43.7131 -0.629018 0.0320717
  137 46.0415 -0.780517 0.0693090
  138 48.4530 -0.820540 0.0524169
  139 50.5465 -0.979410 0.0513453
  140 52.3656 -0.851420 0.108547
  141 54.4422 -0.747298 0.180227
  142 56.7993 -0.568650 0.194022
  143 59.0212 -0.509193 0.162160
  144 61.3975 -0.296746 0.114154
  145 63.3915 -0.198892 0.148184
  146 64.9767 -0.0120615 0.0876971
  147 57.3324 -5.37918 -0.979996
  148 57.2901 -5.30791 1.00108
  149 59.6557 8.61930 -3.24569
  150 64.1009 3.80418 7.03206
  151 48.4812 -4.61715 -10.2741
  152 48.8584 -4.61675 9.92277
  153 46.5299 -2.03444 1.05643
  154 46.5368 -2.06479 -1.05846
  155 68.3400 2.42645 -5.68960
  156 57.1770 -2.01553 1.66733
  157 57.1545 -1.96378 -1.64563
  158 73.9060 16.7270 1.05241
  159 58.2246 -0.0905475 -6.72456
  160 42.6236 -3.44237 -4.53874
  161 42.6181 -3.41145 4.49254
  162 58.4156 -1.30278 6.13895
  163 54.9841 3.98850 3.93275
  164 22.3526 3.73999 -12.2431
  165 24.9074 3.53248 12.9206
  166 72.5795 0.709327 1.54302
  167 58.7271 -2.22021 -4.40217
  168 78.1998 17.2184 -1.10052
  169 52.6726 -1.47006 0.210568
  170 52.6601 -1.46390 -0.204942
  171 59.7548 -0.646159 -0.743884
  172 59.9691 -0.570782 0.647641
  173 40.4506 -0.632726 -0.678719
  174 40.4530 -0.625652 0.673902
  175 64.7518 -1.87698 13.0274
  176 53.0915 2.16525 -4.22741
  177 34.4183 -2.62366 -7.45925
  178 34.5233 -2.60372 7.40292
  179 38.5090 -1.34019 -2.38204
  180 38.5095 -1.32373 2.36039
  181 59.0457 -1.51260 3.73810
  182 53.4734 -3.69631 0.302800
  183 53.2694 -3.66856 -0.207141
  184 61.3270 -5.89537 -0.341653
  185 61.6263 -5.61540 -0.434493
  186 85.1281 19.9802 -2.12367
  187 60.8759 9.85751 3.04719
  188 61.2286 3.77449 -6.95199
  189 64.6190 -0.764160 -15.2770
  190 61.0482 -3.41605 -5.12083
  191 61.5553 -2.42436 5.92433
  192 51.0845 -5.81754 4.80686
  193 51.1113 -5.77902 -4.78861
  194 54.1399 0.666943 5.10972
  195 24.2120 -0.545822 -9.07625
  196 24.2781 -0.603228 9.01378
  197 96.6788 14.6178 2.03554
  198 57.7297 -3.41815 2.94454
  199 60.0253 -1.05052 -2.48683
  200 46.7972 -1.17777 -0.443426
  201 46.7960 -1.17047 0.441198
  202 57.1638 -0.733376 -4.70506
  203 65.3370 9.64015 -5.69004
  204 53.9585 4.82527 -0.791765
  205 34.4747 -1.29431 3.41512
  206 34.4190 -1.29944 -3.44538
  207 61.1196 -0.612380 1.41590
  208 58.8988 1.11264 6.89804
  209 47.6054 -3.54601 -1.99377
  210 47.2465 -3.35934 2.06400
  211 69.9451 10.3804 5.45645
  212 83.3804 10.8540 0.633317
  213 5.14222 4.17649 -3.11428
  214 4.74139 3.86120 2.62677
  215 33.6636 9.49242 22.0108
  216 57.1324 -3.78396 -2.38106
  217 61.3792 -0.589118 -1.28189
  218 53.4618 0.442927 -4.70113
  219 36.6777 -0.409748 -1.04784
  220 36.6872 -0.404923 1.03647
  221 51.0831 -2.42495 -0.177467
  222 51.1058 -2.43783 0.147191
  223 57.7282 -0.765275 4.02759
  224 67.4153 -3.92360 0.698681
  225 66.0083 13.6651 -1.68386
  226 51.7778 -5.04803 -2.03982
  227 66.1212 -1.13107 4.86544
  228 56.0482 -0.881877 0.333699
  229 56.0509 -0.873365 -0.333115
  230 51.3634 -5.02296 2.14687
  231 59.1653 -3.72395 4.23008
  232 84.8128 10.2293 -4.05134
  233 17.9604 10.7258 -15.6101
  234 48.9165 1.66523 0.994829
  235 58.9783 5.21582 5.78679
  236 63.3963 -0.419916 -6.39471
  237 59.0281 -2.10055 -5.80594
  238 30.3128 -1.03103 -4.31994
  239 30.4266 -1.01457 4.30172
  240 59.1737 -0.682088 -3.16536
  241 56.4481 -1.38002 0.944504
  242 56.4218 -1.37667 -0.919087
  243 11.0916 1.11764 -5.63701
  244 11.2972 0.981187 5.62091
  245 63.4254 -5.52348 -4.20604
  246 62.8704 -0.153466 0.221897
  247 62.9518 -0.157093 -0.233021
  248 57.4892 4.76331 -5.27404
  249 50.0075 0.913839 3.04247
  250 109.372 17.5453 11.6751
  251 108.606 12.3753 -7.39363
  252 76.8702 16.8120 -0.316938
  253 47.8960 -2.26472 13.8001
  254 43.8237 -1.42055 -14.4663
  255 49.9572 -1.02254 -0.102276
  256 49.9512 -1.01464 0.100863
  257 40.8240 -1.16015 1.40082
  258 40.8273 -1.17722 -1.41637
  259 60.9251 -0.606529 2.01763
  260 58.9398 -4.17297 -3.58726
  261 36.7566 -0.0933607 -0.236093
  262 36.7617 -0.0919209 0.234118
  263 58.1892 -2.31575 -2.82163
  264 23.5739 -0.794859 -5.96253
  265 23.6891 -0.797712 5.91357
  266 58.8409 -2.52101 4.73536
  267 44.5912 -4.73515 8.24265
  268 44.7208 -4.82070 -8.21851
  269 49.7151 1.85109 -1.41585
  270 42.8827 -0.700181 -0.453650
  271 42.8840 -0.694734 0.451261
  272 54.5935 -0.150481 3.79946
  273 65.7495 12.1536 3.97133
  274 34.0141 -0.457857 1.81936
  275 33.9875 -0.462038 -1.83790
  276 60.6536 -5.02921 2.75727
  277 56.1491 -6.26742 -5.22939
  278 63.0449 -0.239830 0.678432
  279 42.6064 -2.61689 -3.05823
  280 42.5208 -2.58580 3.04347
  281 78.9613 7.26451 19.4034
  282 35.6889 -2.86266 9.93071
  283 57.9572 8.17590 -0.346616
  284 74.6862 8.08409 -4.05306
  285 55.7700 -4.32041 1.23555
  286 56.1674 -6.44309 4.65599
  287 35.8137 -2.81218 -10.0563
  288 6.40400 7.87054 6.94453
  289 58.1982 -2.32600 2.87064
  290 77.0385 9.87835 3.42706
  291 63.6138 -0.212924 -0.587966
  292 56.5132 1.96025 -6.06837
  293 56.2131 -3.16683 1.74943
  294 54.9934 -4.65793 -0.354971
  295 56.2680 2.57131 5.83309
  296 60.3443 -5.03520 -2.52085
  297 85.9829 16.9284 -1.23501
  298 56.1972 -3.04158 -1.67856
  299 47.1893 13.0126 -27.2494
  300 57.6183 -6.09391 -0.528930
  301 57.1926 -6.25818 1.20060
  302 41.3461 -3.80108 -6.49522
  303 36.4390 -0.166001 -0.521697
  304 36.4464 -0.163148 0.516356
  305 41.3572 -3.80245 6.45493
  306 60.7470 -0.0869494 -7.03233
  307 66.1005 -2.72306 -3.48761
  308 49.6053 -3.04309 -0.904571
  309 49.5645 -3.04958 0.924614
  310 60.2994 -5.18664 8.64647
  311 59.6970 -0.449953 2.39982
  312 73.5466 0.128177 2.34140
  313 48.4743 -1.74691 -0.463920
  314 48.4756 -1.73945 0.459662
  315 43.7818 -1.19432 -0.875498
  316 43.7793 -1.18198 0.873274
  317 49.4346 0.630852 -2.94553
  318 64.8947 4.76336 -6.85464
  319 102.106 27.2931 -12.4281
  320 59.4076 -0.443706 -0.260169
  321 59.3669 -0.436999 0.265460
  322 31.0829 0.0285064 12.3912
  323 43.6278 -2.05689 -1.95775
  324 43.5336 -2.04766 1.96191
  325 31.0801 -0.0390402 -12.3445
  326 61.5378 7.29436 -5.70474
  327 69.6290 3.41013 5.48322
  328 60.3455 -4.30914 -9.66863
  329 54.8960 -2.09872 0.890873
  330 54.8358 -2.08100 -0.864511
  331 58.8770 -1.15699 -1.43755
  332 54.6412 -0.113259 -3.55678
  333 61.9479 0.294669 6.93660
  334 62.2067 -0.388226 -1.40572
  335 36.2498 -2.28173 4.97481
  336 36.2109 -2.29592 -5.01937
  337 57.2851 -0.133204 6.36199
  338 34.1398 -0.313997 -1.06606
  339 34.1613 -0.310923 1.05425
  340 59.2786 -1.30727 2.13896
  341 70.9391 14.6024 -3.15330
  342 58.8369 -1.16805 1.48608
  343 62.2663 7.86746 5.74251
  344 59.7126 -1.08915 6.70429
  345 46.7164 -0.896313 0.144242
  346 46.7184 -0.902867 -0.145858
  347 56.1867 -0.208362 -5.63572
  348 75.1753 15.8925 2.32135
  349 61.8844 11.4554 0.120498
  350 38.0350 4.46580 -18.5975
  351 3.43473 1.69806 -2.29952
  352 3.82096 1.83326 2.49851
  353 -0.316736 0.365272 1.25759
  354 -0.0605818 0.161669 -1.30216
  355 112.614 7.80398 2.74566
  356 51.3515 -4.22025 -1.04494
  357 59.3379 -1.25925 -2.08939
  358 53.2041 -0.900311 0.152131
  359 53.1978 -0.891780 -0.152277
  360 56.5313 6.24928 -2.85108
  361 48.4111 -4.99046 3.94025
  362 3.98271 5.84937 -4.14636
  363 48.4696 -4.99192 -4.02388
  364 57.3221 6.52908 3.03435
  365 59.0527 -1.53638 -3.57430
  366 62.8489 -3.47301 -4.51387
  367 66.4564 14.2138 1.16725
  368 63.0309 -3.89645 3.85704
  369 24.7499 -0.655449 4.00545
  370 24.5847 -0.643097 -4.03633
  371 13.7170 0.379272 -5.46504
  372 13.8874 0.317967 5.43854
  373 50.2997 0.125089 2.98881
  374 99.2545 28.4243 10.1263
  375 61.2541 -0.354332 -1.74245
  376 47.0445 -4.05400 -2.98008
  377 46.9953 -4.04039 2.97517
  378 58.5929 -1.32493 -4.43787
  379 67.4273 -3.25369 1.28594
  380 51.3490 -4.21499 1.08799
  381 74.5437 0.302206 -5.15662
  382 40.3707 -0.362257 -0.156294
  383 40.3741 -0.358841 0.154527
  384 57.4326 -0.322796 -2.79036
  385 29.7856 -0.466508 -2.62335
  386 29.8072 -0.480568 2.58781
  387 69.1479 8.82091 -5.99259
  388 37.0534 2.65593 17.2172
  389 53.8310 -2.83368 0.634972
  390 53.8859 -2.82744 -0.638530
  391 63.1264 10.7665 -3.67285
  392 59.9976 -1.75630 -6.40259
  393 60.5904 -6.16314 4.42823
  394 49.7742 -1.33207 -0.145571
  395 49.7665 -1.32406 0.142379
  396 57.9822 -4.46194 2.57039
  397 62.8766 -0.263152 1.05481
  398 37.8998 -1.46063 -3.01130
  399 37.9131 -1.45947 2.98107
  400 58.5372 1.96194 -6.78987
  401 55.5231 -1.15834 0.513418
  402 55.5220 -1.16037 -0.504654
  403 57.1651 -0.663285 5.22312
  404 52.7417 3.80726 1.34873
  405 59.5479 -2.48652 5.65296
  406 86.8612 18.3415 2.85028
  407 27.9049 -1.51406 -7.97917
  408 27.9877 -1.51522 7.91111
  409 12.3047 6.75952 -9.20058
  410 64.6433 -0.140455 0.316349
  411 31.0348 -0.296388 -1.65459
  412 31.0797 -0.290087 1.63801
  413 58.6550 -1.50375 4.36377
  414 53.1633 -5.79431 2.36811
  415 60.5070 -0.684609 1.02439
  416 61.1319 3.12119 7.13684
  417 12.9575 7.19713 9.64306
  418 53.2519 -5.76536 -2.14082
  419 55.0725 -5.13574 -0.00526353
  420 16.9255 -0.342552 -4.99019
  421 17.0742 -0.357028 4.95179
  422 42.0743 -3.30939 -11.9853
  423 63.4328 -0.917008 6.26291
  424 41.8877 -3.36689 11.8707
  425 58.4784 -3.26076 -3.81542
  426 53.5653 3.57679 -2.97526
  427 58.4954 -2.49439 3.59614
  428 63.5459 -0.235374 -0.736242
  429 1.74755 1.74504 0.565853
  430 12.3686 13.9317 13.7542
  431 55.8084 -0.208736 2.66831
  432 45.8952 0.585858 1.27923
  433 46.7901 0.725175 -1.74242
  434 39.9325 -0.714476 -0.986815
  435 39.9338 -0.704780 0.978534
  436 57.6695 -4.46079 -2.39242
  437 58.0425 -1.12198 -5.87474
  438 46.1788 0.814986 -0.473699
  439 86.9505 20.6427 3.46985
  440 11.2991 3.92418 -6.86155
  441 12.5183 3.60459 7.37141
  442 53.7822 -1.90489 0.528388
  443 53.7599 -1.89842 -0.512366
  444 71.8344 16.1131 -0.269295
  445 45.9349 17.6261 27.8429
  446 69.8349 -1.04192 -1.83947
  447 38.8894 -2.10635 -4.08928
  448 38.9051 -2.09035 4.04902
  449 38.9366 -0.930950 1.57411
  450 38.9320 -0.938582 -1.59151
  451 53.2797 1.14729 -4.82710
  452 65.0243 -0.0514490 -0.215982
  453 51.6108 2.32179 2.69189
  454 66.3744 8.22532 6.32602
  455 55.1468 -4.10326 -0.995325
  456 60.4927 -0.646674 -0.992820
  457 63.8335 -0.208645 0.678934
  458 64.8484 -0.0525174 0.124064
  459 64.9135 -0.0644711 -0.0952673
  460 33.7679 -0.0759618 0.386687
  461 33.7528 -0.0770127 -0.391687
  462 60.5224 -3.81464 4.60146
  463 53.8197 2.09175 4.67153
  464 56.5833 0.221954 -6.18794
  465 59.6312 -1.20959 2.70197
  466 88.2400 13.5536 -15.8585
  467 59.6820 -3.28580 -5.03616
  468 0.294746 1.08490 0.283115
  469 0.301441 1.09141 0.0112833
  470 46.7076 -2.71378 1.59359
  471 46.5396 -2.68044 -1.57883
  472 75.4795 0.993948 8.23059
  473 20.6972 18.0685 -20.7839
  474 58.7282 -0.161666 2.10866
  475 67.5024 -3.97194 -4.42094
  476 34.6606 -2.06082 5.78638
  477 71.7025 12.7342 -4.51646
  478 58.8118 -3.15771 4.26419
  479 48.9132 -2.38418 -0.665119
  480 48.9569 -2.34265 0.661602
  481 50.2852 0.252184 -2.64331
  482 34.5478 -2.05416 -5.82889
  483 51.7061 0.00180338 2.66896
  484 50.2817 -5.73725 -7.25703
  485 50.1491 -5.74603 7.27491
  486 60.8495 -0.374267 1.91735
  487 54.4279 5.11397 0.558174
  488 56.6392 0.807390 18.8390
  489 82.8486 17.0941 -0.108547
  490 56.9861 -0.901297 0.533717
  491 56.9916 -0.897546 -0.546919
  492 42.8679 -0.805715 -0.593019
  493 42.8685 -0.798263 0.589851
  494 22.4216 1.12564 10.3168
  495 59.0458 -2.81850 -4.89519
  496 53.3842 -1.13254 0.188350
  497 53.3788 -1.12747 -0.186651
  498 46.2835 -4.94001 5.94529
  499 22.8776 1.47418 -10.5891
  500 59.2343 -4.80559 -2.71943
  501 0.905846 -0.0226035 0.669710
  502 50.7444 2.57231 0.191598
  503 57.2320 -0.594798 -0.182089
  504 57.2284 -0.604623 0.179290
  505 46.3236 -4.93368 -5.99555
  506 67.5895 -3.55347 5.88004
  507 66.4564 2.42336 6.52437
  508 61.5989 -0.349311 -0.511996
  509 59.0517 -4.87577 2.74741
  510 35.4558 -0.0500752 -0.0628005
  511 35.4603 -0.0497000 0.0620363
  512 58.8228 -2.23650 -5.15820
  513 56.4985 4.17737 5.14166
  514 65.6124 1.62683 -6.43360
  515 35.2463 -0.0720554 -0.215748
  516 35.2525 -0.0711442 0.213855
  517 117.437 16.9482 -15.2869
  518 58.9077 7.04653 4.55684
  519 61.6602 -0.313633 0.458709
  520 55.2022 -5.24690 0.136171
  521 45.7901 -1.56410 0.845237
  522 45.7922 -1.57738 -0.843611
  523 64.7017 -3.91022 2.47808
  524 61.8617 -1.20772 -6.52591
  525 69.0363 13.7274 3.66004
  526 57.0949 0.975324 6.40763
  527 58.1182 -1.05749 0.961890
  528 56.5642 -5.99905 -6.87960
  529 58.2911 -1.42063 5.02758
  530 116.354 5.30300 -2.15514
  531 64.2593 -4.82083 -0.825033
  532 61.2144 -0.332471 -0.136049
  533 61.2273 -0.359097 0.124925
  534 117.541 7.90162 7.60161
  535 55.5650 -0.0290759 5.44966
  536 79.3054 13.0599 -2.39676
  537 59.0944 -1.56142 -2.65771
  538 25.2941 -0.258854 -1.79837
  539 25.3836 -0.246594 1.77805
  540 39.3912 -3.70958 -8.30936
  541 39.4156 -3.64670 8.24223
  542 58.0884 -1.00943 -0.950507
  543 63.0543 2.32889 -7.06432
  544 55.3188 -3.76932 1.20442
  545 59.1868 6.80753 -4.74232
  546 60.1437 -0.658450 2.58288
  547 76.2452 3.57369 0.120098
  548 51.0375 -1.75917 -0.0402454
  549 51.0190 -1.75113 0.0372681
  550 55.7362 -2.61643 1.36128
  551 83.2455 16.1600 -0.125487
  552 58.4494 2.56040 6.66206
  553 24.7182 6.40711 15.3408
  554 57.2156 -3.44751 12.3898
  555 76.6097 3.18430 -13.5105
  556 59.7832 4.95256 -6.22514
  557 53.5070 -4.58765 -10.7036
  558 57.8804 -6.32234 -1.63729
  559 60.6279 -6.10324 -2.63107
  560 7.61463 9.58551 -9.10475
  561 60.9027 -0.710975 -1.66346
  562 92.2958 18.0449 -4.89075
  563 56.0520 -2.50201 -1.47128
  564 56.5678 -1.80365 1.21060
  565 56.5137 -1.75942 -1.16976
  566 37.7627 -0.251665 -0.467079
  567 37.7679 -0.248356 0.463000
  568 4.81826 0.589442 -2.93066
  569 5.14268 0.616023 3.00299
  570 28.0467 -1.34838 -6.10528
  571 28.2771 -1.35502 6.09048
  572 57.3286 -3.08334 -2.53671
  573 58.5935 -6.34722 1.80764
  574 60.2456 -5.68884 1.01719
  575 48.7337 -0.863987 -0.137713
  576 48.7296 -0.856695 0.136745
  577 46.5030 -4.85383 -9.17452
  578 52.4276 -4.26497 11.3590
  579 45.3163 -4.55928 9.23567
  580 58.8293 -1.29038 -6.33114
  581 35.7681 -0.647584 1.80829
  582 35.7515 -0.654750 -1.82634
  583 55.6763 3.05389 -5.15493
  584 55.8601 -0.0965731 -2.42266
  585 70.2293 15.4467 -1.69850
  586 45.2101 -0.712506 -0.152745
  587 45.2096 -0.707014 0.151767
  588 60.0313 -0.165681 -1.39678
  589 40.5305 -1.44578 -1.95395
  590 40.5276 -1.43959 1.93375
  591 33.4744 1.63569 14.7662
  592 58.4331 -2.65870 -3.64104
  593 31.9941 -1.64890 10.5769
  594 57.4168 -2.95227 2.57791
  595 60.6996 -0.799939 1.82556
  596 60.0333 -0.475535 -0.463233
  597 40.9086 -0.550182 -0.418293
  598 40.9112 -0.545234 0.415276
  599 67.3005 13.5787 -3.25612
  600 31.9742 -1.57942 -10.6231
  601 57.2330 -2.44604 -2.10055
  602 51.2931 -0.936329 -0.0428068
  603 51.2871 -0.928228 0.0425403
  604 98.5960 13.3704 -2.29935
  605 32.8595 -0.236717 1.00833
  606 32.8303 -0.239136 -1.01946
  607 52.5713 1.17176 4.39333
  608 77.2200 6.18414 -1.95854
  609 35.7478 0.337024 -14.6745
  610 17.6754 0.520654 -7.87979
  611 17.8363 0.409586 7.83688
  612 44.6236 -2.68782 2.36739
  613 45.1270 -2.76689 -2.28453
  614 77.5801 15.5832 2.25711
  615 59.7625 -0.495619 0.426988
  616 50.0439 1.35742 -2.64159
  617 63.2655 11.4785 2.90174
  618 63.0064 11.9165 -1.92879
  619 51.8038 -2.90073 -0.103493
  620 52.2221 -2.83064 -0.0876396
  621 37.3559 8.04305 -21.2534
  622 44.0006 -1.57235 -1.28076
  623 44.0016 -1.55301 1.27452
  624 116.512 23.7929 17.8399
  625 58.8148 -1.90359 5.53041
  626 32.5433 -1.21807 -3.91246
  627 93.8401 20.3147 12.7903
  628 32.6231 -1.21032 3.89411
  629 56.7980 -2.20284 -14.5729
  630 38.5051 -0.224330 -0.172939
  631 38.5094 -0.222327 0.171782
  632 48.0434 0.401277 2.30077
  633 21.1470 -0.337522 -3.52493
  634 21.2823 -0.338267 3.49362
  635 51.1118 -3.66562 0.736828
  636 53.7666 -4.33539 0.134908
  637 64.1737 -0.111158 -0.607119
  638 34.3435 -0.0697761 0.278614
  639 34.3330 -0.0709325 -0.282328
  640 47.9495 -1.09888 -0.172375
  641 47.9460 -1.09152 0.170071
  642 55.8216 -6.16138 6.97274
  643 63.8295 7.15366 -6.38489
  644 41.7237 -2.03197 -2.52812
  645 41.6876 -1.99649 2.50682
  646 50.1132 -3.66644 -1.19164
  647 79.8482 17.5379 -0.00196805
  648 59.8697 -5.76612 -0.671727
  649 51.5056 -1.22150 0.0242737
  650 51.4967 -1.21406 -0.0237887
  651 71.6997 7.78299 5.27462
  652 59.8836 -0.820469 -2.80933
  653 52.0373 -0.0807517 -2.17795
  654 23.5517 -0.798736 -7.64552
  655 23.6330 -0.824114 7.57621
  656 50.0156 -4.37725 -2.10164
  657 75.5589 16.9100 0.0795007
  658 57.9911 7.88387 -2.05236
  659 37.6058 -0.384282 -0.878464
  660 37.6121 -0.378743 0.869667
  661 54.4958 -1.51017 -0.488380
  662 54.5066 -1.51328 0.501727
  663 103.864 13.6364 5.95415
  664 65.4216 -0.141203 0.176826
  665 62.7537 -0.215972 1.02246
  666 62.4626 -0.225664 -1.18107
  667 59.0794 -5.47808 1.52229
  668 42.4446 -0.531135 -0.209382
  669 42.4465 -0.526836 0.208109
  670 62.6836 10.1306 4.44288
  671 81.3034 18.1868 -0.496397
  672 43.5922 -3.33307 -3.58727
  673 43.5728 -3.29785 3.56545
  674 55.2874 -5.71039 -0.659551
  675 57.9528 3.44224 -6.25877
  676 69.8779 0.146767 3.34563
  677 45.2482 -0.876411 -0.384504
  678 45.2476 -0.869823 0.382207
  679 39.1528 -3.47722 -7.50504
  680 58.5013 -5.64131 -0.961648
  681 48.3029 -5.36736 6.54283
  682 22.7597 7.28661 -14.7785
  683 44.8326 -4.21897 5.03872
  684 53.9962 0.0128843 2.02642
  685 39.1846 -3.43632 7.44873
  686 57.1970 -2.49674 2.12629
  687 44.8562 -4.20303 -5.09132
  688 45.0470 0.549705 0.479921
  689 34.7577 -1.00004 2.75893
  690 34.7259 -1.00197 -2.78209
  691 48.3435 -5.50751 -6.61976
  692 60.0987 -3.93051 -4.45601
  693 54.9969 -0.716008 -0.120738
  694 55.0053 -0.724861 0.121227
  695 61.4973 -3.88019 4.46281
  696 55.7408 -5.83053 0.870323
  697 67.9466 6.23202 6.38793
  698 61.1042 -1.11554 6.67341
  699 58.7923 -2.07507 4.15363
  700 55.5627 4.55211 -3.90931
  701 67.5359 11.4325 5.02699
  702 58.1681 -0.788643 -3.92667
  703 58.2063 -1.88571 2.27085
  704 59.6132 9.39743 1.11230
  705 59.1181 -0.971980 3.46928
  706 18.2524 12.3321 15.4352
  707 55.1091 -6.32635 -3.81300
  708 63.8261 1.18502 6.83496
  709 64.6200 -1.97708 -5.09738
  710 65.0136 -0.0515822 0.349994
  711 58.8077 -1.97900 -3.32830
  712 55.1753 -6.37735 3.41930
  713 109.454 9.68296 -1.63249
  714 31.4452 -0.153850 1.05770
  715 31.4050 -0.155645 -1.06943
  716 59.8370 -1.02686 -1.62382
  717 65.4380 -0.0363063 -0.337203
  718 49.9112 -4.44653 2.11408
  719 60.3298 -2.21461 6.10478
  720 93.4782 21.5633 -5.51885
  721 57.1787 -4.13628 2.26306
  722 63.7195 -4.16375 -2.95078
  723 58.2323 -1.83195 -2.23608
  724 65.4918 -0.0757629 -0.123534
  725 58.6592 0.00706099 6.81670
  726 2.56881 1.84048 3.00109
  727 67.3462 -2.70903 -9.12024
  728 72.9615 4.20760 3.67738
  729 60.5355 -6.15643 2.27176
  730 42.0233 -1.06905 1.05750
  731 42.0263 -1.08493 -1.06430
  732 58.0290 27.1677 -29.2474
  733 61.5344 -4.03675 -4.17083
  734 44.8542 0.190709 -0.916843
  735 53.2049 0.273673 4.30774
  736 59.1946 -2.93288 4.98335
  737 56.7432 -4.78146 1.39181
  738 59.4151 -5.37997 -7.48699
  739 56.3679 -4.46045 -1.47622
  740 67.1755 -3.21832 -1.51066
  741 61.7980 -0.441631 0.964017
  742 54.6493 -3.29102 0.911030
  743 101.214 20.2754 -10.5621
  744 58.5354 -1.51295 1.82765
  745 57.4293 0.931712 -6.58793
  746 49.5435 -0.587728 16.4624
  747 61.7328 4.99624 6.79888
  748 53.0729 -4.21097 0.158587
  749 40.4383 -3.26380 -5.44939
  750 40.4365 -3.25305 5.39884
  751 55.9812 6.29421 -0.915497
  752 57.2969 -0.653271 5.92874
  753 58.0475 -1.36505 -5.12033
  754 54.7144 -3.35593 -0.932374
  755 52.8354 -4.77295 0.951692
  756 60.0954 9.99321 -1.27070
  757 56.6698 -4.90358 -1.16673
  758 56.7961 -3.58342 2.17730
  759 57.7299 -0.671573 0.369993
  760 57.7708 -0.650698 -0.368571
  761 77.6959 17.2575 0.792603
  762 63.8061 -5.39848 -1.22527
  763 58.9924 -1.76509 3.30399
  764 61.8443 -0.438001 -0.885762
  765 62.0164 0.432116 -7.00049
  766 71.1446 3.65667 -4.59873
  767 33.1415 -0.0460972 -0.485498
  768 33.1624 -0.0455450 0.479604
  769 0.432979 -1.23017 -0.888711
  770 60.1848 -0.0532386 1.29711
  771 54.5751 -0.110893 -4.79102
  772 56.6134 -0.527095 4.27412
  773 52.6667 6.12765 24.4349
  774 64.5154 13.4279 -0.155359
  775 45.5474 -3.34504 2.72039
  776 7.16647 0.194124 -2.93977
  777 7.41752 0.145737 2.97279
  778 56.0470 -0.402547 -4.79938
  779 45.6867 -3.38073 -2.71771
  780 61.4677 -0.484297 0.752821
  781 30.1398 -1.33988 5.21722
  782 29.8645 -1.33595 -5.22466
  783 58.5367 -1.46641 -1.78213
  784 36.1709 -0.979866 -2.39068
  785 36.1881 -0.972690 2.36571
  786 61.0688 -0.526935 -1.96865
  787 45.7579 -1.26841 -0.671186
  788 45.7571 -1.25895 0.671103
  789 66.7851 -0.424633 -5.15270
  790 59.6413 -0.609820 -6.88524
  791 28.9926 -0.205043 -1.36108
  792 29.0549 -0.203167 1.34325
  793 0.965015 0.752457 -1.70298
  794 1.24950 0.792118 1.79724
  795 47.2119 0.212512 -1.67432
  796 54.5840 -6.13712 -2.72476
  797 -0.653203 -0.460803 1.10281
  798 -0.563984 -0.526973 -1.08362
  799 56.8893 -1.08323 0.770728
  800 61.8495 -4.79272 -2.65635
  801 63.3931 9.45319 -5.20508
  802 61.7641 -0.430549 -0.713114
  803 136.357 26.8752 -25.6055
  804 56.8784 -1.07857 -0.761474
  805 86.2100 16.6398 1.13553
  806 60.6531 1.77681 -7.15743
  807 67.3692 5.07220 -6.50756
  808 10.2113 -0.122639 -2.74500
  809 10.4368 -0.139776 2.73908
  810 36.7057 -0.576876 1.39531
  811 36.6946 -0.582097 -1.41034
  812 34.6873 -0.0998698 0.256745
  813 34.6797 -0.100863 -0.259341
  814 67.9010 11.4883 -5.00783
  815 38.9558 -0.278222 -0.368218
  816 38.9601 -0.274874 0.365489
  817 57.4820 -0.576625 -6.18042
  818 85.1361 7.96772 6.10127
  819 51.0936 1.09792 -3.68653
  820 16.8000 -0.160180 2.97388
  821 16.6332 -0.161562 -3.00019
  822 68.4337 1.50922 17.3064
  823 59.7625 -1.03592 1.67602
  824 52.3977 3.43872 -1.53804
  825 23.2701 -0.0486079 2.04693
  826 23.1335 -0.0371734 -2.06423
  827 35.6041 -0.210744 -0.675551
  828 35.6150 -0.207704 0.667844
  829 6.25173 5.63514 4.60199
  830 54.9279 1.28589 5.52304
  831 61.4295 9.08317 -4.41796
  832 66.5116 7.73142 -6.38931
  833 42.8646 -1.69409 -1.72613
  834 42.8347 -1.67958 1.72172
  835 68.6992 14.8015 2.32061
  836 59.7833 -0.419016 -0.104265
  837 59.7840 -0.415620 0.115053
  838 58.7832 -1.72611 -4.16112
  839 48.8393 -3.31582 1.43045
  840 54.2249 -6.10033 2.75298
  841 64.3305 -5.27077 4.36718
  842 48.3107 -1.42865 -0.311604
  843 48.3083 -1.42188 0.308038
  844 55.1832 5.10041 2.50176
  845 51.6214 0.670918 -3.99167
  846 14.3742 15.9057 16.0543
  847 53.0113 -4.73568 -0.817342
  848 53.1541 -2.37938 0.424216
  849 53.1835 -2.38206 -0.426401
  850 58.4910 -0.846447 6.53056
  851 58.2211 -3.80484 -3.28772
  852 51.7076 -3.46473 -0.333492
  853 122.639 3.98006 -6.22366
  854 49.0779 -4.70418 3.04159
  855 49.0439 -4.76812 -3.09754
  856 58.4954 -0.680811 3.34878
  857 89.3185 22.8314 -4.18598
  858 45.8890 -4.24660 -3.94330
  859 51.0321 -5.78055 3.61854
  860 45.8689 -4.19293 3.90379
  861 49.8629 -2.03675 -0.318554
  862 49.8590 -2.02815 0.314521
  863 6.94907 3.10698 4.02528
  864 62.9245 4.71784 -6.93341
  865 47.6999 -1.90646 -0.674236
  866 47.7069 -1.88556 0.677228
  867 47.0173 -0.794336 -0.0783226
  868 47.0150 -0.787944 0.0775413
  869 52.1348 -1.01124 0.0924324
  870 52.1279 -1.00335 -0.0925419
  871 41.6330 -0.870724 -0.922943
  872 41.6337 -0.860237 0.917793
  873 47.9210 -2.58366 -1.08385
  874 47.9252 -2.56351 1.08824
  875 1.06212 -0.800292 -0.288406
  876 73.2583 13.7515 4.03737
  877 62.9675 -2.17693 -5.75362
  878 50.9997 -5.69824 -3.66435
  879 55.2198 -1.74857 0.795086
  880 55.1938 -1.72835 -0.777586
  881 60.1550 0.0943428 7.02763
  882 66.1375 -4.72095 -2.05414
  883 58.7946 3.83916 -21.0994
  884 25.6900 -0.355124 10.2509
  885 -1.31680 0.601027 -0.579132
  886 -1.17643 0.676252 0.658153
  887 6.88795 3.30544 -4.10349
  888 59.0159 -1.64749 2.64945
  889 62.4406 -0.353333 -1.13137
  890 55.9947 -5.35062 8.73214
  891 25.6261 -0.322826 -10.2965
  892 62.4152 -5.06779 2.06428
  893 70.1404 -2.23124 7.31223
  894 49.1149 0.188431 1.77899
  895 57.0261 5.42639 4.28462
  896 30.2962 -1.73400 7.59656
  897 30.1733 -1.74835 -7.65350
  898 36.4200 -1.81084 -4.23662
  899 38.9297 -1.83824 -13.1489
  900 62.2307 -1.42321 6.35209
  901 86.4233 19.9572 2.03286
  902 62.3432 2.42116 7.07025
  903 58.9496 -1.22446 -3.77651
  904 39.7851 -1.64755 13.4813
  905 75.6070 13.8656 -3.25082
  906 7.05657 6.11465 -5.72603
  907 53.8361 -0.118800 -1.93300
  908 36.4579 -1.79488 4.19346
  909 44.8719 -1.02922 0.601607
  910 44.8727 -1.03733 -0.603660
  911 58.3110 -3.78506 3.38164
  912 60.9606 -0.310132 0.305463
  913 44.5169 0.451087 -16.4297
  914 64.4633 -0.114897 0.538737
  915 63.8764 -0.0910943 -0.673561
  916 46.0267 0.377241 -1.53290
  917 61.3946 -0.238052 -1.15707
  918 45.0993 -2.18283 -1.53911
  919 45.1294 -2.14799 1.54287
  920 -1.61211 0.521614 -0.945004
  921 -2.16496 0.314122 0.976469
  922 60.9633 -0.283339 -0.305514
  923 19.1288 -0.415493 6.90109
  924 18.9987 -0.370171 -6.94482
  925 64.5104 9.47223 5.52526
  926 119.647 2.14793 1.95098
  927 60.5440 6.76668 5.68854
  928 69.6894 -2.52901 1.47704
  929 59.9567 -3.30728 5.05612
  930 74.8155 15.7548 -2.46475
  931 44.9252 0.159995 1.15336
  932 57.7613 -1.29913 -1.16918
  933 59.6372 3.21161 -6.87416
  934 73.1440 2.01612 -2.11366
  935 56.1506 -3.46039 -1.78672
  936 27.3310 -0.170472 -1.53088
  937 27.3653 -0.164537 1.50723
  938 59.3842 -1.34795 -3.02873
  939 1.77501 2.32264 0.244907
  940 56.9764 -5.90202 -0.0481724
  941 48.1866 1.36913 -0.158929
  942 74.1862 16.4708 -1.64175
  943 11.2589 8.42070 -9.76754
  944 56.6205 -0.418990 -3.83093
  945 38.3570 -0.695429 -1.28967
  946 38.3619 -0.686725 1.27639
  947 0.276640 -1.69406 1.31433
  948 37.9479 -2.89677 -6.08683
  949 57.9990 -3.32780 -3.17549
  950 34.5009 0.0731047 -0.103593
  951 34.5057 0.0735619 0.102665
  952 58.0589 7.06369 -3.44927
  953 63.5141 -0.124983 -0.109815
  954 63.5111 -0.128182 0.141097
  955 37.9605 -2.88728 6.03984
  956 58.5090 -0.0637312 -1.53086
  957 67.9325 0.486682 5.02122
  958 60.1805 -0.784118 1.31393
  959 8.95030 2.42227 -5.19959
  960 62.5885 -0.325189 1.03131
  961 55.8741 0.431783 5.94053
  962 58.9512 8.20765 3.07010
  963 59.2492 0.692062 -7.05300
  964 40.1304 -2.23608 -3.58683
  965 64.4434 -2.24647 4.94209
  966 40.1546 -2.22581 3.54533
  967 1.66887 1.89265 0.0717059
  968 6.40634 1.21326 3.79904
  969 32.2037 -0.614945 2.50982
  970 32.1617 -0.616224 -2.52706
  971 57.8003 -1.32739 1.22306
  972 61.6227 10.8110 1.72119
  973 31.1807 2.94651 -15.4709
  974 51.5981 -3.25741 0.257742
  975 48.4076 -5.10495 -4.74326
  976 71.0697 13.6986 4.03753
  977 54.5192 -0.918588 0.181169
  978 54.5179 -0.912498 -0.181268
  979 60.0232 -1.05447 -2.21631
  980 54.6308 4.69336 -2.31018
  981 130.119 37.5720 25.3835
  982 10.7102 0.672052 -5.11439
  983 10.9056 0.560393 5.12857
  984 0.794502 -1.43246 0.0703547
  985 54.8597 3.01243 4.74125
  986 48.3832 -5.13411 4.70368
  987 60.3604 -2.82341 -5.68218
  988 65.7332 5.39367 6.94187
  989 63.6718 -5.13719 -5.53263
  990 93.3423 19.7215 6.12304
  991 53.4443 -0.825329 0.00999366
  992 53.4373 -0.817218 -0.00981977
  993 62.9239 -2.52841 5.48601
  994 4.19253 6.12128 6.93063
  995 27.0158 -0.605667 3.61542
  996 26.9221 -0.598054 -3.65990
  997 32.7018 -1.67119 4.91445
  998 32.5828 -1.64732 -4.93719
  999 36.9977 -1.59947 3.49131
  1000 40.4318 -0.358897 -0.171950
  1001 40.4351 -0.355984 0.171060
  1002 106.858 32.6269 -20.3098
  1003 95.1601 23.7953 9.17851
  1004 36.9682 -1.60886 -3.52564
  1005 64.8460 -0.271427 6.02538
  1006 57.3103 5.95288 -4.13670
  1007 40.4727 -3.44601 10.8789
  1008 52.4508 -6.18961 -5.61122
  1009 60.0322 -0.465369 -2.27652
  1010 26.4801 1.92764 12.5222
  1011 34.0284 -2.61294 8.69799
  1012 52.2023 2.63545 -2.95508
  1013 60.6189 -1.17636 -6.73321
  1014 80.5372 29.9312 33.6778
  1015 49.0207 1.45635 2.09042
  1016 67.9448 14.8356 -0.276531
  1017 50.4232 1.90147 -18.7187
  1018 50.7235 -5.38482 -3.08394
  1019 65.5369 -0.0331558 -0.277780
  1020 61.8636 5.70317 -6.62770
  1021 35.0025 -0.258096 0.880716
  1022 34.9875 -0.260790 -0.890753
  1023 1.22780 0.0776412 -1.55556
  1024 40.1154 -1.91322 -2.97770
  1025 33.9903 -2.64747 -8.77127
  1026 40.0782 -1.90753 2.93935
  1027 59.1915 -1.77832 6.22444
  1028 52.9929 -3.29762 0.249544
  1029 55.3442 0.998935 -5.74187
  1030 56.9091 7.12610 1.20552
  1031 79.2175 4.38611 1.79690
  1032 58.7927 -4.44545 3.28179
  1033 36.3760 -2.97161 -6.66316
  1034 54.8029 1.91248 -5.35497
  1035 40.8577 -3.39621 -10.9460
  1036 79.4240 17.4706 -0.142307
  1037 53.0733 3.45173 2.68774
  1038 68.5282 -0.429930 -4.03836
  1039 51.0437 -5.38404 2.79383
  1040 58.6726 -1.83014 4.86036
  1041 58.3750 -3.05554 3.65076
  1042 58.0573 -2.89235 3.20077
  1043 72.0549 9.09022 -5.38805
  1044 57.7511 -0.915038 4.85060
  1045 52.3476 -6.20721 5.51404
  1046 55.8923 -2.25854 1.23141
  1047 36.3967 -2.97593 6.61916
  1048 52.2926 -3.89514 -0.347275
  1049 29.7911 -1.42644 -9.30965
  1050 43.1003 -4.50636 7.31333
  1051 58.9451 -0.375761 -2.61853
  1052 57.2105 -0.638266 -5.47437
  1053 49.4564 -3.97452 -1.78762
  1054 29.8436 -1.47192 9.22816
  1055 52.8964 0.109886 -3.74604
  1056 39.1066 -2.67964 -4.67868
  1057 72.3038 15.5547 2.61819
  1058 15.4388 2.69828 -8.66910
  1059 128.126 9.07857 12.5820
  1060 28.4374 2.24133 -13.1437
  1061 58.0744 -4.79762 -2.21512
  1062 39.1135 -2.65492 4.63474
  1063 52.2645 0.520556 4.16931
  1064 28.5162 -0.615882 2.98933
  1065 28.4982 -0.631473 -3.02312
  1066 58.6144 -1.61204 -5.75787
  1067 63.0963 -0.254089 0.452244
  1068 61.4420 -0.115786 1.17448
  1069 60.4225 2.02475 7.12787
  1070 56.2851 -0.423602 5.12118
  1071 44.0602 4.61791 20.2819
  1072 66.0103 -0.0248255 0.142792
  1073 60.6275 8.26484 4.53192
  1074 50.6994 0.698857 3.57768
  1075 62.3564 -0.212919 1.13721
  1076 38.6966 -0.462179 -0.708327
  1077 38.7008 -0.456696 0.702430
  1078 24.2580 -0.719462 -4.97720
  1079 24.3654 -0.745148 4.93738
  1080 50.8576 2.49066 1.49612
  1081 79.6266 3.86480 -4.80169
  1082 73.1253 -0.364762 -10.2004
  1083 56.9104 -0.0427063 -1.57521
  1084 43.1259 -4.54129 -7.37315
  1085 49.5586 -3.77905 1.56244
  1086 57.2756 -0.124498 1.64577
  1087 60.4325 -4.35261 -3.81676
  1088 36.2318 -0.106656 0.432425
  1089 36.2255 -0.108394 -0.435787
  1090 57.9605 -4.93530 2.21491
  1091 54.9908 -1.07837 0.313769
  1092 54.9820 -1.07895 -0.309377
  1093 53.4445 -5.41168 1.57005
  1094 69.7911 -2.29914 0.0727996
  1095 29.7631 -0.0605358 -0.845282
  1096 29.8164 -0.0584213 0.834897
  1097 46.9798 -2.90851 -12.5397
  1098 49.5710 -1.18786 0.129732
  1099 49.5772 -1.19584 -0.132073
  1100 30.2387 15.8214 22.2547
  1101 69.6833 5.67156 -5.93586
  1102 9.67754 4.87532 -6.37349
  1103 60.2290 -0.831104 -1.27204
  1104 15.4079 5.46462 -9.92525
  1105 32.3875 -2.09733 -6.34999
  1106 66.0886 -0.0379813 0.0805547
  1107 66.1234 -0.0335128 -0.0609946
  1108 58.9591 -3.33820 -4.37036
  1109 52.2389 -5.83212 -7.87170
  1110 15.4422 2.29656 8.26132
  1111 64.0518 6.36931 6.52394
  1112 58.4468 -0.511838 -0.125442
  1113 58.4512 -0.512722 0.131636
  1114 64.3322 -4.21256 9.48724
  1115 65.4074 13.2502 2.54780
  1116 37.8672 -0.976729 -1.86550
  1117 37.8743 -0.971382 1.84924
  1118 29.1664 3.42906 15.5992
  1119 55.2194 0.264298 -5.56837
  1120 16.8993 5.59046 10.7117
  1121 72.6102 -1.37538 -2.54542
  1122 70.2236 15.7617 0.815938
  1123 47.9435 -3.86708 2.27176
  1124 43.0679 0.196826 -0.224456
  1125 61.7681 -0.496145 1.49323
  1126 64.1902 -0.0526880 0.587199
  1127 12.7033 0.0326662 -2.48616
  1128 12.9116 0.0254278 2.46726
  1129 48.9466 0.771863 -2.64109
  1130 51.2704 -1.50915 0.00827570
  1131 51.2567 -1.50035 -0.00899233
  1132 5.23079 7.06987 -7.34221
  1133 8.48115 16.6487 -15.2920
  1134 51.9790 -2.03728 -0.121387
  1135 52.0023 -2.03902 0.119259
  1136 53.8481 -1.26748 0.354463
  1137 53.8403 -1.26365 -0.348912
  1138 13.6805 8.81129 10.6965
  1139 41.5778 -0.555676 -0.325772
  1140 41.5804 -0.551175 0.323636
  1141 52.7542 3.95177 -0.0656070
  1142 69.9674 7.92453 -23.4996
  1143 65.1829 11.3252 -4.35929
  1144 59.6180 -2.26402 -5.93256
  1145 58.7609 -2.90071 -4.39457
  1146 47.9841 -3.90533 -2.31373
  1147 47.4348 0.136387 1.63053
  1148 54.0841 3.34054 -3.95858
  1149 53.2600 2.82985 3.77066
  1150 55.8539 -2.18973 -1.21179
  1151 53.1364 -3.22865 -0.286562
  1152 48.0116 -3.17438 -1.65832
  1153 57.4510 -0.327202 3.07133
  1154 104.331 10.5904 1.49064
  1155 57.9061 -1.21943 5.59998
  1156 57.8940 3.80512 6.00976
  1157 53.7036 -5.31612 -1.05225
  1158 6.01885 1.11927 -3.65648
  1159 54.7145 -2.51990 -0.966199
  1160 34.7657 -0.0726362 -0.0173603
  1161 34.7695 -0.0723769 0.0170400
  1162 67.2940 -1.77511 3.54223
  1163 64.1577 -5.38221 1.60360
  1164 92.6092 16.7552 3.85353
  1165 20.4407 -0.0556907 -2.09353
  1166 20.5841 -0.0509879 2.07541
  1167 48.4110 -0.990533 -0.137261
  1168 48.4072 -0.983197 0.135565
  1169 54.9152 -4.86360 0.331442
  1170 43.4909 0.173564 0.732369
  1171 56.2839 -4.00468 1.75312
  1172 2.92690 3.48443 -1.43355
  1173 9.59493 4.93423 6.24252
  1174 37.2435 -1.95842 12.1356
  1175 64.8523 12.4863 -3.10599
  1176 62.6088 -0.156409 -0.896033
  1177 66.3944 -0.0876240 0.0618681
  1178 66.4730 -0.127223 -0.0433071
  1179 36.4115 -0.113820 -0.0655649
  1180 36.4161 -0.112990 0.0648600
  1181 59.7429 3.83553 6.86464
  1182 89.8350 15.5773 -0.327408
  1183 61.4368 10.2435 -3.09070
  1184 46.1449 -3.33406 12.4568
  1185 37.0440 -1.87326 -12.1150
  1186 40.8828 -2.82874 -4.16314
  1187 57.8130 -1.56204 1.52552
  1188 81.2247 17.7651 -0.252080
  1189 40.8814 -2.80982 4.12494
  1190 59.2142 -0.963890 1.15716
  1191 51.7324 1.87848 3.58959
  1192 57.6256 1.77855 6.56196
  1193 83.2997 18.6945 1.31046
  1194 48.5169 -1.28673 0.265715
  1195 48.5213 -1.29434 -0.268853
  1196 59.9287 -1.06507 2.29750
  1197 34.0189 -0.403012 1.39325
  1198 33.9948 -0.407343 -1.40845
  1199 58.6804 -0.723964 -0.559906
  1200 23.7800 14.0170 -21.3942
  1201 50.7619 -2.82792 -13.3268
  1202 47.0878 -1.51918 -0.583683
  1203 47.0907 -1.51087 0.583640
  1204 63.4087 -0.237075 0.396885
  1205 59.6194 -0.705017 0.930872
  1206 3.01908 3.59944 2.52764
  1207 65.4011 -0.0501036 0.320968
  1208 7.34335 9.00677 8.93083
  1209 58.1240 -0.795897 -0.710075
  1210 -0.105159 -1.46718 -1.27750
  1211 40.5026 -3.94492 -9.36229
  1212 40.3760 -3.84664 9.26161
  1213 65.4028 -0.0942928 -0.350523
  1214 55.0805 -2.89977 -1.11860
  1215 63.3460 -0.209761 -0.416697
  1216 49.6890 -1.62762 -0.183973
  1217 49.6815 -1.61990 0.179325
  1218 58.6395 -0.717479 0.530195
  1219 54.6734 -2.47196 0.956017
  1220 52.4607 -1.67815 -0.235891
  1221 52.4818 -1.68456 0.243435
  1222 63.3086 -0.216567 -0.343429
  1223 54.2038 -5.66544 -8.91868
  1224 61.8001 -0.303312 -0.361399
  1225 58.3912 -0.821312 0.751463
  1226 39.3740 -0.480789 -0.511695
  1227 39.3778 -0.475808 0.507624
  1228 44.5005 -0.686661 -0.233095
  1229 44.5007 -0.681139 0.231355
  1230 73.9207 11.4613 4.67392
  1231 62.0029 -4.72124 3.04056
  1232 42.2014 -0.147907 15.4696
  1233 32.3353 -0.0712167 0.533377
  1234 32.3076 -0.0719054 -0.539816
  1235 58.3544 -1.05501 4.24766
  1236 56.0219 -0.784930 0.198643
  1237 56.0263 -0.781567 -0.198508
  1238 63.7348 12.5505 1.43739
  1239 59.0817 -6.15754 6.87739
  1240 32.6103 -0.503665 1.98007
  1241 32.5760 -0.507916 -1.99751
  1242 55.8990 -1.31643 0.675929
  1243 55.8874 -1.32480 -0.661206
  1244 57.7846 -1.53994 -1.47677
  1245 52.1084 0.00379716 1.94330
  1246 92.8919 23.0462 -7.03453
  1247 58.7574 -2.11282 -3.87424
  1248 9.40485 2.38681 5.36265
  1249 60.7745 -3.20290 5.36209
  1250 47.4643 0.985535 -1.44182
  1251 3.31895 2.64711 1.75404
  1252 81.2645 8.61294 0.457437
  1253 59.2521 -2.66763 -5.34019
  1254 47.7152 0.635183 2.20500
  1255 32.6287 -2.09952 6.33216
  1256 60.3634 -4.64032 3.47048
  1257 89.1109 16.1311 3.87596
  1258 19.5497 3.01700 10.5833
  1259 60.7810 -0.661570 -1.97097
  1260 120.729 1.31943 -1.25025
  1261 125.079 1.90713 5.62435
  1262 134.065 4.69965 -13.2627
  1263 58.6004 -1.79728 -4.72259
  1264 58.6860 -2.64525 4.12782
  1265 59.7071 -4.21850 3.99107
  1266 -1.77370 0.173745 1.14835
  1267 -1.62365 0.129696 -1.23852
  1268 58.2456 -6.40510 -2.87536
  1269 59.8142 -6.01131 -4.58919
  1270 43.8487 0.255974 -0.907433
  1271 58.0368 -6.52918 4.62115
  1272 61.8728 -2.90137 -5.46196
  1273 0.961321 1.72943 -0.0295332
  1274 49.7205 -0.902397 0.135968
  1275 49.7252 -0.910033 -0.136333
  1276 61.7633 -0.433854 1.36627
  1277 59.2183 -0.944609 -1.09439
  1278 55.5362 -6.06934 -1.29385
  1279 50.3326 -2.76740 0.511779
  1280 50.0631 -2.73098 -0.596940
  1281 59.5997 -1.21267 3.06824
  1282 61.0381 -2.21181 -6.14425
  1283 3.45121 2.76089 -1.66524
</Section>

newXOutput 5

<Section columns = "stress_xx | stress_yy | stress_xy">
  1 88.8683 0.0149775 0.190836
  2 88.8792 0.0156865 -0.191624
  3 45.5025 -0.0281029 -0.0692796
  4 -0.589966 -0.587474 -0.847300
  5 166.245 61.4545 51.1856
  6 164.610 63.8935 -51.6603
  7 -0.683970 -0.562047 0.896433
  8 45.4975 -0.0283056 0.0690352
  9 89.5642 -0.133130 0.0636125
  10 89.3374 -0.217328 -0.0317154
  11 89.0671 -0.130419 0.233103
  12 88.8025 -0.192972 0.0882243
  13 88.2397 -0.157290 0.368459
  14 87.7366 -0.162303 0.283010
  15 86.6019 -0.145112 0.521843
  16 85.0377 -0.0805920 0.762941
  17 83.6307 -0.0971935 0.837178
  18 81.5919 -0.156256 0.998713
  19 78.8233 0.00569222 1.45849
  20 76.2635 -0.115680 1.37138
  21 73.4224 -0.162440 1.91229
  22 69.3093 0.117329 1.64862
  23 66.3870 0.161397 1.93626
  24 62.5803 0.281623 1.50339
  25 59.9717 0.272360 1.51011
  26 56.1864 0.403242 0.766121
  27 55.4014 0.638683 0.817673
  28 54.9339 0.510927 -0.240066
  29 55.5873 0.274193 -0.534325
  30 56.7832 0.281966 -0.653017
  31 59.6148 0.367696 -1.30910
  32 62.3637 0.289714 -1.66771
  33 66.4460 0.0473747 -1.98567
  34 69.7208 -0.0486702 -1.82652
  35 73.2518 -0.131129 -1.81104
  36 76.4695 -0.0892379 -1.28851
  37 79.2736 -0.0878880 -1.11372
  38 81.6148 -0.150887 -0.945787
  39 83.7371 -0.100860 -0.674639
  40 85.0939 -0.112532 -0.722865
  41 86.4030 -0.150899 -0.531768
  42 87.6685 -0.183661 -0.250469
  43 88.3262 -0.143761 -0.282612
  44 88.7020 -0.0756952 -0.183702
  45 88.5083 -0.0219785 -0.166674
  46 89.4466 -0.223235 0.0164696
  47 89.6014 -0.140369 -0.0657413
  48 86.3470 -0.00718747 -0.117423
  49 84.2041 -0.279585 -0.200755
  50 81.6188 -0.430201 -0.146714
  51 78.4869 -0.678673 -0.196875
  52 75.5451 -0.756712 -0.251465
  53 72.4241 -0.990191 -0.236106
  54 69.6786 -1.12653 -0.141683
  55 67.2725 -1.29464 -0.0664416
  56 64.5036 -1.08327 -0.0679682
  57 61.3144 -1.02988 -0.0907836
  58 58.2353 -0.828910 -0.0415324
  59 55.3121 -0.544808 -0.0225439
  60 52.5258 -0.399805 -0.00731792
  61 50.0686 -0.220039 0.0163610
  62 47.5375 -0.0704676 -0.0808043
  63 45.5427 0.0613257 0.0841120
  64 44.6658 0.194527 0.0504467
  65 45.3198 -0.00480223 0.130211
  66 44.6970 -0.0351144 0.154095
  67 44.1448 -0.0483245 0.193223
  68 43.3805 -0.0137159 0.258448
  69 42.4136 -0.00832324 0.330274
  70 41.7416 -0.0722516 0.656475
  71 39.6467 0.0592954 0.720829
  72 38.1998 -0.00938665 0.836452
  73 36.0431 -0.0452437 0.945885
  74 33.5447 -0.0727619 1.15522
  75 30.4271 -0.0203186 1.40259
  76 26.6232 0.0148796 1.53855
  77 23.4036 -0.0438376 2.19428
  78 16.9244 0.212498 2.05315
  79 12.5883 0.184375 2.17285
  80 7.46321 -0.0257470 2.38575
  81 3.27675 0.423894 2.44712
  82 -1.45519 0.615898 1.40311
  83 -4.80914 0.621205 0.418416
  84 -4.47218 0.580065 -0.347222
  85 -4.06404 0.473497 -1.25777
  86 -2.36784 -0.182210 -1.16392
  87 -0.310721 -2.27362 -1.27592
  88 0.189756 -4.23460 -1.63318
  89 0.578535 -6.88126 -1.01030
  90 1.31484 -7.39706 -0.169065
  91 2.82407 -3.02350 3.41863
  92 8.65821 11.0403 12.4878
  93 53.7418 45.5235 45.2762
  94 200.186 29.4287 34.0737
  95 179.227 4.25620 11.2796
  96 165.558 1.72596 3.45205
  97 160.489 1.44465 0.281579
  98 163.095 1.95070 -2.96314
  99 178.661 3.91844 -8.91219
  100 213.643 14.2327 -29.7813
  101 31.5498 45.9057 -37.5223
  102 6.50201 6.60549 -10.1621
  103 3.06862 -2.71319 -3.47982
  104 1.22175 -7.49411 -0.381346
  105 0.307033 -5.31458 1.17854
  106 0.416544 -5.31890 1.43027
  107 0.00705989 -1.98129 1.41071
  108 -2.46756 -0.131604 1.11138
  109 -4.19562 0.355091 1.10541
  110 -4.70342 0.707904 0.374921
  111 -4.97238 0.614856 -0.376184
  112 -1.79316 0.631413 -1.30594
  113 2.97138 0.427888 -2.32821
  114 7.15017 0.0179575 -2.34613
  115 12.2679 0.199594 -2.17887
  116 16.6332 0.218536 -2.07093
  117 23.1775 -0.0447223 -2.21534
  118 26.4289 0.0169894 -1.55551
  119 30.2581 -0.0194532 -1.42221
  120 33.4569 -0.0798605 -1.16575
  121 35.9290 -0.0435510 -0.949449
  122 38.1145 -0.00659753 -0.846491
  123 39.5781 0.0584289 -0.730238
  124 41.6942 -0.0728850 -0.664486
  125 42.3771 -0.00873933 -0.335261
  126 43.3547 -0.0141009 -0.262579
  127 44.1270 -0.0489522 -0.196525
  128 44.6852 -0.0356502 -0.156422
  129 45.3113 -0.00528532 -0.131719
  130 44.6598 0.194185 -0.0511671
  131 45.5373 0.0611757 -0.0845504
  132 47.5314 -0.0710287 0.0805172
  133 50.0622 -0.221439 -0.0169369
  134 52.5202 -0.402955 0.00663299
  135 55.3083 -0.549209 0.0218724
  136 58.2339 -0.835241 0.0408846
  137 61.3159 -1.03781 0.0902840
  138 64.5083 -1.09236 0.0675215
  139 67.2795 -1.30462 0.0662855
  140 69.6870 -1.13642 0.142029
  141 72.4352 -0.999184 0.237079
  142 75.5531 -0.763045 0.255020
  143 78.4909 -0.684312 0.213626
  144 81.6307 -0.401533 0.150114
  145 84.2641 -0.270158 0.196482
  146 86.3557 -0.0203916 0.115809
  147 76.2684 -7.15646 -1.25051
  148 76.2115 -7.06156 1.27850
  149 79.4054 11.4681 -4.29201
  150 85.2743 5.05770 9.28564
  151 64.5017 -6.14685 -13.7036
  152 65.0050 -6.14587 13.2369
  153 61.9573 -2.70402 1.42561
  154 61.9662 -2.74418 -1.42821
  155 90.8803 3.22832 -7.48703
  156 76.0617 -2.68493 2.18238
  157 76.0316 -2.61627 -2.15403
  158 98.3188 22.2308 1.37398
  159 77.4832 -0.121049 -8.89127
  160 56.7632 -4.57683 -6.06016
  161 56.7566 -4.53591 5.99906
  162 77.7295 -1.73539 8.11111
  163 73.2093 5.31212 5.20652
  164 29.7928 4.97188 -16.3312
  165 33.1877 4.69689 17.2332
  166 96.4793 0.952001 1.96641
  167 78.1294 -2.95659 -5.80482
  168 103.998 22.8935 -1.39408
  169 70.0939 -1.95798 0.261330
  170 70.0774 -1.94992 -0.253929
  171 79.4648 -0.866168 -0.972426
  172 79.7475 -0.766098 0.846264
  173 53.9123 -0.838955 -0.910359
  174 53.9158 -0.829617 0.904027
  175 86.0596 -2.48086 17.3788
  176 70.7016 2.88641 -5.59729
  177 45.8599 -3.49207 -9.94322
  178 45.9998 -3.46560 9.86880
  179 51.3253 -1.77971 -3.18058
  180 51.3263 -1.75794 3.15204
  181 78.5504 -2.01558 4.92929
  182 71.1541 -4.91645 0.364268
  183 70.8840 -4.87956 -0.237850
  184 81.5571 -7.84349 -0.515473
  185 81.9568 -7.47114 -0.515531
  186 113.178 26.5668 -2.89705
  187 81.0252 13.1126 4.02863
  188 81.4719 5.02050 -9.18914
  189 85.8750 -0.997639 -20.3674
  190 81.2056 -4.54710 -6.74627
  191 81.8817 -3.22850 7.81334
  192 67.9738 -7.73934 6.43250
  193 68.0081 -7.68788 -6.40839
  194 72.0852 0.889749 6.76298
  195 32.2855 -0.731876 -12.1022
  196 32.3732 -0.807910 12.0195
  197 128.476 19.4128 2.71017
  198 76.7994 -4.54916 3.86635
  199 79.8397 -1.40184 -3.27485
  200 62.3146 -1.56576 -0.602508
  201 62.3133 -1.55616 0.599579
  202 76.0753 -0.976861 -6.21858
  203 86.9305 12.8210 -7.51078
  204 71.8542 6.42716 -1.04791
  205 45.9652 -1.71950 4.55383
  206 45.8912 -1.72624 -4.59374
  207 81.2774 -0.820130 1.86005
  208 78.3802 1.47979 9.12219
  209 63.3754 -4.71412 -2.68033
  210 62.9009 -4.46582 2.77248
  211 93.0346 13.8052 7.18275
  212 110.804 14.4708 0.953040
  213 6.87743 5.57144 -4.18227
  214 6.34265 5.15083 3.52944
  215 44.7966 12.6430 29.3219
  216 76.0063 -5.03520 -3.11741
  217 81.6191 -0.788908 -1.68376
  218 71.1882 0.591979 -6.22251
  219 48.9124 -0.542634 -1.40002
  220 48.9253 -0.536261 1.38503
  221 67.9883 -3.22529 -0.262880
  222 68.0186 -3.24258 0.222701
  223 76.8202 -1.01948 5.32112
  224 89.6257 -5.21510 1.00101
  225 87.8398 18.1690 -2.21994
  226 68.9007 -6.71354 -2.75176
  227 87.9307 -1.50654 6.39553
  228 74.5607 -1.17863 0.432123
  229 74.5640 -1.16737 -0.431370
  230 68.3523 -6.68028 2.89327
  231 78.7065 -4.95660 5.56778
  232 112.679 13.6507 -5.49872
  233 23.9360 14.2903 -20.8254
  234 65.1790 2.22315 1.31840
  235 78.4978 6.94010 7.65477
  236 84.3277 -0.561294 -8.43544
  237 78.5352 -2.79699 -7.66564
  238 40.4313 -1.37050 -5.75630
  239 40.5825 -1.34869 5.73242
  240 78.7247 -0.910219 -4.17756
  241 75.0930 -1.84032 1.23140
  242 75.0579 -1.83600 -1.19785
  243 14.8235 1.48496 -7.52956
  244 15.0958 1.30353 7.50783
  245 84.3277 -7.34617 -5.65369
  246 83.5774 -0.210377 0.289384
  247 83.6843 -0.215263 -0.304450
  248 76.5259 6.34027 -6.97846
  249 66.6221 1.22146 4.02995
  250 145.265 23.2999 15.5148
  251 144.234 16.4335 -9.81699
  252 102.250 22.3411 -0.401330
  253 63.7163 -3.01651 18.3945
  254 58.3108 -1.89652 -19.2796
  255 66.4991 -1.36169 -0.145129
  256 66.4914 -1.35129 0.143244
  257 54.4005 -1.54033 1.87572
  258 54.4046 -1.56290 -1.89623
  259 81.0295 -0.811074 2.65733
  260 78.4054 -5.55335 -4.71329
  261 49.0281 -0.122429 -0.316303
  262 49.0352 -0.120531 0.313706
  263 77.4076 -3.08414 -3.70951
  264 31.4578 -1.05868 -7.94726
  265 31.6104 -1.06245 7.88254
  266 78.2811 -3.35662 6.24501
  267 59.3534 -6.30240 10.9963
  268 59.5245 -6.41620 -10.9640
  269 66.2357 2.47056 -1.87539
  270 57.1338 -0.929376 -0.608840
  271 57.1359 -0.922203 0.605698
  272 72.6836 -0.199144 5.02631
  273 87.4886 16.1611 5.24026
  274 45.3695 -0.607021 2.42652
  275 45.3340 -0.612538 -2.45096
  276 80.6738 -6.69252 3.60447
  277 74.6826 -8.33886 -7.00330
  278 83.8147 -0.324604 0.889572
  279 56.7497 -3.47777 -4.08755
  280 56.6369 -3.43661 4.06811
  281 104.854 9.73460 25.8622
  282 47.5324 -3.81408 13.2395
  283 77.1557 10.8805 -0.458153
  284 99.2979 10.7618 -5.29697
  285 74.1981 -5.74751 1.59641
  286 74.7090 -8.57222 6.24091
  287 47.6972 -3.74714 -13.4057
  288 8.55014 10.5102 9.29307
  289 77.4197 -3.09762 3.77419
  290 102.416 13.1484 4.46051
  291 84.5644 -0.288328 -0.770965
  292 75.2268 2.61050 -8.02962
  293 74.7863 -4.21435 2.28438
  294 73.1678 -6.19601 -0.427048
  295 74.9038 3.42354 7.71948
  296 80.2640 -6.70008 -3.29144
  297 114.322 22.4886 -1.66308
  298 74.7653 -4.04789 -2.19148
  299 62.7160 17.3418 -36.2736
  300 76.6416 -8.10713 -0.756815
  301 76.0771 -8.32578 1.64883
  302 55.0591 -5.05660 -8.66375
  303 48.6028 -0.219094 -0.698148
  304 48.6130 -0.215326 0.691118
  305 55.0745 -5.05857 8.61047
  306 80.8220 -0.117508 -9.29130
  307 87.8962 -3.62271 -4.56453
  308 66.0284 -4.04599 -1.23175
  309 65.9749 -4.05466 1.25864
  310 80.1740 -6.89653 11.5521
  311 79.4179 -0.601102 3.16691
  312 97.7491 0.188952 3.19703
  313 64.5342 -2.32282 -0.635889
  314 64.5361 -2.31304 0.630266
  315 58.3208 -1.58636 -1.17693
  316 58.3177 -1.57006 1.17403
  317 65.8641 0.843398 -3.90127
  318 86.3283 6.33499 -9.04840
  319 135.667 36.2850 -16.5755
  320 79.0021 -0.597374 -0.339279
  321 78.9487 -0.588426 0.346292
  322 41.4027 0.0302250 16.5196
  323 58.1091 -2.73300 -2.62302
  324 57.9847 -2.72092 2.62867
  325 41.3987 -0.0601563 -16.4572
  326 81.8923 9.70350 -7.54066
  327 92.5899 4.53684 7.20952
  328 80.2310 -5.72901 -12.9114
  329 73.0391 -2.79436 1.15450
  330 72.9594 -2.77097 -1.11963
  331 78.3093 -1.54469 -1.88431
  332 72.7462 -0.149943 -4.70496
  333 82.4125 0.388882 9.16080
  334 82.7189 -0.520530 -1.85014
  335 48.3082 -3.03369 6.63397
  336 48.2561 -3.05244 -6.69282
  337 76.2408 -0.177211 8.41378
  338 45.5446 -0.415778 -1.42308
  339 45.5735 -0.411718 1.40752
  340 78.8466 -1.74385 2.81163
  341 94.3725 19.4148 -4.14229
  342 78.2569 -1.55923 1.94833
  343 82.8584 10.4642 7.58922
  344 79.4485 -1.45141 8.85744
  345 62.2092 -1.19196 0.198103
  346 62.2117 -1.20059 -0.200235
  347 74.7876 -0.276821 -7.45404
  348 99.9885 21.1290 3.02620
  349 82.3671 15.2365 0.159245
  350 50.6134 5.93835 -24.7778
  351 4.61271 2.26140 -3.08533
  352 5.12619 2.44182 3.35003
  353 -0.410679 0.492409 1.66371
  354 -0.0718405 0.222491 -1.72356
  355 149.516 10.3615 3.63986
  356 68.3402 -5.61212 -1.42615
  357 78.9243 -1.68018 -2.74626
  358 70.7968 -1.20165 0.195084
  359 70.7885 -1.19039 -0.195294
  360 75.2620 8.31897 -3.77291
  361 64.4349 -6.63729 5.27443
  362 5.32401 7.82631 -5.56322
  363 64.5116 -6.63900 -5.38521
  364 76.3100 8.69052 4.01546
  365 78.5586 -2.04742 -4.71212
  366 83.5898 -4.62258 -5.93463
  367 88.4358 18.8978 1.53846
  368 83.8284 -5.18602 5.06106
  369 33.0357 -0.871468 5.33782
  370 32.8167 -0.855022 -5.37851
  371 18.3348 0.502777 -7.29112
  372 18.5603 0.421433 7.25596
  373 67.0090 0.170330 3.95776
  374 131.867 37.8137 13.5607
  375 81.4686 -0.474549 -2.29699
  376 62.6279 -5.38992 -3.99295
  377 62.5634 -5.37210 3.98647
  378 77.9572 -1.76532 -5.85826
  379 89.6465 -4.32696 1.63610
  380 68.3369 -5.60525 1.48351
  381 99.0579 0.421792 -6.93832
  382 53.8098 -0.479667 -0.211718
  383 53.8147 -0.475169 0.209400
  384 76.4321 -0.430651 -3.68713
  385 39.7448 -0.619250 -3.49524
  386 39.7734 -0.637987 3.44822
  387 91.9727 11.7323 -7.89409
  388 49.3149 3.53101 22.9440
  389 71.6286 -3.77005 0.810060
  390 71.7014 -3.76187 -0.814693
  391 84.0097 14.3197 -4.85078
  392 79.8227 -2.33902 -8.45463
  393 80.5715 -8.19821 5.94496
  394 66.2563 -1.77263 -0.209057
  395 66.2463 -1.76211 0.204820
  396 77.1329 -5.93688 3.36459
  397 83.6028 -0.353438 1.38744
  398 50.5134 -1.93988 -4.01789
  399 50.5313 -1.93844 3.97799
  400 77.9042 2.61083 -8.98035
  401 73.8671 -1.54568 0.664298
  402 73.8654 -1.54846 -0.652764
  403 76.0781 -0.883835 6.90438
  404 70.2425 5.07352 1.78655
  405 79.2218 -3.31087 7.45927
  406 115.486 24.3703 3.82687
  407 37.2030 -2.01751 -10.6366
  408 37.3130 -2.01899 10.5466
  409 16.4196 9.00447 -12.2935
  410 85.9204 -0.191514 0.414074
  411 41.4138 -0.392467 -2.20507
  412 41.4734 -0.384125 2.18319
  413 78.0385 -2.00323 5.75903
  414 70.7360 -7.70744 3.19265
  415 80.4624 -0.916855 1.34216
  416 81.3424 4.15083 9.43431
  417 17.2855 9.58744 12.8800
  418 70.8529 -7.66862 -2.89031
  419 73.2709 -6.83141 -0.0537357
  420 22.6135 -0.457471 -6.65430
  421 22.8103 -0.476647 6.60346
  422 55.9983 -4.40969 -15.9777
  423 84.3739 -1.22314 8.25964
  424 55.7525 -4.48560 15.8257
  425 77.7953 -4.34019 -5.02128
  426 71.3316 4.76614 -3.93924
  427 77.8173 -3.32152 4.73477
  428 84.4786 -0.317632 -0.966385
  429 2.33961 2.34763 0.782209
  430 16.4914 18.6047 18.3651
  431 74.2894 -0.277512 3.52790
  432 61.1826 0.784893 1.69535
  433 62.3661 0.970446 -2.30855
  434 53.2237 -0.947454 -1.32154
  435 53.2258 -0.934643 1.31063
  436 76.7183 -5.93521 -3.12883
  437 77.2360 -1.49460 -7.76332
  438 61.5570 1.09099 -0.627575
  439 115.594 27.4477 4.68877
  440 15.0875 5.22354 -9.17099
  441 16.7097 4.79784 9.84869
  442 71.5635 -2.53608 0.676481
  443 71.5340 -2.52764 -0.655312
  444 95.5732 21.4151 -0.352182
  445 61.0180 23.5316 37.0656
  446 92.8435 -1.38041 -2.36648
  447 51.8167 -2.79960 -5.45571
  448 51.8379 -2.77846 5.40253
  449 51.8993 -1.23540 2.10429
  450 51.8929 -1.24546 -2.12724
  451 70.9487 1.53081 -6.39048
  452 86.4221 -0.0725000 -0.282250
  453 68.7438 3.09655 3.56550
  454 88.2982 10.9383 8.34719
  455 73.3725 -5.45863 -1.27998
  456 80.4424 -0.866575 -1.30099
  457 84.8586 -0.282094 0.891095
  458 86.1872 -0.0744630 0.162085
  459 86.2725 -0.0904301 -0.124160
  460 45.0632 -0.0999390 0.516981
  461 45.0428 -0.101328 -0.523569
  462 80.5061 -5.07739 6.05691
  463 71.6651 2.78794 6.18487
  464 75.3138 0.295858 -8.18515
  465 79.3187 -1.61351 3.55801
  466 117.161 18.1121 -21.1842
  467 79.3949 -4.37383 -6.63786
  468 0.417675 1.44737 0.392947
  469 0.425506 1.45710 -0.00121417
  470 62.1893 -3.60726 2.14424
  471 61.9666 -3.56268 -2.12390
  472 100.289 1.35678 11.0236
  473 27.5396 24.1129 -27.6990
  474 78.1426 -0.216756 2.78476
  475 89.7286 -5.27648 -5.94785
  476 46.1941 -2.74072 7.71357
  477 95.3713 16.9354 -5.93425
  478 78.2384 -4.20340 5.61664
  479 65.1138 -3.16983 -0.908498
  480 65.1719 -3.11480 0.903908
  481 66.9900 0.337439 -3.49987
  482 46.0441 -2.73174 -7.76962
  483 68.8691 0.00438811 3.53278
  484 66.9006 -7.63462 -9.69163
  485 66.7249 -7.64630 9.71627
  486 80.9360 -0.500653 2.52810
  487 72.4763 6.81112 0.739325
  488 75.2910 1.08794 25.0966
  489 110.174 22.7098 -0.144062
  490 75.8022 -1.20478 0.694253
  491 75.8092 -1.19982 -0.711783
  492 57.1128 -1.06948 -0.797513
  493 57.1139 -1.05966 0.793357
  494 29.8920 1.49206 13.7627
  495 78.5524 -3.75228 -6.45477
  496 71.0355 -1.51007 0.237247
  497 71.0283 -1.50341 -0.235035
  498 61.6074 -6.57193 7.93949
  499 30.4978 1.95516 -14.1250
  500 78.7931 -6.39461 -3.55811
  501 1.21546 -0.00820801 0.872208
  502 67.5984 3.43095 0.254205
  503 76.1256 -0.797864 -0.236421
  504 76.1210 -0.810864 0.232704
  505 61.6595 -6.56331 -8.00621
  506 89.8428 -4.71709 7.88598
  507 88.3869 3.22124 8.60136
  508 81.9002 -0.471158 -0.669380
  509 78.5503 -6.48776 3.59551
  510 47.3095 -0.0652970 -0.0846083
  511 47.3160 -0.0648010 0.0836056
  512 78.2598 -2.97785 -6.80691
  513 75.2129 5.56098 6.80464
  514 87.2671 2.16235 -8.48252
  515 47.0294 -0.0946264 -0.288624
  516 47.0380 -0.0934232 0.286133
  517 155.915 22.5019 -20.2861
  518 78.4092 9.37591 6.02819
  519 81.9811 -0.423988 0.599511
  520 73.4429 -6.97944 0.228104
  521 60.9792 -2.07861 1.14107
  522 60.9818 -2.09614 -1.13886
  523 86.0382 -5.20304 3.22515
  524 82.2919 -1.60979 -8.61287
  525 91.8486 18.2511 4.81934
  526 75.9931 1.29849 8.47663
  527 77.3024 -1.41246 1.25683
  528 75.2278 -7.98192 -9.19814
  529 77.5607 -1.89252 6.63932
  530 154.448 7.04198 -2.85836
  531 85.4469 -6.41302 -1.02992
  532 81.3892 -0.449192 -0.176771
  533 81.4065 -0.484533 0.161967
  534 156.026 10.4871 10.0781
  535 73.9672 -0.0378508 7.20927
  536 105.427 17.3849 -3.08572
  537 78.6058 -2.08143 -3.49707
  538 33.7767 -0.343702 -2.39566
  539 33.8953 -0.327409 2.36877
  540 52.4555 -4.93790 -11.0795
  541 52.4887 -4.85426 10.9905
  542 77.2625 -1.34871 -1.24214
  543 83.8841 3.09610 -9.32968
  544 73.6006 -5.01468 1.55840
  545 78.7789 9.05847 -6.27231
  546 80.0023 -0.879759 3.40548
  547 101.337 4.77104 0.0673180
  548 67.9286 -2.34074 -0.0747439
  549 67.9043 -2.33021 0.0707574
  550 74.1535 -3.48249 1.77330
  551 110.650 21.5096 -0.271754
  552 77.7897 3.40683 8.81267
  553 32.9241 8.52926 20.4564
  554 76.0757 -4.58276 16.5246
  555 101.764 4.27713 -18.0342
  556 79.5625 6.58964 -8.23252
  557 71.1639 -6.10497 -14.2793
  558 76.9867 -8.41133 -2.23108
  559 80.6240 -8.11962 -3.55624
  560 10.1580 12.8135 -12.1698
  561 80.9924 -0.951253 -2.18673
  562 122.679 23.9753 -6.53386
  563 74.5719 -3.33094 -1.91987
  564 75.2530 -2.40310 1.57985
  565 75.1812 -2.34447 -1.52596
  566 50.3567 -0.332522 -0.625742
  567 50.3641 -0.328155 0.620377
  568 6.47641 0.783286 -3.91705
  569 6.90660 0.818778 4.01331
  570 37.4054 -1.79436 -8.13714
  571 37.7112 -1.80325 8.11791
  572 76.2667 -4.10418 -3.32781
  573 77.9317 -8.44451 2.45865
  574 80.1275 -7.56924 1.29268
  575 64.8797 -1.15033 -0.187607
  576 64.8744 -1.14073 0.186320
  577 61.8839 -6.46125 -12.2384
  578 69.7334 -5.67597 15.1504
  579 60.3105 -6.06965 12.3191
  580 78.2776 -1.71877 -8.36501
  581 47.6975 -0.858897 2.41359
  582 47.6753 -0.868367 -2.43738
  583 74.1226 4.06743 -6.82294
  584 74.3571 -0.128660 -3.20301
  585 93.4401 20.5328 -2.23235
  586 60.2155 -0.946671 -0.205966
  587 60.2150 -0.939443 0.204676
  588 79.8620 -0.221577 -1.84371
  589 54.0074 -1.91983 -2.61278
  590 54.0039 -1.91171 2.58611
  591 44.5702 2.16971 19.6822
  592 77.7348 -3.53981 -4.79345
  593 42.6210 -2.20044 14.1013
  594 76.3833 -3.92975 3.38289
  595 80.7261 -1.06928 2.40078
  596 79.8305 -0.639550 -0.604881
  597 54.5204 -0.729439 -0.562050
  598 54.5242 -0.722916 0.558087
  599 89.5487 18.0540 -4.29073
  600 42.5942 -2.10840 -14.1624
  601 76.1381 -3.25710 -2.75337
  602 68.2676 -1.24809 -0.0614556
  603 68.2596 -1.23741 0.0610919
  604 131.007 17.7558 -3.05988
  605 43.8451 -0.313568 1.34484
  606 43.8061 -0.316764 -1.35953
  607 70.0125 1.56336 5.81722
  608 102.637 8.24382 -2.50530
  609 47.5896 0.440528 -19.5583
  610 23.5882 0.688049 -10.5134
  611 23.8018 0.540763 10.4563
  612 59.4259 -3.57222 3.17095
  613 60.0927 -3.67732 -3.06148
  614 103.163 20.7249 2.92022
  615 79.4729 -0.666257 0.556973
  616 66.6698 1.81279 -3.49883
  617 84.1968 15.2658 3.83273
  618 83.8550 15.8479 -2.54763
  619 68.9426 -3.85804 -0.168684
  620 69.4970 -3.76525 -0.0850960
  621 49.6968 10.7083 -28.3119
  622 58.6078 -2.08864 -1.71916
  623 58.6094 -2.06306 1.71097
  624 154.714 31.5988 23.7021
  625 78.2526 -2.53506 7.30130
  626 43.3974 -1.61851 -5.21466
  627 124.610 27.1092 17.1516
  628 43.5034 -1.60830 5.19053
  629 75.5162 -2.92594 -19.4263
  630 51.3420 -0.296092 -0.231610
  631 51.3480 -0.293453 0.230088
  632 64.0250 0.537407 3.04773
  633 28.2451 -0.448860 -4.69679
  634 28.4242 -0.449858 4.65541
  635 68.0240 -4.87457 1.01399
  636 71.5416 -5.76628 0.138026
  637 85.3121 -0.150450 -0.797962
  638 45.8296 -0.0918312 0.373185
  639 45.8152 -0.0933594 -0.378075
  640 63.8410 -1.46184 -0.239483
  641 63.8365 -1.45216 0.236438
  642 74.2459 -8.19784 9.32065
  643 84.9258 9.51478 -8.43353
  644 55.5841 -2.69964 -3.37953
  645 55.5366 -2.65261 3.35137
  646 66.7002 -4.87491 -1.61686
  647 106.192 23.3090 0.0433613
  648 79.6295 -7.67174 -0.834617
  649 68.5488 -1.62715 0.0180499
  650 68.5371 -1.61737 -0.0174398
  651 95.3448 10.3541 6.92927
  652 79.6574 -1.09547 -3.70390
  653 69.3073 -0.106013 -2.88247
  654 31.4171 -1.06604 -10.1926
  655 31.5248 -1.09963 10.1008
  656 66.5670 -5.82064 -2.82935
  657 100.513 22.4702 0.101380
  658 77.1992 10.4919 -2.71503
  659 50.1439 -0.508778 -1.17492
  660 50.1526 -0.501461 1.16333
  661 72.5078 -2.01241 -0.627671
  662 72.5222 -2.01641 0.645275
  663 137.974 18.1071 7.91195
  664 86.9451 -0.191055 0.231323
  665 83.4443 -0.290160 1.34572
  666 83.0614 -0.302594 -1.55593
  667 78.5837 -7.28869 1.96688
  668 56.5549 -0.704619 -0.281305
  669 56.5577 -0.698960 0.279631
  670 83.4191 13.4736 5.87041
  671 108.117 24.1729 -0.713295
  672 58.0517 -4.43072 -4.79465
  673 58.0266 -4.38411 4.76586
  674 73.5540 -7.59596 -0.924926
  675 77.1349 4.58133 -8.28023
  676 92.9049 0.197406 4.36766
  677 60.2648 -1.16450 -0.520002
  678 60.2643 -1.15584 0.516980
  679 52.1449 -4.62730 -10.0069
  680 77.8166 -7.50550 -1.22296
  681 64.2810 -7.14181 8.73803
  682 30.3213 9.69804 -19.7090
  683 59.6883 -5.61137 6.73029
  684 71.8972 0.0173158 2.68057
  685 52.1878 -4.57300 9.93237
  686 76.0905 -3.32430 2.78714
  687 59.7188 -5.59002 -6.79992
  688 60.0594 0.736240 0.636000
  689 46.3476 -1.32778 3.67948
  690 46.3052 -1.33027 -3.71002
  691 64.3337 -7.32819 -8.84036
  692 79.9444 -5.23129 -5.86480
  693 73.1690 -0.958076 -0.155507
  694 73.1801 -0.969777 0.156143
  695 81.7977 -5.16476 5.86978
  696 74.1546 -7.75621 1.20635
  697 90.3723 8.28787 8.41892
  698 81.2901 -1.48720 8.81189
  699 78.2149 -2.76389 5.47644
  700 73.9759 6.06176 -5.17439
  701 89.8498 15.2022 6.62764
  702 77.3993 -1.05090 -5.18630
  703 77.4273 -2.51257 2.98226
  704 79.3523 12.5029 1.47123
  705 78.6499 -1.29598 4.57765
  706 24.3185 16.4369 20.5907
  707 73.3081 -8.41660 -5.11843
  708 84.9021 1.57335 9.02087
  709 85.9410 -2.63202 -6.70704
  710 86.4127 -0.0718549 0.458799
  711 78.2300 -2.63649 -4.38315
  712 73.3974 -8.48433 4.59473
  713 145.348 12.8587 -2.16697
  714 41.9648 -0.203614 1.41044
  715 41.9113 -0.205980 -1.42592
  716 79.5810 -1.37140 -2.13213
  717 86.9731 -0.0510397 -0.442346
  718 66.4293 -5.91288 2.84596
  719 80.2593 -2.94926 8.05702
  720 124.184 28.7148 -7.46218
  721 76.0674 -5.50359 2.95940
  722 84.7382 -5.54047 -3.85546
  723 77.4614 -2.44125 -2.93646
  724 87.0366 -0.104275 -0.160897
  725 78.0587 0.00789386 9.01223
  726 3.43106 2.50890 4.03065
  727 89.5082 -3.59004 -12.1930
  728 97.0011 5.60359 4.80099
  729 80.5037 -8.18988 3.07934
  730 55.9913 -1.41930 1.41860
  731 55.9950 -1.44030 -1.42754
  732 77.0198 36.2648 -38.9381
  733 81.8461 -5.37255 -5.48188
  734 59.8040 0.258354 -1.21505
  735 70.8489 0.366242 5.70164
  736 78.7497 -3.90458 6.57045
  737 75.4879 -6.36107 1.80062
  738 79.0036 -7.15708 -10.0086
  739 74.9912 -5.93416 -1.91479
  740 89.3143 -4.27939 -1.93539
  741 82.1702 -0.593187 1.26446
  742 72.7132 -4.37835 1.17287
  743 134.487 26.9358 -14.0566
  744 77.8603 -2.01744 2.39799
  745 76.4353 1.24047 -8.71439
  746 65.8921 -0.778894 21.9378
  747 82.1431 6.64509 8.98696
  748 70.6225 -5.60074 0.250832
  749 53.8611 -4.34039 -7.26952
  750 53.8594 -4.32624 7.20270
  751 74.5348 8.37995 -1.21133
  752 76.2533 -0.870480 7.83790
  753 77.2401 -1.81800 -6.76324
  754 72.7995 -4.46492 -1.20091
  755 70.3056 -6.34798 1.30644
  756 79.9919 13.2943 -1.67938
  757 75.3906 -6.52361 -1.50135
  758 75.5600 -4.76846 2.84898
  759 76.7849 -0.899920 0.481499
  760 76.8387 -0.872233 -0.479569
  761 103.341 22.9345 1.01550
  762 84.8396 -7.18088 -1.69418
  763 78.4751 -2.35184 4.35200
  764 82.2294 -0.588566 -1.16113
  765 82.5038 0.572443 -9.24534
  766 94.5964 4.86865 -6.03028
  767 44.2283 -0.0602179 -0.648258
  768 44.2564 -0.0594881 0.640489
  769 0.582082 -1.62215 -1.17037
  770 80.0657 -0.0723951 1.71183
  771 72.6587 -0.145712 -6.33882
  772 75.3499 -0.701847 5.65024
  773 70.0030 8.18026 32.5350
  774 85.8600 17.8550 -0.205165
  775 60.6469 -4.44663 3.64386
  776 9.61628 0.257054 -3.92495
  777 9.94877 0.192729 3.96890
  778 74.6019 -0.535570 -6.34667
  779 60.8307 -4.49386 -3.64047
  780 81.7298 -0.650537 0.985784
  781 40.1940 -1.78220 6.95302
  782 39.8284 -1.77691 -6.96244
  783 77.8617 -1.95564 -2.33810
  784 48.2253 -1.30053 -3.18945
  785 48.2484 -1.29107 3.15650
  786 81.2197 -0.705349 -2.59314
  787 60.9377 -1.68541 -0.906604
  788 60.9369 -1.67295 0.906535
  789 88.8126 -0.565318 -6.77595
  790 79.3558 -0.813144 -9.09872
  791 38.7006 -0.271946 -1.81372
  792 38.7833 -0.269455 1.79016
  793 1.33230 1.00194 -2.28130
  794 1.70943 1.05492 2.40703
  795 62.9258 0.284501 -2.21763
  796 72.6162 -8.16413 -3.67004
  797 -0.866690 -0.610616 1.46540
  798 -0.749091 -0.699781 -1.44103
  799 75.6754 -1.44646 1.00461
  800 82.2588 -6.37754 -3.46808
  801 84.3562 12.5731 -6.87561
  802 82.1208 -0.578868 -0.933966
  803 180.877 35.7059 -33.9678
  804 75.6608 -1.44034 -0.992491
  805 114.625 22.1043 1.52915
  806 80.7035 2.36258 -9.46052
  807 89.6045 6.74630 -8.57922
  808 13.6813 -0.164123 -3.66222
  809 13.9799 -0.186881 3.65442
  810 48.9452 -0.765073 1.86365
  811 48.9300 -0.771962 -1.88346
  812 46.2883 -0.131639 0.343379
  813 46.2778 -0.132953 -0.346796
  814 90.3332 15.2776 -6.60023
  815 51.9369 -0.367857 -0.493583
  816 51.9429 -0.363444 0.489996
  817 76.4988 -0.767790 -8.17135
  818 113.092 10.6515 8.21957
  819 68.0580 1.46632 -4.88207
  820 22.4600 -0.213309 3.96459
  821 22.2393 -0.215160 -3.99938
  822 90.9244 2.03637 23.0651
  823 79.4834 -1.38341 2.20068
  824 69.7866 4.58315 -2.03662
  825 31.0805 -0.0638938 2.72704
  826 30.8998 -0.0486804 -2.74988
  827 47.4940 -0.278522 -0.903148
  828 47.5088 -0.274505 0.892995
  829 8.35135 7.52091 6.16690
  830 73.1286 1.71390 7.31012
  831 81.7552 12.0828 -5.83976
  832 88.4796 10.2832 -8.43027
  833 57.1007 -2.25032 -2.31201
  834 57.0615 -2.23120 2.30632
  835 91.4084 19.6770 3.05463
  836 79.4979 -0.564634 -0.135748
  837 79.4992 -0.560085 0.150024
  838 78.2046 -2.29977 -5.48876
  839 65.0128 -4.40859 1.93181
  840 72.1408 -8.11519 3.70645
  841 85.5277 -7.00779 5.87044
  842 64.3183 -1.89995 -0.430598
  843 64.3153 -1.89108 0.425888
  844 73.4758 6.79206 3.31219
  845 68.7557 0.896642 -5.28522
  846 19.1447 21.2851 21.4193
  847 70.5386 -6.29826 -1.12804
  848 70.7317 -3.16607 0.534314
  849 70.7708 -3.16984 -0.537283
  850 77.8325 -1.12799 8.63131
  851 77.4521 -5.06362 -4.31886
  852 68.8142 -4.60750 -0.477454
  853 162.750 5.28068 -8.24438
  854 65.3219 -6.25587 4.07899
  855 65.2761 -6.34065 -4.15331
  856 77.8323 -0.907537 4.42222
  857 118.723 30.3689 -5.65710
  858 61.0929 -5.64678 -5.27336
  859 67.9082 -7.68906 4.85185
  860 61.0669 -5.57565 5.22099
  861 66.3726 -2.70875 -0.445915
  862 66.3677 -2.69747 0.440560
  863 9.29059 4.13901 5.39142
  864 83.7200 6.27475 -9.16009
  865 63.5077 -2.53452 -0.916894
  866 63.5173 -2.50688 0.920898
  867 62.6077 -1.05662 -0.106924
  868 62.6048 -1.04821 0.105892
  869 69.3816 -1.34845 0.112927
  870 69.3725 -1.33805 -0.113094
  871 55.4763 -1.15548 -1.23725
  872 55.4776 -1.14163 1.23048
  873 63.7982 -3.43433 -1.46582
  874 63.8040 -3.40776 1.47179
  875 1.42295 -1.02985 -0.408772
  876 97.4346 18.2878 5.29422
  877 83.7524 -2.89887 -7.58268
  878 67.8642 -7.57945 -4.91249
  879 73.4672 -2.32938 1.03056
  880 73.4328 -2.30265 -1.00748
  881 80.0390 0.123323 9.28755
  882 87.9274 -6.27647 -2.80060
  883 78.1414 5.13330 -28.1032
  884 34.2424 -0.479230 13.6699
  885 -1.72084 0.800879 -0.783751
  886 -1.53509 0.901325 0.888777
  887 9.21034 4.40330 -5.49676
  888 78.5016 -2.19597 3.48558
  889 83.0233 -0.474892 -1.48696
  890 74.4688 -7.11917 11.6598
  891 34.1575 -0.436663 -13.7302
  892 83.0058 -6.74364 2.67998
  893 93.2175 -2.95099 9.79255
  894 65.4446 0.251979 2.35587
  895 75.9150 7.22315 5.67036
  896 40.3847 -2.30907 10.1252
  897 40.2214 -2.32815 -10.2004
  898 48.5409 -2.40667 -5.64941
  899 51.8204 -2.45327 -17.5270
  900 82.7806 -1.89664 8.38136
  901 114.872 26.5582 2.80840
  902 82.9436 3.21834 9.34089
  903 78.4266 -1.63207 -4.98314
  904 52.9558 -2.19874 17.9696
  905 100.544 18.4441 -4.23976
  906 9.42552 8.15636 -7.66776
  907 71.6851 -0.157176 -2.55699
  908 48.5915 -2.38555 5.59240
  909 59.7656 -1.36751 0.811472
  910 59.7665 -1.37819 -0.814157
  911 77.5713 -5.03725 4.44339
  912 81.0555 -0.419727 0.398508
  913 59.2234 0.596147 -21.8918
  914 85.6943 -0.155266 0.707750
  915 84.9245 -0.123466 -0.886145
  916 61.3568 0.504861 -2.03098
  917 81.6585 -0.317693 -1.52631
  918 60.0606 -2.90065 -2.06717
  919 60.1007 -2.85455 2.07234
  920 -2.13471 0.697358 -1.24984
  921 -2.87189 0.419998 1.29348
  922 81.0586 -0.384025 -0.398915
  923 25.5321 -0.556330 9.20444
  924 25.3599 -0.496250 -9.26235
  925 85.8356 12.5970 7.29588
  926 158.790 2.85180 2.58212
  927 80.5750 9.00177 7.52212
  928 92.6386 -3.35549 2.03964
  929 79.7594 -4.40261 6.66345
  930 99.5112 20.9470 -3.21528
  931 59.8998 0.216202 1.52832
  932 76.8316 -1.73362 -1.52857
  933 79.3634 4.27291 -9.09059
  934 97.2330 2.69265 -2.72276
  935 74.7040 -4.60454 -2.33186
  936 36.4887 -0.225966 -2.03927
  937 36.5340 -0.218090 2.00795
  938 78.9933 -1.79734 -3.98997
  939 2.38006 3.10709 0.350974
  940 75.7931 -7.85161 -0.116155
  941 64.2134 1.82955 -0.210471
  942 98.6858 21.8937 -2.14125
  943 15.0215 11.2301 -13.0529
  944 75.3590 -0.557905 -5.06423
  945 51.1350 -0.922272 -1.72398
  946 51.1418 -0.910773 1.70647
  947 0.374047 -2.24714 1.74124
  948 50.5548 -3.85277 -8.11568
  949 77.1572 -4.42934 -4.17263
  950 46.0462 0.0976467 -0.138843
  951 46.0531 0.0982462 0.137623
  952 77.2864 9.40083 -4.56318
  953 84.4253 -0.172093 -0.144194
  954 84.4218 -0.176284 0.185513
  955 50.5722 -3.84029 8.05359
  956 77.8549 -0.0863197 -2.02206
  957 90.3341 0.646664 6.59847
  958 80.0334 -1.04882 1.72362
  959 11.9646 3.22329 -6.95259
  960 83.2180 -0.437353 1.35492
  961 74.3774 0.576251 7.86007
  962 78.4710 10.9210 4.06146
  963 78.8420 0.920003 -9.32505
  964 53.4656 -2.97166 -4.78791
  965 85.7057 -2.99157 6.50079
  966 53.4981 -2.95816 4.73304
  967 2.24014 2.53277 0.0718721
  968 8.58015 1.61379 5.08093
  969 42.9569 -0.816230 3.34561
  970 42.9010 -0.817861 -3.36831
  971 76.8836 -1.77098 1.59972
  972 82.0187 14.3802 2.27497
  973 41.5189 3.91490 -20.6226
  974 68.6697 -4.33209 0.375509
  975 64.4260 -6.79031 -6.34314
  976 94.5396 18.2140 5.30786
  977 72.5373 -1.22649 0.230974
  978 72.5355 -1.21846 -0.231131
  979 79.8330 -1.40756 -2.91593
  980 72.7438 6.25122 -3.05831
  981 172.621 49.9401 33.7400
  982 14.3243 0.892033 -6.82880
  983 14.5830 0.743653 6.84748
  984 1.06273 -1.87392 0.113833
  985 73.0426 4.01307 6.27671
  986 64.3946 -6.82927 6.29067
  987 80.2975 -3.75882 -7.49480
  988 87.4394 7.17183 9.16171
  989 84.6504 -6.83041 -7.41883
  990 124.067 26.2046 8.17659
  991 71.1146 -1.10212 0.00988373
  992 71.1053 -1.09142 -0.00966465
  993 83.6932 -3.36682 7.22736
  994 5.59167 8.24383 9.27377
  995 36.0540 -0.804898 4.81721
  996 35.9297 -0.794769 -4.87593
  997 43.5997 -2.22185 6.55076
  998 43.4416 -2.18997 -6.58068
  999 49.3120 -2.12535 4.65772
  1000 53.8913 -0.475094 -0.229934
  1001 53.8961 -0.471259 0.228763
  1002 141.840 43.4407 -27.0954
  1003 126.473 31.6288 12.2599
  1004 49.2727 -2.13773 -4.70305
  1005 86.2467 -0.364207 7.94035
  1006 76.2921 7.92351 -5.47354
  1007 53.8793 -4.59058 14.5036
  1008 69.7807 -8.23520 -7.50529
  1009 79.8589 -0.621546 -3.00379
  1010 35.2821 2.55820 16.6988
  1011 45.3347 -3.47987 11.5958
  1012 69.5266 3.51354 -3.91343
  1013 80.6475 -1.56767 -8.89227
  1014 106.823 39.9744 44.8082
  1015 65.3169 1.94435 2.76965
  1016 90.4124 19.7225 -0.364218
  1017 67.0491 2.53530 -24.9372
  1018 67.5008 -7.16174 -4.13906
  1019 87.1001 -0.0475329 -0.364179
  1020 82.3180 7.58619 -8.76017
  1021 46.6935 -0.341422 1.17618
  1022 46.6733 -0.344980 -1.18941
  1023 1.64298 0.160834 -2.10318
  1024 53.4500 -2.54202 -3.97613
  1025 45.2836 -3.52578 -11.6927
  1026 53.4011 -2.53459 3.92547
  1027 78.7548 -2.36845 8.22048
  1028 70.5179 -4.38630 0.296559
  1029 73.6780 1.33132 -7.59843
  1030 75.7649 9.48514 1.59534
  1031 105.265 5.86435 2.48868
  1032 78.2091 -5.91558 4.30726
  1033 48.4642 -3.95348 -8.88373
  1034 72.9642 2.54842 -7.08827
  1035 54.3886 -4.52459 -14.5921
  1036 105.636 23.2137 -0.206278
  1037 70.6804 4.59954 3.55947
  1038 91.1189 -0.569970 -5.29122
  1039 67.9266 -7.16098 3.75444
  1040 78.0616 -2.43767 6.41440
  1041 77.6574 -4.06727 4.80405
  1042 77.2344 -3.85028 4.20861
  1043 95.8212 12.0929 -7.08087
  1044 76.8498 -1.21917 6.40913
  1045 69.6452 -8.25859 7.37591
  1046 74.3593 -3.00728 1.60419
  1047 48.4921 -3.95935 8.82573
  1048 69.5884 -5.17982 -0.498715
  1049 39.7018 -1.90291 -12.4103
  1050 57.3813 -5.99660 9.75666
  1051 78.4263 -0.502113 -3.45735
  1052 76.1378 -0.850201 -7.23697
  1053 65.8278 -5.28472 -2.40961
  1054 39.7717 -1.96317 12.3025
  1055 70.4410 0.147976 -4.95798
  1056 52.1004 -3.56249 -6.24186
  1057 96.1866 20.6768 3.43596
  1058 20.6022 3.58745 -11.5730
  1059 170.004 12.0435 16.6715
  1060 37.8819 2.97447 -17.5243
  1061 77.2544 -6.38339 -2.89098
  1062 52.1099 -3.52978 6.18379
  1063 69.6060 0.696152 5.52010
  1064 38.0528 -0.818463 3.98340
  1065 38.0290 -0.839150 -4.02811
  1066 77.9898 -2.14676 -7.60522
  1067 83.8795 -0.343629 0.591480
  1068 81.7215 -0.155996 1.54881
  1069 80.3987 2.69184 9.42268
  1070 74.9168 -0.563914 6.77208
  1071 58.6062 6.14911 27.0162
  1072 87.7241 -0.0353490 0.186497
  1073 80.6909 10.9949 5.99239
  1074 67.5371 0.934105 4.73816
  1075 82.9247 -0.285361 1.49882
  1076 51.5903 -0.612038 -0.948223
  1077 51.5963 -0.604796 0.940464
  1078 32.3752 -0.957397 -6.63288
  1079 32.5175 -0.991592 6.58036
  1080 67.7480 3.32179 1.98194
  1081 105.795 5.17094 -6.47611
  1082 97.1608 -0.459708 -13.6333
  1083 75.7457 -0.0575340 -2.08182
  1084 57.4144 -6.04297 -9.83604
  1085 65.9640 -5.02494 2.11014
  1086 76.2284 -0.166289 2.17490
  1087 80.3848 -5.79272 -5.01369
  1088 48.3323 -0.140165 0.577858
  1089 48.3236 -0.142459 -0.582283
  1090 77.1032 -6.56653 2.89064
  1091 73.1619 -1.43915 0.403076
  1092 73.1501 -1.43997 -0.397308
  1093 71.1108 -7.19798 2.13117
  1094 92.7753 -3.05296 0.0190398
  1095 39.7303 -0.0801259 -1.12666
  1096 39.8011 -0.0773279 1.11295
  1097 62.5038 -3.87512 -16.7167
  1098 65.9877 -1.58110 0.185022
  1099 65.9959 -1.59159 -0.188133
  1100 40.2321 21.0874 29.6478
  1101 92.6699 7.54526 -7.81289
  1102 12.9234 6.49521 -8.52569
  1103 80.0965 -1.11130 -1.66847
  1104 20.5531 7.27272 -13.2516
  1105 43.1717 -2.79037 -8.46397
  1106 87.8224 -0.0536051 0.105856
  1107 87.8676 -0.0476661 -0.0800167
  1108 78.4348 -4.44348 -5.75608
  1109 69.4922 -7.76097 -10.5122
  1110 20.6073 3.05336 11.0286
  1111 85.2184 8.47061 8.61642
  1112 77.7314 -0.687985 -0.163515
  1113 77.7375 -0.689121 0.171691
  1114 85.5146 -5.59351 12.6751
  1115 87.0403 17.6182 3.36185
  1116 50.4798 -1.29638 -2.49168
  1117 50.4896 -1.28935 2.47026
  1118 38.8434 4.55805 20.7951
  1119 73.5108 0.353143 -7.36774
  1120 22.5358 7.44160 14.2978
  1121 96.5046 -1.81695 -3.46469
  1122 93.4356 20.9494 1.07288
  1123 63.8223 -5.14144 3.05149
  1124 57.4409 0.265362 -0.297465
  1125 82.1403 -0.663917 1.96481
  1126 85.3386 -0.0725747 0.772195
  1127 17.0082 0.0427629 -3.31490
  1128 17.2837 0.0331785 3.28989
  1129 65.2184 1.03248 -3.49859
  1130 68.2373 -2.00869 -0.00735758
  1131 68.2193 -1.99714 0.00637401
  1132 6.97707 9.53729 -9.82789
  1133 11.2978 22.3335 -20.4109
  1134 69.1754 -2.71087 -0.136640
  1135 69.2062 -2.71301 0.133742
  1136 71.6499 -1.68946 0.454236
  1137 71.6395 -1.68447 -0.446941
  1138 18.2442 11.7435 14.2854
  1139 55.4071 -0.736957 -0.437653
  1140 55.4107 -0.731031 0.434846
  1141 70.2591 5.26588 -0.0865856
  1142 92.9331 10.6042 -31.2955
  1143 86.7348 15.0613 -5.75257
  1144 79.3161 -3.01451 -7.83077
  1145 78.1726 -3.86170 -5.79123
  1146 63.8752 -5.19209 -3.10742
  1147 63.2220 0.183412 2.15993
  1148 72.0169 4.45057 -5.24097
  1149 70.9259 3.77122 4.99314
  1150 74.3084 -2.91594 -1.57841
  1151 70.7082 -4.29480 -0.346038
  1152 63.9156 -4.21979 -2.23268
  1153 76.4563 -0.436370 4.05840
  1154 138.585 14.0616 1.97824
  1155 77.0556 -1.62417 7.39948
  1156 77.0586 5.06385 7.95124
  1157 71.4547 -7.07062 -1.44329
  1158 8.06583 1.48839 -4.89096
  1159 72.7992 -3.35395 -1.25122
  1160 46.3981 -0.0953157 -0.0236008
  1161 46.4037 -0.0949719 0.0231809
  1162 89.4789 -2.36190 4.63428
  1163 85.3061 -7.15832 2.19806
  1164 123.098 22.2553 5.14191
  1165 27.3163 -0.0732300 -2.78945
  1166 27.5061 -0.0669703 2.76553
  1167 64.4523 -1.31815 -0.190134
  1168 64.4473 -1.30849 0.187887
  1169 73.0636 -6.46935 0.395588
  1170 58.0016 0.233483 0.970814
  1171 74.8806 -5.32820 2.28429
  1172 3.91624 4.66169 -1.94247
  1173 12.8116 6.57445 8.34957
  1174 49.5871 -2.61314 16.1767
  1175 86.3022 16.6040 -4.09919
  1176 83.2580 -0.209494 -1.18112
  1177 88.2264 -0.118132 0.0806930
  1178 88.3295 -0.170669 -0.0562003
  1179 48.5733 -0.149467 -0.0881490
  1180 48.5798 -0.148372 0.0872238
  1181 79.5049 5.10223 9.07853
  1182 119.422 20.6871 -0.435051
  1183 81.7695 13.6256 -4.08480
  1184 61.3991 -4.44114 16.6064
  1185 49.3215 -2.50034 -16.1489
  1186 54.4585 -3.76020 -5.55712
  1187 76.9024 -2.08263 1.99797
  1188 107.997 23.6303 -0.250052
  1189 54.4571 -3.73523 5.50665
  1190 78.7535 -1.28824 1.51524
  1191 68.9039 2.50554 4.75412
  1192 76.6979 2.36734 8.68106
  1193 110.762 24.8486 1.80515
  1194 64.5921 -1.71161 0.366659
  1195 64.5977 -1.72162 -0.370812
  1196 79.7089 -1.42186 3.02312
  1197 45.3802 -0.534236 1.85933
  1198 45.3479 -0.539956 -1.87937
  1199 78.0429 -0.969556 -0.730006
  1200 31.6617 18.6747 -28.5127
  1201 67.5174 -3.76417 -17.7673
  1202 62.6984 -2.01939 -0.792845
  1203 62.7025 -2.00846 0.792820
  1204 84.2899 -0.320602 0.519922
  1205 79.2876 -0.944339 1.21849
  1206 4.03580 4.82920 3.40261
  1207 86.9280 -0.0686382 0.421030
  1208 9.79887 12.0442 11.9439
  1209 77.3083 -1.06510 -0.926477
  1210 -0.137138 -1.94790 -1.69673
  1211 53.9237 -5.25263 -12.4831
  1212 53.7565 -5.12199 12.3495
  1213 86.9298 -0.127167 -0.460126
  1214 73.2845 -3.85881 -1.45060
  1215 84.2080 -0.284364 -0.545155
  1216 66.1429 -2.16518 -0.263517
  1217 66.1333 -2.15506 0.257355
  1218 77.9888 -0.961002 0.690997
  1219 72.7446 -3.29002 1.23804
  1220 69.8133 -2.23436 -0.291829
  1221 69.8412 -2.24273 0.301768
  1222 84.1568 -0.293567 -0.449069
  1223 72.0938 -7.53866 -11.9064
  1224 82.1643 -0.410208 -0.471863
  1225 77.6620 -1.09880 0.981268
  1226 52.4886 -0.636774 -0.686278
  1227 52.4940 -0.630201 0.680927
  1228 59.2757 -0.912127 -0.315503
  1229 59.2762 -0.904859 0.313214
  1230 98.3006 15.2455 6.13044
  1231 82.4616 -6.28303 3.97861
  1232 56.1555 -0.201064 20.6162
  1233 43.1563 -0.0936067 0.711959
  1234 43.1193 -0.0945175 -0.720450
  1235 77.6444 -1.40574 5.60918
  1236 74.5253 -1.04998 0.255914
  1237 74.5309 -1.04555 -0.255740
  1238 84.8221 16.6900 1.89821
  1239 78.5662 -8.19056 9.19859
  1240 43.5031 -0.668252 2.64012
  1241 43.4575 -0.673856 -2.66310
  1242 74.3653 -1.75568 0.877470
  1243 74.3497 -1.76690 -0.858052
  1244 76.8643 -2.05343 -1.93362
  1245 69.4030 0.00563050 2.57169
  1246 123.469 30.6343 -9.40828
  1247 78.1672 -2.81402 -5.10609
  1248 12.5688 3.17646 7.16918
  1249 80.8439 -4.26396 7.06734
  1250 63.2577 1.31787 -1.91020
  1251 4.44994 3.52966 2.36175
  1252 107.995 11.4818 0.501620
  1253 78.8278 -3.55147 -7.04462
  1254 63.5900 0.850178 2.92160
  1255 43.4921 -2.79340 8.44082
  1256 80.2912 -6.17517 4.55388
  1257 118.399 21.5076 5.28280
  1258 26.0669 4.01135 14.1224
  1259 80.8359 -0.885122 -2.59400
  1260 160.216 1.75341 -1.65599
  1261 165.960 2.52809 7.44591
  1262 177.842 6.22256 -17.5669
  1263 77.9656 -2.39403 -6.23235
  1264 78.0720 -3.52199 5.43869
  1265 79.4232 -5.61434 5.24744
  1266 -2.35798 0.233384 1.52476
  1267 -2.15776 0.175075 -1.64540
  1268 77.4678 -8.52154 -3.87754
  1269 79.5415 -7.99696 -6.15921
  1270 58.4749 0.343328 -1.20261
  1271 77.1873 -8.68585 6.19817
  1272 82.3003 -3.86251 -7.19744
  1273 1.29984 2.30998 -0.0194152
  1274 66.1861 -1.20212 0.182804
  1275 66.1922 -1.21218 -0.183294
  1276 82.1306 -0.582195 1.79618
  1277 78.7582 -1.26268 -1.43254
  1278 73.8817 -8.07371 -1.76945
  1279 66.9937 -3.67993 0.708806
  1280 66.6362 -3.63131 -0.821078
  1281 79.2811 -1.61719 4.04413
  1282 81.1980 -2.94535 -8.10729
  1283 4.62660 3.68126 -2.24550
</Section>

newXOutput 6

<Section columns = "stress_xx | stress_yy | stress_xy">
  1 110.704 0.0157730 0.236171
  2 110.717 0.0167187 -0.237129
  3 56.9422 -0.0341450 -0.0857319
  4 -0.736977 -0.733567 -1.05850
  5 206.549 76.7348 63.7612
  6 204.525 79.7626 -64.3063
  7 -0.854494 -0.701532 1.12026
  8 56.9354 -0.0343960 0.0854344
  9 111.564 -0.167196 0.0782856
  10 111.285 -0.272276 -0.0406482
  11 110.955 -0.164731 0.287429
  12 110.630 -0.242369 0.107015
  13 109.940 -0.198036 0.454229
  14 109.323 -0.204008 0.347797
  15 107.927 -0.182239 0.643887
  16 105.998 -0.103096 0.941866
  17 104.263 -0.122978 1.03450
  18 101.746 -0.195616 1.23523
  19 98.3230 0.00558005 1.80543
  20 95.1582 -0.144805 1.69887
  21 91.6394 -0.202246 2.37067
  22 86.5460 0.145884 2.04515
  23 82.9225 0.201948 2.40308
  24 78.2020 0.351524 1.86688
  25 74.9648 0.341903 1.87572
  26 70.2682 0.504224 0.951962
  27 69.2930 0.798298 1.01629
  28 68.7119 0.639679 -0.298481
  29 69.5229 0.345175 -0.663843
  30 71.0078 0.353518 -0.811503
  31 74.5216 0.459951 -1.62630
  32 77.9328 0.362459 -2.07080
  33 82.9944 0.0607164 -2.46486
  34 87.0541 -0.0598404 -2.26573
  35 91.4277 -0.163092 -2.24506
  36 95.4116 -0.111777 -1.59642
  37 98.8799 -0.110589 -1.37884
  38 101.773 -0.189076 -1.16996
  39 104.394 -0.127030 -0.833217
  40 106.066 -0.142476 -0.892206
  41 107.680 -0.189761 -0.656061
  42 109.238 -0.230503 -0.307545
  43 110.047 -0.180835 -0.347936
  44 110.507 -0.0964812 -0.225571
  45 110.264 -0.0303184 -0.204736
  46 111.419 -0.279286 0.0217110
  47 111.610 -0.176115 -0.0808949
  48 107.586 -0.0143223 -0.145387
  49 104.935 -0.355557 -0.249563
  50 101.734 -0.544874 -0.180877
  51 97.8546 -0.855020 -0.243070
  52 94.2081 -0.951907 -0.309834
  53 90.3376 -1.24123 -0.291160
  54 86.9314 -1.40970 -0.173776
  55 83.9461 -1.61682 -0.0803708
  56 80.5099 -1.35207 -0.0820335
  57 76.5520 -1.28385 -0.110842
  58 72.7311 -1.03193 -0.0495847
  59 69.1042 -0.676876 -0.0264811
  60 65.6477 -0.495760 -0.00785123
  61 62.6006 -0.271630 0.0212675
  62 59.4633 -0.0861418 -0.0998734
  63 56.9912 0.0769550 0.105439
  64 55.9030 0.241954 0.0638602
  65 56.7097 -0.00543171 0.163606
  66 55.9330 -0.0429520 0.193904
  67 55.2419 -0.0593624 0.243031
  68 54.2869 -0.0163176 0.324397
  69 53.0788 -0.00988770 0.414083
  70 52.2353 -0.0888922 0.821097
  71 49.6228 0.0740905 0.901207
  72 47.8158 -0.0112718 1.04471
  73 45.1227 -0.0558462 1.18165
  74 42.0042 -0.0900742 1.44278
  75 38.1124 -0.0248839 1.75172
  76 33.3643 0.0187845 1.92217
  77 29.3399 -0.0539220 2.74170
  78 21.2516 0.264715 2.56682
  79 15.8322 0.229570 2.71655
  80 9.42056 -0.0333323 2.98466
  81 4.17730 0.527853 3.06420
  82 -1.75201 0.768405 1.76251
  83 -5.96213 0.775412 0.532607
  84 -5.55984 0.725626 -0.423260
  85 -5.06824 0.593043 -1.56573
  86 -2.95474 -0.225599 -1.45137
  87 -0.386041 -2.83713 -1.59171
  88 0.239581 -5.28032 -2.03432
  89 0.725515 -8.56450 -1.24987
  90 1.64630 -9.17647 -0.190510
  91 3.53263 -3.65132 4.30366
  92 10.8112 13.9820 15.6393
  93 66.8453 57.0206 56.4403
  94 248.806 36.6150 42.3049
  95 222.845 5.29187 13.9880
  96 205.939 2.14902 4.28090
  97 199.671 1.80045 0.348065
  98 202.899 2.42881 -3.67634
  99 222.153 4.87523 -11.0528
  100 265.399 17.7037 -36.9380
  101 39.2746 57.5568 -46.8051
  102 8.11706 8.48743 -12.7417
  103 3.83962 -3.26338 -4.39228
  104 1.53041 -9.29012 -0.502081
  105 0.387791 -6.60861 1.45676
  106 0.523332 -6.63387 1.78048
  107 0.00999718 -2.47104 1.76004
  108 -3.07950 -0.161984 1.38527
  109 -5.23212 0.444768 1.37544
  110 -5.84775 0.885311 0.457519
  111 -6.16392 0.767219 -0.480035
  112 -2.17161 0.787744 -1.64119
  113 3.79866 0.532800 -2.91571
  114 9.03251 0.0211963 -2.93512
  115 15.4348 0.248502 -2.72397
  116 20.8905 0.272201 -2.58888
  117 29.0594 -0.0550307 -2.76781
  118 33.1234 0.0214112 -1.94319
  119 37.9028 -0.0238256 -1.77606
  120 41.8954 -0.0989120 -1.45577
  121 44.9809 -0.0537190 -1.18601
  122 47.7097 -0.00780055 -1.05713
  123 49.5373 0.0730195 -0.912845
  124 52.1760 -0.0896767 -0.831003
  125 53.0331 -0.0104023 -0.420245
  126 54.2543 -0.0167946 -0.329498
  127 55.2192 -0.0601408 -0.247107
  128 55.9177 -0.0436165 -0.196774
  129 56.6986 -0.00602903 -0.165464
  130 55.8949 0.241539 -0.0647467
  131 56.9838 0.0767714 -0.105980
  132 59.4552 -0.0868356 0.0995239
  133 62.5922 -0.273361 -0.0219747
  134 65.6404 -0.499648 0.00701119
  135 69.0991 -0.682306 0.0256585
  136 72.7291 -1.03974 0.0487906
  137 76.5537 -1.29364 0.110229
  138 80.5156 -1.36329 0.0814822
  139 83.9547 -1.62915 0.0801758
  140 86.9419 -1.42192 0.174204
  141 90.3516 -1.25236 0.292368
  142 94.2182 -0.959729 0.314238
  143 97.8599 -0.861987 0.263836
  144 101.749 -0.509120 0.185062
  145 105.010 -0.343796 0.244238
  146 107.597 -0.0307892 0.143377
  147 95.1178 -8.92592 -1.49375
  148 95.0462 -8.80745 1.52860
  149 99.0874 14.3049 -5.32093
  150 106.352 6.30417 11.4950
  151 80.4528 -7.67190 -17.1353
  152 81.0823 -7.67012 16.5540
  153 77.3433 -3.36935 1.80296
  154 77.3540 -3.41918 -1.80608
  155 113.302 4.02692 -9.23612
  156 94.8602 -3.35305 2.67771
  157 94.8224 -3.26766 -2.64298
  158 122.621 27.6993 1.68132
  159 96.6675 -0.151649 -11.0214
  160 70.8684 -5.70487 -7.58554
  161 70.8610 -5.65409 7.50976
  162 96.9649 -2.16713 10.0471
  163 91.3829 6.63285 6.46207
  164 37.2274 6.19647 -20.4224
  165 41.4564 5.85483 21.5483
  166 120.234 1.19790 2.34557
  167 97.4457 -3.69110 -7.17596
  168 129.663 28.5371 -1.65210
  169 87.4474 -2.44480 0.302710
  170 87.4269 -2.43490 -0.293583
  171 99.0720 -1.08837 -1.19159
  172 99.4218 -0.963816 1.03655
  173 67.3622 -1.04287 -1.14457
  174 67.3669 -1.03132 1.13676
  175 107.231 -3.07395 21.7342
  176 88.2679 3.60727 -6.94791
  177 57.2856 -4.35742 -12.4258
  178 57.4601 -4.32447 12.3336
  179 64.1308 -2.21568 -3.98119
  180 64.1325 -2.18869 3.94592
  181 97.9673 -2.51793 6.09383
  182 88.7634 -6.13064 0.406623
  183 88.4281 -6.08467 -0.250002
  184 101.682 -9.78318 -0.718414
  185 102.183 -9.31888 -0.565558
  186 141.065 33.1173 -3.70197
  187 101.103 16.3526 4.99327
  188 101.633 6.26062 -11.3871
  189 106.991 -1.22060 -25.4566
  190 101.268 -5.67431 -8.33198
  191 102.113 -4.03059 9.66052
  192 84.7940 -9.65253 8.06932
  193 84.8353 -9.58810 -8.03947
  194 89.9795 1.11281 8.39175
  195 40.3600 -0.919935 -15.1282
  196 40.4689 -1.01435 15.0256
  197 160.061 24.1697 3.38279
  198 95.7831 -5.67600 4.75914
  199 99.5582 -1.75368 -4.04301
  200 77.7912 -1.95146 -0.767009
  201 77.7897 -1.93963 0.763398
  202 94.9156 -1.21984 -7.70535
  203 108.432 15.9859 -9.29443
  204 89.7043 8.02580 -1.30023
  205 57.4545 -2.14160 5.69254
  206 57.3621 -2.14989 -5.74190
  207 101.329 -1.02961 2.29073
  208 97.7862 1.84517 11.3096
  209 79.0962 -5.87536 -3.37745
  210 78.5081 -5.56572 3.49079
  211 116.012 17.2127 8.86390
  212 138.045 18.0871 1.32537
  213 8.62299 6.96772 -5.26494
  214 7.95410 6.44168 4.44541
  215 55.8855 15.7870 36.6199
  216 94.7959 -6.28141 -3.82592
  217 101.750 -0.990323 -2.07334
  218 88.8670 0.741736 -7.72153
  219 61.1502 -0.673701 -1.75354
  220 61.1667 -0.665808 1.73502
  221 84.8324 -4.02165 -0.360973
  222 84.8703 -4.04343 0.310982
  223 95.8371 -1.27323 6.59077
  224 111.707 -6.49843 1.33708
  225 109.586 22.6479 -2.74373
  226 85.9560 -8.37055 -3.47914
  227 109.626 -1.88112 7.88089
  228 92.9888 -1.47666 0.524363
  229 92.9928 -1.46270 -0.523452
  230 85.2754 -8.32919 3.65452
  231 98.1583 -6.18492 6.87027
  232 140.345 17.0779 -6.99290
  233 29.9057 17.8494 -26.0463
  234 81.4192 2.78246 1.63801
  235 97.9477 8.65735 9.49291
  236 105.160 -0.703245 -10.4318
  237 97.9586 -3.49153 -9.48846
  238 50.5562 -1.70788 -7.19073
  239 50.7443 -1.68079 7.16138
  240 98.1896 -1.13870 -5.16890
  241 93.6531 -2.30071 1.50478
  242 93.6092 -2.29547 -1.46327
  243 18.5723 1.84970 -9.42869
  244 18.9104 1.62355 9.40118
  245 105.112 -9.15969 -7.12343
  246 104.161 -0.270042 0.353751
  247 104.293 -0.276212 -0.372868
  248 95.4993 7.91193 -8.65663
  249 83.2087 1.53054 5.00433
  250 180.880 29.0085 19.3285
  251 179.581 20.4588 -12.2200
  252 127.508 27.8335 -0.475426
  253 79.4645 -3.76673 22.9859
  254 72.7379 -2.37367 -24.0882
  255 82.9860 -1.69995 -0.192201
  256 82.9765 -1.68711 0.189844
  257 67.9607 -1.91728 2.35439
  258 67.9653 -1.94527 -2.37977
  259 101.033 -1.01675 3.28111
  260 97.7812 -6.92843 -5.80539
  261 61.3079 -0.150489 -0.397228
  262 61.3173 -0.148143 0.394027
  263 96.5379 -3.85074 -4.57183
  264 39.3539 -1.32191 -9.93047
  265 39.5435 -1.32659 9.85025
  266 97.6353 -4.18985 7.72115
  267 74.0652 -7.86411 13.7527
  268 74.2768 -8.00604 -13.7122
  269 82.7298 3.09121 -2.32884
  270 71.3627 -1.15649 -0.765922
  271 71.3657 -1.14763 0.762047
  272 90.7195 -0.247064 6.23378
  273 109.140 20.1471 6.48237
  274 56.7326 -0.754482 3.03391
  275 56.6881 -0.761305 -3.06414
  276 100.596 -8.34930 4.41668
  277 93.1255 -10.4015 -8.79204
  278 104.464 -0.411693 1.09347
  279 70.8634 -4.33300 -5.12154
  280 70.7239 -4.28191 5.09754
  281 130.535 12.2286 32.3160
  282 59.3493 -4.76408 16.5473
  283 96.2938 13.5748 -0.567737
  284 123.769 13.4313 -6.48873
  285 92.5460 -7.16815 1.93253
  286 93.1610 -10.6922 7.84171
  287 59.5531 -4.68087 -16.7536
  288 10.7018 13.1577 11.6580
  289 96.5532 -3.86734 4.65185
  290 127.645 16.4074 5.44098
  291 105.390 -0.365854 -0.947695
  292 93.8784 3.25921 -9.96075
  293 93.2780 -5.25783 2.79597
  294 91.2645 -7.72687 -0.476705
  295 93.4797 4.27340 9.57747
  296 100.087 -8.35824 -4.02811
  297 142.503 28.0082 -2.09898
  298 93.2518 -5.05043 -2.68179
  299 78.1424 21.6668 -45.2684
  300 95.5746 -10.1114 -1.00973
  301 94.8727 -10.3843 2.12035
  302 68.7375 -6.30642 -10.8338
  303 60.7740 -0.271084 -0.875799
  304 60.7872 -0.266420 0.867124
  305 68.7575 -6.30904 10.7677
  306 100.811 -0.148750 -11.5087
  307 109.574 -4.51828 -5.59975
  308 82.3958 -5.04321 -1.57129
  309 82.3300 -5.05407 1.60512
  310 99.9374 -8.59702 14.4691
  311 99.0503 -0.752807 3.91803
  312 121.797 0.258731 4.08911
  313 80.5450 -2.89554 -0.816203
  314 80.5476 -2.88352 0.809242
  315 72.8318 -1.97539 -1.48295
  316 72.8282 -1.95522 1.47942
  317 82.2684 1.05706 -4.84419
  318 107.664 7.89878 -11.1976
  319 168.995 45.2248 -20.7241
  320 98.4940 -0.753786 -0.414714
  321 98.4282 -0.742594 0.423431
  322 51.7017 0.0281254 20.6466
  323 72.5593 -3.40440 -3.29432
  324 72.4054 -3.38959 3.30153
  325 51.6962 -0.0852487 -20.5687
  326 102.168 12.1017 -9.34445
  327 115.428 5.65880 8.88636
  328 100.003 -7.14069 -16.1637
  329 91.1050 -3.48799 1.40198
  330 91.0061 -3.45906 -1.35876
  331 97.6460 -1.93332 -2.31537
  332 90.7967 -0.186098 -5.83485
  333 102.786 0.481227 11.3420
  334 103.121 -0.654220 -2.28286
  335 60.3536 -3.78138 8.29337
  336 60.2883 -3.80461 -8.36624
  337 95.1271 -0.220981 10.4319
  338 56.9607 -0.516139 -1.78087
  339 56.9969 -0.511111 1.76162
  340 98.3200 -2.18078 3.46475
  341 117.700 24.2001 -5.10100
  342 97.5819 -1.95124 2.39454
  343 103.369 13.0483 9.40292
  344 99.1010 -1.81319 10.9707
  345 77.6621 -1.48604 0.254745
  346 77.6650 -1.49669 -0.257383
  347 93.3245 -0.344761 -9.24290
  348 124.680 26.3354 3.69753
  349 102.777 18.9991 0.197289
  350 63.1419 7.40301 -30.9484
  351 5.80695 2.82342 -3.88064
  352 6.44694 3.04912 4.21071
  353 -0.498872 0.622202 2.06337
  354 -0.0786848 0.286737 -2.13871
  355 186.106 12.8976 4.52377
  356 85.2649 -6.99664 -1.82326
  357 98.4153 -2.10163 -3.38395
  358 88.3191 -1.50351 0.234291
  359 88.3087 -1.48958 -0.234571
  360 93.9360 10.3820 -4.68077
  361 80.4024 -8.27589 6.61854
  362 6.67201 9.81653 -6.99709
  363 80.4966 -8.27774 -6.75614
  364 95.2382 10.8446 4.98169
  365 97.9761 -2.55789 -5.82388
  366 104.227 -5.76805 -7.31454
  367 110.329 23.5552 1.90093
  368 104.521 -6.47092 6.22529
  369 41.3386 -1.08626 6.66870
  370 41.0663 -1.06573 -6.71897
  371 22.9747 0.624856 -9.11926
  372 23.2544 0.523668 9.07551
  373 83.6890 0.217311 4.91331
  374 164.246 47.1610 17.0229
  375 101.582 -0.595779 -2.83878
  376 78.1624 -6.71822 -5.01515
  377 78.0831 -6.69634 5.00713
  378 97.2388 -2.20506 -7.24997
  379 111.739 -5.39455 1.94809
  380 85.2609 -6.98822 1.89490
  381 123.408 0.550774 -8.75040
  382 67.2392 -0.595423 -0.268739
  383 67.2456 -0.589871 0.265888
  384 95.3595 -0.538627 -4.56764
  385 49.7182 -0.770625 -4.36577
  386 49.7538 -0.794033 4.30745
  387 114.686 14.6296 -9.74872
  388 61.5315 4.40107 28.6644
  389 89.3537 -4.70235 0.967445
  390 89.4442 -4.69228 -0.973099
  391 104.814 17.8555 -6.00604
  392 99.5615 -2.92031 -10.4666
  393 100.446 -10.2237 7.48135
  394 82.6840 -2.21142 -0.279756
  395 82.6717 -2.19848 0.274481
  396 96.1961 -7.40567 4.12836
  397 104.214 -0.444957 1.71090
  398 63.1163 -2.41536 -5.02572
  399 63.1390 -2.41369 4.97633
  400 97.1989 3.25726 -11.1352
  401 92.1298 -1.93355 0.805388
  402 92.1276 -1.93711 -0.791160
  403 94.9202 -1.10409 8.55645
  404 87.7031 6.33836 2.21858
  405 98.8087 -4.13293 9.22754
  406 143.949 30.3571 4.81606
  407 46.4989 -2.52031 -13.2928
  408 46.6360 -2.52208 13.1810
  409 20.5408 11.2453 -15.3990
  410 107.064 -0.244604 0.508074
  411 51.8086 -0.487207 -2.75494
  412 51.8829 -0.476853 2.72788
  413 97.3385 -2.50180 7.12539
  414 88.2350 -9.61153 4.03418
  415 100.312 -1.15102 1.64849
  416 101.470 5.17526 11.6919
  417 21.6176 11.9734 16.1279
  418 88.3798 -9.56271 -3.65714
  419 91.3905 -8.51904 -0.124860
  420 28.3239 -0.572732 -8.31864
  421 28.5680 -0.596546 8.25553
  422 69.8721 -5.50857 -19.9684
  423 105.214 -1.52937 10.2120
  424 69.5685 -5.60251 19.7795
  425 97.0251 -5.41587 -6.19507
  426 89.0531 5.95402 -4.88959
  427 97.0517 -4.14647 5.84420
  428 105.289 -0.401713 -1.18915
  429 2.93636 2.96052 1.01223
  430 20.6137 23.2917 22.9883
  431 92.7095 -0.345892 4.37292
  432 76.4632 0.985770 2.10639
  433 77.9306 1.21746 -2.86747
  434 66.5044 -1.17787 -1.65900
  435 66.5074 -1.16201 1.64554
  436 95.6808 -7.40341 -3.83558
  437 96.3530 -1.86650 -9.61790
  438 76.9266 1.36912 -0.779473
  439 144.069 34.2153 5.93758
  440 18.8865 6.51857 -11.4913
  441 20.9100 5.98698 12.3357
  442 89.2724 -3.16536 0.811016
  443 89.2358 -3.15504 -0.784796
  444 119.209 26.6831 -0.431729
  445 75.9883 29.4519 46.2589
  446 115.719 -1.71442 -2.85156
  447 64.7257 -3.48845 -6.82358
  448 64.7525 -3.46228 6.75773
  449 64.8531 -1.53694 2.63703
  450 64.8447 -1.54938 -2.66541
  451 88.5719 1.91488 -7.93148
  452 107.684 -0.0954233 -0.345760
  453 85.8410 3.87169 4.42748
  454 110.122 13.6372 10.3256
  455 91.5205 -6.80786 -1.54179
  456 100.286 -1.08854 -1.59814
  457 105.759 -0.357414 1.09642
  458 107.390 -0.0985368 0.198499
  459 107.495 -0.118530 -0.151675
  460 56.3768 -0.123257 0.647929
  461 56.3509 -0.124977 -0.656066
  462 100.395 -6.33572 7.47418
  463 89.4628 3.48362 7.67671
  464 93.9792 0.369761 -10.1504
  465 98.9123 -2.01774 4.39240
  466 145.839 22.6906 -26.5283
  467 99.0181 -5.45821 -8.20203
  468 0.552782 1.81026 0.510405
  469 0.561210 1.82372 -0.0217342
  470 77.6271 -4.49524 2.70424
  471 77.3506 -4.43935 -2.67798
  472 124.926 1.73520 13.8403
  473 34.3537 30.1676 -34.6071
  474 97.4767 -0.272427 3.44783
  475 111.819 -6.57135 -7.50056
  476 57.7170 -3.41712 9.63977
  477 118.925 21.1153 -7.30930
  478 97.5772 -5.24565 6.93554
  479 81.2625 -3.95096 -1.16232
  480 81.3350 -3.88260 1.15670
  481 83.6655 0.423283 -4.34439
  482 57.5301 -3.40577 -9.70904
  483 85.9954 0.00794577 4.38395
  484 83.4492 -9.52454 -12.1336
  485 83.2308 -9.53911 12.1654
  486 100.925 -0.627822 3.12508
  487 90.4773 8.50453 0.918062
  488 93.8301 1.37418 31.3429
  489 137.356 28.2850 -0.179254
  490 94.5295 -1.50969 0.846398
  491 94.5380 -1.50353 -0.868222
  492 71.3348 -1.33087 -1.00527
  493 71.3365 -1.31872 1.00016
  494 37.3603 1.85415 17.2117
  495 97.9721 -4.68317 -7.97920
  496 88.6156 -1.88753 0.279441
  497 88.6066 -1.87935 -0.276743
  498 76.8794 -8.19655 9.93954
  499 38.1148 2.43103 -17.6636
  500 98.2598 -7.97724 -4.36381
  501 1.52885 0.0170159 1.06446
  502 84.4212 4.29015 0.316190
  503 94.9282 -1.00320 -0.287682
  504 94.9229 -1.01933 0.283054
  505 76.9429 -8.18555 -10.0226
  506 111.960 -5.87035 9.91410
  507 110.208 4.01438 10.6306
  508 102.087 -0.595589 -0.820355
  509 97.9572 -8.09317 4.41066
  510 59.1793 -0.0797985 -0.106834
  511 59.1879 -0.0791841 0.105600
  512 97.6121 -3.71709 -8.42117
  513 93.8681 6.94025 8.44266
  514 108.815 2.69467 -10.4848
  515 58.8281 -0.116487 -0.361950
  516 58.8394 -0.114997 0.358877
  517 194.065 28.0088 -25.2379
  518 97.8437 11.6957 7.47623
  519 102.187 -0.537120 0.734473
  520 91.6042 -8.70386 0.342600
  521 76.1309 -2.58972 1.44368
  522 76.1338 -2.61141 -1.44086
  523 107.261 -6.49055 3.93379
  524 102.628 -2.01150 -10.6567
  525 114.562 22.7491 5.94901
  526 94.8247 1.62075 10.5129
  527 96.3934 -1.76857 1.53936
  528 93.7970 -9.95645 -11.5288
  529 96.7506 -2.36355 8.21980
  530 192.202 8.76693 -3.55419
  531 106.520 -7.99786 -1.20070
  532 101.451 -0.568723 -0.215263
  533 101.472 -0.612704 0.196792
  534 194.170 13.0488 12.5266
  535 92.3097 -0.0461511 8.94103
  536 131.394 21.6960 -3.72127
  537 98.0249 -2.60115 -4.31385
  538 42.2839 -0.427837 -2.99181
  539 42.4311 -0.407536 2.95847
  540 65.4866 -6.16214 -13.8495
  541 65.5289 -6.05785 13.7388
  542 96.3433 -1.68929 -1.52160
  543 104.620 3.85895 -11.5514
  544 91.8041 -6.25453 1.88934
  545 98.3028 11.3005 -7.77744
  546 99.7670 -1.10194 4.20946
  547 126.270 5.97156 -0.0305387
  548 84.7593 -2.91988 -0.119419
  549 84.7292 -2.90697 0.114414
  550 92.4907 -4.34552 2.16508
  551 137.884 26.8412 -0.468605
  552 97.0589 4.24985 10.9290
  553 41.1130 10.6447 25.5728
  554 94.8311 -5.71111 20.6615
  555 126.730 5.38550 -22.5674
  556 99.2678 8.21999 -10.2068
  557 88.7323 -7.61637 -17.8587
  558 96.0003 -10.4912 -2.84817
  559 100.515 -10.1270 -4.50475
  560 12.7036 16.0575 -15.2494
  561 100.978 -1.19309 -2.69489
  562 152.873 29.8641 -8.18286
  563 93.0104 -4.15730 -2.34819
  564 93.8538 -3.00162 1.93250
  565 93.7644 -2.92876 -1.86583
  566 62.9528 -0.411887 -0.785811
  567 62.9625 -0.406484 0.779196
  568 8.16016 0.975832 -4.90808
  569 8.69493 1.02026 5.02818
  570 46.7684 -2.23859 -10.1672
  571 47.1489 -2.24975 10.1438
  572 95.1198 -5.12154 -4.09246
  573 97.1745 -10.5327 3.13317
  574 99.9105 -9.44176 1.53726
  575 80.9764 -1.43581 -0.239419
  576 80.9700 -1.42395 0.237816
  577 77.2051 -8.06344 -15.3049
  578 86.9549 -7.08170 18.9440
  579 75.2492 -7.57534 15.4047
  580 97.6457 -2.14624 -10.3615
  581 59.6294 -1.06797 3.02003
  582 59.6014 -1.07970 -3.04943
  583 92.5126 5.07880 -8.46631
  584 92.7925 -0.160697 -3.97009
  585 116.552 25.5880 -2.75046
  586 75.1882 -1.17916 -0.260292
  587 75.1878 -1.17025 0.258696
  588 99.6037 -0.277795 -2.28158
  589 67.4669 -2.38999 -3.27515
  590 67.4631 -2.38000 3.24211
  591 55.6347 2.69821 24.5950
  592 96.9493 -4.41835 -5.91607
  593 53.2287 -2.75290 17.6250
  594 95.2643 -4.90394 4.16149
  595 100.650 -1.33989 2.95987
  596 99.5223 -0.806184 -0.740369
  597 68.1192 -0.906648 -0.707872
  598 68.1244 -0.898587 0.702992
  599 111.705 22.5045 -5.30057
  600 53.1947 -2.63858 -17.7006
  601 94.9577 -4.06599 -3.38322
  602 85.1807 -1.55961 -0.0822138
  603 85.1709 -1.54640 0.0817485
  604 163.194 22.1063 -3.81743
  605 54.8456 -0.389407 1.68150
  606 54.7969 -0.393364 -1.69966
  607 87.4119 1.95546 7.22122
  608 127.896 10.3028 -3.00052
  609 59.3944 0.539700 -24.4381
  610 29.5111 0.852422 -13.1503
  611 29.7767 0.669315 13.0790
  612 74.1918 -4.45092 3.98138
  613 75.0199 -4.58188 -3.84581
  614 128.608 25.8408 3.53997
  615 99.0794 -0.839478 0.681001
  616 83.2673 2.26957 -4.34464
  617 105.050 19.0339 4.74598
  618 104.627 19.7593 -3.15468
  619 86.0171 -4.81058 -0.248710
  620 86.7061 -4.69541 -0.0671986
  621 61.9826 13.3658 -35.3572
  622 73.1848 -2.60104 -2.16304
  623 73.1872 -2.56934 2.15297
  624 192.603 39.3430 29.5222
  625 97.6075 -3.16498 9.03679
  626 54.2538 -2.01618 -6.51574
  627 155.130 33.9148 21.5594
  628 54.3860 -2.00356 6.48599
  629 94.1285 -3.64348 -24.2772
  630 64.1787 -0.366369 -0.290764
  631 64.1867 -0.363109 0.288890
  632 79.9891 0.674703 3.78489
  633 35.3669 -0.559606 -5.86702
  634 35.5892 -0.560861 5.81574
  635 84.8741 -6.07712 1.30638
  636 89.2436 -7.19012 0.120870
  637 106.326 -0.190820 -0.983233
  638 57.3333 -0.113295 0.468560
  639 57.3148 -0.115188 -0.474596
  640 79.6866 -1.82312 -0.311239
  641 79.6812 -1.81117 0.307464
  642 92.5797 -10.2257 11.6799
  643 105.933 11.8644 -10.4432
  644 69.4202 -3.36254 -4.23504
  645 69.3617 -3.30409 4.20011
  646 83.2286 -6.07661 -2.05558
  647 132.401 29.0434 0.110932
  648 99.2918 -9.56921 -0.967850
  649 85.5296 -2.03199 0.00492042
  650 85.5152 -2.01994 -0.00420369
  651 118.864 12.9139 8.53343
  652 99.3386 -1.37119 -4.57815
  653 86.5389 -0.130463 -3.57647
  654 39.2893 -1.33384 -12.7388
  655 39.4231 -1.37553 12.6249
  656 83.0585 -7.25625 -3.57014
  657 125.352 27.9928 0.121009
  658 96.3461 13.0901 -3.36720
  659 62.6824 -0.631502 -1.47307
  660 62.6936 -0.622440 1.45876
  661 90.4437 -2.51401 -0.755605
  662 90.4617 -2.51884 0.777371
  663 171.831 22.5412 9.85636
  664 108.329 -0.242236 0.283680
  665 104.023 -0.365408 1.66048
  666 103.551 -0.380343 -1.92167
  667 97.9946 -9.09165 2.38091
  668 70.6455 -0.876333 -0.354243
  669 70.6493 -0.869350 0.352179
  670 104.075 16.7999 7.27180
  671 134.789 30.1217 -0.955057
  672 72.4753 -5.52175 -6.00752
  673 72.4448 -5.46394 5.97190
  674 91.7400 -9.47268 -1.21237
  675 96.2494 5.71637 -10.2700
  676 115.801 0.249045 5.34431
  677 75.2480 -1.45058 -0.659018
  678 75.2476 -1.43988 0.655290
  679 65.1074 -5.77291 -12.5086
  680 97.0402 -9.36161 -1.45548
  681 80.1980 -8.90898 10.9400
  682 37.8702 12.1008 -24.6411
  683 74.4997 -6.99688 8.42752
  684 89.7489 0.0218137 3.32431
  685 65.1615 -5.70532 12.4161
  686 94.8986 -4.14950 3.42475
  687 74.5366 -6.97007 -8.51391
  688 75.0689 0.924397 0.790160
  689 57.9386 -1.65275 4.60035
  690 57.8855 -1.65575 -4.63808
  691 80.2621 -9.14136 -11.0676
  692 99.6975 -6.52738 -7.23629
  693 91.2617 -1.20173 -0.187633
  694 91.2756 -1.21623 0.188406
  695 102.000 -6.44488 7.23745
  696 92.4860 -9.67306 1.56462
  697 112.688 10.3333 10.4019
  698 101.386 -1.85867 10.9084
  699 97.5508 -3.45124 6.76923
  700 92.3352 7.56760 -6.42083
  701 112.065 18.9517 8.19164
  702 96.5519 -1.31283 -6.42191
  703 96.5586 -3.13853 3.67157
  704 99.0254 15.5950 1.82436
  705 98.0954 -1.61995 5.66264
  706 30.3751 20.5387 25.7507
  707 91.4225 -10.4977 -6.44049
  708 105.879 1.95852 11.1616
  709 107.154 -3.28481 -8.27308
  710 107.678 -0.0936067 0.563814
  711 97.5630 -3.29287 -5.41148
  712 91.5355 -10.5820 5.78739
  713 180.952 16.0090 -2.69669
  714 52.5021 -0.252628 1.76322
  715 52.4354 -0.255553 -1.78236
  716 99.2255 -1.71697 -2.62448
  717 108.372 -0.0670386 -0.543989
  718 82.8882 -7.37141 3.59093
  719 100.099 -3.68209 9.96893
  720 154.666 35.8484 -9.45531
  721 94.8715 -6.86521 3.62755
  722 105.648 -6.91158 -4.72170
  723 96.6006 -3.04983 -3.61501
  724 108.441 -0.134347 -0.196425
  725 97.3818 0.00804382 11.1703
  726 4.29620 3.20435 5.07451
  727 111.529 -4.46015 -15.2815
  728 120.902 6.99652 5.87485
  729 100.368 -10.2141 3.91134
  730 69.9388 -1.76654 1.78381
  731 69.9431 -1.79257 -1.79483
  732 95.8377 45.3811 -48.5988
  733 102.059 -6.70345 -6.75435
  734 74.7516 0.328002 -1.50961
  735 88.4471 0.459479 7.07495
  736 98.2172 -4.87329 8.12150
  737 94.1485 -7.93362 2.18266
  738 98.4852 -8.92616 -12.5427
  739 93.5321 -7.40136 -2.32739
  740 111.328 -5.33458 -2.32177
  741 102.430 -0.746819 1.55480
  742 90.7013 -5.46087 1.41445
  743 167.531 33.5480 -17.5378
  744 97.0929 -2.52196 2.94950
  745 95.3730 1.54839 -10.8068
  746 82.1585 -0.967681 27.4069
  747 102.470 8.28586 11.1368
  748 88.1018 -6.98364 0.362141
  749 67.2554 -5.41135 -9.09124
  750 67.2540 -5.39390 9.00841
  751 93.0348 10.4596 -1.50258
  752 95.1389 -1.08738 9.71428
  753 96.3548 -2.26989 -8.37502
  754 90.8087 -5.56911 -1.44896
  755 87.7055 -7.91511 1.67934
  756 99.8208 16.5805 -2.08080
  757 94.0276 -8.13646 -1.80960
  758 94.2404 -5.94879 3.49441
  759 95.7468 -1.13039 0.587296
  760 95.8133 -1.09596 -0.584842
  761 128.860 28.5743 1.21834
  762 105.757 -8.95476 -2.19248
  763 97.8681 -2.93773 5.37412
  764 102.501 -0.741312 -1.42690
  765 102.900 0.711050 -11.4469
  766 117.918 6.07740 -7.41245
  767 55.3335 -0.0737280 -0.811437
  768 55.3689 -0.0728237 0.801836
  769 0.733542 -2.00520 -1.44481
  770 99.8569 -0.0922393 2.11796
  771 90.6881 -0.179465 -7.86256
  772 94.0192 -0.876116 7.00263
  773 87.2310 10.2379 40.6124
  774 107.124 22.2580 -0.254010
  775 75.7047 -5.54158 4.57528
  776 12.0960 0.319117 -4.91268
  777 12.5089 0.238950 4.96750
  778 93.0932 -0.668004 -7.86830
  779 75.9323 -5.60019 -4.57128
  780 101.880 -0.819070 1.21007
  781 50.2513 -2.22237 8.68702
  782 49.7961 -2.21569 -8.69819
  783 97.0939 -2.44501 -2.87562
  784 60.2775 -1.61825 -3.98901
  785 60.3066 -1.60656 3.94826
  786 101.269 -0.885089 -3.20225
  787 76.0809 -2.09953 -1.14763
  788 76.0802 -2.08414 1.14759
  789 110.724 -0.705438 -8.35321
  790 98.9881 -1.01641 -11.2723
  791 48.4294 -0.338135 -2.26580
  792 48.5321 -0.335033 2.23660
  793 1.72209 1.25077 -2.86487
  794 2.19075 1.31711 3.02208
  795 78.6268 0.357057 -2.75368
  796 90.5679 -10.1819 -4.63322
  797 -1.07807 -0.758554 1.82550
  798 -0.932767 -0.871178 -1.79655
  799 94.3739 -1.81065 1.22737
  800 102.566 -7.95600 -4.24392
  801 105.236 15.6777 -8.51460
  802 102.364 -0.729477 -1.14668
  803 224.939 44.4737 -42.2451
  804 94.3556 -1.80314 -1.21248
  805 142.880 27.5286 1.92997
  806 100.671 2.94523 -11.7232
  807 111.731 8.41237 -10.6033
  808 17.1839 -0.205892 -4.58048
  809 17.5543 -0.234225 4.57084
  810 61.1856 -0.951248 2.33349
  811 61.1664 -0.959769 -2.35797
  812 57.9072 -0.162663 0.430506
  813 57.8936 -0.164291 -0.434721
  814 112.665 19.0472 -8.15512
  815 64.9149 -0.455959 -0.620193
  816 64.9228 -0.450505 0.615772
  817 95.4440 -0.958394 -10.1285
  818 140.840 13.3490 10.3786
  819 84.9883 1.83590 -6.06127
  820 28.1491 -0.266298 4.95492
  821 27.8754 -0.268621 -4.99807
  822 113.257 2.57543 28.8183
  823 99.1055 -1.73193 2.70887
  824 87.1365 5.72667 -2.52829
  825 38.9169 -0.0787232 3.40600
  826 38.6926 -0.0597469 -3.43428
  827 59.3935 -0.345085 -1.13187
  828 59.4123 -0.340110 1.11933
  829 10.4586 9.41025 7.74694
  830 91.2748 2.14162 9.07078
  831 102.006 15.0686 -7.23667
  832 110.347 12.8225 -10.4279
  833 71.3103 -2.80235 -2.90288
  834 71.2619 -2.77875 2.89600
  835 114.023 24.5238 3.76935
  836 99.1073 -0.713081 -0.165652
  837 99.1094 -0.707370 0.183366
  838 97.5403 -2.87256 -6.78750
  839 81.1332 -5.49516 2.44498
  840 89.9779 -10.1209 4.67722
  841 106.603 -8.73493 7.39671
  842 80.2779 -2.36878 -0.556878
  843 80.2743 -2.35788 0.551045
  844 91.7172 8.47950 4.11109
  845 85.8531 1.12339 -6.56063
  846 23.9043 26.7022 26.7903
  847 87.9949 -7.85294 -1.45725
  848 88.2397 -3.94955 0.629271
  849 88.2883 -3.95449 -0.633051
  850 97.0966 -1.40917 10.6949
  851 96.5960 -6.31766 -5.31850
  852 85.8566 -5.74426 -0.637271
  853 202.484 6.56859 -10.2389
  854 81.5086 -7.79947 5.12769
  855 81.4507 -7.90484 -5.22023
  856 97.0889 -1.13414 5.47481
  857 147.946 37.8705 -7.16461
  858 76.2506 -7.03936 -6.61084
  859 84.7175 -9.58850 6.09820
  860 76.2191 -6.95097 6.54578
  861 82.8268 -3.37729 -0.583490
  862 82.8210 -3.36342 0.576821
  863 11.6444 5.16923 6.76949
  864 104.426 7.82403 -11.3455
  865 79.2694 -3.15888 -1.16817
  866 79.2816 -3.12463 1.17320
  867 78.1569 -1.31764 -0.136725
  868 78.1534 -1.30725 0.135447
  869 86.5631 -1.68566 0.128443
  870 86.5518 -1.67281 -0.128679
  871 69.3018 -1.43752 -1.55473
  872 69.3038 -1.42037 1.54639
  873 79.6272 -4.27976 -1.85774
  874 79.6347 -4.24694 1.86536
  875 1.78712 -1.24103 -0.541090
  876 121.491 22.8007 6.50774
  877 104.436 -3.61888 -9.36840
  878 84.6614 -9.45165 -6.17347
  879 91.6358 -2.90911 1.25173
  880 91.5931 -2.87599 -1.22320
  881 99.8399 0.151173 11.5071
  882 109.591 -7.82299 -3.57703
  883 97.3641 6.43459 -35.0922
  884 42.7889 -0.606142 17.0897
  885 -2.10765 1.00049 -0.994079
  886 -1.87720 1.12623 1.12494
  887 11.5456 5.49919 -6.90249
  888 97.8953 -2.74405 4.29889
  889 103.492 -0.598263 -1.83212
  890 92.8486 -8.88030 14.5954
  891 42.6830 -0.553552 -17.1645
  892 103.490 -8.41279 3.26044
  893 116.145 -3.65885 12.2936
  894 81.7521 0.315887 2.92485
  895 94.7439 9.01398 7.03528
  896 50.4677 -2.88267 12.6518
  897 50.2642 -2.90646 -12.7451
  898 60.6516 -2.99864 -7.06232
  899 64.6682 -3.06939 -21.9026
  900 103.235 -2.36949 10.3676
  901 143.144 33.1339 3.63117
  902 103.454 4.01076 11.5694
  903 97.8179 -2.03938 -6.16437
  904 66.0810 -2.75088 22.4549
  905 125.349 23.0013 -5.18265
  906 11.8026 10.1997 -9.62564
  907 89.4854 -0.194953 -3.17105
  908 60.7149 -2.97244 6.99170
  909 74.6272 -1.70341 1.02581
  910 74.6280 -1.71661 -1.02910
  911 96.7440 -6.28471 5.47330
  912 101.039 -0.532291 0.487319
  913 73.8641 0.738626 -27.3465
  914 106.799 -0.196630 0.871659
  915 105.852 -0.156807 -1.09296
  916 76.6796 0.633404 -2.52271
  917 101.823 -0.397471 -1.88757
  918 74.9857 -3.61362 -2.60243
  919 75.0358 -3.55642 2.60906
  920 -2.65000 0.874025 -1.54965
  921 -3.57152 0.526452 1.60630
  922 101.043 -0.487691 -0.488246
  923 31.9483 -0.698297 11.5091
  924 31.7345 -0.623632 -11.5810
  925 107.072 15.7057 9.03173
  926 197.571 3.54975 3.20391
  927 100.531 11.2268 9.32507
  928 115.449 -4.17374 2.63634
  929 99.4715 -5.49436 8.23274
  930 124.087 26.1100 -3.93124
  931 74.8728 0.273823 1.89862
  932 95.8111 -2.16875 -1.87330
  933 99.0135 5.32973 -11.2703
  934 121.178 3.37155 -3.28542
  935 93.1763 -5.74406 -2.85252
  936 45.6690 -0.280801 -2.54666
  937 45.7250 -0.271004 2.50779
  938 98.5103 -2.24671 -4.92774
  939 2.99168 3.89658 0.469082
  940 94.5228 -9.79240 -0.209339
  941 80.2216 2.29194 -0.261312
  942 123.072 27.2837 -2.61754
  943 18.7887 14.0406 -16.3526
  944 94.0302 -0.696441 -6.27620
  945 63.9082 -1.14666 -2.16035
  946 63.9171 -1.13242 2.13871
  947 0.474019 -2.79449 2.16260
  948 63.1402 -4.80403 -10.1443
  949 96.2287 -5.52703 -5.13994
  950 57.6124 0.122275 -0.174433
  951 57.6215 0.123012 0.172930
  952 96.4511 11.7294 -5.65954
  953 105.208 -0.221809 -0.177497
  954 105.205 -0.226959 0.228663
  955 63.1625 -4.78864 10.0673
  956 97.1227 -0.109564 -2.50398
  957 112.616 0.805694 8.12868
  958 99.7839 -1.31509 2.11962
  959 14.9939 4.02114 -8.71526
  960 103.733 -0.551323 1.66879
  961 92.8200 0.721012 9.74993
  962 97.9256 13.6232 5.03714
  963 98.3568 1.14666 -11.5585
  964 66.7795 -3.70241 -5.99147
  965 106.860 -3.73472 8.01627
  966 66.8204 -3.68577 5.92346
  967 2.81878 3.17743 0.0603335
  968 10.7728 2.01239 6.37042
  969 53.7184 -1.01569 4.18089
  970 53.6487 -1.01764 -4.20890
  971 95.8762 -2.21507 1.96136
  972 102.343 17.9324 2.81898
  973 51.8293 4.87650 -25.7713
  974 85.6777 -5.40125 0.508669
  975 80.3859 -8.46761 -7.95200
  976 117.900 22.7045 6.54137
  977 90.4787 -1.53514 0.275671
  978 90.4763 -1.52522 -0.275897
  979 99.5448 -1.76139 -3.59659
  980 90.8079 7.80582 -3.79567
  981 214.697 62.2315 42.0442
  982 17.9599 1.11003 -8.54786
  983 18.2809 0.925178 8.57092
  984 1.33263 -2.29760 0.167188
  985 91.1733 5.01198 7.79014
  986 80.3481 -8.51639 7.88678
  987 100.144 -4.69133 -9.26770
  988 109.044 8.94040 11.3356
  989 105.508 -8.51413 -9.32532
  990 154.600 32.6432 10.2358
  991 88.7134 -1.37967 0.00811557
  992 88.7017 -1.36642 -0.00785754
  993 104.361 -4.20295 8.92612
  994 6.99144 10.4067 11.6328
  995 45.1077 -1.00281 6.01722
  996 44.9532 -0.990172 -6.08989
  997 54.4957 -2.76933 8.18600
  998 54.2987 -2.72942 -8.22288
  999 61.6167 -2.64764 5.82527
  1000 67.3411 -0.589593 -0.288229
  1001 67.3474 -0.584860 0.286785
  1002 176.509 54.2236 -33.8870
  1003 157.584 39.4140 15.3511
  1004 61.5674 -2.66293 -5.88137
  1005 107.541 -0.457986 9.80970
  1006 95.2130 9.88740 -6.78978
  1007 67.2437 -5.73310 18.1273
  1008 87.0344 -10.2721 -9.41073
  1009 99.5945 -0.778223 -3.71573
  1010 44.0713 3.18285 20.8763
  1011 56.6225 -4.34476 14.4925
  1012 86.8121 4.39143 -4.85869
  1013 100.588 -1.95849 -11.0097
  1014 132.836 50.0485 55.8899
  1015 81.5902 2.43361 3.44024
  1016 112.790 24.5807 -0.449723
  1017 83.5849 3.16917 -31.1449
  1018 84.2134 -8.92975 -5.20724
  1019 108.525 -0.0635078 -0.447589
  1020 102.690 9.46039 -10.8551
  1021 58.3949 -0.423417 1.47250
  1022 58.3694 -0.427821 -1.48885
  1023 2.06108 0.272310 -2.66510
  1024 66.7655 -3.16641 -4.97726
  1025 56.5582 -4.40198 -14.6128
  1026 66.7053 -3.15731 4.91452
  1027 98.2351 -2.95721 10.1781
  1028 87.9737 -5.46975 0.326071
  1029 91.9546 1.66345 -9.42688
  1030 94.5635 11.8361 1.97926
  1031 131.136 7.35072 3.22543
  1032 97.5357 -7.37988 5.29940
  1033 60.5334 -4.93105 -11.1039
  1034 91.0723 3.18361 -8.79624
  1035 67.8753 -5.65113 -18.2368
  1036 131.718 28.9174 -0.278247
  1037 88.2450 5.74597 4.41934
  1038 113.585 -0.708258 -6.49863
  1039 84.7441 -8.92915 4.72918
  1040 97.3671 -3.04391 7.93625
  1041 96.8527 -5.07561 5.92641
  1042 96.3248 -4.80510 5.18775
  1043 119.463 15.0824 -8.72339
  1044 95.8731 -1.52283 7.93922
  1045 86.8675 -10.3012 9.24922
  1046 92.7452 -3.75392 1.95873
  1047 60.5686 -4.93851 11.0322
  1048 86.8172 -6.45771 -0.667413
  1049 49.6023 -2.37982 -15.5096
  1050 71.6194 -7.48095 12.2025
  1051 97.8245 -0.628992 -4.27962
  1052 94.9940 -1.06170 -8.96920
  1053 82.1423 -6.58768 -3.04419
  1054 49.6896 -2.45469 15.3758
  1055 87.9413 0.186789 -6.15194
  1056 65.0728 -4.44020 -7.80660
  1057 119.961 25.7679 4.22693
  1058 25.7738 4.47153 -14.4838
  1059 211.475 14.9785 20.7099
  1060 47.3089 3.70073 -21.9044
  1061 96.3461 -7.96248 -3.53645
  1062 65.0852 -4.39963 7.73466
  1063 86.9070 0.872774 6.85179
  1064 47.6041 -1.01970 4.97620
  1065 47.5746 -1.04543 -5.03165
  1066 97.2844 -2.68013 -9.41749
  1067 104.540 -0.435487 0.725162
  1068 101.902 -0.196991 1.91482
  1069 100.293 3.35516 11.6778
  1070 93.4837 -0.703765 8.39553
  1071 73.0822 7.67633 33.7373
  1072 109.296 -0.0469514 0.228329
  1073 100.682 13.7126 7.42827
  1074 84.3431 1.17048 5.88288
  1075 103.386 -0.358508 1.85198
  1076 64.4804 -0.759827 -1.18991
  1077 64.4883 -0.750860 1.18033
  1078 40.5072 -1.19438 -8.28673
  1079 40.6840 -1.23706 8.22180
  1080 84.6066 4.15336 2.46142
  1081 131.779 6.48601 -8.18621
  1082 121.029 -0.541453 -17.0818
  1083 94.5136 -0.0726522 -2.57943
  1084 71.6595 -7.53866 -12.3012
  1085 82.3125 -6.26399 2.67079
  1086 95.1117 -0.208219 2.69456
  1087 100.242 -7.22746 -6.17393
  1088 60.4431 -0.172668 0.723888
  1089 60.4318 -0.175508 -0.729349
  1090 96.1580 -8.19089 3.53595
  1091 91.2540 -1.80051 0.485002
  1092 91.2392 -1.80159 -0.477903
  1093 88.7033 -8.97557 2.71055
  1094 115.622 -3.80047 -0.0726500
  1095 49.7193 -0.0994252 -1.40780
  1096 49.8074 -0.0959541 1.39084
  1097 77.9604 -4.84027 -20.8922
  1098 82.3511 -1.97294 0.246117
  1099 82.3611 -1.98588 -0.249994
  1100 50.1825 26.3496 37.0279
  1101 115.537 9.41085 -9.64037
  1102 16.1789 8.11251 -10.6914
  1103 99.8608 -1.39297 -2.05155
  1104 25.7027 9.07416 -16.5865
  1105 53.9495 -3.48040 -10.5764
  1106 109.411 -0.0706487 0.130409
  1107 109.466 -0.0632484 -0.0984069
  1108 97.8225 -5.54502 -7.10721
  1109 86.6664 -9.68230 -13.1607
  1110 25.7810 3.80586 13.8024
  1111 106.294 10.5613 10.6687
  1112 96.9184 -0.866758 -0.199783
  1113 96.9263 -0.868125 0.209901
  1114 106.568 -6.96297 15.8751
  1115 108.589 21.9623 4.15868
  1116 63.0866 -1.61310 -3.11986
  1117 63.0992 -1.60443 3.09340
  1118 48.4976 5.68012 25.9888
  1119 91.7447 0.442378 -9.13934
  1120 28.1736 9.28662 17.8913
  1121 120.247 -2.25009 -4.41828
  1122 116.550 26.1046 1.32249
  1123 79.6501 -6.40854 3.84202
  1124 71.8208 0.335339 -0.369582
  1125 102.405 -0.832828 2.42373
  1126 106.365 -0.0935852 0.952003
  1127 21.3475 0.0524778 -4.14360
  1128 21.6893 0.0405801 4.11256
  1129 81.4673 1.29473 -4.34484
  1130 85.1429 -2.50646 -0.0318662
  1131 85.1207 -2.49224 0.0306012
  1132 8.72449 12.0591 -12.3321
  1133 14.1089 28.0843 -25.5397
  1134 86.3072 -3.38169 -0.139716
  1135 86.3453 -3.38415 0.136017
  1136 89.3784 -2.11112 0.545130
  1137 89.3655 -2.10502 -0.536141
  1138 22.8093 14.6731 17.8856
  1139 69.2205 -0.916283 -0.551104
  1140 69.2254 -0.908966 0.547646
  1141 87.7235 6.57841 -0.107133
  1142 115.723 13.3027 -39.0725
  1143 108.199 18.7783 -7.11661
  1144 98.9276 -3.76286 -9.69031
  1145 97.4975 -4.81972 -7.15470
  1146 79.7147 -6.47143 -3.91190
  1147 78.9958 0.231204 2.68238
  1148 89.9018 5.55888 -6.50515
  1149 88.5479 4.71164 6.19873
  1150 92.6818 -3.64028 -1.92697
  1151 88.2102 -5.35595 -0.388070
  1152 79.7698 -5.25891 -2.81741
  1153 95.3895 -0.545581 5.02758
  1154 172.582 17.5040 2.46125
  1155 96.1293 -2.02801 9.16622
  1156 96.1567 6.31787 9.86248
  1157 89.1313 -8.81644 -1.85384
  1158 10.1328 1.85556 -6.13310
  1159 90.8078 -4.18502 -1.51831
  1160 58.0509 -0.117244 -0.0300589
  1161 58.0585 -0.116817 0.0295430
  1162 111.542 -2.94612 5.68311
  1163 106.337 -8.92551 2.82161
  1164 153.399 27.7138 6.43187
  1165 34.2219 -0.0902589 -3.48437
  1166 34.4573 -0.0824478 3.45475
  1167 80.4457 -1.64445 -0.246436
  1168 80.4397 -1.63253 0.243644
  1169 91.1344 -8.06745 0.437269
  1170 72.5178 0.294419 1.20646
  1171 93.3957 -6.64606 2.78963
  1172 4.91233 5.84669 -2.46667
  1173 16.0370 8.21240 10.4694
  1174 61.8952 -3.26877 20.2155
  1175 107.669 20.6998 -5.07180
  1176 103.798 -0.263034 -1.45963
  1177 109.912 -0.149259 0.0986537
  1178 110.038 -0.214605 -0.0683528
  1179 60.7459 -0.183988 -0.111081
  1180 60.7546 -0.182634 0.109942
  1181 99.1910 6.36318 11.2561
  1182 148.833 25.7562 -0.541971
  1183 102.029 16.9917 -5.06123
  1184 76.5900 -5.54607 20.7545
  1185 61.5636 -3.12871 -20.1806
  1186 68.0079 -4.68599 -6.95397
  1187 95.9019 -2.60310 2.45295
  1188 134.620 29.4678 -0.206353
  1189 68.0068 -4.65509 6.89144
  1190 98.1945 -1.61402 1.85996
  1191 86.0386 3.13305 5.90293
  1192 95.7023 2.95416 10.7668
  1193 138.073 30.9648 2.32772
  1194 80.6187 -2.13447 0.473560
  1195 80.6254 -2.14680 -0.478713
  1196 99.3922 -1.77948 3.72924
  1197 56.7511 -0.663924 2.32613
  1198 56.7106 -0.671008 -2.35090
  1199 97.3078 -1.21716 -0.892120
  1200 39.5207 23.3251 -35.6243
  1201 84.1911 -4.69723 -22.2066
  1202 78.2662 -2.51652 -1.00903
  1203 78.2715 -2.50305 1.00904
  1204 105.046 -0.406277 0.638491
  1205 98.8546 -1.18571 1.49514
  1206 5.05759 6.07365 4.29350
  1207 108.320 -0.0880541 0.517753
  1208 12.2580 15.0987 14.9745
  1209 96.3984 -1.33615 -1.13307
  1210 -0.167597 -2.42449 -2.11268
  1211 67.3049 -6.55674 -15.6036
  1212 67.0978 -6.39393 15.4374
  1213 108.322 -0.160733 -0.566239
  1214 91.4112 -4.81407 -1.76281
  1215 104.945 -0.361209 -0.668578
  1216 82.5425 -2.70025 -0.351848
  1217 82.5307 -2.68782 0.344187
  1218 97.2408 -1.20658 0.844106
  1219 90.7400 -4.10511 1.50232
  1220 87.0993 -2.78893 -0.336807
  1221 87.1339 -2.79919 0.349080
  1222 104.880 -0.372867 -0.550450
  1223 89.8956 -9.40433 -14.9012
  1224 102.412 -0.519871 -0.577504
  1225 96.8374 -1.37804 1.20108
  1226 65.5973 -0.790651 -0.862772
  1227 65.6044 -0.782517 0.856177
  1228 74.0213 -1.13588 -0.400171
  1229 74.0222 -1.12691 0.397347
  1230 122.552 19.0120 7.53754
  1231 102.817 -7.83883 4.87992
  1232 70.0534 -0.256087 25.7575
  1233 53.9973 -0.115335 0.890893
  1234 53.9508 -0.116464 -0.901389
  1235 96.8541 -1.75598 6.94422
  1236 92.9442 -1.31662 0.308868
  1237 92.9510 -1.31114 -0.308658
  1238 105.831 20.8077 2.35007
  1239 97.9470 -10.2139 11.5336
  1240 54.4062 -0.831208 3.30008
  1241 54.3493 -0.838133 -3.32848
  1242 92.7490 -2.19508 1.06752
  1243 92.7295 -2.20919 -1.04351
  1244 95.8540 -2.56694 -2.37333
  1245 86.6596 0.00774241 3.19058
  1246 153.854 38.1762 -11.7955
  1247 97.4897 -3.51366 -6.30898
  1248 15.7469 3.96317 8.98497
  1249 100.820 -5.32171 8.73256
  1250 79.0359 1.65209 -2.37258
  1251 5.59306 4.41229 2.98078
  1252 134.550 14.3497 0.493262
  1253 98.3168 -4.43260 -8.71220
  1254 79.4486 1.06678 3.62914
  1255 54.3485 -3.48432 10.5483
  1256 100.123 -7.70408 5.60153
  1257 147.483 26.8839 6.74502
  1258 32.5840 5.00011 17.6668
  1259 100.789 -1.11012 -3.20057
  1260 199.334 2.18455 -2.05640
  1261 206.445 3.14186 9.24157
  1262 221.172 7.72421 -21.8143
  1263 97.2475 -2.98959 -7.71073
  1264 97.3708 -4.39622 6.71791
  1265 99.0469 -7.00501 6.46778
  1266 -2.93883 0.293874 1.89803
  1267 -2.68834 0.221513 -2.04932
  1268 96.5944 -10.6288 -4.90091
  1269 99.1648 -9.97363 -7.74872
  1270 73.1046 0.431682 -1.49418
  1271 96.2414 -10.8328 7.79291
  1272 102.631 -4.82060 -8.89139
  1273 1.64727 2.89254 0.000549362
  1274 82.5979 -1.50124 0.230361
  1275 82.6054 -1.51368 -0.230978
  1276 102.389 -0.732320 2.21374
  1277 98.1995 -1.58224 -1.75780
  1278 92.1447 -10.0688 -2.26652
  1279 83.5966 -4.58754 0.918589
  1280 83.1523 -4.52667 -1.05735
  1281 98.8710 -2.02180 4.99724
  1282 101.266 -3.67695 -10.0288
  1283 5.81427 4.60166 -2.83815
</Section>

newXOutput 7

<Section columns = "stress_xx | stress_yy | stress_xy">
  1 132.390 0.0154451 0.280595
  2 132.405 0.0166501 -0.281711
  3 68.4056 -0.0398030 -0.101848
  4 -0.883796 -0.879351 -1.26946
  5 246.364 91.9803 76.2482
  6 243.960 95.5888 -76.8457
  7 -1.02483 -0.840610 1.34397
  8 68.3967 -0.0401013 0.101501
  9 133.412 -0.201551 0.0924879
  10 133.082 -0.327448 -0.0499581
  11 132.694 -0.199688 0.340240
  12 132.313 -0.292198 0.124562
  13 131.501 -0.239320 0.537566
  14 130.773 -0.246141 0.410301
  15 129.124 -0.219688 0.762699
  16 126.840 -0.126505 1.11625
  17 124.787 -0.149336 1.22720
  18 121.804 -0.235091 1.46666
  19 117.741 0.00486991 2.14552
  20 113.984 -0.174005 2.02041
  21 109.801 -0.241736 2.82140
  22 103.746 0.174135 2.43558
  23 99.4324 0.242579 2.86316
  24 93.8128 0.421229 2.22554
  25 89.9563 0.412018 2.23666
  26 84.3620 0.605278 1.13556
  27 83.1990 0.957898 1.21263
  28 82.5055 0.768836 -0.356268
  29 83.4719 0.417114 -0.791763
  30 85.2420 0.425488 -0.968109
  31 89.4278 0.552337 -1.93953
  32 93.4915 0.435331 -2.46847
  33 99.5164 0.0746441 -2.93733
  34 104.348 -0.0706209 -2.69815
  35 109.549 -0.194737 -2.67180
  36 114.284 -0.134404 -1.89883
  37 118.402 -0.133573 -1.63881
  38 121.834 -0.227443 -1.38940
  39 124.941 -0.153567 -0.987916
  40 126.920 -0.173116 -1.05717
  41 128.830 -0.229056 -0.777030
  42 130.671 -0.277695 -0.362501
  43 131.626 -0.218337 -0.411219
  44 132.166 -0.117975 -0.265889
  45 131.873 -0.0397420 -0.241418
  46 133.241 -0.335416 0.0273761
  47 133.465 -0.212101 -0.0955581
  48 128.688 -0.0234891 -0.172811
  49 125.540 -0.433826 -0.297827
  50 121.736 -0.662238 -0.214072
  51 117.122 -1.03387 -0.288100
  52 112.783 -1.14935 -0.366473
  53 108.175 -1.49355 -0.344686
  54 104.118 -1.69338 -0.204589
  55 100.562 -1.93834 -0.0932721
  56 96.4684 -1.62002 -0.0949758
  57 91.7529 -1.53641 -0.129886
  58 87.2011 -1.23327 -0.0567428
  59 82.8810 -0.807308 -0.0297678
  60 78.7646 -0.590142 -0.00788873
  61 75.1370 -0.321882 0.0264850
  62 71.4040 -0.101057 -0.118505
  63 68.4628 0.0927008 0.126877
  64 67.1664 0.288914 0.0775782
  65 68.1217 -0.00583749 0.197315
  66 67.1916 -0.0504219 0.234197
  67 66.3614 -0.0699928 0.293404
  68 65.2159 -0.0185961 0.390844
  69 63.7671 -0.0112495 0.498351
  70 62.7506 -0.104977 0.985879
  71 59.6229 0.0888758 1.08161
  72 57.4567 -0.0129744 1.25259
  73 54.2283 -0.0661683 1.41709
  74 50.4916 -0.107038 1.72982
  75 45.8278 -0.0292426 2.10020
  76 40.1382 0.0227666 2.30534
  77 35.3092 -0.0636558 3.28861
  78 25.6163 0.316579 3.08057
  79 19.1139 0.274420 3.26040
  80 11.4138 -0.0413565 3.58450
  81 5.10984 0.631025 3.68333
  82 -2.02240 0.920339 2.12528
  83 -7.09564 0.929188 0.650576
  84 -6.63549 0.871400 -0.495049
  85 -6.06775 0.713049 -1.87112
  86 -3.53963 -0.268134 -1.73742
  87 -0.460427 -3.39868 -1.90623
  88 0.290347 -6.32093 -2.43261
  89 0.873419 -10.2331 -1.48431
  90 1.97883 -10.9282 -0.203753
  91 4.24212 -4.22872 5.20052
  92 12.9594 16.9943 18.8018
  93 79.8191 68.5608 67.5421
  94 296.870 43.7346 50.4244
  95 266.001 6.31654 16.6535
  96 245.926 2.56878 5.09658
  97 238.486 2.15415 0.413051
  98 242.325 2.90320 -4.37896
  99 265.190 5.82319 -13.1598
  100 316.515 21.1410 -43.9833
  101 46.9352 69.2736 -56.0477
  102 9.72782 10.4596 -15.3362
  103 4.61210 -3.76310 -5.32133
  104 1.84033 -11.0555 -0.632819
  105 0.470128 -7.88893 1.72850
  106 0.631163 -7.94297 2.12779
  107 0.0133967 -2.95859 2.10803
  108 -3.68947 -0.191370 1.65760
  109 -6.26370 0.534801 1.64298
  110 -6.97962 1.06289 0.535723
  111 -7.33507 0.919050 -0.587753
  112 -2.52252 0.943478 -1.97986
  113 4.65917 0.636909 -3.50532
  114 10.9521 0.0239560 -3.52504
  115 18.6408 0.297030 -3.26916
  116 25.1864 0.325490 -3.10684
  117 34.9753 -0.0649892 -3.31967
  118 39.8515 0.0259061 -2.33035
  119 45.5783 -0.0280004 -2.12920
  120 50.3621 -0.117601 -1.74521
  121 54.0592 -0.0636026 -1.42222
  122 57.3301 -0.00882708 -1.26736
  123 59.5208 0.0876050 -1.09543
  124 62.6795 -0.105909 -0.997640
  125 63.7120 -0.0118603 -0.505659
  126 65.1764 -0.0191635 -0.396892
  127 66.3338 -0.0709194 -0.298234
  128 67.1727 -0.0512132 -0.237597
  129 68.1076 -0.00654652 -0.199514
  130 67.1559 0.288429 -0.0786254
  131 68.4532 0.0924851 -0.127516
  132 71.3937 -0.101881 0.118096
  133 75.1265 -0.323936 -0.0273186
  134 78.7553 -0.594749 0.00689961
  135 82.8745 -0.813740 0.0288004
  136 87.1984 -1.24252 0.0558081
  137 91.7546 -1.54801 0.129164
  138 96.4751 -1.63333 0.0943223
  139 100.572 -1.95298 0.0930381
  140 104.131 -1.70788 0.205098
  141 108.192 -1.50675 0.346124
  142 112.795 -1.15863 0.371710
  143 117.129 -1.04214 0.312815
  144 121.754 -0.619429 0.219017
  145 125.630 -0.419741 0.291458
  146 128.703 -0.0432037 0.170409
  147 113.881 -10.6876 -1.71020
  148 113.795 -10.5456 1.75184
  149 118.702 17.1298 -6.33264
  150 127.334 7.54374 13.6608
  151 96.3349 -9.19232 -20.5689
  152 97.0906 -9.18953 19.8739
  153 92.6877 -4.03045 2.18829
  154 92.7002 -4.08981 -2.19190
  155 135.606 4.82237 -10.9376
  156 113.573 -4.01989 3.15366
  157 113.527 -3.91793 -3.11284
  158 146.813 33.1327 1.97465
  159 115.778 -0.182312 -13.1155
  160 84.9392 -6.82653 -9.11470
  161 84.9312 -6.76602 9.02448
  162 116.122 -2.59798 11.9474
  163 109.505 7.95069 7.69961
  164 44.6560 7.41382 -24.5166
  165 49.7135 7.00635 25.8658
  166 143.846 1.44707 2.68121
  167 116.677 -4.42373 -8.51610
  168 155.195 34.1495 -1.87523
  169 104.733 -2.93049 0.334902
  170 104.709 -2.91883 -0.324099
  171 118.577 -1.31269 -1.40156
  172 118.993 -1.16386 1.21868
  173 80.7998 -1.24449 -1.38127
  174 80.8059 -1.23076 1.37204
  175 128.268 -3.65634 26.0933
  176 105.790 4.32785 -8.27951
  177 68.6951 -5.21972 -14.9068
  178 68.9042 -5.18034 14.7972
  179 76.9251 -2.64812 -4.78377
  180 76.9277 -2.61599 4.74191
  181 117.297 -3.01961 7.23213
  182 106.302 -7.33892 0.430232
  183 105.902 -7.28393 -0.243953
  184 121.703 -11.7144 -0.949982
  185 122.305 -11.1587 -0.585092
  186 168.793 39.6320 -4.53776
  187 121.111 19.5775 5.94133
  188 121.711 7.49495 -13.5464
  189 127.969 -1.43310 -30.5443
  190 121.236 -6.79766 -9.87856
  191 122.250 -4.83058 11.4665
  192 101.546 -11.5572 9.71707
  193 101.593 -11.4797 -9.68159
  194 107.823 1.33613 9.99633
  195 48.4351 -1.10997 -18.1542
  196 48.5651 -1.22251 18.0320
  197 191.436 28.8890 4.05333
  198 114.681 -6.79867 5.62341
  199 119.181 -2.10602 -4.79168
  200 93.2266 -2.33486 -0.936801
  201 93.2252 -2.32086 0.932526
  202 113.685 -1.46231 -9.16575
  203 129.841 19.1350 -11.0415
  204 107.509 9.62120 -1.54880
  205 68.9419 -2.56063 6.83116
  206 68.8314 -2.57042 -6.88977
  207 121.275 -1.24076 2.70820
  208 117.117 2.20883 13.4606
  209 94.7678 -7.02978 -4.08487
  210 94.0681 -6.65909 4.21868
  211 138.879 20.6032 10.5006
  212 165.105 21.7032 1.74933
  213 10.3788 8.36531 -6.36213
  214 9.57559 7.73373 5.37454
  215 66.9303 18.9242 43.9046
  216 113.502 -7.52261 -4.50705
  217 121.774 -1.19331 -2.45086
  218 106.498 0.892195 -9.19844
  219 73.3907 -0.802964 -2.10833
  220 73.4109 -0.793581 2.08636
  221 101.616 -4.81405 -0.471483
  222 101.661 -4.84037 0.411769
  223 114.779 -1.52652 7.83689
  224 133.661 -7.77362 1.70631
  225 131.247 27.1018 -3.25539
  226 102.944 -10.0191 -4.22163
  227 131.208 -2.25474 9.32219
  228 111.333 -1.77592 0.610543
  229 111.338 -1.75931 -0.609490
  230 102.133 -9.96974 4.43030
  231 117.521 -7.40890 8.13810
  232 167.814 20.5110 -8.53292
  233 35.8692 21.4031 -31.2723
  234 97.6364 3.34315 1.95370
  235 117.328 10.3677 11.3016
  236 125.893 -0.845693 -12.3845
  237 117.299 -4.18414 -11.2750
  238 60.6869 -2.04318 -8.62314
  239 60.9117 -2.01088 8.58853
  240 117.569 -1.36753 -6.13971
  241 112.129 -2.76112 1.76491
  242 112.076 -2.75503 -1.71561
  243 22.3379 2.21188 -11.3343
  244 22.7407 1.94127 11.3009
  245 125.779 -10.9641 -8.61483
  246 124.624 -0.332393 0.415065
  247 124.779 -0.339868 -0.438342
  248 114.410 9.47834 -10.3089
  249 99.7667 1.84109 5.96575
  250 216.220 34.6714 23.1165
  251 214.647 24.4516 -14.6030
  252 152.646 33.2894 -0.539418
  253 95.1411 -4.51538 27.5742
  254 87.1051 -2.85196 -28.8922
  255 99.4179 -2.03729 -0.243400
  256 99.4066 -2.02208 0.240569
  257 81.5040 -2.29101 2.83672
  258 81.5090 -2.32433 -2.86685
  259 120.937 -1.22352 3.88926
  260 117.068 -8.29824 -6.86411
  261 73.5952 -0.177551 -0.478846
  262 73.6071 -0.174768 0.475058
  263 115.581 -4.61554 -5.40904
  264 47.2619 -1.58455 -11.9121
  265 47.4880 -1.59011 11.8166
  266 116.904 -5.02068 9.16431
  267 88.7264 -9.42033 16.5116
  268 88.9777 -9.59024 -16.4628
  269 99.1971 3.71303 -2.77626
  270 85.5692 -1.38152 -0.924842
  271 85.5730 -1.37102 0.920254
  272 108.701 -0.294248 7.42212
  273 130.703 24.1119 7.69804
  274 68.1026 -0.900252 3.64148
  275 68.0492 -0.908353 -3.67736
  276 120.421 -9.99955 5.19446
  277 111.478 -12.4555 -10.5953
  278 124.993 -0.501038 1.29027
  279 84.9471 -5.18262 -6.16002
  280 84.7815 -5.12174 6.13159
  281 156.009 14.7462 38.7644
  282 71.1395 -5.71265 19.8541
  283 115.372 16.2590 -0.675396
  284 148.102 16.0928 -7.62919
  285 110.814 -8.58235 2.24433
  286 111.524 -12.8030 9.45805
  287 71.3816 -5.61334 -20.0998
  288 12.8587 15.8129 14.0391
  289 115.599 -4.63517 5.50406
  290 152.725 19.6555 6.36935
  291 126.092 -0.445448 -1.11829
  292 112.468 3.90642 -11.8621
  293 111.689 -6.29728 3.28459
  294 109.284 -9.25055 -0.504355
  295 111.996 5.12093 11.4074
  296 119.815 -10.0097 -4.73142
  297 170.525 33.4877 -2.54254
  298 111.657 -6.04920 -3.14991
  299 93.4691 25.9876 -54.2335
  300 114.418 -12.1067 -1.28723
  301 113.580 -12.4336 2.61475
  302 82.3811 -7.55057 -13.0051
  303 72.9520 -0.321982 -1.05461
  304 72.9684 -0.316439 1.04433
  305 82.4060 -7.55391 12.9264
  306 120.713 -0.180616 -13.6850
  307 131.136 -5.40975 -6.59390
  308 98.7075 -6.03479 -1.92294
  309 98.6299 -6.04785 1.96378
  310 119.590 -10.2882 17.3969
  311 118.595 -0.905053 4.65345
  312 145.693 0.337499 5.01697
  313 96.5067 -3.46508 -1.00468
  314 96.5101 -3.45089 0.996403
  315 87.3145 -2.36143 -1.79344
  316 87.3107 -2.33746 1.78930
  317 98.6470 1.27182 -5.77443
  318 128.902 9.45489 -13.3030
  319 202.090 54.1128 -24.8736
  320 117.884 -0.912859 -0.486553
  321 117.806 -0.899421 0.496953
  322 61.9796 0.0222502 24.7723
  323 86.9784 -4.07112 -3.97150
  324 86.7954 -4.05368 3.98031
  325 61.9726 -0.114274 -24.6787
  326 122.366 14.4891 -11.1165
  327 138.144 6.77614 10.5145
  328 119.662 -8.54424 -19.4252
  329 109.094 -4.17961 1.63365
  330 108.976 -4.14525 -1.58221
  331 116.888 -2.32283 -2.73105
  332 108.792 -0.221728 -6.94669
  333 123.068 0.571782 13.4808
  334 123.414 -0.789260 -2.70412
  335 72.3856 -4.52483 9.95287
  336 72.3072 -4.55244 -10.0395
  337 113.944 -0.264491 12.4168
  338 68.3872 -0.615092 -2.13935
  339 68.4309 -0.609116 2.11652
  340 117.699 -2.61802 4.09868
  341 140.923 28.9587 -6.02991
  342 116.813 -2.34404 2.82502
  343 123.800 15.6199 11.1840
  344 118.670 -2.17447 13.0448
  345 93.0750 -1.77854 0.314104
  346 93.0783 -1.79115 -0.317239
  347 111.798 -0.412172 -11.0027
  348 149.251 31.5122 4.33587
  349 123.115 22.7434 0.234636
  350 75.6206 8.85984 -37.1092
  351 7.01731 3.38412 -4.68533
  352 7.78304 3.65518 5.08046
  353 -0.581352 0.754631 2.45660
  354 -0.0811458 0.354381 -2.54763
  355 222.387 15.4124 5.39752
  356 102.126 -8.37384 -2.23594
  357 117.811 -2.52357 -4.00280
  358 105.771 -1.80586 0.269829
  359 105.759 -1.78930 -0.270186
  360 112.553 12.4385 -5.57481
  361 96.3135 -9.90631 7.97233
  362 8.02660 11.8199 -8.44777
  363 96.4247 -9.90817 -8.13640
  364 114.107 12.9913 5.93323
  365 117.306 -3.06776 -6.91001
  366 124.762 -6.90941 -8.65420
  367 132.137 28.1862 2.25479
  368 125.108 -7.75115 7.35033
  369 49.6580 -1.29981 7.99802
  370 49.3332 -1.27521 -8.05764
  371 27.6364 0.745529 -10.9494
  372 27.9695 0.624690 10.8971
  373 100.339 0.266012 5.85560
  374 196.394 56.4666 20.5118
  375 121.596 -0.717999 -3.36805
  376 93.6479 -8.03895 -6.04645
  377 93.5543 -8.01318 6.03691
  378 116.438 -2.64413 -8.61346
  379 133.706 -6.45644 2.22252
  380 102.121 -8.36394 2.32184
  381 147.595 0.689134 -10.5922
  382 80.6582 -0.709536 -0.327317
  383 80.6664 -0.702957 0.323951
  384 114.215 -0.646716 -5.43214
  385 59.7054 -0.920640 -5.23489
  386 59.7479 -0.948714 5.16545
  387 137.290 17.5131 -11.5572
  388 73.7034 5.26617 34.3784
  389 107.007 -5.63057 1.10746
  390 107.115 -5.61869 -1.11409
  391 125.539 21.3740 -7.13894
  392 119.214 -3.50014 -12.4390
  393 120.215 -12.2397 9.03701
  394 99.0573 -2.64845 -0.357513
  395 99.0428 -2.63315 0.351207
  396 115.172 -8.86833 4.86221
  397 124.712 -0.537679 2.02535
  398 75.7082 -2.88710 -6.03465
  399 75.7358 -2.88524 5.97598
  400 116.421 3.90129 -13.2549
  401 110.312 -2.32190 0.936887
  402 110.309 -2.32627 -0.920037
  403 113.692 -1.32402 10.1797
  404 105.123 7.60178 2.64490
  405 118.309 -4.95269 10.9583
  406 172.250 36.3027 5.81749
  407 55.7923 -3.02246 -15.9475
  408 55.9562 -3.02449 15.8144
  409 24.6682 13.4820 -18.5168
  410 128.077 -0.299675 0.598429
  411 62.2185 -0.580620 -3.30418
  412 62.3074 -0.568284 3.27204
  413 116.555 -2.99945 8.46331
  414 105.661 -11.5066 4.89235
  415 120.058 -1.38704 1.94359
  416 121.515 6.19457 13.9102
  417 25.9535 14.3550 19.3865
  418 105.833 -11.4477 -4.44096
  419 109.432 -10.1987 -0.218221
  420 34.0563 -0.688320 -9.98313
  421 34.3470 -0.716712 9.90792
  422 83.6958 -6.60602 -23.9575
  423 125.955 -1.83564 12.1206
  424 83.3359 -6.71761 23.7320
  425 116.168 -6.48780 -7.33730
  426 106.730 7.14046 -5.82648
  427 116.199 -4.96921 6.92489
  428 125.977 -0.487573 -1.40469
  429 3.53776 3.58362 1.25579
  430 24.7352 27.9924 27.6235
  431 111.069 -0.413881 5.20358
  432 91.7363 1.18847 2.51241
  433 93.4829 1.46619 -3.41924
  434 79.7740 -1.40576 -1.99911
  435 79.7781 -1.38689 1.98316
  436 114.557 -8.86540 -4.51315
  437 115.394 -2.23765 -11.4390
  438 92.2870 1.64936 -0.929412
  439 172.376 40.9460 7.21554
  440 22.6959 7.80930 -13.8222
  441 25.1190 7.17203 14.8324
  442 106.909 -3.79271 0.932262
  443 106.865 -3.78060 -0.901086
  444 142.744 31.9175 -0.507996
  445 90.8469 35.3866 55.4226
  446 138.463 -2.04392 -3.29541
  447 77.6159 -4.17294 -8.19276
  448 77.6485 -4.14183 8.11447
  449 77.7975 -1.83561 3.17224
  450 77.7870 -1.85037 -3.20592
  451 106.149 2.29949 -9.45037
  452 128.811 -0.120174 -0.406574
  453 102.902 4.64722 5.27796
  454 131.847 16.3223 12.2619
  455 109.591 -8.15098 -1.78117
  456 120.025 -1.31250 -1.88452
  457 126.537 -0.434561 1.29506
  458 128.458 -0.124686 0.233342
  459 128.581 -0.148718 -0.177842
  460 67.7077 -0.145923 0.779501
  461 67.6762 -0.147968 -0.789151
  462 120.191 -7.58962 8.85386
  463 107.213 4.17877 9.14730
  464 112.580 0.443685 -12.0840
  465 118.413 -2.42225 5.20551
  466 174.279 27.2888 -31.8899
  467 118.552 -6.53895 -9.72924
  468 0.699969 2.17355 0.635425
  469 0.708461 2.19126 -0.0502135
  470 93.0211 -5.37776 3.27335
  471 92.6913 -5.31050 -3.24086
  472 149.393 2.12912 16.6803
  473 41.1395 36.2322 -41.5079
  474 116.731 -0.328672 4.09806
  475 133.776 -7.85660 -9.07856
  476 69.2290 -4.09004 11.5649
  477 142.365 25.2742 -8.64227
  478 116.829 -6.28445 8.22142
  479 97.3595 -4.72761 -1.42635
  480 97.4463 -4.64608 1.41976
  481 100.311 0.509711 -5.17702
  482 69.0054 -4.07627 -11.6471
  483 103.085 0.0124651 5.22262
  484 99.9279 -11.4071 -14.5828
  485 99.6673 -11.4245 14.6221
  486 120.817 -0.755754 3.70852
  487 108.431 10.1942 1.09441
  488 112.257 1.66607 37.5779
  489 164.394 33.8202 -0.214127
  490 113.169 -1.81595 0.990323
  491 113.179 -1.80862 -1.01640
  492 85.5338 -1.58989 -1.21619
  493 85.5362 -1.57547 1.21016
  494 44.8262 2.21196 20.6639
  495 117.305 -5.61118 -9.46903
  496 106.125 -2.26490 0.315072
  497 106.114 -2.25522 -0.311914
  498 92.0996 -9.81390 11.9452
  499 45.7283 2.90181 -21.2049
  500 117.635 -9.55348 -5.13706
  501 1.84599 0.0529873 1.24655
  502 101.213 5.14991 0.377555
  503 113.641 -1.21072 -0.335935
  504 113.635 -1.22993 0.330402
  505 92.1740 -9.80045 -12.0444
  506 133.941 -7.01331 11.9640
  507 131.920 4.80292 12.6128
  508 122.161 -0.722532 -0.965056
  509 117.273 -9.69199 5.19341
  510 71.0642 -0.0935889 -0.129466
  511 71.0751 -0.0928582 0.128009
  512 116.880 -4.45422 -10.0015
  513 112.464 8.31521 10.0560
  514 130.256 3.22392 -12.4411
  515 70.6417 -0.137644 -0.435709
  516 70.6558 -0.135874 0.432070
  517 231.889 33.4693 -30.1427
  518 117.211 14.0060 8.90123
  519 122.280 -0.652955 0.863720
  520 109.686 -10.4202 0.479245
  521 91.2451 -3.09744 1.75288
  522 91.2482 -3.12320 -1.74944
  523 128.370 -7.77272 4.60459
  524 122.870 -2.41280 -12.6581
  525 137.176 27.2219 7.04946
  526 113.590 1.94213 12.5169
  527 115.392 -2.12576 1.80971
  528 112.272 -11.9227 -13.8714
  529 115.861 -2.83371 9.76950
  530 229.621 10.4780 -4.24272
  531 127.479 -9.57536 -1.33793
  532 121.400 -0.690988 -0.251574
  533 121.426 -0.743531 0.229450
  534 231.976 15.5872 14.9473
  535 110.592 -0.0539677 10.6453
  536 157.208 25.9936 -4.30434
  537 117.352 -3.12057 -5.10843
  538 50.8150 -0.511261 -3.58681
  539 50.9906 -0.486978 3.54711
  540 78.4844 -7.38232 -16.6192
  541 78.5361 -7.25746 16.4872
  542 115.332 -2.03110 -1.78911
  543 125.264 4.61755 -13.7300
  544 109.930 -7.48890 2.19767
  545 117.759 13.5336 -9.25801
  546 119.439 -1.32496 4.99513
  547 151.045 7.17531 -0.172694
  548 101.530 -3.49658 -0.174057
  549 101.494 -3.48138 0.168024
  550 110.748 -5.20549 2.53701
  551 164.950 32.1548 -0.715084
  552 116.257 5.08952 13.0114
  553 49.2847 12.7535 30.6898
  554 113.483 -6.83259 24.8004
  555 151.510 6.50929 -27.1096
  556 118.899 9.84370 -12.1484
  557 106.213 -9.12191 -21.4415
  558 114.922 -12.5619 -3.48813
  559 120.301 -12.1256 -5.47617
  560 15.2514 19.3172 -18.3432
  561 120.860 -1.43645 -3.18822
  562 182.879 35.7119 -9.83744
  563 111.368 -4.98109 -2.75661
  564 112.370 -3.59918 2.26886
  565 112.264 -3.51225 -2.18969
  566 75.5504 -0.489773 -0.947241
  567 75.5624 -0.483356 0.939410
  568 9.86927 1.16709 -5.90368
  569 10.5074 1.22049 6.04753
  570 56.1352 -2.68107 -12.1954
  571 56.5898 -2.69454 12.1681
  572 113.888 -6.13544 -4.83112
  573 116.323 -12.6117 3.83076
  574 119.595 -11.3064 1.75144
  575 97.0239 -1.72040 -0.293104
  576 97.0164 -1.70635 0.291185
  577 92.4667 -9.66044 -18.3737
  578 104.093 -8.48216 22.7397
  579 90.1328 -9.07638 18.4923
  580 116.934 -2.57275 -12.3212
  581 71.5630 -1.27481 3.62751
  582 71.5292 -1.28876 -3.66240
  583 110.846 6.08803 -10.0853
  584 111.166 -0.192684 -4.72407
  585 139.565 30.6127 -3.25306
  586 90.1279 -1.40998 -0.315695
  587 90.1277 -1.39942 0.313799
  588 119.257 -0.334329 -2.71053
  589 80.9088 -2.85628 -3.94093
  590 80.9049 -2.84449 3.90165
  591 66.6678 3.22125 29.5045
  592 116.077 -5.29431 -7.00939
  593 63.8170 -3.30625 21.1478
  594 114.060 -5.87481 4.91417
  595 120.473 -1.61173 3.50312
  596 119.109 -0.975358 -0.869826
  597 81.7045 -1.08182 -0.855702
  598 81.7112 -1.07226 0.849932
  599 133.769 26.9301 -6.28597
  600 63.7757 -3.16994 -21.2375
  601 113.692 -4.87269 -3.99050
  602 102.033 -1.87085 -0.105034
  603 102.021 -1.85518 0.104463
  604 195.158 26.4221 -4.57197
  605 65.8604 -0.464241 2.01825
  606 65.8018 -0.468945 -2.03981
  607 104.769 2.34806 8.60555
  608 152.996 12.3613 -3.44506
  609 71.1621 0.634589 -29.3138
  610 35.4437 1.01380 -15.7903
  611 35.7608 0.795270 15.7049
  612 88.9213 -5.32394 4.79849
  613 89.9084 -5.48061 -4.63730
  614 153.917 30.9311 4.11708
  615 118.583 -1.01520 0.799195
  616 99.8360 2.72776 -5.17913
  617 125.825 22.7831 5.64171
  618 125.323 23.6508 -3.75010
  619 103.028 -5.75836 -0.343271
  620 103.850 -5.62114 -0.0342541
  621 74.2132 16.0156 -42.3893
  622 87.7314 -3.10959 -2.61224
  623 87.7346 -3.07187 2.60037
  624 230.182 47.0263 35.3004
  625 116.880 -3.79331 10.7374
  626 65.1120 -2.41110 -7.81562
  627 185.403 40.7313 26.0121
  628 65.2703 -2.39613 7.78043
  629 112.636 -4.35549 -29.1256
  630 77.0145 -0.435174 -0.350387
  631 77.0246 -0.431310 0.348168
  632 95.9351 0.813152 4.51234
  633 42.5119 -0.669757 -7.03557
  634 42.7767 -0.671272 6.97457
  635 101.662 -7.27330 1.61370
  636 106.873 -8.60695 0.0838219
  637 127.217 -0.232242 -1.16305
  638 68.8537 -0.134174 0.564712
  639 68.8311 -0.136425 -0.571865
  640 95.4862 -2.18270 -0.387540
  641 95.4800 -2.16856 0.383046
  642 110.824 -12.2451 14.0502
  643 126.851 14.2028 -12.4145
  644 83.2319 -4.02070 -5.09449
  645 83.1626 -3.95097 5.05291
  646 99.6986 -7.27159 -2.50752
  647 158.476 34.7413 0.200305
  648 118.857 -11.4586 -1.07193
  649 102.448 -2.43599 -0.0149676
  650 102.431 -2.42174 0.0157726
  651 142.258 15.4627 10.0879
  652 118.928 -1.64759 -5.43241
  653 103.732 -0.154108 -4.26009
  654 47.1680 -1.60212 -15.2840
  655 47.3275 -1.65179 15.1483
  656 99.4902 -8.68415 -4.32372
  657 150.076 33.4782 0.138423
  658 115.432 15.6786 -4.00900
  659 75.2206 -0.752469 -1.77286
  660 75.2345 -0.741695 1.75590
  661 108.304 -3.01494 -0.872411
  662 108.326 -3.02054 0.898246
  663 205.438 26.9390 11.7874
  664 129.576 -0.294709 0.333942
  665 124.490 -0.441691 1.96690
  666 123.931 -0.458892 -2.27846
  667 117.313 -10.8870 2.76489
  668 84.7160 -1.04628 -0.428169
  669 84.7209 -1.03801 0.425725
  670 124.653 20.1098 8.64738
  671 161.318 36.0333 -1.22118
  672 86.8630 -6.60622 -7.22569
  673 86.8274 -6.53736 7.18339
  674 109.846 -11.3406 -1.52147
  675 115.297 6.84741 -12.2284
  676 138.567 0.301761 6.27628
  677 90.1976 -1.73463 -0.801466
  678 90.1974 -1.72197 0.797050
  679 78.0401 -6.91407 -15.0100
  680 116.173 -11.2097 -1.65971
  681 96.0542 -10.6689 13.1484
  682 45.4062 14.4950 -29.5749
  683 89.2668 -8.37554 10.1302
  684 107.551 0.0263769 3.95776
  685 78.1056 -6.83331 14.8999
  686 113.622 -4.97232 4.03952
  687 89.3098 -8.34322 -10.2331
  688 90.0746 1.11416 0.942418
  689 69.5301 -1.97496 5.52145
  690 69.4664 -1.97844 -5.56620
  691 96.1289 -10.9471 -13.3012
  692 119.358 -7.81875 -8.57107
  693 109.275 -1.44690 -0.217170
  694 109.292 -1.46415 0.218073
  695 122.104 -7.72055 8.56641
  696 110.735 -11.5811 1.94475
  697 134.893 12.3684 12.3376
  698 121.391 -2.22989 12.9635
  699 116.801 -4.13710 8.03246
  700 110.640 9.06965 -7.64886
  701 134.183 22.6813 9.71952
  702 115.626 -1.57442 -7.63390
  703 115.601 -3.76356 4.33919
  704 118.633 18.6740 2.17174
  705 117.455 -1.94387 6.72464
  706 36.4220 24.6374 30.9152
  707 109.453 -12.5696 -7.77883
  708 126.759 2.34063 13.2579
  709 128.259 -3.93542 -9.79615
  710 128.811 -0.116803 0.665119
  711 116.807 -3.94811 -6.41374
  712 109.590 -12.6705 6.99693
  713 216.268 19.1342 -3.22170
  714 63.0563 -0.300900 2.11599
  715 62.9765 -0.304371 -2.13872
  716 118.771 -2.06354 -3.10118
  717 129.635 -0.0842740 -0.642207
  718 99.2880 -8.82217 4.34869
  719 119.850 -4.41304 11.8411
  720 184.926 42.9644 -11.4970
  721 113.591 -8.22114 4.26800
  722 126.448 -8.27706 -5.55011
  723 115.650 -3.65765 -4.27215
  724 129.707 -0.165939 -0.230160
  725 116.629 0.00755525 13.2913
  726 5.16416 3.92658 6.13249
  727 133.409 -5.31941 -18.3852
  728 144.665 8.38654 6.89973
  729 120.129 -12.2290 4.76730
  730 83.8654 -2.11077 2.15299
  731 83.8701 -2.14176 -2.16605
  732 114.485 54.5158 -58.2289
  733 122.174 -8.02944 -7.98881
  734 89.6964 0.399634 -1.80056
  735 105.999 0.553381 8.42793
  736 117.598 -5.83900 9.63703
  737 112.726 -9.49915 2.53840
  738 117.861 -10.6872 -15.0889
  739 111.991 -8.86209 -2.71446
  740 133.218 -6.38388 -2.67042
  741 122.580 -0.902470 1.83524
  742 108.614 -6.53860 1.63613
  743 200.346 40.1126 -21.0053
  744 116.234 -3.02646 3.48252
  745 114.243 1.85549 -12.8657
  746 98.3430 -1.15409 32.8697
  747 122.715 9.91868 13.2488
  748 105.511 -8.35969 0.492148
  749 80.6210 -6.47672 -10.9144
  750 80.6201 -6.45607 10.8158
  751 111.481 12.5332 -1.78932
  752 113.954 -1.30394 11.5583
  753 115.392 -2.72071 -9.95612
  754 108.742 -6.66852 -1.67692
  755 105.035 -9.47438 2.07004
  756 119.582 19.8521 -2.47502
  757 112.581 -9.74215 -2.09195
  758 112.838 -7.12443 4.11403
  759 114.616 -1.36290 0.687501
  760 114.695 -1.32179 -0.684508
  761 154.254 34.1774 1.40150
  762 126.559 -10.7202 -2.71964
  763 117.172 -3.52276 6.37076
  764 122.661 -0.896178 -1.68325
  765 123.204 0.848014 -13.6058
  766 141.111 7.28303 -8.74599
  767 66.4564 -0.0866345 -0.975010
  768 66.4991 -0.0855591 0.963620
  769 0.887341 -2.37937 -1.71211
  770 119.559 -0.112761 2.51566
  771 108.663 -0.212156 -9.36255
  772 112.622 -1.04990 8.33164
  773 104.351 12.3004 48.6673
  774 128.309 26.6372 -0.301910
  775 90.7209 -6.62994 5.51444
  776 14.6054 0.380327 -5.90289
  777 15.0975 0.284410 5.96854
  778 111.521 -0.799845 -9.36464
  779 90.9914 -6.69974 -5.50992
  780 121.919 -0.989828 1.42584
  781 60.3112 -2.66040 10.4191
  782 59.7673 -2.65230 -10.4318
  783 116.234 -2.93449 -3.39504
  784 72.3270 -1.93306 -4.78927
  785 72.3622 -1.91918 4.74089
  786 121.218 -1.06612 -3.79626
  787 91.1873 -2.51077 -1.39413
  788 91.1868 -2.49253 1.39414
  789 132.521 -0.844918 -9.88517
  790 118.538 -1.21958 -13.4066
  791 58.1781 -0.403613 -2.71727
  792 58.3008 -0.399906 2.68254
  793 2.13419 1.49894 -3.45361
  794 2.69331 1.57869 3.64233
  795 94.3142 0.430175 -3.28254
  796 108.440 -12.1905 -5.61395
  797 -1.28737 -0.904629 2.18314
  798 -1.11502 -1.04117 -2.15019
  799 112.985 -2.17576 1.43921
  800 122.771 -9.52811 -4.98446
  801 126.032 18.7673 -10.1225
  802 122.493 -0.882313 -1.35142
  803 268.551 53.1793 -50.4383
  804 112.963 -2.16691 -1.42167
  805 170.976 32.9131 2.33781
  806 120.555 3.52484 -13.9459
  807 133.748 10.0705 -12.5804
  808 20.7185 -0.247937 -5.49972
  809 21.1597 -0.281800 5.48829
  810 73.4265 -1.13542 2.80474
  811 73.4031 -1.14554 -2.83378
  812 69.5430 -0.192949 0.518104
  813 69.5261 -0.194886 -0.523099
  814 134.898 22.7974 -9.67302
  815 77.8892 -0.542540 -0.748010
  816 77.8991 -0.536071 0.742780
  817 114.318 -1.14842 -12.0522
  818 168.382 16.0603 12.5775
  819 101.884 2.20666 -7.22431
  820 33.8669 -0.319142 5.94483
  821 33.5411 -0.321940 -5.99620
  822 135.434 3.12633 34.5660
  823 118.630 -2.08142 3.20091
  824 104.447 6.86927 -3.01312
  825 46.7785 -0.0930972 4.08379
  826 46.5113 -0.0703741 -4.11739
  827 71.3020 -0.410444 -1.36167
  828 71.3250 -0.404529 1.34680
  829 12.5733 11.3031 9.34190
  830 109.367 2.56907 10.8053
  831 122.182 18.0408 -8.60903
  832 132.115 15.3496 -12.3827
  833 85.4931 -3.35023 -3.49859
  834 85.4359 -3.32226 3.49061
  835 136.543 29.3422 4.46504
  836 118.612 -0.864274 -0.194011
  837 118.615 -0.857393 0.215111
  838 116.791 -3.44444 -8.05779
  839 97.2005 -6.57558 2.96971
  840 107.737 -12.1174 5.66495
  841 127.559 -10.4522 8.94555
  842 96.1894 -2.83516 -0.690283
  843 96.1854 -2.82230 0.683347
  844 109.907 10.1628 4.89860
  845 102.913 1.35116 -7.81810
  846 28.6527 32.1563 32.1667
  847 105.380 -9.39975 -1.80461
  848 105.678 -4.72980 0.709382
  849 105.736 -4.73601 -0.714004
  850 116.284 -1.68995 12.7218
  851 115.653 -7.56697 -6.28716
  852 102.835 -6.87502 -0.812623
  853 241.846 7.84398 -12.2077
  854 97.6379 -9.33503 6.18742
  855 97.5678 -9.46076 -6.29805
  856 116.266 -1.36062 6.50687
  857 176.988 45.3363 -8.70764
  858 91.3620 -8.42440 -7.95553
  859 101.460 -11.4789 7.35731
  860 91.3255 -8.31895 7.87792
  861 99.2256 -4.04239 -0.731059
  862 99.2190 -4.02602 0.723086
  863 14.0103 6.19765 8.15936
  864 125.044 9.36580 -13.4902
  865 94.9851 -3.77957 -1.42788
  866 94.9999 -3.73881 1.43392
  867 93.6648 -1.57738 -0.167697
  868 93.6609 -1.56507 0.166177
  869 103.680 -2.02282 0.139084
  870 103.666 -2.00758 -0.139401
  871 83.1091 -1.71687 -1.87527
  872 83.1119 -1.69649 1.86541
  873 95.4080 -5.11999 -2.25937
  874 95.4173 -5.08106 2.26871
  875 2.15462 -1.43397 -0.685263
  876 145.427 27.2906 7.67861
  877 125.020 -4.33690 -11.1115
  878 101.392 -11.3149 -7.44699
  879 109.726 -3.48774 1.45888
  880 109.675 -3.44834 -1.42502
  881 119.558 0.177952 13.6868
  882 131.129 -9.36052 -4.38291
  883 116.464 7.74299 -42.0662
  884 51.3293 -0.735823 20.5101
  885 -2.47734 1.19986 -1.21007
  886 -2.20288 1.35096 1.36661
  887 13.8937 6.59311 -8.32054
  888 117.197 -3.29170 5.08978
  889 123.848 -0.723402 -2.16707
  890 111.135 -10.6340 17.5388
  891 51.2026 -0.673455 -20.5992
  892 123.870 -10.0753 3.80624
  893 138.925 -4.35488 14.8148
  894 98.0371 0.380151 3.48599
  895 113.513 10.7989 8.37963
  896 60.5447 -3.45479 15.1764
  897 60.3013 -3.48325 -15.2874
  898 72.7517 -3.58679 -8.47522
  899 77.4732 -3.68658 -26.2754
  900 123.593 -2.84169 12.3115
  901 171.240 39.6846 4.50017
  902 123.876 4.79853 13.7565
  903 117.124 -2.44636 -7.32061
  904 79.1609 -3.30396 26.9372
  905 150.024 27.5376 -6.08024
  906 14.1876 12.2447 -11.5994
  907 107.237 -0.232140 -3.77529
  908 72.8278 -3.55558 8.39125
  909 89.4564 -2.03694 1.24451
  910 89.4570 -2.05258 -1.24838
  911 115.830 -7.52744 6.47189
  912 120.913 -0.647743 0.571988
  913 88.4393 0.878563 -32.7937
  914 127.778 -0.238967 1.03057
  915 126.661 -0.191095 -1.29411
  916 91.9943 0.762858 -3.00817
  917 121.889 -0.477379 -2.24099
  918 89.8745 -4.32177 -3.14469
  919 89.9346 -4.25365 3.15285
  920 -3.15803 1.05161 -1.84446
  921 -4.26389 0.633478 1.91495
  922 120.916 -0.594257 -0.573593
  923 38.3771 -0.841371 13.8150
  924 38.1224 -0.752293 -13.9006
  925 128.220 18.7987 10.7333
  926 235.994 4.24184 3.81652
  927 120.412 13.4419 11.0978
  928 138.123 -4.98377 3.26656
  929 119.093 -6.58252 9.76457
  930 148.542 31.2442 -4.61323
  931 89.8434 0.332844 2.26430
  932 114.700 -2.60448 -2.20363
  933 118.588 6.38215 -13.4139
  934 144.980 4.05289 -3.80242
  935 111.568 -6.87896 -3.34915
  936 54.8711 -0.334981 -3.05302
  937 54.9376 -0.323281 3.00671
  938 117.936 -2.69604 -5.84244
  939 3.60981 4.69105 0.599125
  940 113.166 -11.7244 -0.327282
  941 96.2105 2.75628 -0.311463
  942 147.344 32.6408 -3.07101
  943 22.5602 16.8522 -19.6662
  944 112.634 -0.834597 -7.46717
  945 76.6761 -1.36862 -2.59871
  946 76.6872 -1.35170 2.57303
  947 0.576540 -3.33612 2.57846
  948 75.7038 -5.75056 -12.1725
  949 115.214 -6.62086 -6.07793
  950 69.1985 0.146989 -0.210353
  951 69.2101 0.147859 0.208575
  952 115.553 14.0494 -6.73857
  953 125.865 -0.274066 -0.209746
  954 125.862 -0.280139 0.270572
  955 75.7312 -5.73234 12.0810
  956 116.313 -0.133453 -2.97676
  957 134.779 0.963869 9.61255
  958 119.433 -1.58287 2.50220
  959 18.0380 4.81584 -10.4875
  960 124.133 -0.667054 1.97310
  961 111.202 0.866078 11.6105
  962 117.315 16.3145 5.99732
  963 117.794 1.37209 -13.7539
  964 80.0719 -4.42836 -7.19739
  965 127.906 -4.47585 9.48916
  966 80.1212 -4.40866 7.11645
  967 3.40473 3.82659 0.0371865
  968 12.9839 2.40909 7.66741
  969 64.4877 -1.21333 5.01559
  970 64.4043 -1.21556 -5.04877
  971 114.779 -2.65959 2.30827
  972 122.594 21.4677 3.35333
  973 62.1117 5.83137 -30.9169
  974 102.622 -6.46493 0.656913
  975 96.2875 -10.1369 -9.56957
  976 141.153 27.1703 7.73859
  977 108.344 -1.84450 0.315365
  978 108.341 -1.83273 -0.315674
  979 119.159 -2.11592 -4.25861
  980 108.823 9.35715 -4.52241
  981 256.350 74.4469 50.2960
  982 21.6166 1.32607 -10.2715
  983 21.9990 1.10499 10.2988
  984 1.60418 -2.70361 0.230336
  985 109.252 6.00918 9.28178
  986 96.2438 -10.1955 9.49176
  987 119.900 -5.62091 -11.0015
  988 130.548 10.6996 13.4641
  989 126.246 -10.1884 -11.2517
  990 184.941 39.0376 12.3002
  991 106.241 -1.65792 0.00472549
  992 106.227 -1.64218 -0.00443470
  993 124.928 -5.03677 10.5829
  994 8.39176 12.6093 14.0075
  995 54.1764 -1.19939 7.21539
  996 53.9921 -1.18427 -7.30175
  997 65.3892 -3.31366 9.82005
  998 65.1536 -3.26569 -9.86371
  999 73.9111 -3.16635 6.99382
  1000 80.7806 -0.702406 -0.346825
  1001 80.7886 -0.696798 0.345114
  1002 210.869 64.9755 -40.6836
  1003 188.496 47.1512 18.4517
  1004 73.8519 -3.18447 -7.06047
  1005 128.730 -0.552680 11.6341
  1006 114.073 11.8446 -8.08567
  1007 80.5660 -6.87357 21.7499
  1008 104.212 -12.3003 -11.3272
  1009 119.239 -0.935385 -4.41259
  1010 52.8477 3.80164 25.0547
  1011 67.8915 -5.20760 17.3881
  1012 104.059 5.26910 -5.79101
  1013 120.441 -2.34877 -13.0860
  1014 158.579 60.1523 66.9226
  1015 97.8402 2.92409 4.10228
  1016 135.078 29.4105 -0.533079
  1017 100.031 3.80312 -37.3418
  1018 100.861 -10.6889 -6.28819
  1019 129.812 -0.0810429 -0.528076
  1020 122.979 11.3259 -12.9130
  1021 70.1061 -0.504093 1.76964
  1022 70.0752 -0.509328 -1.78904
  1023 2.48206 0.411848 -3.24120
  1024 80.0615 -3.78642 -5.98095
  1025 67.8139 -5.27608 -17.5314
  1026 79.9903 -3.77572 5.90635
  1027 117.633 -3.54457 12.0978
  1028 105.361 -6.54799 0.338420
  1029 110.174 1.99532 -11.2276
  1030 113.305 14.1791 2.35736
  1031 156.832 8.84523 4.00632
  1032 116.773 -8.83837 6.25877
  1033 72.5834 -5.90433 -13.3234
  1034 109.127 3.81806 -10.4792
  1035 81.3179 -6.77581 -21.8799
  1036 157.670 34.5820 -0.358054
  1037 105.767 6.89102 5.26746
  1038 135.928 -0.844726 -7.66131
  1039 101.496 -10.6886 5.71775
  1040 116.589 -3.64884 9.42641
  1041 115.961 -6.08055 7.01833
  1042 115.329 -5.75682 6.13866
  1043 142.980 18.0587 -10.3164
  1044 114.821 -1.82601 9.44127
  1045 104.015 -12.3351 11.1337
  1046 111.050 -4.49846 2.29536
  1047 72.6260 -5.91343 13.2383
  1048 103.979 -7.72885 -0.853030
  1049 59.4923 -2.85717 -18.6072
  1050 85.8146 -8.95944 14.6506
  1051 117.140 -0.756387 -5.08560
  1052 113.779 -1.27274 -10.6715
  1053 98.4001 -7.88345 -3.69107
  1054 59.5969 -2.94646 18.4480
  1055 105.397 0.226320 -7.32812
  1056 78.0236 -5.31281 -9.37277
  1057 143.627 30.8285 4.99154
  1058 30.9533 5.35057 -17.4012
  1059 252.545 17.8839 24.6981
  1060 56.7182 4.42018 -26.2838
  1061 115.350 -9.53492 -4.15204
  1062 78.0391 -5.26450 9.28720
  1063 104.167 1.05041 8.16458
  1064 57.1695 -1.21958 5.96767
  1065 57.1344 -1.25031 -6.03369
  1066 116.499 -3.21213 -11.1952
  1067 125.079 -0.529602 0.853411
  1068 121.983 -0.238755 2.27265
  1069 120.106 4.01478 13.8938
  1070 111.986 -0.843148 9.99192
  1071 87.4886 9.19961 40.4449
  1072 130.727 -0.0596066 0.268331
  1073 120.600 16.4183 8.83990
  1074 101.117 1.40798 7.01202
  1075 123.740 -0.432347 2.19683
  1076 77.3663 -0.905565 -1.43332
  1077 77.3762 -0.894906 1.42198
  1078 48.6536 -1.43041 -9.93871
  1079 48.8644 -1.48155 9.86164
  1080 101.433 4.98534 2.93462
  1081 157.581 7.80999 -9.93128
  1082 144.732 -0.610073 -20.5454
  1083 113.214 -0.0880578 -3.06818
  1084 85.8613 -9.02839 -14.7685
  1085 98.6042 -7.49626 3.24410
  1086 113.926 -0.250288 3.20487
  1087 120.005 -8.65683 -7.29807
  1088 72.5634 -0.204178 0.870487
  1089 72.5493 -0.207552 -0.876958
  1090 115.125 -9.80838 4.15134
  1091 109.268 -2.16238 0.559701
  1092 109.250 -2.16376 -0.551314
  1093 106.222 -10.7445 3.30783
  1094 138.331 -4.54166 -0.201636
  1095 59.7293 -0.118436 -1.68868
  1096 59.8346 -0.114302 1.66855
  1097 93.3499 -5.80395 -25.0658
  1098 98.6611 -2.36337 0.312890
  1099 98.6729 -2.37868 -0.317529
  1100 60.0897 31.6078 44.3949
  1101 138.286 11.2685 -11.4190
  1102 19.4439 9.72719 -12.8705
  1103 119.523 -1.67608 -2.42155
  1104 30.8562 10.8689 -19.9299
  1105 64.7205 -4.16742 -12.6873
  1106 130.856 -0.0890760 0.154229
  1107 130.921 -0.0802237 -0.116178
  1108 117.123 -6.64282 -8.42428
  1109 103.762 -11.5962 -15.8168
  1110 30.9628 4.55408 16.5825
  1111 127.278 12.6414 12.6814
  1112 116.009 -1.04808 -0.234282
  1113 116.018 -1.04965 0.246303
  1114 127.493 -8.32100 19.0870
  1115 130.053 26.2826 4.93852
  1116 75.6872 -1.92692 -3.74995
  1117 75.7027 -1.91665 3.71858
  1118 58.1288 6.79535 31.1802
  1119 109.921 0.532012 -10.8835
  1120 33.8125 11.1255 21.4920
  1121 143.838 -2.67479 -5.40558
  1122 139.568 31.2276 1.56487
  1123 95.4268 -7.66842 4.64308
  1124 86.2069 0.406743 -0.440816
  1125 122.564 -1.00285 2.87021
  1126 127.269 -0.115697 1.12672
  1127 25.7208 0.0618194 -4.97220
  1128 26.1278 0.0476404 4.93523
  1129 97.6929 1.55860 -5.17998
  1130 101.987 -3.00243 -0.0650630
  1131 101.961 -2.98563 0.0635018
  1132 10.4729 14.6347 -14.8544
  1133 16.9143 33.9001 -30.6777
  1134 103.375 -4.04975 -0.130865
  1135 103.420 -4.05244 0.126333
  1136 107.034 -2.53242 0.627325
  1137 107.019 -2.52527 -0.616694
  1138 27.3756 17.6001 21.4968
  1139 83.0178 -1.09367 -0.666082
  1140 83.0240 -1.08499 0.661990
  1141 105.147 7.88936 -0.127259
  1142 138.339 16.0199 -46.8305
  1143 129.577 22.4764 -8.45182
  1144 118.453 -4.50906 -11.5117
  1145 116.736 -5.77476 -8.48550
  1146 95.5025 -7.74340 -4.72690
  1147 94.7555 0.279754 3.19797
  1148 107.739 6.66548 -7.75133
  1149 106.126 5.65111 7.38763
  1150 110.975 -4.36271 -2.25781
  1151 105.643 -6.41212 -0.413000
  1152 95.5742 -6.29177 -3.41228
  1153 114.251 -0.654830 5.97914
  1154 206.324 20.9179 2.93971
  1155 115.127 -2.43092 10.9006
  1156 115.188 7.56724 11.7438
  1157 106.734 -10.5536 -2.28352
  1158 12.2195 2.22080 -7.38280
  1159 108.741 -5.01312 -1.76780
  1160 69.7230 -0.138432 -0.0367293
  1161 69.7328 -0.137922 0.0361207
  1162 133.485 -3.52773 6.68939
  1163 127.252 -10.6838 3.47376
  1164 183.512 33.1310 7.72321
  1165 41.1570 -0.106778 -4.17825
  1166 41.4373 -0.0974216 4.14305
  1167 96.3912 -1.96943 -0.306088
  1168 96.3841 -1.95530 0.302757
  1169 109.128 -9.65793 0.456895
  1170 87.0384 0.356360 1.43933
  1171 111.830 -7.95829 3.26960
  1172 5.91507 7.03936 -3.00601
  1173 19.2712 9.84807 12.6018
  1174 74.1677 -3.92530 24.2518
  1175 128.952 24.7740 -6.02410
  1176 124.231 -0.317020 -1.73167
  1177 131.451 -0.180984 0.115770
  1178 131.601 -0.259013 -0.0797822
  1179 72.9286 -0.217396 -0.134350
  1180 72.9397 -0.215789 0.133005
  1181 118.802 7.61846 13.3977
  1182 178.068 30.7852 -0.648181
  1183 122.216 20.3420 -6.02020
  1184 91.7178 -6.64887 24.9010
  1185 73.7705 -3.75833 -24.2097
  1186 81.5308 -5.60616 -8.35352
  1187 114.812 -3.12342 2.89080
  1188 161.095 35.2778 -0.121775
  1189 81.5302 -5.56944 8.27916
  1190 117.538 -1.94118 2.19157
  1191 103.136 3.76098 7.03621
  1192 114.639 3.53906 12.8195
  1193 165.235 37.0433 2.87759
  1194 96.5966 -2.55530 0.586285
  1195 96.6044 -2.56988 -0.592424
  1196 118.979 -2.13788 4.41621
  1197 68.1310 -0.792089 2.79359
  1198 68.0823 -0.800511 -2.82300
  1199 116.476 -1.46671 -1.04641
  1200 47.3569 27.9681 -42.7288
  1201 100.783 -5.62711 -26.6447
  1202 93.7911 -3.01057 -1.23207
  1203 93.7978 -2.99464 1.23213
  1204 125.677 -0.494044 0.752686
  1205 118.321 -1.42905 1.76105
  1206 6.08436 7.33266 5.20014
  1207 129.580 -0.108331 0.611209
  1208 14.7205 18.1701 18.0222
  1209 115.395 -1.60896 -1.33007
  1210 -0.196546 -2.89697 -2.52537
  1211 80.6463 -7.85724 -18.7237
  1212 80.4001 -7.66245 18.5252
  1213 129.581 -0.194973 -0.668936
  1214 109.461 -5.76555 -2.05558
  1215 125.559 -0.440238 -0.787073
  1216 98.8878 -3.23282 -0.448778
  1217 98.8740 -3.21815 0.439633
  1218 116.396 -1.45415 0.989681
  1219 108.660 -4.91722 1.74920
  1220 104.319 -3.34186 -0.371048
  1221 104.360 -3.35392 0.385596
  1222 125.479 -0.454406 -0.647663
  1223 107.610 -11.2625 -17.9027
  1224 122.545 -0.632225 -0.678424
  1225 115.918 -1.65896 1.41109
  1226 78.6993 -0.942435 -1.04112
  1227 78.7084 -0.932773 1.03332
  1228 88.7370 -1.35792 -0.487044
  1229 88.7384 -1.34730 0.483699
  1230 146.675 22.7612 8.89598
  1231 123.070 -9.38865 5.74505
  1232 83.8952 -0.312941 30.8936
  1233 64.8573 -0.136408 1.07015
  1234 64.8015 -0.137752 -1.08261
  1235 115.984 -2.10573 8.25317
  1236 111.279 -1.58478 0.357596
  1237 111.287 -1.57829 -0.357352
  1238 126.761 24.9039 2.79308
  1239 117.225 -12.2277 13.8822
  1240 65.3190 -0.992544 3.95989
  1241 65.2509 -1.00076 -3.99359
  1242 111.051 -2.63458 1.24631
  1243 111.027 -2.65160 -1.21781
  1244 114.754 -3.08044 -2.79621
  1245 103.878 0.0101297 3.80010
  1246 184.050 45.6722 -14.1957
  1247 116.725 -4.21173 -7.48339
  1248 18.9388 4.74696 10.8099
  1249 120.703 -6.37610 10.3583
  1250 94.7984 1.98816 -2.82901
  1251 6.74818 5.29497 3.61102
  1252 160.930 17.2169 0.433306
  1253 117.719 -5.31101 -10.3435
  1254 95.2904 1.28497 4.32773
  1255 65.1975 -4.17228 12.6544
  1256 119.860 -9.22705 6.61399
  1257 176.365 32.2601 8.26142
  1258 39.1008 5.98331 21.2165
  1259 120.642 -1.33651 -3.79099
  1260 238.086 2.61286 -2.45157
  1261 246.537 3.74854 11.0118
  1262 264.062 9.20495 -26.0057
  1263 116.446 -3.58393 -9.15822
  1264 116.583 -5.26793 7.96598
  1265 118.579 -8.39053 7.65265
  1266 -3.51624 0.355208 2.26815
  1267 -3.21542 0.269003 -2.45030
  1268 115.626 -12.7269 -5.94506
  1269 118.685 -11.9414 -9.35732
  1270 87.7369 0.521024 -1.78219
  1271 115.200 -12.9700 9.40500
  1272 122.864 -5.77561 -10.5444
  1273 2.00354 3.47709 0.0302813
  1274 98.9559 -1.79975 0.278620
  1275 98.9647 -1.81450 -0.279366
  1276 122.540 -0.884184 2.61919
  1277 117.543 -1.90325 -2.07043
  1278 110.326 -12.0546 -2.78466
  1279 100.142 -5.49023 1.14086
  1280 99.6114 -5.41709 -1.30550
  1281 118.370 -2.42649 5.92797
  1282 121.242 -4.40658 -11.9095
  1283 7.01410 5.52207 -3.44308
</Section>

newXOutput 8

<Section columns = "stress_xx | stress_yy | stress_xy">
  1 153.929 0.0140206 0.324122
  2 153.945 0.0155070 -0.325388
  3 79.8915 -0.0450815 -0.117635
  4 -1.03042 -1.02483 -1.48016
  5 285.699 107.191 88.6469
  6 282.921 111.372 -89.2788
  7 -1.19498 -0.979281 1.56757
  8 79.8803 -0.0454260 0.117240
  9 155.108 -0.236185 0.106230
  10 154.730 -0.382833 -0.0596333
  11 154.287 -0.235272 0.391565
  12 153.851 -0.342445 0.140896
  13 152.922 -0.281126 0.618521
  14 152.089 -0.288690 0.470575
  15 150.195 -0.257450 0.878342
  16 147.565 -0.150803 1.28618
  17 145.203 -0.176256 1.41538
  18 141.765 -0.274678 1.69311
  19 137.077 0.00356965 2.47888
  20 132.742 -0.203276 2.33609
  21 127.906 -0.280916 3.26459
  22 120.908 0.202087 2.82000
  23 115.916 0.283286 3.31659
  24 109.412 0.490741 2.57941
  25 104.945 0.482699 2.59296
  26 98.4668 0.706404 1.31694
  27 97.1185 1.11749 1.40671
  28 96.3139 0.898397 -0.413433
  29 97.4334 0.490003 -0.918099
  30 99.4848 0.497872 -1.12285
  31 104.333 0.644856 -2.24884
  32 109.039 0.508330 -2.86078
  33 116.011 0.0891513 -3.40315
  34 121.602 -0.0810165 -3.12386
  35 127.614 -0.226071 -3.09136
  36 133.086 -0.157120 -2.19581
  37 137.840 -0.156836 -1.89371
  38 141.799 -0.265985 -1.60419
  39 145.379 -0.180466 -1.13881
  40 147.656 -0.204437 -1.21785
  41 149.854 -0.268773 -0.894743
  42 151.969 -0.325228 -0.415384
  43 153.066 -0.256254 -0.472505
  44 153.683 -0.140159 -0.304691
  45 153.339 -0.0502233 -0.276750
  46 154.912 -0.391617 0.0334525
  47 155.169 -0.248318 -0.109742
  48 149.656 -0.0346383 -0.199707
  49 146.022 -0.514329 -0.345553
  50 141.625 -0.782215 -0.246318
  51 136.291 -1.21516 -0.331987
  52 131.270 -1.34897 -0.421414
  53 125.937 -1.74707 -0.396710
  54 121.239 -1.97752 -0.234148
  55 117.121 -2.25917 -0.105167
  56 112.379 -1.88710 -0.106818
  57 106.917 -1.78755 -0.147935
  58 101.645 -1.43293 -0.0630253
  59 96.6420 -0.936112 -0.0324181
  60 91.8759 -0.682961 -0.00744139
  61 87.6773 -0.370810 0.0320060
  62 83.3586 -0.115223 -0.136705
  63 79.9565 0.108562 0.148420
  64 78.4549 0.335412 0.0915927
  65 79.5547 -0.00602198 0.231328
  66 78.4721 -0.0575287 0.274960
  67 77.5025 -0.0802203 0.344326
  68 76.1666 -0.0205554 0.457772
  69 74.4774 -0.0124105 0.583058
  70 73.2868 -0.120511 1.15080
  71 69.6464 0.103652 1.26203
  72 67.1217 -0.0144958 1.46010
  73 63.3593 -0.0762119 1.65220
  74 59.0063 -0.123655 2.01632
  75 53.5727 -0.0333943 2.44804
  76 46.9445 0.0268275 2.68804
  77 41.3111 -0.0730386 3.83499
  78 30.0180 0.368098 3.59439
  79 22.4331 0.318932 3.80436
  80 13.4427 -0.0498098 4.18524
  81 6.07411 0.733421 4.30447
  82 -2.26657 1.07170 2.49140
  83 -8.20977 1.08254 0.772297
  84 -7.69919 1.01739 -0.562617
  85 -7.06259 0.833510 -2.17396
  86 -4.12251 -0.309820 -2.02207
  87 -0.533886 -3.95829 -2.21949
  88 0.342046 -7.35642 -2.82809
  89 1.02224 -11.8870 -1.71363
  90 2.31242 -12.6526 -0.208855
  91 4.95252 -4.75611 6.10904
  92 15.1027 20.0764 21.9749
  93 92.6647 80.1424 78.5811
  94 344.388 50.7884 58.4336
  95 308.701 7.33035 19.2767
  96 285.526 2.98531 5.89933
  97 276.938 2.50578 0.476565
  98 281.378 3.37393 -5.07121
  99 307.777 6.76247 -15.2337
  100 367.000 24.5452 -50.9191
  101 54.5320 81.0543 -65.2495
  102 11.3342 12.5209 -17.9450
  103 5.38601 -4.21275 -6.26678
  104 2.15151 -12.7904 -0.773481
  105 0.554033 -9.15564 1.99379
  106 0.740029 -9.24625 2.47219
  107 0.0172551 -3.44395 2.45470
  108 -4.29747 -0.219767 1.92837
  109 -7.29039 0.625184 1.90803
  110 -8.09910 1.24063 0.609563
  111 -8.48596 1.07035 -0.699309
  112 -2.84607 1.09862 -2.32194
  113 5.55261 0.740225 -4.09700
  114 12.9084 0.0262469 -4.11586
  115 21.8855 0.345183 -3.81443
  116 29.5204 0.378410 -3.62481
  117 40.9246 -0.0745973 -3.87092
  118 46.6126 0.0304757 -2.71699
  119 53.2838 -0.0319772 -2.48161
  120 58.8564 -0.135929 -2.03405
  121 63.1632 -0.0732033 -1.65806
  122 66.9747 -0.00967820 -1.47716
  123 69.5277 0.102186 -1.27799
  124 73.2039 -0.121589 -1.16438
  125 74.4130 -0.0131155 -0.591486
  126 76.1202 -0.0212114 -0.464744
  127 77.4697 -0.0812928 -0.349891
  128 78.4494 -0.0584447 -0.278875
  129 79.5376 -0.00684024 -0.233859
  130 78.4418 0.334863 -0.0927955
  131 79.9445 0.108316 -0.149156
  132 83.3458 -0.116173 0.136241
  133 87.6644 -0.373180 -0.0329613
  134 91.8646 -0.688268 0.00630899
  135 96.6340 -0.943518 0.0313118
  136 101.641 -1.44359 0.0619553
  137 106.919 -1.80090 0.147109
  138 112.387 -1.90243 0.106065
  139 117.132 -2.27607 0.104894
  140 121.253 -1.99426 0.234735
  141 125.956 -1.76231 0.398376
  142 131.285 -1.35966 0.427469
  143 136.299 -1.22468 0.360585
  144 141.647 -0.732384 0.251997
  145 146.126 -0.497930 0.338146
  146 149.674 -0.0575857 0.196914
  147 132.559 -12.4415 -1.90030
  148 132.457 -12.2761 1.94869
  149 138.249 19.9429 -7.32738
  150 148.221 8.77653 15.7836
  151 112.148 -10.7081 -24.0044
  152 113.030 -10.7041 23.1964
  153 107.991 -4.68735 2.58142
  154 108.005 -4.75609 -2.58546
  155 157.794 5.61479 -12.5922
  156 132.200 -4.68541 3.61061
  157 132.147 -4.56706 -3.56397
  158 170.895 38.5316 2.25422
  159 134.814 -0.213005 -15.1739
  160 98.9755 -7.94184 -10.6475
  161 98.9672 -7.87176 10.5430
  162 135.202 -3.02790 13.8125
  163 127.575 9.26568 8.91934
  164 52.0785 8.62396 -28.6137
  165 57.9586 8.15150 30.1854
  166 167.316 1.69959 2.97405
  167 135.822 -5.15446 -9.82572
  168 180.596 39.7310 -2.06408
  169 121.952 -3.41503 0.358097
  170 121.924 -3.40168 -0.345665
  171 137.981 -1.53907 -1.60253
  172 138.461 -1.36617 1.39282
  173 94.2247 -1.44384 -1.62039
  174 94.2323 -1.42798 1.60977
  175 149.171 -4.22808 30.4560
  176 123.268 5.04814 -9.59229
  177 80.0882 -6.07896 -17.3861
  178 80.3317 -6.03321 17.2595
  179 89.7078 -3.07705 -5.58819
  180 89.7114 -3.03986 5.53991
  181 136.540 -3.52062 8.34464
  182 123.769 -8.54133 0.435450
  183 123.306 -8.47736 -0.220054
  184 141.620 -13.6373 -1.20969
  185 142.323 -12.9905 -0.574643
  186 196.360 46.1114 -5.40371
  187 141.047 22.7876 6.87301
  188 141.708 8.72358 -15.6675
  189 148.809 -1.63521 -35.6303
  190 141.110 -7.91713 -11.3866
  191 142.293 -5.62843 13.2318
  192 118.229 -13.4533 11.3755
  193 118.282 -13.3628 -11.3345
  194 125.615 1.55972 11.5770
  195 56.5107 -1.30194 -21.1800
  196 56.6614 -1.43237 21.0384
  197 222.602 33.5711 4.72176
  198 133.495 -7.91718 6.45963
  199 138.710 -2.45881 -5.52119
  200 108.621 -2.71596 -1.11176
  201 108.620 -2.69987 1.10684
  202 132.383 -1.70426 -10.6002
  203 151.160 22.2686 -12.7524
  204 125.267 11.2134 -1.79364
  205 80.4271 -2.97661 7.96960
  206 80.2985 -2.98785 -8.03726
  207 141.116 -1.45353 3.11273
  208 136.373 2.57082 15.5759
  209 110.390 -8.17741 -4.80236
  210 109.581 -7.74595 4.95592
  211 161.635 23.9769 12.0934
  212 191.986 25.3189 2.22393
  213 12.1446 9.76418 -7.47366
  214 11.2070 9.02695 6.31668
  215 77.9309 22.0549 51.1760
  216 132.124 -8.75881 -5.16129
  217 141.691 -1.39782 -2.81657
  218 124.082 1.04335 -10.6535
  219 85.6332 -0.930441 -2.46434
  220 85.6572 -0.919596 2.43900
  221 118.338 -5.60250 -0.594152
  222 118.391 -5.63342 0.524804
  223 133.647 -1.77934 9.05983
  224 155.487 -9.04069 2.10816
  225 152.824 31.5311 -3.75509
  226 119.864 -11.6593 -4.97893
  227 152.677 -2.62731 10.7201
  228 129.594 -2.07635 0.690791
  229 129.599 -2.05712 -0.689606
  230 118.926 -11.6020 5.22030
  231 136.796 -8.62855 9.37181
  232 195.087 23.9499 -10.1178
  233 41.8263 24.9513 -36.5033
  234 113.830 3.90518 2.26552
  235 136.639 12.0711 13.0811
  236 146.528 -0.988565 -14.2942
  237 136.556 -4.87480 -13.0257
  238 70.8230 -2.37641 -10.0535
  239 71.0841 -2.33896 10.0138
  240 136.863 -1.59667 -7.09033
  241 130.521 -3.22152 2.01205
  242 130.460 -3.21465 -1.95512
  243 26.1198 2.57153 -13.2462
  244 26.5865 2.25671 13.2067
  245 146.329 -12.7594 -10.1275
  246 144.965 -0.397360 0.473394
  247 145.144 -0.406160 -0.500936
  248 133.257 11.0396 -11.9355
  249 116.296 2.15307 6.91433
  250 251.286 40.2893 26.8787
  251 249.437 28.4124 -16.9660
  252 177.664 38.7093 -0.593498
  253 110.746 -5.26243 32.1591
  254 101.413 -3.33137 -33.6912
  255 115.795 -2.37370 -0.298634
  256 115.782 -2.35617 0.295329
  257 95.0301 -2.66156 3.32258
  258 95.0354 -2.70011 -3.35737
  259 140.741 -1.43136 4.48204
  260 136.266 -9.66277 -7.88998
  261 85.8894 -0.203625 -0.561132
  262 85.9039 -0.200414 0.556775
  263 134.536 -5.37852 -6.22155
  264 55.1814 -1.84659 -13.8920
  265 55.4435 -1.85303 13.7816
  266 136.088 -5.84910 10.5750
  267 103.337 -10.9711 19.2729
  268 103.627 -11.1688 -19.2158
  269 115.637 4.33599 -3.21772
  270 99.7527 -1.60448 -1.08555
  271 99.7577 -1.59238 1.08026
  272 126.629 -0.340701 8.59159
  273 152.178 28.0556 8.88761
  274 79.4790 -1.04435 4.24917
  275 79.4167 -1.05370 -4.29058
  276 140.150 -11.6433 5.93835
  277 129.742 -14.5008 -12.4127
  278 145.404 -0.592585 1.48013
  279 99.0008 -6.02668 -7.20282
  280 98.8095 -5.95613 7.17007
  281 181.277 17.2872 45.2072
  282 82.9028 -6.65979 23.1596
  283 134.389 18.9331 -0.781155
  284 172.297 18.7465 -8.71915
  285 129.003 -9.99015 2.53226
  286 129.799 -14.9047 11.0896
  287 83.1824 -6.54456 -23.4443
  288 15.0209 18.4757 16.4360
  289 134.558 -5.40108 6.33126
  290 177.659 22.8930 7.24646
  291 146.672 -0.527058 -1.28287
  292 130.996 4.55217 -13.7341
  293 130.019 -7.33271 3.75068
  294 127.226 -10.7671 -0.510401
  295 130.451 5.96615 13.2096
  296 139.447 -11.6544 -5.40190
  297 198.389 38.9275 -2.99353
  298 129.982 -7.04421 -3.59625
  299 108.697 30.3043 -63.1689
  300 133.171 -14.0932 -1.58888
  301 132.199 -14.4740 3.13159
  302 95.9899 -8.78908 -15.1775
  303 85.1361 -0.371797 -1.23453
  304 85.1557 -0.365394 1.22269
  305 96.0200 -8.79320 15.0865
  306 140.531 -0.213050 -15.8210
  307 152.582 -6.29708 -7.54764
  308 114.964 -7.02074 -2.28642
  309 114.875 -7.03601 2.33435
  310 139.134 -11.9700 20.3355
  311 138.052 -1.05783 5.37343
  312 169.436 0.425241 5.97997
  313 112.419 -4.03145 -1.20113
  314 112.424 -4.01517 1.19157
  315 101.769 -2.74449 -2.10827
  316 101.765 -2.71680 2.10356
  317 114.999 1.48767 -6.69213
  318 150.043 11.0034 -15.3651
  319 234.954 62.9495 -29.0233
  320 137.173 -1.07451 -0.554871
  321 137.084 -1.05883 0.566933
  322 72.2365 0.0126415 28.8965
  323 101.366 -4.73319 -4.65436
  324 101.155 -4.71323 4.66483
  325 72.2277 -0.147188 -28.7872
  326 142.485 16.8658 -12.8573
  327 160.739 7.88900 12.0946
  328 139.210 -9.93969 -22.6956
  329 127.007 -4.86919 1.84979
  330 126.870 -4.82952 -1.79027
  331 136.035 -2.71317 -3.13162
  332 126.733 -0.256836 -8.04073
  333 143.259 0.660626 15.5779
  334 143.598 -0.925616 -3.11411
  335 84.4040 -5.26406 11.6124
  336 84.3123 -5.29598 -11.7125
  337 132.692 -0.307718 14.3689
  338 79.8237 -0.712651 -2.49849
  339 79.8748 -0.705744 2.47215
  340 136.985 -3.05554 4.71378
  341 164.040 33.6907 -6.92947
  342 135.949 -2.73757 3.24009
  343 144.149 18.1792 12.9330
  344 138.157 -2.53519 15.0800
  345 108.448 -2.06944 0.376118
  346 108.451 -2.08396 -0.379740
  347 130.207 -0.479043 -12.7338
  348 173.701 36.6597 4.94176
  349 143.380 26.4696 0.271289
  350 88.0497 10.3089 -43.2601
  351 8.24361 3.94352 -5.49932
  352 9.13434 4.26000 5.95919
  353 -0.658160 0.889676 2.84345
  354 -0.0792546 0.425399 -2.95037
  355 258.362 17.9064 6.26123
  356 118.923 -9.74376 -2.66386
  357 137.114 -2.94594 -4.60316
  358 123.153 -2.10864 0.301772
  359 123.139 -2.08951 -0.302214
  360 131.114 14.4885 -6.45521
  361 112.169 -11.5286 9.33554
  362 9.38769 13.8361 -9.91504
  363 112.296 -11.5304 -9.52575
  364 132.915 15.1308 6.87023
  365 136.548 -3.57702 -7.97095
  366 145.195 -8.04663 -9.95423
  367 153.859 32.7912 2.60013
  368 145.592 -9.02668 8.43680
  369 57.9935 -1.51214 9.32573
  370 57.6168 -1.48348 -9.39447
  371 32.3195 0.864814 -12.7813
  372 32.7052 0.724516 12.7207
  373 116.959 0.316413 6.78479
  374 228.313 65.7307 24.0265
  375 141.511 -0.841187 -3.88502
  376 109.085 -9.35216 -7.08660
  377 108.977 -9.32265 7.07557
  378 135.555 -3.08252 -9.94916
  379 155.549 -7.51262 2.45999
  380 118.918 -9.73246 2.76400
  381 171.621 0.836851 -12.4632
  382 94.0665 -0.822018 -0.387414
  383 94.0764 -0.814438 0.383550
  384 132.999 -0.754915 -6.28086
  385 69.7056 -1.06930 -6.10256
  386 69.7549 -1.10204 6.02216
  387 159.783 20.3829 -13.3201
  388 85.8305 6.12635 40.0857
  389 124.588 -6.55474 1.23045
  390 124.713 -6.54110 -1.23800
  391 146.186 24.8753 -8.24976
  392 138.782 -4.07848 -14.3725
  393 139.878 -14.2463 10.6116
  394 115.376 -3.08370 -0.442172
  395 115.360 -3.06612 0.434843
  396 134.062 -10.3249 5.56663
  397 145.096 -0.631574 2.33097
  398 88.2888 -3.35511 -7.04461
  399 88.3212 -3.35313 6.97683
  400 135.572 4.54298 -15.3399
  401 128.414 -2.71067 1.05899
  402 128.410 -2.71589 -1.03959
  403 132.393 -1.54363 11.7747
  404 122.502 8.86377 3.06556
  405 137.724 -5.77013 12.6522
  406 200.390 42.2072 6.83078
  407 65.0828 -3.52395 -18.6007
  408 65.2733 -3.52619 18.4466
  409 28.8014 15.7146 -21.6468
  410 148.959 -0.356675 0.685218
  411 72.6430 -0.672718 -3.85275
  412 72.7463 -0.658428 3.81564
  413 135.690 -3.49617 9.77325
  414 123.013 -13.3928 5.76683
  415 139.699 -1.62485 2.22770
  416 141.478 7.20885 16.0897
  417 30.2931 16.7321 22.6556
  418 123.212 -13.3236 -5.24143
  419 127.395 -11.8703 -0.333414
  420 39.8103 -0.804220 -11.6477
  421 40.1468 -0.837130 11.5606
  422 97.4696 -7.70201 -27.9446
  423 146.596 -2.14188 13.9862
  424 97.0546 -7.83090 27.6830
  425 135.225 -7.55598 -8.44848
  426 124.361 8.32544 -6.75004
  427 135.260 -5.78975 7.97735
  428 146.545 -0.575166 -1.61316
  429 4.14375 4.21683 1.51278
  430 28.8556 32.7065 32.2701
  431 129.367 -0.481481 6.02009
  432 107.001 1.39297 2.91345
  433 109.022 1.71663 -3.96394
  434 93.0321 -1.63112 -2.34178
  435 93.0373 -1.60931 2.32340
  436 133.349 -10.3212 -5.16204
  437 134.359 -2.60803 -13.2270
  438 107.637 1.93169 -1.07741
  439 200.518 47.6400 8.52194
  440 26.5155 9.09575 -16.1636
  441 29.3365 8.35300 17.3385
  442 124.474 -4.41810 1.04048
  443 124.423 -4.40429 -1.00445
  444 166.176 37.1187 -0.581038
  445 105.594 41.3356 64.5567
  446 161.075 -2.36886 -3.69867
  447 90.4871 -4.85310 -9.56313
  448 90.5256 -4.81714 9.47263
  449 90.7320 -2.13142 3.70981
  450 90.7192 -2.14845 -3.74868
  451 123.680 2.68464 -10.9474
  452 149.805 -0.146707 -0.464750
  453 119.927 5.42311 6.11704
  454 153.474 18.9937 14.1566
  455 127.585 -9.48800 -1.99853
  456 139.660 -1.53840 -2.16032
  457 147.192 -0.513490 1.48714
  458 149.392 -0.152858 0.266650
  459 149.534 -0.180941 -0.202693
  460 79.0551 -0.167944 0.911672
  461 79.0180 -0.170309 -0.922798
  462 139.893 -8.83910 10.1965
  463 124.915 4.87342 10.5969
  464 131.115 0.517653 -13.9865
  465 137.820 -2.82702 5.99773
  466 202.482 31.9067 -37.2682
  467 137.997 -7.61602 -11.2201
  468 0.859142 2.53723 0.767949
  469 0.867169 2.55970 -0.0865896
  470 108.371 -6.25483 3.85135
  471 107.989 -6.17615 -3.81232
  472 173.690 2.53844 19.5430
  473 47.8970 42.3065 -48.4010
  474 135.905 -0.385479 4.73567
  475 155.599 -9.13227 -10.6814
  476 80.7299 -4.75949 13.4887
  477 165.691 29.4123 -9.93379
  478 135.993 -7.31979 9.47480
  479 113.405 -5.49979 -1.70038
  480 113.506 -5.40526 1.69284
  481 116.927 0.596719 -5.99788
  482 80.4696 -4.74326 -13.5836
  483 120.136 0.0179350 6.04893
  484 116.337 -13.2822 -17.0388
  485 116.035 -13.3025 17.0861
  486 140.614 -0.884431 4.27867
  487 126.336 11.8802 1.26839
  488 130.574 1.96360 43.8016
  489 191.290 39.3157 -0.248688
  490 131.720 -2.12350 1.12619
  491 131.731 -2.11501 -1.15650
  492 99.7092 -1.84654 -1.43021
  493 99.7125 -1.82991 1.42328
  494 52.2895 2.56552 24.1189
  495 136.553 -6.53628 -10.9248
  496 123.563 -2.64211 0.344276
  497 123.551 -2.63100 -0.340685
  498 107.268 -11.4240 13.9563
  499 53.3381 3.36756 -24.7488
  500 136.919 -11.1234 -5.87840
  501 2.16686 0.0996261 1.41854
  502 117.972 6.01020 0.438305
  503 132.263 -1.42036 -0.381243
  504 132.257 -1.44261 0.374812
  505 107.353 -11.4080 -14.0716
  506 155.789 -8.14603 14.0351
  507 153.524 5.58698 14.5486
  508 142.123 -0.851918 -1.10362
  509 136.498 -11.2843 5.94427
  510 82.9634 -0.106677 -0.152494
  511 82.9768 -0.105832 0.150821
  512 136.065 -5.18923 -11.5485
  513 131.001 9.68593 11.6450
  514 151.592 3.75019 -14.3521
  515 82.4692 -0.158106 -0.509883
  516 82.4863 -0.156061 0.505694
  517 269.393 38.8840 -35.0009
  518 136.512 16.3070 10.3035
  519 142.260 -0.771419 0.987370
  520 127.690 -12.1285 0.637633
  521 106.322 -3.60177 2.06852
  522 106.325 -3.63153 -2.06443
  523 149.367 -9.04955 5.23815
  524 143.019 -2.81363 -14.6175
  525 159.692 31.6696 8.12112
  526 132.289 2.26265 14.4889
  527 134.298 -2.48397 2.06813
  528 130.654 -13.8807 -16.2255
  529 134.892 -3.30298 11.2889
  530 266.709 12.1754 -4.92406
  531 148.325 -11.1455 -1.44216
  532 141.237 -0.815907 -0.285753
  533 141.269 -0.876938 0.259988
  534 269.449 18.1025 17.3406
  535 128.815 -0.0612921 12.3224
  536 182.869 30.2778 -4.83584
  537 136.588 -3.63964 -5.88122
  538 59.3694 -0.593976 -4.18062
  539 59.5729 -0.565738 4.13466
  540 91.4489 -8.59843 -19.3886
  541 91.5103 -8.45312 19.2355
  542 134.228 -2.37410 -2.04491
  543 145.815 5.37199 -15.8661
  544 127.978 -8.71780 2.48379
  545 137.146 15.7579 -10.7143
  546 139.018 -1.54880 5.76281
  547 175.663 8.38236 -0.358382
  548 118.240 -4.07085 -0.238448
  549 118.199 -4.05344 0.231377
  550 128.927 -6.06241 2.88946
  551 191.848 37.4508 -1.01025
  552 135.385 5.92590 15.0605
  553 57.4390 14.8556 35.8070
  554 132.031 -7.94726 28.9409
  555 176.106 7.64842 -31.6604
  556 138.458 11.4609 -14.0577
  557 123.606 -10.6216 -25.0275
  558 133.752 -14.6236 -4.15054
  559 139.983 -14.1152 -6.47007
  560 17.8012 22.5925 -21.4510
  561 140.639 -1.68127 -3.66700
  562 212.699 41.5190 -11.4973
  563 129.645 -5.80231 -3.14551
  564 130.804 -4.19575 2.58926
  565 130.679 -4.09491 -2.49785
  566 88.1487 -0.566193 -1.10998
  567 88.1633 -0.558784 1.10097
  568 11.6035 1.35709 -6.90378
  569 12.3439 1.41946 7.07128
  570 65.5055 -3.12181 -14.2217
  571 66.0335 -3.13759 14.1907
  572 132.573 -7.14586 -5.54424
  573 135.376 -14.6817 4.55100
  574 139.182 -13.1633 1.93572
  575 113.022 -2.00409 -0.348617
  576 113.014 -1.98790 0.346385
  577 107.669 -11.2523 -21.4447
  578 121.147 -9.87739 26.5371
  579 104.961 -10.5728 21.5816
  580 136.143 -2.99828 -14.2446
  581 83.4978 -1.47945 4.23597
  582 83.4581 -1.49558 -4.27622
  583 129.124 7.09514 -11.6803
  584 129.479 -0.224621 -5.46516
  585 162.480 35.6070 -3.74040
  586 105.034 -1.63913 -0.372145
  587 105.035 -1.62696 0.369956
  588 138.821 -0.391173 -3.13072
  589 94.3327 -3.31874 -4.60999
  590 94.3287 -3.30521 4.56458
  591 77.6695 3.73889 34.4104
  592 135.119 -6.16768 -8.07390
  593 74.3857 -3.86046 24.6695
  594 132.772 -6.84238 5.64137
  595 140.196 -1.88476 4.03084
  596 138.593 -1.14700 -0.993376
  597 95.2759 -1.25498 -1.00548
  598 95.2841 -1.24395 0.998851
  599 155.742 31.3313 -7.24731
  600 74.3371 -3.70244 -24.7732
  601 132.342 -5.67720 -4.57563
  602 118.824 -2.18179 -0.129870
  603 118.810 -2.16371 0.129189
  604 226.901 30.7038 -5.32348
  605 76.8886 -0.538080 2.35508
  606 76.8202 -0.543516 -2.37996
  607 122.084 2.74116 9.97044
  608 177.940 14.4193 -3.83978
  609 82.8926 0.725245 -34.1852
  610 41.3858 1.17223 -18.4334
  611 41.7539 0.918657 18.3338
  612 103.614 -6.19134 5.62209
  613 104.758 -6.37355 -5.43577
  614 179.091 35.9962 4.65227
  615 137.984 -1.19336 0.911677
  616 116.375 3.18732 -6.00242
  617 146.522 26.5135 6.52016
  618 145.942 27.5225 -4.33406
  619 119.974 -6.70141 -0.452075
  620 120.928 -6.54245 0.0134365
  621 86.3889 18.6577 -49.4079
  622 102.247 -3.61431 -3.06664
  623 102.251 -3.57067 3.05301
  624 267.454 54.6492 41.0369
  625 136.070 -4.42004 12.4037
  626 75.9717 -2.80329 -9.11423
  627 215.429 47.5583 30.5083
  628 76.1557 -2.78603 9.07375
  629 131.038 -5.06199 -33.9713
  630 89.8489 -0.502522 -0.410460
  631 89.8612 -0.498067 0.407909
  632 111.862 0.952742 5.23019
  633 49.6797 -0.779311 -8.20240
  634 49.9864 -0.781087 8.13186
  635 118.388 -8.46315 1.93563
  636 124.430 -10.0168 0.0272558
  637 147.985 -0.274694 -1.33751
  638 80.3901 -0.154475 0.661614
  639 80.3632 -0.157077 -0.669856
  640 111.240 -2.54058 -0.468282
  641 111.233 -2.52430 0.463081
  642 128.978 -14.2559 16.4313
  643 147.680 16.5300 -14.3479
  644 97.0187 -4.67415 -5.95773
  645 96.9390 -4.59327 5.90961
  646 116.110 -8.45987 -2.97240
  647 184.417 40.4033 0.311048
  648 138.327 -13.3398 -1.14733
  649 119.305 -2.83913 -0.0414700
  650 119.285 -2.82275 0.0423450
  651 165.528 18.0005 11.5933
  652 138.425 -1.92465 -6.26703
  653 120.885 -0.176960 -4.93346
  654 55.0529 -1.87086 -17.8281
  655 55.2377 -1.92839 17.6709
  656 115.862 -10.1044 -5.08981
  657 174.685 38.9267 0.153656
  658 134.457 18.2574 -4.64055
  659 87.7579 -0.871694 -2.07423
  660 87.7746 -0.859242 2.05467
  661 126.089 -3.51516 -0.978314
  662 126.114 -3.52147 1.00812
  663 238.797 31.3010 13.7052
  664 150.685 -0.348439 0.382155
  665 144.846 -0.518987 2.26514
  666 144.204 -0.538221 -2.62646
  667 136.538 -12.6747 3.11932
  668 98.7661 -1.21448 -0.503054
  669 98.7723 -1.20495 0.500241
  670 145.152 23.4034 9.99748
  671 187.707 41.9084 -1.51119
  672 101.215 -7.68416 -8.44896
  673 101.174 -7.60443 8.40012
  674 127.872 -13.1997 -1.85184
  675 134.276 7.97450 -14.1559
  676 161.203 0.355634 7.16427
  677 105.113 -2.01668 -0.947259
  678 105.114 -2.00209 0.942173
  679 90.9429 -8.05079 -17.5109
  680 135.215 -13.0498 -1.83613
  681 111.850 -12.4217 15.3631
  682 52.9292 16.8806 -34.5100
  683 103.990 -9.74738 11.8381
  684 125.304 0.0310043 4.58107
  685 91.0201 -7.95698 17.3834
  686 132.261 -5.79276 4.63188
  687 104.038 -9.70952 -11.9573
  688 105.076 1.30551 1.09279
  689 81.1216 -2.29444 6.44268
  690 81.0474 -2.29836 -6.49430
  691 111.934 -12.7454 -15.5410
  692 138.928 -9.10543 -9.86970
  693 127.210 -1.69353 -0.244173
  694 127.230 -1.71348 0.245197
  695 142.112 -8.99175 9.85727
  696 128.903 -13.4805 2.34631
  697 156.989 14.3935 14.2267
  698 141.308 -2.60081 14.9778
  699 135.964 -4.82147 9.26662
  700 128.892 10.5679 -8.85870
  701 156.203 26.3913 11.2118
  702 134.622 -1.83567 -8.82262
  703 134.554 -4.38765 4.98551
  704 138.174 21.7398 2.51346
  705 136.729 -2.26774 7.76402
  706 42.4591 28.7330 36.0837
  707 127.400 -14.6325 -9.13311
  708 147.540 2.71977 15.3103
  709 149.258 -4.58378 -11.2769
  710 149.813 -0.141408 0.762795
  711 135.963 -4.60219 -7.39038
  712 127.561 -14.7497 8.22300
  713 251.300 22.2346 -3.74206
  714 73.6268 -0.348435 2.46872
  715 73.5338 -0.352440 -2.49496
  716 138.219 -2.41106 -3.56252
  717 150.765 -0.102718 -0.737073
  718 115.629 -10.2652 5.11897
  719 139.513 -5.14210 13.6741
  720 214.968 50.0627 -13.5861
  721 132.228 -9.57143 4.88122
  722 147.142 -9.63692 -6.34129
  723 134.611 -4.26470 -4.90826
  724 150.835 -0.199013 -0.262145
  725 135.800 0.00647117 15.3759
  726 6.03490 4.67533 7.20441
  727 155.151 -6.16787 -21.5038
  728 168.292 9.77377 7.87642
  729 139.788 -14.2348 5.64679
  730 97.7709 -2.45204 2.52605
  731 97.7758 -2.48788 -2.54107
  732 132.962 63.6683 -67.8279
  733 142.191 -9.35050 -9.18586
  734 104.637 0.473229 -2.08794
  735 123.505 0.647944 9.76083
  736 136.892 -6.80171 11.1176
  737 131.219 -11.0577 2.86829
  738 137.131 -12.4404 -17.6470
  739 130.369 -10.3164 -3.07647
  740 154.986 -7.42727 -2.98194
  741 142.619 -1.06009 2.10599
  742 126.452 -7.61155 1.83829
  743 232.935 46.6299 -24.4592
  744 135.283 -3.53090 3.99741
  745 133.044 2.16182 -14.8915
  746 114.446 -1.33811 38.3259
  747 142.877 11.5437 15.3236
  748 122.851 -9.72895 0.640492
  749 93.9577 -7.53654 -12.7388
  750 93.9576 -7.51277 12.6248
  751 129.874 14.6007 -2.07160
  752 132.698 -1.52014 13.3705
  753 134.352 -3.17044 -11.5070
  754 126.601 -7.76316 -1.88516
  755 122.295 -11.0259 2.47817
  756 139.276 23.1090 -2.86216
  757 131.052 -11.3407 -2.34885
  758 131.353 -8.29539 4.70830
  759 133.394 -1.59738 0.782230
  760 133.485 -1.54968 -0.778683
  761 179.523 39.7441 1.56531
  762 147.247 -12.4771 -3.27517
  763 136.387 -4.10691 7.34238
  764 142.709 -1.05311 -1.93039
  765 143.419 0.983410 -15.7226
  766 164.176 8.48569 -10.0317
  767 77.5961 -0.0989446 -1.13895
  768 77.6461 -0.0977013 1.12581
  769 1.04346 -2.74472 -1.97229
  770 139.172 -0.133950 2.90507
  771 126.584 -0.243787 -10.8391
  772 131.157 -1.22320 9.63760
  773 121.365 14.3679 56.6996
  774 149.414 30.9927 -0.348882
  775 105.695 -7.71175 6.46113
  776 17.1442 0.440695 -6.89553
  777 17.7143 0.329122 6.97195
  778 129.885 -0.931088 -10.8360
  779 106.008 -7.79257 -6.45618
  780 141.848 -1.16275 1.63329
  781 70.3734 -3.09630 12.1493
  782 69.7414 -3.08676 -12.1633
  783 135.283 -3.42403 -3.89669
  784 84.3734 -2.24496 -5.59015
  785 84.4146 -2.22896 5.53430
  786 141.066 -1.24841 -4.37543
  787 106.257 -2.91916 -1.64597
  788 106.256 -2.89813 1.64605
  789 154.204 -0.983685 -11.3725
  790 138.007 -1.42261 -15.5022
  791 67.9462 -0.468386 -3.16810
  792 68.0886 -0.464079 3.12794
  793 2.56843 1.74646 -4.04749
  794 3.21692 1.83966 4.26773
  795 109.987 0.503851 -3.80429
  796 126.231 -14.1899 -6.61187
  797 -1.49458 -1.04885 2.53832
  798 -1.29586 -1.20977 -2.50196
  799 131.511 -2.54174 1.64037
  800 142.875 -11.0939 -5.69024
  801 146.746 21.8418 -11.6996
  802 142.511 -1.03731 -1.54836
  803 311.717 61.8231 -58.5482
  804 131.484 -2.53160 -1.62027
  805 198.915 38.2581 2.75246
  806 140.357 4.10150 -16.1294
  807 155.657 11.7210 -14.5113
  808 24.2849 -0.290248 -6.41990
  809 24.7958 -0.329596 6.40671
  810 85.6673 -1.31760 3.27733
  811 85.6395 -1.32928 -3.31083
  812 81.1948 -0.222505 0.606155
  813 81.1745 -0.224747 -0.611908
  814 157.032 26.5283 -11.1545
  815 90.8591 -0.627613 -0.876996
  816 90.8711 -0.620153 0.870980
  817 133.121 -1.33784 -13.9431
  818 195.720 18.7853 14.8153
  819 118.745 2.57859 -8.37136
  820 39.6130 -0.371834 6.93427
  821 39.2359 -0.375111 -6.99373
  822 157.455 3.68898 40.3080
  823 138.056 -2.43183 3.67709
  824 121.718 8.01094 -3.49118
  825 54.6648 -0.107017 4.76037
  826 54.3554 -0.0805630 -4.79919
  827 83.2186 -0.474612 -1.59251
  828 83.2459 -0.467774 1.57537
  829 14.6954 13.1994 10.9516
  830 127.404 2.99626 12.5141
  831 142.283 20.9994 -9.95714
  832 153.783 17.8647 -14.2953
  833 99.6489 -3.89398 -4.09899
  834 99.5831 -3.86175 4.09000
  835 158.969 34.1325 5.14199
  836 138.014 -1.01813 -0.220858
  837 138.018 -1.01007 0.245293
  838 135.956 -4.01540 -9.30010
  839 113.215 -7.64987 3.50572
  840 125.417 -14.1048 6.66929
  841 148.394 -12.1598 10.5165
  842 112.053 -3.29907 -0.830655
  843 112.049 -3.28432 0.822635
  844 128.046 11.8418 5.67484
  845 119.935 1.57994 -9.05785
  846 33.3896 37.6468 37.5481
  847 122.696 -10.9388 -2.16975
  848 123.048 -5.50683 0.774942
  849 123.115 -5.51439 -0.780435
  850 135.394 -1.97030 14.7126
  851 134.624 -8.81155 -7.22536
  852 119.749 -7.99983 -1.00320
  853 280.840 9.10703 -14.1511
  854 113.710 -10.8626 7.25792
  855 113.628 -11.0085 -7.38650
  856 135.363 -1.58696 7.51873
  857 205.851 52.7669 -10.2853
  858 106.427 -9.80194 -9.30720
  859 118.137 -13.3604 8.62888
  860 106.386 -9.67965 9.21720
  861 115.569 -4.70405 -0.888408
  862 115.562 -4.68528 0.879139
  863 16.3882 7.22427 9.56087
  864 145.574 10.9002 -15.5947
  865 110.655 -4.39659 -1.69582
  866 110.672 -4.34944 1.70289
  867 109.131 -1.83583 -0.199812
  868 109.127 -1.82165 0.198054
  869 120.731 -2.35990 0.144955
  870 120.715 -2.34232 -0.145363
  871 96.8978 -1.99355 -2.19880
  872 96.9015 -1.96999 2.18746
  873 111.141 -5.95505 -2.67051
  874 111.152 -5.91016 2.68161
  875 2.52540 -1.60881 -0.841197
  876 169.244 31.7577 8.80747
  877 145.504 -5.05289 -12.8124
  878 118.055 -13.1693 -8.73276
  879 127.738 -4.06524 1.65229
  880 127.679 -4.01967 -1.61322
  881 139.193 0.203716 15.8272
  882 152.543 -10.8891 -5.21772
  883 135.441 9.05847 -49.0253
  884 59.8634 -0.868240 23.9310
  885 -2.83004 1.39899 -1.43168
  886 -2.51224 1.57552 1.61372
  887 16.2542 7.68506 -9.75076
  888 136.408 -3.83891 5.85865
  889 144.093 -0.850264 -2.49201
  890 129.327 -12.3804 20.4897
  891 59.7159 -0.796335 -24.0342
  892 144.144 -11.7311 4.31792
  893 161.558 -5.03917 17.3559
  894 114.299 0.444766 4.03941
  895 132.222 12.5781 9.70365
  896 70.6156 -4.02543 17.6988
  897 70.3324 -4.05854 -17.8272
  898 84.8409 -4.17113 -9.88801
  899 90.2355 -4.30481 -30.6454
  900 143.857 -3.31320 14.2136
  901 199.162 46.2105 5.41440
  902 144.209 5.58175 15.9025
  903 136.345 -2.85301 -8.45226
  904 92.1954 -3.85794 31.4163
  905 174.568 32.0531 -6.93328
  906 16.5805 14.2912 -13.5890
  907 124.939 -0.268742 -4.36986
  908 84.9298 -4.13500 9.79094
  909 104.253 -2.36810 1.46745
  910 104.253 -2.38611 -1.47189
  911 134.829 -8.76545 7.43968
  912 140.678 -0.766006 0.652601
  913 102.949 1.01600 -38.2333
  914 148.634 -0.282253 1.18458
  915 147.352 -0.226310 -1.48972
  916 107.300 0.893215 -3.48741
  917 141.856 -0.557413 -2.58671
  918 104.727 -5.02513 -3.69378
  919 104.797 -4.94626 3.70354
  920 -3.65884 1.23010 -2.13431
  921 -4.94906 0.741073 2.21945
  922 140.681 -0.703644 -0.655042
  923 44.8182 -0.985532 16.1219
  924 44.5231 -0.882208 -16.2212
  925 149.281 21.8760 12.4009
  926 274.063 4.92817 4.42011
  927 140.219 15.6472 12.8406
  928 160.661 -5.78558 3.92971
  929 138.626 -7.66707 11.2595
  930 172.879 36.3500 -5.26180
  931 104.811 0.393250 2.62539
  932 133.500 -3.04075 -2.51985
  933 138.086 7.43024 -15.5217
  934 168.640 4.73673 -4.27448
  935 129.880 -8.00925 -3.82216
  936 64.0945 -0.388510 -3.55835
  937 64.1713 -0.374926 3.50468
  938 137.271 -3.14531 -6.73447
  939 4.23441 5.49045 0.741002
  940 131.723 -13.6478 -0.469544
  941 112.180 3.22254 -0.360931
  942 171.504 37.9657 -3.50203
  943 26.3358 19.6646 -22.9936
  944 131.171 -0.972371 -8.63742
  945 89.4381 -1.58817 -3.03896
  946 89.4515 -1.56861 3.00933
  947 0.681590 -3.87207 2.98884
  948 88.2454 -6.69239 -14.2002
  949 134.114 -7.71085 -6.98709
  950 80.8036 0.171788 -0.246592
  951 80.8179 0.172786 0.244546
  952 134.593 16.3610 -7.80047
  953 146.396 -0.328795 -0.240961
  954 146.393 -0.335760 0.311264
  955 88.2781 -6.67141 14.0944
  956 135.425 -0.157979 -3.44054
  957 156.823 1.12128 11.0508
  958 138.981 -1.85212 2.87163
  959 21.0967 5.60742 -12.2691
  960 144.420 -0.784502 2.26805
  961 129.523 1.01146 13.4421
  962 136.640 18.9947 6.94218
  963 137.154 1.59635 -15.9117
  964 93.3424 -5.14953 -8.40551
  965 148.846 -5.21493 10.9201
  966 93.4003 -5.12688 8.31186
  967 3.99793 4.48021 0.00252666
  968 15.2135 2.80391 8.97180
  969 75.2642 -1.40917 5.84966
  970 75.1672 -1.41165 -5.88787
  971 133.592 -3.10450 2.64075
  972 142.774 24.9863 3.87815
  973 72.3662 6.77958 -36.0593
  974 119.504 -7.52313 0.819934
  975 112.131 -11.7982 -11.1956
  976 164.297 31.6118 8.90008
  977 126.133 -2.15451 0.350163
  978 126.129 -2.14093 -0.350566
  979 138.677 -2.47112 -4.90235
  980 126.789 10.9053 -5.23864
  981 297.587 86.5871 58.4954
  982 25.2943 1.54018 -11.9995
  983 25.7372 1.28310 12.0310
  984 1.87737 -3.09210 0.303198
  985 127.278 7.00470 10.7519
  986 112.082 -11.8668 11.1054
  987 139.567 -6.54754 -12.6967
  988 151.952 12.4495 15.5479
  989 146.864 -11.8532 -13.1975
  990 215.092 45.3884 14.3695
  991 123.697 -1.93681 -0.000250885
  992 123.681 -1.91863 0.000568368
  993 145.394 -5.86822 12.1984
  994 9.79252 14.8514 16.3974
  995 63.2595 -1.39466 8.41169
  996 63.0457 -1.37705 -8.51144
  997 76.2798 -3.85484 11.4528
  998 76.0060 -3.79878 -11.5031
  999 86.1950 -3.68151 8.16327
  1000 94.2093 -0.813545 -0.405707
  1001 94.2191 -0.807085 0.403736
  1002 244.922 75.6966 -47.4840
  1003 219.208 54.8410 21.5610
  1004 86.1257 -3.70240 -8.24026
  1005 149.814 -0.648203 13.4142
  1006 132.872 13.7952 -9.36145
  1007 93.8461 -8.01198 25.3712
  1008 121.315 -14.3199 -13.2545
  1009 138.794 -1.09302 -5.09462
  1010 61.6109 4.41463 29.2337
  1011 79.1415 -6.06841 20.2825
  1012 121.266 6.14656 -6.71054
  1013 140.206 -2.73847 -15.1218
  1014 184.057 70.2846 77.9058
  1015 114.066 3.41580 4.75585
  1016 157.277 34.2122 -0.614323
  1017 116.389 4.43715 -43.5278
  1018 117.445 -12.4393 -7.38161
  1019 150.964 -0.100102 -0.605702
  1020 143.185 13.1829 -14.9343
  1021 81.8264 -0.583463 2.06755
  1022 81.7899 -0.589512 -2.08992
  1023 2.90589 0.579228 -3.83133
  1024 93.3378 -4.40206 -6.98707
  1025 79.0504 -6.14808 -20.4484
  1026 93.2559 -4.38983 6.90084
  1027 136.948 -4.13051 13.9802
  1028 122.679 -7.62105 0.333940
  1029 128.336 2.32696 -13.0009
  1030 131.989 16.5141 2.72969
  1031 182.356 10.3479 4.83052
  1032 135.922 -10.2911 7.18589
  1033 84.6141 -6.87333 -15.5422
  1034 127.128 4.45179 -12.1374
  1035 94.7165 -7.89863 -25.5213
  1036 183.493 40.2079 -0.445544
  1037 123.246 8.03470 6.10397
  1038 158.148 -0.979309 -8.77994
  1039 118.184 -12.4394 6.71983
  1040 135.729 -4.25246 10.8854
  1041 134.984 -7.08208 8.08032
  1042 134.247 -6.70542 7.06182
  1043 166.375 21.0221 -11.8606
  1044 133.695 -2.12871 10.9157
  1045 121.088 -14.3604 13.0291
  1046 129.275 -5.24089 2.61442
  1047 84.6641 -6.88414 15.4441
  1048 121.074 -8.99328 -1.05523
  1049 69.3716 -3.33493 -21.7032
  1050 99.9669 -10.4321 17.1009
  1051 136.373 -0.884284 -5.87556
  1052 132.494 -1.48332 -12.3443
  1053 114.601 -9.17207 -4.34997
  1054 69.4935 -3.43847 21.5188
  1055 122.808 0.266563 -8.48676
  1056 90.9526 -6.18034 -10.9402
  1057 167.186 35.8588 5.73016
  1058 36.1405 6.22460 -20.3252
  1059 293.217 20.7600 28.6367
  1060 66.1096 5.13286 -30.6624
  1061 134.267 -11.1007 -4.73825
  1062 90.9713 -6.12442 10.8413
  1063 121.387 1.22906 9.45870
  1064 66.7484 -1.41813 6.95776
  1065 66.7078 -1.45381 -7.03418
  1066 135.633 -3.74274 -12.9388
  1067 145.498 -0.625916 0.976342
  1068 141.966 -0.281276 2.62245
  1069 139.839 4.67080 16.0712
  1070 130.423 -0.982053 11.5616
  1071 101.826 10.7190 47.1391
  1072 152.019 -0.0732889 0.306545
  1073 140.446 19.1119 10.2276
  1074 117.858 1.64658 8.12575
  1075 143.989 -0.506860 2.53352
  1076 90.2475 -1.04927 -1.67840
  1077 90.2596 -1.03695 1.66534
  1078 56.8140 -1.66548 -11.5887
  1079 57.0583 -1.72505 11.4998
  1080 118.227 5.81773 3.40161
  1081 183.202 9.14289 -11.7106
  1082 168.270 -0.665641 -24.0238
  1083 131.847 -0.103747 -3.54819
  1084 100.020 -10.5122 -17.2377
  1085 114.839 -8.72177 3.82980
  1086 132.670 -0.292491 3.70598
  1087 139.675 -10.0808 -8.38666
  1088 84.6924 -0.234704 1.01763
  1089 84.6754 -0.238601 -1.02508
  1090 134.006 -11.4190 4.73731
  1091 127.203 -2.52474 0.627322
  1092 127.182 -2.52642 -0.617689
  1093 123.669 -12.5048 3.92266
  1094 160.905 -5.27651 -0.367293
  1095 69.7597 -0.137160 -1.96929
  1096 69.8820 -0.132373 1.94604
  1097 108.673 -6.76615 -29.2374
  1098 114.918 -2.75238 0.385216
  1099 114.931 -2.77000 -0.390612
  1100 69.9539 36.8620 51.7486
  1101 160.918 13.1184 -13.1496
  1102 22.7182 11.3393 -15.0626
  1103 139.083 -1.96056 -2.77872
  1104 36.0136 12.6571 -23.2815
  1105 75.4844 -4.85144 -14.7964
  1106 152.160 -0.108852 0.177330
  1107 152.233 -0.0985568 -0.133344
  1108 136.336 -7.73688 -9.70784
  1109 120.779 -13.5026 -18.4803
  1110 36.1526 5.29805 19.3688
  1111 148.172 14.7113 14.6550
  1112 135.002 -1.23186 -0.267050
  1113 135.014 -1.23363 0.280934
  1114 148.291 -9.66768 22.3104
  1115 151.433 30.5794 5.70159
  1116 88.2810 -2.23785 -4.38185
  1117 88.2995 -2.22604 4.34568
  1118 67.7370 7.90378 36.3692
  1119 128.040 0.622053 -12.6007
  1120 39.4523 12.9584 25.0998
  1121 167.280 -3.09108 -6.42597
  1122 162.488 36.3186 1.80012
  1123 111.152 -8.92114 5.45441
  1124 100.598 0.479561 -0.511175
  1125 142.617 -1.17394 3.30450
  1126 148.054 -0.138889 1.29646
  1127 30.1277 0.0707957 -5.80068
  1128 30.5988 0.0543670 5.75786
  1129 113.895 1.82406 -6.00412
  1130 118.771 -3.49659 -0.106764
  1131 118.740 -3.47729 0.104892
  1132 12.2223 17.2635 -17.3944
  1133 19.7138 39.7799 -35.8245
  1134 120.378 -4.71503 -0.110330
  1135 120.430 -4.71787 0.104936
  1136 124.617 -2.95333 0.700999
  1137 124.599 -2.94516 -0.688777
  1138 31.9428 20.5245 25.1188
  1139 96.7984 -1.26911 -0.782542
  1140 96.8061 -1.25912 0.777836
  1141 122.530 9.19872 -0.146970
  1142 160.783 18.7557 -54.5692
  1143 150.868 26.1557 -9.75859
  1144 137.893 -5.25308 -13.2956
  1145 135.889 -6.72682 -9.78416
  1146 111.239 -9.00805 -5.55217
  1147 110.500 0.329054 3.70676
  1148 125.527 7.77038 -8.97973
  1149 123.659 6.58963 8.56001
  1150 129.187 -5.08323 -2.57126
  1151 123.006 -7.46332 -0.421159
  1152 111.329 -7.31842 -4.01704
  1153 133.040 -0.764113 6.91334
  1154 239.813 24.3036 3.41366
  1155 134.050 -2.83290 12.6032
  1156 134.154 8.81203 13.5957
  1157 124.262 -12.2823 -2.73196
  1158 14.3257 2.58411 -8.63997
  1159 126.598 -5.83824 -2.00003
  1160 81.4136 -0.158887 -0.0436066
  1161 81.4258 -0.158296 0.0429087
  1162 155.307 -4.10668 7.65378
  1163 148.051 -12.4333 4.15400
  1164 213.440 38.5074 9.01574
  1165 48.1209 -0.122790 -4.87106
  1166 48.4455 -0.111893 4.83039
  1167 112.289 -2.29307 -0.369015
  1168 112.281 -2.27680 0.365151
  1169 127.044 -11.2408 0.454870
  1170 101.563 0.419299 1.66944
  1171 130.183 -9.26490 3.72463
  1172 6.92440 8.23959 -3.56034
  1173 22.5138 11.4814 14.7466
  1174 86.4047 -4.58269 28.2857
  1175 150.153 28.8267 -6.95638
  1176 144.556 -0.371441 -1.99737
  1177 152.848 -0.213291 0.132063
  1178 153.019 -0.303879 -0.0905057
  1179 85.1207 -0.249705 -0.157947
  1180 85.1342 -0.247850 0.156402
  1181 138.337 8.86816 15.5039
  1182 207.128 35.7746 -0.753695
  1183 142.331 23.6767 -6.96194
  1184 106.783 -7.74951 29.0456
  1185 85.9419 -4.38918 -28.2361
  1186 95.0270 -6.52073 -9.75563
  1187 133.634 -3.64356 3.31184
  1188 187.422 41.0607 0.00290079
  1189 95.0272 -6.47831 9.66966
  1190 136.785 -2.26965 2.51034
  1191 120.196 4.38934 8.15412
  1192 133.508 4.12209 14.8397
  1193 192.247 43.0846 3.45414
  1194 112.526 -2.97409 0.704701
  1195 112.535 -2.99085 -0.711813
  1196 138.470 -2.49703 5.08439
  1197 79.5192 -0.918743 3.26167
  1198 79.4623 -0.928477 -3.29560
  1199 135.548 -1.71814 -1.19305
  1200 55.1701 32.6036 -49.8259
  1201 117.295 -6.55381 -31.0813
  1202 109.273 -3.50157 -1.46181
  1203 109.281 -3.48324 1.46193
  1204 146.186 -0.583845 0.862599
  1205 137.688 -1.67431 2.01644
  1206 7.11605 8.60607 6.12236
  1207 150.707 -0.129449 0.701468
  1208 17.1862 21.2581 21.0867
  1209 134.299 -1.88348 -1.51765
  1210 -0.223996 -3.36536 -2.93482
  1211 93.9477 -9.15414 -21.8434
  1212 93.6632 -8.92757 21.6128
  1213 150.708 -0.229869 -0.768290
  1214 127.434 -6.71327 -2.32929
  1215 146.051 -0.521393 -0.900744
  1216 115.179 -3.76288 -0.554122
  1217 115.163 -3.74606 0.543506
  1218 135.455 -1.70364 1.12788
  1219 126.504 -5.72635 1.97899
  1220 121.472 -3.89312 -0.394773
  1221 121.520 -3.90691 0.411538
  1222 145.955 -0.538125 -0.740797
  1223 125.237 -13.1132 -20.9107
  1224 142.565 -0.747197 -0.774724
  1225 134.905 -1.94150 1.61151
  1226 91.7943 -1.09215 -1.22126
  1227 91.8054 -1.08099 1.21229
  1228 103.423 -1.57826 -0.576068
  1229 103.425 -1.56603 0.572214
  1230 170.671 26.4932 10.2065
  1231 143.221 -10.9325 6.57459
  1232 97.6811 -0.371590 36.0242
  1233 75.7356 -0.156835 1.24971
  1234 75.6704 -0.158389 -1.26408
  1235 135.034 -2.45496 9.53644
  1236 129.531 -1.85439 0.402187
  1237 129.539 -1.84691 -0.401913
  1238 147.614 28.9787 3.22735
  1239 136.401 -14.2320 16.2439
  1240 76.2409 -1.15227 4.61950
  1241 76.1615 -1.16175 -4.65836
  1242 129.271 -3.07412 1.41406
  1243 129.243 -3.09409 -1.38118
  1244 133.566 -3.59387 -3.20260
  1245 121.057 0.0127893 4.40037
  1246 214.056 53.1228 -16.6082
  1247 135.875 -4.90820 -8.62978
  1248 22.1445 5.52784 12.6438
  1249 140.494 -7.42713 11.9453
  1250 110.545 2.32606 -3.27954
  1251 7.91518 6.17770 4.25237
  1252 187.137 20.0834 0.322675
  1253 137.036 -6.18667 -11.9390
  1254 111.115 1.50473 5.01745
  1255 76.0388 -4.85728 14.7591
  1256 139.503 -10.7441 7.59182
  1257 205.045 37.6361 9.83082
  1258 45.6170 6.96098 24.7711
  1259 140.395 -1.56427 -4.36555
  1260 276.478 3.03839 -2.84159
  1261 286.243 4.34824 12.7569
  1262 306.517 10.6651 -30.1420
  1263 135.563 -4.17704 -10.5753
  1264 135.709 -6.13710 9.18340
  1265 138.020 -9.77088 8.80262
  1266 -4.09024 0.417382 2.63516
  1267 -3.73901 0.317538 -2.84835
  1268 134.564 -14.8158 -7.00960
  1269 138.102 -13.9002 -10.9846
  1270 102.371 0.611345 -2.06667
  1271 134.062 -15.0975 11.0341
  1272 143.001 -6.72751 -12.1571
  1273 2.36858 4.06359 0.0697021
  1274 115.260 -2.09761 0.327560
  1275 115.270 -2.11462 -0.328437
  1276 142.583 -1.03774 3.01276
  1277 136.789 -2.22564 -2.37068
  1278 128.425 -14.0313 -3.32348
  1279 116.629 -6.38805 1.37535
  1280 116.014 -6.30260 -1.56527
  1281 137.778 -2.83123 6.83671
  1282 141.127 -5.13420 -13.7499
  1283 8.22596 6.44249 -4.06016
</Section>

newXOutput 9

<Section columns = "stress_xx | stress_yy | stress_xy">
  1 175.323 0.0115258 0.366772
  2 175.339 0.0133152 -0.368177
  3 91.3991 -0.0499851 -0.133096
  4 -1.17685 -1.16999 -1.69061
  5 324.559 122.365 100.957
  6 321.416 127.111 -101.606
  7 -1.36494 -1.11755 1.79104
  8 91.3854 -0.0503748 0.132656
  9 176.656 -0.271087 0.119521
  10 176.230 -0.438418 -0.0696627
  11 175.734 -0.271463 0.441436
  12 175.246 -0.393096 0.156046
  13 174.205 -0.323439 0.697143
  14 173.271 -0.331643 0.528667
  15 171.140 -0.295518 0.990881
  16 168.174 -0.175973 1.45173
  17 165.513 -0.203729 1.59912
  18 161.632 -0.314375 1.91465
  19 156.332 0.00168697 2.80561
  20 151.432 -0.232615 2.64599
  21 145.955 -0.319788 3.70033
  22 138.032 0.229743 3.19847
  23 132.373 0.324071 3.76343
  24 124.999 0.560061 2.92853
  25 119.931 0.553941 2.94468
  26 112.582 0.807602 1.49612
  27 111.050 1.27706 1.59854
  28 110.136 1.02836 -0.469984
  29 111.406 0.563833 -1.04286
  30 113.735 0.570668 -1.27574
  31 119.235 0.737505 -2.55427
  32 124.575 0.581454 -3.24779
  33 132.479 0.104231 -3.86239
  34 138.815 -0.0910316 -3.54297
  35 145.624 -0.257097 -3.50384
  36 151.818 -0.179922 -2.48744
  37 157.195 -0.180372 -2.14362
  38 161.668 -0.304698 -1.81440
  39 165.709 -0.207720 -1.28597
  40 168.276 -0.236426 -1.37433
  41 170.754 -0.308901 -1.00926
  42 173.134 -0.373090 -0.466239
  43 174.367 -0.294574 -0.531838
  44 175.057 -0.163015 -0.342011
  45 174.663 -0.0617367 -0.310762
  46 176.434 -0.447882 0.0399283
  47 176.723 -0.284755 -0.123456
  48 170.491 -0.0477215 -0.226081
  49 166.380 -0.597004 -0.392745
  50 161.402 -0.904731 -0.277632
  51 155.360 -1.39879 -0.374752
  52 149.670 -1.55068 -0.474691
  53 143.623 -2.00175 -0.447262
  54 138.294 -2.26207 -0.262476
  55 133.622 -2.57929 -0.116077
  56 128.242 -2.15328 -0.117583
  57 122.044 -2.03725 -0.165010
  58 116.062 -1.63092 -0.0684501
  59 110.387 -1.06330 -0.0344457
  60 104.981 -0.774232 -0.00651998
  61 100.221 -0.418428 0.0378229
  62 95.3263 -0.128648 -0.154482
  63 91.4714 0.124537 0.170064
  64 89.7676 0.381457 0.105896
  65 91.0078 -0.00598762 0.265636
  66 89.7734 -0.0642767 0.316180
  67 88.6643 -0.0900499 0.395779
  68 87.1382 -0.0221992 0.525164
  69 85.2090 -0.0133727 0.668187
  70 83.8429 -0.135502 1.31585
  71 79.6924 0.118420 1.44244
  72 76.8100 -0.0158370 1.66720
  73 72.5148 -0.0859786 1.88697
  74 67.5475 -0.139926 2.30226
  75 61.3464 -0.0373388 2.79520
  76 53.7824 0.0309687 3.07026
  77 47.3449 -0.0820703 4.38080
  78 34.4562 0.419275 4.10824
  79 25.7892 0.363112 4.34842
  80 15.5067 -0.0586823 4.78685
  81 7.06983 0.835050 4.92759
  82 -2.48469 1.22250 2.86082
  83 -9.30464 1.23546 0.897741
  84 -8.75101 1.16358 -0.625990
  85 -8.05278 0.954421 -2.47426
  86 -4.70340 -0.350663 -2.30533
  87 -0.606424 -4.51597 -2.53149
  88 0.394672 -8.38684 -3.22075
  89 1.17197 -13.5264 -1.93787
  90 2.64705 -14.3496 -0.205878
  91 5.66379 -5.23389 7.02907
  92 17.2409 23.2273 25.1580
  93 105.384 91.7637 89.5573
  94 391.366 57.7772 66.3341
  95 350.951 8.33349 21.8585
  96 324.742 3.39864 6.68938
  97 315.033 2.85536 0.538640
  98 320.062 3.84105 -5.75329
  99 349.921 7.69321 -17.2753
  100 416.864 27.9167 -57.7472
  101 62.0655 92.8967 -74.4101
  102 12.9363 14.6703 -20.5680
  103 6.16134 -4.61271 -7.22843
  104 2.46392 -14.4950 -0.923989
  105 0.639495 -10.4088 2.25267
  106 0.849923 -10.5437 2.81371
  107 0.0215691 -3.92711 2.80005
  108 -4.90352 -0.247184 2.19759
  109 -8.31219 0.715917 2.17062
  110 -9.20625 1.41854 0.679067
  111 -9.61672 1.22114 -0.814676
  112 -3.14245 1.25318 -2.66739
  113 6.47871 0.842758 -4.69072
  114 14.9013 0.0280792 -4.70754
  115 25.1684 0.392970 -4.35974
  116 33.8921 0.430966 -4.14275
  117 46.9067 -0.0838550 -4.42152
  118 53.4062 0.0351216 -3.10307
  119 61.0189 -0.0357556 -2.83328
  120 67.3776 -0.153898 -2.32227
  121 72.2922 -0.0825230 -1.89352
  122 76.6429 -0.0103550 -1.68651
  123 79.5573 0.116763 -1.46049
  124 83.7483 -0.136722 -1.33119
  125 85.1352 -0.0141699 -0.677708
  126 87.0848 -0.0229423 -0.533037
  127 88.6262 -0.0912657 -0.402060
  128 89.7467 -0.0653154 -0.320595
  129 90.9875 -0.00691265 -0.268487
  130 89.7518 0.380846 -0.107249
  131 91.4567 0.124261 -0.170893
  132 95.3109 -0.129721 0.153965
  133 100.205 -0.421107 -0.0388956
  134 104.968 -0.780220 0.00524993
  135 110.377 -1.07165 0.0332064
  136 116.058 -1.64294 0.0672502
  137 122.045 -2.05232 0.164083
  138 128.250 -2.17060 0.116732
  139 133.635 -2.59839 0.115764
  140 138.310 -2.28101 0.263139
  141 143.645 -2.01898 0.449151
  142 149.687 -1.56276 0.481548
  143 155.370 -1.40955 0.407168
  144 161.427 -0.847911 0.284021
  145 166.498 -0.578301 0.384308
  146 170.512 -0.0738872 0.222901
  147 151.151 -14.1877 -2.06453
  148 151.035 -13.9989 2.11959
  149 157.729 22.7443 -8.30535
  150 169.014 10.0027 17.8640
  151 127.893 -12.2193 -27.4414
  152 128.902 -12.2139 26.5213
  153 123.252 -5.34006 2.98215
  154 123.267 -5.41805 -2.98658
  155 179.865 6.40430 -14.2005
  156 150.743 -5.34960 4.04891
  157 150.682 -5.21500 -3.99671
  158 194.868 43.8961 2.52023
  159 153.776 -0.243695 -17.1973
  160 112.977 -9.05084 -12.1836
  161 112.969 -8.97133 12.0652
  162 154.204 -3.45689 15.6430
  163 145.593 10.5778 10.1215
  164 59.4947 9.82695 -32.7135
  165 66.1917 9.29033 34.5071
  166 190.644 1.95550 3.22478
  167 154.883 -5.88328 -11.1053
  168 205.866 45.2820 -2.21930
  169 139.104 -3.89840 0.372479
  170 139.072 -3.88342 -0.358469
  171 157.285 -1.76743 -1.79468
  172 157.827 -1.57066 1.55912
  173 107.636 -1.64092 -1.86185
  174 107.646 -1.62298 1.84989
  175 169.941 -4.78924 34.8220
  176 140.702 5.76814 -10.8865
  177 91.4647 -6.93516 -19.8637
  178 91.7425 -6.88309 19.7203
  179 102.479 -3.50250 -6.39437
  180 102.483 -3.46034 6.33980
  181 155.696 -4.02094 9.43178
  182 141.166 -9.73788 0.422630
  183 140.641 -9.66500 -0.178650
  184 161.435 -15.5519 -1.49705
  185 162.240 -14.8145 -0.534711
  186 223.770 52.5557 -6.29917
  187 160.913 25.9830 7.78851
  188 161.623 9.94662 -17.7509
  189 169.512 -1.82699 -40.7144
  190 160.890 -9.03271 -12.8567
  191 162.242 -6.42412 14.9571
  192 134.844 -15.3410 13.0442
  193 134.902 -15.2374 -12.9978
  194 143.356 1.78358 13.1341
  195 64.5863 -1.49583 -24.2055
  196 64.7575 -1.64389 24.0449
  197 253.560 38.2164 5.38804
  198 152.223 -9.03152 7.26827
  199 158.144 -2.81204 -6.23188
  200 123.974 -3.09477 -1.29176
  201 123.973 -3.07664 1.28621
  202 151.011 -1.94568 -12.0090
  203 172.387 25.3868 -14.4278
  204 142.980 12.8024 -2.03480
  205 91.9096 -3.38956 9.10777
  206 91.7630 -3.40219 -9.18429
  207 160.853 -1.66788 3.50455
  208 155.555 2.93118 17.6558
  209 125.964 -9.31830 -5.52965
  210 125.046 -8.82637 5.70227
  211 184.282 27.3340 13.6430
  212 218.690 28.9344 2.74821
  213 13.9204 11.1643 -8.59939
  214 12.8482 10.3213 7.27169
  215 88.8874 25.1790 58.4338
  216 150.664 -9.99003 -5.78908
  217 161.502 -1.60382 -3.17068
  218 141.617 1.19521 -12.0871
  219 97.8770 -1.05615 -2.82150
  220 97.9049 -1.04387 2.79288
  221 135.000 -6.38701 -0.728728
  222 135.061 -6.42259 0.649830
  223 152.440 -2.03169 10.2600
  224 177.188 -10.2996 2.54205
  225 174.316 35.9360 -4.24301
  226 136.718 -13.2912 -5.75071
  227 174.035 -2.99878 12.0752
  228 147.772 -2.37789 0.765228
  229 147.778 -2.35608 -0.763925
  230 135.653 -13.2260 6.02420
  231 155.982 -9.84386 10.5719
  232 222.167 27.3947 -11.7467
  233 47.7768 28.4941 -41.7390
  234 130.000 4.46853 2.57348
  235 155.881 13.7678 14.8320
  236 167.065 -1.13179 -16.1614
  237 155.730 -5.56350 -14.7411
  238 80.9641 -2.70757 -11.4817
  239 81.2610 -2.66505 11.4371
  240 156.072 -1.82612 -8.02109
  241 148.830 -3.68187 2.24645
  242 148.760 -3.67427 -2.18205
  243 29.9178 2.92867 -15.1643
  244 30.4476 2.56989 15.1187
  245 166.764 -14.5457 -11.6610
  246 165.188 -0.464876 0.528801
  247 165.389 -0.475021 -0.560712
  248 152.041 12.5956 -13.5368
  249 132.795 2.46648 7.85023
  250 286.082 45.8626 30.6152
  251 283.953 32.3416 -19.3092
  252 202.562 44.0935 -0.637852
  253 126.281 -6.00789 36.7407
  254 115.661 -3.81187 -38.4854
  255 132.117 -2.70915 -0.357812
  256 132.102 -2.68936 0.354032
  257 108.539 -3.02895 3.81185
  258 108.544 -3.07265 -3.85121
  259 160.447 -1.64024 5.05975
  260 155.376 -11.0220 -8.88352
  261 98.1897 -0.228722 -0.644065
  262 98.2068 -0.225094 0.639154
  263 153.405 -6.13966 -7.00982
  264 63.1120 -2.10803 -15.8701
  265 63.4095 -2.11532 15.7450
  266 155.187 -6.67511 11.9537
  267 117.898 -12.5164 22.0364
  268 118.226 -12.7419 -21.9710
  269 132.049 4.96008 -3.65328
  270 113.913 -1.82539 -1.24798
  271 113.919 -1.81173 1.24202
  272 144.502 -0.386426 9.74244
  273 173.566 31.9784 10.0514
  274 90.8612 -1.18678 4.85692
  275 90.7899 -1.19735 -4.90374
  276 159.783 -13.2806 6.64889
  277 147.917 -16.5375 -14.2440
  278 165.698 -0.686276 1.66319
  279 113.024 -6.86520 -8.24979
  280 112.808 -6.78514 8.21283
  281 206.341 19.8514 51.6439
  282 94.6392 -7.60548 26.4639
  283 153.346 21.5972 -0.885042
  284 196.354 21.3925 -9.75943
  285 147.112 -11.3916 2.79674
  286 147.985 -16.9974 12.7361
  287 94.9556 -7.47451 -26.7868
  288 17.1882 21.1460 18.8486
  289 153.430 -6.16506 7.13389
  290 202.448 26.1202 8.07316
  291 167.130 -0.610634 -1.44156
  292 149.462 5.19647 -15.5771
  293 148.268 -8.36412 4.19462
  294 145.092 -12.2765 -0.495241
  295 148.847 6.80910 14.9845
  296 158.984 -13.2925 -6.04007
  297 226.097 44.3280 -3.45178
  298 148.227 -8.03546 -4.02119
  299 123.826 34.6169 -72.0747
  300 151.836 -16.0708 -1.91424
  301 150.731 -16.5053 3.67048
  302 109.564 -10.0220 -17.3510
  303 97.3255 -0.420541 -1.41553
  304 97.3484 -0.413294 1.40217
  305 109.599 -10.0269 17.2478
  306 160.263 -0.245996 -17.9170
  307 173.913 -7.18024 -8.46157
  308 131.164 -8.00111 -2.66149
  309 131.064 -8.01860 2.71657
  310 158.568 -13.6427 23.2844
  311 157.422 -1.21111 6.07822
  312 193.030 0.521938 6.97748
  313 128.283 -4.59465 -1.40538
  314 128.288 -4.57636 1.39455
  315 116.194 -3.12459 -2.42733
  316 116.190 -3.09325 2.42208
  317 131.325 1.70460 -7.59743
  318 171.087 12.5446 -17.3845
  319 267.590 71.7353 -33.1727
  320 156.362 -1.23867 -0.619742
  321 156.261 -1.22074 0.633446
  322 82.4720 -0.000659579 33.0189
  323 115.722 -5.39065 -5.34276
  324 115.483 -5.36827 5.35493
  325 82.4614 -0.183948 -32.8940
  326 162.527 19.2319 -14.5672
  327 183.213 8.99751 13.6274
  328 158.647 -11.3271 -25.9747
  329 144.844 -5.55672 2.05072
  330 144.689 -5.51186 -1.98326
  331 155.089 -3.10429 -3.51739
  332 144.620 -0.291427 -9.11721
  333 163.361 0.747833 17.6336
  334 163.675 -1.06325 -3.51307
  335 96.4085 -5.99909 13.2717
  336 96.3035 -6.03523 -13.3851
  337 151.371 -0.350642 16.2887
  338 91.2692 -0.808828 -2.85823
  339 91.3278 -0.801009 2.82846
  340 156.178 -3.49330 5.31038
  341 187.053 38.3966 -7.80012
  342 154.993 -3.13180 3.64002
  343 164.418 20.7263 14.6502
  344 157.561 -2.89531 17.0771
  345 123.780 -2.35875 0.440724
  346 123.784 -2.37513 -0.444824
  347 148.552 -0.545362 -14.4367
  348 198.032 41.7782 5.51573
  349 163.574 30.1778 0.307254
  350 100.429 11.7503 -49.4011
  351 9.48570 4.50161 -6.32251
  352 10.5007 4.86358 6.84679
  353 -0.729334 1.02732 3.22396
  354 -0.0730417 0.499767 -3.34698
  355 294.035 20.3797 7.11503
  356 135.658 -11.1065 -3.10672
  357 156.322 -3.36872 -5.18537
  358 140.466 -2.41180 0.330196
  359 140.449 -2.39015 -0.330731
  360 149.618 16.5320 -7.32213
  361 127.968 -13.1428 10.7079
  362 10.7552 15.8652 -11.3987
  363 128.111 -13.1444 -10.9239
  364 151.664 17.2631 7.79287
  365 155.704 -4.08564 -9.00710
  366 165.527 -9.17968 -11.2152
  367 175.496 37.3703 2.93709
  368 165.973 -10.2975 9.48529
  369 66.3446 -1.72324 10.6518
  370 65.9166 -1.69052 -10.7294
  371 37.0237 0.982731 -14.6151
  372 37.4611 0.823162 14.5461
  373 133.548 0.368495 7.70102
  374 260.005 74.9537 27.5660
  375 161.327 -0.965320 -4.38992
  376 124.472 -10.6579 -8.13538
  377 124.352 -10.6248 8.12289
  378 154.591 -3.52021 -11.2575
  379 177.267 -8.56308 2.66111
  380 135.652 -11.0938 3.22107
  381 195.486 0.993903 -14.3628
  382 107.463 -0.932880 -0.448993
  383 107.475 -0.924326 0.444647
  384 151.711 -0.863219 -7.11406
  385 79.7184 -1.21662 -6.96872
  386 79.7744 -1.25401 6.87754
  387 182.167 23.2392 -15.0382
  388 97.9130 6.98167 45.7864
  389 142.097 -7.47485 1.33674
  390 142.240 -7.45951 -1.34517
  391 166.754 28.3596 -9.33881
  392 158.264 -4.65530 -16.2676
  393 159.437 -16.2434 12.2047
  394 131.641 -3.51715 -0.533584
  395 131.622 -3.49736 0.525237
  396 152.866 -11.7753 6.24212
  397 165.369 -0.726615 2.62793
  398 100.858 -3.81945 -8.05546
  399 100.895 -3.81738 7.97877
  400 154.651 5.18238 -17.3907
  401 146.436 -3.09983 1.17188
  402 146.431 -3.10592 -1.15001
  403 151.024 -1.76290 13.3416
  404 139.840 10.1243 3.48062
  405 157.052 -6.58522 14.3097
  406 228.369 48.0713 7.85558
  407 74.3702 -4.02475 -21.2522
  408 74.5871 -4.02719 21.0775
  409 32.9403 17.9430 -24.7888
  410 169.712 -0.415557 0.768518
  411 83.0814 -0.763513 -4.40061
  412 83.1990 -0.747298 4.35864
  413 154.742 -3.99193 11.0556
  414 140.293 -15.2700 6.65728
  415 159.238 -1.86441 2.50103
  416 161.360 8.21821 18.2309
  417 34.6361 19.1049 25.9349
  418 140.519 -15.1906 -6.05822
  419 145.280 -13.5341 -0.470038
  420 45.5856 -0.920418 -13.3123
  421 45.9671 -0.957787 13.2134
  422 111.193 -8.79656 -31.9297
  423 167.138 -2.44801 15.8092
  424 110.725 -8.94238 31.6325
  425 154.196 -8.62041 -9.52914
  426 141.947 9.50897 -7.66044
  427 154.235 -6.60808 9.00202
  428 166.994 -0.664451 -1.81469
  429 4.75429 4.86006 1.78306
  430 32.9746 37.4338 36.9278
  431 147.604 -0.548697 6.82264
  432 122.257 1.59926 3.30956
  433 124.548 1.96876 -4.50163
  434 106.278 -1.85399 -2.68693
  435 106.285 -1.82929 2.66619
  436 152.055 -11.7709 -5.78272
  437 153.248 -2.97763 -14.9824
  438 122.977 2.21607 -1.22349
  439 228.494 54.2978 9.85606
  440 30.3452 10.3779 -18.5153
  441 33.5622 9.52993 19.8538
  442 141.967 -5.04153 1.13594
  443 141.910 -5.02611 -1.09513
  444 189.507 42.2869 -0.650913
  445 120.232 47.2986 73.6611
  446 183.558 -2.68923 -4.06201
  447 103.339 -5.52894 -10.9346
  448 103.384 -5.48824 10.8321
  449 103.656 -2.42441 4.24963
  450 103.641 -2.44364 -4.29358
  451 141.165 3.07033 -12.4228
  452 170.666 -0.174980 -0.520347
  453 136.914 6.19936 6.94486
  454 175.002 21.6516 16.0103
  455 145.503 -10.8190 -2.19425
  456 159.191 -1.76617 -2.42576
  457 167.727 -0.594157 1.67280
  458 170.195 -0.183003 0.298455
  459 170.354 -0.215147 -0.226256
  460 90.4182 -0.189327 1.04441
  461 90.3753 -0.192006 -1.05698
  462 159.503 -10.0841 11.5027
  463 142.569 5.56757 12.0257
  464 149.586 0.591685 -15.8582
  465 157.136 -3.23200 6.76942
  466 230.450 36.5439 -42.6623
  467 157.355 -8.68942 -12.6750
  468 1.03021 2.90131 0.907913
  469 1.03724 2.92904 -0.130800
  470 123.677 -7.12651 4.43803
  471 123.243 -7.03635 -4.39215
  472 197.820 2.96306 22.4278
  473 54.6261 48.3902 -55.2862
  474 154.999 -0.442839 5.36085
  475 177.290 -10.3984 -12.3085
  476 92.2192 -5.42550 15.4113
  477 188.903 33.5298 -11.1845
  478 155.071 -8.35168 10.6962
  479 129.398 -6.26753 -1.98417
  480 129.513 -6.16015 1.97574
  481 133.512 0.684300 -6.80712
  482 91.9226 -5.40674 -15.5184
  483 137.150 0.0243442 6.86304
  484 132.677 -15.1500 -19.5016
  485 132.333 -15.1732 19.5572
  486 160.314 -1.01383 4.83576
  487 144.194 13.5625 1.44002
  488 148.780 2.26674 50.0138
  489 218.043 44.7721 -0.282942
  490 150.185 -2.43229 1.25417
  491 150.197 -2.42266 -1.28867
  492 113.861 -2.10086 -1.64722
  493 113.865 -2.08206 1.63943
  494 59.7500 2.91487 27.5767
  495 155.715 -7.45848 -12.3471
  496 140.932 -3.01915 0.367188
  497 140.917 -3.00664 -0.363190
  498 122.385 -13.0270 15.9727
  499 60.9440 3.82832 -28.2949
  500 156.113 -12.6869 -6.58833
  501 2.49142 0.156853 1.58050
  502 134.699 6.87100 0.498445
  503 150.797 -1.63204 -0.423668
  504 150.790 -1.65728 0.416346
  505 122.479 -13.0084 -16.1038
  506 177.503 -9.26856 16.1271
  507 175.020 6.36668 16.4388
  508 161.974 -0.983681 -1.23616
  509 155.633 -12.8700 6.66377
  510 94.8760 -0.119071 -0.175906
  511 94.8921 -0.118115 0.174024
  512 155.166 -5.92209 -13.0626
  513 149.478 11.0524 13.2100
  514 172.823 4.27359 -16.2184
  515 94.3099 -0.177881 -0.584456
  516 94.3301 -0.175567 0.579732
  517 306.577 44.2535 -39.8131
  518 155.746 18.5986 11.6832
  519 162.129 -0.892441 1.10554
  520 145.616 -13.8288 0.817362
  521 121.360 -4.10275 2.39044
  522 121.363 -4.13642 -2.38570
  523 170.252 -10.3210 5.83506
  524 163.076 -3.21393 -16.5357
  525 182.109 36.0926 9.16439
  526 150.921 2.58236 16.4295
  527 153.113 -2.84316 2.31485
  528 148.943 -15.8306 -18.5910
  529 153.845 -3.77134 12.7784
  530 303.470 13.8593 -5.59831
  531 169.059 -12.7084 -1.51394
  532 160.965 -0.943406 -0.317846
  533 161.001 -1.01285 0.288453
  534 306.592 20.5950 19.7070
  535 146.979 -0.0681164 13.9728
  536 208.379 34.5488 -5.31666
  537 155.734 -4.15836 -6.63260
  538 67.9466 -0.675986 -4.77322
  539 68.1775 -0.643817 4.72110
  540 104.380 -9.81051 -22.1575
  541 104.451 -9.64484 21.9835
  542 153.033 -2.71822 -2.28925
  543 166.274 6.12238 -17.9603
  544 145.949 -9.94127 2.74810
  545 156.466 17.9735 -12.1467
  546 158.504 -1.77343 6.51280
  547 200.126 9.59276 -0.586851
  548 134.890 -4.64268 -0.312387
  549 134.844 -4.62315 0.304268
  550 147.026 -6.91628 3.22277
  551 218.580 42.7294 -1.35318
  552 154.442 6.75905 17.0765
  553 65.5758 16.9512 40.9244
  554 150.476 -9.05513 33.0830
  555 200.519 8.80278 -36.2194
  556 157.942 13.0715 -15.9351
  557 140.912 -12.1155 -28.6165
  558 152.491 -16.6763 -4.83499
  559 159.562 -16.0961 -7.48603
  560 20.3529 25.8830 -24.5724
  561 160.317 -1.92752 -4.13151
  562 242.333 47.2859 -13.1621
  563 147.842 -6.62094 -3.51524
  564 149.154 -4.79129 2.89400
  565 149.012 -4.67671 -2.79061
  566 100.747 -0.641162 -1.27400
  567 100.764 -0.632781 1.26384
  568 13.3625 1.54582 -7.90831
  569 14.2040 1.61721 8.09938
  570 74.8790 -3.56081 -16.2459
  571 75.4795 -3.57892 16.2114
  572 151.174 -8.15281 -6.23226
  573 154.336 -16.7427 5.29349
  574 158.672 -15.0123 2.09062
  575 128.971 -2.28685 -0.405915
  576 128.962 -2.26857 0.403370
  577 122.812 -12.8389 -24.5178
  578 138.118 -11.2674 30.3363
  579 119.735 -12.0646 24.6726
  580 155.273 -3.42280 -16.1323
  581 95.4332 -1.68189 4.84533
  582 95.3876 -1.70016 -4.89081
  583 147.344 8.10016 -13.2515
  584 147.729 -0.256509 -6.19353
  585 185.297 40.5714 -4.21271
  586 119.908 -1.86659 -0.429617
  587 119.908 -1.85287 0.427140
  588 158.298 -0.448320 -3.54228
  589 107.738 -3.77740 -5.28221
  590 107.734 -3.76218 5.23078
  591 88.6397 4.25117 39.3128
  592 154.075 -7.03845 -9.11008
  593 84.9348 -4.41552 28.1900
  594 151.400 -7.80663 6.34355
  595 159.818 -2.15895 4.54331
  596 157.973 -1.32103 -1.11114
  597 108.833 -1.42613 -1.15716
  598 108.843 -1.41367 1.14969
  599 177.624 35.7083 -8.18491
  600 84.8787 -4.23607 -28.3073
  601 150.908 -6.47950 -5.13900
  602 135.554 -2.49239 -0.156678
  603 135.539 -2.47195 0.155882
  604 258.426 34.9517 -6.07195
  605 87.9296 -0.610933 2.69194
  606 87.8515 -0.617087 -2.72007
  607 139.357 3.13475 11.3161
  608 202.730 16.4769 -4.18552
  609 94.5862 0.811715 -39.0522
  610 47.3371 1.32773 -21.0794
  611 47.7556 1.03950 20.9658
  612 118.270 -7.05315 6.45198
  613 119.569 -7.26074 -6.24101
  614 204.130 41.0364 5.14626
  615 157.284 -1.37388 1.01857
  616 132.885 3.64824 -6.81464
  617 167.141 30.2252 7.38152
  618 166.486 31.3747 -4.90671
  619 136.857 -7.63975 -0.574832
  620 137.941 -7.45936 0.0755774
  621 98.5099 21.2922 -56.4129
  622 116.732 -4.11523 -3.52607
  623 116.737 -4.06577 3.51075
  624 304.422 62.2123 46.7316
  625 155.178 -5.04516 14.0362
  626 86.8323 -3.19276 -10.4115
  627 245.214 54.3957 35.0465
  628 87.0420 -3.17325 10.3659
  629 149.337 -5.76301 -38.8140
  630 102.681 -0.568425 -0.470970
  631 102.696 -0.563396 0.468094
  632 127.770 1.09346 5.93853
  633 56.8696 -0.888263 -9.36746
  634 57.2176 -0.890305 9.28755
  635 135.053 -9.64671 2.27188
  636 141.914 -11.4197 -0.0484597
  637 168.633 -0.318151 -1.50673
  638 91.9415 -0.174203 0.759241
  639 91.9102 -0.177150 -0.768543
  640 126.947 -2.89675 -0.553368
  641 126.940 -2.87840 0.547469
  642 147.043 -16.2584 18.8229
  643 168.421 18.8463 -16.2439
  644 110.781 -5.32294 -6.82463
  645 110.691 -5.23103 6.77006
  646 132.464 -9.64151 -3.44992
  647 210.225 46.0296 0.442737
  648 157.701 -15.2130 -1.19456
  649 136.100 -3.24138 -0.0744453
  650 136.077 -3.22292 0.0753718
  651 188.674 20.5278 13.0506
  652 157.831 -2.20234 -7.08234
  653 137.999 -0.199026 -5.59669
  654 62.9436 -2.14003 -20.3711
  655 63.1534 -2.20531 20.1927
  656 132.175 -11.5170 -5.86811
  657 199.181 44.3388 0.166743
  658 153.420 20.8266 -5.26198
  659 100.294 -0.989193 -2.37710
  660 100.313 -0.975094 2.35502
  661 143.799 -4.01465 -1.07353
  662 143.828 -4.02159 1.10723
  663 271.910 35.6277 15.6097
  664 171.660 -0.403392 0.428366
  665 165.093 -0.597273 2.55535
  666 164.369 -0.618310 -2.96584
  667 155.672 -14.4549 3.44470
  668 112.795 -1.38093 -0.578871
  669 112.803 -1.37018 0.575698
  670 165.572 26.6809 11.3224
  671 213.956 47.7472 -1.82458
  672 115.530 -8.75562 -9.67717
  673 115.485 -8.66519 9.62192
  674 145.819 -15.0502 -2.20307
  675 153.189 9.09772 -16.0529
  676 183.712 0.410736 8.00897
  677 119.995 -2.29671 -1.09632
  678 119.996 -2.28026 1.09058
  679 103.816 -9.18310 -20.0114
  680 154.167 -14.8819 -1.98520
  681 127.585 -14.1673 17.5840
  682 60.4389 19.2577 -39.4464
  683 118.668 -11.1125 13.5510
  684 143.007 0.0356947 5.19438
  685 103.905 -9.07634 19.8667
  686 150.816 -6.61080 5.20222
  687 118.722 -11.0690 -13.6862
  688 120.072 1.49842 1.24130
  689 92.7126 -2.61121 7.36397
  690 92.6279 -2.61553 -7.42229
  691 127.679 -14.5363 -17.7868
  692 158.406 -10.3874 -11.1328
  693 145.068 -1.94154 -0.268695
  694 145.090 -1.96415 0.269831
  695 162.023 -10.2585 11.1106
  696 146.990 -15.3711 2.76891
  697 178.977 16.4088 16.0698
  698 161.135 -2.97139 16.9518
  699 155.043 -5.50433 10.4722
  700 147.089 12.0625 -10.0505
  701 178.126 30.0817 12.6689
  702 153.541 -2.09657 -9.98843
  703 153.420 -5.01076 5.61091
  704 157.650 24.7926 2.84957
  705 155.918 -2.59153 8.78115
  706 48.4862 32.8253 41.2561
  707 145.263 -16.6864 -10.5030
  708 168.225 3.09606 17.3194
  709 170.150 -5.22986 -12.7159
  710 170.685 -0.167391 0.856918
  711 155.031 -5.25509 -8.34182
  712 145.450 -16.8198 9.46526
  713 286.049 25.3104 -4.25780
  714 84.2128 -0.395241 2.82138
  715 84.1068 -0.399766 -2.85105
  716 157.569 -2.75947 -4.00879
  717 171.763 -0.122341 -0.828658
  718 131.911 -11.7005 5.90147
  719 159.087 -5.86923 15.4684
  720 244.792 57.1435 -15.7215
  721 150.781 -10.9161 5.46768
  722 167.728 -10.9911 -7.09581
  723 153.484 -4.87093 -5.52371
  724 171.828 -0.233530 -0.292421
  725 154.896 0.00483327 17.4244
  726 6.90836 5.45035 8.29009
  727 176.754 -7.00560 -24.6369
  728 191.783 11.1583 8.80566
  729 159.345 -16.2314 6.54940
  730 111.655 -2.79034 2.90285
  731 111.660 -2.83096 -2.91980
  732 151.273 72.8378 -77.3954
  733 162.111 -10.6666 -10.3461
  734 119.574 0.548767 -2.37177
  735 140.964 0.743164 11.0739
  736 156.100 -7.76140 12.5638
  737 149.631 -12.6093 3.17277
  738 156.296 -14.1856 -20.2166
  739 148.666 -11.7642 -3.41385
  740 176.631 -8.46475 -3.25694
  741 162.548 -1.21961 2.36723
  742 144.215 -8.67973 2.02129
  743 265.300 53.1004 -27.8992
  744 154.242 -4.03526 4.49449
  745 151.778 2.46740 -16.8846
  746 130.468 -1.51975 43.7756
  747 162.957 13.1609 17.3616
  748 140.122 -11.0914 0.806818
  749 107.265 -8.59082 -14.5644
  750 107.266 -8.56403 14.4351
  751 148.213 16.6622 -2.34948
  752 151.372 -1.73597 15.1513
  753 153.235 -3.61907 -13.0281
  754 144.384 -8.85305 -2.07405
  755 139.486 -12.5696 2.90339
  756 158.903 26.3516 -3.24231
  757 149.441 -12.9322 -2.58075
  758 149.786 -9.46169 5.27766
  759 152.081 -1.83377 0.871594
  760 152.183 -1.77953 -0.867481
  761 204.667 45.2748 1.71013
  762 167.821 -14.2257 -3.85859
  763 155.513 -4.69014 8.28938
  764 162.647 -1.21205 -2.16850
  765 163.543 1.11731 -17.7979
  766 187.114 9.68547 -11.2702
  767 88.7518 -0.110665 -1.30324
  768 88.8093 -0.109257 1.28839
  769 1.20188 -3.10132 -2.22542
  770 158.697 -0.155796 3.28633
  771 144.450 -0.274363 -12.2925
  772 149.625 -1.39600 10.9208
  773 138.272 16.4404 64.7092
  774 170.440 35.3247 -0.394942
  775 120.628 -8.78705 7.41512
  776 19.7119 0.500235 -7.89054
  777 20.3590 0.373098 7.97770
  778 148.186 -1.06173 -12.2828
  779 120.982 -8.87873 -7.40983
  780 161.668 -1.33777 1.83258
  781 80.4374 -3.53007 13.8774
  782 79.7180 -3.51905 -13.8925
  783 154.241 -3.91360 -4.38092
  784 96.4161 -2.55400 -6.39157
  785 96.4634 -2.53592 6.32840
  786 160.815 -1.43192 -4.94005
  787 121.289 -3.32469 -1.90302
  788 121.289 -3.30094 1.90317
  789 175.773 -1.12167 -12.8159
  790 157.395 -1.62545 -17.5595
  791 77.7330 -0.532458 -3.61828
  792 77.8949 -0.527556 3.57278
  793 3.02462 1.99333 -4.64644
  794 3.76141 2.10003 4.89822
  795 125.646 0.578078 -4.31900
  796 143.944 -16.1803 -7.62663
  797 -1.69973 -1.19123 2.89105
  798 -1.47528 -1.37698 -2.85187
  799 149.950 -2.90853 1.83104
  800 162.879 -12.6533 -6.36182
  801 167.377 24.9016 -13.2465
  802 162.418 -1.19441 -1.73765
  803 354.442 70.4059 -66.5757
  804 149.920 -2.89714 -1.80849
  805 226.697 43.5643 3.17373
  806 160.078 4.67526 -18.2740
  807 177.459 13.3639 -16.3966
  808 27.8826 -0.332815 -7.34097
  809 28.4621 -0.377604 7.32608
  810 97.9073 -1.49781 3.75118
  811 97.8752 -1.51102 -3.78904
  812 92.8618 -0.251341 0.694640
  813 92.8379 -0.253882 -0.701131
  814 179.067 30.2403 -12.6000
  815 103.824 -0.711191 -1.00711
  816 103.838 -0.702763 1.00033
  817 151.852 -1.52663 -15.8015
  818 222.857 21.5238 17.0911
  819 135.572 2.95166 -9.50262
  820 45.3868 -0.424371 7.92321
  821 44.9592 -0.428129 -7.99062
  822 179.323 4.26331 46.0440
  823 157.386 -2.78313 4.13772
  824 138.949 9.15169 -3.96257
  825 62.5753 -0.120484 5.43572
  826 62.2242 -0.0903148 -5.47965
  827 95.1427 -0.537601 -1.82433
  828 95.1744 -0.529858 1.80497
  829 16.8246 15.0990 12.5758
  830 145.386 3.42319 14.1974
  831 162.309 23.9446 -11.2813
  832 175.353 20.3680 -16.1664
  833 113.777 -4.43362 -4.70394
  834 113.703 -4.39724 4.69402
  835 181.301 38.8950 5.80046
  836 157.313 -1.17458 -0.246225
  837 157.318 -1.16533 0.273945
  838 155.037 -4.58543 -10.5149
  839 129.177 -8.71809 4.05277
  840 143.020 -16.0832 7.68989
  841 169.111 -13.8576 12.1092
  842 127.868 -3.76052 -0.977838
  843 127.864 -3.74395 0.968751
  844 146.134 13.5168 6.43994
  845 136.920 1.80973 -10.2801
  846 38.1148 43.1730 42.9339
  847 139.940 -12.4700 -2.55235
  848 140.348 -6.28064 0.826237
  849 140.425 -6.28965 -0.832630
  850 154.428 -2.25020 16.6677
  851 153.509 -10.0514 -8.13358
  852 136.600 -9.11872 -1.20869
  853 319.471 10.3579 -16.0696
  854 129.725 -12.3822 8.33891
  855 129.630 -12.5480 -8.48531
  856 154.380 -1.81316 8.51069
  857 234.536 60.1625 -11.8968
  858 121.446 -11.1720 -10.6656
  859 134.747 -15.2330 9.91261
  860 121.401 -11.0331 10.5634
  861 131.857 -5.36228 -1.05533
  862 131.849 -5.34118 1.04477
  863 18.7778 8.24909 10.9739
  864 166.016 12.4273 -17.6596
  865 126.278 -5.00996 -1.97180
  866 126.298 -4.95652 1.97991
  867 124.556 -2.09297 -0.233043
  868 124.552 -2.07697 0.231052
  869 137.718 -2.69685 0.146156
  870 137.700 -2.67699 -0.146666
  871 110.667 -2.26756 -2.52520
  872 110.672 -2.24089 2.51243
  873 126.825 -6.78498 -3.09092
  874 126.838 -6.73427 3.10384
  875 2.89944 -1.76568 -1.00880
  876 192.943 36.2023 9.89498
  877 165.888 -5.76681 -14.4720
  878 134.652 -15.0148 -10.0305
  879 145.672 -4.64158 1.83222
  880 145.605 -4.58996 -1.78807
  881 158.747 0.228523 17.9289
  882 173.834 -12.4088 -6.08094
  883 154.297 10.3810 -55.9692
  884 68.3908 -1.00336 27.3522
  885 -3.16586 1.59789 -1.65886
  886 -2.80541 1.79991 1.86624
  887 18.6272 8.77505 -11.1930
  888 155.529 -4.38564 6.60590
  889 164.226 -0.978807 -2.80712
  890 147.427 -14.1196 23.4479
  891 68.2228 -0.922157 -27.4693
  892 164.315 -13.3802 4.79604
  893 184.046 -5.71176 19.9163
  894 130.537 0.509728 4.58517
  895 150.871 14.3514 11.0076
  896 80.6799 -4.59458 20.2189
  897 80.3573 -4.63230 -20.3644
  898 96.9188 -4.75168 -11.3006
  899 102.955 -4.92406 -35.0124
  900 164.026 -3.78396 16.0746
  901 226.910 52.7120 6.37291
  902 164.453 6.36051 18.0082
  903 155.482 -3.25931 -9.55973
  904 105.185 -4.41279 35.8921
  905 198.984 36.5482 -7.74251
  906 18.9811 16.3392 -15.5940
  907 142.593 -0.304770 -4.95489
  908 97.0204 -4.71071 11.1907
  909 119.017 -2.69690 1.69454
  910 119.017 -2.71723 -1.69951
  911 153.742 -9.99876 8.37716
  912 160.334 -0.887001 0.729246
  913 117.394 1.15097 -43.6653
  914 169.366 -0.326469 1.33380
  915 167.925 -0.262434 -1.67988
  916 122.597 1.02447 -3.96050
  917 161.726 -0.637567 -2.92485
  918 119.543 -5.72374 -4.24951
  919 119.623 -5.63428 4.26092
  920 -4.15246 1.40949 -2.41923
  921 -5.62706 0.849232 2.51983
  922 160.337 -0.815776 -0.732674
  923 51.2712 -1.13076 18.4299
  924 50.9364 -1.01336 -18.5426
  925 170.254 24.9378 14.0352
  926 311.784 5.60879 5.01481
  927 159.952 17.8428 14.5539
  928 183.063 -6.57919 4.62522
  929 158.069 -8.74802 12.7181
  930 197.097 41.4275 -5.87749
  931 119.774 0.455027 2.98193
  932 152.211 -3.47751 -2.82224
  933 157.510 8.47407 -17.5943
  934 192.160 5.42315 -4.70235
  935 148.111 -9.13494 -4.27198
  936 73.3384 -0.441392 -4.06260
  937 73.4254 -0.425942 4.00170
  938 156.516 -3.59449 -7.60422
  939 4.86539 6.29474 0.894611
  940 150.195 -15.5625 -0.635696
  941 128.129 3.69070 -0.409727
  942 195.551 43.2584 -3.91099
  943 30.1153 22.4780 -26.3344
  944 149.641 -1.10976 -9.78727
  945 102.194 -1.80533 -3.48103
  946 102.210 -1.78318 3.44755
  947 0.789151 -4.40238 3.39378
  948 100.765 -7.62953 -16.2272
  949 152.929 -8.79698 -7.86790
  950 92.4268 0.196673 -0.283140
  951 92.4439 0.197794 0.280835
  952 153.570 18.6642 -8.84545
  953 166.803 -0.385934 -0.271163
  954 166.800 -0.393757 0.350762
  955 100.803 -7.60588 16.1074
  956 154.459 -0.183130 -3.89547
  957 178.751 1.27803 12.4440
  958 158.429 -2.12279 3.22816
  959 24.1698 6.39588 -14.0599
  960 164.596 -0.903624 2.55382
  961 147.784 1.15718 15.2452
  962 155.899 21.6642 7.87192
  963 156.436 1.81947 -18.0325
  964 106.591 -5.86596 -9.61571
  965 169.680 -5.95189 12.3097
  966 106.657 -5.84043 9.50957
  967 4.59830 5.13825 -0.0435513
  968 17.4612 3.19685 10.2835
  969 86.0472 -1.60322 6.68303
  970 85.9368 -1.60591 -6.72613
  971 152.315 -3.54976 2.95906
  972 162.882 28.4883 4.39354
  973 82.5926 7.72118 -41.1984
  974 136.322 -8.57590 0.997434
  975 127.916 -13.4516 -12.8299
  976 187.334 36.0292 10.0264
  977 143.846 -2.46512 0.380165
  978 143.841 -2.44978 -0.380675
  979 158.100 -2.82694 -5.52813
  980 144.706 12.4501 -5.94448
  981 338.413 98.6526 66.6425
  982 28.9925 1.75236 -13.7319
  983 29.4951 1.45954 13.7674
  984 2.15218 -3.46318 0.385694
  985 145.252 7.99853 12.2007
  986 127.863 -13.5301 12.7273
  987 159.144 -7.47121 -14.3540
  988 173.255 14.1903 17.5876
  989 167.364 -13.5087 -15.1624
  990 245.055 51.6960 16.4433
  991 141.083 -2.21630 -0.00677864
  992 141.064 -2.19573 0.00711682
  993 165.761 -6.69728 13.7731
  994 11.1936 17.1323 18.8023
  995 72.3566 -1.58862 9.60604
  996 72.1137 -1.56854 -9.71892
  997 87.1672 -4.39288 13.0842
  998 86.8554 -4.32872 -13.1409
  999 98.4680 -4.19314 9.33351
  1000 107.627 -0.923022 -0.464863
  1001 107.638 -0.915734 0.462640
  1002 278.673 86.3868 -54.2874
  1003 249.724 62.4837 24.6785
  1004 98.3886 -4.21672 -9.42062
  1005 170.794 -0.744472 15.1506
  1006 151.611 15.7392 -10.6174
  1007 107.084 -9.14832 28.9910
  1008 138.342 -16.3309 -15.1923
  1009 158.259 -1.25111 -5.76208
  1010 70.3609 5.02185 33.4133
  1011 90.3724 -6.92717 23.1755
  1012 138.433 7.02379 -7.61740
  1013 159.885 -3.12753 -17.1177
  1014 209.271 80.4443 88.8392
  1015 130.268 3.90870 5.40104
  1016 179.386 38.9860 -0.693489
  1017 132.657 5.07130 -49.7028
  1018 133.964 -14.1809 -8.48722
  1019 171.981 -0.120648 -0.680528
  1020 163.310 15.0314 -16.9195
  1021 93.5549 -0.661541 2.36617
  1022 93.5128 -0.668387 -2.39145
  1023 3.33256 0.774232 -4.43536
  1024 106.594 -5.01338 -7.99549
  1025 90.2677 -7.01797 -23.3637
  1026 106.502 -4.99970 7.89784
  1027 156.182 -4.71498 15.8257
  1028 139.929 -8.68895 0.312957
  1029 146.441 2.65838 -14.7471
  1030 150.617 18.8411 3.09631
  1031 207.707 11.8587 5.69723
  1032 154.983 -11.7380 8.08129
  1033 96.6251 -7.83809 -17.7602
  1034 145.076 5.08482 -13.7712
  1035 108.071 -9.01959 -29.1607
  1036 209.187 45.7956 -0.540565
  1037 140.682 9.17700 6.92900
  1038 180.246 -1.11195 -9.85519
  1039 134.806 -14.1816 7.73514
  1040 154.786 -4.85473 12.3136
  1041 153.921 -8.08022 9.11286
  1042 153.080 -7.65091 7.95771
  1043 189.648 23.9730 -13.3568
  1044 152.493 -2.43090 12.3629
  1045 138.087 -16.3771 14.9350
  1046 147.420 -5.98119 2.91625
  1047 96.6826 -7.85064 17.6493
  1048 138.103 -10.2510 -1.27369
  1049 79.2400 -3.81308 -24.7974
  1050 114.076 -11.8990 19.5531
  1051 155.525 -1.01267 -6.64976
  1052 151.138 -1.69342 -13.9880
  1053 130.746 -10.4536 -5.02062
  1054 79.3791 -3.93068 24.5882
  1055 140.174 0.307512 -9.62808
  1056 103.859 -7.04284 -12.5088
  1057 190.637 40.8593 6.44321
  1058 41.3352 7.09366 -23.2555
  1059 333.497 23.6074 32.5263
  1060 75.4829 5.83884 -35.0401
  1061 153.097 -12.6599 -5.29556
  1062 103.882 -6.97943 12.3967
  1063 138.564 1.40870 10.7344
  1064 76.3403 -1.61535 7.94640
  1065 76.2944 -1.65592 -8.03306
  1066 154.687 -4.27196 -14.6489
  1067 165.798 -0.724371 1.09407
  1068 161.851 -0.324539 2.96435
  1069 159.490 5.32328 18.2104
  1070 148.796 -1.12047 13.1050
  1071 116.094 12.2346 53.8198
  1072 173.173 -0.0879734 0.343010
  1073 160.220 21.7936 11.5915
  1074 134.566 1.88628 9.22424
  1075 164.132 -0.582032 2.86221
  1076 103.123 -1.19096 -1.92508
  1077 103.138 -1.17701 1.91035
  1078 64.9879 -1.89959 -13.2367
  1079 65.2652 -1.96756 13.1362
  1080 134.988 6.65050 3.86245
  1081 208.645 10.4847 -13.5234
  1082 191.646 -0.708231 -27.5166
  1083 150.414 -0.119718 -4.01960
  1084 114.135 -11.9901 -19.7088
  1085 131.018 -9.94058 4.42761
  1086 151.346 -0.334825 4.19804
  1087 159.251 -11.4994 -9.44027
  1088 96.8294 -0.264258 1.16528
  1089 96.8093 -0.268667 -1.17369
  1090 152.800 -13.0229 5.29436
  1091 145.061 -2.88751 0.688011
  1092 145.037 -2.88952 -0.677175
  1093 141.042 -14.2566 4.55468
  1094 183.345 -6.00500 -0.569009
  1095 79.8097 -0.155600 -2.24960
  1096 79.9488 -0.150171 2.22330
  1097 123.929 -7.72687 -33.4070
  1098 131.121 -3.13994 0.462971
  1099 131.137 -3.15980 -0.469122
  1100 79.7751 42.1123 59.0888
  1101 183.432 14.9606 -14.8328
  1102 26.0016 12.9487 -17.2677
  1103 158.543 -2.24637 -3.12331
  1104 41.1746 14.4387 -26.6411
  1105 86.2410 -5.53247 -16.9037
  1106 173.323 -0.129942 0.199727
  1107 173.405 -0.118213 -0.149916
  1108 155.463 -8.82719 -10.9584
  1109 137.719 -15.4016 -21.1510
  1110 41.3501 6.03781 22.1611
  1111 168.976 16.7709 16.5900
  1112 153.901 -1.41803 -0.298123
  1113 153.915 -1.41997 0.313832
  1114 168.964 -11.0031 25.5450
  1115 172.729 34.8528 6.44812
  1116 100.868 -2.54593 -5.01546
  1117 100.889 -2.53262 4.97461
  1118 77.3219 9.00548 41.5555
  1119 146.101 0.712511 -14.2911
  1120 45.0927 14.7851 28.7144
  1121 190.573 -3.49895 -7.47885
  1122 185.313 41.3780 2.02835
  1123 126.827 -10.1667 6.27578
  1124 114.994 0.553781 -0.580666
  1125 162.565 -1.34609 3.72683
  1126 168.719 -0.163139 1.46131
  1127 34.5677 0.0794148 -6.62898
  1128 35.1019 0.0607677 6.58041
  1129 130.072 2.09111 -6.81737
  1130 135.494 -3.98892 -0.156790
  1131 135.459 -3.96721 0.154592
  1132 13.9725 19.9450 -19.9518
  1133 22.5072 45.7228 -40.9794
  1134 137.317 -5.37754 -0.0783534
  1135 137.376 -5.38045 0.0720655
  1136 142.128 -3.37380 0.766326
  1137 142.107 -3.36468 -0.752563
  1138 36.5108 23.4462 28.7513
  1139 110.562 -1.44264 -0.900443
  1140 110.571 -1.43136 0.895141
  1141 139.872 10.5065 -0.166275
  1142 183.056 21.5098 -62.2884
  1143 172.072 29.8164 -11.0373
  1144 157.247 -5.99490 -15.0425
  1145 154.956 -7.67589 -11.0512
  1146 126.924 -10.2654 -6.38747
  1147 126.230 0.379095 4.20882
  1148 143.267 8.87360 -10.1905
  1149 141.148 7.52721 9.71607
  1150 147.320 -5.80182 -2.86766
  1151 140.301 -8.50958 -0.412875
  1152 127.034 -8.33889 -4.63145
  1153 151.757 -0.873426 7.83043
  1154 273.052 27.6616 3.88313
  1155 152.898 -3.23393 14.2745
  1156 153.053 10.0523 15.4184
  1157 141.718 -14.0024 -3.19880
  1158 16.4513 2.94553 -9.90451
  1159 144.381 -6.66037 -2.21533
  1160 93.1218 -0.178619 -0.0506858
  1161 93.1366 -0.177948 0.0499017
  1162 177.011 -4.68290 8.57692
  1163 168.735 -14.1739 4.86184
  1164 243.182 43.8436 10.3093
  1165 55.1133 -0.138295 -5.56277
  1166 55.4812 -0.125863 5.51673
  1167 128.138 -2.61535 -0.435143
  1168 128.130 -2.59699 0.430751
  1169 144.885 -12.8162 0.431591
  1170 116.090 0.483225 1.89682
  1171 148.456 -10.5659 4.15517
  1172 7.94024 9.44731 -4.12952
  1173 25.7647 13.1125 16.9036
  1174 98.6060 -5.24092 32.3169
  1175 171.271 32.8582 -7.86891
  1176 164.774 -0.426288 -2.25683
  1177 174.102 -0.246161 0.147550
  1178 174.295 -0.349185 -0.100540
  1179 97.3213 -0.280926 -0.181863
  1180 97.3374 -0.278829 0.180124
  1181 157.797 10.1124 17.5751
  1182 236.014 40.7248 -0.858525
  1183 162.373 26.9958 -7.88668
  1184 121.785 -8.84801 33.1883
  1185 98.0781 -5.02122 -32.2599
  1186 108.496 -7.42974 -11.1601
  1187 152.367 -4.16347 3.71639
  1188 213.603 46.8168 0.166908
  1189 108.497 -7.38175 11.0628
  1190 155.935 -2.59938 2.81651
  1191 137.219 5.01811 9.25682
  1192 152.310 4.70328 16.8277
  1193 219.112 49.0891 4.05679
  1194 128.407 -3.39083 0.828680
  1195 128.416 -3.40971 -0.836753
  1196 157.867 -2.85689 5.73410
  1197 90.9151 -1.04390 3.73029
  1198 90.8500 -1.05492 -3.76864
  1199 154.524 -1.97137 -1.33218
  1200 62.9601 37.2318 -56.9153
  1201 133.726 -7.47735 -35.5163
  1202 124.712 -3.98951 -1.69810
  1203 124.722 -3.96885 1.69828
  1204 166.572 -0.675623 0.968321
  1205 156.956 -1.92141 2.26152
  1206 8.15260 9.89373 7.05998
  1207 171.705 -0.151388 0.788599
  1208 19.6549 24.3625 24.1676
  1209 153.110 -2.15964 -1.69601
  1210 -0.249955 -3.82970 -3.34105
  1211 107.209 -10.4475 -24.9624
  1212 106.887 -10.1893 24.7001
  1213 171.705 -0.265405 -0.864371
  1214 145.330 -7.65723 -2.58430
  1215 166.422 -0.604621 -1.00970
  1216 131.416 -4.29043 -0.667697
  1217 131.398 -4.27154 0.655625
  1218 154.419 -1.95498 1.25884
  1219 144.274 -6.53250 2.19204
  1220 138.560 -4.44270 -0.408199
  1221 138.613 -4.45813 0.427121
  1222 166.309 -0.623964 -0.829942
  1223 142.778 -14.9564 -23.9251
  1224 162.470 -0.864715 -0.866503
  1225 153.798 -2.22559 1.80253
  1226 104.882 -1.23980 -1.40315
  1227 104.895 -1.22718 1.39303
  1228 118.078 -1.79688 -0.667188
  1229 118.081 -1.78309 0.662839
  1230 194.541 30.2082 11.4699
  1231 163.271 -12.4704 7.36910
  1232 111.411 -0.432003 41.1493
  1233 86.6314 -0.176622 1.42955
  1234 86.5568 -0.178383 -1.44579
  1235 154.005 -2.80367 10.7944
  1236 147.699 -2.12540 0.442727
  1237 147.709 -2.11695 -0.442426
  1238 168.388 33.0325 3.65300
  1239 155.475 -16.2268 18.6185
  1240 87.1712 -1.31041 5.27885
  1241 87.0807 -1.32111 -5.32276
  1242 147.410 -3.51368 1.57101
  1243 147.378 -3.53663 -1.53383
  1244 152.289 -4.10721 -3.59281
  1245 138.197 0.0157179 4.99150
  1246 243.875 60.5283 -19.0325
  1247 154.939 -5.60307 -9.74861
  1248 25.3636 6.30584 14.4865
  1249 160.193 -8.47477 13.4940
  1250 126.274 2.66577 -3.72425
  1251 9.09392 7.06047 4.90471
  1252 213.173 22.9492 0.162281
  1253 156.268 -7.05959 -13.4994
  1254 126.921 1.72605 5.69838
  1255 86.8722 -5.53934 16.8622
  1256 159.052 -12.2552 8.53557
  1257 233.527 43.0121 11.4521
  1258 52.1325 7.93318 28.3307
  1259 160.049 -1.79336 -4.92455
  1260 314.513 3.46116 -3.22656
  1261 325.566 4.94106 14.4773
  1262 348.543 12.1050 -34.2240
  1263 154.597 -4.76891 -11.9624
  1264 154.749 -7.00373 10.3707
  1265 157.370 -11.1461 9.91823
  1266 -4.66085 0.480387 2.99907
  1267 -4.25913 0.367109 -3.24349
  1268 153.407 -16.8958 -8.09413
  1269 157.417 -15.8502 -12.6303
  1270 117.006 0.702637 -2.34765
  1271 152.831 -17.2155 12.6798
  1272 163.043 -7.67628 -13.7302
  1273 2.74231 4.65203 0.118734
  1274 131.511 -2.39480 0.377164
  1275 131.522 -2.41402 -0.378173
  1276 162.520 -1.19296 3.39469
  1277 155.939 -2.54935 -2.65879
  1278 146.443 -15.9989 -3.88259
  1279 133.058 -7.28099 1.62180
  1280 132.359 -7.18322 -1.83642
  1281 157.096 -3.23600 7.72382
  1282 160.921 -5.85978 -15.5506
  1283 9.44972 7.36291 -4.68927
</Section>

newXOutput 10

<Section columns = "stress_xx | stress_yy | stress_xy">
  1 196.572 0.00798638 0.408561
  2 196.589 0.0100998 -0.410096
  3 102.927 -0.0545184 -0.148238
  4 -1.32309 -1.31485 -1.90081
  5 362.952 137.502 113.179
  6 359.450 142.805 -113.829
  7 -1.53470 -1.25541 2.01440
  8 102.911 -0.0549524 0.147756
  9 198.056 -0.306247 0.132371
  10 197.584 -0.494195 -0.0800351
  11 197.039 -0.308244 0.489881
  12 196.501 -0.444137 0.170041
  13 195.352 -0.366245 0.773480
  14 194.321 -0.374990 0.584624
  15 191.961 -0.333882 1.10038
  16 188.669 -0.201996 1.61301
  17 185.716 -0.231744 1.77849
  18 181.403 -0.354181 2.13137
  19 175.505 -0.000770518 3.12584
  20 170.053 -0.262017 2.95021
  21 163.949 -0.358355 4.12874
  22 155.118 0.257108 3.57108
  23 148.803 0.364930 4.20377
  24 140.572 0.629192 3.27297
  25 134.913 0.625739 3.29186
  26 126.706 0.908873 1.67310
  27 124.994 1.43664 1.78816
  28 123.971 1.15873 -0.525926
  29 125.390 0.638596 -1.16607
  30 127.993 0.643871 -1.42680
  31 134.135 0.830286 -2.85586
  32 140.099 0.654705 -3.62954
  33 148.919 0.119878 -4.31514
  34 155.988 -0.100671 -3.95555
  35 163.579 -0.287821 -3.90934
  36 170.481 -0.202810 -2.77381
  37 176.466 -0.204178 -2.38864
  38 181.442 -0.343579 -2.02011
  39 185.933 -0.235323 -1.42947
  40 188.781 -0.269071 -1.52668
  41 191.530 -0.349431 -1.12066
  42 194.167 -0.421274 -0.515112
  43 195.532 -0.333285 -0.589258
  44 196.291 -0.186528 -0.377882
  45 195.847 -0.0742574 -0.343481
  46 197.811 -0.504203 0.0467918
  47 198.129 -0.321404 -0.136711
  48 191.193 -0.0626916 -0.251944
  49 186.616 -0.681792 -0.439407
  50 181.068 -1.02971 -0.308032
  51 174.332 -1.58470 -0.416416
  52 167.984 -1.75443 -0.526334
  53 161.234 -2.25752 -0.496368
  54 155.283 -2.54700 -0.289598
  55 150.066 -2.89867 -0.126022
  56 144.057 -2.41855 -0.127293
  57 137.133 -2.28551 -0.181128
  58 130.453 -1.82723 -0.0730351
  59 124.115 -1.18887 -0.0358641
  60 118.079 -0.863966 -0.00513507
  61 112.766 -0.464753 0.0439287
  62 107.306 -0.141342 -0.171842
  63 103.006 0.140624 0.191804
  64 101.103 0.427053 0.120480
  65 102.480 -0.00573686 0.300226
  66 101.095 -0.0706704 0.357841
  67 99.8458 -0.0994864 0.447747
  68 98.1297 -0.0235314 0.593004
  69 95.9610 -0.0141381 0.753720
  70 94.4183 -0.149956 1.48099
  71 89.7602 0.133180 1.62283
  72 86.5209 -0.0169992 1.87391
  73 81.6943 -0.0954701 2.12138
  74 76.1146 -0.155854 2.58764
  75 69.1482 -0.0410758 3.14167
  76 60.6514 0.0351915 3.45198
  77 53.4101 -0.0907508 4.92603
  78 38.9304 0.470117 4.62211
  79 29.1819 0.406966 4.89254
  80 17.6056 -0.0679646 5.38930
  81 8.09675 0.935922 5.55266
  82 -2.67695 1.37275 3.23353
  83 -10.3804 1.38796 1.02688
  84 -9.79101 1.30998 -0.685197
  85 -9.03834 1.07578 -2.77203
  86 -5.28229 -0.390669 -2.58720
  87 -0.678045 -5.07173 -2.84223
  88 0.448217 -9.41219 -3.61061
  89 1.32260 -15.1514 -2.15706
  90 2.98272 -16.0194 -0.194882
  91 6.37589 -5.66246 7.96043
  92 19.3739 26.4461 28.3508
  93 117.977 103.423 100.471
  94 437.811 64.7018 74.1274
  95 392.758 9.32610 24.3996
  96 363.580 3.80881 7.46697
  97 352.774 3.20291 0.599303
  98 358.381 4.30461 -6.42541
  99 391.627 8.61556 -19.2851
  100 466.116 31.2561 -64.4696
  101 69.5361 104.799 -83.5289
  102 14.5339 16.9070 -23.2045
  103 6.93804 -4.96337 -8.20608
  104 2.77756 -16.1694 -1.08427
  105 0.726504 -11.6485 2.50519
  106 0.960834 -11.8354 3.15236
  107 0.0263355 -4.40811 3.14408
  108 -5.50762 -0.273625 2.46527
  109 -9.32915 0.806994 2.43074
  110 -10.3011 1.59661 0.744266
  111 -10.7275 1.37140 -0.933826
  112 -3.41186 1.40716 -3.01618
  113 7.43722 0.944518 -5.28645
  114 16.9304 0.0294628 -5.30007
  115 28.4891 0.440398 -4.90508
  116 38.3008 0.483163 -4.66064
  117 52.9212 -0.0927618 -4.97146
  118 60.2317 0.0398453 -3.48858
  119 68.7827 -0.0393352 -3.18420
  120 75.9250 -0.171509 -2.60985
  121 81.4454 -0.0915634 -2.12859
  122 86.3340 -0.0108587 -1.89542
  123 89.6088 0.131337 -1.64292
  124 94.3120 -0.151316 -1.49807
  125 95.8779 -0.0150253 -0.764308
  126 98.0693 -0.0243600 -0.601756
  127 99.8024 -0.100843 -0.454725
  128 101.064 -0.0718296 -0.362744
  129 102.456 -0.00676625 -0.303391
  130 101.085 0.426387 -0.121979
  131 102.989 0.140321 -0.192724
  132 107.288 -0.142536 0.171276
  133 112.748 -0.467733 -0.0451143
  134 118.064 -0.870618 0.00373278
  135 124.104 -1.19815 0.0344973
  136 130.448 -1.84058 0.0717104
  137 137.135 -2.30226 0.180104
  138 144.066 -2.43780 0.126346
  139 150.081 -2.91993 0.125670
  140 155.301 -2.56808 0.290336
  141 161.259 -2.27670 0.498477
  142 168.003 -1.76785 0.533979
  143 174.344 -1.59667 0.452586
  144 181.097 -0.965936 0.315107
  145 186.749 -0.660795 0.429947
  146 191.218 -0.0920608 0.248379
  147 169.659 -15.9263 -2.20332
  148 169.527 -15.7141 2.26500
  149 177.141 25.5342 -9.26677
  150 189.713 11.2223 19.9026
  151 143.570 -13.7260 -30.8798
  152 144.705 -13.7189 29.8485
  153 138.471 -5.98862 3.39029
  154 138.488 -6.07571 -3.39508
  155 201.821 7.19099 -15.7634
  156 169.201 -6.01244 4.46889
  157 169.132 -5.86176 -4.41142
  158 218.732 49.2267 2.77290
  159 172.666 -0.274350 -19.1861
  160 126.944 -10.1536 -13.7231
  161 126.936 -10.0648 13.5909
  162 173.128 -3.88491 17.4393
  163 163.559 11.8871 11.3062
  164 66.9044 11.0228 -36.8158
  165 74.4126 10.4229 38.8307
  166 213.832 2.21485 3.43410
  167 173.860 -6.61019 -12.3554
  168 231.006 50.8027 -2.34148
  169 156.189 -4.38056 0.378233
  170 156.154 -4.36402 -0.362691
  171 176.489 -1.99773 -1.97819
  172 177.093 -1.77728 1.71776
  173 121.035 -1.83575 -2.10559
  174 121.045 -1.81577 2.09231
  175 190.579 -5.33989 39.1910
  176 158.090 6.48786 -12.1623
  177 102.824 -7.78832 -22.3394
  178 103.136 -7.72999 22.1796
  179 115.237 -3.92450 -7.20218
  180 115.243 -3.87745 7.14147
  181 174.766 -4.52055 10.4940
  182 158.493 -10.9286 0.392117
  183 157.906 -10.8469 -0.120079
  184 181.148 -17.4582 -1.81160
  185 182.054 -16.6306 -0.465790
  186 251.021 58.9653 -7.22346
  187 180.708 29.1637 8.68802
  188 181.457 11.1641 -19.7971
  189 190.081 -2.00849 -45.7965
  190 180.578 -10.1444 -14.2894
  191 182.099 -7.21760 16.6429
  192 151.391 -17.2204 14.7231
  193 151.454 -17.1036 -14.6714
  194 161.045 2.00772 14.6679
  195 72.6618 -1.69160 -27.2307
  196 72.8532 -1.85707 27.0512
  197 284.313 42.8255 6.05213
  198 170.868 -10.1417 8.04981
  199 177.485 -3.16566 -6.92410
  200 139.286 -3.47129 -1.47669
  201 139.285 -3.45118 1.47052
  202 169.568 -2.18656 -13.3925
  203 193.524 28.4898 -16.0680
  204 160.646 14.3881 -2.27234
  205 103.389 -3.79949 10.2456
  206 103.225 -3.81348 -10.3308
  207 180.487 -1.88377 3.88392
  208 174.662 3.28998 19.7008
  209 141.488 -10.4525 -6.26652
  210 140.465 -9.90038 6.45751
  211 206.819 30.6748 15.1501
  212 245.217 32.5499 3.32125
  213 15.7061 12.5656 -9.73915
  214 14.4991 11.6168 8.23945
  215 99.7998 28.2966 65.6780
  216 169.121 -11.2163 -6.39089
  217 181.208 -1.81124 -3.51342
  218 159.104 1.34777 -13.4993
  219 110.122 -1.18010 -3.17976
  220 110.153 -1.16642 3.14793
  221 151.602 -7.16759 -0.874961
  222 151.671 -7.20789 0.786598
  223 171.159 -2.28356 11.4376
  224 198.764 -11.5505 3.00745
  225 195.723 40.3166 -4.71931
  226 153.505 -14.9148 -6.53667
  227 195.282 -3.36909 13.3883
  228 165.868 -2.68047 0.833974
  229 165.874 -2.65613 -0.832565
  230 152.316 -14.8418 6.84172
  231 175.081 -11.0548 11.7390
  232 249.054 30.8454 -13.4185
  233 53.7205 32.0314 -46.9791
  234 146.146 5.03320 2.87765
  235 175.053 15.4578 16.5544
  236 187.505 -1.27531 -17.9867
  237 174.823 -6.25022 -16.4218
  238 91.1096 -3.03667 -12.9077
  239 91.4421 -2.98914 12.8584
  240 175.197 -2.05586 -8.93231
  241 167.056 -4.14213 2.46836
  242 166.977 -4.13386 -2.39665
  243 33.7318 3.28331 -17.0886
  244 34.3235 2.88082 17.0366
  245 187.084 -16.3230 -13.2149
  246 185.291 -0.534875 0.581353
  247 185.514 -0.546384 -0.617731
  248 170.763 14.1466 -15.1132
  249 149.265 2.78129 8.77356
  250 320.610 51.3917 34.3261
  251 318.197 36.2394 -21.6327
  252 227.341 49.4425 -0.672663
  253 141.744 -6.75175 41.3187
  254 129.850 -4.29343 -43.2744
  255 148.384 -3.04361 -0.420847
  256 148.368 -3.02163 0.416590
  257 122.029 -3.39319 4.30443
  258 122.035 -3.44195 -4.34825
  259 180.054 -1.85012 5.62265
  260 174.399 -12.3761 -9.84527
  261 110.495 -0.252852 -0.727622
  262 110.515 -0.248817 0.722174
  263 172.188 -6.89895 -7.77425
  264 71.0533 -2.36884 -17.8464
  265 71.3858 -2.37697 17.7068
  266 174.202 -7.49870 13.3010
  267 132.408 -14.0562 24.8019
  268 132.774 -14.3093 -24.7281
  269 148.434 5.58528 -4.08301
  270 128.050 -2.04424 -1.41210
  271 128.057 -2.02907 1.40548
  272 162.320 -0.431429 10.8749
  273 194.867 35.8807 11.1899
  274 102.248 -1.32756 5.46468
  275 102.168 -1.33933 -5.51677
  276 179.320 -14.9114 7.32662
  277 166.003 -18.5656 -16.0889
  278 185.875 -0.782059 1.83958
  279 127.017 -7.69823 -9.30076
  280 126.776 -7.60878 9.25970
  281 231.204 22.4385 58.0743
  282 106.348 -8.54972 29.7666
  283 172.243 24.2513 -0.987084
  284 220.276 24.0310 -10.7508
  285 165.143 -12.7866 3.03819
  286 166.085 -19.0812 14.3971
  287 106.701 -8.40319 -30.1274
  288 19.3603 23.8235 21.2765
  289 172.217 -6.92711 7.91237
  290 227.091 29.3370 8.85026
  291 187.467 -0.696124 -1.59449
  292 167.866 5.83937 -17.3914
  293 166.438 -9.39152 4.61682
  294 162.881 -13.7789 -0.459267
  295 167.183 7.64982 16.7323
  296 178.427 -14.9239 -6.64647
  297 253.649 49.6897 -3.91709
  298 166.392 -9.02295 -4.42512
  299 138.857 38.9254 -80.9508
  300 170.413 -18.0397 -2.26291
  301 169.176 -18.5278 4.23100
  302 123.103 -11.2493 -19.5253
  303 109.519 -0.468224 -1.59755
  304 109.546 -0.460150 1.58271
  305 123.144 -11.2552 19.4102
  306 179.910 -0.279400 -19.9737
  307 195.130 -8.05920 -9.33633
  308 147.310 -8.97593 -3.04788
  309 147.199 -8.99564 3.11020
  310 177.894 -15.3062 26.2433
  311 176.705 -1.36489 6.76807
  312 216.474 0.627571 8.00885
  313 144.098 -5.15469 -1.61726
  314 144.104 -5.13446 1.60518
  315 130.591 -3.50175 -2.75051
  316 130.587 -3.46682 2.74475
  317 147.624 1.92260 -8.49046
  318 192.036 14.0784 -19.3618
  319 299.998 80.4705 -37.3212
  320 175.451 -1.40527 -0.681238
  321 175.339 -1.38508 0.696565
  322 92.6862 -0.0176126 37.1397
  323 130.046 -6.04351 -6.03651
  324 129.780 -6.01884 6.05044
  325 92.6736 -0.224514 -36.9990
  326 182.491 21.5876 -16.2466
  327 205.568 10.1018 15.1136
  328 177.974 -12.7065 -29.2621
  329 162.605 -6.24219 2.23673
  330 162.432 -6.19225 -2.16146
  331 174.050 -3.49616 -3.88864
  332 162.451 -0.325505 -10.1764
  333 183.373 0.833476 19.6488
  334 183.645 -1.20214 -3.90118
  335 108.399 -6.72994 14.9309
  336 108.280 -6.77022 -15.0572
  337 169.982 -0.393241 18.1765
  338 102.723 -0.903636 -3.21853
  339 102.789 -0.894924 3.18541
  340 175.278 -3.93127 5.88882
  341 209.963 43.0765 -8.64231
  342 173.944 -3.52667 4.02511
  343 184.607 23.2613 16.3361
  344 176.883 -3.25481 19.0365
  345 139.073 -2.64645 0.507864
  346 139.076 -2.66465 -0.512434
  347 166.834 -0.611121 -16.1116
  348 222.244 46.8680 6.05831
  349 183.695 33.8682 0.342534
  350 112.759 13.1841 -55.5321
  351 10.7434 5.05842 -7.15481
  352 11.8819 5.46593 7.74318
  353 -0.794913 1.16753 3.59817
  354 -0.0625373 0.577461 -3.73749
  355 329.408 22.8327 7.95904
  356 152.329 -12.4620 -3.56421
  357 175.438 -3.79187 -5.74977
  358 157.709 -2.71531 0.355172
  359 157.691 -2.69118 -0.355807
  360 168.065 18.5690 -8.17573
  361 143.711 -14.7490 12.0892
  362 12.1290 17.9068 -12.8985
  363 143.869 -14.7502 -12.3307
  364 170.354 19.3883 8.70131
  365 174.773 -4.59361 -10.0189
  366 185.758 -10.3086 -12.4378
  367 197.048 41.9239 3.26576
  368 186.251 -11.5636 10.4964
  369 74.7108 -1.93311 11.9761
  370 74.2321 -1.89635 -12.0624
  371 41.7487 1.09930 -16.4506
  372 42.2370 0.920646 16.3733
  373 150.106 0.422238 8.60443
  374 291.472 84.1360 31.1293
  375 181.045 -1.09038 -4.88294
  376 139.811 -11.9562 -9.19255
  377 139.678 -11.9197 9.17861
  378 173.546 -3.95718 -12.5389
  379 198.863 -9.60779 2.82647
  380 152.322 -12.4481 3.69274
  381 219.194 1.16027 -16.2903
  382 120.849 -1.04213 -0.512016
  383 120.863 -1.03263 0.507204
  384 170.352 -0.971623 -7.93196
  385 89.7432 -1.36260 -7.83334
  386 89.8057 -1.40465 7.73154
  387 204.443 26.0823 -16.7122
  388 109.951 7.83218 51.4802
  389 159.535 -8.39092 1.42664
  390 159.695 -8.37394 -1.43590
  391 187.245 31.8271 -10.4064
  392 177.662 -5.23056 -18.1248
  393 178.893 -18.2312 13.8159
  394 147.851 -3.94879 -0.631600
  395 147.831 -3.92687 0.622242
  396 171.584 -13.2197 6.88915
  397 185.531 -0.822772 2.91641
  398 113.414 -4.28011 -9.06712
  399 113.457 -4.27802 8.98170
  400 173.658 5.81953 -19.4077
  401 164.378 -3.48932 1.27576
  402 164.373 -3.49631 -1.25148
  403 169.584 -1.98182 14.8810
  404 157.137 11.3835 3.89014
  405 176.296 -7.39794 15.9314
  406 256.190 53.8952 8.89153
  407 83.6542 -4.52486 -23.9020
  408 83.8973 -4.52746 23.7069
  409 37.0847 20.1674 -27.9424
  410 190.337 -0.476271 0.848403
  411 93.5329 -0.853016 -4.94772
  412 93.6647 -0.834904 4.90099
  413 173.712 -4.48673 12.3109
  414 157.501 -17.1385 7.56337
  415 178.675 -2.10565 2.76381
  416 181.159 9.22273 20.3344
  417 38.9823 21.4733 29.2242
  418 157.752 -17.0486 -6.89098
  419 163.088 -15.1900 -0.627699
  420 51.3816 -1.03690 -14.9768
  421 51.8075 -1.07867 14.8663
  422 124.868 -9.88964 -35.9127
  423 187.582 -2.75398 17.5904
  424 124.347 -10.0520 35.5803
  425 173.083 -9.68109 -10.5798
  426 159.488 10.6910 -8.55783
  427 173.124 -7.42417 9.99938
  428 187.324 -0.755385 -2.00944
  429 5.36934 5.51322 2.06653
  430 37.0919 42.1739 41.5962
  431 165.780 -0.615532 7.61143
  432 137.504 1.80732 3.70077
  433 140.060 2.22255 -5.03239
  434 119.512 -2.07438 -3.03447
  435 119.520 -2.04684 3.01142
  436 170.677 -13.2144 -6.37568
  437 172.062 -3.34642 -16.7058
  438 138.306 2.50249 -1.36767
  439 256.307 60.9196 11.2172
  440 34.1845 11.6558 -20.8772
  441 37.7960 10.7028 22.3783
  442 159.389 -5.66299 1.21888
  443 159.325 -5.64603 -1.17340
  444 212.737 47.4225 -0.717676
  445 134.760 53.2754 82.7355
  446 205.912 -3.00498 -4.38606
  447 116.171 -6.20050 -12.3069
  448 116.222 -6.15514 12.1927
  449 116.570 -2.71458 4.79163
  450 116.552 -2.73597 -4.84054
  451 158.603 3.45656 -13.8769
  452 191.398 -0.204951 -0.573423
  453 153.865 6.97594 7.76153
  454 196.433 24.2962 17.8236
  455 163.344 -12.1439 -2.36875
  456 178.620 -1.99576 -2.68105
  457 188.141 -0.676520 1.85217
  458 190.867 -0.215071 0.328792
  459 191.042 -0.251286 -0.248561
  460 101.796 -0.210081 1.17770
  461 101.748 -0.213067 -1.19167
  462 179.021 -11.3247 12.7730
  463 160.175 6.26122 13.4340
  464 167.992 0.665801 -17.6996
  465 176.360 -3.63718 7.52094
  466 258.187 41.2003 -48.0716
  467 176.624 -9.75914 -14.0948
  468 1.21307 3.26578 1.05526
  469 1.21860 3.29928 -0.182784
  470 138.939 -7.99282 5.03316
  471 138.454 -7.89112 -4.98014
  472 221.784 3.40287 25.3343
  473 61.3269 54.4830 -62.1631
  474 174.015 -0.500742 5.97380
  475 198.850 -11.6550 -13.9595
  476 103.697 -6.08806 17.3325
  477 212.004 37.6271 -12.3950
  478 174.064 -9.38011 11.8861
  479 145.340 -7.03084 -2.27750
  480 145.469 -6.91078 2.26822
  481 150.066 0.772449 -7.60487
  482 103.364 -6.06674 -17.4516
  483 154.125 0.0316818 7.66510
  484 148.947 -17.0106 -21.9708
  485 148.563 -17.0366 22.0351
  486 179.920 -1.14394 5.38002
  487 162.004 15.2411 1.60933
  488 166.876 2.57548 56.2145
  489 244.656 50.1898 -0.316893
  490 168.563 -2.74225 1.37443
  491 168.576 -2.73149 -1.41308
  492 127.988 -2.35284 -1.86716
  493 127.994 -2.33193 1.85853
  494 67.2073 3.26005 31.0371
  495 174.791 -8.37776 -13.7363
  496 158.230 -3.39596 0.383940
  497 158.214 -3.38211 -0.379560
  498 137.450 -14.6228 17.9941
  499 68.5458 4.28413 -31.8434
  500 175.217 -14.2442 -7.26738
  501 2.81964 0.224588 1.73252
  502 151.394 7.73230 0.557977
  503 169.242 -1.84570 -0.463271
  504 169.235 -1.87388 0.455063
  505 137.554 -14.6015 -18.1410
  506 199.086 -10.3809 18.2395
  507 196.409 7.14215 18.2838
  508 181.715 -1.11775 -1.36282
  509 174.679 -14.4492 7.35243
  510 106.801 -0.130781 -0.199693
  511 106.820 -0.129715 0.197608
  512 174.184 -6.65280 -14.5442
  513 167.897 12.4148 14.7511
  514 193.950 4.79421 -18.0407
  515 106.163 -0.196976 -0.659412
  516 106.186 -0.194398 0.654168
  517 343.447 49.5781 -44.5797
  518 174.913 20.8810 13.0408
  519 181.887 -1.01595 1.21835
  520 163.464 -15.5211 1.01804
  521 136.361 -4.60039 2.71848
  522 136.364 -4.63788 -2.71306
  523 191.027 -11.5871 6.39590
  524 183.040 -3.61365 -18.4132
  525 204.429 40.4910 10.1797
  526 169.488 2.90127 18.3390
  527 171.838 -3.20328 2.55010
  528 167.141 -17.7723 -20.9674
  529 172.719 -4.23878 14.2385
  530 339.906 15.5298 -6.26558
  531 189.681 -14.2640 -1.55380
  532 180.583 -1.07341 -0.347899
  533 180.623 -1.15120 0.314892
  534 343.408 23.0649 22.0466
  535 165.082 -0.0744331 15.5967
  536 233.739 38.8068 -5.74767
  537 174.789 -4.67668 -7.36295
  538 76.5459 -0.757293 -5.36458
  539 76.8039 -0.721219 5.30641
  540 117.278 -11.0186 -24.9257
  541 117.359 -10.8326 24.7311
  542 171.747 -3.06341 -2.52233
  543 186.642 6.86881 -20.0133
  544 163.843 -11.1593 2.99100
  545 175.718 20.1805 -13.5555
  546 177.900 -1.99883 7.24542
  547 224.435 10.8066 -0.857360
  548 151.481 -5.21205 -0.395671
  549 151.429 -5.19049 0.386495
  550 165.047 -7.76709 3.53732
  551 245.148 47.9907 -1.74297
  552 173.428 7.58902 19.0599
  553 73.6949 19.0401 46.0417
  554 168.820 -10.1563 37.2265
  555 224.751 9.97228 -40.7862
  556 177.354 14.6758 -17.7811
  557 158.132 -13.6036 -32.2083
  558 171.140 -18.7201 -5.54108
  559 179.039 -18.0682 -8.52366
  560 22.9063 29.1886 -27.7071
  561 179.893 -2.17515 -4.58202
  562 271.783 53.0129 -14.8316
  563 165.959 -7.43697 -3.86617
  564 167.421 -5.38579 3.18337
  565 167.263 -5.25762 -3.06827
  566 113.345 -0.714694 -1.43924
  567 113.365 -0.705361 1.42796
  568 15.1462 1.73330 -8.91721
  569 16.0876 1.81373 9.13175
  570 84.2551 -3.99806 -18.2680
  571 84.9277 -4.01853 18.2303
  572 169.692 -9.15629 -6.89562
  573 173.204 -18.7948 6.05780
  574 178.066 -16.8536 2.21660
  575 144.871 -2.56866 -0.464955
  576 144.860 -2.54835 0.462099
  577 137.897 -14.4205 -27.5927
  578 155.007 -12.6523 34.1369
  579 134.454 -13.5518 27.7650
  580 174.324 -3.84629 -17.9846
  581 107.369 -1.88217 5.45551
  582 107.317 -1.90254 -5.50611
  583 165.509 9.10310 -14.7993
  584 165.918 -0.288350 -6.90938
  585 208.017 45.5061 -4.67022
  586 134.747 -2.09239 -0.488083
  587 134.748 -2.07715 0.485325
  588 177.688 -0.505764 -3.94537
  589 121.125 -4.23228 -5.95747
  590 121.122 -4.21543 5.90013
  591 99.5783 4.75815 44.2114
  592 172.945 -7.90661 -10.1184
  593 95.4640 -4.97138 31.7093
  594 169.944 -8.76758 7.02113
  595 179.341 -2.43424 5.04082
  596 177.251 -1.49738 -1.22325
  597 122.375 -1.59529 -1.31068
  598 122.387 -1.58143 1.30240
  599 199.415 40.0612 -9.09913
  600 95.4003 -4.77080 -31.8399
  601 169.391 -7.27958 -5.68100
  602 152.224 -2.80261 -0.185411
  603 152.206 -2.77986 0.184497
  604 289.733 39.1662 -6.81737
  605 98.9826 -0.682808 3.02880
  606 98.8948 -0.689665 -3.06011
  607 156.587 3.52883 12.6428
  608 227.365 18.5343 -4.48312
  609 106.243 0.894049 -43.9146
  610 53.2973 1.48033 -23.7282
  611 53.7656 1.15784 23.6005
  612 132.889 -7.90940 7.28797
  613 134.342 -8.14221 -7.05284
  614 229.035 46.0520 5.59974
  615 176.483 -1.55668 1.11998
  616 149.365 4.11051 -7.61591
  617 187.683 33.9185 8.22604
  618 186.954 35.2076 -5.46818
  619 153.677 -8.57339 -0.711259
  620 154.889 -8.37187 0.151878
  621 110.576 23.9191 -63.4044
  622 131.186 -4.61237 -3.99040
  623 131.193 -4.55719 3.97345
  624 341.088 69.7162 52.3848
  625 174.205 -5.66864 15.6353
  626 97.6934 -3.57952 -11.7073
  627 274.758 61.2431 39.6254
  628 97.9285 -3.55783 11.6567
  629 167.533 -6.45856 -43.6538
  630 115.511 -0.632898 -0.531899
  631 115.528 -0.627309 0.528709
  632 143.658 1.23530 6.63747
  633 64.0813 -0.996611 -10.5307
  634 64.4699 -0.998922 10.4416
  635 151.656 -10.8240 2.62215
  636 159.327 -12.8157 -0.142962
  637 189.160 -0.362590 -1.67082
  638 103.507 -0.193365 0.857567
  639 103.471 -0.196651 -0.867901
  640 142.609 -3.25119 -0.642698
  641 142.601 -3.23083 0.636112
  642 165.021 -18.2525 21.2247
  643 189.074 21.1516 -18.1031
  644 124.517 -5.96708 -7.69502
  645 124.417 -5.86428 7.63412
  646 148.760 -10.8166 -3.93983
  647 235.900 51.6206 0.594955
  648 176.980 -17.0783 -1.21408
  649 152.833 -3.64271 -0.113754
  650 152.808 -3.62225 0.114714
  651 211.698 23.0445 14.4603
  652 177.147 -2.48063 -7.87867
  653 155.073 -0.220317 -6.24993
  654 70.8399 -2.40963 -22.9127
  655 71.0743 -2.48254 22.7135
  656 148.428 -12.9220 -6.65837
  657 223.562 49.7148 0.177717
  658 172.323 23.3862 -5.87342
  659 112.827 -1.10498 -2.68142
  660 112.850 -1.08927 2.65688
  661 161.435 -4.51336 -1.15829
  662 161.467 -4.52089 1.19578
  663 304.780 39.9193 17.5011
  664 192.502 -0.459534 0.472616
  665 185.231 -0.676527 2.83770
  666 184.428 -0.699142 -3.29676
  667 174.715 -16.2275 3.74151
  668 126.804 -1.54563 -0.655592
  669 126.812 -1.53370 0.652069
  670 185.914 29.9423 12.6225
  671 240.065 53.5501 -2.16090
  672 129.809 -9.82064 -10.9101
  673 129.761 -9.71968 10.8486
  674 163.687 -16.8920 -2.57478
  675 172.035 10.2171 -17.9197
  676 206.093 0.467142 8.81105
  677 134.843 -2.57473 -1.24855
  678 134.844 -2.55647 1.24218
  679 116.659 -10.3110 -22.5111
  680 173.029 -16.7061 -2.10739
  681 143.259 -15.9058 19.8106
  682 67.9353 21.6264 -44.3837
  683 133.302 -12.4708 15.2688
  684 160.659 0.0404468 5.79782
  685 116.759 -10.1914 22.3495
  686 169.288 -7.42644 5.75093
  687 133.361 -12.4217 -15.4198
  688 135.062 1.69289 1.38795
  689 104.303 -2.92528 8.28524
  690 104.207 -2.92996 -8.35010
  691 143.362 -16.3199 -20.0383
  692 177.794 -11.6647 -12.3608
  693 162.847 -2.19089 -0.290788
  694 162.872 -2.21610 0.292028
  695 181.838 -11.5207 12.3270
  696 164.996 -17.2531 3.21217
  697 200.857 18.4142 17.8676
  698 180.875 -3.34157 18.8863
  699 174.037 -6.18567 11.6496
  700 165.232 13.5534 -11.2246
  701 199.953 33.7530 14.0914
  702 172.382 -2.35710 -11.1317
  703 172.198 -5.63288 6.21577
  704 177.060 27.8324 3.18013
  705 175.022 -2.91522 9.77639
  706 54.5029 36.9144 46.4320
  707 163.044 -18.7313 -11.8882
  708 188.813 3.46957 19.2859
  709 190.937 -5.87361 -14.1139
  710 191.428 -0.194717 0.947565
  711 174.012 -5.90681 -9.26850
  712 163.257 -18.8809 10.7234
  713 320.520 28.3621 -4.76898
  714 94.8136 -0.441323 3.17394
  715 94.6947 -0.446356 -3.20696
  716 176.822 -3.10875 -4.44029
  717 192.630 -0.143118 -0.917033
  718 148.135 -13.1283 6.69593
  719 178.574 -6.59440 17.2248
  720 274.401 64.2071 -17.9020
  721 169.251 -12.2551 6.02783
  722 188.207 -12.3397 -7.81426
  723 172.269 -5.47634 -6.11888
  724 192.686 -0.269454 -0.321025
  725 173.916 0.00268198 19.4375
  726 7.78447 6.25141 9.38938
  727 198.221 -7.83265 -27.7842
  728 215.140 12.5403 9.68820
  729 178.801 -18.2190 7.47469
  730 125.517 -3.12571 3.28330
  731 125.522 -3.17102 -3.30211
  732 169.418 82.0235 -86.9309
  733 181.935 -11.9778 -11.4700
  734 134.505 0.626228 -2.65208
  735 158.377 0.839040 12.3674
  736 175.222 -8.71806 13.9760
  737 167.960 -14.1540 3.45230
  738 175.357 -15.9230 -22.7975
  739 166.882 -13.2057 -3.72704
  740 198.155 -9.49632 -3.49601
  741 182.370 -1.38100 2.61917
  742 161.904 -9.74316 2.18550
  743 297.441 59.5247 -31.3252
  744 173.111 -4.53950 4.97410
  745 170.444 2.77228 -18.8454
  746 146.410 -1.69901 49.2186
  747 182.955 14.7706 19.3634
  748 157.323 -12.4472 0.990779
  749 120.544 -9.63962 -16.3910
  750 120.546 -9.60989 16.2468
  751 166.498 18.7178 -2.62300
  752 169.975 -1.95140 16.9011
  753 172.042 -4.06660 -14.5199
  754 162.093 -9.93820 -2.24395
  755 156.608 -14.1056 3.34537
  756 178.463 29.5798 -3.61555
  757 167.747 -14.5167 -2.78809
  758 168.138 -10.6233 5.82254
  759 170.677 -2.07199 0.955707
  760 170.790 -2.01128 -0.951014
  761 229.689 50.7700 1.83629
  762 188.283 -15.9659 -4.46940
  763 174.552 -5.27246 9.21219
  764 182.476 -1.37294 -2.39775
  765 183.577 1.24979 -19.8323
  766 209.925 10.8825 -12.4623
  767 99.9228 -0.121804 -1.46784
  768 99.9877 -0.120234 1.45133
  769 1.36258 -3.44922 -2.47153
  770 178.134 -0.178290 3.65958
  771 162.262 -0.303889 -13.7230
  772 168.027 -1.56831 12.1817
  773 155.074 18.5177 72.6962
  774 191.386 39.6336 -0.440107
  775 135.519 -9.85589 8.37622
  776 22.3083 0.558957 -8.88787
  777 23.0313 0.416347 8.98571
  778 166.423 -1.19177 -13.7053
  779 135.913 -9.95826 -8.37068
  780 181.380 -1.51482 2.02389
  781 90.5029 -3.96171 15.6034
  782 89.6969 -3.94920 -15.6193
  783 173.109 -4.40317 -4.84804
  784 108.455 -2.86019 -7.19343
  785 108.508 -2.84008 7.12311
  786 180.466 -1.61662 -5.49037
  787 136.284 -3.72738 -2.16514
  788 136.285 -3.70098 2.16539
  789 197.230 -1.25880 -14.2160
  790 176.701 -1.82807 -19.5791
  791 87.5379 -0.595834 -4.06777
  792 87.7190 -0.590342 4.01703
  793 3.50258 2.23957 -5.25042
  794 4.32660 2.35980 5.53375
  795 141.288 0.652853 -4.82675
  796 161.578 -18.1616 -8.65789
  797 -1.90282 -1.33179 3.24135
  798 -1.65331 -1.54281 -3.19993
  799 168.303 -3.27608 2.01145
  800 182.783 -14.2064 -6.99974
  801 187.925 27.9468 -14.7635
  802 182.214 -1.35355 -1.91945
  803 396.732 78.9281 -74.5216
  804 168.270 -3.26349 -1.98654
  805 254.323 48.8318 3.60144
  806 179.716 5.24621 -20.3803
  807 199.154 14.9993 -18.2370
  808 31.5113 -0.375629 -8.26289
  809 32.1583 -0.425817 8.24633
  810 110.146 -1.67606 4.22622
  811 110.109 -1.69077 -4.26834
  812 104.543 -0.279465 0.783539
  813 104.516 -0.282299 -0.790750
  814 201.004 33.9334 -14.0100
  815 116.784 -0.793286 -1.13833
  816 116.800 -0.783914 1.13081
  817 170.513 -1.71479 -17.6280
  818 249.794 24.2759 19.4042
  819 152.362 3.32588 -10.6183
  820 51.1879 -0.476747 8.91159
  821 50.7108 -0.480990 -8.98683
  822 201.038 4.84925 51.7740
  823 176.620 -3.13527 4.58309
  824 156.141 10.2915 -4.42734
  825 70.5093 -0.133500 6.10980
  826 70.1173 -0.0996309 -6.15874
  827 107.074 -0.599422 -2.05710
  828 107.110 -0.590791 2.03558
  829 18.9610 17.0019 14.2144
  830 163.314 3.84988 15.8555
  831 182.261 26.8766 -12.5819
  832 196.824 22.8595 -17.9965
  833 127.879 -4.96918 -5.31329
  834 127.796 -4.92877 5.30253
  835 203.539 43.6299 6.44071
  836 176.511 -1.33353 -0.270143
  837 176.517 -1.32309 0.301100
  838 174.034 -5.15450 -11.7026
  839 145.085 -9.78026 4.61059
  840 160.546 -18.0527 8.72643
  841 189.709 -15.5458 13.7232
  842 143.636 -4.21950 -1.13168
  843 143.631 -4.20118 1.12154
  844 164.170 15.1876 7.19402
  845 153.866 2.04050 -11.4850
  846 42.8280 48.7345 48.3238
  847 157.116 -13.9935 -2.95204
  848 157.580 -7.05123 0.863551
  849 157.666 -7.06177 -0.870874
  850 173.386 -2.52961 18.5877
  851 172.309 -11.2866 -9.01234
  852 153.388 -10.2317 -1.42880
  853 357.743 11.5968 -17.9636
  854 145.684 -13.8940 9.43014
  855 145.576 -14.0794 -9.59423
  856 173.319 -2.03920 9.48309
  857 263.044 67.5233 -13.5413
  858 136.419 -12.5347 -12.0307
  859 151.291 -17.0967 11.2082
  860 136.370 -12.3793 11.9163
  861 148.091 -6.01709 -1.23160
  862 148.082 -5.99376 1.21976
  863 21.1790 9.27211 12.3983
  864 186.371 13.9473 -19.6853
  865 141.855 -5.61970 -2.25565
  866 141.878 -5.56008 2.26479
  867 139.940 -2.34881 -0.267364
  868 139.935 -2.33103 0.265143
  869 154.640 -3.03364 0.142785
  870 154.621 -3.01155 -0.143409
  871 124.418 -2.53894 -2.85441
  872 124.424 -2.50921 2.84024
  873 142.461 -7.60979 -3.52039
  874 142.476 -7.55341 3.53518
  875 3.27671 -1.90470 -1.18796
  876 216.524 40.6248 10.9418
  877 186.174 -6.47860 -16.0907
  878 151.183 -16.8516 -11.3399
  879 163.529 -5.21674 1.99895
  880 163.454 -5.15916 -1.94983
  881 178.218 0.252425 19.9924
  882 195.003 -13.9195 -6.97208
  883 173.032 11.7105 -62.8978
  884 76.9115 -1.14115 30.7737
  885 -3.48493 1.79656 -1.89158
  886 -3.08250 2.02412 2.12412
  887 21.0124 9.86308 -12.6471
  888 174.560 -4.93188 7.33189
  889 184.249 -1.10899 -3.11262
  890 165.436 -15.8514 26.4132
  891 76.7231 -1.05089 -30.9045
  892 184.383 -15.0227 5.24113
  893 206.390 -6.37274 22.4956
  894 146.750 0.575032 5.12337
  895 169.461 16.1190 12.2917
  896 90.7374 -5.16223 22.7367
  897 90.3757 -5.20454 -22.8989
  898 108.985 -5.32847 -12.7128
  899 115.632 -5.54430 -39.3763
  900 184.102 -4.25391 17.8949
  901 254.487 59.1891 7.37472
  902 184.610 7.13491 20.0740
  903 174.535 -3.66524 -10.6434
  904 118.129 -4.96851 40.3645
  905 223.272 41.0231 -8.50863
  906 21.3892 18.3886 -17.6143
  907 160.196 -0.340229 -5.53049
  908 109.099 -5.28273 12.5903
  909 133.748 -3.02334 1.92565
  910 133.747 -3.04592 -1.93115
  911 172.569 -11.2274 9.28483
  912 179.883 -1.01065 0.802006
  913 131.774 1.28352 -49.0894
  914 189.977 -0.371591 1.47832
  915 188.383 -0.299445 -1.86472
  916 137.883 1.15660 -4.42750
  917 181.499 -0.717837 -3.25556
  918 134.322 -6.41762 -4.81170
  919 134.412 -6.31773 4.82483
  920 -4.63896 1.58977 -2.69924
  921 -6.29793 0.957952 2.81612
  922 179.885 -0.930577 -0.806571
  923 57.7358 -1.27703 20.7387
  924 57.3619 -1.14571 -20.8646
  925 191.139 27.9844 15.6365
  926 349.159 6.28379 5.60078
  927 179.611 20.0288 16.2381
  928 205.332 -7.36462 5.35252
  929 177.424 -9.82534 14.1410
  930 221.197 46.4772 -6.46087
  931 134.733 0.518161 3.33398
  932 170.833 -3.91473 -3.11107
  933 176.858 9.51372 -19.6321
  934 215.540 6.11219 -5.08675
  935 166.264 -10.2560 -4.69903
  936 82.6024 -0.493631 -4.56576
  937 82.6991 -0.476334 4.49772
  938 175.671 -4.04356 -8.45207
  939 5.50271 7.10385 1.05985
  940 168.582 -17.4686 -0.825314
  941 144.057 4.16073 -0.457861
  942 219.487 48.5194 -4.29826
  943 33.8986 25.2921 -29.6884
  944 168.044 -1.24677 -10.9170
  945 114.942 -2.02011 -3.92484
  946 114.961 -1.99542 3.88758
  947 0.899206 -4.92707 3.79331
  948 113.262 -8.56202 -18.2535
  949 171.659 -9.87927 -8.72083
  950 104.067 0.221641 -0.319985
  951 104.087 0.222882 0.317429
  952 172.484 20.9591 -9.87373
  953 187.087 -0.445419 -0.300372
  954 187.085 -0.454069 0.389091
  955 113.306 -8.53578 18.1198
  956 173.417 -0.208899 -4.34168
  957 200.562 1.43420 13.7930
  958 177.777 -2.39481 3.57204
  959 27.2571 7.18126 -15.8599
  960 184.660 -1.02438 2.83059
  961 165.984 1.30323 17.0200
  962 175.094 24.3229 8.78670
  963 175.642 2.04152 -20.1167
  964 119.817 -6.57768 -10.8278
  965 190.408 -6.68670 13.6587
  966 119.892 -6.54937 10.7094
  967 5.20580 5.80066 -0.100954
  968 19.7268 3.58793 11.6024
  969 96.8364 -1.79549 7.51564
  970 96.7126 -1.79835 -7.56351
  971 170.951 -3.99534 3.26349
  972 182.918 31.9738 4.89963
  973 92.7909 8.65623 -46.3340
  974 153.078 -9.62326 1.18912
  975 143.644 -15.0972 -14.4722
  976 210.263 40.4228 11.1179
  977 161.484 -2.77629 0.405474
  978 161.479 -2.75922 -0.406102
  979 177.427 -3.18336 -6.13628
  980 162.573 13.9918 -6.64007
  981 378.831 110.644 74.7374
  982 32.7111 1.96265 -15.4685
  983 33.2723 1.63432 15.5080
  984 2.42859 -3.81698 0.477745
  985 163.174 8.99070 13.6285
  986 143.586 -15.1856 14.3574
  987 178.633 -8.39189 -15.9739
  988 194.460 15.9221 19.5838
  989 187.747 -15.1549 -17.1460
  990 274.830 57.9608 18.5212
  991 158.398 -2.49634 -0.0148235
  992 158.377 -2.47343 0.0151765
  993 186.029 -7.52389 15.3077
  994 12.5950 19.4518 21.2218
  995 81.4671 -1.78127 10.7984
  996 81.1955 -1.75873 -10.9241
  997 98.0510 -4.92781 14.7142
  998 97.7015 -4.85551 -14.7770
  999 110.730 -4.70126 10.5044
  1000 121.032 -1.03085 -0.524282
  1001 121.046 -1.02276 0.521813
  1002 312.123 97.0461 -61.0927
  1003 280.044 70.0797 27.8036
  1004 110.640 -4.72746 -10.6015
  1005 191.671 -0.841410 16.8440
  1006 170.289 17.6768 -11.8537
  1007 120.280 -10.2826 32.6093
  1008 155.295 -18.3335 -17.1404
  1009 177.635 -1.40964 -6.41521
  1010 79.0974 5.62337 37.5933
  1011 101.584 -7.78388 26.0670
  1012 155.561 7.90079 -8.51175
  1013 179.478 -3.51591 -19.0742
  1014 234.227 90.6300 99.7223
  1015 146.445 4.40278 6.03792
  1016 201.406 43.7321 -0.770611
  1017 148.838 5.70558 -55.8667
  1018 150.420 -15.9138 -9.60473
  1019 192.865 -0.142647 -0.752613
  1020 183.354 16.8716 -18.8692
  1021 105.291 -0.738339 2.66547
  1022 105.243 -0.745967 -2.69359
  1023 3.76202 0.996644 -5.05315
  1024 119.830 -5.62041 -9.00608
  1025 101.466 -7.88574 -26.2771
  1026 119.728 -5.60533 8.89724
  1027 175.334 -5.29798 17.6350
  1028 157.111 -9.75171 0.275793
  1029 164.488 2.98960 -16.4667
  1030 169.187 21.1604 3.45730
  1031 232.889 13.3776 6.60566
  1032 173.956 -13.1791 8.94547
  1033 108.616 -8.79861 -19.9773
  1034 162.970 5.71715 -15.3809
  1035 121.382 -10.1387 -32.7982
  1036 234.753 51.3453 -0.642965
  1037 158.074 10.3179 7.74266
  1038 202.224 -1.24258 -10.8877
  1039 151.364 -15.9152 8.76337
  1040 173.761 -5.45566 13.7116
  1041 172.772 -9.07496 10.1165
  1042 171.828 -8.59329 8.82677
  1043 212.799 26.9113 -14.8056
  1044 171.217 -2.73257 13.7833
  1045 155.012 -18.3852 16.8513
  1046 165.486 -6.71934 3.20117
  1047 108.681 -8.81296 19.8539
  1048 155.066 -11.5022 -1.50808
  1049 89.0973 -4.29160 -27.8896
  1050 128.143 -13.3600 22.0071
  1051 174.594 -1.14154 -7.40844
  1052 169.711 -1.90302 -15.6030
  1053 146.834 -11.7280 -5.70275
  1054 89.2534 -4.42309 27.6561
  1055 157.496 0.349164 -10.7523
  1056 116.744 -7.90032 -14.0784
  1057 213.982 45.8301 7.13107
  1058 46.5370 7.95777 -26.1920
  1059 373.390 26.4262 36.3676
  1060 84.8382 6.53817 -39.4166
  1061 171.841 -14.2126 -5.82447
  1062 116.770 -7.82955 13.9534
  1063 155.701 1.58934 11.9918
  1064 85.9446 -1.81124 8.93356
  1065 85.8935 -1.85666 -9.03030
  1066 173.663 -4.79975 -16.3259
  1067 185.980 -0.824912 1.20670
  1068 181.639 -0.368533 3.29850
  1069 179.061 5.97231 20.3121
  1070 167.104 -1.25840 14.6224
  1071 130.293 13.7463 60.4869
  1072 194.192 -0.103636 0.377767
  1073 179.922 24.4635 12.9322
  1074 151.241 2.12706 10.3077
  1075 184.172 -0.657848 3.18303
  1076 115.993 -1.33066 -2.17332
  1077 116.010 -1.31511 2.15695
  1078 73.1748 -2.13273 -14.8827
  1079 73.4847 -2.20909 14.7708
  1080 151.716 7.48364 4.31720
  1081 233.910 11.8353 -15.3692
  1082 214.861 -0.737918 -31.0233
  1083 168.913 -0.135967 -4.48255
  1084 128.207 -13.4621 -22.1814
  1085 147.140 -11.1527 5.03726
  1086 169.953 -0.377290 4.68117
  1087 178.734 -12.9127 -10.4594
  1088 108.974 -0.292849 1.31343
  1089 108.950 -0.297760 -1.32277
  1090 171.508 -14.6200 5.82296
  1091 162.842 -3.25066 0.741912
  1092 162.815 -3.25303 -0.729914
  1093 158.343 -15.9999 5.20356
  1094 205.651 -6.72714 -0.806179
  1095 89.8786 -0.173757 -2.52959
  1096 90.0344 -0.167696 2.50030
  1097 139.118 -8.68609 -37.5744
  1098 147.272 -3.52605 0.546036
  1099 147.289 -3.54808 -0.552938
  1100 89.5532 47.3586 66.4153
  1101 205.830 16.7954 -16.4693
  1102 29.2940 14.5556 -19.4856
  1103 177.903 -2.53346 -3.45558
  1104 46.3389 16.2138 -30.0086
  1105 96.9899 -6.21051 -19.0090
  1106 194.347 -0.152314 0.221435
  1107 194.437 -0.139160 -0.165907
  1108 174.504 -9.91376 -12.1765
  1109 154.580 -17.2933 -23.8286
  1110 46.5550 6.77338 24.9593
  1111 189.690 18.8205 18.4870
  1112 172.705 -1.60651 -0.327536
  1113 172.721 -1.60860 0.345033
  1114 189.511 -12.3273 28.7905
  1115 193.942 39.1032 7.17833
  1116 113.446 -2.85117 -5.65070
  1117 113.471 -2.83640 5.60528
  1118 86.8835 10.1005 46.7391
  1119 164.104 0.803392 -15.9551
  1120 50.7335 16.6059 32.3357
  1121 213.720 -3.89842 -8.56362
  1122 208.040 46.4061 2.24966
  1123 142.451 -11.4053 7.10693
  1124 129.393 0.629387 -0.649298
  1125 182.409 -1.51925 4.13741
  1126 189.266 -0.188427 1.62138
  1127 39.0403 0.0876845 -7.45708
  1128 39.6366 0.0668496 7.40284
  1129 146.225 2.35972 -7.61985
  1130 152.156 -4.47942 -0.214963
  1131 152.117 -4.45538 0.212423
  1132 15.7233 22.6785 -22.5263
  1133 25.2944 51.7277 -46.1420
  1134 154.193 -6.03727 -0.0351700
  1135 154.258 -6.04017 0.0279578
  1136 159.567 -3.79380 0.823478
  1137 159.544 -3.78377 -0.808224
  1138 41.0794 26.3652 32.3940
  1139 124.308 -1.61426 -1.01974
  1140 124.319 -1.60172 1.01386
  1141 157.173 11.8127 -0.185182
  1142 205.160 24.2822 -69.9882
  1143 193.191 33.4588 -12.2884
  1144 176.517 -6.73449 -16.7530
  1145 173.938 -8.62196 -12.2871
  1146 142.557 -11.5156 -7.23254
  1147 141.943 0.429869 4.70423
  1148 160.959 9.97513 -11.3840
  1149 158.591 8.46386 10.8560
  1150 165.374 -6.51845 -3.14733
  1151 157.527 -9.55092 -0.388470
  1152 142.689 -9.35324 -5.25528
  1153 170.404 -0.982765 8.73069
  1154 306.042 30.9921 4.34816
  1155 171.671 -3.63399 15.9148
  1156 171.886 11.2881 17.2123
  1157 159.100 -15.7140 -3.68368
  1158 18.5960 3.30506 -11.1763
  1159 162.089 -7.47951 -2.41402
  1160 104.847 -0.197638 -0.0579617
  1161 104.864 -0.196888 0.0570945
  1162 198.597 -5.25636 9.45945
  1163 189.306 -15.9057 5.59680
  1164 272.741 49.1398 11.6036
  1165 62.1334 -0.153294 -6.25336
  1166 62.5441 -0.139334 6.20207
  1167 143.940 -2.93627 -0.504399
  1168 143.930 -2.91587 0.499484
  1169 162.649 -14.3841 0.387448
  1170 130.619 0.548128 2.12150
  1171 166.649 -11.8614 4.56165
  1172 8.96253 10.6624 -4.71341
  1173 29.0236 14.7413 19.0727
  1174 110.772 -5.89996 36.3454
  1175 192.306 36.8686 -8.76195
  1176 184.888 -0.481550 -2.51018
  1177 195.216 -0.279577 0.162250
  1178 195.429 -0.394916 -0.109902
  1179 109.530 -0.311072 -0.206088
  1180 109.548 -0.308740 0.204162
  1181 177.183 11.3512 19.6117
  1182 264.728 45.6363 -0.962683
  1183 182.342 30.2996 -8.79464
  1184 136.725 -9.94435 37.3289
  1185 110.179 -5.65443 -36.2807
  1186 121.938 -8.33324 -12.5669
  1187 171.012 -4.68313 4.10476
  1188 239.638 52.5463 0.369493
  1189 121.941 -8.27979 12.4584
  1190 174.991 -2.93033 3.11034
  1191 154.203 5.64728 10.3445
  1192 171.044 5.28268 18.7840
  1193 245.829 55.0571 4.68496
  1194 144.239 -3.80552 0.958095
  1195 144.250 -3.82645 -0.967118
  1196 177.169 -3.21742 6.36568
  1197 102.318 -1.16757 4.19941
  1198 102.245 -1.17985 -4.24208
  1199 173.405 -2.22634 -1.46396
  1200 70.7269 41.8524 -63.9968
  1201 150.077 -8.39773 -39.9496
  1202 140.108 -4.47441 -1.94077
  1203 140.119 -4.45150 1.94104
  1204 186.838 -0.769324 1.06994
  1205 176.126 -2.17031 2.49648
  1206 9.19393 11.1955 8.01285
  1207 192.573 -0.174129 0.872669
  1208 22.1266 27.4829 27.2647
  1209 171.830 -2.43738 -1.86534
  1210 -0.274435 -4.28999 -3.74407
  1211 120.431 -11.7372 -28.0805
  1212 120.072 -11.4476 27.7869
  1213 192.572 -0.301565 -0.957250
  1214 163.151 -8.59743 -2.82095
  1215 186.672 -0.689867 -1.11403
  1216 147.599 -4.81548 -0.789326
  1217 147.580 -4.79459 0.775810
  1218 173.289 -2.20810 1.38273
  1219 161.969 -7.33566 2.38865
  1220 155.581 -4.99058 -0.411537
  1221 155.641 -5.00757 0.432560
  1222 186.543 -0.711867 -0.915182
  1223 160.232 -16.7923 -26.9456
  1224 182.264 -0.984709 -0.953858
  1225 172.599 -2.51118 1.98434
  1226 117.961 -1.38542 -1.58672
  1227 117.976 -1.37136 1.57550
  1228 132.703 -2.01381 -0.760352
  1229 132.706 -1.99849 0.755521
  1230 218.285 33.9066 12.6868
  1231 183.220 -14.0023 8.12912
  1232 125.086 -0.494145 46.2687
  1233 97.5440 -0.195776 1.60964
  1234 97.4599 -0.197741 -1.62771
  1235 172.897 -3.15184 12.0275
  1236 165.785 -2.39774 0.479302
  1237 165.796 -2.38834 -0.478976
  1238 189.085 37.0653 4.07012
  1239 174.449 -18.2122 21.0058
  1240 98.1093 -1.46696 5.93788
  1241 98.0077 -1.47886 -5.98672
  1242 165.468 -3.95321 1.71735
  1243 165.432 -3.97917 -1.67598
  1244 170.925 -4.62041 -3.96713
  1245 155.298 0.0189124 5.57361
  1246 273.507 67.8892 -21.4682
  1247 173.917 -6.29633 -10.8403
  1248 28.5960 7.08096 16.3380
  1249 179.801 -9.51901 15.0049
  1250 141.986 3.00728 -4.16319
  1251 10.2843 7.94326 5.56794
  1252 239.039 25.8146 -0.0469832
  1253 175.415 -7.92974 -15.0250
  1254 142.709 1.94890 6.37061
  1255 97.6972 -6.21847 18.9637
  1256 178.507 -13.7604 9.44577
  1257 261.811 48.3880 13.1240
  1258 58.6469 8.89992 31.8949
  1259 179.603 -2.02372 -5.46828
  1260 352.196 3.88120 -3.60655
  1261 364.512 5.52710 16.1735
  1262 390.145 13.5249 -38.2524
  1263 173.549 -5.35952 -13.3201
  1264 173.704 -7.86781 11.5283
  1265 176.631 -12.5162 11.0000
  1266 -5.22809 0.544218 3.35990
  1267 -4.77579 0.417710 -3.63574
  1268 172.158 -18.9667 -9.19829
  1269 176.631 -17.7915 -14.2940
  1270 131.641 0.794888 -2.62516
  1271 171.505 -19.3239 14.3418
  1272 182.989 -8.62188 -15.2641
  1273 3.12466 5.24240 0.177301
  1274 147.708 -2.69129 0.427412
  1275 147.721 -2.71267 -0.428554
  1276 182.352 -1.34978 3.76518
  1277 174.993 -2.87434 -2.93501
  1278 164.381 -17.9574 -4.46160
  1279 149.430 -8.16911 1.87996
  1280 148.648 -8.05898 -2.11869
  1281 176.324 -3.64078 8.58968
  1282 180.625 -6.58329 -17.3121
  1283 10.6853 8.28331 -5.33032
</Section>

newXOutput 11

<Section columns = "stress_xx | stress_yy | stress_xy">
  1 217.679 0.00342744 0.449505
  2 217.697 0.00588533 -0.451160
  3 114.475 -0.0586861 -0.163065
  4 -1.46913 -1.45940 -2.11075
  5 400.885 152.603 125.313
  6 397.031 158.455 -125.946
  7 -1.70428 -1.39287 2.23763
  8 114.456 -0.0591633 0.162544
  9 219.310 -0.341654 0.144790
  10 218.795 -0.550152 -0.0907398
  11 218.202 -0.345599 0.536931
  12 217.616 -0.495555 0.182909
  13 216.365 -0.409529 0.847579
  14 215.240 -0.418720 0.638495
  15 212.659 -0.372536 1.20689
  16 209.050 -0.228858 1.77008
  17 205.814 -0.260291 1.95359
  18 201.081 -0.394093 2.34336
  19 194.598 -0.00379534 3.43965
  20 188.607 -0.291480 3.24883
  21 181.886 -0.396622 4.54992
  22 172.165 0.284185 3.93789
  23 165.205 0.405864 4.63769
  24 156.132 0.698137 3.61276
  25 149.890 0.698089 3.63455
  26 140.838 1.01022 1.84792
  27 138.948 1.59621 1.97557
  28 137.818 1.28949 -0.581265
  29 139.383 0.714284 -1.28773
  30 142.256 0.717480 -1.57603
  31 149.031 0.923198 -3.15363
  32 155.609 0.728081 -4.00609
  33 165.330 0.136085 -4.76147
  34 173.120 -0.109939 -4.36168
  35 181.478 -0.318247 -4.30797
  36 189.074 -0.225783 -3.05500
  37 195.655 -0.228249 -2.62883
  38 201.121 -0.382624 -2.22142
  39 206.050 -0.263269 -1.56937
  40 209.171 -0.302357 -1.67499
  41 212.184 -0.390352 -1.22898
  42 215.069 -0.469769 -0.562045
  43 216.561 -0.372376 -0.644806
  44 217.386 -0.210679 -0.412336
  45 216.891 -0.0877611 -0.374936
  46 219.042 -0.560573 0.0540316
  47 219.390 -0.358254 -0.149517
  48 211.766 -0.0795024 -0.277302
  49 206.731 -0.768632 -0.485545
  50 200.625 -1.15709 -0.337536
  51 193.207 -1.77281 -0.456999
  52 186.212 -1.96013 -0.576376
  53 178.770 -2.51432 -0.544056
  54 172.207 -2.83225 -0.315538
  55 166.453 -3.21729 -0.135024
  56 159.824 -2.68290 -0.135970
  57 152.186 -2.53233 -0.196310
  58 144.817 -2.02187 -0.0767979
  59 137.826 -1.31285 -0.0366867
  60 131.170 -0.952177 -0.00329703
  61 125.313 -0.509797 0.0503162
  62 119.298 -0.153313 -0.188793
  63 114.561 0.156822 0.213636
  64 112.461 0.472209 0.135338
  65 113.971 -0.00527217 0.335091
  66 112.435 -0.0767140 0.399930
  67 111.046 -0.108535 0.500214
  68 109.140 -0.0245559 0.661274
  69 106.733 -0.0147087 0.839639
  70 105.012 -0.163879 1.64622
  71 99.8490 0.147933 1.80318
  72 96.2537 -0.0179838 2.08019
  73 90.8969 -0.104688 2.35541
  74 84.7069 -0.171439 2.87243
  75 76.9777 -0.0446052 3.48745
  76 67.5509 0.0394973 3.83318
  77 59.5062 -0.0990801 5.47065
  78 43.4401 0.520628 5.13595
  79 32.6107 0.450502 5.43670
  80 19.7391 -0.0776471 5.99256
  81 9.15459 1.03605 6.17963
  82 -2.84352 1.52244 3.60948
  83 -11.4371 1.54004 1.15969
  84 -10.8193 1.45658 -0.740264
  85 -10.0193 1.19758 -3.06729
  86 -5.85921 -0.429842 -2.86770
  87 -0.748756 -5.62555 -3.15172
  88 0.502675 -10.4325 -3.99769
  89 1.47412 -16.7619 -2.37122
  90 3.31941 -17.6623 -0.175927
  91 7.08878 -6.04219 8.90299
  92 21.5016 29.7318 31.5528
  93 130.447 115.119 111.321
  94 483.732 71.5629 81.8150
  95 434.128 10.3083 26.9008
  96 402.044 4.21587 8.23232
  97 390.166 3.54845 0.658584
  98 396.341 4.76465 -7.08776
  99 432.903 9.52964 -21.2637
  100 514.766 34.5640 -71.0880
  101 76.9442 116.759 -92.6056
  102 16.1270 19.2298 -25.8544
  103 7.71609 -5.26510 -9.19954
  104 3.09240 -17.8139 -1.25424
  105 0.815050 -12.8748 2.75138
  106 1.07276 -13.1213 3.48815
  107 0.0315511 -4.88694 3.48679
  108 -6.10978 -0.299099 2.73141
  109 -10.3413 0.898412 2.68842
  110 -11.3839 1.77484 0.805187
  111 -11.8183 1.52115 -1.05673
  112 -3.65447 1.56057 -3.36827
  113 8.42784 1.04551 -5.88415
  114 18.9952 0.0304075 -5.89341
  115 31.8472 0.487473 -5.45041
  116 42.7463 0.535008 -5.17845
  117 58.9674 -0.101318 -5.52071
  118 67.0884 0.0446480 -3.87350
  119 76.5748 -0.0427159 -3.53435
  120 84.4981 -0.188764 -2.89680
  121 90.6222 -0.100326 -2.36325
  122 96.0471 -0.0111905 -2.10387
  123 99.6815 0.145908 -1.82527
  124 104.894 -0.165375 -1.66500
  125 106.640 -0.0156840 -0.851270
  126 109.073 -0.0254683 -0.670883
  127 110.997 -0.110030 -0.507871
  128 112.400 -0.0779919 -0.405308
  129 113.944 -0.00640356 -0.338558
  130 112.440 0.471489 -0.136978
  131 114.540 0.156492 -0.214645
  132 119.277 -0.154624 0.188180
  133 125.293 -0.513071 -0.0516104
  134 131.152 -0.959474 0.00176776
  135 137.813 -1.32302 0.0351978
  136 144.810 -2.03651 0.0753531
  137 152.187 -2.55070 0.195192
  138 159.833 -2.70403 0.134929
  139 166.469 -3.24065 0.134631
  140 172.227 -2.85543 0.316347
  141 178.798 -2.53541 0.546381
  142 186.233 -1.97487 0.584793
  143 193.221 -1.78596 0.496861
  144 200.658 -1.08639 0.345273
  145 206.879 -0.745351 0.475069
  146 211.794 -0.112061 0.273356
  147 188.083 -17.6572 -2.31712
  148 187.936 -17.4217 2.38537
  149 196.486 28.3125 -10.2118
  150 210.318 12.4355 21.8999
  151 159.179 -15.2281 -34.3196
  152 160.440 -15.2191 33.1777
  153 153.649 -6.63304 3.80566
  154 153.667 -6.72910 -3.81077
  155 223.663 7.97499 -17.2813
  156 187.576 -6.67390 4.87091
  157 187.499 -6.50729 -4.80842
  158 242.487 54.5238 3.01246
  159 191.482 -0.304942 -21.1407
  160 140.876 -11.2501 -15.2657
  161 140.868 -11.1521 15.1199
  162 191.976 -4.31194 19.2019
  163 181.474 13.1937 12.4738
  164 74.3073 12.2117 -40.9205
  165 82.6210 11.5492 43.1559
  166 236.882 2.47770 3.60269
  167 192.754 -7.33517 -13.5763
  168 256.017 56.2936 -2.43123
  169 173.208 -4.86150 0.375538
  170 173.169 -4.84347 -0.358512
  171 195.594 -2.22988 -2.15324
  172 196.258 -1.98595 1.86889
  173 134.419 -2.02837 -2.35153
  174 134.431 -2.00639 2.33698
  175 211.087 -5.88010 43.5629
  176 175.434 7.20729 -13.4199
  177 114.167 -8.63845 -24.8132
  178 114.513 -8.57392 24.6372
  179 127.982 -4.34307 -8.01152
  180 127.990 -4.29120 7.94482
  181 193.751 -5.01944 11.5316
  182 175.750 -12.1135 0.344249
  183 175.102 -12.0230 -0.0446750
  184 200.759 -19.3562 -2.15287
  185 201.768 -18.4388 -0.368365
  186 278.117 65.3405 -8.17595
  187 200.432 32.3300 9.57174
  188 201.209 12.3763 -21.8067
  189 210.516 -2.17979 -50.8763
  190 200.174 -11.2521 -15.6853
  191 201.863 -8.00883 18.2899
  192 167.871 -19.0913 16.4118
  193 167.937 -18.9614 -16.3550
  194 178.683 2.23213 16.1786
  195 80.7368 -1.88923 -30.2553
  196 80.9482 -2.07186 30.0574
  197 314.861 47.3986 6.71399
  198 189.429 -11.2478 8.80471
  199 196.733 -3.51966 -7.59816
  200 154.556 -3.84552 -1.66642
  201 154.555 -3.82350 1.65966
  202 188.055 -2.42690 -14.7512
  203 214.571 31.5778 -17.6736
  204 178.265 15.9707 -2.50628
  205 114.865 -4.20644 11.3830
  206 114.683 -4.22172 -11.4766
  207 200.019 -2.10114 4.25108
  208 193.695 3.64725 21.7113
  209 156.964 -11.5801 -7.01273
  210 155.836 -10.9680 7.22141
  211 229.247 33.9994 16.6152
  212 271.570 36.1652 3.94210
  213 17.5014 13.9681 -10.8928
  214 16.1595 12.9133 9.21980
  215 110.668 31.4077 72.9084
  216 187.496 -12.4376 -6.96716
  217 200.810 -2.02005 -3.84503
  218 176.544 1.50102 -14.8906
  219 122.366 -1.30232 -3.53905
  220 122.402 -1.28726 3.50408
  221 168.144 -7.94426 -1.03261
  222 168.220 -7.98933 0.934862
  223 189.804 -2.53495 12.5931
  224 220.216 -12.7933 3.50382
  225 217.046 44.6733 -5.18416
  226 170.226 -16.5301 -7.33651
  227 216.418 -3.73817 14.6598
  228 183.883 -2.98404 0.897147
  229 183.888 -2.95721 -0.895644
  230 168.914 -16.4495 7.67254
  231 194.094 -12.2615 12.8736
  232 275.752 34.3019 -15.1325
  233 59.6571 35.5633 -52.2232
  234 162.266 5.59916 3.17804
  235 194.157 17.1411 18.2488
  236 207.849 -1.41904 -19.7708
  237 193.833 -6.93495 -18.0683
  238 101.259 -3.36372 -14.3314
  239 101.627 -3.31125 14.2776
  240 194.238 -2.28587 -9.82431
  241 185.199 -4.60226 2.67804
  242 185.112 -4.59338 -2.59917
  243 37.5613 3.63549 -19.0188
  244 38.2143 3.18954 18.9604
  245 207.290 -18.0914 -14.7888
  246 205.278 -0.607293 0.631110
  247 205.522 -0.620183 -0.672054
  248 189.422 15.6926 -16.6649
  249 165.705 3.09748 9.68448
  250 354.872 56.8773 38.0116
  251 352.173 40.1063 -23.9369
  252 252.001 54.7564 -0.698114
  253 157.137 -7.49400 45.8931
  254 143.980 -4.77603 -48.0583
  255 164.597 -3.37708 -0.487651
  256 164.580 -3.35296 0.482916
  257 135.501 -3.75431 4.80020
  258 135.507 -3.80805 -4.84840
  259 199.564 -2.06099 6.17101
  260 193.334 -13.7248 -10.7757
  261 122.806 -0.276027 -0.811782
  262 122.829 -0.271594 0.805812
  263 190.886 -7.65638 -8.51526
  264 79.0049 -2.62903 -19.8208
  265 79.3719 -2.63799 19.6670
  266 193.133 -8.31985 14.6173
  267 146.868 -15.5907 27.5693
  268 147.271 -15.8713 -27.4870
  269 164.789 6.21157 -4.50697
  270 142.163 -2.26106 -1.57784
  271 142.172 -2.24441 1.57059
  272 180.084 -0.475715 11.9892
  273 216.082 39.7625 12.3032
  274 113.640 -1.46671 6.07237
  275 113.551 -1.47964 -6.12963
  276 198.763 -16.5357 7.97205
  277 184.001 -20.5852 -17.9470
  278 205.936 -0.879879 2.00945
  279 140.979 -8.52581 -10.3556
  280 140.715 -8.42710 10.3105
  281 255.867 25.0483 64.4981
  282 118.031 -9.49250 33.0677
  283 191.079 26.8956 -1.08731
  284 244.063 26.6622 -11.6941
  285 183.096 -14.1754 3.25701
  286 184.097 -21.1560 16.0724
  287 118.418 -9.33057 -33.4657
  288 21.5373 26.5083 23.7196
  289 190.917 -7.68720 8.66712
  290 251.592 32.5438 9.57859
  291 207.686 -0.783480 -1.74177
  292 186.208 6.48088 -19.1775
  293 184.529 -10.4149 5.01768
  294 180.595 -15.2742 -0.402863
  295 185.459 8.48834 18.4534
  296 197.777 -16.5487 -7.22159
  297 281.046 55.0129 -4.38926
  298 184.478 -10.0067 -4.80843
  299 153.792 43.2298 -89.7972
  300 188.902 -19.9998 -2.63445
  301 187.534 -20.5413 4.81277
  302 136.607 -12.4710 -21.7004
  303 121.718 -0.514857 -1.78057
  304 121.747 -0.505973 1.76429
  305 136.654 -12.4779 21.5734
  306 199.473 -0.313211 -21.9916
  307 216.234 -8.93394 -10.1725
  308 163.400 -9.94523 -3.44535
  309 163.279 -9.96717 3.51496
  310 197.113 -16.9605 29.2121
  311 195.902 -1.51916 7.44323
  312 239.771 0.742119 9.07348
  313 159.863 -5.71158 -1.83658
  314 159.870 -5.68949 1.82328
  315 144.958 -3.87597 -3.07769
  316 144.955 -3.83754 3.07144
  317 163.895 2.14165 -9.37135
  318 212.889 15.6051 -21.2976
  319 332.181 89.1556 -41.4685
  320 194.442 -1.57421 -0.739430
  321 194.319 -1.55178 0.756359
  322 102.879 -0.0381779 41.2585
  323 144.339 -6.69182 -6.73546
  324 144.045 -6.66495 6.75119
  325 102.864 -0.268843 -41.1021
  326 202.377 23.9329 -17.8960
  327 227.804 11.2020 16.5540
  328 197.191 -14.0780 -32.5576
  329 180.291 -6.92559 2.40810
  330 180.100 -6.87067 -2.32516
  331 192.918 -3.88871 -4.24566
  332 180.227 -0.359073 -11.2184
  333 203.295 0.917626 21.6238
  334 203.509 -1.34224 -4.27867
  335 120.374 -7.45664 16.5897
  336 120.243 -7.50099 -16.7287
  337 188.524 -0.435498 20.0329
  338 114.185 -0.997089 -3.57934
  339 114.259 -0.987500 3.54295
  340 194.287 -4.36942 6.44944
  341 232.769 47.7308 -9.45647
  342 192.804 -3.92215 4.39565
  343 204.717 25.7844 17.9910
  344 196.124 -3.61365 20.9587
  345 154.324 -2.93255 0.577478
  346 154.328 -2.95250 -0.582508
  347 185.053 -0.676311 -17.7590
  348 246.337 51.9294 6.57001
  349 203.744 37.5408 0.377133
  350 125.040 14.6104 -61.6529
  351 12.0166 5.61395 -7.99611
  352 13.2778 6.06706 8.64826
  353 -0.854934 1.31031 3.96612
  354 -0.0477714 0.658456 -4.12193
  355 364.485 25.2655 8.79339
  356 168.937 -13.8104 -4.03602
  357 194.461 -4.21536 -6.29667
  358 174.884 -3.01911 0.376773
  359 174.863 -2.99256 -0.377515
  360 186.455 20.5997 -9.01617
  361 159.398 -16.3472 13.4792
  362 13.5089 19.9609 -14.4144
  363 159.571 -16.3480 -13.7459
  364 188.984 21.5063 9.59573
  365 193.756 -5.10092 -11.0067
  366 205.890 -11.4332 -13.6225
  367 218.515 46.4520 3.58626
  368 206.428 -12.8250 11.4706
  369 83.0917 -2.14175 13.2986
  370 82.5630 -2.10096 -13.3934
  371 46.4942 1.21453 -18.2877
  372 47.0324 1.01698 18.2023
  373 166.632 0.477624 9.49517
  374 322.714 93.2777 34.7155
  375 200.666 -1.21634 -5.36431
  376 155.102 -13.2472 -10.2579
  377 154.956 -13.2074 10.2425
  378 192.420 -4.39344 -13.7938
  379 220.338 -10.6468 2.95664
  380 168.930 -13.7952 4.17871
  381 242.744 1.33592 -18.2453
  382 134.222 -1.14979 -0.576448
  383 134.238 -1.13936 0.571186
  384 188.921 -1.08012 -8.73479
  385 99.7794 -1.50726 -8.69637
  386 99.8483 -1.55395 8.58412
  387 226.610 28.9123 -18.3425
  388 121.944 8.67792 57.1671
  389 176.902 -9.30297 1.50048
  390 177.080 -9.28440 -1.51053
  391 207.657 35.2779 -11.4527
  392 196.976 -5.80424 -19.9447
  393 198.245 -20.2097 15.4449
  394 164.008 -4.37862 -0.736075
  395 163.986 -4.35464 0.725711
  396 190.217 -14.6581 7.50821
  397 205.582 -0.920019 3.19656
  398 125.958 -4.73715 -10.0795
  399 126.006 -4.73507 9.98550
  400 192.594 6.45449 -21.3913
  401 182.242 -3.87911 1.37080
  402 182.236 -3.88703 -1.34419
  403 188.075 -2.20036 16.3932
  404 174.392 12.6411 4.29418
  405 195.455 -8.20829 17.5178
  406 283.853 59.6795 9.93829
  407 92.9346 -5.02427 -26.5500
  408 93.2035 -5.02700 26.3348
  409 41.2344 22.3875 -31.1074
  410 210.836 -0.538772 0.924947
  411 103.997 -0.941239 -5.49405
  412 104.143 -0.921258 5.44267
  413 192.600 -4.98055 13.5395
  414 174.637 -18.9981 8.48477
  415 198.010 -2.34852 3.01623
  416 200.878 10.2225 22.4005
  417 43.3316 23.8373 32.5234
  418 174.913 -18.8977 -7.73939
  419 180.820 -16.8381 -0.806010
  420 57.1981 -1.15365 -16.6411
  421 57.6676 -1.19976 16.5192
  422 138.492 -10.9813 -39.8935
  423 207.929 -3.05972 19.3303
  424 137.920 -11.1599 39.5262
  425 191.884 -10.7380 -11.6008
  426 176.983 11.8717 -9.44235
  427 191.929 -8.23804 10.9699
  428 207.538 -0.847928 -2.19753
  429 5.98884 6.17623 2.36307
  430 41.2072 46.9266 46.2749
  431 183.895 -0.681989 8.38666
  432 152.740 2.01712 4.08714
  433 155.557 2.47798 -5.55629
  434 132.732 -2.29232 -3.38432
  435 132.742 -2.26199 3.35903
  436 189.215 -14.6519 -6.94138
  437 190.800 -3.71438 -18.3975
  438 153.622 2.79092 -1.50996
  439 283.956 67.5059 12.6047
  440 38.0335 12.9295 -23.2491
  441 42.0376 11.8717 24.9116
  442 176.741 -6.28245 1.28956
  443 176.670 -6.26405 -1.23950
  444 235.865 52.5257 -0.781382
  445 149.180 59.2657 91.7799
  446 228.137 -3.31609 -4.67147
  447 128.984 -6.86781 -13.6801
  448 129.041 -6.81788 13.5543
  449 129.472 -3.00196 5.33570
  450 129.452 -3.02547 -5.38946
  451 175.995 3.84332 -15.3100
  452 212.000 -0.236577 -0.624031
  453 170.778 7.75285 8.56716
  454 217.767 26.9276 19.5970
  455 181.109 -13.4629 -2.52241
  456 197.947 -2.22711 -2.92640
  457 208.437 -0.760538 2.02538
  458 211.410 -0.249014 0.357692
  459 211.601 -0.289310 -0.269635
  460 113.188 -0.230211 1.31151
  461 113.134 -0.233499 -1.32685
  462 198.447 -12.5609 14.0079
  463 177.732 6.95437 14.8220
  464 186.333 0.740020 -19.5110
  465 195.493 -4.04253 8.25264
  466 285.695 45.8756 -53.4951
  467 195.806 -10.8252 -15.4797
  468 1.40763 3.63063 1.20993
  469 1.41115 3.67039 -0.242480
  470 154.158 -8.85379 5.63654
  471 153.621 -8.74050 -5.57608
  472 245.583 3.85779 28.2618
  473 67.9993 60.5847 -69.0315
  474 192.951 -0.559179 6.57472
  475 220.280 -12.9021 -15.6339
  476 115.162 -6.74721 19.2521
  477 234.992 41.7044 -13.5659
  478 192.971 -10.4051 13.0451
  479 161.231 -7.78974 -2.58017
  480 161.374 -7.65715 2.57008
  481 166.588 0.861163 -8.39126
  482 114.794 -6.72328 -19.3830
  483 171.062 0.0399367 8.45526
  484 165.149 -18.8639 -24.4463
  485 164.724 -18.8928 24.5197
  486 199.431 -1.27474 5.91168
  487 179.766 16.9161 1.77634
  488 184.864 2.88978 62.4036
  489 271.127 55.5691 -0.350548
  490 186.856 -3.05333 1.48711
  491 186.870 -3.04146 -1.52989
  492 142.092 -2.60251 -2.08993
  493 142.098 -2.57953 2.08049
  494 74.6613 3.60109 34.4999
  495 193.784 -9.29413 -15.0930
  496 175.459 -3.77251 0.394663
  497 175.441 -3.75736 -0.389926
  498 152.464 -16.2115 20.0202
  499 76.1433 4.73504 -35.3938
  500 194.232 -15.7951 -7.91603
  501 3.15150 0.302755 1.87466
  502 168.056 8.59407 0.616906
  503 187.600 -2.06126 -0.500110
  504 187.592 -2.09234 0.491023
  505 152.577 -16.1875 -20.1828
  506 220.537 -11.4832 20.3719
  507 217.692 7.91350 20.0844
  508 201.346 -1.25407 -1.48372
  509 193.635 -16.0219 8.01073
  510 118.738 -0.141815 -0.223842
  511 118.760 -0.140642 0.221562
  512 193.120 -7.38136 -15.9940
  513 186.256 13.7730 16.2688
  514 214.973 5.31217 -19.8195
  515 118.027 -0.215399 -0.734735
  516 118.054 -0.212563 0.728984
  517 380.004 54.8585 -49.3011
  518 194.014 23.1542 14.3765
  519 201.535 -1.14189 1.32591
  520 181.234 -17.2056 1.23928
  521 151.324 -5.09469 3.05250
  522 151.327 -5.13593 -3.04639
  523 211.692 -12.8478 6.92123
  524 202.913 -4.01275 -20.2506
  525 226.652 44.8651 11.1674
  526 187.989 3.21943 20.2178
  527 190.472 -3.56426 2.77412
  528 185.246 -19.7059 -23.3546
  529 191.514 -4.70529 15.6696
  530 376.023 17.1872 -6.92595
  531 210.193 -15.8123 -1.56226
  532 200.092 -1.20585 -0.375956
  533 200.137 -1.29191 0.339348
  534 379.902 25.5127 24.3599
  535 183.126 -0.0802352 17.1945
  536 258.950 43.0520 -6.12974
  537 193.755 -5.19459 -8.07264
  538 85.1667 -0.837900 -5.95469
  539 85.4513 -0.797946 5.89055
  540 130.142 -12.2226 -27.6932
  541 130.234 -12.0165 27.4781
  542 190.370 -3.40961 -2.74440
  543 206.919 7.61139 -22.0254
  544 181.661 -12.3720 3.21287
  545 194.903 22.3790 -14.9409
  546 197.204 -2.22499 7.96095
  547 248.592 12.0238 -1.16918
  548 168.011 -5.77896 -0.488104
  549 167.955 -5.75547 0.477858
  550 182.990 -8.61484 3.83345
  551 271.553 53.2349 -2.17871
  552 192.345 8.41587 21.0111
  553 81.7963 21.1226 51.1589
  554 187.063 -11.2507 41.3711
  555 248.805 11.1568 -45.3605
  556 196.693 16.2738 -19.5961
  557 175.265 -15.0859 -35.8028
  558 189.699 -20.7549 -6.26841
  559 198.414 -20.0315 -9.58255
  560 25.4614 32.5090 -30.8549
  561 199.369 -2.42412 -5.01879
  562 301.050 58.7005 -16.5054
  563 183.998 -8.25040 -4.19863
  564 185.607 -5.97922 3.45767
  565 185.431 -5.83762 -3.33111
  566 125.942 -0.786802 -1.60567
  567 125.965 -0.776539 1.59331
  568 16.9543 1.91956 -9.93041
  569 17.9943 2.00903 10.1683
  570 93.6337 -4.43356 -20.2879
  571 94.3775 -4.45641 20.2472
  572 188.128 -10.1563 -7.53475
  573 191.978 -20.8380 6.84355
  574 197.364 -18.6871 2.31416
  575 160.721 -2.84951 -0.525695
  576 160.710 -2.82722 0.522530
  577 152.922 -15.9969 -30.6693
  578 171.814 -14.0319 37.9389
  579 149.118 -15.0344 30.8588
  580 193.296 -4.26873 -19.8022
  581 119.304 -2.08029 6.06644
  582 119.246 -2.10272 -6.12203
  583 183.617 10.1040 -16.3238
  584 184.046 -0.320144 -7.61288
  585 230.639 50.4115 -5.11316
  586 149.553 -2.31651 -0.547518
  587 149.555 -2.29980 0.544483
  588 196.991 -0.563499 -4.34013
  589 134.493 -4.68341 -6.63564
  590 134.490 -4.66500 6.57250
  591 110.485 5.25987 49.1062
  592 191.731 -8.77216 -11.0993
  593 105.973 -5.52805 35.2271
  594 188.405 -9.72522 7.67454
  595 198.765 -2.71060 5.52365
  596 196.428 -1.67599 -1.32981
  597 135.902 -1.76247 -1.46599
  598 135.916 -1.74725 1.45692
  599 221.115 44.3905 -9.99029
  600 105.902 -5.30659 -35.3707
  601 187.790 -8.07743 -6.20203
  602 168.833 -3.11242 -0.216027
  603 168.814 -3.08742 0.214991
  604 320.825 43.3477 -7.55970
  605 110.047 -0.753714 3.36563
  606 109.950 -0.761261 -3.40005
  607 173.774 3.92339 13.9507
  608 251.848 20.5915 -4.73339
  609 117.862 0.972293 -48.7725
  610 59.2662 1.63006 -26.3797
  611 59.7838 1.27368 26.2380
  612 147.472 -8.76013 8.12989
  613 149.075 -9.01801 -7.87105
  614 253.807 51.0432 6.01341
  615 195.582 -1.74170 1.21603
  616 165.814 4.57410 -8.40634
  617 208.147 37.5935 9.05392
  618 207.346 39.0212 -6.01865
  619 170.433 -9.50235 -0.861077
  620 171.772 -9.28001 0.242054
  621 122.588 26.5386 -70.3821
  622 145.609 -5.10575 -4.45949
  623 145.617 -5.04495 4.44096
  624 377.456 77.1614 57.9965
  625 193.152 -6.29048 17.2016
  626 108.555 -3.96359 -13.0017
  627 304.064 68.1003 44.2435
  628 108.815 -3.93978 12.9462
  629 185.626 -7.14868 -48.4904
  630 128.337 -0.695954 -0.593233
  631 128.357 -0.689821 0.589738
  632 159.526 1.37824 7.32710
  633 71.3144 -1.10435 -11.6921
  634 71.7428 -1.10694 11.5940
  635 168.198 -11.9951 2.98614
  636 176.669 -14.2049 -0.255896
  637 209.569 -0.407990 -1.82987
  638 115.086 -0.211968 0.956567
  639 115.046 -0.215586 -0.967907
  640 158.224 -3.60391 -0.736176
  641 158.216 -3.58159 0.728912
  642 182.910 -20.2382 23.6365
  643 209.639 23.4463 -19.9258
  644 138.228 -6.60662 -8.56879
  645 138.119 -6.49305 8.50164
  646 164.998 -11.9850 -4.44184
  647 261.444 57.1768 0.767291
  648 196.165 -18.9355 -1.20635
  649 169.505 -4.04310 -0.159261
  650 169.477 -4.02069 0.160236
  651 234.600 25.5509 15.8232
  652 196.372 -2.75951 -8.65636
  653 172.107 -0.240839 -6.89329
  654 78.7413 -2.67964 -25.4530
  655 78.9999 -2.76007 25.2332
  656 164.623 -14.3195 -7.46030
  657 247.831 55.0551 0.186611
  658 191.164 25.9364 -6.47499
  659 125.359 -1.21908 -2.98714
  660 125.384 -1.20178 2.96019
  661 178.996 -5.01128 -1.23279
  662 179.032 -5.01933 1.27399
  663 337.408 44.1764 19.3793
  664 213.211 -0.516831 0.514950
  665 205.262 -0.756728 3.11231
  666 204.382 -0.780698 -3.61937
  667 193.667 -17.9927 4.01022
  668 140.790 -1.70861 -0.733191
  669 140.801 -1.69552 0.729328
  670 206.178 33.1880 13.8982
  671 266.036 59.3175 -2.51967
  672 144.052 -10.8793 -12.1476
  673 144.000 -10.7679 12.0800
  674 181.477 -18.7252 -2.96659
  675 190.813 11.3327 -19.7568
  676 228.349 0.524919 9.57118
  677 149.656 -2.85074 -1.40389
  678 149.658 -2.83072 1.39690
  679 129.471 -11.4345 -25.0099
  680 191.803 -18.5225 -2.20316
  681 158.874 -17.6372 22.0430
  682 75.4181 23.9866 -49.3218
  683 147.892 -13.8225 16.9913
  684 178.262 0.0452594 6.39151
  685 129.584 -11.3022 24.8318
  686 187.677 -8.23967 6.27841
  687 147.956 -13.7677 -17.1579
  688 150.046 1.88890 1.53277
  689 115.891 -3.23668 9.20640
  690 115.786 -3.24168 -9.27765
  691 158.984 -18.0961 -22.2953
  692 197.092 -12.9372 -13.5543
  693 180.549 -2.44150 -0.310502
  694 180.577 -2.46928 0.311838
  695 201.558 -12.7784 13.5069
  696 182.921 -19.1266 3.67569
  697 222.630 20.4102 19.6207
  698 200.526 -3.71131 20.7816
  699 192.947 -6.86547 12.7993
  700 183.320 15.0406 -12.3812
  701 221.684 37.4052 15.4797
  702 191.147 -2.61727 -12.2527
  703 190.889 -6.25398 6.80045
  704 196.404 30.8595 3.50521
  705 194.042 -3.23881 10.7501
  706 60.5092 41.0002 51.6112
  707 180.743 -20.7674 -13.2883
  708 209.305 3.84040 21.2103
  709 211.619 -6.51498 -15.4714
  710 212.044 -0.223356 1.03481
  711 192.907 -6.55732 -10.1708
  712 180.982 -20.9329 11.9970
  713 354.714 31.3899 -5.27564
  714 105.429 -0.486689 3.52636
  715 105.297 -0.492218 -3.56266
  716 195.979 -3.45885 -4.85729
  717 213.368 -0.165022 -1.00227
  718 164.300 -14.5484 7.50206
  719 197.974 -7.31759 18.9436
  720 303.797 71.2534 -20.1264
  721 187.639 -13.5886 6.56211
  722 208.582 -13.6827 -8.49721
  723 190.967 -6.08089 -6.69413
  724 213.412 -0.306749 -0.347998
  725 192.862 5.64544e-05 21.4155
  726 8.66319 7.07826 10.5021
  727 219.553 -8.64908 -30.9452
  728 238.363 13.9199 10.5248
  729 198.156 -20.1976 8.42225
  730 139.357 -3.45816 3.66727
  731 139.361 -3.50808 -3.68790
  732 187.399 91.2247 -96.4340
  733 201.663 -13.2841 -12.5583
  734 149.431 0.705593 -2.92893
  735 175.743 0.935566 13.6415
  736 194.260 -9.67169 15.3549
  737 186.207 -15.6917 3.70730
  738 194.315 -17.6525 -25.3894
  739 185.018 -14.6409 -4.01644
  740 219.559 -10.5220 -3.69973
  741 202.084 -1.54420 2.86197
  742 179.519 -10.8019 2.33126
  743 329.361 65.9032 -34.7371
  744 191.890 -5.04359 5.43657
  745 189.042 3.07647 -20.7743
  746 162.271 -1.87588 54.6548
  747 202.871 16.3727 21.3292
  748 174.456 -13.7963 1.19203
  749 133.793 -10.6830 -18.2184
  750 133.797 -10.6504 18.0595
  751 184.729 20.7674 -2.89224
  752 188.509 -2.16642 18.6203
  753 190.772 -4.51300 -15.9828
  754 179.728 -11.0186 -2.39522
  755 173.660 -15.6339 3.80377
  756 197.955 32.7938 -3.98197
  757 185.972 -16.0941 -2.97129
  758 186.408 -11.7804 6.34337
  759 189.183 -2.31199 1.03467
  760 189.308 -2.24487 -1.02939
  761 254.587 56.2299 1.94413
  762 208.632 -17.6977 -5.10714
  763 193.504 -5.85383 10.1112
  764 202.196 -1.53573 -2.61834
  765 203.522 1.38091 -21.8263
  766 232.612 12.0769 -13.6087
  767 111.108 -0.132367 -1.63275
  768 111.181 -0.130639 1.61461
  769 1.52555 -3.78849 -2.71068
  770 197.483 -0.201423 4.02494
  771 180.020 -0.332369 -15.1310
  772 186.362 -1.74011 13.4204
  773 171.771 20.5998 80.6605
  774 212.253 43.9194 -0.484392
  775 150.368 -10.9183 9.34422
  776 24.9331 0.616876 -9.88746
  777 25.7309 0.458883 9.99594
  778 184.598 -1.32119 -15.1039
  779 150.802 -11.0312 -9.33852
  780 200.985 -1.69386 2.20736
  781 100.569 -4.39123 17.3272
  782 99.6775 -4.37720 -17.3438
  783 191.887 -4.89270 -5.29838
  784 120.489 -3.16354 -7.99567
  785 120.548 -3.14146 7.91835
  786 200.018 -1.80249 -6.02664
  787 151.242 -4.12724 -2.43220
  788 151.243 -4.09826 2.43256
  789 218.575 -1.39501 -15.5734
  790 195.928 -2.03041 -21.5616
  791 97.3601 -0.658518 -4.51654
  792 97.5602 -0.652441 4.46066
  793 4.00215 2.48516 -5.85938
  794 4.91232 2.61897 6.17426
  795 156.915 0.728170 -5.32761
  796 179.133 -20.1339 -9.70533
  797 -2.10387 -1.47052 3.58923
  798 -1.82994 -1.70726 -3.54615
  799 186.572 -3.64433 2.18179
  800 202.587 -15.7532 -7.60455
  801 208.392 30.9775 -16.2510
  802 201.901 -1.51468 -2.09391
  803 438.593 87.3903 -82.3868
  804 186.534 -3.63060 -2.15462
  805 281.793 54.0613 4.03539
  806 199.273 5.81442 -22.4488
  807 220.744 16.6275 -20.0331
  808 35.1705 -0.418681 -9.18561
  809 35.8840 -0.474224 9.16742
  810 122.383 -1.85238 4.70239
  811 122.342 -1.86854 -4.74866
  812 116.238 -0.306884 0.872835
  813 116.207 -0.310007 -0.880746
  814 222.844 37.6081 -15.3852
  815 129.737 -0.873912 -1.27060
  816 129.756 -0.863618 1.26236
  817 189.104 -1.90228 -19.4229
  818 276.533 27.0414 21.7537
  819 169.117 3.70122 -11.7184
  820 57.0159 -0.528959 9.89937
  821 56.4900 -0.533688 -9.98231
  822 222.602 5.44672 57.4977
  823 195.758 -3.48821 5.01350
  824 173.292 11.4303 -4.88558
  825 78.4662 -0.146066 6.78259
  826 78.0340 -0.108513 -6.83644
  827 119.011 -0.660087 -2.29076
  828 119.051 -0.650586 2.26713
  829 21.1043 18.9081 15.8672
  830 181.187 4.27635 17.4888
  831 202.139 29.7954 -13.8591
  832 218.198 25.3396 -19.7861
  833 141.952 -5.50070 -5.92691
  834 141.861 -5.45635 5.91538
  835 225.685 48.3375 7.06300
  836 195.607 -1.49492 -0.292644
  837 195.614 -1.48328 0.326787
  838 192.948 -5.72261 -12.8636
  839 160.942 -10.8364 5.17894
  840 177.995 -20.0132 9.77858
  841 210.191 -17.2243 15.3581
  842 159.355 -4.67601 -1.29203
  843 159.351 -4.65601 1.28086
  844 182.154 16.8544 7.93721
  845 170.774 2.27226 -12.6727
  846 47.5289 54.3305 53.7173
  847 174.221 -15.5094 -3.36849
  848 174.744 -7.81860 0.887161
  849 174.839 -7.83077 -0.895444
  850 192.268 -2.80851 20.4730
  851 191.025 -12.5171 -9.86210
  852 170.112 -11.3389 -1.66323
  853 395.661 12.8239 -19.8335
  854 161.585 -15.3979 10.5314
  855 161.465 -15.6028 -10.7130
  856 192.179 -2.26509 10.4362
  857 291.376 74.8497 -15.2179
  858 151.346 -13.8901 -13.4020
  859 167.770 -18.9517 12.5155
  860 151.293 -13.7184 13.2757
  861 164.269 -6.66849 -1.41704
  862 164.260 -6.64300 1.40392
  863 23.5916 10.2933 13.8339
  864 206.638 15.4603 -21.6725
  865 157.386 -6.22581 -2.54717
  866 157.412 -6.16012 2.55735
  867 155.281 -2.60332 -0.302748
  868 155.276 -2.58382 0.300301
  869 171.499 -3.37024 0.134940
  870 171.477 -3.34597 -0.135688
  871 138.148 -2.80769 -3.18631
  872 138.156 -2.77498 3.17079
  873 158.049 -8.42953 -3.95871
  874 158.067 -8.36761 3.97543
  875 3.65719 -2.02602 -1.37861
  876 239.989 45.0253 11.9485
  877 206.362 -7.18823 -17.6692
  878 167.648 -18.6796 -12.6608
  879 181.310 -5.79070 2.15273
  880 181.227 -5.72727 -2.09875
  881 197.608 0.275475 22.0181
  882 216.050 -15.4214 -7.89064
  883 191.647 13.0470 -69.8112
  884 85.4251 -1.28157 34.1954
  885 -3.78735 1.99499 -2.12977
  886 -3.34361 2.24817 2.38732
  887 23.4096 10.9492 -14.1130
  888 193.501 -5.47759 8.03702
  889 204.163 -1.24077 -3.40867
  890 183.352 -17.5760 29.3853
  891 85.2164 -1.18249 -34.3396
  892 204.348 -16.6585 5.65373
  893 228.590 -7.02216 25.0934
  894 162.939 0.640673 5.65409
  895 187.990 17.8810 13.5562
  896 100.788 -5.72837 25.2520
  897 100.387 -5.77526 -25.4307
  898 121.039 -5.90153 -14.1247
  899 128.266 -6.16550 -43.7369
  900 204.085 -4.72301 19.6752
  901 281.893 65.6423 8.41892
  902 204.679 7.90506 22.1005
  903 193.504 -4.07079 -11.7037
  904 131.028 -5.52505 44.8333
  905 247.432 45.4781 -9.23236
  906 23.8047 20.4394 -19.6496
  907 177.750 -0.375128 -6.09681
  908 121.167 -5.85109 13.9897
  909 148.445 -3.34743 2.16070
  910 148.444 -3.37221 -2.16670
  911 191.312 -12.4513 10.1632
  912 199.325 -1.13689 0.870964
  913 146.090 1.41368 -54.5057
  914 210.467 -0.417598 1.61824
  915 208.725 -0.337326 -2.04433
  916 153.158 1.28961 -4.88846
  917 201.176 -0.798217 -3.57897
  918 149.064 -7.10681 -5.38019
  919 149.164 -6.99665 5.39509
  920 -5.11837 1.77094 -2.97438
  921 -6.96172 1.06723 3.10833
  922 199.327 -1.04797 -0.876812
  923 64.2117 -1.42432 23.0484
  924 63.7992 -1.27925 -23.1873
  925 211.938 31.0158 17.2052
  926 386.194 6.95324 6.17815
  927 199.195 22.2053 17.8935
  928 227.468 -8.14189 6.11107
  929 196.691 -10.8990 15.5286
  930 245.180 51.4992 -7.01247
  931 149.686 0.582639 3.68157
  932 189.367 -4.35235 -3.38659
  933 196.132 10.5493 -21.6356
  934 238.781 6.80392 -5.42839
  935 184.337 -11.3726 -5.10370
  936 91.8857 -0.545231 -5.06780
  937 91.9920 -0.526105 4.99273
  938 194.736 -4.49250 -9.27841
  939 6.14629 7.91774 1.23662
  940 186.885 -19.3661 -1.03798
  941 159.964 4.63261 -0.505340
  942 243.311 53.7491 -4.66421
  943 37.6854 28.1070 -33.0554
  944 186.380 -1.38338 -12.0269
  945 127.684 -2.23254 -4.37030
  946 127.705 -2.20537 4.32937
  947 1.01174 -5.44618 4.18747
  948 125.736 -9.48987 -20.2789
  949 190.304 -10.9577 -9.54635
  950 115.724 0.246692 -0.357119
  951 115.747 0.248049 0.354318
  952 191.336 23.2457 -10.8855
  953 207.250 -0.507189 -0.328607
  954 207.248 -0.516635 0.426272
  955 125.786 -9.46112 20.1317
  956 192.298 -0.235275 -4.77932
  957 222.257 1.58988 15.0983
  958 197.027 -2.66816 3.90352
  959 30.3584 7.96356 -17.6689
  960 204.613 -1.14672 3.09854
  961 184.124 1.44963 18.7670
  962 194.223 26.9709 9.68672
  963 194.771 2.26253 -22.1648
  964 133.020 -7.28472 -12.0418
  965 211.032 -7.41930 14.9675
  966 133.104 -7.25372 11.9113
  967 5.82034 6.46741 -0.169587
  968 22.0102 3.97718 12.9284
  969 107.631 -1.98600 8.34744
  970 107.494 -1.98901 -8.39995
  971 189.498 -4.44117 3.55430
  972 202.882 35.4431 5.39653
  973 102.961 9.58479 -51.4660
  974 169.772 -10.6652 1.39469
  975 159.314 -16.7350 -16.1223
  976 233.086 44.7928 12.1754
  977 179.047 -3.08796 0.426188
  978 179.041 -3.06921 -0.426946
  979 196.659 -3.54034 -6.72713
  980 180.391 15.5302 -7.32551
  981 418.846 122.563 82.7799
  982 36.4497 2.17107 -17.2093
  983 37.0688 1.80746 17.2526
  984 2.70660 -4.15363 0.579272
  985 181.043 9.98122 15.0355
  986 159.252 -16.8333 15.9955
  987 198.034 -9.30957 -17.5569
  988 215.566 17.6452 21.5371
  989 208.013 -16.7918 -19.1479
  990 304.418 64.1833 20.6030
  991 175.643 -2.77689 -0.0243519
  992 175.620 -2.75168 0.0247140
  993 206.199 -8.34803 16.8027
  994 13.9965 21.8093 23.6557
  995 90.5906 -1.97261 11.9887
  996 90.2906 -1.94762 -12.1270
  997 108.931 -5.45964 16.3426
  998 108.544 -5.37918 -16.4114
  999 122.980 -5.20590 11.6759
  1000 134.426 -1.13704 -0.583952
  1001 134.441 -1.12816 0.581244
  1002 345.278 107.674 -67.8989
  1003 310.169 77.6295 30.9357
  1004 122.880 -5.23465 -11.7827
  1005 212.445 -0.938937 18.4950
  1006 188.906 19.6078 -13.0706
  1007 133.434 -11.4148 36.2259
  1008 172.173 -20.3276 -19.0985
  1009 196.922 -1.56859 -7.05425
  1010 87.8202 6.21923 41.7735
  1011 112.776 -8.63854 28.9569
  1012 172.649 8.77755 -9.39373
  1013 198.985 -3.90357 -20.9920
  1014 258.927 100.841 110.555
  1015 162.596 4.89803 6.66659
  1016 223.338 48.4509 -0.845723
  1017 164.932 6.34001 -62.0194
  1018 166.812 -17.6382 -10.7339
  1019 213.618 -0.166064 -0.822015
  1020 203.316 18.7036 -20.7837
  1021 117.034 -0.813870 2.96541
  1022 116.981 -0.822264 -2.99629
  1023 4.19427 1.24625 -5.68456
  1024 133.045 -6.22316 -10.0187
  1025 112.644 -8.75141 -29.1886
  1026 132.933 -6.20677 9.89889
  1027 194.405 -5.87947 19.4085
  1028 174.225 -10.8094 0.222766
  1029 182.479 3.32062 -18.1598
  1030 187.699 23.4718 3.81271
  1031 257.902 14.9048 7.55501
  1032 192.842 -14.6145 9.77894
  1033 120.587 -9.75492 -22.1933
  1034 180.811 6.34880 -16.9667
  1035 134.649 -11.2559 -36.4336
  1036 260.192 56.8576 -0.752597
  1037 175.423 11.4575 8.54509
  1038 224.081 -1.37114 -11.8782
  1039 167.858 -17.6404 9.80424
  1040 192.655 -6.05522 15.0798
  1041 191.539 -10.0663 11.0916
  1042 190.492 -9.53255 9.66946
  1043 235.830 29.8374 -16.2079
  1044 189.867 -3.03373 15.1773
  1045 171.863 -20.3849 18.7777
  1046 183.472 -7.45535 3.46950
  1047 120.660 -9.77111 22.0577
  1048 171.963 -12.7467 -1.75808
  1049 98.9433 -4.77047 -30.9799
  1050 142.167 -14.8154 24.4628
  1051 193.583 -1.27088 -8.15186
  1052 188.215 -2.11212 -17.1897
  1053 162.867 -12.9955 -6.39610
  1054 99.1164 -4.91567 30.7223
  1055 174.771 0.391511 -11.8596
  1056 129.606 -8.75283 -15.6489
  1057 237.220 50.7716 7.79414
  1058 51.7457 8.81697 -29.1345
  1059 412.900 29.2169 40.1614
  1060 94.1751 7.23092 -43.7919
  1061 190.500 -15.7587 -6.32544
  1062 129.636 -8.67480 15.5113
  1063 172.795 1.77095 13.2312
  1064 95.5608 -2.00580 9.91917
  1065 95.5047 -2.05602 -10.0258
  1066 192.559 -5.32611 -17.9703
  1067 206.045 -0.927483 1.31435
  1068 201.331 -0.413244 3.62504
  1069 198.552 6.61797 22.3766
  1070 185.348 -1.39582 16.1141
  1071 144.423 15.2544 67.1403
  1072 215.075 -0.120252 0.410853
  1073 199.552 27.1217 14.2497
  1074 167.883 2.36891 11.3762
  1075 204.108 -0.734294 3.49614
  1076 128.857 -1.46837 -2.42304
  1077 128.876 -1.45127 2.40509
  1078 81.3745 -2.36490 -16.5264
  1079 81.7164 -2.44961 16.4035
  1080 168.410 8.31713 4.76593
  1081 259.000 13.1949 -17.2471
  1082 237.917 -0.754777 -34.5435
  1083 187.345 -0.152490 -4.93715
  1084 142.235 -14.9283 -24.6555
  1085 163.206 -12.3582 5.65848
  1086 188.490 -0.419881 5.15551
  1087 198.125 -14.3206 -11.4447
  1088 121.124 -0.320489 1.46203
  1089 121.098 -0.325891 -1.47228
  1090 190.131 -16.2103 6.32359
  1091 180.545 -3.61414 0.789167
  1092 180.515 -3.61688 -0.776048
  1093 175.572 -17.7347 5.86895
  1094 227.825 -7.44290 -1.07821
  1095 99.9657 -0.191635 -2.80924
  1096 100.138 -0.184951 2.77703
  1097 154.242 -9.64381 -41.7395
  1098 163.369 -3.91069 0.634293
  1099 163.388 -3.93483 -0.641944
  1100 99.2883 52.6008 73.7279
  1101 228.113 18.6229 -18.0598
  1102 32.5950 16.1598 -21.7160
  1103 197.163 -2.82177 -3.77576
  1104 51.5065 17.9824 -33.3838
  1105 107.731 -6.88558 -21.1123
  1106 215.234 -0.175934 0.242468
  1107 215.332 -0.161364 -0.181329
  1108 193.460 -10.9966 -13.3627
  1109 171.365 -19.1777 -26.5130
  1110 51.7672 7.50478 27.7633
  1111 210.315 20.8602 20.3464
  1112 191.414 -1.79722 -0.355325
  1113 191.433 -1.79945 0.374571
  1114 209.934 -13.6404 32.0466
  1115 215.072 43.3308 7.89243
  1116 126.017 -3.15359 -6.28746
  1117 126.045 -3.13741 6.23759
  1118 96.4216 11.1889 51.9197
  1119 182.050 0.894704 -17.5931
  1120 56.3745 18.4206 35.9634
  1121 236.721 -4.28950 -9.67971
  1122 230.672 51.4033 2.46414
  1123 158.024 -12.6368 7.94763
  1124 143.795 0.706367 -0.717077
  1125 202.149 -1.69339 4.53648
  1126 209.697 -0.214731 1.77675
  1127 43.5452 0.0956126 -8.28494
  1128 44.2024 0.0726201 8.22511
  1129 162.352 2.62987 -8.41167
  1130 168.757 -4.96807 -0.281109
  1131 168.715 -4.94178 0.278213
  1132 17.4747 25.4634 -25.1174
  1133 28.0750 57.7937 -51.3118
  1134 171.005 -6.69422 0.0189882
  1135 171.077 -6.69703 -0.0271552
  1136 176.934 -4.21330 0.872622
  1137 176.909 -4.20241 -0.855926
  1138 45.6483 29.2814 36.0467
  1139 138.036 -1.78397 -1.14040
  1140 138.049 -1.77022 1.13396
  1141 174.431 13.1172 -0.203699
  1142 227.096 27.0727 -77.6682
  1143 214.223 37.0831 -13.5121
  1144 195.703 -7.47185 -18.4275
  1145 192.836 -9.56504 -13.4923
  1146 158.139 -12.7585 -8.08714
  1147 157.640 0.481368 5.19304
  1148 178.602 11.0750 -12.5602
  1149 175.990 9.39956 11.9799
  1150 183.349 -7.23313 -3.41058
  1151 174.685 -10.5874 -0.348259
  1152 158.294 -10.3615 -5.88831
  1153 188.978 -1.09213 9.61435
  1154 338.785 34.2955 4.80878
  1155 190.370 -4.03307 17.5246
  1156 190.653 12.5194 18.9778
  1157 176.409 -17.4172 -4.18625
  1158 20.7595 3.66272 -12.4553
  1159 179.722 -8.29566 -2.59642
  1160 116.587 -0.215951 -0.0654294
  1161 116.608 -0.215124 0.0644819
  1162 220.065 -5.82701 10.3020
  1163 209.763 -17.6288 6.35841
  1164 302.118 54.3966 12.8985
  1165 69.1808 -0.167790 -6.94279
  1166 69.6335 -0.152306 6.88635
  1167 159.694 -3.25581 -0.576711
  1168 159.684 -3.23343 0.571278
  1169 180.337 -15.9446 0.322825
  1170 145.149 0.614000 2.34349
  1171 184.763 -13.1513 4.94448
  1172 9.99119 11.8849 -5.31185
  1173 32.2905 16.3678 21.2536
  1174 122.902 -6.55980 40.3710
  1175 213.260 40.8582 -9.63578
  1176 204.896 -0.537219 -2.75753
  1177 216.191 -0.313522 0.176182
  1178 216.424 -0.441056 -0.118607
  1179 121.745 -0.340156 -0.230613
  1180 121.767 -0.337594 0.228505
  1181 196.493 12.5847 21.6143
  1182 293.269 50.5094 -1.06618
  1183 202.240 33.5880 -9.68603
  1184 151.603 -11.0386 41.4673
  1185 122.244 -6.28879 -40.2986
  1186 135.353 -9.23125 -13.9758
  1187 189.571 -5.20249 4.47726
  1188 265.528 58.2495 0.609913
  1189 135.357 -9.17245 13.8562
  1190 193.951 -3.26243 3.39207
  1191 171.149 6.27685 11.4173
  1192 189.711 5.86033 20.7089
  1193 272.400 60.9891 5.33810
  1194 160.023 -4.21815 1.09282
  1195 160.034 -4.24106 -1.10278
  1196 196.377 -3.57861 6.97947
  1197 113.727 -1.28977 4.66897
  1198 113.646 -1.30329 -4.71586
  1199 192.193 -2.48300 -1.58854
  1200 78.4703 46.4656 -71.0702
  1201 166.348 -9.31496 -44.3809
  1202 155.461 -4.95628 -2.18968
  1203 155.473 -4.93119 2.19004
  1204 206.984 -0.864896 1.16754
  1205 195.198 -2.42093 2.72155
  1206 10.2400 12.5112 8.98079
  1207 213.313 -0.197653 0.953744
  1208 24.6009 30.6192 30.3776
  1209 190.460 -2.71663 -2.02581
  1210 -0.297443 -4.74627 -4.14389
  1211 133.613 -13.0234 -31.1978
  1212 133.218 -12.7026 30.8730
  1213 213.311 -0.338332 -1.04699
  1214 180.896 -9.53388 -3.03959
  1215 206.804 -0.777078 -1.21384
  1216 163.728 -5.33801 -0.918833
  1217 163.707 -5.31521 0.903885
  1218 192.064 -2.46294 1.49969
  1219 179.590 -8.13583 2.56915
  1220 172.537 -5.53673 -0.404997
  1221 172.603 -5.55522 0.428062
  1222 206.657 -0.801780 -0.996602
  1223 177.602 -18.6209 -29.9720
  1224 201.947 -1.10711 -1.03688
  1225 191.308 -2.79820 2.15712
  1226 131.031 -1.52901 -1.77193
  1227 131.049 -1.51355 1.75963
  1228 147.297 -2.22902 -0.855509
  1229 147.301 -2.21223 0.850208
  1230 241.904 37.5886 13.8579
  1231 203.070 -15.5282 8.85520
  1232 138.705 -0.557987 51.3825
  1233 108.472 -0.214306 1.78995
  1234 108.379 -0.216470 -1.80981
  1235 191.711 -3.49947 13.2361
  1236 183.789 -2.67135 0.511995
  1237 183.800 -2.66103 -0.511649
  1238 209.703 41.0773 4.47883
  1239 193.323 -20.1883 23.4053
  1240 109.055 -1.62194 6.59655
  1241 108.942 -1.63501 -6.65020
  1242 183.446 -4.39267 1.85331
  1243 183.406 -4.42166 -1.80785
  1244 189.473 -5.13344 -4.32589
  1245 172.358 0.0223697 6.14681
  1246 302.955 75.2059 -23.9146
  1247 192.811 -6.98796 -11.9054
  1248 31.8413 7.85323 18.1980
  1249 199.318 -10.5598 16.4788
  1250 157.679 3.35055 -4.59641
  1251 11.4862 8.82607 6.24196
  1252 264.736 28.6796 -0.304236
  1253 194.477 -8.79711 -16.5166
  1254 158.478 2.17328 7.03424
  1255 108.514 -6.89468 21.0635
  1256 197.870 -15.2597 10.3230
  1257 289.899 53.7639 14.8456
  1258 65.1601 9.86124 35.4636
  1259 199.060 -2.25533 -5.99701
  1260 389.531 4.29856 -3.98166
  1261 403.085 6.10646 17.8458
  1262 431.330 14.9251 -42.2282
  1263 192.420 -5.94885 -14.6488
  1264 192.574 -8.72935 12.6567
  1265 195.801 -13.8811 12.0485
  1266 -5.79196 0.608870 3.71765
  1267 -5.28901 0.469332 -4.02510
  1268 190.816 -21.0287 -10.3217
  1269 195.744 -19.7240 -15.9752
  1270 146.275 0.888089 -2.89923
  1271 190.086 -21.4229 16.0198
  1272 202.842 -9.56430 -16.7594
  1273 3.51557 5.83466 0.245327
  1274 163.851 -2.98706 0.478285
  1275 163.865 -3.01054 -0.479562
  1276 202.079 -1.50818 4.12448
  1277 193.952 -3.20055 -3.19956
  1278 182.238 -19.9069 -5.06015
  1279 165.745 -9.05240 2.14957
  1280 164.881 -8.92989 -2.41185
  1281 195.464 -4.04554 9.43464
  1282 200.239 -7.30470 -19.0351
  1283 11.9325 9.20370 -5.98317
</Section>

newXOutput 12

<Section columns = "stress_xx | stress_yy | stress_xy">
  1 238.645 -0.00212655 0.489621
  2 238.663 0.000695764 -0.491387
  3 126.042 -0.0624927 -0.177584
  4 -1.61497 -1.60365 -2.32044
  5 438.364 167.666 137.358
  6 434.165 174.059 -137.959
  7 -1.87367 -1.52994 2.46074
  8 126.020 -0.0630122 0.177025
  9 240.421 -0.377298 0.156787
  10 239.862 -0.606281 -0.101766
  11 239.225 -0.383510 0.582613
  12 238.593 -0.547338 0.194676
  13 237.244 -0.453278 0.919487
  14 236.029 -0.462822 0.690324
  15 233.235 -0.411470 1.31048
  16 229.317 -0.256542 1.92302
  17 225.807 -0.289362 2.12449
  18 220.664 -0.434110 2.55070
  19 213.611 -0.00738012 3.74716
  20 207.092 -0.321000 3.54194
  21 199.766 -0.434591 4.96397
  22 189.173 0.310979 4.29899
  23 181.578 0.446871 5.06526
  24 171.678 0.766897 3.94797
  25 164.861 0.770984 3.97278
  26 154.978 1.11164 2.02059
  27 152.912 1.75577 2.16081
  28 151.675 1.42065 -0.636008
  29 153.385 0.790889 -1.40787
  30 156.524 0.791489 -1.72345
  31 163.922 1.01624 -3.44764
  32 171.106 0.801582 -4.37751
  33 181.712 0.152845 -5.20145
  34 190.210 -0.118840 -4.76146
  35 199.321 -0.348382 -4.69981
  36 207.598 -0.248838 -3.33109
  37 214.761 -0.252582 -2.86428
  38 220.706 -0.421829 -2.41838
  39 226.062 -0.291550 -1.70576
  40 229.448 -0.336273 -1.81933
  41 232.716 -0.431654 -1.33430
  42 235.842 -0.518566 -0.607081
  43 237.457 -0.411834 -0.698524
  44 238.345 -0.235453 -0.445405
  45 237.798 -0.102224 -0.405154
  46 240.130 -0.616984 0.0616366
  47 240.506 -0.395298 -0.161883
  48 232.209 -0.0981088 -0.302166
  49 226.728 -0.857467 -0.531163
  50 220.073 -1.28679 -0.366159
  51 211.986 -1.96305 -0.496522
  52 204.354 -2.16772 -0.624847
  53 196.233 -2.77211 -0.590352
  54 189.066 -3.11779 -0.340317
  55 182.783 -3.53512 -0.143101
  56 175.543 -2.94630 -0.143635
  57 167.201 -2.77769 -0.210572
  58 159.153 -2.21485 -0.0797555
  59 151.520 -1.43524 -0.0369265
  60 144.254 -1.03888 -0.00101605
  61 137.862 -0.553576 0.0569784
  62 131.299 -0.164571 -0.205341
  63 126.133 0.173130 0.235556
  64 123.841 0.516930 0.150462
  65 125.479 -0.00459603 0.370219
  66 123.793 -0.0824121 0.442434
  67 122.265 -0.117199 0.553163
  68 120.169 -0.0252764 0.729959
  69 117.523 -0.0150865 0.925929
  70 115.624 -0.177277 1.81152
  71 109.958 0.162680 1.98347
  72 106.008 -0.0187918 2.28605
  73 100.122 -0.113634 2.58906
  74 93.3237 -0.186683 3.15663
  75 84.8340 -0.0479269 3.83251
  76 74.4803 0.0438873 4.21384
  77 65.6327 -0.107058 6.01465
  78 47.9849 0.570813 5.64975
  79 36.0753 0.493725 5.98088
  80 21.9068 -0.0877206 6.59661
  81 10.2431 1.13543 6.80849
  82 -2.98458 1.67158 3.98864
  83 -12.4748 1.69170 1.29615
  84 -11.8358 1.60339 -0.791219
  85 -10.9956 1.31981 -3.36005
  86 -6.43414 -0.468188 -3.14683
  87 -0.818561 -6.17747 -3.45997
  88 0.558038 -11.4478 -4.38200
  89 1.62653 -18.3582 -2.58039
  90 3.65710 -19.2783 -0.149074
  91 7.80244 -6.37349 9.85657
  92 23.6239 33.0837 34.7637
  93 142.795 126.851 122.107
  94 529.134 78.3614 89.3983
  95 475.067 11.2804 29.3627
  96 440.140 4.61986 8.98565
  97 427.213 3.89201 0.716512
  98 433.946 5.22123 -7.74055
  99 473.753 10.4356 -23.2118
  100 562.824 37.8409 -77.6042
  101 84.2904 128.776 -101.640
  102 17.7157 21.6378 -28.5171
  103 8.49545 -5.51830 -10.2086
  104 3.40844 -19.4287 -1.43382
  105 0.905121 -14.0877 2.99128
  106 1.18568 -14.4015 3.82111
  107 0.0372127 -5.36361 3.82821
  108 -6.71001 -0.323611 2.99603
  109 -11.3486 0.990169 2.94368
  110 -12.4545 1.95323 0.861858
  111 -12.8894 1.67039 -1.18337
  112 -3.87049 1.71342 -3.72363
  113 9.45032 1.14576 -6.48379
  114 21.0955 0.0309229 -6.48753
  115 35.2422 0.534202 -5.99572
  116 47.2279 0.586504 -5.69615
  117 65.0448 -0.109523 -6.06924
  118 73.9758 0.0495312 -4.25783
  119 84.3944 -0.0458973 -3.88372
  120 93.0960 -0.205665 -3.18310
  121 99.8220 -0.108814 -2.59749
  122 105.782 -0.0113514 -2.31184
  123 109.775 0.160476 -2.00751
  124 115.494 -0.178906 -1.83195
  125 117.421 -0.0161478 -0.938576
  126 120.095 -0.0262710 -0.740404
  127 122.210 -0.118831 -0.561482
  128 123.754 -0.0838065 -0.448274
  129 125.448 -0.00582709 -0.373981
  130 123.816 0.516161 -0.152238
  131 126.110 0.172775 -0.236651
  132 131.276 -0.165997 0.204685
  133 137.838 -0.557137 -0.0583772
  134 144.233 -1.04680 -0.000635137
  135 151.505 -1.44628 0.0353206
  136 159.145 -2.23075 0.0781954
  137 167.202 -2.79766 0.209364
  138 175.553 -2.96926 0.142502
  139 182.800 -3.56054 0.142668
  140 189.088 -3.14301 0.341197
  141 196.263 -2.79506 0.592888
  142 204.378 -2.18375 0.634020
  143 212.001 -1.97736 0.540012
  144 220.110 -1.20920 0.374535
  145 226.889 -0.831914 0.519677
  146 232.241 -0.133842 0.297840
  147 206.423 -19.3805 -2.40636
  148 206.260 -19.1218 2.48111
  149 215.764 31.0795 -11.1408
  150 230.831 13.6425 23.8566
  151 174.720 -16.7257 -37.7604
  152 176.108 -16.7147 36.5088
  153 168.785 -7.27334 4.22809
  154 168.804 -7.37824 -4.23347
  155 245.391 8.75639 -18.7551
  156 205.867 -7.33396 5.25530
  157 205.782 -7.15158 -5.18804
  158 266.134 59.7875 3.23912
  159 210.225 -0.335440 -23.0616
  160 154.773 -12.3404 -16.8112
  161 154.766 -12.2335 16.6521
  162 210.747 -4.73797 20.9314
  163 199.336 14.4974 13.6243
  164 81.7033 13.3935 -45.0274
  165 90.8168 12.6693 47.4826
  166 259.793 2.74409 3.73122
  167 211.564 -8.05822 -14.7687
  168 280.898 61.7549 -2.48915
  169 190.161 -5.34120 0.364571
  170 190.118 -5.32174 -0.346108
  171 214.600 -2.46384 -2.31999
  172 215.324 -2.19661 2.01266
  173 147.788 -2.21877 -2.59960
  174 147.803 -2.19483 2.58382
  175 231.466 -6.40995 47.9373
  176 192.733 7.92644 -14.6596
  177 125.492 -9.48556 -27.2849
  178 125.872 -9.41487 27.0930
  179 140.715 -4.75824 -8.82230
  180 140.723 -4.70164 8.74974
  181 212.651 -5.51759 12.5451
  182 192.937 -13.2927 0.279361
  183 192.230 -13.1934 0.0472358
  184 220.269 -21.2459 -2.52040
  185 221.381 -20.2392 -0.242914
  186 305.056 71.6817 -9.15600
  187 220.087 35.4818 10.4399
  188 220.882 13.5831 -23.7801
  189 230.817 -2.34094 -55.9536
  190 219.678 -12.3560 -17.0449
  191 221.535 -8.79780 19.8986
  192 184.283 -20.9540 18.1101
  193 184.353 -20.8108 -18.0482
  194 196.269 2.45682 17.6666
  195 88.8111 -2.08868 -33.2793
  196 89.0423 -2.28824 33.0631
  197 345.207 51.9362 7.37358
  198 207.907 -12.3497 9.53340
  199 215.888 -3.87401 -8.25440
  200 169.785 -4.21746 -1.86085
  201 169.785 -4.19359 1.85350
  202 206.471 -2.66669 -16.0854
  203 235.528 34.6509 -19.2451
  204 195.839 17.5501 -2.73669
  205 126.336 -4.61041 12.5198
  206 126.137 -4.62694 -12.6217
  207 219.449 -2.31994 4.60627
  208 212.654 4.00305 23.6879
  209 172.390 -12.7010 -7.76805
  210 171.160 -12.0293 7.99374
  211 251.568 37.3082 18.0389
  212 297.751 39.7805 4.60986
  213 19.3063 15.3717 -12.0602
  214 17.8294 14.2109 10.2126
  215 121.492 34.5124 80.1250
  216 205.789 -13.6540 -7.51832
  217 220.308 -2.23021 -4.16570
  218 193.934 1.65497 -16.2610
  219 134.611 -1.42282 -3.89932
  220 134.651 -1.40640 3.86129
  221 184.625 -8.71702 -1.20143
  222 184.709 -8.76693 1.09438
  223 208.376 -2.78586 13.7267
  224 241.544 -14.0280 4.03064
  225 238.286 49.0062 -5.63772
  226 186.880 -18.1373 -8.14993
  227 237.445 -4.10596 15.8905
  228 201.815 -3.28856 0.954862
  229 201.821 -3.25927 -0.953279
  230 185.447 -18.0490 8.51639
  231 213.019 -13.4638 13.9762
  232 302.261 37.7642 -16.8877
  233 65.5864 39.0896 -57.4713
  234 178.362 6.16638 3.47469
  235 213.192 18.8179 19.9154
  236 228.097 -1.56293 -21.5142
  237 212.762 -7.61766 -19.6810
  238 111.412 -3.68874 -15.7528
  239 111.815 -3.63138 15.6946
  240 213.196 -2.51615 -10.6974
  241 203.261 -5.06222 2.87571
  242 203.166 -5.05279 -2.78984
  243 41.4063 3.98522 -20.9549
  244 42.1194 3.49605 20.8899
  245 227.383 -19.8509 -16.3824
  246 225.148 -0.682067 0.678134
  247 225.413 -0.696355 -0.723738
  248 208.018 17.2336 -18.1922
  249 182.114 3.41505 10.5831
  250 388.870 62.3196 41.6717
  251 385.881 43.9426 -26.2218
  252 276.544 60.0358 -0.714381
  253 172.460 -8.23464 50.4637
  254 158.051 -5.25964 -52.8370
  255 180.755 -3.70952 -0.558141
  256 180.736 -3.68332 0.552926
  257 148.955 -4.11234 5.29906
  258 148.960 -4.17097 -5.35153
  259 218.978 -2.27280 6.70508
  260 212.183 -15.0684 -11.6754
  261 135.120 -0.298255 -0.896523
  262 135.146 -0.293435 0.890046
  263 209.498 -8.41194 -9.23327
  264 86.9665 -2.88858 -21.7932
  265 87.3674 -2.89836 21.6255
  266 211.981 -9.13856 15.9031
  267 161.279 -17.1198 30.3384
  268 161.717 -17.4277 -30.2477
  269 181.116 6.83893 -4.92521
  270 156.252 -2.47585 -1.74516
  271 156.262 -2.45776 1.73729
  272 197.793 -0.519290 13.0857
  273 237.210 43.6241 13.3919
  274 125.036 -1.60424 6.67995
  275 124.938 -1.61831 -6.74226
  276 218.111 -18.1536 8.58571
  277 201.913 -22.5964 -19.8181
  278 225.884 -0.979686 2.17293
  279 154.911 -9.34797 -11.4141
  280 154.623 -9.24014 11.3651
  281 280.332 27.6805 70.9150
  282 129.686 -10.4338 36.3672
  283 209.855 29.5300 -1.18573
  284 267.715 29.2861 -12.5900
  285 200.971 -15.5579 3.45361
  286 202.023 -23.2220 17.7616
  287 130.108 -10.2567 -36.8019
  288 23.7189 29.2001 26.1776
  289 209.533 -8.44533 9.39855
  290 275.950 35.7408 10.2589
  291 227.786 -0.872654 -1.88353
  292 204.489 7.12104 -20.9356
  293 202.541 -11.4343 5.39757
  294 198.233 -16.7626 -0.326407
  295 203.676 9.32469 20.1481
  296 217.034 -18.1668 -7.76595
  297 308.290 60.2982 -4.86812
  298 202.484 -10.9867 -5.17150
  299 168.630 47.5302 -98.6138
  300 207.304 -21.9513 -3.02847
  301 205.807 -22.5461 5.41538
  302 150.075 -13.6873 -23.8760
  303 133.919 -0.560450 -1.96454
  304 133.952 -0.550773 1.94685
  305 150.129 -13.6951 23.7374
  306 218.953 -0.347377 -23.9712
  307 237.225 -9.80443 -10.9707
  308 179.435 -10.9090 -3.85366
  309 179.304 -10.9332 3.93063
  310 216.226 -18.6059 32.1904
  311 215.013 -1.67390 8.10395
  312 262.922 0.865560 10.1708
  313 175.580 -6.26533 -2.06319
  314 175.588 -6.24144 2.04868
  315 159.296 -4.24729 -3.40876
  316 159.293 -4.20542 3.40205
  317 180.138 2.36175 -10.2402
  318 233.647 17.1248 -23.1924
  319 364.139 97.7910 -45.6140
  320 213.334 -1.74544 -0.794387
  321 213.202 -1.72076 0.812899
  322 113.050 -0.0623164 45.3752
  323 158.599 -7.33561 -7.43946
  324 158.279 -7.30663 7.45702
  325 113.033 -0.316895 -45.2031
  326 222.187 26.2680 -19.5156
  327 249.923 12.2983 17.9491
  328 216.300 -15.4415 -35.8609
  329 197.902 -7.60690 2.56512
  330 197.693 -7.54712 -2.47464
  331 211.695 -4.28192 -4.58870
  332 197.949 -0.392135 -12.2436
  333 223.129 1.00035 23.5593
  334 223.268 -1.48352 -4.64572
  335 132.335 -8.17922 18.2480
  336 132.190 -8.22754 -18.3996
  337 206.997 -0.477392 21.8581
  338 125.654 -1.08920 -3.94062
  339 125.735 -1.07875 3.90104
  340 213.205 -4.80771 6.99256
  341 255.472 52.3597 -10.2430
  342 211.572 -4.31820 4.75191
  343 224.746 28.2957 19.6154
  344 215.283 -3.97178 22.8443
  345 169.536 -3.21703 0.649508
  346 169.539 -3.23869 -0.654991
  347 203.208 -0.740924 -19.3792
  348 270.312 56.9627 7.05133
  349 223.722 41.1959 0.411058
  350 137.271 16.0292 -67.7634
  351 13.3052 6.16820 -8.84634
  352 14.6883 6.66697 9.56193
  353 -0.909436 1.45562 4.32785
  354 -0.0287735 0.742728 -4.50035
  355 399.270 27.6784 9.61819
  356 185.483 -15.1516 -4.52185
  357 213.393 -4.63914 -6.82641
  358 191.989 -3.32316 0.395069
  359 191.967 -3.29424 -0.395925
  360 204.789 22.6240 -9.84361
  361 175.030 -17.9374 14.8777
  362 14.8950 22.0273 -15.9460
  363 175.217 -17.9378 -15.1691
  364 207.554 23.6173 10.4763
  365 212.654 -5.60754 -11.9710
  366 225.922 -12.5537 -14.7700
  367 239.897 50.9550 3.89871
  368 226.503 -14.0816 12.4086
  369 91.4867 -2.34916 14.6193
  370 90.9087 -2.30436 -14.7223
  371 51.2598 1.32846 -20.1263
  372 51.8471 1.11219 20.0328
  373 183.127 0.534634 10.3734
  374 353.735 102.379 38.3236
  375 220.190 -1.34318 -5.83423
  376 170.343 -14.5308 -11.3312
  377 170.185 -14.4879 11.3144
  378 211.213 -4.82896 -15.0227
  379 241.691 -11.6800 3.05220
  380 185.475 -15.1354 4.67867
  381 266.139 1.52084 -20.2271
  382 147.582 -1.25586 -0.642252
  383 147.600 -1.24454 0.636555
  384 207.419 -1.18871 -9.52279
  385 109.826 -1.65059 -9.55777
  386 109.902 -1.70192 9.43523
  387 248.671 31.7295 -19.9300
  388 133.893 9.51896 62.8470
  389 194.199 -10.2110 1.55857
  390 194.393 -10.1909 -1.56936
  391 227.991 38.7122 -12.4781
  392 216.206 -6.37631 -21.7279
  393 217.495 -22.1790 17.0914
  394 180.110 -4.80663 -0.846866
  395 180.086 -4.78065 0.835501
  396 208.765 -16.0904 8.09975
  397 225.525 -1.01833 3.46855
  398 138.489 -5.19057 -11.0924
  399 138.542 -5.18856 10.9901
  400 211.459 7.08730 -23.3419
  401 200.027 -4.26914 1.45719
  402 200.020 -4.27801 -1.42831
  403 206.496 -2.41853 17.8786
  404 191.606 13.8974 4.69279
  405 214.530 -9.01624 19.0695
  406 311.359 65.4246 10.9955
  407 102.211 -5.52296 -29.1960
  408 102.506 -5.52580 28.9611
  409 45.3892 24.6035 -34.2838
  410 231.210 -0.603013 0.998222
  411 114.473 -1.02819 -6.03957
  412 114.633 -1.00637 5.98364
  413 211.408 -5.47338 14.7418
  414 191.701 -20.8491 9.42118
  415 217.244 -2.59296 3.25852
  416 220.515 11.2176 24.4298
  417 47.6837 26.1969 35.8322
  418 192.002 -20.7381 -8.60314
  419 198.475 -18.4784 -1.00459
  420 63.0347 -1.27066 -18.3053
  421 63.5470 -1.32106 18.1721
  422 152.067 -12.0714 -43.8718
  423 228.178 -3.36517 21.0296
  424 151.446 -12.2659 43.4701
  425 210.601 -11.7912 -12.5928
  426 194.432 13.0509 -10.3142
  427 210.649 -9.04966 11.9140
  428 227.635 -0.942039 -2.37910
  429 6.61275 6.84900 2.67257
  430 45.3204 51.6916 50.9634
  431 201.949 -0.748073 9.14853
  432 167.965 2.22865 4.46871
  433 171.039 2.73505 -6.07338
  434 145.940 -2.50782 -3.73640
  435 145.951 -2.47476 3.70892
  436 207.670 -16.0832 -7.48028
  437 209.464 -4.08150 -20.0581
  438 168.926 3.08134 -1.65039
  439 311.444 74.0569 14.0179
  440 41.8918 14.1990 -25.6308
  441 46.2869 13.0366 27.4538
  442 194.021 -6.89990 1.34823
  443 193.944 -6.88014 -1.29367
  444 258.894 57.5970 -0.842084
  445 163.493 65.2694 100.794
  446 250.236 -3.62253 -4.91884
  447 141.777 -7.53088 -15.0539
  448 141.840 -7.47649 14.9169
  449 142.362 -3.28658 5.88174
  450 142.339 -3.31214 -5.94026
  451 193.339 4.23062 -16.7221
  452 232.475 -0.269819 -0.672227
  453 187.654 8.53008 9.36189
  454 239.004 29.5462 21.3310
  455 198.800 -14.7758 -2.65561
  456 217.173 -2.46016 -3.16199
  457 228.615 -0.846169 2.19255
  458 231.824 -0.284785 0.385187
  459 232.031 -0.329170 -0.289507
  460 124.594 -0.249726 1.44581
  461 124.533 -0.253310 -1.46249
  462 217.782 -13.7926 15.2081
  463 195.242 7.64704 16.1900
  464 204.610 0.814360 -21.2929
  465 214.536 -4.44802 8.96487
  466 312.976 50.5696 -58.9322
  467 214.902 -11.8875 -16.8305
  468 1.61382 3.99585 1.37186
  469 1.61479 4.04237 -0.309829
  470 169.332 -9.70947 6.24796
  471 168.745 -9.58453 -6.17979
  472 269.220 4.32771 31.2099
  473 74.6434 66.6949 -75.8910
  474 211.809 -0.618141 7.16379
  475 241.581 -14.1399 -17.3313
  476 126.615 -7.40295 21.1701
  477 257.870 45.7619 -14.6978
  478 211.793 -11.4266 14.1736
  479 177.069 -8.54427 -2.89197
  480 177.227 -8.39931 2.88110
  481 183.079 0.950434 -9.16642
  482 126.211 -7.37635 -21.3124
  483 187.960 0.0490979 9.23365
  484 181.282 -20.7100 -26.9278
  485 180.818 -20.7417 27.0106
  486 218.849 -1.40622 6.43094
  487 197.479 18.5874 1.94108
  488 202.744 3.20962 68.5810
  489 297.459 60.9104 -0.383912
  490 205.062 -3.36548 1.59237
  491 205.077 -3.35251 -1.63925
  492 156.170 -2.84987 -2.31547
  493 156.178 -2.82487 2.30524
  494 82.1119 3.93805 37.9651
  495 212.692 -10.2076 -16.4178
  496 192.618 -4.14877 0.399482
  497 192.598 -4.13236 -0.394414
  498 167.427 -17.7932 22.0511
  499 83.7362 5.18108 -38.9463
  500 213.158 -17.3398 -8.53480
  501 3.48697 0.391275 2.00700
  502 184.684 9.45631 0.675235
  503 205.870 -2.27866 -0.534244
  504 205.862 -2.31260 0.524283
  505 167.548 -17.7663 -22.2291
  506 241.859 -12.5755 22.5239
  507 238.870 8.68084 21.8413
  508 220.869 -1.39257 -1.59897
  509 212.503 -17.5882 8.63917
  510 130.687 -0.152181 -0.248345
  511 130.712 -0.150903 0.245876
  512 211.973 -8.10774 -17.4125
  513 204.556 15.1271 17.7632
  514 235.894 5.82754 -21.5557
  515 129.903 -0.233159 -0.810408
  516 129.933 -0.230070 0.804166
  517 416.252 60.0952 -53.9778
  518 213.048 25.4185 15.6904
  519 221.075 -1.27018 1.42833
  520 198.928 -18.8821 1.48070
  521 166.248 -5.58568 3.39233
  522 166.251 -5.63059 -3.38552
  523 232.247 -14.1032 7.41162
  524 222.694 -4.41116 -22.0484
  525 248.778 49.2152 12.1279
  526 206.423 3.53685 22.0663
  527 209.017 -3.92607 2.98713
  528 203.261 -21.6315 -25.7522
  529 210.232 -5.17086 17.0722
  530 411.823 18.8316 -7.57952
  531 230.595 -17.3533 -1.53985
  532 219.494 -1.34065 -0.402062
  533 219.544 -1.43491 0.361865
  534 416.076 27.9385 26.6473
  535 201.111 -0.0855160 18.7666
  536 284.014 47.2847 -6.46372
  537 212.632 -5.71206 -8.76203
  538 93.8084 -0.917810 -6.54351
  539 94.1193 -0.874000 6.47351
  540 142.972 -13.4226 -30.4598
  541 143.075 -13.1964 30.2245
  542 208.905 -3.75678 -2.95566
  543 227.106 8.35019 -23.9974
  544 199.403 -13.5793 3.41410
  545 214.020 24.5690 -16.3032
  546 216.418 -2.45186 8.65969
  547 272.597 13.2446 -1.52159
  548 184.483 -6.34342 -0.589488
  549 184.422 -6.31808 0.578164
  550 200.856 -9.45953 4.11149
  551 297.795 58.4624 -2.65953
  552 211.191 9.23965 22.9306
  553 89.8797 23.1986 56.2756
  554 205.205 -12.3385 45.5167
  555 272.681 12.3563 -49.9418
  556 215.959 17.8656 -21.3804
  557 192.314 -16.5625 -39.3998
  558 208.169 -22.7809 -7.01659
  559 217.688 -21.9862 -10.6623
  560 28.0178 35.8440 -34.0155
  561 218.745 -2.67438 -5.44208
  562 330.135 64.3492 -18.1834
  563 201.957 -9.06122 -4.51299
  564 203.710 -6.57156 3.71719
  565 203.518 -6.41667 -3.57943
  566 138.537 -0.857500 -1.77324
  567 138.563 -0.846326 1.75982
  568 18.7864 2.10458 -10.9478
  569 19.9241 2.20314 11.2091
  570 103.014 -4.86732 -22.3056
  571 103.829 -4.89258 22.2620
  572 206.481 -11.1529 -8.15007
  573 210.661 -22.8723 7.65034
  574 216.567 -20.5129 2.38377
  575 176.523 -3.12937 -0.588094
  576 176.510 -3.10515 0.584620
  577 167.889 -17.5683 -33.7474
  578 188.540 -15.4065 41.7420
  579 163.727 -16.5125 33.9537
  580 212.190 -4.69008 -21.5855
  581 131.238 -2.27628 6.67804
  582 131.174 -2.30073 -6.73852
  583 201.669 11.1029 -17.8255
  584 202.112 -0.351891 -8.30420
  585 253.165 55.2877 -5.54176
  586 164.325 -2.53895 -0.607894
  587 164.327 -2.52081 0.604588
  588 216.207 -0.621519 -4.72670
  589 147.841 -5.13082 -7.31661
  590 147.839 -5.11090 7.24777
  591 121.361 5.75640 53.9970
  592 210.433 -9.63510 -12.0533
  593 116.462 -6.08548 38.7434
  594 206.784 -10.6796 8.30420
  595 218.092 -2.98801 5.99207
  596 215.504 -1.85677 -1.43094
  597 149.413 -1.92769 -1.62303
  598 149.429 -1.91114 1.61320
  599 242.725 48.6962 -10.8587
  600 116.383 -5.84343 -38.8998
  601 206.107 -8.87305 -6.70245
  602 185.381 -3.42180 -0.248483
  603 185.361 -3.39460 0.247321
  604 351.702 47.4966 -8.29895
  605 121.122 -0.823659 3.70239
  606 121.015 -0.831882 -3.73985
  607 190.917 4.31843 15.2400
  608 276.180 22.6487 -4.93713
  609 129.444 1.04649 -53.6256
  610 65.2434 1.77696 -29.0338
  611 65.8098 1.38707 28.8781
  612 162.017 -9.60539 8.97756
  613 163.769 -9.88818 -8.69548
  614 278.447 56.0104 6.38794
  615 214.582 -1.92886 1.30683
  616 182.232 5.03900 -9.18605
  617 228.535 41.2504 9.86537
  618 227.662 42.8158 -6.55825
  619 187.127 -10.4267 -1.02401
  620 188.591 -10.1838 0.345824
  621 134.546 29.1507 -77.3460
  622 160.000 -5.59539 -4.93320
  623 160.009 -5.52908 4.91315
  624 413.528 84.5487 63.5670
  625 212.017 -6.91065 18.7355
  626 119.415 -4.34499 -14.2944
  627 333.135 74.9670 48.8995
  628 119.701 -4.31911 14.2343
  629 203.618 -7.83339 -53.3237
  630 141.160 -0.757608 -0.654957
  631 141.182 -0.750944 0.651166
  632 175.373 1.52227 8.00753
  633 78.5682 -1.21149 -12.8517
  634 79.0359 -1.21434 12.7446
  635 184.678 -13.1600 3.36356
  636 193.940 -15.5873 -0.386910
  637 229.859 -0.454328 -1.98399
  638 126.678 -0.230017 1.05622
  639 126.633 -0.233961 -1.06854
  640 173.794 -3.95490 -0.833709
  641 173.785 -3.93067 0.825775
  642 200.712 -22.2157 26.0580
  643 230.117 25.7304 -21.7127
  644 151.913 -7.24159 -9.44579
  645 151.795 -7.11738 9.37249
  646 181.179 -13.1470 -4.95569
  647 286.857 62.6984 0.959342
  648 215.256 -20.7848 -1.17185
  649 186.115 -4.44253 -0.210831
  650 186.085 -4.41823 0.211803
  651 257.381 28.0473 17.1401
  652 215.509 -3.03895 -9.41571
  653 189.100 -0.260604 -7.52689
  654 86.6476 -2.95003 -27.9919
  655 86.9301 -3.03787 27.7517
  656 180.758 -15.7096 -8.27363
  657 271.986 60.3599 0.193458
  658 209.945 28.4771 -7.06682
  659 137.887 -1.33150 -3.29418
  660 137.916 -1.31265 3.26488
  661 196.484 -5.50837 -1.29725
  662 196.523 -5.51688 1.34206
  663 369.796 48.3994 21.2444
  664 233.790 -0.575252 0.555408
  665 225.185 -0.837855 3.37935
  666 224.231 -0.862960 -3.93382
  667 212.530 -19.7504 4.25131
  668 154.755 -1.86986 -0.811642
  669 154.767 -1.85565 0.807449
  670 226.364 36.4180 15.1496
  671 291.869 65.0498 -2.90045
  672 158.259 -11.9315 -13.3896
  673 158.203 -11.8100 13.3159
  674 199.189 -20.5499 -3.37812
  675 209.525 12.4446 -21.5645
  676 250.479 0.584135 10.2900
  677 164.435 -3.12476 -1.56226
  678 164.437 -3.10303 1.55466
  679 142.254 -12.5537 -27.5079
  680 210.488 -20.3310 -2.27296
  681 174.428 -19.3616 24.2807
  682 82.8873 26.3385 -54.2606
  683 162.438 -15.1675 18.7182
  684 195.813 0.0501313 6.97560
  685 142.379 -12.4088 27.3133
  686 205.983 -9.05048 6.78504
  687 162.506 -15.1070 -18.9001
  688 165.022 2.08642 1.67577
  689 127.478 -3.54543 10.1274
  690 127.362 -3.55071 -10.2049
  691 174.547 -19.8652 -24.5577
  692 216.301 -14.2051 -14.7138
  693 198.174 -2.69333 -0.327888
  694 198.205 -2.72363 0.329312
  695 221.183 -14.0316 14.6511
  696 200.767 -20.9915 4.15911
  697 244.297 22.3967 21.3298
  698 220.090 -4.08056 22.6383
  699 211.772 -7.54373 13.9218
  700 201.354 16.5241 -13.5203
  701 243.318 41.0386 16.8343
  702 209.834 -2.87707 -13.3519
  703 209.494 -6.87404 7.36533
  704 215.683 33.8738 3.82488
  705 212.978 -3.56229 11.7026
  706 66.5049 45.0826 56.7934
  707 198.360 -22.7946 -14.7031
  708 229.702 4.20865 23.0933
  709 232.198 -7.15393 -16.7891
  710 232.535 -0.253275 1.11872
  711 211.715 -7.20660 -11.0492
  712 198.625 -22.9759 13.2859
  713 388.635 34.3940 -5.77784
  714 116.057 -0.531344 3.87861
  715 115.913 -0.537357 -3.91812
  716 215.041 -3.80972 -5.26007
  717 233.977 -0.188026 -1.08442
  718 180.407 -15.9611 8.31961
  719 217.288 -8.03877 20.6256
  720 332.981 78.2826 -22.3937
  721 205.945 -14.9164 7.07098
  722 228.851 -15.0200 -9.14519
  723 209.579 -6.68457 -7.24984
  724 234.006 -0.345379 -0.373376
  725 211.733 -0.00300536 23.3589
  726 9.54445 7.93065 11.6280
  727 240.750 -9.45495 -34.1195
  728 261.454 15.2971 11.3161
  729 217.412 -22.1671 9.39169
  730 153.174 -3.78771 4.05467
  731 153.179 -3.84217 -4.07706
  732 205.219 100.441 -105.904
  733 221.296 -14.5854 -13.6113
  734 164.349 0.786841 -3.20233
  735 193.062 1.03274 14.8965
  736 213.213 -10.6223 16.7010
  737 204.373 -17.2227 3.93820
  738 213.171 -19.3743 -27.9920
  739 203.075 -16.0697 -4.28250
  740 240.843 -11.5417 -3.86866
  741 221.691 -1.70915 3.09584
  742 197.061 -11.8559 2.45892
  743 361.062 72.2364 -38.1348
  744 210.581 -5.54749 5.88222
  745 207.573 3.38000 -22.6718
  746 178.053 -2.05037 60.0841
  747 222.707 17.9674 23.2598
  748 191.520 -15.1387 1.41024
  749 147.013 -11.7209 -20.0465
  750 147.018 -11.6855 19.8732
  751 202.907 22.8111 -3.15723
  752 206.973 -2.38100 20.3093
  753 209.427 -4.95827 -17.4173
  754 197.290 -12.0944 -2.52820
  755 190.644 -17.1546 4.27826
  756 217.381 35.9936 -4.34166
  757 204.116 -17.6645 -3.13077
  758 204.598 -12.9327 6.84056
  759 207.600 -2.55369 1.10861
  760 207.735 -2.48024 -1.10272
  761 279.362 61.6549 2.03397
  762 228.871 -19.4212 -5.77133
  763 212.369 -6.43425 10.9869
  764 221.809 -1.70036 -2.83043
  765 223.379 1.51075 -23.7805
  766 255.174 13.2688 -14.7101
  767 122.307 -0.142362 -1.79793
  768 122.387 -0.140478 1.77820
  769 1.69077 -4.11917 -2.94291
  770 216.746 -0.225184 4.38256
  771 197.722 -0.359808 -16.5168
  772 204.631 -1.91142 14.6374
  773 188.364 22.6868 88.6021
  774 233.041 48.1823 -0.527814
  775 165.175 -11.9743 10.3189
  776 27.5860 0.674001 -10.8893
  777 28.4575 0.500716 11.0083
  778 202.709 -1.45001 -16.4789
  779 165.648 -12.0976 -10.3131
  780 220.483 -1.87482 2.38317
  781 110.637 -4.81863 19.0488
  782 109.660 -4.80306 -19.0657
  783 210.575 -5.38215 -5.73226
  784 132.517 -3.46410 -8.79820
  785 132.583 -3.44008 8.71403
  786 219.474 -1.98948 -6.54913
  787 166.162 -4.52429 -2.70409
  788 166.164 -4.49278 2.70458
  789 239.810 -1.53023 -16.8888
  790 215.074 -2.23246 -23.5074
  791 107.199 -0.720516 -4.96457
  792 107.418 -0.713858 4.90364
  793 4.52313 2.73013 -6.47325
  794 5.51841 2.87755 6.81970
  795 172.524 0.804024 -5.82166
  796 196.611 -22.0974 -10.7686
  797 -2.30288 -1.60745 3.93471
  798 -2.00519 -1.87035 -3.89053
  799 204.756 -4.01325 2.34227
  800 222.294 -17.2936 -8.17676
  801 228.776 33.9938 -17.7093
  802 221.481 -1.67773 -2.26119
  803 480.030 95.7930 -90.1720
  804 204.715 -3.99841 -2.31294
  805 309.109 59.2530 4.47542
  806 218.749 6.37995 -24.4800
  807 242.227 18.2485 -21.7855
  808 38.8600 -0.461962 -10.1091
  809 39.6388 -0.522818 10.0893
  810 134.617 -2.02677 5.17961
  811 134.572 -2.04436 -5.22994
  812 127.946 -0.333607 0.962510
  813 127.910 -0.337014 -0.971102
  814 244.586 41.2644 -16.7259
  815 142.684 -0.953081 -1.40389
  816 142.706 -0.941888 1.39495
  817 207.624 -2.08910 -21.1867
  818 303.077 29.8202 24.1387
  819 185.836 4.07766 -12.8033
  820 62.8702 -0.581002 10.8865
  821 62.2964 -0.586220 -10.9770
  822 244.017 6.05563 63.2149
  823 214.802 -3.84191 5.42922
  824 190.402 12.5682 -5.33735
  825 86.4457 -0.158183 7.45407
  826 85.9738 -0.116961 -7.51272
  827 130.953 -0.719608 -2.52528
  828 130.998 -0.709254 2.49960
  829 23.2544 20.8173 17.5339
  830 199.005 4.70259 19.0975
  831 221.943 32.7011 -15.1133
  832 239.474 27.8082 -21.5359
  833 155.997 -6.02819 -6.54465
  834 155.899 -5.98003 6.53243
  835 247.737 53.0181 7.66758
  836 214.603 -1.65867 -0.313757
  837 214.612 -1.64582 0.351040
  838 211.778 -6.28974 -13.9984
  839 176.745 -11.8866 5.75759
  840 195.368 -21.9649 10.8460
  841 230.557 -18.8933 17.0134
  842 175.027 -5.13007 -1.45874
  843 175.022 -5.10845 1.44655
  844 200.087 18.5171 8.66963
  845 187.642 2.50500 -13.8436
  846 52.2174 59.9605 59.1139
  847 191.257 -17.0176 -3.80138
  848 191.840 -8.58276 0.897339
  849 191.944 -8.59663 -0.906612
  850 211.075 -3.08686 22.3241
  851 209.656 -13.7429 -10.6834
  852 186.773 -12.4402 -1.91168
  853 433.228 14.0393 -21.6796
  854 177.430 -16.8940 11.6423
  855 177.297 -17.1181 -11.8414
  856 210.960 -2.49081 11.3704
  857 319.534 82.1420 -16.9260
  858 166.227 -15.2382 -14.7795
  859 184.184 -20.7980 13.8340
  860 166.170 -15.0504 14.6414
  861 180.392 -7.31648 -1.61144
  862 180.383 -7.28892 1.59705
  863 26.0155 11.3128 15.2806
  864 226.819 16.9663 -23.6217
  865 172.871 -6.82832 -2.84619
  866 172.900 -6.75666 2.85740
  867 170.581 -2.85651 -0.339171
  868 170.576 -2.83532 0.336501
  869 188.293 -3.70660 0.122717
  870 188.269 -3.68021 -0.123599
  871 151.859 -3.07384 -3.52083
  872 151.867 -3.03819 3.50400
  873 173.590 -9.24422 -4.40568
  874 173.609 -9.17690 4.42436
  875 4.04084 -2.12977 -1.58064
  876 263.336 49.4041 12.9158
  877 226.453 -7.89567 -19.2081
  878 184.047 -20.4990 -13.9927
  879 199.013 -6.36343 2.29381
  880 198.923 -6.29425 -2.23511
  881 216.918 0.297725 24.0067
  882 236.976 -16.9145 -8.83614
  883 210.144 14.3905 -76.7093
  884 93.9315 -1.42459 37.6170
  885 -4.07325 2.19319 -2.37341
  886 -3.58886 2.47205 2.65580
  887 25.8187 12.0333 -15.5904
  888 212.354 -6.02275 8.72164
  889 223.969 -1.37410 -3.69547
  890 201.178 -19.2935 32.3640
  891 93.7027 -1.31692 -37.7746
  892 224.211 -18.2877 6.03434
  893 250.649 -7.66010 27.7094
  894 179.103 0.706646 6.17741
  895 206.460 19.6373 14.8012
  896 110.831 -6.29302 27.7647
  897 110.392 -6.34444 -27.9596
  898 133.081 -6.47087 -15.5360
  899 140.858 -6.78764 -48.0942
  900 223.975 -5.19120 21.4161
  901 309.130 72.0716 9.50457
  902 224.661 8.67103 24.0881
  903 212.390 -4.47594 -12.7409
  904 143.881 -6.08241 49.2984
  905 271.466 49.9134 -9.91439
  906 26.2275 22.4916 -21.6999
  907 195.255 -0.409474 -6.65396
  908 133.221 -6.41580 15.3889
  909 163.110 -3.66918 2.39958
  910 163.108 -3.69611 -2.40605
  911 209.970 -13.6705 11.0127
  912 218.662 -1.26564 0.936201
  913 160.342 1.54149 -59.9140
  914 230.838 -0.464471 1.75365
  915 228.953 -0.376058 -2.21881
  916 168.422 1.42348 -5.34344
  917 220.757 -0.878703 -3.89519
  918 163.769 -7.79133 -5.95479
  919 163.879 -7.67107 5.97152
  920 -5.59073 1.95299 -3.24467
  921 -7.61846 1.17706 3.39650
  922 218.662 -1.16790 -0.943473
  923 70.6986 -1.57261 25.3587
  924 70.2482 -1.41396 -25.5105
  925 232.651 34.0324 18.7419
  926 422.891 7.61720 6.74708
  927 218.706 24.3724 19.5205
  928 249.472 -8.91102 6.90030
  929 215.870 -11.9691 16.8815
  930 269.046 56.4940 -7.53281
  931 164.633 0.648445 4.02475
  932 207.814 -4.79034 -3.64908
  933 215.331 11.5808 -23.6051
  934 261.886 7.49839 -5.72795
  935 202.333 -12.4845 -5.48640
  936 101.188 -0.596196 -5.56871
  937 101.303 -0.575259 5.48670
  938 213.713 -4.94127 -10.0836
  939 6.79609 8.73636 1.42483
  940 205.103 -21.2551 -1.27329
  941 175.848 5.10631 -0.552174
  942 267.025 58.9476 -5.00918
  943 41.4756 30.9224 -36.4350
  944 204.650 -1.51962 -13.1173
  945 140.417 -2.44264 -4.81735
  946 140.441 -2.41303 4.77282
  947 1.12672 -5.95975 4.57628
  948 138.188 -10.4131 -22.3033
  949 208.867 -12.0324 -10.3449
  950 127.396 0.271826 -0.394531
  951 127.423 0.273294 0.391493
  952 210.125 25.5242 -11.8810
  953 227.292 -0.571184 -0.355889
  954 227.291 -0.581395 0.462328
  955 138.244 -10.3819 22.1428
  956 211.102 -0.262249 -5.20852
  957 243.837 1.74515 16.3606
  958 216.179 -2.94277 4.22283
  959 33.4734 8.74282 -19.4868
  960 224.458 -1.27062 3.35785
  961 202.203 1.59639 20.4866
  962 213.288 29.6084 10.5721
  963 213.825 2.48256 -24.1773
  964 146.201 -7.98712 -13.2574
  965 231.552 -8.14966 16.2368
  966 146.294 -7.95350 13.1150
  967 6.44188 7.13845 -0.249360
  968 24.3111 4.36460 14.2614
  969 118.431 -2.17476 9.17837
  970 118.281 -2.17787 -9.23539
  971 207.959 -4.88723 3.83176
  972 222.775 38.8961 5.88434
  973 113.103 10.5069 -56.5943
  974 186.402 -11.7019 1.61388
  975 174.927 -18.3650 -17.7799
  976 255.803 49.1396 13.1991
  977 196.536 -3.40008 0.442404
  978 196.529 -3.37969 -0.443304
  979 215.797 -3.89786 -7.30098
  980 198.159 17.0655 -8.00093
  981 458.464 134.408 90.7703
  982 40.2081 2.37763 -18.9542
  983 40.8840 1.97899 19.0011
  984 2.98618 -4.47326 0.690199
  985 198.860 10.9701 16.4219
  986 174.861 -18.4733 17.6412
  987 217.347 -10.2242 -19.1036
  988 236.573 19.3596 23.4482
  989 228.164 -18.4196 -21.1678
  990 333.822 70.3638 22.6884
  991 192.818 -3.05789 -0.0353310
  992 192.793 -3.03043 0.0356963
  993 226.270 -9.16966 18.2588
  994 15.3981 24.2045 26.1037
  995 99.7264 -2.16266 13.1769
  996 99.3984 -2.13522 -13.3276
  997 119.806 -5.98838 17.9694
  998 119.382 -5.89974 -18.0440
  999 135.217 -5.70707 12.8478
  1000 147.806 -1.24161 -0.643862
  1001 147.824 -1.23197 0.640920
  1002 378.138 118.272 -74.7052
  1003 340.101 85.1335 34.0744
  1004 135.108 -5.73831 -12.9641
  1005 233.116 -1.03698 20.1041
  1006 207.463 21.5325 -14.2684
  1007 146.546 -12.5450 39.8406
  1008 188.977 -22.3132 -21.0663
  1009 216.121 -1.72797 -7.67945
  1010 96.5293 6.80947 45.9538
  1011 123.948 -9.49114 31.8451
  1012 189.696 9.65407 -10.2635
  1013 218.406 -4.29047 -22.8715
  1014 283.375 111.075 121.337
  1015 178.722 5.39442 7.28712
  1016 245.181 53.1426 -0.918858
  1017 180.938 6.97462 -68.1610
  1018 183.140 -19.3539 -11.8744
  1019 234.241 -0.190867 -0.888793
  1020 223.197 20.5275 -22.6635
  1021 128.784 -0.888147 3.26593
  1022 128.724 -0.897291 -3.29951
  1023 4.62925 1.52283 -6.32946
  1024 146.239 -6.82168 -11.0333
  1025 123.802 -9.61496 -32.0980
  1026 146.118 -6.80403 10.9027
  1027 213.395 -6.45944 21.1468
  1028 191.272 -11.8619 0.154185
  1029 200.412 3.65147 -19.8269
  1030 206.155 25.7754 4.16260
  1031 282.749 16.4400 8.54454
  1032 211.641 -16.0442 10.5822
  1033 132.538 -10.7070 -24.4081
  1034 198.598 6.97978 -18.5290
  1035 147.872 -12.3712 -40.0668
  1036 285.504 62.3327 -0.869316
  1037 192.729 12.5956 9.33641
  1038 245.820 -1.49759 -12.8273
  1039 184.287 -19.3571 10.8575
  1040 211.467 -6.65340 16.4187
  1041 210.222 -11.0543 12.0387
  1042 209.072 -10.4687 10.4862
  1043 258.740 32.7514 -17.5643
  1044 208.444 -3.33434 16.5452
  1045 188.641 -22.3761 20.7139
  1046 201.380 -8.18919 3.72156
  1047 132.619 -10.7251 24.2606
  1048 188.794 -13.9847 -2.02339
  1049 108.778 -5.24966 -34.0680
  1050 156.148 -16.2650 26.9199
  1051 212.491 -1.40068 -8.88026
  1052 206.649 -2.32070 -18.7485
  1053 178.843 -14.2560 -7.10042
  1054 108.968 -5.40842 33.7869
  1055 192.001 0.434548 -12.9502
  1056 142.446 -9.60039 -17.2202
  1057 260.353 55.6840 8.43278
  1058 56.9612 9.67129 -32.0830
  1059 452.033 31.9799 43.9083
  1060 103.494 7.91714 -48.1659
  1061 209.073 -17.2983 -6.79895
  1062 142.479 -9.51523 17.0701
  1063 189.848 1.95354 14.4528
  1064 105.188 -2.19904 10.9032
  1065 105.127 -2.25402 -11.0196
  1066 211.376 -5.85102 -19.5826
  1067 225.993 -1.03203 1.41711
  1068 220.927 -0.458659 3.94410
  1069 217.963 7.26031 24.4045
  1070 203.527 -1.53274 17.5806
  1071 158.486 16.7586 73.7800
  1072 235.825 -0.137799 0.442308
  1073 219.110 29.7684 15.5444
  1074 184.490 2.61182 12.4299
  1075 223.941 -0.811355 3.80167
  1076 141.714 -1.60413 -2.67420
  1077 141.736 -1.58549 2.65471
  1078 89.5863 -2.59610 -18.1680
  1079 89.9599 -2.68915 18.0343
  1080 185.071 9.15096 5.20868
  1081 283.916 14.5633 -19.1565
  1082 260.814 -0.758883 -38.0769
  1083 205.710 -0.169286 -5.38353
  1084 156.221 -16.3887 -27.1310
  1085 179.216 -13.5572 6.29101
  1086 206.959 -0.462596 5.62119
  1087 217.425 -15.7232 -12.3966
  1088 133.281 -0.347187 1.61107
  1089 133.251 -0.353070 -1.62221
  1090 208.669 -17.7940 6.79672
  1091 198.173 -3.97790 0.829913
  1092 198.139 -3.98103 -0.815713
  1093 192.729 -19.4612 6.55052
  1094 249.868 -8.15228 -1.38451
  1095 110.070 -0.209235 -3.08853
  1096 110.259 -0.201938 3.05346
  1097 169.300 -10.6000 -45.9021
  1098 179.414 -4.29384 0.727624
  1099 179.433 -4.32003 -0.736022
  1100 108.980 57.8390 81.0265
  1101 250.282 20.4432 -19.6050
  1102 35.9047 17.7614 -23.9588
  1103 216.325 -3.11126 -4.08408
  1104 56.6770 19.7444 -36.7664
  1105 118.463 -7.55768 -23.2136
  1106 235.985 -0.200770 0.262839
  1107 236.090 -0.184793 -0.196194
  1108 212.331 -12.0757 -14.5174
  1109 188.074 -21.0548 -29.2039
  1110 56.9863 8.23205 30.5728
  1111 230.851 22.8902 22.1687
  1112 210.030 -1.99011 -0.381522
  1113 210.051 -1.99245 0.402481
  1114 230.235 -14.9424 35.3130
  1115 236.119 47.5356 8.59064
  1116 138.579 -3.45322 -6.92567
  1117 138.611 -3.43567 6.87145
  1118 105.936 12.2707 57.0974
  1119 199.938 0.986455 -19.2054
  1120 62.0155 20.2294 39.5974
  1121 259.577 -4.67220 -10.8265
  1122 253.209 56.3697 2.67189
  1123 173.547 -13.8613 8.79762
  1124 158.198 0.784708 -0.784013
  1125 221.788 -1.86850 4.92424
  1126 230.011 -0.242033 1.92753
  1127 48.0819 0.103207 -9.11251
  1128 48.7991 0.0780863 9.04719
  1129 178.454 2.90155 -9.19295
  1130 185.298 -5.45487 -0.355059
  1131 185.253 -5.42639 0.351790
  1132 19.2266 28.2992 -27.7248
  1133 30.8491 63.9199 -56.4882
  1134 187.754 -7.34838 0.0838936
  1135 187.832 -7.35103 -0.0930459
  1136 194.231 -4.63227 0.913924
  1137 194.202 -4.62057 -0.895835
  1138 50.2174 32.1949 39.7092
  1139 151.746 -1.95180 -1.26238
  1140 151.761 -1.93686 1.25539
  1141 191.649 14.4202 -0.221833
  1142 248.866 29.8812 -85.3284
  1143 235.170 40.6893 -14.7090
  1144 214.804 -8.20694 -20.0666
  1145 211.649 -10.5051 -14.6674
  1146 173.670 -13.9944 -8.95104
  1147 173.319 0.533583 5.67534
  1148 196.197 12.1732 -13.7195
  1149 193.344 10.3343 13.0881
  1150 201.245 -7.94583 -3.65774
  1151 191.775 -11.6189 -0.292553
  1152 173.850 -11.3637 -6.53030
  1153 207.482 -1.20151 10.4817
  1154 371.285 37.5721 5.26503
  1155 208.994 -4.43115 19.1043
  1156 209.355 13.7465 20.7152
  1157 193.646 -19.1120 -4.70617
  1158 22.9417 4.01853 -13.7414
  1159 197.282 -9.10882 -2.76284
  1160 128.343 -0.233570 -0.0730838
  1161 128.366 -0.232666 0.0720591
  1162 241.417 -6.39480 11.1052
  1163 230.109 -19.3432 7.14620
  1164 331.313 59.6145 14.1939
  1165 76.2549 -0.181783 -7.63105
  1166 76.7489 -0.164782 7.56956
  1167 175.400 -3.57395 -0.652008
  1168 175.389 -3.54964 0.646062
  1169 197.950 -17.4977 0.238100
  1170 159.679 0.680829 2.56281
  1171 202.797 -14.4357 5.30409
  1172 11.0262 13.1146 -5.92472
  1173 35.5651 17.9919 23.4462
  1174 134.996 -7.22041 44.3936
  1175 234.131 44.8272 -10.4907
  1176 224.800 -0.593285 -2.99898
  1177 237.028 -0.347980 0.189363
  1178 237.281 -0.487592 -0.126671
  1179 133.967 -0.368191 -0.255428
  1180 133.991 -0.365404 0.253146
  1181 215.730 13.8129 23.5832
  1182 321.641 55.3447 -1.16903
  1183 222.065 36.8614 -10.5611
  1184 166.419 -12.1306 45.6034
  1185 134.274 -6.92427 -44.3134
  1186 148.741 -10.1238 -15.3867
  1187 208.043 -5.72153 4.83418
  1188 291.274 63.9268 0.887441
  1189 148.746 -10.0598 15.2563
  1190 212.817 -3.59564 3.66193
  1191 188.056 6.90681 12.4753
  1192 208.311 6.43626 22.6030
  1193 298.824 66.8853 6.01564
  1194 175.758 -4.62873 1.23274
  1195 175.770 -4.65356 -1.24363
  1196 215.492 -3.94040 7.57577
  1197 125.142 -1.41051 5.13892
  1198 125.053 -1.42524 -5.18993
  1199 210.887 -2.74127 -1.70608
  1200 86.1902 51.0713 -78.1352
  1201 182.540 -10.2290 -48.8103
  1202 170.770 -5.43513 -2.44467
  1203 170.785 -5.40792 2.44514
  1204 227.012 -0.962286 1.26120
  1205 214.173 -2.67322 2.93690
  1206 11.2907 13.8407 9.96364
  1207 233.926 -0.221942 1.03189
  1208 27.0779 33.7710 33.5060
  1209 208.998 -2.99734 -2.17762
  1210 -0.318991 -5.19855 -4.54055
  1211 146.755 -14.3060 -34.3140
  1212 146.324 -13.9541 33.9584
  1213 233.924 -0.375691 -1.13367
  1214 198.567 -10.4666 -3.24056
  1215 226.819 -0.866202 -1.30922
  1216 179.803 -5.85803 -1.05605
  1217 179.780 -5.83339 1.03968
  1218 210.746 -2.71945 1.60986
  1219 197.137 -8.93301 2.73384
  1220 189.428 -6.08116 -0.388782
  1221 189.500 -6.10106 0.413832
  1222 226.654 -0.893647 -1.07428
  1223 194.886 -20.4422 -33.0040
  1224 221.520 -1.23185 -1.11567
  1225 209.925 -3.08660 2.32106
  1226 144.093 -1.67061 -1.95872
  1227 144.113 -1.65377 1.94538
  1228 161.859 -2.44254 -0.952609
  1229 161.864 -2.42431 0.946849
  1230 265.400 41.2543 14.9841
  1231 222.820 -17.0482 9.54788
  1232 152.268 -0.623497 56.4904
  1233 119.416 -0.232217 1.97047
  1234 119.313 -0.234577 -1.99208
  1235 210.446 -3.84655 14.4206
  1236 201.712 -2.94618 0.540888
  1237 201.724 -2.93496 -0.540524
  1238 230.245 45.0687 4.87923
  1239 212.097 -22.1551 25.8168
  1240 120.007 -1.77536 7.25479
  1241 119.883 -1.78958 -7.31314
  1242 201.344 -4.83203 1.97909
  1243 201.300 -4.86407 -1.92963
  1244 207.935 -5.64627 -4.66937
  1245 189.379 0.0260866 6.71121
  1246 332.218 82.4786 -26.3713
  1247 211.620 -7.67795 -12.9442
  1248 35.0996 8.62266 20.0665
  1249 218.745 -11.5972 17.9160
  1250 173.354 3.69557 -5.02398
  1251 12.6994 9.70889 6.92666
  1252 290.267 31.5443 -0.608613
  1253 213.455 -9.66171 -17.9745
  1254 174.227 2.39916 7.68935
  1255 119.321 -7.56796 23.1614
  1256 217.140 -16.7531 11.1676
  1257 317.794 59.1398 16.6157
  1258 71.6719 10.8172 39.0367
  1259 218.420 -2.48816 -6.51102
  1260 426.523 4.71325 -4.35197
  1261 441.290 6.67923 19.4946
  1262 472.101 16.3060 -46.1522
  1263 211.209 -6.53690 -15.9489
  1264 211.359 -9.58832 13.7564
  1265 214.883 -15.2409 13.0642
  1266 -6.35250 0.674335 4.07236
  1267 -5.79882 0.521969 -4.41160
  1268 209.383 -23.0818 -11.4640
  1269 214.757 -21.6478 -17.6737
  1270 160.908 0.982231 -3.16990
  1271 208.574 -23.5125 17.7135
  1272 222.600 -10.5035 -18.2168
  1273 3.91496 6.42881 0.322737
  1274 179.942 -3.28209 0.529765
  1275 179.957 -3.30762 -0.531178
  1276 221.702 -1.66810 4.47278
  1277 212.817 -3.52793 -3.45269
  1278 200.015 -21.8475 -5.67787
  1279 182.003 -9.93090 2.43039
  1280 181.057 -9.79598 -2.71565
  1281 214.515 -4.45026 10.2591
  1282 219.765 -8.02397 -20.7202
  1283 13.1912 10.1241 -6.64771
</Section>

newXOutput 13

<Section columns = "stress_xx | stress_yy | stress_xy">
  1 259.472 -0.00865166 0.528923
  2 259.490 -0.00544547 -0.530792
  3 137.626 -0.0659429 -0.191798
  4 -1.76062 -1.74759 -2.52988
  5 475.396 182.690 149.315
  6 470.858 189.617 -149.869
  7 -2.04286 -1.66660 2.68372
  8 137.601 -0.0665036 0.191204
  9 261.389 -0.413170 0.168371
  10 260.789 -0.662570 -0.113105
  11 260.109 -0.421961 0.626954
  12 259.434 -0.599471 0.205370
  13 257.991 -0.497478 0.989249
  14 256.691 -0.507286 0.740157
  15 253.690 -0.450679 1.41120
  16 249.473 -0.285031 2.07192
  17 245.696 -0.318946 2.29127
  18 240.155 -0.474230 2.75348
  19 232.543 -0.0115176 4.04848
  20 225.509 -0.350575 3.82963
  21 217.591 -0.472267 5.37100
  22 206.142 0.337491 4.65444
  23 197.923 0.487949 5.48655
  24 187.208 0.835476 4.27862
  25 179.826 0.844419 4.30661
  26 169.124 1.21313 2.19113
  27 166.884 1.91534 2.34387
  28 165.543 1.55221 -0.690160
  29 167.395 0.868402 -1.52648
  30 170.796 0.865897 -1.86908
  31 178.808 1.10941 -3.73790
  32 186.588 0.875208 -4.74384
  33 198.065 0.170152 -5.63516
  34 207.259 -0.127379 -5.15496
  35 217.109 -0.378228 -5.08498
  36 226.052 -0.271976 -3.60214
  37 233.785 -0.277172 -3.09507
  38 240.197 -0.461192 -2.61108
  39 245.969 -0.320163 -1.83868
  40 249.612 -0.370805 -1.95978
  41 253.129 -0.473327 -1.43667
  42 256.487 -0.567657 -0.650261
  43 258.220 -0.451650 -0.750449
  44 259.167 -0.260834 -0.477119
  45 258.569 -0.117623 -0.434163
  46 261.077 -0.673430 0.0695960
  47 261.480 -0.432525 -0.173820
  48 252.524 -0.118467 -0.326542
  49 246.605 -0.948242 -0.576265
  50 239.414 -1.41875 -0.393920
  51 230.669 -2.15536 -0.535003
  52 222.412 -2.37713 -0.671776
  53 213.621 -3.03083 -0.635281
  54 205.860 -3.40357 -0.363960
  55 199.056 -3.85214 -0.150274
  56 191.214 -3.20874 -0.150309
  57 182.178 -3.02161 -0.223934
  58 173.462 -2.40617 -0.0819250
  59 165.196 -1.55604 -0.0365963
  60 157.328 -1.12408 0.00169788
  61 150.410 -0.596105 0.0639085
  62 143.311 -0.175125 -0.221493
  63 137.723 0.189545 0.257560
  64 135.240 0.561223 0.165844
  65 137.003 -0.00371094 0.405602
  66 135.169 -0.0877689 0.485340
  67 133.500 -0.125485 0.606580
  68 131.216 -0.0256969 0.799043
  69 128.331 -0.0152734 1.01257
  70 126.252 -0.190156 1.97686
  71 120.087 0.177420 2.16368
  72 115.782 -0.0194245 2.49147
  73 109.369 -0.122311 2.82230
  74 101.965 -0.201589 3.44023
  75 92.7168 -0.0510409 4.17685
  76 81.4391 0.0483629 4.59394
  77 71.7891 -0.114685 6.55799
  78 52.5643 0.620677 6.16348
  79 39.5752 0.536642 6.52505
  80 24.1084 -0.0981760 7.20141
  81 11.3620 1.23409 7.43918
  82 -3.10032 1.82018 4.37098
  83 -13.4938 1.84295 1.43622
  84 -12.8408 1.75039 -0.838088
  85 -11.9674 1.44248 -3.65032
  86 -7.00711 -0.505713 -3.42459
  87 -0.887467 -6.72747 -3.76697
  88 0.614302 -12.4581 -4.76355
  89 1.77982 -19.9402 -2.78460
  90 3.99580 -20.8676 -0.114382
  91 8.51682 -6.65674 10.8210
  92 25.7408 36.5008 37.9831
  93 155.021 138.616 132.831
  94 574.026 85.0980 96.8787
  95 515.580 12.2423 31.7860
  96 477.872 5.02082 9.72718
  97 463.919 4.23361 0.773114
  98 471.200 5.67439 -8.38394
  99 514.183 11.3335 -25.1298
  100 610.297 41.0872 -84.0200
  101 91.5750 140.846 -110.631
  102 19.2997 24.1300 -31.1923
  103 9.27609 -5.72334 -11.2331
  104 3.72567 -21.0138 -1.62295
  105 0.996709 -15.2874 3.22493
  106 1.29960 -15.6759 4.15124
  107 0.0433172 -5.83814 4.16832
  108 -7.30831 -0.347167 3.25912
  109 -12.3511 1.08226 3.19651
  110 -13.5130 2.13178 0.914309
  111 -13.9407 1.81912 -1.31370
  112 -4.06008 1.86570 -4.08223
  113 10.5044 1.24526 -7.08535
  114 23.2310 0.0310185 -7.08242
  115 38.6737 0.580592 -6.54098
  116 51.7452 0.637659 -6.21371
  117 71.1530 -0.117377 -6.61704
  118 80.8934 0.0544961 -4.64153
  119 92.2410 -0.0488794 -4.23230
  120 101.718 -0.222214 -3.46873
  121 109.044 -0.117027 -2.83130
  122 115.537 -0.0113427 -2.51933
  123 119.887 0.175043 -2.18964
  124 126.111 -0.191916 -1.99891
  125 128.220 -0.0164188 -1.02621
  126 131.134 -0.0267721 -0.810303
  127 133.440 -0.127250 -0.615543
  128 135.125 -0.0892779 -0.491629
  129 136.969 -0.00503939 -0.409649
  130 135.212 0.560407 -0.167752
  131 137.697 0.189166 -0.258737
  132 143.284 -0.176662 0.220795
  133 150.384 -0.599945 -0.0654080
  134 157.305 -1.13261 -0.00346608
  135 165.179 -1.56793 0.0348784
  136 173.453 -2.42328 0.0802539
  137 182.179 -3.04311 0.222639
  138 191.225 -3.23348 0.149086
  139 199.075 -3.87956 0.149800
  140 205.885 -3.43080 0.364907
  141 213.654 -3.05560 0.638026
  142 222.438 -2.39441 0.681692
  143 230.686 -2.17079 0.582062
  144 239.454 -1.33430 0.402912
  145 246.781 -0.920426 0.563777
  146 252.560 -0.157360 0.321839
  147 224.680 -21.0963 -2.47146
  148 224.501 -20.8144 2.55267
  149 234.976 33.8352 -12.0537
  150 251.251 14.8433 25.7731
  151 190.194 -18.2187 -41.2022
  152 191.709 -18.2055 39.8416
  153 183.878 -7.90955 4.65740
  154 183.898 -8.02316 -4.66302
  155 267.006 9.53529 -20.1853
  156 224.075 -7.99262 5.62238
  157 223.983 -7.79462 -5.55062
  158 289.673 65.0184 3.45307
  159 228.895 -0.365817 -24.9492
  160 168.635 -13.4246 -18.3594
  161 168.629 -13.3088 18.1873
  162 229.442 -5.16296 22.6281
  163 217.146 15.7984 14.7580
  164 89.0923 14.5684 -49.1363
  165 98.9998 13.7833 51.8107
  166 282.569 3.01407 3.82033
  167 230.291 -8.77931 -15.9329
  168 305.652 67.1869 -2.51581
  169 207.048 -5.81963 0.345505
  170 207.001 -5.79881 -0.325651
  171 233.510 -2.69954 -2.47863
  172 234.291 -2.40921 2.14922
  173 161.143 -2.40698 -2.84974
  174 161.159 -2.38113 2.83276
  175 251.715 -6.92948 52.3142
  176 209.987 8.64530 -15.8815
  177 136.800 -10.3297 -29.7543
  178 137.214 -10.2529 29.5470
  179 153.434 -5.17003 -9.63442
  180 153.444 -5.10878 9.55614
  181 231.466 -6.01499 13.5348
  182 210.055 -14.4662 0.197781
  183 209.289 -14.3581 0.155332
  184 239.680 -23.1275 -2.91375
  185 240.894 -22.0319 -0.0899060
  186 331.841 77.9892 -10.1630
  187 239.671 38.6195 11.2926
  188 240.474 14.7846 -25.7178
  189 250.987 -2.49200 -61.0284
  190 239.091 -13.4559 -18.3688
  191 241.117 -9.58447 21.4695
  192 200.628 -22.8085 19.8178
  193 200.701 -22.6520 -19.7509
  194 213.804 2.68181 19.1321
  195 96.8846 -2.28993 -36.3026
  196 97.1351 -2.50618 36.0685
  197 375.351 56.4386 8.03086
  198 226.302 -13.4475 10.2363
  199 234.952 -4.22868 -8.89312
  200 184.972 -4.58712 -2.05984
  201 184.972 -4.56146 2.05192
  202 224.818 -2.90592 -17.3954
  203 256.395 37.7094 -20.7828
  204 213.365 19.1263 -2.96359
  205 137.803 -5.01143 13.6561
  206 137.587 -5.02915 -13.7661
  207 238.778 -2.54015 4.94970
  208 231.539 4.35741 25.6309
  209 187.768 -13.8154 -8.53226
  210 186.437 -13.0844 8.77430
  211 273.781 40.6012 19.4219
  212 323.759 43.3960 5.32363
  213 21.1206 16.7765 -13.2411
  214 19.5086 15.5094 11.2178
  215 132.273 37.6107 87.3276
  216 224.001 -14.8654 -8.04482
  217 239.704 -2.44166 -4.47567
  218 211.276 1.80960 -17.6110
  219 146.854 -1.54161 -4.26052
  220 146.898 -1.52387 4.21950
  221 201.047 -9.48590 -1.38118
  222 201.139 -9.54069 1.26492
  223 226.874 -3.03627 14.8389
  224 262.751 -15.2548 4.58738
  225 259.442 53.3155 -6.08016
  226 203.469 -19.7364 -8.97663
  227 258.363 -4.47241 17.0809
  228 219.667 -3.59396 1.00723
  229 219.673 -3.56225 -1.00558
  230 201.917 -19.6406 9.37298
  231 231.859 -14.6618 15.0472
  232 328.584 41.2323 -18.6833
  233 71.5084 42.6104 -62.7229
  234 194.432 6.73485 3.76765
  235 232.158 20.4883 21.5548
  236 248.249 -1.70692 -23.2176
  237 231.611 -8.29835 -21.2605
  238 121.569 -4.01172 -17.1717
  239 122.006 -3.94955 17.1094
  240 232.070 -2.74667 -11.5519
  241 221.241 -5.52197 3.06162
  242 221.138 -5.51205 -2.96891
  243 45.2665 4.33252 -22.8968
  244 46.0389 3.80038 22.8251
  245 247.365 -21.6016 -17.9953
  246 244.904 -0.759136 0.722485
  247 245.188 -0.774837 -0.772841
  248 226.551 18.7696 -19.6954
  249 198.492 3.73397 11.4695
  250 422.607 67.7193 45.3064
  251 419.326 47.7487 -28.4875
  252 300.968 65.2810 -0.721640
  253 187.714 -8.97366 55.0305
  254 172.064 -5.74423 -57.6102
  255 196.859 -4.04092 -0.632231
  256 196.839 -4.01269 0.626535
  257 162.390 -4.46729 5.80088
  258 162.394 -4.53074 -5.85754
  259 238.295 -2.48553 7.22513
  260 230.945 -16.4068 -12.5447
  261 147.438 -0.319549 -0.981824
  262 147.467 -0.314350 0.974856
  263 228.026 -9.16561 -9.92866
  264 94.9376 -3.14750 -23.7635
  265 95.3721 -3.15807 23.5821
  266 230.746 -9.95482 17.1589
  267 175.639 -18.6436 33.1091
  268 176.112 -18.9787 -33.0098
  269 197.413 7.46734 -5.33781
  270 170.316 -2.68862 -1.91401
  271 170.328 -2.66913 1.90553
  272 215.448 -0.562159 14.1645
  273 258.252 47.4657 14.4561
  274 136.436 -1.74016 7.28737
  275 136.329 -1.75535 -7.35461
  276 237.366 -19.7650 9.16810
  277 219.737 -24.5991 -21.7018
  278 245.717 -1.08143 2.33015
  279 168.811 -10.1648 -12.4761
  280 168.500 -10.0479 12.4234
  281 304.602 30.3348 77.3247
  282 141.313 -11.3736 39.6648
  283 228.571 32.1547 -1.28240
  284 291.235 31.9030 -13.4393
  285 218.769 -16.9341 3.62839
  286 219.863 -25.2791 19.4645
  287 141.769 -11.1814 -40.1356
  288 25.9050 31.8988 28.6502
  289 228.064 -9.20149 10.1071
  290 300.167 38.9280 10.8921
  291 247.770 -0.963601 -2.01988
  292 222.708 7.75987 -22.6661
  293 220.474 -12.4498 5.75687
  294 215.797 -18.2440 -0.230270
  295 221.832 10.1589 21.8168
  296 236.198 -19.7784 -8.28004
  297 335.380 65.5458 -5.35348
  298 220.413 -11.9630 -5.51468
  299 183.372 51.8265 -107.401
  300 225.619 -23.8941 -3.44455
  301 223.994 -24.5420 6.03847
  302 163.509 -14.8980 -26.0520
  303 146.123 -0.605015 -2.14941
  304 146.160 -0.594560 2.13036
  305 163.569 -14.9070 25.9021
  306 238.348 -0.381850 -25.9132
  307 258.105 -10.6707 -11.7315
  308 195.415 -11.8674 -4.27256
  309 195.274 -11.8938 4.35695
  310 235.233 -20.2422 35.1780
  311 234.039 -1.82910 8.75046
  312 285.927 0.997871 11.3001
  313 191.247 -6.81595 -2.29691
  314 191.257 -6.79034 2.28121
  315 173.605 -4.61570 -3.74360
  316 173.601 -4.57048 3.73647
  317 196.352 2.58288 -11.0973
  318 254.311 18.6376 -25.0469
  319 395.876 106.377 -49.7571
  320 232.130 -1.91889 -0.846179
  321 231.987 -1.89195 0.866253
  322 123.199 -0.0899902 49.4899
  323 172.827 -7.97490 -8.14833
  324 172.481 -7.94393 8.16778
  325 123.180 -0.368630 -49.3020
  326 241.920 28.5931 -21.1059
  327 271.924 13.3907 19.2997
  328 235.301 -16.7972 -39.1719
  329 215.439 -8.28612 2.70807
  330 215.213 -8.22158 -2.61019
  331 230.381 -4.67573 -4.91805
  332 215.615 -0.424696 -13.2521
  333 242.875 1.08172 25.4559
  334 242.922 -1.62596 -5.00254
  335 144.281 -8.89769 19.9057
  336 144.123 -8.94992 -20.0696
  337 225.403 -0.518907 23.6527
  338 137.130 -1.17998 -4.30232
  339 137.219 -1.16869 4.25962
  340 232.033 -5.24611 7.51850
  341 278.072 56.9635 -11.0024
  342 230.249 -4.71476 5.09416
  343 244.697 30.7954 21.2096
  344 234.362 -4.32918 24.6938
  345 184.706 -3.49989 0.723896
  346 184.710 -3.52322 -0.729824
  347 221.300 -0.804950 -20.9726
  348 294.170 61.9682 7.50277
  349 243.628 44.8336 0.444310
  350 149.454 17.4407 -73.8637
  351 14.6089 6.72118 -9.70540
  352 16.1133 7.26566 10.4841
  353 -0.958455 1.60346 4.68340
  354 -0.00557285 0.830256 -4.87279
  355 433.764 30.0716 10.4336
  356 201.966 -16.4859 -5.02142
  357 232.234 -5.06318 -7.33930
  358 209.026 -3.62742 0.410127
  359 209.002 -3.59618 -0.411105
  360 223.065 24.6420 -10.6582
  361 190.606 -19.5199 16.2843
  362 16.2871 24.1058 -17.4932
  363 190.807 -19.5195 -16.6003
  364 226.064 25.7213 11.3431
  365 231.466 -6.11346 -12.9120
  366 245.855 -13.6700 -15.8807
  367 261.195 55.4331 4.20320
  368 246.478 -15.3334 13.3109
  369 99.8955 -2.55535 15.9381
  370 99.2687 -2.50654 -16.0492
  371 56.0451 1.44108 -21.9664
  372 56.6808 1.20628 21.8649
  373 199.589 0.593248 11.2392
  374 384.537 111.441 41.9529
  375 239.618 -1.47088 -6.29290
  376 185.536 -15.8072 -12.4122
  377 185.367 -15.7613 12.3940
  378 229.927 -5.26373 -16.2258
  379 262.925 -12.7074 3.11370
  380 201.958 -16.4685 5.19233
  381 289.379 1.71499 -22.2352
  382 160.929 -1.36036 -0.709395
  383 160.949 -1.34816 0.703276
  384 225.847 -1.29739 -10.2962
  385 119.884 -1.79261 -10.4175
  386 119.965 -1.84858 10.2848
  387 270.624 34.5340 -21.4751
  388 145.797 10.3553 68.5197
  389 211.426 -11.1150 1.60120
  390 211.636 -11.0934 -1.61270
  391 248.248 42.1302 -13.4829
  392 235.353 -6.94674 -23.4749
  393 236.644 -24.1391 18.7549
  394 196.159 -5.23281 -0.963833
  395 196.133 -5.20491 0.951472
  396 227.230 -17.5168 8.66424
  397 245.359 -1.11768 3.73253
  398 151.007 -5.64042 -12.1059
  399 151.065 -5.63851 11.9953
  400 230.253 7.71802 -25.2601
  401 217.734 -4.65937 1.53509
  402 217.727 -4.66923 -1.50401
  403 224.848 -2.63631 19.3376
  404 208.777 15.1522 5.08603
  405 233.521 -9.82178 20.5869
  406 338.708 71.1307 12.0629
  407 111.483 -6.02093 -31.8400
  408 111.803 -6.02384 31.5857
  409 49.5489 26.8154 -37.4711
  410 251.460 -0.668949 1.06830
  411 124.961 -1.11389 -6.58424
  412 125.134 -1.09026 6.52386
  413 230.135 -5.96522 15.9182
  414 208.693 -22.6914 10.3723
  415 236.379 -2.83893 3.49086
  416 240.073 12.2081 26.4228
  417 52.0385 28.5521 39.1504
  418 209.019 -22.5696 -9.48190
  419 216.053 -20.1110 -1.22307
  420 68.8910 -1.38791 -19.9692
  421 69.4454 -1.44254 19.8249
  422 165.593 -13.1601 -47.8477
  423 248.332 -3.67028 22.6887
  424 164.923 -13.3701 47.4119
  425 229.235 -12.8407 -13.5562
  426 211.836 14.2286 -11.1734
  427 229.284 -9.85904 12.8321
  428 247.617 -1.03768 -2.55429
  429 7.24103 7.53145 2.99490
  430 49.4310 56.4686 55.6614
  431 219.942 -0.813786 9.89722
  432 183.178 2.44189 4.84551
  433 186.505 2.99373 -6.58375
  434 159.133 -2.72091 -4.09064
  435 159.146 -2.68517 4.06102
  436 226.042 -17.5085 -7.99283
  437 228.053 -4.44776 -21.6879
  438 184.217 3.37372 -1.78897
  439 338.771 80.5730 15.4561
  440 45.7593 15.4643 -28.0221
  441 50.5435 14.1975 30.0045
  442 211.232 -7.51534 1.39512
  443 211.148 -7.49429 -1.33616
  444 281.822 62.6365 -0.899835
  445 177.699 71.2863 109.778
  446 272.209 -3.92428 -5.12880
  447 154.549 -8.18976 -16.4284
  448 154.618 -8.13098 16.2802
  449 155.241 -3.56846 6.42968
  450 155.215 -3.59603 -6.49283
  451 210.637 4.61846 -18.1137
  452 252.822 -0.304638 -0.718065
  453 204.491 9.30760 10.1458
  454 260.145 32.1520 23.0263
  455 216.415 -16.0829 -2.76871
  456 236.299 -2.69486 -3.38803
  457 248.676 -0.933374 2.35382
  458 252.112 -0.322337 0.411309
  459 252.335 -0.370821 -0.308203
  460 136.012 -0.268633 1.58059
  461 135.945 -0.272507 -1.59857
  462 237.027 -15.0198 16.3739
  463 212.702 8.33923 17.5381
  464 222.823 0.888839 -23.0456
  465 233.489 -4.85363 9.65798
  466 340.033 55.2821 -64.3822
  467 233.912 -12.9462 -18.1475
  468 1.83152 4.36145 1.54100
  469 1.82946 4.41521 -0.384769
  470 184.462 -10.5599 6.86721
  471 183.826 -10.4232 -6.79105
  472 292.694 4.81252 34.1782
  473 81.2592 72.8133 -82.7413
  474 230.589 -0.677618 7.74121
  475 262.754 -15.3682 -19.0512
  476 138.055 -8.05529 23.0864
  477 280.636 49.7998 -15.7914
  478 230.530 -12.4446 15.2721
  479 192.857 -9.29443 -3.21269
  480 193.028 -9.13725 3.20107
  481 199.537 1.04026 -9.93049
  482 137.616 -8.02600 -23.2399
  483 204.819 0.0591547 10.0004
  484 197.348 -22.5490 -29.4152
  485 196.844 -22.5835 29.5078
  486 238.173 -1.53835 6.93804
  487 215.144 20.2551 2.10355
  488 220.517 3.53499 74.7466
  489 323.651 66.2142 -0.416989
  490 223.185 -3.67863 1.69037
  491 223.200 -3.66458 -1.74132
  492 170.224 -3.09494 -2.54368
  493 170.232 -3.06798 2.53269
  494 89.5586 4.27094 41.4324
  495 231.516 -11.1181 -17.7110
  496 209.708 -4.52470 0.398523
  497 209.687 -4.50708 -0.393148
  498 182.339 -19.3679 24.0863
  499 91.3244 5.62231 -42.5005
  500 231.996 -18.8782 -9.12415
  501 3.82601 0.490072 2.12960
  502 201.279 10.3190 0.732969
  503 224.053 -2.49782 -0.565729
  504 224.045 -2.53458 0.554901
  505 182.467 -19.3380 -24.2798
  506 263.052 -13.6578 24.6951
  507 259.943 9.44429 23.5550
  508 240.285 -1.53320 -1.70870
  509 231.284 -19.1480 9.23824
  510 142.645 -0.161890 -0.273191
  511 142.673 -0.160509 0.270539
  512 230.745 -8.83195 -18.7999
  513 222.797 16.4772 19.2348
  514 256.712 6.34043 -23.2496
  515 141.788 -0.250263 -0.886417
  516 141.822 -0.246926 0.879696
  517 452.195 65.2886 -58.6102
  518 232.016 27.6737 16.9830
  519 240.507 -1.40076 1.52571
  520 216.545 -20.5509 1.74193
  521 181.135 -6.07337 3.73784
  522 181.137 -6.12188 -3.73031
  523 252.695 -15.3531 7.86763
  524 242.385 -4.80886 -23.8073
  525 270.807 53.5416 13.0616
  526 224.793 3.85356 23.8849
  527 227.473 -4.28865 3.18934
  528 221.185 -23.5491 -28.1600
  529 228.873 -5.63546 18.4466
  530 447.310 20.4631 -8.22639
  531 250.889 -18.8871 -1.48705
  532 238.789 -1.47775 -0.426259
  533 238.844 -1.58014 0.382487
  534 451.935 30.3426 28.9090
  535 219.035 -0.0902694 20.3133
  536 308.931 51.5049 -6.75045
  537 231.420 -6.22908 -9.43148
  538 102.471 -0.997026 -7.13103
  539 102.807 -0.949386 7.05525
  540 155.769 -14.6187 -33.2253
  541 155.883 -14.3725 32.9701
  542 227.350 -4.10486 -3.15634
  543 247.202 9.08532 -25.9298
  544 217.070 -14.7812 3.59507
  545 233.070 26.7506 -17.6428
  546 235.542 -2.67945 9.34194
  547 296.453 14.4689 -1.91390
  548 200.895 -6.90542 -0.699635
  549 200.829 -6.87830 0.687220
  550 218.644 -10.3012 4.37180
  551 323.877 63.6732 -3.18457
  552 229.968 10.0604 24.8187
  553 97.9450 25.2681 61.3918
  554 223.248 -13.4196 49.6631
  555 296.382 13.5706 -54.5298
  556 235.153 19.4512 -23.1344
  557 209.278 -18.0334 -42.9991
  558 226.550 -24.7981 -7.78523
  559 236.862 -23.9322 -11.7625
  560 30.5756 39.1933 -37.1886
  561 238.022 -2.92591 -5.85215
  562 359.040 69.9592 -19.8652
  563 219.838 -9.86943 -4.80956
  564 221.733 -7.16278 3.96222
  565 221.524 -6.99476 -3.81351
  566 151.130 -0.926802 -1.94191
  567 151.159 -0.914738 1.92747
  568 20.6425 2.28840 -11.9695
  569 21.8766 2.39606 12.2539
  570 112.397 -5.29934 -24.3208
  571 113.281 -5.32701 24.2747
  572 224.753 -12.1460 -8.74199
  573 229.252 -24.8979 8.47778
  574 235.676 -22.3311 2.42589
  575 192.275 -3.40824 -0.652111
  576 192.262 -3.38214 0.648330
  577 182.798 -19.1346 -36.8269
  578 205.185 -16.7760 45.5461
  579 178.283 -17.9860 37.0496
  580 231.007 -5.11033 -23.3350
  581 143.170 -2.47015 7.29025
  582 143.100 -2.49659 -7.35550
  583 219.664 12.0998 -19.3045
  584 220.117 -0.383593 -8.98353
  585 275.593 60.1351 -5.95623
  586 179.063 -2.75973 -0.669187
  587 179.066 -2.74020 0.665616
  588 235.337 -0.679818 -5.10521
  589 161.170 -5.57454 -8.00026
  590 161.168 -5.55317 7.92584
  591 132.204 6.24777 58.8837
  592 229.051 -10.4954 -12.9807
  593 126.931 -6.64367 42.2580
  594 225.080 -11.6306 8.91053
  595 237.322 -3.26641 6.44635
  596 234.480 -2.03967 -1.52675
  597 162.909 -2.09096 -1.78176
  598 162.926 -2.07311 1.77119
  599 264.245 52.9786 -11.7048
  600 126.844 -6.38130 -42.4269
  601 224.342 -9.66641 -7.18264
  602 201.870 -3.73071 -0.282737
  603 201.848 -3.70137 0.281444
  604 382.368 51.6133 -9.03510
  605 132.207 -0.892654 4.03906
  606 132.091 -0.901538 -4.07948
  607 208.018 4.71396 16.5110
  608 300.362 24.7058 -5.09513
  609 140.990 1.11669 -58.4739
  610 71.2288 1.92105 -31.6903
  611 71.8433 1.49803 31.5206
  612 176.525 -10.4452 9.83079
  613 178.424 -10.7527 -9.52593
  614 302.955 60.9537 6.72400
  615 233.484 -2.11811 1.39249
  616 198.619 5.50519 -9.95516
  617 248.845 44.8893 10.6606
  618 247.903 46.5916 -7.08712
  619 203.758 -11.3463 -1.19980
  620 205.345 -11.0832 0.462913
  621 146.449 31.7553 -84.2959
  622 174.359 -6.08133 -5.41139
  623 174.370 -6.00960 5.38988
  624 449.306 91.8784 69.0964
  625 230.802 -7.52915 20.2376
  626 130.275 -4.72373 -15.5856
  627 361.973 81.8430 53.5922
  628 130.586 -4.69583 15.5209
  629 221.508 -8.51270 -58.1536
  630 153.978 -0.817874 -0.717057
  631 154.002 -0.810693 0.712978
  632 191.198 1.66739 8.67884
  633 85.8423 -1.31801 -14.0093
  634 86.3487 -1.32114 13.8935
  635 201.098 -14.3187 3.75414
  636 211.140 -16.9628 -0.535661
  637 250.034 -0.501582 -2.13328
  638 138.282 -0.247519 1.15649
  639 138.232 -0.251783 -1.16977
  640 189.317 -4.30414 -0.935202
  641 189.308 -4.27807 0.926608
  642 218.427 -24.1850 28.4889
  643 250.509 28.0041 -23.4641
  644 165.573 -7.87201 -10.3259
  645 165.445 -7.73728 10.2465
  646 197.302 -14.3025 -5.48113
  647 312.140 68.1859 1.17071
  648 234.254 -22.6262 -1.11101
  649 202.665 -4.84097 -0.268333
  650 202.632 -4.81485 0.269285
  651 280.042 30.5337 18.4115
  652 234.556 -3.31892 -10.1570
  653 206.053 -0.279618 -8.15086
  654 94.5586 -3.22079 -30.5292
  655 94.8645 -3.31593 30.2690
  656 196.835 -17.0922 -9.09812
  657 296.030 65.6298 0.198290
  658 228.664 31.0086 -7.64901
  659 150.411 -1.44225 -3.60249
  660 150.443 -1.42188 3.57091
  661 213.898 -6.00460 -1.35186
  662 213.940 -6.01352 1.40021
  663 401.947 52.5885 23.0965
  664 254.239 -0.634765 0.594033
  665 245.002 -0.919887 3.63896
  666 243.976 -0.945911 -4.24028
  667 231.303 -21.5006 4.46523
  668 168.698 -2.02940 -0.890921
  669 168.711 -2.01410 0.886405
  670 246.472 39.6325 16.3771
  671 317.564 70.7473 -3.30277
  672 172.429 -12.9775 -14.6357
  673 172.369 -12.8459 14.5562
  674 216.823 -22.3661 -3.80901
  675 228.171 13.5528 -23.3431
  676 272.485 0.644857 10.9682
  677 179.179 -3.39679 -1.72356
  678 179.182 -3.37339 1.71537
  679 155.006 -13.6685 -30.0047
  680 229.085 -22.1317 -2.31724
  681 189.923 -21.0790 26.5237
  682 90.3426 28.6820 -59.1999
  683 176.940 -16.5059 20.4494
  684 213.315 0.0550612 7.55022
  685 155.143 -13.5111 29.7941
  686 224.207 -9.85887 7.27118
  687 177.011 -16.4396 -20.6464
  688 179.990 2.28544 1.81697
  689 139.062 -3.85154 11.0481
  690 138.936 -3.85706 -11.1317
  691 190.048 -21.6270 -26.8253
  692 235.420 -15.4682 -15.8400
  693 215.723 -2.94631 -0.342994
  694 215.757 -2.97909 0.344498
  695 240.714 -15.2803 15.7599
  696 218.534 -22.8480 4.66204
  697 265.857 24.3741 22.9955
  698 239.567 -4.44927 24.4571
  699 230.514 -8.22043 15.0175
  700 219.334 18.0041 -14.6424
  701 264.858 44.6534 18.1557
  702 228.445 -3.13648 -14.4295
  703 228.013 -7.49304 7.91075
  704 234.896 36.8755 4.13920
  705 231.831 -3.88562 12.6343
  706 72.4897 49.1616 61.9784
  707 215.896 -24.8130 -16.1322
  708 250.003 4.57439 24.9353
  709 252.673 -7.79043 -18.0674
  710 252.900 -0.284445 1.19938
  711 230.437 -7.85465 -11.9041
  712 216.188 -25.0101 14.5897
  713 422.284 37.3748 -6.27561
  714 126.698 -0.575295 4.23067
  715 126.541 -0.581779 -4.27332
  716 234.008 -4.16132 -5.64889
  717 254.459 -0.212105 -1.16357
  718 196.455 -17.3662 9.14830
  719 236.515 -8.75791 22.2711
  720 361.956 85.2949 -24.7029
  721 224.170 -16.2388 7.55487
  722 249.017 -16.3516 -9.75877
  723 228.104 -7.28734 -7.78634
  724 254.469 -0.385309 -0.397197
  725 230.529 -0.00646669 25.2683
  726 10.4282 8.80835 12.7671
  727 261.814 -10.2503 -37.3069
  728 284.413 16.6722 12.0630
  729 236.568 -24.1278 10.3826
  730 166.968 -4.11438 4.44539
  731 166.973 -4.17329 -4.46949
  732 222.879 109.671 -115.341
  733 240.835 -15.8818 -14.6298
  734 179.261 0.869952 -3.47232
  735 210.333 1.13055 16.1326
  736 232.081 -11.5698 18.0146
  737 222.458 -18.7468 4.14542
  738 231.925 -21.0883 -30.6050
  739 221.052 -17.4922 -4.52561
  740 262.010 -12.5554 -4.00338
  741 241.192 -1.87581 3.32095
  742 214.529 -12.9052 2.56882
  743 392.544 78.5247 -41.5181
  744 229.183 -6.05117 6.31135
  745 226.037 3.68292 -24.5383
  746 193.756 -2.22249 65.5064
  747 242.461 19.5549 25.1554
  748 208.516 -16.4745 1.64508
  749 160.203 -12.7534 -21.8753
  750 160.210 -12.7154 21.6877
  751 221.030 24.8490 -3.41803
  752 225.367 -2.59514 21.9686
  753 228.005 -5.40240 -18.8237
  754 214.778 -13.1654 -2.64324
  755 207.560 -18.6678 4.76852
  756 236.739 39.1795 -4.69472
  757 222.179 -19.2281 -3.26696
  758 222.708 -14.0805 7.31454
  759 225.928 -2.79703 1.17760
  760 226.074 -2.71730 -1.17110
  761 304.016 67.0455 2.10614
  762 249.000 -21.1365 -6.46151
  763 231.148 -7.01370 11.8395
  764 241.315 -1.86679 -3.03421
  765 243.147 1.63936 -25.6955
  766 277.613 14.4582 -15.7672
  767 133.520 -0.151795 -1.96335
  768 133.607 -0.149759 1.94208
  769 1.85822 -4.44132 -3.16828
  770 235.921 -0.249564 4.73256
  771 215.370 -0.386211 -17.8806
  772 222.834 -2.08222 15.8329
  773 204.854 24.7786 96.5209
  774 253.750 52.4227 -0.570387
  775 179.940 -13.0240 11.3001
  776 30.2667 0.730346 -11.8932
  777 31.2109 0.541857 12.0228
  778 220.756 -1.57821 -17.8306
  779 180.451 -13.1575 -11.2944
  780 239.875 -2.05764 2.55147
  781 120.704 -5.24393 20.7679
  782 119.643 -5.22678 -20.7851
  783 229.176 -5.87150 -6.14997
  784 144.541 -3.76187 -9.60094
  785 144.613 -3.73597 9.51008
  786 238.832 -2.17758 -7.05809
  787 181.045 -4.91853 -2.98068
  788 181.047 -4.88457 2.98130
  789 260.934 -1.66442 -18.1629
  790 234.140 -2.43416 -25.4170
  791 117.054 -0.781831 -5.41184
  792 117.292 -0.774599 5.34594
  793 5.06536 2.97446 -7.09199
  794 6.14470 3.13554 7.47002
  795 188.117 0.880409 -6.30896
  796 214.011 -24.0520 -11.8474
  797 -2.49988 -1.74257 4.27779
  798 -2.17906 -2.03208 -4.23308
  799 222.857 -4.38278 2.49308
  800 241.902 -18.8278 -8.71689
  801 249.080 36.9960 -19.1390
  802 240.952 -1.84266 -2.42143
  803 521.047 104.137 -97.8782
  804 222.812 -4.36688 -2.46168
  805 336.272 64.4074 4.92134
  806 238.145 6.94288 -26.4744
  807 263.606 19.8625 -23.4949
  808 42.5793 -0.505463 -11.0333
  809 43.4225 -0.571591 11.0120
  810 146.849 -2.19925 5.65782
  811 146.799 -2.21824 -5.71211
  812 139.665 -0.359644 1.05255
  813 139.626 -0.363328 -1.06180
  814 266.232 44.9025 -18.0327
  815 155.624 -1.03081 -1.53817
  816 155.648 -1.01874 1.52856
  817 226.074 -2.27523 -22.9198
  818 329.427 32.6123 26.5585
  819 202.519 4.45521 -13.8731
  820 68.7505 -0.632871 11.8730
  821 68.1297 -0.638580 -11.9709
  822 265.284 6.67591 68.9256
  823 233.751 -4.19633 5.83053
  824 207.472 13.7052 -5.78274
  825 94.4470 -0.169853 8.12421
  826 93.9362 -0.124979 -8.18757
  827 142.900 -0.777998 -2.76062
  828 142.950 -0.766806 2.73293
  829 25.4112 22.7297 19.2144
  830 216.769 5.12862 20.6819
  831 241.673 35.5940 -16.3447
  832 260.653 30.2657 -23.2464
  833 170.014 -6.55170 -7.16638
  834 169.909 -6.49981 7.15355
  835 269.697 57.6719 8.25471
  836 233.500 -1.82471 -0.333512
  837 233.510 -1.81064 0.373887
  838 230.526 -6.85587 -15.1074
  839 192.496 -12.9309 6.34628
  840 212.664 -23.9078 11.9284
  841 250.807 -20.5527 18.6888
  842 190.650 -5.58167 -1.63167
  843 190.645 -5.55849 1.61848
  844 217.968 20.1757 9.39140
  845 204.472 2.73870 -14.9977
  846 56.8932 65.6238 64.5132
  847 208.225 -18.5182 -4.25037
  848 208.868 -9.34371 0.894353
  849 208.981 -9.35936 -0.904645
  850 229.806 -3.36465 24.1415
  851 228.203 -14.9640 -11.4766
  852 203.372 -13.5357 -2.17387
  853 470.449 15.2433 -23.5023
  854 193.219 -18.3824 12.7627
  855 193.072 -18.6255 -12.9792
  856 229.664 -2.71636 12.2858
  857 347.519 89.4004 -18.6645
  858 181.062 -16.5790 -16.1630
  859 200.533 -22.6355 15.1637
  860 181.002 -16.3754 16.0132
  861 196.461 -7.96108 -1.81459
  862 196.452 -7.93153 1.79894
  863 28.4505 12.3305 16.7383
  864 246.914 18.4656 -25.5333
  865 188.309 -7.42724 -3.15254
  866 188.341 -7.34971 3.16479
  867 185.840 -3.10836 -0.376606
  868 185.834 -3.08553 0.373718
  869 205.023 -4.04270 0.106208
  870 204.997 -4.01423 -0.107235
  871 165.549 -3.33741 -3.85789
  872 165.559 -3.29889 3.83979
  873 189.081 -10.0539 -4.86107
  874 189.103 -9.98132 4.88178
  875 4.42764 -2.21606 -1.79395
  876 286.568 53.7616 13.8442
  877 246.448 -8.60087 -20.7079
  878 200.381 -22.3098 -15.3356
  879 216.641 -6.93491 2.42246
  880 216.543 -6.86008 -2.35913
  881 236.146 0.319224 25.9585
  882 257.783 -18.3988 -9.80809
  883 228.524 15.7408 -83.5919
  884 102.430 -1.57019 41.0385
  885 -4.34274 2.39116 -2.62245
  886 -3.81836 2.69576 2.92951
  887 28.2395 13.1155 -17.0793
  888 231.118 -6.56734 9.38611
  889 243.668 -1.50896 -3.97320
  890 218.914 -21.0039 35.3490
  891 102.182 -1.45417 -41.2092
  892 243.974 -19.9103 6.38350
  893 272.568 -8.28663 30.3430
  894 195.240 0.772947 6.69342
  895 224.870 21.3880 16.0272
  896 120.867 -6.85615 30.2748
  897 120.389 -6.91209 -30.4856
  898 145.111 -7.03652 -16.9467
  899 153.407 -7.41069 -52.4480
  900 243.773 -5.65845 23.1181
  901 336.199 78.4774 10.6308
  902 244.556 9.43292 26.0375
  903 231.193 -4.88067 -13.7555
  904 156.690 -6.64055 53.7598
  905 295.374 54.3292 -10.5554
  906 28.6574 24.5450 -23.7647
  907 212.709 -0.443275 -7.20207
  908 145.263 -6.97691 16.7877
  909 177.740 -3.98861 2.64218
  910 177.738 -4.01761 -2.64911
  911 228.543 -14.8851 11.8338
  912 237.894 -1.39684 0.997797
  913 174.529 1.66699 -65.3143
  914 251.090 -0.512190 1.88465
  915 249.068 -0.415623 -2.38827
  916 183.674 1.55821 -5.79252
  917 240.243 -0.959290 -4.20436
  918 178.437 -8.47122 -6.53535
  919 178.557 -8.34100 6.55397
  920 -6.05608 2.13591 -3.51016
  921 -8.26819 1.28743 3.68064
  922 237.894 -1.29028 -1.00663
  923 77.1962 -1.72189 27.6697
  924 76.7084 -1.54981 -27.8341
  925 253.277 37.0341 20.2469
  926 459.256 8.27574 7.30771
  927 238.144 26.5302 21.1194
  928 271.345 -9.67203 7.71969
  929 234.963 -13.0355 18.2002
  930 292.796 61.4618 -8.02241
  931 179.573 0.715566 4.36355
  932 226.175 -5.22866 -3.89878
  933 234.456 12.6083 -25.5412
  934 284.854 8.19567 -5.98614
  935 220.250 -13.5920 -5.84753
  936 110.508 -0.646531 -6.06846
  937 110.633 -0.623801 5.97961
  938 232.602 -5.38987 -10.8680
  939 7.45205 9.55967 1.62438
  940 223.239 -23.1357 -1.53083
  941 191.711 5.58181 -0.598372
  942 290.627 64.1153 -5.33355
  943 45.2690 33.7384 -39.8270
  944 222.853 -1.65546 -14.1884
  945 153.143 -2.65043 -5.26590
  946 153.169 -2.61843 5.21786
  947 1.24415 -6.46779 4.95979
  948 150.617 -11.3318 -24.3267
  949 227.345 -13.1032 -11.1170
  950 139.083 0.297041 -0.432210
  951 139.113 0.298617 0.428944
  952 228.852 27.7945 -12.8603
  953 247.214 -0.637345 -0.382235
  954 247.215 -0.648291 0.497281
  955 150.679 -11.2982 24.1531
  956 229.829 -0.289814 -5.62941
  957 265.304 1.90010 17.5806
  958 235.234 -3.21860 4.53023
  959 36.6020 9.51904 -21.3134
  960 244.194 -1.39603 3.60868
  961 220.222 1.74353 22.1789
  962 232.288 32.2353 11.4431
  963 232.802 2.70164 -26.1547
  964 159.358 -8.68491 -14.4746
  965 251.968 -8.87772 17.4672
  966 159.460 -8.64876 14.3205
  967 7.07035 7.81375 -0.340181
  968 26.6293 4.75021 15.6013
  969 129.235 -2.36177 10.0084
  970 129.072 -2.36496 -10.0698
  971 226.332 -5.33348 4.09613
  972 242.597 42.3332 6.36318
  973 123.216 11.4227 -61.7187
  974 202.971 -12.7331 1.84639
  975 190.482 -19.9872 -19.4448
  976 278.415 53.4633 14.1897
  977 213.950 -3.71262 0.454217
  978 213.943 -3.69062 -0.455270
  979 234.842 -4.25587 -7.85815
  980 215.877 18.5976 -8.66644
  981 497.689 146.182 98.7085
  982 43.9860 2.58235 -20.7030
  983 44.7179 2.14891 20.7535
  984 3.26733 -4.77598 0.810449
  985 216.623 11.9574 17.7881
  986 190.414 -20.1057 19.2943
  987 236.572 -11.1359 -20.6146
  988 257.484 21.0656 25.3175
  989 248.200 -20.0381 -23.2051
  990 363.042 76.5028 24.7768
  991 209.924 -3.33930 -0.0477283
  992 209.897 -3.30964 0.0480915
  993 246.245 -9.98874 19.6766
  994 16.7997 26.6368 28.5654
  995 108.874 -2.35140 14.3630
  996 108.519 -2.32154 -14.5257
  997 130.677 -6.51404 19.5944
  998 130.216 -6.41721 -19.6748
  999 147.443 -6.20480 14.0201
  1000 161.174 -1.34457 -0.704000
  1001 161.194 -1.33418 0.700831
  1002 410.709 128.839 -81.5107
  1003 369.841 92.5921 37.2192
  1004 147.324 -6.23846 -14.1457
  1005 253.686 -1.13546 21.6721
  1006 225.959 23.4509 -15.4472
  1007 159.616 -13.6731 43.4535
  1008 205.708 -24.2906 -23.0436
  1009 235.232 -1.88774 -8.29102
  1010 105.224 7.39415 50.1341
  1011 135.101 -10.3417 34.7314
  1012 206.703 10.5303 -11.1211
  1013 237.742 -4.67656 -24.7133
  1014 307.575 121.333 132.067
  1015 194.821 5.89194 7.89961
  1016 266.936 57.8074 -0.990048
  1017 196.859 7.60943 -74.2911
  1018 199.405 -21.0612 -13.0260
  1019 254.735 -0.217021 -0.953001
  1020 242.997 22.3434 -24.5091
  1021 140.538 -0.961183 3.56699
  1022 140.474 -0.971061 -3.60322
  1023 5.06696 1.82619 -6.98772
  1024 159.413 -7.41599 -12.0497
  1025 134.941 -10.4764 -35.0053
  1026 159.282 -7.39716 11.9085
  1027 232.305 -7.03786 22.8504
  1028 208.251 -12.9094 0.0703573
  1029 218.288 3.98216 -21.4682
  1030 224.553 28.0714 4.50705
  1031 307.430 17.9834 9.57347
  1032 230.354 -17.4682 11.3557
  1033 144.469 -11.6550 -26.6216
  1034 216.331 7.61010 -20.0681
  1035 161.052 -13.4847 -43.6976
  1036 310.689 67.7711 -0.992977
  1037 209.990 13.7324 10.1167
  1038 267.440 -1.62187 -13.7356
  1039 200.653 -21.0654 11.9227
  1040 230.198 -7.25020 17.7287
  1041 228.820 -12.0388 12.9582
  1042 227.568 -11.4017 11.2775
  1043 281.532 35.6536 -18.8754
  1044 226.946 -3.63442 17.8875
  1045 205.347 -24.3589 22.6597
  1046 219.210 -8.92085 3.95766
  1047 144.557 -11.6750 26.4625
  1048 205.561 -15.2161 -2.30369
  1049 118.600 -5.72917 -37.1539
  1050 170.086 -17.7090 29.3784
  1051 231.318 -1.53092 -9.59389
  1052 225.012 -2.52876 -20.2798
  1053 194.763 -15.5095 -7.81545
  1054 118.807 -5.90130 36.8495
  1055 209.186 0.478270 -14.0243
  1056 155.262 -10.4430 -18.7921
  1057 283.381 60.5678 9.04737
  1058 62.1832 10.5208 -35.0372
  1059 490.791 34.7154 47.6089
  1060 112.794 8.59688 -52.5383
  1061 227.561 -18.8314 -7.24545
  1062 155.299 -10.3509 18.6297
  1063 206.858 2.13710 15.6567
  1064 114.827 -2.39098 11.8856
  1065 114.761 -2.45066 -12.0116
  1066 230.115 -6.37447 -21.1632
  1067 245.827 -1.13851 1.51510
  1068 240.428 -0.504766 4.25581
  1069 237.295 7.89943 26.3962
  1070 221.643 -1.66915 19.0222
  1071 172.480 18.2593 80.4059
  1072 256.444 -0.156253 0.472167
  1073 238.597 32.4036 16.8166
  1074 201.063 2.85578 13.4691
  1075 243.672 -0.889017 4.09975
  1076 154.563 -1.73795 -2.92674
  1077 154.588 -1.71781 2.90575
  1078 97.8100 -2.82633 -19.8073
  1079 98.2147 -2.92768 19.6630
  1080 201.697 9.98511 5.64553
  1081 308.660 15.9405 -21.0968
  1082 283.555 -0.750312 -41.6231
  1083 224.008 -0.186350 -5.82182
  1084 170.163 -17.8433 -29.6076
  1085 195.170 -14.7496 6.93460
  1086 225.359 -0.505433 6.07834
  1087 236.634 -17.1204 -13.3156
  1088 145.442 -0.372955 1.76052
  1089 145.409 -0.379309 -1.77252
  1090 227.123 -19.3709 7.24280
  1091 215.724 -4.34191 0.864287
  1092 215.688 -4.34545 -0.849046
  1093 209.815 -21.1793 7.24795
  1094 271.780 -8.85528 -1.72452
  1095 120.192 -0.226560 -3.36744
  1096 120.397 -0.218659 3.32956
  1097 184.293 -11.5547 -50.0621
  1098 195.406 -4.67549 0.825917
  1099 195.426 -4.70367 -0.835059
  1100 118.630 63.0731 88.3108
  1101 272.337 22.2565 -21.1056
  1102 39.2227 19.3604 -26.2137
  1103 235.389 -3.40188 -4.38079
  1104 61.8502 21.5000 -40.1563
  1105 129.188 -8.22683 -25.3126
  1106 256.602 -0.226792 0.282562
  1107 256.714 -0.209417 -0.210513
  1108 231.117 -13.1510 -15.6412
  1109 204.706 -22.9247 -31.9011
  1110 62.2122 8.95522 33.3878
  1111 251.299 24.9105 23.9545
  1112 228.554 -2.18509 -0.406161
  1113 228.577 -2.18753 0.428797
  1114 250.413 -16.2335 38.5893
  1115 257.082 51.7180 9.27317
  1116 151.132 -3.75008 -7.56523
  1117 151.167 -3.73121 7.50678
  1118 115.427 13.3460 62.2718
  1119 217.769 1.07865 -20.7924
  1120 67.6563 22.0321 43.2375
  1121 282.290 -5.04654 -12.0035
  1122 275.650 61.3057 2.87302
  1123 189.018 -15.0789 9.65669
  1124 172.603 0.864395 -0.850113
  1125 241.324 -2.04453 5.30091
  1126 250.210 -0.270311 2.07380
  1127 52.6500 0.110474 -9.93978
  1128 53.4260 0.0832551 9.86904
  1129 194.529 3.17474 -9.96379
  1130 201.780 -5.93979 -0.436643
  1131 201.731 -5.90921 0.432988
  1132 20.9788 31.1854 -30.3481
  1133 33.6164 70.1054 -61.6706
  1134 204.439 -7.99976 0.159323
  1135 204.524 -8.00217 -0.169491
  1136 211.456 -5.05067 0.947544
  1137 211.425 -5.03820 -0.928109
  1138 54.7864 35.1055 43.3813
  1139 165.438 -2.11775 -1.38564
  1140 165.454 -2.10166 1.37812
  1141 208.824 15.7216 -0.239593
  1142 270.471 32.7075 -92.9687
  1143 256.032 44.2778 -15.8793
  1144 233.822 -8.93977 -21.6709
  1145 230.380 -11.4422 -15.8129
  1146 189.150 -15.2231 -9.82401
  1147 188.981 0.586505 6.15118
  1148 213.743 13.2698 -14.8620
  1149 210.652 11.2682 14.1806
  1150 219.063 -8.65654 -3.88910
  1151 208.797 -12.6456 -0.221656
  1152 189.357 -12.3599 -7.18105
  1153 225.914 -1.31090 11.3329
  1154 403.543 40.8222 5.71695
  1155 227.545 -4.82823 20.6545
  1156 227.990 14.9692 22.4248
  1157 210.811 -20.7986 -5.24309
  1158 25.1424 4.37251 -15.0345
  1159 214.768 -9.91899 -2.91360
  1160 140.113 -0.250502 -0.0809201
  1161 140.139 -0.249523 0.0798210
  1162 262.654 -6.95968 11.8696
  1163 250.343 -21.0490 7.95971
  1164 360.329 64.7937 15.4896
  1165 83.3552 -0.195275 -8.31811
  1166 83.8898 -0.176763 8.25168
  1167 191.058 -3.89070 -0.730222
  1168 191.046 -3.86451 0.723767
  1169 215.487 -19.0434 0.133643
  1170 174.209 0.748608 2.77950
  1171 220.753 -15.7146 5.64088
  1172 12.0673 14.3514 -6.55187
  1173 38.8473 19.6138 25.6503
  1174 147.055 -7.88177 48.4131
  1175 254.921 48.7757 -11.3268
  1176 244.601 -0.649738 -3.23465
  1177 257.730 -0.382935 0.201812
  1178 258.001 -0.534508 -0.134110
  1179 146.194 -0.395189 -0.280526
  1180 146.222 -0.392183 0.278073
  1181 234.892 15.0360 25.5189
  1182 349.843 60.1425 -1.27125
  1183 241.818 40.1197 -11.4200
  1184 181.173 -13.2205 49.7370
  1185 146.269 -7.56083 -48.3251
  1186 162.101 -11.0110 -16.7994
  1187 226.429 -6.24022 5.17584
  1188 316.877 69.5783 1.20136
  1189 162.107 -10.9418 16.6584
  1190 231.590 -3.92992 3.92016
  1191 204.925 7.53715 13.5189
  1192 226.844 7.01051 24.4664
  1193 325.105 72.7462 6.71705
  1194 191.444 -5.03724 1.37773
  1195 191.457 -5.06393 -1.38953
  1196 234.514 -4.30278 8.15491
  1197 136.563 -1.52980 5.60919
  1198 136.465 -1.54572 -5.66424
  1199 229.488 -3.00110 -1.81671
  1200 93.8864 55.6695 -85.1916
  1201 198.653 -11.1400 -53.2375
  1202 186.037 -5.91097 -2.70562
  1203 186.053 -5.88171 2.70619
  1204 246.923 -1.06144 1.35102
  1205 233.052 -2.92713 3.14275
  1206 12.3460 15.1838 10.9612
  1207 254.414 -0.246979 1.10717
  1208 29.5572 36.9382 36.6495
  1209 227.447 -3.27946 -2.32094
  1210 -0.339088 -5.64686 -4.93404
  1211 159.857 -15.5850 -37.4290
  1212 159.392 -15.2023 37.0428
  1213 254.411 -0.413626 -1.21734
  1214 216.162 -11.3956 -3.42418
  1215 246.716 -0.957191 -1.40027
  1216 195.824 -6.37554 -1.20080
  1217 195.800 -6.34913 1.18302
  1218 229.336 -2.97755 1.71338
  1219 214.611 -9.72720 2.88302
  1220 206.254 -6.62383 -0.363094
  1221 206.332 -6.64508 0.390074
  1222 246.533 -0.987415 -1.14831
  1223 212.086 -22.2562 -36.0414
  1224 240.984 -1.35887 -1.19031
  1225 228.451 -3.37632 2.47633
  1226 157.145 -1.81022 -2.14704
  1227 157.167 -1.79204 2.13268
  1228 176.391 -2.65436 -1.05160
  1229 176.397 -2.63474 1.04539
  1230 288.773 44.9041 16.0659
  1231 242.472 -18.5622 10.2077
  1232 165.777 -0.690646 61.5923
  1233 130.374 -0.249519 2.15118
  1234 130.262 -0.252071 -2.17449
  1235 229.104 -4.19307 15.5812
  1236 219.553 -3.22216 0.566061
  1237 219.566 -3.21006 -0.565683
  1238 250.709 49.0397 5.27142
  1239 230.772 -24.1127 28.2400
  1240 130.965 -1.92723 7.91257
  1241 130.831 -1.94256 -7.97549
  1242 219.162 -5.27123 2.09490
  1243 219.115 -5.30636 -2.04153
  1244 226.311 -6.15886 -4.99787
  1245 206.359 0.0300599 7.26692
  1246 361.299 89.7080 -28.8378
  1247 230.345 -8.36629 -13.9573
  1248 38.3704 9.38927 21.9434
  1249 238.082 -12.6311 19.3173
  1250 189.010 4.04231 -5.44595
  1251 13.9240 10.5917 7.62193
  1252 315.631 34.4087 -0.959263
  1253 232.349 -10.5235 -19.3993
  1254 189.956 2.62653 8.33601
  1255 130.120 -8.23834 25.2574
  1256 236.319 -18.2407 11.9803
  1257 345.497 64.5156 18.4332
  1258 78.1820 11.7678 42.6140
  1259 237.683 -2.72216 -7.01058
  1260 463.175 5.12530 -4.71757
  1261 479.131 7.24553 21.1203
  1262 512.465 17.6679 -50.0250
  1263 229.919 -7.12365 -17.2209
  1264 230.061 -10.4447 14.8279
  1265 233.876 -16.5955 14.0477
  1266 -6.90970 0.740608 4.42403
  1267 -6.30522 0.575612 -4.79525
  1268 227.857 -25.1260 -12.6247
  1269 233.671 -23.5629 -19.3891
  1270 175.539 1.07730 -3.43720
  1271 226.969 -25.5928 19.4224
  1272 242.265 -11.4395 -19.6368
  1273 4.32276 7.02481 0.409456
  1274 195.979 -3.57634 0.581835
  1275 195.995 -3.60387 -0.583386
  1276 241.222 -1.82952 4.81030
  1277 231.588 -3.85642 -3.69461
  1278 217.713 -23.7791 -6.31438
  1279 198.203 -10.8046 2.72218
  1280 197.177 -10.6573 -3.02987
  1281 233.478 -4.85493 11.0633
  1282 239.201 -8.74108 -22.3678
  1283 14.4614 11.0444 -7.32384
</Section>

newXOutput 14

<Section columns = "stress_xx | stress_yy | stress_xy">
  1 280.162 -0.0161245 0.567428
  2 280.179 -0.0125155 -0.569392
  3 149.228 -0.0690414 -0.205713
  4 -1.90607 -1.89122 -2.73906
  5 511.987 197.676 161.185
  6 507.117 205.129 -161.676
  7 -2.21187 -1.80287 2.90657
  8 149.199 -0.0696422 0.205087
  9 282.216 -0.449260 0.179551
  10 281.577 -0.719012 -0.124745
  11 280.856 -0.460936 0.669983
  12 280.140 -0.651944 0.215016
  13 278.608 -0.542116 1.05691
  14 277.225 -0.552102 0.788037
  15 274.025 -0.490153 1.50912
  16 269.517 -0.314310 2.21686
  17 265.482 -0.349034 2.45400
  18 259.553 -0.514451 2.95176
  19 251.396 -0.0162007 4.34369
  20 243.858 -0.380202 4.11197
  21 235.358 -0.509652 5.77109
  22 223.071 0.363727 5.00431
  23 214.238 0.529098 5.90164
  24 202.723 0.903875 4.60478
  25 194.784 0.918390 4.63607
  26 183.275 1.31470 2.35955
  27 180.864 2.07491 2.52480
  28 179.420 1.68416 -0.743728
  29 181.412 0.946816 -1.64360
  30 185.072 0.940698 -2.01294
  31 193.688 1.20271 -4.02447
  32 202.055 0.948957 -5.10514
  33 214.388 0.188000 -6.06267
  34 224.266 -0.135561 -5.54227
  35 234.840 -0.407792 -5.46355
  36 244.437 -0.295195 -3.86825
  37 252.728 -0.302016 -3.32126
  38 259.595 -0.500708 -2.79960
  39 265.773 -0.349100 -1.96821
  40 269.664 -0.405941 -2.09643
  41 273.422 -0.515363 -1.53615
  42 277.005 -0.617032 -0.691626
  43 278.851 -0.491812 -0.800619
  44 279.855 -0.286807 -0.507507
  45 279.205 -0.133935 -0.461987
  46 281.883 -0.729903 0.0778994
  47 282.312 -0.469928 -0.185336
  48 272.713 -0.140533 -0.350438
  49 266.366 -1.04090 -0.620857
  50 258.647 -1.55290 -0.420834
  51 249.257 -2.34966 -0.572463
  52 240.385 -2.58830 -0.717193
  53 230.936 -3.29042 -0.678871
  54 222.590 -3.68955 -0.386488
  55 215.273 -4.16832 -0.156561
  56 206.837 -3.47019 -0.156013
  57 197.118 -3.26406 -0.236413
  58 187.743 -2.59583 -0.0833228
  59 178.853 -1.67528 -0.0357086
  60 170.394 -1.20780 0.00483493
  61 162.959 -0.637397 0.0710998
  62 155.332 -0.184983 -0.237255
  63 149.330 0.206067 0.279643
  64 146.659 0.605093 0.181479
  65 148.544 -0.00261941 0.441229
  66 146.561 -0.0927887 0.528635
  67 144.752 -0.133397 0.660448
  68 142.279 -0.0258211 0.868511
  69 139.157 -0.0152715 1.09955
  70 136.897 -0.202523 2.14223
  71 130.234 0.192155 2.34380
  72 125.576 -0.0198833 2.69644
  73 118.637 -0.130719 3.05513
  74 110.629 -0.216158 3.72321
  75 100.625 -0.0539472 4.52044
  76 88.4267 0.0529250 4.97347
  77 77.9748 -0.121962 7.10065
  78 57.1779 0.670226 6.67711
  79 43.1100 0.579258 7.06919
  80 26.3435 -0.109004 7.80695
  81 12.5111 1.33202 8.07169
  82 -3.19089 1.96825 4.75647
  83 -14.4940 1.99380 1.57988
  84 -13.8342 1.89760 -0.880897
  85 -12.9346 1.56558 -3.93811
  86 -7.57810 -0.542421 -3.70100
  87 -0.955478 -7.27558 -4.07274
  88 0.671459 -13.4634 -5.14234
  89 1.93399 -21.5079 -2.98387
  90 4.33548 -22.4304 -0.0719098
  91 9.23190 -6.89232 11.7962
  92 27.8522 39.9822 41.2105
  93 167.129 150.413 143.490
  94 618.414 91.7735 104.258
  95 555.674 13.1944 34.1715
  96 515.244 5.41878 10.4571
  97 500.289 4.57326 0.828419
  98 508.107 6.12419 -9.01814
  99 554.199 12.2236 -27.0184
  100 657.196 44.3035 -90.3371
  101 98.7985 152.969 -119.578
  102 20.8791 26.7054 -33.8796
  103 10.0580 -5.88060 -12.2728
  104 4.04407 -22.5696 -1.82154
  105 1.08980 -16.4739 3.45237
  106 1.41450 -16.9446 4.47856
  107 0.0498615 -6.31053 4.50713
  108 -7.90468 -0.369775 3.52071
  109 -13.3488 1.17469 3.44694
  110 -14.5596 2.31049 0.962566
  111 -14.9726 1.96735 -1.44772
  112 -4.22344 2.01743 -4.44404
  113 11.5898 1.34402 -7.68878
  114 25.4012 0.0307037 -7.67803
  115 42.1414 0.626649 -7.08617
  116 56.2977 0.688476 -6.73113
  117 77.2915 -0.124880 -7.16409
  118 87.8405 0.0595439 -5.02459
  119 100.114 -0.0516620 -4.58007
  120 110.364 -0.238412 -3.75368
  121 118.288 -0.124969 -3.06466
  122 125.312 -0.0111656 -2.72633
  123 130.019 0.189608 -2.37164
  124 136.745 -0.204410 -2.16587
  125 139.036 -0.0164990 -1.11416
  126 142.190 -0.0269753 -0.880565
  127 144.686 -0.135293 -0.670039
  128 146.513 -0.0944104 -0.535361
  129 148.505 -0.00404300 -0.445554
  130 146.627 0.604234 -0.183514
  131 149.300 0.205666 -0.280901
  132 155.302 -0.186630 0.236519
  133 162.929 -0.641509 -0.0726960
  134 170.369 -1.21693 -0.00671543
  135 178.834 -1.68799 0.0338835
  136 187.733 -2.61413 0.0815451
  137 197.118 -3.28707 0.235034
  138 206.849 -3.49668 0.154701
  139 215.293 -4.19771 0.156046
  140 222.616 -3.71874 0.387501
  141 230.972 -3.31698 0.681819
  142 240.414 -2.60680 0.727836
  143 249.277 -2.36618 0.623029
  144 258.691 -1.46163 0.430419
  145 266.555 -1.01083 0.607373
  146 272.752 -0.182573 0.345362
  147 242.854 -22.8045 -2.51286
  148 242.659 -22.4995 2.60045
  149 254.120 36.5796 -12.9510
  150 271.579 16.0380 27.6500
  151 205.602 -19.7073 -44.6449
  152 207.243 -19.6916 43.1761
  153 198.930 -8.54170 5.09342
  154 198.951 -8.66388 -5.09924
  155 288.509 10.3118 -21.5727
  156 242.201 -8.64984 5.97248
  157 242.101 -8.43637 -5.89647
  158 313.105 70.2166 3.65454
  159 247.493 -0.396047 -26.8041
  160 182.462 -14.5027 -19.9103
  161 182.457 -14.3781 19.7253
  162 248.061 -5.58692 24.2925
  163 234.903 17.0966 15.8751
  164 96.4739 15.7363 -53.2472
  165 107.170 14.8912 56.1400
  166 305.209 3.28768 3.87068
  167 248.936 -9.49846 -17.0694
  168 330.278 72.5899 -2.51179
  169 223.869 -6.29678 0.318510
  170 223.819 -6.27465 -0.297310
  171 252.323 -2.93692 -2.62931
  172 253.160 -2.62367 2.27873
  173 174.482 -2.59302 -3.10187
  174 174.501 -2.56529 3.08373
  175 271.838 -7.43879 56.6932
  176 227.195 9.36388 -17.0859
  177 148.090 -11.1707 -32.2215
  178 148.537 -11.0879 31.9990
  179 166.139 -5.57847 -10.4478
  180 166.150 -5.51264 10.3639
  181 250.198 -6.51163 14.5012
  182 227.104 -15.6339 0.0998301
  183 226.280 -15.5172 0.279297
  184 258.991 -25.0009 -3.33247
  185 260.308 -23.8168 0.0901969
  186 358.473 84.2633 -11.1963
  187 259.185 41.7430 12.1301
  188 259.986 15.9811 -27.6203
  189 271.027 -2.63305 -66.1003
  190 258.413 -14.5518 -19.6575
  191 260.607 -10.3688 23.0033
  192 216.907 -24.6548 21.5346
  193 216.982 -24.4850 -21.4628
  194 231.287 2.90707 20.5755
  195 104.957 -2.49296 -39.3250
  196 105.226 -2.72567 39.0732
  197 405.295 60.9064 8.68581
  198 244.615 -14.5412 10.9139
  199 253.925 -4.58364 -9.51463
  200 200.118 -4.95451 -2.26331
  201 200.118 -4.92710 2.25483
  202 243.095 -3.14459 -18.6816
  203 277.174 40.7534 -22.2873
  204 230.845 20.6993 -3.18703
  205 149.266 -5.40951 14.7916
  206 149.032 -5.42839 -14.9096
  207 258.008 -2.76171 5.28162
  208 250.351 4.71038 27.5408
  209 203.097 -14.9233 -9.30513
  210 201.667 -14.1332 9.56287
  211 295.887 43.8788 20.7648
  212 349.598 47.0115 6.08254
  213 22.9443 18.1824 -14.4355
  214 21.1969 16.8090 12.2351
  215 143.009 40.7026 94.5162
  216 242.133 -16.0720 -8.54708
  217 258.997 -2.65438 -4.77513
  218 228.570 1.96492 -18.9406
  219 159.096 -1.65872 -4.62257
  220 159.144 -1.63968 4.57864
  221 217.409 -10.2509 -1.57165
  222 217.509 -10.3106 1.44624
  223 245.300 -3.28619 15.9299
  224 283.837 -16.4735 5.17354
  225 280.514 57.6015 -6.51162
  226 219.992 -21.3274 -9.81633
  227 279.174 -4.83746 18.2317
  228 237.439 -3.90019 1.05437
  229 237.444 -3.86611 -1.05266
  230 218.323 -21.2241 10.2420
  231 250.614 -15.8555 16.0872
  232 354.722 44.7063 -20.5183
  233 77.4227 46.1257 -67.9779
  234 210.475 7.30454 4.05695
  235 251.055 22.1522 23.1671
  236 268.307 -1.85094 -24.8815
  237 250.379 -8.97701 -22.8073
  238 131.728 -4.33268 -18.5883
  239 132.199 -4.26576 18.5220
  240 250.862 -2.97742 -12.3881
  241 239.141 -5.98149 3.23599
  242 239.029 -5.97113 -3.13658
  243 49.1415 4.67741 -24.8444
  244 49.9723 4.10255 24.7658
  245 267.235 -23.3434 -19.6271
  246 264.545 -0.838439 0.764221
  247 264.848 -0.855569 -0.819419
  248 245.021 20.3008 -21.1749
  249 214.839 4.05422 12.3440
  250 456.085 73.0767 48.9160
  251 452.509 51.5250 -30.7344
  252 325.276 70.4922 -0.720064
  253 202.898 -9.71106 59.5933
  254 186.018 -6.22979 -62.3780
  255 212.909 -4.37126 -0.709840
  256 212.887 -4.34106 0.703662
  257 175.805 -4.81919 6.30557
  258 175.809 -4.88737 -6.36634
  259 257.517 -2.69916 7.73141
  260 249.623 -17.7399 -13.3843
  261 159.758 -0.339919 -1.06766
  262 159.790 -0.334351 1.06022
  263 246.470 -9.91739 -10.6018
  264 102.918 -3.40576 -25.7317
  265 103.385 -3.41713 25.5368
  266 249.429 -10.7686 18.3851
  267 189.950 -20.1620 35.8811
  268 190.457 -20.5243 -35.7732
  269 213.681 8.09678 -5.74482
  270 184.356 -2.89939 -2.08434
  271 184.369 -2.87854 2.07527
  272 233.047 -0.604326 15.2258
  273 279.208 51.2875 15.4964
  274 147.838 -1.87448 7.89457
  275 147.722 -1.89077 -7.96663
  276 256.528 -21.3701 9.71971
  277 237.475 -26.5935 -23.5979
  278 265.439 -1.18506 2.48125
  279 182.681 -10.9762 -13.5416
  280 182.347 -10.8505 13.4852
  281 328.679 33.0112 83.7269
  282 152.913 -12.3120 42.9605
  283 247.227 34.7696 -1.37731
  284 314.623 34.5131 -14.2428
  285 236.490 -18.3041 3.78173
  286 237.618 -27.3276 21.1807
  287 153.403 -12.1049 -43.4669
  288 28.0955 34.6044 31.1372
  289 246.511 -9.95568 10.7930
  290 324.243 42.1058 11.4788
  291 267.638 -1.05627 -2.15092
  292 240.866 8.39740 -24.3694
  293 238.329 -13.4612 6.09595
  294 233.285 -19.7185 -0.114818
  295 239.929 10.9910 23.4597
  296 255.271 -21.3834 -8.76435
  297 362.318 70.7563 -5.84518
  298 238.263 -12.9355 -5.83834
  299 198.019 56.1188 -116.158
  300 243.848 -25.8284 -3.88231
  301 242.097 -26.5292 6.68165
  302 176.908 -16.1033 -28.2284
  303 158.329 -0.648561 -2.33517
  304 158.370 -0.637345 2.31479
  305 176.974 -16.1134 28.0672
  306 257.661 -0.416584 -27.8179
  307 278.873 -11.5326 -12.4555
  308 211.340 -12.8203 -4.70181
  309 211.190 -12.8490 4.79369
  310 254.134 -21.8696 38.1745
  311 252.981 -1.98474 9.38300
  312 308.788 1.13903 12.4609
  313 206.866 -7.36345 -2.53758
  314 206.877 -7.33619 2.52072
  315 187.883 -4.98124 -4.08212
  316 187.880 -4.93272 4.07458
  317 212.538 2.80503 -11.9425
  318 274.881 20.1436 -26.8616
  319 427.391 114.914 -53.8976
  320 250.829 -2.09448 -0.894870
  321 250.676 -2.06529 0.916488
  322 133.326 -0.121161 53.6023
  323 187.022 -8.60973 -8.86194
  324 186.651 -8.57686 8.88331
  325 133.305 -0.424008 -53.3987
  326 261.576 30.9081 -22.6672
  327 293.809 14.4794 20.6064
  328 254.196 -18.1451 -42.4901
  329 232.902 -8.96322 2.83723
  330 232.658 -8.89403 -2.73206
  331 248.976 -5.07011 -5.23396
  332 233.226 -0.456760 -14.2443
  333 262.533 1.16180 27.3139
  334 262.474 -1.76952 -5.34931
  335 156.211 -9.61208 21.5628
  336 156.040 -9.66813 -21.7387
  337 243.740 -0.560024 25.4171
  338 148.612 -1.26944 -4.66440
  339 148.708 -1.25733 4.61865
  340 250.770 -5.68460 8.02758
  341 300.571 61.5424 -11.7350
  342 248.836 -5.11181 5.42268
  343 264.568 33.2836 22.7741
  344 253.360 -4.68582 26.5077
  345 199.836 -3.78113 0.800587
  346 199.840 -3.80608 -0.806953
  347 239.329 -0.868383 -22.5396
  348 317.911 66.9463 7.92483
  349 263.462 48.4541 0.476896
  350 161.587 18.8448 -79.9536
  351 15.9276 7.27291 -10.5732
  352 17.5525 7.86314 11.4147
  353 -1.00203 1.75379 5.03281
  354 0.0218017 0.921015 -5.23928
  355 467.971 32.4455 11.2396
  356 218.388 -17.8131 -5.53443
  357 250.984 -5.48746 -7.83564
  358 225.996 -3.93186 0.422016
  359 225.969 -3.89833 -0.423122
  360 241.285 26.6537 -11.4601
  361 206.127 -21.0944 17.6990
  362 17.6852 26.1962 -19.0558
  363 206.341 -21.0934 -18.0392
  364 244.515 27.8184 12.1964
  365 250.195 -6.61867 -13.8303
  366 265.690 -14.7820 -16.9552
  367 282.408 59.8866 4.49984
  368 266.353 -16.5805 14.1780
  369 108.318 -2.76032 17.2550
  370 107.643 -2.70751 -17.3738
  371 60.8500 1.55243 -23.8079
  372 61.5332 1.29928 23.6984
  373 216.018 0.653448 12.0928
  374 415.120 120.463 45.6024
  375 258.950 -1.59942 -6.74052
  376 200.680 -17.0763 -13.5007
  377 200.500 -17.0276 13.4812
  378 248.561 -5.69774 -17.4036
  379 284.039 -13.7291 3.14171
  380 218.379 -17.7947 5.71941
  381 312.467 1.91835 -24.2691
  382 174.262 -1.46330 -0.777840
  383 174.285 -1.45025 0.771314
  384 244.204 -1.40615 -11.0551
  385 129.951 -1.93333 -11.2755
  386 130.038 -1.99392 11.1329
  387 292.472 37.3259 -22.9786
  388 157.657 11.1871 74.1852
  389 228.582 -12.0150 1.62869
  390 228.809 -11.9920 -1.64085
  391 268.427 45.5320 -14.4673
  392 254.416 -7.51551 -25.1861
  393 255.692 -26.0900 20.4351
  394 212.154 -5.65715 -1.08684
  395 212.127 -5.62738 1.07349
  396 245.611 -18.9371 9.20213
  397 265.085 -1.21803 3.98867
  398 163.512 -6.08671 -13.1198
  399 163.575 -6.08496 13.0012
  400 248.976 8.34668 -27.1462
  401 235.364 -5.04977 1.60470
  402 235.355 -5.06064 -1.57148
  403 243.130 -2.85369 20.7705
  404 225.907 16.4055 5.47396
  405 252.428 -10.6249 22.0705
  406 365.901 76.7984 13.1401
  407 120.751 -6.51817 -34.4819
  408 121.096 -6.52112 34.2084
  409 53.7133 29.0232 -40.6693
  410 271.587 -0.736538 1.13524
  411 135.459 -1.19834 -7.12803
  412 135.646 -1.17292 7.06329
  413 248.781 -6.45605 17.0692
  414 225.615 -24.5251 11.3377
  415 255.414 -3.08636 3.71347
  416 259.550 13.1941 28.3799
  417 56.3957 30.9029 42.4778
  418 225.965 -24.3925 -10.3754
  419 233.556 -21.7359 -1.46107
  420 74.7666 -1.50540 -21.6327
  421 75.3624 -1.56420 21.4775
  422 179.069 -14.2473 -51.8210
  423 268.389 -3.97498 24.3083
  424 178.352 -14.4724 51.3516
  425 247.785 -13.8864 -14.4915
  426 229.193 15.4049 -12.0202
  427 247.836 -10.6662 13.7246
  428 267.485 -1.13481 -2.72323
  429 7.87363 8.22348 3.32996
  430 53.5389 61.2574 60.3686
  431 237.874 -0.879134 10.6329
  432 198.380 2.65682 5.21761
  433 201.954 3.25399 -7.08746
  434 172.313 -2.93160 -4.44694
  435 172.328 -2.89323 4.41525
  436 244.331 -18.9278 -8.47948
  437 246.569 -4.81315 -23.2874
  438 199.494 3.66805 -1.92573
  439 365.938 87.0545 16.9186
  440 49.6358 16.7253 -30.4229
  441 54.8074 15.3544 32.5638
  442 228.372 -8.12875 1.43047
  443 228.283 -8.10650 -1.36719
  444 304.651 67.6447 -0.954689
  445 191.800 77.3160 118.732
  446 294.057 -4.22131 -5.30194
  447 167.300 -8.84445 -17.8033
  448 167.376 -8.78138 17.6442
  449 168.107 -3.84762 6.97941
  450 168.078 -3.87714 -7.04711
  451 227.888 5.00682 -19.4850
  452 273.045 -0.340994 -0.761594
  453 221.291 10.0854 10.9191
  454 281.190 34.7452 24.6833
  455 233.955 -17.3840 -2.86210
  456 255.326 -2.93115 -3.60471
  457 268.622 -1.02211 2.50930
  458 272.275 -0.361626 0.436087
  459 272.512 -0.414215 -0.325750
  460 147.442 -0.286939 1.71581
  461 147.369 -0.291097 -1.73507
  462 256.182 -16.2426 17.5060
  463 230.114 9.03093 18.8667
  464 240.971 0.963474 -24.7695
  465 252.353 -5.25934 10.3323
  466 366.868 60.0129 -69.8442
  467 252.835 -14.0012 -19.4314
  468 2.06066 4.72740 1.71729
  469 2.05506 4.78891 -0.467242
  470 199.548 -11.4051 7.49410
  471 198.863 -11.2567 -7.40967
  472 316.009 5.31213 37.1660
  473 87.8467 78.9399 -89.5823
  474 249.291 -0.737603 8.30715
  475 283.801 -16.5872 -20.7931
  476 149.483 -8.70427 25.0008
  477 303.293 53.8184 -16.8471
  478 249.184 -13.4592 16.3410
  479 208.593 -10.0403 -3.54212
  480 208.778 -9.87101 3.52980
  481 215.963 1.13063 -10.6836
  482 149.008 -8.67222 -25.1653
  483 221.638 0.0700962 10.7557
  484 213.346 -24.3809 -31.9082
  485 212.802 -24.4182 32.0109
  486 257.405 -1.67112 7.43318
  487 232.761 21.9191 2.26380
  488 238.184 3.86585 80.9005
  489 349.705 71.4809 -0.449785
  490 241.222 -3.99274 1.78125
  491 241.239 -3.97762 -1.83623
  492 184.252 -3.33773 -2.77450
  493 184.262 -3.30885 2.76278
  494 97.0015 4.59980 44.9019
  495 250.257 -12.0256 -18.9733
  496 226.730 -4.90027 0.391907
  497 226.707 -4.88148 -0.386250
  498 197.199 -20.9356 26.1258
  499 98.9076 6.05875 -46.0564
  500 250.745 -20.4103 -9.68457
  501 4.16861 0.599070 2.24253
  502 217.840 11.1821 0.790111
  503 242.151 -2.71869 -0.594621
  504 242.142 -2.75823 0.582931
  505 197.335 -20.9027 -26.3345
  506 284.117 -14.7302 26.8850
  507 280.912 10.2040 25.2262
  508 259.594 -1.67589 -1.81303
  509 249.977 -20.7013 9.80842
  510 154.613 -0.170949 -0.298370
  511 154.644 -0.169467 0.295541
  512 249.436 -9.55398 -20.1570
  513 240.979 17.8233 20.6836
  514 277.428 6.85092 -24.9020
  515 153.683 -0.266718 -0.962746
  516 153.720 -0.263139 0.955561
  517 487.834 70.4393 -63.1988
  518 250.918 29.9201 18.2544
  519 259.832 -1.53356 1.61818
  520 234.085 -22.2120 2.02260
  521 195.983 -6.55779 4.08887
  522 195.984 -6.60980 -4.08062
  523 273.034 -16.5977 8.28978
  524 261.986 -5.20578 -25.5277
  525 292.741 57.8444 13.9689
  526 243.096 4.16958 25.6740
  527 245.840 -4.65195 3.38097
  528 239.020 -25.4587 -30.5777
  529 247.436 -6.09910 19.7934
  530 482.488 22.0819 -8.86665
  531 271.074 -20.4137 -1.40439
  532 257.979 -1.61708 -0.448590
  533 258.039 -1.72753 0.401255
  534 487.482 32.7253 31.1453
  535 236.901 -0.0944897 21.8349
  536 333.702 55.7128 -6.99073
  537 250.121 -6.74561 -10.0813
  538 111.152 -1.07555 -7.71722
  539 111.515 -1.02411 7.63576
  540 168.533 -15.8107 -35.9897
  541 168.658 -15.5447 35.7147
  542 245.707 -4.45381 -3.34663
  543 267.209 9.81685 -27.8230
  544 234.661 -15.9778 3.75614
  545 252.052 28.9240 -18.9598
  546 254.576 -2.90771 10.0080
  547 320.159 15.6968 -2.34540
  548 217.248 -7.46496 -0.818355
  549 217.177 -7.43615 0.804840
  550 236.356 -11.1397 4.61470
  551 349.799 68.8676 -3.75298
  552 248.674 10.8782 26.6759
  553 105.992 27.3312 66.5072
  554 241.192 -14.4941 53.8101
  555 319.909 14.7996 -59.1241
  556 254.275 21.0307 -24.8586
  557 226.157 -19.4987 -46.6004
  558 244.843 -26.8066 -8.57397
  559 255.936 -25.8697 -12.8828
  560 33.1345 42.5568 -40.3739
  561 257.201 -3.17865 -6.24924
  562 387.766 75.5310 -21.5506
  563 237.642 -10.6750 -5.08869
  564 239.675 -7.75285 4.19303
  565 239.450 -7.57185 -4.03361
  566 163.720 -0.994723 -2.11164
  567 163.752 -0.981788 2.09620
  568 22.5222 2.47102 -12.9952
  569 23.8516 2.58780 13.3027
  570 121.780 -5.72962 -26.3336
  571 122.734 -5.75973 26.2852
  572 242.943 -13.1356 -9.31092
  573 247.753 -26.9147 9.32549
  574 254.691 -24.1416 2.44098
  575 207.978 -3.68610 -0.717708
  576 207.964 -3.65817 0.713621
  577 197.649 -20.6959 -39.9077
  578 221.749 -18.1404 49.3510
  579 192.784 -19.4551 40.1463
  580 249.746 -5.52945 -25.0513
  581 155.100 -2.66193 7.90300
  582 155.025 -2.69031 -7.97290
  583 237.603 13.0947 -20.7611
  584 238.060 -0.415250 -9.65103
  585 297.926 64.9540 -6.35681
  586 193.767 -2.97883 -0.731373
  587 193.770 -2.95795 0.727541
  588 254.381 -0.738390 -5.47580
  589 174.478 -6.01460 -8.68649
  590 174.478 -5.99184 8.60657
  591 143.016 6.73404 63.7662
  592 247.585 -11.3531 -13.8822
  593 137.380 -7.20258 45.7708
  594 243.295 -12.5783 9.49392
  595 256.455 -3.54577 6.88675
  596 253.358 -2.22463 -1.61736
  597 176.387 -2.25230 -1.94213
  598 176.407 -2.23318 1.93084
  599 285.676 57.2380 -12.5287
  600 137.285 -6.92016 -45.9520
  601 242.495 -10.4575 -7.64296
  602 218.299 -4.03913 -0.318748
  603 218.275 -4.00768 0.317321
  604 412.823 55.6981 -9.76814
  605 143.302 -0.960705 4.37560
  606 143.176 -0.970238 -4.41892
  607 225.074 5.10995 17.7638
  608 324.396 26.7630 -5.20817
  609 152.498 1.18294 -63.3173
  610 77.2220 2.06237 -34.3491
  611 77.8842 1.60658 34.1656
  612 190.996 -11.2796 10.6894
  613 193.040 -11.6118 -10.3622
  614 327.333 65.8736 7.02226
  615 252.288 -2.30937 1.47312
  616 214.975 5.97264 -10.7138
  617 269.079 48.5105 11.4398
  618 268.069 50.3486 -7.60542
  619 220.326 -12.2614 -1.38817
  620 222.036 -11.9783 0.593051
  621 158.299 34.3527 -91.2318
  622 188.687 -6.56359 -5.89395
  623 188.699 -6.48653 5.87102
  624 484.794 99.1512 74.5848
  625 249.508 -8.14596 21.7083
  626 141.134 -5.09983 -16.8750
  627 390.581 88.7279 58.3202
  628 141.469 -5.06996 16.8059
  629 239.299 -9.18666 -62.9799
  630 166.790 -0.876765 -0.779517
  631 166.818 -0.869082 0.775159
  632 207.001 1.81357 9.34114
  633 93.1364 -1.42391 -15.1649
  634 93.6808 -1.42733 15.0406
  635 217.457 -15.4713 4.15760
  636 228.269 -18.3317 -0.701810
  637 270.092 -0.549731 -2.27783
  638 149.897 -0.264481 1.25737
  639 149.842 -0.269058 -1.27157
  640 204.795 -4.65164 -1.04057
  641 204.784 -4.62377 1.03132
  642 236.056 -26.1461 30.9291
  643 270.814 30.2675 -25.1806
  644 179.206 -8.49793 -11.2089
  645 179.069 -8.35281 11.1236
  646 213.367 -15.4515 -6.01789
  647 337.293 73.6395 1.40101
  648 253.159 -24.4597 -1.02429
  649 219.153 -5.23839 -0.331639
  650 219.119 -5.21051 0.332553
  651 302.584 33.0103 19.6382
  652 253.515 -3.59940 -10.8806
  653 222.965 -0.297892 -8.76532
  654 102.474 -3.49190 -33.0648
  655 102.803 -3.59424 32.7850
  656 212.853 -18.4675 -9.93349
  657 319.961 70.8650 0.201138
  658 247.323 33.5307 -8.22170
  659 162.931 -1.55136 -3.91201
  660 162.966 -1.52950 3.87821
  661 231.239 -6.49995 -1.39684
  662 231.285 -6.50922 1.44863
  663 433.862 56.7443 24.9357
  664 274.560 -0.695338 0.630864
  665 264.714 -1.00280 3.89128
  666 263.618 -1.02953 -4.53887
  667 249.986 -23.2435 4.65243
  668 182.618 -2.18723 -0.971000
  669 182.633 -2.17087 0.966171
  670 266.503 42.8316 17.5810
  671 343.124 76.4104 -3.72620
  672 186.563 -14.0172 -15.8859
  673 186.500 -13.8758 15.8007
  674 234.379 -24.1738 -4.25890
  675 246.750 14.6574 -25.0931
  676 294.368 0.707145 11.6063
  677 193.888 -3.66682 -1.88774
  678 193.892 -3.64181 1.87898
  679 167.727 -14.7790 -32.5004
  680 247.595 -23.9247 -2.33642
  681 205.359 -22.7895 28.7718
  682 97.7841 31.0172 -64.1395
  683 191.397 -17.8378 22.1847
  684 230.765 0.0600479 8.11548
  685 167.877 -14.6092 32.2738
  686 242.350 -10.6648 7.73721
  687 191.472 -17.7656 -22.3966
  688 194.949 2.48595 1.95639
  689 150.643 -4.15503 11.9685
  690 150.507 -4.16077 -12.0580
  691 205.490 -23.3817 -29.0977
  692 254.452 -16.7267 -16.9331
  693 233.196 -3.20039 -0.355869
  694 233.233 -3.23561 0.357446
  695 260.152 -16.5245 16.8340
  696 236.221 -24.6960 5.18412
  697 287.313 26.3424 24.6185
  698 258.957 -4.81741 26.2383
  699 249.174 -8.89556 16.0868
  700 237.260 19.4804 -15.7475
  701 286.303 48.2499 19.4444
  702 246.980 -3.39551 -15.4859
  703 246.446 -8.11097 8.43707
  704 254.044 39.8647 4.44822
  705 250.601 -4.20881 13.5455
  706 78.4635 53.2371 67.1659
  707 233.351 -26.8227 -17.5753
  708 270.211 4.93772 26.7370
  709 273.045 -8.42443 -19.3071
  710 273.143 -0.316835 1.27685
  711 249.074 -8.50145 -12.7359
  712 233.670 -27.0354 15.9080
  713 455.665 40.3326 -6.76900
  714 137.351 -0.618548 4.58251
  715 137.182 -0.625493 -4.62822
  716 252.881 -4.51363 -6.02403
  717 274.816 -0.237235 -1.23977
  718 212.446 -18.7639 9.98788
  719 255.656 -9.47499 23.8807
  720 390.724 92.2903 -27.0528
  721 242.314 -17.5556 8.01421
  722 269.078 -17.6777 -10.3385
  723 246.543 -7.88919 -8.30399
  724 274.804 -0.426507 -0.419497
  725 249.251 -0.0102919 27.1440
  726 11.3144 9.71112 13.9191
  727 282.746 -11.0352 -40.5070
  728 307.242 18.0451 12.7660
  729 255.627 -26.0796 11.3946
  730 180.740 -4.43820 4.83932
  731 180.744 -4.50149 -4.86508
  732 240.380 118.914 -124.745
  733 260.280 -17.1733 -15.6142
  734 194.164 0.954906 -3.73893
  735 227.558 1.22901 17.3500
  736 250.866 -12.5143 19.2965
  737 240.463 -20.2642 4.32938
  738 250.578 -22.7947 -33.2281
  739 238.950 -18.9084 -4.74619
  740 283.059 -13.5633 -4.10442
  741 260.589 -2.04414 3.53746
  742 231.925 -13.9498 2.66130
  743 423.810 84.7685 -44.8870
  744 247.697 -6.55461 6.72428
  745 244.434 3.98523 -26.3741
  746 209.380 -2.39222 70.9216
  747 262.135 21.1352 27.0166
  748 225.444 -17.8038 1.89621
  749 173.363 -13.7805 -23.7045
  750 173.373 -13.7399 23.5030
  751 239.099 26.8810 -3.67469
  752 243.692 -2.80880 23.5986
  753 246.509 -5.84539 -20.2025
  754 232.192 -14.2318 -2.74068
  755 224.408 -20.1735 5.27423
  756 256.031 42.3515 -5.04123
  757 240.162 -20.7847 -3.38027
  758 240.738 -15.2237 7.76570
  759 244.168 -3.04195 1.24177
  760 244.324 -2.95602 -1.23464
  761 328.548 72.4018 2.16095
  762 269.019 -22.8435 -7.17724
  763 249.841 -7.59216 12.6696
  764 260.715 -2.03497 -3.22983
  765 262.827 1.76681 -27.5718
  766 299.929 15.6454 -16.7806
  767 144.744 -0.160674 -2.12901
  768 144.839 -0.158489 2.10622
  769 2.02788 -4.75501 -3.38682
  770 255.011 -0.274555 5.07508
  771 232.964 -0.411583 -19.2227
  772 240.970 -2.25252 17.0073
  773 221.241 26.8752 104.417
  774 274.381 56.6406 -0.612126
  775 194.663 -14.0675 12.2876
  776 32.9749 0.785921 -12.8993
  777 33.9906 0.582316 13.0394
  778 238.741 -1.70580 -19.1594
  779 195.212 -14.2110 -12.2820
  780 259.163 -2.24227 2.71241
  781 130.771 -5.66713 22.4847
  782 129.626 -5.64838 -22.5018
  783 247.688 -6.36071 -6.55182
  784 156.558 -4.05688 -10.4038
  785 156.636 -4.02915 10.3064
  786 258.095 -2.36674 -7.55375
  787 195.889 -5.30999 -3.26185
  788 195.893 -5.27364 3.26262
  789 281.948 -1.79750 -19.3961
  790 253.127 -2.63550 -27.2910
  791 126.925 -0.842469 -5.85832
  792 127.180 -0.834668 5.78754
  793 5.62867 3.21817 -7.71556
  794 6.79101 3.39294 8.12516
  795 203.691 0.957321 -6.78959
  796 231.334 -25.9977 -12.9414
  797 -2.69487 -1.87592 4.61849
  798 -2.35155 -2.19246 -4.57381
  799 240.874 -4.75288 2.63443
  800 261.414 -20.3557 -9.22545
  801 269.302 39.9843 -20.5403
  802 260.318 -2.00940 -2.57478
  803 561.650 112.423 -105.506
  804 240.825 -4.73596 -2.60105
  805 363.282 69.5250 5.37298
  806 257.460 7.50325 -28.4326
  807 284.881 21.4697 -25.1619
  808 46.3281 -0.549176 -11.9582
  809 47.2345 -0.620533 11.9353
  810 159.077 -2.36984 6.13695
  811 159.022 -2.39019 -6.19511
  812 151.396 -0.385001 1.14292
  813 151.352 -0.388958 -1.15283
  814 287.781 48.5228 -19.3061
  815 168.556 -1.10710 -1.67341
  816 168.583 -1.09418 1.66314
  817 244.454 -2.46065 -24.6226
  818 355.584 35.4175 29.0123
  819 219.164 4.83384 -14.9280
  820 74.6563 -0.684562 12.8587
  821 73.9893 -0.690765 -12.9640
  822 286.404 7.30748 74.6296
  823 252.608 -4.55144 6.21770
  824 224.500 14.8412 -6.22181
  825 102.470 -0.181078 8.79298
  826 101.921 -0.132566 -8.86095
  827 154.852 -0.835268 -2.99674
  828 154.906 -0.823255 2.96709
  829 27.5745 24.6452 20.9086
  830 234.478 5.55445 22.2424
  831 261.330 38.4741 -17.5538
  832 281.736 32.7121 -24.9180
  833 184.003 -7.07124 -7.79196
  834 183.890 -7.01574 7.77860
  835 291.565 62.2993 8.82464
  836 252.298 -1.99297 -0.351938
  837 252.310 -1.97768 0.395358
  838 249.191 -7.42099 -16.1910
  839 208.195 -13.9692 6.94478
  840 229.885 -25.8419 13.0255
  841 270.943 -22.2027 20.3839
  842 206.226 -6.03081 -1.81067
  843 206.221 -6.00614 1.79649
  844 235.797 21.8303 10.1026
  845 221.263 2.97335 -16.1353
  846 61.5560 71.3200 69.9148
  847 225.124 -20.0114 -4.71514
  848 225.828 -10.1015 0.878465
  849 225.950 -10.1190 -0.889808
  850 248.462 -3.64184 25.9256
  851 246.667 -16.1805 -12.2422
  852 219.908 -14.6255 -2.44952
  853 507.328 16.4359 -25.3020
  854 208.951 -19.8631 13.8924
  855 208.791 -20.1250 -14.1260
  856 248.289 -2.94173 13.1829
  857 375.333 96.6253 -20.4330
  858 195.851 -17.9126 -17.5522
  859 216.816 -24.4645 16.5041
  860 195.788 -17.6933 17.3909
  861 212.475 -8.60230 -2.02632
  862 212.465 -8.57084 2.00940
  863 30.8965 13.3464 18.2068
  864 266.923 19.9581 -27.4079
  865 203.701 -8.02258 -3.46604
  866 203.737 -7.93929 3.47933
  867 201.056 -3.35886 -0.415029
  868 201.051 -3.33445 0.411925
  869 221.690 -4.37850 0.0855054
  870 221.663 -4.34801 -0.0866890
  871 179.218 -3.59842 -4.19740
  872 179.230 -3.55708 4.17806
  873 204.525 -10.8586 -5.32471
  874 204.549 -10.7809 5.34748
  875 4.81755 -2.28503 -2.01847
  876 309.685 58.0978 14.7344
  877 266.346 -9.30379 -22.1693
  878 216.650 -24.1120 -16.6891
  879 234.193 -7.50512 2.53890
  880 234.087 -7.42474 -2.47107
  881 255.294 0.340021 27.8742
  882 278.471 -19.8744 -10.8060
  883 246.786 17.0980 -90.4589
  884 110.922 -1.71833 44.4598
  885 -4.59593 2.58891 -2.87683
  886 -4.03222 2.91930 3.20840
  887 30.6719 14.1957 -18.5795
  888 249.795 -7.11134 10.0308
  889 263.260 -1.64529 -4.24203
  890 236.560 -22.7072 38.3402
  891 110.653 -1.59418 -44.6434
  892 263.636 -21.5264 6.70170
  893 294.347 -8.90181 32.9939
  894 211.351 0.839571 7.20220
  895 243.220 23.1332 17.2342
  896 130.894 -7.41777 32.7821
  897 130.379 -7.47819 -33.0086
  898 157.127 -7.59851 -18.3566
  899 165.914 -8.03464 -56.7983
  900 263.479 -6.12471 24.7818
  901 363.101 84.8598 11.7966
  902 264.365 10.1908 27.9492
  903 249.914 -5.28499 -14.7478
  904 169.454 -7.19947 58.2173
  905 319.157 58.7258 -11.1561
  906 31.0943 26.5996 -25.8441
  907 230.113 -0.476538 -7.74127
  908 157.292 -7.53441 18.1860
  909 192.337 -4.30571 2.88841
  910 192.334 -4.33673 -2.89578
  911 247.033 -16.0950 12.6271
  912 257.023 -1.53041 1.05583
  913 188.653 1.79021 -70.7065
  914 271.225 -0.560733 2.01132
  915 269.071 -0.456002 -2.55281
  916 198.913 1.69379 -6.23574
  917 259.634 -1.03997 -4.50660
  918 193.068 -9.14651 -7.12170
  919 193.198 -9.00649 7.14225
  920 -6.51447 2.31969 -3.77086
  921 -8.91096 1.39835 3.96079
  922 257.021 -1.41504 -1.06636
  923 83.7040 -1.87212 29.9811
  924 83.1795 -1.68678 -30.1580
  925 273.817 40.0213 21.7206
  926 495.291 8.92894 7.86016
  927 257.509 28.6789 22.6907
  928 293.089 -10.4249 8.56871
  929 253.968 -14.0983 19.4853
  930 316.430 66.4028 -8.48180
  931 194.505 0.783988 4.69802
  932 244.449 -5.66725 -4.13594
  933 253.506 13.6319 -27.4442
  934 307.687 8.89579 -6.20363
  935 238.089 -14.6949 -6.18745
  936 119.846 -0.696238 -6.56703
  937 119.979 -0.671733 6.47144
  938 251.404 -5.83827 -11.6320
  939 8.11410 10.3876 1.83516
  940 241.291 -25.0079 -1.81021
  941 207.551 6.05907 -0.643942
  942 314.120 69.2526 -5.63765
  943 49.0654 36.5549 -43.2311
  944 240.990 -1.79091 -15.2405
  945 165.859 -2.85593 -5.71589
  946 165.888 -2.82158 5.66442
  947 1.36401 -6.97035 5.33801
  948 163.022 -12.2459 -26.3488
  949 245.742 -14.1701 -11.8630
  950 150.784 0.322338 -0.470149
  951 150.817 0.324017 0.466660
  952 247.517 30.0568 -13.8238
  953 267.018 -0.705615 -0.407664
  954 267.021 -0.717268 0.531151
  955 163.090 -12.2100 26.1624
  956 248.481 -0.317959 -6.04213
  957 286.657 2.05480 18.7589
  958 254.193 -3.49560 4.82593
  959 39.7440 10.2922 -23.1486
  960 263.822 -1.52291 3.85121
  961 238.180 1.89104 23.8445
  962 251.224 34.8519 12.2999
  963 251.703 2.91982 -28.0975
  964 172.492 -9.37811 -15.6932
  965 272.282 -9.60346 18.6593
  966 172.603 -9.33952 15.5277
  967 7.70568 8.49326 -0.441960
  968 28.9646 5.13402 16.9480
  969 140.043 -2.54706 10.8374
  970 139.867 -2.55029 -10.9031
  971 244.619 -5.77988 4.34765
  972 262.348 45.7543 6.83316
  973 133.302 12.3321 -66.8391
  974 219.478 -13.7591 2.09197
  975 205.981 -21.6019 -21.1168
  976 300.922 57.7643 15.1476
  977 231.291 -4.02553 0.461721
  978 231.283 -4.00196 -0.462938
  979 253.794 -4.61434 -8.39894
  980 233.546 20.1266 -9.32216
  981 536.526 157.885 106.595
  982 47.7831 2.78526 -22.4557
  983 48.5701 2.31724 22.5097
  984 3.55002 -5.06191 0.939946
  985 234.335 12.9430 19.1341
  986 205.909 -21.7304 20.9547
  987 255.711 -12.0444 -22.0903
  988 278.297 22.7631 27.1457
  989 268.122 -21.6476 -25.2597
  990 392.080 82.6008 26.8682
  991 226.961 -3.62108 -0.0615123
  992 226.931 -3.58926 0.0618677
  993 266.123 -10.8052 21.0564
  994 18.2012 29.1059 31.0405
  995 118.033 -2.53886 15.5469
  996 117.651 -2.50657 -15.7215
  997 141.542 -7.03665 21.2177
  998 141.045 -6.93160 -21.3035
  999 159.656 -6.69912 15.1927
  1000 174.528 -1.44592 -0.764355
  1001 174.550 -1.43482 0.760966
  1002 442.993 139.374 -88.3144
  1003 399.390 100.006 40.3695
  1004 159.526 -6.73513 -15.3274
  1005 274.155 -1.23432 23.1995
  1006 244.394 25.3629 -16.6074
  1007 172.645 -14.7991 47.0643
  1008 222.366 -26.2596 -25.0301
  1009 254.256 -2.04791 -8.88921
  1010 113.905 7.97330 54.3142
  1011 146.234 -11.1902 37.6158
  1012 223.669 11.4064 -11.9668
  1013 256.994 -5.06182 -26.5179
  1014 331.529 131.612 142.746
  1015 210.894 6.39058 8.50412
  1016 288.603 62.4455 -1.05933
  1017 212.693 8.24444 -80.4099
  1018 215.608 -22.7600 -14.1884
  1019 275.101 -0.244495 -1.01469
  1020 262.718 24.1514 -26.3209
  1021 152.298 -1.03299 3.86856
  1022 152.228 -1.04359 -3.90737
  1023 5.50736 2.15610 -7.65920
  1024 172.564 -8.00612 -13.0677
  1025 146.059 -11.3357 -37.9103
  1026 172.424 -7.98617 12.9161
  1027 251.136 -7.61470 24.5197
  1028 225.163 -13.9518 -0.0284182
  1029 236.106 4.31270 -23.0842
  1030 242.894 30.3597 4.84610
  1031 331.947 19.5349 10.6411
  1032 248.982 -18.8865 12.1000
  1033 156.379 -12.5987 -28.8337
  1034 234.011 8.23978 -21.5841
  1035 174.187 -14.5963 -47.3259
  1036 335.748 73.1731 -1.12344
  1037 227.207 14.8679 10.8862
  1038 288.943 -1.74393 -14.6037
  1039 216.955 -22.7654 12.9998
  1040 248.850 -7.84559 19.0103
  1041 247.336 -13.0200 13.8506
  1042 245.982 -12.3316 12.0437
  1043 304.206 38.5441 -20.1421
  1044 245.376 -3.93394 19.2045
  1045 221.981 -26.3334 24.6148
  1046 236.962 -9.65033 4.17809
  1047 156.475 -12.6207 28.6633
  1048 222.262 -16.4411 -2.59869
  1049 128.411 -6.20898 -40.2375
  1050 183.981 -19.1473 31.8381
  1051 250.065 -1.66160 -10.2930
  1052 243.307 -2.73627 -21.7840
  1053 210.628 -16.7562 -8.54095
  1054 128.635 -6.39431 39.9102
  1055 226.324 0.522670 -15.0822
  1056 168.055 -11.2808 -20.3645
  1057 306.303 65.4232 9.63829
  1058 67.4115 11.3654 -37.9971
  1059 529.181 37.4239 51.2639
  1060 122.075 9.27020 -56.9092
  1061 245.966 -20.3580 -7.66540
  1062 168.096 -11.1817 20.1901
  1063 223.826 2.32161 16.8433
  1064 124.476 -2.58160 12.8663
  1065 124.405 -2.64595 -13.0018
  1066 248.777 -6.89644 -22.7127
  1067 265.548 -1.24685 1.60842
  1068 259.835 -0.551553 4.56030
  1069 256.547 8.53538 28.3523
  1070 239.694 -1.80504 20.4392
  1071 186.406 19.7562 87.0180
  1072 276.932 -0.175593 0.500468
  1073 258.013 35.0275 18.0666
  1074 217.601 3.10078 14.4939
  1075 263.302 -0.967265 4.39053
  1076 167.405 -1.86985 -3.18061
  1077 167.432 -1.84823 3.15816
  1078 106.045 -3.05557 -21.4443
  1079 106.480 -3.16520 21.2897
  1080 218.289 10.8196 6.07654
  1081 333.233 17.3265 -23.0673
  1082 306.141 -0.729139 -45.1816
  1083 242.240 -0.203681 -6.25214
  1084 184.062 -19.2922 -32.0851
  1085 211.068 -15.9355 7.58898
  1086 243.690 -0.548389 6.52710
  1087 255.753 -18.5123 -14.2023
  1088 157.608 -0.397804 1.91036
  1089 157.571 -0.404618 -1.92320
  1090 245.492 -20.9412 7.66229
  1091 233.199 -4.70612 0.892422
  1092 233.160 -4.71009 -0.876178
  1093 226.830 -22.8892 7.96091
  1094 293.564 -9.55189 -2.09766
  1095 130.330 -0.243611 -3.64595
  1096 130.550 -0.235117 3.60533
  1097 199.221 -12.5079 -54.2195
  1098 211.344 -5.05564 0.929060
  1099 211.367 -5.08574 -0.938944
  1100 128.236 68.3032 95.5808
  1101 294.278 24.0629 -22.5621
  1102 42.5489 20.9568 -28.4807
  1103 254.356 -3.69359 -4.66611
  1104 67.0260 23.2492 -43.5533
  1105 139.903 -8.89303 -27.4093
  1106 277.086 -0.253969 0.301649
  1107 277.205 -0.235204 -0.224298
  1108 249.819 -14.2226 -16.7345
  1109 221.262 -24.7875 -34.6044
  1110 67.4447 9.67431 36.2082
  1111 271.659 26.9213 25.7042
  1112 246.986 -2.38209 -0.429274
  1113 247.011 -2.38462 0.453552
  1114 270.470 -17.5137 41.8754
  1115 277.964 55.8782 9.94023
  1116 163.676 -4.04419 -8.20605
  1117 163.714 -4.02404 8.14348
  1118 124.894 14.4149 67.4430
  1119 235.542 1.17129 -22.3543
  1120 73.2967 23.8290 46.8835
  1121 304.861 -5.41253 -13.2102
  1122 297.996 66.2117 3.06761
  1123 204.440 -16.2897 10.5246
  1124 187.008 0.945416 -0.915384
  1125 260.759 -2.22147 5.66670
  1126 270.295 -0.299547 2.21565
  1127 57.2490 0.117422 -10.7667
  1128 58.0829 0.0881334 10.6906
  1129 210.578 3.44942 -10.7243
  1130 218.201 -6.42283 -0.525699
  1131 218.149 -6.39023 0.521641
  1132 22.7312 34.1213 -32.9870
  1133 36.3767 76.3492 -66.8587
  1134 221.062 -8.64835 0.245057
  1135 221.153 -8.65045 -0.256270
  1136 228.611 -5.46848 0.973642
  1137 228.578 -5.45529 -0.952909
  1138 59.3553 38.0132 47.0626
  1139 179.110 -2.28185 -1.51014
  1140 179.128 -2.26463 1.50210
  1141 225.956 17.0214 -0.256985
  1142 291.914 35.5514 -100.589
  1143 276.809 47.8487 -17.0234
  1144 252.758 -9.67030 -23.2409
  1145 249.027 -12.3763 -16.9291
  1146 204.579 -16.4448 -10.7058
  1147 204.624 0.640127 6.62064
  1148 231.239 14.3647 -15.9879
  1149 227.915 12.2011 15.2578
  1150 236.804 -9.36526 -4.10497
  1151 225.751 -13.6675 -0.135868
  1152 204.814 -13.3501 -7.84034
  1153 244.276 -1.42031 12.1683
  1154 435.561 44.0462 6.16457
  1155 246.022 -5.22428 22.1755
  1156 246.560 16.1877 24.1071
  1157 227.904 -22.4769 -5.79668
  1158 27.3614 4.72466 -16.3344
  1159 232.181 -10.7262 -3.04898
  1160 151.895 -0.266756 -0.0889337
  1161 151.925 -0.265704 0.0877628
  1162 283.776 -7.52163 12.5958
  1163 270.466 -22.7461 8.79849
  1164 389.165 69.9348 16.7853
  1165 90.4811 -0.208268 -9.00393
  1166 91.0556 -0.188251 8.93266
  1167 206.668 -4.20603 -0.811286
  1168 206.656 -4.17802 0.804326
  1169 232.951 -20.5818 0.00981982
  1170 188.737 0.817325 2.99357
  1171 238.631 -16.9880 5.95525
  1172 13.1147 15.5953 -7.19316
  1173 42.1369 21.2333 27.8657
  1174 159.078 -8.54385 52.4293
  1175 275.629 52.7039 -12.1446
  1176 264.299 -0.706570 -3.46463
  1177 278.297 -0.418371 0.213544
  1178 278.586 -0.581790 -0.140938
  1179 158.426 -0.421163 -0.305897
  1180 158.457 -0.417944 0.303280
  1181 253.981 16.2539 27.4217
  1182 377.876 64.9033 -1.37284
  1183 261.500 43.3632 -12.2629
  1184 195.866 -14.3083 53.8681
  1185 158.228 -8.19847 -52.3334
  1186 175.433 -11.8927 -18.2138
  1187 244.729 -6.75852 5.50250
  1188 342.339 75.2043 1.55096
  1189 175.441 -11.8186 18.0624
  1190 250.270 -4.26520 4.16700
  1191 221.754 8.16785 14.5480
  1192 245.310 7.58312 26.2998
  1193 351.241 78.5722 7.44177
  1194 207.082 -5.44369 1.52767
  1195 207.095 -5.47217 -1.54038
  1196 253.445 -4.66570 8.71720
  1197 147.988 -1.64766 6.07975
  1198 147.882 -1.66475 -6.13874
  1199 247.997 -3.26243 -1.92058
  1200 101.559 60.2601 -92.2392
  1201 214.689 -12.0478 -57.6624
  1202 201.260 -6.38381 -2.97236
  1203 201.278 -6.35257 2.97305
  1204 266.717 -1.16232 1.43706
  1205 251.836 -3.18259 3.33927
  1206 13.4058 16.5405 11.9734
  1207 274.778 -0.272745 1.17964
  1208 32.0387 40.1205 39.8079
  1209 245.807 -3.56292 -2.45593
  1210 -0.357742 -6.09122 -5.32439
  1211 172.920 -16.8605 -40.5427
  1212 172.420 -16.4472 40.1263
  1213 274.774 -0.452123 -1.29807
  1214 233.683 -12.3208 -3.59080
  1215 266.498 -1.04999 -1.48708
  1216 211.792 -6.89054 -1.35292
  1217 211.767 -6.86243 1.33374
  1218 247.833 -3.23719 1.81039
  1219 232.011 -10.5184 3.01700
  1220 223.016 -7.16475 -0.328129
  1221 223.099 -7.18727 0.356983
  1222 266.296 -1.08303 -1.21875
  1223 229.202 -24.0630 -39.0842
  1224 260.340 -1.48810 -1.26089
  1225 246.887 -3.66730 2.62311
  1226 170.186 -1.94786 -2.33684
  1227 170.211 -1.92837 2.32150
  1228 190.891 -2.86449 -1.15244
  1229 190.898 -2.84351 1.14579
  1230 312.023 48.5381 17.1041
  1231 262.026 -20.0703 10.8351
  1232 179.231 -0.759405 66.6882
  1233 141.346 -0.266217 2.33204
  1234 141.225 -0.268957 -2.35702
  1235 247.684 -4.53903 16.7185
  1236 237.315 -3.49925 0.587593
  1237 237.327 -3.48629 -0.587205
  1238 271.096 52.9904 5.65552
  1239 249.350 -26.0611 30.6746
  1240 141.929 -2.07757 8.56982
  1241 141.784 -2.09398 -8.63721
  1242 236.902 -5.71025 2.20094
  1243 236.850 -5.74849 -2.14376
  1244 244.601 -6.67119 -5.31166
  1245 223.298 0.0342865 7.81405
  1246 390.198 96.8942 -31.3137
  1247 248.987 -9.05299 -14.9449
  1248 41.6537 10.1531 23.8284
  1249 257.330 -13.6616 20.6830
  1250 204.647 4.39076 -5.86239
  1251 15.1596 11.4745 8.32769
  1252 340.832 37.2730 -1.35535
  1253 251.161 -11.3825 -20.7915
  1254 205.664 2.85537 8.97433
  1255 140.909 -8.90582 27.3514
  1256 255.407 -19.7224 12.7616
  1257 373.009 69.8915 20.2970
  1258 84.6902 12.7131 46.1954
  1259 256.851 -2.95729 -7.49595
  1260 499.491 5.53475 -5.07853
  1261 516.613 7.80543 22.7233
  1262 552.426 19.0110 -53.8475
  1263 248.548 -7.70910 -18.4652
  1264 248.679 -11.2986 15.8715
  1265 252.782 -17.9451 14.9994
  1266 -7.46360 0.807683 4.77269
  1267 -6.80824 0.630255 -5.17606
  1268 246.242 -27.1614 -13.8037
  1269 252.487 -25.4695 -21.1211
  1270 190.167 1.17330 -3.70115
  1271 245.273 -27.6638 21.1464
  1272 261.837 -12.3722 -21.0200
  1273 4.73891 7.62265 0.505412
  1274 211.962 -3.86981 0.634477
  1275 211.979 -3.89930 -0.636167
  1276 260.640 -1.99239 5.13726
  1277 250.265 -4.18598 -3.92555
  1278 235.332 -25.7019 -6.96934
  1279 214.346 -11.6736 3.02470
  1280 213.241 -11.5138 -3.35427
  1281 252.354 -5.25952 11.8477
  1282 258.550 -9.45601 -23.9784
  1283 15.7429 11.9647 -8.01145
</Section>

newXOutput 15

<Section columns = "stress_xx | stress_yy | stress_xy">
  1 300.715 -0.0245222 0.605150
  2 300.732 -0.0204920 -0.607201
  3 160.846 -0.0717925 -0.219334
  4 -2.05133 -2.03454 -2.94798
  5 548.144 212.622 172.967
  6 542.948 220.595 -173.380
  7 -2.38068 -1.93874 3.12930
  8 160.814 -0.0724326 0.218677
  9 302.904 -0.485560 0.190335
  10 302.227 -0.775595 -0.136677
  11 301.468 -0.500419 0.711724
  12 300.712 -0.704744 0.223639
  13 299.095 -0.587178 1.12251
  14 297.634 -0.597259 0.834007
  15 294.242 -0.529887 1.60428
  16 289.451 -0.344365 2.35790
  17 285.166 -0.379617 2.61276
  18 278.859 -0.554771 3.14564
  19 270.169 -0.0214223 4.63290
  20 262.140 -0.409877 4.38905
  21 253.069 -0.546749 6.16436
  22 239.960 0.389690 5.34869
  23 230.524 0.570316 6.31061
  24 218.221 0.972097 4.92649
  25 209.733 0.992891 4.96122
  26 197.431 1.41635 2.52587
  27 194.851 2.23449 2.70360
  28 193.305 1.81650 -0.796717
  29 195.435 1.02612 -1.75922
  30 199.350 1.01589 -2.15503
  31 208.562 1.29614 -4.30738
  32 217.506 1.02283 -5.46146
  33 230.681 0.206383 -6.48406
  34 241.231 -0.143389 -5.92346
  35 252.516 -0.437077 -5.83564
  36 262.753 -0.318495 -4.12948
  37 271.588 -0.327109 -3.54295
  38 278.901 -0.540375 -2.98400
  39 285.473 -0.378355 -2.09442
  40 289.606 -0.441670 -2.22933
  41 293.598 -0.557752 -1.63280
  42 297.397 -0.666684 -0.731216
  43 299.353 -0.532310 -0.849073
  44 300.411 -0.313357 -0.536601
  45 299.708 -0.151139 -0.488654
  46 302.551 -0.786398 0.0865365
  47 303.005 -0.507499 -0.196441
  48 292.776 -0.164267 -0.373863
  49 286.010 -1.13539 -0.664942
  50 277.775 -1.68918 -0.446917
  51 267.752 -2.54589 -0.608921
  52 258.275 -2.80116 -0.761127
  53 248.178 -3.55084 -0.721144
  54 239.256 -3.97570 -0.407923
  55 231.432 -4.48365 -0.161982
  56 222.413 -3.73066 -0.160767
  57 212.019 -3.50505 -0.248026
  58 201.996 -2.78385 -0.0839653
  59 192.492 -1.79296 -0.0342758
  60 183.451 -1.29005 0.00838549
  61 175.506 -0.677468 0.0785457
  62 167.361 -0.194156 -0.252635
  63 160.952 0.222694 0.301800
  64 158.096 0.648546 0.197358
  65 160.099 -0.00132397 0.477092
  66 157.969 -0.0974760 0.572306
  67 156.019 -0.140939 0.714753
  68 153.358 -0.0256527 0.938346
  69 149.999 -0.0150828 1.18685
  70 147.557 -0.214383 2.30761
  71 140.399 0.206885 2.52382
  72 135.389 -0.0201694 2.90094
  73 127.926 -0.138861 3.28753
  74 119.315 -0.230391 4.00555
  75 108.559 -0.0566458 4.86328
  76 95.4425 0.0575748 5.35241
  77 84.1894 -0.128887 7.64262
  78 61.8251 0.719463 7.19062
  79 46.6793 0.621581 7.61328
  80 28.6118 -0.120197 8.41318
  81 13.6901 1.42924 8.70598
  82 -3.25648 2.11578 5.14508
  83 -15.4756 2.14423 1.72710
  84 -14.8160 2.04500 -0.919672
  85 -13.8973 1.68910 -4.22344
  86 -8.14714 -0.578318 -3.97604
  87 -1.02260 -7.82178 -4.37728
  88 0.729502 -14.4637 -5.51841
  89 2.08901 -23.0616 -3.17824
  90 4.67613 -23.9668 -0.0217158
  91 9.94764 -7.08061 12.7820
  92 29.9579 43.5270 44.4456
  93 179.118 162.241 154.087
  94 662.305 98.3887 111.537
  95 595.354 14.1367 36.5198
  96 552.261 5.81379 11.1757
  97 536.325 4.91100 0.882454
  98 544.672 6.57066 -9.64331
  99 593.807 13.1060 -28.8780
  100 703.529 47.4903 -96.5572
  101 105.961 165.143 -128.482
  102 22.4539 29.3630 -36.5786
  103 10.8411 -5.99045 -13.3275
  104 4.36362 -24.0960 -2.02951
  105 1.18439 -17.6473 3.67364
  106 1.53038 -18.2077 4.80308
  107 0.0568425 -6.78079 4.84465
  108 -8.49915 -0.391440 3.78078
  109 -14.3418 1.26744 3.69498
  110 -15.5942 2.48935 1.00666
  111 -15.9850 2.11509 -1.58538
  112 -4.36075 2.16860 -4.80903
  113 12.7063 1.44206 -8.29405
  114 27.6059 0.0299875 -8.27436
  115 45.6448 0.672380 -7.63127
  116 60.8851 0.738961 -7.24836
  117 83.4596 -0.132033 -7.71037
  118 94.8166 0.0646757 -5.40701
  119 108.013 -0.0542451 -4.92702
  120 119.033 -0.254261 -4.03795
  121 127.552 -0.132641 -3.29757
  122 135.107 -0.0108215 -2.93282
  123 140.169 0.204172 -2.55349
  124 147.394 -0.216395 -2.33280
  125 149.869 -0.0163906 -1.20240
  126 153.262 -0.0268845 -0.951175
  127 155.948 -0.142964 -0.724955
  128 157.916 -0.0992083 -0.579456
  129 160.056 -0.00284047 -0.481686
  130 158.061 0.647648 -0.199517
  131 160.919 0.222271 -0.303137
  132 167.328 -0.195908 0.251862
  133 175.474 -0.681845 -0.0802349
  134 183.423 -1.29975 -0.0103737
  135 192.471 -1.80647 0.0323481
  136 201.984 -2.80329 0.0820850
  137 212.019 -3.52952 0.246566
  138 222.425 -3.75885 0.159367
  139 231.454 -4.51495 0.161425
  140 239.284 -4.00680 0.408999
  141 248.217 -3.57914 0.724293
  142 258.307 -2.82086 0.772484
  143 267.773 -2.56348 0.662934
  144 277.822 -1.59112 0.457074
  145 286.213 -1.10308 0.650470
  146 292.820 -0.209438 0.368415
  147 260.946 -24.5053 -2.53095
  148 260.735 -24.1773 2.62487
  149 273.198 39.3130 -13.8327
  150 291.816 17.2268 29.4878
  151 220.942 -21.1914 -48.0881
  152 222.710 -21.1730 46.5119
  153 213.940 -9.16980 5.53597
  154 213.962 -9.30042 -5.54196
  155 309.900 11.0860 -22.9177
  156 260.246 -9.30563 6.30591
  157 260.137 -9.07683 -6.22590
  158 336.430 75.3825 3.84372
  159 266.019 -0.426103 -28.6266
  160 196.254 -15.5748 -21.4637
  161 196.250 -15.4415 21.2660
  162 266.605 -6.00981 25.9251
  163 252.609 18.3921 16.9758
  164 103.848 16.8974 -57.3598
  165 115.327 15.9930 60.4704
  166 327.714 3.56497 3.88291
  167 267.499 -10.2157 -18.1787
  168 354.778 77.9643 -2.47765
  169 240.624 -6.77263 0.283752
  170 240.571 -6.74925 -0.261251
  171 271.039 -3.17593 -2.77219
  172 271.932 -2.83993 2.40133
  173 187.806 -2.77690 -3.35594
  174 187.827 -2.74734 3.33667
  175 291.834 -7.93792 61.0742
  176 244.358 10.0822 -18.2730
  177 159.363 -12.0088 -34.6864
  178 159.843 -11.9200 34.4489
  179 178.829 -5.98358 -11.2623
  180 178.843 -5.91326 11.1730
  181 268.845 -7.00749 15.4446
  182 244.085 -16.7960 -0.0141739
  183 243.203 -16.6707 0.418822
  184 278.204 -26.8662 -3.77613
  185 279.624 -25.5940 0.296940
  186 384.952 90.5044 -12.2553
  187 278.629 44.8526 12.9526
  188 279.418 17.1724 -29.4879
  189 290.937 -2.76413 -71.1693
  190 277.645 -15.6438 -20.9116
  191 280.007 -11.1508 24.5004
  192 233.119 -26.4930 23.2602
  193 233.196 -26.3098 -23.1837
  194 248.718 3.13263 21.9969
  195 113.028 -2.69773 -42.3466
  196 113.316 -2.94668 42.0773
  197 435.041 65.3399 9.33840
  198 262.846 -15.6308 11.5667
  199 272.807 -4.93888 -10.1192
  200 215.222 -5.31962 -2.47112
  201 215.223 -5.29053 2.46210
  202 261.303 -3.38269 -19.9444
  203 297.864 43.7831 -23.7590
  204 248.277 22.2692 -3.40706
  205 160.723 -5.80468 15.9264
  206 160.472 -5.82467 -16.0521
  207 277.138 -2.98458 5.60223
  208 269.090 5.06200 29.4181
  209 218.377 -16.0247 -10.0864
  210 216.850 -15.1758 10.3592
  211 317.887 47.1410 22.0681
  212 375.269 50.6271 6.88573
  213 24.7772 19.5893 -15.6431
  214 22.8944 18.1095 13.2645
  215 153.701 43.7883 101.691
  216 260.185 -17.2737 -9.02550
  217 278.190 -2.86831 -5.06428
  218 245.814 2.12092 -20.2503
  219 171.335 -1.77416 -4.98545
  220 171.388 -1.75385 4.93867
  221 233.712 -11.0120 -1.77259
  222 233.819 -11.0768 1.63812
  223 263.652 -3.53561 17.0001
  224 304.803 -17.6842 5.78862
  225 301.503 61.8644 -6.93227
  226 236.450 -22.9104 -10.6687
  227 299.877 -5.20105 19.3434
  228 255.130 -4.20721 1.09638
  229 255.136 -4.17079 -1.09463
  230 234.666 -22.7998 11.1232
  231 269.284 -17.0448 17.0967
  232 380.677 48.1861 -22.3921
  233 83.3291 49.6354 -73.2360
  234 226.492 7.87545 4.34262
  235 269.885 23.8098 24.7528
  236 288.271 -1.99494 -26.5064
  237 269.066 -9.65362 -24.3218
  238 141.889 -4.65162 -20.0023
  239 142.394 -4.58001 19.9322
  240 269.571 -3.20839 -13.2063
  241 256.960 -6.44073 3.39906
  242 256.839 -6.42999 -3.29310
  243 53.0312 5.01992 -26.7975
  244 53.9195 4.40257 26.7119
  245 286.994 -25.0765 -21.2773
  246 284.073 -0.919920 0.803400
  247 284.395 -0.938491 -0.863527
  248 263.430 21.8272 -22.6308
  249 231.154 4.37580 13.2065
  250 489.307 78.3924 52.5005
  251 485.433 55.2717 -32.9625
  252 349.467 75.6699 -0.709821
  253 218.013 -10.4468 64.1520
  254 199.915 -6.71628 -67.1403
  255 228.904 -4.70052 -0.790888
  256 228.881 -4.66841 0.784225
  257 189.200 -5.16806 6.81303
  258 189.204 -5.24090 -6.87782
  259 276.644 -2.91366 8.22417
  260 268.215 -19.0679 -14.1945
  261 172.080 -0.359375 -1.15402
  262 172.116 -0.353447 1.14612
  263 264.830 -10.6673 -11.2532
  264 110.907 -3.66337 -27.6977
  265 111.407 -3.67552 27.4896
  266 268.029 -11.5800 19.5823
  267 204.211 -21.6752 38.6544
  268 204.752 -22.0644 -38.5379
  269 229.918 8.72723 -6.14631
  270 198.371 -3.10816 -2.25611
  271 198.385 -3.08598 2.24647
  272 250.592 -0.645798 16.2700
  273 300.078 55.0897 16.5128
  274 159.242 -2.00723 8.50149
  275 159.118 -2.02458 -8.57827
  276 275.598 -22.9687 10.2410
  277 255.128 -28.5796 -25.5061
  278 285.049 -1.29053 2.62634
  279 196.519 -11.7823 -14.6103
  280 196.163 -11.6479 14.5503
  281 352.564 35.7092 90.1214
  282 164.486 -13.2489 46.2541
  283 265.823 37.3750 -1.47051
  284 337.880 37.1163 -15.0011
  285 254.134 -19.6679 3.91403
  286 255.289 -29.3673 22.9100
  287 165.008 -13.0271 -46.7956
  288 30.2902 37.3167 33.6384
  289 264.875 -10.7079 11.4569
  290 348.181 45.2742 12.0199
  291 287.391 -1.15063 -2.27677
  292 258.963 9.03365 -26.0458
  293 256.106 -14.4688 6.41518
  294 250.699 -21.1861 0.0195898
  295 257.966 11.8210 25.0772
  296 274.253 -22.9818 -9.21935
  297 389.104 75.9299 -6.34302
  298 256.036 -13.9043 -6.14284
  299 212.571 60.4071 -124.885
  300 261.991 -27.7541 -4.34135
  301 260.115 -28.5078 7.34455
  302 190.271 -17.3031 -30.4049
  303 170.536 -0.691100 -2.52176
  304 170.581 -0.679139 2.50008
  305 190.344 -17.3144 30.2327
  306 276.891 -0.451532 -29.6859
  307 299.532 -12.3902 -13.1433
  308 227.211 -13.7679 -5.14119
  309 227.052 -13.7988 5.24062
  310 272.932 -23.4881 41.1799
  311 271.837 -2.14081 10.0018
  312 331.507 1.28900 13.6526
  313 222.436 -7.90785 -2.78504
  314 222.448 -7.87899 2.76703
  315 202.131 -5.34392 -4.42421
  316 202.129 -5.29217 4.41628
  317 228.694 3.02819 -12.7762
  318 295.357 21.6429 -28.6370
  319 458.688 123.403 -58.0348
  320 269.432 -2.27215 -0.940527
  321 269.270 -2.24071 0.963669
  322 143.432 -0.155794 57.7123
  323 201.185 -9.24013 -9.58013
  324 200.790 -9.20546 9.60346
  325 143.408 -0.482991 -57.4929
  326 281.155 33.2133 -24.2000
  327 315.579 15.5644 21.8699
  328 272.984 -19.4851 -45.8155
  329 250.291 -9.63820 2.95285
  330 250.030 -9.56446 -2.84054
  331 267.481 -5.46502 -5.53669
  332 250.782 -0.488331 -15.2202
  333 282.104 1.24064 29.1341
  334 281.922 -1.91417 -5.68622
  335 168.126 -10.3224 23.2191
  336 167.941 -10.3822 -23.4068
  337 262.009 -0.600728 27.1515
  338 160.098 -1.35760 -5.02682
  339 160.202 -1.34468 4.97809
  340 269.418 -6.12314 8.52009
  341 322.967 66.0967 -12.4413
  342 267.334 -5.50930 5.73773
  343 284.361 35.7604 24.3092
  344 272.278 -5.04166 28.2864
  345 214.925 -4.06075 0.879527
  346 214.929 -4.08727 -0.886323
  347 257.294 -0.931216 -24.0805
  348 341.536 71.8972 8.31798
  349 283.225 52.0574 0.508819
  350 173.671 20.2416 -86.0330
  351 17.2613 7.82339 -11.4496
  352 19.0058 8.45942 12.3536
  353 -1.04020 1.90660 5.37613
  354 0.0533216 1.01498 -5.59985
  355 501.895 34.8002 12.0365
  356 234.747 -19.1334 -6.06061
  357 269.644 -5.91194 -8.31574
  358 242.897 -4.23642 0.430802
  359 242.868 -4.20066 -0.432044
  360 259.448 28.6592 -12.2495
  361 221.593 -22.6613 19.1214
  362 19.0890 28.2985 -20.6335
  363 221.819 -22.6594 -19.4855
  364 262.906 29.9085 13.0363
  365 268.839 -7.12314 -14.7262
  366 285.428 -15.8897 -17.9942
  367 303.538 64.3155 4.78874
  368 286.130 -17.8229 15.0105
  369 116.752 -2.96407 18.5698
  370 116.030 -2.90727 -18.6963
  371 65.6740 1.66252 -25.6507
  372 66.4039 1.39119 25.5334
  373 232.415 0.715215 12.9342
  374 445.486 129.446 49.2713
  375 278.188 -1.72879 -7.17729
  376 215.776 -18.3383 -14.5965
  377 215.585 -18.2869 14.5757
  378 267.115 -6.13098 -18.5566
  379 305.036 -14.7450 3.13677
  380 234.738 -19.1140 6.25962
  381 335.403 2.13089 -26.3283
  382 187.582 -1.56469 -0.847555
  383 187.607 -1.55082 0.840636
  384 262.490 -1.51499 -11.8000
  385 140.027 -2.07275 -12.1318
  386 140.121 -2.13797 11.9793
  387 314.214 40.1056 -24.4409
  388 169.472 12.0143 79.8433
  389 245.669 -12.9111 1.64131
  390 245.913 -12.8867 -1.65411
  391 288.529 48.9177 -15.4316
  392 273.398 -8.08260 -26.8621
  393 274.640 -28.0319 22.1318
  394 228.095 -6.07964 -1.21575
  395 228.066 -6.04808 1.20141
  396 263.909 -20.3516 9.71386
  397 284.705 -1.31938 4.23710
  398 176.002 -6.52947 -14.1340
  399 176.071 -6.52792 14.0075
  400 267.629 8.97334 -29.0006
  401 252.916 -5.44029 1.66616
  402 252.906 -5.45220 -1.63088
  403 261.344 -3.07065 22.1777
  404 242.994 17.6574 5.85663
  405 271.253 -11.4256 23.5209
  406 392.940 82.4281 14.2268
  407 130.014 -7.01466 -37.1216
  408 130.384 -7.01762 36.8293
  409 57.8821 31.2267 -43.8780
  410 291.592 -0.805736 1.19912
  411 145.968 -1.28156 -7.67091
  412 146.168 -1.25438 7.60191
  413 267.348 -6.94586 18.1951
  414 242.466 -26.3503 12.3173
  415 274.351 -3.33522 3.92653
  416 278.947 14.1757 30.3017
  417 60.7553 33.2492 45.8142
  418 242.840 -26.2067 -11.2832
  419 250.984 -23.3532 -1.71824
  420 80.6613 -1.62310 -23.2959
  421 81.2977 -1.68603 23.1298
  422 192.497 -15.3330 -55.7915
  423 288.351 -4.27922 25.8889
  424 191.733 -15.5730 55.2889
  425 266.252 -14.9284 -15.3991
  426 246.504 16.5797 -12.8547
  427 266.305 -11.4711 14.5920
  428 287.240 -1.23340 -2.88604
  429 8.51051 8.92501 3.67764
  430 57.6438 66.0576 65.0844
  431 255.745 -0.944119 11.3558
  432 213.568 2.87343 5.58503
  433 217.387 3.51583 -7.58457
  434 185.478 -3.13991 -4.80524
  435 185.494 -3.09897 4.77152
  436 262.538 -20.3411 -8.94066
  437 265.010 -5.17765 -24.8570
  438 214.757 3.96429 -2.06068
  439 392.946 93.5018 18.4050
  440 53.5210 17.9823 -32.8331
  441 59.0783 16.5074 35.1313
  442 245.443 -8.74012 1.45452
  443 245.347 -8.71674 -1.38701
  444 327.380 72.6218 -1.00670
  445 205.795 83.3585 127.655
  446 315.781 -4.51360 -5.43886
  447 180.031 -9.49500 -19.1785
  448 180.113 -9.42772 19.0088
  449 180.960 -4.12408 7.53086
  450 180.928 -4.15551 -7.60299
  451 245.091 5.39570 -20.8361
  452 293.144 -0.378851 -0.802868
  453 238.052 10.8635 11.6817
  454 302.140 37.3260 26.3025
  455 251.422 -18.6792 -2.93613
  456 274.254 -3.16899 -3.81222
  457 288.454 -1.11235 2.65910
  458 292.314 -0.402608 0.459551
  459 292.565 -0.459309 -0.342173
  460 158.883 -0.304650 1.85146
  461 158.804 -0.309088 -1.87195
  462 275.248 -17.4610 18.6049
  463 247.477 9.72216 20.1759
  464 259.055 1.03828 -26.4650
  465 271.128 -5.66511 10.9881
  466 393.483 64.7618 -75.3176
  467 271.674 -15.0524 -20.6826
  468 2.30115 5.09372 1.90068
  469 2.29151 5.16345 -0.557190
  470 214.589 -12.2450 8.12843
  471 213.857 -12.0848 -8.03547
  472 339.165 5.82644 40.1730
  473 94.4060 85.0742 -96.4135
  474 267.915 -0.798085 8.86181
  475 304.722 -17.7969 -22.5567
  476 160.897 -9.34988 26.9134
  477 325.840 57.8180 -17.8656
  478 267.754 -14.4704 17.3810
  479 224.278 -10.7818 -3.88007
  480 224.477 -10.6006 3.86708
  481 232.355 1.22154 -11.4258
  482 160.387 -9.31504 -27.0885
  483 238.418 0.0819116 11.4997
  484 229.276 -26.2057 -34.4066
  485 228.694 -26.2458 34.5199
  486 276.544 -1.80451 7.91656
  487 250.328 23.5795 2.42183
  488 255.745 4.20217 87.0425
  489 375.621 76.7108 -0.482303
  490 259.176 -4.30776 1.86517
  491 259.193 -4.29159 -1.92415
  492 198.255 -3.57827 -3.00784
  493 198.266 -3.54750 2.99541
  494 104.440 4.92468 48.3732
  495 268.916 -12.9303 -20.2050
  496 243.683 -5.27545 0.379756
  497 243.658 -5.25553 -0.373840
  498 212.009 -22.4964 28.1694
  499 106.486 6.49046 -49.6139
  500 269.408 -21.9363 -10.2165
  501 4.51473 0.718194 2.34588
  502 234.367 12.0456 0.846665
  503 260.162 -2.94121 -0.620975
  504 260.154 -2.98348 0.608428
  505 212.151 -22.4605 -28.3932
  506 305.056 -15.7927 29.0933
  507 301.777 10.9599 26.8554
  508 278.798 -1.82058 -1.91206
  509 268.583 -22.2483 10.3502
  510 166.589 -0.179366 -0.323872
  511 166.624 -0.177787 0.320873
  512 268.046 -10.2738 -21.4840
  513 259.102 19.1655 22.1100
  514 298.043 7.35911 -26.5135
  515 165.586 -0.282533 -1.03938
  516 165.627 -0.278717 1.03174
  517 523.174 75.5477 -67.7439
  518 269.754 32.1577 19.5049
  519 279.050 -1.66854 1.70581
  520 251.550 -23.8653 2.32234
  521 210.792 -7.03893 4.44530
  522 210.793 -7.09439 -4.43630
  523 293.267 -17.8368 8.67861
  524 281.498 -5.60189 -27.2103
  525 314.578 62.1239 14.8501
  526 261.334 4.48496 27.4339
  527 264.120 -5.01594 3.56223
  528 256.765 -27.3604 -33.0051
  529 265.923 -6.56176 21.1129
  530 517.360 23.6882 -9.50039
  531 291.151 -21.9330 -1.29234
  532 277.063 -1.75858 -0.469095
  533 277.128 -1.87702 0.418210
  534 522.720 35.0869 33.3566
  535 254.706 -0.0981714 23.3317
  536 358.329 59.9087 -7.18540
  537 268.734 -7.26163 -10.7120
  538 119.854 -1.15339 -8.30206
  539 120.241 -1.09816 8.21501
  540 181.263 -16.9989 -38.7528
  541 181.399 -16.7130 38.4583
  542 263.976 -4.80358 -3.52676
  543 287.127 10.5449 -29.6777
  544 252.178 -17.1691 3.89767
  545 270.968 31.0891 -20.2547
  546 273.522 -3.13664 10.6580
  547 343.718 16.9284 -2.81541
  548 233.542 -8.02202 -0.945465
  549 233.467 -7.99161 0.930838
  550 253.991 -11.9753 4.84051
  551 375.562 74.0457 -4.36392
  552 267.312 11.6931 28.5024
  553 114.021 29.3879 71.6218
  554 259.037 -15.5622 57.9576
  555 343.265 16.0432 -63.7245
  556 273.324 22.6043 -26.5532
  557 242.953 -20.9583 -50.2038
  558 263.049 -28.8064 -9.38242
  559 274.911 -27.7986 -14.0229
  560 35.6945 45.9342 -43.5712
  561 276.283 -3.43257 -6.63361
  562 416.313 81.0650 -23.2393
  563 255.367 -11.4780 -5.35070
  564 257.536 -8.34176 4.40990
  565 257.295 -8.14793 -4.24002
  566 176.307 -1.06128 -2.28240
  567 176.342 -1.04749 2.26599
  568 24.4253 2.65245 -14.0250
  569 25.8489 2.77838 14.3554
  570 131.165 -6.15816 -28.3439
  571 132.187 -6.19073 28.2934
  572 261.053 -14.1218 -9.85725
  573 266.164 -28.9228 10.1931
  574 273.612 -25.9446 2.42950
  575 223.632 -3.96293 -0.784844
  576 223.618 -3.93322 0.780453
  577 212.442 -22.2522 -42.9894
  578 238.233 -19.4997 53.1567
  579 207.231 -20.9196 43.2438
  580 268.408 -5.94743 -26.7346
  581 167.028 -2.85162 8.51622
  582 166.946 -2.88191 -8.59066
  583 255.485 14.0876 -22.1956
  584 255.941 -0.446864 -10.3069
  585 320.163 69.7446 -6.74369
  586 208.436 -3.19627 -0.794426
  587 208.440 -3.17408 0.790338
  588 273.341 -0.797230 -5.83859
  589 187.767 -6.45102 -9.37518
  590 187.767 -6.42692 9.28987
  591 153.797 7.21525 68.6444
  592 266.037 -12.2082 -14.7579
  593 147.808 -7.76221 49.2818
  594 261.429 -13.5227 10.0548
  595 275.492 -3.82606 7.31353
  596 272.137 -2.41157 -1.70287
  597 189.849 -2.41171 -2.10408
  598 189.871 -2.39136 2.09209
  599 307.018 61.4745 -13.3310
  600 147.705 -7.45999 -49.4749
  601 260.567 -11.2464 -8.08378
  602 234.668 -4.34703 -0.356475
  603 234.643 -4.31353 0.354910
  604 443.069 59.7514 -10.4980
  605 154.405 -1.02782 4.71198
  606 154.270 -1.03799 -4.75813
  607 242.087 5.50641 18.9987
  608 348.282 28.8204 -5.27701
  609 163.969 1.24528 -68.1556
  610 83.2228 2.20094 -37.0102
  611 83.9321 1.71274 36.8128
  612 205.429 -12.1087 11.5533
  613 207.617 -12.4653 -11.2042
  614 351.582 70.7701 7.28334
  615 270.995 -2.50258 1.54882
  616 231.298 6.44135 -11.4620
  617 289.236 52.1140 12.2033
  618 288.160 54.0871 -8.11328
  619 236.832 -13.1719 -1.58886
  620 238.663 -12.8692 0.735972
  621 170.095 36.9428 -98.1537
  622 202.983 -7.04220 -6.38073
  623 202.997 -6.95989 6.35644
  624 519.994 106.368 80.0324
  625 268.134 -8.76106 23.1481
  626 151.991 -5.47330 -18.1626
  627 418.961 95.6216 63.0822
  628 152.351 -5.44152 18.0893
  629 256.990 -9.85528 -67.8025
  630 179.598 -0.934295 -0.842324
  631 179.628 -0.926123 0.837696
  632 222.781 1.96081 9.99453
  633 100.450 -1.52920 -16.3186
  634 101.032 -1.53291 16.1859
  635 233.756 -16.6179 4.57367
  636 245.328 -19.6938 -0.885025
  637 290.036 -0.598756 -2.41774
  638 161.522 -0.280908 1.35882
  639 161.462 -0.285793 -1.37393
  640 220.226 -4.99739 -1.14971
  641 220.215 -4.96779 1.13982
  642 253.599 -28.0991 33.3782
  643 291.034 32.5207 -26.8626
  644 192.813 -9.11938 -12.0948
  645 192.667 -8.96397 12.0036
  646 229.376 -16.5941 -6.56572
  647 362.317 79.0597 1.64985
  648 271.973 -26.2854 -0.912125
  649 235.581 -5.63479 -0.400622
  650 235.544 -5.60520 0.401480
  651 325.008 35.4774 20.8209
  652 272.386 -3.88037 -11.5868
  653 239.835 -0.315433 -9.37039
  654 110.393 -3.76335 -35.5987
  655 110.745 -3.87278 35.2995
  656 228.813 -19.8355 -10.7795
  657 343.781 76.0659 0.202035
  658 265.921 36.0437 -8.78500
  659 175.446 -1.65884 -4.22269
  660 175.485 -1.63551 4.18672
  661 248.508 -6.99440 -1.43237
  662 248.557 -7.00396 1.48753
  663 465.544 60.8670 26.7619
  664 294.755 -0.756943 0.665940
  665 284.321 -1.08658 4.13644
  666 283.158 -1.11381 -4.82976
  667 268.582 -24.9790 4.81338
  668 196.515 -2.34336 -1.05186
  669 196.532 -2.32597 1.04672
  670 286.458 46.0155 18.7617
  671 368.547 82.0394 -4.17030
  672 200.659 -15.0507 -17.1401
  673 200.594 -14.8995 17.0491
  674 251.859 -25.9732 -4.72742
  675 265.262 15.7585 -26.8148
  676 316.128 0.771062 12.2051
  677 208.562 -3.93487 -2.05472
  678 208.567 -3.90829 2.04539
  679 180.418 -15.8852 -34.9948
  680 266.019 -25.7099 -2.33093
  681 220.735 -24.4931 31.0247
  682 105.211 33.3442 -69.0792
  683 205.810 -19.1631 23.9239
  684 248.165 0.0650901 8.67152
  685 180.580 -15.7031 34.7525
  686 260.412 -11.4684 8.18349
  687 205.888 -19.0851 -24.1505
  688 209.899 2.68792 2.09404
  689 162.221 -4.45593 12.8885
  690 162.075 -4.46184 -12.9838
  691 220.872 -25.1293 -31.3750
  692 273.395 -17.9805 -17.9939
  693 250.593 -3.45552 -0.366560
  694 250.633 -3.49313 0.368201
  695 279.497 -17.7641 17.8738
  696 253.830 -26.5357 5.72500
  697 308.664 28.3017 26.1992
  698 278.261 -5.18494 27.9827
  699 267.750 -9.56912 17.1301
  700 255.131 20.9531 -16.8359
  701 307.653 51.8282 20.7008
  702 265.439 -3.65414 -16.5215
  703 264.795 -8.72780 8.94464
  704 273.127 42.8415 4.75201
  705 269.288 -4.53184 14.4365
  706 84.4261 57.3091 72.3557
  707 250.725 -28.8237 -19.0322
  708 290.325 5.29872 28.4989
  709 293.316 -9.05590 -20.5087
  710 293.263 -0.350417 1.35119
  711 267.627 -9.14699 -13.5449
  712 251.073 -29.0519 17.2407
  713 488.781 43.2676 -7.25806
  714 148.016 -0.661111 4.93409
  715 147.835 -0.668504 -4.98279
  716 271.660 -4.86659 -6.38574
  717 295.048 -0.263391 -1.31309
  718 228.379 -20.1543 10.8381
  719 274.713 -10.1900 25.4550
  720 419.286 99.2690 -29.4424
  721 260.377 -18.8669 8.44941
  722 289.038 -18.9981 -10.8849
  723 264.898 -8.49010 -8.80313
  724 295.012 -0.468939 -0.440310
  725 267.899 -0.0144466 28.9865
  726 12.2030 10.6387 15.0838
  727 303.548 -11.8098 -43.7195
  728 329.942 19.4160 13.4258
  729 274.587 -28.0225 12.4272
  730 194.488 -4.75918 5.23636
  731 194.491 -4.82677 -5.26375
  732 257.725 128.170 -134.114
  733 279.631 -18.4598 -16.5650
  734 209.059 1.04168 -4.00219
  735 244.735 1.32810 18.5491
  736 269.567 -13.4557 20.5469
  737 258.387 -21.7748 4.49048
  738 269.131 -24.4934 -35.8611
  739 256.770 -20.3185 -4.94462
  740 303.991 -14.5652 -4.17234
  741 279.882 -2.21408 3.74557
  742 249.248 -14.9898 2.73668
  743 454.861 90.9683 -48.2412
  744 266.124 -7.05778 7.12130
  745 262.764 4.28698 -28.1798
  746 224.925 -2.55958 76.3296
  747 281.729 22.7084 28.8438
  748 242.304 -19.1265 2.16333
  749 186.494 -14.8023 -25.5341
  750 186.506 -14.7592 25.3188
  751 257.114 28.9072 -3.92727
  752 261.947 -3.02198 25.1997
  753 264.937 -6.28721 -21.5541
  754 249.535 -15.2936 -2.82084
  755 241.188 -21.6716 5.79508
  756 275.256 45.5097 -5.38127
  757 258.065 -22.3344 -3.47109
  758 258.688 -16.3623 8.19445
  759 262.320 -3.28840 1.30121
  760 262.487 -3.19631 -1.29344
  761 352.959 77.7244 2.19872
  762 288.929 -24.5423 -7.91806
  763 268.449 -8.16963 13.4774
  764 280.010 -2.20484 -3.41746
  765 282.420 1.89317 -29.4099
  766 322.124 16.8303 -17.7511
  767 155.980 -0.169005 -2.29488
  768 156.082 -0.166674 2.27061
  769 2.19974 -5.06028 -3.59859
  770 274.015 -0.300147 5.41023
  771 250.502 -0.435930 -20.5434
  772 259.040 -2.42231 18.1608
  773 237.526 28.9765 112.290
  774 294.933 60.8363 -0.653047
  775 209.344 -15.1046 13.2812
  776 35.7103 0.840738 -13.9075
  777 36.7965 0.622105 14.0580
  778 256.663 -1.83277 -20.4655
  779 209.930 -15.2581 -13.2758
  780 278.347 -2.42866 2.86615
  781 140.838 -6.08823 24.1989
  782 139.610 -6.06786 -24.2159
  783 266.113 -6.84974 -6.93811
  784 168.569 -4.34916 -11.2068
  785 168.653 -4.31964 11.1030
  786 277.262 -2.55695 -8.03636
  787 210.697 -5.69866 -3.54749
  788 210.701 -5.65998 3.54841
  789 302.854 -1.92941 -20.5892
  790 272.035 -2.83642 -29.1298
  791 136.811 -0.902435 -6.30398
  792 137.084 -0.894068 6.22842
  793 6.21289 3.46126 -8.34389
  794 7.45720 3.64975 8.78508
  795 219.247 1.03475 -7.26363
  796 248.580 -27.9348 -14.0502
  797 -2.88786 -2.00748 4.95682
  798 -2.52268 -2.35149 -4.91273
  799 258.809 -5.12350 2.76649
  800 280.829 -21.8774 -9.70295
  801 289.443 42.9586 -21.9136
  802 279.578 -2.17790 -2.72137
  803 601.844 120.650 -113.056
  804 258.755 -5.10561 -2.73123
  805 390.141 74.6060 5.83017
  806 276.696 8.06115 -30.3549
  807 306.053 23.0700 -26.7871
  808 50.1061 -0.593092 -12.8837
  809 51.0747 -0.669639 12.8593
  810 171.301 -2.53856 6.61693
  811 171.241 -2.56024 -6.67887
  812 163.137 -0.409686 1.23363
  813 163.089 -0.413912 -1.24416
  814 309.235 52.1253 -20.5464
  815 181.480 -1.18198 -1.80957
  816 181.510 -1.16822 1.79866
  817 262.764 -2.64534 -26.2955
  818 381.552 38.2358 31.4993
  819 235.773 5.21355 -15.9681
  820 80.5872 -0.736072 13.8437
  821 79.8748 -0.742770 -13.9562
  822 307.378 7.95026 80.3267
  823 271.371 -4.90719 6.59101
  824 241.488 15.9762 -6.65464
  825 110.513 -0.191860 9.46036
  826 109.926 -0.139725 -9.53284
  827 166.807 -0.891429 -3.23358
  828 166.866 -0.878612 3.20203
  829 29.7443 26.5635 22.6162
  830 252.132 5.98009 23.7792
  831 280.913 41.3415 -18.7406
  832 302.724 35.1476 -26.5515
  833 197.963 -7.58685 -8.42127
  834 197.843 -7.52784 8.40745
  835 313.341 66.9003 9.37762
  836 270.999 -2.16338 -0.369064
  837 271.012 -2.14686 0.415482
  838 267.775 -7.98509 -17.2496
  839 223.841 -15.0017 7.55286
  840 247.030 -27.7674 14.1369
  841 290.966 -23.8432 22.0983
  842 221.754 -6.47749 -1.99560
  843 221.749 -6.45140 1.98046
  844 253.574 23.4808 10.8035
  845 238.013 3.20895 -17.2566
  846 66.2058 77.0484 75.3182
  847 241.954 -21.4970 -5.19538
  848 242.721 -10.8560 0.849935
  849 242.852 -10.8754 -0.862357
  850 267.044 -3.91841 27.6770
  851 265.048 -17.3924 -12.9807
  852 236.382 -15.7095 -2.73835
  853 543.869 17.6174 -27.0791
  854 224.628 -21.3361 15.0311
  855 224.454 -21.6167 -15.2818
  856 266.838 -3.16692 14.0619
  857 402.975 103.817 -22.2304
  858 210.593 -19.2390 -18.9470
  859 233.036 -26.2850 17.8551
  860 210.529 -19.0042 18.7742
  861 228.434 -9.24015 -2.24642
  862 228.425 -9.20685 2.22825
  863 33.3533 14.3605 19.6859
  864 286.847 21.4441 -29.2459
  865 219.048 -8.61437 -3.78653
  866 219.086 -8.52542 3.80085
  867 216.230 -3.60802 -0.454417
  868 216.225 -3.58205 0.451100
  869 238.294 -4.71398 0.0606997
  870 238.264 -4.68150 -0.0620497
  871 192.867 -3.85688 -4.53927
  872 192.880 -3.81277 4.51873
  873 219.921 -11.6583 -5.79637
  874 219.948 -11.5756 5.82125
  875 5.21056 -2.33682 -2.25410
  876 332.688 62.4132 15.5869
  877 286.148 -10.0044 -23.5927
  878 232.854 -25.9058 -18.0529
  879 251.670 -8.07403 2.64339
  880 251.557 -7.98821 -2.57117
  881 274.362 0.360161 29.7542
  882 299.042 -21.3412 -11.8295
  883 264.932 18.4619 -97.3104
  884 119.405 -1.86898 47.8807
  885 -4.83295 2.78643 -3.13653
  886 -4.23054 3.14267 3.49245
  887 33.1157 15.2740 -20.0909
  888 268.385 -7.65474 10.6561
  889 282.746 -1.78307 -4.50214
  890 254.117 -24.4034 41.3373
  891 119.117 -1.73693 -48.0770
  892 283.199 -23.1358 6.98944
  893 315.988 -9.50572 35.6617
  894 227.436 0.906514 7.70383
  895 261.510 24.8729 18.4225
  896 140.914 -7.97787 35.2866
  897 140.361 -8.04275 -35.5285
  898 169.131 -8.15685 -19.7658
  899 178.378 -8.65946 -61.1449
  900 283.094 -6.58993 26.4077
  901 389.838 91.2191 13.0013
  902 284.089 10.9448 29.8236
  903 268.553 -5.68886 -15.7181
  904 182.173 -7.75913 62.6708
  905 342.816 63.1034 -11.7171
  906 33.5381 28.6554 -27.9377
  907 247.467 -0.509269 -8.27166
  908 169.308 -8.08835 19.5837
  909 206.901 -4.62050 3.13816
  910 206.896 -4.65349 -3.14597
  911 265.440 -17.3003 13.3929
  912 276.048 -1.66628 1.11037
  913 202.714 1.91118 -76.0905
  914 291.243 -0.610083 2.13375
  915 288.963 -0.497179 -2.71251
  916 214.138 1.83020 -6.67317
  917 278.931 -1.12075 -4.80204
  918 207.662 -9.81722 -7.71367
  919 207.802 -9.66756 7.73621
  920 -6.96594 2.50433 -4.02680
  921 -9.54680 1.50981 4.23695
  922 276.045 -1.54213 -1.12274
  923 90.2220 -2.02331 32.2929
  924 89.6613 -1.82485 -32.4822
  925 294.272 42.9941 23.1635
  926 531.002 9.57685 8.40457
  927 276.800 30.8184 24.2346
  928 314.705 -11.1698 9.44684
  929 272.888 -15.1574 20.7372
  930 339.950 71.3174 -8.91147
  931 209.429 0.853696 5.02819
  932 262.637 -6.10609 -4.36081
  933 272.483 14.6516 -29.3147
  934 330.386 9.59880 -6.38108
  935 255.851 -15.7933 -6.50657
  936 129.200 -0.745324 -7.06440
  937 129.342 -0.719061 6.96216
  938 270.118 -6.28645 -12.3758
  939 8.78219 11.2201 2.05709
  940 259.260 -26.8717 -2.11105
  941 223.367 6.53808 -0.688894
  942 337.504 74.3598 -5.92184
  943 52.8647 39.3718 -46.6472
  944 259.060 -1.92598 -16.2739
  945 178.566 -3.05915 -6.16725
  946 178.598 -3.02251 6.11241
  947 1.48627 -7.46745 5.71099
  948 175.405 -13.1554 -28.3696
  949 264.055 -15.2333 -12.5834
  950 162.497 0.347713 -0.508337
  951 162.535 0.349493 0.504632
  952 266.120 32.3111 -14.7716
  953 286.706 -0.775938 -0.432194
  954 286.709 -0.788270 0.563961
  955 175.479 -13.1174 28.1706
  956 267.056 -0.346677 -6.44680
  957 307.898 2.20933 19.8961
  958 273.055 -3.77374 5.11017
  959 42.8991 11.0625 -24.9923
  960 283.344 -1.65122 4.08559
  961 256.078 2.03893 25.4836
  962 270.095 37.4581 13.1426
  963 270.529 3.13714 -30.0061
  964 185.603 -10.0668 -16.9131
  965 292.495 -10.3268 19.8137
  966 185.722 -10.0258 16.7363
  967 8.34782 9.17696 -0.554607
  968 31.3169 5.51605 18.3015
  969 150.855 -2.73063 11.6654
  970 150.666 -2.73388 -11.7352
  971 262.821 -6.22638 4.58659
  972 282.027 49.1596 7.29438
  973 143.358 13.2353 -71.9554
  974 235.923 -14.7799 2.35032
  975 221.422 -23.2089 -22.7957
  976 323.324 62.0427 16.0734
  977 248.558 -4.33876 0.465006
  978 248.549 -4.31366 -0.466399
  979 272.655 -4.97326 -8.92365
  980 251.164 21.6523 -9.96821
  981 574.978 169.517 114.429
  982 51.5992 2.98637 -24.2122
  983 52.4404 2.48401 24.2696
  984 3.83424 -5.33118 1.07861
  985 251.993 13.9271 20.4603
  986 221.349 -23.3475 22.6221
  987 274.764 -12.9500 -23.5313
  988 299.013 24.4525 28.9334
  989 287.931 -23.2480 -27.3311
  990 420.936 88.6580 28.9621
  991 243.929 -3.90319 -0.0766518
  992 243.897 -3.86925 0.0769943
  993 285.905 -11.6191 22.3991
  994 19.6025 31.6114 33.5289
  995 127.204 -2.72503 16.7286
  996 126.794 -2.69032 -16.9147
  997 152.403 -7.55622 22.8391
  998 151.870 -7.44292 -22.9302
  999 171.855 -7.19004 16.3654
  1000 187.868 -1.54570 -0.824917
  1001 187.892 -1.53390 0.821312
  1002 474.993 149.879 -95.1155
  1003 428.750 107.375 43.5248
  1004 171.716 -7.22833 -16.5091
  1005 294.524 -1.33348 24.6869
  1006 262.769 27.2687 -17.7492
  1007 185.631 -15.9231 50.6729
  1008 238.951 -28.2205 -27.0256
  1009 273.193 -2.20844 -9.47423
  1010 122.572 8.54698 58.4940
  1011 157.346 -12.0366 40.4982
  1012 240.594 12.2821 -12.8006
  1013 276.162 -5.44620 -28.2858
  1014 355.242 141.912 153.374
  1015 226.940 6.89031 9.10075
  1016 310.182 67.0573 -1.12672
  1017 228.442 8.87969 -86.5173
  1018 231.747 -24.4505 -15.3614
  1019 295.342 -0.273259 -1.07392
  1020 282.358 25.9516 -28.0994
  1021 164.063 -1.10358 4.17059
  1022 163.986 -1.11488 -4.21191
  1023 5.95042 2.51237 -8.34378
  1024 185.694 -8.59210 -14.0874
  1025 157.158 -12.1929 -40.8130
  1026 185.545 -8.57110 13.9256
  1027 269.886 -8.18995 26.1553
  1028 242.009 -14.9893 -0.141846
  1029 253.868 4.64309 -24.6750
  1030 261.178 32.6403 5.17981
  1031 356.302 21.0946 11.7466
  1032 267.525 -20.2991 12.8155
  1033 168.268 -13.5384 -31.0443
  1034 251.637 8.86883 -23.0774
  1035 187.280 -15.7060 -50.9517
  1036 360.683 78.5392 -1.26057
  1037 244.381 16.0019 11.6449
  1038 310.330 -1.86371 -15.4324
  1039 233.194 -24.4571 14.0884
  1040 267.421 -8.43958 20.2639
  1041 265.769 -13.9978 14.7164
  1042 264.313 -13.2584 12.7853
  1043 326.762 41.4231 -21.3650
  1044 263.732 -4.23290 20.4966
  1045 238.542 -28.2997 26.5790
  1046 254.637 -10.3776 4.38317
  1047 168.372 -13.5624 30.8629
  1048 238.898 -17.6597 -2.90809
  1049 138.210 -6.68905 -43.3186
  1050 197.834 -20.5799 34.2988
  1051 268.732 -1.79270 -10.9778
  1052 261.532 -2.94323 -23.2615
  1053 226.437 -17.9961 -9.27666
  1054 138.450 -6.88743 42.9688
  1055 243.416 0.567744 -16.1239
  1056 180.825 -12.1137 -21.9373
  1057 329.121 70.2504 10.2059
  1058 72.6458 12.2053 -40.9624
  1059 567.206 40.1057 54.8739
  1060 131.338 9.93715 -61.2783
  1061 264.286 -21.8782 -8.05924
  1062 180.871 -12.0078 21.7512
  1063 240.750 2.50706 18.0127
  1064 134.135 -2.77092 13.8453
  1065 134.060 -2.83988 -13.9901
  1066 267.360 -7.41693 -24.2315
  1067 285.155 -1.35702 1.69716
  1068 279.147 -0.599009 4.85770
  1069 275.721 9.16823 30.2732
  1070 257.681 -1.94040 21.8320
  1071 200.266 21.2496 93.6161
  1072 297.291 -0.195797 0.527244
  1073 277.358 37.6401 19.2946
  1074 234.104 3.34680 15.5044
  1075 282.832 -1.04609 4.67414
  1076 180.238 -1.99984 -3.43575
  1077 180.268 -1.97678 3.41188
  1078 114.291 -3.28383 -23.0789
  1079 114.757 -3.40173 22.9142
  1080 234.845 11.6543 6.50175
  1081 357.638 18.7213 -25.0674
  1082 328.573 -0.695441 -48.7521
  1083 260.405 -0.221274 -6.67460
  1084 197.918 -20.7354 -34.5636
  1085 226.911 -17.1149 8.25392
  1086 261.953 -0.591462 6.96758
  1087 274.781 -19.8989 -15.0572
  1088 169.778 -0.421743 2.06057
  1089 169.737 -0.429008 -2.07422
  1090 263.778 -22.5049 8.05562
  1091 250.600 -5.07049 0.914448
  1092 250.558 -5.07490 -0.897239
  1093 243.774 -24.5908 8.68909
  1094 315.219 -10.2421 -2.50338
  1095 140.483 -0.260391 -3.92404
  1096 140.719 -0.251313 3.88074
  1097 214.083 -13.4596 -58.3740
  1098 227.231 -5.43426 1.03694
  1099 227.254 -5.46623 -1.04757
  1100 137.800 73.5291 102.836
  1101 316.108 25.8626 -23.9753
  1102 45.8832 22.5506 -30.7595
  1103 273.226 -3.98635 -4.94026
  1104 72.2041 24.9920 -46.9573
  1105 150.609 -9.55629 -29.5036
  1106 297.439 -0.282271 0.320115
  1107 297.564 -0.262125 -0.237560
  1108 268.437 -15.2905 -17.7978
  1109 237.743 -26.6431 -37.3135
  1110 72.6834 10.3893 39.0337
  1111 291.931 28.9228 27.4183
  1112 265.326 -2.58105 -0.450894
  1113 265.354 -2.58365 0.476779
  1114 290.408 -18.7830 45.1709
  1115 298.763 60.0164 10.5920
  1116 176.209 -4.33558 -8.84807
  1117 176.251 -4.31418 8.78147
  1118 134.337 15.4773 72.6107
  1119 253.258 1.26439 -23.8915
  1120 78.9365 25.6199 50.5352
  1121 327.291 -5.77019 -14.4459
  1122 320.247 71.0877 3.25577
  1123 219.810 -17.4935 11.4011
  1124 201.412 1.02776 -0.979835
  1125 280.095 -2.39929 6.02181
  1126 290.267 -0.329721 2.35317
  1127 61.8786 0.124058 -11.5932
  1128 62.7694 0.0927278 11.5119
  1129 226.600 3.72557 -11.4746
  1130 234.563 -6.90399 -0.622064
  1131 234.507 -6.86943 0.617589
  1132 24.4838 37.1064 -35.6412
  1133 39.1298 82.6503 -72.0519
  1134 237.623 -9.29416 0.340880
  1135 237.719 -9.29587 -0.353168
  1136 245.695 -5.88566 0.992374
  1137 245.660 -5.87179 -0.970388
  1138 63.9237 40.9180 50.7530
  1139 192.763 -2.44409 -1.63584
  1140 192.783 -2.42578 1.62730
  1141 243.047 18.3195 -0.274017
  1142 313.195 38.4128 -108.189
  1143 297.501 51.4022 -18.1417
  1144 271.610 -10.3985 -24.7770
  1145 267.591 -13.3073 -18.0166
  1146 219.957 -17.6596 -11.5962
  1147 220.248 0.694440 7.08378
  1148 248.687 15.4579 -17.0974
  1149 245.132 13.1330 16.3196
  1150 254.468 -10.0720 -4.30565
  1151 242.639 -14.6845 -0.0354834
  1152 220.221 -14.3344 -8.50795
  1153 262.567 -1.52972 12.9880
  1154 467.341 47.2443 6.60793
  1155 264.425 -5.61930 23.6677
  1156 265.065 17.4019 25.7623
  1157 244.926 -24.1470 -6.36662
  1158 29.5984 5.07501 -17.6412
  1159 249.521 -11.5303 -3.16929
  1160 163.691 -0.282343 -0.0971198
  1161 163.724 -0.281218 0.0958799
  1162 304.784 -8.08059 13.2845
  1163 290.480 -24.4346 9.66210
  1164 417.823 75.0381 18.0810
  1165 97.6323 -0.220763 -9.68851
  1166 98.2459 -0.199247 9.61249
  1167 222.230 -4.51994 -0.895132
  1168 222.217 -4.49016 0.887672
  1169 250.340 -22.1129 -0.133011
  1170 203.264 0.886971 3.20505
  1171 256.431 -18.2559 6.24761
  1172 14.1681 16.8462 -7.84846
  1173 45.4338 22.8504 30.0923
  1174 171.065 -9.20665 56.4423
  1175 296.256 56.6121 -12.9442
  1176 283.896 -0.763772 -3.68904
  1177 298.732 -0.454273 0.224577
  1178 299.038 -0.629425 -0.147169
  1179 170.663 -0.446126 -0.331533
  1180 170.697 -0.442699 0.328757
  1181 272.996 17.4669 29.2922
  1182 405.742 69.6274 -1.47381
  1183 281.110 46.5920 -13.0901
  1184 210.497 -15.3939 57.9964
  1185 170.152 -8.83715 -56.3383
  1186 188.737 -12.7692 -19.6297
  1187 262.945 -7.27641 5.81446
  1188 367.659 80.8051 1.93555
  1189 188.747 -12.6901 19.4682
  1190 268.858 -4.60146 4.40265
  1191 238.544 8.79891 15.5629
  1192 263.710 8.15412 28.1033
  1193 377.234 84.3635 8.18930
  1194 222.672 -5.84806 1.68245
  1195 222.685 -5.87829 -1.69605
  1196 272.284 -5.02915 9.26294
  1197 159.416 -1.76410 6.55054
  1198 159.303 -1.78233 -6.61338
  1199 266.415 -3.52520 -2.01783
  1200 109.208 64.8431 -99.2778
  1201 230.646 -12.9526 -62.0849
  1202 216.440 -6.85367 -3.24476
  1203 216.459 -6.82050 3.24558
  1204 286.396 -1.26486 1.51942
  1205 270.526 -3.43955 3.52667
  1206 14.4701 17.9106 13.0001
  1207 295.019 -0.299223 1.24936
  1208 34.5224 43.3176 42.9809
  1209 264.079 -3.84767 -2.58276
  1210 -0.374963 -6.53166 -5.71162
  1211 185.943 -18.1325 -43.6550
  1212 185.410 -17.6886 43.2086
  1213 295.013 -0.491167 -1.37593
  1214 251.130 -13.2423 -3.74072
  1215 286.166 -1.14456 -1.56974
  1216 227.706 -7.40303 -1.51225
  1217 227.679 -7.37329 1.49168
  1218 266.240 -3.49830 1.90102
  1219 249.339 -11.3066 3.13606
  1220 239.712 -7.70389 -0.284082
  1221 239.801 -7.72761 0.314755
  1222 285.945 -1.18045 -1.28569
  1223 246.234 -25.8627 -42.1319
  1224 279.588 -1.61948 -1.32750
  1225 265.234 -3.95950 2.76158
  1226 183.217 -2.08356 -2.52807
  1227 183.245 -2.06278 2.51177
  1228 205.360 -3.07293 -1.25507
  1229 205.368 -3.05063 1.24800
  1230 335.152 52.1566 18.0993
  1231 281.483 -21.5725 11.4307
  1232 192.629 -0.829747 71.7780
  1233 152.331 -0.282319 2.51305
  1234 152.200 -0.285244 -2.53965
  1235 266.186 -4.88440 17.8327
  1236 254.996 -3.77738 0.605562
  1237 255.009 -3.76358 -0.605165
  1238 291.407 56.9211 6.03161
  1239 267.830 -28.0004 33.1204
  1240 152.897 -2.22638 9.22650
  1241 152.742 -2.24385 -9.29826
  1242 254.563 -6.14906 2.29740
  1243 254.508 -6.19044 -2.23651
  1244 262.806 -7.18321 -5.61104
  1245 240.196 0.0387634 8.35272
  1246 418.917 104.038 -33.7983
  1247 267.546 -9.73801 -15.9076
  1248 44.9491 10.9141 25.7216
  1249 276.490 -14.6886 22.0138
  1250 220.263 4.74089 -6.27333
  1251 16.4064 12.3572 9.04382
  1252 365.871 40.1372 -1.79605
  1253 269.890 -12.2387 -22.1516
  1254 221.351 3.08567 9.60438
  1255 151.688 -9.57040 29.4432
  1256 274.405 -21.1982 13.5118
  1257 400.332 75.2673 22.2062
  1258 91.1964 13.6531 49.7806
  1259 275.923 -3.19354 -7.96740
  1260 535.476 5.94163 -5.43493
  1261 553.741 8.35903 24.3039
  1262 591.991 20.3356 -57.6204
  1263 267.097 -8.29322 -19.6822
  1264 267.215 -12.1499 16.8878
  1265 271.600 -19.2895 15.9199
  1266 -8.01420 0.875554 5.11835
  1267 -7.30788 0.685891 -5.55405
  1268 264.536 -29.1881 -15.0004
  1269 271.205 -27.3675 -22.8693
  1270 204.791 1.27020 -3.96180
  1271 263.486 -29.7255 22.8850
  1272 281.318 -13.3017 -22.3668
  1273 5.16333 8.22232 0.610533
  1274 227.893 -4.16247 0.687675
  1275 227.911 -4.19386 -0.689504
  1276 279.956 -2.15667 5.45384
  1277 268.851 -4.51657 -4.14572
  1278 252.872 -27.6160 -7.64240
  1279 230.433 -12.5379 3.33771
  1280 229.249 -12.3656 -3.68864
  1281 271.143 -5.66401 12.6126
  1282 277.811 -10.1687 -25.5528
  1283 17.0356 12.8849 -8.71042
</Section>

newXOutput 16

<Section columns = "stress_xx | stress_yy | stress_xy">
  1 321.133 -0.0338225 0.642105
  2 321.150 -0.0293530 -0.644235
  3 172.478 -0.0742011 -0.232665
  4 -2.19639 -2.17757 -3.15664
  5 583.873 227.529 184.661
  6 578.357 236.013 -184.982
  7 -2.54930 -2.07422 3.35190
  8 172.443 -0.0748793 0.231980
  9 323.455 -0.522059 0.200733
  10 322.740 -0.832313 -0.148893
  11 321.946 -0.540396 0.752205
  12 321.153 -0.757860 0.231265
  13 319.454 -0.632653 1.18609
  14 317.918 -0.642749 0.878110
  15 314.341 -0.569872 1.69674
  16 309.276 -0.375179 2.49513
  17 304.748 -0.410686 2.76762
  18 298.073 -0.595188 3.33518
  19 288.863 -0.0271755 4.91621
  20 280.353 -0.439598 4.66096
  21 270.724 -0.583563 6.55089
  22 256.808 0.415382 5.68763
  23 246.780 0.611602 6.71352
  24 233.703 1.04014 5.24380
  25 224.675 1.06792 5.28209
  26 211.591 1.51807 2.69011
  27 208.845 2.39408 2.88029
  28 207.197 1.94923 -0.849134
  29 209.464 1.10631 -1.87337
  30 213.630 1.09147 -2.29536
  31 223.427 1.38969 -4.58665
  32 232.941 1.09683 -5.81285
  33 246.943 0.225293 -6.89939
  34 258.154 -0.150868 -6.29862
  35 270.135 -0.466089 -6.20132
  36 281.001 -0.341873 -4.38591
  37 290.368 -0.352448 -3.76019
  38 298.114 -0.580189 -3.16435
  39 305.071 -0.407924 -2.21736
  40 309.438 -0.477979 -2.35856
  41 313.656 -0.600484 -1.72667
  42 317.665 -0.716603 -0.769069
  43 319.727 -0.573134 -0.895845
  44 320.835 -0.340468 -0.564427
  45 320.080 -0.169211 -0.514187
  46 323.083 -0.842907 0.0954974
  47 323.561 -0.545229 -0.207142
  48 312.716 -0.189625 -0.396825
  49 305.539 -1.23166 -0.708526
  50 296.797 -1.82753 -0.472185
  51 286.152 -2.74399 -0.644393
  52 276.082 -3.01566 -0.803607
  53 265.347 -3.81204 -0.762127
  54 255.857 -4.26197 -0.428286
  55 247.536 -4.79810 -0.166555
  56 237.941 -3.99012 -0.164591
  57 226.883 -3.74458 -0.258791
  58 216.220 -2.97021 -0.0838684
  59 206.112 -1.90909 -0.0323101
  60 196.498 -1.37084 0.0123401
  61 188.052 -0.716332 0.0862397
  62 179.398 -0.202651 -0.267637
  63 172.589 0.239425 0.324029
  64 169.551 0.691589 0.213476
  65 171.668 0.000172866 0.513181
  66 169.391 -0.101835 0.616341
  67 167.302 -0.148116 0.769480
  68 164.452 -0.0251957 1.00854
  69 160.856 -0.0147093 1.27446
  70 158.232 -0.225742 2.47299
  71 150.582 0.221610 2.70372
  72 145.221 -0.0202842 3.10498
  73 137.235 -0.146738 3.51949
  74 128.024 -0.244290 4.28726
  75 116.517 -0.0591369 5.20536
  76 102.486 0.0623134 5.73075
  77 90.4324 -0.135463 8.18387
  78 66.5056 0.768395 7.70398
  79 50.2827 0.663614 8.15729
  80 30.9131 -0.131745 9.02010
  81 14.8988 1.52576 9.34201
  82 -3.29727 2.26279 5.53677
  83 -16.4387 2.29426 1.87787
  84 -15.7865 2.19259 -0.954440
  85 -14.8554 1.81305 -4.50631
  86 -8.71423 -0.613408 -4.24974
  87 -1.08884 -8.36610 -4.68058
  88 0.788425 -15.4591 -5.89175
  89 2.24490 -24.6012 -3.36772
  90 5.01774 -25.4769 0.0361420
  91 10.6640 -7.22198 13.7782
  92 32.0578 47.1344 47.6881
  93 190.990 174.098 164.619
  94 705.706 104.944 118.717
  95 634.626 15.0694 38.8316
  96 588.928 6.20588 11.8831
  97 572.034 5.24684 0.935246
  98 580.899 7.01385 -10.2596
  99 633.013 13.9807 -30.7093
  100 749.305 50.6480 -102.682
  101 113.064 177.365 -137.342
  102 24.0240 32.1019 -39.2890
  103 11.6254 -6.05326 -14.3971
  104 4.68431 -25.5934 -2.24680
  105 1.28046 -18.8077 3.88878
  106 1.64723 -19.4651 5.12481
  107 0.0642571 -7.24894 5.18089
  108 -9.09170 -0.412169 4.03937
  109 -15.3301 1.36052 3.94064
  110 -16.6170 2.66836 1.04661
  111 -16.9781 2.26233 -1.72666
  112 -4.47217 2.31924 -5.17716
  113 13.8535 1.53938 -8.90114
  114 29.8447 0.0288790 -8.87136
  115 49.1835 0.717791 -8.17625
  116 65.5068 0.789119 -7.76539
  117 89.6570 -0.138835 -8.25585
  118 101.821 0.0698927 -5.78876
  119 115.937 -0.0566286 -5.27315
  120 127.725 -0.269763 -4.32152
  121 136.837 -0.140044 -3.53000
  122 144.920 -0.0103114 -3.13881
  123 150.337 0.218735 -2.73517
  124 158.057 -0.227876 -2.49970
  125 160.718 -0.0160955 -1.29093
  126 164.349 -0.0265034 -1.02212
  127 167.225 -0.150269 -0.780277
  128 169.334 -0.103676 -0.623904
  129 171.622 -0.00143438 -0.518037
  130 169.512 0.690654 -0.215753
  131 172.552 0.238981 -0.325442
  132 179.361 -0.204506 0.266831
  133 188.016 -0.720967 -0.0880184
  134 196.467 -1.38110 -0.0144316
  135 206.089 -1.92337 0.0302842
  136 216.208 -2.99078 0.0818895
  137 226.883 -3.77047 0.257253
  138 237.953 -4.01996 0.163105
  139 247.559 -4.83128 0.165955
  140 255.887 -4.29494 0.429424
  141 265.388 -3.84205 0.765472
  142 276.116 -3.03652 0.815662
  143 286.176 -2.76262 0.701796
  144 296.848 -1.72271 0.482892
  145 305.757 -1.19712 0.693073
  146 312.764 -0.237915 0.391008
  147 278.956 -26.1987 -2.52614
  148 278.729 -25.8476 2.62635
  149 292.209 42.0353 -14.6990
  150 311.961 18.4098 31.2871
  151 236.217 -22.6710 -51.5319
  152 238.111 -22.6498 49.8489
  153 228.908 -9.79388 5.98489
  154 228.930 -9.93282 -5.99101
  155 331.182 11.8580 -24.2211
  156 278.209 -9.95995 6.62299
  157 278.092 -9.71597 -6.53921
  158 359.649 80.5165 4.02082
  159 284.473 -0.455960 -30.4172
  160 210.010 -16.6408 -23.0194
  161 210.009 -16.4990 22.8092
  162 285.072 -6.43162 27.5264
  163 270.262 19.6849 18.0603
  164 111.215 18.0517 -61.4740
  165 123.470 17.0887 64.8017
  166 350.086 3.84597 3.85763
  167 285.980 -10.9309 -19.2611
  168 379.151 83.3103 -2.41395
  169 257.315 -7.24715 0.241395
  170 257.259 -7.22259 -0.217639
  171 289.661 -3.41651 -2.90744
  172 290.607 -3.05795 2.51716
  173 201.114 -2.95864 -3.61187
  174 201.137 -2.92729 3.59151
  175 311.705 -8.42696 65.4569
  176 261.475 10.8002 -19.4429
  177 170.617 -12.8439 -37.1487
  178 171.131 -12.7491 36.8966
  179 191.505 -6.38540 -12.0778
  180 191.520 -6.31066 11.9832
  181 287.410 -7.50256 16.3654
  182 260.997 -17.9524 -0.143920
  183 260.059 -17.8185 0.573601
  184 297.318 -28.7234 -4.24429
  185 298.842 -27.3635 0.529877
  186 411.279 96.7127 -13.3394
  187 298.003 47.9482 13.7603
  188 298.772 18.3588 -31.3213
  189 310.718 -2.88532 -76.2352
  190 296.788 -16.7319 -22.1315
  191 299.318 -11.9304 25.9613
  192 249.265 -28.3231 24.9944
  193 249.344 -28.1265 -24.9133
  194 266.097 3.35849 23.3966
  195 121.097 -2.90421 -45.3671
  196 121.404 -3.16918 45.0806
  197 464.589 69.7394 9.98858
  198 280.997 -16.7162 12.1949
  199 291.599 -5.29436 -10.7073
  200 230.284 -5.68247 -2.68318
  201 230.286 -5.65175 2.67363
  202 279.441 -3.62022 -21.1840
  203 318.465 46.7986 -25.1984
  204 265.663 23.8359 -3.62372
  205 172.174 -6.19696 17.0604
  206 171.906 -6.21801 -17.1937
  207 296.169 -3.20872 5.91177
  208 287.756 5.41231 31.2630
  209 233.608 -17.1197 -10.8760
  210 231.985 -16.2122 11.1632
  211 339.782 50.3882 23.3324
  212 400.772 54.2430 7.73234
  213 26.6191 20.9972 -16.8639
  214 24.6008 19.4110 14.3059
  215 164.350 46.8676 108.851
  216 278.156 -18.4705 -9.48051
  217 297.283 -3.08342 -5.34334
  218 263.010 2.27761 -21.5402
  219 183.572 -1.88795 -5.34908
  220 183.629 -1.86639 5.29953
  221 249.956 -11.7693 -1.98379
  222 250.071 -11.8391 1.84033
  223 281.932 -3.78453 18.0497
  224 325.649 -18.8870 6.43212
  225 322.409 66.1044 -7.34226
  226 252.843 -24.4855 -11.5336
  227 320.473 -5.56313 20.4166
  228 272.742 -4.51497 1.13338
  229 272.748 -4.47624 -1.13159
  230 250.945 -24.3675 12.0164
  231 287.869 -18.2299 18.0762
  232 406.450 51.6716 -24.3036
  233 89.2276 53.1396 -78.4969
  234 242.483 8.44754 4.62470
  235 288.646 25.4612 26.3120
  236 308.140 -2.13887 -28.0930
  237 287.674 -10.3282 -25.8046
  238 152.053 -4.96856 -21.4137
  239 152.591 -4.89233 21.3399
  240 288.199 -3.43956 -14.0069
  241 274.699 -6.89967 3.55105
  242 274.570 -6.88859 -3.43868
  243 56.9354 5.36005 -28.7561
  244 57.8803 4.70047 28.6633
  245 306.644 -26.8009 -22.9457
  246 303.490 -1.00352 0.840078
  247 303.829 -1.02355 -0.905218
  248 281.775 23.3487 -24.0636
  249 247.437 4.69867 14.0572
  250 522.273 83.6667 56.0599
  251 518.101 58.9892 -35.1719
  252 373.541 80.8143 -0.691077
  253 233.059 -11.1810 68.7065
  254 213.753 -7.20368 -71.8968
  255 244.845 -5.02870 -0.875296
  256 244.821 -4.99472 0.868147
  257 202.576 -5.51393 7.32315
  258 202.579 -5.59134 -7.39187
  259 295.677 -3.12901 8.70364
  260 286.722 -20.3907 -14.9758
  261 184.404 -0.377928 -1.24088
  262 184.443 -0.371650 1.23253
  263 283.107 -11.4152 -11.8831
  264 118.905 -3.92033 -29.6615
  265 119.437 -3.93324 29.4404
  266 286.548 -12.3889 20.7508
  267 218.422 -23.1831 41.4287
  268 218.996 -23.5992 -41.3036
  269 246.125 9.35868 -6.54233
  270 212.360 -3.31494 -2.42926
  271 212.376 -3.29148 2.41906
  272 268.082 -0.686580 17.2972
  273 320.864 58.8725 17.5059
  274 170.649 -2.13842 9.10810
  275 170.516 -2.15680 -9.18948
  276 294.575 -24.5610 10.7326
  277 272.696 -30.5574 -27.4261
  278 304.549 -1.39779 2.76556
  279 210.326 -12.5832 -15.6820
  280 209.949 -12.4402 15.6186
  281 376.261 38.4287 96.5079
  282 176.031 -14.1843 49.5456
  283 284.358 39.9708 -1.56201
  284 361.007 39.7130 -15.7150
  285 271.702 -21.0256 4.02565
  286 272.874 -31.3984 24.6521
  287 176.585 -13.9479 -50.1217
  288 32.4891 40.0355 36.1536
  289 283.155 -11.4581 12.0990
  290 371.981 48.4334 12.5161
  291 307.030 -1.24662 -2.39754
  292 276.998 9.66865 -27.6956
  293 273.806 -15.4723 6.71492
  294 268.040 -22.6470 0.172601
  295 275.943 12.6490 26.6696
  296 293.143 -24.5737 -9.64552
  297 415.740 81.0671 -6.84685
  298 273.731 -14.8694 -6.42853
  299 227.030 64.6914 -133.582
  300 280.049 -29.6713 -4.82130
  301 278.049 -30.4777 8.02680
  302 203.599 -18.4976 -32.5815
  303 182.745 -0.732642 -2.70915
  304 182.794 -0.719951 2.68621
  305 203.679 -18.5101 32.3984
  306 296.039 -0.486650 -31.5177
  307 320.082 -13.2435 -13.7953
  308 243.026 -14.7100 -5.59047
  309 242.859 -14.7432 5.69750
  310 291.626 -25.0979 44.1936
  311 290.610 -2.29731 10.6071
  312 354.084 1.44777 14.8746
  313 237.957 -8.44914 -3.03914
  314 237.971 -8.41877 3.01999
  315 216.350 -5.70375 -4.76976
  316 216.348 -5.64884 4.76147
  317 244.821 3.25234 -13.5984
  318 315.740 23.1357 -30.3736
  319 489.767 131.843 -62.1685
  320 287.941 -2.45184 -0.983213
  321 287.769 -2.41814 1.00786
  322 153.515 -0.193850 61.8198
  323 215.316 -9.86613 -10.3027
  324 214.895 -9.82976 10.3281
  325 153.489 -0.545541 -61.5847
  326 300.659 35.5088 -25.7046
  327 337.235 16.6460 23.0908
  328 291.667 -20.8175 -49.1477
  329 267.606 -10.3111 3.05522
  330 267.329 -10.2329 -2.93588
  331 285.897 -5.86041 -5.82650
  332 268.282 -0.519413 -16.1801
  333 301.587 1.31833 30.9168
  334 301.269 -2.05989 -6.01347
  335 180.025 -11.0287 24.8746
  336 179.827 -11.0922 -25.0737
  337 280.211 -0.641002 28.8566
  338 171.590 -1.44447 -5.38953
  339 171.701 -1.43075 5.33790
  340 287.977 -6.56171 8.99635
  341 345.263 70.6267 -13.1216
  342 285.743 -5.90720 6.03956
  343 304.076 38.2259 25.8153
  344 291.116 -5.39667 30.0306
  345 229.974 -4.33874 0.960660
  346 229.977 -4.36678 -0.967880
  347 275.197 -0.993442 -25.5957
  348 365.045 76.8211 8.68271
  349 302.917 55.6437 0.540084
  350 185.707 21.6313 -92.1018
  351 18.6096 8.37262 -12.3346
  352 20.4731 9.05450 13.3008
  353 -1.07299 2.06188 5.71338
  354 0.0889585 1.11214 -5.95456
  355 535.538 37.1360 12.8244
  356 251.044 -20.4468 -6.59966
  357 288.215 -6.33659 -8.77990
  358 259.731 -4.54108 0.436549
  359 259.700 -4.50313 -0.437933
  360 277.555 30.6586 -13.0265
  361 237.004 -24.2204 20.5514
  362 20.4986 30.4123 -22.2263
  363 237.242 -24.2175 -20.9391
  364 281.238 31.9918 13.8630
  365 287.400 -7.62688 -15.6000
  366 305.069 -16.9932 -18.9981
  367 324.584 68.7203 5.07000
  368 305.807 -19.0604 15.8089
  369 125.200 -3.16660 19.8827
  370 124.431 -3.10582 -20.0166
  371 70.5169 1.77136 -27.4948
  372 71.2926 1.48204 27.3696
  373 248.777 0.778530 13.7637
  374 475.638 138.390 52.9587
  375 297.332 -1.85895 -7.60339
  376 230.824 -19.5932 -15.6994
  377 230.622 -19.5392 15.6773
  378 285.591 -6.56345 -19.6851
  379 325.915 -15.7551 3.09941
  380 251.035 -20.4265 6.81267
  381 358.189 2.35259 -28.4121
  382 200.887 -1.66455 -0.918507
  383 200.914 -1.64987 0.911208
  384 280.706 -1.62390 -12.5308
  385 150.113 -2.21088 -12.9863
  386 150.212 -2.28072 12.8242
  387 335.851 42.8732 -25.8628
  388 181.243 12.8369 85.4941
  389 262.686 -13.8031 1.63938
  390 262.946 -13.7775 -1.65277
  391 308.554 52.2875 -16.3760
  392 292.297 -8.64798 -28.5034
  393 293.488 -29.9648 23.8445
  394 243.983 -6.50028 -1.35043
  395 243.953 -6.46699 1.33510
  396 282.124 -21.7601 10.1999
  397 304.219 -1.42168 4.47798
  398 188.478 -6.96874 -15.1485
  399 188.552 -6.96743 15.0143
  400 286.212 9.59803 -30.8237
  401 270.392 -5.83089 1.71966
  402 270.381 -5.84387 -1.68238
  403 279.488 -3.28720 23.5596
  404 260.038 18.9078 6.23410
  405 289.995 -12.2238 24.9386
  406 419.826 88.0201 15.3227
  407 139.272 -7.51040 -39.7589
  408 139.667 -7.51334 39.4481
  409 62.0553 33.4262 -47.0972
  410 311.477 -0.876502 1.26000
  411 156.486 -1.36356 -8.21284
  412 156.699 -1.33465 8.13968
  413 285.835 -7.43464 19.2964
  414 259.246 -28.1670 13.3106
  415 293.191 -3.58546 4.13024
  416 298.265 15.1530 32.1885
  417 65.1169 35.5912 49.1594
  418 259.644 -28.0124 -12.2052
  419 268.337 -24.9629 -1.99421
  420 86.5745 -1.74101 -24.9585
  421 87.2508 -1.80800 24.7818
  422 205.875 -16.4172 -59.7592
  423 308.218 -4.58295 27.4312
  424 205.067 -16.6717 59.2238
  425 284.637 -15.9667 -16.2795
  426 263.768 17.7531 -13.6771
  427 284.692 -12.2737 15.4348
  428 306.884 -1.33340 -3.04284
  429 9.15163 9.63596 4.03782
  430 61.7454 70.8691 69.8087
  431 273.555 -1.00874 12.0661
  432 228.743 3.09168 5.94782
  433 232.801 3.77922 -8.07516
  434 198.628 -3.34587 -5.16546
  435 198.646 -3.30241 5.12977
  436 280.664 -21.7484 -9.37680
  437 283.377 -5.54124 -26.3972
  438 230.005 4.26242 -2.19385
  439 419.797 99.9151 19.9144
  440 57.4148 19.2350 -35.2524
  441 63.3561 17.6564 37.7069
  442 262.445 -9.34944 1.46748
  443 262.343 -9.32501 -1.39584
  444 350.009 77.5681 -1.05591
  445 219.687 89.4134 136.548
  446 337.382 -4.80113 -5.54015
  447 192.741 -10.1414 -20.5540
  448 192.830 -10.0700 20.3738
  449 193.799 -4.39786 8.08394
  450 193.765 -4.43116 -8.16040
  451 262.247 5.78511 -22.1674
  452 313.120 -0.418171 -0.841934
  453 254.774 11.6418 12.4340
  454 322.996 39.8945 27.8846
  455 268.814 -19.9686 -2.99116
  456 293.084 -3.40831 -4.01073
  457 308.172 -1.20405 2.80335
  458 312.230 -0.445239 0.481730
  459 312.494 -0.506060 -0.357498
  460 170.334 -0.321775 1.98751
  461 170.249 -0.326486 -2.00921
  462 294.225 -18.6749 19.6710
  463 264.791 10.4129 21.4659
  464 277.076 1.11328 -28.1325
  465 289.815 -6.07094 11.6259
  466 419.881 69.5285 -80.8017
  467 290.427 -16.1000 -21.9016
  468 2.55290 5.46039 2.09110
  469 2.53872 5.53883 -0.654553
  470 229.587 -13.0798 8.77001
  471 228.808 -12.9078 -8.66826
  472 362.164 6.35535 43.1987
  473 100.937 91.2160 -103.235
  474 286.461 -0.859057 9.40535
  475 325.518 -18.9973 -24.3415
  476 172.297 -9.99215 28.8239
  477 348.279 61.7987 -18.8474
  478 286.241 -15.4781 18.3923
  479 239.912 -11.5190 -4.22634
  480 240.124 -11.3260 4.21271
  481 248.715 1.31299 -12.1574
  482 171.753 -9.95446 -29.0094
  483 255.157 0.0945904 12.2325
  484 245.139 -28.0236 -36.9102
  485 244.518 -28.0664 37.0344
  486 295.593 -1.93851 8.38840
  487 267.848 25.2363 2.57767
  488 273.202 4.54394 93.1726
  489 401.400 81.9043 -0.514550
  490 277.047 -4.62363 1.94225
  491 277.065 -4.60642 -2.00520
  492 212.231 -3.81655 -3.24364
  493 212.244 -3.78396 3.23053
  494 111.874 5.24560 51.8463
  495 287.492 -13.8320 -21.4067
  496 260.568 -5.65020 0.362187
  497 260.541 -5.62919 -0.356035
  498 226.767 -24.0504 30.2169
  499 114.058 6.91747 -53.1727
  500 287.984 -23.4561 -10.7205
  501 4.86434 0.847369 2.43969
  502 250.859 12.9095 0.902634
  503 278.089 -3.16531 -0.644843
  504 278.081 -3.21028 0.631445
  505 226.916 -24.0112 -30.4557
  506 325.869 -16.8454 31.3196
  507 322.539 11.7124 28.4433
  508 297.897 -1.96722 -2.00590
  509 287.102 -23.7889 10.8640
  510 178.574 -0.187152 -0.349687
  511 178.612 -0.185476 0.346523
  512 286.576 -10.9915 -22.7816
  513 277.166 20.5037 23.5143
  514 318.558 7.86507 -28.0846
  515 177.497 -0.297715 -1.11631
  516 177.542 -0.293668 1.10823
  517 558.217 80.6143 -72.2461
  518 288.523 34.3865 20.7348
  519 298.164 -1.80562 1.78873
  520 268.940 -25.5109 2.64081
  521 225.563 -7.51684 4.80697
  522 225.563 -7.57566 -4.79722
  523 313.394 -19.0706 9.03466
  524 300.920 -5.99714 -28.8556
  525 336.321 66.3805 15.7057
  526 279.508 4.79969 29.1650
  527 282.312 -5.38057 3.73333
  528 274.422 -29.2544 -35.4419
  529 284.333 -7.02342 22.4055
  530 551.929 25.2821 -10.1277
  531 311.122 -23.4453 -1.15139
  532 296.044 -1.90217 -0.487815
  533 296.114 -2.02854 0.433392
  534 557.653 37.4276 35.5433
  535 272.452 -0.101310 24.8041
  536 382.813 64.0926 -7.33523
  537 287.260 -7.77714 -11.3237
  538 128.573 -1.23054 -8.88553
  539 128.985 -1.17156 8.79298
  540 193.959 -18.1830 -41.5145
  541 194.106 -17.8775 41.2007
  542 282.159 -5.15411 -3.69692
  543 306.956 11.2695 -31.4944
  544 269.620 -18.3552 4.02003
  545 289.816 33.2461 -21.5277
  546 292.379 -3.36620 11.2925
  547 367.131 18.1637 -3.32327
  548 249.777 -8.57663 -1.08078
  549 249.698 -8.54468 1.06503
  550 271.551 -12.8077 5.04956
  551 401.169 79.2077 -5.01656
  552 285.880 12.5052 30.2988
  553 122.031 31.4383 76.7353
  554 276.785 -16.6237 62.1055
  555 366.449 17.3014 -68.3305
  556 292.302 24.1719 -28.2188
  557 259.666 -22.4124 -53.8089
  558 281.167 -30.7975 -10.2102
  559 293.788 -29.7190 -15.1822
  560 38.2554 49.3253 -46.7801
  561 295.268 -3.68763 -7.00548
  562 444.684 86.5616 -24.9311
  563 273.016 -12.2783 -5.59591
  564 275.318 -8.92949 4.61309
  565 275.061 -8.72296 -4.43299
  566 188.889 -1.12648 -2.45413
  567 188.927 -1.11186 2.43679
  568 26.3517 2.83270 -15.0587
  569 27.8682 2.96780 15.4121
  570 140.550 -6.58497 -30.3516
  571 141.640 -6.62001 30.2991
  572 279.082 -15.1046 -10.3814
  573 284.485 -30.9223 11.0802
  574 292.441 -27.7399 2.39188
  575 239.237 -4.23871 -0.853483
  576 239.222 -4.20727 0.848788
  577 227.178 -23.8035 -46.0721
  578 254.637 -20.8540 56.9628
  579 221.625 -22.3797 46.3418
  580 286.993 -6.36424 -28.3856
  581 178.953 -3.03925 9.12985
  582 178.865 -3.07142 -9.20872
  583 273.311 15.0786 -23.6084
  584 273.762 -0.478435 -10.9512
  585 342.304 74.5072 -7.11710
  586 223.071 -3.41205 -0.858322
  587 223.076 -3.38858 0.853985
  588 292.215 -0.856332 -6.19373
  589 201.035 -6.88383 -10.0662
  590 201.036 -6.85845 9.97562
  591 164.545 7.69144 73.5182
  592 284.406 -13.0606 -15.6085
  593 158.215 -8.32252 52.7907
  594 279.482 -14.4639 10.5935
  595 294.434 -4.10725 7.72695
  596 290.819 -2.60043 -1.78340
  597 203.294 -2.56923 -2.26756
  598 203.318 -2.54767 2.25490
  599 328.270 65.6885 -14.1117
  600 158.104 -8.00078 -52.9956
  601 278.558 -12.0330 -8.50543
  602 250.978 -4.65439 -0.395879
  603 250.951 -4.61888 0.394172
  604 473.108 63.7735 -11.2248
  605 165.517 -1.09401 5.04817
  606 165.372 -1.10480 -5.09709
  607 259.057 5.90334 20.2159
  608 372.022 30.8780 -5.30240
  609 175.404 1.30374 -72.9888
  610 89.2310 2.33678 -39.6734
  611 89.9868 1.81655 39.4621
  612 219.825 -12.9324 12.4222
  613 222.154 -13.3133 -12.0517
  614 375.701 75.6437 7.50790
  615 289.606 -2.69769 1.61969
  616 247.590 6.91130 -12.2000
  617 309.316 55.7000 12.9511
  618 308.177 57.8073 -8.61084
  619 253.276 -14.0778 -1.80162
  620 255.227 -13.7557 0.891416
  621 181.837 39.5257 -105.061
  622 217.246 -7.51717 -6.87161
  623 217.262 -7.42972 6.84602
  624 554.909 113.528 85.4394
  625 286.680 -9.37446 24.5574
  626 162.846 -5.84417 -19.4484
  627 447.114 102.524 67.8771
  628 163.230 -5.81052 19.3710
  629 274.582 -10.5186 -72.6213
  630 192.399 -0.990479 -0.905465
  631 192.433 -0.981832 0.900574
  632 238.539 2.10910 10.6391
  633 107.782 -1.63387 -17.4702
  634 108.401 -1.63787 17.3293
  635 249.995 -17.7584 5.00208
  636 262.318 -21.0493 -1.08498
  637 309.866 -0.648635 -2.55311
  638 173.157 -0.296808 1.46084
  639 173.092 -0.301993 -1.47683
  640 235.611 -5.34139 -1.26255
  641 235.600 -5.31010 1.25202
  642 271.057 -30.0441 35.8359
  643 311.168 34.7639 -28.5106
  644 206.393 -9.73638 -12.9834
  645 206.239 -9.57082 12.8865
  646 245.327 -17.7304 -7.12438
  647 387.213 84.4467 1.91686
  648 290.695 -28.1033 -0.774943
  649 251.949 -6.03014 -0.475157
  650 251.910 -5.99890 0.475942
  651 347.313 37.9350 21.9602
  652 291.169 -4.16182 -12.2759
  653 256.664 -0.332250 -9.96617
  654 118.316 -4.03513 -38.1308
  655 118.690 -4.15153 37.8124
  656 244.714 -21.1961 -11.6359
  657 367.490 81.2329 0.201012
  658 284.458 38.5475 -9.33902
  659 187.956 -1.76471 -4.53448
  660 187.998 -1.73994 4.49638
  661 265.704 -7.48791 -1.45865
  662 265.756 -7.49771 1.51709
  663 496.994 64.9572 28.5753
  664 314.824 -0.819550 0.699299
  665 303.825 -1.17121 4.37458
  666 302.596 -1.19872 -5.11307
  667 287.089 -26.7071 4.94850
  668 210.390 -2.49781 -1.13347
  669 210.408 -2.47942 1.12804
  670 306.335 49.1844 19.9193
  671 393.836 87.6346 -4.63465
  672 214.720 -16.0780 -18.3979
  673 214.652 -15.9173 18.3015
  674 269.263 -27.7642 -5.21423
  675 283.709 16.8560 -28.5086
  676 337.767 0.836664 12.7650
  677 223.201 -4.20094 -2.22441
  678 223.207 -4.17285 2.21453
  679 193.079 -16.9871 -37.4877
  680 284.356 -27.4874 -2.30121
  681 236.052 -26.1898 33.2822
  682 112.625 35.6630 -74.0188
  683 220.179 -20.4820 25.6669
  684 265.514 0.0701865 9.21846
  685 193.253 -16.7928 37.2301
  686 278.394 -12.2694 8.61038
  687 220.260 -20.3980 -25.9079
  688 224.839 2.89135 2.22993
  689 173.796 -4.75426 13.8081
  690 173.639 -4.76030 -13.9090
  691 236.195 -26.8698 -33.6567
  692 292.251 -19.2295 -19.0228
  693 267.915 -3.71165 -0.375113
  694 267.958 -3.75161 0.376811
  695 298.749 -18.9993 18.8800
  696 271.361 -28.3671 6.28432
  697 329.911 30.2523 27.7384
  698 297.480 -5.55180 29.6906
  699 286.245 -10.2411 18.1479
  700 272.948 22.4223 -17.9077
  701 328.909 55.3885 21.9253
  702 283.822 -3.91238 -17.5365
  703 283.059 -9.34352 9.43379
  704 292.145 45.8059 5.05063
  705 287.893 -4.85470 15.3076
  706 90.3774 61.3775 77.5474
  707 268.020 -30.8160 -20.5025
  708 310.346 5.65747 30.2216
  709 313.485 -9.68480 -21.6728
  710 313.262 -0.385161 1.42248
  711 286.095 -9.79125 -14.3315
  712 268.396 -31.0597 18.5872
  713 521.634 46.1801 -7.74282
  714 158.692 -0.702989 5.28538
  715 158.498 -0.710819 -5.33702
  716 290.347 -5.22017 -6.73428
  717 315.157 -0.290549 -1.38359
  718 244.255 -21.5373 11.6987
  719 293.685 -10.9029 26.9944
  720 447.645 106.231 -31.8707
  721 278.360 -20.1727 8.86089
  722 308.895 -20.3128 -11.3984
  723 283.168 -9.09005 -9.28408
  724 315.094 -0.512573 -0.459672
  725 286.474 -0.0188973 30.7962
  726 13.0939 11.5910 16.2611
  727 324.219 -12.5740 -46.9439
  728 352.513 20.7850 14.0432
  729 293.451 -29.9567 13.4802
  730 208.212 -5.07734 5.63641
  731 208.215 -5.14915 -5.66537
  732 274.914 137.438 -143.449
  733 298.889 -19.7415 -17.4827
  734 223.944 1.13027 -4.26215
  735 261.864 1.42781 19.7299
  736 288.186 -14.3941 21.7665
  737 276.232 -23.2787 4.62912
  738 287.584 -26.1846 -38.5038
  739 274.512 -21.7223 -5.12130
  740 324.808 -15.5611 -4.20768
  741 299.071 -2.38558 3.94543
  742 266.499 -16.0251 2.79529
  743 485.699 97.1246 -51.5809
  744 284.465 -7.56064 7.50272
  745 281.027 4.58818 -29.9555
  746 240.393 -2.72457 81.7304
  747 301.243 24.2746 30.6374
  748 259.097 -20.4427 2.44612
  749 199.595 -15.8188 -27.3638
  750 199.609 -15.7733 27.1351
  751 275.075 30.9277 -4.17581
  752 280.134 -3.23466 26.7723
  753 283.290 -6.72787 -22.8789
  754 266.804 -16.3507 -2.88406
  755 257.901 -23.1624 6.33076
  756 294.414 48.6543 -5.71492
  757 275.889 -23.8774 -3.53982
  758 276.560 -17.4964 8.60118
  759 280.386 -3.53631 1.35601
  760 280.562 -3.43814 -1.34759
  761 377.250 83.0135 2.21976
  762 308.732 -26.2329 -8.68354
  763 286.972 -8.74607 14.2635
  764 299.202 -2.37637 -3.59726
  765 301.927 2.01848 -31.2104
  766 344.198 18.0131 -18.6793
  767 167.227 -0.176796 -2.46093
  768 167.337 -0.174321 2.43522
  769 2.37378 -5.35720 -3.80362
  770 292.933 -0.326331 5.73815
  771 267.986 -0.459257 -21.8430
  772 277.044 -2.59159 19.2937
  773 253.711 31.0825 120.141
  774 315.408 65.0099 -0.693164
  775 223.983 -16.1356 14.2808
  776 38.4726 0.894808 -14.9176
  777 39.6282 0.661232 15.0785
  778 274.522 -1.95912 -21.7493
  779 224.605 -16.2988 -14.2756
  780 297.428 -2.61674 3.01283
  781 150.904 -6.50724 25.9106
  782 149.594 -6.48523 -25.9272
  783 284.451 -7.33858 -7.30912
  784 180.573 -4.63872 -12.0097
  785 180.664 -4.60747 11.8997
  786 296.334 -2.74817 -8.50614
  787 225.466 -6.08458 -3.83746
  788 225.471 -6.04363 3.83855
  789 323.652 -2.06011 -21.7427
  790 290.864 -3.03690 -30.9340
  791 146.710 -0.961733 -6.74880
  792 147.002 -0.952807 6.66855
  793 6.81784 3.70373 -8.97694
  794 8.14309 3.90599 9.44972
  795 234.784 1.11270 -7.73114
  796 265.749 -29.8631 -15.1736
  797 -3.07887 -2.13728 5.29280
  798 -2.69245 -2.50919 -5.24985
  799 276.661 -5.49459 2.88946
  800 300.148 -23.3928 -10.1499
  801 309.504 45.9192 -23.2594
  802 298.733 -2.34811 -2.86135
  803 641.634 128.821 -120.530
  804 276.604 -5.47578 -2.85240
  805 416.848 79.6509 6.29274
  806 295.852 8.61664 -32.2420
  807 327.121 24.6638 -28.3710
  808 53.9128 -0.637203 -13.8098
  809 54.9425 -0.718898 13.7840
  810 183.520 -2.70542 7.09770
  811 183.456 -2.72840 -7.16333
  812 174.887 -0.433710 1.32465
  813 174.836 -0.438198 -1.33579
  814 330.593 55.7103 -21.7543
  815 194.396 -1.25545 -1.94662
  816 194.429 -1.24088 1.93509
  817 281.005 -2.82930 -27.9390
  818 407.332 41.0671 34.0186
  819 252.345 5.59431 -16.9936
  820 86.5427 -0.787397 14.8278
  821 85.7857 -0.794591 -14.9474
  822 328.208 8.60418 86.0167
  823 290.042 -5.26356 6.95072
  824 258.434 17.1102 -7.08129
  825 118.577 -0.202199 10.1263
  826 117.953 -0.146457 -10.2032
  827 178.764 -0.946495 -3.47113
  828 178.828 -0.932889 3.43771
  829 31.9204 28.4848 24.3371
  830 269.731 6.40554 25.2926
  831 300.423 44.1964 -19.9056
  832 323.616 37.5724 -28.1473
  833 211.895 -8.09856 -9.05418
  834 211.768 -8.03613 9.03997
  835 335.025 71.4754 9.91388
  836 289.602 -2.33588 -0.384916
  837 289.617 -2.31812 0.434288
  838 286.277 -8.54816 -18.2836
  839 239.435 -16.0284 8.17030
  840 264.101 -29.6842 15.2623
  841 310.876 -25.4744 23.8316
  842 237.233 -6.92173 -2.18634
  843 237.229 -6.89427 2.17023
  844 271.299 25.1274 11.4940
  845 254.724 3.44549 -18.3617
  846 70.8422 82.8085 80.7231
  847 258.717 -22.9752 -5.69078
  848 259.548 -11.6073 0.809016
  849 259.688 -11.6288 -0.822547
  850 285.551 -4.19434 29.3960
  851 283.347 -18.5996 -13.6925
  852 252.794 -16.7879 -3.04009
  853 580.076 18.7879 -28.8339
  854 240.248 -22.8016 16.1786
  855 240.061 -23.1006 -16.4463
  856 285.309 -3.39191 14.9231
  857 430.448 110.976 -24.0562
  858 225.290 -20.5584 -20.3472
  859 249.191 -28.0969 19.2164
  860 225.224 -20.3083 20.1631
  861 244.339 -9.87464 -2.47472
  862 244.330 -9.83958 2.45529
  863 35.8207 15.3728 21.1757
  864 306.685 22.9236 -31.0479
  865 234.348 -9.20261 -4.11383
  866 234.389 -9.10810 4.12918
  867 231.363 -3.85581 -0.494744
  868 231.357 -3.82834 0.491219
  869 254.835 -5.04909 0.0318789
  870 254.803 -5.01468 -0.0334056
  871 206.494 -4.11281 -4.88342
  872 206.508 -4.06600 4.86173
  873 235.269 -12.4531 -6.27588
  874 235.298 -12.3656 6.30292
  875 5.60662 -2.37153 -2.50074
  876 355.577 66.7079 16.4023
  877 305.856 -10.7027 -24.9788
  878 248.994 -27.6911 -19.4268
  879 269.072 -8.64163 2.73616
  880 268.952 -8.55045 -2.65966
  881 293.351 0.379691 31.5989
  882 319.496 -22.7993 -12.8781
  883 282.963 19.8327 -104.146
  884 127.881 -2.02210 51.3012
  885 -5.05389 2.98373 -3.40150
  886 -4.41344 3.36587 3.78160
  887 35.5707 16.3504 -21.6133
  888 286.888 -8.19749 11.2622
  889 302.128 -1.92225 -4.75369
  890 271.585 -26.0927 44.3402
  891 127.573 -1.88239 -51.5100
  892 302.662 -24.7387 7.24721
  893 337.492 -10.0984 38.3461
  894 243.493 0.973771 8.19839
  895 279.741 26.6072 19.5923
  896 150.925 -8.53645 37.7882
  897 150.334 -8.60577 -38.0452
  898 181.120 -8.71157 -21.1741
  899 190.800 -9.28513 -65.4878
  900 302.619 -7.05407 27.9964
  901 416.411 97.5554 14.2439
  902 303.727 11.6950 31.6612
  903 287.111 -6.09229 -16.6668
  904 194.847 -8.31951 67.1203
  905 366.351 67.4623 -12.2391
  906 35.9885 30.7123 -30.0453
  907 264.770 -0.541477 -8.79337
  908 181.311 -8.63873 20.9807
  909 221.430 -4.93298 3.39136
  910 221.425 -4.96789 -3.39957
  911 283.764 -18.5010 14.1317
  912 294.972 -1.80440 1.16150
  913 216.712 2.02994 -81.4662
  914 311.147 -0.660220 2.25203
  915 308.744 -0.539136 -2.86748
  916 229.349 1.96744 -7.10486
  917 298.136 -1.20161 -5.09078
  918 222.219 -10.4834 -8.31112
  919 222.368 -10.3242 8.33569
  920 -7.41053 2.68982 -4.27802
  921 -10.1758 1.62181 4.50917
  922 294.967 -1.67147 -1.17583
  923 96.7497 -2.17541 34.6051
  924 96.1535 -1.96399 -34.8065
  925 314.642 45.9526 24.5760
  926 566.391 10.2196 8.94109
  927 296.019 32.9490 25.7515
  928 336.192 -11.9065 10.3536
  929 291.722 -16.2128 21.9565
  930 363.355 76.2059 -9.31191
  931 224.344 0.924678 5.35412
  932 280.741 -6.54514 -4.57363
  933 291.386 15.6676 -31.1529
  934 352.953 10.3048 -6.51914
  935 273.536 -16.8872 -6.80524
  936 138.571 -0.793790 -7.56055
  937 138.722 -0.765788 7.45176
  938 288.746 -6.73438 -13.1000
  939 9.45626 12.0572 2.29008
  940 277.148 -28.7272 -2.43294
  941 239.160 7.01882 -0.733236
  942 360.778 79.4370 -6.18644
  943 56.6666 42.1890 -50.0749
  944 277.065 -2.06066 -17.2889
  945 191.263 -3.26012 -6.61989
  946 191.299 -3.22123 6.56178
  947 1.61091 -7.95913 6.07875
  948 187.764 -14.0605 -30.3890
  949 282.287 -16.2927 -13.2786
  950 174.223 0.373168 -0.546765
  951 174.264 0.375043 0.542851
  952 284.660 34.5574 -15.7038
  953 306.277 -0.848260 -0.455844
  954 306.282 -0.861242 0.595729
  955 187.844 -14.0203 30.1776
  956 285.556 -0.375958 -6.84355
  957 329.027 2.36377 20.9928
  958 291.823 -4.05297 5.38317
  959 46.0672 11.8297 -26.8443
  960 302.759 -1.78094 4.31199
  961 273.916 2.18722 27.0966
  962 288.902 40.0541 13.9713
  963 289.280 3.35364 -31.8810
  964 198.690 -10.7509 -18.1343
  965 312.605 -11.0478 20.9308
  966 198.818 -10.7077 17.9463
  967 8.99670 9.86478 -0.678034
  968 33.6858 5.89631 19.6617
  969 161.670 -2.91250 12.4924
  970 161.468 -2.91573 -12.5662
  971 280.937 -6.67296 4.81318
  972 301.636 52.5493 7.74695
  973 153.387 14.1322 -77.0675
  974 252.307 -15.7953 2.62120
  975 236.807 -24.8083 -24.4813
  976 345.623 66.2989 16.9674
  977 265.753 -4.65228 0.464163
  978 265.743 -4.62568 -0.465742
  979 291.423 -5.33258 -9.43257
  980 268.733 23.1750 -10.6047
  981 613.051 181.079 122.211
  982 55.4339 3.18571 -25.9724
  983 56.3284 2.64923 26.0330
  984 4.11997 -5.58391 1.22638
  985 269.599 14.9095 21.7669
  986 236.732 -24.9571 24.2962
  987 293.731 -13.8524 -24.9382
  988 319.634 26.1338 30.6810
  989 307.628 -24.8393 -29.4189
  990 449.612 94.6750 31.0583
  991 260.828 -4.18559 -0.0931164
  992 260.794 -4.14958 0.0934407
  993 305.592 -12.4304 23.7050
  994 21.0035 34.1528 36.0302
  995 136.385 -2.90991 17.9079
  996 135.949 -2.87280 -18.1054
  997 163.257 -8.07277 24.4585
  998 162.688 -7.95120 -24.5547
  999 184.042 -7.67759 17.5382
  1000 201.193 -1.64390 -0.885674
  1001 201.220 -1.63142 0.881861
  1002 506.711 160.353 -101.913
  1003 457.922 114.699 46.6848
  1004 183.892 -7.71810 -17.6907
  1005 314.793 -1.43288 26.1348
  1006 281.084 29.1683 -18.8727
  1007 198.575 -17.0450 54.2792
  1008 255.463 -30.1731 -29.0298
  1009 292.044 -2.36935 -10.0463
  1010 131.224 9.11523 62.6734
  1011 168.438 -12.8810 43.3784
  1012 257.478 13.1576 -13.6228
  1013 295.246 -5.82967 -30.0177
  1014 378.715 152.231 163.949
  1015 242.958 7.39112 9.68956
  1016 331.674 71.6429 -1.19227
  1017 244.107 9.51518 -92.6131
  1018 247.824 -26.1326 -16.5447
  1019 315.457 -0.303280 -1.13075
  1020 301.918 27.7442 -29.8451
  1021 175.831 -1.17297 4.47305
  1022 175.748 -1.18496 -4.51683
  1023 6.39611 2.89478 -9.04131
  1024 198.802 -9.17396 -15.1085
  1025 168.236 -13.0480 -43.7131
  1026 198.645 -9.15197 14.9367
  1027 288.557 -8.76360 27.7576
  1028 258.788 -16.0217 -0.269637
  1029 271.572 4.97336 -26.2411
  1030 279.405 34.9134 5.50825
  1031 380.496 22.6624 12.8894
  1032 285.983 -21.7060 13.5028
  1033 180.136 -14.4739 -33.2534
  1034 269.209 9.49725 -24.5483
  1035 200.329 -16.8138 -54.5747
  1036 385.492 83.8696 -1.40423
  1037 261.509 17.1346 12.3930
  1038 331.601 -1.98119 -16.2220
  1039 249.370 -26.1407 15.1883
  1040 285.912 -9.03215 21.4899
  1041 284.119 -14.9722 15.5560
  1042 282.562 -14.1821 13.5027
  1043 349.201 44.2908 -22.5446
  1044 282.015 -4.53129 21.7641
  1045 255.032 -30.2577 28.5520
  1046 272.235 -11.1027 4.57317
  1047 180.248 -14.5000 33.0611
  1048 255.469 -18.8718 -3.23160
  1049 147.996 -7.16939 -46.3972
  1050 211.644 -22.0070 36.7604
  1051 287.320 -1.92423 -11.6485
  1052 279.688 -3.14964 -24.7126
  1053 242.190 -19.2292 -10.0223
  1054 148.253 -7.38065 46.0253
  1055 260.462 0.613484 -17.1498
  1056 193.572 -12.9418 -23.5103
  1057 351.835 75.0498 10.7505
  1058 77.8859 13.0404 -43.9330
  1059 604.871 42.7611 58.4396
  1060 140.581 10.5978 -65.6455
  1061 282.523 -23.3920 -8.42740
  1062 193.621 -12.8292 23.3126
  1063 257.633 2.69345 19.1650
  1064 143.803 -2.95895 14.8225
  1065 143.724 -3.03248 -14.9765
  1066 285.867 -7.93591 -25.7200
  1067 304.651 -1.46897 1.78143
  1068 298.365 -0.647120 5.14813
  1069 294.817 9.79806 32.1594
  1070 275.604 -2.07523 23.2008
  1071 214.058 22.7395 100.200
  1072 317.522 -0.216844 0.552531
  1073 296.631 40.2416 20.5009
  1074 250.572 3.59383 16.5008
  1075 302.261 -1.12547 4.95069
  1076 193.062 -2.12795 -3.69212
  1077 193.095 -2.10348 3.66687
  1078 122.548 -3.51112 -24.7111
  1079 123.043 -3.63724 24.5366
  1080 251.367 12.4893 6.92124
  1081 381.874 20.1248 -27.0965
  1082 350.852 -0.649292 -52.3343
  1083 278.503 -0.239128 -7.08933
  1084 211.731 -22.1729 -37.0428
  1085 242.698 -18.2880 8.92917
  1086 280.148 -0.634651 7.39992
  1087 293.721 -21.2802 -15.8807
  1088 181.950 -0.444784 2.21111
  1089 181.906 -0.452490 -2.22555
  1090 281.982 -24.0620 8.42325
  1091 267.925 -5.43498 0.930493
  1092 267.880 -5.43985 -0.912357
  1093 260.647 -26.2842 9.43218
  1094 336.747 -10.9259 -2.94113
  1095 150.651 -0.276903 -4.20169
  1096 150.903 -0.267250 4.15577
  1097 228.882 -14.4098 -62.5256
  1098 243.064 -5.81135 1.14946
  1099 243.089 -5.84513 -1.16082
  1100 147.320 78.7509 110.077
  1101 337.825 27.6557 -25.3458
  1102 49.2253 24.1417 -33.0500
  1103 292.001 -4.28010 -5.20345
  1104 77.3844 26.7284 -50.3681
  1105 161.306 -10.2166 -31.5955
  1106 317.661 -0.311669 0.337970
  1107 317.792 -0.290151 -0.250309
  1108 286.972 -16.3546 -18.8317
  1109 254.149 -28.4916 -40.0283
  1110 77.9282 11.1004 41.8643
  1111 312.116 30.9150 29.0973
  1112 283.575 -2.78191 -0.471052
  1113 283.606 -2.78456 0.498509
  1114 310.226 -20.0416 48.4756
  1115 319.479 64.1327 11.2287
  1116 188.732 -4.62427 -9.49119
  1117 188.778 -4.60167 9.42066
  1118 143.756 16.5334 77.7749
  1119 270.916 1.35795 -25.4043
  1120 84.5755 27.4049 54.1925
  1121 349.581 -6.11953 -15.7101
  1122 342.404 75.9343 3.43758
  1123 235.131 -18.6906 12.2861
  1124 215.815 1.11140 -1.04347
  1125 299.330 -2.57795 6.36645
  1126 310.126 -0.360816 2.48645
  1127 66.5382 0.130388 -12.4194
  1128 67.4849 0.0970449 12.3329
  1129 242.594 4.00317 -12.2148
  1130 250.865 -7.38325 -0.725580
  1131 250.806 -7.34680 0.720673
  1132 26.2364 40.1402 -38.3103
  1133 41.8757 89.0080 -77.2498
  1134 254.121 -9.93719 0.446581
  1135 254.222 -9.93844 -0.459974
  1136 262.710 -6.30219 1.00389
  1137 262.672 -6.28769 -0.980700
  1138 68.4916 43.8198 54.4522
  1139 206.396 -2.60449 -1.76271
  1140 206.419 -2.58512 1.75369
  1141 260.095 19.6160 -0.290697
  1142 334.316 41.2916 -115.768
  1143 318.109 54.9384 -19.2345
  1144 290.381 -11.1245 -26.2798
  1145 286.073 -14.2354 -19.0758
  1146 235.283 -18.8674 -12.4951
  1147 235.852 0.749436 7.54066
  1148 266.085 16.5496 -18.1908
  1149 262.303 14.0641 17.3664
  1150 272.054 -10.7766 -4.49142
  1151 259.459 -15.6968 0.0792094
  1152 235.579 -15.3128 -9.18367
  1153 280.788 -1.63914 13.7924
  1154 498.886 50.4169 7.04708
  1155 282.755 -6.01328 25.1316
  1156 283.504 18.6121 27.3908
  1157 261.876 -25.8089 -6.95257
  1158 31.8532 5.42356 -18.9548
  1159 266.789 -12.3315 -3.27481
  1160 175.498 -0.297269 -0.105474
  1161 175.534 -0.296074 0.104167
  1162 325.679 -8.63653 13.9361
  1163 310.385 -26.1146 10.5501
  1164 446.305 80.1041 19.3765
  1165 104.808 -0.232762 -10.3718
  1166 105.460 -0.209753 10.2911
  1167 237.745 -4.83242 -0.981695
  1168 237.731 -4.80091 0.973738
  1169 267.655 -23.6369 -0.294496
  1170 217.787 0.957537 3.41395
  1171 274.154 -19.5185 6.51833
  1172 15.2276 18.1041 -8.51763
  1173 48.7377 24.4653 32.3299
  1174 183.017 -9.87013 60.4519
  1175 316.802 60.5004 -13.7258
  1176 303.391 -0.821335 -3.90797
  1177 319.034 -0.490626 0.234927
  1178 319.358 -0.677399 -0.152818
  1179 182.903 -0.470090 -0.357425
  1180 182.940 -0.466460 0.354496
  1181 291.937 18.6749 31.1307
  1182 433.442 74.3154 -1.57418
  1183 300.649 49.8062 -13.9018
  1184 225.068 -16.4774 62.1220
  1185 182.040 -9.47685 -60.3397
  1186 202.013 -13.6403 -21.0471
  1187 281.076 -7.79386 6.11200
  1188 392.839 86.3810 2.35446
  1189 202.025 -13.5565 20.8756
  1190 287.355 -4.93863 4.62735
  1191 255.295 9.43032 16.5637
  1192 282.043 8.72354 29.8774
  1193 403.085 90.1206 8.95911
  1194 238.213 -6.25037 1.84195
  1195 238.227 -6.28227 -1.85645
  1196 291.032 -5.39308 9.79242
  1197 170.849 -1.87912 7.02151
  1198 170.727 -1.89847 -7.08811
  1199 284.742 -3.78935 -2.10859
  1200 116.832 69.4186 -106.307
  1201 246.526 -13.8542 -66.5048
  1202 231.576 -7.32055 -3.52268
  1203 231.598 -7.28553 3.52364
  1204 305.961 -1.36903 1.59815
  1205 289.121 -3.69796 3.70511
  1206 15.5388 19.2939 14.0410
  1207 315.139 -0.326397 1.31640
  1208 37.0080 46.5294 46.1681
  1209 282.263 -4.13366 -2.70162
  1210 -0.390761 -6.96818 -6.09573
  1211 198.926 -19.4010 -46.7658
  1212 198.360 -18.9268 46.2896
  1213 315.131 -0.530743 -1.45096
  1214 268.504 -14.1601 -3.87427
  1215 305.720 -1.24085 -1.64834
  1216 243.566 -7.91301 -1.67862
  1217 243.539 -7.88171 1.65668
  1218 284.556 -3.76084 1.98540
  1219 266.595 -12.0918 3.24049
  1220 256.345 -8.24124 -0.231142
  1221 256.439 -8.26610 0.263579
  1222 305.479 -1.27962 -1.34921
  1223 263.183 -27.6553 -45.1845
  1224 298.731 -1.75295 -1.39023
  1225 283.491 -4.25286 2.89190
  1226 196.237 -2.21732 -2.72068
  1227 196.267 -2.19529 2.70346
  1228 219.797 -3.27969 -1.35945
  1229 219.806 -3.25611 1.35197
  1230 358.160 55.7597 19.0522
  1231 300.843 -23.0687 11.9950
  1232 205.974 -0.901643 76.8616
  1233 163.328 -0.297831 2.69417
  1234 163.188 -0.300938 -2.72236
  1235 284.612 -5.22919 18.9243
  1236 272.597 -4.05651 0.620042
  1237 272.611 -4.04189 -0.619641
  1238 311.640 60.8319 6.39981
  1239 286.213 -29.9307 35.5771
  1240 163.870 -2.37369 9.88257
  1241 163.705 -2.39218 -9.95858
  1242 272.147 -6.58761 2.38449
  1243 272.087 -6.63215 -2.31996
  1244 280.927 -7.69490 -5.89627
  1245 257.052 0.0434872 8.88302
  1246 447.457 111.139 -36.2914
  1247 286.022 -10.4214 -16.8458
  1248 48.2566 11.6724 27.6227
  1249 295.561 -15.7121 23.3101
  1250 235.858 5.09267 -6.67885
  1251 17.6640 13.2400 9.77022
  1252 390.748 43.0014 -2.28055
  1253 288.536 -13.0921 -23.4801
  1254 237.016 3.31740 10.2262
  1255 162.457 -10.2321 31.5328
  1256 293.312 -22.6682 14.2316
  1257 427.469 80.6432 24.1597
  1258 97.7004 14.5878 53.3696
  1259 294.900 -3.43085 -8.42518
  1260 571.134 6.34596 -5.78685
  1261 590.519 8.90642 25.8625
  1262 631.162 21.6421 -61.3444
  1263 285.567 -8.87602 -20.8725
  1264 285.667 -12.9986 17.8772
  1265 290.331 -20.6289 16.8096
  1266 -8.56152 0.944215 5.46102
  1267 -7.80417 0.742513 -5.92923
  1268 282.740 -31.2062 -16.2146
  1269 289.825 -29.2571 -24.6334
  1270 219.410 1.36801 -4.21917
  1271 281.608 -31.7781 24.6380
  1272 300.706 -14.2278 -23.6779
  1273 5.59597 8.82378 0.724745
  1274 243.770 -4.45429 0.741410
  1275 243.789 -4.48755 -0.743381
  1276 299.172 -2.32233 5.76025
  1277 287.345 -4.84813 -4.35534
  1278 270.334 -29.5213 -8.33320
  1279 246.463 -13.3975 3.66099
  1280 245.201 -13.2127 -4.03275
  1281 289.845 -6.06838 13.3583
  1282 296.985 -10.8792 -27.0913
  1283 18.3393 13.8051 -9.42065
</Section>

newXOutput 17

<Section columns = "stress_xx | stress_yy | stress_xy">
  1 341.419 -0.0440036 0.678307
  2 341.435 -0.0390774 -0.680507
  3 184.126 -0.0762715 -0.245712
  4 -2.34125 -2.32028 -3.36505
  5 619.179 242.395 196.267
  6 613.351 251.384 -196.483
  7 -2.71772 -2.20930 3.57437
  8 184.087 -0.0769868 0.245000
  9 343.869 -0.558750 0.210752
  10 343.119 -0.889156 -0.161381
  11 342.291 -0.580851 0.791451
  12 341.463 -0.811280 0.237918
  13 339.687 -0.678527 1.24770
  14 338.080 -0.688561 0.920385
  15 334.324 -0.610102 1.78656
  16 328.992 -0.406738 2.62861
  17 324.230 -0.442232 2.91866
  18 317.196 -0.635701 3.52046
  19 307.478 -0.0334535 5.19371
  20 298.499 -0.469362 4.92776
  21 288.322 -0.620096 6.93079
  22 273.616 0.440808 6.02120
  23 263.005 0.652955 7.11045
  24 249.167 1.10801 5.55675
  25 239.607 1.14346 5.59872
  26 225.755 1.61987 2.85230
  27 222.843 2.55368 3.05489
  28 221.096 2.08235 -0.900984
  29 223.496 1.18737 -1.98605
  30 227.910 1.16743 -2.43397
  31 238.285 1.48338 -4.86233
  32 248.359 1.17094 -6.15937
  33 263.174 0.244726 -7.30874
  34 275.034 -0.158002 -6.66783
  35 287.699 -0.494831 -6.56069
  36 299.179 -0.365329 -4.63762
  37 309.067 -0.378029 -3.97306
  38 317.237 -0.620147 -3.34073
  39 324.567 -0.437800 -2.33710
  40 329.162 -0.514857 -2.48420
  41 333.599 -0.643552 -1.81782
  42 337.810 -0.766783 -0.805223
  43 339.974 -0.614273 -0.940973
  44 341.129 -0.368127 -0.591015
  45 340.322 -0.188133 -0.538611
  46 343.479 -0.899426 0.104772
  47 343.980 -0.583110 -0.217450
  48 332.533 -0.216570 -0.419330
  49 324.955 -1.32966 -0.751612
  50 315.715 -1.96787 -0.496653
  51 304.460 -2.94388 -0.678900
  52 293.806 -3.23173 -0.844659
  53 282.443 -4.07397 -0.801843
  54 272.395 -4.54832 -0.447600
  55 263.583 -5.11165 -0.170298
  56 253.421 -4.24856 -0.167504
  57 241.709 -3.98264 -0.268725
  58 230.416 -3.15494 -0.0830479
  59 219.713 -2.02368 -0.0298232
  60 209.534 -1.45018 0.0166895
  61 200.596 -0.754003 0.0941756
  62 191.441 -0.210478 -0.282270
  63 184.240 0.256257 0.346325
  64 181.023 0.734227 0.229824
  65 183.250 0.00186856 0.549488
  66 180.828 -0.105870 0.660727
  67 178.598 -0.154934 0.824614
  68 175.561 -0.0244536 1.07906
  69 171.729 -0.0141530 1.36235
  70 168.921 -0.236607 2.63836
  71 160.782 0.236331 2.88348
  72 155.070 -0.0202289 3.30853
  73 146.563 -0.154353 3.75100
  74 136.755 -0.257857 4.56831
  75 124.499 -0.0614205 5.54665
  76 109.557 0.0671416 6.10846
  77 96.7032 -0.141689 8.72438
  78 71.2189 0.817024 8.21718
  79 53.9199 0.705366 8.70119
  80 33.2470 -0.143640 9.62766
  81 16.1368 1.62159 9.97976
  82 -3.31340 2.40927 5.93151
  83 -17.3835 2.44388 2.03214
  84 -16.7456 2.34037 -0.985225
  85 -15.8091 1.93741 -4.78675
  86 -9.27937 -0.647698 -4.52209
  87 -1.15420 -8.90853 -4.98266
  88 0.848223 -16.4496 -6.26237
  89 2.40165 -26.1269 -3.55235
  90 5.36030 -26.9609 0.101606
  91 11.3810 -7.31681 14.7847
  92 34.1520 50.8036 50.9375
  93 202.747 185.983 175.088
  94 748.624 111.441 125.800
  95 673.495 15.9926 41.1075
  96 625.249 6.59510 12.5795
  97 607.417 5.58079 0.986821
  98 616.791 7.45380 -10.8673
  99 671.821 14.8479 -32.5127
  100 794.532 53.7771 -108.713
  101 120.107 189.635 -146.158
  102 25.5893 34.9211 -42.0105
  103 12.4108 -6.06942 -15.4814
  104 5.00614 -27.0619 -2.47333
  105 1.37801 -19.9551 4.09781
  106 1.76505 -20.7169 5.44377
  107 0.0721024 -7.71498 5.51584
  108 -9.68235 -0.431967 4.29646
  109 -16.3137 1.45392 4.18393
  110 -17.6281 2.84752 1.08245
  111 -17.9519 2.40908 -1.87154
  112 -4.55790 2.46934 -5.54841
  113 15.0314 1.63599 -9.51001
  114 32.1173 0.0273872 -9.46902
  115 52.7570 0.762889 -8.72108
  116 70.1624 0.838955 -8.28219
  117 95.8831 -0.145287 -8.80051
  118 108.854 0.0751958 -6.16983
  119 123.886 -0.0588127 -5.61843
  120 136.438 -0.284920 -4.60439
  121 146.141 -0.147182 -3.76196
  122 154.751 -0.00963685 -3.34427
  123 160.522 0.233298 -2.91669
  124 168.736 -0.238860 -2.66654
  125 171.581 -0.0156158 -1.37973
  126 175.451 -0.0258358 -1.09338
  127 178.515 -0.157211 -0.835991
  128 180.766 -0.107818 -0.668692
  129 183.200 0.000172710 -0.554598
  130 180.980 0.733257 -0.232216
  131 184.200 0.255793 -0.347812
  132 191.401 -0.212433 0.281432
  133 200.557 -0.758889 -0.0960402
  134 209.500 -1.46098 -0.0188800
  135 219.688 -2.03871 0.0277034
  136 230.402 -3.17659 0.0809742
  137 241.708 -4.00991 0.267111
  138 253.434 -4.28001 0.165934
  139 263.607 -5.14666 0.169655
  140 272.427 -4.58313 0.448796
  141 282.488 -4.10565 0.805380
  142 293.842 -3.25372 0.857399
  143 304.486 -2.96353 0.739635
  144 315.770 -1.85633 0.507888
  145 325.185 -1.29290 0.735185
  146 332.585 -0.267963 0.413146
  147 296.885 -27.8847 -2.49883
  148 296.642 -27.5106 2.60527
  149 311.154 44.7467 -15.5502
  150 332.016 19.5871 33.0484
  151 251.426 -24.1462 -54.9761
  152 253.446 -24.1220 53.1871
  153 243.833 -10.4140 6.44002
  154 243.857 -10.5611 -6.44625
  155 352.353 12.6279 -25.4835
  156 296.091 -10.6128 6.92401
  157 295.966 -10.3538 -6.83672
  158 382.762 85.6188 4.18602
  159 302.856 -0.485595 -32.1763
  160 223.732 -17.7008 -24.5773
  161 223.732 -17.5507 24.3547
  162 303.465 -6.85233 29.0968
  163 287.862 20.9750 19.1287
  164 118.573 19.1992 -65.5896
  165 131.601 18.1785 69.1337
  166 372.326 4.13072 3.79546
  167 304.381 -11.6441 -20.3170
  168 403.400 88.6283 -2.32124
  169 273.941 -7.72033 0.191600
  170 273.881 -7.69465 -0.166632
  171 308.188 -3.65861 -3.03521
  172 309.187 -3.27766 2.62637
  173 214.405 -3.13827 -3.86961
  174 214.430 -3.10516 3.84819
  175 331.452 -8.90598 69.8412
  176 278.547 11.5179 -20.5958
  177 181.854 -13.6760 -39.6085
  178 182.400 -13.5753 39.3421
  179 204.167 -6.78395 -12.8944
  180 204.183 -6.70485 12.7945
  181 305.892 -7.99684 17.2640
  182 277.841 -19.1032 -0.289102
  183 276.847 -18.9608 0.743334
  184 316.336 -30.5725 -4.73654
  185 317.963 -29.1254 0.788566
  186 437.456 102.889 -14.4481
  187 317.307 51.0301 14.5533
  188 318.046 19.5404 -33.1208
  189 330.372 -2.99667 -81.2977
  190 315.842 -17.8160 -23.3178
  191 318.539 -12.7076 27.3867
  192 265.346 -30.1452 26.7371
  193 265.425 -29.9351 -26.6514
  194 283.425 3.58463 24.7750
  195 129.164 -3.11239 -48.3865
  196 129.489 -3.39315 48.0831
  197 493.943 74.1054 10.6363
  198 299.066 -17.7976 12.7991
  199 310.302 -5.65006 -11.2790
  200 245.304 -6.04305 -2.89939
  201 245.307 -6.01077 2.88931
  202 297.510 -3.85717 -22.4008
  203 338.979 49.8001 -26.6059
  204 283.001 25.3996 -3.83704
  205 183.620 -6.58637 18.1934
  206 183.335 -6.60843 -18.3341
  207 315.103 -3.43410 6.21044
  208 306.350 5.76136 33.0762
  209 248.791 -18.2083 -11.6735
  210 247.074 -17.2425 11.9746
  211 361.571 53.6205 24.5582
  212 426.110 57.8592 8.62154
  213 28.4700 22.4062 -18.0977
  214 26.3160 20.7133 15.3591
  215 174.955 49.9407 115.997
  216 296.049 -19.6624 -9.91250
  217 316.276 -3.29967 -5.61249
  218 280.157 2.43497 -22.8106
  219 195.806 -2.00010 -5.71342
  220 195.867 -1.97732 5.66116
  221 266.140 -12.5228 -2.20502
  222 266.263 -12.5976 2.05265
  223 300.139 -4.03294 19.0791
  224 346.377 -20.0818 7.10356
  225 343.233 70.3217 -7.74175
  226 269.171 -26.0526 -12.4106
  227 340.964 -5.92366 21.4519
  228 290.276 -4.82342 1.16546
  229 290.281 -4.78242 -1.16365
  230 267.161 -25.9275 12.9211
  231 306.370 -19.4107 19.0260
  232 432.044 55.1629 -26.2521
  233 95.1178 56.6383 -83.7605
  234 258.445 9.02079 4.90322
  235 307.339 27.1064 27.8453
  236 327.917 -2.28266 -29.6417
  237 306.202 -11.0007 -27.2560
  238 162.218 -5.28351 -22.8225
  239 162.789 -5.20271 22.7452
  240 306.745 -3.67093 -14.7900
  241 292.359 -7.35827 3.69217
  242 292.222 -7.34691 -3.57354
  243 60.8537 5.69784 -30.7200
  244 61.8543 4.99625 30.6199
  245 326.185 -28.5166 -24.6319
  246 322.795 -1.08918 0.874309
  247 323.152 -1.11068 -0.944545
  248 300.059 24.8656 -25.4735
  249 263.687 5.02283 14.8963
  250 554.988 88.9002 59.5945
  251 550.515 62.6779 -37.3630
  252 397.500 85.9259 -0.663997
  253 248.037 -11.9135 73.2567
  254 227.534 -7.69198 -76.6477
  255 260.733 -5.35577 -0.962986
  256 260.707 -5.31997 0.955350
  257 215.931 -5.85681 7.83584
  258 215.933 -5.93872 -7.90840
  259 314.616 -3.34517 9.17007
  260 305.145 -21.7084 -15.7288
  261 196.728 -0.395589 -1.32822
  262 196.770 -0.388969 1.31943
  263 301.302 -12.1613 -12.4919
  264 126.911 -4.17661 -31.6229
  265 127.474 -4.19027 31.3890
  266 304.986 -13.1953 21.8912
  267 232.584 -24.6857 44.2040
  268 233.191 -25.1286 -44.0701
  269 262.302 9.99109 -6.93295
  270 226.324 -3.51975 -2.60376
  271 226.342 -3.49503 2.59302
  272 285.518 -0.726678 18.3077
  273 341.564 62.6360 18.4759
  274 182.056 -2.26805 9.71433
  275 181.915 -2.28744 -9.80021
  276 313.462 -26.1470 11.1948
  277 290.179 -32.5271 -29.3577
  278 323.940 -1.50679 2.89901
  279 224.101 -13.3789 -16.7568
  280 223.703 -13.2273 16.6899
  281 399.769 41.1694 102.886
  282 187.548 -15.1181 52.8348
  283 302.833 42.5571 -1.65185
  284 384.005 42.3032 -16.3852
  285 289.194 -22.3772 4.11697
  286 290.376 -33.4210 26.4066
  287 188.133 -14.8674 -53.4450
  288 34.6920 42.7609 38.6824
  289 301.353 -12.2063 12.7198
  290 395.643 51.5836 12.9681
  291 326.557 -1.34421 -2.51333
  292 294.972 10.3024 -29.3192
  293 291.430 -16.4720 6.99552
  294 285.306 -24.1010 0.343869
  295 293.861 13.4749 28.2371
  296 311.944 -26.1591 -10.0433
  297 442.226 86.1683 -7.35649
  298 291.350 -15.8308 -6.69575
  299 241.396 68.9717 -142.250
  300 298.023 -31.5802 -5.32177
  301 295.900 -32.4391 8.72805
  302 216.892 -19.6866 -34.7579
  303 194.953 -0.773198 -2.89730
  304 195.006 -0.759792 2.87314
  305 216.979 -19.7005 34.5642
  306 315.105 -0.521897 -33.3138
  307 340.523 -14.0925 -14.4123
  308 258.788 -15.6469 -6.04942
  309 258.612 -15.6823 6.16410
  310 310.218 -26.6988 47.2157
  311 309.299 -2.45421 11.1991
  312 376.520 1.61530 16.1263
  313 253.430 -8.98734 -3.29971
  314 253.445 -8.95552 3.27945
  315 230.537 -6.06076 -5.11867
  316 230.536 -6.00276 5.11005
  317 260.918 3.47749 -14.4092
  318 336.031 24.6220 -32.0721
  319 520.630 140.236 -66.2980
  320 306.355 -2.63347 -1.02299
  321 306.174 -2.59753 1.04912
  322 163.576 -0.235296 65.9248
  323 229.413 -10.4878 -11.0297
  324 228.969 -10.4498 11.0570
  325 163.547 -0.611620 -65.6738
  326 320.087 37.7945 -27.1813
  327 358.776 17.7242 24.2698
  328 310.245 -22.1422 -52.4865
  329 284.849 -10.9818 3.14458
  330 284.555 -10.8992 -3.01834
  331 304.224 -6.25625 -6.10364
  332 285.728 -0.550010 -17.1243
  333 320.985 1.39490 32.6627
  334 320.514 -2.20664 -6.33122
  335 191.907 -11.7310 26.5290
  336 191.696 -11.7981 -26.7395
  337 298.345 -0.680832 30.5325
  338 183.086 -1.53005 -5.75249
  339 183.204 -1.51557 5.69803
  340 306.449 -7.00028 9.45665
  341 367.458 75.1325 -13.7764
  342 304.064 -6.30547 6.32842
  343 323.712 40.6803 27.2928
  344 309.874 -5.75082 31.7405
  345 244.981 -4.61510 1.04393
  346 244.984 -4.64463 -1.05157
  347 293.036 -1.05506 -27.0855
  348 388.439 81.7184 9.01948
  349 322.538 59.2132 0.570695
  350 197.694 23.0138 -98.1600
  351 19.9726 8.92063 -13.2281
  352 21.9543 9.64838 14.2561
  353 -1.10045 2.21960 6.04461
  354 0.128685 1.21246 -6.30342
  355 568.903 39.4531 13.6032
  356 267.280 -21.7533 -7.15133
  357 306.698 -6.76137 -9.22840
  358 276.497 -4.84580 0.439322
  359 276.465 -4.80570 -0.440855
  360 295.604 32.6518 -13.7912
  361 252.361 -25.7718 21.9886
  362 21.9138 32.5377 -23.8339
  363 252.610 -25.7679 -22.3997
  364 299.510 34.0683 14.6766
  365 305.877 -8.12985 -16.4522
  366 324.615 -18.0924 -19.9675
  367 345.546 73.1010 5.34373
  368 325.387 -20.2932 16.5738
  369 133.659 -3.36791 21.1934
  370 132.844 -3.30316 -21.3345
  371 75.3783 1.87897 -29.3400
  372 76.1991 1.57182 29.2071
  373 265.106 0.843376 14.5814
  374 505.578 147.296 56.6639
  375 316.382 -1.98991 -8.01902
  376 245.823 -20.8410 -16.8092
  377 245.611 -20.7846 16.7858
  378 303.988 -6.99513 -20.7894
  379 346.678 -16.7595 3.03016
  380 267.270 -21.7322 7.37831
  381 380.826 2.58340 -30.5201
  382 214.177 -1.76288 -0.990662
  383 214.207 -1.74743 0.982996
  384 298.852 -1.73289 -13.2479
  385 160.206 -2.34773 -13.8389
  386 160.311 -2.42219 13.6673
  387 357.384 45.6288 -27.2448
  388 192.970 13.6551 91.1373
  389 279.635 -14.6913 1.62316
  390 279.911 -14.6643 -1.63710
  391 328.503 55.6415 -17.3009
  392 311.114 -9.21162 -30.1105
  393 312.238 -31.8887 25.5730
  394 259.817 -6.91906 -1.49075
  395 259.785 -6.88411 1.47444
  396 300.257 -23.1627 10.6606
  397 323.628 -1.52492 4.71145
  398 200.940 -7.40452 -16.1630
  399 201.019 -7.40351 16.0213
  400 304.724 10.2208 -32.6160
  401 287.791 -6.22154 1.76536
  402 287.779 -6.23561 -1.72613
  403 297.564 -3.50332 24.9166
  404 277.040 20.1568 6.60642
  405 308.654 -13.0196 26.3240
  406 446.559 93.5748 16.4275
  407 148.525 -8.00537 -42.3939
  408 148.944 -8.00828 42.0648
  409 66.2326 35.6214 -50.3266
  410 331.243 -0.948795 1.31795
  411 167.013 -1.44435 -8.75381
  412 167.240 -1.41373 8.67657
  413 304.242 -7.92239 20.3734
  414 275.957 -29.9752 14.3174
  415 311.934 -3.83702 4.32478
  416 317.503 16.1260 34.0409
  417 69.4805 37.9287 52.5132
  418 276.377 -29.8095 -13.1409
  419 285.616 -26.5650 -2.28865
  420 92.5061 -1.85911 -26.6207
  421 93.2216 -1.93012 26.4335
  422 219.205 -17.4999 -63.7240
  423 327.992 -4.88612 28.9355
  424 218.353 -17.7685 63.1561
  425 302.940 -17.0012 -17.1331
  426 280.986 18.9250 -14.4874
  427 302.996 -13.0740 16.2532
  428 326.416 -1.43478 -3.19377
  429 9.79693 10.3562 4.41041
  430 65.8436 75.6916 74.5409
  431 291.304 -1.07302 12.7639
  432 243.904 3.31157 6.30603
  433 248.198 4.04415 -8.55929
  434 211.762 -3.54950 -5.52753
  435 211.783 -3.50356 5.48992
  436 298.708 -23.1498 -9.78832
  437 301.671 -5.90392 -27.9083
  438 245.237 4.56242 -2.32524
  439 446.491 106.295 21.4464
  440 61.3171 20.4836 -37.6808
  441 67.6404 18.8016 40.2906
  442 279.378 -9.95670 1.46959
  443 279.270 -9.93130 -1.39389
  444 372.541 82.4839 -1.10237
  445 233.475 95.4807 145.410
  446 358.860 -5.08389 -5.60637
  447 205.430 -10.7838 -21.9296
  448 205.525 -10.7083 21.7391
  449 206.625 -4.66899 8.63856
  450 206.588 -4.70410 -8.71927
  451 279.356 6.17504 -23.4791
  452 332.974 -0.458919 -0.878842
  453 271.458 12.4204 13.1758
  454 343.757 42.4510 29.4299
  455 286.133 -21.2522 -3.02754
  456 311.817 -3.64908 -4.20043
  457 327.777 -1.29717 2.94216
  458 332.025 -0.489478 0.502652
  459 332.301 -0.554424 -0.371748
  460 181.795 -0.338320 2.12393
  461 181.704 -0.343298 -2.14682
  462 313.114 -19.8843 20.7050
  463 282.056 11.1032 22.7370
  464 295.032 1.18847 -29.7723
  465 308.414 -6.47678 12.2458
  466 446.064 74.3129 -86.2959
  467 309.097 -17.1439 -23.0889
  468 2.81583 5.82741 2.28850
  469 2.79661 5.91503 -0.759276
  470 244.541 -13.9095 9.41865
  471 243.715 -13.7256 -9.30784
  472 385.008 6.89875 46.2425
  473 107.440 97.3652 -110.046
  474 304.930 -0.920510 9.93795
  475 346.190 -20.1885 -26.1471
  476 183.684 -10.6311 30.7324
  477 370.609 65.7608 -19.7932
  478 304.646 -16.4823 19.3755
  479 255.495 -12.2520 -4.58074
  480 255.720 -12.0474 4.56650
  481 265.040 1.40498 -12.8783
  482 183.106 -10.5905 -30.9280
  483 271.856 0.108122 12.9542
  484 260.935 -29.8344 -39.4188
  485 260.277 -29.8800 39.5542
  486 314.550 -2.07311 8.84890
  487 285.318 26.8895 2.73135
  488 290.554 4.89112 99.2907
  489 427.042 87.0618 -0.546529
  490 294.835 -4.94032 2.01265
  491 294.853 -4.92207 -2.07954
  492 226.182 -4.05260 -3.48182
  493 226.197 -4.01822 3.46805
  494 119.304 5.56261 55.3211
  495 305.986 -14.7307 -22.5787
  496 277.385 -6.02450 0.339314
  497 277.357 -6.00244 -0.332951
  498 241.475 -25.5975 32.2681
  499 121.626 7.33982 -56.7329
  500 306.474 -24.9698 -11.1969
  501 5.21742 0.986521 2.52406
  502 267.316 13.7737 0.958024
  503 295.932 -3.39093 -0.666279
  504 295.923 -3.43856 0.652036
  505 241.630 -25.5551 -32.5218
  506 346.557 -17.8883 33.5635
  507 343.199 12.4613 29.9904
  508 316.892 -2.11574 -2.09467
  509 305.536 -25.3232 11.3503
  510 190.566 -0.194313 -0.375807
  511 190.607 -0.192544 0.372484
  512 305.025 -11.7069 -24.0500
  513 295.171 21.8380 24.8968
  514 338.973 8.36890 -29.6158
  515 189.415 -0.312272 -1.19351
  516 189.464 -0.307998 1.18501
  517 592.966 85.6397 -76.7057
  518 307.228 36.6067 21.9443
  519 317.174 -1.94474 1.86703
  520 286.255 -27.1490 2.97765
  521 240.295 -7.99151 5.17375
  522 240.295 -8.05363 -5.16324
  523 333.415 -20.2989 9.35844
  524 320.254 -6.39149 -30.4641
  525 357.968 70.6142 16.5360
  526 297.615 5.11382 30.8677
  527 300.418 -5.74579 3.89447
  528 291.991 -31.1405 -37.8878
  529 302.667 -7.48409 23.6716
  530 586.199 26.8637 -10.7486
  531 330.987 -24.9503 -0.982017
  532 314.922 -2.04780 -0.504788
  533 314.997 -2.18204 0.446841
  534 592.284 39.7477 37.7055
  535 290.139 -0.103900 26.2524
  536 407.154 68.2649 -7.44101
  537 305.700 -8.29210 -11.9168
  538 137.311 -1.30701 -9.46760
  539 137.747 -1.24429 9.36965
  540 206.621 -19.3633 -44.2747
  541 206.780 -19.0382 43.9418
  542 300.254 -5.50537 -3.85730
  543 326.697 11.9908 -33.2736
  544 286.988 -19.5360 4.12356
  545 308.597 35.3950 -22.7790
  546 311.149 -3.59639 11.9115
  547 390.399 19.4026 -3.86831
  548 265.954 -9.12876 -1.22413
  549 265.871 -9.09537 1.20725
  550 289.035 -13.6372 5.24215
  551 426.620 84.3539 -5.71010
  552 304.379 13.3144 32.0654
  553 130.023 33.4824 81.8476
  554 294.435 -17.6787 66.2535
  555 389.465 18.5740 -72.9417
  556 311.208 25.7337 -29.8556
  557 276.296 -23.8609 -57.4156
  558 299.199 -32.7801 -11.0570
  559 312.567 -31.6310 -16.3606
  560 40.8171 52.7299 -50.0005
  561 314.156 -3.94379 -7.36510
  562 472.878 92.0211 -26.6257
  563 290.588 -13.0760 -5.82462
  564 293.021 -9.51602 4.80287
  565 292.747 -9.29693 -4.61278
  566 201.467 -1.19034 -2.62682
  567 201.509 -1.17490 2.60856
  568 28.3009 3.01179 -16.0964
  569 29.9094 3.15608 16.4726
  570 149.936 -7.01004 -32.3567
  571 151.092 -7.04757 32.3025
  572 297.032 -16.0839 -10.8837
  573 302.717 -32.9132 11.9865
  574 311.178 -29.5278 2.32857
  575 254.793 -4.51344 -0.923586
  576 254.777 -4.48031 0.918589
  577 241.856 -25.3498 -49.1556
  578 270.962 -22.2034 60.7694
  579 235.964 -23.8353 49.4401
  580 305.502 -6.77988 -30.0047
  581 190.874 -3.22484 9.74381
  582 190.780 -3.25884 -9.82702
  583 291.080 16.0677 -24.9995
  584 291.520 -0.509965 -11.5843
  585 364.350 79.2420 -7.47724
  586 237.671 -3.62616 -0.923039
  587 237.677 -3.60145 0.918455
  588 311.006 -0.915691 -6.54133
  589 214.282 -7.31307 -10.7595
  590 214.284 -7.28646 10.6637
  591 175.262 8.16267 78.3875
  592 302.693 -13.9104 -16.4343
  593 168.602 -8.88351 56.2976
  594 297.455 -15.4017 11.1105
  595 313.282 -4.38930 8.12725
  596 309.405 -2.79116 -1.85903
  597 216.721 -2.72485 -2.43254
  598 216.747 -2.70212 2.41923
  599 349.434 69.8800 -14.8713
  600 168.483 -8.54250 -56.5139
  601 296.469 -12.8173 -8.90827
  602 267.228 -4.96117 -0.436921
  603 267.199 -4.92371 0.435068
  604 502.941 67.7649 -11.9484
  605 176.636 -1.15929 5.38414
  606 176.481 -1.17069 -5.43578
  607 275.982 6.30072 21.4155
  608 395.617 32.9359 -5.28508
  609 186.801 1.35839 -77.8168
  610 95.2463 2.46994 -42.3386
  611 96.0481 1.91803 42.1135
  612 234.184 -13.7508 13.2960
  613 236.652 -14.1559 -12.9045
  614 399.692 80.4946 7.69655
  615 308.122 -2.89463 1.68585
  616 263.848 7.38245 -12.9278
  617 329.321 59.2687 13.6835
  618 328.118 61.5092 -9.09825
  619 269.658 -14.9791 -2.02621
  620 271.727 -14.6379 1.05913
  621 193.526 42.1015 -111.955
  622 231.477 -7.98853 -7.36646
  623 231.495 -7.89603 7.33961
  624 589.541 120.633 90.8059
  625 305.149 -9.98614 25.9367
  626 173.699 -6.21244 -20.7323
  627 475.045 109.434 72.7036
  628 174.107 -6.17698 20.6509
  629 292.076 -11.1766 -77.4361
  630 205.194 -1.04533 -0.968924
  631 205.230 -1.03622 0.963779
  632 254.273 2.25841 11.2749
  633 115.134 -1.73793 -18.6197
  634 115.788 -1.74222 18.4707
  635 266.173 -18.8929 5.44256
  636 279.238 -22.3982 -1.30135
  637 329.584 -0.699350 -2.68401
  638 184.800 -0.312185 1.56338
  639 184.731 -0.317666 -1.58023
  640 250.950 -5.68362 -1.37899
  641 250.939 -5.65070 1.36783
  642 288.430 -31.9811 38.3022
  643 331.216 36.9973 -30.1251
  644 219.946 -10.3490 -13.8746
  645 219.784 -10.1734 13.7719
  646 261.222 -18.8604 -7.69362
  647 411.981 89.8009 2.20167
  648 309.327 -29.9135 -0.613170
  649 268.256 -6.42442 -0.555123
  650 268.215 -6.39158 0.555818
  651 369.502 40.3835 23.0568
  652 309.866 -4.44371 -12.9482
  653 273.451 -0.348352 -10.5528
  654 126.242 -4.30721 -40.6610
  655 126.638 -4.43049 40.3238
  656 260.558 -22.5496 -12.5024
  657 391.089 86.3662 0.198097
  658 302.934 41.0423 -9.88388
  659 200.460 -1.86897 -4.84731
  660 200.505 -1.84280 4.80716
  661 282.828 -7.98046 -1.47588
  662 282.883 -7.99045 1.53752
  663 528.215 69.0151 30.3759
  664 334.769 -0.883131 0.730979
  665 323.226 -1.25667 4.60584
  666 321.934 -1.28426 -5.38896
  667 305.510 -28.4280 5.05822
  668 224.241 -2.65058 -1.21581
  669 224.261 -2.63122 1.21009
  670 326.135 52.3383 21.0543
  671 418.991 93.1965 -5.11883
  672 228.743 -17.0992 -19.6594
  673 228.673 -16.9290 19.5575
  674 286.590 -29.5470 -5.71898
  675 302.089 17.9500 -30.1747
  676 359.285 0.904010 13.2868
  677 237.805 -4.46505 -2.39676
  678 237.811 -4.43547 2.38635
  679 205.708 -18.0848 -39.9791
  680 302.607 -29.2573 -2.24765
  681 251.311 -27.8798 35.5443
  682 120.023 37.9736 -78.9583
  683 234.504 -21.7944 27.4135
  684 282.811 0.0753358 9.75642
  685 205.896 -17.8783 39.7063
  686 296.295 -13.0681 9.01821
  687 234.587 -21.7045 -27.6687
  688 239.768 3.09620 2.36409
  689 185.366 -5.05002 14.7270
  690 185.199 -5.05617 -14.8335
  691 251.458 -28.6033 -35.9429
  692 311.020 -20.4740 -20.0202
  693 285.162 -3.96872 -0.381574
  694 285.208 -4.01099 0.383321
  695 317.910 -20.2299 19.8529
  696 288.814 -30.1902 6.86172
  697 351.054 32.1944 29.2366
  698 316.613 -5.91797 31.3625
  699 304.657 -10.9115 19.1406
  700 290.711 23.8880 -18.9632
  701 350.072 58.9311 23.1184
  702 302.130 -4.17021 -18.5312
  703 301.239 -9.95811 9.90485
  704 311.097 48.7581 5.34413
  705 306.416 -5.17737 16.1593
  706 96.3171 65.4424 82.7410
  707 285.235 -32.7999 -21.9860
  708 330.273 6.01404 31.9057
  709 333.553 -10.3111 -22.7998
  710 333.141 -0.421041 1.49078
  711 304.480 -10.4342 -15.0962
  712 285.640 -33.0588 19.9475
  713 554.226 49.0703 -8.22334
  714 169.378 -0.744189 5.63637
  715 169.172 -0.752444 -5.69087
  716 308.942 -5.57434 -7.06990
  717 335.145 -0.318686 -1.45132
  718 260.073 -22.9131 12.5694
  719 312.572 -11.6137 28.4995
  720 475.802 113.176 -34.3367
  721 296.264 -21.4731 9.24906
  722 328.651 -21.6219 -11.8797
  723 301.354 -9.68901 -9.74719
  724 335.050 -0.557378 -0.477615
  725 304.975 -0.0236117 32.5736
  726 13.9871 12.5676 17.4509
  727 344.761 -13.3279 -50.1800
  728 374.957 22.1522 14.6189
  729 312.218 -31.8821 14.5531
  730 221.912 -5.39271 6.03938
  731 221.914 -5.46867 -6.06987
  732 291.951 146.718 -152.750
  733 318.056 -21.0181 -18.3679
  734 238.820 1.22063 -4.51882
  735 278.945 1.52816 20.8928
  736 306.722 -15.3294 22.9556
  737 293.998 -24.7759 4.74569
  738 305.938 -27.8682 -41.1558
  739 292.177 -23.1200 -5.27662
  740 345.510 -16.5512 -4.21095
  741 318.159 -2.55862 4.13720
  742 283.678 -17.0559 2.83745
  743 516.326 103.238 -54.9057
  744 302.719 -8.06317 7.86882
  745 299.223 4.88887 -31.7018
  746 255.783 -2.88720 87.1238
  747 320.677 25.8339 32.3979
  748 275.823 -21.7525 2.74426
  749 212.666 -16.8301 -29.1937
  750 212.682 -16.7823 28.9517
  751 292.982 32.9424 -4.42037
  752 298.252 -3.44683 28.3167
  753 301.569 -7.16735 -24.1773
  754 284.002 -17.4032 -2.93065
  755 274.547 -24.6458 6.88098
  756 313.506 51.7853 -6.04228
  757 293.634 -25.4135 -3.58686
  758 294.353 -18.6259 8.98627
  759 298.365 -3.78563 1.40628
  760 298.551 -3.68142 -1.39720
  761 401.422 88.2695 2.22437
  762 328.428 -27.9153 -9.47324
  763 305.410 -9.32150 15.0280
  764 318.290 -2.54949 -3.76940
  765 321.346 2.14281 -32.9739
  766 366.152 19.1938 -19.5658
  767 178.484 -0.184052 -2.62715
  768 178.601 -0.181437 2.60003
  769 2.54998 -5.64581 -4.00196
  770 311.767 -0.353099 6.05895
  771 285.415 -0.481570 -23.1217
  772 294.982 -2.76036 20.4064
  773 269.794 33.1932 127.969
  774 335.804 69.1617 -0.732491
  775 238.580 -17.1604 15.2861
  776 41.2615 0.948142 -15.9297
  777 42.4855 0.699709 16.1010
  778 292.319 -2.08484 -23.0111
  779 239.237 -17.3332 -15.2813
  780 316.407 -2.80648 3.15260
  781 160.969 -6.92417 27.6196
  782 159.578 -6.90049 -27.6356
  783 302.703 -7.82719 -7.66516
  784 192.570 -4.92559 -12.8126
  785 192.667 -4.89264 12.6964
  786 315.313 -2.94038 -8.96334
  787 240.197 -6.46774 -4.13167
  788 240.203 -6.42459 4.13294
  789 344.343 -2.18955 -22.8573
  790 309.614 -3.23691 -32.7040
  791 156.624 -1.02037 -7.19276
  792 156.933 -1.01089 7.10789
  793 7.44336 3.94559 -9.61466
  794 8.84853 4.16164 10.1190
  795 250.301 1.19116 -8.19219
  796 282.843 -31.7828 -16.3113
  797 -3.26790 -2.26533 5.62643
  798 -2.86086 -2.66556 -5.58518
  799 294.431 -5.86613 3.00351
  800 319.372 -24.9020 -10.5667
  801 329.484 48.8663 -24.5779
  802 317.785 -2.51999 -2.99485
  803 681.024 136.935 -127.928
  804 294.370 -5.84642 -2.96474
  805 443.405 84.6601 6.76054
  806 314.928 9.16976 -34.0941
  807 348.088 26.2511 -29.9143
  808 57.7480 -0.681501 -14.7364
  809 58.8378 -0.768305 14.7092
  810 195.735 -2.87043 7.57920
  811 195.666 -2.89469 -7.64843
  812 186.647 -0.457078 1.41596
  813 186.591 -0.461825 -1.42769
  814 351.856 59.2779 -22.9301
  815 207.302 -1.32753 -2.08453
  816 207.338 -1.31217 2.07240
  817 299.176 -3.01250 -29.5535
  818 432.925 43.9113 36.5697
  819 268.879 5.97611 -18.0047
  820 92.5224 -0.838533 15.8112
  821 91.7218 -0.846225 -15.9377
  822 348.895 9.26916 91.6996
  823 308.622 -5.62050 7.29707
  824 275.338 18.2432 -7.50184
  825 126.661 -0.212098 10.7909
  826 126.001 -0.152764 -10.8721
  827 190.724 -1.00048 -3.70933
  828 190.793 -0.986097 3.67410
  829 34.1027 30.4089 26.0711
  830 287.275 6.83081 26.7829
  831 319.860 47.0388 -21.0490
  832 344.413 39.9866 -29.7059
  833 225.797 -8.60638 -9.69057
  834 225.663 -8.54064 9.67603
  835 356.618 76.0248 10.4337
  836 308.109 -2.51039 -0.399523
  837 308.126 -2.49139 0.451803
  838 304.699 -9.11019 -19.2934
  839 254.977 -17.0493 8.79688
  840 281.097 -31.5925 16.4015
  841 330.675 -27.0963 25.5835
  842 252.665 -7.36352 -2.38274
  843 252.661 -7.33475 2.36568
  844 288.972 26.7700 12.1744
  845 271.395 3.68296 -19.4508
  846 75.4650 88.5997 86.1290
  847 275.411 -24.4461 -6.20103
  848 276.308 -12.3555 0.755957
  849 276.457 -12.3790 -0.770625
  850 303.984 -4.46961 31.0832
  851 301.564 -19.8022 -14.3781
  852 269.144 -17.8606 -3.35448
  853 615.952 19.9476 -30.5668
  854 255.813 -24.2596 17.3347
  855 255.611 -24.5767 -17.6192
  856 303.703 -3.61672 15.7668
  857 457.753 118.102 -25.9095
  858 239.942 -21.8707 -21.7526
  859 265.282 -29.9005 20.5877
  860 239.873 -21.6054 21.5573
  861 260.190 -10.5058 -2.71102
  862 260.181 -10.4690 2.69035
  863 38.2985 16.3834 22.6759
  864 326.439 24.3967 -32.8143
  865 249.602 -9.78734 -4.44779
  866 249.646 -9.68735 4.46417
  867 246.453 -4.10225 -0.535988
  868 246.448 -4.07332 0.532257
  869 271.313 -5.38381 -0.000870090
  870 271.279 -5.34753 -0.000843504
  871 220.099 -4.36624 -5.22979
  872 220.115 -4.31678 5.20697
  873 250.570 -13.2430 -6.76305
  874 250.600 -13.1507 6.79227
  875 6.00572 -2.38930 -2.75831
  876 378.352 70.9821 17.1813
  877 325.470 -11.3986 -26.3280
  878 265.069 -29.4681 -20.8106
  879 286.400 -9.20791 2.81745
  880 286.272 -9.11147 -2.73677
  881 312.260 0.398654 33.4089
  882 339.834 -24.2488 -13.9512
  883 300.879 21.2102 -110.966
  884 136.348 -2.17768 54.7210
  885 -5.25888 3.18080 -3.67170
  886 -4.58102 3.58891 4.07582
  887 38.0367 17.4248 -23.1466
  888 305.305 -8.73960 11.8496
  889 321.406 -2.06280 -4.99686
  890 288.965 -27.7750 47.3485
  891 136.021 -2.03052 -54.9422
  892 322.027 -26.3350 7.47549
  893 358.861 -10.6800 41.0465
  894 259.522 1.04134 8.68596
  895 297.913 28.3360 20.7439
  896 160.928 -9.09351 40.2869
  897 160.300 -9.16723 -40.5586
  898 193.096 -9.26269 -22.5814
  899 203.180 -9.91163 -69.8267
  900 322.054 -7.51709 29.5484
  901 442.820 103.869 15.5236
  902 323.280 12.4415 33.4626
  903 305.588 -6.49526 -17.5944
  904 207.477 -8.88061 71.5656
  905 389.764 71.8026 -12.7228
  906 38.4456 32.7703 -32.1668
  907 282.023 -0.573169 -9.30652
  908 193.299 -9.18558 22.3769
  909 235.925 -5.24318 3.64789
  910 235.919 -5.27994 -3.65649
  911 302.006 -19.6970 14.8439
  912 313.794 -1.94470 1.20928
  913 230.647 2.14651 -86.8335
  914 330.936 -0.711126 2.36624
  915 328.416 -0.581857 -3.01781
  916 244.546 2.10550 -7.53088
  917 317.247 -1.28256 -5.37294
  918 236.738 -11.1451 -8.91387
  919 236.897 -10.9765 8.94053
  920 -7.84827 2.87615 -4.52455
  921 -10.7979 1.73434 4.77746
  922 313.787 -1.80300 -1.22570
  923 103.287 -2.32842 36.9175
  924 102.656 -2.10420 -37.1309
  925 334.927 48.8969 25.9585
  926 601.463 10.8571 9.46983
  927 315.165 35.0707 27.2418
  928 357.554 -12.6353 11.2884
  929 310.471 -17.2646 23.1436
  930 386.646 81.0685 -9.68363
  931 239.249 0.996919 5.67583
  932 298.760 -6.98436 -4.77463
  933 310.217 16.6799 -32.9594
  934 375.387 11.0137 -6.61846
  935 291.145 -17.9766 -7.08383
  936 147.958 -0.841643 -8.05547
  937 148.116 -0.811918 7.94022
  938 307.288 -7.18206 -13.8048
  939 10.1363 12.8988 2.53403
  940 294.954 -30.5745 -2.77553
  941 254.929 7.50124 -0.776976
  942 383.944 84.4847 -6.43179
  943 60.4710 45.0065 -53.5140
  944 295.003 -2.19494 -18.2857
  945 203.950 -3.45886 -7.07376
  946 203.989 -3.41776 7.01245
  947 1.73794 -8.44542 6.44133
  948 200.099 -14.9610 -32.4068
  949 300.438 -17.3483 -13.9491
  950 185.961 0.398700 -0.585424
  951 186.005 0.400668 0.581307
  952 303.139 36.7959 -16.6207
  953 325.733 -0.922527 -0.478630
  954 325.741 -0.936133 0.626477
  955 200.186 -14.9188 32.1834
  956 303.981 -0.405795 -7.23250
  957 350.045 2.51819 22.0496
  958 310.496 -4.33324 5.64515
  959 49.2480 12.5940 -28.7046
  960 322.070 -1.91201 4.53056
  961 291.694 2.33592 28.6838
  962 307.644 42.6400 14.7863
  963 307.957 3.56936 -33.7226
  964 211.753 -11.4305 -19.3565
  965 332.616 -11.7663 22.0113
  966 211.890 -11.3851 19.1576
  967 9.65227 10.5567 -0.812152
  968 36.0713 6.27482 21.0283
  969 172.487 -3.09268 13.3182
  970 172.273 -3.09586 -13.3959
  971 298.969 -7.11959 5.02766
  972 321.173 55.9235 8.19098
  973 163.386 15.0231 -82.1753
  974 268.630 -16.8056 2.90434
  975 252.135 -26.4003 -26.1733
  976 367.817 70.5331 17.8302
  977 282.875 -4.96604 0.459280
  978 282.864 -4.93798 -0.461056
  979 310.101 -5.69228 -9.92599
  980 286.252 24.6945 -11.2317
  981 650.749 192.572 129.942
  982 59.2871 3.38328 -27.7362
  983 60.2340 2.81291 27.8000
  984 4.40721 -5.82021 1.38317
  985 287.152 15.8904 23.0542
  986 252.059 -26.5592 25.9770
  987 312.613 -14.7518 -26.3113
  988 340.159 27.8072 32.3892
  989 327.214 -26.4218 -31.5229
  990 478.109 100.652 33.1564
  991 277.659 -4.46823 -0.110876
  992 277.623 -4.43019 0.111177
  993 325.184 -13.2390 24.9747
  994 22.4041 36.7298 38.5440
  995 145.575 -3.09352 19.0850
  996 145.113 -3.05402 -19.2935
  997 174.105 -8.58630 26.0758
  998 173.501 -8.45645 -26.1771
  999 196.214 -8.16178 18.7110
  1000 214.503 -1.74055 -0.946617
  1001 214.533 -1.72741 0.942600
  1002 538.152 170.796 -108.707
  1003 486.908 121.980 49.8488
  1004 196.055 -8.20446 -18.8720
  1005 334.963 -1.53244 27.5439
  1006 299.338 31.0618 -19.9781
  1007 211.478 -18.1649 57.8832
  1008 271.903 -32.1176 -31.0426
  1009 310.809 -2.53060 -10.6057
  1010 139.862 9.67808 66.8522
  1011 179.510 -13.7233 46.2563
  1012 274.321 14.0328 -14.4334
  1013 314.246 -6.21220 -31.7138
  1014 401.953 162.569 174.472
  1015 258.949 7.89299 10.2707
  1016 353.078 76.2027 -1.25600
  1017 259.687 10.1509 -98.6974
  1018 263.839 -27.8064 -17.7381
  1019 335.449 -0.334530 -1.18521
  1020 321.400 29.5292 -31.5582
  1021 187.602 -1.24117 4.77589
  1022 187.514 -1.25383 -4.82206
  1023 6.84441 3.30313 -9.75168
  1024 211.888 -9.75174 -16.1309
  1025 179.293 -13.9010 -46.6107
  1026 211.722 -9.72882 15.9493
  1027 307.150 -9.33562 29.3271
  1028 275.502 -17.0491 -0.411505
  1029 289.219 5.30350 -27.7827
  1030 297.574 37.1790 5.83148
  1031 404.531 24.2382 14.0687
  1032 304.356 -23.1073 14.1621
  1033 191.983 -15.4053 -35.4607
  1034 286.727 10.1251 -25.9970
  1035 213.334 -17.9198 -58.1950
  1036 410.178 89.1648 -1.55428
  1037 278.593 18.2659 13.1305
  1038 352.757 -2.09630 -16.9734
  1039 265.483 -27.8160 16.2992
  1040 304.325 -9.62329 22.6888
  1041 302.387 -15.9432 16.3698
  1042 300.729 -15.1027 14.1963
  1043 371.525 47.1473 -23.6818
  1044 300.226 -4.82910 23.0075
  1045 271.450 -32.2076 30.5335
  1046 289.756 -11.8256 4.74839
  1047 192.103 -15.4335 35.2579
  1048 271.977 -20.0777 -3.56893
  1049 157.770 -7.64996 -49.4733
  1050 225.411 -23.4285 39.2227
  1051 305.829 -2.05616 -12.3053
  1052 297.775 -3.35547 -26.1378
  1053 257.888 -20.4555 -10.7778
  1054 158.043 -7.87394 49.0795
  1055 277.462 0.659886 -18.1601
  1056 206.295 -13.7651 -25.0836
  1057 374.445 79.8217 11.2726
  1058 83.1317 13.8708 -46.9088
  1059 642.180 45.3904 61.9615
  1060 149.806 11.2522 -70.0108
  1061 300.678 -24.8994 -8.77032
  1062 206.348 -13.6460 24.8745
  1063 274.471 2.88076 20.3006
  1064 153.480 -3.14569 15.7979
  1065 153.396 -3.22374 -15.9609
  1066 304.296 -8.45339 -27.1787
  1067 324.036 -1.58264 1.86131
  1068 317.491 -0.695876 5.43172
  1069 313.834 10.4249 34.0113
  1070 293.464 -2.20953 24.5461
  1071 227.783 24.2258 106.770
  1072 337.627 -0.238712 0.576362
  1073 315.834 42.8321 21.6858
  1074 267.004 3.84187 17.4833
  1075 321.592 -1.20540 5.22033
  1076 205.877 -2.25419 -3.94966
  1077 205.913 -2.22834 3.92306
  1078 130.815 -3.73741 -26.3407
  1079 131.340 -3.87175 26.1567
  1080 267.853 13.3246 7.33505
  1081 405.945 21.5371 -29.1539
  1082 372.981 -0.590771 -55.9278
  1083 296.535 -0.257240 -7.49644
  1084 225.501 -23.6047 -39.5225
  1085 258.429 -19.4546 9.61448
  1086 298.274 -0.677951 7.82423
  1087 312.571 -22.6561 -16.6734
  1088 194.125 -0.466937 2.36197
  1089 194.077 -0.475074 -2.37718
  1090 300.102 -25.6125 8.76559
  1091 285.177 -5.79955 0.940683
  1092 285.129 -5.80490 -0.921657
  1093 277.451 -27.9696 10.1899
  1094 358.150 -11.6034 -3.41038
  1095 160.834 -0.293149 -4.47889
  1096 161.101 -0.282929 4.43040
  1097 243.616 -15.3584 -66.6741
  1098 258.845 -6.18691 1.26650
  1099 258.871 -6.22244 -1.27860
  1100 156.798 83.9685 117.303
  1101 359.432 29.4424 -26.6742
  1102 52.5751 25.7303 -35.3519
  1103 310.681 -4.57481 -5.45591
  1104 82.5667 28.4585 -53.7855
  1105 171.993 -10.8741 -33.6848
  1106 337.755 -0.342135 0.355228
  1107 337.892 -0.319254 -0.262557
  1108 305.425 -17.4150 -19.8365
  1109 270.480 -30.3331 -42.7485
  1110 83.1788 11.8074 44.6999
  1111 332.214 32.8981 30.7417
  1112 301.735 -2.98460 -0.489779
  1113 301.768 -2.98728 0.518773
  1114 329.926 -21.2895 51.7891
  1115 340.114 68.2273 11.8506
  1116 201.245 -4.91027 -10.1353
  1117 201.295 -4.88651 10.0610
  1118 153.152 17.5832 82.9355
  1119 288.516 1.45198 -26.8930
  1120 90.2135 29.1840 57.8553
  1121 371.733 -6.46058 -17.0024
  1122 364.467 80.7516 3.61314
  1123 250.401 -19.8810 13.1792
  1124 230.216 1.19634 -1.10631
  1125 318.467 -2.75745 6.70080
  1126 329.875 -0.392812 2.61556
  1127 71.2276 0.136420 -13.2450
  1128 72.2292 0.101091 13.1534
  1129 258.561 4.28222 -12.9450
  1130 267.107 -7.86060 -0.836092
  1131 267.045 -7.82235 0.830738
  1132 27.9889 43.2220 -40.9939
  1133 44.6142 95.4213 -82.4518
  1134 270.556 -10.5774 0.561953
  1135 270.663 -10.5782 -0.576478
  1136 279.655 -6.71804 1.00835
  1137 279.615 -6.70294 -0.983993
  1138 73.0587 46.7187 58.1601
  1139 220.010 -2.76307 -1.89070
  1140 220.034 -2.74266 1.88121
  1141 277.100 20.9109 -0.307031
  1142 355.278 44.1876 -123.328
  1143 338.633 58.4575 -20.3022
  1144 309.069 -11.8480 -27.7497
  1145 304.474 -15.1605 -20.1071
  1146 250.560 -20.0683 -13.4020
  1147 251.436 0.805107 7.99137
  1148 283.435 17.6396 -19.2681
  1149 279.428 14.9942 18.3982
  1150 289.565 -11.4793 -4.66257
  1151 276.213 -16.7043 0.207926
  1152 250.888 -16.2853 -9.86730
  1153 298.938 -1.74857 14.5816
  1154 530.197 53.5643 7.48204
  1155 301.013 -6.40621 26.5675
  1156 301.878 19.8182 28.9929
  1157 278.756 -27.4628 -7.55423
  1158 34.1257 5.77035 -20.2749
  1159 283.985 -13.1297 -3.36583
  1160 187.316 -0.311545 -0.113991
  1161 187.356 -0.310281 0.112621
  1162 346.462 -9.18941 14.5513
  1163 330.182 -27.7861 11.4621
  1164 474.611 85.1332 20.6716
  1165 112.008 -0.244267 -11.0538
  1166 112.698 -0.219771 10.9686
  1167 253.211 -5.14346 -1.07091
  1168 253.198 -5.11027 1.06246
  1169 284.896 -25.1536 -0.474288
  1170 232.308 1.02901 3.62031
  1171 291.800 -20.7756 6.76780
  1172 16.2930 19.3687 -9.20054
  1173 52.0484 26.0777 34.5783
  1174 194.933 -10.5343 64.4579
  1175 337.267 64.3690 -14.4897
  1176 322.786 -0.879251 -4.12152
  1177 339.207 -0.527416 0.244609
  1178 339.547 -0.725700 -0.157899
  1179 195.145 -0.493067 -0.383565
  1180 195.186 -0.489241 0.380488
  1181 310.805 19.8781 32.9377
  1182 460.976 78.9676 -1.67396
  1183 320.117 53.0058 -14.6982
  1184 239.578 -17.5587 66.2447
  1185 193.893 -10.1175 -64.3375
  1186 215.260 -14.5062 -22.4658
  1187 299.123 -8.31084 6.39539
  1188 417.880 91.9321 2.80700
  1189 215.275 -14.4176 22.2844
  1190 305.760 -5.27668 4.84131
  1191 272.005 10.0621 17.5506
  1192 300.310 9.29143 31.6225
  1193 428.794 95.8438 9.75069
  1194 253.706 -6.65061 2.00607
  1195 253.720 -6.68413 -2.02144
  1196 309.690 -5.75747 10.3059
  1197 182.284 -1.99275 7.49262
  1198 182.154 -2.01320 -7.56288
  1199 302.978 -4.05484 -2.19301
  1200 124.433 73.9866 -113.327
  1201 262.329 -14.7527 -70.9220
  1202 246.670 -7.78448 -3.80598
  1203 246.693 -7.74766 3.80709
  1204 325.413 -1.47477 1.67335
  1205 307.623 -3.95777 3.87478
  1206 16.6118 20.6903 15.0960
  1207 335.137 -0.354251 1.38081
  1208 39.4953 49.7556 49.3693
  1209 300.359 -4.42083 -2.81264
  1210 -0.405143 -7.40082 -6.47675
  1211 211.870 -20.6659 -49.8749
  1212 211.271 -20.1616 49.3693
  1213 335.129 -0.570839 -1.52324
  1214 285.804 -15.0742 -3.99175
  1215 325.163 -1.33882 -1.72297
  1216 259.374 -8.42048 -1.85189
  1217 259.345 -8.38769 1.82858
  1218 302.781 -4.02475 2.06367
  1219 283.779 -12.8741 3.33058
  1220 272.914 -8.77679 -0.169494
  1221 273.013 -8.80272 0.203643
  1222 324.901 -1.38049 -1.40937
  1223 280.050 -29.4409 -48.2417
  1224 317.767 -1.88845 -1.44914
  1225 301.661 -4.54733 3.01423
  1226 209.246 -2.34918 -2.91463
  1227 209.279 -2.32592 2.89651
  1228 234.202 -3.48477 -1.46554
  1229 234.212 -3.45995 1.45765
  1230 381.048 59.3478 19.9634
  1231 320.107 -24.5590 12.5283
  1232 219.263 -0.975068 81.9388
  1233 174.337 -0.312762 2.87539
  1234 174.188 -0.316046 -2.90513
  1235 302.961 -5.57339 19.9935
  1236 290.120 -4.33658 0.631109
  1237 290.134 -4.32117 -0.630705
  1238 331.797 64.7230 6.76021
  1239 304.500 -31.8520 38.0444
  1240 174.848 -2.51949 10.5380
  1241 174.671 -2.53899 -10.6181
  1242 289.653 -7.02588 2.46238
  1243 289.589 -7.07360 -2.39431
  1244 298.964 -8.20623 -6.16763
  1245 273.867 0.0484550 9.40506
  1246 475.819 118.198 -38.7924
  1247 304.416 -11.1030 -17.7598
  1248 51.5760 12.4278 29.5316
  1249 314.545 -16.7321 24.5724
  1250 251.433 5.44610 -7.07900
  1251 18.9325 14.1227 10.5068
  1252 415.465 45.8656 -2.80806
  1253 307.101 -13.9427 -24.7774
  1254 252.659 3.55055 10.8400
  1255 173.216 -10.8910 33.6202
  1256 312.130 -24.1324 14.9213
  1257 454.419 86.0190 26.1565
  1258 104.202 15.5174 56.9623
  1259 313.784 -3.66921 -8.86955
  1260 606.468 6.74776 -6.13437
  1261 626.951 9.44769 27.3994
  1262 669.947 22.9306 -65.0204
  1263 303.957 -9.45748 -22.0363
  1264 304.038 -13.8447 18.8401
  1265 308.975 -21.9632 17.6691
  1266 -9.10558 1.01366 5.80073
  1267 -8.29712 0.800114 -6.30161
  1268 300.856 -33.2155 -17.4460
  1269 308.349 -31.1382 -26.4131
  1270 234.025 1.46671 -4.47328
  1271 299.641 -33.8217 26.4051
  1272 320.004 -15.1507 -24.9538
  1273 6.03675 9.42703 0.847980
  1274 259.595 -4.74527 0.795668
  1275 259.615 -4.78034 -0.797781
  1276 318.288 -2.48934 6.05668
  1277 305.747 -5.18062 -4.55462
  1278 287.719 -31.4180 -9.04142
  1279 262.436 -14.2524 3.99431
  1280 261.098 -14.0551 -4.38638
  1281 308.461 -6.47262 14.0852
  1282 316.072 -11.5874 -28.5944
  1283 19.6540 14.7252 -10.1420
</Section>

newXOutput 18

<Section columns = "stress_xx | stress_yy | stress_xy">
  1 361.573 -0.0550441 0.713770
  2 361.588 -0.0496442 -0.716034
  3 195.786 -0.0780083 -0.258479
  4 -2.48591 -2.46270 -3.57320
  5 654.071 257.220 207.787
  6 647.934 266.706 -207.883
  7 -2.88596 -2.34399 3.79670
  8 195.744 -0.0787598 0.257742
  9 364.149 -0.595623 0.220400
  10 363.365 -0.946115 -0.174135
  11 362.505 -0.621770 0.829486
  12 361.643 -0.864993 0.243621
  13 359.794 -0.724789 1.30737
  14 358.119 -0.734687 0.960873
  15 354.191 -0.650569 1.87378
  16 348.601 -0.439028 2.75842
  17 343.611 -0.474247 3.06595
  18 336.229 -0.676308 3.70156
  19 326.015 -0.0402496 5.46550
  20 316.578 -0.499166 5.18953
  21 305.863 -0.656352 7.30414
  22 290.382 0.465971 6.34948
  23 279.199 0.694373 7.50147
  24 264.612 1.17571 5.86539
  25 254.529 1.21952 5.91116
  26 239.920 1.72174 3.01243
  27 236.847 2.71328 3.22743
  28 235.000 2.21585 -0.952272
  29 237.533 1.26930 -2.09728
  30 242.191 1.24378 -2.57085
  31 253.133 1.57718 -5.13446
  32 263.759 1.24518 -6.50108
  33 279.374 0.264674 -7.71218
  34 291.870 -0.164797 -7.03116
  35 305.206 -0.523309 -6.91385
  36 317.288 -0.388863 -4.88467
  37 327.686 -0.403848 -4.18164
  38 336.268 -0.660246 -3.51320
  39 343.963 -0.467978 -2.45369
  40 348.777 -0.552293 -2.60630
  41 353.427 -0.686947 -1.90630
  42 357.833 -0.817215 -0.839715
  43 360.095 -0.655718 -0.984491
  44 361.294 -0.396319 -0.616391
  45 360.434 -0.207882 -0.561950
  46 363.742 -0.955947 0.114352
  47 364.264 -0.621135 -0.227372
  48 352.229 -0.245060 -0.441387
  49 344.258 -1.42933 -0.794205
  50 334.531 -2.11016 -0.520337
  51 322.677 -3.14552 -0.712458
  52 311.447 -3.44931 -0.884312
  53 299.468 -4.33659 -0.840315
  54 288.869 -4.83473 -0.465883
  55 279.575 -5.42429 -0.173229
  56 268.853 -4.50597 -0.169526
  57 256.496 -4.21922 -0.277843
  58 244.583 -3.33803 -0.0815192
  59 233.294 -2.13675 -0.0268268
  60 222.559 -1.52809 0.0214245
  61 213.137 -0.790495 0.102347
  62 203.491 -0.217646 -0.296538
  63 195.904 0.273189 0.368685
  64 192.510 0.776466 0.246397
  65 194.845 0.00376057 0.586004
  66 192.278 -0.109585 0.705453
  67 189.907 -0.161396 0.880141
  68 186.683 -0.0234303 1.14991
  69 182.616 -0.0134160 1.45052
  70 179.624 -0.246983 2.80368
  71 170.997 0.251048 3.06309
  72 164.936 -0.0200049 3.51160
  73 155.909 -0.161707 3.98205
  74 145.506 -0.271095 4.84870
  75 132.505 -0.0634970 5.88716
  76 116.654 0.0720606 6.48554
  77 103.002 -0.147565 9.26414
  78 75.9646 0.865355 8.73018
  79 57.5904 0.746840 9.24498
  80 35.6131 -0.155873 10.2359
  81 17.4040 1.71673 10.6192
  82 -3.30507 2.55524 6.32928
  83 -18.3099 2.59311 2.18991
  84 -17.6933 2.48835 -1.01205
  85 -16.7582 2.06218 -5.06476
  86 -9.84258 -0.681190 -4.79311
  87 -1.21868 -9.44908 -5.28352
  88 0.908888 -17.4351 -6.63030
  89 2.55923 -27.6386 -3.73215
  90 5.70379 -28.4189 0.174619
  91 12.0985 -7.36547 15.8013
  92 36.2402 54.5336 54.1935
  93 214.390 197.894 185.493
  94 791.065 117.879 132.787
  95 711.966 16.9064 43.3482
  96 661.228 6.98147 13.2652
  97 642.480 5.91289 1.03721
  98 652.354 7.89057 -11.4664
  99 710.236 15.7077 -34.2888
  100 839.218 56.8780 -114.652
  101 127.091 201.950 -154.928
  102 27.1499 37.8197 -44.7426
  103 13.1973 -6.03927 -16.5801
  104 5.32908 -28.5016 -2.70903
  105 1.47702 -21.0896 4.30079
  106 1.88382 -21.9631 5.75998
  107 0.0803754 -8.17893 5.84952
  108 -10.2711 -0.450842 4.55206
  109 -17.2925 1.54764 4.42487
  110 -18.6274 3.02683 1.11421
  111 -18.9067 2.55535 -2.02000
  112 -4.61812 2.61890 -5.92274
  113 16.2395 1.73190 -10.1206
  114 34.4234 0.0255206 -10.0673
  115 56.3651 0.807678 -9.26576
  116 74.8514 0.888474 -8.79873
  117 102.137 -0.151389 -9.34435
  118 115.914 0.0805861 -6.55020
  119 131.858 -0.0607973 -5.96286
  120 145.173 -0.299735 -4.88654
  121 155.465 -0.154055 -3.99342
  122 164.600 -0.00879897 -3.54920
  123 170.723 0.247860 -3.09801
  124 179.427 -0.249353 -2.83331
  125 182.459 -0.0149536 -1.46877
  126 186.566 -0.0248854 -1.16495
  127 189.819 -0.163795 -0.892083
  128 192.211 -0.111638 -0.713809
  129 194.791 0.00197823 -0.591360
  130 192.463 0.775465 -0.248900
  131 195.860 0.272707 -0.370242
  132 203.447 -0.219698 0.295670
  133 213.095 -0.795625 -0.104294
  134 222.523 -1.53943 -0.0237099
  135 233.267 -2.15251 0.0246173
  136 244.568 -3.36073 0.0793543
  137 256.495 -4.24783 0.276156
  138 268.867 -4.53898 0.167872
  139 279.600 -5.46108 0.172543
  140 288.903 -4.87134 0.467136
  141 299.515 -4.36989 0.844041
  142 311.487 -3.47241 0.897722
  143 322.704 -3.16616 0.776467
  144 334.589 -1.99193 0.532079
  145 344.501 -1.39036 0.776811
  146 352.285 -0.299544 0.434839
  147 314.733 -29.5633 -2.44942
  148 314.473 -29.1664 2.56203
  149 330.032 47.4473 -16.3865
  150 351.981 20.7588 34.7722
  151 266.569 -25.6170 -58.4205
  152 268.716 -25.5895 56.5262
  153 258.717 -11.0301 6.90120
  154 258.741 -11.1853 -6.90750
  155 373.415 13.3957 -26.7055
  156 313.892 -11.2641 7.20928
  157 313.760 -10.9902 -7.11871
  158 405.769 90.6898 4.33954
  159 321.167 -0.514984 -33.9044
  160 237.418 -18.7549 -26.1373
  161 237.420 -18.5966 25.9026
  162 321.784 -7.27194 30.6367
  163 305.411 22.2624 20.1812
  164 125.924 20.3400 -69.7066
  165 139.717 19.2624 73.4664
  166 394.435 4.41926 3.69702
  167 322.700 -12.3554 -21.3470
  168 427.524 93.9185 -2.20005
  169 290.502 -8.19216 0.134525
  170 290.439 -8.16541 -0.108387
  171 326.622 -3.90218 -3.15565
  172 327.672 -3.49900 2.72908
  173 227.679 -3.31579 -4.12909
  174 227.707 -3.28096 4.10664
  175 351.076 -9.37503 74.2268
  176 295.572 12.2354 -21.7320
  177 193.072 -14.5051 -42.0657
  178 193.651 -14.3986 41.7851
  179 216.812 -7.17924 -13.7118
  180 216.831 -7.09587 13.6068
  181 324.291 -8.49030 18.1407
  182 294.617 -20.2485 -0.449420
  183 293.569 -20.0976 0.927728
  184 335.256 -32.4137 -5.25246
  185 336.988 -30.8796 1.07258
  186 463.483 109.032 -15.5808
  187 336.542 54.0984 15.3318
  188 337.242 20.7170 -34.8868
  189 349.900 -3.09825 -86.3569
  190 334.807 -18.8961 -24.4710
  191 337.672 -13.4824 28.7770
  192 281.360 -31.9593 28.4879
  193 281.440 -31.7358 -28.3977
  194 300.700 3.81108 26.1322
  195 137.229 -3.32224 -51.4046
  196 137.572 -3.61856 51.0846
  197 523.102 78.4382 11.2816
  198 317.055 -18.8750 13.3796
  199 328.916 -6.00597 -11.8347
  200 260.283 -6.40138 -3.11963
  201 260.287 -6.36757 3.10905
  202 315.510 -4.09354 -23.5952
  203 359.406 52.7878 -27.9820
  204 300.292 26.9600 -4.04706
  205 195.059 -6.97292 19.3255
  206 194.757 -6.99595 -19.4734
  207 333.939 -3.66067 6.49845
  208 324.871 6.10918 34.8579
  209 263.925 -19.2906 -12.4789
  210 262.116 -18.2668 12.7931
  211 383.256 56.8381 25.7462
  212 451.283 61.4756 9.55251
  213 30.3298 23.8161 -19.3443
  214 28.0400 22.0166 16.4239
  215 185.515 53.0076 123.128
  216 313.862 -20.8496 -10.3219
  217 335.170 -3.51703 -5.87193
  218 297.255 2.59300 -24.0617
  219 208.036 -2.11062 -6.07842
  220 208.102 -2.08665 6.02352
  221 282.266 -13.2725 -2.43607
  222 282.396 -13.3524 2.27486
  223 318.274 -4.28084 20.0885
  224 366.988 -21.2688 7.80246
  225 363.974 74.5164 -8.13087
  226 285.434 -27.6119 -13.2995
  227 361.350 -6.28259 22.4499
  228 307.730 -5.13251 1.19273
  229 307.735 -5.08927 -1.19091
  230 283.314 -27.4796 13.8373
  231 324.788 -20.5872 19.9468
  232 457.459 58.6599 -28.2369
  233 101.000 60.1314 -89.0265
  234 274.380 9.59520 5.17822
  235 325.964 28.7454 29.3529
  236 347.601 -2.42627 -31.1531
  237 324.652 -11.6711 -28.6765
  238 172.384 -5.59647 -24.2286
  239 172.988 -5.51116 24.1480
  240 325.210 -3.90248 -15.5559
  241 309.940 -7.81650 3.82264
  242 309.794 -7.80491 -3.69789
  243 64.7861 6.03330 -32.6891
  244 65.8415 5.28995 32.5817
  245 345.619 -30.2238 -26.3355
  246 341.991 -1.17685 0.906147
  247 342.365 -1.19983 -0.981558
  248 318.280 26.3777 -26.8607
  249 279.905 5.34826 15.7239
  250 587.453 94.0932 63.1043
  251 582.677 66.3381 -39.5357
  252 421.344 91.0049 -0.628742
  253 262.946 -12.6444 77.8025
  254 241.257 -8.18114 -81.3927
  255 276.566 -5.68171 -1.05388
  256 276.539 -5.64416 1.04576
  257 229.266 -6.19673 8.35099
  258 229.267 -6.28306 -8.42732
  259 333.463 -3.56212 9.62368
  260 323.485 -23.0209 -16.4538
  261 209.053 -0.412368 -1.41603
  262 209.098 -0.405415 1.40681
  263 319.414 -12.9054 -13.0800
  264 134.925 -4.43222 -33.5819
  265 135.519 -4.44663 33.3355
  266 323.344 -13.9993 23.0038
  267 246.697 -26.1832 46.9801
  268 247.335 -26.6526 -46.8375
  269 278.447 10.6245 -7.31822
  270 240.262 -3.72260 -2.77955
  271 240.282 -3.69667 2.76829
  272 302.898 -0.766096 19.3016
  273 362.180 66.3805 19.4230
  274 193.464 -2.39614 10.3201
  275 193.315 -2.41652 -10.4104
  276 332.258 -27.7266 11.6282
  277 307.578 -34.4886 -31.3005
  278 343.222 -1.61749 3.02683
  279 237.845 -14.1693 -17.8344
  280 237.426 -14.0094 17.7642
  281 423.092 43.9312 109.256
  282 199.038 -16.0505 56.1216
  283 321.248 45.1340 -1.74003
  284 406.875 44.8870 -17.0125
  285 306.611 -23.7226 4.18836
  286 307.795 -35.4350 28.1734
  287 199.654 -15.7855 -56.7653
  288 36.8988 45.4925 41.2248
  289 319.469 -12.9525 13.3195
  290 419.170 54.7249 13.3767
  291 345.972 -1.44335 -2.62424
  292 312.884 10.9350 -30.9169
  293 308.976 -17.4677 7.25732
  294 302.500 -25.5483 0.533051
  295 311.719 14.2989 29.7801
  296 330.656 -27.7381 -10.4132
  297 468.563 91.2338 -7.87178
  298 308.892 -16.7885 -6.94483
  299 255.669 73.2481 -150.888
  300 315.912 -33.4806 -5.84239
  301 313.668 -34.3920 9.44794
  302 230.149 -20.8704 -36.9342
  303 207.161 -0.812778 -3.08618
  304 207.218 -0.798674 3.06083
  305 230.243 -20.8856 36.7299
  306 334.090 -0.557230 -35.0747
  307 360.856 -14.9371 -14.9946
  308 274.495 -16.5785 -6.51782
  309 274.311 -16.6162 6.64021
  310 328.707 -28.2911 50.2457
  311 327.905 -2.61151 11.7780
  312 398.818 1.79156 17.4073
  313 268.853 -9.52247 -3.56661
  314 268.870 -9.48925 3.54524
  315 244.694 -6.41496 -5.47085
  316 244.694 -6.35393 5.46191
  317 276.984 3.70361 -15.2088
  318 356.230 26.1020 -33.7329
  319 551.279 148.581 -70.4231
  320 324.675 -2.81700 -1.05992
  321 324.486 -2.77880 1.08752
  322 173.614 -0.280096 70.0270
  323 243.478 -11.1051 -11.7607
  324 243.010 -11.0656 11.7901
  325 173.584 -0.681192 -69.7603
  326 339.439 40.0707 -28.6306
  327 380.204 18.7991 25.4074
  328 328.720 -23.4593 -55.8317
  329 302.019 -11.6504 3.22119
  330 301.708 -11.5636 -3.08818
  331 322.464 -6.65250 -6.36835
  332 303.118 -0.580128 -18.0529
  333 340.296 1.47043 34.3722
  334 339.660 -2.35439 -6.63967
  335 203.774 -12.4293 28.1824
  336 203.550 -12.4999 -28.4040
  337 316.412 -0.720204 32.1798
  338 194.585 -1.61438 -6.11568
  339 194.711 -1.59913 6.05845
  340 324.832 -7.43883 9.90128
  341 389.552 79.6145 -14.4060
  342 322.297 -6.70407 6.60458
  343 343.271 43.1237 28.7420
  344 328.554 -6.10410 33.4168
  345 259.948 -4.88982 1.12930
  346 259.951 -4.92079 -1.13735
  347 310.813 -1.11605 -28.5502
  348 411.719 86.5894 9.32875
  349 342.087 62.7660 0.600656
  350 209.632 24.3893 -104.208
  351 21.3500 9.46740 -14.1300
  352 23.4492 10.2411 15.2195
  353 -1.12261 2.37975 6.36986
  354 0.172472 1.31592 -6.64648
  355 601.992 41.7517 14.3733
  356 283.455 -23.0530 -7.71533
  357 325.092 -7.18627 -9.66154
  358 293.197 -5.15054 0.439182
  359 293.163 -5.10834 -0.440872
  360 313.597 34.6389 -14.5439
  361 267.662 -27.3157 23.4330
  362 23.3345 34.6745 -25.4562
  363 267.923 -27.3106 -23.8671
  364 317.723 36.1381 15.4772
  365 324.272 -8.63207 -17.2830
  366 344.064 -19.1874 -20.9028
  367 366.425 77.4579 5.61002
  368 344.870 -21.5211 17.3056
  369 142.130 -3.56801 22.5020
  370 141.269 -3.49930 -22.6501
  371 80.2580 1.98537 -31.1863
  372 81.1230 1.66058 31.0457
  373 281.401 0.909734 15.3873
  374 535.306 156.162 60.3859
  375 335.340 -2.12163 -8.42436
  376 260.774 -22.0818 -17.9257
  377 260.553 -22.0231 17.9010
  378 322.307 -7.42600 -21.8700
  379 367.326 -17.7580 2.92954
  380 283.444 -23.0310 7.95625
  381 403.315 2.82330 -32.6518
  382 227.452 -1.85971 -1.06399
  383 227.484 -1.84349 1.05597
  384 316.928 -1.84195 -13.9514
  385 170.307 -2.48331 -14.6897
  386 170.417 -2.56238 14.5087
  387 378.814 48.3726 -28.5874
  388 204.653 14.4688 96.7729
  389 296.515 -15.5754 1.59294
  390 296.807 -15.5473 -1.60740
  391 348.375 58.9799 -18.2064
  392 329.851 -9.77352 -31.6838
  393 330.890 -33.8038 27.3169
  394 275.598 -7.33598 -1.63658
  395 275.565 -7.29942 1.61930
  396 318.308 -24.5595 11.0964
  397 342.934 -1.62908 4.93766
  398 213.386 -7.83686 -17.1777
  399 213.471 -7.83618 17.0285
  400 323.167 10.8417 -34.3778
  401 305.115 -6.61221 1.80341
  402 305.101 -6.62739 -1.76231
  403 315.571 -3.71899 26.2489
  404 293.999 21.4042 6.97365
  405 327.233 -13.8129 27.6776
  406 473.139 99.0926 17.5408
  407 157.772 -8.49957 -45.0264
  408 158.216 -8.50241 44.6793
  409 70.4139 37.8125 -53.5659
  410 350.891 -1.02258 1.37303
  411 177.549 -1.52393 -9.29377
  412 177.788 -1.49164 9.21255
  413 322.571 -8.40909 21.4265
  414 292.598 -31.7751 15.3374
  415 330.581 -4.08986 4.51034
  416 336.663 17.0949 35.8593
  417 73.8458 40.2617 55.8755
  418 293.041 -31.5981 -14.0902
  419 302.820 -28.1597 -2.60119
  420 98.4555 -1.97740 -28.2822
  421 99.2095 -2.05237 28.0847
  422 232.486 -18.5811 -67.6857
  423 347.671 -5.18867 30.4026
  424 231.591 -18.8636 67.0857
  425 321.161 -18.0321 -17.9603
  426 298.157 20.0955 -15.2859
  427 321.218 -13.8721 17.0478
  428 345.838 -1.53751 -3.33893
  429 10.4464 11.0858 4.79528
  430 69.9381 80.5248 79.2809
  431 308.993 -1.13693 13.4495
  432 259.050 3.53307 6.65970
  433 263.576 4.31059 -9.03702
  434 224.881 -3.75082 -5.89137
  435 224.904 -3.70244 5.85189
  436 316.672 -24.5452 -10.1756
  437 319.892 -6.26567 -29.3908
  438 260.454 4.86428 -2.45487
  439 473.029 112.641 23.0002
  440 65.2275 21.7281 -40.1181
  441 71.9313 19.9428 42.8822
  442 296.242 -10.5619 1.46107
  443 296.128 -10.5356 -1.38140
  444 394.973 87.3695 -1.14613
  445 247.162 101.560 154.242
  446 380.218 -5.36185 -5.63809
  447 218.097 -11.4220 -23.3053
  448 218.199 -11.3426 23.1047
  449 219.437 -4.93749 9.19464
  450 219.397 -4.97437 -9.27949
  451 296.417 6.56548 -24.7714
  452 352.708 -0.501058 -0.913639
  453 288.102 13.1993 13.9075
  454 364.425 44.9955 30.9390
  455 303.379 -22.5300 -3.04560
  456 330.454 -3.89124 -4.38149
  457 347.271 -1.39168 3.07564
  458 351.699 -0.535283 0.522345
  459 351.988 -0.604360 -0.384949
  460 193.265 -0.354292 2.26071
  461 193.168 -0.359533 -2.28475
  462 331.914 -21.0894 21.7071
  463 299.273 11.7930 23.9895
  464 312.925 1.26388 -31.3848
  465 326.926 -6.88263 12.8481
  466 472.035 79.1146 -91.7994
  467 327.682 -18.1841 -24.2451
  468 3.08984 6.19477 2.49283
  469 3.06510 6.29205 -0.871299
  470 259.451 -14.7341 10.0742
  471 258.578 -14.5383 -9.95406
  472 407.697 7.45654 49.3041
  473 113.914 103.521 -116.847
  474 323.323 -0.982437 10.4598
  475 366.740 -21.3705 -27.9731
  476 195.057 -11.2667 32.6387
  477 392.832 69.7044 -20.7033
  478 322.968 -17.4831 20.3310
  479 271.026 -12.9807 -4.94308
  480 271.265 -12.7646 4.92827
  481 281.332 1.49748 -13.5888
  482 194.445 -11.2232 -32.8442
  483 288.515 0.122496 13.6649
  484 276.665 -31.6383 -41.9323
  485 275.969 -31.6866 42.0793
  486 333.417 -2.20828 9.29825
  487 302.739 28.5392 2.88288
  488 307.803 5.24369 105.397
  489 452.549 92.1837 -0.578244
  490 312.541 -5.25776 2.07649
  491 312.560 -5.23849 -2.14730
  492 240.107 -4.28643 -3.72231
  493 240.123 -4.25031 3.70790
  494 126.729 5.87572 58.7974
  495 324.399 -15.6265 -23.7217
  496 294.135 -6.39832 0.311253
  497 294.104 -6.37525 -0.304701
  498 256.133 -27.1378 34.3228
  499 129.187 7.75755 -60.2941
  500 324.878 -26.4773 -11.6462
  501 5.57394 1.13558 2.59903
  502 283.738 14.6383 1.01284
  503 313.690 -3.61802 -0.685333
  504 313.682 -3.66827 0.670250
  505 256.293 -27.0921 -34.5913
  506 367.122 -18.9216 35.8246
  507 363.758 13.2069 31.4974
  508 335.785 -2.26611 -2.17848
  509 323.885 -26.8512 11.8095
  510 202.564 -0.200859 -0.402222
  511 202.609 -0.198999 0.398745
  512 323.395 -12.4201 -25.2899
  513 313.117 23.1685 26.2576
  514 359.290 8.87066 -31.1079
  515 201.339 -0.326212 -1.27097
  516 201.392 -0.321716 1.26206
  517 627.425 90.6242 -81.1231
  518 325.866 38.8184 23.1337
  519 336.080 -2.08586 1.94080
  520 303.495 -28.7794 3.33252
  521 254.989 -8.46298 5.54550
  522 254.988 -8.52831 -5.53422
  523 353.332 -21.5218 9.65046
  524 339.500 -6.78492 -32.0363
  525 379.521 74.8253 17.3413
  526 315.658 5.42736 32.5424
  527 318.438 -6.11157 4.04584
  528 309.472 -33.0188 -40.3427
  529 320.925 -7.94374 24.9117
  530 620.173 28.4333 -11.3633
  531 350.747 -26.4482 -0.784688
  532 333.698 -2.19541 -0.520054
  533 333.777 -2.33744 0.458595
  534 626.616 42.0475 39.8437
  535 307.767 -0.105937 27.6769
  536 431.354 72.4255 -7.50351
  537 324.055 -8.80650 -12.4917
  538 146.067 -1.38280 -10.0483
  539 146.527 -1.31638 9.94499
  540 219.249 -20.5396 -47.0333
  541 219.421 -20.1950 46.6815
  542 318.264 -5.85731 -4.00811
  543 346.351 12.7088 -35.0158
  544 304.283 -20.7116 4.20861
  545 327.312 37.5360 -24.0089
  546 329.831 -3.82718 12.5154
  547 413.523 20.6454 -4.44989
  548 282.072 -9.67843 -1.37534
  549 281.985 -9.64366 1.35731
  550 306.443 -14.4635 5.41861
  551 451.915 89.4844 -6.44375
  552 322.810 14.1209 33.8025
  553 137.996 35.5202 86.9585
  554 311.990 -18.7273 70.4014
  555 412.314 19.8609 -77.5580
  556 330.043 27.2897 -31.4640
  557 292.843 -25.3038 -61.0237
  558 317.145 -34.7541 -11.9224
  559 331.249 -33.5345 -17.5575
  560 43.3795 56.1478 -53.2320
  561 332.950 -4.20103 -7.71270
  562 500.898 97.4440 -28.3228
  563 308.084 -13.8711 -6.03716
  564 310.645 -10.1013 4.97950
  565 310.355 -9.86983 -4.77966
  566 214.040 -1.25287 -2.80041
  567 214.085 -1.23664 2.78127
  568 30.2729 3.18973 -17.1380
  569 31.9722 3.34322 17.5369
  570 159.321 -7.43338 -34.3590
  571 160.545 -7.47342 34.3033
  572 314.902 -17.0598 -11.3646
  573 320.860 -34.8955 12.9117
  574 329.823 -31.3081 2.24000
  575 270.300 -4.78710 -0.995118
  576 270.284 -4.75233 0.989818
  577 256.477 -26.8912 -52.2397
  578 287.208 -23.5478 64.5761
  579 250.251 -25.2865 52.5388
  580 323.935 -7.19431 -31.5923
  581 202.791 -3.40840 10.3581
  582 202.691 -3.44421 -10.4455
  583 308.794 17.0548 -26.3694
  584 309.218 -0.541454 -12.2061
  585 386.301 83.9494 -7.82431
  586 252.237 -3.83862 -0.988553
  587 252.243 -3.81271 0.983728
  588 329.712 -0.975301 -6.88153
  589 227.508 -7.73876 -11.4549
  590 227.512 -7.71097 11.3540
  591 185.947 8.62898 83.2522
  592 320.899 -14.7576 -17.2357
  593 178.967 -9.44514 59.8023
  594 315.347 -16.3363 11.6060
  595 332.036 -4.67218 8.51468
  596 327.894 -2.98370 -1.92989
  597 230.130 -2.87860 -2.59896
  598 230.159 -2.85472 2.58501
  599 370.510 74.0494 -15.6101
  600 178.840 -9.08512 -60.0298
  601 314.300 -13.5993 -9.29264
  602 283.419 -5.26736 -0.479563
  603 283.389 -5.22798 0.477560
  604 532.570 71.7259 -12.6689
  605 187.761 -1.22366 5.71987
  606 187.598 -1.23565 -5.77415
  607 292.862 6.69856 22.5979
  608 419.069 34.9941 -5.22578
  609 198.162 1.40925 -82.6395
  610 101.269 2.60043 -45.0057
  611 102.116 2.01719 44.7668
  612 248.504 -14.5640 14.1746
  613 251.111 -14.9930 -13.7624
  614 423.556 85.3230 7.84993
  615 326.543 -3.09334 1.74737
  616 280.074 7.85481 -13.6456
  617 349.249 62.8202 14.4007
  618 347.985 65.1930 -9.57563
  619 285.979 -15.8760 -2.26236
  620 288.164 -15.5159 1.23885
  621 205.162 44.6702 -118.834
  622 245.676 -8.45632 -7.86518
  623 245.695 -8.35885 7.83711
  624 623.893 127.684 96.1321
  625 323.538 -10.5961 27.2865
  626 184.549 -6.57813 -22.0143
  627 502.753 116.352 77.5605
  628 184.981 -6.54092 21.9290
  629 309.472 -11.8294 -82.2469
  630 217.981 -1.09887 -1.03269
  631 218.021 -1.08931 1.02730
  632 269.983 2.40875 11.9021
  633 122.503 -1.84136 -19.7672
  634 123.193 -1.84595 19.6102
  635 282.292 -20.0214 5.89486
  636 296.089 -23.7405 -1.53382
  637 349.190 -0.750880 -2.81054
  638 196.452 -0.327047 1.66644
  639 196.378 -0.332818 -1.68413
  640 266.243 -6.02410 -1.49896
  641 266.232 -5.98959 1.48718
  642 305.719 -33.9101 40.7767
  643 351.180 39.2208 -31.7064
  644 233.472 -10.9572 -14.7682
  645 233.302 -10.7717 14.6600
  646 277.060 -19.9841 -8.27321
  647 436.622 95.1227 2.50392
  648 327.868 -31.7160 -0.427221
  649 284.503 -6.81762 -0.640400
  650 284.460 -6.78323 0.640989
  651 391.575 42.8228 24.1114
  652 328.476 -4.72603 -13.6039
  653 290.195 -0.363748 -11.1304
  654 134.172 -4.57958 -43.1893
  655 134.589 -4.70964 42.8335
  656 276.344 -23.8959 -13.3788
  657 414.577 91.4661 0.193323
  658 321.350 43.5280 -10.4197
  659 212.957 -1.97165 -5.16115
  660 213.007 -1.94410 5.11898
  661 299.881 -8.47204 -1.48423
  662 299.939 -8.48216 1.54898
  663 559.208 73.0411 32.1638
  664 354.592 -0.947656 0.761017
  665 342.524 -1.34293 4.83034
  666 341.171 -1.37041 -5.65755
  667 323.843 -30.1416 5.14298
  668 238.068 -2.80169 -1.29885
  669 238.090 -2.78139 1.29285
  670 345.860 55.4775 22.1669
  671 444.012 98.7253 -5.62242
  672 242.730 -18.1143 -20.9242
  673 242.657 -17.9349 20.8171
  674 303.842 -31.3215 -6.24133
  675 320.404 19.0406 -31.8137
  676 380.684 0.973153 13.7710
  677 252.373 -4.72719 -2.57169
  678 252.381 -4.69618 2.56075
  679 218.307 -19.1781 -42.4689
  680 320.773 -31.0197 -2.17067
  681 266.511 -29.5629 37.8106
  682 127.408 40.2761 -83.8974
  683 248.785 -23.1004 29.1634
  684 300.057 0.0805367 10.2855
  685 218.508 -18.9598 42.1811
  686 314.116 -13.8643 9.40734
  687 248.870 -23.0045 -29.4327
  688 254.686 3.30247 2.49652
  689 196.931 -5.34325 15.6454
  690 196.754 -5.34947 -15.7573
  691 266.662 -30.3298 -38.2332
  692 329.703 -21.7137 -20.9867
  693 302.335 -4.22668 -0.385985
  694 302.383 -4.27122 0.387775
  695 336.980 -21.4559 20.7931
  696 306.189 -32.0051 7.45688
  697 372.095 34.1279 30.6944
  698 335.662 -6.28342 32.9991
  699 322.989 -11.5803 20.1086
  700 308.419 25.3502 -20.0025
  701 371.142 62.4561 24.2806
  702 320.364 -4.42764 -19.5060
  703 319.336 -10.5716 10.3581
  704 329.985 51.6981 5.63258
  705 324.858 -5.49985 16.9917
  706 102.245 69.5036 87.9362
  707 302.372 -34.7752 -23.4822
  708 350.109 6.36852 33.5516
  709 353.522 -10.9348 -23.8904
  710 352.901 -0.458028 1.55615
  711 322.781 -11.0759 -15.8392
  712 302.806 -35.0492 21.3212
  713 586.560 51.9386 -8.69965
  714 180.074 -0.784717 5.98702
  715 179.856 -0.793386 -6.04431
  716 327.445 -5.92906 -7.39284
  717 355.011 -0.347780 -1.51635
  718 275.834 -24.2816 13.4501
  719 331.375 -12.3223 29.9707
  720 503.759 120.105 -36.8394
  721 314.088 -22.7681 9.61432
  722 348.307 -22.9255 -12.3291
  723 319.456 -10.2870 -10.1928
  724 354.884 -0.603323 -0.494172
  725 323.403 -0.0285585 34.3192
  726 14.8825 13.5683 18.6530
  727 365.176 -14.0716 -53.4275
  728 397.274 23.5178 15.1534
  729 330.889 -33.7989 15.6456
  730 235.589 -5.70530 6.44517
  731 235.590 -5.78534 -6.47715
  732 308.836 156.008 -162.015
  733 337.130 -22.2899 -19.2211
  734 253.685 1.31276 -4.77225
  735 295.979 1.62912 22.0379
  736 325.176 -16.2617 24.1148
  737 311.686 -26.2665 4.84059
  738 324.195 -29.5443 -43.8169
  739 309.764 -24.5115 -5.41094
  740 366.098 -17.5353 -4.18268
  741 337.144 -2.73313 4.32106
  742 300.786 -18.0820 2.86346
  743 546.742 109.308 -58.2157
  744 320.888 -8.56535 8.21990
  745 317.354 5.18906 -33.4191
  746 271.095 -3.04746 92.5098
  747 340.033 27.3865 34.1257
  748 292.483 -23.0558 3.05746
  749 225.706 -17.8361 -31.0235
  750 225.726 -17.7860 30.7685
  751 310.835 34.9513 -4.66099
  752 316.301 -3.65848 29.8334
  753 319.774 -7.60565 -25.4496
  754 301.128 -18.4511 -2.96093
  755 291.126 -26.1218 7.44543
  756 332.531 54.9028 -6.36342
  757 311.301 -26.9429 -3.61257
  758 312.068 -19.7509 9.35010
  759 316.258 -4.03629 1.45210
  760 316.454 -3.92612 -1.44236
  761 425.474 93.4927 2.21285
  762 348.017 -29.5897 -10.2868
  763 323.765 -9.89588 15.7714
  764 337.275 -2.72417 -3.93403
  765 340.680 2.26622 -34.7007
  766 387.987 20.3727 -20.4113
  767 189.751 -0.190781 -2.79352
  768 189.875 -0.188029 2.76502
  769 2.72833 -5.92617 -4.19367
  770 330.516 -0.380443 6.37275
  771 302.790 -0.502874 -24.3799
  772 312.855 -2.92861 21.4991
  773 285.779 35.3085 135.774
  774 356.122 73.2918 -0.771043
  775 253.136 -18.1791 16.2970
  776 44.0767 1.00075 -16.9438
  777 45.3680 0.737546 17.1253
  778 310.053 -2.20995 -24.2511
  779 253.827 -18.3613 -16.2926
  780 335.284 -2.99782 3.28560
  781 171.032 -7.33902 29.3260
  782 169.560 -7.31365 -29.3412
  783 320.870 -8.31554 -8.00648
  784 204.560 -5.20979 -13.6154
  785 204.662 -5.17519 13.4931
  786 334.198 -3.13355 -9.40817
  787 254.890 -6.84817 -4.42999
  788 254.897 -6.80286 4.43145
  789 364.927 -2.31766 -23.9334
  790 328.287 -3.43641 -34.4402
  791 166.551 -1.07835 -7.63583
  792 166.877 -1.06831 7.54644
  793 8.08929 4.18684 -10.2570
  794 9.57336 4.41672 10.7930
  795 265.798 1.27012 -8.64686
  796 299.861 -33.6940 -17.4630
  797 -3.45497 -2.39163 5.95772
  798 -3.02794 -2.82060 -5.91871
  799 312.120 -6.23805 3.10883
  800 338.501 -26.4049 -10.9540
  801 349.384 51.7999 -25.8695
  802 336.733 -2.69348 -3.12201
  803 720.020 144.992 -135.250
  804 312.055 -6.21750 -3.06844
  805 469.814 89.6339 7.23340
  806 333.926 9.72059 -35.9119
  807 368.952 27.8321 -31.4176
  808 61.6112 -0.725978 -15.6635
  809 62.7601 -0.817852 15.6350
  810 207.944 -3.03362 8.06137
  811 207.870 -3.05912 -8.13412
  812 198.414 -0.479800 1.50754
  813 198.354 -0.484800 -1.51986
  814 373.025 62.8285 -24.0744
  815 220.199 -1.39823 -2.22326
  816 220.238 -1.38210 2.21055
  817 317.279 -3.19495 -31.1393
  818 458.333 46.7682 39.1517
  819 285.376 6.35895 -19.0014
  820 98.5260 -0.889477 16.7936
  821 97.6825 -0.897667 -16.9270
  822 369.440 9.94511 97.3752
  823 327.111 -5.97799 7.63033
  824 292.201 19.3753 -7.91636
  825 134.764 -0.221560 11.4539
  826 134.068 -0.158647 -11.5394
  827 202.686 -1.05338 -3.94815
  828 202.760 -1.03825 3.91115
  829 36.2910 32.3358 27.8180
  830 304.764 7.25591 28.2504
  831 339.224 49.8690 -22.1711
  832 365.116 42.3904 -31.2278
  833 239.671 -9.11036 -10.3303
  834 239.530 -9.04140 10.3155
  835 378.120 80.5486 10.9372
  836 326.521 -2.68686 -0.412910
  837 326.539 -2.66662 0.468054
  838 323.039 -9.67117 -20.2794
  839 270.467 -18.0645 9.43237
  840 298.019 -33.4923 17.5542
  841 350.362 -28.7090 27.3535
  842 268.049 -7.80287 -2.58467
  843 268.046 -7.77284 2.56668
  844 306.593 28.4087 12.8447
  845 288.026 3.92134 -20.5242
  846 80.0741 94.4215 91.5356
  847 292.039 -25.9096 -6.72583
  848 293.002 -13.1005 0.691002
  849 293.159 -13.1262 -0.706838
  850 322.343 -4.74420 32.7389
  851 319.699 -21.0003 -15.0379
  852 285.432 -18.9276 -3.68124
  853 651.503 21.0965 -32.2781
  854 271.322 -25.7101 18.4990
  855 271.106 -26.0452 -18.8003
  856 322.021 -3.84132 16.5932
  857 484.891 125.195 -27.7897
  858 254.547 -23.1760 -23.1629
  859 281.309 -31.6956 21.9688
  860 254.477 -22.8958 22.9566
  861 275.986 -11.1336 -2.95516
  862 275.978 -11.0952 2.93324
  863 40.7867 17.3922 24.1863
  864 346.109 25.8635 -34.5456
  865 264.809 -10.3686 -4.78824
  866 264.857 -10.2632 4.80565
  867 261.501 -4.34732 -0.578126
  868 261.496 -4.31696 0.574192
  869 287.728 -5.71812 -0.0374622
  870 287.693 -5.67999 0.0355518
  871 233.682 -4.61718 -5.57828
  872 233.700 -4.56512 5.55437
  873 265.822 -14.0281 -7.25767
  874 265.855 -13.9312 7.28914
  875 6.40783 -2.39025 -3.02672
  876 401.016 75.2362 17.9243
  877 344.989 -12.0921 -27.6410
  878 281.080 -31.2367 -22.2040
  879 303.653 -9.77283 2.88748
  880 303.518 -9.67122 -2.80273
  881 331.091 0.417092 35.1846
  882 360.058 -25.6897 -15.0486
  883 318.682 22.5944 -117.771
  884 144.806 -2.33568 58.1402
  885 -5.44802 3.37766 -3.94708
  886 -4.73337 3.81177 4.37506
  887 40.5137 18.4973 -24.6907
  888 323.636 -9.28104 12.4186
  889 340.581 -2.20468 -5.23180
  890 306.258 -29.4504 50.3622
  891 144.460 -2.18129 -58.3736
  892 341.295 -27.9248 7.67476
  893 380.095 -11.2505 43.7628
  894 275.523 1.10921 9.16662
  895 316.024 30.0595 21.8774
  896 170.921 -9.64904 42.7824
  897 170.257 -9.72714 -43.0686
  898 205.058 -9.81023 -23.9876
  899 215.518 -10.5389 -74.1617
  900 341.399 -7.97896 31.0642
  901 469.068 110.160 16.8395
  902 342.748 13.1842 35.2282
  903 323.984 -6.89775 -18.5010
  904 220.062 -9.44240 76.0066
  905 413.055 76.1246 -13.1687
  906 40.9091 34.8293 -34.3020
  907 299.226 -0.604350 -9.81122
  908 205.273 -9.72893 23.7723
  909 250.385 -5.55109 3.90768
  910 250.378 -5.58966 -3.91666
  911 320.167 -20.8885 15.5300
  912 332.515 -2.08712 1.25380
  913 244.519 2.26095 -92.1924
  914 350.612 -0.762784 2.47647
  915 347.980 -0.625325 -3.16358
  916 259.727 2.24437 -7.95127
  917 336.266 -1.36359 -5.64864
  918 251.220 -11.8023 -9.52179
  919 251.388 -11.6245 9.55057
  920 -8.27922 3.06332 -4.76640
  921 -11.4132 1.84740 5.04184
  922 332.507 -1.93667 -1.27243
  923 109.833 -2.48232 39.2300
  924 109.168 -2.24545 -39.4552
  925 355.128 51.8274 27.3113
  926 636.220 11.4896 9.99093
  927 334.239 37.1836 28.7057
  928 378.790 -13.3560 12.2508
  929 329.135 -18.3127 24.2991
  930 409.824 85.9055 -10.0271
  931 254.143 1.07041 5.99338
  932 316.694 -7.42371 -4.96405
  933 328.974 17.6885 -34.7346
  934 397.690 11.7257 -6.67967
  935 308.678 -19.0616 -7.34270
  936 157.360 -0.888885 -8.54913
  937 157.526 -0.857455 8.42751
  938 325.744 -7.62947 -14.4905
  939 10.8221 13.7448 2.78884
  940 312.679 -32.4135 -3.13843
  941 270.673 7.98534 -0.820122
  942 407.002 89.5031 -6.65823
  943 64.2777 47.8242 -56.9643
  944 312.876 -2.32884 -19.2646
  945 216.627 -3.65538 -7.52878
  946 216.669 -3.61212 7.46435
  947 1.86731 -8.92634 6.79876
  948 212.410 -15.8571 -34.4231
  949 318.508 -18.4001 -14.5952
  950 197.709 0.424309 -0.624305
  951 197.757 0.426366 0.619991
  952 321.555 39.0265 -17.5225
  953 345.076 -0.998687 -0.500569
  954 345.085 -1.01289 0.656224
  955 212.504 -15.8129 34.1877
  956 322.330 -0.436180 -7.61379
  957 370.953 2.67266 23.0671
  958 329.075 -4.61452 5.89632
  959 52.4414 13.3553 -30.5731
  960 341.277 -2.04441 4.74146
  961 309.412 2.48502 30.2455
  962 326.323 45.2157 15.5878
  963 326.559 3.78433 -35.5313
  964 224.792 -12.1057 -20.5796
  965 352.526 -12.4823 23.0557
  966 224.938 -12.0582 20.3700
  967 10.3145 11.2527 -0.956875
  968 38.4731 6.65159 22.4015
  969 183.306 -3.27118 14.1428
  970 183.080 -3.27428 -14.2243
  971 316.917 -7.56622 5.23028
  972 340.641 59.2823 8.62656
  973 173.358 15.9078 -87.2786
  974 284.891 -17.8107 3.19948
  975 267.407 -27.9847 -27.8716
  976 389.909 74.7455 18.6622
  977 299.924 -5.28001 0.450442
  978 299.913 -5.25052 -0.452425
  979 328.689 -6.05234 -10.4042
  980 303.720 26.2109 -11.8494
  981 688.076 203.997 137.620
  982 63.1584 3.57912 -29.5035
  983 64.1569 2.97508 29.5703
  984 4.69593 -6.04019 1.54891
  985 304.653 16.8698 24.3222
  986 267.330 -28.1538 27.6641
  987 331.410 -15.6481 -27.6512
  988 360.590 29.4728 34.0585
  989 346.690 -27.9953 -33.6427
  990 506.429 106.590 35.2562
  991 294.423 -4.75108 -0.129902
  992 294.384 -4.71106 0.130175
  993 344.681 -14.0449 26.2088
  994 23.8043 39.3419 41.0703
  995 154.776 -3.27586 20.2597
  996 154.288 -3.23396 -20.4790
  997 184.947 -9.09683 27.6911
  998 184.308 -8.95868 -27.7971
  999 208.373 -8.64265 19.8837
  1000 227.799 -1.83565 -1.00774
  1001 227.831 -1.82187 1.00352
  1002 569.317 181.209 -115.495
  1003 515.708 129.218 53.0164
  1004 208.204 -8.68743 -20.0531
  1005 355.035 -1.63212 28.9147
  1006 317.532 32.9492 -21.0658
  1007 224.339 -19.2827 61.4846
  1008 288.272 -34.0540 -33.0636
  1009 329.489 -2.69220 -11.1525
  1010 148.485 10.2356 71.0304
  1011 190.561 -14.5636 49.1319
  1012 291.122 14.9077 -15.2325
  1013 333.164 -6.59375 -33.3749
  1014 424.958 172.924 184.943
  1015 274.911 8.39590 10.8441
  1016 374.396 80.7367 -1.31794
  1017 275.183 10.7870 -104.770
  1018 279.792 -29.4720 -18.9413
  1019 355.318 -0.366979 -1.23736
  1020 340.802 31.3068 -33.2393
  1021 199.375 -1.30819 5.07908
  1022 199.282 -1.32152 -5.12759
  1023 7.29529 3.73722 -10.4748
  1024 224.951 -10.3255 -17.1546
  1025 190.330 -14.7518 -49.5057
  1026 224.778 -10.3017 16.9634
  1027 325.664 -9.90599 30.8643
  1028 292.149 -18.0717 -0.567171
  1029 306.809 5.63354 -29.3001
  1030 315.686 39.4372 6.14955
  1031 428.407 25.8222 15.2839
  1032 322.647 -24.5030 14.7941
  1033 203.809 -16.3326 -37.6661
  1034 304.192 10.7523 -27.4239
  1035 226.296 -19.0238 -61.8124
  1036 434.740 94.4250 -1.71059
  1037 295.633 19.3958 13.8577
  1038 373.800 -2.20900 -17.6870
  1039 281.534 -29.4833 17.4208
  1040 322.658 -10.2130 23.8610
  1041 320.574 -16.9108 17.1582
  1042 318.815 -16.0201 14.8665
  1043 393.733 49.9929 -24.7771
  1044 318.364 -5.12633 24.2270
  1045 287.798 -34.1493 32.5235
  1046 307.202 -12.5463 4.90911
  1047 203.937 -16.3630 37.4532
  1048 288.420 -21.2771 -3.91979
  1049 167.531 -8.13076 -52.5466
  1050 239.136 -24.8445 41.6856
  1051 324.258 -2.18848 -12.9485
  1052 315.793 -3.56073 -27.5373
  1053 273.531 -21.6752 -11.5427
  1054 167.820 -8.36730 52.1314
  1055 294.415 0.706942 -19.1548
  1056 218.993 -14.5836 -26.6568
  1057 396.952 84.5662 11.7724
  1058 88.3829 14.6964 -49.8897
  1059 679.138 47.9940 65.4403
  1060 159.012 11.9003 -74.3740
  1061 318.750 -26.4005 -9.08842
  1062 219.052 -14.4580 26.4366
  1063 291.267 3.06899 21.4195
  1064 163.165 -3.33114 16.7715
  1065 163.078 -3.41367 -16.9433
  1066 322.649 -8.96936 -28.6079
  1067 343.311 -1.69799 1.93691
  1068 336.525 -0.745265 5.70858
  1069 332.774 11.0489 35.8293
  1070 311.259 -2.34330 25.8681
  1071 241.442 25.7086 113.326
  1072 357.606 -0.261382 0.598771
  1073 334.966 45.4117 22.8495
  1074 283.400 4.09089 18.4520
  1075 340.824 -1.28586 5.48318
  1076 218.682 -2.37859 -4.20832
  1077 218.721 -2.35138 4.18041
  1078 139.092 -3.96272 -27.9679
  1079 139.645 -4.10525 27.7745
  1080 284.304 14.1602 7.74325
  1081 429.852 22.9581 -31.2392
  1082 394.960 -0.519952 -59.5322
  1083 314.501 -0.275607 -7.89604
  1084 239.228 -25.0309 -42.0027
  1085 274.106 -20.6150 10.3096
  1086 316.332 -0.721362 8.24064
  1087 331.333 -24.0268 -17.4357
  1088 206.302 -0.488212 2.51313
  1089 206.250 -0.496770 -2.52909
  1090 318.141 -27.1565 9.08308
  1091 302.354 -6.16416 0.945141
  1092 302.303 -6.17001 -0.925261
  1093 294.185 -29.6468 10.9619
  1094 379.427 -12.2744 -3.91058
  1095 171.030 -0.309130 -4.75562
  1096 171.312 -0.298354 4.70462
  1097 258.286 -16.3055 -70.8195
  1098 274.574 -6.56091 1.38797
  1099 274.600 -6.59814 -1.40080
  1100 166.234 89.1820 124.514
  1101 380.929 31.2227 -27.9611
  1102 55.9324 27.3162 -37.6652
  1103 329.267 -4.87044 -5.69785
  1104 87.7507 30.1823 -57.2093
  1105 182.670 -11.5286 -35.7714
  1106 357.722 -0.373642 0.371901
  1107 357.864 -0.349405 -0.274312
  1108 323.795 -18.4717 -20.8126
  1109 286.738 -32.1677 -45.4740
  1110 88.4351 12.5104 47.5402
  1111 352.225 34.8723 32.3519
  1112 319.805 -3.18906 -0.507103
  1113 319.841 -3.19176 0.537603
  1114 349.508 -22.5268 55.1113
  1115 360.668 72.3006 12.4578
  1116 213.746 -5.19361 -10.7804
  1117 213.800 -5.16873 10.7023
  1118 162.523 18.6267 88.0922
  1119 306.059 1.54647 -28.3579
  1120 95.8503 30.9573 61.5232
  1121 393.748 -6.79336 -18.3221
  1122 386.436 85.5399 3.78254
  1123 265.621 -21.0646 14.0803
  1124 244.614 1.28256 -1.16834
  1125 337.506 -2.93774 7.02506
  1126 349.514 -0.425692 2.74060
  1127 75.9464 0.142161 -14.0702
  1128 77.0018 0.104873 13.9736
  1129 274.499 4.56268 -13.6653
  1130 283.291 -8.33605 -0.953447
  1131 283.226 -8.29605 0.947632
  1132 29.7412 46.3514 -43.6918
  1133 47.3451 101.889 -87.6575
  1134 286.930 -11.2149 0.686791
  1135 287.043 -11.2150 -0.702478
  1136 296.531 -7.13319 1.00588
  1137 296.488 -7.11754 -0.980413
  1138 77.6249 49.6145 61.8763
  1139 233.603 -2.91983 -2.01979
  1140 233.629 -2.89843 2.00985
  1141 294.062 22.2042 -0.323026
  1142 376.084 47.1007 -130.866
  1143 359.074 61.9597 -21.3451
  1144 327.676 -12.5693 -29.1872
  1145 322.793 -16.0825 -21.1111
  1146 265.785 -21.2624 -14.3170
  1147 266.999 0.861445 8.43595
  1148 300.735 18.7280 -20.3295
  1149 296.508 15.9234 19.4153
  1150 307.000 -12.1799 -4.81938
  1151 292.901 -17.7070 0.350388
  1152 266.148 -17.2520 -10.5586
  1153 317.019 -1.85799 15.3558
  1154 561.277 56.6868 7.91285
  1155 319.197 -6.79808 27.9759
  1156 320.187 21.0202 30.5689
  1157 295.566 -29.1086 -8.17129
  1158 36.4157 6.11537 -21.6016
  1159 301.108 -13.9249 -3.44263
  1160 199.144 -0.325179 -0.122668
  1161 199.187 -0.323847 0.121236
  1162 367.133 -9.73920 15.1307
  1163 349.871 -29.4491 12.3976
  1164 502.743 90.1257 21.9662
  1165 119.232 -0.255280 -11.7345
  1166 119.958 -0.229303 11.6448
  1167 268.630 -5.45305 -1.16272
  1168 268.616 -5.41824 1.15378
  1169 302.065 -26.6632 -0.672046
  1170 246.823 1.10139 3.82413
  1171 309.369 -22.0274 6.99640
  1172 17.3643 20.6402 -9.89706
  1173 55.3660 27.6879 36.8374
  1174 206.813 -11.1991 68.4603
  1175 357.652 68.2181 -15.2362
  1176 342.082 -0.937511 -4.32980
  1177 359.252 -0.564628 0.253639
  1178 359.607 -0.774315 -0.162425
  1179 207.390 -0.515071 -0.409946
  1180 207.435 -0.511052 0.406726
  1181 329.601 21.0765 34.7135
  1182 488.346 83.5844 -1.77315
  1183 339.513 56.1912 -15.4795
  1184 254.027 -18.6379 70.3643
  1185 205.711 -10.7592 -68.3316
  1186 228.480 -15.3668 -23.8857
  1187 317.087 -8.82732 6.66490
  1188 442.783 97.4588 3.29253
  1189 228.497 -15.2737 23.6947
  1190 324.076 -5.61557 5.04474
  1191 288.676 10.6942 18.5237
  1192 318.511 9.85781 33.3390
  1193 454.363 101.533 10.5635
  1194 269.150 -7.04878 2.17469
  1195 269.165 -7.08386 -2.19093
  1196 328.259 -6.12230 10.8038
  1197 193.722 -2.10500 7.96381
  1198 193.584 -2.12652 -8.03766
  1199 321.125 -4.32160 -2.27120
  1200 132.010 78.5469 -120.337
  1201 278.055 -15.6481 -75.3365
  1202 261.720 -8.24545 -4.09454
  1203 261.745 -8.20690 4.09579
  1204 344.753 -1.58205 1.74509
  1205 326.032 -4.21893 4.03586
  1206 17.6891 22.0996 16.1650
  1207 355.017 -0.382767 1.44264
  1208 41.9843 52.9960 52.5842
  1209 318.369 -4.70913 -2.91600
  1210 -0.418119 -7.82960 -6.85469
  1211 224.774 -21.9274 -52.9823
  1212 224.144 -21.3931 52.4474
  1213 355.007 -0.611439 -1.59282
  1214 303.031 -15.9846 -4.09347
  1215 344.493 -1.43841 -1.79370
  1216 275.128 -8.92544 -2.03190
  1217 275.098 -8.89124 2.00722
  1218 320.918 -4.28998 2.13595
  1219 300.891 -13.6533 3.40660
  1220 289.419 -9.31053 -0.0993237
  1221 289.523 -9.33746 0.135131
  1222 344.211 -1.48301 -1.46624
  1223 296.836 -31.2194 -51.3034
  1224 336.700 -2.02593 -1.50434
  1225 319.742 -4.84285 3.12875
  1226 222.242 -2.47914 -3.10987
  1227 222.278 -2.45468 3.09087
  1228 248.574 -3.68817 -1.57328
  1229 248.586 -3.66215 1.56499
  1230 403.817 62.9210 20.8336
  1231 339.276 -26.0435 13.0314
  1232 232.499 -1.05000 87.0097
  1233 185.356 -0.327117 3.05668
  1234 185.199 -0.330576 -3.08794
  1235 321.234 -5.91699 21.0407
  1236 307.564 -4.61755 0.638834
  1237 307.578 -4.60136 -0.638432
  1238 351.878 68.5946 7.11290
  1239 322.692 -33.7644 40.5220
  1240 185.828 -2.66381 11.1927
  1241 185.642 -2.68428 -11.2769
  1242 307.081 -7.46383 2.53127
  1243 307.013 -7.51476 -2.45974
  1244 316.917 -8.71718 -6.42538
  1245 290.640 0.0536637 9.91895
  1246 504.004 125.216 -41.3009
  1247 322.728 -11.7830 -18.6500
  1248 54.9069 13.1806 31.4483
  1249 333.441 -17.7487 25.8014
  1250 266.985 5.80115 -7.47383
  1251 20.2116 15.0053 11.2535
  1252 440.024 48.7300 -3.37779
  1253 325.584 -14.7904 -26.0440
  1254 268.279 3.78511 11.4458
  1255 183.964 -11.5469 35.7051
  1256 330.860 -25.5908 15.5815
  1257 481.186 91.3948 28.1956
  1258 110.701 16.4418 60.5583
  1259 332.574 -3.90857 -9.30074
  1260 641.483 7.14707 -6.47755
  1261 663.041 9.98294 28.9149
  1262 708.349 24.2015 -68.6490
  1263 322.269 -10.0376 -23.1741
  1264 322.327 -14.6883 19.7770
  1265 327.534 -23.2924 18.4987
  1266 -9.64639 1.08389 6.13749
  1267 -8.78676 0.858686 -6.67121
  1268 318.882 -35.2163 -18.6941
  1269 326.777 -33.0109 -28.2079
  1270 248.633 1.56629 -4.72419
  1271 317.584 -35.8561 28.1860
  1272 339.211 -16.0703 -26.1949
  1273 6.48561 10.0320 0.980165
  1274 275.367 -5.03539 0.850431
  1275 275.387 -5.07222 -0.852687
  1276 337.304 -2.65766 6.34333
  1277 324.060 -5.51400 -4.74375
  1278 305.026 -33.3060 -9.76671
  1279 278.353 -15.1026 4.33745
  1280 276.939 -14.8928 -4.74932
  1281 326.992 -6.87672 14.7935
  1282 335.073 -12.2934 -30.0628
  1283 20.9796 15.6453 -10.8744
</Section>

newXOutput 19

<Section columns = "stress_xx | stress_yy | stress_xy">
  1 381.596 -0.0669232 0.748507
  2 381.611 -0.0610330 -0.750827
  3 207.460 -0.0794161 -0.270970
  4 -2.63037 -2.60480 -3.78108
  5 688.552 272.003 219.219
  6 682.113 281.981 -219.183
  7 -3.05400 -2.47830 4.01890
  8 207.414 -0.0802027 0.270210
  9 384.296 -0.632672 0.229685
  10 383.479 -1.00318 -0.187145
  11 382.589 -0.663138 0.866335
  12 381.696 -0.918989 0.248397
  13 379.778 -0.771427 1.36515
  14 378.038 -0.781118 0.999613
  15 373.944 -0.691269 1.95846
  16 368.103 -0.472034 2.88463
  17 362.892 -0.506722 3.20955
  18 355.171 -0.717007 3.87855
  19 344.473 -0.0475572 5.73168
  20 334.589 -0.529009 5.44636
  21 323.347 -0.692334 7.67104
  22 307.108 0.490873 6.67254
  23 295.361 0.735855 7.88665
  24 280.039 1.24325 6.16976
  25 269.441 1.29609 6.21946
  26 254.086 1.82369 3.17054
  27 250.853 2.87290 3.39792
  28 248.909 2.34974 -1.00301
  29 251.572 1.35209 -2.20708
  30 256.471 1.32050 -2.70602
  31 267.972 1.67112 -5.40306
  32 279.142 1.31954 -6.83801
  33 295.541 0.285132 -8.10978
  34 308.664 -0.171255 -7.38869
  35 322.657 -0.551526 -7.26087
  36 335.330 -0.412472 -5.12713
  37 346.224 -0.429902 -4.38599
  38 355.210 -0.700484 -3.68184
  39 363.258 -0.498453 -2.56720
  40 368.285 -0.590275 -2.72495
  41 373.142 -0.730659 -1.99216
  42 377.735 -0.867890 -0.872581
  43 380.091 -0.697459 -1.02643
  44 381.332 -0.425031 -0.640583
  45 380.420 -0.228438 -0.584227
  46 383.872 -1.01246 0.124227
  47 384.415 -0.659297 -0.236917
  48 371.804 -0.275059 -0.463002
  49 363.448 -1.53063 -0.836311
  50 353.244 -2.25434 -0.543250
  51 340.801 -3.34883 -0.745086
  52 329.008 -3.66834 -0.922592
  53 316.421 -4.59984 -0.877568
  54 305.280 -5.12116 -0.483157
  55 295.510 -5.73599 -0.175365
  56 284.237 -4.76233 -0.170675
  57 271.246 -4.45434 -0.286163
  58 258.722 -3.51949 -0.0792974
  59 246.855 -2.24830 -0.0233325
  60 235.574 -1.60459 0.0265363
  61 225.674 -0.825824 0.110748
  62 215.546 -0.224163 -0.310447
  63 207.581 0.290220 0.391104
  64 204.013 0.818310 0.263187
  65 206.452 0.00584636 0.622721
  66 203.740 -0.112985 0.750507
  67 201.229 -0.167507 0.936048
  68 197.818 -0.0221295 1.22108
  69 193.516 -0.0125003 1.53895
  70 190.339 -0.256877 2.96895
  71 181.228 0.265761 3.24253
  72 174.819 -0.0196136 3.71416
  73 165.274 -0.168803 4.21262
  74 154.277 -0.284004 5.12842
  75 140.533 -0.0653666 6.22686
  76 123.778 0.0770711 6.86197
  77 109.327 -0.153092 9.80311
  78 80.7422 0.913394 9.24296
  79 61.2938 0.788043 9.78862
  80 38.0112 -0.168437 10.8446
  81 18.7002 1.81119 11.2603
  82 -3.27243 2.70070 6.73004
  83 -19.2182 2.74194 2.35114
  84 -18.6298 2.63651 -1.03495
  85 -17.7029 2.18736 -5.34036
  86 -10.4038 -0.713892 -5.06280
  87 -1.28229 -9.98776 -5.58317
  88 0.970416 -18.4158 -6.99555
  89 2.71766 -29.1365 -3.90715
  90 6.04821 -29.8512 0.255125
  91 12.8165 -7.36833 16.8279
  92 38.3225 58.3237 57.4558
  93 225.921 209.831 195.835
  94 833.035 124.261 139.680
  95 750.046 17.8111 45.5543
  96 696.869 7.36504 13.9403
  97 677.226 6.24315 1.08642
  98 687.591 8.32418 -12.0572
  99 748.265 16.5603 -36.0380
  100 883.372 59.9512 -120.500
  101 134.017 214.309 -163.654
  102 28.7056 40.7967 -47.4850
  103 13.9850 -5.96321 -17.6931
  104 5.65312 -29.9127 -2.95381
  105 1.57749 -22.2112 4.49775
  106 2.00354 -23.2037 6.07344
  107 0.0890732 -8.64078 6.18192
  108 -10.8580 -0.468798 4.80619
  109 -18.2667 1.64168 4.66347
  110 -19.6150 3.20628 1.14191
  111 -19.8425 2.70114 -2.17200
  112 -4.65298 2.76794 -6.30013
  113 17.4777 1.82713 -10.7330
  114 36.7626 0.0232879 -10.6662
  115 60.0073 0.852167 -9.81026
  116 79.5734 0.937680 -9.31501
  117 108.420 -0.157141 -9.88733
  118 123.000 0.0860645 -6.92986
  119 139.855 -0.0625828 -6.30643
  120 153.928 -0.314208 -5.16796
  121 164.807 -0.160667 -4.22438
  122 174.465 -0.00779912 -3.75360
  123 180.939 0.262422 -3.27913
  124 190.132 -0.259360 -3.00000
  125 193.350 -0.0141109 -1.55806
  126 197.693 -0.0236560 -1.23681
  127 201.135 -0.170026 -0.948539
  128 203.668 -0.115141 -0.759242
  129 206.393 0.00397960 -0.628315
  130 203.962 0.817281 -0.265798
  131 207.533 0.289721 -0.392730
  132 215.499 -0.226309 0.309553
  133 225.629 -0.831191 -0.112774
  134 235.534 -1.61643 -0.0289126
  135 246.825 -2.26477 0.0210372
  136 258.705 -3.54321 0.0770448
  137 271.243 -4.48425 0.284405
  138 284.251 -4.79687 0.168940
  139 295.536 -5.77452 0.174635
  140 305.316 -5.15952 0.484465
  141 316.470 -4.63474 0.881478
  142 329.049 -3.69252 0.936658
  143 340.831 -3.37044 0.812313
  144 353.306 -2.12944 0.555480
  145 363.706 -1.48946 0.817956
  146 371.865 -0.332619 0.456092
  147 332.500 -31.2347 -2.37830
  148 332.224 -30.8148 2.49702
  149 348.844 50.1371 -17.2079
  150 371.857 21.9250 36.4591
  151 281.647 -27.0834 -61.8650
  152 283.920 -27.0526 59.8662
  153 273.558 -11.6422 7.36827
  154 273.583 -11.8054 -7.37461
  155 394.369 14.1616 -27.8876
  156 331.614 -11.9140 7.47909
  157 331.473 -11.6253 -7.38548
  158 428.670 95.7298 4.48154
  159 339.407 -0.544107 -35.6018
  160 251.068 -19.8031 -27.6991
  161 251.072 -19.6366 27.4525
  162 340.028 -7.69041 32.1466
  163 322.906 23.5471 21.2180
  164 133.267 21.4741 -73.8248
  165 147.820 20.3404 77.7995
  166 416.414 4.71162 3.56290
  167 340.940 -13.0647 -22.3515
  168 451.524 99.1812 -2.05091
  169 306.999 -8.66261 0.0703240
  170 306.933 -8.63485 -0.0430603
  171 344.962 -4.14716 -3.26892
  172 346.063 -3.72193 2.82543
  173 240.936 -3.49122 -4.39026
  174 240.966 -3.45472 4.36680
  175 370.577 -9.83419 78.6136
  176 312.552 12.9525 -22.8517
  177 204.271 -15.3313 -44.5200
  178 204.883 -15.2190 44.2257
  179 229.443 -7.57132 -14.5299
  180 229.463 -7.48375 14.4201
  181 342.609 -8.98295 18.9959
  182 311.326 -21.3882 -0.624577
  183 310.224 -21.2289 1.12649
  184 354.081 -34.2469 -5.79164
  185 355.916 -32.6263 1.38148
  186 489.361 115.144 -16.7368
  187 355.708 57.1531 16.0960
  188 356.359 21.8890 -36.6199
  189 369.303 -3.19012 -91.4124
  190 353.684 -19.9723 -25.5916
  191 356.717 -14.2547 30.1327
  192 297.310 -33.7655 30.2466
  193 297.390 -33.5284 -30.1521
  194 317.924 4.03782 27.4685
  195 145.292 -3.53373 -54.4215
  196 145.653 -3.84541 54.0850
  197 552.069 82.7383 11.9245
  198 334.964 -19.9483 13.9369
  199 347.442 -6.36206 -12.3746
  200 275.220 -6.75745 -3.34380
  201 275.224 -6.72219 3.33272
  202 333.442 -4.32932 -24.7674
  203 379.746 55.7618 -29.3270
  204 317.536 28.5174 -4.25383
  205 206.491 -7.35663 20.4565
  206 206.173 -7.38059 -20.6115
  207 352.680 -3.88839 6.77600
  208 343.320 6.45581 36.6087
  209 279.011 -20.3666 -13.2919
  210 277.111 -19.2850 13.6187
  211 404.838 60.0413 26.8969
  212 476.294 65.0924 10.5244
  213 32.1983 25.2270 -20.6036
  214 29.7725 23.3207 17.5004
  215 196.032 56.0683 130.245
  216 331.597 -22.0319 -10.7090
  217 353.967 -3.73544 -6.12184
  218 314.303 2.75170 -25.2937
  219 220.262 -2.21955 -6.44402
  220 220.332 -2.19440 6.38655
  221 298.333 -14.0183 -2.67674
  222 298.471 -14.1035 2.50676
  223 336.337 -4.52824 21.0783
  224 387.483 -22.4479 8.52835
  225 384.633 78.6889 -8.50979
  226 301.634 -29.1634 -14.2001
  227 381.631 -6.63986 23.4111
  228 325.107 -5.44219 1.21529
  229 325.112 -5.39676 -1.21347
  230 299.404 -29.0241 14.7645
  231 343.122 -21.7594 20.8389
  232 482.699 62.1627 -30.2571
  233 106.873 63.6189 -94.2946
  234 290.287 10.1707 5.44973
  235 344.522 30.3784 30.8351
  236 367.194 -2.56964 -32.6278
  237 343.023 -12.3394 -30.0667
  238 182.551 -5.90745 -25.6320
  239 183.187 -5.81770 25.5482
  240 343.594 -4.13419 -16.3050
  241 327.442 -8.27433 3.94268
  242 327.288 -8.26256 -3.81195
  243 68.7322 6.36645 -34.6634
  244 69.8415 5.58157 34.5485
  245 364.945 -31.9224 -28.0562
  246 361.078 -1.26648 0.935645
  247 361.468 -1.29094 -1.01631
  248 336.439 27.8852 -28.2256
  249 296.089 5.67494 16.5400
  250 619.670 99.2462 66.5894
  251 614.589 69.9701 -41.6904
  252 445.074 96.0516 -0.585470
  253 277.788 -13.3737 82.3439
  254 254.924 -8.67116 -86.1318
  255 292.345 -6.00652 -1.14791
  256 292.318 -5.96725 1.13929
  257 242.580 -6.53372 8.86851
  258 242.580 -6.62439 -8.94853
  259 352.218 -3.77984 10.0647
  260 341.742 -24.3283 -17.1512
  261 221.376 -0.428276 -1.50427
  262 221.426 -0.420998 1.49464
  263 337.445 -13.6476 -13.6477
  264 142.946 -4.68716 -35.5384
  265 143.571 -4.70229 35.2798
  266 341.621 -14.8007 24.0891
  267 260.761 -27.6755 49.7568
  268 261.430 -28.1714 -49.6054
  269 294.561 11.2588 -7.69820
  270 254.174 -3.92350 -2.95660
  271 254.196 -3.89639 2.94482
  272 320.223 -0.804841 20.2792
  273 382.711 70.1062 20.3477
  274 204.873 -2.52271 10.9255
  275 204.715 -2.54405 -11.0201
  276 350.964 -29.2999 12.0331
  277 324.893 -36.4419 -33.2543
  278 362.397 -1.72985 3.14913
  279 251.557 -14.9546 -18.9146
  280 251.118 -14.7865 18.8412
  281 446.232 46.7137 115.617
  282 210.500 -16.9814 59.4060
  283 339.603 47.7015 -1.82659
  284 429.618 47.4646 -17.5974
  285 323.953 -25.0620 4.24016
  286 325.131 -37.4405 29.9520
  287 211.146 -16.7024 -60.0828
  288 39.1094 48.2304 43.7805
  289 337.503 -13.6966 13.8986
  290 442.561 57.8575 13.7426
  291 365.276 -1.54400 -2.73038
  292 330.736 11.5664 -32.4890
  293 326.447 -18.4595 7.50067
  294 319.620 -26.9889 0.739813
  295 329.518 15.1209 31.2989
  296 349.278 -29.3105 -10.7557
  297 494.752 96.2640 -8.39256
  298 326.359 -17.7425 -7.17612
  299 269.850 77.5207 -159.496
  300 333.718 -35.3727 -6.38280
  301 331.354 -36.3364 10.1861
  302 243.371 -22.0488 -39.1101
  303 219.369 -0.851394 -3.27575
  304 219.429 -0.836605 3.24924
  305 243.473 -22.0655 38.8954
  306 352.993 -0.592610 -36.8009
  307 381.083 -15.7773 -15.5429
  308 290.148 -17.5048 -6.99546
  309 289.957 -17.5447 7.12562
  310 347.095 -29.8748 53.2834
  311 346.428 -2.76920 12.3441
  312 420.978 1.97653 18.7170
  313 284.228 -10.0545 -3.83968
  314 284.246 -10.0200 3.81723
  315 258.821 -6.76636 -5.82619
  316 258.821 -6.70237 5.81696
  317 293.020 3.93069 -15.9973
  318 376.338 27.5759 -35.3566
  319 581.715 156.879 -74.5434
  320 342.903 -3.00235 -1.09407
  321 342.706 -2.96190 1.12311
  322 183.631 -0.328217 74.1265
  323 257.509 -11.7180 -12.4958
  324 257.018 -11.6771 12.5273
  325 183.598 -0.754219 -73.8439
  326 358.716 42.3375 -30.0528
  327 401.520 19.8709 26.5044
  328 347.091 -24.7688 -59.1831
  329 319.116 -12.3168 3.28530
  330 318.790 -12.2258 -3.14563
  331 340.615 -7.04913 -6.62087
  332 320.452 -0.609770 -18.9662
  333 359.522 1.54497 36.0458
  334 358.705 -2.50313 -6.93897
  335 215.623 -13.1237 29.8346
  336 215.386 -13.1977 -30.0671
  337 334.412 -0.759102 33.7987
  338 206.088 -1.69744 -6.47903
  339 206.221 -1.68146 6.41910
  340 343.129 -7.87732 10.3305
  341 411.547 84.0729 -15.0108
  342 340.443 -7.10297 6.86826
  343 362.752 45.5562 30.1633
  344 347.155 -6.45646 35.0599
  345 274.873 -5.16292 1.21670
  346 274.876 -5.19529 -1.22515
  347 328.528 -1.17642 -29.9902
  348 434.885 91.4343 9.61098
  349 361.566 66.3022 0.629972
  350 221.523 25.7577 -110.244
  351 22.7417 10.0130 -15.0401
  352 24.9576 10.8326 16.1908
  353 -1.13950 2.54231 6.68916
  354 0.220294 1.42250 -6.98378
  355 634.810 44.0321 15.1346
  356 299.568 -24.3459 -8.29142
  357 343.399 -7.61125 -10.0796
  358 309.830 -5.45526 0.436191
  359 309.794 -5.41100 -0.438044
  360 331.533 36.6199 -15.2846
  361 282.909 -28.8519 24.8843
  362 24.7607 36.8224 -27.0928
  363 283.180 -28.8456 -25.3411
  364 335.876 38.2012 16.2651
  365 342.585 -9.13350 -18.0929
  366 363.419 -20.2781 -21.8046
  367 387.222 81.7912 5.86898
  368 364.256 -22.7443 18.0048
  369 150.612 -3.76689 23.8084
  370 149.706 -3.69423 -23.9634
  371 85.1557 2.09058 -33.0336
  372 86.0640 1.74830 32.8854
  373 297.662 0.977586 16.1817
  374 564.824 164.991 64.1241
  375 354.205 -2.25409 -8.81958
  376 275.677 -23.3156 -19.0487
  377 275.446 -23.2547 19.0227
  378 340.548 -7.85608 -22.9272
  379 387.860 -18.7508 2.79805
  380 299.558 -24.3232 8.54624
  381 425.659 3.07226 -34.8068
  382 240.711 -1.95503 -1.13846
  383 240.746 -1.93809 1.13009
  384 334.935 -1.95106 -14.6416
  385 180.416 -2.61763 -15.5386
  386 180.531 -2.70130 15.3484
  387 400.140 51.1048 -29.8913
  388 216.292 15.2781 102.401
  389 313.326 -16.4557 1.54899
  390 313.634 -16.4263 -1.56394
  391 368.171 62.3029 -19.0929
  392 348.506 -10.3336 -33.2240
  393 349.444 -35.7099 29.0759
  394 291.326 -7.75103 -1.78780
  395 291.291 -7.71293 1.76955
  396 336.278 -25.9504 11.5078
  397 362.136 -1.73412 5.15674
  398 225.818 -8.26579 -18.1923
  399 225.908 -8.26547 18.0359
  400 341.540 11.4607 -36.1096
  401 322.362 -7.00285 1.83397
  402 322.348 -7.01916 -1.79105
  403 333.510 -3.93422 27.5570
  404 310.915 22.6502 7.33584
  405 345.730 -14.6037 28.9999
  406 499.569 104.574 18.6625
  407 167.014 -8.99299 -47.6563
  408 167.481 -8.99574 47.2915
  409 74.5989 39.9995 -56.8151
  410 370.422 -1.09780 1.42529
  411 188.092 -1.60233 -9.83270
  412 188.345 -1.56838 9.74758
  413 340.822 -8.89475 22.4561
  414 309.170 -33.5667 16.3703
  415 349.132 -4.34394 4.68710
  416 355.744 18.0596 37.6441
  417 78.2127 42.5904 59.2460
  418 309.634 -33.3784 -15.0527
  419 319.950 -29.7469 -2.93152
  420 104.423 -2.09585 -29.9431
  421 105.214 -2.17474 29.7353
  422 245.718 -19.6608 -71.6443
  423 367.258 -5.49056 31.8329
  424 244.782 -19.9568 71.0126
  425 339.302 -19.0592 -18.7616
  426 315.282 21.2646 -16.0727
  427 339.359 -14.6679 17.8188
  428 365.151 -1.64155 -3.47845
  429 11.0999 11.8245 5.19233
  430 74.0286 85.3685 84.0281
  431 326.620 -1.20051 14.1229
  432 274.181 3.75617 7.00886
  433 278.935 4.57853 -9.50842
  434 237.984 -3.94984 -6.25692
  435 238.009 -3.89908 6.21562
  436 334.555 -25.9348 -10.5392
  437 338.041 -6.62648 -30.8452
  438 275.653 5.16795 -2.58277
  439 499.413 118.954 24.5754
  440 69.1459 22.9685 -42.5641
  441 76.2283 21.0802 45.4814
  442 313.037 -11.1650 1.44213
  443 312.918 -11.1379 -1.35857
  444 417.308 92.2252 -1.18725
  445 260.746 107.651 163.043
  446 401.455 -5.63501 -5.63587
  447 230.742 -12.0563 -24.6809
  448 230.851 -11.9730 24.4704
  449 232.235 -5.20338 9.75211
  450 232.191 -5.24198 -9.84101
  451 313.430 6.95643 -26.0445
  452 372.324 -0.544556 -0.946371
  453 304.707 13.9783 14.6290
  454 384.999 47.5283 32.4125
  455 320.552 -23.8021 -3.04569
  456 348.995 -4.13474 -4.55409
  457 366.655 -1.48754 3.20390
  458 371.254 -0.582615 0.540836
  459 371.555 -0.655827 -0.397123
  460 204.743 -0.369698 2.39783
  461 204.640 -0.375196 -2.42299
  462 350.628 -22.2899 22.6781
  463 316.439 12.4824 25.2234
  464 330.754 1.33952 -32.9703
  465 345.352 -7.28847 13.4333
  466 497.795 83.9335 -97.3116
  467 346.185 -19.2206 -25.3705
  468 3.37485 6.56247 2.70403
  469 3.34411 6.66988 -0.990568
  470 274.316 -15.5536 10.7364
  471 273.398 -15.3458 -10.6067
  472 430.233 8.02863 52.3830
  473 120.360 109.684 -123.637
  474 341.639 -1.04483 10.9710
  475 387.168 -22.5435 -29.8191
  476 206.416 -11.8991 34.5427
  477 414.948 73.6299 -21.5785
  478 341.209 -18.4805 21.2593
  479 286.507 -13.7052 -5.31318
  480 286.759 -13.4777 5.29783
  481 297.589 1.59051 -14.2890
  482 205.770 -11.8526 -34.7578
  483 305.133 0.137701 14.3649
  484 292.328 -33.4354 -44.4504
  485 291.595 -33.4864 44.6093
  486 352.194 -2.34401 9.73664
  487 320.112 30.1853 3.03227
  488 324.950 5.60163 111.491
  489 477.920 97.2704 -0.609701
  490 330.165 -5.57592 2.13393
  491 330.184 -5.55564 -2.20861
  492 254.005 -4.51806 -3.96504
  493 254.023 -4.48024 3.95001
  494 134.149 6.18498 62.2751
  495 342.731 -16.5194 -24.8359
  496 310.817 -6.77162 0.278114
  497 310.785 -6.74758 -0.271394
  498 270.740 -28.6713 36.3809
  499 136.743 8.17071 -63.8565
  500 343.197 -27.9787 -12.0689
  501 5.93387 1.29446 2.66468
  502 300.125 15.5032 1.06708
  503 331.365 -3.84652 -0.702057
  504 331.357 -3.89935 0.686139
  505 270.905 -28.6222 -36.6640
  506 387.564 -19.9452 38.1026
  507 384.216 13.9491 32.9648
  508 354.575 -2.41826 -2.25742
  509 342.148 -28.3728 12.2421
  510 214.568 -0.206799 -0.428922
  511 214.617 -0.204849 0.425298
  512 341.686 -13.1312 -26.5015
  513 331.004 24.4952 27.5971
  514 379.507 9.37045 -32.5613
  515 213.269 -0.339542 -1.34869
  516 213.326 -0.334830 1.33937
  517 661.595 95.5683 -85.4989
  518 344.439 41.0216 24.3032
  519 354.884 -2.22891 2.01014
  520 320.660 -30.4024 3.70508
  521 269.644 -8.93125 5.92210
  522 269.642 -8.99973 -5.91004
  523 373.144 -22.7394 9.91121
  524 358.658 -7.17736 -33.5727
  525 400.980 79.0141 18.1220
  526 333.637 5.74034 34.1894
  527 336.373 -6.47786 4.18764
  528 326.866 -34.8895 -42.8063
  529 339.108 -8.40238 26.1261
  530 653.855 29.9909 -11.9719
  531 370.403 -27.9391 -0.559864
  532 352.372 -2.34494 -0.533650
  533 352.457 -2.49470 0.468691
  534 660.653 44.3272 41.9582
  535 325.335 -0.107419 29.0780
  536 455.414 76.5747 -7.52349
  537 342.324 -9.32032 -13.0487
  538 154.840 -1.45792 -10.6275
  539 155.323 -1.38781 10.5190
  540 231.844 -21.7121 -49.7901
  541 232.028 -21.3480 49.4197
  542 336.188 -6.20989 -4.14953
  543 365.917 13.4236 -36.7215
  544 321.504 -21.8820 4.27552
  545 345.961 39.6690 -25.2177
  546 348.426 -4.05855 13.1044
  547 436.505 21.8919 -5.06736
  548 298.132 -10.2256 -1.53423
  549 298.041 -10.1896 1.51505
  550 323.777 -15.2869 5.57922
  551 477.058 94.5993 -7.21671
  552 341.172 14.9246 35.5106
  553 145.950 37.5517 92.0680
  554 329.448 -19.7695 74.5492
  555 434.998 21.1620 -82.1789
  556 348.806 28.8400 -33.0444
  557 309.309 -26.7413 -64.6332
  558 335.005 -36.7196 -12.8061
  559 349.836 -35.4298 -18.7727
  560 45.9423 59.5788 -56.4744
  561 351.649 -4.45930 -8.04849
  562 528.745 102.831 -30.0223
  563 325.504 -14.6635 -6.23383
  564 328.190 -10.6854 5.14324
  565 327.885 -10.4416 -4.93386
  566 226.607 -1.31409 -2.97487
  567 226.656 -1.29709 2.95488
  568 32.2675 3.36652 -18.1833
  569 34.0564 3.52924 18.6048
  570 168.707 -7.85498 -36.3585
  571 169.996 -7.89756 36.3014
  572 332.693 -18.0323 -11.8244
  573 338.916 -36.8694 13.8552
  574 348.377 -33.0810 2.12658
  575 285.758 -5.05968 -1.06804
  576 285.741 -5.02331 1.06244
  577 271.040 -28.4277 -55.3242
  578 303.376 -24.8872 68.3829
  579 264.484 -26.7332 55.6376
  580 342.291 -7.60752 -33.1489
  581 214.704 -3.58996 10.9725
  582 214.598 -3.62753 -11.0641
  583 326.451 18.0401 -27.7182
  584 326.854 -0.572903 -12.8170
  585 408.158 88.6297 -8.15853
  586 266.767 -4.04943 -1.05484
  587 266.774 -4.02235 1.04978
  588 348.335 -1.03516 -7.21444
  589 240.712 -8.16092 -12.1524
  590 240.717 -8.13201 12.0465
  591 196.600 9.09042 88.1121
  592 339.024 -15.6022 -18.0131
  593 189.312 -10.0074 63.3046
  594 333.161 -17.2676 12.0806
  595 350.697 -4.95586 8.88947
  596 346.288 -3.17798 -1.99605
  597 243.521 -3.03049 -2.76677
  598 243.552 -3.00550 2.75221
  599 391.498 78.1969 -16.3284
  600 189.177 -9.62863 -63.5431
  601 332.052 -14.3790 -9.65887
  602 299.551 -5.57292 -0.523767
  603 299.519 -5.53168 0.521612
  604 561.996 75.6567 -13.3862
  605 198.894 -1.28712 6.05533
  606 198.721 -1.29970 -6.11220
  607 309.699 7.09685 23.7631
  608 442.377 37.0528 -5.12520
  609 209.486 1.45637 -87.4568
  610 107.297 2.72829 -47.6747
  611 108.189 2.11407 47.4220
  612 262.788 -15.3719 15.0577
  613 265.531 -15.8248 -14.6254
  614 447.293 90.1292 7.96862
  615 344.870 -3.29376 1.80437
  616 296.267 8.32834 -14.3535
  617 369.102 66.3547 15.1029
  618 367.778 68.8590 -10.0431
  619 302.238 -16.7683 -2.50985
  620 304.539 -16.3897 1.43034
  621 216.744 47.2318 -125.698
  622 259.842 -8.92054 -8.36762
  623 259.863 -8.81820 8.33838
  624 657.968 134.680 101.418
  625 341.850 -11.2043 28.6071
  626 195.396 -6.94126 -23.2942
  627 530.243 123.278 82.4467
  628 195.851 -6.90234 23.2052
  629 326.772 -12.4769 -87.0535
  630 230.761 -1.15109 -1.09675
  631 230.804 -1.14110 1.09112
  632 285.669 2.56010 12.5207
  633 129.890 -1.94416 -20.9125
  634 130.615 -1.94906 20.7478
  635 298.350 -21.1440 6.35872
  636 312.871 -25.0763 -1.78208
  637 368.685 -0.803207 -2.93280
  638 208.112 -0.341399 1.76999
  639 208.032 -0.347454 -1.78849
  640 281.490 -6.36281 -1.62236
  641 281.479 -6.32678 1.60997
  642 322.925 -35.8312 43.2592
  643 371.059 41.4347 -33.2551
  644 246.971 -11.5611 -15.6642
  645 246.794 -11.3657 15.5504
  646 292.842 -21.1016 -8.86290
  647 461.136 100.412 2.82324
  648 346.320 -33.5108 -0.217508
  649 300.691 -7.20971 -0.730871
  650 300.645 -7.17383 0.731337
  651 413.532 45.2532 25.1244
  652 347.001 -5.00876 -14.2434
  653 306.898 -0.378445 -11.6990
  654 142.104 -4.85223 -45.7155
  655 142.543 -4.98896 45.3413
  656 292.072 -25.2350 -14.2649
  657 437.956 96.5332 0.186718
  658 339.704 46.0048 -10.9466
  659 225.448 -2.07277 -5.47592
  660 225.501 -2.04387 5.43179
  661 316.862 -8.96261 -1.48389
  662 316.924 -8.97282 1.55168
  663 589.976 77.0356 33.9391
  664 374.292 -1.01310 0.789448
  665 361.721 -1.42998 5.04821
  666 360.309 -1.45714 -5.91898
  667 342.091 -31.8480 5.20319
  668 251.871 -2.95114 -1.38258
  669 251.895 -2.92992 1.37631
  670 365.508 58.6021 23.2573
  671 468.900 104.221 -6.14501
  672 256.680 -19.1233 -22.1924
  673 256.605 -18.9348 22.0801
  674 321.019 -33.0879 -6.78096
  675 338.653 20.1279 -33.4257
  676 401.964 1.04415 14.2182
  677 266.906 -4.98737 -2.74912
  678 266.915 -4.95498 2.73768
  679 230.875 -20.2673 -44.9569
  680 338.854 -32.7744 -2.07067
  681 281.652 -31.2393 40.0810
  682 134.778 42.5705 -88.8360
  683 263.022 -24.4001 30.9166
  684 317.252 0.0857880 10.8059
  685 231.089 -20.0370 44.6543
  686 331.858 -14.6580 9.77810
  687 263.109 -24.2982 -31.1998
  688 269.592 3.51015 2.62726
  689 208.491 -5.63397 16.5631
  690 208.305 -5.64022 -16.6802
  691 281.807 -32.0494 -40.5276
  692 348.301 -22.9488 -21.9228
  693 319.434 -4.48549 -0.388393
  694 319.485 -4.53227 0.390217
  695 355.959 -22.6774 21.7012
  696 323.488 -33.8118 8.06945
  697 393.034 36.0532 32.1124
  698 354.626 -6.64809 34.6008
  699 341.240 -12.2474 21.0522
  700 326.072 26.8089 -21.0259
  701 392.118 65.9637 25.4122
  702 338.522 -4.68465 -20.4612
  703 337.350 -11.1838 10.7940
  704 348.808 54.6260 5.91603
  705 343.220 -5.82212 17.8052
  706 108.161 73.5610 93.1326
  707 319.430 -36.7420 -24.9911
  708 369.853 6.72097 35.1599
  709 373.392 -11.5558 -24.9452
  710 372.544 -0.496097 1.61866
  711 341.000 -11.7163 -16.5611
  712 319.893 -37.0312 22.7079
  713 618.638 54.7852 -9.17179
  714 190.778 -0.824579 6.33730
  715 190.549 -0.833652 -6.39733
  716 345.858 -6.28429 -7.70334
  717 374.758 -0.377808 -1.57874
  718 291.537 -25.6430 14.3404
  719 350.096 -13.0288 31.4086
  720 531.518 127.018 -39.3779
  721 331.834 -24.0576 9.95706
  722 367.862 -24.2233 -12.7473
  723 337.475 -10.8839 -10.6211
  724 374.595 -0.650379 -0.509376
  725 341.759 -0.0337074 36.0333
  726 15.7801 14.5930 19.8672
  727 385.464 -14.8052 -56.6860
  728 419.466 24.8816 15.6474
  729 349.465 -35.7071 16.7573
  730 249.240 -6.01513 6.85368
  731 249.240 -6.09918 -6.88711
  732 325.572 165.309 -171.246
  733 356.114 -23.5567 -20.0427
  734 268.538 1.40664 -5.02246
  735 312.964 1.73070 23.1655
  736 343.549 -17.1909 25.2445
  737 329.295 -27.7505 4.91418
  738 342.353 -31.2129 -46.4868
  739 327.275 -25.8970 -5.52465
  740 386.573 -18.5134 -4.12337
  741 356.029 -2.90909 4.49716
  742 317.822 -19.1036 2.87364
  743 576.949 115.336 -61.5108
  744 338.972 -9.06714 8.55622
  745 335.418 5.48877 -35.1076
  746 286.332 -3.20537 97.8882
  747 359.309 28.9324 35.8213
  748 309.076 -24.3528 3.38542
  749 238.717 -18.8369 -32.8532
  750 238.739 -18.7846 32.5853
  751 328.634 36.9547 -4.89772
  752 334.282 -3.86958 31.3227
  753 337.905 -8.04277 -26.6963
  754 318.183 -19.4945 -2.97521
  755 307.638 -27.5906 8.02383
  756 351.490 58.0070 -6.67842
  757 328.890 -28.4656 -3.61735
  758 329.706 -20.8714 9.69304
  759 334.066 -4.28826 1.49358
  760 334.272 -4.17218 -1.48316
  761 449.407 98.6834 2.18549
  762 367.501 -31.2560 -11.1236
  763 342.037 -10.4692 16.4941
  764 356.160 -2.90036 -4.09129
  765 359.929 2.38875 -36.3914
  766 409.703 21.5497 -21.2164
  767 201.026 -0.196990 -2.96001
  768 201.158 -0.194103 2.93017
  769 2.90881 -6.19834 -4.37877
  770 349.181 -0.408353 6.67967
  771 320.109 -0.523176 -25.6177
  772 330.662 -3.09635 22.5721
  773 301.664 37.4284 143.556
  774 376.363 77.4004 -0.808833
  775 267.649 -19.1917 17.3132
  776 46.9180 1.05264 -17.9597
  777 48.2756 0.774752 18.1514
  778 327.724 -2.33443 -25.4698
  779 268.375 -19.3832 -17.3094
  780 354.061 -3.19071 3.41197
  781 181.094 -7.75181 31.0296
  782 179.542 -7.72471 -31.0438
  783 338.951 -8.80361 -8.33338
  784 216.541 -5.49135 -14.4179
  785 216.649 -5.45514 14.2898
  786 352.990 -3.32765 -9.84087
  787 269.545 -7.22587 -4.73233
  788 269.553 -7.17848 4.73398
  789 385.405 -2.44440 -24.9717
  790 346.882 -3.63539 -36.1432
  791 176.490 -1.13567 -8.07800
  792 176.833 -1.12509 7.98417
  793 8.75546 4.42749 -10.9039
  794 10.3174 4.67123 11.4715
  795 281.274 1.34959 -9.09521
  796 316.804 -35.5966 -18.6283
  797 -3.64008 -2.51620 6.28670
  798 -3.19367 -2.97433 -6.25047
  799 329.728 -6.61033 3.20560
  800 357.536 -27.9017 -11.3121
  801 369.205 54.7202 -27.1346
  802 355.580 -2.86852 -3.24295
  803 758.627 152.994 -142.498
  804 329.659 -6.58897 -3.16366
  805 496.073 94.5728 7.71117
  806 352.845 10.2692 -37.6958
  807 389.716 29.4068 -32.8814
  808 65.5022 -0.770626 -16.5912
  809 66.7091 -0.867531 16.5613
  810 220.147 -3.19500 8.54415
  811 220.069 -3.22171 -8.62033
  812 210.190 -0.501884 1.59940
  813 210.125 -0.507131 -1.61227
  814 394.099 66.3621 -25.1875
  815 233.086 -1.46757 -2.36278
  816 233.127 -1.45069 2.34951
  817 335.312 -3.37661 -32.6969
  818 483.559 49.6379 41.7639
  819 301.835 6.74280 -19.9841
  820 104.553 -0.940224 17.7751
  821 103.667 -0.948915 -17.9152
  822 389.845 10.6320 103.043
  823 345.509 -6.33599 7.95074
  824 309.022 20.5063 -8.32490
  825 142.885 -0.230584 12.1155
  826 142.155 -0.164109 -12.2051
  827 214.649 -1.10523 -4.18755
  828 214.727 -1.08935 4.14883
  829 38.4853 34.2654 29.5777
  830 322.199 7.68085 29.6953
  831 358.516 52.6870 -23.2722
  832 385.725 44.7838 -32.7136
  833 253.515 -9.61053 -10.9733
  834 253.367 -9.53844 10.9583
  835 399.531 85.0472 11.4247
  836 344.838 -2.86523 -0.425104
  837 344.858 -2.84373 0.483069
  838 341.300 -10.2311 -21.2420
  839 285.906 -19.0739 10.0766
  840 314.868 -35.3836 18.7201
  841 369.940 -30.3124 29.1414
  842 283.386 -8.23978 -2.79200
  843 283.382 -8.20856 2.77309
  844 324.162 30.0434 13.5050
  845 304.616 4.16063 -21.5819
  846 84.6693 100.273 96.9424
  847 308.599 -27.3658 -7.26490
  848 309.629 -13.8422 0.614392
  849 309.795 -13.8702 -0.631423
  850 340.629 -5.01808 34.3635
  851 337.754 -22.1937 -15.6723
  852 301.659 -19.9891 -4.02013
  853 686.731 22.2349 -33.9682
  854 286.775 -27.1531 19.6715
  855 286.546 -27.5060 -19.9893
  856 340.263 -4.06571 17.4026
  857 511.863 132.256 -29.6961
  858 269.107 -24.4743 -24.5781
  859 297.273 -33.4824 23.3594
  860 269.035 -24.1793 24.3609
  861 291.729 -11.7581 -3.20695
  862 291.721 -11.7182 3.18379
  863 43.2851 18.3992 25.7070
  864 365.696 27.3241 -36.2422
  865 279.971 -10.9463 -5.13503
  866 280.022 -10.8356 5.15346
  867 276.507 -4.59102 -0.621136
  868 276.503 -4.55928 0.617001
  869 304.081 -6.05198 -0.0778140
  870 304.044 -6.01206 0.0756968
  871 247.244 -4.86565 -5.92883
  872 247.263 -4.81104 5.90386
  873 281.026 -14.8083 -7.75958
  874 281.062 -14.7069 7.79332
  875 6.81291 -2.37450 -3.30588
  876 423.567 79.4704 18.6320
  877 364.416 -12.7832 -28.9182
  878 297.028 -32.9971 -23.6067
  879 320.833 -10.3364 2.94647
  880 320.691 -10.2297 -2.85776
  881 349.843 0.435049 36.9266
  882 380.167 -27.1220 -16.1697
  883 336.373 23.9853 -124.559
  884 153.256 -2.49608 61.5586
  885 -5.62142 3.57430 -4.22760
  886 -4.87061 4.03447 4.67929
  887 43.0015 19.5679 -26.2454
  888 341.883 -9.82179 12.9695
  889 359.654 -2.34786 -5.45867
  890 323.464 -31.1189 53.3810
  891 152.892 -2.33468 -61.8040
  892 360.465 -29.5081 7.84548
  893 401.195 -11.8100 46.4944
  894 291.495 1.17738 9.64045
  895 334.077 31.7777 22.9930
  896 180.906 -10.2030 45.2748
  897 180.205 -10.2855 -45.5753
  898 217.006 -10.3542 -25.3927
  899 227.814 -11.1670 -78.4926
  900 360.655 -8.43963 32.5443
  901 495.155 116.429 18.1909
  902 362.132 13.9235 36.9585
  903 342.300 -7.29976 -19.3870
  904 232.603 -10.0049 80.4432
  905 436.225 80.4284 -13.5774
  906 43.3789 36.8893 -36.4506
  907 316.377 -0.635029 -10.3076
  908 217.233 -10.2688 25.1668
  909 264.812 -5.85673 4.17062
  910 264.804 -5.89705 -4.17996
  911 338.245 -22.0753 16.1905
  912 351.137 -2.23159 1.29512
  913 258.329 2.37326 -97.5429
  914 370.175 -0.815174 2.58279
  915 367.436 -0.669524 -3.30489
  916 274.893 2.38404 -8.36611
  917 355.194 -1.44469 -5.91800
  918 265.664 -12.4550 -10.1347
  919 265.842 -12.2682 10.1657
  920 -8.70340 3.25132 -5.00362
  921 -12.0217 1.96098 5.30233
  922 351.127 -2.07240 -1.31608
  923 116.389 -2.63710 41.5426
  924 115.689 -2.38772 -41.7794
  925 375.244 54.7440 28.6349
  926 670.668 12.1170 10.5045
  927 353.240 39.2878 30.1436
  928 399.901 -14.0687 13.2404
  929 347.715 -19.3572 25.4233
  930 432.889 90.7172 -10.3428
  931 269.027 1.14512 6.30679
  932 334.546 -7.86316 -5.14210
  933 347.658 18.6935 -36.4787
  934 419.864 12.4407 -6.70340
  935 326.135 -20.1421 -7.58221
  936 166.777 -0.935521 -9.04151
  937 166.951 -0.902403 8.91362
  938 344.116 -8.07658 -15.1574
  939 11.5138 14.5953 3.05444
  940 330.323 -34.2444 -3.52128
  941 286.392 8.47108 -0.862684
  942 429.953 94.4926 -6.86606
  943 68.0866 50.6421 -60.4255
  944 330.683 -2.46234 -20.2258
  945 229.293 -3.84972 -7.98489
  946 229.337 -3.80434 7.91741
  947 1.99903 -9.40192 7.15106
  948 224.698 -16.7488 -36.4376
  949 336.497 -19.4481 -15.2173
  950 209.466 0.449992 -0.663400
  951 209.519 0.452136 0.658896
  952 339.910 41.2495 -18.4093
  953 364.306 -1.07669 -0.521678
  954 364.317 -1.09146 0.684990
  955 224.799 -16.7027 36.1905
  956 340.605 -0.467104 -7.98752
  957 391.752 2.82725 24.0460
  958 347.561 -4.89677 6.13690
  959 55.6473 14.1137 -32.4495
  960 360.381 -2.17811 4.94483
  961 327.070 2.63453 31.7820
  962 344.937 47.7815 16.3758
  963 345.086 3.99860 -37.3077
  964 237.806 -12.7765 -21.8036
  965 372.338 -13.1959 24.0645
  966 237.961 -12.7269 21.5835
  967 10.9832 11.9527 -1.11212
  968 40.8910 7.02664 23.7810
  969 194.127 -3.44802 14.9662
  970 193.889 -3.45101 -15.0514
  971 334.782 -8.01282 5.42125
  972 360.037 62.6258 9.05381
  973 183.300 16.7864 -92.3774
  974 301.092 -18.8106 3.50638
  975 282.623 -29.5618 -29.5759
  976 411.899 78.9364 19.4639
  977 316.902 -5.59415 0.437735
  978 316.889 -5.56327 -0.439936
  979 347.187 -6.41272 -10.8674
  980 321.138 27.7242 -12.4579
  981 725.037 215.353 145.248
  982 67.0477 3.77323 -31.2743
  983 68.0968 3.13575 31.3440
  984 4.98613 -6.24398 1.72353
  985 322.100 17.8476 25.5714
  986 282.545 -29.7411 29.3575
  987 350.123 -16.5412 -28.9585
  988 380.925 31.1307 35.6894
  989 366.056 -29.5600 -35.7779
  990 534.571 112.488 37.3574
  991 311.118 -5.03411 -0.150165
  992 311.078 -4.99214 0.150405
  993 364.086 -14.8481 27.4078
  994 25.2040 41.9887 43.6086
  995 163.986 -3.45692 21.4319
  996 163.473 -3.41265 -21.6619
  997 195.782 -9.60439 29.3041
  998 195.108 -9.45791 -29.4149
  999 220.517 -9.12022 21.0561
  1000 241.078 -1.92922 -1.06902
  1001 241.113 -1.91482 1.06461
  1002 600.211 191.590 -122.278
  1003 544.324 136.412 56.1873
  1004 220.339 -9.16703 -21.2338
  1005 375.009 -1.73184 30.2477
  1006 335.665 34.8305 -22.1360
  1007 237.159 -20.3985 65.0834
  1008 304.569 -35.9824 -35.0926
  1009 348.084 -2.85412 -11.6870
  1010 157.093 10.7878 75.2078
  1011 201.591 -15.4018 52.0050
  1012 307.881 15.7823 -16.0204
  1013 352.000 -6.97429 -35.0013
  1014 447.734 183.296 195.362
  1015 290.844 8.89984 11.4099
  1016 395.627 85.2453 -1.37813
  1017 290.596 11.4233 -110.831
  1018 295.684 -31.1295 -20.1541
  1019 375.067 -0.400599 -1.28726
  1020 360.125 33.0770 -34.8888
  1021 211.151 -1.37405 5.38257
  1022 211.051 -1.38802 -5.43336
  1023 7.74872 4.19685 -11.2104
  1024 237.992 -10.8951 -18.1795
  1025 201.346 -15.6006 -52.3979
  1026 237.811 -10.8705 17.9788
  1027 344.100 -10.4747 32.3696
  1028 308.731 -19.0893 -0.736359
  1029 324.341 5.96348 -30.7937
  1030 333.741 41.6879 6.46252
  1031 452.127 27.4142 16.5342
  1032 340.854 -25.8931 15.3991
  1033 215.614 -17.2558 -39.8697
  1034 321.602 11.3789 -28.8291
  1035 239.215 -20.1260 -65.4268
  1036 459.179 99.6507 -1.87304
  1037 312.627 20.5243 14.5745
  1038 394.729 -2.31927 -18.3634
  1039 297.522 -31.1425 18.5529
  1040 340.913 -10.8012 25.0069
  1041 338.680 -17.8751 17.9216
  1042 336.821 -16.9345 15.5136
  1043 415.827 52.8277 -25.8311
  1044 336.431 -5.42297 25.4231
  1045 304.074 -36.0830 34.5215
  1046 324.572 -13.2647 5.05561
  1047 215.749 -17.2885 39.6467
  1048 304.800 -22.4703 -4.28393
  1049 177.280 -8.61176 -55.6171
  1050 252.818 -26.2550 44.1490
  1051 342.610 -2.32120 -13.5784
  1052 333.743 -3.76540 -28.9116
  1053 289.119 -22.8882 -12.3169
  1054 177.585 -8.86070 55.1808
  1055 311.321 0.754648 -20.1343
  1056 231.668 -15.3974 -28.2300
  1057 419.357 89.2838 12.2503
  1058 93.6393 15.5175 -52.8755
  1059 715.748 50.5722 68.8765
  1060 168.198 12.5424 -78.7351
  1061 336.740 -27.8953 -9.38212
  1062 231.731 -15.2655 27.9989
  1063 308.019 3.25813 22.5220
  1064 172.859 -3.51531 17.7431
  1065 172.768 -3.60227 -17.9237
  1066 340.926 -9.48379 -30.0082
  1067 362.478 -1.81498 2.00831
  1068 355.467 -0.795277 5.97884
  1069 351.636 11.6700 37.6140
  1070 328.992 -2.47651 27.1671
  1071 255.035 27.1879 119.868
  1072 377.462 -0.284833 0.619788
  1073 354.028 47.9804 23.9924
  1074 299.760 4.34090 19.4070
  1075 359.958 -1.36684 5.73936
  1076 231.477 -2.50116 -4.46805
  1077 231.518 -2.47262 4.43888
  1078 147.379 -4.18704 -29.5924
  1079 147.960 -4.33774 29.3899
  1080 300.719 14.9959 8.14589
  1081 453.595 24.3878 -33.3516
  1082 416.791 -0.436912 -63.1472
  1083 332.401 -0.294226 -8.28825
  1084 252.912 -26.4515 -44.4832
  1085 289.727 -21.7690 11.0144
  1086 334.322 -0.764882 8.64926
  1087 350.008 -25.3923 -18.1681
  1088 218.480 -0.508620 2.66455
  1089 218.424 -0.517591 -2.68125
  1090 336.098 -28.6940 9.37612
  1091 319.457 -6.52879 0.943989
  1092 319.403 -6.53514 -0.923290
  1093 310.849 -31.3161 11.7479
  1094 400.581 -12.9390 -4.44122
  1095 181.239 -0.324850 -5.03186
  1096 181.536 -0.313526 4.97841
  1097 272.893 -17.2510 -74.9616
  1098 290.250 -6.93336 1.51375
  1099 290.278 -6.97222 -1.52732
  1100 175.627 94.3912 131.710
  1101 402.317 32.9968 -29.2072
  1102 59.2971 28.8995 -39.9896
  1103 347.760 -5.16694 -5.92946
  1104 92.9363 31.8998 -60.6394
  1105 193.337 -12.1802 -37.8554
  1106 377.563 -0.406161 0.388000
  1107 377.710 -0.380578 -0.285587
  1108 342.084 -19.5246 -21.7607
  1109 302.921 -33.9952 -48.2046
  1110 93.6968 13.2095 50.3852
  1111 372.151 36.8376 33.9283
  1112 337.786 -3.39522 -0.523056
  1113 337.824 -3.39793 0.555027
  1114 368.975 -23.7536 58.4418
  1115 381.140 76.3526 13.0505
  1116 226.236 -5.47432 -11.4264
  1117 226.293 -5.44836 11.3446
  1118 171.869 19.6640 93.2451
  1119 323.545 1.64144 -29.7993
  1120 101.486 32.7247 65.1963
  1121 415.626 -7.11789 -19.6688
  1122 408.311 90.2996 3.94586
  1123 280.790 -22.2417 14.9891
  1124 259.009 1.37005 -1.22958
  1125 356.448 -3.11881 7.33942
  1126 369.043 -0.459438 2.86164
  1127 80.6940 0.147616 -14.8949
  1128 81.8023 0.108396 14.7933
  1129 290.409 4.84454 -14.3759
  1130 299.416 -8.80957 -1.07749
  1131 299.347 -8.76790 1.07120
  1132 31.4933 49.5278 -46.4035
  1133 50.0682 108.411 -92.8665
  1134 303.242 -11.8496 0.820896
  1135 303.360 -11.8490 -0.837773
  1136 313.337 -7.54760 0.996649
  1137 313.293 -7.53144 -0.970104
  1138 82.1899 52.5073 65.6007
  1139 247.175 -3.07480 -2.14994
  1140 247.203 -3.05242 2.13955
  1141 310.981 23.4958 -0.338689
  1142 396.734 50.0307 -138.384
  1143 379.431 65.4452 -22.3635
  1144 346.203 -13.2882 -30.5928
  1145 341.031 -17.0016 -22.0881
  1146 280.960 -22.4497 -15.2397
  1147 282.541 0.918441 8.87447
  1148 317.985 19.8148 -21.3754
  1149 313.541 16.8516 20.4177
  1150 324.359 -12.8784 -4.96212
  1151 309.522 -18.7050 0.506320
  1152 281.359 -18.2130 -11.2575
  1153 335.030 -1.96741 16.1154
  1154 592.127 59.7847 8.33955
  1155 337.310 -7.18887 29.3571
  1156 338.431 22.2182 32.1191
  1157 312.306 -30.7464 -8.80342
  1158 38.7229 6.45865 -22.9348
  1159 318.161 -14.7171 -3.50549
  1160 210.981 -0.338180 -0.131499
  1161 211.028 -0.336781 0.130008
  1162 387.694 -10.2859 15.6747
  1163 369.454 -31.1037 13.3562
  1164 530.702 95.0821 23.2602
  1165 126.478 -0.265803 -12.4138
  1166 127.242 -0.238350 12.3198
  1167 284.001 -5.76120 -1.25705
  1168 283.987 -5.72480 1.24763
  1169 319.161 -28.1658 -0.887435
  1170 261.334 1.17466 4.02545
  1171 326.863 -23.2738 7.20449
  1172 18.4415 21.9183 -10.6071
  1173 58.6901 29.2956 39.1070
  1174 218.658 -11.8645 72.4590
  1175 377.956 72.0478 -15.9655
  1176 361.279 -0.996108 -4.53289
  1177 379.169 -0.602249 0.262032
  1178 379.539 -0.823231 -0.166410
  1179 219.637 -0.536113 -0.436559
  1180 219.685 -0.531908 0.433201
  1181 348.324 22.2701 36.4585
  1182 515.553 88.1662 -1.87176
  1183 358.839 59.3622 -16.2458
  1184 268.416 -19.7150 74.4809
  1185 217.493 -11.4018 -72.3219
  1186 241.671 -16.2223 -25.3067
  1187 334.967 -9.34328 6.92080
  1188 467.548 102.961 3.81038
  1189 241.690 -16.1247 25.1061
  1190 342.301 -5.95525 5.23785
  1191 305.306 11.3266 19.4833
  1192 336.646 10.4227 35.0271
  1193 479.792 107.190 11.3972
  1194 284.546 -7.44488 2.34771
  1195 284.561 -7.48146 -2.36481
  1196 346.739 -6.48753 11.2863
  1197 205.161 -2.21587 8.43505
  1198 205.015 -2.23844 -8.51239
  1199 339.184 -4.58959 -2.34330
  1200 139.562 83.0996 -127.338
  1201 293.705 -16.5405 -79.7480
  1202 276.726 -8.70350 -4.38823
  1203 276.754 -8.66327 4.38963
  1204 363.982 -1.69081 1.81343
  1205 344.350 -4.48139 4.18852
  1206 18.7706 23.5218 17.2479
  1207 374.778 -0.411931 1.50196
  1208 44.4748 56.2503 55.8124
  1209 336.293 -4.99853 -3.01185
  1210 -0.429699 -8.25453 -7.22956
  1211 237.638 -23.1854 -56.0877
  1212 236.977 -22.6213 55.5239
  1213 374.766 -0.652530 -1.65976
  1214 320.186 -16.8913 -4.17973
  1215 363.714 -1.53958 -1.86063
  1216 290.829 -9.42790 -2.21849
  1217 290.798 -9.39235 2.19246
  1218 338.965 -4.55646 2.20237
  1219 317.931 -14.4296 3.46882
  1220 305.860 -9.84245 -0.0208090
  1221 305.970 -9.87031 0.0582226
  1222 363.410 -1.58715 -1.51991
  1223 313.539 -32.9909 -54.3693
  1224 355.529 -2.16532 -1.55589
  1225 337.736 -5.13939 3.23560
  1226 235.226 -2.60723 -3.30634
  1227 235.265 -2.58159 3.28651
  1228 262.915 -3.88991 -1.68264
  1229 262.927 -3.86272 1.67396
  1230 426.468 66.4794 21.6635
  1231 358.351 -27.5220 13.5045
  1232 245.681 -1.12640 92.0741
  1233 196.386 -0.340905 3.23804
  1234 196.220 -0.344534 -3.27078
  1235 339.431 -6.25999 22.0662
  1236 324.929 -4.89936 0.643289
  1237 324.944 -4.88241 -0.642891
  1238 371.883 72.4467 7.45799
  1239 340.789 -35.6679 43.0097
  1240 196.812 -2.80665 11.8466
  1241 196.615 -2.82806 -11.9348
  1242 324.433 -7.90144 2.59134
  1243 324.361 -7.95559 -2.51644
  1244 334.788 -9.22771 -6.66978
  1245 307.371 0.0591100 10.4248
  1246 532.014 132.192 -43.8164
  1247 340.960 -12.4613 -19.5169
  1248 58.2494 13.9306 33.3725
  1249 352.251 -18.7617 26.9974
  1250 282.516 6.15779 -7.86340
  1251 21.5013 15.8878 12.0101
  1252 464.426 51.5945 -3.98897
  1253 343.987 -15.6354 -27.2805
  1254 283.876 4.02105 12.0436
  1255 194.702 -12.2001 37.7876
  1256 349.501 -27.0434 16.2126
  1257 507.771 96.7706 30.2761
  1258 117.197 17.3610 64.1577
  1259 351.272 -4.14892 -9.71900
  1260 676.181 7.54391 -6.81648
  1261 698.793 10.5122 30.4096
  1262 746.373 25.4550 -72.2309
  1263 340.503 -10.6164 -24.2864
  1264 340.535 -15.5293 20.6883
  1265 346.007 -24.6166 19.2990
  1266 -10.1840 1.15488 6.47130
  1267 -9.27308 0.918224 -7.03804
  1268 336.822 -37.2086 -19.9587
  1269 345.110 -34.8753 -30.0178
  1270 263.235 1.66674 -4.97190
  1271 335.438 -37.8816 29.9803
  1272 358.328 -16.9865 -27.4018
  1273 6.94249 10.6388 1.12123
  1274 291.086 -5.32461 0.905685
  1275 291.107 -5.36317 -0.908085
  1276 356.223 -2.82725 6.62038
  1277 342.282 -5.84822 -4.92295
  1278 322.256 -35.1855 -10.5087
  1279 294.214 -15.9483 4.69019
  1280 292.725 -15.7259 -5.12137
  1281 345.438 -7.28064 15.4836
  1282 353.988 -12.9970 -31.4969
  1283 22.3159 16.5652 -11.6178
</Section>

newXOutput 20

<Section columns = "stress_xx | stress_yy | stress_xy">
  1 401.491 -0.0796205 0.782533
  2 401.504 -0.0732240 -0.784903
  3 219.145 -0.0804993 -0.283190
  4 -2.77464 -2.74661 -3.98871
  5 722.629 286.745 230.565
  6 715.894 297.206 -230.383
  7 -3.22184 -2.61221 4.24096
  8 219.095 -0.0813201 0.282409
  9 404.312 -0.669887 0.238616
  10 403.463 -1.06035 -0.200403
  11 402.545 -0.704942 0.902021
  12 401.622 -0.973256 0.252268
  13 399.638 -0.818430 1.42107
  14 397.836 -0.827844 1.03664
  15 393.583 -0.732193 2.04065
  16 387.500 -0.505744 3.00730
  17 382.075 -0.539648 3.34953
  18 374.025 -0.757797 4.05150
  19 362.853 -0.0553697 5.99232
  20 352.533 -0.558886 5.69832
  21 340.774 -0.728045 8.03158
  22 323.792 0.515518 6.99043
  23 311.492 0.777400 8.26606
  24 295.446 1.31061 6.46992
  25 284.341 1.37317 6.52365
  26 268.254 1.92571 3.32664
  27 264.863 3.03254 3.56637
  28 262.823 2.48400 -1.05319
  29 265.613 1.43573 -2.31545
  30 270.750 1.39759 -2.83950
  31 282.801 1.76517 -5.66818
  32 294.505 1.39402 -7.17023
  33 311.676 0.306093 -8.50161
  34 325.414 -0.177383 -7.74050
  35 340.052 -0.579487 -7.60185
  36 353.302 -0.436157 -5.36507
  37 364.683 -0.456186 -4.58618
  38 374.061 -0.740856 -3.84670
  39 382.454 -0.529219 -2.67768
  40 387.688 -0.628792 -2.84020
  41 392.744 -0.774681 -2.07546
  42 397.518 -0.918803 -0.903857
  43 399.964 -0.739487 -1.06683
  44 401.245 -0.454249 -0.663615
  45 400.279 -0.249782 -0.605465
  46 403.871 -1.06897 0.134388
  47 404.434 -0.697588 -0.246093
  48 391.261 -0.306528 -0.484183
  49 382.529 -1.63352 -0.877932
  50 371.855 -2.40034 -0.565408
  51 358.835 -3.55377 -0.776799
  52 346.487 -3.88878 -0.959525
  53 333.302 -4.86369 -0.913623
  54 321.628 -5.40758 -0.499441
  55 311.389 -6.04674 -0.176724
  56 299.574 -5.01764 -0.170970
  57 285.956 -4.68798 -0.293701
  58 272.831 -3.69934 -0.0763974
  59 260.395 -2.35834 -0.0193513
  60 248.576 -1.67968 0.0320160
  61 238.208 -0.860003 0.119372
  62 227.606 -0.230039 -0.324005
  63 219.269 0.307348 0.413578
  64 215.529 0.859767 0.280190
  65 218.069 0.00812338 0.659630
  66 215.213 -0.116073 0.795877
  67 212.562 -0.173272 0.992321
  68 208.965 -0.0205549 1.29254
  69 204.429 -0.0114079 1.62762
  70 201.066 -0.266294 3.13416
  71 191.474 0.280470 3.42180
  72 184.718 -0.0190564 3.91622
  73 174.656 -0.175641 4.44270
  74 163.068 -0.296586 5.40745
  75 148.584 -0.0670296 6.56575
  76 130.927 0.0821739 7.23773
  77 115.678 -0.158271 10.3413
  78 85.5513 0.961144 9.75550
  79 65.0298 0.828980 10.3321
  80 40.4410 -0.181323 11.4540
  81 20.0250 1.90498 11.9030
  82 -3.21564 2.84566 7.13376
  83 -20.1083 2.89038 2.51581
  84 -19.5551 2.78486 -1.05394
  85 -18.6432 2.31294 -5.61355
  86 -10.9632 -0.745806 -5.33115
  87 -1.34505 -10.5246 -5.88160
  88 1.03280 -19.3916 -7.35811
  89 2.87692 -30.6205 -4.07739
  90 6.39355 -31.2577 0.343067
  91 13.5351 -7.32574 17.8644
  92 40.3987 62.1731 60.7239
  93 237.340 221.792 206.113
  94 874.542 130.585 146.479
  95 787.739 18.7066 47.7264
  96 732.177 7.74585 14.6049
  97 711.658 6.57158 1.13450
  98 722.506 8.75468 -12.6398
  99 785.913 17.4057 -37.7610
  100 927.001 62.9972 -126.260
  101 140.884 226.710 -172.334
  102 30.2565 43.8511 -50.2374
  103 14.7736 -5.84158 -18.8202
  104 5.97826 -31.2954 -3.20761
  105 1.67940 -23.3201 4.68872
  106 2.12419 -24.4387 6.38417
  107 0.0981928 -9.10056 6.51305
  108 -11.4430 -0.485842 5.05885
  109 -19.2362 1.73603 4.89975
  110 -20.5911 3.38588 1.16558
  111 -20.7594 2.84644 -2.32752
  112 -4.66268 2.91645 -6.68054
  113 18.7456 1.92167 -11.3470
  114 39.1347 0.0206975 -11.2657
  115 63.6832 0.896359 -10.3545
  116 84.3279 0.986578 -9.83099
  117 114.729 -0.162545 -10.4294
  118 130.113 0.0916319 -7.30880
  119 147.874 -0.0641692 -6.64912
  120 162.703 -0.328342 -5.44864
  121 174.167 -0.167018 -4.45483
  122 184.347 -0.00663862 -3.95745
  123 191.170 0.276985 -3.46003
  124 200.848 -0.268887 -3.16659
  125 204.255 -0.0130897 -1.64757
  126 208.834 -0.0221513 -1.30895
  127 212.462 -0.175908 -1.00535
  128 215.137 -0.118330 -0.804981
  129 218.006 0.00617424 -0.665455
  130 215.474 0.858711 -0.282904
  131 219.217 0.306832 -0.415272
  132 227.555 -0.232276 0.323085
  133 238.160 -0.865601 -0.121475
  134 248.534 -1.69202 -0.0344794
  135 260.364 -2.37549 0.0169742
  136 272.813 -3.72405 0.0740604
  137 285.954 -4.71916 0.291874
  138 299.589 -5.05366 0.169154
  139 311.417 -6.08698 0.175949
  140 321.665 -5.44764 0.500801
  141 333.355 -4.90015 0.917713
  142 346.531 -3.91401 0.974234
  143 358.868 -3.57632 0.847190
  144 371.921 -2.26882 0.578104
  145 382.799 -1.59016 0.858625
  146 391.326 -0.367150 0.476913
  147 350.188 -32.8987 -2.28583
  148 349.895 -32.4561 2.41061
  149 367.590 52.8162 -18.0148
  150 391.643 23.0858 38.1095
  151 296.660 -28.5455 -65.3095
  152 299.059 -28.5110 63.2068
  153 288.358 -12.2505 7.84108
  154 288.382 -12.4215 -7.84742
  155 415.215 14.9257 -29.0305
  156 349.256 -12.5623 7.73374
  157 349.108 -12.2590 -7.63730
  158 451.467 100.739 4.61223
  159 357.576 -0.572941 -37.2690
  160 264.683 -20.8454 -29.2627
  161 264.690 -20.6710 29.0043
  162 358.197 -8.10775 33.6269
  163 340.349 24.8292 22.2394
  164 140.601 22.6015 -77.9440
  165 155.910 21.4125 82.1330
  166 438.264 5.00783 3.39368
  167 359.100 -13.7720 -23.3307
  168 475.400 104.417 -1.87434
  169 323.431 -9.13168 -0.000850262
  170 323.362 -9.10296 0.0291986
  171 363.210 -4.39351 -3.37515
  172 364.359 -3.94639 2.91556
  173 254.176 -3.66459 -4.65304
  174 254.208 -3.62644 4.62862
  175 389.957 -10.2835 83.0014
  176 329.485 13.6694 -23.9550
  177 215.452 -16.1545 -46.9716
  178 216.096 -16.0364 46.6638
  179 242.057 -7.96020 -15.3488
  180 242.079 -7.86849 15.2341
  181 360.845 -9.47476 19.8300
  182 327.968 -22.5223 -0.814284
  183 326.812 -22.3547 1.33934
  184 372.811 -36.0722 -6.35369
  185 374.750 -34.3655 1.71486
  186 515.092 121.225 -17.9157
  187 374.805 60.1945 16.8461
  188 375.398 23.0563 -38.3205
  189 388.581 -3.27235 -96.4641
  190 372.474 -21.0445 -26.6800
  191 375.674 -15.0245 31.4543
  192 313.195 -35.5639 32.0130
  193 313.274 -35.3132 -31.9143
  194 335.095 4.26486 28.7843
  195 153.352 -3.74684 -57.4369
  196 153.730 -4.07365 57.0843
  197 580.844 87.0059 12.5648
  198 352.793 -21.0175 14.4713
  199 365.880 -6.71830 -12.8991
  200 290.115 -7.11129 -3.57181
  201 290.120 -7.07461 3.56025
  202 351.305 -4.56451 -25.9177
  203 399.998 58.7222 -30.6413
  204 334.732 30.0716 -4.45739
  205 217.916 -7.73754 21.5864
  206 217.582 -7.76237 -21.7483
  207 371.324 -4.11724 7.04331
  208 361.698 6.80129 38.3288
  209 294.048 -21.4363 -14.1123
  210 292.059 -20.2973 14.4510
  211 426.315 63.2301 28.0107
  212 501.144 68.7095 11.5365
  213 34.0753 26.6388 -21.8755
  214 31.5136 24.6256 18.5882
  215 206.506 59.1230 137.347
  216 349.254 -23.2095 -11.0743
  217 372.666 -3.95489 -6.36242
  218 331.302 2.91107 -26.5070
  219 232.484 -2.32689 -6.81019
  220 232.558 -2.30059 6.75020
  221 314.342 -14.7604 -2.92680
  222 314.487 -14.8507 2.74813
  223 354.329 -4.77512 22.0488
  224 407.862 -23.6191 9.28077
  225 405.210 82.8393 -8.87864
  226 317.769 -30.7072 -15.1120
  227 401.809 -6.99544 24.3360
  228 342.406 -5.75244 1.23324
  229 342.411 -5.70484 -1.23143
  230 315.433 -30.5608 15.7027
  231 361.374 -22.9273 21.7028
  232 507.763 65.6711 -32.3119
  233 112.738 67.1008 -99.5647
  234 306.165 10.7474 5.71779
  235 363.012 32.0055 32.2922
  236 386.694 -2.71273 -34.0662
  237 361.316 -13.0056 -31.4269
  238 192.718 -6.21646 -27.0325
  239 193.386 -6.12233 26.9458
  240 361.898 -4.36606 -17.0376
  241 344.866 -8.73174 4.05248
  242 344.705 -8.71983 -3.91590
  243 72.6918 6.69731 -36.6427
  244 73.8541 5.87113 36.5201
  245 384.164 -33.6124 -29.7937
  246 380.056 -1.35801 0.962853
  247 380.462 -1.38397 -1.04885
  248 354.536 29.3881 -29.5684
  249 312.241 6.00285 17.3449
  250 651.641 104.360 70.0500
  251 646.254 73.5742 -43.8270
  252 468.689 101.066 -0.534337
  253 292.563 -14.1014 86.8807
  254 268.533 -9.16200 -90.8650
  255 308.071 -6.33018 -1.24500
  256 308.043 -6.28925 1.23589
  257 255.872 -6.86779 9.38831
  258 255.871 -6.96274 -9.47194
  259 370.880 -3.99831 10.4934
  260 359.916 -25.6306 -17.8217
  261 233.699 -0.443323 -1.59294
  262 233.752 -0.435730 1.58292
  263 355.394 -14.3878 -14.1954
  264 150.975 -4.94140 -37.4925
  265 151.630 -4.95726 37.2217
  266 359.818 -15.5998 25.1475
  267 274.775 -29.1626 52.5340
  268 275.475 -29.6849 -52.3738
  269 310.643 11.8940 -8.07295
  270 268.060 -4.12246 -3.13486
  271 268.083 -4.09420 3.12259
  272 337.493 -0.842919 21.2408
  273 403.159 73.8132 21.2502
  274 216.281 -2.64777 11.5303
  275 216.115 -2.67005 -11.6291
  276 369.581 -30.8670 12.4102
  277 342.125 -38.3873 -35.2189
  278 381.465 -1.84382 3.26602
  279 265.237 -15.7348 -19.9975
  280 264.778 -15.5585 19.9209
  281 469.190 49.5167 121.969
  282 221.934 -17.9108 62.6878
  283 357.899 50.2598 -1.91156
  284 452.234 50.0362 -18.1406
  285 341.221 -26.3954 4.27274
  286 342.385 -39.4376 31.7424
  287 222.609 -17.6178 -63.3971
  288 41.3236 50.9745 46.3492
  289 355.455 -14.4388 14.4574
  290 465.819 60.9816 14.0664
  291 384.471 -1.64613 -2.83184
  292 348.527 12.1966 -34.0358
  293 343.843 -19.4474 7.72590
  294 336.668 -28.4228 0.963825
  295 347.257 15.9409 32.7938
  296 367.812 -30.8766 -11.0711
  297 520.794 101.259 -8.91867
  298 343.750 -18.6928 -7.38992
  299 283.940 81.7893 -168.074
  300 351.441 -37.2566 -6.94265
  301 348.958 -38.2724 10.9423
  302 256.558 -23.2219 -41.2856
  303 231.574 -0.889056 -3.46599
  304 231.639 -0.873597 3.43835
  305 256.667 -23.2401 41.0607
  306 371.816 -0.627999 -38.4928
  307 401.203 -16.6132 -16.0576
  308 305.747 -18.4259 -7.48212
  309 305.548 -18.4681 7.62009
  310 365.383 -31.4498 56.3287
  311 364.869 -2.92726 12.8975
  312 443.001 2.17017 20.0548
  313 299.555 -10.5835 -4.11879
  314 299.574 -10.5477 4.09527
  315 272.916 -7.11500 -6.18460
  316 272.917 -7.04810 6.17510
  317 309.024 4.15872 -16.7748
  318 396.355 29.0436 -36.9436
  319 611.940 165.131 -78.6584
  320 361.039 -3.18947 -1.12548
  321 360.833 -3.14677 1.15596
  322 193.625 -0.379623 78.2230
  323 271.507 -12.3268 -13.2347
  324 270.994 -12.2845 13.2684
  325 193.589 -0.830666 -77.9247
  326 377.918 44.5949 -31.4481
  327 422.725 20.9395 27.5612
  328 365.361 -26.0707 -62.5403
  329 336.142 -12.9810 3.33715
  330 335.800 -12.8861 -3.19095
  331 358.680 -7.44610 -6.86143
  332 337.732 -0.638941 -19.8644
  333 378.663 1.61857 37.6840
  334 377.652 -2.65282 -7.22931
  335 227.456 -13.8141 31.4856
  336 227.206 -13.8915 -31.7288
  337 352.345 -0.797516 35.3898
  338 217.593 -1.77927 -6.84253
  339 217.733 -1.76256 6.77996
  340 361.339 -8.31574 10.7447
  341 433.442 88.5078 -15.5913
  342 358.502 -7.50214 7.11971
  343 382.155 47.9779 31.5571
  344 365.678 -6.80789 36.6703
  345 289.758 -5.43438 1.30609
  346 289.760 -5.46810 -1.31494
  347 346.180 -1.23617 -31.4058
  348 457.938 96.2534 9.86662
  349 380.975 69.8220 0.658647
  350 233.364 27.1193 -116.270
  351 24.1476 10.5573 -15.9585
  352 26.4795 11.4229 17.1701
  353 -1.15116 2.70726 7.00255
  354 0.272123 1.53218 -7.31534
  355 667.358 46.2944 15.8873
  356 315.621 -25.6321 -8.87932
  357 361.619 -8.03629 -10.4829
  358 326.397 -5.75994 0.430410
  359 326.359 -5.71366 -0.432432
  360 349.412 38.5949 -16.0135
  361 298.101 -30.3807 26.3423
  362 26.1923 38.9814 -28.7438
  363 298.383 -30.3731 -26.8216
  364 353.970 40.2575 17.0404
  365 360.816 -9.63413 -18.8821
  366 382.679 -21.3644 -22.6735
  367 407.935 86.1011 6.12069
  368 383.547 -23.9627 18.6720
  369 159.105 -3.96457 25.1126
  370 158.155 -3.88797 -25.2742
  371 90.0710 2.19461 -34.8818
  372 91.0219 1.83502 34.7261
  373 313.887 1.04691 16.9647
  374 594.135 173.782 67.8777
  375 372.978 -2.38729 -9.20487
  376 290.531 -24.5425 -20.1780
  377 290.292 -24.4796 20.1508
  378 358.712 -8.28534 -23.9614
  379 408.279 -19.7378 2.63621
  380 315.610 -25.6087 9.14801
  381 447.857 3.33024 -36.9844
  382 253.954 -2.04888 -1.21404
  383 253.991 -2.03121 1.20534
  384 352.871 -2.06024 -15.3187
  385 190.531 -2.75069 -16.3856
  386 190.652 -2.83896 16.1863
  387 421.364 53.8255 -31.1570
  388 227.887 16.0831 108.021
  389 330.070 -17.3320 1.49158
  390 330.393 -17.3015 -1.50699
  391 387.891 65.6105 -19.9605
  392 367.081 -10.8920 -34.7313
  393 367.902 -37.6073 30.8496
  394 307.000 -8.16421 -1.94429
  395 306.965 -8.12462 1.92507
  396 354.168 -27.3356 11.8952
  397 381.235 -1.84003 5.36884
  398 238.233 -8.69131 -19.2068
  399 238.329 -8.69141 19.0433
  400 359.844 12.0780 -37.8117
  401 339.535 -7.39343 1.85720
  402 339.520 -7.41090 -1.81253
  403 351.380 -4.14899 28.8411
  404 327.787 23.8948 7.69304
  405 364.146 -15.3921 30.2913
  406 525.849 110.019 19.7921
  407 176.250 -9.48562 -50.2836
  408 176.741 -9.48825 49.9014
  409 78.7875 42.1823 -60.0738
  410 389.838 -1.17444 1.47481
  411 198.644 -1.67956 -10.3706
  412 198.908 -1.64398 10.2816
  413 358.995 -9.37934 23.4625
  414 325.672 -35.3500 17.4159
  415 367.589 -4.59921 4.85523
  416 374.747 19.0203 39.3958
  417 82.5810 44.9146 62.6245
  418 326.159 -35.1502 -16.0282
  419 337.007 -31.3268 -3.27928
  420 110.407 -2.21447 -31.6032
  421 111.236 -2.29722 31.3854
  422 258.902 -20.7390 -75.5996
  423 386.753 -5.79175 33.2269
  424 257.925 -21.0482 74.9366
  425 357.362 -20.0827 -19.5375
  426 332.360 22.4322 -16.8478
  427 357.419 -15.4615 18.5667
  428 384.356 -1.74687 -3.61245
  429 11.7576 12.5723 5.60146
  430 78.1150 90.2224 88.7824
  431 344.187 -1.26373 14.7845
  432 289.296 3.98084 7.35357
  433 294.274 4.84796 -9.97355
  434 251.070 -4.14660 -6.62411
  435 251.097 -4.09349 6.58103
  436 352.359 -27.3185 -10.8793
  437 356.117 -6.98633 -32.2717
  438 290.836 5.47343 -2.70895
  439 525.643 125.235 26.1714
  440 73.0722 24.2049 -45.0187
  441 80.5315 22.2137 48.0882
  442 329.765 -11.7661 1.41297
  443 329.640 -11.7382 -1.32561
  444 439.545 97.0513 -1.22576
  445 274.231 113.754 171.813
  446 422.573 -5.90334 -5.60025
  447 243.366 -12.6865 -26.0563
  448 243.481 -12.5994 25.8361
  449 245.017 -5.46668 10.3109
  450 244.971 -5.50696 -10.4037
  451 330.396 7.34789 -27.2986
  452 391.821 -0.589378 -0.977084
  453 321.272 14.7576 15.3405
  454 405.481 50.0494 33.8507
  455 337.653 -25.0684 -3.02814
  456 367.441 -4.37955 -4.71840
  457 385.929 -1.58472 3.32704
  458 390.691 -0.631434 0.558152
  459 391.003 -0.708787 -0.408294
  460 216.228 -0.384545 2.53526
  461 216.120 -0.390296 -2.56151
  462 369.255 -23.4861 23.6182
  463 333.557 13.1713 26.4391
  464 348.520 1.41541 -34.5292
  465 363.691 -7.69427 14.0016
  466 523.347 88.7694 -102.832
  467 364.604 -20.2533 -26.4656
  468 3.67079 6.93050 2.92205
  469 3.63355 7.04850 -1.11703
  470 289.138 -16.3681 11.4051
  471 288.175 -16.1483 -11.2656
  472 452.617 8.61490 55.4787
  473 126.778 115.854 -130.416
  474 359.879 -1.10768 11.4719
  475 407.475 -23.7073 -31.6846
  476 217.760 -12.5281 36.4444
  477 436.957 77.5374 -22.4192
  478 359.368 -19.4745 22.1608
  479 301.937 -14.4255 -5.69086
  480 302.203 -14.1868 5.67499
  481 313.811 1.68405 -14.9789
  482 217.081 -12.4786 -36.6689
  483 321.709 0.153728 15.0543
  484 307.926 -35.2255 -46.9729
  485 307.156 -35.2793 47.1442
  486 370.882 -2.48029 10.1643
  487 337.435 31.8278 3.17957
  488 341.994 5.96489 117.572
  489 503.157 102.322 -0.640903
  490 347.709 -5.89474 2.18507
  491 347.728 -5.87348 -2.26362
  492 267.876 -4.74750 -4.20994
  493 267.896 -4.70802 4.19432
  494 141.564 6.49042 65.7542
  495 360.982 -17.4093 -25.9219
  496 327.432 -7.14439 0.240006
  497 327.399 -7.11941 -0.233141
  498 285.296 -30.1982 38.4422
  499 144.293 8.57932 -67.4197
  500 361.432 -29.4740 -12.4654
  501 6.29718 1.46311 2.72108
  502 316.477 16.3685 1.12075
  503 348.958 -4.07637 -0.716499
  504 348.950 -4.13174 0.699751
  505 285.466 -30.1456 -38.7398
  506 407.885 -20.9592 40.3971
  507 404.573 14.6882 34.3931
  508 373.264 -2.57214 -2.33160
  509 360.328 -29.8882 12.6485
  510 226.577 -0.212140 -0.455900
  511 226.630 -0.210103 0.452132
  512 359.898 -13.8400 -27.6853
  513 348.833 25.8181 28.9155
  514 399.627 9.86833 -33.9766
  515 225.204 -0.352271 -1.42664
  516 225.265 -0.347347 1.41693
  517 695.480 100.473 -89.8334
  518 362.946 43.2163 25.4530
  519 373.587 -2.37383 2.07515
  520 337.752 -32.0179 4.09500
  521 284.260 -9.39634 6.30341
  522 284.257 -9.46791 -6.29057
  523 392.854 -23.9515 10.1412
  524 377.730 -7.56880 -35.0739
  525 422.345 83.1808 18.8785
  526 351.550 6.05277 35.8090
  527 354.222 -6.84462 4.32007
  528 344.174 -36.7525 -45.2782
  529 357.215 -8.85999 27.3152
  530 687.247 31.5368 -12.5743
  531 389.955 -29.4228 -0.307998
  532 370.946 -2.49632 -0.545613
  533 371.036 -2.65376 0.477167
  534 694.397 46.5870 44.0492
  535 342.844 -0.108340 30.4558
  536 479.335 80.7126 -7.50170
  537 360.509 -9.83354 -13.5881
  538 163.629 -1.53237 -11.2053
  539 164.135 -1.45859 11.0916
  540 244.405 -22.8806 -52.5452
  541 244.601 -22.4972 52.1562
  542 354.027 -6.56307 -4.28176
  543 385.396 14.1353 -38.3912
  544 338.652 -23.0472 4.32462
  545 364.543 41.7942 -26.4056
  546 366.935 -4.29049 13.6787
  547 459.345 23.1422 -5.72009
  548 314.134 -10.7704 -1.70063
  549 314.039 -10.7331 1.68029
  550 341.037 -16.1071 5.72429
  551 502.048 99.6989 -8.02823
  552 359.465 15.7257 37.1900
  553 153.886 39.5770 97.1758
  554 346.812 -20.8054 78.6967
  555 457.517 22.4772 -86.8041
  556 367.499 30.3846 -34.5972
  557 325.694 -28.1733 -68.2438
  558 352.780 -38.6767 -13.7078
  559 368.326 -37.3167 -20.0059
  560 48.5056 63.0227 -59.7275
  561 370.254 -4.71856 -8.37271
  562 556.419 108.181 -31.7238
  563 342.848 -15.4534 -6.41491
  564 345.657 -11.2682 5.29432
  565 345.337 -11.0123 -5.07565
  566 239.169 -1.37402 -3.15018
  567 239.220 -1.35625 3.12934
  568 34.2843 3.54218 -19.2324
  569 36.1618 3.71414 19.6764
  570 178.092 -8.27486 -38.3551
  571 179.446 -8.31999 38.2970
  572 350.406 -19.0014 -12.2635
  573 356.885 -38.8349 14.8169
  574 366.842 -34.8465 1.98873
  575 301.167 -5.33117 -1.14232
  576 301.150 -5.29325 1.13642
  577 285.548 -29.9594 -58.4091
  578 319.467 -26.2218 72.1897
  579 278.664 -28.1756 58.7363
  580 360.573 -8.01951 -34.6749
  581 226.611 -3.76952 11.5871
  582 226.500 -3.80882 -11.6827
  583 344.051 19.0235 -29.0462
  584 344.430 -0.604313 -13.4171
  585 429.920 93.2829 -8.48009
  586 281.262 -4.25858 -1.12188
  587 281.270 -4.23038 1.11659
  588 366.875 -1.09525 -7.54018
  589 253.895 -8.57960 -12.8518
  590 253.902 -8.54961 12.7410
  591 207.221 9.54702 92.9673
  592 357.068 -16.4441 -18.7669
  593 199.636 -10.5703 66.8046
  594 350.895 -18.1956 12.5345
  595 369.265 -5.24031 9.25186
  596 364.588 -3.37396 -2.05764
  597 256.893 -3.18053 -2.93594
  598 256.926 -3.15446 2.92079
  599 412.398 82.3226 -17.0264
  600 199.492 -10.1730 -67.0538
  601 349.725 -15.1565 -10.0073
  602 315.624 -5.87785 -0.569497
  603 315.591 -5.83479 0.567185
  604 591.222 79.5579 -14.1003
  605 210.032 -1.34970 6.39049
  606 209.850 -1.36285 -6.44988
  607 326.490 7.49558 24.9114
  608 465.545 39.1120 -4.98406
  609 220.773 1.49979 -92.2686
  610 113.333 2.85353 -50.3453
  611 114.269 2.20869 50.0789
  612 277.034 -16.1747 15.9452
  613 279.911 -16.6513 -15.4932
  614 470.904 94.9133 8.05323
  615 363.104 -3.49584 1.85694
  616 312.426 8.80303 -15.0515
  617 388.880 69.8723 15.7902
  618 387.497 72.5072 -10.5008
  619 318.436 -17.6562 -2.76843
  620 320.851 -17.2592 1.63336
  621 228.274 49.7865 -132.549
  622 273.976 -9.38124 -8.87368
  623 273.999 -9.27410 8.84332
  624 691.767 141.623 106.664
  625 360.084 -11.8107 29.8990
  626 206.239 -7.30185 -24.5721
  627 557.516 130.211 87.3610
  628 206.718 -7.26126 24.4794
  629 343.975 -13.1193 -91.8558
  630 243.533 -1.20203 -1.16109
  631 243.578 -1.19162 1.15523
  632 301.330 2.71244 13.1309
  633 137.294 -2.04634 -22.0556
  634 138.053 -2.05155 21.8833
  635 314.350 -22.2608 6.83390
  636 329.584 -26.4056 -2.04582
  637 388.071 -0.856312 -3.05085
  638 219.778 -0.355248 1.87401
  639 219.694 -0.361581 -1.89330
  640 296.691 -6.69976 -1.74912
  641 296.679 -6.66224 1.73612
  642 340.047 -37.7445 45.7494
  643 390.855 43.6390 -34.7715
  644 260.443 -12.1606 -16.5624
  645 260.258 -11.9556 16.4432
  646 308.567 -22.2129 -9.46247
  647 485.524 105.670 3.15929
  648 364.682 -35.2980 0.0155663
  649 316.818 -7.60067 -0.826420
  650 316.771 -7.56336 0.826747
  651 435.375 47.6748 26.0967
  652 365.440 -5.29187 -14.8669
  653 323.558 -0.392451 -12.2589
  654 150.039 -5.12514 -48.2395
  655 150.498 -5.26844 47.8474
  656 307.743 -26.5671 -15.1604
  657 461.225 101.568 0.178311
  658 357.999 48.4727 -11.4646
  659 237.932 -2.17233 -5.79160
  660 237.988 -2.14211 5.74556
  661 333.772 -9.45216 -1.47503
  662 333.837 -9.46240 1.54579
  663 620.520 80.9989 35.7017
  664 393.872 -1.07944 0.816308
  665 380.818 -1.51780 5.25958
  666 379.349 -1.54445 -6.17339
  667 360.252 -33.5473 5.23926
  668 265.650 -3.09894 -1.46697
  669 265.676 -3.07684 1.46043
  670 385.080 61.7122 24.3259
  671 493.657 109.685 -6.68622
  672 270.593 -20.1264 -23.4637
  673 270.516 -19.9288 23.3463
  674 338.121 -34.8461 -7.33753
  675 356.837 21.2118 -35.0111
  676 423.127 1.11704 14.6290
  677 281.404 -5.24560 -2.92901
  678 281.413 -5.21187 2.91706
  679 243.413 -21.3522 -47.4430
  680 356.851 -34.5217 -1.94805
  681 296.735 -32.9090 42.3553
  682 142.133 44.8570 -93.7740
  683 277.215 -25.6934 32.6729
  684 334.395 0.0910883 11.3177
  685 243.639 -21.1102 47.1259
  686 349.522 -15.4493 10.1308
  687 277.304 -25.5854 -32.9697
  688 284.486 3.71920 2.75630
  689 220.046 -5.92218 17.4801
  690 219.850 -5.92844 -17.6023
  691 296.893 -33.7620 -42.8257
  692 366.812 -24.1792 -22.8288
  693 336.460 -4.74510 -0.388838
  694 336.514 -4.79407 0.390691
  695 374.848 -23.8944 22.5775
  696 340.711 -35.6104 8.69911
  697 413.871 37.9703 33.4912
  698 373.507 -7.01196 36.1680
  699 359.410 -12.9130 21.9719
  700 343.672 28.2641 -22.0335
  701 413.003 69.4542 26.5137
  702 356.606 -4.94125 -21.3970
  703 355.282 -11.7949 11.2127
  704 367.566 57.5420 6.19455
  705 361.501 -6.14418 18.6002
  706 114.066 77.6148 98.3302
  707 336.410 -38.7005 -26.5123
  708 389.506 7.07148 36.7312
  709 393.162 -12.1741 -25.9645
  710 392.070 -0.535220 1.67836
  711 359.136 -12.3553 -17.2620
  712 336.903 -39.0046 24.1075
  713 650.464 57.6103 -9.63981
  714 201.492 -0.863783 6.68720
  715 201.251 -0.873247 -6.74990
  716 364.180 -6.64001 -8.00164
  717 394.387 -0.408748 -1.63853
  718 307.184 -26.9972 15.2401
  719 368.733 -13.7331 32.8136
  720 559.081 133.915 -41.9511
  721 349.501 -25.3418 10.2777
  722 387.319 -25.5156 -13.1347
  723 355.412 -11.4798 -11.0326
  724 394.185 -0.698515 -0.523258
  725 360.041 -0.0390291 37.7164
  726 16.6799 15.6415 21.0934
  727 405.627 -15.5287 -59.9552
  728 441.532 26.2440 16.1016
  729 367.947 -37.6067 17.8878
  730 262.867 -6.32224 7.26482
  731 262.866 -6.41022 -7.29965
  732 342.159 174.619 -180.440
  733 375.007 -24.8187 -20.8333
  734 283.380 1.50224 -5.26948
  735 329.902 1.83289 24.2757
  736 361.841 -18.1170 26.3452
  737 346.826 -29.2279 4.96685
  738 360.415 -32.8741 -49.1654
  739 344.709 -27.2764 -5.61811
  740 406.936 -19.4857 -4.03353
  741 374.814 -3.08644 4.66566
  742 334.788 -20.1206 2.86828
  743 606.950 121.323 -64.7909
  744 356.971 -9.56853 8.87808
  745 353.416 5.78804 -36.7678
  746 301.492 -3.36092 103.259
  747 378.507 30.4716 37.4850
  748 325.603 -25.6434 3.72784
  749 251.697 -19.8325 -34.6826
  750 251.722 -19.7782 34.4022
  751 346.378 38.9523 -5.13062
  752 352.195 -4.08013 32.7851
  753 355.963 -8.47869 -27.9178
  754 335.167 -20.5333 -2.97378
  755 324.084 -29.0522 8.61589
  756 370.383 61.0979 -6.98737
  757 346.401 -29.9816 -3.60156
  758 347.266 -21.9874 10.0155
  759 351.790 -4.54147 1.53080
  760 352.004 -4.41954 -1.51970
  761 473.223 103.842 2.14258
  762 386.881 -32.9143 -11.9835
  763 360.226 -11.0415 17.1964
  764 374.943 -3.07802 -4.24134
  765 379.092 2.51046 -38.0465
  766 431.303 22.7249 -21.9817
  767 212.310 -0.202684 -3.12661
  768 212.449 -0.199667 3.09546
  769 3.09141 -6.46236 -4.55732
  770 367.762 -0.436821 6.97982
  771 337.374 -0.542481 -26.8356
  772 348.404 -3.26358 23.6256
  773 317.450 39.5530 151.316
  774 396.527 81.4878 -0.845875
  775 282.120 -20.1983 18.3347
  776 49.7851 1.10383 -18.9774
  777 51.2079 0.811337 19.1793
  778 345.333 -2.45829 -26.6673
  779 282.879 -20.3989 -18.3315
  780 372.738 -3.38510 3.53185
  781 191.153 -8.16253 32.7303
  782 189.522 -8.13370 -32.7434
  783 356.947 -9.29137 -8.64611
  784 228.514 -5.77028 -15.2201
  785 228.628 -5.73251 15.0863
  786 371.690 -3.52267 -10.2616
  787 284.161 -7.60087 -5.03856
  788 284.171 -7.55144 5.04042
  789 405.779 -2.56973 -25.9727
  790 365.400 -3.83380 -37.8134
  791 186.442 -1.19235 -8.51924
  792 186.801 -1.18123 8.42105
  793 9.44171 4.66754 -11.5554
  794 11.0806 4.92516 12.1545
  795 296.729 1.42955 -9.53731
  796 333.673 -37.4908 -19.8071
  797 -3.82325 -2.63904 6.61336
  798 -3.35807 -3.12675 -6.58045
  799 347.256 -6.98293 3.29398
  800 376.477 -29.3923 -11.6415
  801 388.946 57.6274 -28.3736
  802 374.326 -3.04509 -3.35780
  803 796.848 160.941 -149.673
  804 347.183 -6.96080 -3.25058
  805 522.186 99.4770 8.19369
  806 371.686 10.8156 -39.4461
  807 410.380 30.9753 -34.3062
  808 69.4205 -0.815438 -17.5192
  809 70.6845 -0.917335 17.4880
  810 232.344 -3.35459 9.02749
  811 232.261 -3.38248 -9.10701
  812 221.971 -0.523336 1.69149
  813 221.902 -0.528827 -1.70491
  814 415.080 69.8789 -26.2699
  815 245.962 -1.53556 -2.50307
  816 246.007 -1.51795 2.48925
  817 353.277 -3.55750 -34.2266
  818 508.604 52.5202 44.4056
  819 318.255 7.12766 -20.9528
  820 110.603 -0.990772 18.7557
  821 109.676 -0.999964 -18.9024
  822 410.110 11.3296 108.704
  823 363.818 -6.69446 8.25854
  824 325.800 21.6363 -8.72755
  825 151.026 -0.239174 12.7756
  826 150.260 -0.169151 -12.8693
  827 226.612 -1.15603 -4.42750
  828 226.696 -1.13942 4.38710
  829 40.6855 36.1976 31.3499
  830 339.579 8.10564 31.1179
  831 377.735 55.4929 -24.3525
  832 406.241 47.1671 -34.1637
  833 267.329 -10.1069 -11.6193
  834 267.176 -10.0318 11.6042
  835 420.852 89.5207 11.8965
  836 363.060 -3.04543 -0.436131
  837 363.083 -3.02268 0.496873
  838 359.481 -10.7899 -22.1815
  839 301.292 -20.0777 10.7292
  840 331.643 -37.2664 19.8988
  841 389.408 -31.9067 30.9468
  842 298.674 -8.67426 -3.00460
  843 298.671 -8.64191 2.98478
  844 341.679 31.6743 14.1555
  845 321.165 4.40082 -22.6243
  846 89.2504 106.155 102.349
  847 325.093 -28.8148 -7.81793
  848 326.191 -14.5808 0.526363
  849 326.366 -14.6111 -0.544619
  850 358.841 -5.29124 35.9576
  851 355.727 -23.3826 -16.2817
  852 317.824 -21.0450 -4.37088
  853 721.640 23.3629 -35.6374
  854 302.173 -28.5888 20.8519
  855 301.930 -28.9593 -21.1862
  856 358.429 -4.28989 18.1952
  857 538.670 139.286 -31.6280
  858 283.621 -25.7657 -25.9980
  859 313.173 -35.2610 24.7594
  860 283.548 -25.4562 25.7699
  861 307.418 -12.3792 -3.46623
  862 307.410 -12.3379 3.44182
  863 45.7935 19.4045 27.2377
  864 385.198 28.7787 -37.9047
  865 295.087 -11.5205 -5.48800
  866 295.141 -11.4047 5.50746
  867 291.472 -4.83334 -0.664995
  868 291.467 -4.80026 0.660663
  869 320.372 -6.38536 -0.121843
  870 320.333 -6.34370 0.119510
  871 260.782 -5.11168 -6.28135
  872 260.804 -5.05458 6.25536
  873 296.183 -15.5837 -8.26859
  874 296.222 -15.4780 8.30464
  875 7.22095 -2.34217 -3.59570
  876 446.007 83.6848 19.3048
  877 383.750 -13.4719 -30.1602
  878 312.912 -34.7493 -25.0186
  879 337.940 -10.8986 2.99466
  880 337.791 -10.7869 -2.90209
  881 368.516 0.452563 38.6351
  882 400.163 -28.5458 -17.3141
  883 353.952 25.3828 -131.331
  884 161.698 -2.65884 64.9761
  885 -5.77919 3.77072 -4.51323
  886 -4.99284 4.25700 4.98846
  887 45.4999 20.6366 -27.8106
  888 360.045 -10.3618 13.5025
  889 378.625 -2.49231 -5.67764
  890 340.583 -32.7806 56.4047
  891 161.314 -2.49065 -65.2333
  892 379.540 -31.0850 7.98811
  893 422.164 -12.3585 49.2411
  894 307.438 1.24584 10.1075
  895 352.069 33.4906 24.0911
  896 190.881 -10.7555 47.7639
  897 190.144 -10.8423 -48.0785
  898 228.938 -10.8947 -26.7965
  899 240.067 -11.7959 -82.8193
  900 379.823 -8.89907 33.9892
  901 521.083 122.676 19.5770
  902 381.433 14.6592 38.6540
  903 360.536 -7.70128 -20.2529
  904 245.099 -10.5680 84.8754
  905 459.274 84.7144 -13.9497
  906 45.8549 38.9502 -38.6126
  907 333.477 -0.665213 -10.7957
  908 229.178 -10.8052 26.5602
  909 279.203 -6.16010 4.43664
  910 279.194 -6.20213 -4.44633
  911 356.243 -23.2577 16.8256
  912 369.660 -2.37806 1.33330
  913 272.077 2.48349 -102.885
  914 389.628 -0.868280 2.68529
  915 386.786 -0.714439 -3.44182
  916 290.042 2.52449 -8.77543
  917 374.031 -1.52586 -6.18111
  918 280.070 -13.1033 -10.7525
  919 280.258 -12.9076 10.7857
  920 -9.12086 3.44015 -5.23622
  921 -12.6235 2.07509 5.55897
  922 369.649 -2.21015 -1.35671
  923 122.952 -2.79272 43.8551
  924 122.220 -2.53099 -44.1035
  925 395.277 57.6470 29.9296
  926 704.809 12.7395 11.0107
  927 372.170 41.3833 31.5558
  928 420.889 -14.7735 14.2565
  929 366.211 -20.3980 26.5169
  930 455.842 95.5037 -10.6312
  931 283.899 1.22106 6.61612
  932 352.314 -8.30268 -5.30902
  933 366.270 19.6949 -38.1924
  934 441.909 13.1589 -6.69025
  935 343.517 -21.2182 -7.80270
  936 176.208 -0.981556 -9.53261
  937 176.389 -0.946767 9.39852
  938 362.403 -8.52337 -15.8060
  939 12.2112 15.4501 3.33072
  940 347.888 -36.0672 -3.92373
  941 302.085 8.95843 -0.904668
  942 452.796 99.4533 -7.05562
  943 71.8975 53.4599 -63.8975
  944 348.425 -2.59546 -21.1697
  945 241.947 -4.04188 -8.44203
  946 241.995 -3.99442 8.37156
  947 2.13307 -9.87221 7.49827
  948 236.962 -17.6360 -38.4503
  949 354.406 -20.4924 -15.8159
  950 221.233 0.475750 -0.702699
  951 221.289 0.477977 0.698011
  952 358.203 43.4647 -19.2813
  953 383.425 -1.15648 -0.541973
  954 383.438 -1.17180 0.712793
  955 237.069 -17.5881 38.1917
  956 358.805 -0.498560 -8.35381
  957 412.442 2.98203 24.9867
  958 365.955 -5.17995 6.36708
  959 58.8653 14.8692 -34.3338
  960 379.382 -2.31307 5.14084
  961 344.668 2.78447 33.2938
  962 363.487 50.3373 17.1505
  963 363.540 4.21219 -39.0521
  964 250.796 -13.4429 -23.0284
  965 392.050 -13.9069 25.0383
  966 250.960 -13.3913 22.7979
  967 11.6585 12.6567 -1.27779
  968 43.3249 7.39997 25.1668
  969 204.949 -3.62321 15.7883
  970 204.699 -3.62606 -15.8771
  971 352.563 -8.45936 5.60081
  972 379.364 65.9541 9.47282
  973 193.214 17.6591 -97.4715
  974 317.232 -19.8054 3.82478
  975 297.783 -31.1315 -31.2861
  976 433.786 83.1059 20.2358
  977 333.808 -5.90842 0.421242
  978 333.795 -5.87617 -0.423670
  979 365.596 -6.77341 -11.3160
  980 338.506 29.2344 -13.0572
  981 761.635 226.641 152.823
  982 70.9546 3.96564 -33.0484
  983 72.0536 3.29493 33.1210
  984 5.27778 -6.43168 1.90696
  985 339.494 18.8238 26.8018
  986 297.705 -31.3210 31.0568
  987 368.752 -17.4313 -30.2335
  988 401.168 32.7811 37.2825
  989 385.313 -31.1159 -37.9282
  990 562.539 118.348 39.4597
  991 327.747 -5.31727 -0.171637
  992 327.704 -5.27339 0.171839
  993 383.397 -15.6486 28.5721
  994 26.6031 44.6699 46.1587
  995 173.204 -3.63673 22.6018
  996 172.666 -3.59008 -22.8421
  997 206.610 -10.1090 30.9149
  998 205.902 -9.95417 -31.0302
  999 232.647 -9.59451 22.2283
  1000 254.341 -2.02127 -1.13046
  1001 254.379 -2.00627 1.12587
  1002 630.835 201.940 -129.054
  1003 572.757 143.564 59.3610
  1004 232.458 -9.64329 -22.4140
  1005 394.886 -1.83156 31.5435
  1006 353.739 36.7058 -23.1887
  1007 249.937 -21.5122 68.6795
  1008 320.796 -37.9029 -37.1295
  1009 366.595 -3.01637 -12.2094
  1010 165.686 11.3347 79.3843
  1011 212.601 -16.2379 54.8755
  1012 324.598 16.6566 -16.7970
  1013 370.753 -7.35380 -36.5936
  1014 470.283 193.683 205.727
  1015 306.749 9.40479 11.9683
  1016 416.771 89.7288 -1.43658
  1017 305.926 12.0599 -116.880
  1018 311.514 -32.7788 -21.3762
  1019 394.695 -0.435361 -1.33494
  1020 379.371 34.8399 -36.5071
  1021 222.928 -1.43875 5.68634
  1022 222.822 -1.45335 -5.73936
  1023 8.20467 4.68181 -11.9585
  1024 251.010 -11.4608 -19.2054
  1025 212.341 -16.4472 -55.2872
  1026 250.821 -11.4355 18.9954
  1027 362.458 -11.0417 33.8436
  1028 325.247 -20.1020 -0.918800
  1029 341.817 6.29333 -32.2637
  1030 351.739 43.9312 6.77045
  1031 475.692 29.0143 17.8189
  1032 358.978 -27.2777 15.9776
  1033 227.397 -18.1750 -42.0713
  1034 338.959 12.0049 -30.2129
  1035 252.091 -21.2263 -69.0381
  1036 483.495 104.842 -2.04149
  1037 329.577 21.6515 15.2812
  1038 415.546 -2.42705 -19.0033
  1039 313.448 -32.7938 19.6952
  1040 359.090 -11.3881 26.1269
  1041 356.706 -18.8361 18.6606
  1042 354.747 -17.8458 16.1382
  1043 437.807 55.6518 -26.8445
  1044 354.425 -5.71900 26.5960
  1045 320.281 -38.0087 36.5275
  1046 341.866 -13.9809 5.18816
  1047 227.540 -18.2099 41.8386
  1048 321.116 -23.6573 -4.66105
  1049 187.015 -9.09296 -58.6848
  1050 266.458 -27.6601 46.6127
  1051 360.884 -2.45429 -14.1950
  1052 351.625 -3.96949 -30.2609
  1053 304.652 -24.0946 -13.1002
  1054 187.336 -9.35415 58.2276
  1055 328.181 0.802996 -21.0986
  1056 244.319 -16.2065 -29.8031
  1057 441.659 93.9746 12.7066
  1058 98.9006 16.3338 -55.8661
  1059 752.014 53.1254 72.2709
  1060 177.365 13.1783 -83.0938
  1061 354.649 -29.3839 -9.65182
  1062 244.386 -16.0684 29.5612
  1063 324.728 3.44817 23.6083
  1064 182.560 -3.69821 18.7128
  1065 182.465 -3.78956 -18.9020
  1066 359.127 -9.99669 -31.3800
  1067 381.536 -1.93356 2.07560
  1068 374.318 -0.845900 6.24260
  1069 370.421 12.2884 39.3657
  1070 346.661 -2.60919 28.4435
  1071 268.561 28.6639 126.396
  1072 397.195 -0.309046 0.639447
  1073 373.020 50.5384 25.1146
  1074 316.084 4.59187 20.3486
  1075 378.995 -1.44834 5.98898
  1076 244.261 -2.62191 -4.72881
  1077 244.305 -2.59207 4.69840
  1078 155.674 -4.41037 -31.2142
  1079 156.283 -4.56921 31.0029
  1080 317.097 15.8319 8.54303
  1081 477.178 25.8261 -35.4906
  1082 438.475 -0.341729 -66.7724
  1083 350.234 -0.313094 -8.67318
  1084 266.553 -27.8666 -46.9639
  1085 305.293 -22.9168 11.7285
  1086 352.245 -0.808507 9.05020
  1087 368.595 -26.7524 -18.8710
  1088 230.658 -0.528172 2.81623
  1089 230.599 -0.537546 -2.83363
  1090 353.974 -30.2251 9.64514
  1091 336.488 -6.89338 0.937344
  1092 336.431 -6.90026 -0.915861
  1093 327.445 -32.9774 12.5476
  1094 421.612 -13.5973 -5.00179
  1095 191.461 -0.340311 -5.30759
  1096 191.772 -0.328448 5.25174
  1097 287.436 -18.1951 -79.1004
  1098 305.874 -7.30424 1.64376
  1099 305.903 -7.34469 -1.65806
  1100 184.977 99.5963 138.890
  1101 423.596 34.7648 -30.4130
  1102 62.6690 30.4802 -42.3250
  1103 366.159 -5.46428 -6.15095
  1104 98.1234 33.6111 -64.0756
  1105 203.994 -12.8289 -39.9365
  1106 397.279 -0.439667 0.403538
  1107 397.431 -0.412746 -0.296389
  1108 360.292 -20.5739 -22.6811
  1109 319.031 -35.8159 -50.9400
  1110 98.9638 13.9046 53.2347
  1111 391.991 38.7941 35.4714
  1112 355.679 -3.60303 -0.537665
  1113 355.720 -3.60573 0.571075
  1114 388.326 -24.9699 61.7803
  1115 401.531 80.3835 13.6290
  1116 238.714 -5.75242 -12.0731
  1117 238.775 -5.72541 11.9879
  1118 181.192 20.6951 98.3939
  1119 340.973 1.73688 -31.2176
  1120 107.120 34.4863 68.8742
  1121 437.370 -7.43418 -21.0420
  1122 430.094 95.0308 4.10320
  1123 295.910 -23.4120 15.9055
  1124 273.400 1.45879 -1.29005
  1125 375.293 -3.30063 7.64407
  1126 388.464 -0.494034 2.97877
  1127 85.4702 0.152793 -15.7190
  1128 86.6303 0.111667 15.6126
  1129 306.289 5.12779 -15.0767
  1130 315.482 -9.28117 -1.20809
  1131 315.410 -9.23789 1.20131
  1132 33.2449 52.7507 -49.1289
  1133 52.7835 114.986 -98.0782
  1134 319.493 -12.4815 0.964071
  1135 319.616 -12.4802 -0.982165
  1136 330.076 -7.96126 0.980784
  1137 330.029 -7.94462 -0.953208
  1138 86.7537 55.3970 69.3331
  1139 260.726 -3.22798 -2.28112
  1140 260.757 -3.20466 2.27030
  1141 327.857 24.7858 -0.354027
  1142 417.230 52.9775 -145.882
  1143 399.705 68.9141 -23.3578
  1144 364.649 -14.0047 -31.9670
  1145 359.189 -17.9177 -23.0386
  1146 296.085 -23.6303 -16.1700
  1147 298.061 0.976088 9.30700
  1148 335.186 20.9000 -22.4058
  1149 330.528 17.7790 21.4058
  1150 341.643 -13.5749 -5.09107
  1151 326.078 -19.6983 0.675455
  1152 296.521 -19.1682 -11.9637
  1153 352.971 -2.07682 16.8605
  1154 622.750 62.8582 8.76219
  1155 355.350 -7.57858 30.7115
  1156 356.610 23.4123 33.6439
  1157 328.976 -32.3763 -9.45034
  1158 41.0472 6.80019 -24.2743
  1159 335.142 -15.5063 -3.55466
  1160 222.827 -0.350556 -0.140481
  1161 222.878 -0.349092 0.138933
  1162 408.145 -10.8294 16.1839
  1163 388.932 -32.7499 14.3375
  1164 558.488 100.003 24.5533
  1165 133.748 -0.275837 -13.0917
  1166 134.547 -0.246916 12.9935
  1167 299.325 -6.06788 -1.35386
  1168 299.310 -6.02994 1.34395
  1169 336.184 -29.6613 -1.12012
  1170 275.840 1.24881 4.22429
  1171 344.280 -24.5149 7.39244
  1172 19.5243 23.2030 -11.3304
  1173 62.0206 30.9011 41.3869
  1174 230.467 -12.5306 76.4539
  1175 398.181 75.8584 -16.6778
  1176 380.377 -1.05503 -4.73089
  1177 398.960 -0.640264 0.269804
  1178 399.345 -0.872436 -0.169866
  1179 231.884 -0.556205 -0.463396
  1180 231.936 -0.551819 0.459905
  1181 366.975 23.4591 38.1731
  1182 542.598 92.7134 -1.96981
  1183 378.094 62.5192 -16.9973
  1184 282.746 -20.7899 78.5942
  1185 229.240 -12.0454 -76.3083
  1186 254.833 -17.0726 -26.7286
  1187 352.766 -9.85870 7.16333
  1188 492.177 108.440 4.35994
  1189 254.855 -16.9706 26.5187
  1190 360.438 -6.29568 5.42084
  1191 321.896 11.9593 20.4293
  1192 354.716 10.9862 36.6873
  1193 505.082 112.813 12.2511
  1194 299.894 -7.83890 2.52502
  1195 299.909 -7.87694 -2.54298
  1196 365.130 -6.85314 11.7536
  1197 216.602 -2.32539 8.90628
  1198 216.448 -2.34899 -8.98704
  1199 357.154 -4.85875 -2.40944
  1200 147.090 87.6447 -134.328
  1201 309.280 -17.4298 -84.1566
  1202 291.689 -9.15862 -4.68690
  1203 291.719 -9.11677 4.68846
  1204 383.101 -1.80101 1.87845
  1205 362.576 -4.74509 4.33292
  1206 19.8562 24.9567 18.3444
  1207 394.422 -0.441727 1.55881
  1208 46.9667 59.5183 59.0537
  1209 354.131 -5.28895 -3.10035
  1210 -0.439889 -8.67563 -7.60139
  1211 250.463 -24.4399 -59.1912
  1212 249.771 -23.8462 58.5987
  1213 394.409 -0.694100 -1.72411
  1214 337.268 -17.7944 -4.25081
  1215 382.825 -1.64231 -1.92382
  1216 306.477 -9.92786 -2.41152
  1217 306.446 -9.89102 2.38414
  1218 356.925 -4.82416 2.26304
  1219 334.901 -15.2029 3.51751
  1220 322.238 -10.3725 0.0658735
  1221 322.353 -10.4013 -0.0269047
  1222 382.500 -1.69284 -1.57044
  1223 330.162 -34.7555 -57.4393
  1224 374.255 -2.30657 -1.60388
  1225 355.644 -5.43689 3.33494
  1226 248.198 -2.73346 -3.50402
  1227 248.239 -2.70668 3.48336
  1228 277.222 -4.08999 -1.79357
  1229 277.236 -4.06166 1.78451
  1230 449.000 70.0234 22.4536
  1231 377.331 -28.9947 13.9482
  1232 258.808 -1.20427 97.1320
  1233 207.426 -0.354131 3.41943
  1234 207.251 -0.357927 -3.45361
  1235 357.553 -6.60237 23.0704
  1236 342.217 -5.18197 0.644545
  1237 342.232 -5.16428 -0.644153
  1238 391.811 76.2797 7.79557
  1239 358.792 -37.5626 45.5073
  1240 207.798 -2.94802 12.4997
  1241 207.591 -2.97036 -12.5917
  1242 341.709 -8.33866 2.64277
  1243 341.633 -8.39606 -2.56457
  1244 352.576 -9.73779 -6.90109
  1245 324.059 0.0647911 10.9227
  1246 559.849 139.127 -46.3386
  1247 359.110 -13.1380 -20.3608
  1248 61.6030 14.6779 35.3043
  1249 370.975 -19.7711 28.1609
  1250 298.024 6.51601 -8.24776
  1251 22.8016 16.7703 12.7767
  1252 488.672 54.4593 -4.64085
  1253 362.309 -16.4775 -28.4871
  1254 299.449 4.25837 12.6335
  1255 205.428 -12.8503 39.8675
  1256 368.054 -28.4903 16.8151
  1257 534.175 102.146 32.3969
  1258 123.690 18.2751 67.7603
  1259 369.878 -4.39021 -10.1246
  1260 710.568 7.93831 -7.15121
  1261 734.213 11.0357 31.8835
  1262 784.025 26.6914 -75.7669
  1263 358.659 -11.1938 -25.3734
  1264 358.663 -16.3678 21.5743
  1265 364.396 -25.9357 20.0705
  1266 -10.7183 1.22665 6.80220
  1267 -9.75611 0.978721 -7.40212
  1268 354.673 -39.1924 -21.2394
  1269 363.348 -36.7314 -31.8422
  1270 277.829 1.76806 -5.21646
  1271 353.204 -39.8982 31.7878
  1272 377.355 -17.8994 -28.5750
  1273 7.40731 11.2473 1.27112
  1274 306.752 -5.61294 0.961413
  1275 306.775 -5.65318 -0.963959
  1276 375.043 -2.99808 6.88801
  1277 360.415 -6.18324 -5.09241
  1278 339.410 -37.0565 -11.2672
  1279 310.019 -16.7893 5.05232
  1280 308.456 -16.5544 -5.50231
  1281 363.799 -7.68438 16.1558
  1282 372.818 -13.6984 -32.8972
  1283 23.6628 17.4851 -12.3720
</Section>

newXOutput 21

<Section columns = "stress_xx | stress_yy | stress_xy">
  1 421.258 -0.0931163 0.815860
  2 421.270 -0.0861978 -0.818273
  3 230.842 -0.0812625 -0.295144
  4 -2.91870 -2.88812 -4.19608
  5 756.308 301.445 241.825
  6 749.282 312.383 -241.483
  7 -3.38949 -2.74574 4.46288
  8 230.788 -0.0821163 0.294343
  9 424.197 -0.707261 0.247199
  10 423.318 -1.11761 -0.213900
  11 422.374 -0.747169 0.936568
  12 421.423 -1.02778 0.255257
  13 419.377 -0.865786 1.47517
  14 417.517 -0.874857 1.07200
  15 413.110 -0.773335 2.12039
  16 406.791 -0.540142 3.12651
  17 401.160 -0.573018 3.48595
  18 392.789 -0.798675 4.22049
  19 381.156 -0.0636808 6.24753
  20 370.410 -0.588797 5.94549
  21 358.145 -0.763488 8.38585
  22 340.434 0.539910 7.30323
  23 327.590 0.819006 8.63977
  24 310.834 1.37780 6.76591
  25 299.230 1.45074 6.82377
  26 282.421 2.02781 3.48075
  27 278.874 3.19219 3.73281
  28 276.739 2.61864 -1.10283
  29 279.656 1.52021 -2.42241
  30 285.026 1.47506 -2.97130
  31 297.619 1.85935 -5.92984
  32 309.849 1.46862 -7.49779
  33 327.779 0.327551 -8.88773
  34 342.120 -0.183182 -8.08666
  35 357.390 -0.607197 -7.93687
  36 371.207 -0.459915 -5.59857
  37 383.063 -0.482698 -4.78228
  38 392.823 -0.781360 -4.00786
  39 401.552 -0.560272 -2.78519
  40 406.984 -0.667834 -2.95213
  41 412.234 -0.819005 -2.15624
  42 417.182 -0.969944 -0.933577
  43 419.716 -0.781793 -1.10572
  44 421.032 -0.483960 -0.685515
  45 420.013 -0.271894 -0.625687
  46 423.741 -1.12547 0.144828
  47 424.324 -0.736002 -0.254907
  48 410.600 -0.339431 -0.504936
  49 401.499 -1.73794 -0.919075
  50 390.366 -2.54811 -0.586825
  51 376.779 -3.76026 -0.807616
  52 363.886 -4.11056 -0.995137
  53 350.113 -5.12809 -0.948503
  54 337.914 -5.69394 -0.514755
  55 327.213 -6.35652 -0.177322
  56 314.863 -5.27188 -0.170430
  57 300.629 -4.92015 -0.300471
  58 286.911 -3.87756 -0.0728339
  59 273.915 -2.46690 -0.0148945
  60 261.566 -1.75339 0.0378551
  61 250.738 -0.893047 0.128214
  62 239.669 -0.235281 -0.337216
  63 230.968 0.324571 0.436105
  64 227.059 0.900840 0.297398
  65 229.696 0.0105891 0.696723
  66 226.698 -0.118855 0.841552
  67 223.907 -0.178696 1.04895
  68 220.124 -0.0187101 1.36428
  69 215.354 -0.0101408 1.71653
  70 211.805 -0.275240 3.29929
  71 201.734 0.295177 3.60087
  72 194.631 -0.0183345 4.11776
  73 184.055 -0.182224 4.67229
  74 171.879 -0.308845 5.68579
  75 156.657 -0.0684863 6.90382
  76 138.101 0.0873699 7.61281
  77 122.056 -0.163102 10.8787
  78 90.3915 1.00861 10.2678
  79 68.7981 0.869657 10.8754
  80 42.9021 -0.194524 12.0639
  81 21.3783 1.99810 12.5473
  82 -3.13487 2.99011 7.54042
  83 -20.9805 3.03843 2.68390
  84 -20.4693 2.93339 -1.06904
  85 -19.5790 2.43893 -5.88434
  86 -11.5206 -0.776939 -5.59819
  87 -1.40694 -11.0595 -6.17882
  88 1.09603 -20.3626 -7.71801
  89 3.03700 -32.0909 -4.24287
  90 6.73978 -32.6388 0.438390
  91 14.2541 -7.23807 18.9106
  92 42.4688 66.0809 63.9976
  93 248.650 233.776 216.327
  94 915.590 136.854 153.186
  95 825.051 19.5933 49.8652
  96 767.156 8.12392 15.2594
  97 745.781 6.89822 1.18146
  98 757.102 9.18212 -13.2144
  99 823.183 18.2441 -39.4580
  100 970.114 66.0164 -131.931
  101 147.693 239.152 -180.969
  102 31.8025 46.9821 -52.9994
  103 15.5633 -5.67476 -19.9612
  104 6.30447 -32.6499 -3.47036
  105 1.78275 -24.4163 4.87374
  106 2.24578 -25.6681 6.69218
  107 0.107731 -9.55826 6.84292
  108 -12.0261 -0.501981 5.31005
  109 -20.2012 1.83070 5.13370
  110 -21.5556 3.56563 1.18524
  111 -21.6576 2.99128 -2.48653
  112 -4.64737 3.06445 -7.06395
  113 20.0431 2.01554 -11.9627
  114 41.5393 0.0177578 -11.8657
  115 67.3925 0.940262 -10.8986
  116 89.1146 1.03517 -10.3466
  117 121.065 -0.167600 -10.9707
  118 137.252 0.0972891 -7.68701
  119 155.916 -0.0655568 -6.99093
  120 171.498 -0.342138 -5.72858
  121 183.544 -0.173111 -4.68475
  122 194.244 -0.00531880 -4.16074
  123 201.416 0.291547 -3.64071
  124 211.576 -0.277940 -3.33306
  125 215.171 -0.0118921 -1.73729
  126 219.985 -0.0203750 -1.38136
  127 223.801 -0.181447 -1.06249
  128 226.617 -0.121211 -0.851015
  129 229.629 0.00855958 -0.702772
  130 227.000 0.899760 -0.300212
  131 230.912 0.324040 -0.437863
  132 239.615 -0.237608 0.336272
  133 250.686 -0.898868 -0.130390
  134 261.521 -1.76620 -0.0404018
  135 273.881 -2.48471 0.0124391
  136 286.891 -3.90323 0.0704157
  137 300.626 -4.95256 0.298578
  138 314.878 -5.30934 0.168533
  139 327.242 -6.39842 0.176502
  140 337.952 -5.73568 0.516165
  141 350.168 -5.16608 0.952770
  142 363.933 -4.13681 1.01048
  143 376.814 -3.78374 0.881116
  144 390.436 -2.41000 0.599968
  145 401.782 -1.69241 0.898821
  146 410.670 -0.403102 0.497310
  147 367.796 -34.5556 -2.17239
  148 367.487 -34.0902 2.30319
  149 386.270 55.4848 -18.8072
  150 411.341 24.2413 39.7239
  151 311.608 -30.0032 -68.7537
  152 314.134 -29.9649 66.5479
  153 303.115 -12.8548 8.31947
  154 303.140 -13.0335 -8.32580
  155 435.955 15.6879 -30.1347
  156 366.819 -13.2091 7.97350
  157 366.663 -12.8914 -7.87447
  158 474.160 105.718 4.73180
  159 375.674 -0.601466 -38.9063
  160 278.263 -21.8819 -30.8279
  161 278.272 -21.6996 30.5580
  162 376.293 -8.52394 35.0780
  163 357.740 26.1086 23.2454
  164 147.927 23.7224 -82.0641
  165 163.985 22.4787 86.4667
  166 459.985 5.30793 3.18994
  167 377.180 -14.4774 -24.2852
  168 499.155 109.625 -1.67085
  169 339.800 -9.59935 -0.0788489
  170 339.728 -9.56973 0.108241
  171 381.366 -4.64117 -3.47450
  172 382.564 -4.17232 2.99959
  173 267.398 -3.83592 -4.91740
  174 267.432 -3.79616 4.89203
  175 409.217 -10.7231 87.3899
  176 346.372 14.3860 -25.0421
  177 226.614 -16.9747 -49.4202
  178 227.290 -16.8510 49.0992
  179 254.655 -8.34591 -16.1683
  180 254.680 -8.25014 16.0489
  181 379.001 -9.96574 20.6432
  182 344.543 -23.6510 -1.01825
  183 343.334 -23.4750 1.56600
  184 391.446 -37.8896 -6.93820
  185 393.489 -36.0971 2.07230
  186 540.675 127.274 -19.1170
  187 393.832 63.2225 17.5822
  188 394.360 24.2190 -39.9889
  189 407.736 -3.34499 -101.512
  190 391.177 -22.1127 -27.7368
  191 394.544 -15.7919 32.7424
  192 329.014 -37.3544 33.7870
  193 329.093 -37.0902 -33.6841
  194 352.214 4.49220 30.0797
  195 161.409 -3.96154 -60.4508
  196 161.804 -4.30328 60.0822
  197 609.429 91.2414 13.2026
  198 370.544 -22.0827 14.9833
  199 384.231 -7.07468 -13.4084
  200 304.968 -7.46289 -3.80356
  201 304.974 -7.42484 3.79152
  202 369.100 -4.79910 -27.0466
  203 420.165 61.6693 -31.9255
  204 351.880 31.6228 -4.65777
  205 229.333 -8.11564 22.7151
  206 228.984 -8.14132 -22.8837
  207 389.874 -4.34716 7.30055
  208 380.003 7.14565 40.0187
  209 309.037 -22.4999 -14.9399
  210 306.961 -21.3036 15.2900
  211 447.691 66.4048 29.0884
  212 525.834 72.3270 12.5880
  213 35.9609 28.0515 -23.1598
  214 33.2631 25.9312 19.6874
  215 216.936 62.1715 144.435
  216 366.834 -24.3823 -11.4181
  217 391.269 -4.17533 -6.59383
  218 348.252 3.07110 -27.7016
  219 244.700 -2.43265 -7.17687
  220 244.778 -2.40524 7.11443
  221 330.292 -15.4987 -3.18606
  222 330.445 -15.5943 2.99877
  223 372.249 -5.02149 23.0002
  224 428.126 -24.7825 10.0593
  225 425.705 86.9677 -9.23758
  226 333.841 -32.2433 -16.0350
  227 421.884 -7.34928 25.2252
  228 359.628 -6.06319 1.24668
  229 359.632 -6.01346 -1.24488
  230 331.399 -32.0900 16.6514
  231 379.545 -24.0910 22.5390
  232 532.655 69.1852 -34.4006
  233 118.593 70.5772 -104.837
  234 322.015 11.3251 5.98243
  235 381.435 33.6266 33.7245
  236 406.104 -2.85549 -35.4689
  237 379.530 -13.6697 -32.7576
  238 202.886 -6.52352 -28.4303
  239 203.585 -6.42506 28.3407
  240 380.123 -4.59808 -17.7538
  241 362.213 -9.18869 4.15226
  242 362.043 -9.17669 -4.00996
  243 76.6648 7.02589 -38.6270
  244 77.8792 6.15865 38.4966
  245 403.278 -35.2941 -31.5475
  246 398.928 -1.45140 0.987822
  247 399.350 -1.47886 -1.07922
  248 372.571 30.8864 -30.8894
  249 328.358 6.33198 18.1386
  250 683.369 109.434 73.4861
  251 677.675 77.1508 -45.9459
  252 492.190 106.050 -0.475496
  253 307.271 -14.8274 91.4128
  254 282.085 -9.65365 -95.5920
  255 323.744 -6.65268 -1.34507
  256 323.714 -6.61013 1.33547
  257 269.143 -7.19898 9.91029
  258 269.141 -7.29812 -9.99746
  259 389.452 -4.21751 10.9099
  260 378.007 -26.9279 -18.4655
  261 246.021 -0.457520 -1.68201
  262 246.077 -0.449619 1.67161
  263 373.263 -15.1261 -14.7235
  264 159.010 -5.19496 -39.4439
  265 159.695 -5.21153 39.1613
  266 377.936 -16.3963 26.1794
  267 288.741 -30.6446 55.3116
  268 289.470 -31.1932 -55.1425
  269 326.692 12.5301 -8.44252
  270 281.919 -4.31950 -3.31429
  271 281.944 -4.29012 3.30153
  272 354.709 -0.880334 22.1865
  273 423.523 77.5017 22.1308
  274 227.689 -2.77133 12.1346
  275 227.515 -2.79453 -12.2374
  276 388.108 -32.4277 12.7597
  277 359.275 -40.3246 -37.1939
  278 400.427 -1.95937 3.37762
  279 278.886 -16.5100 -21.0827
  280 278.406 -16.3256 21.0031
  281 491.968 52.3400 128.312
  282 233.340 -18.8387 65.9669
  283 376.134 52.8087 -1.99494
  284 474.726 52.6017 -18.6429
  285 358.414 -27.7228 4.28645
  286 359.557 -41.4264 33.5441
  287 234.045 -18.5319 -66.7083
  288 43.5413 53.7245 48.9307
  289 373.327 -15.1789 14.9963
  290 488.944 64.0973 14.3489
  291 403.557 -1.74969 -2.92872
  292 366.257 12.8257 -35.5577
  293 361.163 -20.4314 7.93334
  294 353.645 -29.8501 1.20476
  295 364.937 16.7590 34.2651
  296 386.258 -32.4363 -11.3599
  297 546.689 106.220 -9.44996
  298 361.065 -19.6395 -7.58657
  299 297.939 86.0540 -176.623
  300 369.081 -39.1322 -7.52156
  301 366.480 -40.2001 11.7160
  302 269.709 -24.3898 -43.4605
  303 243.778 -0.925775 -3.65685
  304 243.847 -0.909660 3.62812
  305 269.826 -24.4095 43.2256
  306 390.558 -0.663359 -40.1510
  307 421.218 -17.4446 -16.5393
  308 321.292 -19.3417 -7.97761
  309 321.086 -19.3862 8.12343
  310 383.570 -33.0164 59.3812
  311 383.228 -3.08568 13.4385
  312 464.888 2.37246 21.4202
  313 314.833 -11.1095 -4.40378
  314 314.854 -11.0725 4.37920
  315 286.980 -7.46088 -6.54598
  316 286.983 -7.39114 6.53623
  317 324.997 4.38769 -17.5414
  318 416.281 30.5053 -38.4945
  319 641.956 173.336 -82.7677
  320 379.083 -3.37831 -1.15423
  321 378.869 -3.33335 1.18611
  322 203.596 -0.434283 82.3166
  323 285.472 -12.9312 -13.9774
  324 284.937 -12.8877 14.0132
  325 203.558 -0.910498 -82.0024
  326 397.045 46.8431 -32.8171
  327 443.819 22.0052 28.5785
  328 383.528 -27.3652 -65.9033
  329 353.097 -13.6431 3.37700
  330 352.739 -13.5442 -3.22438
  331 376.659 -7.84337 -7.09026
  332 354.956 -0.667645 -20.7476
  333 397.720 1.69128 39.2873
  334 396.501 -2.80344 -7.51084
  335 239.272 -14.5006 33.1352
  336 239.009 -14.5813 -33.3889
  337 370.212 -0.835430 36.9532
  338 229.099 -1.85987 -7.20613
  339 229.247 -1.84244 7.14099
  340 379.463 -8.75405 11.1440
  341 455.239 92.9197 -16.1477
  342 376.476 -7.90155 7.35917
  343 401.482 50.3890 32.9237
  344 384.123 -7.15836 38.2484
  345 304.601 -5.70421 1.39742
  346 304.603 -5.73925 -1.40666
  347 363.769 -1.29528 -32.7973
  348 480.879 101.047 10.0961
  349 400.313 73.3254 0.686685
  350 245.158 28.4740 -122.285
  351 25.5675 11.1004 -16.8850
  352 28.0146 12.0121 18.1571
  353 -1.15763 2.87459 7.31007
  354 0.327932 1.64494 -7.64121
  355 699.639 48.5390 16.6315
  356 331.613 -26.9115 -9.47878
  357 379.752 -8.46135 -10.8716
  358 342.898 -6.06454 0.421897
  359 342.858 -6.01628 -0.424095
  360 367.235 40.5640 -16.7308
  361 313.240 -31.9020 27.8068
  362 27.6291 41.1512 -30.4088
  363 313.531 -31.8929 -28.3083
  364 372.005 42.3073 17.8031
  365 378.966 -10.1340 -19.6511
  366 401.846 -22.4465 -23.5098
  367 428.566 90.3879 6.36527
  368 402.742 -25.1763 19.3076
  369 167.608 -4.16104 26.4145
  370 166.614 -4.08050 -26.5826
  371 95.0037 2.29747 -36.7309
  372 95.9964 1.92073 36.5677
  373 330.078 1.11770 17.7363
  374 623.241 182.535 71.6458
  375 391.661 -2.52120 -9.58040
  376 305.338 -25.7625 -21.3135
  377 305.090 -25.6978 21.2849
  378 376.799 -8.71378 -24.9729
  379 428.586 -20.7190 2.44450
  380 331.602 -26.8876 9.76131
  381 469.912 3.59721 -39.1842
  382 267.181 -2.14125 -1.29069
  383 267.221 -2.12289 1.28168
  384 370.739 -2.16948 -15.9828
  385 200.653 -2.88251 -17.2306
  386 200.778 -2.97537 17.0224
  387 442.486 56.5349 -32.3850
  388 239.438 16.8838 113.633
  389 346.745 -18.2044 1.42098
  390 347.085 -18.1729 -1.43681
  391 407.535 68.9030 -20.8096
  392 385.576 -11.4485 -36.2063
  393 386.263 -39.4960 32.6379
  394 322.622 -8.57551 -2.10592
  395 322.585 -8.53450 2.08573
  396 371.977 -28.7149 12.2589
  397 400.233 -1.94679 5.57408
  398 250.634 -9.11347 -20.2211
  399 250.734 -9.11403 20.0507
  400 378.078 12.6934 -39.4844
  401 356.633 -7.78392 1.87325
  402 356.617 -7.80257 -1.82688
  403 369.183 -4.36330 30.1016
  404 344.617 25.1378 8.04530
  405 382.482 -16.1779 31.5524
  406 551.979 115.428 20.9295
  407 185.480 -9.97746 -52.9081
  408 185.994 -9.97995 52.5088
  409 82.9795 44.3609 -63.3420
  410 409.139 -1.25245 1.52163
  411 209.202 -1.75562 -10.9074
  412 209.479 -1.71844 10.8147
  413 377.089 -9.86287 24.4461
  414 342.106 -37.1251 18.4738
  415 385.951 -4.85562 5.01490
  416 393.672 19.9770 41.1147
  417 86.9505 47.2344 66.0109
  418 342.614 -36.9138 -17.0163
  419 353.992 -32.8992 -3.64416
  420 116.408 -2.33323 -33.2626
  421 117.273 -2.41980 33.0349
  422 272.038 -21.8157 -79.5516
  423 406.155 -6.09218 34.5852
  424 271.022 -22.1378 78.8576
  425 375.341 -21.1024 -20.2882
  426 349.391 23.5983 -17.6115
  427 375.399 -16.2528 19.2920
  428 403.454 -1.85344 -3.74102
  429 12.4192 13.3291 6.02257
  430 82.1970 95.0864 93.5433
  431 361.693 -1.32662 15.4343
  432 304.395 4.20708 7.69387
  433 309.593 5.11884 -10.4325
  434 264.140 -4.34110 -6.99286
  435 264.169 -4.28570 6.94806
  436 370.084 -28.6963 -11.1965
  437 374.120 -7.34522 -33.6708
  438 306.001 5.78068 -2.83344
  439 551.720 131.483 27.7876
  440 77.0061 25.4371 -47.4818
  441 84.8406 23.3434 50.7025
  442 346.425 -12.3650 1.37382
  443 346.294 -12.3364 -1.28273
  444 461.684 101.848 -1.26172
  445 287.615 119.868 180.552
  446 443.573 -6.16684 -5.53178
  447 255.968 -13.3127 -27.4314
  448 256.089 -13.2220 27.2017
  449 257.785 -5.72742 10.8709
  450 257.735 -5.76933 -10.9676
  451 347.313 7.73985 -28.5341
  452 411.201 -0.635492 -1.00582
  453 337.797 15.5370 16.0421
  454 425.871 52.5591 35.2541
  455 354.681 -26.3290 -2.99328
  456 385.793 -4.62560 -4.87458
  457 405.095 -1.68319 3.44517
  458 410.011 -0.681702 0.574318
  459 410.335 -0.763200 -0.418484
  460 227.721 -0.398841 2.67299
  461 227.606 -0.404838 -2.70030
  462 387.796 -24.6778 24.5281
  463 350.626 13.8597 27.6367
  464 366.222 1.49155 -36.0619
  465 381.945 -8.10001 14.5533
  466 548.692 93.6219 -108.360
  467 382.941 -21.2824 -27.5310
  468 3.97757 7.29885 3.14683
  469 3.93335 7.42792 -1.25062
  470 303.915 -17.1776 12.0801
  471 302.908 -16.9457 -11.9307
  472 474.852 9.21526 58.5909
  473 133.168 122.030 -137.184
  474 378.043 -1.17097 11.9624
  475 427.662 -24.8621 -33.5694
  476 229.090 -13.1539 38.3437
  477 458.860 81.4271 -23.2259
  478 377.447 -20.4650 23.0359
  479 317.316 -15.1416 -6.07593
  480 317.595 -14.8918 6.05957
  481 329.998 1.77810 -15.6587
  482 228.377 -13.1014 -38.5772
  483 338.245 0.170566 15.7331
  484 323.458 -37.0089 -49.4997
  485 322.651 -37.0654 49.6836
  486 389.481 -2.61711 10.5813
  487 354.709 33.4668 3.32478
  488 358.938 6.33346 123.642
  489 528.260 107.339 -0.671854
  490 365.171 -6.21420 2.23007
  491 365.190 -6.19195 -2.31243
  492 281.721 -4.97477 -4.45695
  493 281.742 -4.93368 4.44075
  494 148.974 6.79207 69.2343
  495 379.153 -18.2963 -26.9801
  496 343.981 -7.51660 0.197036
  497 343.946 -7.49072 -0.190048
  498 299.803 -31.7184 40.5065
  499 151.836 8.98342 -70.9838
  500 379.582 -30.9633 -12.8360
  501 6.66386 1.64144 2.76829
  502 332.792 17.2340 1.17386
  503 366.468 -4.30752 -0.728707
  504 366.460 -4.36540 0.711135
  505 299.976 -31.6623 -40.8186
  506 428.085 -21.9637 42.7077
  507 424.831 15.4242 35.7830
  508 391.853 -2.72771 -2.40112
  509 378.423 -31.3974 13.0292
  510 238.591 -0.216891 -0.483146
  511 238.648 -0.214770 0.479240
  512 378.031 -14.5466 -28.8418
  513 366.602 27.1373 30.2130
  514 419.649 10.3644 -35.3543
  515 237.143 -0.364405 -1.50481
  516 237.208 -0.359274 1.49472
  517 729.083 105.337 -94.1269
  518 381.388 45.4028 26.5834
  519 392.188 -2.52059 2.13591
  520 354.771 -33.6259 4.50195
  521 298.837 -9.85827 6.68931
  522 298.833 -9.93286 -6.67568
  523 412.461 -25.1582 10.3409
  524 396.714 -7.95920 -36.5404
  525 443.617 87.3256 19.6112
  526 369.399 6.36469 37.4016
  527 371.987 -7.21181 4.44331
  528 361.397 -38.6079 -47.7584
  529 375.248 -9.31656 28.4794
  530 720.354 33.0710 -13.1707
  531 409.405 -30.8995 -0.0295357
  532 389.421 -2.64951 -0.555979
  533 389.515 -2.81456 0.484058
  534 727.852 48.8273 46.1171
  535 360.293 -0.108699 31.8107
  536 503.118 84.8394 -7.43886
  537 378.609 -10.3461 -14.1102
  538 172.435 -1.60615 -11.7816
  539 172.963 -1.52873 11.6629
  540 256.932 -24.0453 -55.2982
  541 257.141 -23.6427 54.8910
  542 371.782 -6.91680 -4.40497
  543 404.789 14.8440 -40.0254
  544 355.728 -24.2073 4.35623
  545 383.058 43.9116 -27.5729
  546 385.359 -4.52297 14.2387
  547 482.044 24.3964 -6.40747
  548 330.079 -11.3126 -1.87439
  549 329.980 -11.2742 1.85288
  550 358.223 -16.9244 5.85411
  551 526.887 104.783 -8.87755
  552 377.690 16.5241 38.8411
  553 161.802 41.5962 102.282
  554 364.081 -21.8350 82.8438
  555 479.875 23.8065 -91.4334
  556 386.121 31.9237 -36.1226
  557 341.998 -29.5998 -71.8554
  558 370.472 -40.6254 -14.6271
  559 386.722 -39.1953 -21.2566
  560 51.0692 66.4792 -62.9909
  561 388.765 -4.97880 -8.68558
  562 583.922 113.496 -33.4273
  563 360.118 -16.2405 -6.58071
  564 363.047 -11.8497 5.43300
  565 362.711 -11.5818 -5.20525
  566 251.723 -1.43266 -3.32628
  567 251.778 -1.41415 3.30464
  568 36.3232 3.71671 -20.2852
  569 38.2882 3.89794 20.7517
  570 187.476 -8.69302 -40.3488
  571 188.894 -8.74071 40.2897
  572 368.040 -19.9670 -12.6823
  573 374.766 -40.7919 15.7964
  574 385.216 -36.6046 1.82687
  575 316.528 -5.60155 -1.21792
  576 316.510 -5.56212 1.21172
  577 299.998 -31.4862 -61.4942
  578 335.479 -27.5514 75.9963
  579 292.791 -29.6137 61.8350
  580 378.779 -8.43024 -36.1707
  581 238.513 -3.94711 12.2018
  582 238.396 -3.98811 -12.3013
  583 361.595 20.0051 -30.3536
  584 361.944 -0.635685 -14.0064
  585 451.589 97.9095 -8.78919
  586 295.722 -4.46610 -1.18965
  587 295.731 -4.43680 1.18413
  588 385.332 -1.15559 -7.85888
  589 267.056 -8.99480 -13.5531
  590 267.064 -8.96379 13.4374
  591 217.810 9.99882 97.8175
  592 375.032 -17.2834 -19.4975
  593 209.938 -11.1338 70.3020
  594 368.551 -19.1204 12.9682
  595 387.742 -5.52549 9.60208
  596 382.794 -3.57157 -2.11473
  597 270.247 -3.32875 -3.10641
  598 270.282 -3.30162 3.09069
  599 433.211 86.4268 -17.7044
  600 209.787 -10.7182 -70.5617
  601 367.319 -15.9317 -10.3382
  602 331.639 -6.18212 -0.616716
  603 331.605 -6.13727 0.614245
  604 620.248 83.4296 -14.8113
  605 221.175 -1.41139 6.72532
  606 220.984 -1.42510 -6.78718
  607 343.238 7.89475 26.0429
  608 488.572 41.1718 -4.80304
  609 232.023 1.53954 -97.0748
  610 119.374 2.97619 -53.0175
  611 120.354 2.30107 52.7374
  612 291.241 -16.9723 16.8371
  613 294.251 -17.4725 -16.3657
  614 494.391 99.6758 8.10435
  615 381.246 -3.69953 1.90517
  616 328.551 9.27887 -15.7398
  617 408.582 73.3732 16.4630
  618 407.142 76.1377 -10.9489
  619 334.573 -18.5395 -3.03787
  620 337.100 -18.1245 1.84766
  621 239.751 52.3342 -139.384
  622 288.076 -9.83843 -9.38324
  623 288.101 -9.72659 9.35181
  624 725.294 148.513 111.871
  625 378.242 -12.4154 31.1627
  626 217.079 -7.65990 -25.8478
  627 584.573 137.151 92.3023
  628 217.580 -7.61771 25.7516
  629 361.083 -13.7564 -96.6537
  630 256.296 -1.25170 -1.22570
  631 256.345 -1.24087 1.21961
  632 316.965 2.86577 13.7328
  633 144.715 -2.14790 -23.1965
  634 145.508 -2.15341 23.0167
  635 330.290 -23.3716 7.32015
  636 346.230 -27.7284 -2.32475
  637 407.349 -0.910177 -3.16479
  638 231.451 -0.368600 1.97848
  639 231.361 -0.375205 -1.99854
  640 311.846 -7.03495 -1.87916
  641 311.834 -6.99599 1.86556
  642 357.086 -39.6500 48.2473
  643 410.566 45.8340 -36.2562
  644 273.887 -12.7559 -17.4627
  645 273.695 -12.5413 17.3382
  646 324.237 -23.3180 -10.0717
  647 509.788 110.896 3.51171
  648 382.956 -37.0776 0.271605
  649 332.887 -7.99050 -0.926934
  650 332.838 -7.95180 0.927106
  651 457.104 50.0878 27.0287
  652 383.795 -5.57536 -15.4746
  653 340.175 -0.405776 -12.8100
  654 157.976 -5.39830 -50.7614
  655 158.456 -5.54808 50.3514
  656 323.356 -27.8922 -16.0652
  657 484.386 106.570 0.168131
  658 376.232 50.9318 -11.9740
  659 250.408 -2.27036 -6.10812
  660 250.467 -2.23884 6.06022
  661 350.612 -9.94066 -1.45785
  662 350.681 -9.95089 1.53149
  663 650.842 84.9315 37.4518
  664 413.333 -1.14664 0.841630
  665 399.814 -1.60638 5.46456
  666 398.291 -1.63232 -6.42089
  667 378.329 -35.2394 5.25160
  668 279.404 -3.24511 -1.55200
  669 279.432 -3.22215 1.54521
  670 404.576 64.8079 25.3730
  671 518.282 115.117 -7.24565
  672 284.469 -21.1235 -24.7380
  673 284.391 -20.9171 24.6156
  674 355.149 -36.5963 -7.91072
  675 374.955 22.2924 -36.5704
  676 444.172 1.19188 15.0039
  677 295.865 -5.50189 -3.11126
  678 295.875 -5.46685 3.09883
  679 255.919 -22.4330 -49.9272
  680 374.765 -36.2615 -1.80319
  681 311.761 -34.5721 44.6334
  682 149.473 47.1354 -98.7111
  683 291.364 -26.9805 34.4322
  684 351.487 0.0964363 11.8209
  685 256.158 -22.1793 49.5958
  686 367.107 -16.2382 10.4658
  687 291.454 -26.8664 -34.7424
  688 299.367 3.92961 2.88367
  689 231.595 -6.20792 18.3963
  690 231.389 -6.21414 -18.5234
  691 311.921 -35.4678 -45.1276
  692 385.240 -25.4050 -23.7054
  693 353.412 -5.00546 -0.387363
  694 353.469 -5.05660 0.389237
  695 393.647 -25.1069 23.4226
  696 357.857 -37.4010 9.34552
  697 434.608 39.8793 34.8312
  698 392.304 -7.37500 37.7013
  699 377.500 -13.5770 22.8681
  700 361.216 29.7160 -23.0255
  701 433.796 72.9277 27.5855
  702 374.617 -5.19742 -22.3138
  703 373.132 -12.4049 11.6146
  704 386.259 60.4461 6.46818
  705 379.701 -6.46601 19.3768
  706 119.958 81.6648 103.529
  707 353.312 -40.6506 -28.0455
  708 409.069 7.42012 38.2658
  709 412.835 -12.7898 -26.9490
  710 411.481 -0.575373 1.73532
  711 377.190 -12.9930 -17.9424
  712 353.836 -40.9695 25.5197
  713 682.039 60.4143 -10.1037
  714 212.213 -0.902334 7.03668
  715 211.961 -0.912180 -7.10199
  716 382.413 -6.99617 -8.28797
  717 413.898 -0.440580 -1.69578
  718 322.774 -28.3444 16.1491
  719 387.287 -14.4352 34.1863
  720 586.449 140.795 -44.5583
  721 367.090 -26.6206 10.5765
  722 406.676 -26.8023 -13.4917
  723 373.267 -12.0747 -11.4275
  724 413.656 -0.747704 -0.535848
  725 378.252 -0.0444953 39.3688
  726 17.5817 16.7134 22.3314
  727 425.665 -16.2421 -63.2348
  728 463.476 27.6049 16.5165
  729 386.335 -39.4978 19.0369
  730 276.469 -6.62663 7.67851
  731 276.467 -6.71848 -7.71471
  732 358.599 183.937 -189.599
  733 393.810 -26.0757 -21.5932
  734 298.209 1.59955 -5.51335
  735 346.791 1.93569 25.3689
  736 380.052 -19.0401 27.4173
  737 364.280 -30.6989 4.99896
  738 378.381 -34.5279 -51.8524
  739 362.068 -28.6497 -5.69168
  740 427.187 -20.4520 -3.91365
  741 393.500 -3.26515 4.82670
  742 351.684 -21.1330 2.84768
  743 636.745 127.268 -68.0559
  744 374.886 -10.0695 9.18572
  745 371.348 6.08688 -38.4001
  746 316.576 -3.51414 108.622
  747 397.626 32.0044 39.1173
  748 342.063 -26.9278 4.08444
  749 264.647 -20.8230 -36.5117
  750 264.675 -20.7667 36.2188
  751 364.068 40.9443 -5.35973
  752 370.040 -4.29012 34.2208
  753 373.947 -8.91342 -29.1144
  754 352.081 -21.5676 -2.95696
  755 340.464 -30.5066 9.22133
  756 389.210 64.1757 -7.29034
  757 363.835 -31.4909 -3.56556
  758 364.750 -23.0989 10.3177
  759 369.430 -4.79587 1.56385
  760 369.653 -4.66814 -1.55205
  761 496.921 108.969 2.08441
  762 406.156 -34.5645 -12.8660
  763 378.333 -11.6127 17.8786
  764 393.627 -3.25711 -4.38433
  765 398.171 2.63141 -39.6665
  766 452.786 23.8984 -22.7079
  767 223.601 -0.207871 -3.29329
  768 223.748 -0.204725 3.26087
  769 3.27610 -6.71829 -4.72935
  770 386.260 -0.465840 7.27333
  771 354.584 -0.560796 -28.0336
  772 366.080 -3.43029 24.6601
  773 333.139 41.6820 159.053
  774 416.613 85.5540 -0.882183
  775 296.549 -21.1989 19.3613
  776 52.6777 1.15433 -19.9968
  777 54.1647 0.847310 20.2089
  778 362.880 -2.58152 -27.8440
  779 297.341 -21.4085 -19.3588
  780 391.317 -3.58094 3.64536
  781 201.210 -8.57119 34.4282
  782 199.501 -8.54060 -34.4400
  783 374.859 -9.77880 -8.94495
  784 240.477 -6.04660 -16.0221
  785 240.598 -6.00732 15.8827
  786 390.299 -3.71856 -10.6707
  787 298.740 -7.97317 -5.34859
  788 298.750 -7.92177 5.35067
  789 426.048 -2.69359 -26.9370
  790 383.841 -4.03163 -39.4512
  791 196.405 -1.24838 -8.95954
  792 196.780 -1.23673 8.85706
  793 10.1479 4.90699 -12.2113
  794 11.8626 5.17853 12.8420
  795 312.162 1.50999 -9.97323
  796 350.467 -39.3765 -20.9989
  797 -4.00449 -2.76017 6.93773
  798 -3.52114 -3.27786 -6.90867
  799 364.704 -7.35580 3.37414
  800 395.326 -30.8768 -11.9427
  801 408.608 60.5216 -29.5867
  802 392.971 -3.22312 -3.46669
  803 834.688 168.833 -156.774
  804 364.628 -7.33294 -3.32937
  805 548.151 104.347 8.68081
  806 390.450 11.3598 -41.1635
  807 430.943 32.5379 -35.6927
  808 73.3659 -0.860406 -18.4477
  809 74.6860 -0.967258 18.4152
  810 244.534 -3.51239 9.51131
  811 244.446 -3.54144 -9.59410
  812 233.759 -0.544167 1.78382
  813 233.686 -0.549896 -1.79777
  814 435.968 73.3792 -27.3221
  815 258.828 -1.60221 -2.64410
  816 258.875 -1.58389 2.62974
  817 371.174 -3.73758 -35.7288
  818 533.469 55.4149 47.0761
  819 334.637 7.51350 -21.9077
  820 116.676 -1.04112 19.7353
  821 115.708 -1.05081 -19.8885
  822 430.237 12.0381 114.357
  823 382.038 -7.05338 8.55398
  824 342.537 22.7654 -9.12437
  825 159.183 -0.247332 13.4342
  826 158.384 -0.173776 -13.5318
  827 238.575 -1.20579 -4.66796
  828 238.664 -1.18847 4.62593
  829 42.8913 38.1325 33.1346
  830 356.903 8.53028 32.5186
  831 396.882 58.2868 -25.4123
  832 426.664 49.5404 -35.5787
  833 281.114 -10.5995 -12.2684
  834 280.954 -10.5215 12.2533
  835 442.084 93.9695 12.3527
  836 381.190 -3.22741 -0.446015
  837 381.214 -3.20339 0.509492
  838 377.583 -11.3477 -23.0984
  839 316.627 -21.0758 11.3902
  840 348.345 -39.1410 21.0901
  841 408.768 -33.4919 32.7692
  842 313.915 -9.10631 -3.22236
  843 313.913 -9.07288 3.20164
  844 359.144 33.3012 14.7963
  845 337.673 4.64190 -23.6514
  846 93.8173 112.065 107.755
  847 341.520 -30.2566 -8.38465
  848 342.688 -15.3163 0.427146
  849 342.871 -15.3489 -0.446655
  850 376.981 -5.56365 37.5215
  851 373.621 -24.5670 -16.8665
  852 333.929 -22.0954 -4.73325
  853 756.234 24.4807 -37.2860
  854 317.516 -30.0172 22.0399
  855 317.259 -30.4050 -22.3907
  856 376.519 -4.51386 18.9714
  857 565.314 146.283 -33.5846
  858 298.089 -27.0503 -27.4223
  859 329.011 -37.0314 26.1684
  860 298.015 -26.7263 27.1835
  861 323.053 -12.9971 -3.73282
  862 323.045 -12.9543 3.70717
  863 48.3118 20.4080 28.7784
  864 404.618 30.2273 -39.5335
  865 310.156 -12.0913 -5.84700
  866 310.214 -11.9704 5.86748
  867 306.393 -5.07429 -0.709682
  868 306.389 -5.03991 0.705155
  869 336.601 -6.71826 -0.169470
  870 336.561 -6.67489 0.166911
  871 274.298 -5.35527 -6.63578
  872 274.321 -5.29573 6.60879
  873 311.292 -16.3544 -8.78452
  874 311.333 -16.2444 8.82292
  875 7.63190 -2.29339 -3.89610
  876 468.336 87.8797 19.9434
  877 402.992 -14.1580 -31.3675
  878 328.733 -36.4933 -26.4394
  879 354.973 -11.4594 3.03224
  880 354.817 -11.3428 -2.93592
  881 387.112 0.469673 40.3108
  882 420.047 -29.9610 -18.4815
  883 371.419 26.7869 -138.088
  884 170.130 -2.82394 68.3926
  885 -5.92144 3.96692 -4.80392
  886 -5.10015 4.47936 5.30253
  887 48.0087 21.7033 -29.3863
  888 378.123 -10.9012 14.0181
  889 397.496 -2.63800 -5.88886
  890 357.617 -34.4356 59.4331
  891 169.728 -2.64917 -68.6614
  892 398.518 -32.6553 8.10310
  893 443.001 -12.8962 52.0024
  894 323.352 1.31460 10.5679
  895 370.003 35.1982 25.1717
  896 200.847 -11.3065 50.2497
  897 200.074 -11.3975 -50.5781
  898 240.856 -11.4317 -28.1990
  899 252.279 -12.4255 -87.1418
  900 398.903 -9.35724 35.3995
  901 546.852 128.900 20.9969
  902 400.650 15.3915 40.3151
  903 378.693 -8.10230 -21.0988
  904 257.551 -11.1317 89.3030
  905 482.203 88.9827 -14.2861
  906 48.3370 41.0120 -40.7876
  907 350.527 -0.694907 -11.2758
  908 241.108 -11.3382 27.9524
  909 293.560 -6.46123 4.70564
  910 293.550 -6.50491 -4.71566
  911 374.161 -24.4354 17.4359
  912 388.085 -2.52647 1.36842
  913 285.764 2.59167 -108.218
  914 408.970 -0.922085 2.78404
  915 406.030 -0.760054 -3.57446
  916 305.175 2.66573 -9.17931
  917 392.778 -1.60711 -6.43810
  918 294.439 -13.7473 -11.3750
  919 294.636 -13.5428 11.4104
  920 -9.53163 3.62979 -5.46424
  921 -13.2186 2.18971 5.81176
  922 388.072 -2.34985 -1.39440
  923 129.525 -2.94918 46.1675
  924 128.760 -2.67524 -46.4272
  925 415.227 60.5365 31.1959
  926 738.648 13.3571 11.5096
  927 391.028 43.4704 32.9426
  928 441.754 -15.4704 15.2989
  929 384.624 -21.4352 27.5802
  930 478.684 100.265 -10.8927
  931 298.759 1.29820 6.92139
  932 370.000 -8.74222 -5.46502
  933 384.809 20.6929 -39.8759
  934 463.826 13.8801 -6.64083
  935 360.824 -22.2899 -8.00452
  936 185.653 -1.02699 -10.0224
  937 185.840 -0.990550 9.88221
  938 380.606 -8.96984 -16.4364
  939 12.9144 16.3092 3.61760
  940 365.372 -37.8820 -4.34541
  941 317.753 9.44739 -0.946083
  942 475.532 104.386 -7.22721
  943 75.7102 56.2778 -67.3799
  944 366.101 -2.72819 -22.0963
  945 254.589 -4.23188 -8.90012
  946 254.640 -4.18240 8.82675
  947 2.26941 -10.3372 7.84043
  948 249.201 -18.5189 -40.4610
  949 372.236 -21.5329 -16.3913
  950 233.009 0.501581 -0.742195
  951 233.069 0.503888 0.737328
  952 376.434 45.6723 -20.1388
  953 402.433 -1.23802 -0.561471
  954 402.448 -1.25386 0.739651
  955 249.315 -18.4691 40.1912
  956 376.931 -0.530540 -8.71279
  957 433.024 3.13705 25.8898
  958 384.258 -5.46402 6.58708
  959 62.0953 15.6218 -36.2259
  960 398.282 -2.44925 5.32961
  961 362.206 2.93484 34.7810
  962 381.973 52.8833 17.9122
  963 381.920 4.42515 -40.7649
  964 263.761 -14.1049 -24.2538
  965 411.665 -14.6153 25.9776
  966 263.934 -14.0514 24.0131
  967 12.3402 13.3647 -1.45382
  968 45.7745 7.77160 26.5589
  969 215.772 -3.79676 16.6092
  970 215.510 -3.79943 -16.7014
  971 370.262 -8.90581 5.76919
  972 398.620 69.2675 9.88369
  973 203.100 18.5258 -102.561
  974 333.312 -20.7951 4.15445
  975 312.887 -32.6939 -33.0020
  976 455.573 87.2543 20.9782
  977 350.644 -6.22278 0.401044
  978 350.629 -6.18921 -0.403709
  979 383.917 -7.13436 -11.7502
  980 355.824 30.7416 -13.6475
  981 797.875 237.863 160.348
  982 74.8789 4.15636 -34.8258
  983 76.0269 3.45265 34.9011
  984 5.57088 -6.60341 2.09913
  985 356.836 19.7986 28.0137
  986 312.809 -32.8937 32.7618
  987 387.297 -18.3183 -31.4768
  988 421.316 34.4240 38.8382
  989 404.463 -32.6630 -40.0934
  990 590.332 124.170 41.5629
  991 344.308 -5.60053 -0.194291
  992 344.263 -5.55479 0.194450
  993 402.616 -16.4463 29.7024
  994 28.0015 47.3851 48.7203
  995 182.431 -3.81527 23.7691
  996 181.868 -3.76627 -24.0196
  997 217.431 -10.6106 32.5234
  998 216.688 -10.4475 -32.6430
  999 244.762 -10.0655 23.4000
  1000 267.588 -2.11182 -1.19205
  1001 267.628 -2.09623 1.18727
  1002 661.192 212.260 -135.823
  1003 601.008 150.673 62.5369
  1004 244.564 -10.1162 -23.5936
  1005 414.666 -1.93120 32.8026
  1006 371.752 38.5752 -24.2243
  1007 262.673 -22.6238 72.2728
  1008 336.952 -39.8154 -39.1740
  1009 385.021 -3.17892 -12.7200
  1010 174.264 11.8765 83.5597
  1011 223.590 -17.0720 57.7435
  1012 341.274 17.5307 -17.5626
  1013 389.425 -7.73224 -38.1522
  1014 492.609 204.086 216.040
  1015 322.624 9.91074 12.5193
  1016 437.829 94.1872 -1.49333
  1017 321.174 12.6969 -122.917
  1018 327.282 -34.4201 -22.6075
  1019 414.205 -0.471238 -1.38046
  1020 398.538 36.5956 -38.0946
  1021 234.705 -1.50231 5.99035
  1022 234.594 -1.51753 -6.04553
  1023 8.66311 5.19192 -12.7189
  1024 264.004 -12.0225 -20.2322
  1025 223.316 -17.2917 -58.1736
  1026 263.808 -11.9965 20.0131
  1027 380.739 -11.6071 35.2866
  1028 341.699 -21.1098 -1.11423
  1029 359.236 6.62310 -33.7105
  1030 369.680 46.1672 7.07339
  1031 499.103 30.6224 19.1376
  1032 377.020 -28.6567 16.5300
  1033 239.158 -19.0902 -44.2707
  1034 356.262 12.6303 -31.5756
  1035 264.924 -22.3247 -72.6462
  1036 507.690 110.000 -2.21583
  1037 346.482 22.7773 15.9778
  1038 436.252 -2.53231 -19.6071
  1039 329.313 -34.4371 20.8476
  1040 377.189 -11.9734 27.2214
  1041 374.651 -19.7937 19.3754
  1042 372.592 -18.7539 16.7405
  1043 459.675 58.4655 -27.8179
  1044 372.349 -6.01444 27.7461
  1045 336.418 -39.9264 38.5411
  1046 359.086 -14.6949 5.30703
  1047 239.309 -19.1274 44.0285
  1048 337.369 -24.8381 -5.05090
  1049 196.737 -9.57433 -61.7494
  1050 280.055 -29.0597 49.0766
  1051 379.080 -2.58776 -14.7986
  1052 369.438 -4.17297 -31.5857
  1053 320.131 -25.2944 -13.8923
  1054 197.074 -9.84761 61.2718
  1055 344.993 0.851981 -22.0481
  1056 256.945 -17.0109 -31.3758
  1057 463.860 98.6390 13.1417
  1058 104.167 17.1456 -58.8614
  1059 787.942 55.6538 75.6238
  1060 186.513 13.8081 -87.4501
  1061 372.478 -30.8661 -9.89793
  1062 257.017 -16.8667 31.1233
  1063 341.392 3.63910 24.6786
  1064 192.268 -3.87985 19.6806
  1065 192.170 -3.97554 -19.8782
  1066 377.252 -10.5081 -32.7236
  1067 400.488 -2.05369 2.13886
  1068 393.078 -0.897123 6.49999
  1069 389.130 12.9040 41.0849
  1070 364.266 -2.74131 29.6976
  1071 282.022 30.1364 132.910
  1072 416.807 -0.334003 0.657776
  1073 391.941 53.0858 26.2164
  1074 332.370 4.84379 21.2768
  1075 397.936 -1.53033 6.23217
  1076 257.034 -2.74087 -4.99055
  1077 257.081 -2.70976 4.95894
  1078 163.979 -4.63271 -32.8334
  1079 164.615 -4.79967 32.6134
  1080 333.439 16.6681 8.93473
  1081 500.600 27.2731 -37.6556
  1082 460.014 -0.234478 -70.4076
  1083 368.002 -0.332210 -9.05093
  1084 280.152 -29.2761 -49.4446
  1085 320.805 -24.0584 12.4518
  1086 370.100 -0.852237 9.44360
  1087 387.096 -28.1074 -19.5450
  1088 242.836 -0.546878 2.96814
  1089 242.773 -0.556645 -2.98623
  1090 371.770 -31.7497 9.89052
  1091 353.445 -7.25792 0.925323
  1092 353.385 -7.26534 -0.903090
  1093 343.972 -34.6308 13.3608
  1094 442.520 -14.2491 -5.59178
  1095 201.695 -0.355514 -5.58281
  1096 202.020 -0.343121 5.52460
  1097 301.917 -19.1375 -83.2357
  1098 321.446 -7.67355 1.77789
  1099 321.476 -7.71553 -1.79293
  1100 194.285 104.797 146.056
  1101 444.766 36.5269 -31.5791
  1102 66.0479 32.0582 -44.6712
  1103 384.466 -5.76243 -6.36252
  1104 103.312 35.3161 -67.5177
  1105 214.640 -13.4748 -42.0148
  1106 416.872 -0.474134 0.418524
  1107 417.029 -0.445884 -0.306730
  1108 378.418 -21.6194 -23.5742
  1109 335.069 -37.6297 -53.6801
  1110 104.236 14.5959 56.0887
  1111 411.746 40.7421 36.9817
  1112 373.485 -3.81244 -0.550958
  1113 373.529 -3.81511 0.585777
  1114 407.563 -26.1758 65.1267
  1115 421.842 84.3936 14.1933
  1116 251.180 -6.02792 -12.7206
  1117 251.244 -5.99990 12.6319
  1118 190.490 21.7202 103.539
  1119 358.344 1.83280 -32.6129
  1120 112.752 36.2422 72.5570
  1121 458.980 -7.74226 -22.4412
  1122 451.784 99.7338 4.25465
  1123 310.979 -24.5759 16.8292
  1124 287.786 1.54877 -1.34973
  1125 394.042 -3.48319 7.93918
  1126 407.777 -0.529462 3.09205
  1127 90.2745 0.157698 -16.5426
  1128 91.4856 0.114692 16.4314
  1129 322.141 5.41240 -15.7680
  1130 331.489 -9.75084 -1.34508
  1131 331.415 -9.70602 1.33780
  1132 34.9960 56.0196 -51.8675
  1133 55.4907 121.613 -103.292
  1134 335.682 -13.1106 1.11612
  1135 335.810 -13.1086 -1.13546
  1136 346.746 -8.37414 0.958428
  1137 346.696 -8.35707 -0.929863
  1138 91.3161 58.2836 73.0733
  1139 274.256 -3.37939 -2.41329
  1140 274.289 -3.35515 2.40205
  1141 344.689 26.0742 -0.369047
  1142 437.573 55.9408 -153.358
  1143 419.896 72.3667 -24.3284
  1144 383.015 -14.7189 -33.3102
  1145 377.266 -18.8307 -23.9630
  1146 311.159 -24.8041 -17.1076
  1147 313.559 1.03438 9.73361
  1148 352.338 21.9837 -23.4208
  1149 347.468 18.7054 22.3796
  1150 358.852 -14.2694 -5.20649
  1151 342.569 -20.6870 0.857526
  1152 311.633 -20.1177 -12.6770
  1153 370.843 -2.18623 17.5913
  1154 653.148 65.9077 9.18078
  1155 373.319 -7.96721 32.0396
  1156 374.725 24.6025 35.1436
  1157 345.577 -33.9983 -10.1117
  1158 43.3884 7.14002 -25.6202
  1159 352.053 -16.2926 -3.59043
  1160 234.681 -0.362316 -0.149609
  1161 234.735 -0.360789 0.148006
  1162 428.488 -11.3697 16.6589
  1163 408.304 -34.3878 15.3412
  1164 586.103 104.888 25.8455
  1165 141.040 -0.285384 -13.7683
  1166 141.873 -0.255001 13.6659
  1167 314.601 -6.37310 -1.45307
  1168 314.586 -6.33367 1.44268
  1169 353.135 -31.1498 -1.36979
  1170 290.339 1.32383 4.42067
  1171 361.622 -25.7507 7.56061
  1172 20.6129 24.4943 -12.0669
  1173 65.3574 32.5041 43.6771
  1174 242.241 -13.1972 80.4449
  1175 418.326 79.6500 -17.3734
  1176 399.379 -1.11428 -4.92389
  1177 418.626 -0.678663 0.276968
  1178 419.026 -0.921920 -0.172806
  1179 244.132 -0.575361 -0.490451
  1180 244.187 -0.570799 0.486830
  1181 385.553 24.6435 39.8578
  1182 569.481 97.2263 -2.06730
  1183 397.278 65.6622 -17.7344
  1184 297.015 -21.8627 82.7042
  1185 240.952 -12.6899 -80.2907
  1186 267.966 -17.9177 -28.1513
  1187 370.482 -10.3735 7.39276
  1188 516.669 113.894 4.94056
  1189 267.991 -17.8115 27.9323
  1190 378.487 -6.63683 5.59391
  1191 338.445 12.5923 21.3620
  1192 372.719 11.5482 38.3199
  1193 530.233 118.404 13.1249
  1194 315.193 -8.23086 2.70652
  1195 315.209 -8.27029 -2.72532
  1196 383.434 -7.21911 12.2061
  1197 228.043 -2.43355 9.37746
  1198 227.882 -2.45816 -9.46156
  1199 375.037 -5.12904 -2.46973
  1200 154.594 92.1823 -141.309
  1201 324.779 -18.3161 -88.5619
  1202 306.609 -9.61083 -4.99045
  1203 306.641 -9.56742 4.99217
  1204 402.111 -1.91262 1.94022
  1205 380.711 -5.01000 4.46924
  1206 20.9459 26.4041 19.4544
  1207 413.950 -0.472139 1.61325
  1208 49.4598 62.7999 62.3079
  1209 371.884 -5.58037 -3.18164
  1210 -0.448700 -9.09293 -7.97018
  1211 263.249 -25.6910 -62.2926
  1212 262.527 -25.0678 61.6717
  1213 413.935 -0.736137 -1.78593
  1214 354.279 -18.6938 -4.30702
  1215 401.828 -1.74653 -1.98337
  1216 322.072 -10.4253 -2.61084
  1217 322.040 -10.3873 2.58212
  1218 374.797 -5.09302 2.31809
  1219 351.800 -15.9732 3.55293
  1220 338.554 -10.9008 0.160551
  1221 338.673 -10.9303 -0.120077
  1222 401.481 -1.80006 -1.61789
  1223 346.704 -36.5133 -60.5132
  1224 392.880 -2.44962 -1.64838
  1225 373.466 -5.73531 3.42693
  1226 261.156 -2.85785 -3.70285
  1227 261.200 -2.82995 3.68140
  1228 291.498 -4.28840 -1.90602
  1229 291.513 -4.25899 1.89660
  1230 471.416 73.5530 23.2046
  1231 396.218 -30.4616 14.3630
  1232 271.882 -1.28356 102.183
  1233 218.474 -0.366803 3.60084
  1234 218.290 -0.370762 -3.63643
  1235 375.599 -6.94414 24.0536
  1236 359.428 -5.46534 0.642669
  1237 359.443 -5.44692 -0.642287
  1238 411.665 80.0936 8.12574
  1239 376.701 -39.4486 48.0144
  1240 218.786 -3.08795 13.1520
  1241 218.569 -3.11118 -13.2478
  1242 358.909 -8.77548 2.68572
  1243 358.829 -8.83615 -2.60432
  1244 370.282 -10.2474 -7.11954
  1245 340.705 0.0707037 11.4127
  1246 587.512 146.022 -48.8670
  1247 377.180 -13.8129 -21.1821
  1248 64.9678 15.4226 37.2434
  1249 389.613 -20.7771 29.2925
  1250 313.509 6.87578 -8.62697
  1251 24.1122 17.6527 13.5530
  1252 512.763 57.3244 -5.33269
  1253 380.551 -17.3168 -29.6645
  1254 314.999 4.49703 13.2157
  1255 216.144 -13.4978 41.9448
  1256 386.521 -29.9314 17.3895
  1257 560.400 107.522 34.5573
  1258 130.179 19.1841 71.3659
  1259 388.393 -4.63241 -10.5177
  1260 744.646 8.33030 -7.48182
  1261 769.303 11.5533 33.3372
  1262 821.308 27.9110 -79.2575
  1263 376.738 -11.7698 -26.4356
  1264 376.709 -17.2036 22.4355
  1265 382.700 -27.2498 20.8135
  1266 -11.2495 1.29918 7.13020
  1267 -10.2359 1.04017 -7.76346
  1268 372.438 -41.1678 -22.5359
  1269 381.493 -38.5792 -33.6809
  1270 292.416 1.87022 -5.45789
  1271 370.882 -41.9060 33.6082
  1272 396.294 -18.8089 -29.7150
  1273 7.88003 11.8575 1.42974
  1274 322.366 -5.90035 1.01760
  1275 322.389 -5.94223 -1.02029
  1276 393.767 -3.17011 7.14641
  1277 378.460 -6.51902 -5.25231
  1278 356.488 -38.9190 -12.0418
  1279 325.768 -17.6258 5.42363
  1280 324.131 -17.3783 -5.89195
  1281 382.077 -8.08791 16.8104
  1282 391.563 -14.3974 -34.2642
  1283 25.0202 18.4049 -13.1369
</Section>

newXOutput 22

<Section columns = "stress_xx | stress_yy | stress_xy">
  1 440.900 -0.107391 0.848502
  2 440.911 -0.0999352 -0.850951
  3 242.549 -0.0817100 -0.306836
  4 -3.06257 -3.02932 -4.40318
  5 789.595 316.102 252.998
  6 782.282 327.511 -252.486
  7 -3.55694 -2.87889 4.68467
  8 242.491 -0.0825959 0.306016
  9 443.954 -0.744786 0.255442
  10 443.045 -1.17496 -0.227629
  11 442.077 -0.789805 0.969998
  12 441.101 -1.08257 0.257384
  13 438.996 -0.913484 1.52749
  14 437.080 -0.922149 1.10572
  15 432.526 -0.814690 2.19774
  16 425.978 -0.575215 3.24231
  17 420.148 -0.606823 3.61890
  18 411.465 -0.839641 4.38557
  19 399.381 -0.0724841 6.49738
  20 388.219 -0.618739 6.18793
  21 375.459 -0.798666 8.73394
  22 357.033 0.564051 7.61099
  23 343.656 0.860673 9.00785
  24 326.201 1.44484 7.05777
  25 314.106 1.52880 7.11987
  26 296.587 2.12999 3.63288
  27 292.887 3.35186 3.89726
  28 290.658 2.75365 -1.15193
  29 293.699 1.60553 -2.52798
  30 299.299 1.55289 -3.10144
  31 312.425 1.95365 -6.18809
  32 325.174 1.54333 -7.82073
  33 343.848 0.349500 -9.26821
  34 358.783 -0.188659 -8.42724
  35 374.672 -0.634658 -8.26602
  36 389.043 -0.483747 -5.82769
  37 401.363 -0.509435 -4.97435
  38 411.497 -0.821993 -4.16537
  39 420.551 -0.591605 -2.88979
  40 426.177 -0.707390 -3.06079
  41 431.613 -0.863623 -2.23455
  42 436.730 -1.02131 -0.961774
  43 439.346 -0.824367 -1.14313
  44 440.697 -0.514151 -0.706306
  45 439.624 -0.294756 -0.644914
  46 443.483 -1.18195 0.155536
  47 444.084 -0.774531 -0.263368
  48 429.823 -0.373732 -0.525270
  49 420.361 -1.84385 -0.959742
  50 408.777 -2.69760 -0.607514
  51 394.634 -3.96827 -0.837552
  52 381.204 -4.33364 -1.02945
  53 366.854 -5.39301 -0.982230
  54 354.137 -5.98023 -0.529119
  55 342.981 -6.66532 -0.177176
  56 330.105 -5.52505 -0.169071
  57 315.263 -5.15084 -0.306490
  58 300.961 -4.05419 -0.0686211
  59 287.414 -2.57397 -0.00997271
  60 274.544 -1.82571 0.0440451
  61 263.263 -0.924969 0.137268
  62 251.736 -0.239900 -0.350087
  63 242.676 0.341888 0.458680
  64 238.602 0.941536 0.314804
  65 241.333 0.0132410 0.733992
  66 238.193 -0.121333 0.887521
  67 235.261 -0.183782 1.10591
  68 231.293 -0.0165988 1.43629
  69 226.291 -0.00870102 1.80565
  70 222.554 -0.283720 3.46432
  71 212.007 0.309880 3.77974
  72 204.560 -0.0174494 4.31878
  73 193.470 -0.188555 4.90137
  74 180.708 -0.320780 5.96343
  75 164.751 -0.0697370 7.24105
  76 145.300 0.0926599 7.98720
  77 128.459 -0.167586 11.4152
  78 95.2624 1.05579 10.7798
  79 72.5981 0.910078 11.4185
  80 45.3943 -0.208031 12.6743
  81 22.7598 2.09058 13.1931
  82 -3.03029 3.13407 7.94998
  83 -21.8348 3.18608 2.85537
  84 -21.3724 3.08210 -1.08029
  85 -20.5103 2.56532 -6.15276
  86 -12.0761 -0.807294 -5.86391
  87 -1.46798 -11.5926 -6.47484
  88 1.16011 -21.3287 -8.07526
  89 3.19791 -33.5476 -4.40364
  90 7.08691 -33.9944 0.541038
  91 14.9735 -7.10568 19.9663
  92 44.5327 70.0464 67.2766
  93 259.850 245.781 226.478
  94 956.187 143.067 159.803
  95 861.986 20.4711 51.9711
  96 801.809 8.49929 15.9039
  97 779.598 7.22307 1.22734
  98 791.384 9.60653 -13.7811
  99 860.082 19.0755 -41.1297
  100 1012.72 69.0092 -137.517
  101 154.445 251.632 -189.558
  102 33.3436 50.1887 -55.7706
  103 16.3540 -5.46309 -21.1159
  104 6.63174 -33.9763 -3.74198
  105 1.88752 -25.4998 5.05284
  106 2.36829 -26.8921 6.99749
  107 0.117686 -10.0139 7.17153
  108 -12.6073 -0.517219 5.55979
  109 -21.1615 1.92567 5.36535
  110 -22.5087 3.74551 1.20092
  111 -22.5371 3.13564 -2.64902
  112 -4.60724 3.21194 -7.45032
  113 21.3700 2.10875 -12.5800
  114 43.9762 0.0144768 -12.4663
  115 71.1347 0.983881 -11.4424
  116 93.9330 1.08347 -10.8620
  117 127.428 -0.172307 -11.5110
  118 144.417 0.103037 -8.06446
  119 163.980 -0.0667458 -7.33184
  120 180.312 -0.355600 -6.00777
  121 192.938 -0.178947 -4.91414
  122 204.155 -0.00384102 -4.36348
  123 211.676 0.306110 -3.82114
  124 222.315 -0.286526 -3.49941
  125 226.099 -0.0105202 -1.82721
  126 231.147 -0.0183307 -1.45402
  127 235.150 -0.186647 -1.11996
  128 238.107 -0.123787 -0.897332
  129 241.261 0.0111330 -0.740258
  130 238.539 0.940434 -0.317715
  131 242.617 0.341342 -0.460501
  132 251.678 -0.242312 0.349122
  133 263.208 -0.931008 -0.139514
  134 274.496 -1.83899 -0.0466715
  135 287.378 -2.59242 0.00744273
  136 300.940 -4.08078 0.0661249
  137 315.259 -5.18445 0.304532
  138 330.120 -5.56391 0.167094
  139 343.011 -6.70883 0.176310
  140 354.177 -6.02361 0.530576
  141 366.911 -5.43248 0.986670
  142 381.254 -4.36089 1.04541
  143 394.671 -3.99264 0.914107
  144 408.851 -2.55293 0.621085
  145 420.657 -1.79615 0.938549
  146 429.897 -0.440438 0.517288
  147 385.324 -36.2053 -2.03836
  148 384.999 -35.7172 2.17512
  149 404.885 58.1428 -19.5854
  150 430.951 25.3916 41.3027
  151 326.492 -31.4566 -72.1977
  152 329.144 -31.4144 69.8894
  153 317.830 -13.4553 8.80330
  154 317.855 -13.6416 -8.80958
  155 456.588 16.4485 -31.2008
  156 384.303 -13.8544 8.19865
  157 384.139 -13.5223 -8.09725
  158 496.748 110.666 4.84042
  159 393.702 -0.629663 -40.5142
  160 291.807 -22.9126 -32.3947
  161 291.818 -22.7226 32.1134
  162 394.316 -8.93897 36.5003
  163 375.078 27.3855 24.2363
  164 155.244 24.8367 -86.1851
  165 172.046 23.5392 90.8004
  166 481.580 5.61194 2.95225
  167 395.181 -15.1807 -25.2153
  168 522.787 114.807 -1.44095
  169 356.106 -10.0656 -0.163525
  170 356.031 -10.0351 0.193920
  171 399.431 -4.89009 -3.56710
  172 400.676 -4.39969 3.07764
  173 280.602 -4.00521 -5.18325
  174 280.638 -3.96388 5.15698
  175 428.357 -11.1530 91.7790
  176 363.213 15.1023 -26.1132
  177 237.757 -17.7921 -51.8659
  178 238.465 -17.6626 51.5319
  179 267.237 -8.72847 -16.9884
  180 267.263 -8.62871 16.8643
  181 397.075 -10.4559 21.4359
  182 361.052 -24.7743 -1.23621
  183 359.791 -24.5900 1.80619
  184 409.986 -39.6992 -7.54478
  185 412.135 -37.8213 2.45340
  186 566.113 133.292 -20.3400
  187 412.791 66.2373 18.3046
  188 413.245 25.3772 -41.6256
  189 426.770 -3.40812 -106.556
  190 409.794 -23.1769 -28.7624
  191 413.328 -16.5567 33.9974
  192 344.770 -39.1372 35.5682
  193 344.847 -38.8593 -35.4613
  194 369.281 4.71985 31.3549
  195 169.463 -4.17781 -63.4631
  196 169.876 -4.53427 63.0789
  197 637.827 95.4453 13.8378
  198 388.216 -23.1439 15.4731
  199 402.496 -7.43117 -13.9028
  200 319.779 -7.81226 -4.03894
  201 319.786 -7.77290 4.02644
  202 386.827 -5.03310 -28.1543
  203 440.246 64.6032 -33.1799
  204 368.981 33.1708 -4.85502
  205 240.743 -8.49097 23.8425
  206 240.377 -8.51744 -24.0177
  207 408.329 -4.57814 7.54794
  208 398.238 7.48892 41.6788
  209 323.978 -23.5572 -15.7745
  210 321.815 -22.3040 16.1354
  211 468.964 69.5655 30.1303
  212 550.365 75.9450 13.6781
  213 37.8549 29.4650 -24.4563
  214 35.0209 27.2377 20.7978
  215 227.322 65.2139 151.507
  216 384.336 -25.5503 -11.7409
  217 409.776 -4.39673 -6.81627
  218 365.153 3.23178 -28.8779
  219 256.910 -2.53687 -7.54402
  220 256.993 -2.50835 7.47918
  221 346.184 -16.2332 -3.45432
  222 346.345 -16.3342 3.25848
  223 390.099 -5.26734 23.9328
  224 448.276 -25.9381 10.8634
  225 446.119 91.0745 -9.58673
  226 349.850 -33.7717 -16.9689
  227 441.856 -7.70134 26.0792
  228 376.774 -6.37441 1.25570
  229 376.777 -6.32258 -1.25393
  230 347.303 -33.6116 17.6106
  231 397.633 -25.2504 23.3479
  232 557.374 72.7048 -36.5225
  233 124.440 74.0479 -110.110
  234 337.835 11.9039 6.24369
  235 399.791 35.2419 35.1324
  236 425.423 -2.99788 -36.8364
  237 397.668 -14.3318 -34.0592
  238 213.053 -6.82862 -29.8251
  239 213.784 -6.72590 29.7328
  240 398.268 -4.83023 -18.4540
  241 379.482 -9.64515 4.24220
  242 379.304 -9.63312 -4.09432
  243 80.6508 7.35222 -40.6161
  244 81.9166 6.44415 40.4778
  245 422.288 -36.9673 -33.3175
  246 417.694 -1.54659 1.01060
  247 418.130 -1.57557 -1.10747
  248 390.545 32.3803 -32.1888
  249 344.442 6.66231 18.9213
  250 714.856 114.469 76.8979
  251 708.853 80.7002 -48.0472
  252 515.579 111.002 -0.409098
  253 321.911 -15.5518 95.9401
  254 295.581 -10.1461 -100.313
  255 339.363 -6.97400 -1.44806
  256 339.332 -6.92988 1.43796
  257 282.393 -7.52729 10.4344
  258 282.390 -7.63056 -10.5250
  259 407.934 -4.43740 11.3145
  260 396.017 -28.2201 -19.0831
  261 258.340 -0.470878 -1.77148
  262 258.399 -0.462678 1.76070
  263 391.052 -15.8624 -15.2323
  264 167.052 -5.44783 -41.3927
  265 167.766 -5.46509 41.0985
  266 395.975 -17.1904 27.1853
  267 302.658 -32.1215 58.0895
  268 303.416 -32.6962 -57.9115
  269 342.710 13.1671 -8.80698
  270 295.752 -4.51463 -3.49486
  271 295.778 -4.48417 3.48162
  272 371.869 -0.917093 23.1165
  273 443.803 81.1719 22.9899
  274 239.096 -2.89340 12.7383
  275 238.913 -2.91750 -12.8451
  276 406.547 -33.9823 13.0822
  277 376.343 -42.2540 -39.1792
  278 419.285 -2.07644 3.48402
  279 292.502 -17.2801 -22.1703
  280 292.003 -17.0878 22.0877
  281 514.568 55.1834 134.645
  282 244.719 -19.7650 69.2432
  283 394.309 55.3485 -2.07677
  284 497.092 55.1614 -19.1049
  285 375.534 -29.0443 4.28161
  286 376.647 -43.4069 35.3570
  287 245.451 -19.4446 -70.0162
  288 45.7624 56.4804 51.5249
  289 391.119 -15.9170 15.5156
  290 511.937 67.2047 14.5908
  291 422.536 -1.85465 -3.02112
  292 383.926 13.4536 -37.0549
  293 378.408 -21.4116 8.12331
  294 370.549 -31.2708 1.46231
  295 382.558 17.5753 35.7130
  296 404.616 -33.9896 -11.6226
  297 572.439 111.147 -9.98627
  298 378.306 -20.5825 -7.76637
  299 311.849 90.3149 -185.142
  300 386.640 -40.9996 -8.11921
  301 383.921 -42.1195 12.5071
  302 282.825 -25.5524 -45.6347
  303 255.979 -0.961561 -3.84831
  304 256.052 -0.944804 3.81851
  305 282.949 -25.5737 45.3899
  306 409.221 -0.698655 -41.7758
  307 441.129 -18.2717 -16.9885
  308 336.783 -20.2525 -8.48170
  309 336.571 -20.2992 8.63542
  310 401.659 -34.5745 62.4408
  311 401.505 -3.24446 13.9672
  312 486.640 2.58335 22.8127
  313 330.062 -11.6325 -4.69451
  314 330.085 -11.5943 4.66890
  315 301.013 -7.80402 -6.91025
  316 301.016 -7.73150 6.90027
  317 340.938 4.61759 -18.2973
  318 436.117 31.9611 -40.0098
  319 671.763 181.495 -86.8711
  320 397.037 -3.56880 -1.18036
  321 396.815 -3.52159 1.21364
  322 213.545 -0.492164 86.4071
  323 299.404 -13.5315 -14.7236
  324 298.846 -13.4868 14.7617
  325 213.504 -0.993680 -86.0771
  326 416.097 49.0822 -34.1599
  327 464.803 23.0680 29.5568
  328 401.595 -28.6522 -69.2717
  329 369.980 -14.3031 3.40506
  330 369.607 -14.2003 -3.24614
  331 394.552 -8.24092 -7.30759
  332 372.125 -0.695887 -21.6160
  333 416.692 1.76317 40.8562
  334 415.253 -2.95496 -7.78374
  335 251.070 -15.1832 34.7834
  336 250.794 -15.2671 -35.0473
  337 388.012 -0.872835 38.4895
  338 240.608 -1.93925 -7.56979
  339 240.762 -1.92113 7.50214
  340 397.501 -9.19224 11.5287
  341 476.937 97.3086 -16.6805
  342 394.364 -8.30116 7.58685
  343 420.732 52.7896 34.2634
  344 402.491 -7.50785 39.7946
  345 319.403 -5.97241 1.49064
  346 319.404 -6.00872 -1.50027
  347 381.296 -1.35375 -34.1651
  348 503.707 105.815 10.2999
  349 419.580 76.8127 0.714091
  350 256.904 29.8219 -128.289
  351 27.0013 11.6424 -17.8196
  352 29.5629 12.6001 19.1519
  353 -1.15894 3.04427 7.61175
  354 0.387695 1.76075 -7.96141
  355 731.657 50.7660 17.3673
  356 347.545 -28.1844 -10.0896
  357 397.800 -8.88642 -11.2460
  358 359.333 -6.36903 0.410711
  359 359.292 -6.31883 -0.413091
  360 385.001 42.5271 -17.4365
  361 328.324 -33.4159 29.2777
  362 29.0711 43.3318 -32.0877
  363 328.624 -33.4053 -29.8009
  364 389.981 44.3506 18.5536
  365 397.035 -10.6330 -20.4001
  366 420.920 -23.5243 -24.3142
  367 449.115 94.6517 6.60280
  368 421.842 -26.3851 19.9122
  369 176.121 -4.35630 27.7141
  370 175.084 -4.27184 -27.8884
  371 99.9534 2.39919 -38.5809
  372 100.987 2.00547 38.4102
  373 346.233 1.18993 18.4968
  374 652.141 191.251 75.4279
  375 410.253 -2.65580 -9.94634
  376 320.097 -26.9757 -22.4548
  377 319.840 -26.9092 22.4251
  378 394.809 -9.14139 -25.9621
  379 448.781 -21.6944 2.22342
  380 347.533 -28.1599 10.3859
  381 491.825 3.87314 -41.4059
  382 280.391 -2.23216 -1.36840
  383 280.433 -2.21313 1.35908
  384 388.538 -2.27877 -16.6341
  385 210.780 -3.01308 -18.0736
  386 210.910 -3.11054 17.8566
  387 463.507 59.2332 -33.5759
  388 250.946 17.6802 119.238
  389 363.354 -19.0730 1.33744
  390 363.708 -19.0404 -1.35367
  391 427.103 72.1804 -21.6404
  392 403.991 -12.0032 -37.6495
  393 404.529 -41.3760 34.4403
  394 338.190 -8.98494 -2.27257
  395 338.152 -8.94255 2.25142
  396 389.706 -30.0885 12.5994
  397 419.130 -2.05438 5.77260
  398 263.017 -9.53229 -21.2351
  399 263.123 -9.53334 21.0579
  400 396.244 13.3072 -41.1283
  401 373.657 -8.17428 1.88227
  402 373.640 -8.19414 -1.83426
  403 386.918 -4.57715 31.3389
  404 361.402 26.3794 8.39269
  405 400.738 -16.9613 32.7835
  406 577.961 120.802 22.0744
  407 194.703 -10.4685 -55.5299
  408 195.241 -10.4708 55.1137
  409 87.1748 46.5354 -66.6193
  410 428.326 -1.33180 1.56583
  411 219.766 -1.83052 -11.4430
  412 220.055 -1.79176 11.3468
  413 395.107 -10.3453 25.4073
  414 358.471 -38.8921 19.5439
  415 404.221 -5.11315 5.16629
  416 412.520 20.9299 42.8015
  417 91.3211 49.5497 69.4050
  418 359.001 -38.6692 -18.0168
  419 370.903 -34.4644 -4.02584
  420 122.426 -2.45213 -34.9211
  421 123.327 -2.54247 34.6837
  422 285.125 -22.8908 -83.5001
  423 425.466 -6.39181 35.9082
  424 284.071 -23.2255 82.7756
  425 393.242 -22.1185 -21.0143
  426 366.374 24.7630 -18.3639
  427 393.298 -17.0418 19.9948
  428 422.446 -1.96122 -3.86428
  429 13.0848 14.0949 6.45554
  430 86.2744 99.9601 98.3105
  431 379.139 -1.38917 16.0725
  432 319.477 4.43486 8.02979
  433 324.891 5.39116 -10.8853
  434 277.193 -4.53337 -7.36311
  435 277.224 -4.47573 7.31663
  436 387.729 -30.0684 -11.4910
  437 392.052 -7.70314 -35.0429
  438 321.148 6.08969 -2.95624
  439 577.645 137.699 29.4234
  440 80.9475 26.6653 -49.9531
  441 89.1553 24.4692 53.3240
  442 363.018 -12.9619 1.32488
  443 362.882 -12.9327 -1.23014
  444 483.726 106.616 -1.29517
  445 300.901 125.993 189.260
  446 464.455 -6.42549 -5.43097
  447 268.547 -13.9350 -28.8062
  448 268.675 -13.8406 28.5671
  449 270.537 -5.98562 11.4320
  450 270.484 -6.02911 -11.5325
  451 364.183 8.13231 -29.7511
  452 430.466 -0.682865 -1.03263
  453 354.283 16.3167 16.7339
  454 446.168 55.0575 36.6233
  455 371.638 -27.5840 -2.94142
  456 404.052 -4.87287 -5.02280
  457 424.153 -1.78291 3.55839
  458 429.215 -0.733381 0.589360
  459 429.550 -0.819028 -0.427715
  460 239.220 -0.412591 2.81099
  461 239.099 -0.418830 -2.83934
  462 406.251 -25.8651 25.4081
  463 367.645 14.5477 28.8164
  464 383.861 1.56795 -37.5687
  465 400.114 -8.50567 15.0886
  466 573.834 98.4910 -113.894
  467 401.196 -22.3079 -28.5670
  468 4.29510 7.66753 3.37833
  469 4.24343 7.80812 -1.39129
  470 318.649 -17.9822 12.7613
  471 317.598 -17.7381 -12.6016
  472 496.937 9.82960 61.7191
  473 139.530 128.212 -143.940
  474 396.132 -1.23471 12.4429
  475 447.731 -26.0079 -35.4730
  476 240.404 -13.7765 40.2404
  477 480.658 85.2992 -23.9991
  478 395.445 -21.4521 23.8850
  479 332.645 -15.8536 -6.46822
  480 332.937 -15.5929 6.45140
  481 346.150 1.87266 -16.3285
  482 239.659 -13.7208 -40.4829
  483 354.739 0.188205 16.4015
  484 338.925 -38.7856 -52.0307
  485 338.081 -38.8447 52.2275
  486 407.992 -2.75444 10.9880
  487 371.934 35.1022 3.46792
  488 375.781 6.70731 129.699
  489 553.230 112.322 -0.702559
  490 382.553 -6.53424 2.26903
  491 382.573 -6.51101 -2.35520
  492 295.538 -5.19988 -4.70599
  493 295.561 -5.15721 4.68924
  494 156.378 7.08996 72.7156
  495 397.245 -19.1804 -28.0109
  496 360.464 -7.88821 0.149310
  497 360.427 -7.86147 -0.142219
  498 314.259 -33.2320 42.5737
  499 159.373 9.38306 -74.5485
  500 397.649 -32.4465 -13.1813
  501 7.03386 1.82940 2.80638
  502 349.071 18.0999 1.22640
  503 383.896 -4.53992 -0.738730
  504 383.889 -4.60028 0.720338
  505 314.436 -33.1723 -42.9001
  506 448.165 -22.9587 45.0341
  507 444.990 16.1573 37.1349
  508 410.342 -2.88490 -2.46607
  509 396.436 -32.9003 13.3846
  510 250.609 -0.221061 -0.510652
  511 250.669 -0.218857 0.506613
  512 396.087 -15.2510 -29.9714
  513 384.314 28.4528 31.4900
  514 439.575 10.8587 -36.6949
  515 249.086 -0.375952 -1.58319
  516 249.156 -0.370620 1.57274
  517 762.406 110.163 -98.3800
  518 399.765 47.5809 27.6946
  519 410.690 -2.66911 2.19252
  520 371.716 -35.2266 4.92561
  521 313.375 -10.3171 7.07968
  522 313.370 -10.3946 -7.06524
  523 431.967 -26.3596 10.5108
  524 415.613 -8.34852 -37.9726
  525 464.796 91.4487 20.3202
  526 387.184 6.67610 38.9676
  527 389.669 -7.57941 4.55754
  528 378.533 -40.4558 -50.2466
  529 393.206 -9.77210 29.6190
  530 753.177 34.5936 -13.7611
  531 428.752 -32.3692 0.275084
  532 407.797 -2.80445 -0.564784
  533 407.895 -2.97705 0.489401
  534 761.022 51.0482 48.1621
  535 377.684 -0.108491 33.1431
  536 526.764 88.9552 -7.33570
  537 396.626 -10.8581 -14.6153
  538 181.255 -1.67926 -12.3564
  539 181.806 -1.59823 12.2327
  540 269.426 -25.2062 -58.0493
  541 269.646 -24.7843 57.6240
  542 389.453 -7.27104 -4.51935
  543 424.097 15.5497 -41.6246
  544 372.732 -25.3623 4.37069
  545 401.508 46.0213 -28.7199
  546 403.697 -4.75598 14.7846
  547 504.605 25.6545 -7.12889
  548 345.965 -11.8524 -2.05534
  549 345.863 -11.8129 2.03264
  550 375.335 -17.7386 5.96896
  551 551.576 109.853 -9.76391
  552 395.847 17.3200 40.4642
  553 169.700 43.6092 107.386
  554 381.257 -22.8584 86.9902
  555 502.071 25.1496 -96.0664
  556 404.673 33.4573 -37.6211
  557 358.222 -31.0210 -75.4678
  558 388.079 -42.5658 -15.5636
  559 405.024 -41.0658 -22.5246
  560 53.6329 69.9482 -66.2645
  561 407.184 -5.23997 -8.98729
  562 611.255 118.776 -35.1324
  563 377.313 -17.0251 -6.73150
  564 380.360 -12.4300 5.55951
  565 380.009 -12.1502 -5.32290
  566 264.271 -1.49003 -3.50315
  567 264.329 -1.47080 3.48072
  568 38.3839 3.89013 -21.3417
  569 40.4353 4.08065 21.8304
  570 196.859 -9.10945 -42.3395
  571 198.340 -9.15973 42.2797
  572 385.597 -20.9293 -13.0811
  573 392.561 -42.7407 16.7933
  574 403.502 -38.3553 1.64140
  575 331.839 -5.87082 -1.29481
  576 331.821 -5.82992 1.28832
  577 314.393 -33.0082 -64.5794
  578 351.415 -28.8763 79.8025
  579 306.866 -31.0473 64.9333
  580 396.911 -8.83972 -37.6369
  581 250.410 -4.12275 12.8166
  582 250.286 -4.16541 -12.9199
  583 379.083 20.9848 -31.6408
  584 379.397 -0.667020 -14.5852
  585 473.164 102.510 -9.08603
  586 310.146 -4.67197 -1.25814
  587 310.157 -4.64161 1.25239
  588 403.707 -1.21615 -8.17065
  589 280.195 -9.40657 -14.2561
  590 280.205 -9.37458 14.1357
  591 228.367 10.4459 102.663
  592 392.916 -18.1201 -20.2053
  593 220.219 -11.6978 73.7969
  594 386.129 -20.0419 13.3819
  595 406.127 -5.81139 9.94035
  596 400.907 -3.77077 -2.16742
  597 283.580 -3.47516 -3.27815
  598 283.618 -3.44700 3.26187
  599 453.937 90.5097 -18.3628
  600 220.060 -11.2643 -74.0668
  601 384.836 -16.7045 -10.6519
  602 347.595 -6.48570 -0.665390
  603 347.559 -6.43911 0.662756
  604 649.077 87.2722 -15.5190
  605 232.322 -1.47221 7.05981
  606 232.123 -1.48646 -7.12407
  607 359.940 8.29436 27.1579
  608 511.461 43.2322 -4.58282
  609 243.237 1.57568 -101.875
  610 125.421 3.09629 -55.6913
  611 126.445 2.39123 55.3974
  612 305.412 -17.7649 17.7330
  613 308.552 -18.2885 -17.2427
  614 517.753 104.417 8.12256
  615 399.295 -3.90476 1.94915
  616 344.642 9.75583 -16.4185
  617 428.208 76.8575 17.1213
  618 426.713 79.7508 -11.3875
  619 350.649 -19.4185 -3.31794
  620 353.288 -18.9857 2.07301
  621 251.176 54.8751 -146.205
  622 302.144 -10.2921 -9.89619
  623 302.171 -10.1757 9.86372
  624 758.552 155.350 117.038
  625 396.322 -13.0184 32.3985
  626 227.914 -8.01545 -27.1213
  627 611.419 144.097 97.2696
  628 228.438 -7.97168 27.0218
  629 378.097 -14.3884 -101.447
  630 269.050 -1.30010 -1.29056
  631 269.102 -1.28888 1.28426
  632 332.575 3.02007 14.3263
  633 152.153 -2.24883 -24.3352
  634 152.979 -2.25466 24.1481
  635 346.171 -24.4767 7.81722
  636 362.807 -29.0448 -2.61857
  637 426.518 -0.964785 -3.27470
  638 243.129 -0.381461 2.08338
  639 243.034 -0.388333 -2.10419
  640 326.955 -7.36836 -2.01240
  641 326.943 -7.32801 1.99820
  642 374.043 -41.5477 50.7524
  643 430.194 48.0197 -37.7095
  644 287.304 -13.3470 -18.3650
  645 287.104 -13.1229 18.2352
  646 339.850 -24.4170 -10.6903
  647 533.927 116.091 3.88018
  648 401.143 -38.8496 0.550217
  649 348.896 -8.37918 -1.03230
  650 348.845 -8.33914 1.03230
  651 478.720 52.4924 27.9211
  652 402.065 -5.85920 -16.0669
  653 356.749 -0.418428 -13.3525
  654 165.915 -5.67169 -53.2810
  655 166.415 -5.82785 52.8535
  656 338.913 -29.2103 -16.9789
  657 507.438 111.540 0.156208
  658 394.406 53.3822 -12.4747
  659 262.875 -2.36687 -6.42543
  660 262.939 -2.33408 6.37572
  661 367.382 -10.4281 -1.43249
  662 367.453 -10.4383 1.50895
  663 680.945 88.8336 39.1895
  664 432.677 -1.21468 0.865449
  665 418.712 -1.69569 5.66329
  666 417.135 -1.72074 -6.66162
  667 396.321 -36.9243 5.24060
  668 293.134 -3.38965 -1.63765
  669 293.164 -3.36586 1.63060
  670 423.997 67.8895 26.3988
  671 542.777 120.517 -7.82291
  672 298.308 -22.1146 -26.0151
  673 298.229 -21.8996 25.8879
  674 372.102 -38.3385 -8.50021
  675 393.007 23.3697 -38.1037
  676 465.102 1.26871 15.3436
  677 310.291 -5.75624 -3.29583
  678 310.302 -5.71995 3.28293
  679 268.395 -23.5096 -52.4093
  680 392.595 -37.9938 -1.63647
  681 326.728 -36.2285 46.9151
  682 156.799 49.4059 -103.647
  683 305.469 -28.2613 36.1942
  684 368.527 0.101831 12.3158
  685 268.647 -23.2443 52.0638
  686 384.614 -17.0246 10.7834
  687 305.561 -28.1411 -36.5176
  688 314.234 4.14138 3.00939
  689 243.138 -6.49120 19.3116
  690 242.922 -6.49736 -19.4436
  691 326.891 -37.1669 -47.4329
  692 403.582 -26.6262 -24.5528
  693 370.292 -5.26653 -0.384008
  694 370.351 -5.31979 0.385897
  695 412.357 -26.3149 24.2369
  696 374.928 -39.1836 10.0084
  697 455.244 41.7805 36.1331
  698 411.018 -7.73718 39.2012
  699 395.511 -14.2393 23.7411
  700 378.707 31.1643 -24.0021
  701 454.497 76.3843 28.6280
  702 392.553 -5.45317 -23.2119
  703 390.900 -13.0136 12.0000
  704 404.887 63.3385 6.73699
  705 397.822 -6.78760 20.1355
  706 125.838 85.7109 108.728
  707 370.138 -42.5924 -29.5904
  708 428.541 7.76694 39.7644
  709 432.411 -13.4026 -27.8992
  710 430.777 -0.616530 1.78959
  711 395.164 -13.6294 -18.6026
  712 370.692 -42.9261 26.9440
  713 713.366 63.1972 -10.5636
  714 222.941 -0.940238 7.38573
  715 222.678 -0.950455 -7.45359
  716 400.557 -7.35276 -8.56256
  717 433.294 -0.473282 -1.75056
  718 338.308 -29.6845 17.0670
  719 405.760 -15.1351 35.5270
  720 613.624 147.659 -47.1984
  721 384.602 -27.8941 10.8540
  722 425.936 -28.0834 -13.8189
  723 391.040 -12.6685 -11.8061
  724 433.007 -0.797918 -0.547176
  725 396.391 -0.0500784 40.9911
  726 18.4855 17.8086 23.5810
  727 445.580 -16.9456 -66.5245
  728 485.296 28.9645 16.8929
  729 404.630 -41.3804 20.2041
  730 290.046 -6.92833 8.09464
  731 290.043 -7.02397 -8.13217
  732 374.895 193.264 -198.722
  733 412.524 -27.3278 -22.3230
  734 313.026 1.69855 -5.75410
  735 363.632 2.03909 26.4451
  736 398.183 -19.9601 28.4612
  737 381.657 -32.1633 5.01087
  738 396.251 -36.1745 -54.5475
  739 379.351 -30.0171 -5.74570
  740 447.328 -21.4124 -3.76422
  741 412.088 -3.44517 4.98044
  742 368.509 -22.1410 2.81213
  743 666.337 133.172 -71.3058
  744 392.718 -10.5700 9.47943
  745 389.214 6.38531 -40.0047
  746 331.584 -3.66502 113.978
  747 416.668 33.5308 40.7185
  748 358.459 -28.2059 4.45494
  749 277.566 -21.8084 -38.3402
  750 277.598 -21.7501 38.0352
  751 381.704 42.9308 -5.58509
  752 387.817 -4.49953 35.6303
  753 391.858 -9.34695 -30.2865
  754 368.924 -22.5973 -2.92502
  755 356.779 -31.9538 9.83987
  756 407.971 67.2404 -7.58740
  757 381.192 -32.9937 -3.50972
  758 382.157 -24.2060 10.6002
  759 386.986 -5.05142 1.59282
  760 387.218 -4.91795 -1.58032
  761 520.502 114.064 2.01125
  762 425.329 -36.2069 -13.7706
  763 396.358 -12.1828 18.5411
  764 412.212 -3.43758 -4.52039
  765 417.165 2.75163 -41.2520
  766 474.153 25.0704 -23.3954
  767 234.900 -0.212557 -3.46005
  768 235.053 -0.209286 3.42638
  769 3.46287 -6.96618 -4.89491
  770 404.676 -0.495401 7.56029
  771 371.739 -0.578128 -29.2121
  772 383.692 -3.59649 25.6756
  773 348.732 43.8156 166.767
  774 436.622 89.5993 -0.917769
  775 310.936 -22.1936 20.3927
  776 55.5955 1.20414 -21.0180
  777 57.1457 0.882680 21.2401
  778 380.364 -2.70413 -29.0001
  779 311.760 -22.4120 -20.3910
  780 409.797 -3.77820 3.75264
  781 211.264 -8.97781 36.1231
  782 209.477 -8.94543 -36.1334
  783 392.688 -10.2659 -9.23015
  784 252.432 -6.32035 -16.8236
  785 252.559 -6.27959 16.6787
  786 408.817 -3.91531 -11.0683
  787 313.280 -8.34280 -5.66231
  788 313.291 -8.28947 5.66461
  789 446.214 -2.81595 -27.8652
  790 402.205 -4.22885 -41.0571
  791 206.379 -1.30377 -9.39886
  792 206.770 -1.29159 9.29218
  793 10.8738 5.14584 -12.8716
  794 12.6635 5.43133 13.5340
  795 327.573 1.59093 -10.4030
  796 367.187 -41.2539 -22.2036
  797 -4.18381 -2.87959 7.25981
  798 -3.68290 -3.42768 -7.23514
  799 382.073 -7.72892 3.44626
  800 414.083 -32.3551 -12.2161
  801 428.191 63.4029 -30.7744
  802 411.517 -3.40258 -3.56973
  803 872.153 176.671 -163.804
  804 381.993 -7.70536 -3.40019
  805 573.971 109.183 9.17239
  806 409.135 11.9020 -42.8482
  807 451.408 34.0945 -37.0413
  808 77.3381 -0.905523 -19.3764
  809 78.7132 -1.01729 19.3428
  810 256.717 -3.66844 9.99557
  811 256.624 -3.69862 -10.0815
  812 245.553 -0.564383 1.87637
  813 245.475 -0.570346 -1.89084
  814 456.763 76.8631 -28.3444
  815 271.682 -1.66754 -2.78583
  816 271.732 -1.64852 2.77096
  817 389.002 -3.91686 -37.2039
  818 558.157 58.3221 49.7747
  819 350.980 7.90033 -22.8490
  820 122.770 -1.09126 20.7139
  821 121.763 -1.10145 -20.8735
  822 450.228 12.7571 120.002
  823 400.170 -7.41271 8.83728
  824 359.231 23.8934 -9.51542
  825 167.359 -0.255058 14.0912
  826 166.526 -0.177984 -14.1927
  827 250.538 -1.25452 -4.90889
  828 250.631 -1.23651 4.86527
  829 45.1028 40.0699 34.9316
  830 374.173 8.95477 33.8975
  831 415.957 61.0689 -26.4518
  832 446.995 51.9037 -36.9590
  833 294.869 -11.0884 -12.9204
  834 294.703 -11.0075 12.9052
  835 463.225 98.3938 12.7936
  836 399.227 -3.41110 -0.454781
  837 399.253 -3.38582 0.520951
  838 395.606 -11.9043 -23.9929
  839 331.910 -22.0684 12.0592
  840 364.974 -41.0073 22.2939
  841 428.020 -35.0681 34.6084
  842 329.109 -9.53594 -3.44515
  843 329.107 -9.50148 3.42354
  844 376.556 34.9242 15.4275
  845 354.141 4.88385 -24.6635
  846 98.3697 118.003 113.161
  847 357.880 -31.6913 -8.96478
  848 359.119 -16.0486 0.316970
  849 359.310 -16.0837 -0.337759
  850 395.048 -5.83530 39.0557
  851 391.435 -25.7468 -17.4272
  852 349.973 -23.1403 -5.10700
  853 790.517 25.5883 -38.9143
  854 332.804 -31.4383 23.2354
  855 332.533 -31.8433 -23.6025
  856 394.534 -4.73761 19.7314
  857 591.795 153.250 -35.5654
  858 312.512 -28.3280 -28.8510
  859 344.786 -38.7936 27.5863
  860 312.438 -27.9898 28.6016
  861 338.634 -13.6116 -4.00655
  862 338.627 -13.5676 3.97967
  863 50.8399 21.4098 30.3288
  864 423.955 31.6699 -41.1291
  865 325.180 -12.6587 -6.21189
  866 325.241 -12.5328 6.23338
  867 321.273 -5.31386 -0.755176
  868 321.269 -5.27821 0.750457
  869 352.769 -7.05062 -0.220615
  870 352.727 -7.00559 0.217820
  871 287.791 -5.59646 -6.99204
  872 287.816 -5.53452 6.96409
  873 326.354 -17.1203 -9.30720
  874 326.397 -17.0062 9.34798
  875 8.04575 -2.22827 -4.20698
  876 490.556 92.0553 20.5482
  877 422.142 -14.8417 -32.5406
  878 344.490 -38.2293 -27.8689
  879 371.934 -12.0187 3.05945
  880 371.772 -11.8973 -2.95947
  881 405.631 0.486418 41.9540
  882 439.819 -31.3679 -19.6713
  883 388.777 28.1975 -144.829
  884 178.553 -2.99136 71.8080
  885 -6.04827 4.16292 -5.09964
  886 -5.19266 4.70156 5.62148
  887 50.5279 22.7681 -30.9721
  888 396.117 -11.4397 14.5166
  889 416.267 -2.78488 -6.09247
  890 374.566 -36.0838 62.4660
  891 178.133 -2.81021 -72.0882
  892 417.402 -34.2193 8.19091
  893 463.708 -13.4232 54.7781
  894 339.236 1.38364 11.0217
  895 387.877 36.9007 26.2351
  896 210.803 -11.8559 52.7322
  897 209.995 -11.9512 -53.0740
  898 252.759 -11.9651 -29.6001
  899 264.449 -13.0558 -91.4600
  900 417.895 -9.81412 36.7756
  901 572.465 135.103 22.4499
  902 419.784 16.1204 41.9423
  903 396.771 -8.50281 -21.9251
  904 269.958 -11.6961 93.7260
  905 505.014 93.2335 -14.5872
  906 50.8250 43.0746 -42.9755
  907 367.525 -0.724119 -11.7478
  908 253.023 -11.8677 29.3435
  909 307.882 -6.76011 4.97755
  910 307.871 -6.80539 -4.98788
  911 391.999 -25.6087 18.0218
  912 406.413 -2.67677 1.40054
  913 299.389 2.69782 -113.543
  914 428.203 -0.976573 2.87912
  915 425.169 -0.806354 -3.70289
  916 320.290 2.80774 -9.57779
  917 411.434 -1.68841 -6.68906
  918 308.770 -14.3868 -12.0021
  919 308.976 -14.1737 12.0398
  920 -9.93576 3.82024 -5.68770
  921 -13.8070 2.30484 6.06074
  922 406.398 -2.49144 -1.42919
  923 136.105 -3.10646 48.4798
  924 135.308 -2.82046 -48.7506
  925 435.093 63.4127 32.4341
  926 772.186 13.9698 12.0014
  927 409.815 45.5491 34.3045
  928 462.498 -16.1593 16.3669
  929 402.955 -22.4686 28.6138
  930 501.414 105.003 -11.1279
  931 313.607 1.37653 7.22266
  932 387.604 -9.18177 -5.61032
  933 403.277 21.6874 -41.5296
  934 485.616 14.6046 -6.55573
  935 378.056 -23.3573 -8.18799
  936 195.111 -1.07184 -10.5109
  937 195.305 -1.03376 10.3647
  938 398.725 -9.41597 -17.0491
  939 13.6232 17.1726 3.91499
  940 382.777 -39.6888 -4.78598
  941 333.395 9.93792 -0.986936
  942 498.163 109.290 -7.38114
  943 79.5246 59.0956 -70.8725
  944 383.712 -2.86053 -23.0061
  945 267.220 -4.41975 -9.35912
  946 267.274 -4.36828 9.28290
  947 2.40805 -10.7970 8.17755
  948 261.416 -19.3974 -42.4698
  949 389.986 -22.5697 -16.9440
  950 244.792 0.527484 -0.781880
  951 244.856 0.529867 0.776840
  952 394.603 47.8723 -20.9818
  953 421.331 -1.32126 -0.580187
  954 421.349 -1.33760 0.765584
  955 261.537 -19.3459 42.1889
  956 394.983 -0.563036 -9.06457
  957 453.500 3.29238 26.7560
  958 402.469 -5.74893 6.79709
  959 65.3372 16.3715 -38.1256
  960 417.081 -2.58662 5.51129
  961 379.684 3.08563 36.2440
  962 400.395 55.4195 18.6609
  963 400.227 4.63750 -42.4467
  964 276.702 -14.7626 -25.4797
  965 431.182 -15.3211 26.8829
  966 276.883 -14.7072 25.2290
  967 13.0283 14.0765 -1.64011
  968 48.2397 8.14155 27.9570
  969 226.595 -3.96868 17.4286
  970 226.322 -3.97116 -17.5242
  971 387.879 -9.35215 5.92659
  972 417.806 72.5659 10.2865
  973 212.957 19.3866 -107.645
  974 349.331 -21.7797 4.49514
  975 327.935 -34.2490 -34.7233
  976 477.258 91.3819 21.6917
  977 367.408 -6.53721 0.377222
  978 367.393 -6.50234 -0.380132
  979 402.149 -7.49557 -12.1702
  980 373.091 32.2456 -14.2290
  981 833.762 249.018 167.821
  982 78.8203 4.34541 -36.6064
  983 80.0164 3.60891 36.6843
  984 5.86540 -6.75928 2.29996
  985 374.125 20.7718 29.2073
  986 327.858 -34.4591 34.4725
  987 405.760 -19.2021 -32.6888
  988 441.372 36.0596 40.3572
  989 423.505 -34.2014 -42.2730
  990 617.952 129.953 43.6667
  991 360.803 -5.88387 -0.218098
  992 360.756 -5.83629 0.218210
  993 421.742 -17.2412 30.7991
  994 29.3992 50.1338 51.2933
  995 191.666 -3.99256 24.9339
  996 191.079 -3.94121 -25.1943
  997 228.244 -11.1093 34.1294
  998 227.467 -10.9378 -34.2533
  999 256.861 -10.5333 24.5713
  1000 280.819 -2.20088 -1.25377
  1001 280.861 -2.18473 1.24882
  1002 691.286 222.549 -142.584
  1003 629.079 157.740 65.7149
  1004 256.654 -10.5859 -24.7726
  1005 434.351 -2.03073 34.0256
  1006 389.706 40.4387 -25.2430
  1007 275.368 -23.7334 75.8631
  1008 353.037 -41.7200 -41.2259
  1009 403.365 -3.34176 -13.2188
  1010 182.827 12.4130 87.7341
  1011 234.557 -17.9041 60.6087
  1012 357.906 18.4044 -18.3173
  1013 408.016 -8.10958 -39.6776
  1014 514.715 214.501 226.300
  1015 338.470 10.4177 13.0629
  1016 458.801 98.6209 -1.54841
  1017 336.341 13.3342 -128.943
  1018 342.990 -36.0534 -23.8476
  1019 433.597 -0.508204 -1.42385
  1020 417.627 38.3442 -39.6517
  1021 246.483 -1.56474 6.29456
  1022 246.367 -1.58057 -6.35185
  1023 9.12403 5.72696 -13.4916
  1024 276.976 -12.5803 -21.2598
  1025 234.269 -18.1341 -61.0570
  1026 276.772 -12.5537 21.0319
  1027 398.943 -12.1708 36.6991
  1028 358.086 -22.1128 -1.32238
  1029 376.598 6.95280 -35.1342
  1030 387.563 48.3960 7.37139
  1031 522.362 32.2384 20.4894
  1032 394.981 -30.0302 17.0568
  1033 250.897 -20.0014 -46.4680
  1034 373.511 13.2552 -32.9174
  1035 277.714 -23.4212 -76.2510
  1036 531.763 115.124 -2.39592
  1037 363.341 23.9017 16.6645
  1038 456.847 -2.63502 -20.1754
  1039 345.115 -36.0725 22.0097
  1040 395.211 -12.5573 28.2908
  1041 392.516 -20.7479 20.0664
  1042 390.359 -19.6590 17.3209
  1043 481.430 61.2688 -28.7520
  1044 390.201 -6.30926 28.8738
  1045 352.485 -41.8363 40.5622
  1046 376.231 -15.4067 5.41248
  1047 251.056 -20.0409 46.2166
  1048 353.558 -26.0127 -5.45321
  1049 206.446 -10.0559 -64.8111
  1050 293.610 -30.4538 51.5405
  1051 397.198 -2.72158 -15.3894
  1052 387.184 -4.37585 -32.8863
  1053 335.554 -26.4878 -14.6930
  1054 206.799 -10.3411 64.3133
  1055 361.759 0.901596 -22.9828
  1056 269.547 -17.8107 -32.9482
  1057 485.959 103.277 13.5558
  1058 109.438 17.9528 -61.8612
  1059 823.534 58.1577 78.9360
  1060 195.641 14.4320 -91.8039
  1061 390.225 -32.3422 -10.1208
  1062 269.623 -17.6604 32.6853
  1063 358.013 3.83091 25.7330
  1064 201.982 -4.06022 20.6463
  1065 201.881 -4.16022 -20.8523
  1066 395.302 -11.0179 -34.0395
  1067 419.334 -2.17532 2.19820
  1068 411.748 -0.948937 6.75112
  1069 407.761 13.5170 42.7721
  1070 381.809 -2.87288 30.9296
  1071 295.418 31.6056 139.409
  1072 436.298 -0.359684 0.674807
  1073 410.793 55.6226 27.2981
  1074 348.620 5.09666 22.1919
  1075 416.782 -1.61280 6.46905
  1076 269.795 -2.85806 -5.25323
  1077 269.846 -2.82570 5.22045
  1078 172.292 -4.85406 -34.4498
  1079 172.955 -5.02912 34.2214
  1080 349.744 17.5044 9.32104
  1081 523.864 28.7286 -39.8462
  1082 481.408 -0.115237 -74.0523
  1083 385.704 -0.351570 -9.42162
  1084 293.707 -30.6802 -51.9252
  1085 336.262 -25.1938 13.1840
  1086 387.887 -0.896069 9.82955
  1087 405.511 -29.4571 -20.1905
  1088 255.014 -0.564748 3.12026
  1089 254.947 -0.574900 -3.13902
  1090 389.485 -33.2680 10.1127
  1091 370.331 -7.62236 0.908040
  1092 370.268 -7.63033 -0.885090
  1093 360.430 -36.2763 14.1871
  1094 463.308 -14.8946 -6.21070
  1095 211.940 -0.370463 -5.85749
  1096 212.279 -0.357548 5.79699
  1097 316.334 -20.0785 -87.3674
  1098 336.966 -8.04127 1.91605
  1099 336.996 -8.08474 -1.93182
  1100 203.551 109.994 153.205
  1101 465.830 38.2831 -32.7062
  1102 69.4337 33.6336 -47.0280
  1103 402.682 -6.06133 -6.56436
  1104 108.501 37.0150 -70.9657
  1105 225.275 -14.1178 -44.0902
  1106 436.344 -0.509537 0.432971
  1107 436.504 -0.479965 -0.316618
  1108 396.464 -22.6613 -24.4404
  1109 351.033 -39.4367 -56.4248
  1110 109.513 15.2833 58.9469
  1111 431.416 42.6815 38.4596
  1112 391.204 -4.02337 -0.562964
  1113 391.250 -4.02601 0.599160
  1114 426.686 -27.3714 68.4807
  1115 442.071 88.3830 14.7438
  1116 263.633 -6.30085 -13.3687
  1117 263.701 -6.27186 13.2766
  1118 199.763 22.7392 108.679
  1119 375.657 1.92921 -33.9857
  1120 118.382 37.9922 76.2443
  1121 480.457 -8.04216 -23.8660
  1122 473.381 104.409 4.40027
  1123 325.999 -25.7332 17.7601
  1124 302.166 1.63998 -1.40865
  1125 412.696 -3.66645 8.22494
  1126 426.984 -0.565705 3.20157
  1127 95.1065 0.162337 -17.3655
  1128 96.3676 0.117476 17.2496
  1129 337.962 5.69837 -16.4498
  1130 347.438 -10.2186 -1.48834
  1131 347.361 -10.1723 1.48053
  1132 36.7465 59.3338 -54.6190
  1133 58.1898 128.291 -108.508
  1134 351.811 -13.7370 1.27686
  1135 351.943 -13.7341 -1.29747
  1136 363.348 -8.78621 0.929716
  1137 363.296 -8.76875 -0.900204
  1138 95.8769 61.1670 76.8211
  1139 287.764 -3.52904 -2.54641
  1140 287.800 -3.50391 2.53477
  1141 361.478 27.3609 -0.383755
  1142 457.764 58.9207 -160.814
  1143 440.004 75.8029 -25.2755
  1144 401.301 -15.4307 -34.6229
  1145 395.265 -19.7408 -24.8616
  1146 326.183 -25.9713 -18.0523
  1147 329.034 1.09330 10.1543
  1148 369.440 23.0657 -24.4208
  1149 364.362 19.6309 23.3392
  1150 375.987 -14.9617 -5.30864
  1151 358.994 -21.6709 1.05227
  1152 326.697 -21.0616 -13.3972
  1153 388.645 -2.29562 18.3080
  1154 683.322 68.9335 9.59539
  1155 391.216 -8.35474 33.3417
  1156 392.775 25.7889 36.6185
  1157 362.108 -35.6125 -10.7873
  1158 45.7463 7.47815 -26.9722
  1159 368.894 -17.0758 -3.61305
  1160 246.542 -0.373469 -0.158879
  1161 246.600 -0.371880 0.157223
  1162 448.722 -11.9068 17.1002
  1163 427.572 -36.0174 16.3667
  1164 613.549 109.738 27.1366
  1165 148.353 -0.294447 -14.4435
  1166 149.221 -0.262608 14.3369
  1167 329.829 -6.67684 -1.55463
  1168 329.814 -6.63596 1.54377
  1169 370.015 -32.6313 -1.63611
  1170 304.830 1.39971 4.61461
  1171 378.890 -26.9812 7.70935
  1172 21.7071 25.7920 -12.8166
  1173 68.7003 34.1047 45.9772
  1174 253.978 -13.8645 84.4319
  1175 438.391 83.4227 -18.0525
  1176 418.283 -1.17384 -5.11199
  1177 438.169 -0.717430 0.283538
  1178 438.582 -0.971669 -0.175242
  1179 256.380 -0.593592 -0.517715
  1180 256.438 -0.588859 0.513970
  1181 404.060 25.8234 41.5129
  1182 596.204 101.705 -2.16424
  1183 416.392 68.7913 -18.4570
  1184 311.225 -22.9334 86.8107
  1185 252.629 -13.3352 -84.2691
  1186 281.071 -18.7578 -29.5747
  1187 388.118 -10.8878 7.60934
  1188 541.027 119.326 5.55163
  1189 281.099 -18.6474 29.3468
  1190 396.447 -6.97865 5.75726
  1191 354.954 13.2256 22.2815
  1192 390.657 12.1089 39.9252
  1193 555.248 123.962 14.0181
  1194 330.445 -8.62075 2.89211
  1195 330.461 -8.66152 -2.91175
  1196 401.650 -7.58541 12.6441
  1197 239.485 -2.54039 9.84855
  1198 239.316 -2.56599 -9.93590
  1199 392.832 -5.40041 -2.52431
  1200 162.073 96.7122 -148.279
  1201 340.204 -19.1993 -92.9640
  1202 321.486 -10.0601 -5.29874
  1203 321.519 -10.0152 5.30063
  1204 421.013 -2.02559 1.99880
  1205 398.757 -5.27606 4.59764
  1206 22.0397 27.8640 20.5778
  1207 433.363 -0.503155 1.66533
  1208 51.9539 66.0948 65.5746
  1209 389.553 -5.87273 -3.25586
  1210 -0.456140 -9.50645 -8.33595
  1211 275.995 -26.9386 -65.3918
  1212 275.244 -26.2861 64.7427
  1213 433.347 -0.778626 -1.84526
  1214 371.219 -19.5895 -4.34863
  1215 420.724 -1.85221 -2.03935
  1216 337.614 -10.9203 -2.81631
  1217 337.582 -10.8811 2.78626
  1218 392.582 -5.36299 2.36764
  1219 368.629 -16.7405 3.57535
  1220 354.806 -11.4272 0.263053
  1221 354.931 -11.4575 -0.221124
  1222 420.354 -1.90876 -1.66233
  1223 363.167 -38.2642 -63.5908
  1224 411.404 -2.59443 -1.68946
  1225 391.203 -6.03461 3.51172
  1226 274.100 -2.98042 -3.90279
  1227 274.147 -2.95142 3.88057
  1228 305.740 -4.48517 -2.01996
  1229 305.756 -4.45469 2.01018
  1230 493.716 77.0686 23.9170
  1231 415.012 -31.9226 14.7493
  1232 284.902 -1.36426 107.228
  1233 229.531 -0.378928 3.78225
  1234 229.339 -0.383047 -3.81922
  1235 393.570 -7.28529 25.0161
  1236 376.562 -5.74942 0.637728
  1237 376.577 -5.73029 -0.637358
  1238 431.442 83.8886 8.44858
  1239 394.518 -41.3260 50.5309
  1240 229.775 -3.22644 13.8035
  1241 229.549 -3.25053 -13.9029
  1242 376.033 -9.21186 2.72039
  1243 375.949 -9.27583 -2.63586
  1244 387.907 -10.7565 -7.32541
  1245 357.308 0.0768448 11.8950
  1246 615.002 152.877 -51.4013
  1247 395.171 -14.4861 -21.9812
  1248 68.3435 16.1645 39.1898
  1249 408.166 -21.7796 30.3926
  1250 328.970 7.23708 -9.00108
  1251 25.4330 18.5350 14.3391
  1252 536.702 60.1899 -6.06374
  1253 398.713 -18.1532 -30.8130
  1254 330.523 4.73704 13.7902
  1255 226.847 -14.1424 44.0193
  1256 404.900 -31.3669 17.9361
  1257 586.447 112.897 36.7562
  1258 136.666 20.0880 74.9744
  1259 406.816 -4.87551 -10.8985
  1260 778.419 8.71989 -7.80838
  1261 804.067 12.0653 34.7709
  1262 858.227 29.1139 -82.7036
  1263 394.739 -12.3444 -27.4734
  1264 394.677 -18.0369 23.2723
  1265 400.920 -28.5589 21.5285
  1266 -11.7775 1.37246 7.45530
  1267 -10.7124 1.10256 -8.12207
  1268 390.117 -43.1348 -23.8479
  1269 399.544 -40.4189 -35.5337
  1270 306.994 1.97324 -5.69623
  1271 388.474 -43.9049 35.4413
  1272 415.144 -19.7150 -30.8223
  1273 8.36056 12.4694 1.59705
  1274 337.927 -6.18683 1.07423
  1275 337.951 -6.23031 -1.07707
  1276 412.394 -3.34333 7.39576
  1277 396.417 -6.85553 -5.40286
  1278 373.491 -40.7731 -12.8321
  1279 341.462 -18.4577 5.80392
  1280 339.752 -18.1976 -6.29009
  1281 400.271 -8.49124 17.4477
  1282 410.224 -15.0940 -35.5983
  1283 26.3880 19.3246 -13.9124
</Section>

newXOutput 23

<Section columns = "stress_xx | stress_yy | stress_xy">
  1 460.416 -0.122425 0.880471
  2 460.426 -0.114418 -0.882950
  3 254.265 -0.0818463 -0.318269
  4 -3.20623 -3.17022 -4.61003
  5 822.495 330.716 264.085
  6 814.901 342.588 -263.390
  7 -3.72420 -3.01165 4.90632
  8 254.204 -0.0827634 0.317433
  9 463.584 -0.782455 0.263353
  10 462.647 -1.23239 -0.241582
  11 461.656 -0.832838 1.00233
  12 460.655 -1.13759 0.258671
  13 458.495 -0.961514 1.57806
  14 456.527 -0.969711 1.13784
  15 451.832 -0.856251 2.27274
  16 445.062 -0.610951 3.35477
  17 439.039 -0.641056 3.74842
  18 430.053 -0.880693 4.54682
  19 417.530 -0.0817734 6.74197
  20 405.962 -0.648709 6.42572
  21 392.715 -0.833583 9.07593
  22 373.591 0.587945 7.91380
  23 359.689 0.902398 9.37036
  24 341.548 1.51171 7.34554
  25 328.969 1.60735 7.41199
  26 310.752 2.23223 3.78306
  27 306.901 3.51154 4.05972
  28 304.579 2.88904 -1.20049
  29 307.742 1.69167 -2.63216
  30 313.569 1.63108 -3.22993
  31 327.220 2.04807 -6.44295
  32 340.478 1.61816 -8.13910
  33 359.884 0.371935 -9.64313
  34 375.401 -0.193817 -8.76232
  35 391.898 -0.661876 -8.58938
  36 406.812 -0.507652 -6.05250
  37 419.585 -0.536391 -5.16246
  38 430.083 -0.862753 -4.31930
  39 439.454 -0.623215 -2.99153
  40 445.266 -0.747450 -3.16624
  41 450.883 -0.908526 -2.31044
  42 456.161 -1.07289 -0.988483
  43 458.857 -0.867202 -1.17909
  44 460.239 -0.544809 -0.726013
  45 459.113 -0.318349 -0.663167
  46 463.099 -1.23840 0.166506
  47 463.717 -0.813168 -0.271483
  48 448.930 -0.409397 -0.545189
  49 439.115 -1.95121 -0.999939
  50 427.089 -2.84876 -0.627490
  51 412.401 -4.17773 -0.866624
  52 398.444 -4.55795 -1.06250
  53 383.524 -5.65840 -1.01483
  54 370.297 -6.26641 -0.542550
  55 358.694 -6.97312 -0.176302
  56 345.299 -5.77713 -0.166911
  57 329.858 -5.38006 -0.311772
  58 314.981 -4.22921 -0.0637732
  59 300.892 -2.67957 -0.00459666
  60 287.508 -1.89667 0.0505777
  61 275.782 -0.955784 0.146529
  62 263.806 -0.243903 -0.362623
  63 254.394 0.359296 0.481299
  64 250.156 0.981859 0.332404
  65 252.978 0.0160765 0.771429
  66 249.697 -0.123513 0.933774
  67 246.626 -0.188535 1.16320
  68 242.473 -0.0142247 1.50856
  69 237.238 -0.00709063 1.89498
  70 233.314 -0.291741 3.62924
  71 222.293 0.324581 3.95839
  72 214.502 -0.0164026 4.51926
  73 202.901 -0.194634 5.12993
  74 189.554 -0.332396 6.24035
  75 172.866 -0.0707823 7.57743
  76 152.522 0.0980444 8.36089
  77 134.888 -0.171723 11.9509
  78 100.164 1.10270 11.2915
  79 76.4296 0.950250 11.9613
  80 47.9172 -0.221837 13.2853
  81 24.1692 2.18241 13.8405
  82 -2.90205 3.27753 8.36241
  83 -22.6713 3.33335 3.03022
  84 -22.2645 3.23099 -1.08770
  85 -21.4373 2.69209 -6.41881
  86 -12.6297 -0.836877 -6.12832
  87 -1.52816 -12.1239 -6.76966
  88 1.22502 -22.2900 -8.42987
  89 3.35963 -34.9907 -4.55972
  90 7.43492 -35.3248 0.650957
  91 15.6934 -6.92893 21.0315
  92 46.5904 74.0687 70.5604
  93 270.944 257.806 236.565
  94 996.339 149.225 166.330
  95 898.550 21.3402 54.0449
  96 836.141 8.87200 16.5385
  97 813.113 7.54615 1.27214
  98 825.356 10.0280 -14.3401
  99 896.615 19.9002 -42.7765
  100 1054.82 71.9760 -143.018
  101 161.140 264.150 -198.101
  102 34.8797 53.4699 -58.5508
  103 17.1456 -5.20695 -22.2842
  104 6.96007 -35.2747 -4.02240
  105 1.99371 -26.5708 5.22607
  106 2.49173 -28.1105 7.30011
  107 0.128054 -10.4675 7.49888
  108 -13.1867 -0.531562 5.80808
  109 -22.1172 2.02094 5.59471
  110 -23.4504 3.92554 1.21265
  111 -23.3980 3.27954 -2.81495
  112 -4.54246 3.35892 -7.83962
  113 22.7258 2.20129 -13.1989
  114 46.4449 0.0108627 -13.0673
  115 74.9095 1.02722 -11.9860
  116 98.7826 1.13147 -11.3769
  117 133.817 -0.176666 -12.0504
  118 151.606 0.108876 -8.44115
  119 172.065 -0.0677366 -7.67185
  120 189.144 -0.368728 -6.28619
  121 202.348 -0.184530 -5.14299
  122 214.081 -0.00220661 -4.56564
  123 221.948 0.320674 -4.00132
  124 233.065 -0.294649 -3.66562
  125 237.038 -0.00897605 -1.91731
  126 242.320 -0.0160221 -1.52691
  127 246.509 -0.191511 -1.17774
  128 249.606 -0.126062 -0.943923
  129 252.902 0.0138920 -0.777906
  130 250.089 0.980737 -0.335408
  131 254.331 0.358737 -0.483182
  132 263.744 -0.246398 0.361638
  133 275.723 -0.962034 -0.148841
  134 287.458 -1.91040 -0.0532804
  135 300.853 -2.69864 0.00199546
  136 314.958 -4.25670 0.0612018
  137 329.854 -5.41483 0.309752
  138 345.315 -5.81736 0.164856
  139 358.725 -7.01821 0.175389
  140 370.339 -6.31138 0.544053
  141 383.584 -5.69932 1.01943
  142 398.496 -4.58617 1.07905
  143 412.440 -4.20298 0.946181
  144 427.166 -2.69756 0.641469
  145 439.423 -1.90135 0.977814
  146 449.008 -0.479124 0.536855
  147 402.775 -37.8479 -1.88408
  148 402.432 -37.3371 2.02676
  149 423.433 60.7905 -20.3495
  150 450.472 26.5368 42.8466
  151 341.312 -32.9057 -75.6412
  152 344.090 -32.8593 73.2311
  153 332.502 -14.0519 9.29242
  154 332.528 -14.2457 -9.29862
  155 477.116 17.2074 -32.2293
  156 401.710 -14.4981 8.40947
  157 401.538 -14.1518 -8.30591
  158 519.233 115.585 4.93827
  159 411.660 -0.657514 -42.0931
  160 305.316 -23.9376 -33.9627
  161 305.330 -23.7399 33.6702
  162 412.265 -9.35282 37.8943
  163 392.364 28.6597 25.2121
  164 162.552 25.9445 -90.3066
  165 180.092 24.5940 95.1342
  166 503.049 5.91989 2.68118
  167 413.104 -15.8820 -26.1214
  168 546.298 119.962 -1.18512
  169 372.348 -10.5304 -0.254736
  170 372.270 -10.4992 0.286094
  171 417.406 -5.14024 -3.65309
  172 418.696 -4.62843 3.14985
  173 293.787 -4.17249 -5.45057
  174 293.826 -4.12962 5.42341
  175 447.380 -11.5733 96.1685
  176 380.007 15.8183 -27.1685
  177 248.881 -18.6064 -54.3085
  178 249.621 -18.4714 53.9617
  179 279.802 -9.10791 -17.8088
  180 279.830 -9.00423 17.6803
  181 415.070 -10.9451 22.2086
  182 377.494 -25.8921 -1.46787
  183 376.182 -25.6996 2.05965
  184 428.434 -41.5009 -8.17306
  185 430.687 -39.5380 2.85776
  186 591.405 139.280 -21.5843
  187 431.681 69.2391 19.0133
  188 432.052 26.5310 -43.2310
  189 445.682 -3.46178 -111.595
  190 428.325 -24.2372 -29.7573
  191 432.025 -17.3190 35.2197
  192 360.462 -40.9123 37.3565
  193 360.537 -40.6207 -37.2457
  194 386.296 4.94779 32.6103
  195 177.515 -4.39563 -66.4738
  196 177.943 -4.76659 66.0741
  197 666.037 99.6177 14.4705
  198 405.809 -24.2011 15.9413
  199 420.674 -7.78776 -14.3825
  200 334.548 -8.15940 -4.27787
  201 334.556 -8.11878 4.26491
  202 404.486 -5.26650 -29.2411
  203 460.241 67.5239 -34.4050
  204 386.033 34.7158 -5.04917
  205 252.145 -8.86355 24.9686
  206 251.763 -8.89077 -25.1503
  207 426.691 -4.81012 7.78565
  208 416.401 7.83115 43.3094
  209 338.871 -24.6085 -16.6160
  210 336.623 -23.2985 16.9871
  211 490.135 72.7125 31.1370
  212 574.738 79.5634 14.8061
  213 39.7571 30.8794 -25.7650
  214 36.7869 28.5449 21.9193
  215 237.665 68.2504 158.565
  216 401.761 -26.7136 -12.0428
  217 428.188 -4.61905 -7.02989
  218 382.004 3.39311 -30.0361
  219 269.115 -2.63954 -7.91159
  220 269.202 -2.60994 7.84442
  221 362.018 -16.9641 -3.73137
  222 362.187 -17.0703 3.52705
  223 407.877 -5.51267 24.8470
  224 468.314 -27.0860 11.6927
  225 466.452 95.1597 -9.92625
  226 365.795 -35.2926 -17.9134
  227 461.727 -8.05158 26.8986
  228 393.843 -6.68607 1.26039
  229 393.846 -6.63216 -1.25866
  230 363.146 -35.1257 18.5798
  231 415.640 -26.4056 24.1298
  232 581.924 76.2301 -38.6767
  233 130.278 77.5131 -115.384
  234 353.626 12.4837 6.50159
  235 418.079 36.8514 36.5161
  236 444.653 -3.13985 -38.1691
  237 415.728 -14.9917 -35.3322
  238 223.219 -7.13179 -31.2170
  239 223.981 -7.02486 31.1221
  240 416.334 -5.06251 -19.1383
  241 396.674 -10.1011 4.32252
  242 396.489 -10.0891 -4.16918
  243 84.6497 7.67631 -42.6099
  244 85.9659 6.72764 42.4637
  245 441.193 -38.6321 -35.1032
  246 436.355 -1.64353 1.03124
  247 436.805 -1.67403 -1.13365
  248 408.456 33.8696 -33.4670
  249 360.491 6.99383 19.6930
  250 746.104 119.467 80.2855
  251 739.791 84.2226 -50.1310
  252 538.854 115.923 -0.335290
  253 336.486 -16.2745 100.463
  254 309.021 -10.6393 -105.028
  255 354.929 -7.29414 -1.55389
  256 354.897 -7.24849 1.54330
  257 295.620 -7.85276 10.9604
  258 295.616 -7.96008 -11.0545
  259 426.325 -4.65797 11.7075
  260 413.946 -29.5072 -19.6749
  261 270.656 -0.483406 -1.86131
  262 270.719 -0.474915 1.85017
  263 408.761 -16.5968 -15.7220
  264 175.101 -5.69999 -43.3388
  265 175.843 -5.71795 43.0332
  266 413.935 -17.9820 28.1655
  267 316.526 -33.5934 60.8674
  268 317.313 -34.1940 -60.6805
  269 358.694 13.8050 -9.16638
  270 309.557 -4.70785 -3.67651
  271 309.586 -4.67634 3.66281
  272 388.974 -0.953202 24.0311
  273 464.001 84.8239 23.8276
  274 250.500 -3.01401 13.3413
  275 250.310 -3.03897 -13.4520
  276 424.899 -35.5306 13.3781
  277 393.329 -44.1755 -41.1744
  278 438.039 -2.19500 3.58535
  279 306.086 -18.0451 -23.2600
  280 305.569 -17.8451 23.1746
  281 536.992 58.0467 140.968
  282 256.069 -20.6899 72.5167
  283 412.425 57.8792 -2.15706
  284 519.335 57.7154 -19.5272
  285 392.580 -30.3598 4.25857
  286 393.657 -45.3792 37.1807
  287 256.829 -20.3560 -73.3208
  288 47.9868 59.2422 54.1316
  289 408.831 -16.6531 16.0156
  290 534.799 70.3040 14.7927
  291 441.408 -1.96097 -3.10912
  292 401.534 14.0805 -38.5278
  293 395.579 -22.3879 8.29612
  294 387.382 -32.6850 1.73614
  295 400.120 18.3896 37.1379
  296 422.888 -35.5365 -11.8595
  297 598.045 116.040 -10.5275
  298 395.473 -21.5219 -7.92965
  299 325.669 94.5720 -193.631
  300 404.116 -42.8589 -8.73525
  301 401.282 -44.0306 13.3151
  302 295.905 -26.7099 -47.8081
  303 268.177 -0.996424 -4.04034
  304 268.254 -0.979040 4.00950
  305 296.038 -26.7328 47.5536
  306 427.804 -0.733851 -43.3678
  307 460.935 -19.0944 -17.4057
  308 352.221 -21.1581 -8.99420
  309 352.002 -21.2071 9.15588
  310 419.650 -36.1242 65.5072
  311 419.701 -3.40358 14.4839
  312 508.260 2.80281 24.2319
  313 345.243 -12.1524 -4.99086
  314 345.268 -12.1131 4.96421
  315 315.015 -8.14445 -7.27732
  316 315.019 -8.06920 7.26712
  317 356.847 4.84841 -19.0426
  318 455.863 33.4111 -41.4899
  319 701.364 189.609 -90.9681
  320 414.901 -3.76088 -1.20394
  321 414.671 -3.71143 1.23859
  322 223.471 -0.553235 90.4944
  323 313.302 -14.1276 -15.4734
  324 312.723 -14.0818 15.5136
  325 223.428 -1.08018 -90.1485
  326 435.075 51.3121 -35.4770
  327 485.678 24.1280 30.4968
  328 419.562 -29.9318 -72.6455
  329 386.792 -14.9608 3.42159
  330 386.404 -14.8542 -3.25648
  331 412.360 -8.63871 -7.51365
  332 389.238 -0.723671 -22.4699
  333 435.580 1.83428 42.3912
  334 433.908 -3.10735 -8.04817
  335 262.851 -15.8619 36.4301
  336 262.562 -15.9490 -36.7040
  337 405.745 -0.909719 39.9989
  338 252.117 -2.01743 -7.93348
  339 252.278 -1.99863 7.86338
  340 415.455 -9.63028 11.8992
  341 498.537 101.675 -17.1900
  342 412.167 -8.70094 7.80300
  343 439.905 55.1797 35.5767
  344 420.781 -7.85633 41.3094
  345 334.164 -6.23898 1.58571
  346 334.165 -6.27652 -1.59572
  347 398.761 -1.41159 -35.5095
  348 526.423 110.559 10.4783
  349 438.778 80.2839 0.740869
  350 268.602 31.1630 -134.283
  351 28.4488 12.1831 -18.7621
  352 31.1242 13.1869 20.1543
  353 -1.15512 3.21629 7.90764
  354 0.451387 1.87960 -8.27599
  355 763.413 52.9756 18.0949
  356 363.417 -29.4507 -10.7114
  357 415.762 -9.31147 -11.6064
  358 375.703 -6.67338 0.396907
  359 375.660 -6.62128 -0.399476
  360 402.710 44.4843 -18.1308
  361 343.354 -34.9225 30.7546
  362 30.5183 45.5231 -33.7803
  363 343.664 -34.9102 -31.2995
  364 407.897 46.3873 19.2918
  365 415.023 -11.1312 -21.1295
  366 439.901 -24.5978 -25.0870
  367 469.582 98.8927 6.83339
  368 440.849 -27.5891 20.4862
  369 184.644 -4.55037 29.0113
  370 183.564 -4.46199 -29.1918
  371 104.920 2.49977 -40.4315
  372 105.994 2.08923 40.2535
  373 362.352 1.26358 19.2462
  374 680.839 199.930 79.2231
  375 428.755 -2.79109 -10.3029
  376 334.807 -28.1822 -23.6019
  377 334.543 -28.1140 23.5709
  378 412.743 -9.56817 -26.9294
  379 468.865 -22.6640 1.97343
  380 363.404 -29.4256 11.0215
  381 513.596 4.15798 -43.6488
  382 293.583 -2.32162 -1.44713
  383 293.629 -2.30195 1.43751
  384 406.267 -2.38812 -17.2729
  385 220.913 -3.14243 -18.9146
  386 221.048 -3.24447 18.6890
  387 484.427 61.9205 -34.7303
  388 262.409 18.4723 124.834
  389 379.895 -19.9377 1.24123
  390 380.265 -19.9041 -1.25782
  391 446.596 75.4428 -22.4531
  392 422.328 -12.5561 -39.0613
  393 422.701 -43.2474 36.2566
  394 353.706 -9.39248 -2.44414
  395 353.667 -9.34878 2.42202
  396 407.356 -31.4564 12.9170
  397 437.927 -2.16276 5.96453
  398 275.385 -9.94779 -22.2488
  399 275.496 -9.94937 22.0649
  400 414.341 13.9192 -42.7436
  401 390.608 -8.56449 1.88440
  402 390.589 -8.58557 -1.83481
  403 404.586 -4.79051 32.5532
  404 378.145 27.6194 8.73524
  405 418.914 -17.7421 33.9851
  406 603.796 126.141 23.2264
  407 203.920 -10.9587 -58.1488
  408 204.480 -10.9608 57.7160
  409 91.3732 48.7057 -69.9057
  410 447.401 -1.41245 1.60744
  411 230.336 -1.90428 -11.9776
  412 230.637 -1.86397 11.8777
  413 413.048 -10.8267 26.3464
  414 374.769 -40.6510 20.6257
  415 422.398 -5.37173 5.30956
  416 431.290 21.8789 44.4563
  417 95.6927 51.8607 72.8067
  418 375.319 -40.4163 -19.0295
  419 387.743 -36.0223 -4.42398
  420 128.460 -2.57116 -36.5788
  421 129.396 -2.66521 36.3317
  422 298.165 -23.9645 -87.4451
  423 444.687 -6.69061 37.1965
  424 297.073 -24.3115 86.6904
  425 411.063 -23.1310 -21.7161
  426 383.311 25.9263 -19.1050
  427 411.118 -17.8285 20.6757
  428 441.333 -2.07018 -3.98234
  429 13.7544 14.8695 6.90029
  430 90.3470 104.843 103.084
  431 396.524 -1.45139 16.6993
  432 334.542 4.66415 8.36137
  433 340.168 5.66491 -11.3320
  434 290.228 -4.72343 -7.73480
  435 290.261 -4.66359 7.68669
  436 405.296 -31.4347 -11.7633
  437 409.912 -8.06007 -36.3883
  438 336.276 6.40043 -3.07737
  439 603.420 143.883 31.0782
  440 84.8962 27.8894 -52.4326
  441 93.4757 25.5912 55.9527
  442 379.543 -13.5566 1.26633
  443 379.402 -13.5269 -1.16803
  444 505.672 111.355 -1.32615
  445 314.088 132.130 197.938
  446 485.220 -6.67929 -5.29836
  447 281.104 -14.5533 -30.1805
  448 281.238 -14.4554 29.9323
  449 283.273 -6.24129 11.9942
  450 283.218 -6.28633 -12.0985
  451 381.005 8.52525 -30.9498
  452 449.617 -0.731466 -1.05755
  453 370.728 17.0965 17.4160
  454 466.375 57.5447 37.9588
  455 388.524 -28.8334 -2.87289
  456 422.218 -5.12130 -5.16320
  457 443.104 -1.88385 3.66680
  458 448.306 -0.786436 0.603302
  459 448.651 -0.876234 -0.436008
  460 250.725 -0.425804 2.94924
  461 250.598 -0.432279 -2.97860
  462 424.621 -27.0480 26.2587
  463 384.614 15.2352 29.9785
  464 401.437 1.64463 -39.0499
  465 418.199 -8.91124 15.6079
  466 598.774 103.376 -119.435
  467 419.369 -23.3296 -29.5740
  468 4.62331 8.03653 3.61649
  469 4.56370 8.18910 -1.53898
  470 333.338 -18.7818 13.4485
  471 332.245 -18.5256 -13.2784
  472 518.876 10.4578 64.8628
  473 145.864 134.400 -150.685
  474 414.145 -1.29889 12.9134
  475 467.682 -27.1447 -37.3950
  476 251.704 -14.3958 42.1346
  477 502.352 89.1539 -24.7395
  478 413.364 -22.4358 24.7086
  479 347.923 -16.5614 -6.86756
  480 348.228 -16.2899 6.85031
  481 362.266 1.96771 -16.9885
  482 250.926 -14.3370 -42.3857
  483 371.191 0.206635 17.0596
  484 354.327 -40.5555 -54.5655
  485 353.447 -40.6173 54.7756
  486 426.415 -2.89228 11.3844
  487 389.110 36.7341 3.60901
  488 392.525 7.08641 135.745
  489 578.068 117.272 -0.733021
  490 399.856 -6.85482 2.30210
  491 399.876 -6.83063 -2.39203
  492 309.328 -5.42284 -4.95701
  493 309.352 -5.37864 4.93972
  494 163.777 7.38412 76.1978
  495 415.257 -20.0615 -29.0148
  496 376.880 -8.25922 0.0969310
  497 376.842 -8.23165 -0.0897575
  498 328.665 -34.7389 44.6436
  499 166.904 9.77827 -78.1138
  500 415.632 -33.9237 -13.5016
  501 7.40717 2.02690 2.83541
  502 365.314 18.9660 1.27839
  503 401.244 -4.77352 -0.746613
  504 401.237 -4.83631 0.727407
  505 328.846 -34.6756 -44.9842
  506 468.126 -23.9444 47.3760
  507 465.050 16.8873 38.4494
  508 428.733 -3.04368 -2.52656
  509 414.365 -34.3971 13.7150
  510 262.630 -0.224657 -0.538408
  511 262.693 -0.222373 0.534241
  512 414.065 -15.9532 -31.0745
  513 401.966 29.7646 32.7466
  514 459.404 11.3513 -37.9991
  515 261.033 -0.386921 -1.66177
  516 261.106 -0.381391 1.65096
  517 795.453 114.950 -102.593
  518 418.077 49.7509 28.7869
  519 429.093 -2.81936 2.24506
  520 388.589 -36.8199 5.36566
  521 327.874 -10.7727 7.47439
  522 327.868 -10.8532 -7.45914
  523 451.372 -27.5555 10.6514
  524 434.426 -8.73673 -39.3710
  525 485.882 95.5504 21.0061
  526 404.905 6.98702 40.5073
  527 407.267 -7.94736 4.66294
  528 395.586 -42.2962 -52.7426
  529 411.090 -10.2266 30.7345
  530 785.721 36.1049 -14.3457
  531 447.997 -33.8319 0.605430
  532 426.074 -2.96109 -0.572061
  533 426.178 -3.14118 0.493228
  534 793.908 53.2501 50.1845
  535 395.016 -0.107715 34.4532
  536 550.274 93.0602 -7.19292
  537 414.560 -11.3695 -15.1036
  538 190.091 -1.75171 -12.9298
  539 190.663 -1.66708 12.8011
  540 281.885 -26.3632 -60.7981
  541 282.119 -25.9223 60.3550
  542 407.041 -7.62576 -4.62507
  543 443.319 16.2526 -43.1893
  544 389.663 -26.5122 4.36830
  545 419.892 48.1233 -29.8468
  546 421.950 -4.98950 15.3166
  547 527.028 26.9165 -7.88376
  548 361.794 -12.3898 -2.24332
  549 361.688 -12.3492 2.21942
  550 392.374 -18.5498 6.06914
  551 576.116 114.907 -10.6866
  552 413.936 18.1133 42.0597
  553 177.578 45.6161 112.488
  554 398.340 -23.8755 91.1359
  555 524.109 26.5065 -100.703
  556 423.154 34.9855 -39.0929
  557 374.366 -32.4367 -79.0809
  558 405.603 -44.4979 -16.5171
  559 423.232 -42.9280 -23.8095
  560 56.1967 73.4296 -69.5480
  561 425.511 -5.50203 -9.27807
  562 638.419 124.021 -36.8390
  563 394.434 -17.8070 -6.86758
  564 397.596 -13.0089 5.67410
  565 397.230 -12.7173 -5.42884
  566 276.811 -1.54615 -3.68075
  567 276.873 -1.52621 3.65756
  568 40.4663 4.06246 -22.4017
  569 42.6030 4.26227 22.9126
  570 206.240 -9.52416 -44.3272
  571 207.785 -9.57704 44.2668
  572 403.076 -21.8882 -13.4603
  573 410.271 -44.6812 17.8073
  574 421.698 -40.0987 1.43271
  575 347.103 -6.13897 -1.37296
  576 347.084 -6.09665 1.36616
  577 328.731 -34.5253 -67.6645
  578 367.275 -30.1963 83.6083
  579 320.887 -32.4767 68.0313
  580 414.968 -9.24792 -39.0737
  581 262.300 -4.29644 13.4313
  582 262.171 -4.34074 -13.5384
  583 396.515 21.9627 -32.9079
  584 396.789 -0.698320 -15.1536
  585 494.646 107.084 -9.37078
  586 324.536 -4.87621 -1.32730
  587 324.547 -4.84482 1.32134
  588 422.000 -1.27694 -8.47561
  589 293.311 -9.81494 -14.9607
  590 293.323 -9.78202 14.8356
  591 238.893 10.8882 107.503
  592 410.721 -18.9541 -20.8907
  593 230.479 -12.2625 77.2890
  594 403.630 -20.9601 13.7761
  595 424.422 -6.09796 10.2669
  596 418.928 -3.97150 -2.21581
  597 296.895 -3.61976 -3.45111
  598 296.935 -3.59061 3.43429
  599 474.577 94.5714 -19.0018
  600 230.311 -11.8111 -77.5690
  601 402.274 -17.4751 -10.9488
  602 363.493 -6.78857 -0.715484
  603 363.456 -6.74029 0.712684
  604 677.709 91.0861 -16.2236
  605 243.474 -1.53216 7.39391
  606 243.266 -1.54695 -7.46053
  607 376.597 8.69439 28.2566
  608 534.211 45.2932 -4.32408
  609 254.413 1.60823 -106.670
  610 131.474 3.21386 -58.3664
  611 132.540 2.47920 58.0589
  612 319.544 -18.5523 18.6329
  613 322.814 -19.0993 -18.1241
  614 540.992 109.136 8.10843
  615 417.254 -4.11149 1.98897
  616 360.699 10.2339 -17.0877
  617 447.761 80.3254 17.7653
  618 446.211 83.3466 -11.8168
  619 366.665 -20.2930 -3.60842
  620 369.414 -19.8427 2.30919
  621 262.549 57.4091 -153.012
  622 316.178 -10.7424 -10.4124
  623 316.207 -10.6214 10.3790
  624 791.541 162.135 122.165
  625 414.325 -13.6196 33.6069
  626 238.744 -8.36849 -28.3926
  627 638.053 151.050 102.262
  628 239.291 -8.32321 28.2898
  629 395.016 -15.0153 -106.236
  630 281.794 -1.34725 -1.35567
  631 281.849 -1.33564 1.34915
  632 348.158 3.17534 14.9117
  633 159.607 -2.34913 -25.4717
  634 160.465 -2.35528 25.2773
  635 361.994 -25.5759 8.32490
  636 379.317 -30.3549 -2.92699
  637 445.581 -1.02012 -3.38066
  638 254.811 -0.393837 2.18869
  639 254.712 -0.400971 -2.21022
  640 342.018 -7.70001 -2.14876
  641 342.006 -7.65831 2.13397
  642 390.919 -43.4378 53.2647
  643 449.740 50.1961 -39.1318
  644 300.692 -13.9338 -19.2692
  645 300.486 -13.7003 19.1342
  646 355.407 -25.5100 -11.3182
  647 557.942 121.256 4.26435
  648 419.241 -40.6141 0.851019
  649 364.846 -8.76669 -1.14242
  650 364.793 -8.72537 1.14223
  651 500.223 54.8886 28.7745
  652 420.251 -6.14338 -16.6441
  653 373.280 -0.430413 -13.8865
  654 173.857 -5.94531 -55.7982
  655 174.376 -6.10775 55.3535
  656 354.413 -30.5214 -17.9013
  657 530.382 116.478 0.142568
  658 412.519 55.8238 -12.9669
  659 275.334 -2.46187 -6.74350
  660 275.401 -2.42784 6.69202
  661 384.082 -10.9145 -1.39915
  662 384.156 -10.9245 1.47834
  663 710.829 92.7056 40.9148
  664 451.903 -1.28353 0.887796
  665 437.511 -1.78573 5.85587
  666 435.884 -1.80969 -6.89569
  667 414.228 -38.6022 5.20667
  668 306.839 -3.53257 -1.72390
  669 306.871 -3.50798 1.71660
  670 443.343 70.9569 27.4035
  671 567.142 125.885 -8.41762
  672 312.110 -23.0999 -27.2949
  673 312.029 -22.8763 27.1629
  674 388.982 -40.0727 -9.10569
  675 410.995 24.4438 -39.6114
  676 485.916 1.34759 15.6485
  677 324.681 -6.00867 -3.48265
  678 324.693 -5.97116 3.46928
  679 280.839 -24.5820 -54.8893
  680 410.342 -39.7188 -1.44827
  681 341.639 -37.8784 49.2002
  682 164.109 51.6685 -108.582
  683 319.530 -29.5360 37.9588
  684 385.515 0.107270 12.8024
  685 281.104 -24.3052 54.5299
  686 402.044 -17.8085 11.0840
  687 319.623 -29.4095 -38.2953
  688 329.087 4.35448 3.13346
  689 254.674 -6.77204 20.2260
  690 254.449 -6.77810 -20.3627
  691 341.803 -38.8591 -49.7415
  692 421.841 -27.8427 -25.3716
  693 387.099 -5.52827 -0.378815
  694 387.161 -5.58362 0.380712
  695 430.979 -27.5183 25.0210
  696 391.923 -40.9582 10.6874
  697 475.781 43.6739 37.3974
  698 429.650 -8.09845 40.6680
  699 413.443 -14.9000 24.5913
  700 396.143 32.6093 -24.9635
  701 475.107 79.8244 29.6417
  702 410.417 -5.70850 -24.0915
  703 408.588 -13.6211 12.3692
  704 423.452 66.2191 7.00102
  705 415.864 -7.10894 20.8764
  706 131.705 89.7532 113.928
  707 386.886 -44.5260 -31.1468
  708 447.924 8.11203 41.2275
  709 451.890 -14.0128 -28.8156
  710 449.961 -0.658668 1.84123
  711 413.056 -14.2645 -19.2430
  712 387.471 -44.8743 28.3804
  713 744.448 65.9595 -11.0195
  714 233.676 -0.977503 7.73431
  715 233.402 -0.988079 -7.80466
  716 418.613 -7.70973 -8.82562
  717 452.574 -0.506833 -1.80290
  718 353.785 -31.0176 17.9936
  719 424.151 -15.8327 36.8362
  720 640.608 154.507 -49.8706
  721 402.037 -29.1624 11.1105
  722 445.099 -29.3589 -14.1167
  723 408.733 -13.2612 -12.1687
  724 452.242 -0.849128 -0.557271
  725 414.458 -0.0557520 42.5836
  726 19.3914 18.9269 24.8422
  727 465.372 -17.6392 -69.8240
  728 506.995 30.3228 17.2313
  729 422.832 -43.2545 21.3891
  730 303.597 -7.22735 8.51315
  731 303.593 -7.32672 -8.55196
  732 391.047 202.599 -207.809
  733 431.149 -28.5750 -23.0232
  734 327.829 1.79921 -5.99176
  735 380.424 2.14308 27.5047
  736 416.234 -20.8770 29.4774
  737 398.958 -33.6213 5.00295
  738 414.027 -37.8137 -57.2506
  739 396.559 -31.3785 -5.78054
  740 467.359 -22.3669 -3.58571
  741 430.578 -3.62648 5.12703
  742 385.265 -23.1445 2.76192
  743 695.726 139.035 -74.5404
  744 410.466 -11.0700 9.75946
  745 407.015 6.68335 -41.5821
  746 346.518 -3.81356 119.325
  747 435.632 35.0508 42.2891
  748 374.789 -29.4778 4.83905
  749 290.455 -22.7887 -40.1682
  750 290.490 -22.7286 39.8512
  751 399.286 44.9117 -5.80675
  752 405.527 -4.70835 37.0139
  753 409.697 -9.77927 -31.4344
  754 385.698 -23.6226 -2.87827
  755 373.028 -33.3939 10.4712
  756 426.666 70.2922 -7.87865
  757 398.473 -34.4899 -3.43438
  758 399.488 -25.3087 10.8632
  759 404.459 -5.30805 1.61779
  760 404.699 -5.16891 -1.60458
  761 543.967 119.128 1.92339
  762 444.399 -37.8413 -14.6970
  763 414.301 -12.7518 19.1843
  764 430.698 -3.61939 -4.64967
  765 436.076 2.87119 -42.8032
  766 495.406 26.2408 -24.0450
  767 246.204 -0.216749 -3.62685
  768 246.365 -0.213355 3.59198
  769 3.65171 -7.20608 -5.05405
  770 423.009 -0.525497 7.84083
  771 388.840 -0.594481 -30.3713
  772 401.238 -3.76217 26.6726
  773 364.227 45.9537 174.458
  774 456.555 93.6238 -0.952647
  775 325.281 -23.1823 21.4288
  776 58.5382 1.25328 -22.0409
  777 60.1507 0.917458 22.2730
  778 397.786 -2.82611 -30.1360
  779 326.137 -23.4095 -21.4280
  780 428.180 -3.97682 3.85381
  781 221.315 -9.38239 37.8150
  782 219.451 -9.34821 -37.8236
  783 410.434 -10.7525 -9.50198
  784 264.378 -6.59154 -17.6246
  785 264.510 -6.54934 17.4744
  786 427.244 -4.11290 -11.4545
  787 327.781 -8.70976 -5.97963
  788 327.794 -8.65457 5.98215
  789 466.276 -2.93676 -28.7577
  790 420.493 -4.42543 -42.6315
  791 216.363 -1.35853 -9.83720
  792 216.770 -1.34583 9.72640
  793 11.6193 5.38411 -13.5364
  794 13.4829 5.68357 14.2303
  795 342.962 1.67233 -10.8268
  796 383.834 -43.1230 -23.4208
  797 -4.36123 -2.99732 7.57961
  798 -3.84334 -3.57621 -7.55985
  799 399.363 -8.10224 3.51048
  800 432.748 -33.8274 -12.4622
  801 447.695 66.2714 -31.9369
  802 429.964 -3.58342 -3.66706
  803 909.246 184.456 -170.762
  804 399.279 -8.07802 -3.46319
  805 599.645 113.986 9.66828
  806 427.744 12.4422 -44.5008
  807 471.774 35.6454 -38.3527
  808 81.3367 -0.950782 -20.3056
  809 82.7658 -1.06743 20.2707
  810 268.892 -3.82274 10.4802
  811 268.794 -3.85402 -10.5693
  812 257.351 -0.583992 1.96912
  813 257.269 -0.590184 -1.98409
  814 477.466 80.3308 -29.3374
  815 284.524 -1.73156 -2.92824
  816 284.577 -1.71186 2.91287
  817 406.763 -4.09532 -38.6523
  818 582.669 61.2416 52.5008
  819 367.285 8.28812 -23.7768
  820 128.887 -1.14119 21.6914
  821 127.841 -1.15189 -21.8573
  822 470.083 13.4868 125.639
  823 418.214 -7.77243 9.10868
  824 375.882 25.0203 -9.90077
  825 175.551 -0.262357 14.7467
  826 174.686 -0.181778 -14.8519
  827 262.500 -1.30224 -5.15027
  828 262.597 -1.28355 5.10510
  829 47.3198 42.0097 36.7407
  830 391.389 9.37912 35.2549
  831 434.961 63.8392 -27.4714
  832 467.234 54.2573 -38.3051
  833 308.594 -11.5735 -13.5751
  834 308.422 -11.4899 13.5600
  835 484.277 102.794 13.2193
  836 417.172 -3.59645 -0.462453
  837 417.200 -3.56990 0.531275
  838 413.550 -12.4599 -24.8654
  839 347.142 -23.0553 12.7361
  840 381.532 -42.8653 23.5096
  841 447.165 -36.6353 36.4641
  842 344.254 -9.96316 -3.67284
  843 344.253 -9.92773 3.65035
  844 393.916 36.5434 16.0491
  845 370.567 5.12667 -25.6607
  846 102.908 123.970 118.565
  847 374.175 -33.1188 -9.55803
  848 375.486 -16.7777 0.196059
  849 375.685 -16.8153 -0.218155
  850 413.042 -6.10618 40.5606
  851 409.170 -26.9221 -17.9642
  852 365.957 -24.1798 -5.49188
  853 824.492 26.6860 -40.5227
  854 348.038 -32.8521 24.4382
  855 347.752 -33.2741 -24.8215
  856 412.474 -4.96114 20.4755
  857 618.115 160.185 -37.5697
  858 326.889 -29.5990 -30.2838
  859 360.499 -40.5478 29.0128
  860 326.815 -29.2467 30.0240
  861 354.162 -14.2229 -4.28727
  862 354.155 -14.1776 4.25916
  863 53.3776 22.4098 31.8890
  864 443.210 33.1068 -42.6918
  865 340.158 -13.2226 -6.58251
  866 340.222 -13.0918 6.60501
  867 336.110 -5.55204 -0.801455
  868 336.107 -5.51516 0.796546
  869 368.875 -7.38245 -0.275200
  870 368.831 -7.33580 0.272162
  871 301.260 -5.83525 -7.35007
  872 301.287 -5.77097 7.32119
  873 341.368 -17.8816 -9.83645
  874 341.414 -17.7634 9.87965
  875 8.46247 -2.14694 -4.52827
  876 512.666 96.2119 21.1198
  877 441.202 -15.5228 -33.6800
  878 360.186 -39.9572 -29.3068
  879 388.823 -12.5767 3.07647
  880 388.654 -12.4505 -2.97293
  881 424.072 0.502834 43.5652
  882 459.480 -32.7663 -20.8833
  883 406.025 29.6146 -151.553
  884 186.967 -3.16106 75.2222
  885 -6.15979 4.35870 -5.40033
  886 -5.27045 4.92359 5.94525
  887 53.0572 23.8310 -32.5682
  888 414.028 -11.9776 14.9982
  889 434.939 -2.93293 -6.28862
  890 391.430 -37.7254 65.5033
  891 186.529 -2.97375 -75.5137
  892 436.191 -35.7768 8.25196
  893 484.286 -13.9394 57.5678
  894 355.089 1.45297 11.4690
  895 405.692 38.5980 27.2815
  896 220.750 -12.4037 55.2112
  897 219.906 -12.5033 -55.5663
  898 264.646 -12.4952 -30.9998
  899 276.578 -13.6869 -95.7736
  900 436.800 -10.2697 38.1180
  901 597.921 141.285 23.9353
  902 438.836 16.8461 43.5361
  903 414.770 -8.90279 -22.7322
  904 282.322 -12.2611 98.1443
  905 527.707 97.4670 -14.8536
  906 53.3188 45.1380 -45.1762
  907 384.473 -0.752856 -12.2119
  908 264.922 -12.3939 30.7333
  909 322.169 -7.05677 5.25227
  910 322.157 -7.10361 -5.26291
  911 409.757 -26.7774 18.5836
  912 424.645 -2.82889 1.42972
  913 312.953 2.80197 -118.859
  914 447.328 -1.03173 2.97061
  915 444.204 -0.853323 -3.82719
  916 335.387 2.95051 -9.97094
  917 430.002 -1.76978 -6.93409
  918 323.063 -15.0221 -12.6336
  919 323.279 -14.8004 12.6737
  920 -10.3333 4.01149 -5.90663
  921 -14.3888 2.42049 6.30592
  922 424.627 -2.63488 -1.46116
  923 142.693 -3.26455 50.7917
  924 141.865 -2.96662 -51.0735
  925 454.877 66.2757 33.6445
  926 805.429 14.5778 12.4862
  927 428.530 47.6194 35.6415
  928 483.121 -16.8404 17.4602
  929 421.203 -23.4985 29.6180
  930 524.035 109.716 -11.3371
  931 328.440 1.45604 7.51995
  932 405.127 -9.62129 -5.74511
  933 421.673 22.6785 -43.1539
  934 507.281 15.3322 -6.43555
  935 395.215 -24.4202 -8.35346
  936 204.581 -1.11609 -10.9980
  937 204.782 -1.07639 10.8459
  938 416.762 -9.86174 -17.6442
  939 14.3376 18.0402 4.22281
  940 400.104 -41.4876 -5.24510
  941 349.010 10.4300 -1.02724
  942 520.688 114.166 -7.51771
  943 83.3405 61.9133 -74.3752
  944 401.258 -2.99248 -23.8992
  945 279.837 -4.60551 -9.81895
  946 279.895 -4.55209 9.73996
  947 2.54896 -11.2515 8.50967
  948 273.606 -20.2715 -44.4765
  949 407.658 -23.6028 -17.4743
  950 256.582 0.553457 -0.821744
  951 256.650 0.555913 0.816537
  952 412.711 50.0647 -21.8106
  953 440.122 -1.40615 -0.598136
  954 440.141 -1.42296 0.790608
  955 273.735 -20.2184 44.1848
  956 412.961 -0.596041 -9.40926
  957 473.869 3.44809 27.5857
  958 420.590 -6.03467 6.99731
  959 68.5907 17.1184 -40.0329
  960 435.779 -2.72516 5.68603
  961 397.103 3.23687 37.6831
  962 418.754 57.9460 19.3968
  963 418.461 4.84928 -44.0977
  964 289.617 -15.4159 -26.7061
  965 450.603 -16.0243 27.7546
  966 289.807 -15.3588 26.4455
  967 13.7228 14.7922 -1.83658
  968 50.7204 8.50982 29.3612
  969 237.418 -4.13898 18.2467
  970 237.133 -4.14123 -18.3455
  971 405.414 -9.79834 6.07323
  972 436.923 75.8495 10.6814
  973 222.785 20.2416 -112.725
  974 365.291 -22.7593 4.84663
  975 342.928 -35.7969 -36.4499
  976 498.843 95.4889 22.3767
  977 384.102 -6.85166 0.349852
  978 384.086 -6.81553 -0.353018
  979 420.295 -7.85701 -12.5763
  980 390.308 33.7467 -14.8016
  981 869.298 260.108 175.243
  982 82.7787 4.53281 -38.3901
  983 84.0221 3.76373 38.4705
  984 6.16134 -6.89940 2.50939
  985 391.361 21.7435 30.3829
  986 342.852 -36.0173 36.1886
  987 424.140 -20.0829 -33.8700
  988 461.336 37.6881 41.8398
  989 442.441 -35.7312 -44.4667
  990 645.401 135.699 45.7709
  991 377.232 -6.16723 -0.243034
  992 377.183 -6.11786 0.243094
  993 440.778 -18.0333 31.8626
  994 30.7960 52.9158 53.8772
  995 200.908 -4.16860 26.0962
  996 200.298 -4.11491 -26.3662
  997 239.049 -11.6051 35.7330
  998 238.239 -11.4252 -35.8609
  999 268.946 -10.9979 25.7421
  1000 294.032 -2.28847 -1.31562
  1001 294.077 -2.27177 1.31050
  1002 721.119 232.807 -149.336
  1003 656.971 164.766 68.8943
  1004 268.728 -11.0522 -25.9509
  1005 453.940 -2.13007 35.2129
  1006 407.599 42.2964 -26.2449
  1007 288.022 -24.8410 79.4505
  1008 369.053 -43.6169 -43.2850
  1009 421.625 -3.50490 -13.7061
  1010 191.374 12.9444 91.9071
  1011 245.504 -18.7341 63.4710
  1012 374.497 19.2777 -19.0612
  1013 426.526 -8.48581 -41.1702
  1014 536.603 224.930 236.506
  1015 354.285 10.9255 13.5992
  1016 479.688 103.030 -1.60185
  1017 351.426 13.9718 -134.956
  1018 358.637 -37.6788 -25.0964
  1019 452.872 -0.546232 -1.46517
  1020 436.639 40.0859 -41.1788
  1021 258.261 -1.62606 6.59893
  1022 258.139 -1.64247 -6.65829
  1023 9.58738 6.28676 -14.2763
  1024 289.924 -13.1342 -22.2882
  1025 245.201 -18.9744 -63.9372
  1026 289.713 -13.1069 22.0515
  1027 417.071 -12.7327 38.0815
  1028 374.408 -23.1110 -1.54300
  1029 393.903 7.28243 -36.5353
  1030 405.390 50.6175 7.66452
  1031 545.469 33.8625 21.8737
  1032 412.860 -31.3982 17.5583
  1033 262.615 -20.9086 -48.6630
  1034 390.706 13.8795 -34.2386
  1035 290.461 -24.5159 -79.8525
  1036 555.716 120.215 -2.58165
  1037 380.155 25.0247 17.3413
  1038 477.332 -2.73514 -20.7087
  1039 360.857 -37.7001 23.1813
  1040 413.157 -13.1397 29.3354
  1041 410.303 -21.6988 20.7341
  1042 408.046 -20.5610 17.8798
  1043 503.073 64.0620 -29.6472
  1044 407.982 -6.60347 29.9793
  1045 368.483 -43.7383 42.5906
  1046 393.303 -16.1162 5.50476
  1047 262.782 -20.9505 48.4026
  1048 369.685 -27.1812 -5.86772
  1049 216.142 -10.5375 -67.8696
  1050 307.122 -31.8426 54.0044
  1051 415.240 -2.85576 -15.9677
  1052 404.862 -4.57811 -34.1630
  1053 350.924 -27.6747 -15.5022
  1054 216.510 -10.8346 67.3520
  1055 378.477 0.951836 -23.9030
  1056 282.124 -18.6059 -34.5201
  1057 507.957 107.889 13.9494
  1058 114.713 18.7554 -64.8653
  1059 858.795 60.6376 82.2080
  1060 204.750 15.0499 -96.1551
  1061 407.893 -33.8121 -10.3210
  1062 282.205 -18.4497 34.2471
  1063 374.590 4.02358 26.7718
  1064 211.703 -4.23934 21.6100
  1065 211.599 -4.34359 -21.8241
  1066 413.278 -11.5261 -35.3281
  1067 438.075 -2.29841 2.25368
  1068 430.329 -1.00133 6.99609
  1069 426.317 14.1274 44.4276
  1070 399.288 -3.00390 32.1400
  1071 308.749 33.0715 145.894
  1072 455.671 -0.386072 0.690569
  1073 429.575 58.1490 28.3599
  1074 364.832 5.35045 23.0939
  1075 435.532 -1.69575 6.69972
  1076 282.545 -2.97349 -5.51679
  1077 282.598 -2.93991 5.48287
  1078 180.613 -5.07441 -36.0634
  1079 181.302 -5.25755 35.8268
  1080 366.013 18.3409 9.70201
  1081 546.972 30.1927 -42.0616
  1082 502.660 0.0159184 -77.7064
  1083 403.340 -0.371172 -9.78535
  1084 307.221 -32.0788 -54.4056
  1085 351.664 -26.3231 13.9249
  1086 405.607 -0.940002 10.2082
  1087 423.839 -30.8015 -20.8079
  1088 267.190 -0.581792 3.27257
  1089 267.119 -0.592320 -3.29198
  1090 407.121 -34.7799 10.3120
  1091 387.144 -7.98667 0.885608
  1092 387.078 -7.99521 -0.861973
  1093 376.820 -37.9140 15.0263
  1094 483.975 -15.5337 -6.85804
  1095 222.195 -0.385160 -6.13161
  1096 222.549 -0.371731 6.06887
  1097 330.690 -21.0179 -91.4954
  1098 352.434 -8.40742 2.05814
  1099 352.465 -8.45231 -2.07464
  1100 212.774 115.186 160.340
  1101 486.787 40.0336 -33.7947
  1102 72.8262 35.2064 -49.3953
  1103 420.807 -6.36097 -6.75667
  1104 113.691 38.7077 -74.4193
  1105 235.899 -14.7579 -46.1625
  1106 455.694 -0.545851 0.446888
  1107 455.859 -0.514967 -0.326063
  1108 414.430 -23.6995 -25.2803
  1109 366.926 -41.2369 -59.1737
  1110 114.794 15.9668 61.8094
  1111 451.002 44.6126 39.9056
  1112 408.836 -4.23579 -0.573710
  1113 408.886 -4.23837 0.611251
  1114 445.696 -28.5568 71.8420
  1115 462.221 92.3520 15.2805
  1116 276.073 -6.57123 -14.0174
  1117 276.145 -6.54132 13.9220
  1118 209.013 23.7521 113.815
  1119 392.914 2.02610 -35.3362
  1120 124.010 39.7365 79.9361
  1121 501.802 -8.33390 -25.3157
  1122 494.886 109.056 4.54018
  1123 340.969 -26.8841 18.6980
  1124 316.540 1.73240 -1.46681
  1125 431.255 -3.85039 8.50152
  1126 446.085 -0.602748 3.30740
  1127 99.9659 0.166717 -18.1878
  1128 101.276 0.120025 18.0673
  1129 353.754 5.98566 -17.1222
  1130 363.328 -10.6844 -1.63771
  1131 363.249 -10.6367 1.62938
  1132 38.4964 62.6930 -57.3831
  1133 60.8806 135.019 -113.726
  1134 367.878 -14.3606 1.44610
  1135 368.016 -14.3568 -1.46801
  1136 379.882 -9.19746 0.894784
  1137 379.829 -9.17964 -0.864364
  1138 100.436 64.0472 80.5762
  1139 301.251 -3.67695 -2.68046
  1140 301.288 -3.65095 2.66842
  1141 378.223 28.6460 -0.398157
  1142 477.806 61.9169 -168.249
  1143 460.031 79.2231 -26.1994
  1144 419.508 -16.1401 -35.9055
  1145 413.184 -20.6479 -25.7350
  1146 341.157 -27.1320 -19.0040
  1147 344.486 1.15285 10.5693
  1148 386.493 24.1461 -25.4059
  1149 381.209 20.5554 24.2850
  1150 393.048 -15.6520 -5.39778
  1151 375.354 -22.6503 1.25944
  1152 341.712 -21.9998 -14.1242
  1153 406.379 -2.40500 19.0109
  1154 713.274 71.9357 10.0060
  1155 409.042 -8.74116 34.6182
  1156 410.761 26.9715 38.0689
  1157 378.571 -37.2189 -11.4769
  1158 48.1207 7.81459 -28.3304
  1159 385.664 -17.8561 -3.62277
  1160 258.409 -0.384024 -0.168287
  1161 258.471 -0.382374 0.166581
  1162 468.848 -12.4407 17.5083
  1163 446.737 -37.6387 17.4138
  1164 640.826 114.554 28.4265
  1165 155.688 -0.303028 -15.1172
  1166 156.589 -0.269738 15.0067
  1167 345.010 -6.97911 -1.65849
  1168 344.994 -6.93683 1.64715
  1169 386.824 -34.1059 -1.91878
  1170 319.315 1.47645 4.80613
  1171 396.082 -28.2065 7.83899
  1172 22.8068 27.0961 -13.5792
  1173 72.0492 35.7030 48.2873
  1174 265.681 -14.5323 88.4149
  1175 458.377 87.1769 -18.7153
  1176 437.092 -1.23370 -5.29526
  1177 457.590 -0.756554 0.289529
  1178 458.017 -1.02167 -0.177187
  1179 268.626 -0.610910 -0.545181
  1180 268.688 -0.606011 0.541316
  1181 422.495 26.9988 43.1387
  1182 622.768 106.151 -2.26064
  1183 435.436 71.9066 -19.1655
  1184 325.376 -24.0020 90.9137
  1185 264.270 -13.9815 -88.2433
  1186 294.146 -19.5928 -30.9988
  1187 405.672 -11.4014 7.81331
  1188 565.251 124.733 6.19254
  1189 294.177 -19.4783 30.7620
  1190 414.321 -7.32111 5.91108
  1191 371.421 13.8592 23.1880
  1192 408.530 12.6682 41.5036
  1193 580.125 129.489 14.9301
  1194 345.648 -9.00857 3.08169
  1195 345.664 -9.05063 -3.10216
  1196 419.780 -7.95201 13.0677
  1197 250.926 -2.64590 10.3195
  1198 250.750 -2.67246 -10.4100
  1199 410.541 -5.67281 -2.57328
  1200 169.528 101.234 -155.238
  1201 355.554 -20.0796 -97.3628
  1202 336.319 -10.5066 -5.61165
  1203 336.354 -10.4602 5.61371
  1204 439.808 -2.13988 2.05427
  1205 416.713 -5.54324 4.71827
  1206 23.1374 29.3362 21.7145
  1207 452.662 -0.534758 1.71509
  1208 54.4490 69.4027 68.8536
  1209 407.138 -6.16599 -3.32318
  1210 -0.462216 -9.91621 -8.69872
  1211 288.702 -28.1827 -68.4887
  1212 287.922 -27.5011 67.8117
  1213 452.644 -0.821557 -1.90217
  1214 388.087 -20.4816 -4.37591
  1215 439.513 -1.95931 -2.09183
  1216 353.104 -11.4128 -3.02778
  1217 353.071 -11.3724 2.99641
  1218 410.281 -5.63402 2.41179
  1219 385.389 -17.5049 3.58501
  1220 370.996 -11.9518 0.373213
  1221 371.125 -11.9827 -0.329878
  1222 439.121 -2.01889 -1.70382
  1223 379.550 -40.0083 -66.6720
  1224 429.827 -2.74095 -1.72720
  1225 408.854 -6.33473 3.58945
  1226 287.031 -3.10119 -4.10380
  1227 287.081 -3.07112 4.08083
  1228 319.949 -4.68030 -2.13535
  1229 319.967 -4.64879 2.12521
  1230 515.900 80.5702 24.5915
  1231 433.714 -33.3778 15.1075
  1232 297.870 -1.44635 112.265
  1233 240.596 -0.390511 3.96365
  1234 240.395 -0.394787 -4.00196
  1235 411.466 -7.62582 25.9582
  1236 393.620 -6.03416 0.629790
  1237 393.635 -6.01434 -0.629435
  1238 451.145 87.6648 8.76419
  1239 412.242 -43.1947 53.0564
  1240 240.765 -3.36349 14.4540
  1241 240.530 -3.38844 -14.5569
  1242 393.083 -9.64778 2.74693
  1243 392.995 -9.71506 -2.65935
  1244 405.451 -11.2651 -7.51891
  1245 373.867 0.0832115 12.3697
  1246 642.322 159.691 -53.9410
  1247 413.082 -15.1576 -22.7583
  1248 71.7298 16.9038 41.1434
  1249 426.635 -22.7785 31.4617
  1250 344.408 7.59990 -9.37014
  1251 26.7641 19.4172 15.1347
  1252 560.489 63.0558 -6.83328
  1253 416.796 -18.9869 -31.9330
  1254 346.023 4.97837 14.3570
  1255 237.540 -14.7843 46.0911
  1256 423.194 -32.7966 18.4555
  1257 612.318 118.273 38.9927
  1258 143.149 20.9869 78.5857
  1259 425.150 -5.11947 -11.2674
  1260 811.891 9.10711 -8.13095
  1261 838.510 12.5717 36.1849
  1262 894.787 30.3005 -86.1057
  1263 412.664 -12.9177 -28.4871
  1264 412.564 -18.8677 24.0851
  1265 419.057 -29.8630 22.2160
  1266 -12.3023 1.44650 7.77754
  1267 -11.1856 1.16590 -8.47796
  1268 407.710 -45.0935 -25.1752
  1269 417.502 -42.2504 -37.4002
  1270 321.564 2.07708 -5.93150
  1271 405.978 -45.8951 37.2867
  1272 433.906 -20.6178 -31.8974
  1273 8.84887 13.0829 1.77297
  1274 353.437 -6.47237 1.13130
  1275 353.461 -6.51740 -1.13428
  1276 430.926 -3.51769 7.63621
  1277 414.287 -7.19271 -5.54423
  1278 390.418 -42.6189 -13.6380
  1279 357.100 -19.2851 6.19297
  1280 355.318 -19.0124 -6.69652
  1281 418.382 -8.89433 18.0680
  1282 428.801 -15.7883 -36.9001
  1283 27.7662 20.2441 -14.6985
</Section>

newXOutput 24

<Section columns = "stress_xx | stress_yy | stress_xy">
  1 479.810 -0.138201 0.911781
  2 479.818 -0.129627 -0.914283
  3 265.991 -0.0816758 -0.329449
  4 -3.34970 -3.31082 -4.81661
  5 855.014 345.287 275.087
  6 847.144 357.616 -274.197
  7 -3.89127 -3.14402 5.12782
  8 265.925 -0.0826230 0.328598
  9 483.087 -0.820261 0.270937
  10 482.123 -1.28988 -0.255752
  11 481.112 -0.876254 1.03360
  12 480.088 -1.19284 0.259139
  13 477.876 -1.00986 1.62692
  14 475.859 -1.01754 1.16840
  15 471.027 -0.898012 2.34544
  16 464.044 -0.647336 3.46396
  17 457.834 -0.675709 3.87458
  18 448.554 -0.921829 4.70430
  19 435.601 -0.0915427 6.98139
  20 423.638 -0.678705 6.65893
  21 409.915 -0.868242 9.41192
  22 390.106 0.611593 8.21170
  23 375.688 0.944181 9.72738
  24 356.872 1.57841 7.62927
  25 343.819 1.68639 7.70016
  26 324.914 2.33456 3.93130
  27 320.914 3.67125 4.22023
  28 318.500 3.02479 -1.24853
  29 321.783 1.77862 -2.73497
  30 327.835 1.70963 -3.35678
  31 342.001 2.14261 -6.69446
  32 355.762 1.69311 -8.45297
  33 375.886 0.394848 -10.0125
  34 391.975 -0.198660 -9.09197
  35 409.067 -0.688855 -8.90703
  36 424.512 -0.531627 -6.27305
  37 437.728 -0.563565 -5.34668
  38 448.580 -0.903636 -4.46971
  39 458.260 -0.655096 -3.09047
  40 464.252 -0.788003 -3.26856
  41 470.044 -0.953708 -2.38397
  42 475.478 -1.12467 -1.01373
  43 478.250 -0.910288 -1.21363
  44 479.661 -0.575923 -0.744661
  45 478.481 -0.342655 -0.680468
  46 482.589 -1.29482 0.177728
  47 483.223 -0.851908 -0.279260
  48 467.922 -0.446391 -0.564702
  49 457.763 -2.05997 -1.03967
  50 445.303 -3.00152 -0.646765
  51 430.079 -4.38859 -0.894847
  52 415.604 -4.78346 -1.09429
  53 400.124 -5.92421 -1.04631
  54 386.396 -6.55244 -0.555067
  55 374.352 -7.27990 -0.174716
  56 360.446 -6.02811 -0.163968
  57 344.415 -5.60781 -0.316333
  58 328.972 -4.40264 -0.0583039
  59 314.348 -2.78371 0.00122325
  60 300.460 -1.96628 0.0574448
  61 288.295 -0.985505 0.155990
  62 275.878 -0.247299 -0.374830
  63 266.121 0.376795 0.503961
  64 261.721 1.02181 0.350191
  65 264.632 0.0190930 0.809027
  66 261.210 -0.125398 0.980298
  67 257.999 -0.192961 1.22080
  68 253.661 -0.0115913 1.58107
  69 248.195 -0.00531162 1.98450
  70 244.083 -0.299308 3.79403
  71 232.591 0.339278 4.13681
  72 224.458 -0.0151954 4.71920
  73 212.348 -0.200465 5.35797
  74 198.419 -0.343692 6.51655
  75 181.001 -0.0716225 7.91296
  76 159.769 0.103524 8.73385
  77 141.341 -0.175515 12.4857
  78 105.095 1.14934 11.8028
  79 80.2922 0.990176 12.5039
  80 50.4707 -0.235934 13.8967
  81 25.6065 2.27360 14.4894
  82 -2.75031 3.42051 8.77769
  83 -23.4901 3.48024 3.20840
  84 -23.1456 3.38006 -1.09130
  85 -22.3599 2.81926 -6.68250
  86 -13.1814 -0.865692 -6.39142
  87 -1.58751 -12.6533 -7.06329
  88 1.29077 -23.2466 -8.78185
  89 3.52216 -36.4202 -4.71113
  90 7.78379 -36.6301 0.768092
  91 16.4136 -6.70816 22.1059
  92 48.6417 78.1471 73.8488
  93 281.931 269.851 246.589
  94 1036.05 155.330 172.769
  95 934.747 22.2008 56.0870
  96 870.156 9.24208 17.1635
  97 846.329 7.86749 1.31590
  98 859.020 10.4464 -14.8915
  99 932.785 20.7181 -44.3987
  100 1096.43 74.9173 -148.436
  101 167.780 276.704 -206.598
  102 36.4108 56.8249 -61.3396
  103 17.9381 -4.90668 -23.4659
  104 7.28943 -36.5454 -4.31155
  105 2.10130 -27.6293 5.39346
  106 2.61607 -29.3234 7.60004
  107 0.138833 -10.9190 7.82499
  108 -13.7642 -0.545017 6.05493
  109 -23.0683 2.11652 5.82180
  110 -24.3807 4.10570 1.22046
  111 -24.2405 3.42298 -2.98431
  112 -4.45318 3.50540 -8.23183
  113 24.1105 2.29319 -13.8194
  114 48.9452 0.00692334 -13.6689
  115 78.7165 1.07029 -12.5293
  116 103.663 1.17918 -11.8915
  117 140.231 -0.180679 -12.5888
  118 158.819 0.114807 -8.81706
  119 180.170 -0.0685295 -8.01095
  120 197.994 -0.381526 -6.56384
  121 211.773 -0.189860 -5.37129
  122 224.021 -0.000416961 -4.76723
  123 232.233 0.335238 -4.18124
  124 243.824 -0.302315 -3.83167
  125 247.987 -0.00726162 -2.00758
  126 253.502 -0.0134529 -1.60004
  127 257.876 -0.196045 -1.23583
  128 261.114 -0.128040 -0.990776
  129 264.552 0.0168340 -0.815708
  130 261.650 1.02067 -0.353284
  131 266.054 0.376224 -0.505902
  132 275.812 -0.249874 0.373826
  133 288.233 -0.991960 -0.158367
  134 300.406 -1.98045 -0.0602203
  135 314.307 -2.80339 -0.00389235
  136 328.947 -4.43100 0.0556604
  137 344.410 -5.64370 0.314252
  138 360.461 -6.06967 0.161835
  139 374.384 -7.32654 0.173756
  140 386.439 -6.59898 0.556614
  141 400.187 -5.96656 1.05109
  142 415.658 -4.81263 1.11144
  143 430.120 -4.41469 0.977354
  144 445.384 -2.84383 0.661134
  145 458.083 -2.00797 1.01662
  146 468.006 -0.519126 0.556017
  147 420.147 -39.4833 -1.70993
  148 419.787 -38.9499 1.85847
  149 441.916 63.4278 -21.0998
  150 469.907 27.6770 44.3560
  151 356.068 -34.3505 -79.0842
  152 358.972 -34.2999 76.5729
  153 347.133 -14.6447 9.78668
  154 347.158 -14.8458 -9.79279
  155 497.539 17.9648 -33.2209
  156 419.038 -15.1403 8.60622
  157 418.859 -14.7798 -8.50072
  158 541.615 120.474 5.02553
  159 429.549 -0.684999 -43.6434
  160 318.789 -24.9569 -35.5321
  161 318.806 -24.7517 35.2286
  162 430.141 -9.76548 39.2603
  163 409.597 29.9313 26.1732
  164 169.852 27.0458 -94.4287
  165 188.125 25.6430 99.4677
  166 524.393 6.23180 2.37726
  167 430.949 -16.5814 -27.0038
  168 569.689 125.092 -0.903871
  169 388.527 -10.9938 -0.352340
  170 388.447 -10.9618 0.384623
  171 435.291 -5.39157 -3.73261
  172 436.626 -4.85850 3.21634
  173 306.953 -4.33777 -5.71927
  174 306.994 -4.29341 5.69126
  175 466.285 -11.9840 100.558
  176 396.755 16.5340 -28.2083
  177 259.986 -19.4179 -56.7479
  178 260.757 -19.2773 56.3887
  179 292.350 -9.48426 -18.6297
  180 292.380 -9.37672 18.4968
  181 432.985 -11.4335 22.9614
  182 393.871 -27.0046 -1.71296
  183 392.508 -26.8038 2.32610
  184 446.788 -43.2949 -8.82265
  185 449.146 -41.2474 3.28498
  186 616.554 145.237 -22.8494
  187 450.503 72.2279 19.7086
  188 450.783 27.6804 -44.8056
  189 464.474 -3.50605 -116.631
  190 446.770 -25.2936 -30.7220
  191 450.637 -18.0788 36.4100
  192 376.089 -42.6797 39.1516
  193 376.163 -42.3744 -39.0370
  194 403.259 5.17604 33.8461
  195 185.562 -4.61497 -69.4827
  196 186.007 -5.00024 69.0678
  197 694.061 103.759 15.1006
  198 423.326 -25.2543 16.3881
  199 438.767 -8.14443 -14.8478
  200 349.276 -8.50434 -4.52026
  201 349.284 -8.46250 4.50685
  202 422.077 -5.49930 -30.3072
  203 480.151 70.4318 -35.6010
  204 403.038 36.2577 -5.24025
  205 263.538 -9.23338 26.0934
  206 263.141 -9.26132 -26.2813
  207 444.961 -5.04309 8.01388
  208 434.494 8.17236 44.9111
  209 353.715 -25.6537 -17.4641
  210 351.385 -24.2872 17.8449
  211 511.205 75.8459 32.1091
  212 598.956 83.1823 15.9712
  213 41.6675 32.2946 -27.0858
  214 38.5609 29.8528 23.0518
  215 247.965 71.2809 165.609
  216 419.110 -27.8723 -12.3244
  217 446.506 -4.84226 -7.23488
  218 398.805 3.55509 -31.1764
  219 281.312 -2.74069 -8.27953
  220 281.404 -2.71004 8.21009
  221 377.795 -17.6912 -4.01704
  222 377.972 -17.8028 3.80430
  223 425.585 -5.75748 25.7429
  224 488.239 -28.2261 12.5468
  225 486.703 99.2236 -10.2563
  226 381.677 -36.8059 -18.8683
  227 481.497 -8.39997 27.6839
  228 410.836 -6.99812 1.26084
  229 410.839 -6.94217 -1.25916
  230 378.927 -36.6323 19.5590
  231 433.567 -27.5565 24.8853
  232 606.306 79.7609 -40.8627
  233 136.106 80.9726 -120.660
  234 369.387 13.0646 6.75617
  235 436.301 38.4551 37.8760
  236 463.793 -3.28135 -39.4676
  237 433.712 -15.6495 -36.5769
  238 233.385 -7.43303 -32.6060
  239 234.177 -7.32194 32.5086
  240 434.321 -5.29490 -19.8072
  241 413.791 -10.5565 4.39339
  242 413.598 -10.5446 -4.23472
  243 88.6613 7.99818 -44.6084
  244 90.0271 7.00914 44.4540
  245 459.995 -40.2886 -36.9043
  246 454.911 -1.74218 1.04978
  247 455.376 -1.77421 -1.15780
  248 426.306 35.3545 -34.7241
  249 376.506 7.32651 20.4540
  250 777.114 124.426 83.6490
  251 770.491 87.7185 -52.1974
  252 562.018 120.813 -0.254219
  253 350.994 -16.9956 104.980
  254 322.405 -11.1332 -109.736
  255 370.442 -7.61308 -1.66251
  256 370.409 -7.56595 1.65141
  257 308.825 -8.17541 11.4884
  258 308.820 -8.28671 -11.5858
  259 444.628 -4.87920 12.0889
  260 431.794 -30.7894 -20.2414
  261 282.969 -0.495116 -1.95150
  262 283.036 -0.486342 1.94001
  263 426.390 -17.3292 -16.1932
  264 183.155 -5.95146 -45.2822
  265 183.925 -5.97009 44.9653
  266 431.817 -18.7711 29.1204
  267 330.346 -35.0602 63.6453
  268 331.161 -35.6867 -63.4495
  269 374.646 14.4437 -9.52077
  270 323.336 -4.89919 -3.85920
  271 323.366 -4.86666 3.84507
  272 406.025 -0.988666 24.9304
  273 484.115 88.4580 24.6444
  274 261.903 -3.13316 13.9436
  275 261.705 -3.15897 -14.0582
  276 443.163 -37.0728 13.6477
  277 410.234 -46.0892 -43.1794
  278 456.690 -2.31501 3.68169
  279 319.638 -18.8053 -24.3518
  280 319.102 -18.5976 24.2636
  281 559.241 60.9295 147.282
  282 267.391 -21.6132 75.7872
  283 430.481 60.4008 -2.23584
  284 541.456 60.2638 -19.9104
  285 409.553 -31.6695 4.21766
  286 410.586 -47.3432 39.0151
  287 268.179 -21.2660 -76.6220
  288 50.2145 62.0096 56.7504
  289 426.464 -17.3872 16.4968
  290 557.531 73.3953 14.9552
  291 460.174 -2.06862 -3.19282
  292 419.082 14.7062 -39.9766
  293 412.675 -23.3603 8.45210
  294 404.144 -34.0926 2.02597
  295 417.622 19.2022 38.5400
  296 441.074 -37.0771 -12.0712
  297 623.506 120.899 -11.0734
  298 412.565 -22.4577 -8.07669
  299 339.400 98.8253 -202.090
  300 421.512 -44.7101 -9.36934
  301 418.563 -45.9335 14.1398
  302 308.950 -27.8622 -49.9806
  303 280.371 -1.03038 -4.23289
  304 280.452 -1.01238 4.20104
  305 309.090 -27.8868 49.7165
  306 446.308 -0.768915 -44.9273
  307 480.638 -19.9126 -17.7914
  308 367.605 -22.0586 -9.51491
  309 367.380 -22.1099 9.68458
  310 437.542 -37.6655 68.5803
  311 437.817 -3.56303 14.9888
  312 529.747 3.03082 25.6771
  313 360.376 -12.6693 -5.29267
  314 360.402 -12.6290 5.26501
  315 328.985 -8.48218 -7.64708
  316 328.990 -8.40427 7.63669
  317 372.724 5.08013 -19.7774
  318 475.521 34.8554 -42.9353
  319 730.760 197.677 -95.0584
  320 432.675 -3.95452 -1.22501
  321 432.438 -3.90282 1.26101
  322 233.374 -0.617463 94.5784
  323 327.166 -14.7195 -16.2264
  324 326.566 -14.6728 16.2690
  325 233.328 -1.16996 -94.2167
  326 453.980 53.5332 -36.7687
  327 506.444 25.1854 31.3990
  328 437.430 -31.2041 -76.0243
  329 403.534 -15.6164 3.42680
  330 403.131 -15.5061 -3.25561
  331 430.083 -9.03671 -7.70864
  332 406.296 -0.751003 -23.3095
  333 454.386 1.90466 43.8926
  334 452.467 -3.26060 -8.30427
  335 274.614 -16.5368 38.0752
  336 274.312 -16.6270 -38.3589
  337 423.412 -0.946070 41.4818
  338 263.626 -2.09442 -8.29717
  339 263.794 -2.07495 8.22468
  340 433.324 -10.0682 12.2557
  341 520.039 106.019 -17.6765
  342 429.886 -9.10086 8.00783
  343 459.002 57.5596 36.8638
  344 438.994 -8.20379 42.7932
  345 348.884 -6.50391 1.68257
  346 348.884 -6.54265 -1.69295
  347 416.164 -1.46878 -36.8307
  348 549.029 115.277 10.6320
  349 457.905 83.7391 0.767023
  350 280.252 32.4975 -140.265
  351 29.9100 12.7227 -19.7125
  352 32.6983 13.7725 21.1643
  353 -1.14621 3.39063 8.19777
  354 0.518980 2.00147 -8.58497
  355 794.911 55.1680 18.8142
  356 379.228 -30.7104 -11.3440
  357 433.640 -9.73646 -11.9531
  358 392.008 -6.97756 0.380543
  359 391.963 -6.92360 -0.383306
  360 420.363 46.4357 -18.8139
  361 358.331 -36.4217 32.2374
  362 31.9704 47.7248 -35.4865
  363 358.649 -36.4077 -32.8037
  364 425.755 48.4175 20.0180
  365 432.932 -11.6286 -21.8396
  366 458.790 -25.6669 -25.8288
  367 489.967 103.111 7.05711
  368 459.762 -28.7883 21.0300
  369 193.176 -4.74323 30.3062
  370 192.055 -4.65095 -30.4925
  371 109.903 2.59923 -42.2828
  372 111.017 2.17204 42.0976
  373 378.436 1.33863 19.9846
  374 709.336 208.571 83.0308
  375 447.168 -2.92704 -10.6501
  376 349.470 -29.3819 -24.7546
  377 349.199 -29.3122 24.7224
  378 430.601 -9.99411 -27.8750
  379 488.839 -23.6279 1.69502
  380 379.215 -30.6848 11.6679
  381 535.227 4.45171 -45.9125
  382 306.759 -2.40966 -1.52685
  383 306.807 -2.38935 1.51694
  384 423.928 -2.49751 -17.8993
  385 231.051 -3.27055 -19.7536
  386 231.190 -3.37717 19.5194
  387 505.247 64.5970 -35.8486
  388 273.829 19.2603 130.422
  389 396.369 -20.7985 1.13259
  390 396.754 -20.7639 -1.14951
  391 466.014 78.6905 -23.2479
  392 440.585 -13.1071 -40.4422
  393 440.778 -45.1102 38.0865
  394 369.170 -9.79814 -2.62049
  395 369.130 -9.75319 2.59742
  396 424.927 -32.8186 13.2122
  397 456.625 -2.27193 6.14999
  398 287.736 -10.3600 -23.2621
  399 287.852 -10.3622 23.0717
  400 432.369 14.5296 -44.3307
  401 407.484 -8.95451 1.87980
  402 407.464 -8.97683 -1.82867
  403 422.186 -5.00339 33.7450
  404 394.843 28.8580 9.07301
  405 437.011 -18.5204 35.1576
  406 629.483 131.445 24.3854
  407 213.130 -11.4481 -60.7647
  408 213.713 -11.4500 60.3155
  409 95.5744 50.8719 -73.2010
  410 466.364 -1.49437 1.64653
  411 240.912 -1.97691 -12.5110
  412 241.225 -1.93507 12.4077
  413 430.912 -11.3070 27.2637
  414 390.999 -42.4018 21.7192
  415 440.483 -5.63135 5.44488
  416 449.984 22.8241 46.0798
  417 100.065 54.1671 76.2157
  418 391.569 -42.1554 -20.0540
  419 404.510 -37.5730 -4.83829
  420 134.510 -2.69031 -38.2355
  421 135.480 -2.78803 37.9789
  422 311.157 -25.0367 -91.3864
  423 463.817 -6.98853 38.4506
  424 310.029 -25.3956 90.6019
  425 428.805 -24.1398 -22.3940
  426 400.200 27.0881 -19.8351
  427 428.860 -18.6130 21.3350
  428 460.115 -2.18029 -4.09531
  429 14.4279 15.6529 7.35670
  430 94.4147 109.736 107.863
  431 413.848 -1.51327 17.3148
  432 349.589 4.89496 8.68867
  433 355.424 5.94007 -11.7727
  434 303.245 -4.91129 -8.10787
  435 303.281 -4.84930 8.05816
  436 422.786 -32.7952 -12.0138
  437 427.700 -8.41601 -37.7075
  438 351.385 6.71289 -3.19686
  439 629.045 150.036 32.7517
  440 88.8521 29.1096 -54.9201
  441 97.8014 26.7094 58.5884
  442 396.002 -14.1493 1.19839
  443 395.855 -14.1191 -1.09660
  444 527.521 116.065 -1.35471
  445 327.178 138.277 206.584
  446 505.870 -6.92822 -5.13445
  447 293.638 -15.1678 -31.5543
  448 293.779 -15.0664 31.2971
  449 295.994 -6.49447 12.5575
  450 295.935 -6.54101 -12.6653
  451 397.778 8.91869 -32.1304
  452 468.654 -0.781264 -1.08062
  453 387.133 17.8764 18.0884
  454 486.490 60.0210 39.2609
  455 405.338 -30.0771 -2.78798
  456 440.292 -5.37086 -5.29596
  457 461.950 -1.98599 3.77050
  458 467.282 -0.840830 0.616168
  459 467.637 -0.934783 -0.443385
  460 262.234 -0.438485 3.08773
  461 262.102 -0.445191 -3.11807
  462 442.906 -28.2265 27.0804
  463 401.534 15.9223 31.1232
  464 418.951 1.72160 -40.5059
  465 436.199 -9.31670 16.1115
  466 623.515 108.278 -124.981
  467 437.462 -24.3476 -30.5527
  468 4.96211 8.40584 3.86127
  469 4.89410 8.57085 -1.69365
  470 347.984 -19.5765 14.1416
  471 346.848 -19.3082 -13.9607
  472 540.668 11.0998 68.0217
  473 152.170 140.594 -157.418
  474 432.083 -1.36349 13.3741
  475 487.516 -28.2727 -39.3351
  476 262.988 -15.0119 44.0261
  477 523.941 92.9915 -25.4474
  478 431.203 -23.4160 25.5070
  479 363.151 -17.2651 -7.27378
  480 363.468 -16.9829 7.25612
  481 378.347 2.06325 -17.6387
  482 262.178 -14.9499 -44.2857
  483 387.601 0.225845 17.7076
  484 369.664 -42.3188 -57.1041
  485 368.749 -42.3832 57.3278
  486 444.751 -3.03062 11.7708
  487 406.236 38.3625 3.74809
  488 409.170 7.47073 141.777
  489 602.774 122.187 -0.763245
  490 417.080 -7.17591 2.32938
  491 417.100 -7.15077 -2.42305
  492 323.090 -5.64368 -5.20994
  493 323.116 -5.59798 5.19213
  494 171.169 7.67458 79.6808
  495 433.190 -20.9397 -29.9922
  496 393.231 -8.62958 0.0399994
  497 393.192 -8.60122 -0.0327637
  498 343.022 -36.2394 46.7161
  499 174.427 10.1691 -81.6796
  500 433.533 -35.3950 -13.7974
  501 7.78376 2.23387 2.85546
  502 381.520 19.8323 1.32983
  503 418.511 -5.00827 -0.752402
  504 418.504 -5.07346 0.732387
  505 343.206 -36.1723 -47.0708
  506 487.970 -24.9206 49.7329
  507 485.013 17.6146 39.7271
  508 447.026 -3.20400 -2.58267
  509 432.212 -35.8877 14.0209
  510 274.653 -0.227688 -0.566408
  511 274.720 -0.225326 0.562117
  512 431.966 -16.6531 -32.1514
  513 419.560 31.0728 33.9831
  514 479.138 11.8422 -39.2672
  515 272.981 -0.397318 -1.74054
  516 273.058 -0.391595 1.72938
  517 828.226 119.699 -106.766
  518 436.324 51.9128 29.8604
  519 447.397 -2.97128 2.29361
  520 405.389 -38.4059 5.82180
  521 342.334 -11.2253 7.87331
  522 342.327 -11.3085 -7.85725
  523 470.676 -28.7461 10.7631
  524 453.154 -9.12381 -40.7362
  525 506.877 99.6308 21.6690
  526 422.561 7.29748 42.0210
  527 424.783 -8.31564 4.75970
  528 412.554 -44.1291 -55.2460
  529 428.900 -10.6800 31.8261
  530 817.988 37.6050 -14.9245
  531 467.142 -35.2876 0.961077
  532 444.255 -3.11937 -0.577845
  533 444.363 -3.30688 0.495575
  534 826.515 55.4330 52.1847
  535 412.288 -0.106368 35.7413
  536 573.649 97.1544 -7.01123
  537 432.411 -11.8801 -15.5756
  538 198.942 -1.82350 -13.5016
  539 199.535 -1.73531 13.3681
  540 294.311 -27.5164 -63.5448
  541 294.557 -27.0565 63.0839
  542 424.546 -7.98093 -4.72230
  543 462.455 16.9526 -44.7199
  544 406.524 -27.6571 4.34938
  545 438.210 50.2178 -30.9539
  546 440.120 -5.22352 15.8349
  547 549.314 28.1824 -8.67147
  548 377.566 -12.9247 -2.43817
  549 377.457 -12.8832 2.41307
  550 409.340 -19.3580 6.15491
  551 600.509 119.947 -11.6449
  552 431.958 18.9041 43.6278
  553 185.437 47.6169 117.588
  554 415.330 -24.8864 95.2807
  555 545.989 27.8772 -105.342
  556 441.565 36.5082 -40.5384
  557 390.431 -33.8472 -82.6946
  558 423.044 -46.4217 -17.4873
  559 441.347 -44.7822 -25.1110
  560 58.7603 76.9230 -72.8411
  561 443.747 -5.76497 -9.55812
  562 665.416 129.232 -38.5468
  563 411.481 -18.5862 -6.98921
  564 414.756 -13.5865 5.77699
  565 414.375 -13.2833 -5.52330
  566 289.343 -1.60102 -3.85905
  567 289.408 -1.58039 3.83512
  568 42.5700 4.23369 -23.4652
  569 44.7911 4.44282 23.9983
  570 215.620 -9.93716 -46.3117
  571 217.227 -9.99266 46.2509
  572 420.479 -22.8437 -13.8202
  573 427.896 -46.6134 18.8381
  574 439.807 -41.8349 1.20120
  575 362.317 -6.40599 -1.45232
  576 362.298 -6.36228 1.44524
  577 343.014 -36.0377 -70.7494
  578 383.058 -31.5115 87.4135
  579 334.857 -33.9018 71.1288
  580 432.951 -9.65484 -40.4816
  581 274.183 -4.46822 14.0460
  582 274.048 -4.51411 -14.1567
  583 413.891 22.9389 -34.1551
  584 414.120 -0.729585 -15.7118
  585 516.035 111.632 -9.64365
  586 338.889 -5.07882 -1.39714
  587 338.901 -5.04644 1.39096
  588 440.212 -1.33796 -8.77386
  589 306.405 -10.2199 -15.6669
  590 306.418 -10.1861 15.5373
  591 249.387 11.3259 112.338
  592 428.448 -19.7856 -21.5540
  593 240.718 -12.8276 80.7784
  594 421.053 -21.8751 14.1510
  595 442.627 -6.38519 10.5820
  596 436.858 -4.17370 -2.25999
  597 310.189 -3.76259 -3.62526
  598 310.232 -3.73246 3.60791
  599 495.130 98.6122 -19.6217
  600 240.542 -12.3587 -81.0681
  601 419.636 -18.2434 -11.2291
  602 379.333 -7.09073 -0.766963
  603 379.295 -7.04079 0.763994
  604 706.147 94.8716 -16.9249
  605 254.630 -1.59126 7.72762
  606 254.413 -1.60656 -7.79653
  607 393.209 9.09484 29.3391
  608 556.825 47.3550 -4.02746
  609 265.554 1.63723 -111.459
  610 137.533 3.32892 -61.0429
  611 138.641 2.56500 60.7218
  612 333.638 -19.3348 19.5367
  613 337.036 -19.9048 -19.0097
  614 564.108 113.835 8.06252
  615 435.122 -4.31967 2.02472
  616 376.721 10.7131 -17.7475
  617 467.238 83.7771 18.3952
  618 465.635 86.9253 -12.2368
  619 382.620 -21.1632 -3.90908
  620 385.478 -20.6956 2.55596
  621 273.869 59.9364 -159.803
  622 330.179 -11.1892 -10.9318
  623 330.210 -11.0638 10.8974
  624 824.266 168.868 127.253
  625 432.253 -14.2190 34.7882
  626 249.570 -8.71905 -29.6615
  627 664.479 158.010 107.278
  628 250.140 -8.67230 29.5556
  629 411.841 -15.6371 -111.020
  630 294.529 -1.39317 -1.42101
  631 294.587 -1.38119 1.41429
  632 363.715 3.33155 15.4889
  633 167.077 -2.44880 -26.6058
  634 167.966 -2.45528 26.4044
  635 377.757 -26.6695 8.84293
  636 395.760 -31.6586 -3.24972
  637 464.538 -1.07616 -3.48275
  638 266.499 -0.405734 2.29438
  639 266.394 -0.413124 -2.31663
  640 357.035 -8.02988 -2.28817
  641 357.024 -7.98689 2.27279
  642 407.713 -45.3202 55.7838
  643 469.203 52.3636 -40.5236
  644 314.053 -14.5165 -20.1752
  645 313.839 -14.2737 20.0350
  646 370.909 -26.5970 -11.9551
  647 581.834 126.389 4.66390
  648 437.254 -42.3712 1.17363
  649 380.737 -9.15302 -1.25717
  650 380.682 -9.11046 1.25679
  651 521.615 57.2766 29.5895
  652 438.354 -6.42787 -17.2063
  653 389.768 -0.441742 -14.4121
  654 181.799 -6.21913 -58.3130
  655 182.338 -6.38776 57.8512
  656 369.856 -31.8257 -18.8324
  657 553.219 121.385 0.127240
  658 430.571 58.2568 -13.4507
  659 287.784 -2.55538 -7.06227
  660 287.855 -2.52013 7.00907
  661 400.713 -11.3997 -1.35797
  662 400.790 -11.4096 1.43983
  663 740.497 96.5478 42.6277
  664 471.014 -1.35318 0.908704
  665 456.213 -1.87647 6.04242
  666 454.536 -1.89917 -7.12324
  667 432.052 -40.2731 5.15018
  668 320.518 -3.67390 -1.81072
  669 320.552 -3.64852 1.80319
  670 462.614 74.0105 28.3876
  671 591.378 131.222 -9.02942
  672 325.875 -24.0794 -28.5772
  673 325.794 -23.8474 28.4406
  674 405.789 -41.7990 -9.72685
  675 428.918 25.5148 -41.0939
  676 506.616 1.42855 15.9191
  677 339.035 -6.25918 -3.67166
  678 339.048 -6.22049 3.65783
  679 293.252 -25.6503 -57.3670
  680 428.008 -41.4364 -1.23896
  681 356.491 -39.5218 51.4885
  682 171.405 53.9232 -113.516
  683 333.548 -30.8045 39.7259
  684 402.451 0.112753 13.2808
  685 293.531 -25.3621 56.9939
  686 419.397 -18.5900 11.3677
  687 333.641 -30.6718 -40.0753
  688 343.925 4.56889 3.25591
  689 266.203 -7.05045 21.1394
  690 265.969 -7.05639 -21.2807
  691 356.657 -40.5446 -52.0533
  692 440.017 -29.0547 -26.1623
  693 403.834 -5.79063 -0.371823
  694 403.899 -5.84804 0.373722
  695 449.513 -28.7172 25.7752
  696 408.844 -42.7249 11.3821
  697 496.218 45.5596 38.6246
  698 448.199 -8.45881 42.1023
  699 431.296 -15.5591 25.4190
  700 413.524 34.0510 -25.9099
  701 495.627 83.2481 30.6269
  702 428.207 -5.96339 -24.9529
  703 426.195 -14.2273 12.7225
  704 441.952 69.0880 7.26034
  705 433.827 -7.43003 21.6000
  706 137.560 93.7916 119.128
  707 403.558 -46.4514 -32.7145
  708 467.217 8.45545 42.6555
  709 471.272 -14.6201 -29.6986
  710 469.032 -0.701762 1.89030
  711 430.868 -14.8981 -19.8638
  712 404.175 -46.8142 29.8286
  713 775.286 68.7013 -11.4715
  714 244.418 -1.01413 8.08241
  715 244.133 -1.02506 -8.15520
  716 436.581 -8.06706 -9.07739
  717 471.741 -0.541215 -1.85286
  718 369.206 -32.3438 18.9289
  719 442.461 -16.5282 38.1144
  720 667.403 161.340 -52.5740
  721 419.396 -30.4253 11.3463
  722 464.165 -30.6288 -14.3855
  723 426.344 -13.8528 -12.5155
  724 471.361 -0.901310 -0.566162
  725 432.453 -0.0614903 44.1466
  726 20.2991 20.0680 26.1148
  727 485.042 -18.3229 -73.1330
  728 528.572 31.6799 17.5323
  729 440.943 -45.1204 22.5916
  730 317.123 -7.52373 8.93393
  731 317.118 -7.62676 -8.97400
  732 407.057 211.941 -216.859
  733 449.686 -29.8174 -23.6942
  734 342.617 1.90153 -6.22635
  735 397.168 2.24767 28.5478
  736 434.206 -21.7909 30.4663
  737 416.183 -35.0729 4.97553
  738 431.709 -39.4457 -59.9613
  739 413.692 -32.7340 -5.79652
  740 487.281 -23.3155 -3.37860
  741 448.972 -3.80903 5.26660
  742 401.951 -24.1435 2.69733
  743 724.914 144.858 -77.7598
  744 428.133 -11.5696 10.0261
  745 424.751 6.98102 -43.1326
  746 361.377 -3.95979 124.665
  747 454.519 36.5646 43.8295
  748 391.054 -30.7435 5.23651
  749 303.313 -23.7640 -41.9955
  750 303.352 -23.7021 41.6668
  751 416.814 46.8870 -6.02477
  752 423.169 -4.91657 38.3720
  753 427.463 -10.2104 -32.5586
  754 402.401 -24.6435 -2.81697
  755 389.212 -34.8271 11.1152
  756 445.295 73.3312 -8.16414
  757 415.678 -35.9796 -3.33989
  758 416.744 -26.4069 11.1071
  759 421.850 -5.56574 1.63885
  760 422.099 -5.42097 -1.62492
  761 567.315 124.161 1.82108
  762 463.367 -39.4678 -15.6448
  763 432.164 -13.3198 19.8083
  764 449.088 -3.80251 -4.77230
  765 454.903 2.99012 -44.3209
  766 516.545 27.4098 -24.6572
  767 257.514 -0.220453 -3.79369
  768 257.682 -0.216939 3.75763
  769 3.84261 -7.43805 -5.20680
  770 441.260 -0.556119 8.11504
  771 405.885 -0.609864 -31.5115
  772 418.720 -3.92734 27.6512
  773 379.628 48.0963 182.127
  774 476.411 97.6278 -0.986829
  775 339.584 -24.1652 22.4695
  776 61.5056 1.30175 -23.0654
  777 63.1793 0.951651 23.3075
  778 415.147 -2.94747 -31.2518
  779 340.471 -24.4010 -22.4696
  780 446.467 -4.17676 3.94901
  781 231.362 -9.78493 39.5038
  782 229.422 -9.74892 -39.5106
  783 428.097 -11.2388 -9.76067
  784 276.313 -6.86019 -18.4251
  785 276.451 -6.81660 18.2697
  786 445.582 -4.31130 -11.8297
  787 342.244 -9.07407 -6.30042
  788 342.258 -9.01707 6.30318
  789 486.237 -3.05598 -29.6150
  790 438.705 -4.62135 -44.1749
  791 226.358 -1.41267 -10.2745
  792 226.780 -1.39944 10.1597
  793 12.3843 5.62179 -14.2054
  794 14.3208 5.93525 14.9309
  795 358.327 1.75422 -11.2446
  796 400.408 -44.9839 -24.6503
  797 -4.53674 -3.11336 7.89716
  798 -4.00248 -3.72345 -7.88282
  799 416.575 -8.47573 3.56699
  800 451.322 -35.2935 -12.6814
  801 467.122 69.1273 -33.0746
  802 448.313 -3.76560 -3.75878
  803 945.973 192.187 -177.650
  804 416.487 -8.45089 -3.51855
  805 625.176 118.755 10.1683
  806 446.276 12.9804 -46.1217
  807 492.041 37.1906 -39.6273
  808 85.3613 -0.996176 -21.2350
  809 86.8435 -1.11767 21.1989
  810 281.058 -3.97531 10.9652
  811 280.957 -4.00766 -11.0573
  812 269.153 -0.603002 2.06206
  813 269.066 -0.609419 -2.07752
  814 498.077 83.7825 -30.3013
  815 297.354 -1.79428 -3.07129
  816 297.410 -1.77393 3.05544
  817 424.456 -4.27295 -40.0742
  818 607.007 64.1732 55.2537
  819 383.550 8.67685 -24.6912
  820 135.025 -1.19091 22.6678
  821 133.941 -1.20211 -22.8398
  822 489.803 14.2270 131.268
  823 436.170 -8.13250 9.36840
  824 392.491 26.1462 -10.2805
  825 183.759 -0.269228 15.4006
  826 182.863 -0.185160 -15.5095
  827 274.460 -1.34896 -5.39206
  828 274.562 -1.32959 5.34537
  829 49.5422 43.9520 38.5618
  830 408.549 9.80334 36.5911
  831 453.893 66.5979 -28.4712
  832 487.381 56.6013 -39.6175
  833 322.289 -12.0550 -14.2325
  834 322.111 -11.9687 14.2175
  835 505.240 107.170 13.6302
  836 435.026 -3.78342 -0.469054
  837 435.056 -3.75559 0.540487
  838 431.416 -13.0144 -25.7163
  839 362.322 -24.0368 13.4207
  840 398.017 -44.7151 24.7372
  841 466.205 -38.1936 38.3359
  842 359.353 -10.3880 -3.90532
  843 359.352 -10.3516 3.88196
  844 411.224 38.1588 16.6614
  845 386.951 5.37035 -26.6432
  846 107.431 129.964 123.968
  847 390.405 -34.5393 -10.1641
  848 391.788 -17.5037 0.0646311
  849 391.995 -17.5439 -0.0880609
  850 430.965 -6.37626 42.0365
  851 426.827 -28.0930 -18.4778
  852 381.880 -25.2138 -5.88766
  853 858.163 27.7738 -42.1114
  854 363.216 -34.2588 25.6480
  855 362.916 -34.6976 -26.0474
  856 430.340 -5.18443 21.2038
  857 644.274 167.089 -39.5968
  858 341.221 -30.8632 -31.7205
  859 376.149 -42.2939 30.4477
  860 341.147 -30.4970 31.4504
  861 369.636 -14.8310 -4.57481
  862 369.631 -14.7844 4.54546
  863 55.9247 23.4081 33.4588
  864 462.383 34.5380 -44.2221
  865 355.089 -13.7832 -6.95872
  866 355.157 -13.6475 6.98224
  867 350.906 -5.78884 -0.848500
  868 350.902 -5.75077 0.843404
  869 384.920 -7.71370 -0.333150
  870 384.875 -7.66547 0.329859
  871 314.706 -6.07168 -7.70979
  872 314.735 -6.00510 7.68001
  873 356.334 -18.6381 -10.3721
  874 356.383 -18.5161 10.4178
  875 8.88203 -2.04950 -4.85988
  876 534.667 100.350 21.6587
  877 460.171 -16.2014 -34.7861
  878 375.819 -41.6772 -30.7530
  879 405.641 -13.1332 3.08353
  880 405.465 -13.0024 -2.97653
  881 442.436 0.518956 45.1448
  882 479.032 -34.1563 -22.1169
  883 423.165 31.0382 -158.262
  884 195.372 -3.33302 78.6351
  885 -6.25610 4.55426 -5.70598
  886 -5.33362 5.14545 6.27381
  887 55.5965 24.8920 -34.1742
  888 431.857 -12.5146 15.4632
  889 453.512 -3.08212 -6.47746
  890 408.209 -39.3603 68.5447
  891 194.915 -3.13976 -78.9378
  892 454.886 -37.3279 8.28668
  893 504.736 -14.4449 60.3711
  894 370.912 1.52257 11.9098
  895 423.448 40.2902 28.3111
  896 230.686 -12.9500 57.6866
  897 229.807 -13.0539 -58.0547
  898 276.518 -13.0218 -32.3979
  899 288.665 -14.3186 -100.083
  900 455.619 -10.7239 39.4271
  901 623.223 147.444 25.4523
  902 457.805 17.5685 45.0969
  903 432.691 -9.30225 -23.5203
  904 294.641 -12.8267 102.558
  905 550.282 101.683 -15.0859
  906 55.8183 47.2022 -47.3894
  907 401.369 -0.781123 -12.6683
  908 276.805 -12.9167 32.1218
  909 336.422 -7.35121 5.52972
  910 336.408 -7.39956 -5.54066
  911 427.436 -27.9416 19.1217
  912 442.781 -2.98278 1.45603
  913 326.456 2.90416 -124.166
  914 466.346 -1.08753 3.05856
  915 463.136 -0.900949 -3.94744
  916 350.465 3.09404 -10.3588
  917 448.480 -1.85120 -7.17331
  918 337.318 -15.6531 -13.2694
  919 337.544 -15.4230 13.3119
  920 -10.7242 4.20355 -6.12105
  921 -14.9640 2.53664 6.54733
  922 442.761 -2.78010 -1.49036
  923 149.289 -3.42342 53.1032
  924 148.430 -3.11371 -53.3960
  925 474.578 69.1256 34.8277
  926 838.379 15.1810 12.9640
  927 447.174 49.6814 36.9542
  928 503.625 -17.5137 18.5783
  929 439.369 -24.5246 30.5933
  930 546.545 114.404 -11.5208
  931 343.260 1.53672 7.81330
  932 422.569 -10.0607 -5.86962
  933 439.997 23.6664 -44.7492
  934 528.820 16.0631 -6.28084
  935 412.300 -25.4788 -8.50124
  936 214.063 -1.15976 -11.4838
  937 214.270 -1.11846 11.3258
  938 434.716 -10.3071 -18.2222
  939 15.0576 18.9120 4.54097
  940 417.352 -43.2785 -5.72242
  941 364.598 10.9236 -1.06699
  942 543.107 119.015 -7.63723
  943 87.1578 64.7308 -77.8877
  944 418.739 -3.12404 -24.7758
  945 292.442 -4.78917 -10.2796
  946 292.502 -4.73384 10.1979
  947 2.69212 -11.7009 8.83681
  948 285.772 -21.1413 -46.4810
  949 425.252 -24.6322 -17.9826
  950 268.379 0.579499 -0.861781
  951 268.451 0.582026 0.856413
  952 430.757 52.2498 -22.6253
  953 458.804 -1.49264 -0.615333
  954 458.826 -1.50990 0.814742
  955 285.908 -21.0867 46.1786
  956 430.866 -0.629548 -9.74696
  957 494.132 3.60422 28.3795
  958 438.621 -6.32119 7.18792
  959 71.8557 17.8624 -41.9476
  960 454.379 -2.86483 5.85395
  961 414.462 3.38854 39.0986
  962 437.049 60.4629 20.1200
  963 436.622 5.06051 -45.7184
  964 302.507 -16.0650 -27.9328
  965 469.928 -16.7249 28.5934
  966 302.706 -16.0063 27.6625
  967 14.4235 15.5118 -2.04315
  968 53.2162 8.87644 30.7714
  969 248.240 -4.30769 19.0634
  970 247.944 -4.30968 -19.1653
  971 422.869 -10.2443 6.20933
  972 455.970 79.1185 11.0685
  973 232.584 21.0908 -117.800
  974 381.190 -23.7338 5.20868
  975 357.866 -37.3376 -38.1816
  976 520.327 99.5755 23.0335
  977 400.727 -7.16610 0.319014
  978 400.709 -7.12874 -0.322443
  979 438.353 -8.21865 -12.9688
  980 407.475 35.2446 -15.3655
  981 904.489 271.132 182.614
  982 86.7538 4.71857 -40.1769
  983 88.0436 3.91713 40.2596
  984 6.45868 -7.02388 2.72735
  985 408.543 22.7137 31.5406
  986 357.791 -37.5684 37.9099
  987 442.438 -20.9605 -35.0208
  988 481.208 39.3095 43.2866
  989 461.272 -37.2524 -46.6744
  990 672.678 141.408 47.8752
  991 393.594 -6.45060 -0.269071
  992 393.543 -6.39947 0.269076
  993 459.723 -18.8226 32.8935
  994 32.1919 55.7306 56.4720
  995 210.157 -4.34340 27.2558
  996 209.524 -4.28737 -27.5354
  997 249.845 -12.0980 37.3341
  998 249.003 -11.9097 -37.4659
  999 281.014 -11.4593 26.9122
  1000 307.227 -2.37459 -1.37759
  1001 307.275 -2.35736 1.37230
  1002 750.694 243.034 -156.079
  1003 684.685 171.751 72.0750
  1004 280.787 -11.5154 -27.1285
  1005 473.434 -2.22919 36.3651
  1006 425.433 44.1482 -27.2303
  1007 300.634 -25.9465 83.0347
  1008 384.999 -45.5059 -45.3510
  1009 439.803 -3.66830 -14.1821
  1010 199.906 13.4707 96.0789
  1011 256.429 -19.5620 66.3304
  1012 391.045 20.1508 -19.7944
  1013 444.956 -8.86089 -42.6306
  1014 558.276 235.370 246.659
  1015 370.071 11.4344 14.1284
  1016 500.489 107.415 -1.65367
  1017 366.430 14.6098 -140.958
  1018 374.223 -39.2963 -26.3537
  1019 472.033 -0.585296 -1.50446
  1020 455.574 41.8206 -42.6763
  1021 270.038 -1.68628 6.90344
  1022 269.910 -1.70327 -6.96481
  1023 10.0531 6.87111 -15.0729
  1024 302.848 -13.6841 -23.3172
  1025 256.112 -19.8126 -66.8143
  1026 302.630 -13.6564 23.0719
  1027 435.122 -13.2929 39.4343
  1028 390.666 -24.1044 -1.77584
  1029 411.151 7.61200 -37.9139
  1030 423.159 52.8318 7.95283
  1031 568.427 35.4946 23.2900
  1032 430.658 -32.7607 18.0349
  1033 274.310 -21.8118 -50.8556
  1034 407.848 14.5032 -35.5395
  1035 303.166 -25.6087 -83.4504
  1036 579.548 125.273 -2.77290
  1037 396.923 26.1464 18.0084
  1038 497.708 -2.83264 -21.2077
  1039 376.537 -39.3199 24.3622
  1040 431.025 -13.7206 30.3557
  1041 428.010 -22.6464 21.3788
  1042 425.656 -21.4600 18.4176
  1043 524.606 66.8451 -30.5042
  1044 425.692 -6.89706 31.0630
  1045 384.413 -45.6325 44.6260
  1046 410.300 -16.8235 5.58414
  1047 274.485 -21.8561 50.5864
  1048 385.750 -28.3436 -6.29419
  1049 225.824 -11.0193 -70.9249
  1050 320.592 -33.2261 56.4681
  1051 433.205 -2.99029 -16.5336
  1052 422.473 -4.77976 -35.4162
  1053 366.239 -28.8551 -16.3195
  1054 226.207 -11.3280 70.3878
  1055 395.147 1.00269 -24.8088
  1056 294.676 -19.3965 -36.0914
  1057 529.855 112.476 14.3227
  1058 119.992 19.5535 -67.8738
  1059 893.728 63.0936 85.4403
  1060 213.839 15.6619 -100.504
  1061 425.481 -35.2758 -10.4986
  1062 294.762 -19.2345 35.8084
  1063 391.122 4.21712 27.7951
  1064 221.430 -4.41721 22.5716
  1065 221.323 -4.52568 -22.7938
  1066 431.179 -12.0328 -36.5898
  1067 456.712 -2.42293 2.30539
  1068 448.821 -1.05429 7.23501
  1069 444.797 14.7352 46.0518
  1070 416.705 -3.13436 33.3289
  1071 322.015 34.5341 152.365
  1072 474.926 -0.413149 0.705091
  1073 448.288 60.6651 29.4020
  1074 381.007 5.60517 23.9830
  1075 454.188 -1.77916 6.92429
  1076 295.282 -3.08719 -5.78119
  1077 295.338 -3.05241 5.74618
  1078 188.941 -5.29377 -37.6742
  1079 189.657 -5.48496 37.4296
  1080 382.244 19.1776 10.0777
  1081 569.923 31.6653 -44.3015
  1082 523.770 0.158910 -81.3694
  1083 420.911 -0.391013 -10.1422
  1084 320.691 -33.4719 -56.8857
  1085 367.012 -27.4463 14.6744
  1086 423.260 -0.984033 10.5796
  1087 442.083 -32.1408 -21.3977
  1088 279.365 -0.598022 3.42505
  1089 279.290 -0.608917 -3.44509
  1090 424.677 -36.2854 10.4888
  1091 403.885 -8.35083 0.858135
  1092 403.816 -8.35995 -0.833848
  1093 393.142 -39.5440 15.8781
  1094 504.524 -16.1664 -7.53335
  1095 232.461 -0.399606 -6.40518
  1096 232.828 -0.385673 6.34023
  1097 344.983 -21.9558 -95.6198
  1098 367.850 -8.77197 2.20408
  1099 367.882 -8.81824 -2.22130
  1100 221.955 120.374 167.458
  1101 507.638 41.7785 -34.8453
  1102 76.2253 36.7766 -51.7730
  1103 438.842 -6.66129 -6.93962
  1104 118.882 40.3942 -77.8784
  1105 246.512 -15.3953 -48.2317
  1106 474.925 -0.583051 0.460288
  1107 475.093 -0.550863 -0.335075
  1108 432.317 -24.7340 -26.0942
  1109 382.747 -43.0304 -61.9268
  1110 120.080 16.6465 64.6759
  1111 470.503 46.5354 41.3199
  1112 426.384 -4.44963 -0.583221
  1113 426.436 -4.45215 0.622078
  1114 464.595 -29.7320 75.2105
  1115 482.290 96.3006 15.8037
  1116 288.500 -6.83909 -14.6665
  1117 288.576 -6.80828 14.5680
  1118 218.237 24.7591 118.947
  1119 410.113 2.12347 -36.6647
  1120 129.637 41.4751 83.6322
  1121 523.017 -8.61750 -26.7900
  1122 516.299 113.677 4.67443
  1123 355.890 -28.0285 19.6426
  1124 330.907 1.82602 -1.52421
  1125 449.721 -4.03500 8.76908
  1126 465.082 -0.640575 3.40961
  1127 104.852 0.170843 -19.0095
  1128 106.210 0.122345 18.8844
  1129 369.515 6.27427 -17.7854
  1130 379.161 -11.1482 -1.79307
  1131 379.079 -11.0992 1.78419
  1132 40.2454 66.0965 -60.1595
  1133 63.5629 141.797 -118.944
  1134 383.885 -14.9814 1.62367
  1135 384.027 -14.9766 -1.64690
  1136 396.350 -9.60787 0.853763
  1137 396.294 -9.58972 -0.822475
  1138 104.993 66.9243 84.3385
  1139 314.715 -3.82312 -2.81540
  1140 314.755 -3.79628 2.80299
  1141 394.924 29.9294 -0.412260
  1142 497.699 64.9292 -175.662
  1143 479.976 82.6274 -27.1005
  1144 437.636 -16.8471 -37.1585
  1145 431.024 -21.5521 -26.5834
  1146 356.081 -28.2860 -19.9625
  1147 359.914 1.21302 10.9785
  1148 403.495 25.2250 -26.3762
  1149 398.010 21.4790 25.2169
  1150 410.036 -16.3402 -5.47415
  1151 391.650 -23.6250 1.47879
  1152 356.679 -22.9325 -14.8578
  1153 424.044 -2.51437 19.7002
  1154 743.007 74.9148 10.4128
  1155 426.798 -9.12648 35.8694
  1156 428.683 28.1503 39.4950
  1157 394.966 -38.8176 -12.1800
  1158 50.5113 8.14935 -29.6947
  1159 402.365 -18.6334 -3.61985
  1160 270.282 -0.393987 -0.177830
  1161 270.348 -0.392278 0.176075
  1162 488.868 -12.9713 17.8837
  1163 465.798 -39.2518 18.4821
  1164 667.935 119.335 29.7150
  1165 163.043 -0.311128 -15.7894
  1166 163.978 -0.276394 15.6751
  1167 360.143 -7.27990 -1.76458
  1168 360.127 -7.23626 1.75277
  1169 403.561 -35.5737 -2.21748
  1170 333.791 1.55403 4.99525
  1171 413.201 -29.4265 7.94989
  1172 23.9121 28.4066 -14.3546
  1173 75.4039 37.2989 50.6071
  1174 277.348 -15.2006 92.3937
  1175 478.284 90.9125 -19.3620
  1176 455.805 -1.29386 -5.47381
  1177 476.891 -0.796023 0.294953
  1178 477.330 -1.07192 -0.178652
  1179 280.872 -0.627328 -0.572842
  1180 280.937 -0.622269 0.568862
  1181 440.858 28.1698 44.7356
  1182 649.174 110.564 -2.35650
  1183 454.410 75.0083 -19.8599
  1184 339.468 -25.0685 95.0131
  1185 275.877 -14.6285 -92.2133
  1186 307.193 -20.4228 -32.4233
  1187 423.146 -11.9144 8.00491
  1188 589.342 130.118 6.86271
  1189 307.226 -20.3043 32.1779
  1190 432.108 -7.66416 6.05556
  1191 387.847 14.4931 24.0817
  1192 426.338 13.2261 43.0555
  1193 604.867 134.984 15.8607
  1194 360.804 -9.39432 3.27516
  1195 360.820 -9.43763 -3.29645
  1196 437.823 -8.31889 13.4773
  1197 262.367 -2.75010 10.7903
  1198 262.183 -2.77761 -10.8839
  1199 428.165 -5.94619 -2.61677
  1200 176.958 105.749 -162.187
  1201 370.830 -20.9568 -101.758
  1202 351.109 -10.9502 -5.92907
  1203 351.146 -10.9024 5.93131
  1204 458.497 -2.25545 2.10668
  1205 434.581 -5.81149 4.83129
  1206 24.2391 30.8205 22.8642
  1207 471.849 -0.566934 1.76260
  1208 56.9450 72.7235 72.1446
  1209 424.640 -6.46011 -3.38372
  1210 -0.466937 -10.3222 -9.05850
  1211 301.370 -29.4235 -71.5832
  1212 300.561 -28.7129 70.8785
  1213 471.829 -0.864917 -1.95671
  1214 404.885 -21.3701 -4.38916
  1215 458.197 -2.06779 -2.14088
  1216 368.541 -11.9028 -3.24512
  1217 368.507 -11.8614 3.21244
  1218 427.894 -5.90607 2.45066
  1219 402.078 -18.2663 3.58216
  1220 387.124 -12.4744 0.490867
  1221 387.258 -12.5061 -0.446174
  1222 457.782 -2.13042 -1.74244
  1223 395.853 -41.7457 -69.7565
  1224 448.152 -2.88911 -1.76167
  1225 426.422 -6.63565 3.66026
  1226 299.947 -3.22017 -4.30584
  1227 300.000 -3.18906 4.28214
  1228 334.126 -4.87379 -2.25214
  1229 334.145 -4.84128 2.24166
  1230 537.970 84.0581 25.2287
  1231 452.324 -34.8272 15.4382
  1232 310.784 -1.52981 117.296
  1233 251.668 -0.401561 4.14500
  1234 251.458 -0.405990 -4.18463
  1235 429.289 -7.96571 26.8803
  1236 410.602 -6.31952 0.618917
  1237 410.618 -6.29903 -0.618579
  1238 470.772 91.4225 9.07266
  1239 429.874 -45.0548 55.5909
  1240 251.756 -3.49913 15.1035
  1241 251.511 -3.52490 -15.2099
  1242 410.058 -10.0832 2.76551
  1243 409.966 -10.1538 -2.67496
  1244 422.915 -11.7732 -7.70029
  1245 390.384 0.0898006 12.8368
  1246 669.471 166.467 -56.4858
  1247 430.914 -15.8273 -23.5140
  1248 75.1268 17.6404 43.1040
  1249 445.019 -23.7738 32.5003
  1250 359.821 7.96421 -9.73420
  1251 28.1051 20.2993 15.9399
  1252 584.125 65.9222 -7.64062
  1253 434.800 -19.8177 -33.0251
  1254 361.498 5.22100 14.9163
  1255 248.220 -15.4233 48.1600
  1256 441.402 -34.2206 18.9480
  1257 638.014 123.648 41.2659
  1258 149.628 21.8808 82.1997
  1259 443.395 -5.36426 -11.6244
  1260 845.065 9.49199 -8.44959
  1261 872.636 13.0725 37.5796
  1262 930.992 31.4710 -89.4644
  1263 430.512 -13.4896 -29.4772
  1264 430.373 -19.6959 24.8742
  1265 437.111 -31.1621 22.8763
  1266 -12.8239 1.52128 8.09691
  1267 -11.6557 1.23016 -8.83116
  1268 425.218 -47.0440 -26.5173
  1269 435.368 -44.0738 -39.2800
  1270 336.123 2.18175 -6.16374
  1271 423.397 -47.8766 39.1442
  1272 452.582 -21.5172 -32.9407
  1273 9.34487 13.6981 1.95743
  1274 368.894 -6.75694 1.18878
  1275 368.919 -6.80349 -1.19191
  1276 449.363 -3.69316 7.86795
  1277 432.069 -7.53054 -5.67661
  1278 407.270 -44.4565 -14.4590
  1279 372.682 -20.1080 6.59060
  1280 370.830 -19.8227 -7.11107
  1281 436.410 -9.29718 18.6715
  1282 447.295 -16.4802 -38.1699
  1283 29.1545 21.1636 -15.4950
</Section>

newXOutput 25

<Section columns = "stress_xx | stress_yy | stress_xy">
  1 499.081 -0.154700 0.942442
  2 499.087 -0.145546 -0.944962
  3 277.724 -0.0812028 -0.340380
  4 -3.49296 -3.45112 -5.02293
  5 887.157 359.813 286.004
  6 879.015 372.593 -284.908
  7 -4.05813 -3.27602 5.34919
  8 277.655 -0.0821792 0.339515
  9 502.467 -0.858196 0.278203
  10 501.476 -1.34744 -0.270130
  11 500.447 -0.920042 1.06381
  12 499.401 -1.24832 0.258806
  13 497.141 -1.05853 1.67411
  14 495.076 -1.06561 1.19742
  15 490.115 -0.939968 2.41587
  16 482.923 -0.684359 3.56994
  17 476.533 -0.710774 3.99744
  18 466.968 -0.963048 4.85809
  19 453.597 -0.101786 7.21571
  20 441.248 -0.708725 6.88764
  21 427.058 -0.902645 9.74198
  22 406.578 0.635000 8.50477
  23 391.654 0.986021 10.0790
  24 372.175 1.64496 7.90901
  25 358.654 1.76590 7.98443
  26 339.073 2.43696 4.07761
  27 334.926 3.83098 4.37880
  28 332.422 3.16091 -1.29605
  29 335.824 1.86639 -2.83641
  30 342.095 1.78853 -3.48201
  31 356.769 2.23727 -6.94266
  32 371.024 1.76817 -8.76236
  33 391.855 0.418235 -10.3765
  34 408.505 -0.203193 -9.41627
  35 426.180 -0.715598 -9.21906
  36 442.146 -0.555674 -6.48943
  37 455.794 -0.590953 -5.52707
  38 466.991 -0.944640 -4.61666
  39 476.970 -0.687243 -3.18665
  40 483.136 -0.829041 -3.36779
  41 489.098 -0.999162 -2.45516
  42 494.680 -1.17666 -1.03756
  43 497.526 -0.953618 -1.24679
  44 498.963 -0.607481 -0.762271
  45 497.730 -0.367657 -0.696836
  46 501.956 -1.35121 0.189196
  47 502.606 -0.890744 -0.286704
  48 486.802 -0.484681 -0.583814
  49 476.304 -2.17009 -1.07894
  50 463.420 -3.15585 -0.665353
  51 447.670 -4.60080 -0.922238
  52 432.686 -5.01011 -1.12487
  53 416.655 -6.19043 -1.07671
  54 402.432 -6.83831 -0.566689
  55 389.955 -7.58565 -0.172433
  56 375.545 -6.27799 -0.160258
  57 358.933 -5.83408 -0.320187
  58 342.932 -4.57448 -0.0522270
  59 327.782 -2.88641 0.00747678
  60 313.397 -2.03456 0.0646384
  61 300.802 -1.01415 0.165646
  62 287.951 -0.250096 -0.386713
  63 277.856 0.394383 0.526660
  64 273.297 1.06141 0.368160
  65 276.292 0.0222881 0.846778
  66 272.731 -0.126993 1.02709
  67 269.380 -0.197062 1.27871
  68 264.859 -0.00870221 1.65382
  69 259.162 -0.00336601 2.07419
  70 254.861 -0.306427 3.95869
  71 242.901 0.353973 4.31499
  72 234.426 -0.0138292 4.91859
  73 221.808 -0.206048 5.58547
  74 207.300 -0.354672 6.79201
  75 189.156 -0.0722581 8.24763
  76 167.038 0.109100 9.10607
  77 147.818 -0.178961 13.0196
  78 110.055 1.19571 12.3138
  79 84.1856 1.02986 13.0462
  80 53.0542 -0.250315 14.5085
  81 27.0712 2.36416 15.1398
  82 -2.57522 3.56300 9.19579
  83 -24.2913 3.62675 3.38991
  84 -24.0158 3.52931 -1.09111
  85 -23.2781 2.94682 -6.94384
  86 -13.7312 -0.893744 -6.65322
  87 -1.64601 -13.1809 -7.35572
  88 1.35735 -24.1983 -9.13122
  89 3.68549 -37.8363 -4.85790
  90 8.13352 -37.9104 0.892389
  91 17.1342 -6.44372 23.1895
  92 50.6867 82.2808 77.1414
  93 292.813 281.913 256.549
  94 1075.33 161.381 179.121
  95 970.583 23.0529 58.0980
  96 903.858 9.60956 17.7790
  97 879.249 8.18710 1.35863
  98 892.381 10.8620 -15.4354
  99 968.598 21.5293 -45.9970
  100 1137.55 77.8333 -153.773
  101 174.363 289.293 -215.049
  102 37.9369 60.2527 -64.1367
  103 18.7315 -4.56265 -24.6608
  104 7.61982 -37.7885 -4.60935
  105 2.21028 -28.6754 5.55505
  106 2.74131 -30.5309 7.89731
  107 0.150019 -11.3686 8.14985
  108 -14.3399 -0.557589 6.30035
  109 -24.0149 2.21240 6.04661
  110 -25.2998 4.28601 1.22435
  111 -25.0646 3.56596 -3.15706
  112 -4.33958 3.65138 -8.62692
  113 25.5238 2.38446 -14.4415
  114 51.4768 0.00266647 -14.2709
  115 82.5553 1.11309 -13.0722
  116 108.574 1.22660 -12.4057
  117 146.670 -0.184347 -13.1263
  118 166.056 0.120831 -9.19218
  119 188.297 -0.0691249 -8.34913
  120 206.862 -0.393994 -6.84072
  121 221.214 -0.194941 -5.59902
  122 233.974 0.00152657 -4.96823
  123 242.530 0.349803 -4.36087
  124 254.592 -0.309530 -3.99756
  125 258.945 -0.00537898 -2.09801
  126 264.692 -0.0106266 -1.67338
  127 269.252 -0.200253 -1.29420
  128 272.630 -0.129727 -1.03788
  129 276.208 0.0199565 -0.853656
  130 273.221 1.06025 -0.371339
  131 277.784 0.393800 -0.528659
  132 287.882 -0.252749 0.385692
  133 300.737 -1.02080 -0.168085
  134 313.340 -2.04914 -0.0674835
  135 327.739 -2.90666 -0.0102106
  136 342.906 -4.60369 0.0495139
  137 358.927 -5.87106 0.318046
  138 375.561 -6.32084 0.158048
  139 389.988 -7.63379 0.171425
  140 402.478 -6.88638 0.568277
  141 416.721 -6.23417 1.08164
  142 432.743 -5.04019 1.14259
  143 447.713 -4.62773 1.00764
  144 463.505 -2.99169 0.680094
  145 476.637 -2.11595 1.05497
  146 486.890 -0.560409 0.574781
  147 437.441 -41.1118 -1.51624
  148 437.065 -40.5558 1.67061
  149 460.334 66.0548 -21.8364
  150 489.255 28.8122 45.8312
  151 370.761 -35.7911 -82.5264
  152 373.791 -35.7359 79.9148
  153 361.721 -15.2336 10.2860
  154 361.747 -15.4420 -10.2919
  155 517.858 18.7207 -34.1760
  156 436.290 -15.7809 8.78917
  157 436.102 -15.4065 -8.68195
  158 563.895 125.334 5.10238
  159 447.367 -0.712103 -45.1653
  160 332.226 -25.9705 -37.1025
  161 332.246 -25.7579 36.7882
  162 447.945 -10.1769 40.5987
  163 426.777 31.2004 27.1196
  164 177.142 28.1407 -98.5513
  165 196.143 26.6864 103.801
  166 545.612 6.54770 2.04105
  167 448.716 -17.2788 -27.8631
  168 592.960 130.195 -0.597667
  169 404.644 -11.4558 -0.456199
  170 404.560 -11.4230 0.489367
  171 453.087 -5.64402 -3.80578
  172 454.466 -5.08985 3.27721
  173 320.100 -4.50108 -5.98932
  174 320.144 -4.45525 5.96048
  175 485.074 -12.3853 104.948
  176 413.456 17.2494 -29.2325
  177 271.072 -20.2264 -59.1840
  178 271.874 -20.0804 58.8126
  179 304.880 -9.85754 -19.4509
  180 304.913 -9.74621 19.3137
  181 450.821 -11.9211 23.6947
  182 410.182 -28.1116 -1.97123
  183 408.769 -27.9027 2.60529
  184 465.051 -45.0812 -9.49320
  185 467.513 -42.9494 3.73468
  186 641.559 151.164 -24.1347
  187 469.256 75.2039 20.3906
  188 469.437 28.8255 -46.3496
  189 483.147 -3.54099 -121.662
  190 465.131 -26.3459 -31.6568
  191 469.163 -18.8360 37.5686
  192 391.653 -44.4395 40.9535
  193 391.724 -44.1205 -40.8350
  194 420.169 5.40459 35.0624
  195 193.606 -4.83582 -72.4897
  196 194.067 -5.23519 72.0598
  197 721.901 107.870 15.7280
  198 440.764 -26.3036 16.8139
  199 456.775 -8.50116 -15.2990
  200 363.961 -8.84707 -4.76601
  201 363.970 -8.80406 4.75215
  202 439.601 -5.73149 -31.3531
  203 499.976 73.3268 -36.7685
  204 419.995 37.7965 -5.42832
  205 274.922 -9.60050 27.2166
  206 274.509 -9.62912 -27.4107
  207 463.138 -5.27700 8.23280
  208 452.516 8.51259 46.4840
  209 368.512 -26.6929 -18.3186
  210 366.100 -25.2701 18.7086
  211 532.175 78.9659 33.0469
  212 623.019 86.8017 17.1727
  213 43.5859 33.7106 -28.4184
  214 40.3430 31.1614 24.1951
  215 258.221 74.3054 172.637
  216 436.384 -29.0262 -12.5860
  217 464.731 -5.06634 -7.43140
  218 415.557 3.71771 -32.2989
  219 293.503 -2.84033 -8.64781
  220 293.599 -2.80865 8.57615
  221 393.514 -18.4145 -4.31112
  222 393.698 -18.5317 4.09004
  223 443.222 -6.00176 26.6209
  224 508.053 -29.3585 13.4252
  225 506.874 103.266 -10.5769
  226 397.497 -38.3118 -19.8333
  227 501.167 -8.74646 28.4355
  228 427.754 -7.31052 1.25715
  229 427.757 -7.25257 -1.25553
  230 394.648 -38.1316 20.5478
  231 451.413 -28.7033 25.6147
  232 630.520 83.2973 -43.0796
  233 141.924 84.4266 -125.937
  234 385.117 13.6465 7.00747
  235 454.457 40.0532 39.2123
  236 482.844 -3.42235 -40.7324
  237 451.619 -16.3052 -37.7938
  238 243.549 -7.73234 -33.9919
  239 244.371 -7.61716 33.8923
  240 452.230 -5.52740 -20.4607
  241 430.831 -11.0114 4.45500
  242 430.630 -10.9995 -4.29113
  243 92.6854 8.31785 -46.6114
  244 94.0998 7.28867 46.4488
  245 478.695 -41.9369 -38.7206
  246 473.365 -1.84248 1.06628
  247 473.843 -1.87606 -1.17997
  248 444.095 36.8351 -35.9605
  249 392.486 7.66035 21.2042
  250 807.889 129.348 86.9886
  251 800.956 91.1880 -54.2467
  252 585.070 125.673 -0.166028
  253 365.437 -17.7152 109.493
  254 335.733 -11.6279 -114.438
  255 385.901 -7.93082 -1.77383
  256 385.868 -7.88225 1.76224
  257 322.008 -8.49525 12.0183
  258 322.001 -8.61048 -12.1189
  259 462.842 -5.10107 12.4590
  260 449.562 -32.0665 -20.7828
  261 295.278 -0.506017 -2.04203
  262 295.348 -0.496968 2.03020
  263 443.941 -18.0597 -16.6460
  264 191.215 -6.20221 -47.2227
  265 192.012 -6.22151 46.8949
  266 449.621 -19.5578 30.0505
  267 344.118 -36.5219 66.4231
  268 344.960 -37.1743 -66.2182
  269 390.565 15.0832 -9.87021
  270 337.087 -5.08865 -4.04291
  271 337.119 -5.05514 4.02834
  272 423.020 -1.02349 25.8146
  273 504.147 92.0744 25.4404
  274 273.303 -3.25086 14.5452
  275 273.097 -3.27750 -14.6635
  276 461.340 -38.6087 13.8916
  277 427.059 -47.9950 -45.1939
  278 475.239 -2.43643 3.77317
  279 333.157 -19.5604 -25.4455
  280 332.603 -19.3452 25.3546
  281 581.318 63.8317 153.586
  282 278.685 -22.5350 79.0546
  283 448.477 62.9135 -2.31313
  284 563.455 62.8066 -20.2552
  285 426.453 -32.9733 4.15920
  286 427.436 -49.2991 40.8599
  287 279.500 -22.1746 -79.9196
  288 52.4451 64.7826 59.3813
  289 444.018 -18.1192 16.9593
  290 580.133 76.4787 15.0792
  291 478.835 -2.17755 -3.27230
  292 436.570 15.3309 -41.4018
  293 429.699 -24.3290 8.59155
  294 420.835 -35.4938 2.33147
  295 435.066 20.0129 39.9195
  296 459.174 -38.6115 -12.2579
  297 648.825 125.725 -11.6239
  298 429.584 -23.3898 -8.20779
  299 353.044 103.075 -210.520
  300 438.827 -46.5533 -10.0211
  301 435.765 -47.8283 14.9808
  302 321.959 -29.0094 -52.1520
  303 292.561 -1.06343 -4.42595
  304 292.646 -1.04483 4.39312
  305 322.108 -29.0357 51.8786
  306 464.733 -0.803814 -46.4549
  307 500.239 -20.7264 -18.1461
  308 382.936 -22.9540 -10.0436
  309 382.705 -23.0076 10.2213
  310 455.338 -39.1986 71.6597
  311 455.853 -3.72281 15.4821
  312 551.102 3.26732 27.1480
  313 375.460 -13.1832 -5.59982
  314 375.488 -13.1420 5.57116
  315 342.923 -8.81722 -8.01946
  316 342.929 -8.73671 8.00889
  317 388.568 5.31274 -20.5018
  318 495.090 36.2941 -44.3465
  319 759.953 205.701 -99.1416
  320 450.360 -4.14965 -1.24362
  321 450.116 -4.09571 1.28097
  322 243.254 -0.684818 98.6590
  323 340.997 -15.3073 -16.9828
  324 340.376 -15.2597 17.0276
  325 243.206 -1.26299 -98.2815
  326 472.810 55.7454 -38.0353
  327 527.103 26.2401 32.2640
  328 455.199 -32.4690 -79.4079
  329 420.206 -16.2698 3.42092
  330 419.788 -16.1559 -3.24376
  331 447.722 -9.43489 -7.89278
  332 423.299 -0.777885 -24.1349
  333 473.108 1.97436 45.3611
  334 470.931 -3.41468 -8.55221
  335 286.359 -17.2079 39.7185
  336 286.045 -17.3011 -40.0120
  337 441.014 -0.981878 42.9386
  338 275.135 -2.17022 -8.66081
  339 275.310 -2.15011 8.58599
  340 451.110 -10.5058 12.5983
  341 541.444 110.340 -18.1406
  342 447.521 -9.50089 8.20155
  343 478.024 59.9292 38.1251
  344 457.131 -8.55020 44.2466
  345 363.563 -6.76722 1.78118
  346 363.562 -6.80711 -1.79194
  347 433.505 -1.52532 -38.1292
  348 571.525 119.971 10.7611
  349 476.963 87.1786 0.792559
  350 291.855 33.8254 -146.236
  351 31.3847 13.2611 -20.6707
  352 34.2853 14.3570 22.1818
  353 -1.13224 3.56728 8.48216
  354 0.590450 2.12633 -8.88839
  355 826.154 57.3435 19.5255
  356 394.980 -31.9636 -11.9873
  357 451.433 -10.1614 -12.2863
  358 408.248 -7.28154 0.361673
  359 408.201 -7.22575 -0.364635
  360 437.959 48.3812 -19.4859
  361 373.254 -37.9137 33.7259
  362 33.4274 49.9368 -37.2061
  363 373.580 -37.8979 -34.3133
  364 443.553 50.4413 20.7322
  365 450.761 -12.1251 -22.5307
  366 477.588 -26.7318 -26.5400
  367 510.270 107.307 7.27407
  368 478.582 -29.9828 21.5442
  369 201.716 -4.93490 31.5986
  370 200.554 -4.83873 -31.7906
  371 114.902 2.69759 -44.1347
  372 116.055 2.25390 43.9423
  373 394.483 1.41507 20.7123
  374 737.634 217.177 86.8503
  375 465.492 -3.06364 -10.9883
  376 364.086 -30.5749 -25.9127
  377 363.807 -30.5039 25.8793
  378 448.383 -10.4192 -28.7994
  379 508.703 -24.5860 1.38865
  380 394.967 -31.9376 12.3248
  381 556.720 4.75428 -48.1967
  382 319.916 -2.49627 -1.60754
  383 319.967 -2.47535 1.59735
  384 441.521 -2.60695 -18.5135
  385 241.194 -3.39747 -20.5904
  386 241.337 -3.50865 20.3479
  387 525.968 67.2628 -36.9314
  388 285.206 20.0441 136.002
  389 412.777 -21.6555 1.01178
  390 413.177 -21.6200 -1.02900
  391 485.357 81.9236 -24.0251
  392 458.764 -13.6563 -41.7925
  393 458.762 -46.9644 39.9297
  394 384.580 -10.2019 -2.80153
  395 384.539 -10.1558 2.77750
  396 442.419 -34.1751 13.4853
  397 475.225 -2.38186 6.32911
  398 300.070 -10.7689 -24.2748
  399 300.192 -10.7717 24.0781
  400 450.329 15.1384 -45.8900
  401 424.288 -9.34432 1.86858
  402 424.267 -9.36790 -1.81599
  403 439.720 -5.21578 34.9144
  404 411.497 30.0950 9.40605
  405 455.029 -19.2963 36.3016
  406 655.025 136.715 25.5510
  407 222.333 -11.9367 -63.3776
  408 222.938 -11.9384 62.9123
  409 99.7784 53.0339 -76.5049
  410 485.217 -1.57752 1.68316
  411 251.492 -2.04842 -13.0431
  412 251.817 -2.00508 12.9365
  413 448.700 -11.7862 28.1597
  414 407.161 -44.1446 22.8240
  415 458.477 -5.89195 5.57240
  416 468.601 23.7657 47.6722
  417 104.438 56.4691 79.6318
  418 407.752 -43.8863 -21.0901
  419 421.206 -39.1166 -5.26846
  420 140.576 -2.80957 -39.8912
  421 141.580 -2.91091 39.6252
  422 324.101 -26.1073 -95.3240
  423 482.857 -7.28553 39.6709
  424 322.938 -26.4779 94.5100
  425 446.468 -25.1449 -23.0484
  426 417.043 28.2484 -20.5542
  427 446.522 -19.3952 21.9730
  428 478.794 -2.29153 -4.20328
  429 15.1052 16.4450 7.82468
  430 98.4771 114.638 112.647
  431 431.112 -1.57483 17.9193
  432 364.617 5.12724 9.01171
  433 370.658 6.21661 -12.2075
  434 316.244 -5.09699 -8.48224
  435 316.282 -5.03288 8.43098
  436 440.197 -34.1501 -12.2428
  437 445.418 -8.77096 -39.0007
  438 366.475 7.02703 -3.31471
  439 654.521 156.157 34.4432
  440 92.8148 30.3257 -57.4155
  441 102.132 27.8238 61.2310
  442 412.395 -14.7399 1.12125
  443 412.243 -14.7092 -1.01604
  444 549.275 120.747 -1.38089
  445 340.171 144.435 215.199
  446 526.404 -7.17229 -4.93976
  447 306.149 -15.7783 -32.9274
  448 306.297 -15.6735 32.6614
  449 308.697 -6.74517 13.1216
  450 308.635 -6.79317 -13.2330
  451 414.504 9.31261 -33.2932
  452 487.578 -0.832230 -1.10188
  453 403.498 18.6565 18.7514
  454 506.515 62.4863 40.5301
  455 422.083 -31.3153 -2.68702
  456 458.275 -5.62149 -5.42122
  457 480.691 -2.08928 3.86958
  458 486.147 -0.896528 0.627984
  459 486.511 -0.994638 -0.449866
  460 273.748 -0.450642 3.22643
  461 273.610 -0.457574 -3.25773
  462 461.107 -29.4006 27.8736
  463 418.405 16.6089 32.2506
  464 436.401 1.79887 -41.9370
  465 454.116 -9.72202 16.5996
  466 648.058 113.195 -130.533
  467 455.473 -25.3620 -31.5033
  468 5.31144 8.77546 4.11260
  469 5.23453 8.95335 -1.85523
  470 362.585 -20.3664 14.8403
  471 361.408 -20.0858 -14.6485
  472 562.315 11.7555 71.1954
  473 158.448 146.793 -164.139
  474 449.947 -1.42851 13.8253
  475 507.234 -29.3918 -41.2929
  476 274.257 -15.6248 45.9149
  477 545.427 96.8120 -26.1234
  478 448.963 -24.3929 26.2806
  479 378.328 -17.9648 -7.68672
  480 378.659 -17.6720 7.66868
  481 394.391 2.15929 -18.2793
  482 273.414 -15.5596 -46.1826
  483 403.969 0.245827 18.3455
  484 384.937 -44.0754 -59.6462
  485 383.986 -44.1425 59.8839
  486 463.001 -3.16943 12.1474
  487 423.313 39.9874 3.88515
  488 425.717 7.86023 147.798
  489 627.348 127.070 -0.793233
  490 434.225 -7.49746 2.35101
  491 434.245 -7.47137 -2.44839
  492 336.824 -5.86240 -5.46472
  493 336.852 -5.81525 5.44641
  494 178.556 7.96137 83.1645
  495 451.045 -21.8150 -30.9434
  496 409.517 -8.99929 -0.0213850
  497 409.476 -8.97016 0.0286633
  498 357.329 -37.7334 48.7910
  499 181.944 10.5555 -85.2457
  500 451.352 -36.8604 -14.0690
  501 8.16360 2.45026 2.86657
  502 397.689 20.6988 1.38071
  503 435.697 -5.24411 -0.756142
  504 435.691 -5.31167 0.735323
  505 357.515 -37.6625 -49.1597
  506 507.697 -25.8876 52.1047
  507 504.878 18.3391 40.9684
  508 465.222 -3.36580 -2.63450
  509 449.978 -37.3722 14.3027
  510 286.678 -0.230162 -0.594643
  511 286.749 -0.227724 0.590233
  512 449.790 -17.3509 -33.2026
  513 437.096 32.3774 35.1997
  514 498.777 12.3317 -40.4999
  515 284.932 -0.407151 -1.81947
  516 285.013 -0.401240 1.80798
  517 860.727 124.410 -110.901
  518 454.507 54.0666 30.9155
  519 465.604 -3.12482 2.33827
  520 422.118 -39.9848 6.29371
  521 356.755 -11.6748 8.27634
  522 356.747 -11.7608 -8.25947
  523 489.881 -29.9312 10.8464
  524 471.797 -9.50971 -42.0686
  525 527.779 103.690 22.3095
  526 440.154 7.60750 43.5091
  527 442.216 -8.68420 4.84798
  528 429.438 -45.9546 -57.7568
  529 446.637 -11.1324 32.8943
  530 849.981 39.0939 -15.4977
  531 486.187 -36.7363 1.34161
  532 462.339 -3.27924 -0.582168
  533 462.452 -3.47412 0.496474
  534 858.845 57.5973 54.1629
  535 429.502 -0.104448 37.0076
  536 596.889 101.238 -6.79132
  537 450.180 -12.3901 -16.0315
  538 207.807 -1.89464 -14.0718
  539 208.421 -1.80290 13.9337
  540 306.703 -28.6658 -66.2890
  541 306.962 -28.1870 65.8107
  542 441.969 -8.33649 -4.81122
  543 481.508 17.6498 -46.2169
  544 423.313 -28.7969 4.31423
  545 456.462 52.3048 -32.0413
  546 458.205 -5.45801 16.3398
  547 571.464 29.4523 -9.49145
  548 393.281 -13.4571 -2.63974
  549 393.168 -13.4147 2.61343
  550 426.234 -20.1631 6.22654
  551 624.754 124.972 -12.6381
  552 449.912 19.6925 45.1691
  553 193.277 49.6116 122.685
  554 432.229 -25.8912 99.4245
  555 567.712 29.2614 -109.985
  556 459.907 38.0257 -41.9580
  557 406.417 -35.2523 -86.3087
  558 440.402 -48.3374 -18.4737
  559 459.370 -46.6283 -26.4287
  560 61.3238 80.4283 -76.1437
  561 461.892 -6.02875 -9.82764
  562 692.245 134.408 -40.2556
  563 428.454 -19.3629 -7.09667
  564 431.840 -14.1628 5.86842
  565 431.444 -13.8481 -5.60650
  566 301.866 -1.65467 -4.03802
  567 301.935 -1.63337 4.01338
  568 44.6951 4.40384 -24.5322
  569 46.9993 4.62230 25.0873
  570 224.998 -10.3484 -48.2930
  571 226.666 -10.4066 48.2320
  572 437.806 -23.7958 -14.1611
  573 445.435 -48.5375 19.8854
  574 457.829 -43.5638 0.947241
  575 377.483 -6.67186 -1.53288
  576 377.464 -6.62681 1.52550
  577 357.240 -37.5454 -73.8340
  578 398.766 -32.8220 91.2179
  579 348.774 -35.3226 74.2256
  580 450.860 -10.0605 -41.8610
  581 286.060 -4.63810 14.6605
  582 285.919 -4.68555 -14.7748
  583 431.210 23.9132 -35.3828
  584 431.391 -0.760817 -16.2599
  585 537.332 116.154 -9.90481
  586 353.207 -5.27981 -1.46763
  587 353.220 -5.24647 1.46123
  588 458.344 -1.39919 -9.06553
  589 319.476 -10.6215 -16.3746
  590 319.491 -10.5869 16.2405
  591 259.848 11.7590 117.168
  592 446.095 -20.6144 -22.1957
  593 250.934 -13.3933 84.2649
  594 438.399 -22.7869 14.5069
  595 460.743 -6.67305 10.8857
  596 454.696 -4.37734 -2.30004
  597 323.463 -3.90364 -3.80054
  598 323.508 -3.87257 3.78269
  599 515.597 102.632 -20.2228
  600 250.750 -12.9071 -84.5641
  601 436.921 -19.0093 -11.4932
  602 395.115 -7.39214 -0.819795
  603 395.076 -7.34058 0.816653
  604 734.392 98.6289 -17.6231
  605 265.788 -1.64950 8.06091
  606 265.563 -1.66532 -8.13206
  607 409.776 9.49570 30.4056
  608 579.302 49.4175 -3.69363
  609 276.657 1.66272 -116.242
  610 143.597 3.44150 -63.7206
  611 144.747 2.64864 63.3858
  612 347.695 -20.1122 20.4441
  613 351.218 -20.7053 -19.8994
  614 587.102 118.513 7.98539
  615 452.901 -4.52925 2.05649
  616 392.709 11.1933 -18.3981
  617 486.641 87.2125 19.0113
  618 484.987 90.4869 -12.6476
  619 398.516 -22.0290 -4.21971
  620 401.481 -21.5443 2.81310
  621 285.138 62.4570 -166.580
  622 344.147 -11.6327 -11.4543
  623 344.180 -11.5028 11.4189
  624 856.728 175.550 132.302
  625 450.105 -14.8166 35.9429
  626 260.391 -9.06715 -30.9282
  627 690.699 164.975 112.316
  628 260.982 -9.01898 30.8192
  629 428.574 -16.2538 -115.799
  630 307.253 -1.43788 -1.48657
  631 307.314 -1.42553 1.47965
  632 379.245 3.48870 16.0582
  633 174.561 -2.54784 -27.7377
  634 175.482 -2.55465 27.5293
  635 393.463 -27.7573 9.37110
  636 412.136 -32.9560 -3.58648
  637 483.390 -1.13289 -3.58104
  638 278.189 -0.417158 2.40046
  639 278.080 -0.424799 -2.42339
  640 372.006 -8.35799 -2.43055
  641 371.995 -8.31375 2.41459
  642 424.427 -47.1951 58.3097
  643 488.583 54.5220 -41.8852
  644 327.385 -15.0950 -21.0829
  645 327.165 -14.8431 20.9376
  646 386.356 -27.6779 -12.6007
  647 605.603 131.493 5.07849
  648 455.179 -44.1209 1.51768
  649 396.570 -9.53816 -1.37646
  650 396.513 -9.49440 1.37586
  651 542.896 59.6566 30.3667
  652 456.374 -6.71266 -17.7538
  653 406.212 -0.452420 -14.9295
  654 189.743 -6.49314 -60.8253
  655 190.301 -6.66787 60.3468
  656 385.242 -33.1231 -19.7717
  657 575.949 126.261 0.110250
  658 448.564 60.6812 -13.9263
  659 300.225 -2.64742 -7.38170
  660 300.299 -2.61098 7.32683
  661 417.274 -11.8839 -1.30914
  662 417.354 -11.8936 1.39359
  663 769.951 100.361 44.3284
  664 490.010 -1.42360 0.928205
  665 474.818 -1.96789 6.22306
  666 473.094 -1.98914 -7.34438
  667 449.793 -41.9370 5.07152
  668 334.172 -3.81363 -1.89810
  669 334.208 -3.78750 1.89034
  670 481.810 77.0502 29.3511
  671 615.486 136.529 -9.65793
  672 339.603 -25.0530 -29.8621
  673 339.521 -24.8128 29.7209
  674 422.523 -43.5174 -10.3634
  675 446.776 26.5826 -42.5514
  676 527.202 1.51164 16.1562
  677 353.352 -6.50778 -3.86278
  678 353.367 -6.46795 3.84851
  679 305.635 -26.7145 -59.8423
  680 445.591 -43.1467 -1.00891
  681 371.287 -41.1587 53.7800
  682 178.685 56.1701 -118.449
  683 347.522 -32.0668 41.4954
  684 419.336 0.118279 13.7512
  685 305.926 -26.4150 59.4557
  686 436.673 -19.3690 11.6350
  687 347.616 -31.9279 -41.8574
  688 358.748 4.78461 3.37674
  689 277.725 -7.32647 22.0518
  690 277.482 -7.33225 -22.1976
  691 371.454 -42.2234 -54.3681
  692 458.110 -30.2620 -26.9251
  693 420.498 -6.05358 -0.363070
  694 420.565 -6.11300 0.364964
  695 467.960 -29.9116 26.5001
  696 425.691 -44.4838 12.0925
  697 516.557 47.4379 39.8152
  698 466.667 -8.81821 43.5046
  699 449.071 -16.2165 26.2247
  700 430.851 35.4892 -26.8414
  701 516.057 86.6555 31.5840
  702 445.924 -6.21784 -25.7964
  703 443.722 -14.8324 13.0601
  704 460.387 71.9455 7.51499
  705 451.712 -7.75085 22.3064
  706 143.402 97.8261 124.328
  707 420.155 -48.3687 -34.2932
  708 486.422 8.79725 44.0489
  709 490.559 -15.2246 -30.5488
  710 487.993 -0.745789 1.93685
  711 448.600 -15.5305 -20.4655
  712 420.803 -48.7459 31.2882
  713 805.884 71.4229 -11.9194
  714 255.165 -1.05014 8.43001
  715 254.870 -1.06140 -8.50516
  716 454.462 -8.42472 -9.31806
  717 490.795 -0.576408 -1.90050
  718 384.572 -33.6632 19.8724
  719 460.690 -17.2214 39.3621
  720 694.010 168.156 -55.3078
  721 436.678 -31.6830 11.5618
  722 483.135 -31.8932 -14.6259
  723 443.876 -14.4433 -12.8470
  724 490.364 -0.954435 -0.573877
  725 450.377 -0.0672687 45.6806
  726 21.2088 21.2318 27.3986
  727 504.592 -18.9968 -76.4513
  728 550.030 33.0359 17.7965
  729 458.962 -46.9779 23.8112
  730 330.622 -7.81747 9.35691
  731 330.617 -7.92410 -9.39820
  732 422.927 221.289 -225.872
  733 468.135 -31.0549 -24.3364
  734 357.392 2.00547 -6.45792
  735 413.863 2.35284 29.5746
  736 452.099 -22.7018 31.4283
  737 433.331 -36.5181 4.92897
  738 449.297 -41.0706 -62.6795
  739 430.751 -34.0835 -5.79399
  740 507.096 -24.2582 -3.14334
  741 467.269 -3.99278 5.39930
  742 418.569 -25.1380 2.61863
  743 753.903 150.641 -80.9639
  744 445.717 -12.0686 10.2795
  745 442.421 7.27835 -44.6565
  746 376.162 -4.10371 129.997
  747 473.328 38.0723 45.3400
  748 407.254 -32.0030 5.64704
  749 316.140 -24.7343 -43.8220
  750 316.183 -24.6706 43.4817
  751 434.287 48.8568 -6.23918
  752 440.744 -5.12419 39.7049
  753 445.158 -10.6403 -33.6593
  754 419.036 -25.6599 -2.74142
  755 405.332 -36.2532 11.7714
  756 463.859 76.3574 -8.44397
  757 432.808 -37.4628 -3.22659
  758 433.925 -27.5007 11.3322
  759 439.159 -5.82443 1.65607
  760 439.416 -5.67408 -1.64142
  761 590.549 129.164 1.70461
  762 482.235 -41.0865 -16.6136
  763 449.946 -13.8866 20.4136
  764 467.380 -3.98690 -4.88842
  765 473.648 3.10847 -45.8053
  766 537.570 28.5775 -25.2326
  767 268.830 -0.223676 -3.96055
  768 269.004 -0.220044 3.92334
  769 4.03553 -7.66212 -5.35320
  770 459.430 -0.587259 8.38303
  771 422.876 -0.624283 -32.6329
  772 436.137 -4.09198 28.6117
  773 394.933 50.2432 189.772
  774 496.191 101.611 -1.02033
  775 353.846 -25.1422 23.5146
  776 64.4975 1.34957 -24.0915
  777 66.2314 0.985269 24.3435
  778 432.446 -3.06821 -32.3480
  779 354.763 -25.3865 -23.5158
  780 464.658 -4.37798 4.03835
  781 241.406 -10.1854 41.1895
  782 239.391 -10.1476 -41.1943
  783 445.678 -11.7247 -10.0065
  784 288.238 -7.12633 -19.2251
  785 288.382 -7.08138 19.0646
  786 463.831 -4.51049 -12.1940
  787 356.668 -9.43575 -6.62462
  788 356.684 -9.37699 6.62761
  789 506.096 -3.17358 -30.4378
  790 456.842 -4.81659 -45.6877
  791 236.361 -1.46617 -10.7108
  792 236.799 -1.45243 10.5920
  793 13.1685 5.85888 -14.8788
  794 15.1771 6.18637 15.6359
  795 373.669 1.83657 -11.6565
  796 416.909 -46.8366 -25.8918
  797 -4.71036 -3.22773 8.21245
  798 -4.16031 -3.86942 -8.20406
  799 433.709 -8.84935 3.61592
  800 469.806 -36.7536 -12.8742
  801 486.470 71.9707 -34.1878
  802 466.565 -3.94907 -3.84500
  803 982.336 199.865 -184.467
  804 433.617 -8.82393 -3.56640
  805 650.563 123.492 10.6724
  806 464.731 13.5166 -47.7112
  807 512.212 38.7302 -40.8657
  808 89.4117 -1.04170 -22.1646
  809 90.9460 -1.16800 22.1274
  810 293.217 -4.12617 11.4504
  811 293.110 -4.15956 -11.5455
  812 280.959 -0.621421 2.15518
  813 280.868 -0.628057 -2.17111
  814 518.597 87.2183 -31.2367
  815 310.171 -1.85571 -3.21497
  816 310.230 -1.83472 3.19865
  817 442.081 -4.44976 -41.4702
  818 631.172 67.1170 58.0328
  819 399.776 9.06653 -25.5925
  820 141.184 -1.24041 23.6431
  821 140.063 -1.25212 -23.8212
  822 509.391 14.9776 136.889
  823 454.040 -8.49290 9.61666
  824 409.056 27.2711 -10.6546
  825 191.984 -0.275675 16.0528
  826 191.056 -0.188131 -16.1654
  827 286.417 -1.39469 -5.63422
  828 286.524 -1.37466 5.58607
  829 51.7698 45.8967 40.3947
  830 425.655 10.2274 37.9063
  831 472.753 69.3450 -29.4516
  832 507.437 58.9357 -40.8966
  833 335.953 -12.5329 -14.8924
  834 335.770 -12.4440 14.8776
  835 526.115 111.522 14.0264
  836 452.790 -3.97193 -0.474607
  837 452.821 -3.94282 0.548611
  838 449.205 -13.5677 -26.5459
  839 377.451 -25.0128 14.1128
  840 414.431 -46.5569 25.9764
  841 485.139 -39.7429 40.2235
  842 374.404 -10.8104 -4.14247
  843 374.403 -10.7732 4.11825
  844 428.480 39.7703 17.2643
  845 403.294 5.61488 -27.6112
  846 111.939 135.985 129.369
  847 406.569 -35.9529 -10.7828
  848 408.026 -18.2265 -0.0770969
  849 408.241 -18.2694 0.0523067
  850 448.816 -6.64553 43.4838
  851 444.405 -29.2594 -18.9684
  852 397.744 -26.2425 -6.29410
  853 891.533 28.8519 -43.6809
  854 378.341 -35.6584 26.8647
  855 378.026 -36.1138 -27.2801
  856 448.131 -5.40750 21.9166
  857 670.275 173.963 -41.6461
  858 355.508 -32.1208 -33.1611
  859 391.738 -44.0320 31.8908
  860 355.433 -31.7409 32.8808
  861 385.058 -15.4358 -4.86901
  862 385.053 -15.3881 4.83843
  863 58.4811 24.4046 35.0380
  864 481.474 35.9635 -45.7205
  865 369.975 -14.3403 -7.34039
  866 370.046 -14.1999 7.36490
  867 365.659 -6.02425 -0.896290
  868 365.656 -5.98502 0.891009
  869 400.904 -8.04436 -0.394391
  870 400.857 -7.99459 0.390838
  871 328.128 -6.30575 -8.07114
  872 328.158 -6.23693 8.04048
  873 371.253 -19.3900 -10.9140
  874 371.305 -19.2642 10.9622
  875 9.30441 -1.93608 -5.20172
  876 556.560 104.469 22.1655
  877 479.051 -16.8775 -35.8596
  878 391.390 -43.3892 -32.2071
  879 422.387 -13.6882 3.08081
  880 422.204 -13.5529 -2.97045
  881 460.724 0.534820 46.6932
  882 498.475 -35.5380 -23.3718
  883 440.198 32.4682 -164.954
  884 203.767 -3.50721 82.0466
  885 -6.33731 4.74962 -6.01652
  886 -5.38228 5.36714 6.60712
  887 58.1458 25.9511 -35.7901
  888 449.604 -13.0509 15.9120
  889 471.989 -3.23242 -6.65913
  890 424.905 -40.9886 71.5902
  891 203.292 -3.30821 -82.3602
  892 473.488 -38.8726 8.29551
  893 525.059 -14.9399 63.1878
  894 386.704 1.59245 12.3442
  895 441.144 41.9774 29.3240
  896 240.611 -13.4948 60.1585
  897 239.698 -13.6029 -60.5394
  898 288.373 -13.5449 -33.7943
  899 300.710 -14.9511 -104.387
  900 474.352 -11.1766 40.7036
  901 648.371 153.583 27.0001
  902 476.693 18.2879 46.6251
  903 450.534 -9.70117 -24.2897
  904 306.917 -13.3928 106.966
  905 572.740 105.883 -15.2846
  906 58.3234 49.2670 -49.6150
  907 418.213 -0.808929 -13.1169
  908 288.673 -13.4361 33.5088
  909 350.639 -7.64344 5.80984
  910 350.623 -7.69325 -5.82105
  911 445.036 -29.1014 19.6366
  912 460.822 -3.13839 1.47953
  913 339.898 3.00441 -129.464
  914 485.257 -1.14397 3.14307
  915 481.966 -0.949215 -4.06373
  916 365.525 3.23830 -10.7414
  917 466.871 -1.93268 -7.40681
  918 351.536 -16.2798 -13.9094
  919 351.770 -16.0415 13.9543
  920 -11.1086 4.39640 -6.33099
  921 -15.5327 2.65330 6.78499
  922 460.800 -2.92706 -1.51686
  923 155.892 -3.58306 55.4144
  924 155.003 -3.26171 -55.7178
  925 494.197 71.9626 35.9838
  926 871.040 15.7796 13.4350
  927 465.748 51.7353 38.2427
  928 524.010 -18.1791 19.7208
  929 457.454 -25.5472 31.5401
  930 568.947 119.069 -11.6794
  931 358.065 1.61854 8.10277
  932 439.930 -10.5001 -5.98404
  933 458.250 24.6509 -46.3159
  934 550.236 16.7973 -6.09218
  935 429.311 -26.5330 -8.63165
  936 223.557 -1.20285 -11.9682
  937 223.770 -1.15996 11.8044
  938 452.588 -10.7521 -18.7832
  939 15.7830 19.7880 4.86939
  940 434.522 -45.0615 -6.21763
  941 380.159 11.4187 -1.10621
  942 565.422 123.836 -7.73999
  943 90.9763 67.5480 -81.4098
  944 436.156 -3.25522 -25.6363
  945 305.033 -4.97076 -10.7409
  946 305.097 -4.91356 10.6566
  947 2.83753 -12.1451 9.15902
  948 297.914 -22.0068 -48.4832
  949 442.768 -25.6578 -18.4692
  950 280.181 0.605608 -0.901983
  951 280.257 0.608204 0.896458
  952 448.743 54.4274 -23.4262
  953 477.380 -1.58069 -0.631793
  954 477.405 -1.59838 0.838002
  955 298.056 -21.9507 48.1704
  956 448.698 -0.663549 -10.0778
  957 514.290 3.76084 29.1380
  958 456.563 -6.60845 7.36911
  959 75.1320 18.6037 -43.8697
  960 472.881 -3.00560 6.01520
  961 431.762 3.54067 40.4908
  962 455.281 62.9702 20.8308
  963 454.711 5.27123 -47.3092
  964 315.372 -16.7099 -29.1597
  965 489.157 -17.4228 29.3997
  966 315.580 -16.6495 28.8799
  967 15.1304 16.2352 -2.25974
  968 55.7271 9.24140 32.1874
  969 259.061 -4.47480 19.8785
  970 258.754 -4.47651 -19.9835
  971 440.243 -10.6902 6.33509
  972 474.947 82.3729 11.4477
  973 242.355 21.9342 -122.869
  974 397.031 -24.7034 5.58106
  975 372.749 -38.8712 -39.9183
  976 541.713 103.642 23.6626
  977 417.281 -7.48051 0.284781
  978 417.263 -7.44194 -0.288483
  979 456.326 -8.58047 -13.3478
  980 424.591 36.7395 -15.9207
  981 939.338 282.092 189.934
  982 90.7452 4.90272 -41.9666
  983 92.0807 4.06912 42.0516
  984 6.75741 -7.13283 2.95377
  985 425.673 23.6824 32.6806
  986 372.675 -39.1124 39.6362
  987 460.654 -21.8350 -36.1417
  988 500.988 40.9239 44.6981
  989 479.998 -38.7651 -48.8955
  990 699.786 147.080 49.9794
  991 409.891 -6.73394 -0.296184
  992 409.838 -6.68109 0.296129
  993 478.578 -19.6091 33.8923
  994 33.5869 58.5778 59.0773
  995 219.413 -4.51697 28.4128
  996 218.757 -4.45861 -28.7016
  997 260.634 -12.5880 38.9326
  998 259.758 -12.3913 -39.0682
  999 293.067 -11.9175 28.0816
  1000 320.405 -2.45926 -1.43967
  1001 320.455 -2.44152 1.43422
  1002 780.014 253.230 -162.812
  1003 712.222 178.694 75.2563
  1004 292.830 -11.9753 -28.3051
  1005 492.834 -2.32802 37.4827
  1006 443.206 45.9943 -28.1993
  1007 313.205 -27.0500 86.6157
  1008 400.876 -47.3873 -47.4237
  1009 457.898 -3.83198 -14.6470
  1010 208.422 13.9920 100.249
  1011 267.332 -20.3879 69.1869
  1012 407.550 21.0235 -20.5170
  1013 463.306 -9.23481 -44.0591
  1014 579.737 245.822 256.759
  1015 385.825 11.9441 14.6504
  1016 521.206 111.776 -1.70389
  1017 381.354 15.2482 -146.947
  1018 389.749 -40.9060 -27.6191
  1019 491.079 -0.625373 -1.54176
  1020 474.432 43.5486 -44.1445
  1021 281.813 -1.74540 7.20805
  1022 281.680 -1.76295 -7.27139
  1023 10.5213 7.47983 -15.8814
  1024 315.748 -14.2303 -24.3467
  1025 267.001 -20.6487 -69.6881
  1026 315.524 -14.2021 24.0931
  1027 453.097 -13.8514 40.7579
  1028 406.860 -25.0930 -2.02065
  1029 428.342 7.94152 -39.2705
  1030 440.872 55.0389 8.23636
  1031 591.236 37.1345 24.7376
  1032 448.377 -34.1177 18.4871
  1033 285.983 -22.7111 -53.0458
  1034 424.935 15.1264 -36.8202
  1035 315.828 -26.6995 -87.0449
  1036 603.261 130.298 -2.96954
  1037 413.646 27.2667 18.6659
  1038 517.976 -2.92748 -21.6727
  1039 392.156 -40.9320 25.5522
  1040 448.817 -14.3001 31.3520
  1041 445.639 -23.5907 22.0010
  1042 443.187 -22.3558 18.9346
  1043 546.029 69.6184 -31.3236
  1044 443.332 -7.19002 32.1252
  1045 400.274 -47.5189 46.6682
  1046 427.225 -17.5285 5.65085
  1047 286.166 -22.7579 52.7681
  1048 401.752 -29.5000 -6.73235
  1049 235.492 -11.5013 -73.9768
  1050 334.020 -34.6042 58.9315
  1051 451.094 -3.12515 -17.0873
  1052 440.016 -4.98079 -36.6461
  1053 381.501 -30.0292 -17.1449
  1054 235.891 -11.8214 73.4206
  1055 411.771 1.05416 -25.7004
  1056 307.203 -20.1826 -37.6620
  1057 551.653 117.037 14.6761
  1058 125.276 20.3472 -70.8864
  1059 928.338 65.5260 88.6335
  1060 222.908 16.2680 -104.849
  1061 442.991 -36.7334 -10.6543
  1062 307.294 -20.0148 37.3692
  1063 407.610 4.41151 28.8031
  1064 231.162 -4.59384 23.5311
  1065 231.052 -4.70648 -23.7612
  1066 449.005 -12.5379 -37.8249
  1067 475.246 -2.54882 2.35341
  1068 467.225 -1.10782 7.46799
  1069 463.202 15.3405 47.6452
  1070 434.059 -3.26425 34.4967
  1071 335.217 35.9935 158.822
  1072 494.064 -0.440897 0.718400
  1073 466.931 63.1710 30.4248
  1074 397.144 5.86079 24.8593
  1075 472.751 -1.86303 7.14289
  1076 308.006 -3.19916 -6.04640
  1077 308.066 -3.16322 6.01031
  1078 197.277 -5.51213 -39.2821
  1079 198.018 -5.71136 39.0297
  1080 398.438 20.0144 10.4482
  1081 592.721 33.1464 -46.5652
  1082 544.739 0.313663 -85.0410
  1083 438.416 -0.411092 -10.4923
  1084 334.120 -34.8597 -59.3654
  1085 382.306 -28.5635 15.4321
  1086 440.846 -1.02816 10.9439
  1087 460.242 -33.4750 -21.9603
  1088 291.537 -0.613447 3.57768
  1089 291.458 -0.624701 -3.59834
  1090 442.155 -37.7847 10.6436
  1091 420.555 -8.71480 0.825730
  1092 420.484 -8.72451 -0.800822
  1093 409.397 -41.1663 16.7422
  1094 524.954 -16.7928 -8.23613
  1095 242.737 -0.413805 -6.67816
  1096 243.117 -0.399375 6.61107
  1097 359.214 -22.8921 -99.7402
  1098 383.215 -9.13492 2.35376
  1099 383.248 -9.18252 -2.37171
  1100 231.094 125.558 174.561
  1101 528.384 43.5179 -35.8585
  1102 79.6308 38.3442 -54.1608
  1103 456.787 -6.96227 -7.11340
  1104 124.073 42.0747 -81.3429
  1105 257.113 -16.0297 -50.2978
  1106 494.037 -0.621115 0.473180
  1107 494.210 -0.587632 -0.343661
  1108 450.125 -25.7648 -26.8825
  1109 398.497 -44.8172 -64.6838
  1110 125.370 17.3224 67.5463
  1111 489.921 48.4500 42.7032
  1112 443.846 -4.66485 -0.591525
  1113 443.900 -4.66728 0.631668
  1114 483.382 -30.8971 78.5857
  1115 502.280 100.229 16.3135
  1116 300.913 -7.10444 -15.3162
  1117 300.993 -7.07277 15.2146
  1118 227.437 25.7602 124.074
  1119 427.255 2.22134 -37.9715
  1120 135.260 43.2080 87.3325
  1121 544.103 -8.89299 -28.2884
  1122 537.620 118.270 4.80313
  1123 370.761 -29.1666 20.5938
  1124 345.267 1.92082 -1.58087
  1125 468.093 -4.22025 9.02781
  1126 483.974 -0.679169 3.50827
  1127 109.765 0.174721 -19.8304
  1128 111.171 0.124441 19.7009
  1129 385.245 6.56418 -18.4393
  1130 394.936 -11.6102 -1.95428
  1131 394.851 -11.5598 1.94484
  1132 41.9936 69.5439 -62.9479
  1133 66.2368 148.624 -124.163
  1134 399.832 -15.5995 1.80937
  1135 399.979 -15.5937 -1.83395
  1136 412.750 -10.0174 0.806781
  1137 412.692 -9.99898 -0.774665
  1138 109.548 69.7980 88.1077
  1139 328.157 -3.96757 -2.95121
  1140 328.199 -3.93992 2.93843
  1141 411.582 31.2111 -0.426069
  1142 517.445 67.9576 -183.055
  1143 499.839 86.0158 -27.9791
  1144 455.685 -17.5518 -38.3822
  1145 448.786 -22.4532 -27.4074
  1146 370.955 -29.4336 -20.9276
  1147 375.318 1.27381 11.3820
  1148 420.448 26.3023 -27.3319
  1149 414.764 22.4017 26.1352
  1150 426.950 -17.0263 -5.53800
  1151 407.881 -24.5952 1.71005
  1152 371.596 -23.8597 -15.5978
  1153 441.640 -2.62372 20.3760
  1154 772.522 77.8709 10.8156
  1155 444.482 -9.51069 37.0957
  1156 446.541 29.3254 40.8973
  1157 411.293 -40.4086 -12.8965
  1158 52.9182 8.48245 -31.0649
  1159 418.997 -19.4078 -3.60454
  1160 282.160 -0.403369 -0.187502
  1161 282.230 -0.401603 0.185701
  1162 508.782 -13.4987 18.2269
  1163 484.758 -40.8568 19.5711
  1164 694.877 124.083 31.0021
  1165 170.419 -0.318749 -16.4602
  1166 171.386 -0.282579 16.3420
  1167 375.229 -7.57921 -1.87285
  1168 375.213 -7.53424 1.86058
  1169 420.228 -37.0346 -2.53191
  1170 348.258 1.63244 5.18200
  1171 430.246 -30.6414 8.04238
  1172 25.0228 29.7232 -15.1428
  1173 78.7642 38.8924 52.9365
  1174 288.979 -15.8695 96.3682
  1175 498.113 94.6298 -19.9929
  1176 474.424 -1.35432 -5.64770
  1177 496.072 -0.835825 0.299825
  1178 496.524 -1.12241 -0.179648
  1179 293.115 -0.642857 -0.600692
  1180 293.184 -0.637642 0.596600
  1181 459.151 29.3365 46.3041
  1182 675.422 114.943 -2.45184
  1183 473.314 78.0964 -20.5406
  1184 353.501 -26.1329 99.1088
  1185 287.448 -15.2765 -96.1789
  1186 320.210 -21.2479 -33.8481
  1187 440.540 -12.4268 8.18437
  1188 613.300 135.480 7.56154
  1189 320.247 -21.1255 33.5943
  1190 449.810 -8.00778 6.19089
  1191 404.232 15.1272 24.9625
  1192 444.081 13.7828 44.5811
  1193 629.474 140.447 16.8092
  1194 375.911 -9.77802 3.47243
  1195 375.927 -9.82251 -3.49453
  1196 455.781 -8.68603 13.8730
  1197 273.806 -2.85300 11.2609
  1198 273.615 -2.88144 -11.3575
  1199 445.703 -6.22052 -2.65488
  1200 184.364 110.256 -169.125
  1201 386.033 -21.8310 -106.150
  1202 365.855 -11.3909 -6.25087
  1203 365.895 -11.3418 6.25329
  1204 477.081 -2.37226 2.15611
  1205 452.361 -6.08076 4.93686
  1206 25.3446 32.3170 24.0269
  1207 490.923 -0.599671 1.80790
  1208 59.4416 76.0570 75.4473
  1209 442.059 -6.75504 -3.43763
  1210 -0.470313 -10.7245 -9.41530
  1211 313.998 -30.6608 -74.6752
  1212 313.161 -29.9214 73.9431
  1213 490.902 -0.908694 -2.00891
  1214 421.612 -22.2549 -4.38862
  1215 476.777 -2.17762 -2.18659
  1216 383.926 -12.3903 -3.46820
  1217 383.892 -12.3480 3.43421
  1218 445.422 -6.17910 2.48437
  1219 418.699 -19.0248 3.56705
  1220 403.190 -12.9953 0.615855
  1221 403.328 -13.0274 -0.569851
  1222 476.338 -2.24330 -1.77823
  1223 412.079 -43.4764 -72.8442
  1224 466.378 -3.03888 -1.79294
  1225 443.906 -6.93731 3.72431
  1226 312.849 -3.33738 -4.50886
  1227 312.904 -3.30526 4.48446
  1228 348.269 -5.06565 -2.37029
  1229 348.289 -5.03218 2.35947
  1230 559.926 87.5324 25.8291
  1231 470.844 -36.2708 15.7416
  1232 323.645 -1.61461 122.320
  1233 262.746 -0.412082 4.32631
  1234 262.529 -0.416662 -4.36721
  1235 447.037 -8.30497 27.7826
  1236 427.509 -6.60546 0.605175
  1237 427.524 -6.58432 -0.604856
  1238 490.324 95.1618 9.37408
  1239 447.416 -46.9065 58.1339
  1240 262.747 -3.63337 15.7520
  1241 262.493 -3.65993 -15.8619
  1242 426.959 -10.5181 2.77629
  1243 426.863 -10.5921 -2.68284
  1244 440.299 -12.2807 -7.86978
  1245 406.857 0.0966092 13.2964
  1246 696.453 173.203 -59.0353
  1247 448.667 -16.4954 -24.2484
  1248 78.5341 18.3744 45.0715
  1249 463.320 -24.7657 33.5087
  1250 375.210 8.32999 -10.0933
  1251 29.4562 21.1812 16.7545
  1252 607.612 68.7890 -8.48504
  1253 452.726 -20.6457 -34.0896
  1254 376.947 5.46492 15.4682
  1255 258.888 -16.0595 50.2260
  1256 459.524 -35.6390 19.4141
  1257 663.538 129.023 43.5751
  1258 156.103 22.7698 85.8161
  1259 461.550 -5.60985 -11.9699
  1260 877.945 9.87455 -8.76438
  1261 906.448 13.5678 38.9552
  1262 966.847 32.6257 -92.7806
  1263 448.284 -14.0601 -30.4439
  1264 448.103 -20.5215 25.6401
  1265 455.083 -32.4562 23.5100
  1266 -13.3424 1.59680 8.41344
  1267 -12.1225 1.29536 -9.18166
  1268 442.641 -48.9862 -27.8740
  1269 453.143 -45.8892 -41.1731
  1270 350.672 2.28723 -6.39296
  1271 440.730 -49.8495 41.0135
  1272 471.170 -22.4133 -33.9527
  1273 9.84852 14.3150 2.15038
  1274 384.299 -7.04054 1.24666
  1275 384.325 -7.08857 -1.24994
  1276 467.706 -3.86971 8.09114
  1277 449.766 -7.86897 -5.80017
  1278 424.049 -46.2858 -15.2949
  1279 388.209 -20.9265 6.99661
  1280 386.287 -20.6285 -7.53354
  1281 454.357 -9.69977 19.2586
  1282 465.706 -17.1697 -39.4084
  1283 30.5529 22.0829 -16.3019
</Section>

newXOutput 26

<Section columns = "stress_xx | stress_yy | stress_xy">
  1 518.231 -0.171905 0.972467
  2 518.236 -0.162157 -0.975000
  3 289.465 -0.0804318 -0.351065
  4 -3.63603 -3.59111 -5.22898
  5 918.929 374.296 296.835
  6 910.521 387.520 -295.522
  7 -4.22480 -3.40763 5.57041
  8 289.392 -0.0814363 0.350187
  9 521.723 -0.896255 0.285157
  10 520.708 -1.40506 -0.284710
  11 519.661 -0.964190 1.09299
  12 518.596 -1.30401 0.257692
  13 516.290 -1.10749 1.71965
  14 514.181 -1.11394 1.22495
  15 509.095 -0.982112 2.48410
  16 501.702 -0.722005 3.67277
  17 495.138 -0.746243 4.11707
  18 485.295 -1.00435 5.00824
  19 471.516 -0.112497 7.44501
  20 458.791 -0.738768 7.11190
  21 444.144 -0.936796 10.0662
  22 423.007 0.658168 8.79306
  23 407.586 1.02791 10.4252
  24 387.456 1.71135 8.18480
  25 373.474 1.84589 8.26485
  26 353.228 2.53943 4.22202
  27 348.937 3.99073 4.53545
  28 346.344 3.29739 -1.34305
  29 349.861 1.95495 -2.93652
  30 356.350 1.86779 -3.60563
  31 371.524 2.33205 -7.18757
  32 386.264 1.84335 -9.06734
  33 407.788 0.442089 -10.7351
  34 424.990 -0.207419 -9.73527
  35 443.237 -0.742110 -9.52554
  36 459.712 -0.579790 -6.70168
  37 473.782 -0.618552 -5.70368
  38 485.315 -0.985762 -4.76022
  39 495.585 -0.719651 -3.28013
  40 501.919 -0.870552 -3.46399
  41 508.044 -1.04488 -2.52408
  42 513.770 -1.22884 -1.05999
  43 516.685 -0.997184 -1.27859
  44 518.147 -0.639470 -0.778868
  45 516.859 -0.393336 -0.712293
  46 521.200 -1.40756 0.200901
  47 521.864 -0.929671 -0.293825
  48 505.570 -0.524234 -0.602533
  49 494.742 -2.28153 -1.11775
  50 481.441 -3.31169 -0.683267
  51 465.174 -4.81431 -0.948811
  52 449.690 -5.23785 -1.15424
  53 433.117 -6.45700 -1.10603
  54 418.408 -7.12399 -0.577433
  55 405.503 -7.89036 -0.169469
  56 390.597 -6.52676 -0.155797
  57 373.413 -6.05888 -0.323348
  58 356.862 -4.74475 -0.0455558
  59 341.194 -2.98767 0.0141539
  60 326.320 -2.10151 0.0721507
  61 313.301 -1.04172 0.175493
  62 300.025 -0.252304 -0.398278
  63 289.597 0.412058 0.549394
  64 284.881 1.10064 0.386304
  65 287.960 0.0256593 0.884675
  66 284.259 -0.128301 1.07412
  67 280.769 -0.200844 1.33690
  68 276.064 -0.00556104 1.72678
  69 270.138 -0.00125580 2.16405
  70 265.647 -0.313103 4.12320
  71 253.222 0.368666 4.49291
  72 244.407 -0.0123054 5.11742
  73 231.283 -0.211386 5.81242
  74 216.198 -0.365337 7.06674
  75 197.330 -0.0726897 8.58142
  76 174.331 0.114772 9.47755
  77 154.319 -0.182064 13.5526
  78 115.044 1.24181 12.8245
  79 88.1093 1.06931 13.5883
  80 55.6677 -0.264972 15.1208
  81 28.5632 2.45409 15.7916
  82 -2.37695 3.70502 9.61667
  83 -25.0750 3.77288 3.57471
  84 -24.8752 3.67873 -1.08715
  85 -24.1919 3.07476 -7.20285
  86 -14.2791 -0.921037 -6.91373
  87 -1.70368 -13.7066 -7.64696
  88 1.42474 -25.1453 -9.47797
  89 3.84961 -39.2390 -5.00005
  90 8.48410 -39.1659 1.02380
  91 17.8551 -6.13596 24.2822
  92 52.7252 86.4690 80.4380
  93 303.592 293.992 266.446
  94 1114.18 167.380 185.387
  95 1006.06 23.8967 60.0785
  96 937.250 9.97448 18.3852
  97 911.878 8.50500 1.40037
  98 925.442 11.2747 -15.9720
  99 1004.06 22.3341 -47.5717
  100 1178.20 80.7246 -159.029
  101 180.891 301.914 -223.453
  102 39.4579 63.7525 -66.9417
  103 19.5258 -4.17520 -25.8687
  104 7.95122 -39.0042 -4.91575
  105 2.32066 -29.7091 5.71086
  106 2.86745 -31.7330 8.19193
  107 0.161610 -11.8161 8.47346
  108 -14.9137 -0.569283 6.54433
  109 -24.9569 2.30857 6.26917
  110 -26.2076 4.46644 1.22438
  111 -25.8706 3.70848 -3.33318
  112 -4.20183 3.79687 -9.02486
  113 26.9654 2.47508 -15.0650
  114 54.0394 -0.00190025 -14.8733
  115 86.4255 1.15563 -13.6149
  116 113.515 1.27375 -12.9194
  117 153.133 -0.187668 -13.6628
  118 173.317 0.126949 -9.56650
  119 196.443 -0.0695233 -8.68637
  120 215.746 -0.406135 -7.11680
  121 230.669 -0.199773 -5.82618
  122 243.939 0.00362260 -5.16864
  123 252.837 0.364368 -4.54022
  124 265.369 -0.316301 -4.16327
  125 269.913 -0.00333017 -2.18859
  126 275.891 -0.00754687 -1.74693
  127 280.635 -0.204140 -1.35284
  128 284.154 -0.131125 -1.08523
  129 287.871 0.0232567 -0.891744
  130 284.802 1.09947 -0.389567
  131 289.522 0.411463 -0.551448
  132 299.952 -0.255032 0.397242
  133 313.233 -1.04857 -0.177990
  134 326.261 -2.11650 -0.0750623
  135 341.149 -3.00849 -0.0169493
  136 356.834 -4.77477 0.0427758
  137 373.406 -6.09692 0.321150
  138 390.613 -6.57086 0.153512
  139 405.537 -7.93997 0.168412
  140 418.454 -7.17354 0.579060
  141 433.185 -6.50210 1.11113
  142 449.749 -5.26883 1.17253
  143 465.220 -4.84205 1.03707
  144 481.529 -3.14110 0.698361
  145 495.086 -2.22527 1.09287
  146 505.662 -0.602943 0.593153
  147 454.658 -42.7332 -1.30336
  148 454.265 -42.1547 1.46350
  149 478.686 68.6717 -22.5594
  150 508.516 29.9427 47.2729
  151 385.391 -37.2274 -85.9679
  152 388.546 -37.1676 83.2564
  153 376.267 -15.8188 10.7901
  154 376.293 -16.0344 -10.7959
  155 538.073 19.4752 -35.0951
  156 453.465 -16.4199 8.95858
  157 453.269 -16.0316 -8.84983
  158 586.071 130.165 5.16899
  159 465.116 -0.738808 -46.6594
  160 345.628 -26.9785 -38.6740
  161 345.651 -26.7586 38.3489
  162 465.677 -10.5872 41.9100
  163 443.905 32.4669 28.0516
  164 184.424 29.2292 -102.674
  165 204.146 27.7241 108.134
  166 566.709 6.86762 1.67307
  167 466.406 -17.9741 -28.6994
  168 616.112 135.273 -0.266983
  169 420.698 -11.9162 -0.566176
  170 420.612 -11.8829 0.600193
  171 470.795 -5.89756 -3.87275
  172 472.216 -5.32244 3.33259
  173 333.227 -4.66243 -6.26066
  174 333.274 -4.61517 6.23102
  175 503.747 -12.7771 109.338
  176 430.110 17.9645 -30.2415
  177 282.138 -21.0321 -61.6169
  178 282.971 -20.8806 61.2335
  179 317.393 -10.2278 -20.2723
  180 317.428 -10.1127 20.1309
  181 468.579 -12.4077 24.4088
  182 426.427 -29.2134 -2.24240
  183 424.966 -28.9964 2.89696
  184 483.222 -46.8598 -10.1843
  185 485.789 -44.6441 4.20648
  186 666.422 157.062 -25.4397
  187 487.941 78.1670 21.0595
  188 488.016 29.9664 -47.8636
  189 501.702 -3.56665 -126.688
  190 483.407 -27.3943 -32.5623
  191 487.605 -19.5906 38.6959
  192 407.154 -46.1918 42.7617
  193 407.222 -45.8590 -42.6396
  194 437.027 5.63344 36.2597
  195 201.647 -5.05814 -75.4948
  196 202.123 -5.47141 75.0501
  197 749.558 111.951 16.3529
  198 458.126 -27.3489 17.2190
  199 474.698 -8.85793 -15.7363
  200 378.604 -9.18760 -5.01502
  201 378.615 -9.14347 5.00074
  202 457.058 -5.96308 -32.3790
  203 519.717 76.2092 -37.9077
  204 436.904 39.3322 -5.61339
  205 286.297 -9.96493 28.3384
  206 285.869 -9.99417 -28.5385
  207 481.223 -5.51182 8.44259
  208 470.467 8.85187 48.0287
  209 383.260 -27.7260 -19.1795
  210 380.768 -26.2473 19.5780
  211 553.046 82.0726 33.9511
  212 646.929 90.4216 18.4099
  213 45.5122 35.1274 -29.7627
  214 42.1329 32.4707 25.3492
  215 268.434 77.3240 179.650
  216 453.581 -30.1755 -12.8279
  217 482.862 -5.29125 -7.61961
  218 432.259 3.88097 -33.4041
  219 305.686 -2.93848 -9.01638
  220 305.787 -2.90579 8.94255
  221 409.176 -19.1343 -4.61342
  222 409.368 -19.2569 4.38407
  223 460.790 -6.24553 27.4812
  224 527.757 -30.4833 14.3275
  225 526.965 107.288 -10.8883
  226 413.255 -39.8102 -20.8083
  227 520.738 -9.09102 29.1539
  228 444.598 -7.62324 1.24940
  229 444.600 -7.56331 -1.24785
  230 410.307 -39.6235 21.5461
  231 469.180 -29.8458 26.3185
  232 654.569 86.8391 -45.3268
  233 147.733 87.8750 -131.214
  234 400.818 14.2293 7.25551
  235 472.546 41.6457 40.5253
  236 501.807 -3.56281 -41.9639
  237 469.451 -16.9587 -38.9833
  238 253.711 -8.02975 -35.3747
  239 254.563 -7.91053 35.2729
  240 470.062 -5.75998 -21.0993
  241 447.796 -11.4657 4.50755
  242 447.588 -11.4539 -4.33860
  243 96.7217 8.63534 -48.6189
  244 98.1840 7.56623 48.4479
  245 497.293 -43.5769 -40.5516
  246 491.716 -1.94441 1.08077
  247 492.207 -1.97953 -1.20019
  248 461.822 38.3113 -37.1763
  249 408.431 7.99532 21.9439
  250 838.432 134.232 90.3043
  251 831.187 94.6315 -56.2789
  252 608.010 130.502 -0.0708581
  253 379.814 -18.4330 114.000
  254 349.005 -12.1233 -119.134
  255 401.308 -8.24734 -1.88781
  256 401.274 -8.19738 1.87571
  257 335.168 -8.81232 12.5499
  258 335.160 -8.93140 -12.6536
  259 480.968 -5.32355 12.8180
  260 467.250 -33.3387 -21.2998
  261 307.582 -0.516121 -2.13288
  262 307.657 -0.506805 2.12072
  263 461.413 -18.7881 -17.0808
  264 199.280 -6.45225 -49.1604
  265 200.105 -6.47222 48.8218
  266 467.348 -20.3420 30.9561
  267 357.841 -37.9787 69.2006
  268 358.710 -38.6568 -68.9867
  269 406.450 15.7235 -10.2148
  270 350.810 -5.27626 -4.22760
  271 350.844 -5.24178 4.21260
  272 439.960 -1.05768 26.6841
  273 524.097 95.6731 26.2159
  274 284.701 -3.36714 15.1461
  275 284.487 -3.39458 -15.2680
  276 479.431 -40.1386 14.1101
  277 443.804 -49.8932 -47.2176
  278 493.686 -2.55923 3.85987
  279 346.644 -20.3108 -26.5410
  280 346.073 -20.0880 26.4475
  281 603.224 66.7531 159.879
  282 289.951 -23.4553 82.3189
  283 466.414 65.4171 -2.38895
  284 585.333 65.3441 -20.5622
  285 443.282 -34.2713 4.08352
  286 444.206 -51.2470 42.7148
  287 290.792 -23.0819 -83.2137
  288 54.6788 67.5611 62.0240
  289 461.493 -18.8491 17.4036
  290 602.608 79.5545 15.1651
  291 497.392 -2.28773 -3.34766
  292 453.997 15.9546 -42.8035
  293 446.649 -25.2938 8.71477
  294 437.456 -36.8886 2.65236
  295 452.451 20.8218 41.2769
  296 477.189 -40.1396 -12.4201
  297 674.001 130.518 -12.1788
  298 446.530 -24.3183 -8.32326
  299 366.599 107.321 -218.920
  300 456.062 -48.3886 -10.6904
  301 452.887 -49.7150 15.8378
  302 334.933 -30.1514 -54.3224
  303 304.747 -1.09559 -4.61947
  304 304.835 -1.07640 4.58570
  305 335.090 -30.1796 54.0397
  306 483.080 -0.838516 -47.9510
  307 519.738 -21.5358 -18.4702
  308 398.214 -23.8444 -10.5802
  309 397.977 -23.9003 10.7660
  310 473.037 -40.7234 74.7452
  311 473.809 -3.88290 15.9639
  312 572.328 3.51230 28.6440
  313 390.497 -13.6942 -5.91217
  314 390.526 -13.6520 5.88252
  315 356.829 -9.14960 -8.39438
  316 356.836 -9.06654 8.38365
  317 404.379 5.54624 -21.2159
  318 514.571 37.7273 -45.7240
  319 788.943 213.680 -103.217
  320 467.958 -4.34622 -1.25984
  321 467.707 -4.29003 1.29851
  322 253.112 -0.755270 102.736
  323 354.794 -15.8910 -17.7422
  324 354.153 -15.8426 17.7893
  325 253.061 -1.35923 -102.343
  326 491.567 57.9488 -39.2771
  327 547.654 27.2923 33.0923
  328 472.871 -33.7268 -82.7963
  329 436.809 -16.9210 3.40416
  330 436.376 -16.8036 -3.22115
  331 465.277 -9.83322 -8.06629
  332 440.247 -0.804324 -24.9464
  333 491.748 2.04342 46.7970
  334 489.301 -3.56956 -8.79214
  335 298.086 -17.8752 41.3602
  336 297.759 -17.9714 -41.6630
  337 458.550 -1.01713 44.3696
  338 286.644 -2.24486 -9.02439
  339 286.826 -2.22411 8.94729
  340 468.813 -10.9433 12.9275
  341 562.752 114.639 -18.5823
  342 465.073 -9.90101 8.38439
  343 496.970 62.2888 39.3608
  344 475.192 -8.89554 45.6698
  345 378.200 -7.02889 1.88151
  346 378.199 -7.06990 -1.89263
  347 450.785 -1.58122 -39.4051
  348 593.910 124.641 10.8662
  349 495.951 90.6024 0.817479
  350 303.410 35.1467 -152.195
  351 32.8727 13.7983 -21.6366
  352 35.8848 14.9404 23.2067
  353 -1.11325 3.74622 8.76087
  354 0.665771 2.25416 -9.18628
  355 857.143 59.5022 20.2289
  356 410.673 -33.2103 -12.6409
  357 469.143 -10.5862 -12.6062
  358 424.423 -7.58529 0.340350
  359 424.374 -7.52771 -0.343518
  360 455.498 50.3209 -20.1469
  361 388.124 -39.3985 35.2200
  362 34.8893 52.1591 -38.9388
  363 388.458 -39.3808 -35.8282
  364 461.293 52.4587 21.4347
  365 468.511 -12.6208 -23.2032
  366 496.295 -27.7924 -27.2211
  367 530.493 111.481 7.48436
  368 497.310 -31.1724 22.0291
  369 210.266 -5.12538 32.8885
  370 209.063 -5.02532 -33.0861
  371 119.918 2.79486 -45.9871
  372 121.108 2.33483 45.7875
  373 410.494 1.49289 21.4293
  374 765.733 225.746 90.6809
  375 483.728 -3.20087 -11.3175
  376 378.654 -31.7613 -27.0760
  377 378.368 -31.6891 27.0414
  378 466.091 -10.8434 -29.7028
  379 528.459 -25.5383 1.05477
  380 410.659 -33.1840 12.9921
  381 578.075 5.06566 -50.5008
  382 333.056 -2.58148 -1.68916
  383 333.109 -2.55997 1.67870
  384 459.045 -2.71644 -19.1157
  385 251.340 -3.52317 -21.4252
  386 251.488 -3.63893 21.1744
  387 546.590 69.9180 -37.9792
  388 296.539 20.8237 141.574
  389 429.119 -22.5087 0.879021
  390 429.534 -22.4723 -0.896513
  391 504.626 85.1421 -24.7850
  392 476.864 -14.2036 -43.1128
  393 476.653 -48.8103 41.7859
  394 399.939 -10.6038 -2.98714
  395 399.897 -10.5565 2.96216
  396 459.834 -35.5260 13.7366
  397 493.727 -2.49254 6.50200
  398 312.387 -11.1747 -25.2870
  399 312.514 -11.1781 25.0840
  400 468.221 15.7455 -47.4219
  401 441.019 -9.73388 1.85091
  402 440.997 -9.75875 -1.79690
  403 457.186 -5.42767 36.0618
  404 428.108 31.3306 9.73441
  405 472.969 -20.0696 37.4173
  406 680.422 141.950 26.7230
  407 231.529 -12.4244 -65.9874
  408 232.156 -12.4258 65.5063
  409 103.985 55.1917 -79.8173
  410 503.961 -1.66186 1.71736
  411 262.077 -2.11882 -13.5741
  412 262.413 -2.07400 13.4641
  413 466.412 -12.2644 29.0345
  414 423.256 -45.8796 23.9398
  415 476.380 -6.15349 5.69228
  416 487.142 24.7036 49.2340
  417 108.811 58.7667 83.0550
  418 423.867 -45.6093 -22.1376
  419 437.831 -40.6530 -5.71419
  420 146.657 -2.92892 -41.5458
  421 147.693 -3.03384 41.2706
  422 336.998 -27.1764 -99.2578
  423 501.808 -7.58158 40.8579
  424 335.800 -27.5584 98.4147
  425 464.054 -26.1464 -23.6797
  426 433.837 29.4073 -21.2625
  427 464.106 -20.1751 22.5902
  428 497.370 -2.40386 -4.30636
  429 15.7864 17.2458 8.30413
  430 102.534 119.548 117.436
  431 448.316 -1.63607 18.5128
  432 379.627 5.36100 9.33054
  433 385.869 6.49452 -12.6363
  434 329.225 -5.28054 -8.85787
  435 329.265 -5.21436 8.80509
  436 457.532 -35.4992 -12.4506
  437 463.065 -9.12489 -40.2685
  438 381.544 7.34283 -3.43095
  439 679.849 162.247 36.1522
  440 96.7844 31.5378 -59.9186
  441 106.468 28.9345 63.8803
  442 428.721 -15.3283 1.03509
  443 428.564 -15.2973 -0.926543
  444 570.932 125.401 -1.40475
  445 353.069 150.603 223.784
  446 546.825 -7.41148 -4.71477
  447 318.638 -16.3850 -34.2998
  448 318.792 -16.2769 34.0252
  449 321.384 -6.99342 13.6867
  450 321.319 -7.04283 -13.8015
  451 431.181 9.70701 -34.4384
  452 506.392 -0.884334 -1.12138
  453 419.822 19.4368 19.4051
  454 526.451 64.9410 41.7669
  455 438.756 -32.5480 -2.57028
  456 476.167 -5.87318 -5.53914
  457 499.329 -2.19370 3.96414
  458 504.900 -0.953496 0.638770
  459 505.274 -1.05577 -0.455471
  460 285.266 -0.462280 3.36533
  461 285.122 -0.469434 -3.39757
  462 479.225 -30.5703 28.6387
  463 435.226 17.2950 33.3610
  464 453.790 1.87644 -43.3435
  465 471.951 -10.1272 17.0725
  466 672.406 118.128 -136.089
  467 473.405 -26.3727 -32.4263
  468 5.67120 9.14538 4.37044
  469 5.58494 9.33660 -2.02368
  470 377.143 -21.1514 15.5445
  471 375.924 -20.8586 -15.3416
  472 583.819 12.4248 74.3835
  473 164.697 152.998 -170.848
  474 467.736 -1.49394 14.2669
  475 526.837 -30.5020 -43.2681
  476 285.509 -16.2345 47.8009
  477 566.810 100.616 -26.7680
  478 466.644 -25.3664 27.0299
  479 393.456 -18.6604 -8.10620
  480 393.798 -18.3572 8.08781
  481 410.399 2.25580 -18.9103
  482 284.636 -16.1661 -48.0766
  483 420.295 0.266569 18.9736
  484 400.146 -45.8255 -62.1918
  485 399.160 -45.8952 62.4437
  486 481.165 -3.30872 12.5142
  487 440.341 41.6088 4.02024
  488 442.166 8.25490 153.806
  489 651.793 131.920 -0.822990
  490 451.292 -7.81944 2.36709
  491 451.312 -7.79242 -2.46815
  492 350.531 -6.07903 -5.72129
  493 350.560 -6.03046 5.70249
  494 185.937 8.24453 86.6488
  495 468.822 -22.6873 -31.8688
  496 425.737 -9.36831 -0.0871248
  497 425.695 -9.33846 0.0944265
  498 371.586 -39.2209 50.8682
  499 189.454 10.9377 -88.8120
  500 469.089 -38.3198 -14.3169
  501 8.54666 2.67599 2.86882
  502 413.821 21.5656 1.43105
  503 452.805 -5.48101 -0.757876
  504 452.798 -5.55090 0.736258
  505 371.775 -39.1461 -51.2507
  506 527.307 -26.8453 54.4908
  507 524.647 19.0610 42.1740
  508 483.322 -3.52905 -2.68214
  509 467.662 -38.8506 14.5608
  510 298.704 -0.232088 -0.623104
  511 298.780 -0.229575 0.618580
  512 467.537 -18.0464 -34.2285
  513 454.573 33.6785 36.3967
  514 518.322 12.8196 -41.6976
  515 296.883 -0.416427 -1.89857
  516 296.969 -0.410333 1.88676
  517 892.960 129.084 -114.996
  518 472.625 56.2125 31.9522
  519 483.715 -3.27993 2.37912
  520 438.775 -41.5564 6.78110
  521 371.137 -12.1212 8.68336
  522 371.127 -12.2099 -8.66566
  523 508.987 -31.1110 10.9017
  524 490.356 -9.89442 -43.3685
  525 548.590 107.729 22.9276
  526 457.683 7.91708 44.9718
  527 459.568 -9.05303 4.92795
  528 446.239 -47.7727 -60.2747
  529 464.301 -11.5837 33.9393
  530 881.704 40.5718 -16.0651
  531 505.133 -38.1781 1.74661
  532 480.328 -3.44065 -0.585064
  533 480.445 -3.64284 0.495958
  534 890.901 59.7433 56.1194
  535 446.657 -0.101952 38.2526
  536 619.997 105.311 -6.53385
  537 467.868 -12.8994 -16.4715
  538 216.685 -1.96513 -14.6406
  539 217.319 -1.86986 14.4977
  540 319.061 -29.8114 -69.0309
  541 319.333 -29.3138 68.5352
  542 459.311 -8.69242 -4.89199
  543 500.476 18.3444 -47.6807
  544 440.032 -29.9317 4.26316
  545 474.649 54.3844 -33.1094
  546 476.207 -5.69296 16.8315
  547 593.480 30.7261 -10.3431
  548 408.939 -13.9871 -2.84789
  549 408.823 -13.9439 2.82035
  550 443.056 -20.9653 6.28432
  551 648.855 129.983 -13.6654
  552 467.799 20.4784 46.6838
  553 201.097 51.6003 127.780
  554 449.036 -26.8899 103.567
  555 589.281 30.6592 -114.630
  556 478.179 39.5379 -43.3520
  557 422.325 -36.6522 -89.9231
  558 457.679 -50.2450 -19.4761
  559 477.301 -48.4664 -27.7624
  560 63.8870 83.9453 -79.4554
  561 479.947 -6.29334 -10.0868
  562 718.910 139.550 -41.9653
  563 445.355 -20.1369 -7.19023
  564 448.849 -14.7377 5.94859
  565 448.439 -14.4117 -5.67866
  566 314.381 -1.70710 -4.21763
  567 314.453 -1.68514 4.19229
  568 46.8411 4.57292 -25.6026
  569 49.2275 4.80073 26.1796
  570 234.373 -10.7580 -50.2711
  571 236.102 -10.8188 50.2101
  572 455.056 -24.7446 -14.4834
  573 462.891 -50.4535 20.9488
  574 475.763 -45.2855 0.671224
  575 392.601 -6.93659 -1.61460
  576 392.582 -6.89023 1.60692
  577 371.412 -39.0484 -76.9182
  578 414.398 -34.1277 95.0215
  579 362.639 -36.7391 77.3216
  580 468.695 -10.4648 -43.2123
  581 297.928 -4.80609 15.2748
  582 297.782 -4.85508 -15.3926
  583 448.474 24.8858 -36.5912
  584 448.601 -0.792015 -16.7981
  585 558.537 120.651 -10.1545
  586 367.489 -5.47919 -1.53874
  587 367.503 -5.44491 1.53213
  588 476.394 -1.46063 -9.35071
  589 332.524 -11.0198 -17.0837
  590 332.541 -10.9844 16.9451
  591 270.278 12.1874 121.992
  592 463.665 -21.4406 -22.8159
  593 261.130 -13.9595 87.7485
  594 455.670 -23.6954 14.8444
  595 478.770 -6.96150 11.1784
  596 472.445 -4.58236 -2.33605
  597 336.717 -4.04295 -3.97692
  598 336.764 -4.01096 3.95859
  599 535.979 106.632 -20.8053
  600 260.938 -13.4563 -88.0570
  601 454.130 -19.7730 -11.7413
  602 410.840 -7.69279 -0.873946
  603 410.799 -7.63966 0.870630
  604 762.445 102.358 -18.3180
  605 276.949 -1.70691 8.39374
  606 276.715 -1.72323 -8.46708
  607 426.298 9.89698 31.4563
  608 601.646 51.4808 -3.32321
  609 287.725 1.68474 -121.019
  610 149.666 3.55163 -66.3994
  611 150.857 2.73015 66.0511
  612 361.714 -20.8847 21.3552
  613 365.361 -21.5007 -20.7931
  614 609.974 123.170 7.87757
  615 470.590 -4.74017 2.08435
  616 408.661 11.6746 -19.0394
  617 505.970 90.6320 19.6136
  618 504.265 94.0316 -13.0495
  619 414.352 -22.8904 -4.54010
  620 417.423 -22.3889 3.08040
  621 296.355 64.9709 -173.342
  622 358.081 -12.0727 -11.9797
  623 358.117 -11.9386 11.9435
  624 888.930 182.182 137.313
  625 467.882 -15.4124 37.0714
  626 271.205 -9.41280 -32.1924
  627 716.714 171.946 117.377
  628 271.819 -9.36325 32.0805
  629 445.214 -16.8655 -120.573
  630 319.966 -1.48137 -1.55234
  631 320.030 -1.46867 1.54523
  632 394.748 3.64677 16.6195
  633 182.061 -2.64625 -28.8671
  634 183.012 -2.65339 28.6520
  635 409.110 -28.8394 9.90917
  636 428.445 -34.2472 -3.93700
  637 502.138 -1.19030 -3.67561
  638 289.883 -0.428116 2.50688
  639 289.769 -0.436002 -2.53049
  640 386.931 -8.68434 -2.57583
  641 386.920 -8.63888 2.55929
  642 441.060 -49.0624 60.8421
  643 507.882 56.6717 -43.2171
  644 340.689 -15.6693 -21.9921
  645 340.463 -15.4084 21.8418
  646 401.747 -28.7530 -13.2549
  647 629.250 136.566 5.50783
  648 473.019 -45.8632 1.88281
  649 412.344 -9.92209 -1.50017
  650 412.286 -9.87718 1.49934
  651 564.067 62.0287 31.1066
  652 474.312 -6.99774 -18.2869
  653 422.612 -0.462458 -15.4386
  654 197.688 -6.76734 -63.3350
  655 198.265 -6.94807 62.8400
  656 400.573 -34.4138 -20.7192
  657 598.572 131.106 0.0916272
  658 466.496 63.0971 -14.3936
  659 312.655 -2.73800 -7.70174
  660 312.733 -2.70040 7.64524
  661 433.767 -12.3669 -1.25279
  662 433.850 -12.3763 1.33977
  663 799.193 104.144 46.0169
  664 508.893 -1.49476 0.946328
  665 493.327 -2.05999 6.39789
  666 491.558 -2.07961 -7.55922
  667 467.452 -43.5939 4.97106
  668 347.800 -3.95178 -1.98602
  669 347.838 -3.92492 1.97803
  670 500.931 80.0762 30.2944
  671 639.466 141.805 -10.3028
  672 353.294 -26.0210 -31.1492
  673 353.211 -25.7726 31.0035
  674 439.185 -45.2281 -11.0150
  675 464.570 27.6474 -43.9843
  676 547.676 1.59689 16.3600
  677 367.633 -6.75448 -4.05597
  678 367.649 -6.71355 4.04127
  679 317.986 -27.7746 -62.3152
  680 463.094 -44.8498 -0.758462
  681 386.026 -42.7891 56.0743
  682 185.950 58.4092 -123.380
  683 361.452 -33.3231 43.2670
  684 436.168 0.123846 14.2136
  685 318.290 -27.4639 61.9153
  686 453.873 -20.1456 11.8861
  687 361.546 -33.1779 -43.6415
  688 373.556 5.00160 3.49598
  689 289.239 -7.60010 22.9630
  690 288.987 -7.60569 -23.1132
  691 386.193 -43.8956 -56.6857
  692 476.120 -31.4648 -27.6607
  693 437.091 -6.31707 -0.352595
  694 437.161 -6.37847 0.354478
  695 486.320 -31.1014 27.1960
  696 442.463 -46.2349 12.8180
  697 536.798 49.3087 40.9698
  698 485.054 -9.17662 44.8752
  699 466.768 -16.8723 27.0086
  700 448.124 36.9242 -27.7583
  701 536.396 90.0468 32.5134
  702 463.569 -6.47186 -26.6223
  703 461.170 -15.4361 13.3824
  704 478.759 74.7915 7.76504
  705 469.519 -8.07140 22.9959
  706 149.232 101.857 129.528
  707 436.676 -50.2779 -35.8825
  708 505.539 9.13751 45.4082
  709 509.752 -15.8263 -31.3667
  710 506.843 -0.790726 1.98093
  711 466.252 -16.1614 -21.0483
  712 437.356 -50.6695 32.7591
  713 836.242 74.1245 -12.3636
  714 265.918 -1.08552 8.77707
  715 265.612 -1.09711 -8.85455
  716 472.256 -8.78268 -9.54786
  717 509.737 -0.612391 -1.94585
  718 399.881 -34.9757 20.8241
  719 478.839 -17.9123 40.5796
  720 720.431 174.957 -58.0710
  721 453.885 -32.9355 11.7574
  722 502.010 -33.1520 -14.8383
  723 461.328 -15.0327 -13.1633
  724 509.254 -1.00848 -0.580443
  725 468.231 -0.0730631 47.1860
  726 22.1203 22.4180 28.6935
  727 524.023 -19.6610 -79.7785
  728 571.368 34.3909 18.0245
  729 476.890 -48.8271 25.0477
  730 344.096 -8.10861 9.78201
  731 344.089 -8.21876 -9.82448
  732 438.659 230.644 -234.849
  733 486.497 -32.2876 -24.9503
  734 372.151 2.11103 -6.68648
  735 430.510 2.45859 30.5853
  736 469.913 -23.6095 32.3638
  737 450.405 -37.9570 4.86361
  738 466.792 -42.6883 -65.4049
  739 447.736 -35.4273 -5.77327
  740 526.802 -25.1951 -2.88040
  741 485.471 -4.17769 5.52526
  742 435.118 -26.1282 2.52610
  743 782.694 156.385 -84.1526
  744 463.221 -12.5671 10.5200
  745 460.027 7.57535 -46.1543
  746 390.874 -4.24532 135.320
  747 492.061 39.5738 46.8211
  748 423.390 -33.2565 6.07038
  749 328.937 -25.6996 -45.6476
  750 328.983 -25.6343 45.2959
  751 451.706 50.8212 -6.45002
  752 458.253 -5.33119 41.0130
  753 462.780 -11.0690 -34.7369
  754 435.602 -26.6718 -2.65188
  755 421.387 -37.6723 12.4397
  756 482.358 79.3709 -8.71819
  757 449.862 -38.9396 -3.09482
  758 451.030 -28.5902 11.5388
  759 456.387 -6.08407 1.66955
  760 456.652 -5.92821 -1.65417
  761 613.668 134.137 1.57423
  762 501.002 -42.6974 -17.6030
  763 467.648 -14.4523 21.0005
  764 485.577 -4.17251 -4.99816
  765 492.310 3.22628 -47.2569
  766 558.483 29.7438 -25.7717
  767 280.150 -0.226423 -4.12740
  768 280.331 -0.222677 4.08907
  769 4.23048 -7.87836 -5.49330
  770 477.519 -0.618912 8.64491
  771 439.812 -0.637744 -33.7358
  772 453.490 -4.25612 29.5544
  773 410.144 52.3946 197.395
  774 515.894 105.575 -1.05316
  775 368.065 -26.1135 24.5640
  776 67.5135 1.39674 -25.1192
  777 69.3067 1.01832 25.3810
  778 449.683 -3.18833 -33.4247
  779 369.012 -26.3661 -24.5662
  780 482.754 -4.58044 4.12195
  781 251.446 -10.5839 42.8720
  782 249.356 -10.5442 -42.8746
  783 463.178 -12.2101 -10.2396
  784 300.152 -7.38997 -20.0244
  785 300.302 -7.34371 19.8589
  786 481.991 -4.71044 -12.5475
  787 371.054 -9.79481 -6.95210
  788 371.071 -9.73434 6.95534
  789 525.854 -3.28950 -31.2265
  790 474.904 -5.01112 -47.1703
  791 246.374 -1.51906 -11.1461
  792 246.827 -1.50481 11.0234
  793 13.9719 6.09540 -15.5564
  794 16.0515 6.43694 16.3451
  795 388.987 1.91938 -12.0625
  796 433.338 -48.6811 -27.1451
  797 -4.88210 -3.34044 8.52550
  798 -4.31686 -4.01411 -8.52357
  799 450.765 -9.22308 3.65743
  800 488.199 -38.2076 -13.0408
  801 505.741 74.8017 -35.2768
  802 484.721 -4.13380 -3.92585
  803 1018.34 207.492 -191.216
  804 450.669 -9.19710 -3.60692
  805 675.807 128.196 11.1805
  806 483.110 14.0510 -49.2698
  807 532.286 40.2643 -42.0683
  808 93.4875 -1.08734 -23.0944
  809 95.0729 -1.21841 23.0561
  810 305.366 -4.27533 11.9359
  811 305.255 -4.30973 -12.0339
  812 292.767 -0.639256 2.24846
  813 292.672 -0.646108 -2.26485
  814 539.025 90.6384 -32.1440
  815 322.975 -1.91588 -3.35924
  816 323.037 -1.89427 3.34247
  817 459.639 -4.62572 -42.8405
  818 655.167 70.0727 60.8373
  819 415.963 9.45712 -26.4807
  820 147.364 -1.28970 24.6172
  821 146.206 -1.30191 -24.8013
  822 528.846 15.7386 142.501
  823 471.824 -8.85360 9.85367
  824 425.579 28.3950 -11.0233
  825 200.224 -0.281700 16.7035
  826 199.265 -0.190695 -16.8196
  827 298.372 -1.43943 -5.87673
  828 298.484 -1.41877 5.82714
  829 54.0026 47.8436 42.2392
  830 442.706 10.6514 39.2009
  831 491.543 72.0807 -30.4127
  832 527.403 61.2608 -42.1430
  833 349.587 -13.0071 -15.5548
  834 349.399 -12.9157 15.5403
  835 546.901 115.850 14.4081
  836 470.463 -4.16194 -0.479135
  837 470.497 -4.13156 0.555671
  838 466.917 -14.1200 -27.3546
  839 392.529 -25.9833 14.8122
  840 430.774 -48.3905 27.2268
  841 503.969 -41.2835 42.1265
  842 389.407 -11.2304 -4.38418
  843 389.407 -11.1924 4.35912
  844 445.684 41.3780 17.8580
  845 419.595 5.86025 -28.5647
  846 116.432 142.032 134.768
  847 422.668 -37.3594 -11.4139
  848 424.199 -18.9463 -0.228913
  849 424.423 -18.9918 0.202737
  850 466.595 -6.91398 44.9030
  851 461.905 -30.4213 -19.4364
  852 413.547 -27.2658 -6.71098
  853 924.607 29.9205 -45.2312
  854 393.411 -37.0508 28.0881
  855 393.081 -37.5227 -28.5193
  856 465.849 -5.63033 22.6142
  857 696.118 180.806 -43.7170
  858 369.749 -33.3718 -34.6054
  859 407.265 -45.7622 33.3419
  860 369.675 -32.9782 34.3149
  861 400.426 -16.0373 -5.16972
  862 400.422 -15.9886 5.13792
  863 61.0468 25.3994 36.6266
  864 500.484 37.3834 -47.1874
  865 384.815 -14.8942 -7.72737
  866 384.890 -14.7490 7.75288
  867 380.369 -6.25827 -0.944805
  868 380.367 -6.21792 0.939343
  869 416.828 -8.37441 -0.458848
  870 416.779 -8.32314 0.455026
  871 341.525 -6.53750 -8.43405
  872 341.558 -6.46647 8.40255
  873 386.125 -20.1373 -11.4620
  874 386.179 -20.0079 11.5127
  875 9.72957 -1.80679 -5.55372
  876 578.345 108.570 22.6405
  877 497.841 -17.5509 -36.9007
  878 406.899 -45.0934 -33.6691
  879 439.061 -14.2418 3.06852
  880 438.873 -14.1020 -2.95488
  881 478.936 0.550458 48.2108
  882 517.810 -36.9113 -24.6477
  883 457.123 33.9046 -171.630
  884 212.152 -3.68361 85.4566
  885 -6.40352 4.94477 -6.33193
  886 -5.41652 5.58867 6.94515
  887 60.7047 27.0083 -37.4158
  888 467.270 -13.5864 16.3447
  889 490.369 -3.38380 -6.83376
  890 441.518 -42.6104 74.6394
  891 211.660 -3.47906 -85.7810
  892 491.998 -40.4110 8.27886
  893 545.257 -15.4244 66.0175
  894 402.465 1.66259 12.7724
  895 458.782 43.6595 30.3206
  896 250.527 -14.0381 62.6267
  897 249.579 -14.1503 -63.0201
  898 300.213 -14.0647 -35.1891
  899 312.714 -15.5842 -108.687
  900 492.999 -11.6280 41.9478
  901 673.367 159.701 28.5781
  902 495.500 19.0041 48.1212
  903 468.300 -10.0995 -25.0408
  904 319.149 -13.9595 111.370
  905 595.082 110.066 -15.4503
  906 60.8340 51.3326 -51.8528
  907 435.006 -0.836278 -13.5580
  908 300.524 -13.9522 34.8943
  909 364.820 -7.93348 6.09253
  910 364.804 -7.98471 -6.10401
  911 462.559 -30.2567 20.1285
  912 478.769 -3.29568 1.50027
  913 353.281 3.10274 -134.753
  914 504.063 -1.20103 3.22419
  915 500.694 -0.998110 -4.17612
  916 380.565 3.38330 -11.1189
  917 485.174 -2.01421 -7.63469
  918 365.715 -16.9023 -14.5534
  919 365.959 -16.6558 14.6007
  920 -11.4866 4.59003 -6.53649
  921 -16.0948 2.77045 7.01892
  922 478.744 -3.07571 -1.54070
  923 162.502 -3.74346 57.7250
  924 161.583 -3.41061 -58.0389
  925 513.735 74.7869 37.1133
  926 903.415 16.3736 13.8993
  927 484.251 53.7811 39.5074
  928 544.277 -18.8367 20.8872
  929 475.458 -26.5660 32.4589
  930 591.239 123.711 -11.8133
  931 372.856 1.70151 8.38837
  932 457.212 -10.9394 -6.08858
  933 476.433 25.6322 -47.8543
  934 571.529 17.5347 -5.87012
  935 446.250 -27.5830 -8.74501
  936 233.063 -1.24536 -12.4512
  937 233.281 -1.20090 12.2817
  938 470.378 -11.1968 -19.3277
  939 16.5139 20.6681 5.20797
  940 451.615 -46.8368 -6.73039
  941 395.692 11.9153 -1.14489
  942 587.632 128.630 -7.82627
  943 94.7958 70.3649 -84.9412
  944 453.508 -3.38601 -26.4808
  945 317.611 -5.15029 -11.2029
  946 317.678 -5.09126 11.1160
  947 2.98517 -12.5841 9.47631
  948 310.030 -22.8681 -50.4831
  949 460.206 -26.6798 -18.9345
  950 291.988 0.631784 -0.942342
  951 292.068 0.634445 0.936665
  952 466.667 56.5976 -24.2133
  953 495.851 -1.67027 -0.647531
  954 495.878 -1.68835 0.860404
  955 310.180 -22.8105 50.1600
  956 466.457 -0.698037 -10.4019
  957 534.345 3.91801 29.8615
  958 474.416 -6.89643 7.54108
  959 78.4194 19.3421 -45.7989
  960 491.285 -3.14745 6.16990
  961 449.002 3.69324 41.8601
  962 473.450 65.4681 21.5292
  963 472.728 5.48147 -48.8705
  964 328.211 -17.3506 -30.3868
  965 508.292 -18.1179 30.1740
  966 328.428 -17.2886 30.0976
  967 15.8435 16.9623 -2.48627
  968 58.2529 9.60473 33.6092
  969 269.881 -4.64033 20.6921
  970 269.563 -4.64174 -20.8001
  971 457.538 -11.1357 6.45070
  972 493.855 85.6129 11.8194
  973 252.097 22.7719 -127.933
  974 412.812 -25.6681 5.96356
  975 387.577 -40.3978 -41.6597
  976 562.999 107.688 24.2644
  977 433.766 -7.79486 0.247228
  978 433.747 -7.75511 -0.251211
  979 474.213 -8.94244 -13.7138
  980 441.656 38.2314 -16.4675
  981 973.849 292.988 197.204
  982 94.7529 5.08526 -43.7592
  983 96.1332 4.21972 43.8463
  984 7.05752 -7.22635 3.18859
  985 442.750 24.6496 33.8032
  986 387.505 -40.6493 41.3674
  987 478.790 -22.7063 -37.2332
  988 520.678 42.5316 46.0747
  989 498.620 -40.2693 -51.1300
  990 726.725 152.716 52.0832
  991 426.122 -7.01722 -0.324348
  992 426.068 -6.96269 0.324230
  993 497.343 -20.3927 34.8594
  994 34.9808 61.4571 61.6929
  995 228.676 -4.68930 29.5672
  996 227.996 -4.62862 -29.8650
  997 271.413 -13.0752 40.5284
  998 270.505 -12.8700 -40.6676
  999 305.103 -12.3726 29.2503
  1000 333.564 -2.54250 -1.50185
  1001 333.617 -2.52426 1.49624
  1002 809.081 263.396 -169.535
  1003 739.584 185.597 78.4381
  1004 304.857 -12.4320 -29.4808
  1005 512.141 -2.42653 38.5662
  1006 460.921 47.8346 -29.1522
  1007 325.735 -28.1514 90.1934
  1008 416.685 -49.2610 -49.5030
  1009 475.912 -3.99591 -15.1009
  1010 216.923 14.5082 104.418
  1011 278.215 -21.2117 72.0402
  1012 424.012 21.8958 -21.2292
  1013 481.577 -9.60753 -45.4563
  1014 600.989 256.283 266.806
  1015 401.549 12.4548 15.1654
  1016 541.837 116.112 -1.75256
  1017 396.199 15.8870 -152.925
  1018 405.215 -42.5079 -28.8926
  1019 510.013 -0.666437 -1.57712
  1020 493.213 45.2698 -45.5839
  1021 293.587 -1.80344 7.51273
  1022 293.448 -1.82154 -7.57798
  1023 10.9918 8.11272 -16.7016
  1024 328.625 -14.7726 -25.3767
  1025 277.869 -21.4827 -72.5585
  1026 328.394 -14.7440 25.1148
  1027 470.996 -14.4081 42.0526
  1028 422.991 -26.0769 -2.27719
  1029 445.476 8.27100 -40.6051
  1030 458.527 57.2389 8.51518
  1031 613.898 38.7824 26.2159
  1032 466.015 -35.4694 18.9153
  1033 297.634 -23.6064 -55.2334
  1034 441.969 15.7490 -38.0811
  1035 328.447 -27.7886 -90.6356
  1036 626.855 135.291 -3.17148
  1037 430.323 28.3856 19.3138
  1038 538.136 -3.01965 -22.1044
  1039 407.715 -42.5364 26.7510
  1040 466.534 -14.8781 32.3248
  1041 463.191 -24.5317 22.6009
  1042 460.641 -23.2486 19.4312
  1043 567.342 72.3820 -32.1059
  1044 460.901 -7.48235 33.1662
  1045 416.066 -49.3977 48.7171
  1046 444.077 -18.2313 5.70515
  1047 297.824 -23.6557 54.9474
  1048 417.693 -30.6504 -7.18198
  1049 245.146 -11.9833 -77.0255
  1050 347.406 -35.9771 61.3945
  1051 468.907 -3.26034 -17.6290
  1052 457.493 -5.18119 -37.8532
  1053 396.708 -31.1970 -17.9780
  1054 245.560 -12.3148 76.4504
  1055 428.346 1.10624 -26.5781
  1056 319.706 -20.9642 -39.2318
  1057 573.351 121.573 15.0098
  1058 130.563 21.1363 -73.9031
  1059 962.628 67.9353 91.7882
  1060 231.958 16.8684 -109.192
  1061 460.421 -38.1850 -10.7883
  1062 319.801 -20.7908 38.9294
  1063 424.053 4.60673 29.7960
  1064 240.899 -4.76923 24.4884
  1065 240.787 -4.88601 -24.7263
  1066 466.758 -13.0415 -39.0339
  1067 493.677 -2.67607 2.39782
  1068 485.541 -1.16189 7.69513
  1069 481.531 15.9434 49.2081
  1070 451.350 -3.39359 35.6436
  1071 348.354 37.4496 165.264
  1072 513.087 -0.469299 0.730523
  1073 485.505 65.6667 31.4284
  1074 413.243 6.11731 25.7231
  1075 491.220 -1.94733 7.35560
  1076 320.717 -3.30943 -6.31237
  1077 320.780 -3.27235 6.27524
  1078 205.620 -5.72950 -40.8870
  1079 206.386 -5.93674 40.6271
  1080 414.594 20.8514 10.8135
  1081 615.366 34.6360 -48.8523
  1082 565.570 0.480098 -88.7210
  1083 455.856 -0.431405 -10.8358
  1084 347.506 -36.2420 -61.8444
  1085 397.546 -29.6747 16.1980
  1086 458.365 -1.07238 11.3012
  1087 478.318 -34.8039 -22.4961
  1088 303.706 -0.628078 3.73044
  1089 303.624 -0.639682 -3.75169
  1090 459.554 -39.2777 10.7767
  1091 437.155 -9.07855 0.788498
  1092 437.080 -9.08887 -0.763000
  1093 425.585 -42.7810 17.6185
  1094 545.267 -17.4128 -8.96592
  1095 253.022 -0.427759 -6.95054
  1096 253.415 -0.412840 6.88136
  1097 373.384 -23.8269 -103.857
  1098 398.528 -9.49627 2.50710
  1099 398.561 -9.54516 -2.52578
  1100 240.191 130.737 181.647
  1101 549.025 45.2519 -36.8348
  1102 83.0425 39.9091 -56.5587
  1103 474.644 -7.26388 -7.27819
  1104 129.265 43.7491 -84.8126
  1105 267.703 -16.6614 -52.3607
  1106 513.033 -0.660020 0.485574
  1107 513.209 -0.625249 -0.351830
  1108 467.853 -26.7920 -27.6456
  1109 414.175 -46.5974 -67.4446
  1110 130.664 17.9945 70.4206
  1111 509.256 50.3566 44.0557
  1112 461.223 -4.88139 -0.598646
  1113 461.281 -4.88373 0.640046
  1114 502.060 -32.0522 81.9676
  1115 522.190 104.138 16.8102
  1116 313.312 -7.36731 -15.9662
  1117 313.396 -7.33481 15.8615
  1118 236.612 26.7554 129.197
  1119 444.340 2.31969 -39.2568
  1120 140.881 44.9351 91.0367
  1121 565.060 -9.16040 -29.8104
  1122 558.850 122.836 4.92635
  1123 385.582 -30.2983 21.5514
  1124 359.619 2.01681 -1.63679
  1125 486.373 -4.40613 9.27785
  1126 502.764 -0.718516 3.60346
  1127 114.705 0.178357 -20.6507
  1128 116.156 0.126319 20.5167
  1129 400.944 6.85536 -19.0842
  1130 410.654 -12.0701 -2.12121
  1131 410.566 -12.0185 2.11120
  1132 43.7408 73.0347 -65.7480
  1133 68.9019 155.499 -129.383
  1134 415.718 -16.2149 2.00303
  1135 415.870 -16.2079 -2.02899
  1136 429.084 -10.4261 0.753965
  1137 429.023 -10.4074 -0.721058
  1138 114.101 72.6685 91.8838
  1139 341.576 -4.11032 -3.08785
  1140 341.620 -4.08189 3.07471
  1141 428.195 32.4912 -0.439591
  1142 537.045 71.0019 -190.426
  1143 519.621 89.3887 -28.8355
  1144 473.657 -18.2540 -39.5772
  1145 466.470 -23.3514 -28.2072
  1146 385.779 -30.5747 -21.8990
  1147 390.697 1.33519 11.7799
  1148 437.352 27.3781 -28.2732
  1149 431.471 23.3235 27.0400
  1150 443.792 -17.7103 -5.58958
  1151 424.049 -25.5608 1.95300
  1152 386.466 -24.7813 -16.3440
  1153 459.168 -2.73304 21.0385
  1154 801.822 80.8044 11.2146
  1155 462.096 -9.89377 38.2974
  1156 464.334 30.4969 42.2759
  1157 427.552 -41.9920 -13.6260
  1158 55.3409 8.81391 -32.4410
  1159 435.559 -20.1792 -3.57707
  1160 294.043 -0.412177 -0.197301
  1161 294.117 -0.410354 0.195456
  1162 528.591 -14.0227 18.5384
  1163 503.617 -42.4536 20.6805
  1164 721.654 128.797 32.2877
  1165 177.815 -0.325895 -17.1296
  1166 178.814 -0.288293 17.0076
  1167 390.267 -7.87703 -1.98325
  1168 390.252 -7.83078 1.97051
  1169 436.825 -38.4888 -2.86177
  1170 362.716 1.71168 5.36639
  1171 447.217 -31.8511 8.11677
  1172 26.1388 31.0461 -15.9436
  1173 82.1301 40.4835 55.2754
  1174 300.575 -16.5389 100.338
  1175 517.863 98.3290 -20.6082
  1176 492.949 -1.41505 -5.81703
  1177 515.134 -0.875949 0.304156
  1178 515.598 -1.17311 -0.180188
  1179 305.356 -0.657510 -0.628723
  1180 305.429 -0.652144 0.624523
  1181 477.372 30.4990 47.8445
  1182 701.514 119.291 -2.54667
  1183 492.148 81.1711 -21.2076
  1184 367.476 -27.1952 103.201
  1185 298.984 -15.9252 -100.140
  1186 333.198 -22.0679 -35.2733
  1187 457.855 -12.9384 8.35194
  1188 637.127 140.820 8.28845
  1189 333.238 -21.9418 35.0111
  1190 467.425 -8.35193 6.31723
  1191 420.575 15.7616 25.8308
  1192 461.759 14.3382 46.0809
  1193 653.946 145.880 17.7754
  1194 390.970 -10.1597 3.67339
  1195 390.987 -10.2053 -3.69631
  1196 473.654 -9.05340 14.2552
  1197 285.244 -2.95462 11.7312
  1198 285.046 -2.98397 -11.8308
  1199 463.157 -6.49574 -2.68774
  1200 191.745 114.756 -176.052
  1201 401.162 -22.7022 -110.538
  1202 380.558 -11.8288 -6.57695
  1203 380.600 -11.7784 6.57955
  1204 495.561 -2.49028 2.20261
  1205 470.053 -6.35102 5.03513
  1206 26.4539 33.8253 25.2024
  1207 509.887 -0.632954 1.85102
  1208 61.9387 79.4030 78.7616
  1209 459.397 -7.05075 -3.48503
  1210 -0.472349 -11.1231 -9.76914
  1211 326.587 -31.8948 -77.7646
  1212 325.723 -31.1267 77.0053
  1213 509.865 -0.952878 -2.05884
  1214 438.270 -23.1362 -4.37457
  1215 495.253 -2.28875 -2.22902
  1216 399.259 -12.8754 -3.69688
  1217 399.224 -12.8321 3.66159
  1218 462.866 -6.45305 2.51301
  1219 435.250 -19.7803 3.53991
  1220 419.195 -13.5142 0.748020
  1221 419.337 -13.5469 -0.700751
  1222 494.790 -2.35749 -1.81127
  1223 428.226 -45.2005 -75.9350
  1224 484.506 -3.19021 -1.82108
  1225 461.307 -7.23968 3.78171
  1226 325.735 -3.45285 -4.71283
  1227 325.793 -3.41973 4.68775
  1228 362.379 -5.25589 -2.48977
  1229 362.400 -5.22149 2.47862
  1230 581.768 90.9933 26.3933
  1231 489.273 -37.7086 16.0184
  1232 336.453 -1.70074 127.337
  1233 273.831 -0.422084 4.50755
  1234 273.605 -0.426810 -4.54970
  1235 464.712 -8.64359 28.6655
  1236 444.341 -6.89195 0.588624
  1237 444.356 -6.87016 -0.588327
  1238 509.802 98.8828 9.66854
  1239 464.867 -48.7497 60.6854
  1240 273.738 -3.76621 16.3996
  1241 273.475 -3.79354 -16.5127
  1242 443.786 -10.9525 2.77944
  1243 443.686 -11.0298 -2.68317
  1244 457.603 -12.7876 -8.02761
  1245 423.286 0.103634 13.7487
  1246 723.266 179.900 -61.5891
  1247 466.342 -17.1617 -24.9621
  1248 81.9516 19.1057 47.0459
  1249 481.538 -25.7540 34.4874
  1250 390.574 8.69721 -10.4475
  1251 30.8171 22.0630 17.5785
  1252 630.951 71.6564 -9.36587
  1253 470.573 -21.4708 -35.1269
  1254 392.370 5.71011 16.0127
  1255 269.543 -16.6930 52.2890
  1256 477.563 -37.0517 19.8541
  1257 688.889 134.398 45.9193
  1258 162.574 23.6538 89.4350
  1259 479.617 -5.85623 -12.3040
  1260 910.534 10.2548 -9.07536
  1261 939.950 14.0578 40.3121
  1262 1002.36 33.7647 -96.0547
  1263 465.981 -14.6292 -31.3877
  1264 465.756 -21.3446 26.3831
  1265 472.972 -33.7454 24.1175
  1266 -13.8578 1.67306 8.72714
  1267 -12.5861 1.36147 -9.52949
  1268 459.980 -50.9202 -29.2450
  1269 470.827 -47.6967 -43.0789
  1270 365.210 2.39352 -6.61921
  1271 457.979 -51.8139 42.8943
  1272 489.672 -23.3059 -34.9339
  1273 10.3597 14.9335 2.35175
  1274 399.652 -7.32316 1.30493
  1275 399.679 -7.37262 -1.30836
  1276 485.955 -4.04732 8.30594
  1277 467.377 -8.20798 -5.91510
  1278 440.753 -48.1069 -16.1455
  1279 403.682 -21.7405 7.41081
  1280 401.690 -21.4299 -7.96375
  1281 472.221 -10.1021 19.8296
  1282 484.035 -17.8568 -40.6158
  1283 31.9613 23.0021 -17.1189
</Section>

newXOutput 27

<Section columns = "stress_xx | stress_yy | stress_xy">
  1 537.262 -0.189797 1.00187
  2 537.265 -0.179442 -1.00441
  3 301.213 -0.0793670 -0.361508
  4 -3.77889 -3.73081 -5.43477
  5 950.336 388.733 307.582
  6 941.666 402.396 -306.041
  7 -4.39128 -3.53887 5.79148
  8 301.136 -0.0803987 0.360620
  9 540.857 -0.934429 0.291805
  10 539.818 -1.46273 -0.299485
  11 538.756 -1.00869 1.12117
  12 537.672 -1.35991 0.255818
  13 535.324 -1.15674 1.76359
  14 533.174 -1.16251 1.25101
  15 527.969 -1.02444 2.55015
  16 520.381 -0.760264 3.77250
  17 513.650 -0.782110 4.23351
  18 503.537 -1.04573 5.15481
  19 489.360 -0.123670 7.66939
  20 476.267 -0.768831 7.33179
  21 461.173 -0.970698 10.3847
  22 439.393 0.681100 9.07664
  23 423.484 1.06986 10.7661
  24 402.714 1.77759 8.45668
  25 388.280 1.92634 8.54144
  26 367.379 2.64197 4.36454
  27 362.945 4.15050 4.69019
  28 360.264 3.43424 -1.38953
  29 363.896 2.04430 -3.03529
  30 370.599 1.94739 -3.72766
  31 386.264 2.42694 -7.42923
  32 401.482 1.91863 -9.36795
  33 423.688 0.466405 -11.0884
  34 441.430 -0.211343 -10.0491
  35 460.237 -0.768394 -9.82656
  36 477.210 -0.603975 -6.90987
  37 491.693 -0.646358 -5.87658
  38 503.554 -1.02700 -4.90043
  39 514.106 -0.752317 -3.37096
  40 520.602 -0.912528 -3.55724
  41 526.885 -1.09085 -2.59076
  42 532.748 -1.28122 -1.08106
  43 535.730 -1.04098 -1.30906
  44 537.213 -0.671879 -0.794472
  45 535.872 -0.419677 -0.726856
  46 540.322 -1.46386 0.212836
  47 541.001 -0.968681 -0.300628
  48 524.227 -0.565019 -0.620864
  49 513.075 -2.39425 -1.15611
  50 499.366 -3.46899 -0.700519
  51 482.592 -5.02907 -0.974581
  52 466.616 -5.46664 -1.18244
  53 449.511 -6.72389 -1.13431
  54 434.322 -7.40944 -0.587317
  55 420.996 -8.19402 -0.165838
  56 405.602 -6.77441 -0.150603
  57 387.853 -6.28221 -0.325831
  58 370.761 -4.91345 -0.0383032
  59 354.583 -3.08751 0.0212447
  60 339.228 -2.16716 0.0799740
  61 325.793 -1.06825 0.185524
  62 312.100 -0.253930 -0.409530
  63 301.345 0.429818 0.572160
  64 296.475 1.13952 0.404618
  65 299.633 0.0292039 0.922711
  66 295.794 -0.129326 1.12140
  67 292.165 -0.204312 1.39538
  68 287.277 -0.00217131 1.79995
  69 281.122 0.00101701 2.25406
  70 276.441 -0.319342 4.28754
  71 263.553 0.383356 4.67057
  72 254.399 -0.0106256 5.31569
  73 240.772 -0.216480 6.03881
  74 225.112 -0.375689 7.34072
  75 205.522 -0.0729179 8.91432
  76 181.645 0.120541 9.84828
  77 160.843 -0.184823 14.0847
  78 120.062 1.28765 13.3347
  79 92.0630 1.10854 14.1300
  80 58.3107 -0.279899 15.7335
  81 30.0823 2.54342 16.4448
  82 -2.15565 3.84656 10.0403
  83 -25.8412 3.91864 3.76278
  84 -25.7237 3.82833 -1.07946
  85 -25.1014 3.20307 -7.45953
  86 -14.8251 -0.947576 -7.17294
  87 -1.76051 -14.2305 -7.93702
  88 1.49295 -26.0876 -9.82213
  89 4.01452 -40.6283 -5.13762
  90 8.83551 -40.3966 1.16226
  91 18.5763 -5.78523 25.3837
  92 54.7573 90.7110 83.7383
  93 314.269 306.087 276.280
  94 1152.61 173.327 191.568
  95 1041.19 24.7324 62.0290
  96 970.336 10.3369 18.9822
  97 944.219 8.82120 1.44113
  98 958.207 11.6845 -16.5015
  99 1039.17 23.1324 -49.1232
  100 1218.37 83.5916 -164.206
  101 187.364 314.566 -231.810
  102 40.9738 67.3233 -69.7544
  103 20.3209 -3.74468 -27.0895
  104 8.28361 -40.1926 -5.23066
  105 2.43241 -30.7305 5.86094
  106 2.99448 -32.9296 8.48391
  107 0.173604 -12.2615 8.79584
  108 -15.4857 -0.580106 6.78689
  109 -25.8944 2.40504 6.48948
  110 -27.1043 4.64701 1.22055
  111 -26.6584 3.85055 -3.51266
  112 -4.04008 3.94187 -9.42562
  113 28.4352 2.56509 -15.6901
  114 56.6327 -0.00676929 -15.4762
  115 90.3269 1.19791 -14.1572
  116 118.486 1.32061 -13.4327
  117 159.621 -0.190646 -14.1984
  118 180.600 0.133160 -9.94002
  119 204.608 -0.0697250 -9.02268
  120 224.646 -0.417952 -7.39209
  121 240.138 -0.204359 -6.05276
  122 253.916 0.00586973 -5.36845
  123 263.156 0.378934 -4.71927
  124 276.153 -0.322631 -4.32878
  125 280.888 -0.00111722 -2.27930
  126 287.098 -0.00421717 -1.82067
  127 292.025 -0.207709 -1.41176
  128 295.684 -0.132239 -1.13281
  129 299.539 0.0267323 -0.929965
  130 296.392 1.13834 -0.407961
  131 301.266 0.429214 -0.574267
  132 312.023 -0.256731 0.408480
  133 325.722 -1.07528 -0.188077
  134 339.166 -2.18254 -0.0829490
  135 354.536 -3.10886 -0.0240988
  136 370.732 -4.94426 0.0354589
  137 387.846 -6.32127 0.323577
  138 405.618 -6.81973 0.148242
  139 421.031 -8.24506 0.164733
  140 434.370 -7.46045 0.588981
  141 449.581 -6.77031 1.13956
  142 466.678 -5.49849 1.20128
  143 482.640 -5.05759 1.06563
  144 499.457 -3.29201 0.715949
  145 513.431 -2.33588 1.13033
  146 524.324 -0.646694 0.611140
  147 471.799 -44.3476 -1.07163
  148 471.388 -43.7467 1.23750
  149 496.974 71.2785 -23.2690
  150 527.692 31.0684 48.6813
  151 399.959 -38.6596 -89.4085
  152 403.239 -38.5949 86.5978
  153 390.771 -16.4003 11.2990
  154 390.797 -16.6229 -11.3046
  155 558.186 20.2283 -35.9789
  156 470.563 -17.0573 9.11470
  157 470.360 -16.6553 -9.00464
  158 608.147 134.968 5.22553
  159 482.796 -0.765100 -48.1260
  160 358.994 -27.9808 -40.2463
  161 359.020 -27.7539 39.9107
  162 483.337 -10.9963 43.1945
  163 460.980 33.7308 28.9693
  164 191.696 30.3114 -106.797
  165 212.135 28.7562 112.466
  166 587.684 7.19157 1.27386
  167 484.019 -18.6675 -29.5133
  168 639.145 140.325 0.0877163
  169 436.690 -12.3752 -0.682139
  170 436.601 -12.3413 0.716968
  171 488.415 -6.15215 -3.93362
  172 489.877 -5.55622 3.38260
  173 346.335 -4.82184 -6.53324
  174 346.384 -4.77318 6.50281
  175 522.306 -13.1596 113.727
  176 446.718 18.6793 -31.2354
  177 293.184 -21.8348 -64.0464
  178 294.048 -21.6779 63.6513
  179 329.888 -10.5950 -21.0938
  180 329.925 -10.4763 20.9484
  181 486.257 -12.8935 25.1041
  182 442.608 -30.3099 -2.52622
  183 441.098 -30.0847 3.20086
  184 501.302 -48.6308 -10.8957
  185 503.974 -46.3315 4.70000
  186 691.144 162.930 -26.7640
  187 506.558 81.1176 21.7154
  188 506.518 31.1031 -49.3479
  189 520.140 -3.58311 -131.709
  190 501.599 -28.4388 -33.4389
  191 505.963 -20.3426 39.7925
  192 422.592 -47.9366 44.5763
  193 422.657 -47.5900 -44.4506
  194 453.833 5.86260 37.4380
  195 209.683 -5.28192 -78.4979
  196 210.174 -5.70890 78.0387
  197 777.034 116.001 16.9751
  198 475.412 -28.3902 17.6039
  199 492.538 -9.21472 -16.1599
  200 393.206 -9.52595 -5.26723
  201 393.217 -9.48074 5.25252
  202 474.448 -6.19405 -33.3851
  203 539.374 79.0791 -39.0192
  204 453.765 40.8649 -5.79552
  205 297.662 -10.3267 29.4586
  206 297.220 -10.3565 -29.6645
  207 499.218 -5.74753 8.64344
  208 488.349 9.19022 49.5454
  209 397.961 -28.7533 -20.0464
  210 395.390 -27.2188 20.4529
  211 573.816 85.1662 34.8220
  212 670.687 94.0421 19.6821
  213 47.4464 36.5449 -31.1187
  214 43.9306 33.7807 26.5139
  215 278.604 80.3367 186.648
  216 470.704 -31.3202 -13.0505
  217 500.902 -5.51695 -7.79968
  218 448.912 4.04486 -34.4919
  219 317.862 -3.03516 -9.38519
  220 317.966 -3.00148 9.30926
  221 424.781 -19.8503 -4.92378
  222 424.980 -19.9784 4.68621
  223 478.287 -6.48877 28.3241
  224 547.352 -31.6005 15.2533
  225 546.975 111.289 -11.1906
  226 428.951 -41.3013 -21.7929
  227 540.209 -9.43361 29.8398
  228 461.367 -7.93624 1.23768
  229 461.368 -7.87436 -1.23621
  230 425.906 -41.1080 22.5536
  231 486.867 -30.9842 26.9971
  232 678.454 90.3863 -47.6036
  233 153.532 91.3177 -136.492
  234 416.487 14.8132 7.50033
  235 490.569 43.2326 41.8153
  236 520.682 -3.70269 -43.1626
  237 487.206 -17.6102 -40.1457
  238 263.872 -8.32526 -36.7544
  239 264.752 -8.20205 36.6507
  240 487.816 -5.99266 -21.7230
  241 464.687 -11.9194 4.55121
  242 464.470 -11.9078 -4.37730
  243 100.770 8.95065 -50.6308
  244 102.279 7.84185 50.4513
  245 515.790 -45.2088 -42.3972
  246 509.966 -2.04790 1.09330
  247 510.470 -2.08457 -1.21852
  248 479.488 39.7831 -38.3719
  249 424.341 8.33141 22.6732
  250 868.743 139.080 93.5963
  251 861.186 98.0492 -58.2943
  252 630.840 135.302 0.0311528
  253 394.126 -19.1493 118.502
  254 362.222 -12.6194 -123.823
  255 416.662 -8.56263 -2.00436
  256 416.627 -8.51132 1.99177
  257 348.305 -9.12664 13.0831
  258 348.296 -9.24949 -13.1900
  259 499.006 -5.54663 13.1661
  260 484.858 -34.6059 -21.7925
  261 319.882 -0.525437 -2.22404
  262 319.960 -0.515861 2.21156
  263 478.807 -19.5146 -17.4979
  264 207.351 -6.70157 -51.0952
  265 208.202 -6.72219 50.7460
  266 484.998 -21.1237 31.8376
  267 371.516 -39.4306 71.9777
  268 372.412 -40.1342 -71.7547
  269 422.301 16.3647 -10.5545
  270 364.505 -5.46201 -4.41321
  271 364.541 -5.42661 4.39781
  272 456.845 -1.09125 27.5388
  273 543.966 99.2544 26.9713
  274 296.094 -3.48200 15.7461
  275 295.873 -3.51022 -15.8716
  276 497.437 -41.6623 14.3037
  277 460.469 -51.7836 -49.2504
  278 512.034 -2.68336 3.94189
  279 360.098 -21.0562 -27.6383
  280 359.510 -20.8261 27.5422
  281 624.961 69.6934 166.162
  282 301.189 -24.3740 85.5800
  283 484.291 67.9119 -2.46333
  284 607.091 67.8762 -20.8320
  285 460.038 -35.5635 3.99092
  286 460.898 -53.1868 44.5796
  287 302.056 -23.9878 -86.5041
  288 56.9153 70.3450 64.6783
  289 478.891 -19.5771 17.8299
  290 624.956 82.6226 15.2136
  291 515.847 -2.39914 -3.41897
  292 471.364 16.5772 -44.1820
  293 463.526 -26.2548 8.82205
  294 454.007 -38.2770 2.98834
  295 469.777 21.6289 42.6123
  296 495.119 -41.6614 -12.5582
  297 699.036 135.279 -12.7381
  298 463.403 -25.2432 -8.42338
  299 380.068 111.563 -227.291
  300 473.217 -50.2159 -11.3766
  301 469.931 -51.5936 16.7105
  302 347.872 -31.2884 -56.4915
  303 316.927 -1.12687 -4.81345
  304 317.020 -1.10711 4.77874
  305 348.037 -31.3184 56.1997
  306 501.348 -0.872993 -49.4159
  307 539.136 -22.3407 -18.7642
  308 413.438 -24.7299 -11.1244
  309 413.196 -24.7880 11.3183
  310 490.641 -42.2400 77.8368
  311 491.685 -4.04329 16.4344
  312 593.425 3.76570 30.1647
  313 405.485 -14.2022 -6.22960
  314 405.516 -14.1591 6.19898
  315 370.703 -9.47934 -8.77174
  316 370.712 -9.39378 8.76086
  317 420.156 5.78060 -21.9198
  318 533.964 39.1550 -47.0682
  319 817.733 221.615 -107.286
  320 485.468 -4.54419 -1.27371
  321 485.210 -4.48576 1.31368
  322 262.946 -0.828790 106.810
  323 368.557 -16.4706 -18.5046
  324 367.896 -16.4215 18.5540
  325 262.893 -1.45866 -106.401
  326 510.251 60.1435 -40.4944
  327 568.100 28.3421 33.8845
  328 490.445 -34.9773 -86.1891
  329 453.342 -17.5700 3.37676
  330 452.895 -17.4492 -3.18800
  331 482.750 -10.2317 -8.22935
  332 457.139 -0.830323 -25.7441
  333 510.306 2.11189 48.2008
  334 507.577 -3.72523 -9.02421
  335 309.795 -18.5387 42.9999
  336 309.456 -18.6378 -43.3121
  337 476.020 -1.05183 45.7751
  338 298.151 -2.31835 -9.38785
  339 298.340 -2.29697 9.30855
  340 486.432 -11.3805 13.2433
  341 583.964 118.917 -19.0022
  342 482.543 -10.3012 8.55654
  343 515.840 64.6384 40.5714
  344 493.177 -9.23980 47.0633
  345 392.796 -7.28894 1.98349
  346 392.795 -7.33103 -1.99497
  347 468.003 -1.63647 -40.6589
  348 616.187 129.286 10.9477
  349 514.869 94.0107 0.841788
  350 314.918 36.4614 -158.144
  351 34.3739 14.3343 -22.6102
  352 37.4969 15.5226 24.2390
  353 -1.08926 3.92743 9.03392
  354 0.744918 2.38495 -9.47867
  355 887.881 61.6444 20.9243
  356 426.306 -34.4506 -13.3046
  357 486.770 -11.0109 -12.9131
  358 440.534 -7.88878 0.316627
  359 440.484 -7.82946 -0.320006
  360 472.982 52.2549 -20.7971
  361 402.941 -40.8761 36.7195
  362 36.3560 54.3914 -40.6846
  363 403.281 -40.8564 -37.3482
  364 478.973 54.4697 22.1256
  365 486.183 -13.1156 -23.8573
  366 514.912 -28.8486 -27.8725
  367 550.634 115.633 7.68807
  368 515.947 -32.3573 22.4853
  369 218.823 -5.31467 34.1759
  370 217.580 -5.21073 -34.3789
  371 124.949 2.89105 -47.8400
  372 126.176 2.41484 47.6333
  373 426.468 1.57206 22.1357
  374 793.637 234.278 94.5220
  375 501.876 -3.33872 -11.6380
  376 393.174 -32.9412 -28.2444
  377 392.881 -32.8677 28.2086
  378 483.723 -11.2668 -30.5855
  379 548.107 -26.4849 0.693833
  380 426.292 -34.4239 13.6694
  381 599.294 5.38581 -52.8244
  382 346.176 -2.66530 -1.77169
  383 346.232 -2.64322 1.76098
  384 476.501 -2.82596 -19.7061
  385 261.490 -3.64768 -22.2578
  386 261.642 -3.76800 21.9989
  387 567.113 72.5629 -38.9925
  388 307.829 21.5993 147.138
  389 445.394 -23.3581 0.734568
  390 445.824 -23.3208 -0.752305
  391 523.820 88.3462 -25.5277
  392 494.888 -14.7490 -44.4034
  393 494.452 -50.6477 43.6549
  394 415.245 -11.0038 -3.17722
  395 415.202 -10.9554 3.15129
  396 477.170 -36.8713 13.9666
  397 512.132 -2.60393 6.66879
  398 324.686 -11.5772 -26.2986
  399 324.818 -11.5813 26.0895
  400 486.045 16.3511 -48.9266
  401 457.678 -10.1232 1.82691
  402 457.655 -10.1493 -1.77152
  403 474.586 -5.63907 37.1876
  404 444.674 32.5646 10.0581
  405 490.832 -20.8403 38.5052
  406 705.675 147.152 27.9012
  407 240.718 -12.9113 -68.5940
  408 241.367 -12.9125 68.0973
  409 108.194 57.3454 -83.1380
  410 522.597 -1.74738 1.74921
  411 272.666 -2.18812 -14.1039
  412 273.013 -2.14184 13.9906
  413 484.049 -12.7414 29.8887
  414 439.285 -47.6066 25.0665
  415 494.194 -6.41595 5.80467
  416 505.606 25.6380 50.7655
  417 113.185 61.0599 86.4851
  418 439.915 -47.3243 -23.1962
  419 454.385 -42.1823 -6.17517
  420 152.753 -3.04837 -43.1993
  421 153.822 -3.15681 42.9151
  422 349.848 -28.2441 -103.188
  423 520.671 -7.87663 42.0122
  424 348.616 -28.6371 102.316
  425 481.563 -27.1443 -24.2883
  426 450.585 30.5648 -21.9601
  427 481.613 -20.9528 23.1867
  428 515.845 -2.51725 -4.40465
  429 16.4713 18.0551 8.79495
  430 106.586 124.467 122.230
  431 465.459 -1.69699 19.0955
  432 394.617 5.59620 9.64520
  433 401.057 6.77379 -13.0594
  434 342.187 -5.46196 -9.23468
  435 342.230 -5.39374 9.18044
  436 474.790 -36.8427 -12.6377
  437 480.641 -9.47781 -41.5111
  438 396.593 7.66028 -3.54559
  439 705.030 168.306 37.8782
  440 100.761 32.7460 -62.4294
  441 110.809 30.0414 66.5363
  442 444.982 -15.9146 0.940104
  443 444.819 -15.8833 -0.828290
  444 592.495 130.028 -1.42631
  445 365.872 156.781 232.337
  446 567.132 -7.64579 -4.45997
  447 331.103 -16.9879 -35.6714
  448 331.264 -16.8765 35.3883
  449 334.054 -7.23923 14.2525
  450 333.985 -7.29002 -14.3707
  451 447.810 10.1019 -35.5662
  452 525.096 -0.937547 -1.13914
  453 436.104 20.2171 20.0494
  454 546.297 67.3850 42.9717
  455 455.360 -33.7752 -2.43808
  456 493.969 -6.12586 -5.64985
  457 517.863 -2.29923 4.05427
  458 523.543 -1.01170 0.648551
  459 523.926 -1.11813 -0.460221
  460 296.787 -0.473408 3.50440
  461 296.638 -0.480779 -3.53755
  462 497.259 -31.7356 29.3762
  463 451.997 17.9807 34.4546
  464 471.115 1.95434 -44.7257
  465 489.702 -10.5322 17.5304
  466 696.560 123.076 -141.649
  467 491.257 -27.3798 -33.3221
  468 6.04132 9.51560 4.63475
  469 5.94523 9.72060 -2.19894
  470 391.657 -21.9317 16.2540
  471 390.397 -21.6265 -16.0398
  472 605.180 13.1075 77.5856
  473 170.919 159.207 -177.544
  474 485.451 -1.55978 14.6992
  475 546.326 -31.6036 -45.2602
  476 296.746 -16.8411 49.6840
  477 588.090 104.403 -27.3816
  478 484.248 -26.3366 27.7552
  479 408.533 -19.3520 -8.53208
  480 408.888 -19.0385 8.51335
  481 426.370 2.35279 -19.5319
  482 295.841 -16.7693 -49.9675
  483 436.578 0.288062 19.5919
  484 415.291 -47.5690 -64.7405
  485 414.271 -47.6414 65.0071
  486 499.244 -3.44845 12.8716
  487 457.319 43.2267 4.15335
  488 458.519 8.65470 159.801
  489 676.108 136.737 -0.852519
  490 468.281 -8.14180 2.37775
  491 468.301 -8.11386 -2.48246
  492 364.209 -6.29357 -5.97958
  493 364.240 -6.24363 5.96032
  494 193.311 8.52407 90.1337
  495 486.521 -23.5567 -32.7690
  496 441.893 -9.73664 -0.157124
  497 441.849 -9.70609 0.164431
  498 385.794 -40.7019 52.9475
  499 196.957 11.3155 -92.3785
  500 486.744 -39.7733 -14.5413
  501 8.93293 2.91099 2.86227
  502 429.916 22.4326 1.48085
  503 469.833 -5.71891 -0.757647
  504 469.827 -5.79110 0.735235
  505 385.985 -40.6233 -53.3437
  506 546.803 -27.7939 56.8912
  507 544.320 19.7802 43.3441
  508 501.326 -3.69371 -2.72568
  509 485.265 -40.3230 14.7956
  510 310.732 -0.233472 -0.651785
  511 310.811 -0.230888 0.647150
  512 485.209 -18.7397 -35.2294
  513 471.992 34.9760 37.5743
  514 537.773 13.3061 -42.8608
  515 308.836 -0.425154 -1.97782
  516 308.925 -0.418881 1.96569
  517 924.927 133.722 -119.053
  518 490.678 58.3504 32.9710
  519 501.729 -3.43658 2.41623
  520 455.360 -43.1209 7.28367
  521 385.479 -12.5646 9.09425
  522 385.469 -12.6559 -9.07572
  523 527.994 -32.2855 10.9295
  524 508.832 -10.2779 -44.6367
  525 569.310 111.747 23.5239
  526 475.149 8.22626 46.4096
  527 476.839 -9.42207 4.99978
  528 462.958 -49.5836 -62.7995
  529 481.891 -12.0339 34.9616
  530 913.159 42.0389 -16.6270
  531 523.980 -39.6131 2.17567
  532 498.222 -3.60355 -0.586564
  533 498.344 -3.81300 0.494058
  534 922.686 61.8710 58.0545
  535 463.754 -0.0988812 39.4764
  536 642.973 109.374 -6.23949
  537 485.474 -13.4080 -16.8960
  538 225.577 -2.03497 -15.2077
  539 226.231 -1.93619 15.0603
  540 331.385 -30.9532 -71.7702
  541 331.670 -30.4369 71.2574
  542 476.571 -9.04869 -4.96477
  543 519.361 19.0364 -49.1119
  544 456.680 -31.0615 4.19646
  545 492.771 56.4565 -34.1584
  546 494.127 -5.92837 17.3102
  547 615.362 32.0039 -11.2260
  548 424.540 -14.5146 -3.06245
  549 424.421 -14.4707 3.03368
  550 459.806 -21.7644 6.32849
  551 672.810 134.979 -14.7263
  552 485.619 21.2620 48.1722
  553 208.898 53.5830 132.872
  554 465.753 -27.8826 107.708
  555 610.697 32.0703 -119.277
  556 496.381 41.0449 -44.7206
  557 438.155 -38.0468 -93.5376
  558 474.875 -52.1445 -20.4943
  559 495.141 -50.2965 -29.1117
  560 66.4498 87.4739 -82.7761
  561 497.913 -6.55871 -10.3359
  562 745.409 144.659 -43.6756
  563 462.183 -20.9082 -7.27015
  564 465.783 -15.3113 6.01775
  565 465.358 -14.9740 -5.73999
  566 326.886 -1.75833 -4.39784
  567 326.961 -1.73573 4.37183
  568 49.0079 4.74093 -26.6763
  569 51.4754 4.97812 27.2752
  570 243.746 -11.1659 -52.2459
  571 245.536 -11.2294 52.1851
  572 472.231 -25.6901 -14.7873
  573 480.263 -52.3614 22.0281
  574 493.612 -47.0000 0.373517
  575 407.670 -7.20016 -1.69744
  576 407.651 -7.15253 1.68947
  577 385.528 -40.5466 -80.0018
  578 429.956 -35.4288 98.8242
  579 376.453 -38.1514 80.4168
  580 486.458 -10.8678 -44.5359
  581 309.789 -4.97221 15.8889
  582 309.638 -5.02271 -16.0101
  583 465.681 25.8566 -37.7805
  584 465.750 -0.823182 -17.3264
  585 579.650 125.122 -10.3928
  586 381.736 -5.67695 -1.61046
  587 381.751 -5.64178 1.60365
  588 494.365 -1.52228 -9.62952
  589 345.548 -11.4148 -17.7941
  590 345.567 -11.3787 17.6511
  591 280.676 12.6113 126.811
  592 481.158 -22.2641 -23.4152
  593 271.303 -14.5263 91.2290
  594 472.864 -24.6008 15.1635
  595 496.709 -7.25053 11.4602
  596 490.104 -4.78872 -2.36810
  597 349.949 -4.18052 -4.15437
  598 349.999 -4.14763 4.13556
  599 556.275 110.611 -21.3695
  600 271.103 -14.0062 -91.5466
  601 471.263 -20.5344 -11.9737
  602 426.507 -7.99267 -0.929385
  603 426.466 -7.93800 0.925891
  604 790.308 106.061 -19.0097
  605 288.111 -1.76348 8.72611
  606 287.870 -1.78029 -8.80158
  607 442.774 10.2987 32.4915
  608 623.856 53.5450 -2.91683
  609 298.755 1.70332 -125.791
  610 155.739 3.65931 -69.0792
  611 156.971 2.80956 68.7174
  612 375.694 -21.6522 22.2696
  613 379.464 -22.2910 -21.6905
  614 632.727 127.807 7.73960
  615 488.191 -4.95240 2.10840
  616 424.578 12.1569 -19.6716
  617 525.224 94.0356 20.2023
  618 523.471 97.5596 -13.4424
  619 430.128 -23.7475 -4.87002
  620 433.305 -23.2295 3.35764
  621 307.520 67.4782 -180.089
  622 371.982 -12.5094 -12.5080
  623 372.020 -12.3710 12.4709
  624 920.874 188.763 142.285
  625 485.583 -16.0065 38.1740
  626 282.014 -9.75601 -33.4541
  627 742.527 178.922 122.458
  628 282.649 -9.70513 33.3395
  629 461.763 -17.4722 -125.342
  630 332.667 -1.52367 -1.61831
  631 332.735 -1.51064 1.61101
  632 410.223 3.80577 17.1730
  633 189.575 -2.74403 -29.9942
  634 190.557 -2.75151 29.7725
  635 424.699 -29.9159 10.4569
  636 444.688 -35.5322 -4.30100
  637 520.783 -1.24836 -3.76653
  638 301.579 -0.438613 2.61364
  639 301.460 -0.446740 -2.63790
  640 401.811 -9.00891 -2.72393
  641 401.800 -8.96229 2.70683
  642 457.614 -50.9222 63.3807
  643 527.099 58.8125 -44.5197
  644 353.965 -16.2396 -22.9028
  645 353.732 -15.9698 22.7476
  646 417.083 -29.8221 -13.9175
  647 652.776 141.610 5.95159
  648 490.774 -47.5981 2.26864
  649 428.060 -10.3048 -1.62822
  650 428.000 -10.2588 1.62715
  651 585.129 64.3930 31.8098
  652 492.168 -7.28308 -18.8058
  653 438.969 -0.471861 -15.9397
  654 205.634 -7.04170 -65.8421
  655 206.229 -7.22835 65.3308
  656 415.847 -35.6977 -21.6745
  657 621.089 135.920 0.0713964
  658 484.368 65.5045 -14.8528
  659 325.075 -2.82714 -8.02235
  660 325.156 -2.78839 7.96426
  661 450.191 -12.8487 -1.18910
  662 450.277 -12.8579 1.27854
  663 828.223 107.899 47.6933
  664 527.663 -1.56664 0.963105
  665 511.740 -2.15275 6.56703
  666 509.928 -2.17056 -7.76788
  667 485.028 -45.2439 4.84917
  668 361.402 -4.08836 -2.07445
  669 361.442 -4.06080 2.06624
  670 519.979 83.0887 31.2178
  671 663.319 147.050 -10.9637
  672 366.948 -26.9832 -32.4384
  673 366.864 -26.7268 32.2884
  674 455.775 -46.9310 -11.6814
  675 482.299 28.7091 -45.3929
  676 568.038 1.68434 16.5313
  677 381.879 -6.99929 -4.25117
  678 381.896 -6.95730 4.23603
  679 330.306 -28.8306 -64.7855
  680 480.515 -46.5456 -0.487981
  681 400.709 -44.4131 58.3714
  682 193.199 60.6407 -128.309
  683 375.339 -34.5734 45.0406
  684 452.948 0.129453 14.6682
  685 330.624 -28.5088 64.3726
  686 470.998 -20.9197 12.1214
  687 375.433 -34.4218 -45.4274
  688 388.347 5.21986 3.61364
  689 300.745 -7.87137 23.8732
  690 300.484 -7.87674 -24.0276
  691 400.875 -45.5612 -59.0061
  692 494.048 -32.6629 -28.3693
  693 453.613 -6.58107 -0.340434
  694 453.685 -6.64442 0.342301
  695 504.594 -32.2868 27.8634
  696 459.162 -47.9783 13.5584
  697 556.942 51.1724 42.0889
  698 503.360 -9.53404 46.2146
  699 484.387 -17.5265 27.7712
  700 465.343 38.3558 -28.6606
  701 556.647 93.4222 33.4155
  702 481.142 -6.72544 -27.4308
  703 478.539 -16.0387 13.6896
  704 497.066 77.6261 8.01053
  705 487.248 -8.39167 23.6689
  706 155.048 105.883 134.727
  707 453.122 -52.1791 -37.4824
  708 524.568 9.47628 46.7339
  709 528.850 -16.4252 -32.1527
  710 525.585 -0.836551 2.02260
  711 483.826 -16.7910 -21.6126
  712 453.834 -52.5849 34.2409
  713 866.365 76.8063 -12.8038
  714 276.675 -1.12029 9.12358
  715 276.358 -1.13220 -9.20332
  716 489.964 -9.14091 -9.76698
  717 528.568 -0.649148 -1.98898
  718 415.135 -36.2814 21.7836
  719 496.908 -18.6010 41.7675
  720 746.667 181.742 -60.8629
  721 471.016 -34.1828 11.9334
  722 520.791 -34.4053 -15.0230
  723 478.701 -15.6210 -13.4647
  724 528.031 -1.06342 -0.585887
  725 486.014 -0.0788503 48.6632
  726 23.0336 23.6265 29.9994
  727 543.335 -20.3155 -83.1144
  728 592.588 35.7449 18.2169
  729 494.728 -50.6682 26.3007
  730 357.544 -8.39716 10.2091
  731 357.535 -8.51078 -10.2528
  732 454.253 240.003 -243.788
  733 504.773 -33.5154 -25.5363
  734 386.894 2.21818 -6.91207
  735 447.108 2.56492 31.5801
  736 487.649 -24.5143 33.2733
  737 467.404 -39.3896 4.77977
  738 484.195 -44.2989 -68.1374
  739 464.648 -36.7652 -5.73470
  740 546.403 -26.1261 -2.59022
  741 503.579 -4.36374 5.64462
  742 451.598 -27.1139 2.42000
  743 811.288 162.090 -87.3259
  744 480.643 -13.0650 10.7478
  745 477.568 7.87203 -47.6261
  746 405.512 -4.38464 140.636
  747 510.718 41.0694 48.2731
  748 439.462 -34.5039 6.50627
  749 341.703 -26.6599 -47.4722
  750 341.753 -26.5930 47.1094
  751 469.071 52.7801 -6.65735
  752 475.694 -5.53757 42.2966
  753 480.332 -11.4964 -35.7917
  754 452.099 -27.6794 -2.54862
  755 437.378 -39.0846 13.1197
  756 500.791 82.3719 -8.98688
  757 466.842 -40.4100 -2.94491
  758 468.062 -29.6753 11.7274
  759 473.534 -6.34462 1.67936
  760 473.807 -6.18329 -1.66324
  761 636.673 139.079 1.43020
  762 519.670 -44.3006 -18.6128
  763 485.271 -15.0168 21.5693
  764 503.678 -4.35931 -5.10165
  765 510.890 3.34360 -48.6763
  766 579.285 30.9089 -26.2751
  767 291.474 -0.228702 -4.29424
  768 291.662 -0.224844 4.25481
  769 4.42744 -8.08680 -5.62714
  770 495.527 -0.651068 8.90078
  771 456.694 -0.650254 -34.8203
  772 470.779 -4.41974 30.4796
  773 425.262 54.5503 204.996
  774 535.522 109.518 -1.08533
  775 382.242 -27.0791 25.6175
  776 70.5533 1.44328 -26.1483
  777 72.4048 1.05081 26.4200
  778 466.858 -3.30782 -34.4823
  779 383.218 -27.3398 -25.6208
  780 500.755 -4.78410 4.19994
  781 261.481 -10.9804 44.5513
  782 259.317 -10.9388 -44.5516
  783 480.596 -12.6950 -10.4604
  784 312.056 -7.65114 -20.8230
  785 312.211 -7.60361 20.6526
  786 500.064 -4.91114 -12.8906
  787 385.401 -10.1513 -7.28279
  788 385.419 -10.0891 7.28628
  789 545.512 -3.40373 -31.9817
  790 492.890 -5.20493 -48.6231
  791 256.395 -1.57134 -11.5803
  792 256.862 -1.55657 11.4538
  793 14.7943 6.33134 -16.2382
  794 16.9440 6.68696 17.0585
  795 404.281 2.00265 -12.4627
  796 449.694 -50.5176 -28.4099
  797 -5.05198 -3.45149 8.83632
  798 -4.47211 -4.15754 -8.84136
  799 467.745 -9.59687 3.69168
  800 506.504 -39.6556 -13.1819
  801 524.934 77.6205 -36.3420
  802 502.781 -4.31974 -4.00144
  803 1053.99 215.067 -197.896
  804 467.645 -9.57038 -3.64024
  805 700.910 132.868 11.6922
  806 501.414 14.5835 -50.7980
  807 552.263 41.7930 -43.2357
  808 97.5884 -1.13310 -24.0244
  809 99.2240 -1.26890 23.9850
  810 317.506 -4.42280 12.4216
  811 317.390 -4.45820 -12.5224
  812 304.578 -0.656516 2.34189
  813 304.478 -0.663578 -2.35872
  814 559.363 94.0430 -33.0234
  815 335.766 -1.97478 -3.50409
  816 335.831 -1.95257 3.48688
  817 477.130 -4.80083 -44.1855
  818 678.992 73.0403 63.6668
  819 432.110 9.84863 -27.3560
  820 153.564 -1.33877 25.5901
  821 152.370 -1.35148 -25.7801
  822 548.170 16.5098 148.105
  823 489.523 -9.21458 10.0797
  824 442.058 29.5177 -11.3864
  825 208.479 -0.287304 17.3525
  826 207.490 -0.192852 -17.4721
  827 310.324 -1.48321 -6.11956
  828 310.441 -1.46192 6.06857
  829 56.2405 49.7929 44.0952
  830 459.702 11.0753 40.4749
  831 510.262 74.8051 -31.3548
  832 547.280 63.5766 -43.3570
  833 363.191 -13.4777 -16.2196
  834 362.997 -13.3839 16.2053
  835 567.599 120.155 14.7756
  836 488.048 -4.35341 -0.482660
  837 488.084 -4.32173 0.561688
  838 484.552 -14.6711 -28.1427
  839 407.556 -26.9484 15.5187
  840 447.047 -50.2162 28.4884
  841 522.695 -42.8153 44.0447
  842 404.363 -11.6480 -4.63034
  843 404.364 -11.6092 4.60443
  844 462.835 42.9820 18.4427
  845 435.854 6.10645 -29.5042
  846 120.910 148.106 140.164
  847 438.702 -38.7591 -12.0570
  848 440.309 -19.6629 -0.390610
  849 440.541 -19.7112 0.363022
  850 484.303 -7.18159 46.2945
  851 479.327 -31.5788 -19.8821
  852 429.291 -28.2838 -7.13807
  853 957.386 30.9795 -46.7629
  854 408.426 -38.4363 29.3179
  855 408.082 -38.9244 -29.7650
  856 483.492 -5.85292 23.2969
  857 721.803 187.619 -45.8089
  858 383.946 -34.6161 -36.0532
  859 422.730 -47.4845 34.8007
  860 383.872 -34.2092 35.7527
  861 415.741 -16.6357 -5.47678
  862 415.738 -16.5859 5.44376
  863 63.6215 26.3924 38.2244
  864 519.414 38.7979 -48.6231
  865 399.610 -15.4446 -8.11953
  866 399.687 -15.2949 8.14603
  867 395.038 -6.49091 -0.994027
  868 395.035 -6.44947 0.988384
  869 432.691 -8.70382 -0.526450
  870 432.641 -8.65109 0.522350
  871 354.899 -6.76693 -8.79845
  872 354.934 -6.69375 8.76613
  873 400.949 -20.8800 -12.0159
  874 401.006 -20.7470 12.0691
  875 10.1575 -1.66174 -5.91578
  876 600.024 112.652 23.0844
  877 516.543 -18.2217 -37.9101
  878 422.346 -46.7897 -35.1387
  879 455.666 -14.7939 3.04685
  880 455.471 -14.6497 -2.93003
  881 497.073 0.565903 49.6982
  882 537.038 -38.2765 -25.9441
  883 473.942 35.3473 -178.290
  884 220.527 -3.86220 88.8651
  885 -6.45483 5.13972 -6.65217
  886 -5.43642 5.81003 7.28785
  887 63.2733 28.0636 -39.0511
  888 484.855 -14.1211 16.7618
  889 508.652 -3.53623 -7.00150
  890 458.049 -44.2256 77.6923
  891 220.018 -3.65230 -89.2001
  892 510.415 -41.9431 8.23714
  893 565.329 -15.8984 68.8598
  894 418.194 1.73300 13.1942
  895 476.361 45.3366 31.3009
  896 260.431 -14.5798 65.0912
  897 259.450 -14.6961 -65.4969
  898 312.036 -14.5811 -36.5821
  899 324.676 -16.2179 -112.982
  900 511.562 -12.0780 43.1601
  901 698.211 165.798 30.1856
  902 514.225 19.7174 49.5856
  903 485.989 -10.4974 -25.7738
  904 331.337 -14.5268 115.768
  905 617.309 114.232 -15.5835
  906 63.3499 53.3987 -54.1027
  907 451.748 -0.863178 -13.9917
  908 312.359 -14.4650 36.2782
  909 378.967 -8.22134 6.37772
  910 378.949 -8.27394 -6.38946
  911 480.003 -31.4076 20.5980
  912 496.622 -3.45458 1.51833
  913 366.603 3.19918 -140.034
  914 522.764 -1.25869 3.30200
  915 519.322 -1.04762 -4.28469
  916 395.586 3.52903 -11.4912
  917 503.390 -2.09578 -7.85705
  918 379.857 -17.5205 -15.2014
  919 380.109 -17.2661 15.2512
  920 -11.8580 4.78444 -6.73755
  921 -16.6505 2.88811 7.24914
  922 496.595 -3.22599 -1.56196
  923 169.119 -3.90460 60.0350
  924 168.171 -3.56038 -60.3593
  925 533.191 77.5985 38.2165
  926 935.507 16.9630 14.3571
  927 502.683 55.8189 40.7486
  928 564.427 -19.4866 22.0771
  929 493.382 -27.5813 33.3501
  930 613.424 128.329 -11.9230
  931 387.630 1.78559 8.67016
  932 474.415 -11.3785 -6.18341
  933 494.544 26.6103 -49.3648
  934 592.700 18.2755 -5.61522
  935 463.117 -28.6287 -8.84162
  936 242.578 -1.28730 -12.9328
  937 242.802 -1.24128 12.7578
  938 488.088 -11.6409 -19.8558
  939 17.2502 21.5522 5.55665
  940 468.631 -48.6043 -7.26038
  941 411.197 12.4133 -1.18305
  942 609.739 133.398 -7.89637
  943 98.6163 73.1815 -88.4818
  944 470.795 -3.51642 -27.3096
  945 330.175 -5.32778 -11.6655
  946 330.245 -5.26696 11.5760
  947 3.13502 -13.0181 9.78872
  948 322.122 -23.7251 -52.4806
  949 477.568 -27.6981 -19.3790
  950 303.799 0.658025 -0.982850
  951 303.883 0.660748 0.977027
  952 484.529 58.7605 -24.9868
  953 514.217 -1.76131 -0.662561
  954 514.246 -1.77978 0.881967
  955 322.279 -23.6662 52.1474
  956 484.143 -0.733005 -10.7193
  957 554.295 4.07577 30.5508
  958 492.182 -7.18509 7.70399
  959 81.7178 20.0777 -47.7353
  960 509.592 -3.29033 6.31818
  961 466.183 3.84627 43.2066
  962 491.555 67.9566 22.2155
  963 490.673 5.69126 -50.4027
  964 341.024 -17.9871 -31.6139
  965 527.332 -18.8104 30.9167
  966 341.250 -17.9237 31.3155
  967 16.5628 17.6932 -2.72265
  968 60.7934 9.96643 35.0368
  969 280.699 -4.80430 21.5042
  970 280.371 -4.80538 -21.6150
  971 474.753 -11.5810 6.55638
  972 512.694 88.8386 12.1835
  973 261.811 23.6040 -132.992
  974 428.534 -26.6278 6.35596
  975 402.351 -41.9173 -43.4056
  976 584.187 111.715 24.8394
  977 450.183 -8.10910 0.206427
  978 450.163 -8.06821 -0.210700
  979 492.015 -9.30456 -14.0668
  980 458.671 39.7203 -17.0059
  981 1008.03 303.820 204.423
  982 98.7766 5.26622 -45.5545
  983 100.201 4.36894 45.6438
  984 7.35899 -7.30455 3.43174
  985 459.775 25.6154 34.9085
  986 402.281 -42.1792 43.1032
  987 496.844 -23.5745 -38.2955
  988 540.277 44.1325 47.4170
  989 517.139 -41.7650 -53.3774
  990 753.498 158.315 54.1864
  991 442.289 -7.30041 -0.353539
  992 442.232 -7.24424 0.353353
  993 516.019 -21.1735 35.7953
  994 36.3736 64.3681 64.3185
  995 237.944 -4.86040 30.7188
  996 237.243 -4.79741 -31.0255
  997 282.183 -13.5595 42.1214
  998 281.244 -13.3458 -42.2642
  999 317.123 -12.8245 30.4181
  1000 346.705 -2.62432 -1.56413
  1001 346.761 -2.60560 1.55837
  1002 837.897 273.531 -176.246
  1003 766.772 192.460 81.6199
  1004 316.868 -12.8855 -30.6555
  1005 531.354 -2.52466 39.6161
  1006 478.575 49.6692 -30.0892
  1007 338.224 -29.2509 93.7677
  1008 432.425 -51.1271 -51.5887
  1009 493.845 -4.16009 -15.5441
  1010 225.408 15.0194 108.585
  1011 289.075 -22.0335 74.8904
  1012 440.432 22.7679 -21.9310
  1013 499.768 -9.97904 -46.8225
  1014 622.034 266.754 276.799
  1015 417.241 12.9663 15.6734
  1016 562.384 120.426 -1.79969
  1017 410.964 16.5261 -158.890
  1018 420.622 -44.1021 -30.1739
  1019 528.834 -0.708464 -1.61057
  1020 511.919 46.9843 -46.9949
  1021 305.358 -1.86042 7.81745
  1022 305.213 -1.87906 -7.88456
  1023 11.4646 8.76959 -17.5334
  1024 341.477 -15.3111 -26.4071
  1025 288.715 -22.3146 -75.4255
  1026 341.239 -15.2821 26.1371
  1027 488.821 -14.9631 43.3190
  1028 439.058 -27.0561 -2.54521
  1029 462.554 8.60045 -41.9182
  1030 476.126 59.4319 8.78933
  1031 636.415 40.4381 27.7243
  1032 483.574 -36.8156 19.3198
  1033 309.262 -24.4979 -57.4184
  1034 458.949 16.3712 -39.3223
  1035 341.024 -28.8757 -94.2226
  1036 650.330 140.253 -3.37858
  1037 446.955 29.5031 19.9523
  1038 558.189 -3.10911 -22.5032
  1039 423.213 -44.1332 27.9585
  1040 484.175 -15.4546 33.2742
  1041 480.665 -25.4693 23.1790
  1042 478.018 -24.1384 19.9077
  1043 588.547 75.1360 -32.8517
  1044 478.401 -7.77405 34.1863
  1045 431.791 -51.2688 50.7724
  1046 460.856 -18.9318 5.74728
  1047 309.460 -24.5497 57.1244
  1048 433.572 -31.7948 -7.64282
  1049 254.786 -12.4654 -80.0707
  1050 360.750 -37.3447 63.8570
  1051 486.644 -3.39585 -18.1589
  1052 474.903 -5.38095 -39.0377
  1053 411.862 -32.3585 -18.8188
  1054 255.215 -12.8081 79.4770
  1055 444.874 1.15891 -27.4419
  1056 332.182 -21.7412 -40.8008
  1057 594.950 126.084 15.3241
  1058 135.854 21.9210 -76.9237
  1059 996.602 70.3216 94.9048
  1060 240.988 17.4629 -113.532
  1061 477.774 -39.6305 -10.9009
  1062 332.283 -21.5623 40.4889
  1063 440.452 4.80279 30.7739
  1064 250.641 -4.94340 25.4436
  1065 250.526 -5.06427 -25.6891
  1066 484.437 -13.5435 -40.2172
  1067 512.007 -2.80461 2.43870
  1068 503.769 -1.21650 7.91653
  1069 499.785 16.5439 50.7411
  1070 468.579 -3.52236 36.7700
  1071 361.428 38.9025 171.691
  1072 531.996 -0.498340 0.741489
  1073 504.010 68.1523 32.4130
  1074 429.304 6.37472 26.5744
  1075 509.597 -2.03207 7.56255
  1076 333.415 -3.41802 -6.57906
  1077 333.481 -3.37982 6.54092
  1078 213.970 -5.94587 -42.4890
  1079 214.761 -6.16110 42.2217
  1080 430.713 21.6884 11.1736
  1081 637.859 36.1339 -51.1621
  1082 586.262 0.658140 -92.4091
  1083 473.231 -0.451951 -11.1727
  1084 360.849 -37.6191 -64.3228
  1085 412.733 -30.7799 16.9717
  1086 475.818 -1.11670 11.6515
  1087 496.309 -36.1277 -23.0055
  1088 315.872 -0.641924 3.88331
  1089 315.786 -0.653870 -3.90515
  1090 476.876 -40.7645 10.8884
  1091 453.684 -9.44206 0.746544
  1092 453.606 -9.45300 -0.720485
  1093 441.706 -44.3880 18.5065
  1094 565.464 -18.0265 -9.72228
  1095 263.315 -0.441469 -7.22232
  1096 263.721 -0.426071 7.15108
  1097 387.493 -24.7602 -107.969
  1098 413.789 -9.85602 2.66402
  1099 413.824 -9.90614 -2.68342
  1100 249.246 135.912 188.718
  1101 569.563 46.9806 -37.7748
  1102 86.4604 41.4714 -58.9664
  1103 492.412 -7.56608 -7.43417
  1104 134.457 45.4174 -88.2873
  1105 278.280 -17.2903 -54.4203
  1106 531.913 -0.699742 0.497480
  1107 532.092 -0.663693 -0.359592
  1108 485.504 -27.8155 -28.3839
  1109 429.783 -48.3710 -70.2091
  1110 135.962 18.6629 73.2986
  1111 528.508 52.2552 45.3779
  1112 478.517 -5.09920 -0.604610
  1113 478.577 -5.10143 0.647238
  1114 520.628 -33.1973 85.3560
  1115 542.020 108.026 17.2939
  1116 325.697 -7.62772 -16.6165
  1117 325.784 -7.59442 16.5089
  1118 245.763 27.7447 134.315
  1119 461.368 2.41854 -40.5209
  1120 146.500 46.6566 94.7449
  1121 585.890 -9.41975 -31.3556
  1122 579.990 127.375 5.04416
  1123 400.355 -31.4237 22.5153
  1124 373.962 2.11395 -1.69198
  1125 504.562 -4.59260 9.51939
  1126 521.452 -0.758601 3.69524
  1127 119.670 0.181756 -21.4702
  1128 121.166 0.127984 21.3318
  1129 416.612 7.14781 -19.7202
  1130 426.314 -12.5281 -2.29372
  1131 426.224 -12.4754 2.28313
  1132 45.4869 76.5683 -68.5595
  1133 71.5583 162.421 -134.602
  1134 431.545 -16.8275 2.20449
  1135 431.701 -16.8194 -2.23184
  1136 445.351 -10.8338 0.695439
  1137 445.289 -10.8149 -0.661780
  1138 118.652 75.5357 95.6664
  1139 354.972 -4.25138 -3.22529
  1140 355.018 -4.22219 3.21180
  1141 444.764 33.7696 -0.452832
  1142 556.501 74.0619 -197.776
  1143 539.322 92.7461 -29.6700
  1144 491.551 -18.9538 -40.7438
  1145 484.077 -24.2466 -28.9833
  1146 400.554 -31.7094 -22.8767
  1147 406.051 1.39717 12.1722
  1148 454.205 28.4523 -29.2003
  1149 448.131 24.2444 27.9314
  1150 460.562 -18.3922 -5.62912
  1151 440.152 -26.5219 2.20739
  1152 401.286 -25.6975 -17.0963
  1153 476.628 -2.84235 21.6881
  1154 830.907 83.7155 11.6098
  1155 479.640 -10.2757 39.4750
  1156 482.065 31.6647 43.6311
  1157 443.744 -43.5678 -14.3684
  1158 57.7795 9.14373 -33.8229
  1159 452.053 -20.9476 -3.53768
  1160 305.929 -0.420419 -0.207223
  1161 306.007 -0.418542 0.205335
  1162 548.296 -14.5434 18.8188
  1163 522.375 -44.0424 21.8099
  1164 748.266 133.478 33.5715
  1165 185.231 -0.332567 -17.7974
  1166 186.260 -0.293540 17.6718
  1167 405.259 -8.17336 -2.09573
  1168 405.243 -8.12587 2.08253
  1169 453.352 -39.9362 -3.20677
  1170 377.163 1.79173 5.54845
  1171 464.116 -33.0557 8.17341
  1172 27.2601 32.3750 -16.7568
  1173 85.5014 42.0722 57.6235
  1174 312.135 -17.2088 104.304
  1175 537.535 102.010 -21.2080
  1176 511.380 -1.47607 -5.98188
  1177 534.080 -0.916382 0.307959
  1178 534.556 -1.22403 -0.180281
  1179 317.593 -0.671299 -0.656928
  1180 317.670 -0.665787 0.652625
  1181 495.523 31.6572 49.3570
  1182 727.451 123.606 -2.64098
  1183 510.913 84.2325 -21.8611
  1184 381.392 -28.2554 107.289
  1185 310.485 -16.5747 -104.097
  1186 346.156 -22.8831 -36.6986
  1187 475.091 -13.4494 8.50783
  1188 660.823 146.136 9.04289
  1189 346.199 -22.7532 36.4283
  1190 484.957 -8.69658 6.43478
  1191 436.877 16.3962 26.6866
  1192 479.373 14.8923 47.5550
  1193 678.285 151.281 18.7587
  1194 405.982 -10.5392 3.87797
  1195 405.998 -10.5860 -3.90169
  1196 491.443 -9.42099 14.6241
  1197 296.680 -3.05497 12.2012
  1198 296.475 -3.08520 -12.3037
  1199 480.526 -6.77181 -2.71544
  1200 199.101 119.247 -182.967
  1201 416.219 -23.5705 -114.922
  1202 395.218 -12.2638 -6.90719
  1203 395.262 -12.2122 6.90998
  1204 513.938 -2.60947 2.24624
  1205 487.658 -6.62222 5.12623
  1206 27.5670 35.3454 26.3906
  1207 528.742 -0.666771 1.89203
  1208 64.4363 82.7613 82.0870
  1209 476.652 -7.34718 -3.52607
  1210 -0.473056 -11.5180 -10.1200
  1211 339.137 -33.1253 -80.8513
  1212 338.246 -32.3288 80.0651
  1213 528.718 -0.997457 -2.10654
  1214 454.857 -24.0138 -4.34727
  1215 513.627 -2.40115 -2.26825
  1216 414.539 -13.3579 -3.93102
  1217 414.504 -13.3138 3.89444
  1218 480.226 -6.72789 2.53670
  1219 451.733 -20.5328 3.50099
  1220 435.138 -14.0313 0.887205
  1221 435.284 -14.0644 -0.838717
  1222 513.140 -2.47297 -1.84161
  1223 444.296 -46.9179 -79.0286
  1224 502.538 -3.34304 -1.84615
  1225 478.625 -7.54271 3.83262
  1226 338.606 -3.56659 -4.91771
  1227 338.667 -3.53249 4.89197
  1228 376.455 -5.44452 -2.61053
  1229 376.478 -5.40922 2.59907
  1230 603.498 94.4411 26.9219
  1231 507.612 -39.1407 16.2688
  1232 349.209 -1.78817 132.347
  1233 284.921 -0.431570 4.68870
  1234 284.686 -0.436440 -4.73207
  1235 482.313 -8.98157 29.5292
  1236 461.098 -7.17893 0.569326
  1237 461.113 -7.15653 -0.569053
  1238 529.206 102.586 9.95613
  1239 482.229 -50.5846 63.2450
  1240 284.728 -3.89768 17.0460
  1241 284.456 -3.92575 -17.1623
  1242 460.540 -11.3863 2.77511
  1243 460.437 -11.4670 -2.67609
  1244 474.829 -13.2939 -8.17400
  1245 439.671 0.110873 14.1937
  1246 749.914 186.559 -64.1468
  1247 483.940 -17.8264 -25.6552
  1248 85.3791 19.8345 49.0270
  1249 499.673 -26.7387 35.4370
  1250 405.912 9.06587 -10.7969
  1251 32.1877 22.9447 18.4117
  1252 654.144 74.5245 -10.2824
  1253 488.343 -22.2932 -36.1374
  1254 407.766 5.95656 16.5498
  1255 280.186 -17.3237 54.3489
  1256 495.517 -38.4589 20.2686
  1257 714.071 139.772 48.2977
  1258 169.041 24.5328 93.0561
  1259 497.597 -6.10336 -12.6270
  1260 942.835 10.6328 -9.38260
  1261 973.146 14.5425 41.6506
  1262 1037.52 34.8884 -99.2874
  1263 483.602 -15.1970 -32.3089
  1264 483.330 -22.1651 27.1036
  1265 490.780 -35.0297 24.6991
  1266 -14.3701 1.75005 9.03803
  1267 -13.0465 1.42850 -9.87466
  1268 477.236 -52.8462 -30.6301
  1269 488.421 -49.4961 -44.9974
  1270 379.736 2.50061 -6.84252
  1271 475.143 -53.7698 44.7865
  1272 508.088 -24.1951 -35.8847
  1273 10.8785 15.5535 2.56147
  1274 414.953 -7.60478 1.36357
  1275 414.980 -7.65564 -1.36715
  1276 504.112 -4.22596 8.51252
  1277 484.904 -8.54753 -6.02155
  1278 457.383 -49.9199 -17.0103
  1279 419.099 -22.5501 7.83301
  1280 417.039 -22.2269 -8.40152
  1281 490.005 -10.5041 20.3846
  1282 502.281 -18.5415 -41.7928
  1283 33.3795 23.9212 -17.9461
</Section>

newXOutput 28

<Section columns = "stress_xx | stress_yy | stress_xy">
  1 556.175 -0.208361 1.03066
  2 556.176 -0.197386 -1.03320
  3 312.966 -0.0780127 -0.371715
  4 -3.92155 -3.87021 -5.64030
  5 981.384 403.126 318.245
  6 972.456 417.221 -316.466
  7 -4.55755 -3.66973 6.01241
  8 312.886 -0.0790707 0.370816
  9 559.871 -0.972713 0.298154
  10 558.809 -1.52044 -0.314448
  11 557.733 -1.05352 1.14835
  12 556.633 -1.41600 0.253200
  13 554.245 -1.20628 1.80595
  14 552.057 -1.21130 1.27563
  15 546.736 -1.06694 2.61408
  16 538.961 -0.799124 3.86920
  17 532.068 -0.818367 4.34684
  18 521.693 -1.08719 5.29787
  19 507.128 -0.135299 7.88891
  20 493.678 -0.798913 7.54737
  21 478.145 -1.00435 10.6975
  22 455.736 0.703799 9.35556
  23 439.346 1.11186 11.1018
  24 417.948 1.84367 8.72469
  25 403.069 2.00726 8.81425
  26 381.525 2.74459 4.50518
  27 376.950 4.31029 4.84304
  28 374.182 3.57144 -1.43551
  29 377.927 2.13444 -3.13273
  30 384.840 2.02734 -3.84811
  31 400.989 2.52194 -7.66767
  32 416.678 1.99403 -9.66424
  33 439.552 0.491176 -11.4364
  34 457.825 -0.214969 -10.3577
  35 477.181 -0.794454 -10.1222
  36 494.642 -0.628227 -7.11407
  37 509.527 -0.674369 -6.04584
  38 521.706 -1.06835 -5.03736
  39 532.532 -0.785235 -3.45918
  40 539.186 -0.954959 -3.64757
  41 545.620 -1.13708 -2.65524
  42 551.616 -1.33377 -1.10079
  43 554.661 -1.08499 -1.33823
  44 556.164 -0.704697 -0.809107
  45 554.769 -0.446662 -0.740546
  46 559.325 -1.52012 0.224993
  47 560.018 -1.00777 -0.307121
  48 542.774 -0.607004 -0.638813
  49 531.305 -2.50821 -1.19402
  50 517.196 -3.62771 -0.717122
  51 499.925 -5.24503 -0.999564
  52 483.465 -5.69643 -1.20948
  53 465.836 -6.99107 -1.16156
  54 450.175 -7.69464 -0.596358
  55 436.435 -8.49661 -0.161556
  56 420.559 -7.02094 -0.144690
  57 402.255 -6.50407 -0.327649
  58 384.630 -5.08059 -0.0304823
  59 367.950 -3.18593 0.0287396
  60 352.122 -2.23150 0.0881007
  61 338.278 -1.09374 0.195735
  62 324.174 -0.254984 -0.420474
  63 313.099 0.447662 0.594953
  64 308.077 1.17806 0.423096
  65 311.311 0.0329196 0.960878
  66 307.335 -0.130073 1.16892
  67 303.566 -0.207468 1.45411
  68 298.497 0.00146349 1.87332
  69 292.113 0.00345042 2.34422
  70 287.243 -0.325149 4.45171
  71 273.894 0.398044 4.84795
  72 264.403 -0.00879103 5.51339
  73 250.273 -0.221334 6.26464
  74 234.041 -0.385731 7.61394
  75 213.733 -0.0729431 9.24634
  76 188.981 0.126407 10.2182
  77 167.390 -0.187240 14.6158
  78 125.109 1.33324 13.8445
  79 96.0464 1.14753 14.6714
  80 60.9831 -0.295088 16.3466
  81 31.6282 2.63213 17.0994
  82 -1.91147 3.98763 10.4667
  83 -26.5902 4.06402 3.95411
  84 -26.5615 3.97809 -1.06804
  85 -26.0066 3.33177 -7.71390
  86 -15.3693 -0.973364 -7.43087
  87 -1.81652 -14.7527 -8.22590
  88 1.56197 -27.0251 -10.1637
  89 4.18022 -42.0044 -5.27062
  90 9.18775 -41.6028 1.30772
  91 19.2978 -5.39186 26.4940
  92 56.7828 95.0060 87.0419
  93 324.844 318.197 286.051
  94 1190.62 179.223 197.667
  95 1075.97 25.5599 63.9500
  96 1003.12 10.6968 19.5702
  97 976.274 9.13572 1.48094
  98 990.679 12.0915 -17.0239
  99 1073.94 23.9244 -50.6519
  100 1258.07 86.4345 -169.305
  101 193.783 327.249 -240.121
  102 42.4846 70.9642 -72.5744
  103 21.1167 -3.27144 -28.3229
  104 8.61699 -41.3538 -5.55401
  105 2.54552 -31.7396 6.00532
  106 3.12240 -34.1208 8.77326
  107 0.185998 -12.7050 9.11699
  108 -16.0559 -0.590062 7.02804
  109 -26.8274 2.50180 6.70756
  110 -27.9899 4.82772 1.21289
  111 -27.4281 3.99218 -3.69545
  112 -3.85450 4.08639 -9.82917
  113 29.9328 2.65447 -16.3166
  114 59.2564 -0.0119333 -16.0794
  115 94.2590 1.23993 -14.6991
  116 123.486 1.36720 -13.9456
  117 166.132 -0.193280 -14.7329
  118 187.906 0.139465 -10.3127
  119 212.792 -0.0697307 -9.35804
  120 233.563 -0.429446 -7.66659
  121 249.620 -0.208702 -6.27876
  122 263.905 0.00826659 -5.56766
  123 273.485 0.393501 -4.89801
  124 286.945 -0.328527 -4.49409
  125 291.872 0.00125784 -2.37014
  126 298.311 -0.000641064 -1.89459
  127 303.421 -0.210966 -1.47092
  128 307.220 -0.133072 -1.18062
  129 311.213 0.0303807 -0.968310
  130 307.989 1.17686 -0.426517
  131 313.015 0.447048 -0.597112
  132 324.093 -0.257854 0.419412
  133 338.203 -1.10094 -0.198342
  134 352.057 -2.24727 -0.0911362
  135 367.900 -3.20781 -0.0316495
  136 384.600 -5.11216 0.0275760
  137 402.247 -6.54412 0.325341
  138 420.575 -7.06744 0.142255
  139 436.471 -8.54904 0.160401
  140 450.225 -7.74707 0.598057
  141 465.908 -7.03879 1.16695
  142 483.530 -5.72913 1.22886
  143 499.975 -5.27432 1.09337
  144 517.291 -3.44436 0.732870
  145 531.674 -2.44774 1.16734
  146 542.875 -0.691632 0.628748
  147 488.862 -45.9552 -0.821386
  148 488.435 -45.3318 0.992938
  149 515.196 73.8753 -23.9655
  150 546.782 32.1894 50.0571
  151 414.464 -40.0875 -92.8480
  152 417.869 -40.0179 89.9388
  153 405.233 -16.9780 11.8124
  154 405.258 -17.2075 -11.8179
  155 578.197 20.9802 -36.8278
  156 487.586 -17.6931 9.25778
  157 487.375 -17.2775 -9.14660
  158 630.120 139.741 5.27217
  159 500.408 -0.790962 -49.5654
  160 372.324 -28.9777 -41.8193
  161 372.354 -28.7436 41.4734
  162 500.925 -11.4041 44.4526
  163 478.003 34.9923 29.8728
  164 198.958 31.3873 -110.920
  165 220.108 29.7827 116.798
  166 608.538 7.51956 0.843926
  167 501.555 -19.3589 -30.3050
  168 662.061 145.352 0.465974
  169 452.620 -12.8327 -0.803956
  170 452.528 -12.7982 0.839560
  171 505.948 -6.40774 -3.98854
  172 507.451 -5.79115 3.42733
  173 359.423 -4.97932 -6.80700
  174 359.474 -4.92930 6.77582
  175 540.751 -13.5328 118.116
  176 463.278 19.3938 -32.2145
  177 304.211 -22.6347 -66.4724
  178 305.106 -22.4724 66.0659
  179 342.365 -10.9592 -21.9154
  180 342.404 -10.8369 21.7660
  181 503.858 -13.3784 25.7809
  182 458.723 -31.4011 -2.82244
  183 457.166 -31.1679 3.51674
  184 519.292 -50.3942 -11.6269
  185 522.069 -48.0117 5.21488
  186 715.725 168.768 -28.1072
  187 525.107 84.0556 22.3585
  188 524.946 32.2356 -50.8030
  189 538.461 -3.59042 -136.726
  190 519.708 -29.4793 -34.2870
  191 524.237 -21.0921 40.8588
  192 437.968 -49.6739 46.3969
  193 438.029 -49.3134 -46.2678
  194 470.587 6.09205 38.5976
  195 217.715 -5.50714 -81.4989
  196 218.221 -5.94763 81.0254
  197 804.330 120.022 17.5946
  198 492.621 -29.4277 17.9688
  199 510.294 -9.57152 -16.5701
  200 407.765 -9.86211 -5.52253
  201 407.778 -9.81587 5.50741
  202 491.772 -6.42442 -34.3718
  203 558.948 81.9365 -40.1032
  204 470.578 42.3946 -5.97472
  205 309.018 -10.6858 30.5771
  206 308.561 -10.7162 -30.7888
  207 517.123 -5.98409 8.83551
  208 506.161 9.52769 51.0345
  209 412.615 -29.7746 -20.9193
  210 409.966 -28.1846 21.3333
  211 594.488 88.2470 35.6603
  212 694.294 97.6631 20.9885
  213 49.3883 37.9631 -32.4861
  214 45.7359 35.0912 27.6891
  215 288.731 83.3435 193.631
  216 487.752 -32.4602 -13.2541
  217 518.850 -5.74342 -7.97176
  218 465.515 4.20938 -35.5628
  219 330.029 -3.13037 -9.75422
  220 330.138 -3.09573 9.67624
  221 440.328 -20.5627 -5.24200
  222 440.535 -20.6964 4.99629
  223 495.715 -6.73148 29.1499
  224 566.837 -32.7100 16.2022
  225 566.905 115.270 -11.4840
  226 444.585 -42.7850 -22.7869
  227 559.583 -9.77421 30.4935
  228 478.062 -8.24948 1.22208
  229 478.062 -8.18568 -1.22069
  230 441.445 -42.5853 23.5700
  231 504.475 -32.1183 27.6508
  232 702.177 93.9389 -49.9094
  233 159.322 94.7549 -141.770
  234 432.125 15.3980 7.74196
  235 508.525 44.8141 43.0827
  236 539.470 -3.84196 -44.3290
  237 504.887 -18.2595 -41.2815
  238 274.030 -8.61888 -38.1310
  239 274.939 -8.49174 38.0253
  240 505.493 -6.22540 -22.3322
  241 481.502 -12.3724 4.58616
  242 481.279 -12.3610 -4.40740
  243 104.830 9.26382 -52.6470
  244 106.386 8.11554 52.4589
  245 534.187 -46.8326 -44.2570
  246 528.115 -2.15292 1.10392
  247 528.631 -2.19115 -1.23499
  248 497.093 41.2507 -39.5475
  249 440.215 8.66860 23.3921
  250 898.826 143.892 96.8647
  251 890.957 101.442 -60.2930
  252 653.560 140.073 0.139868
  253 408.374 -19.8640 122.999
  254 375.384 -13.1162 -128.505
  255 431.964 -8.87669 -2.12344
  256 431.928 -8.82408 2.11034
  257 361.419 -9.43822 13.6180
  258 361.408 -9.56480 -13.7279
  259 516.958 -5.77029 13.5036
  260 502.388 -35.8682 -22.2615
  261 332.176 -0.533976 -2.31549
  262 332.258 -0.524147 2.30270
  263 496.124 -20.2392 -17.8976
  264 215.426 -6.95018 -53.0270
  265 216.303 -6.97144 52.6674
  266 502.571 -21.9029 32.6954
  267 385.144 -40.8775 74.7543
  268 386.065 -41.6065 -74.5222
  269 438.118 17.0065 -10.8894
  270 378.173 -5.64593 -4.59973
  271 378.211 -5.60963 4.58393
  272 473.676 -1.12419 28.3791
  273 563.752 102.818 27.7068
  274 307.484 -3.59545 16.3453
  275 307.256 -3.62443 -16.4742
  276 515.357 -43.1800 14.4727
  277 477.055 -53.6664 -51.2920
  278 530.282 -2.80879 4.01934
  279 373.520 -21.7968 -28.7371
  280 372.914 -21.5595 28.6385
  281 646.530 72.6524 172.434
  282 312.399 -25.2912 88.8378
  283 502.109 70.3979 -2.53627
  284 628.730 70.4031 -21.0652
  285 476.723 -36.8500 3.88171
  286 477.511 -55.1186 46.4540
  287 313.291 -24.8922 -89.7907
  288 59.1545 73.1342 67.3440
  289 496.210 -20.3030 18.2386
  290 647.177 85.6833 15.2253
  291 534.199 -2.51173 -3.48633
  292 488.671 17.1988 -45.5377
  293 480.331 -27.2121 8.91369
  294 470.488 -39.6591 3.33912
  295 487.044 22.4343 43.9260
  296 512.965 -43.1771 -12.6726
  297 723.930 140.008 -13.3015
  298 480.204 -26.1646 -8.50842
  299 393.451 115.801 -235.632
  300 490.294 -52.0353 -12.0797
  301 486.896 -53.4643 17.5987
  302 360.775 -32.4204 -58.6593
  303 329.102 -1.15728 -5.00783
  304 329.198 -1.13696 4.97223
  305 360.949 -32.4523 58.3585
  306 519.540 -0.907213 -50.8502
  307 558.434 -23.1412 -19.0286
  308 428.610 -25.6103 -11.6761
  309 428.363 -25.6707 11.8781
  310 508.150 -43.7486 80.9341
  311 509.482 -4.20397 16.8939
  312 614.393 4.02750 31.7096
  313 420.425 -14.7072 -6.55198
  314 420.458 -14.6634 6.52039
  315 384.546 -9.80645 -9.15147
  316 384.555 -9.71846 9.14046
  317 435.900 6.01583 -22.6137
  318 553.270 40.5774 -48.3797
  319 846.325 229.506 -111.346
  320 502.892 -4.74350 -1.28528
  321 502.627 -4.68282 1.32654
  322 272.757 -0.905347 110.880
  323 382.286 -17.0463 -19.2698
  324 381.605 -16.9965 19.3216
  325 272.703 -1.56124 -110.455
  326 528.861 62.3296 -41.6876
  327 588.439 29.3895 34.6411
  328 507.922 -36.2206 -89.5861
  329 469.806 -18.2168 3.33891
  330 469.345 -18.0927 -3.14451
  331 500.140 -10.6302 -8.38219
  332 473.976 -0.855888 -26.5282
  333 528.782 2.17981 49.5728
  334 525.760 -3.88166 -9.24856
  335 321.485 -19.1985 44.6378
  336 321.133 -19.3004 -44.9590
  337 493.425 -1.08595 47.1556
  338 309.657 -2.39069 -9.75118
  339 309.852 -2.36871 9.66972
  340 503.970 -11.8175 13.5461
  341 605.081 123.173 -19.4006
  342 499.930 -10.7014 8.71822
  343 534.636 66.9781 41.7572
  344 511.087 -9.58296 48.4275
  345 407.351 -7.54737 2.08710
  346 407.349 -7.59051 -2.09893
  347 485.159 -1.69106 -41.8907
  348 638.354 133.908 11.0059
  349 533.718 97.4035 0.865492
  350 326.379 37.7698 -164.082
  351 35.8882 14.8692 -23.5913
  352 39.1213 16.1036 25.2784
  353 -1.06031 4.11089 9.30135
  354 0.827866 2.51868 -9.76560
  355 918.372 63.7702 21.6121
  356 441.881 -35.6845 -13.9782
  357 504.314 -11.4355 -13.2073
  358 456.581 -8.19200 0.290556
  359 456.529 -8.13096 -0.294152
  360 490.408 54.1831 -21.4365
  361 417.704 -42.3466 38.2241
  362 37.8273 56.6336 -42.4433
  363 418.052 -42.3248 -38.8732
  364 496.595 56.4745 22.8049
  365 503.776 -13.6096 -24.4933
  366 533.439 -29.9006 -28.4947
  367 570.694 119.763 7.88528
  368 534.492 -33.5374 22.9132
  369 227.388 -5.50277 35.4607
  370 226.106 -5.39496 -35.6690
  371 129.995 2.98618 -49.6933
  372 131.259 2.49394 49.4796
  373 442.406 1.65257 22.8317
  374 821.346 242.775 98.3729
  375 519.938 -3.47717 -11.9498
  376 407.647 -34.1145 -29.4176
  377 407.348 -34.0400 29.3806
  378 501.281 -11.6893 -31.4480
  379 567.648 -27.4258 0.306282
  380 441.866 -35.6576 14.3567
  381 620.378 5.71469 -55.1672
  382 359.279 -2.74773 -1.85510
  383 359.337 -2.72510 1.84414
  384 493.890 -2.93552 -20.2848
  385 271.644 -3.77100 -23.0882
  386 271.799 -3.89587 22.8213
  387 587.538 75.1974 -39.9718
  388 319.076 22.3709 152.693
  389 461.605 -24.2037 0.578650
  390 462.049 -24.1656 -0.596604
  391 542.940 91.5360 -26.2534
  392 512.833 -15.2925 -45.6648
  393 512.160 -52.4768 45.5363
  394 430.499 -11.4019 -3.37165
  395 430.456 -11.3525 3.34477
  396 494.430 -38.2110 14.1756
  397 530.441 -2.71603 6.82960
  398 336.968 -11.9765 -27.3094
  399 337.105 -11.9813 27.0943
  400 503.802 16.9552 -50.4046
  401 474.265 -10.5122 1.79670
  402 474.241 -10.5397 -1.74001
  403 491.919 -5.84996 38.2920
  404 461.196 33.7972 10.3773
  405 508.616 -21.6086 39.5657
  406 730.785 152.321 29.0854
  407 249.899 -13.3974 -71.1973
  408 250.569 -13.3982 70.6854
  409 112.405 59.4949 -86.4668
  410 541.125 -1.83403 1.77874
  411 283.258 -2.25633 -14.6324
  412 283.616 -2.20862 14.5160
  413 501.611 -13.2173 30.7224
  414 455.247 -49.3259 26.2037
  415 511.919 -6.67928 5.90973
  416 523.996 26.5689 52.2672
  417 117.559 63.3485 89.9218
  418 455.897 -49.0313 -24.2657
  419 470.869 -43.7047 -6.65112
  420 158.864 -3.16789 -44.8516
  421 159.964 -3.27982 44.5585
  422 362.650 -29.3102 -107.114
  423 539.445 -8.17066 43.1341
  424 361.385 -29.7140 106.213
  425 498.994 -28.1386 -24.8745
  426 467.284 31.7207 -22.6471
  427 499.042 -21.7282 23.7631
  428 534.218 -2.63168 -4.49824
  429 17.1600 18.8729 9.29704
  430 110.631 129.395 127.029
  431 482.542 -1.75760 19.6676
  432 409.588 5.83284 9.95574
  433 416.222 7.05439 -13.4766
  434 355.131 -5.64127 -9.61262
  435 355.175 -5.57106 9.55695
  436 491.971 -38.1806 -12.8045
  437 498.147 -9.82971 -42.7288
  438 411.621 7.97935 -3.65865
  439 730.066 174.335 39.6208
  440 104.743 33.9502 -64.9476
  441 115.155 31.1445 69.1988
  442 461.177 -16.4988 0.836471
  443 461.009 -16.4673 -0.721464
  444 613.962 134.627 -1.44561
  445 378.580 162.970 240.859
  446 587.327 -7.87521 -4.17586
  447 343.545 -17.5870 -37.0421
  448 343.713 -17.4724 36.7507
  449 346.707 -7.48262 14.8190
  450 346.635 -7.53476 -14.9405
  451 464.390 10.4972 -36.6768
  452 543.690 -0.991841 -1.15522
  453 452.346 20.9976 20.6845
  454 566.053 69.8186 44.1450
  455 471.895 -34.9969 -2.29069
  456 511.682 -6.37952 -5.75351
  457 536.295 -2.40583 4.14007
  458 542.077 -1.07111 0.657348
  459 542.469 -1.18171 -0.464133
  460 308.311 -0.484030 3.64364
  461 308.156 -0.491613 -3.67768
  462 515.211 -32.8965 30.0865
  463 468.719 18.6660 35.5315
  464 488.379 2.03255 -46.0840
  465 507.372 -10.9371 17.9737
  466 720.522 128.039 -147.213
  467 509.030 -28.3832 -34.1911
  468 6.42173 9.88611 4.90546
  469 6.31535 10.1053 -2.38095
  470 406.127 -22.7072 16.9688
  471 404.827 -22.3897 -16.7430
  472 626.400 13.8036 80.8013
  473 177.113 165.422 -184.228
  474 503.093 -1.62602 15.1223
  475 565.702 -32.6964 -47.2690
  476 307.967 -17.4445 51.5642
  477 609.269 108.174 -27.9647
  478 501.773 -27.3033 28.4570
  479 423.560 -20.0396 -8.96419
  480 423.928 -19.7159 8.94516
  481 442.304 2.45024 -20.1442
  482 307.031 -17.3694 -51.8552
  483 452.819 0.310297 20.2005
  484 430.373 -49.3061 -67.2924
  485 429.318 -49.3810 67.5739
  486 517.237 -3.58863 13.2195
  487 474.247 44.8412 4.28452
  488 474.775 9.05960 165.784
  489 700.293 141.522 -0.881823
  490 485.193 -8.46452 2.38309
  491 485.214 -8.43566 -2.49143
  492 377.859 -6.50606 -6.23954
  493 377.892 -6.45477 6.21983
  494 200.679 8.80003 93.6189
  495 504.143 -24.4233 -33.6442
  496 457.984 -10.1042 -0.231290
  497 457.938 -10.0730 0.238583
  498 399.952 -42.1767 55.0287
  499 204.452 11.6891 -95.9450
  500 504.319 -41.2210 -14.7428
  501 9.32237 3.15520 2.84699
  502 445.974 23.2997 1.53011
  503 486.782 -5.95777 -0.755498
  504 486.777 -6.03223 0.732297
  505 400.145 -42.0940 -55.4387
  506 566.185 -28.7333 59.3053
  507 563.897 20.4970 44.4795
  508 519.235 -3.85971 -2.76520
  509 502.788 -41.7893 15.0074
  510 322.759 -0.234324 -0.680677
  511 322.842 -0.231670 0.675936
  512 502.805 -19.4308 -36.2057
  513 489.353 36.2700 38.7327
  514 557.131 13.7913 -43.9901
  515 320.788 -0.433339 -2.05721
  516 320.882 -0.426892 2.04477
  517 956.630 138.322 -123.071
  518 508.667 60.4805 33.9719
  519 519.649 -3.59470 2.44968
  520 471.875 -44.6782 7.80113
  521 399.782 -13.0050 9.50891
  522 399.771 -13.0988 -9.48955
  523 546.905 -33.4545 10.9303
  524 527.224 -10.6601 -45.8733
  525 589.940 115.744 24.0986
  526 492.551 8.53504 47.8227
  527 494.029 -9.79131 5.06364
  528 479.595 -51.3872 -65.3310
  529 499.409 -12.4831 35.9614
  530 944.349 43.4953 -17.1835
  531 542.730 -41.0412 2.62841
  532 516.022 -3.76790 -0.586698
  533 516.149 -3.98455 0.490806
  534 954.203 63.9808 59.9685
  535 480.791 -0.0952322 40.6793
  536 665.817 113.427 -5.90891
  537 503.000 -13.9159 -17.3052
  538 234.481 -2.10417 -15.7733
  539 235.155 -2.00191 15.6213
  540 343.676 -32.0913 -74.5069
  541 343.974 -31.5563 73.9771
  542 493.751 -9.40525 -5.02973
  543 538.162 19.7257 -50.5108
  544 473.259 -32.1864 4.11442
  545 510.827 58.5214 -35.1886
  546 511.964 -6.16420 17.7762
  547 637.112 33.2858 -12.1394
  548 440.085 -15.0397 -3.28329
  549 439.963 -14.9951 3.25329
  550 476.485 -22.5606 6.35932
  551 696.623 139.961 -15.8201
  552 503.372 22.0432 49.6347
  553 216.679 55.5597 137.962
  554 482.380 -28.8692 111.848
  555 631.961 33.4947 -123.926
  556 514.515 42.5468 -46.0643
  557 453.908 -39.4362 -97.1521
  558 491.989 -54.0359 -21.5278
  559 512.890 -52.1187 -30.4764
  560 69.0121 91.0138 -86.1056
  561 515.790 -6.82484 -10.5750
  562 771.746 149.735 -45.3864
  563 478.939 -21.6770 -7.33669
  564 482.643 -15.8835 6.07609
  565 482.203 -15.5350 -5.79071
  566 339.381 -1.80838 -4.57863
  567 339.460 -1.78515 4.55196
  568 51.1953 4.90789 -27.7534
  569 53.7429 5.15446 28.3740
  570 253.116 -11.5721 -54.2174
  571 254.965 -11.6382 54.1568
  572 489.331 -26.6322 -15.0734
  573 497.552 -54.2613 23.1230
  574 511.374 -48.7075 0.0544873
  575 422.691 -7.46257 -1.78138
  576 422.671 -7.41371 1.77311
  577 399.590 -42.0402 -83.0848
  578 445.440 -36.7251 102.626
  579 390.215 -39.5595 83.5110
  580 504.148 -11.2694 -45.8322
  581 321.642 -5.13648 16.5028
  582 321.485 -5.18845 -16.6272
  583 482.833 26.8256 -38.9508
  584 482.838 -0.854319 -17.8451
  585 600.672 129.569 -10.6199
  586 395.946 -5.87312 -1.68277
  587 395.962 -5.83707 1.67576
  588 512.256 -1.58414 -9.90205
  589 358.550 -11.8066 -18.5056
  590 358.570 -11.7697 18.3584
  591 291.043 13.0307 131.625
  592 498.573 -23.0851 -23.9939
  593 281.455 -15.0935 94.7064
  594 489.983 -25.5029 15.4648
  595 514.560 -7.54010 11.7313
  596 507.674 -4.99636 -2.39629
  597 363.161 -4.31637 -4.33284
  598 363.213 -4.28262 4.31357
  599 576.486 114.570 -21.9157
  600 281.247 -14.5568 -95.0328
  601 488.321 -21.2934 -12.1907
  602 442.117 -8.29175 -0.986080
  603 442.074 -8.23558 0.982406
  604 817.983 109.735 -19.6983
  605 299.275 -1.81923 9.05798
  606 299.026 -1.83651 -9.13554
  607 459.204 10.7007 33.5112
  608 645.933 55.6102 -2.47512
  609 309.750 1.71850 -130.556
  610 161.818 3.76459 -71.7600
  611 163.089 2.88687 71.3846
  612 389.637 -22.4149 23.1873
  613 393.528 -23.0762 -22.5916
  614 655.359 132.423 7.57201
  615 505.704 -5.16588 2.12870
  616 440.459 12.6402 -20.2948
  617 544.405 97.4235 20.7777
  618 542.604 101.071 -13.8267
  619 445.845 -24.6004 -5.20929
  620 449.125 -24.0660 3.64461
  621 318.634 69.9789 -186.822
  622 385.849 -12.9428 -13.0390
  623 385.889 -12.8002 13.0011
  624 952.563 195.295 147.218
  625 503.210 -16.5987 39.2512
  626 292.817 -10.0968 -34.7134
  627 768.140 185.903 127.559
  628 293.474 -10.0446 34.5961
  629 478.221 -18.0739 -130.107
  630 345.357 -1.56480 -1.68447
  631 345.428 -1.55143 1.67699
  632 425.670 3.96566 17.7188
  633 197.104 -2.84118 -31.1189
  634 198.115 -2.84900 30.8907
  635 440.230 -30.9868 11.0142
  636 460.866 -36.8110 -4.67823
  637 539.325 -1.30707 -3.85387
  638 313.277 -0.448655 2.72071
  639 313.153 -0.457017 -2.74561
  640 416.645 -9.33172 -2.87479
  641 416.634 -9.28397 2.85713
  642 474.089 -52.7746 65.9255
  643 546.236 60.9448 -45.7933
  644 367.212 -16.8059 -23.8148
  645 366.973 -16.5271 23.6548
  646 432.364 -30.8854 -14.5883
  647 676.181 146.624 6.40947
  648 508.444 -49.3257 2.67483
  649 443.718 -10.6863 -1.76050
  650 443.657 -10.6392 1.75917
  651 606.082 66.7496 32.4768
  652 509.943 -7.56868 -19.3108
  653 455.282 -0.480639 -16.4328
  654 213.581 -7.31623 -68.3465
  655 214.193 -7.50870 67.8192
  656 431.065 -36.9750 -22.6376
  657 643.501 140.705 0.0495844
  658 502.181 67.9036 -15.3041
  659 337.485 -2.91485 -8.34349
  660 337.569 -2.87498 8.28386
  661 466.548 -13.3294 -1.11822
  662 466.637 -13.3382 1.21004
  663 857.045 111.626 49.3577
  664 546.323 -1.63922 0.978564
  665 530.059 -2.24614 6.73058
  666 528.205 -2.26198 -7.97048
  667 502.522 -46.8871 4.70621
  668 374.978 -4.22338 -2.16338
  669 375.020 -4.19514 2.15496
  670 538.952 86.0878 32.1215
  671 687.045 152.266 -11.6402
  672 380.564 -27.9397 -33.7297
  673 380.481 -27.6754 33.5755
  674 472.292 -48.6262 -12.3624
  675 499.965 29.7678 -46.7774
  676 588.289 1.77403 16.6704
  677 396.087 -7.24221 -4.44831
  678 396.105 -7.19920 4.43276
  679 342.595 -29.8825 -67.2532
  680 497.856 -48.2343 -0.197810
  681 415.335 -46.0308 60.6712
  682 200.433 62.8644 -133.237
  683 389.182 -35.8176 46.8162
  684 469.677 0.135098 15.1151
  685 342.926 -29.5498 66.8274
  686 488.047 -21.6914 12.3410
  687 389.276 -35.6597 -47.2151
  688 403.121 5.43938 3.72973
  689 312.242 -8.14029 24.7821
  690 311.972 -8.14542 -24.9407
  691 415.501 -47.2203 -61.3289
  692 511.896 -33.8566 -29.0515
  693 470.065 -6.84553 -0.326625
  694 470.140 -6.91080 0.328469
  695 522.782 -33.4677 28.5028
  696 475.787 -49.7139 14.3135
  697 576.989 53.0288 43.1730
  698 521.586 -9.89042 47.5232
  699 501.930 -18.1790 28.5128
  700 482.507 39.7842 -29.5486
  701 576.808 96.7819 34.2908
  702 498.642 -6.97857 -28.2222
  703 495.829 -16.6399 13.9819
  704 515.310 80.4494 8.25151
  705 504.900 -8.71165 24.3255
  706 160.852 109.906 139.926
  707 469.494 -54.0724 -39.0925
  708 543.510 9.81363 48.0264
  709 547.854 -17.0211 -32.9073
  710 544.218 -0.883241 2.06191
  711 501.321 -17.4192 -22.1586
  712 470.238 -54.4922 35.7335
  713 896.253 79.4686 -13.2403
  714 287.436 -1.15444 9.46953
  715 287.110 -1.16667 -9.55147
  716 507.588 -9.49939 -9.97563
  717 547.290 -0.686659 -2.02991
  718 430.333 -37.5803 22.7509
  719 514.897 -19.2874 42.9261
  720 772.721 188.511 -63.6827
  721 488.072 -35.4249 12.0902
  722 539.477 -35.6531 -15.1807
  723 495.996 -16.2081 -13.7515
  724 546.696 -1.11923 -0.590235
  725 503.726 -0.0846080 50.1125
  726 23.9486 24.8570 31.3161
  727 562.530 -20.9605 -86.4587
  728 613.691 37.0980 18.3742
  729 512.477 -52.5011 27.5699
  730 370.965 -8.68314 10.6382
  731 370.955 -8.80016 -10.6830
  732 469.711 249.368 -252.690
  733 522.962 -34.7383 -26.0949
  734 401.621 2.32690 -7.13472
  735 463.657 2.67182 32.5593
  736 505.308 -25.4160 34.1570
  737 484.328 -40.8159 4.67778
  738 501.507 -45.9024 -70.8767
  739 481.487 -38.0973 -5.67858
  740 565.897 -27.0512 -2.27324
  741 521.592 -4.55089 5.75751
  742 468.010 -28.0952 2.30059
  743 839.688 167.756 -90.4837
  744 497.985 -13.5623 10.9632
  745 495.044 8.16841 -49.0724
  746 420.077 -4.52167 145.944
  747 529.299 42.5591 49.6964
  748 455.470 -35.7452 6.95446
  749 354.438 -27.6153 -49.2957
  750 354.492 -27.5470 48.9219
  751 486.382 54.7336 -6.86121
  752 493.070 -5.74331 43.5560
  753 497.812 -11.9227 -36.8242
  754 468.528 -28.6826 -2.43191
  755 453.304 -40.4900 13.8113
  756 519.159 85.3604 -9.25012
  757 483.747 -41.8740 -2.77717
  758 485.020 -30.7561 11.8981
  759 490.601 -6.60604 1.68557
  760 490.881 -6.43930 -1.66870
  761 659.564 143.992 1.27278
  762 538.239 -45.8960 -19.6424
  763 502.814 -15.5803 22.1203
  764 521.685 -4.54726 -5.19901
  765 529.388 3.46047 -50.0638
  766 599.975 32.0729 -26.7433
  767 302.801 -0.230518 -4.46104
  768 302.996 -0.226551 4.42055
  769 4.62638 -8.28751 -5.75475
  770 513.454 -0.683720 9.15073
  771 473.520 -0.661820 -35.8868
  772 488.003 -4.58284 31.3873
  773 440.286 56.7103 212.574
  774 555.074 113.441 -1.11685
  775 396.378 -28.0389 26.6749
  776 73.6169 1.48919 -27.1789
  777 75.5257 1.08276 27.4603
  778 483.973 -3.42669 -35.5209
  779 397.383 -28.3077 -26.6795
  780 518.663 -4.98891 4.27242
  781 271.512 -11.3749 46.2273
  782 269.275 -11.3314 -46.2251
  783 497.935 -13.1794 -10.6690
  784 323.948 -7.90986 -21.6209
  785 324.109 -7.86109 21.4457
  786 518.049 -5.11257 -13.2233
  787 399.710 -10.5051 -7.61658
  788 399.729 -10.4414 7.62033
  789 565.071 -3.51623 -32.7037
  790 510.802 -5.39800 -50.0466
  791 266.424 -1.62300 -12.0134
  792 266.906 -1.60774 11.8831
  793 15.6354 6.56671 -16.9242
  794 17.8544 6.93642 17.7760
  795 419.550 2.08637 -12.8572
  796 465.980 -52.3460 -29.6859
  797 -5.22000 -3.56089 9.14492
  798 -4.62608 -4.29972 -9.15744
  799 484.648 -9.97071 3.71881
  800 524.719 -41.0976 -13.2977
  801 544.050 80.4271 -37.3836
  802 520.747 -4.50686 -4.07186
  803 1089.29 222.590 -204.508
  804 484.545 -9.94373 -3.66651
  805 725.871 137.508 12.2076
  806 519.642 15.1143 -52.2960
  807 572.145 43.3165 -44.3684
  808 101.714 -1.17896 -24.9546
  809 103.399 -1.31947 24.9141
  810 329.636 -4.56861 12.9074
  811 329.516 -4.60498 -13.0109
  812 316.391 -0.673207 2.43545
  813 316.286 -0.680476 -2.45272
  814 579.611 97.4322 -33.8755
  815 348.543 -2.03245 -3.64947
  816 348.611 -2.00965 3.63184
  817 494.554 -4.97508 -45.5054
  818 702.649 76.0197 66.5205
  819 448.217 10.2410 -28.2186
  820 159.784 -1.38762 26.5619
  821 158.555 -1.40082 -26.7575
  822 567.365 17.2912 153.701
  823 507.136 -9.57580 10.2948
  824 458.495 30.6394 -11.7442
  825 216.749 -0.292491 17.9999
  826 215.731 -0.194606 -18.1228
  827 322.272 -1.52602 -6.36267
  828 322.393 -1.50412 6.31032
  829 58.4834 51.7443 45.9626
  830 476.643 11.4990 41.7288
  831 528.910 77.5182 -32.2782
  832 567.066 65.8833 -44.5391
  833 376.764 -13.9448 -16.8866
  834 376.565 -13.8486 16.8726
  835 588.209 124.437 15.1290
  836 505.544 -4.54628 -0.485204
  837 505.582 -4.51331 0.566686
  838 502.110 -15.2211 -28.9105
  839 422.533 -27.9081 16.2321
  840 463.249 -52.0339 29.7607
  841 541.318 -44.3383 45.9777
  842 419.272 -12.0633 -4.88083
  843 419.274 -12.0238 4.85410
  844 479.934 44.5822 19.0184
  845 452.070 6.35346 -30.4295
  846 125.373 154.205 145.557
  847 454.672 -40.1519 -12.7119
  848 456.356 -20.3764 -0.561982
  849 456.596 -20.4275 0.532958
  850 501.940 -7.44834 47.6586
  851 496.673 -32.7318 -20.3061
  852 444.976 -29.2965 -7.57516
  853 989.875 32.0293 -48.2761
  854 423.388 -39.8148 30.5540
  855 423.030 -40.3189 -31.0168
  856 501.063 -6.07527 23.9647
  857 747.333 194.402 -47.9211
  858 398.097 -35.8540 -37.5044
  859 438.135 -49.1990 36.2671
  860 398.024 -35.4338 37.1939
  861 431.004 -17.2308 -5.79005
  862 431.001 -17.1801 5.75581
  863 66.2051 27.3837 39.8313
  864 538.263 40.2070 -50.0282
  865 414.358 -15.9917 -8.51674
  866 414.439 -15.8375 8.54423
  867 409.664 -6.72215 -1.04394
  868 409.662 -6.67966 1.03812
  869 448.494 -9.03258 -0.597127
  870 448.442 -8.97842 0.592741
  871 368.248 -6.99406 -9.16429
  872 368.285 -6.91878 9.13118
  873 415.727 -21.6182 -12.5756
  874 415.786 -21.4817 12.6314
  875 10.5881 -1.50104 -6.28783
  876 621.596 116.717 23.4976
  877 535.157 -18.8900 -38.8882
  878 437.733 -48.4783 -36.6156
  879 472.200 -15.3445 3.01599
  880 471.999 -15.1960 -2.89608
  881 515.134 0.581186 51.1556
  882 556.159 -39.6334 -27.2606
  883 490.657 36.7963 -184.934
  884 228.892 -4.04295 92.2718
  885 -6.49134 5.33446 -6.97721
  886 -5.44210 6.03123 7.63519
  887 65.8513 29.1170 -40.6960
  888 502.359 -14.6549 17.1634
  889 526.841 -3.68968 -7.16247
  890 474.497 -45.8344 80.7486
  891 228.366 -3.82790 -92.6174
  892 528.742 -43.4689 8.17076
  893 585.279 -16.3620 71.7146
  894 433.891 1.80367 13.6100
  895 493.881 47.0087 32.2652
  896 270.324 -15.1200 67.5518
  897 269.310 -15.2404 -67.9696
  898 323.842 -15.0942 -37.9733
  899 336.598 -16.8523 -117.273
  900 530.040 -12.5264 44.3411
  901 722.905 171.874 31.8218
  902 532.870 20.4277 51.0187
  903 503.602 -10.8946 -26.4890
  904 343.482 -15.0946 120.162
  905 639.421 118.382 -15.6848
  906 65.8710 55.4654 -56.3643
  907 468.438 -0.889634 -14.4179
  908 324.177 -14.9746 37.6605
  909 393.078 -8.50703 6.66533
  910 393.059 -8.56096 -6.67732
  911 497.371 -32.5540 21.0453
  912 514.383 -3.61505 1.53375
  913 379.866 3.29376 -145.305
  914 541.361 -1.31694 3.37656
  915 537.850 -1.09773 -4.38952
  916 410.586 3.67547 -11.8585
  917 521.520 -2.17740 -8.07397
  918 393.960 -18.1347 -15.8531
  919 394.221 -17.8724 15.9054
  920 -12.2231 4.97963 -6.93422
  921 -17.1997 3.00625 7.47567
  922 514.354 -3.37785 -1.58067
  923 175.743 -4.06647 62.3443
  924 174.766 -3.71101 -62.6789
  925 552.567 80.3976 39.2937
  926 967.320 17.5479 14.8084
  927 521.046 57.8488 41.9666
  928 584.462 -20.1288 23.2901
  929 511.225 -28.5929 34.2142
  930 635.501 132.923 -12.0090
  931 402.389 1.87079 8.94817
  932 491.538 -11.8174 -6.26874
  933 512.585 27.5853 -50.8477
  934 613.750 19.0196 -5.32800
  935 479.911 -29.6700 -8.92179
  936 252.104 -1.32868 -13.4130
  937 252.333 -1.28112 13.2324
  938 505.717 -12.0847 -20.3679
  939 17.9918 22.4404 5.91533
  940 485.570 -50.3641 -7.80729
  941 426.673 12.9127 -1.22070
  942 631.743 138.139 -7.95056
  943 102.437 75.9976 -92.0314
  944 488.019 -3.64644 -28.1229
  945 342.724 -5.50326 -12.1286
  946 342.797 -5.44069 12.0367
  947 3.28707 -13.4470 10.0963
  948 334.188 -24.5779 -54.4755
  949 494.853 -28.7127 -19.8028
  950 315.614 0.684330 -1.02350
  951 315.702 0.687113 1.01754
  952 502.331 60.9162 -25.7470
  953 532.480 -1.85380 -0.676896
  954 532.512 -1.87262 0.902705
  955 334.353 -24.5176 54.1324
  956 501.757 -0.768447 -11.0302
  957 574.144 4.23418 31.2062
  958 509.861 -7.47440 7.85802
  959 85.0270 20.8105 -49.6786
  960 527.803 -3.43423 6.46016
  961 483.305 3.99975 44.5306
  962 509.597 70.4357 22.8897
  963 508.546 5.90061 -51.9062
  964 353.812 -18.6194 -32.8410
  965 546.279 -19.5001 31.6283
  966 354.046 -18.5546 32.5335
  967 17.2880 18.4278 -2.96882
  968 63.3484 10.3265 36.4700
  969 291.515 -4.96672 22.3147
  970 291.176 -4.96743 -22.4283
  971 491.889 -12.0261 6.65231
  972 531.464 92.0500 12.5401
  973 271.495 24.4304 -138.046
  974 444.197 -27.5826 6.75803
  975 417.070 -43.4298 -45.1560
  976 605.277 115.722 25.3879
  977 466.531 -8.42322 0.162451
  978 466.510 -8.38120 -0.167020
  979 509.733 -9.66679 -14.4071
  980 475.635 41.2061 -17.5360
  981 1041.87 314.590 211.592
  982 102.816 5.44560 -47.3526
  983 104.283 4.51679 47.4439
  984 7.66180 -7.36754 3.68314
  985 476.746 26.5797 35.9968
  986 417.003 -43.7022 44.8436
  987 514.819 -24.4396 -39.3293
  988 559.787 45.7268 48.7254
  989 535.555 -43.2524 -55.6374
  990 780.104 163.878 56.2888
  991 458.390 -7.58349 -0.383732
  992 458.332 -7.52570 0.383475
  993 534.607 -21.9513 36.7005
  994 37.7652 67.3105 66.9540
  995 247.218 -5.03029 31.8677
  996 246.495 -4.96499 -32.1830
  997 292.944 -14.0409 43.7117
  998 291.973 -13.8188 -43.8579
  999 329.126 -13.2733 31.5849
  1000 359.827 -2.70473 -1.62649
  1001 359.885 -2.68555 1.62058
  1002 866.466 283.634 -182.946
  1003 793.786 199.283 84.8014
  1004 328.862 -13.3358 -31.8292
  1005 550.475 -2.62237 40.6328
  1006 496.170 51.4983 -31.0104
  1007 350.672 -30.3483 97.3386
  1008 448.097 -52.9857 -53.6806
  1009 511.698 -4.32451 -15.9767
  1010 233.876 15.5257 112.750
  1011 299.914 -22.8533 77.7374
  1012 456.808 23.6395 -22.6226
  1013 517.881 -10.3493 -48.1582
  1014 642.876 277.233 286.738
  1015 432.901 13.4787 16.1745
  1016 582.846 124.715 -1.84531
  1017 425.650 17.1656 -164.844
  1018 435.969 -45.6887 -31.4628
  1019 547.545 -0.751430 -1.64215
  1020 530.548 48.6923 -48.3777
  1021 317.126 -1.91634 8.12218
  1022 316.976 -1.93550 -8.19111
  1023 11.9397 9.45027 -18.3767
  1024 354.304 -15.8458 -27.4378
  1025 299.540 -23.1443 -78.2890
  1026 354.061 -15.8165 27.1598
  1027 506.570 -15.5163 44.5574
  1028 455.062 -28.0306 -2.82449
  1029 479.575 8.92986 -43.2100
  1030 493.668 61.6179 9.05887
  1031 658.786 42.1016 29.2623
  1032 501.054 -38.1565 19.7011
  1033 320.868 -25.3854 -59.6007
  1034 475.876 16.9927 -40.5441
  1035 353.558 -29.9610 -97.8058
  1036 673.688 145.182 -3.59075
  1037 463.541 30.6192 20.5815
  1038 578.137 -3.19583 -22.8696
  1039 438.652 -45.7225 29.1744
  1040 501.741 -16.0296 34.2008
  1041 498.061 -26.4037 23.7356
  1042 495.318 -25.0251 20.3645
  1043 609.644 77.8806 -33.5616
  1044 495.832 -8.06512 35.1858
  1045 447.449 -53.1324 52.8339
  1046 477.563 -19.6301 5.77746
  1047 321.073 -25.4399 59.2988
  1048 449.389 -32.9333 -8.11463
  1049 264.412 -12.9476 -83.1123
  1050 374.052 -38.7070 66.3187
  1051 504.306 -3.53168 -18.6773
  1052 492.246 -5.58008 -40.1999
  1053 426.962 -33.5137 -19.6669
  1054 264.856 -13.3014 82.5004
  1055 461.355 1.21218 -28.2920
  1056 344.634 -22.5139 -42.3689
  1057 616.451 130.570 15.6195
  1058 141.148 22.7013 -79.9481
  1059 1030.26 72.6852 97.9840
  1060 249.997 18.0518 -117.868
  1061 495.049 -41.0700 -10.9926
  1062 344.740 -22.3295 42.0477
  1063 456.806 4.99967 31.7371
  1064 260.387 -5.11634 26.3965
  1065 260.270 -5.24126 -26.6496
  1066 502.043 -14.0439 -41.3750
  1067 530.237 -2.93443 2.47612
  1068 521.911 -1.27164 8.13229
  1069 517.965 17.1421 52.2444
  1070 485.745 -3.65057 37.8761
  1071 374.438 40.3523 178.105
  1072 550.792 -0.528003 0.751323
  1073 522.447 70.6279 33.3790
  1074 445.326 6.63299 27.4134
  1075 527.883 -2.11722 7.76382
  1076 346.099 -3.52494 -6.84642
  1077 346.168 -3.48565 6.80730
  1078 222.327 -6.16125 -44.0879
  1079 223.141 -6.38445 43.8135
  1080 446.793 22.5256 11.5288
  1081 660.202 37.6402 -53.4944
  1082 606.818 0.847711 -96.1049
  1083 490.541 -0.472727 -11.5031
  1084 374.150 -38.9908 -66.8004
  1085 427.865 -31.8792 17.7531
  1086 493.204 -1.16111 11.9951
  1087 514.217 -37.4464 -23.4889
  1088 328.034 -0.654996 4.03628
  1089 327.944 -0.667275 -4.05868
  1090 494.120 -42.2451 10.9791
  1091 470.142 -9.80529 0.699968
  1092 470.062 -9.81686 -0.673377
  1093 457.761 -45.9876 19.4061
  1094 585.545 -18.6338 -10.5047
  1095 273.616 -0.454939 -7.49348
  1096 274.035 -0.439068 7.42024
  1097 401.541 -25.6919 -112.078
  1098 429.000 -10.2142 2.82442
  1099 429.035 -10.2655 -2.84455
  1100 258.260 141.083 195.773
  1101 589.997 48.7042 -38.6791
  1102 89.8842 43.0311 -61.3838
  1103 510.093 -7.86884 -7.58151
  1104 139.649 47.0797 -91.7669
  1105 288.845 -17.9163 -56.4765
  1106 550.678 -0.740261 0.508909
  1107 550.860 -0.702940 -0.366954
  1108 503.077 -28.8354 -29.0978
  1109 445.321 -50.1380 -72.9770
  1110 141.264 19.3275 76.1802
  1111 547.678 54.1460 46.6701
  1112 495.728 -5.31823 -0.609441
  1113 495.791 -5.32034 0.653269
  1114 539.088 -34.3326 88.7504
  1115 561.772 111.896 17.7647
  1116 338.068 -7.88568 -17.2670
  1117 338.158 -7.85163 17.1566
  1118 254.888 28.7282 139.428
  1119 478.339 2.51788 -41.7641
  1120 152.116 48.3725 98.4568
  1121 606.593 -9.67108 -32.9236
  1122 601.038 131.888 5.15666
  1123 415.078 -32.5429 23.4851
  1124 388.296 2.21224 -1.74644
  1125 522.659 -4.77966 9.75256
  1126 540.038 -0.799408 3.78367
  1127 124.660 0.184925 -22.2889
  1128 126.201 0.129441 22.1463
  1129 432.249 7.44150 -20.3472
  1130 441.916 -12.9842 -2.47170
  1131 441.824 -12.9303 2.46051
  1132 47.2319 80.1443 -71.3821
  1133 74.2057 169.389 -139.821
  1134 447.312 -17.4373 2.41357
  1135 447.472 -17.4280 -2.44234
  1136 461.553 -11.2406 0.631327
  1137 461.488 -11.2216 -0.596951
  1138 123.200 78.3996 99.4555
  1139 368.345 -4.39076 -3.36351
  1140 368.394 -4.36083 3.34968
  1141 461.289 35.0464 -0.465798
  1142 575.814 77.1375 -205.105
  1143 558.943 96.0881 -30.4828
  1144 509.368 -19.6512 -41.8825
  1145 501.607 -25.1389 -29.7361
  1146 415.279 -32.8377 -23.8604
  1147 421.380 1.45974 12.5591
  1148 471.009 29.5249 -30.1132
  1149 464.743 25.1643 28.8097
  1150 477.260 -19.0721 -5.65686
  1151 456.192 -27.4784 2.47299
  1152 416.059 -26.6083 -17.8544
  1153 494.019 -2.95163 22.3247
  1154 859.781 86.6044 12.0012
  1155 497.114 -10.6566 40.6287
  1156 499.731 32.8290 44.9634
  1157 459.868 -45.1361 -15.1233
  1158 60.2336 9.47192 -35.2105
  1159 468.479 -21.7131 -3.48661
  1160 317.819 -0.428104 -0.217264
  1161 317.901 -0.426174 0.215335
  1162 567.897 -15.0607 19.0684
  1163 541.034 -45.6231 22.9590
  1164 774.715 138.126 34.8536
  1165 192.665 -0.338767 -18.4636
  1166 193.725 -0.298322 18.3345
  1167 420.203 -8.46820 -2.21022
  1168 420.187 -8.41950 2.19656
  1169 469.809 -41.3770 -3.56663
  1170 391.600 1.87259 5.72821
  1171 480.942 -34.2552 8.21260
  1172 28.3867 33.7100 -17.5824
  1173 88.8779 43.6585 59.9808
  1174 323.660 -17.8792 108.266
  1175 557.128 105.674 -21.7927
  1176 529.719 -1.53735 -6.14233
  1177 552.910 -0.957114 0.311247
  1178 553.397 -1.27516 -0.179939
  1179 329.827 -0.684234 -0.685302
  1180 329.907 -0.678581 0.680898
  1181 513.604 32.8112 50.8422
  1182 753.234 127.890 -2.73479
  1183 529.608 87.2807 -22.5013
  1184 395.251 -29.3135 111.373
  1185 321.950 -17.2250 -108.049
  1186 359.085 -23.6934 -38.1240
  1187 492.249 -13.9596 8.65227
  1188 684.390 151.431 9.82429
  1189 359.131 -23.5599 37.8456
  1190 502.403 -9.04169 6.54371
  1191 453.136 17.0311 27.5301
  1192 496.922 15.4452 49.0039
  1193 702.491 156.652 19.7588
  1194 420.946 -10.9168 4.08607
  1195 420.962 -10.9645 -4.11058
  1196 509.147 -9.78877 14.9800
  1197 308.113 -3.15405 12.6709
  1198 307.901 -3.18516 -12.7762
  1199 497.813 -7.04870 -2.73811
  1200 206.432 123.732 -189.872
  1201 431.203 -24.4358 -119.303
  1202 409.835 -12.6961 -7.24148
  1203 409.881 -12.6433 7.24445
  1204 532.213 -2.72980 2.28707
  1205 505.178 -6.89432 5.21033
  1206 28.6837 36.8773 27.5914
  1207 547.488 -0.701108 1.93097
  1208 66.9342 86.1316 85.4235
  1209 493.827 -7.64431 -3.56088
  1210 -0.472439 -11.9092 -10.4680
  1211 351.649 -34.3525 -83.9352
  1212 350.731 -33.5277 83.1223
  1213 547.462 -1.04242 -2.15205
  1214 471.376 -24.8879 -4.30697
  1215 531.899 -2.51479 -2.30433
  1216 429.768 -13.8381 -4.17051
  1217 429.732 -13.7931 4.13264
  1218 497.503 -7.00358 2.55553
  1219 468.148 -21.2825 3.45052
  1220 451.019 -14.5465 1.03326
  1221 451.170 -14.5800 -0.983597
  1222 531.387 -2.58968 -1.86930
  1223 460.289 -48.6288 -82.1249
  1224 520.474 -3.49734 -1.86823
  1225 495.861 -7.84637 3.87717
  1226 351.461 -3.67861 -5.12346
  1227 351.525 -3.64357 5.09708
  1228 390.498 -5.63154 -2.73255
  1229 390.522 -5.59537 2.72077
  1230 625.116 97.8758 27.4154
  1231 525.862 -40.5671 16.4933
  1232 361.912 -1.87689 137.350
  1233 296.015 -0.440549 4.86975
  1234 295.773 -0.445559 -4.91430
  1235 499.842 -9.31890 30.3740
  1236 477.781 -7.46638 0.547341
  1237 477.797 -7.44337 -0.547094
  1238 548.535 106.271 10.2369
  1239 499.501 -52.4111 65.8126
  1240 295.716 -4.02777 17.6913
  1241 295.436 -4.05656 -17.8108
  1242 477.221 -11.8195 2.76345
  1243 477.114 -11.9036 -2.66175
  1244 491.976 -13.7996 -8.30917
  1245 456.012 0.118322 14.6315
  1246 776.396 193.179 -66.7082
  1247 501.460 -18.4893 -26.3282
  1248 88.8165 20.5606 51.0147
  1249 517.725 -27.7199 36.3577
  1250 421.225 9.43594 -11.1415
  1251 33.5680 23.8262 19.2541
  1252 677.191 77.3931 -11.2340
  1253 506.036 -23.1127 -37.1216
  1254 423.136 6.20424 17.0798
  1255 290.816 -17.9516 56.4056
  1256 513.387 -39.8604 20.6579
  1257 739.083 145.146 50.7094
  1258 175.504 25.4070 96.6794
  1259 515.490 -6.35122 -12.9389
  1260 974.852 11.0085 -9.68616
  1261 1006.04 15.0220 42.9709
  1262 1072.35 35.9968 -102.479
  1263 501.149 -15.7633 -33.2078
  1264 500.827 -22.9830 27.8019
  1265 508.508 -36.3091 25.2552
  1266 -14.8793 1.82776 9.34612
  1267 -13.5038 1.49643 -10.2172
  1268 494.408 -54.7641 -32.0288
  1269 505.926 -51.2877 -46.9281
  1270 394.251 2.60848 -7.06290
  1271 492.223 -55.7172 46.6897
  1272 526.419 -25.0809 -36.8056
  1273 11.4047 16.1752 2.77948
  1274 430.202 -7.88539 1.42258
  1275 430.231 -7.93761 -1.42631
  1276 522.177 -4.40559 8.71102
  1277 502.346 -8.88757 -6.11971
  1278 473.941 -51.7249 -17.8891
  1279 434.462 -23.3552 8.26302
  1280 432.334 -23.0194 -8.84667
  1281 507.708 -10.9059 20.9240
  1282 520.446 -19.2238 -42.9396
  1283 34.8076 24.8401 -18.7834
</Section>

newXOutput 29

<Section columns = "stress_xx | stress_yy | stress_xy">
  1 574.971 -0.227579 1.05884
  2 574.970 -0.215972 -1.06138
  3 324.725 -0.0763732 -0.381687
  4 -4.06401 -4.00932 -5.84556
  5 1012.08 417.474 328.823
  6 1002.89 431.994 -326.795
  7 -4.72363 -3.80021 6.23319
  8 324.641 -0.0774564 0.380779
  9 578.765 -1.01110 0.304211
  10 577.681 -1.57819 -0.329593
  11 576.593 -1.09868 1.17456
  12 575.478 -1.47228 0.249857
  13 573.054 -1.25609 1.84677
  14 570.829 -1.26033 1.29886
  15 565.400 -1.10962 2.67592
  16 557.442 -0.838571 3.96293
  17 550.393 -0.855007 4.45710
  18 539.765 -1.12872 5.43749
  19 524.821 -0.147379 8.10367
  20 511.022 -0.829011 7.75872
  21 495.061 -1.03777 11.0047
  22 472.034 0.726268 9.62989
  23 455.174 1.15391 11.4323
  24 433.159 1.90959 8.98887
  25 417.841 2.08863 9.08331
  26 395.665 2.84728 4.64398
  27 390.951 4.47011 4.99402
  28 388.098 3.70899 -1.48099
  29 391.954 2.22536 -3.22887
  30 399.074 2.10763 -3.96700
  31 415.698 2.61706 -7.90293
  32 431.850 2.06954 -9.95626
  33 455.380 0.516397 -11.7793
  34 474.175 -0.218300 -10.6612
  35 494.069 -0.820294 -10.4125
  36 512.007 -0.652547 -7.31433
  37 527.284 -0.702581 -6.21150
  38 539.774 -1.10981 -5.17105
  39 550.866 -0.818401 -3.54485
  40 557.671 -0.997836 -3.73504
  41 564.252 -1.18354 -2.71758
  42 570.374 -1.38650 -1.11922
  43 573.479 -1.12921 -1.36612
  44 575.000 -0.737913 -0.822793
  45 573.551 -0.474276 -0.753381
  46 578.210 -1.57633 0.237367
  47 578.914 -1.04693 -0.313309
  48 561.212 -0.650158 -0.656387
  49 549.434 -2.62337 -1.23148
  50 534.932 -3.78779 -0.733088
  51 517.172 -5.46215 -1.02377
  52 500.238 -5.92717 -1.23539
  53 482.093 -7.25850 -1.18779
  54 465.968 -7.97957 -0.604572
  55 451.819 -8.79812 -0.156637
  56 435.469 -7.26633 -0.138075
  57 416.618 -6.72446 -0.328816
  58 398.468 -5.24617 -0.0221057
  59 381.294 -3.28296 0.0366290
  60 365.000 -2.29457 0.0965235
  61 350.754 -1.11820 0.206120
  62 336.247 -0.255472 -0.431116
  63 324.857 0.465588 0.617772
  64 319.686 1.21624 0.441734
  65 322.994 0.0368037 0.999170
  66 318.882 -0.130546 1.21665
  67 314.974 -0.210318 1.51310
  68 309.723 0.00533986 1.94687
  69 303.112 0.00604244 2.43450
  70 298.051 -0.330530 4.61569
  71 284.245 0.412730 5.02504
  72 274.417 -0.00680326 5.71051
  73 259.787 -0.225948 6.48990
  74 242.985 -0.395464 7.88640
  75 221.962 -0.0727660 9.57745
  76 196.338 0.132372 10.5874
  77 173.960 -0.189316 15.1460
  78 130.183 1.37857 14.3539
  79 100.059 1.18631 15.2125
  80 63.6845 -0.310532 16.9600
  81 33.2008 2.72024 17.7554
  82 -1.64456 4.12824 10.8958
  83 -27.3220 4.20903 4.14866
  84 -27.3887 4.12803 -1.05293
  85 -26.9075 3.46083 -7.96596
  86 -15.9115 -0.998407 -7.68752
  87 -1.87171 -15.2729 -8.51360
  88 1.63180 -27.9579 -10.5027
  89 4.34669 -43.3672 -5.39908
  90 9.54081 -42.7845 1.46014
  91 20.0195 -4.95620 27.6130
  92 58.8017 99.3533 90.3486
  93 335.320 330.320 295.758
  94 1228.22 185.068 203.683
  95 1110.40 26.3795 65.8421
  96 1035.60 11.0542 20.1494
  97 1008.05 9.44859 1.51981
  98 1022.86 12.4958 -17.5393
  99 1108.37 24.7102 -52.1583
  100 1297.32 89.2537 -174.328
  101 200.148 339.960 -248.384
  102 43.9903 74.6744 -75.4014
  103 21.9134 -2.75582 -29.5689
  104 8.95134 -42.4881 -5.88575
  105 2.65999 -32.7366 6.14403
  106 3.25118 -35.3066 9.05999
  107 0.198788 -13.1465 9.43690
  108 -16.6242 -0.599158 7.26778
  109 -27.7560 2.59885 6.92341
  110 -28.8645 5.00855 1.20142
  111 -28.1799 4.13336 -3.88155
  112 -3.64526 4.23044 -10.2355
  113 31.4580 2.74325 -16.9445
  114 61.9102 -0.0173849 -16.6831
  115 98.2214 1.28172 -15.2407
  116 128.514 1.41352 -14.4579
  117 172.667 -0.195571 -15.2664
  118 195.233 0.145866 -10.6846
  119 220.995 -0.0695407 -9.69244
  120 242.494 -0.440619 -7.94027
  121 259.115 -0.212802 -6.50415
  122 273.904 0.0108118 -5.76626
  123 283.823 0.408069 -5.07643
  124 297.744 -0.333994 -4.65919
  125 302.862 0.00379301 -2.46108
  126 309.530 0.00317794 -1.96867
  127 314.823 -0.213914 -1.53033
  128 318.762 -0.133630 -1.22863
  129 322.892 0.0341993 -1.00678
  130 319.594 1.21504 -0.445229
  131 324.770 0.464965 -0.619981
  132 336.162 -0.258410 0.430043
  133 350.675 -1.12558 -0.208779
  134 364.932 -2.31070 -0.0996166
  135 381.242 -3.30535 -0.0395920
  136 398.436 -5.27848 0.0191398
  137 416.609 -6.76548 0.326455
  138 435.486 -7.31398 0.135565
  139 451.856 -8.85191 0.155431
  140 466.019 -8.03339 0.606304
  141 482.168 -7.30748 1.19334
  142 500.305 -5.96070 1.25530
  143 517.226 -5.49218 1.12028
  144 535.031 -3.59812 0.749137
  145 549.814 -2.56081 1.20391
  146 561.318 -0.737727 0.645982
  147 505.850 -47.5558 -0.552948
  148 505.405 -46.9100 0.730142
  149 533.353 76.4621 -24.6489
  150 565.787 33.3059 51.4006
  151 428.906 -41.5113 -96.2864
  152 432.436 -41.4365 93.2793
  153 419.652 -17.5520 12.3304
  154 419.678 -17.7884 -12.3356
  155 598.107 21.7308 -37.6424
  156 504.533 -18.3274 9.38807
  157 504.314 -17.8983 -9.27597
  158 651.993 144.487 5.30908
  159 517.950 -0.816381 -50.9781
  160 385.619 -29.9690 -43.3930
  161 385.652 -29.7280 43.0370
  162 518.441 -11.8107 45.6846
  163 494.973 36.2511 30.7623
  164 206.211 32.4570 -115.043
  165 228.067 30.8038 121.128
  166 629.271 7.85163 0.383778
  167 519.015 -20.0483 -31.0749
  168 684.859 150.355 0.867341
  169 468.488 -13.2888 -0.931499
  170 468.394 -13.2537 0.967843
  171 523.395 -6.66430 -4.03763
  172 524.937 -6.02719 3.46692
  173 372.490 -5.13490 -7.08190
  174 372.544 -5.08354 7.05000
  175 559.084 -13.8968 122.505
  176 479.792 20.1079 -33.1787
  177 315.217 -23.4317 -68.8949
  178 316.143 -23.2641 68.4771
  179 354.824 -11.3205 -22.7371
  180 354.864 -11.1946 22.5838
  181 521.382 -13.8624 26.4394
  182 474.775 -32.4871 -3.13081
  183 473.170 -32.2458 3.84436
  184 537.192 -52.1500 -12.3776
  185 540.075 -49.6846 5.75075
  186 740.167 174.578 -29.4686
  187 543.588 86.9811 22.9890
  188 543.298 33.3642 -52.2291
  189 556.668 -3.58865 -141.738
  190 537.734 -30.5158 -35.1071
  191 542.428 -21.8389 41.8953
  192 453.281 -51.4039 48.2234
  193 453.338 -51.0295 -48.0909
  194 487.289 6.32181 39.7388
  195 225.742 -5.73377 -84.4977
  196 226.264 -6.18758 84.0101
  197 831.446 124.013 18.2115
  198 509.755 -30.4612 18.3142
  199 527.967 -9.92831 -16.9672
  200 422.282 -10.1961 -5.78085
  201 422.296 -10.1489 5.76532
  202 509.028 -6.65417 -35.3393
  203 578.438 84.7818 -41.1601
  204 487.343 43.9212 -6.15105
  205 320.363 -11.0422 31.6940
  206 319.892 -11.0731 -31.9112
  207 534.938 -6.22147 9.01896
  208 523.903 9.86429 52.4964
  209 427.220 -30.7901 -21.7980
  210 424.495 -29.1449 22.2190
  211 615.062 91.3149 36.4663
  212 717.751 101.285 22.3286
  213 51.3378 39.3820 -33.8649
  214 47.5489 36.4023 28.8747
  215 298.815 86.3446 200.599
  216 504.726 -33.5956 -13.4389
  217 536.707 -5.97064 -8.13600
  218 482.068 4.37452 -36.6167
  219 342.187 -3.22415 -10.1234
  220 342.300 -3.18856 10.0434
  221 455.819 -21.2715 -5.56791
  222 456.034 -21.4107 5.31413
  223 513.074 -6.97367 29.9587
  224 586.215 -33.8119 17.1738
  225 586.756 119.230 -11.7685
  226 460.157 -44.2615 -23.7902
  227 578.859 -10.1128 31.1154
  228 494.683 -8.56294 1.20267
  229 494.683 -8.49725 -1.20137
  230 456.924 -44.0555 24.5953
  231 522.005 -33.2484 28.2801
  232 725.738 97.4969 -52.2434
  233 165.101 98.1864 -147.048
  234 447.732 15.9837 7.98043
  235 526.416 46.3901 44.3275
  236 558.171 -3.98056 -45.4634
  237 522.493 -18.9066 -42.3911
  238 284.185 -8.91061 -39.5044
  239 285.123 -8.77960 39.3970
  240 523.093 -6.45822 -22.9270
  241 498.244 -12.8248 4.61258
  242 498.013 -12.8137 -4.42909
  243 108.902 9.57485 -54.6673
  244 110.503 8.38732 54.4705
  245 552.484 -48.4482 -46.1306
  246 546.165 -2.25943 1.11266
  247 546.693 -2.29921 -1.24964
  248 514.637 42.7141 -40.7033
  249 456.054 9.00688 24.1007
  250 928.681 148.668 100.110
  251 920.500 104.809 -62.2751
  252 676.170 144.814 0.255154
  253 422.556 -20.5770 127.491
  254 388.491 -13.6136 -133.181
  255 447.213 -9.18951 -2.24497
  256 447.176 -9.13563 2.23137
  257 374.509 -9.74710 14.1543
  258 374.497 -9.87732 -14.2672
  259 534.823 -5.99450 13.8305
  260 519.839 -37.1255 -22.7071
  261 344.465 -0.541748 -2.40721
  262 344.550 -0.531674 2.39412
  263 513.363 -20.9617 -18.2802
  264 223.505 -7.19806 -54.9558
  265 224.408 -7.21996 54.5860
  266 520.068 -22.6797 33.5298
  267 398.723 -42.3195 77.5303
  268 399.670 -43.0739 -77.2891
  269 453.901 17.6492 -11.2195
  270 391.812 -5.82802 -4.78711
  271 391.852 -5.79085 4.77092
  272 490.451 -1.15652 29.2052
  273 583.457 106.365 28.4226
  274 318.870 -3.70752 16.9436
  275 318.634 -3.73723 -17.0759
  276 533.193 -44.6916 14.6176
  277 493.562 -55.5416 -53.3421
  278 548.431 -2.93549 4.09230
  279 386.909 -22.5327 -29.8374
  280 386.287 -22.2882 29.7364
  281 667.934 75.6299 178.695
  282 323.581 -26.2069 92.0922
  283 519.867 72.8751 -2.60781
  284 650.250 72.9249 -21.2623
  285 493.337 -38.1307 3.75619
  286 494.046 -57.0425 48.3379
  287 324.497 -25.7953 -93.0736
  288 61.3964 75.9286 70.0210
  289 513.453 -21.0268 18.6300
  290 669.273 88.7366 15.2009
  291 552.450 -2.62547 -3.54981
  292 505.919 17.8194 -46.8708
  293 497.063 -28.1656 8.98997
  294 486.901 -41.0349 3.70443
  295 504.253 23.2379 45.2182
  296 530.727 -44.6866 -12.7637
  297 748.685 144.705 -13.8690
  298 496.933 -27.0823 -8.57868
  299 406.748 120.036 -243.943
  300 507.291 -53.8469 -12.7992
  301 503.784 -55.3271 18.5019
  302 373.642 -33.5473 -60.8257
  303 341.270 -1.18683 -5.20260
  304 341.371 -1.16596 5.16613
  305 373.825 -33.5812 60.5161
  306 537.654 -0.941151 -52.2542
  307 577.632 -23.9373 -19.2638
  308 443.729 -26.4859 -12.2350
  309 443.477 -26.5485 12.4452
  310 525.564 -45.2491 84.0370
  311 527.201 -4.36494 17.3424
  312 635.235 4.29765 33.2783
  313 435.317 -15.2094 -6.87918
  314 435.352 -15.1647 6.84665
  315 398.356 -10.1310 -9.53349
  316 398.366 -10.0406 9.52236
  317 451.610 6.25190 -23.2977
  318 572.490 41.9946 -49.6587
  319 874.718 237.353 -115.398
  320 520.229 -4.94410 -1.29461
  321 519.957 -4.88119 1.33713
  322 282.546 -0.984914 114.946
  323 395.981 -17.6179 -20.0378
  324 395.281 -17.5675 20.0920
  325 282.489 -1.66695 -114.505
  326 547.399 64.5073 -42.8569
  327 608.674 30.4347 35.3626
  328 525.304 -37.4569 -92.9873
  329 486.201 -18.8615 3.29083
  330 485.726 -18.7340 -3.09088
  331 517.449 -11.0288 -8.52499
  332 490.758 -0.881022 -27.2988
  333 547.177 2.24724 50.9137
  334 543.851 -4.03883 -9.46534
  335 333.157 -19.8545 46.2736
  336 332.793 -19.9591 -46.6038
  337 510.764 -1.11950 48.5112
  338 321.161 -2.46190 -10.1143
  339 321.362 -2.43932 10.0308
  340 521.426 -12.2543 13.8362
  341 626.101 127.408 -19.7778
  342 517.236 -11.1016 8.86963
  343 553.356 69.3081 42.9184
  344 528.922 -9.92500 49.7628
  345 421.864 -7.80417 2.19228
  346 421.861 -7.84832 -2.20447
  347 502.254 -1.74500 -43.1009
  348 660.414 138.507 11.0413
  349 552.498 100.781 0.888593
  350 337.793 39.0717 -170.008
  351 37.4155 15.4029 -24.5799
  352 40.7580 16.6835 26.3251
  353 -1.02644 4.29660 9.56320
  354 0.914592 2.65532 -10.0471
  355 948.617 65.8799 22.2921
  356 457.396 -36.9121 -14.6615
  357 521.776 -11.8600 -13.4888
  358 472.565 -8.49491 0.262188
  359 472.511 -8.43219 -0.266006
  360 507.779 56.1057 -22.0653
  361 432.415 -43.8100 39.7338
  362 39.3032 58.8856 -44.2146
  363 432.769 -43.7861 -40.4029
  364 514.158 58.4730 23.4729
  365 521.292 -14.1027 -25.1116
  366 551.878 -30.9482 -29.0881
  367 590.674 123.872 8.07608
  368 552.947 -34.7127 23.3132
  369 235.960 -5.68969 36.7430
  370 234.639 -5.57802 -36.9563
  371 135.057 3.08026 -51.5470
  372 136.356 2.57215 51.3263
  373 458.306 1.73439 23.5174
  374 848.861 251.237 102.233
  375 537.913 -3.61621 -12.2531
  376 422.073 -35.2813 -30.5956
  377 421.768 -35.2059 30.5574
  378 518.765 -12.1110 -32.2904
  379 587.083 -28.3609 -0.107446
  380 457.381 -36.8850 15.0535
  381 641.328 6.05226 -57.5286
  382 372.361 -2.82880 -1.93938
  383 372.423 -2.80563 1.92817
  384 511.211 -3.04512 -20.8521
  385 281.800 -3.89314 -23.9165
  386 281.959 -4.02256 23.6417
  387 607.866 77.8219 -40.9175
  388 330.280 23.1384 158.240
  389 477.750 -25.0455 0.411498
  390 478.209 -25.0066 -0.429641
  391 561.986 94.7118 -26.9625
  392 530.702 -15.8340 -46.8973
  393 529.776 -54.2976 47.4300
  394 445.701 -11.7982 -3.57034
  395 445.657 -11.7477 3.54251
  396 511.613 -39.5451 14.3639
  397 548.654 -2.82882 6.98453
  398 349.232 -12.3726 -28.3195
  399 349.374 -12.3782 28.0986
  400 521.491 17.5578 -51.8561
  401 490.781 -10.9008 1.76044
  402 490.755 -10.9297 -1.70247
  403 509.187 -6.06034 39.3753
  404 477.673 35.0282 10.6919
  405 526.324 -22.3743 40.5992
  406 755.752 157.456 30.2752
  407 259.072 -13.8826 -73.7974
  408 259.764 -13.8831 73.2703
  409 116.619 61.6402 -89.8036
  410 559.547 -1.92178 1.80601
  411 293.853 -2.32346 -15.1596
  412 294.222 -2.27435 15.0401
  413 519.098 -13.6922 31.5360
  414 471.143 -51.0373 27.3513
  415 529.554 -6.94346 6.00759
  416 542.310 27.4963 53.7395
  417 121.933 65.6328 93.3650
  418 471.812 -50.7306 -25.3458
  419 487.283 -45.2200 -7.14175
  420 164.989 -3.28748 -46.5028
  421 166.120 -3.40286 46.2008
  422 375.405 -30.3747 -111.036
  423 558.132 -8.46362 44.2241
  424 374.109 -30.7891 110.107
  425 516.349 -29.1293 -25.4387
  426 483.937 32.8753 -23.3237
  427 516.395 -22.5013 24.3196
  428 552.492 -2.74712 -4.58723
  429 17.8524 19.6991 9.81032
  430 114.671 134.331 131.832
  431 499.565 -1.81789 20.2292
  432 424.538 6.07089 10.2622
  433 431.364 7.33631 -13.8882
  434 368.055 -5.81849 -9.99164
  435 368.102 -5.74633 9.93457
  436 509.077 -39.5128 -12.9511
  437 515.583 -10.1806 -43.9222
  438 426.628 8.30002 -3.77015
  439 754.956 180.334 41.3794
  440 108.732 35.1504 -67.4732
  441 119.505 32.2440 71.8676
  442 477.306 -17.0809 0.724372
  443 477.134 -17.0492 -0.606244
  444 635.335 139.198 -1.46271
  445 391.195 169.168 249.350
  446 607.411 -8.09975 -3.86289
  447 355.963 -18.1823 -38.4118
  448 356.138 -18.0646 38.1122
  449 359.341 -7.72363 15.3863
  450 359.266 -7.77707 -15.5109
  451 480.922 10.8930 -37.7703
  452 562.177 -1.04719 -1.16964
  453 468.547 21.7781 21.3106
  454 585.722 72.2419 45.2871
  455 488.360 -36.2131 -2.12841
  456 529.306 -6.63410 -5.85025
  457 554.626 -2.51347 4.22160
  458 560.503 -1.13169 0.665184
  459 560.903 -1.24645 -0.467227
  460 319.837 -0.494155 3.78302
  461 319.676 -0.501945 -3.81792
  462 533.080 -34.0531 30.7700
  463 485.391 19.3508 36.5920
  464 505.580 2.11110 -47.4187
  465 524.961 -11.3417 18.4025
  466 744.295 133.017 -152.779
  467 526.723 -29.3829 -35.0337
  468 6.81235 10.2569 5.18254
  469 6.69520 10.4908 -2.56968
  470 420.553 -23.4779 17.6885
  471 419.214 -23.1481 -17.4511
  472 647.481 14.5130 84.0303
  473 183.280 171.641 -190.899
  474 520.661 -1.69265 15.5364
  475 584.965 -33.7805 -49.2942
  476 319.172 -18.0448 53.4414
  477 630.346 111.928 -28.5178
  478 519.222 -28.2667 29.1355
  479 438.537 -20.7232 -9.40239
  480 438.917 -20.3894 9.38306
  481 458.201 2.54816 -20.7474
  482 318.205 -17.9663 -53.7397
  483 469.017 0.333264 20.7996
  484 445.392 -51.0367 -69.8472
  485 444.303 -51.1142 70.1439
  486 535.146 -3.72925 13.5583
  487 491.127 46.4522 4.41376
  488 490.936 9.46957 171.755
  489 724.351 146.276 -0.910906
  490 502.028 -8.78756 2.38323
  491 502.049 -8.75779 -2.49516
  492 391.480 -6.71649 -6.50111
  493 391.515 -6.66390 6.48097
  494 208.040 9.07244 97.1044
  495 521.688 -25.2869 -34.4949
  496 474.011 -10.4711 -0.309529
  497 473.964 -10.4392 0.316791
  498 414.062 -43.6451 57.1118
  499 211.940 12.0585 -99.5115
  500 521.814 -42.6629 -14.9217
  501 9.71495 3.40855 2.82303
  502 461.993 24.1670 1.57883
  503 503.654 -6.19755 -0.751469
  504 503.649 -6.27425 0.727484
  505 414.256 -43.5584 -57.5353
  506 585.453 -29.6636 61.7329
  507 583.380 21.2113 45.5806
  508 537.051 -4.02704 -2.80078
  509 520.231 -43.2496 15.1966
  510 334.786 -0.234650 -0.709773
  511 334.872 -0.231929 0.704930
  512 520.325 -20.1197 -37.1578
  513 506.656 37.5605 39.8722
  514 576.396 14.2751 -45.0858
  515 332.740 -0.440990 -2.13672
  516 332.838 -0.434372 2.12399
  517 988.073 142.887 -127.052
  518 526.592 62.6029 34.9551
  519 537.474 -3.75427 2.47956
  520 488.320 -46.2286 8.33320
  521 414.047 -13.4423 9.92721
  522 414.034 -13.5387 -9.90702
  523 565.718 -34.6183 10.9044
  524 545.534 -11.0411 -47.0790
  525 610.479 119.722 24.6520
  526 509.890 8.84344 49.2114
  527 511.139 -10.1607 5.11968
  528 496.150 -53.1835 -67.8689
  529 516.855 -12.9312 36.9392
  530 975.276 44.9411 -17.7344
  531 561.382 -42.4624 3.10442
  532 533.729 -3.93365 -0.585499
  533 533.860 -4.15743 0.486231
  534 985.455 66.0729 61.8615
  535 497.771 -0.0910046 41.8616
  536 688.532 117.470 -5.54273
  537 520.446 -14.4230 -17.6994
  538 243.398 -2.17272 -16.3372
  539 244.090 -2.06700 16.1809
  540 355.932 -33.2257 -77.2408
  541 356.244 -32.6721 76.6943
  542 510.851 -9.76208 -5.08702
  543 556.880 20.4126 -51.8779
  544 489.767 -33.3063 4.01733
  545 528.819 60.5790 -36.2000
  546 529.719 -6.40045 18.2296
  547 658.731 34.5717 -13.0828
  548 455.573 -15.5624 -3.51026
  549 455.448 -15.5171 3.47901
  550 493.093 -23.3537 6.37706
  551 720.293 144.930 -16.9460
  552 521.058 22.8221 51.0716
  553 224.440 57.5305 143.049
  554 498.918 -29.8499 115.987
  555 653.074 34.9323 -128.577
  556 532.580 44.0436 -47.3833
  557 469.584 -40.8204 -100.766
  558 509.023 -55.9194 -22.5765
  559 530.550 -53.9330 -31.8562
  560 71.5737 94.5649 -89.4435
  561 533.580 -7.09169 -10.8043
  562 797.920 154.778 -47.0974
  563 495.623 -22.4431 -7.39009
  564 499.429 -16.4543 6.12383
  565 498.975 -16.0948 -5.83103
  566 351.866 -1.85725 -4.75996
  567 351.948 -1.83341 4.73267
  568 53.4030 5.07382 -28.8337
  569 56.0298 5.32978 29.4759
  570 262.483 -11.9766 -56.1854
  571 264.391 -12.0454 56.1253
  572 506.356 -27.5709 -15.3417
  573 514.759 -56.1532 24.2331
  574 529.052 -50.4078 -0.285505
  575 437.664 -7.72381 -1.86638
  576 437.644 -7.67376 1.85783
  577 413.597 -43.5291 -86.1669
  578 460.849 -38.0169 106.426
  579 403.925 -40.9634 86.6041
  580 521.765 -11.6697 -47.1016
  581 333.486 -5.29892 17.1163
  582 333.323 -5.35233 -17.2439
  583 499.928 27.7930 -40.1026
  584 499.867 -0.885426 -18.3543
  585 621.602 133.991 -10.8361
  586 410.120 -6.06768 -1.75565
  587 410.138 -6.03079 1.74844
  588 530.067 -1.64619 -10.1684
  589 371.527 -12.1951 -19.2183
  590 371.550 -12.1576 19.0669
  591 301.377 13.4457 136.433
  592 515.912 -23.9035 -24.5522
  593 291.585 -15.6611 98.1805
  594 507.026 -26.4018 15.7484
  595 532.325 -7.83020 11.9919
  596 525.156 -5.20524 -2.42068
  597 376.351 -4.45051 -4.51229
  598 376.406 -4.41592 4.49258
  599 596.613 118.509 -22.4442
  600 291.369 -15.1080 -98.5156
  601 505.303 -22.0502 -12.3926
  602 457.671 -8.59002 -1.04400
  603 457.626 -8.53239 1.04014
  604 845.470 113.383 -20.3835
  605 310.441 -1.87416 9.38935
  606 310.183 -1.89191 -9.46894
  607 475.589 11.1032 34.5156
  608 667.879 57.6762 -1.99866
  609 320.708 1.73031 -135.314
  610 167.901 3.86749 -74.4417
  611 169.212 2.96212 74.0528
  612 403.542 -23.1727 24.1082
  613 407.552 -23.8565 -23.4963
  614 677.873 137.020 7.37533
  615 523.130 -5.38056 2.14535
  616 456.304 13.1245 -20.9091
  617 563.512 100.796 21.3399
  618 561.665 104.566 -14.2022
  619 461.503 -25.4489 -5.55769
  620 464.886 -24.8984 3.94111
  621 329.698 72.4732 -193.539
  622 399.683 -13.3728 -13.5727
  623 399.724 -13.2262 13.5341
  624 983.998 201.778 152.114
  625 520.762 -17.1892 40.3033
  626 303.613 -10.4352 -35.9701
  627 793.554 192.889 132.679
  628 304.291 -10.3818 35.8502
  629 494.589 -18.6706 -134.865
  630 358.035 -1.60476 -1.75080
  631 358.109 -1.59107 1.74315
  632 441.088 4.12645 18.2568
  633 204.646 -2.93769 -32.2412
  634 205.686 -2.94586 32.0065
  635 455.704 -32.0522 11.5807
  636 476.977 -38.0837 -5.06841
  637 557.767 -1.36641 -3.93771
  638 324.977 -0.458247 2.82809
  639 324.848 -0.466840 -2.85360
  640 431.433 -9.65277 -3.02834
  641 431.423 -9.60393 3.01012
  642 490.485 -54.6197 68.4761
  643 565.291 63.0685 -47.0384
  644 380.430 -17.3681 -24.7282
  645 380.185 -17.0806 24.5634
  646 447.591 -31.9428 -15.2670
  647 699.467 151.609 6.88116
  648 526.030 -51.0461 3.10104
  649 459.319 -11.0665 -1.89691
  650 459.256 -11.0184 1.89531
  651 626.927 69.0988 33.1082
  652 527.636 -7.85451 -19.8020
  653 471.550 -0.488798 -16.9181
  654 221.528 -7.59089 -70.8481
  655 222.158 -7.78911 70.3051
  656 446.228 -38.2456 -23.6082
  657 665.807 145.459 0.0262172
  658 519.933 70.2942 -15.7474
  659 349.883 -3.00115 -8.66512
  660 349.971 -2.96019 8.60398
  661 482.836 -13.8089 -1.04029
  662 482.928 -13.8174 1.13444
  663 885.660 115.324 51.0100
  664 564.872 -1.71248 0.992735
  665 548.284 -2.34017 6.88865
  666 546.390 -2.35385 -8.16712
  667 519.936 -48.5234 4.54254
  668 388.528 -4.35685 -2.25279
  669 388.572 -4.32796 2.24416
  670 557.852 89.0736 33.0057
  671 710.647 157.452 -12.3320
  672 394.144 -28.8906 -35.0230
  673 394.060 -28.6186 34.8645
  674 488.739 -50.3138 -13.0575
  675 517.566 30.8235 -48.1382
  676 608.430 1.86600 16.7779
  677 410.260 -7.48327 -4.64734
  678 410.279 -7.43926 4.63138
  679 354.852 -30.9305 -69.7182
  680 515.118 -49.9158 0.111711
  681 429.904 -47.6421 62.9734
  682 207.652 65.0805 -138.163
  683 402.982 -37.0559 48.5935
  684 486.353 0.140780 15.5543
  685 355.196 -30.5868 69.2797
  686 505.021 -22.4607 12.5453
  687 403.076 -36.8916 -49.0044
  688 417.878 5.66012 3.84428
  689 323.731 -8.40689 25.6898
  690 323.452 -8.41174 -25.8524
  691 430.070 -48.8728 -63.6541
  692 529.662 -35.0457 -29.7075
  693 486.446 -7.11042 -0.311203
  694 486.524 -7.17758 0.313019
  695 540.885 -34.6441 29.1145
  696 492.340 -51.4419 15.0829
  697 596.940 54.8783 44.2226
  698 539.731 -10.2457 48.8016
  699 519.396 -18.8299 29.2336
  700 499.617 41.2092 -30.4224
  701 596.881 100.126 35.1394
  702 516.072 -7.23126 -28.9968
  703 513.042 -17.2399 14.2598
  704 533.490 83.2616 8.48804
  705 522.475 -9.03134 24.9661
  706 166.642 113.924 145.125
  707 485.792 -55.9577 -40.7127
  708 562.366 10.1496 49.2861
  709 566.766 -17.6142 -33.6310
  710 562.745 -0.930777 2.09890
  711 518.737 -18.0461 -22.6867
  712 486.569 -56.3916 37.2365
  713 925.910 82.1116 -13.6729
  714 298.201 -1.18800 9.81488
  715 297.865 -1.20052 -9.89898
  716 525.126 -9.85808 -10.1740
  717 565.904 -0.724907 -2.06871
  718 445.476 -38.8726 23.7257
  719 532.808 -19.9715 44.0558
  720 798.594 195.265 -66.5295
  721 505.054 -36.6619 12.2280
  722 558.070 -36.8954 -15.3116
  723 513.212 -16.7940 -14.0240
  724 565.251 -1.17588 -0.593512
  725 521.369 -0.0903146 51.5343
  726 24.8653 26.1094 32.6434
  727 581.608 -21.5958 -89.8111
  728 634.676 38.4503 18.4970
  729 530.137 -54.3258 28.8550
  730 384.359 -8.96657 11.0692
  731 384.348 -9.08693 -11.1150
  732 485.035 258.737 -261.555
  733 541.065 -35.9565 -26.6264
  734 416.332 2.43719 -7.35446
  735 480.157 2.77928 33.5229
  736 522.889 -26.3147 35.0156
  737 501.179 -42.2360 4.55798
  738 518.728 -47.4989 -73.6226
  739 498.253 -39.4236 -5.60524
  740 585.287 -27.9705 -1.92990
  741 539.513 -4.73910 5.86407
  742 484.355 -29.0722 2.16814
  743 867.894 173.384 -93.6261
  744 515.247 -14.0591 11.1664
  745 512.456 8.46452 -50.4935
  746 434.570 -4.65642 151.243
  747 547.804 44.0430 51.0914
  748 471.414 -36.9806 7.41470
  749 367.142 -28.5658 -51.1180
  750 367.200 -28.4961 50.7334
  751 503.639 56.6817 -7.06163
  752 510.379 -5.94841 44.7916
  753 515.221 -12.3477 -37.8345
  754 484.889 -29.6815 -2.30201
  755 469.168 -41.8886 14.5142
  756 537.462 88.3366 -9.50798
  757 500.579 -43.3317 -2.59194
  758 501.904 -31.8326 12.0513
  759 507.589 -6.86828 1.68826
  760 507.876 -6.69618 -1.67065
  761 682.342 148.875 1.10222
  762 556.710 -47.4838 -20.6916
  763 520.279 -16.1426 22.6538
  764 539.599 -4.73634 -5.29037
  765 547.806 3.57692 -51.4199
  766 620.556 33.2358 -27.1769
  767 314.131 -0.231878 -4.62780
  768 314.333 -0.227804 4.58626
  769 4.82731 -8.48052 -5.87618
  770 531.302 -0.716862 9.39488
  771 490.292 -0.672450 -36.9355
  772 505.164 -4.74543 32.2781
  773 455.219 58.8746 220.129
  774 574.550 117.345 -1.14774
  775 410.471 -28.9931 27.7361
  776 76.7038 1.53448 -28.2109
  777 78.6690 1.11416 28.5021
  778 501.026 -3.54494 -36.5409
  779 411.504 -29.2698 -27.7420
  780 536.479 -5.19483 4.33951
  781 281.538 -11.7674 47.9000
  782 279.228 -11.7220 -47.8952
  783 515.193 -13.6633 -10.8656
  784 335.829 -8.16616 -22.4180
  785 335.995 -8.11619 22.2381
  786 535.947 -5.31469 -13.5459
  787 413.979 -10.8564 -7.95339
  788 414.000 -10.7911 7.95740
  789 584.531 -3.62695 -33.3932
  790 528.640 -5.59030 -51.4410
  791 276.460 -1.67406 -12.4455
  792 276.956 -1.65830 12.3115
  793 16.4953 6.80152 -17.6143
  794 18.7825 7.18534 18.4976
  795 434.793 2.17054 -13.2461
  796 482.194 -54.1665 -30.9730
  797 -5.38617 -3.66865 9.45132
  798 -4.77877 -4.44064 -9.47181
  799 501.475 -10.3446 3.73897
  800 542.847 -42.5336 -13.3887
  801 563.090 83.2217 -38.4021
  802 538.618 -4.69512 -4.13723
  803 1124.25 230.063 -211.053
  804 501.368 -10.3171 -3.68588
  805 750.693 142.117 12.7265
  806 537.795 15.6433 -53.7644
  807 591.932 44.8348 -45.4668
  808 105.864 -1.22493 -25.8849
  809 107.598 -1.37010 25.8433
  810 341.756 -4.71277 13.3932
  811 341.631 -4.75008 -13.4994
  812 328.204 -0.689337 2.52914
  813 328.095 -0.696808 -2.54683
  814 599.769 100.806 -34.7007
  815 361.305 -2.08888 -3.79537
  816 361.377 -2.06552 3.77733
  817 511.912 -5.14848 -46.8008
  818 726.141 79.0107 69.3979
  819 464.284 10.6343 -29.0686
  820 166.024 -1.43624 27.5323
  821 164.761 -1.44995 -27.7336
  822 586.431 18.0828 159.288
  823 524.665 -9.93725 10.4994
  824 474.888 31.7601 -12.0967
  825 225.033 -0.297261 18.6456
  826 223.986 -0.195957 -18.7718
  827 334.216 -1.56790 -6.60603
  828 334.342 -1.54539 6.55236
  829 60.7311 53.6979 47.8412
  830 493.530 11.9226 42.9627
  831 547.487 80.2202 -33.1831
  832 586.764 68.1810 -45.6898
  833 390.306 -14.4083 -17.5557
  834 390.102 -14.3099 17.5421
  835 608.732 128.695 15.4686
  836 522.953 -4.74049 -0.486787
  837 522.993 -4.70623 0.570685
  838 519.592 -15.7699 -29.6583
  839 437.458 -28.8625 16.9523
  840 479.381 -53.8436 31.0436
  841 559.839 -45.8527 47.9253
  842 434.134 -12.4762 -5.13556
  843 434.136 -12.4360 5.10800
  844 496.980 46.1786 19.5852
  845 468.245 6.60129 -31.3410
  846 129.820 160.328 150.948
  847 470.578 -41.5379 -13.3784
  848 472.339 -21.0868 -0.742829
  849 472.587 -21.1408 0.712344
  850 519.507 -7.71424 48.9957
  851 513.942 -33.8805 -20.7085
  852 460.602 -30.3039 -8.02202
  853 1022.08 33.0699 -49.7711
  854 438.297 -41.1863 31.7963
  855 437.923 -41.7064 -32.2747
  856 518.561 -6.29737 24.6181
  857 772.708 201.155 -50.0532
  858 412.203 -37.0853 -38.9588
  859 453.478 -50.9058 37.7408
  860 412.131 -36.6520 38.6385
  861 446.214 -17.8227 -6.10939
  862 446.212 -17.7712 6.07392
  863 68.7975 28.3732 41.4472
  864 557.032 41.6108 -51.4030
  865 429.061 -16.5356 -8.91885
  866 429.146 -16.3769 8.94733
  867 424.248 -6.95201 -1.09451
  868 424.246 -6.90850 1.08852
  869 464.237 -9.36067 -0.670810
  870 464.184 -9.30512 0.666129
  871 381.572 -7.21893 -9.53149
  872 381.611 -7.14158 9.49762
  873 430.457 -22.3519 -13.1409
  874 430.519 -22.2121 13.1993
  875 11.0215 -1.32482 -6.66978
  876 643.062 120.763 23.8805
  877 553.683 -19.5556 -39.8354
  878 453.058 -50.1592 -38.0997
  879 488.664 -15.8937 2.97612
  880 488.457 -15.7408 -2.85322
  881 533.119 0.596338 52.5835
  882 575.174 -40.9821 -28.5970
  883 507.267 38.2516 -191.561
  884 237.247 -4.22584 95.6768
  885 -6.51315 5.52899 -7.30699
  886 -5.43363 6.25226 7.98714
  887 68.4387 30.1685 -42.3502
  888 519.783 -15.1880 17.5499
  889 544.935 -3.84413 -7.31681
  890 490.864 -47.4368 83.8082
  891 236.704 -4.00583 -96.0327
  892 546.977 -44.9884 8.08012
  893 605.105 -16.8154 74.5814
  894 449.555 1.87460 14.0196
  895 511.342 48.6760 33.2137
  896 280.207 -15.6586 70.0086
  897 279.159 -15.7831 -70.4383
  898 335.632 -15.6040 -39.3626
  899 348.478 -17.4872 -121.558
  900 548.433 -12.9734 45.4911
  901 747.449 177.929 33.4860
  902 551.435 21.1351 52.4210
  903 521.138 -11.2913 -27.1867
  904 355.583 -15.6630 124.550
  905 661.420 122.515 -15.7548
  906 68.3972 57.5327 -58.6377
  907 485.077 -0.915653 -14.8369
  908 335.978 -15.4808 39.0410
  909 407.153 -8.79056 6.95529
  910 407.133 -8.84577 -6.96751
  911 514.661 -33.6961 21.4709
  912 532.052 -3.77704 1.54659
  913 393.069 3.38651 -150.567
  914 559.856 -1.37577 3.44794
  915 556.279 -1.14842 -4.49068
  916 425.565 3.82262 -12.2207
  917 539.563 -2.25905 -8.28556
  918 408.025 -18.7446 -16.5084
  919 408.296 -18.4746 16.5633
  920 -12.5817 5.17558 -7.12650
  921 -17.7425 3.12488 7.69853
  922 532.021 -3.53125 -1.59690
  923 182.373 -4.22905 64.6529
  924 181.368 -3.86249 -64.9976
  925 571.862 83.1844 40.3454
  926 998.856 18.1283 15.2533
  927 539.338 59.8708 43.1616
  928 604.381 -20.7633 24.5257
  929 528.989 -29.6008 35.0514
  930 657.470 137.495 -12.0714
  931 417.131 1.95709 9.22243
  932 508.583 -12.2561 -6.34476
  933 530.556 28.5573 -52.3034
  934 634.680 19.7670 -5.00901
  935 496.633 -30.7072 -8.98582
  936 261.640 -1.36949 -13.8918
  937 261.874 -1.32040 13.7058
  938 523.266 -12.5280 -20.8642
  939 18.7388 23.3326 6.28393
  940 502.434 -52.1163 -8.37080
  941 442.121 13.4136 -1.25783
  942 653.643 142.853 -7.98912
  943 106.259 78.8133 -95.5898
  944 505.178 -3.77608 -28.9208
  945 355.259 -5.67674 -12.5923
  946 355.335 -5.61245 12.4980
  947 3.44129 -13.8708 10.3990
  948 346.230 -25.4265 -56.4678
  949 512.062 -29.7237 -20.2065
  950 327.432 0.710696 -1.06429
  951 327.524 0.713537 1.05819
  952 520.072 63.0647 -26.4939
  953 550.640 -1.94767 -0.690550
  954 550.674 -1.96684 0.922634
  955 346.401 -25.3650 56.1151
  956 519.299 -0.804356 -11.3346
  957 593.890 4.39328 31.8284
  958 527.453 -7.76433 8.00335
  959 88.3468 21.5405 -51.6289
  960 545.918 -3.57912 6.59598
  961 500.368 4.15370 45.8325
  962 527.576 72.9056 23.5519
  963 526.348 6.10957 -53.3813
  964 366.573 -19.2476 -34.0679
  965 565.133 -20.1871 32.3093
  966 366.816 -19.1815 33.7515
  967 18.0193 19.1661 -3.22469
  968 65.9177 10.6850 37.9087
  969 302.328 -5.12760 23.1236
  970 301.979 -5.12792 -23.2398
  971 508.946 -12.4708 6.73869
  972 550.165 95.2474 12.8893
  973 281.151 25.2514 -143.094
  974 459.801 -28.5325 7.16959
  975 431.735 -44.9354 -46.9106
  976 626.269 119.710 25.9104
  977 482.810 -8.73718 0.115368
  978 482.788 -8.69408 -0.120242
  979 527.366 -10.0291 -14.7350
  980 492.549 42.6890 -18.0579
  981 1075.39 325.297 218.711
  982 106.871 5.62343 -49.1534
  983 108.381 4.66329 49.2465
  984 7.96595 -7.41542 3.94274
  985 493.664 27.5425 37.0683
  986 431.670 -45.2182 46.5883
  987 532.713 -25.3016 -40.3349
  988 579.207 47.3146 50.0004
  989 553.870 -44.7314 -57.9099
  990 806.544 169.406 58.3903
  991 474.427 -7.86643 -0.414904
  992 474.367 -7.80706 0.414571
  993 553.106 -22.7263 37.5753
  994 39.1556 70.2839 69.5990
  995 256.497 -5.19895 33.0138
  996 255.752 -5.13136 -33.3375
  997 303.696 -14.5196 45.2992
  998 302.693 -14.2889 -45.4486
  999 341.112 -13.7191 32.7508
  1000 372.930 -2.78375 -1.68893
  1001 372.991 -2.76413 1.68287
  1002 894.790 293.708 -189.633
  1003 820.628 206.066 87.9821
  1004 340.839 -13.7831 -33.0016
  1005 569.504 -2.71961 41.6168
  1006 513.706 53.3217 -31.9160
  1007 363.079 -31.4437 100.906
  1008 463.701 -54.8367 -55.7784
  1009 529.470 -4.48916 -16.3989
  1010 242.329 16.0270 116.913
  1011 310.731 -23.6710 80.5810
  1012 473.141 24.5108 -23.3042
  1013 535.915 -10.7183 -49.4639
  1014 663.516 287.720 296.624
  1015 448.530 13.9920 16.6688
  1016 603.225 128.982 -1.88944
  1017 440.259 17.8056 -170.785
  1018 451.257 -47.2676 -32.7590
  1019 566.146 -0.795314 -1.67191
  1020 549.102 50.3938 -49.7328
  1021 328.892 -1.97121 8.42689
  1022 328.736 -1.99089 -8.49758
  1023 12.4171 10.1546 -19.2313
  1024 367.107 -16.3768 -28.4686
  1025 310.343 -23.9720 -81.1489
  1026 366.857 -16.3473 28.1829
  1027 524.246 -16.0677 45.7682
  1028 471.004 -29.0005 -3.11478
  1029 496.540 9.25924 -44.4807
  1030 511.153 63.7968 9.32385
  1031 681.015 43.7730 30.8292
  1032 518.455 -39.4920 20.0595
  1033 332.450 -26.2691 -61.7803
  1034 492.749 17.6138 -41.7468
  1035 366.051 -31.0444 -101.385
  1036 696.928 150.081 -3.80787
  1037 480.080 31.7339 21.2015
  1038 597.979 -3.27980 -23.2042
  1039 454.030 -47.3042 30.3984
  1040 519.233 -16.6031 35.1048
  1041 515.382 -27.3349 24.2710
  1042 512.541 -25.9087 20.8019
  1043 630.633 80.6158 -34.2361
  1044 513.192 -8.35554 36.1651
  1045 463.039 -54.9884 54.9015
  1046 494.199 -20.3261 5.79594
  1047 332.664 -26.3262 61.4707
  1048 465.145 -34.0659 -8.59720
  1049 274.024 -13.4299 -86.1504
  1050 387.312 -40.0642 68.7798
  1051 521.894 -3.66781 -19.1841
  1052 509.523 -5.77857 -41.3402
  1053 442.008 -34.6627 -20.5222
  1054 274.482 -13.7946 85.5205
  1055 477.787 1.26603 -29.1287
  1056 357.060 -23.2820 -43.9358
  1057 637.853 135.032 15.8961
  1058 146.446 23.4772 -82.9761
  1059 1063.62 75.0265 101.026
  1060 258.987 18.6350 -122.202
  1061 512.246 -42.5035 -11.0638
  1062 357.171 -23.0923 43.6056
  1063 473.115 5.19737 32.6857
  1064 270.136 -5.28807 27.3472
  1065 270.017 -5.41700 -27.6077
  1066 519.577 -14.5427 -42.5078
  1067 548.367 -3.06548 2.51015
  1068 539.967 -1.32731 8.34252
  1069 536.071 17.7380 53.7184
  1070 502.850 -3.77821 38.9621
  1071 387.385 41.7989 184.503
  1072 569.476 -0.558271 0.760050
  1073 540.815 73.0937 34.3266
  1074 461.310 6.89213 28.2402
  1075 546.077 -2.20278 7.95953
  1076 358.769 -3.63021 -7.11442
  1077 358.840 -3.58985 7.07435
  1078 230.689 -6.37563 -45.6838
  1079 231.527 -6.60678 45.4024
  1080 462.835 23.3628 11.8789
  1081 682.397 39.1549 -55.8484
  1082 627.239 1.04874 -99.8082
  1083 507.787 -0.493730 -11.8272
  1084 387.410 -40.3573 -69.2771
  1085 442.944 -32.9726 18.5421
  1086 510.523 -1.20561 12.3320
  1087 532.043 -38.7600 -23.9469
  1088 340.192 -0.667303 4.18932
  1089 340.097 -0.679908 -4.21227
  1090 511.287 -43.7196 11.0492
  1091 486.531 -10.1682 0.648871
  1092 486.449 -10.1804 -0.621777
  1093 473.749 -47.5796 20.3171
  1094 605.512 -19.2349 -11.3128
  1095 283.925 -0.468171 -7.76400
  1096 284.356 -0.451836 7.68880
  1097 415.528 -26.6221 -116.182
  1098 444.159 -10.5707 2.98822
  1099 444.194 -10.6231 -3.00908
  1100 267.232 146.249 202.811
  1101 610.329 50.4226 -39.5480
  1102 93.3138 44.5882 -63.8108
  1103 527.687 -8.17212 -7.72037
  1104 144.841 48.7360 -95.2513
  1105 299.399 -18.5396 -58.5293
  1106 569.330 -0.781554 0.519868
  1107 569.514 -0.742971 -0.373925
  1108 520.573 -29.8517 -29.7877
  1109 460.789 -51.8985 -75.7482
  1110 146.570 19.9884 79.0653
  1111 566.765 56.0290 47.9329
  1112 512.856 -5.53844 -0.613162
  1113 512.922 -5.54042 0.658163
  1114 557.441 -35.4580 92.1509
  1115 581.445 115.746 18.2229
  1116 350.423 -8.14123 -17.9178
  1117 350.518 -8.10645 17.8045
  1118 263.989 29.7060 144.536
  1119 495.253 2.61771 -42.9867
  1120 157.728 50.0827 102.172
  1121 627.172 -9.91441 -34.5140
  1122 621.997 136.375 5.26391
  1123 429.752 -33.6559 24.4609
  1124 402.620 2.31167 -1.80019
  1125 540.665 -4.96727 9.97753
  1126 558.524 -0.840924 3.86883
  1127 129.676 0.187869 -23.1068
  1128 131.261 0.130696 22.9599
  1129 447.853 7.73642 -20.9655
  1130 457.462 -13.4383 -2.65501
  1131 457.368 -13.3834 2.64322
  1132 48.9755 83.7622 -74.2154
  1133 76.8441 176.402 -145.039
  1134 463.020 -18.0444 2.63011
  1135 463.184 -18.0339 -2.66032
  1136 477.688 -11.6465 0.561746
  1137 477.622 -11.6273 -0.526690
  1138 127.745 81.2601 103.251
  1139 381.694 -4.52848 -3.50246
  1140 381.745 -4.49784 3.48831
  1141 477.769 36.3214 -0.478493
  1142 594.984 80.2286 -212.412
  1143 578.483 99.4150 -31.2744
  1144 527.108 -20.3463 -42.9936
  1145 519.060 -26.0282 -30.4658
  1146 429.955 -33.9598 -24.8499
  1147 436.683 1.52289 12.9405
  1148 487.763 30.5960 -31.0123
  1149 481.309 26.0833 29.6749
  1150 493.886 -19.7498 -5.67302
  1151 472.169 -28.4305 2.74957
  1152 430.783 -27.5137 -18.6183
  1153 511.344 -3.06089 22.9488
  1154 888.445 89.4715 12.3888
  1155 514.519 -11.0363 41.7589
  1156 517.334 33.9897 46.2728
  1157 475.927 -46.6970 -15.8905
  1158 62.7032 9.79851 -36.6038
  1159 484.837 -22.4756 -3.42408
  1160 329.711 -0.435239 -0.227421
  1161 329.797 -0.433258 0.225452
  1162 587.395 -15.5747 19.2877
  1163 559.593 -47.1959 24.1274
  1164 801.002 142.741 36.1337
  1165 200.118 -0.344497 -19.1284
  1166 201.207 -0.302640 18.9958
  1167 435.100 -8.76154 -2.32669
  1168 435.083 -8.71168 2.31258
  1169 486.197 -42.8111 -3.94105
  1170 406.026 1.95425 5.90567
  1171 497.696 -35.4495 8.23466
  1172 29.5185 35.0510 -18.4202
  1173 92.2596 45.2424 62.3472
  1174 335.150 -18.5501 112.222
  1175 576.644 109.319 -22.3623
  1176 547.966 -1.59890 -6.29845
  1177 571.625 -0.998135 0.314032
  1178 572.123 -1.32648 -0.179171
  1179 342.057 -0.696329 -0.713836
  1180 342.141 -0.690539 0.709337
  1181 531.615 33.9612 52.3002
  1182 778.863 132.142 -2.82810
  1183 548.235 90.3158 -23.1285
  1184 409.052 -30.3696 115.453
  1185 333.381 -17.8761 -111.997
  1186 371.984 -24.4988 -39.5493
  1187 509.329 -14.4692 8.78547
  1188 707.827 156.704 10.6321
  1189 372.034 -24.3618 39.2631
  1190 519.767 -9.38723 6.64418
  1191 469.354 17.6662 28.3614
  1192 514.407 15.9970 50.4279
  1193 726.565 161.994 20.7753
  1194 435.862 -11.2922 4.29759
  1195 435.878 -11.3410 -4.32290
  1196 526.769 -10.1567 15.3229
  1197 319.543 -3.25189 13.1402
  1198 319.324 -3.28384 -13.2483
  1199 515.016 -7.32637 -2.75583
  1200 213.739 128.208 -196.765
  1201 446.116 -25.2982 -123.679
  1202 424.408 -13.1256 -7.57971
  1203 424.456 -13.0717 7.58287
  1204 550.386 -2.85122 2.32515
  1205 522.611 -7.16729 5.28756
  1206 29.8041 38.4207 28.8045
  1207 566.126 -0.735952 1.96787
  1208 69.4323 89.5138 88.7707
  1209 510.921 -7.94209 -3.58958
  1210 -0.470509 -12.2968 -10.8130
  1211 364.121 -35.5763 -87.0163
  1212 363.177 -34.7233 86.1769
  1213 566.099 -1.08776 -2.19543
  1214 487.826 -25.7584 -4.25392
  1215 550.070 -2.62963 -2.33734
  1216 444.945 -14.3157 -4.41521
  1217 444.908 -14.2700 4.37606
  1218 514.697 -7.28007 2.56962
  1219 484.496 -22.0292 3.38872
  1220 466.840 -15.0598 1.18603
  1221 466.995 -15.0937 -1.13524
  1222 549.534 -2.70760 -1.89442
  1223 476.205 -50.3331 -85.2238
  1224 538.315 -3.65305 -1.88737
  1225 513.016 -8.15062 3.91548
  1226 364.300 -3.78894 -5.33004
  1227 364.367 -3.75297 5.30304
  1228 404.507 -5.81696 -2.85578
  1229 404.533 -5.77995 2.84369
  1230 646.622 101.298 27.8744
  1231 544.023 -41.9877 16.6923
  1232 374.563 -1.96688 142.346
  1233 307.114 -0.449026 5.05068
  1234 306.864 -0.454173 -5.09639
  1235 517.298 -9.65558 31.2003
  1236 494.391 -7.75426 0.522727
  1237 494.406 -7.73065 -0.522507
  1238 567.790 109.938 10.5110
  1239 516.685 -54.2294 68.3880
  1240 306.704 -4.15650 18.3355
  1241 306.414 -4.18600 -18.4580
  1242 493.829 -12.2521 2.74462
  1243 493.719 -12.3397 -2.64032
  1244 509.046 -14.3047 -8.43334
  1245 472.309 0.125978 15.0623
  1246 802.714 199.762 -69.2729
  1247 518.903 -19.1505 -26.9814
  1248 92.2636 21.2842 53.0089
  1249 535.696 -28.6976 37.2501
  1250 436.511 9.80740 -11.4814
  1251 34.9579 24.7076 20.1056
  1252 700.093 80.2625 -12.2201
  1253 523.652 -23.9294 -38.0798
  1254 438.478 6.45315 17.6025
  1255 301.434 -18.5768 58.4591
  1256 531.175 -41.2564 21.0224
  1257 763.929 150.520 53.1537
  1258 181.962 26.2764 100.305
  1259 533.296 -6.59979 -13.2402
  1260 1006.59 11.3821 -9.98609
  1261 1038.63 15.4963 44.2733
  1262 1106.85 37.0903 -105.631
  1263 518.621 -16.3282 -34.0848
  1264 518.248 -23.7985 28.4784
  1265 526.154 -37.5835 25.7863
  1266 -15.3854 1.90620 9.65142
  1267 -13.9579 1.56527 -10.5570
  1268 511.498 -56.6740 -33.4411
  1269 523.341 -53.0715 -48.8709
  1270 408.752 2.71713 -7.28039
  1271 509.220 -57.6562 48.6037
  1272 544.665 -25.9633 -37.6970
  1273 11.9383 16.7985 3.00572
  1274 445.400 -8.16498 1.48194
  1275 445.429 -8.21853 -1.48582
  1276 540.151 -4.58620 8.90161
  1277 519.704 -9.22809 -6.20973
  1278 490.426 -53.5218 -18.7817
  1279 449.770 -24.1561 8.70066
  1280 447.575 -23.8076 -9.29902
  1281 525.331 -11.3073 21.4481
  1282 538.530 -19.9036 -44.0568
  1283 36.2453 25.7589 -19.6306
</Section>

newXOutput 30

<Section columns = "stress_xx | stress_yy | stress_xy">
  1 593.650 -0.247436 1.08644
  2 593.648 -0.235185 -1.08896
  3 336.489 -0.0744527 -0.391430
  4 -4.20626 -4.14812 -6.05055
  5 1042.42 431.775 339.318
  6 1032.99 446.716 -337.032
  7 -4.88951 -3.93032 6.45382
  8 336.400 -0.0755602 0.390514
  9 597.541 -1.04959 0.309981
  10 596.437 -1.63597 -0.344913
  11 595.337 -1.14415 1.19983
  12 594.208 -1.52874 0.245807
  13 591.751 -1.30616 1.88607
  14 589.493 -1.30957 1.32071
  15 583.959 -1.15246 2.73571
  16 575.826 -0.878596 4.05373
  17 568.626 -0.892023 4.56435
  18 557.752 -1.17033 5.57371
  19 542.440 -0.159904 8.31372
  20 528.301 -0.859123 7.96589
  21 511.919 -1.07094 11.3064
  22 488.290 0.748508 9.89968
  23 470.967 1.19601 11.7577
  24 448.345 1.97537 9.24927
  25 432.597 2.17045 9.34868
  26 409.798 2.95004 4.78093
  27 404.949 4.62995 5.14315
  28 402.010 3.84689 -1.52597
  29 405.976 2.31703 -3.32372
  30 413.300 2.18825 -4.08433
  31 430.392 2.71229 -8.13503
  32 446.999 2.14516 -10.2441
  33 471.174 0.542062 -12.1170
  34 490.480 -0.221341 -10.9598
  35 510.900 -0.845918 -10.6976
  36 529.305 -0.676934 -7.51071
  37 544.965 -0.730991 -6.37363
  38 557.757 -1.15138 -5.30158
  39 569.108 -0.851810 -3.62802
  40 576.058 -1.04115 -3.81972
  41 582.781 -1.23024 -2.77780
  42 589.023 -1.43940 -1.13637
  43 592.186 -1.17364 -1.39277
  44 593.722 -0.771517 -0.835551
  45 592.219 -0.502504 -0.765380
  46 596.977 -1.63248 0.249949
  47 597.693 -1.08616 -0.319200
  48 579.543 -0.694453 -0.673592
  49 567.462 -2.73969 -1.26851
  50 552.574 -3.94921 -0.748429
  51 534.336 -5.68038 -1.04722
  52 516.935 -6.15883 -1.26019
  53 498.282 -7.52615 -1.21304
  54 481.700 -8.26420 -0.611977
  55 467.149 -9.09854 -0.151094
  56 450.332 -7.51059 -0.130773
  57 430.942 -6.94340 -0.329345
  58 412.275 -5.41022 -0.0131857
  59 394.614 -3.37860 0.0449037
  60 377.862 -2.35637 0.105235
  61 363.221 -1.14165 0.216676
  62 348.318 -0.255404 -0.441461
  63 336.620 0.483594 0.640613
  64 331.302 1.25409 0.460525
  65 334.681 0.0408539 1.03758
  66 330.433 -0.130748 1.26460
  67 326.386 -0.212866 1.57234
  68 320.955 0.00945435 2.02060
  69 314.117 0.00879109 2.52489
  70 308.865 -0.335490 4.77947
  71 294.604 0.427413 5.20182
  72 284.441 -0.00466369 5.90705
  73 269.312 -0.230325 6.71457
  74 251.944 -0.404891 8.15809
  75 230.208 -0.0723873 9.90765
  76 203.717 0.138434 10.9558
  77 180.552 -0.191051 15.6753
  78 135.285 1.42365 14.8629
  79 104.101 1.22487 15.7531
  80 66.4146 -0.326225 17.5738
  81 34.7997 2.80776 18.4127
  82 -1.35508 4.26838 11.3275
  83 -28.0366 4.35367 4.34642
  84 -28.2052 4.27813 -1.03415
  85 -27.8041 3.59027 -8.21573
  86 -16.4519 -1.02271 -7.94290
  87 -1.92608 -15.7914 -8.80013
  88 1.70242 -28.8861 -10.8391
  89 4.51394 -44.7168 -5.52302
  90 9.89467 -43.9419 1.61945
  91 20.7414 -4.47858 28.7404
  92 60.8139 103.752 93.6580
  93 345.696 342.455 305.403
  94 1265.42 190.863 209.617
  95 1144.50 27.1912 67.7058
  96 1067.80 11.4092 20.7199
  97 1039.54 9.75981 1.55777
  98 1054.76 12.8974 -18.0481
  99 1142.46 25.4899 -53.6428
  100 1336.12 92.0497 -179.275
  101 206.459 352.699 -256.601
  102 45.4908 78.4531 -78.2351
  103 22.7107 -2.19818 -30.8271
  104 9.28665 -43.5956 -6.22579
  105 2.77581 -33.7215 6.27711
  106 3.38084 -36.4870 9.34412
  107 0.211973 -13.5859 9.75560
  108 -17.1907 -0.607398 7.50611
  109 -28.6800 2.69619 7.13706
  110 -29.7281 5.18951 1.18618
  111 -28.9140 4.27409 -4.07093
  112 -3.41251 4.37401 -10.6445
  113 33.0107 2.83143 -17.5739
  114 64.5938 -0.0231170 -17.2870
  115 102.214 1.32326 -15.7819
  116 133.571 1.45957 -14.9698
  117 179.224 -0.197521 -15.7989
  118 202.582 0.152362 -11.0556
  119 229.215 -0.0691557 -10.0259
  120 251.441 -0.451473 -8.21314
  121 268.622 -0.216663 -6.72895
  122 283.914 0.0135038 -5.96424
  123 294.171 0.422637 -5.25452
  124 308.549 -0.339038 -4.82406
  125 313.860 0.00648628 -2.55213
  126 320.755 0.00723638 -2.04292
  127 326.231 -0.216558 -1.58997
  128 330.309 -0.133915 -1.27685
  129 334.575 0.0381857 -1.04535
  130 331.206 1.25288 -0.464091
  131 336.529 0.482964 -0.642870
  132 348.230 -0.258407 0.440377
  133 363.139 -1.14920 -0.219384
  134 377.791 -2.37285 -0.108383
  135 394.560 -3.40147 -0.0479171
  136 412.242 -5.44323 0.0101624
  137 430.932 -6.98534 0.326933
  138 450.349 -7.55935 0.128189
  139 467.187 -9.15366 0.149837
  140 481.752 -8.31938 0.613739
  141 498.359 -7.57637 1.21873
  142 517.004 -6.19316 1.28062
  143 534.392 -5.71112 1.14638
  144 552.677 -3.75323 0.764762
  145 567.853 -2.67505 1.24005
  146 579.653 -0.784947 0.662850
  147 522.762 -49.1496 -0.266641
  148 522.300 -48.4815 0.449436
  149 551.446 79.0391 -25.3194
  150 584.708 34.4179 52.7123
  151 443.287 -42.9310 -99.7235
  152 446.942 -42.8509 96.6192
  153 434.030 -18.1223 12.8527
  154 434.055 -18.3654 -12.8577
  155 617.916 22.4803 -38.4231
  156 521.405 -18.9600 9.50581
  157 521.179 -18.5175 -9.39297
  158 673.765 149.205 5.33641
  159 535.425 -0.841343 -52.3643
  160 398.878 -30.9549 -44.9673
  161 398.914 -30.7071 44.6012
  162 535.887 -12.2160 46.8910
  163 511.891 37.5075 31.6380
  164 213.454 33.5204 -119.166
  165 236.011 31.8193 125.458
  166 649.885 8.18779 -0.106081
  167 536.400 -20.7357 -31.8233
  168 707.540 155.332 1.29137
  169 484.295 -13.7433 -1.06464
  170 484.198 -13.7078 1.10169
  171 540.756 -6.92178 -4.08099
  172 542.336 -6.26429 3.50145
  173 385.537 -5.28860 -7.35789
  174 385.593 -5.23593 7.32528
  175 577.304 -14.2517 126.892
  176 496.259 20.8218 -34.1285
  177 326.204 -24.2258 -71.3138
  178 327.160 -24.0530 70.8850
  179 367.264 -11.6788 -23.5587
  180 367.306 -11.5494 23.4016
  181 538.828 -14.3455 27.0799
  182 490.762 -33.5678 -3.45108
  183 489.111 -33.3186 4.18348
  184 555.003 -53.8984 -13.1475
  185 557.991 -51.3504 6.30725
  186 764.470 180.358 -30.8479
  187 562.002 89.8943 23.6070
  188 561.576 34.4888 -53.6267
  189 574.760 -3.57786 -146.744
  190 555.678 -31.5484 -35.8995
  191 560.537 -22.5831 42.9022
  192 468.532 -53.1265 50.0557
  193 468.585 -52.7381 -49.9198
  194 503.938 6.55187 40.8617
  195 233.765 -5.96179 -87.4943
  196 234.301 -6.42874 86.9928
  197 858.385 127.976 18.8256
  198 526.814 -31.4908 18.6403
  199 545.559 -10.2851 -17.3512
  200 436.758 -10.5279 -6.04209
  201 436.772 -10.4798 6.02617
  202 526.219 -6.88332 -36.2879
  203 597.845 87.6149 -42.1903
  204 504.059 45.4448 -6.32454
  205 331.699 -11.3960 32.8092
  206 331.213 -11.4274 -33.0318
  207 552.664 -6.45965 9.19397
  208 541.577 10.2001 53.9315
  209 441.779 -31.7998 -22.6822
  210 438.978 -30.0995 23.1097
  211 635.538 94.3703 37.2406
  212 741.060 104.907 23.7016
  213 53.2949 40.8015 -35.2550
  214 49.3693 37.7141 30.0706
  215 308.857 89.3399 207.551
  216 521.626 -34.7265 -13.6055
  217 554.475 -6.19856 -8.29256
  218 498.571 4.54027 -37.6541
  219 354.337 -3.31649 -10.4927
  220 354.454 -3.27998 10.4108
  221 471.254 -21.9766 -5.90134
  222 471.476 -22.1215 5.63954
  223 530.364 -7.21533 30.7509
  224 605.486 -34.9064 18.1677
  225 606.527 123.170 -12.0443
  226 475.668 -45.7307 -24.8025
  227 598.037 -10.4493 31.7062
  228 511.231 -8.87657 1.17953
  229 511.231 -8.80902 -1.17834
  230 472.342 -45.5184 25.6291
  231 539.457 -34.3742 28.8853
  232 749.140 101.060 -54.6050
  233 170.870 101.612 -152.326
  234 463.307 16.5703 8.21577
  235 544.241 47.9608 45.5503
  236 576.786 -4.11849 -46.5665
  237 540.024 -19.5517 -43.4748
  238 294.338 -9.20048 -40.8745
  239 295.304 -9.06564 40.7655
  240 540.617 -6.69109 -23.5078
  241 514.912 -13.2765 4.63063
  242 514.673 -13.2657 -4.44252
  243 112.985 9.88377 -56.6918
  244 114.631 8.65720 56.4861
  245 570.683 -50.0559 -48.0180
  246 564.116 -2.36738 1.11957
  247 564.656 -2.40873 -1.26252
  248 532.120 44.1733 -41.8396
  249 471.856 9.34623 24.7993
  250 958.312 153.408 103.331
  251 949.818 108.151 -64.2408
  252 698.671 149.526 0.376878
  253 436.675 -21.2884 131.977
  254 401.544 -14.1117 -137.850
  255 462.410 -9.50108 -2.36891
  256 462.373 -9.44597 2.35479
  257 387.576 -10.0533 14.6921
  258 387.562 -10.1871 -14.8079
  259 552.603 -6.21925 14.1471
  260 537.212 -38.3780 -23.1297
  261 356.747 -0.548762 -2.49919
  262 356.836 -0.538451 2.48582
  263 530.527 -21.6823 -18.6460
  264 231.589 -7.44521 -56.8815
  265 232.517 -7.46774 56.5017
  266 537.490 -23.4541 34.3412
  267 412.255 -43.7567 80.3055
  268 413.227 -44.5362 -80.0551
  269 469.649 18.2926 -11.5450
  270 405.423 -6.00830 -4.97532
  271 405.465 -5.97030 4.95875
  272 507.172 -1.18824 30.0171
  273 603.082 109.895 29.1191
  274 330.251 -3.81820 17.5410
  275 330.008 -3.84863 -17.6765
  276 550.944 -46.1972 14.7386
  277 509.992 -57.4093 -55.4006
  278 566.483 -3.06342 4.16086
  279 400.265 -23.2638 -30.9391
  280 399.627 -23.0122 30.8357
  281 689.173 78.6257 184.945
  282 334.734 -27.1211 95.3431
  283 537.567 75.3435 -2.67795
  284 671.653 75.4417 -21.4240
  285 509.880 -39.4058 3.61468
  286 510.503 -58.9586 50.2310
  287 335.675 -26.6970 -96.3525
  288 63.6408 78.7280 72.7091
  289 530.619 -21.7486 19.0043
  290 691.245 91.7827 15.1410
  291 570.601 -2.74034 -3.60949
  292 523.106 18.4391 -48.1816
  293 513.724 -29.1153 9.05118
  294 503.244 -42.4044 4.08397
  295 521.403 24.0398 46.4893
  296 548.406 -46.1899 -12.8318
  297 773.300 149.371 -14.4403
  298 513.590 -27.9965 -8.63441
  299 419.961 124.267 -252.225
  300 524.210 -55.6507 -13.5348
  301 520.595 -57.1820 19.4200
  302 386.474 -34.6693 -62.9905
  303 353.432 -1.21553 -5.39773
  304 353.537 -1.19413 5.36041
  305 386.666 -34.7051 62.6723
  306 555.691 -0.974778 -53.6283
  307 596.731 -24.7289 -19.4704
  308 458.796 -27.3565 -12.8010
  309 458.539 -27.4214 13.0195
  310 542.885 -46.7416 87.1452
  311 544.842 -4.52619 17.7802
  312 655.951 4.57612 34.8702
  313 450.162 -15.7086 -7.21109
  314 450.199 -15.6632 7.17761
  315 412.133 -10.4529 -9.91771
  316 412.145 -10.3602 9.90648
  317 467.286 6.48880 -23.9718
  318 591.623 43.4067 -50.9058
  319 902.916 245.158 -119.441
  320 537.481 -5.14596 -1.30173
  321 537.203 -5.08081 1.34551
  322 292.311 -1.06746 119.009
  323 409.642 -18.1856 -20.8085
  324 408.923 -18.1347 20.8651
  325 292.252 -1.77574 -118.552
  326 565.865 66.6765 -44.0028
  327 628.805 31.4776 36.0496
  328 542.591 -38.6860 -96.3923
  329 502.528 -19.5039 3.23272
  330 502.039 -19.3733 -3.02734
  331 534.676 -11.4275 -8.65795
  332 507.485 -0.905731 -28.0563
  333 565.492 2.31419 52.2237
  334 561.850 -4.19671 -9.67468
  335 344.810 -20.5068 47.9074
  336 344.433 -20.6142 -48.2463
  337 528.039 -1.15246 49.8424
  338 332.662 -2.53199 -10.4773
  339 332.870 -2.50884 10.3917
  340 538.800 -12.6907 14.1136
  341 647.027 131.621 -20.1341
  342 534.460 -11.5018 9.01096
  343 572.003 71.6284 44.0554
  344 546.682 -10.2659 51.0696
  345 436.336 -8.05936 2.29900
  346 436.333 -8.10449 -2.31154
  347 519.288 -1.79828 -44.2898
  348 682.366 143.082 11.0542
  349 571.209 104.143 0.911097
  350 349.160 40.3674 -175.922
  351 38.9556 15.9355 -25.5759
  352 42.4068 17.2623 27.3789
  353 -0.987663 4.48453 9.81949
  354 1.00507 2.79486 -10.3232
  355 978.619 67.9735 22.9646
  356 472.853 -38.1335 -15.3542
  357 539.157 -12.2842 -13.7581
  358 488.485 -8.79749 0.231573
  359 488.430 -8.73312 -0.235618
  360 525.093 58.0226 -22.6837
  361 447.073 -45.2665 41.2483
  362 40.7836 61.1473 -45.9985
  363 447.433 -45.2403 -41.9372
  364 531.663 60.4653 24.1296
  365 538.730 -14.5949 -25.7125
  366 570.228 -31.9916 -29.6532
  367 610.574 127.959 8.26056
  368 571.313 -35.8833 23.6857
  369 244.540 -5.87543 38.0226
  370 243.181 -5.75991 -38.2408
  371 140.134 3.17331 -53.4009
  372 141.468 2.64947 53.1733
  373 474.168 1.81752 24.1929
  374 876.185 259.662 106.102
  375 555.803 -3.75582 -12.5482
  376 436.452 -36.4417 -31.7782
  377 436.141 -36.3655 31.7388
  378 536.175 -12.5318 -33.1131
  379 606.412 -29.2903 -0.546925
  380 472.837 -38.1061 15.7598
  381 662.145 6.39848 -59.9083
  382 385.425 -2.90852 -2.02448
  383 385.489 -2.88483 2.01304
  384 528.464 -3.15476 -21.4080
  385 291.959 -4.01411 -24.7425
  386 292.122 -4.14807 24.4600
  387 628.098 80.4364 -41.8303
  388 341.441 23.9019 163.778
  389 493.830 -25.8835 0.233337
  390 494.303 -25.8440 -0.251643
  391 580.958 97.8735 -27.6551
  392 548.495 -16.3737 -48.1015
  393 547.303 -56.1102 49.3356
  394 460.852 -12.1925 -3.77318
  395 460.807 -12.1411 3.74441
  396 528.720 -40.8738 14.5320
  397 566.773 -2.94227 7.13370
  398 361.477 -12.7656 -29.3287
  399 361.625 -12.7720 29.1021
  400 539.114 18.1589 -53.2815
  401 507.226 -11.2892 1.71823
  402 507.199 -11.3193 -1.65905
  403 526.388 -6.27020 40.4379
  404 494.106 36.2577 11.0020
  405 543.954 -23.1375 41.6062
  406 780.578 162.559 31.4705
  407 268.237 -14.3669 -76.3941
  408 268.950 -14.3671 75.8522
  409 120.834 63.7814 -93.1482
  410 577.864 -2.01061 1.83106
  411 304.451 -2.38953 -15.6855
  412 304.830 -2.33903 15.5630
  413 536.511 -14.1659 32.3298
  414 486.973 -52.7411 28.5090
  415 547.103 -7.20843 6.09841
  416 560.549 28.4203 55.1827
  417 126.307 67.9126 96.8146
  418 487.661 -52.4220 -26.4363
  419 503.627 -46.7284 -7.64678
  420 171.128 -3.40713 -48.1526
  421 172.290 -3.52591 47.8419
  422 388.114 -31.4378 -114.953
  423 576.732 -8.75550 45.2827
  424 386.786 -31.8624 113.997
  425 533.627 -30.1164 -25.9812
  426 500.541 34.0283 -23.9899
  427 533.670 -23.2722 24.8565
  428 570.667 -2.86354 -4.67171
  429 18.5484 20.5336 10.3347
  430 118.705 139.275 136.639
  431 516.529 -1.87788 20.7804
  432 439.468 6.31033 10.5646
  433 446.481 7.61953 -14.2941
  434 380.959 -5.99364 -10.3717
  435 381.008 -5.91957 10.3133
  436 526.107 -40.8396 -13.0780
  437 532.950 -10.5304 -45.0913
  438 441.613 8.62226 -3.88010
  439 779.702 186.303 43.1536
  440 112.727 36.3467 -70.0060
  441 123.859 33.3397 74.5427
  442 493.371 -17.6609 0.603985
  443 493.195 -17.6291 -0.482804
  444 656.613 143.743 -1.47765
  445 403.718 175.376 257.809
  446 627.384 -8.31940 -3.52155
  447 368.358 -18.7738 -39.7804
  448 368.539 -18.6532 39.4729
  449 371.958 -7.96227 15.9541
  450 371.880 -8.01697 -16.0819
  451 497.406 11.2893 -38.8471
  452 580.556 -1.10357 -1.18245
  453 484.706 22.5587 21.9276
  454 605.302 74.6549 46.3986
  455 504.757 -37.4240 -1.95151
  456 546.842 -6.88957 -5.94022
  457 572.857 -2.62213 4.29898
  458 578.822 -1.19342 0.672079
  459 579.230 -1.31234 -0.469521
  460 331.364 -0.503788 3.92253
  461 331.198 -0.511781 -3.95827
  462 550.868 -35.2054 31.4271
  463 502.013 20.0352 37.6362
  464 522.719 2.18999 -48.7300
  465 542.469 -11.7461 18.8172
  466 767.880 138.010 -158.348
  467 544.339 -30.3791 -35.8504
  468 7.21311 10.6280 5.46593
  469 7.08472 10.8770 -2.76507
  470 434.936 -24.2440 18.4132
  471 433.557 -23.9018 -18.1639
  472 668.423 15.2356 87.2721
  473 189.418 177.864 -197.557
  474 538.156 -1.75967 15.9415
  475 604.117 -34.8560 -51.3353
  476 330.360 -18.6419 55.3155
  477 651.322 115.666 -29.0413
  478 536.593 -29.2268 29.7911
  479 453.465 -21.4028 -9.84651
  480 453.857 -21.0591 9.82692
  481 474.061 2.64654 -21.3414
  482 329.362 -18.5601 -55.6209
  483 485.171 0.356952 21.3893
  484 460.348 -52.7608 -72.4048
  485 459.225 -52.8410 72.7171
  486 552.971 -3.87028 13.8880
  487 507.956 48.0597 4.54110
  488 507.003 9.88458 177.713
  489 748.281 150.998 -0.939771
  490 518.788 -9.11089 2.37827
  491 518.808 -9.08022 -2.49378
  492 405.073 -6.92488 -6.76424
  493 405.110 -6.87102 6.74368
  494 215.395 9.34133 100.590
  495 539.157 -26.1476 -35.3213
  496 489.975 -10.8372 -0.391752
  497 489.926 -10.8047 0.398965
  498 428.122 -45.1072 59.1966
  499 219.421 12.4237 -103.078
  500 539.229 -44.0989 -15.0783
  501 10.1107 3.67098 2.79045
  502 477.975 25.0344 1.62702
  503 520.448 -6.43821 -0.745601
  504 520.443 -6.51710 0.720837
  505 428.318 -45.0164 -59.6336
  506 604.609 -30.5850 64.1737
  507 602.768 21.9232 46.6478
  508 554.773 -4.19564 -2.83252
  509 537.594 -44.7039 15.3636
  510 346.812 -0.234460 -0.739066
  511 346.902 -0.231673 0.734124
  512 537.771 -20.8064 -38.0861
  513 523.901 38.8476 40.9930
  514 595.569 14.7577 -46.1485
  515 344.691 -0.448114 -2.21635
  516 344.793 -0.441330 2.20333
  517 1019.26 147.416 -130.996
  518 544.454 64.7175 35.9210
  519 555.206 -3.91523 2.50593
  520 504.694 -47.7719 8.87959
  521 428.271 -13.8766 10.3491
  522 428.257 -13.9755 -10.3280
  523 584.435 -35.7767 10.8522
  524 563.761 -11.4208 -48.2541
  525 630.929 123.679 25.1845
  526 527.167 9.15148 50.5760
  527 528.170 -10.5302 5.16806
  528 512.624 -54.9727 -70.4132
  529 534.229 -13.3782 37.8952
  530 1005.95 46.3764 -18.2801
  531 579.937 -43.8769 3.60332
  532 551.344 -4.10074 -0.582994
  533 551.479 -4.33162 0.480365
  534 1016.44 68.1475 63.7340
  535 514.692 -0.0861976 43.0235
  536 711.117 121.502 -5.14161
  537 537.812 -14.9294 -18.0788
  538 252.326 -2.24064 -16.8996
  539 253.037 -2.13148 16.7389
  540 368.155 -34.3563 -79.9720
  541 368.480 -33.7843 79.4088
  542 527.872 -10.1191 -5.13679
  543 575.517 21.0971 -53.2136
  544 506.207 -34.4214 3.90547
  545 546.745 62.6295 -37.1931
  546 547.393 -6.63710 18.6707
  547 680.219 35.8616 -14.0558
  548 471.005 -16.0826 -3.74323
  549 470.877 -16.0368 3.71073
  550 509.630 -24.1439 6.38196
  551 743.822 149.884 -18.1034
  552 538.679 23.5987 52.4832
  553 232.182 59.4954 148.133
  554 515.368 -30.8247 120.123
  555 674.039 36.3829 -133.230
  556 550.576 45.5354 -48.6780
  557 485.184 -42.1995 -104.381
  558 525.978 -57.7950 -23.6399
  559 548.121 -55.7394 -33.2506
  560 74.1345 98.1269 -92.7897
  561 551.281 -7.35924 -11.0241
  562 823.933 159.789 -48.8086
  563 512.235 -23.2066 -7.43061
  564 516.141 -17.0237 6.16118
  565 515.673 -16.6534 -5.86114
  566 364.340 -1.90496 -4.94181
  567 364.426 -1.88053 4.91390
  568 55.6310 5.23870 -29.9172
  569 58.3358 5.50407 30.5809
  570 271.847 -12.3793 -58.1500
  571 273.813 -12.4509 58.0906
  572 523.307 -28.5064 -15.5927
  573 531.883 -58.0373 25.3582
  574 546.644 -52.1011 -0.646105
  575 452.589 -7.98388 -1.95243
  576 452.569 -7.93266 1.94358
  577 427.549 -45.0135 -89.2482
  578 476.185 -39.3040 110.225
  579 417.584 -42.3631 89.6959
  580 539.310 -12.0687 -48.3444
  581 345.321 -5.45954 17.7294
  582 345.153 -5.51437 -17.8602
  583 516.968 28.7586 -41.2359
  584 516.835 -0.916505 -18.8541
  585 642.442 138.388 -11.0414
  586 424.258 -6.26066 -1.82909
  587 424.277 -6.22296 1.82168
  588 547.800 -1.70844 -10.4287
  589 384.480 -12.5803 -19.9321
  590 384.505 -12.5422 19.7766
  591 311.680 13.8562 141.235
  592 533.175 -24.7193 -25.0906
  593 301.693 -16.2293 101.651
  594 523.995 -27.2975 16.0147
  595 550.004 -8.12080 12.2423
  596 542.551 -5.41533 -2.44136
  597 389.519 -4.58297 -4.69269
  598 389.577 -4.54755 4.67255
  599 616.655 122.429 -22.9551
  600 301.469 -15.6600 -101.995
  601 522.212 -22.8047 -12.5797
  602 473.167 -8.88747 -1.10311
  603 473.122 -8.82841 1.09907
  604 872.772 117.005 -21.0656
  605 321.606 -1.92829 9.72018
  606 321.341 -1.94649 -9.80175
  607 491.929 11.5061 35.5050
  608 689.695 59.7433 -1.48808
  609 331.630 1.73879 -140.067
  610 173.988 3.96801 -77.1241
  611 175.338 3.03531 76.7217
  612 417.408 -23.9257 25.0321
  613 421.537 -24.6319 -24.4043
  614 700.268 141.597 7.15006
  615 540.470 -5.59642 2.15841
  616 472.114 13.6099 -21.5146
  617 582.546 104.153 21.8891
  618 580.654 108.044 -14.5693
  619 477.101 -26.2933 -5.91502
  620 480.586 -25.7268 4.24692
  621 340.710 74.9610 -200.241
  622 413.482 -13.7996 -14.1089
  623 413.526 -13.6490 14.0696
  624 1015.18 208.212 156.971
  625 538.241 -17.7779 41.3306
  626 314.403 -10.7712 -37.2243
  627 818.771 199.879 137.817
  628 315.101 -10.7166 37.1018
  629 510.867 -19.2624 -139.619
  630 370.700 -1.64356 -1.81730
  631 370.777 -1.62958 1.80949
  632 456.478 4.28811 18.7873
  633 212.202 -3.03357 -33.3610
  634 213.270 -3.04210 33.1201
  635 471.120 -33.1120 12.1562
  636 493.023 -39.3503 -5.47129
  637 576.107 -1.42636 -4.01812
  638 336.677 -0.467397 2.93575
  639 336.543 -0.476215 -2.96186
  640 446.176 -9.97205 -3.18452
  641 446.166 -9.92218 3.16573
  642 506.802 -56.4574 71.0325
  643 584.266 65.1838 -48.2552
  644 393.620 -17.9263 -25.6427
  645 393.368 -17.6302 25.4731
  646 462.762 -32.9945 -15.9535
  647 722.632 156.565 7.36637
  648 543.533 -52.7593 3.54690
  649 474.862 -11.4455 -2.03736
  650 474.797 -11.3965 2.03547
  651 647.665 71.4405 33.7046
  652 545.250 -8.14057 -20.2798
  653 487.774 -0.496346 -17.3956
  654 229.475 -7.86569 -73.3469
  655 230.122 -8.06956 72.7883
  656 461.335 -39.5096 -24.5862
  657 688.008 150.184 0.00132033
  658 537.626 72.6766 -16.1830
  659 362.270 -3.08605 -8.98719
  660 362.362 -3.04402 8.92459
  661 499.058 -14.2872 -0.955471
  662 499.152 -14.2953 1.05188
  663 914.070 118.995 52.6505
  664 583.312 -1.78640 1.00564
  665 566.416 -2.43480 7.04133
  666 564.483 -2.44616 -8.35791
  667 537.269 -50.1529 4.35851
  668 402.051 -4.48879 -2.34266
  669 402.097 -4.45926 2.33383
  670 576.678 92.0462 33.8707
  671 734.123 162.609 -13.0388
  672 407.687 -29.8359 -36.3180
  673 407.603 -29.5564 36.1555
  674 505.115 -51.9937 -13.7666
  675 535.103 31.8762 -49.4756
  676 628.461 1.96028 16.8543
  677 424.395 -7.72246 -4.84820
  678 424.416 -7.67750 4.83184
  679 367.079 -31.9744 -72.1804
  680 532.300 -51.5903 0.440246
  681 444.418 -49.2472 65.2779
  682 214.855 67.2889 -143.086
  683 416.739 -38.2883 50.3725
  684 502.977 0.146499 15.9861
  685 367.436 -31.6199 71.7294
  686 521.921 -23.2274 12.7346
  687 416.832 -38.1176 -50.7951
  688 432.618 5.88209 3.95728
  689 335.211 -8.67118 26.5962
  690 334.924 -8.67572 -26.7627
  691 444.583 -50.5189 -65.9816
  692 547.347 -36.2303 -30.3379
  693 502.758 -7.37571 -0.294203
  694 502.838 -7.44472 0.295985
  695 558.903 -35.8160 29.6991
  696 508.821 -53.1623 15.8663
  697 616.795 56.7209 45.2381
  698 557.798 -10.6000 50.0500
  699 536.786 -19.4791 29.9341
  700 516.672 42.6310 -31.2823
  701 616.866 103.455 35.9619
  702 533.430 -7.48351 -29.7547
  703 530.176 -17.8385 14.5234
  704 551.606 86.0626 8.72017
  705 539.973 -9.35071 25.5908
  706 172.420 117.938 150.322
  707 502.016 -57.8352 -42.3426
  708 581.135 10.4843 50.5137
  709 585.585 -18.2045 -34.3242
  710 581.165 -0.979136 2.13364
  711 536.077 -18.6715 -23.1972
  712 502.826 -58.2829 38.7498
  713 955.337 84.7355 -14.1018
  714 308.969 -1.22096 10.1596
  715 308.623 -1.23377 -10.2458
  716 542.580 -10.2170 -10.3623
  717 584.410 -0.763874 -2.10542
  718 460.565 -40.1582 24.7078
  719 550.640 -20.6533 45.1572
  720 824.287 202.003 -69.4026
  721 521.962 -37.8938 12.3472
  722 576.570 -38.1322 -15.4161
  723 530.351 -17.3788 -14.2824
  724 583.696 -1.23336 -0.595742
  725 538.942 -0.0959491 52.9289
  726 25.7837 27.3833 33.9813
  727 600.571 -22.2217 -93.1714
  728 655.547 39.8018 18.5858
  729 547.708 -56.1426 30.1557
  730 397.726 -9.24747 11.5019
  731 397.714 -9.37112 -11.5488
  732 500.226 268.110 -270.382
  733 559.084 -37.1698 -27.1313
  734 431.025 2.54901 -7.57132
  735 496.608 2.88729 34.4713
  736 540.394 -27.2103 35.8492
  737 517.955 -43.6499 4.42066
  738 535.859 -49.0885 -76.3749
  739 514.946 -40.7442 -5.51498
  740 604.572 -28.8840 -1.56063
  741 557.341 -4.92835 5.96441
  742 500.633 -30.0449 2.02290
  743 895.908 178.974 -96.7529
  744 532.430 -14.5552 11.3575
  745 529.804 8.76036 -51.8897
  746 448.990 -4.78891 156.534
  747 566.233 45.5211 52.4584
  748 487.295 -38.2101 7.88673
  749 379.815 -29.5115 -52.9390
  750 379.878 -29.4404 52.5439
  751 520.842 58.6244 -7.25867
  752 527.622 -6.15286 46.0037
  753 532.560 -12.7715 -38.8230
  754 501.183 -30.6760 -2.15916
  755 484.968 -43.2805 15.2282
  756 555.701 91.3005 -9.76052
  757 517.337 -44.7830 -2.38951
  758 518.715 -32.9048 12.1874
  759 524.497 -7.13131 1.68752
  760 524.792 -6.95390 -1.66914
  761 705.007 153.730 0.918757
  762 575.084 -49.0639 -21.7601
  763 537.666 -16.7038 23.1700
  764 557.419 -4.92650 -5.37585
  765 566.142 3.69300 -52.7450
  766 641.027 34.3976 -27.5764
  767 325.464 -0.232788 -4.79449
  768 325.672 -0.228610 4.75194
  769 5.03019 -8.66588 -5.99147
  770 549.071 -0.750486 9.63330
  771 507.010 -0.682149 -37.9666
  772 522.261 -4.90750 33.1519
  773 470.060 61.0431 227.661
  774 593.951 121.229 -1.17800
  775 424.523 -29.9417 28.8009
  776 79.8138 1.57917 -29.2443
  777 81.8345 1.14503 29.5451
  778 518.017 -3.66258 -37.5424
  779 425.584 -30.2262 -28.8083
  780 554.202 -5.40184 4.40132
  781 291.559 -12.1579 49.5693
  782 289.177 -12.1105 -49.5617
  783 532.372 -14.1467 -11.0505
  784 347.698 -8.42004 -23.2142
  785 347.869 -8.36891 23.0298
  786 553.760 -5.51750 -13.8586
  787 428.210 -11.2052 -8.29312
  788 428.232 -11.1384 8.29740
  789 603.892 -3.73588 -34.0505
  790 546.404 -5.78182 -52.8069
  791 286.504 -1.72452 -12.8764
  792 287.013 -1.70827 12.7388
  793 17.3737 7.03575 -18.3085
  794 19.7282 7.43372 19.2233
  795 450.011 2.25515 -13.6293
  796 498.337 -55.9791 -32.2707
  797 -5.55050 -3.77479 9.75551
  798 -4.93020 -4.58031 -9.78448
  799 518.226 -10.7184 3.75230
  800 560.887 -43.9637 -13.4553
  801 582.052 86.0044 -39.3976
  802 556.397 -4.88447 -4.19765
  803 1158.86 237.485 -217.532
  804 518.116 -10.6905 -3.69848
  805 775.375 146.694 13.2489
  806 555.873 16.1705 -55.2035
  807 611.624 46.3480 -46.5315
  808 110.039 -1.27099 -26.8152
  809 111.819 -1.42080 26.7727
  810 353.865 -4.85530 13.8791
  811 353.736 -4.89351 -13.9879
  812 340.018 -0.704914 2.62294
  813 339.905 -0.712583 -2.64104
  814 619.838 104.165 -35.4992
  815 374.054 -2.14410 -3.94177
  816 374.128 -2.12018 3.92333
  817 529.203 -5.32100 -48.0719
  818 749.467 82.0133 72.2983
  819 480.311 11.0285 -29.9061
  820 172.283 -1.48463 28.5015
  821 170.986 -1.49884 -28.7084
  822 605.369 18.8843 164.866
  823 542.111 -10.2989 10.6935
  824 491.237 32.8796 -12.4439
  825 233.331 -0.301618 19.2896
  826 232.255 -0.196909 -19.4191
  827 346.155 -1.60883 -6.84961
  828 346.286 -1.58574 6.79466
  829 62.9836 55.6536 49.7308
  830 510.363 12.3462 44.1769
  831 565.994 82.9111 -34.0697
  832 606.373 70.4697 -46.8095
  833 403.818 -14.8683 -18.2269
  834 403.608 -14.7677 18.2138
  835 629.168 132.931 15.7945
  836 540.275 -4.93601 -0.487431
  837 540.316 -4.90045 0.573708
  838 536.999 -16.3176 -30.3865
  839 452.333 -29.8116 17.6791
  840 495.444 -55.6456 32.3368
  841 578.258 -47.3586 49.8871
  842 448.948 -12.8867 -5.39441
  843 448.952 -12.8459 5.36604
  844 513.975 47.7713 20.1432
  845 484.377 6.84991 -32.2388
  846 134.252 166.477 156.334
  847 486.420 -42.9171 -14.0563
  848 488.260 -21.7941 -0.932953
  849 488.515 -21.8511 0.900984
  850 537.003 -7.97925 50.3061
  851 531.135 -35.0248 -21.0897
  852 476.168 -31.3062 -8.47844
  853 1053.99 34.1014 -51.2482
  854 453.151 -42.5510 33.0445
  855 452.763 -43.0868 -33.5384
  856 535.985 -6.51922 25.2571
  857 797.930 207.879 -52.2045
  858 426.265 -38.3103 -40.4162
  859 468.762 -52.6049 39.2216
  860 426.193 -37.8640 40.0862
  861 461.371 -18.4115 -6.43463
  862 461.370 -18.3591 6.39795
  863 71.3986 29.3611 43.0721
  864 575.722 43.0094 -52.7478
  865 443.719 -17.0761 -9.32576
  866 443.807 -16.9131 9.35521
  867 438.790 -7.18048 -1.14574
  868 438.788 -7.13598 1.13957
  869 479.920 -9.68806 -0.747429
  870 479.866 -9.63117 0.742448
  871 394.872 -7.44154 -9.90001
  872 394.912 -7.36217 9.86539
  873 445.140 -23.0811 -13.7117
  874 445.205 -22.9380 13.7727
  875 11.4576 -1.13318 -7.06156
  876 664.424 124.792 24.2338
  877 572.121 -20.2185 -40.7522
  878 468.323 -51.8325 -39.5909
  879 505.059 -16.4413 2.92743
  880 504.846 -16.2843 -2.80162
  881 551.030 0.611387 53.9822
  882 594.085 -42.3227 -29.9527
  883 523.773 39.7131 -198.172
  884 245.592 -4.41084 99.0800
  885 -6.52036 5.72332 -7.64149
  886 -5.41112 6.47312 8.34366
  887 71.0352 31.2181 -44.0138
  888 537.128 -15.7201 17.9215
  889 562.936 -3.99954 -7.46464
  890 507.150 -49.0328 86.8710
  891 245.032 -4.18607 -99.4460
  892 565.123 -46.5016 7.96560
  893 624.810 -17.2585 77.4599
  894 465.187 1.94577 14.4232
  895 528.745 50.3383 34.1464
  896 290.078 -16.1957 72.4615
  897 288.997 -16.3243 -72.9028
  898 347.404 -16.1104 -40.7499
  899 360.317 -18.1228 -125.838
  900 566.744 -13.4188 46.6107
  901 771.846 183.964 35.1777
  902 569.920 21.8397 53.7928
  903 538.598 -11.6875 -27.8672
  904 367.641 -16.2318 128.933
  905 683.305 126.633 -15.7939
  906 70.9284 59.6004 -60.9226
  907 501.664 -0.941241 -15.2486
  908 347.762 -15.9839 40.4197
  909 421.193 -9.07195 7.24753
  910 421.171 -9.12840 -7.25998
  911 531.875 -34.8337 21.8750
  912 549.630 -3.94051 1.55691
  913 406.213 3.47745 -155.820
  914 578.249 -1.43516 3.51620
  915 574.610 -1.19969 -4.58823
  916 440.523 3.97047 -12.5780
  917 557.521 -2.34075 -8.49191
  918 422.052 -19.3505 -17.1673
  919 422.332 -19.0728 17.2248
  920 -12.9340 5.37230 -7.31444
  921 -18.2790 3.24400 7.91775
  922 549.596 -3.68615 -1.61070
  923 189.009 -4.39233 66.9607
  924 187.977 -4.01479 -67.3154
  925 591.076 85.9589 41.3718
  926 1030.12 18.7044 15.6920
  927 557.561 61.8851 44.3340
  928 624.186 -21.3902 25.7836
  929 546.674 -30.6052 35.8623
  930 679.334 142.045 -12.1109
  931 431.855 2.04448 9.49298
  932 525.551 -12.6946 -6.41164
  933 548.457 29.5261 -53.7323
  934 655.491 20.5179 -4.65875
  935 513.285 -31.7401 -9.03399
  936 271.185 -1.40974 -14.3691
  937 271.423 -1.35914 14.1778
  938 540.735 -12.9709 -21.3451
  939 19.4910 24.2287 6.66238
  940 519.221 -53.8608 -8.95061
  941 457.540 13.9158 -1.29447
  942 675.441 147.542 -8.01232
  943 110.082 81.6283 -99.1567
  944 522.273 -3.90535 -29.7037
  945 367.778 -5.84824 -13.0564
  946 367.858 -5.78227 12.9597
  947 3.59769 -14.2896 10.6969
  948 358.246 -26.2709 -58.4575
  949 529.195 -30.7311 -20.5902
  950 339.253 0.737123 -1.10520
  951 339.349 0.740019 1.09897
  952 537.752 65.2060 -27.2277
  953 568.699 -2.04290 -0.703536
  954 568.735 -2.06239 0.941770
  955 358.425 -26.2082 58.0952
  956 536.769 -0.840725 -11.6327
  957 613.534 4.55313 32.4176
  958 544.959 -8.05485 8.14015
  959 91.6770 22.2679 -53.5859
  960 563.940 -3.72497 6.72574
  961 517.372 4.30810 47.1126
  962 545.493 75.3663 24.2024
  963 544.079 6.31815 -54.8284
  964 379.309 -19.8718 -35.2947
  965 583.894 -20.8713 32.9601
  966 379.560 -19.8043 34.9694
  967 18.7566 19.9079 -3.49018
  968 68.5013 11.0419 39.3530
  969 313.138 -5.28695 23.9307
  970 312.779 -5.28686 -24.0495
  971 525.926 -12.9152 6.81571
  972 568.797 98.4307 13.2312
  973 290.779 26.0667 -148.136
  974 475.348 -29.4777 7.59040
  975 446.347 -46.4342 -48.6693
  976 647.165 123.678 26.4072
  977 499.022 -9.05096 0.0652471
  978 498.999 -9.00679 -0.0704327
  979 544.917 -10.3915 -15.0506
  980 509.412 44.1689 -18.5717
  981 1108.59 335.942 225.780
  982 110.941 5.79972 -50.9567
  983 112.492 4.80845 51.0516
  984 8.27142 -7.44828 4.21048
  985 510.530 28.5040 38.1231
  986 446.284 -46.7274 48.3372
  987 550.529 -26.1604 -41.3127
  988 598.539 48.8960 51.2425
  989 572.085 -46.2022 -60.1945
  990 832.821 174.899 60.4905
  991 490.400 -8.14919 -0.447031
  992 490.338 -8.08827 0.446620
  993 571.519 -23.4984 38.4203
  994 40.5447 73.2880 72.2534
  995 265.781 -5.36641 34.1571
  996 265.015 -5.29652 -34.4891
  997 314.437 -14.9954 46.8838
  998 313.404 -14.7562 -47.0363
  999 353.081 -14.1618 33.9155
  1000 386.014 -2.86139 -1.75144
  1001 386.077 -2.84133 1.74524
  1002 922.872 303.750 -196.308
  1003 847.300 212.811 91.1619
  1004 352.799 -14.2272 -34.1729
  1005 588.442 -2.81635 42.5687
  1006 531.183 55.1395 -32.8063
  1007 375.446 -32.5371 104.469
  1008 479.238 -56.6803 -57.8819
  1009 547.162 -4.65402 -16.8108
  1010 250.766 16.5235 121.075
  1011 321.526 -24.4867 83.4212
  1012 489.431 25.3817 -23.9757
  1013 553.872 -11.0861 -50.7398
  1014 683.958 298.214 306.457
  1015 464.127 14.5062 17.1563
  1016 623.520 133.225 -1.93211
  1017 454.789 18.4460 -176.714
  1018 466.485 -48.8390 -34.0625
  1019 584.638 -0.840093 -1.69988
  1020 567.581 52.0890 -51.0605
  1021 340.653 -2.02506 8.73155
  1022 340.492 -2.04524 -8.80396
  1023 12.8968 10.8823 -20.0971
  1024 379.885 -16.9041 -29.4996
  1025 321.124 -24.7976 -84.0051
  1026 379.630 -16.8743 29.2062
  1027 541.847 -16.6174 46.9518
  1028 486.883 -29.9657 -3.41587
  1029 513.448 9.58861 -45.7307
  1030 528.581 65.9689 9.58432
  1031 703.101 45.4521 32.4245
  1032 535.779 -40.8222 20.3953
  1033 344.011 -27.1489 -63.9569
  1034 509.568 18.2343 -42.9305
  1035 378.501 -32.1259 -104.960
  1036 720.051 154.948 -4.02983
  1037 496.574 32.8472 21.8124
  1038 617.717 -3.36098 -23.5074
  1039 469.349 -48.8785 31.6305
  1040 536.650 -17.1751 35.9867
  1041 532.626 -28.2627 24.7856
  1042 529.689 -26.7894 21.2202
  1043 651.516 83.3419 -34.8757
  1044 530.484 -8.64532 37.1244
  1045 478.563 -56.8369 56.9749
  1046 510.763 -21.0199 5.80293
  1047 344.232 -27.2087 63.6400
  1048 480.840 -35.1927 -9.09028
  1049 283.621 -13.9122 -89.1848
  1050 400.530 -41.4162 71.2399
  1051 539.407 -3.80424 -19.6798
  1052 526.734 -5.97641 -42.4588
  1053 457.002 -35.8056 -21.3846
  1054 284.094 -14.2877 88.5372
  1055 494.172 1.32046 -29.9520
  1056 369.461 -24.0458 -45.5017
  1057 659.157 139.470 16.1542
  1058 151.747 24.2487 -86.0078
  1059 1096.66 77.3457 104.032
  1060 267.957 19.2125 -126.532
  1061 529.367 -43.9310 -11.1146
  1062 369.576 -23.8509 45.1625
  1063 489.379 5.39586 33.6198
  1064 279.889 -5.45858 28.2956
  1065 279.768 -5.59148 -28.5634
  1066 537.038 -15.0399 -43.6160
  1067 566.399 -3.19773 2.54088
  1068 557.938 -1.38349 8.54731
  1069 554.103 18.3317 55.1635
  1070 519.892 -3.90528 40.0285
  1071 400.269 43.2424 190.888
  1072 588.049 -0.589130 0.767696
  1073 559.115 75.5497 35.2558
  1074 477.255 7.15212 29.0549
  1075 564.181 -2.28875 8.14977
  1076 371.424 -3.73386 -7.38302
  1077 371.498 -3.69244 7.34202
  1078 239.057 -6.58902 -47.2766
  1079 239.918 -6.82809 46.9885
  1080 478.839 24.2001 12.2240
  1081 704.445 40.6779 -58.2239
  1082 647.526 1.26114 -103.519
  1083 524.968 -0.514958 -12.1451
  1084 400.627 -41.7185 -71.7528
  1085 457.970 -34.0602 19.3383
  1086 527.777 -1.25019 12.6623
  1087 549.787 -40.0685 -24.3796
  1088 352.344 -0.678857 4.34243
  1089 352.246 -0.691779 -4.36591
  1090 528.377 -45.1879 11.0991
  1091 502.851 -10.5308 0.593350
  1092 502.766 -10.5437 -0.565781
  1093 489.672 -49.1642 21.2391
  1094 625.365 -19.8296 -12.1462
  1095 294.241 -0.481166 -8.03388
  1096 294.684 -0.464375 7.95677
  1097 429.455 -27.5507 -120.282
  1098 459.267 -10.9256 3.15535
  1099 459.303 -10.9792 -3.17692
  1100 276.162 151.411 209.833
  1101 630.559 52.1361 -40.3823
  1102 96.7492 46.1426 -66.2472
  1103 545.194 -8.47591 -7.85092
  1104 150.032 50.3864 -98.7404
  1105 309.939 -19.1601 -60.5786
  1106 587.869 -0.823600 0.530369
  1107 588.056 -0.783764 -0.380512
  1108 537.991 -30.8643 -30.4540
  1109 476.188 -53.6526 -78.5225
  1110 151.878 20.6456 81.9538
  1111 585.771 57.9044 49.1665
  1112 529.902 -5.75978 -0.615799
  1113 529.970 -5.76162 0.661944
  1114 575.687 -36.5738 95.5570
  1115 601.040 119.576 18.6686
  1116 362.763 -8.39438 -18.5686
  1117 362.861 -8.35891 18.4527
  1118 273.065 30.6781 149.639
  1119 512.110 2.71804 -44.1888
  1120 163.338 51.7873 105.891
  1121 647.626 -10.1498 -36.1262
  1122 642.866 140.836 5.36599
  1123 444.377 -34.7627 25.4423
  1124 416.934 2.41222 -1.85323
  1125 558.582 -5.15543 10.1945
  1126 576.910 -0.883135 3.95078
  1127 134.717 0.190593 -23.9239
  1128 136.344 0.131752 23.7729
  1129 463.426 8.03256 -21.5751
  1130 472.951 -13.8905 -2.84354
  1131 472.855 -13.8345 2.83113
  1132 50.7179 87.4214 -77.0593
  1133 79.4734 183.460 -150.255
  1134 478.669 -18.6488 2.85393
  1135 478.837 -18.6369 -2.88561
  1136 493.759 -12.0515 0.486815
  1137 493.690 -12.0321 -0.451113
  1138 132.288 84.1172 107.052
  1139 395.020 -4.66455 -3.64214
  1140 395.073 -4.63322 3.62767
  1141 494.205 37.5948 -0.490925
  1142 614.015 83.3349 -219.698
  1143 597.943 102.727 -32.0449
  1144 544.771 -21.0389 -44.0776
  1145 536.437 -26.9146 -31.1729
  1146 444.582 -35.0755 -25.8452
  1147 451.960 1.58662 13.3165
  1148 504.467 31.6655 -31.8976
  1149 497.828 27.0014 30.5273
  1150 510.441 -20.4254 -5.67783
  1151 488.083 -29.3781 3.03691
  1152 445.460 -28.4138 -19.3878
  1153 528.601 -3.17012 23.5603
  1154 916.900 92.3169 12.7728
  1155 531.854 -11.4148 42.8659
  1156 534.874 35.1469 47.5598
  1157 491.918 -48.2504 -16.6697
  1158 65.1880 10.1235 -38.0026
  1159 501.127 -23.2352 -3.35033
  1160 341.605 -0.441833 -0.237689
  1161 341.695 -0.439802 0.235682
  1162 606.791 -16.0853 19.4773
  1163 578.054 -48.7607 25.3148
  1164 827.127 147.324 37.4119
  1165 207.590 -0.349761 -19.7916
  1166 208.708 -0.306498 19.6556
  1167 449.949 -9.05339 -2.44508
  1168 449.933 -9.00240 2.43051
  1169 502.517 -44.2386 -4.32975
  1170 420.439 2.03669 6.08086
  1171 514.378 -36.6389 8.23989
  1172 30.6554 36.3979 -19.2701
  1173 95.6462 46.8239 64.7224
  1174 346.604 -19.2215 116.175
  1175 596.083 112.947 -22.9172
  1176 566.122 -1.66071 -6.45033
  1177 590.226 -1.03943 0.316326
  1178 590.735 -1.37798 -0.177989
  1179 354.282 -0.707593 -0.742526
  1180 354.370 -0.701672 0.737934
  1181 549.555 35.1071 53.7316
  1182 804.340 136.363 -2.92092
  1183 566.792 93.3379 -23.7426
  1184 422.795 -31.4236 119.529
  1185 344.777 -18.5279 -115.940
  1186 384.854 -25.2995 -40.9746
  1187 526.331 -14.9779 8.90766
  1188 731.136 161.954 11.4658
  1189 384.907 -25.1590 40.6806
  1190 537.047 -9.73316 6.73637
  1191 485.530 18.3015 29.1806
  1192 531.828 16.5475 51.8272
  1193 750.508 167.305 21.8076
  1194 450.731 -11.6657 4.51247
  1195 450.747 -11.7154 -4.53855
  1196 544.307 -10.5248 15.6533
  1197 330.969 -3.34849 13.6091
  1198 330.744 -3.38127 -13.7199
  1199 532.138 -7.60476 -2.76872
  1200 221.020 132.677 -203.646
  1201 460.957 -26.1576 -128.051
  1202 438.938 -13.5523 -7.92177
  1203 438.988 -13.4973 7.92513
  1204 568.459 -2.97371 2.36055
  1205 539.960 -7.44109 5.35805
  1206 30.9280 39.9755 30.0300
  1207 584.658 -0.771292 2.00279
  1208 71.9305 92.9077 92.1284
  1209 527.935 -8.24049 -3.61230
  1210 -0.467271 -12.6808 -11.1552
  1211 376.554 -36.7968 -90.0945
  1212 375.585 -35.9158 89.2288
  1213 584.629 -1.13346 -2.23671
  1214 504.207 -26.6254 -4.18837
  1215 568.141 -2.74563 -2.36733
  1216 460.070 -14.7910 -4.66500
  1217 460.033 -14.7445 4.62458
  1218 531.808 -7.55732 2.57906
  1219 500.775 -22.7729 3.31581
  1220 482.600 -15.5712 1.34538
  1221 482.759 -15.6054 -1.29350
  1222 567.580 -2.82669 -1.91700
  1223 492.045 -52.0310 -88.3251
  1224 556.062 -3.81014 -1.90364
  1225 530.090 -8.45543 3.94768
  1226 377.122 -3.89758 -5.53742
  1227 377.192 -3.86072 5.50982
  1228 418.483 -6.00079 -2.98019
  1229 418.510 -5.96298 2.96780
  1230 668.019 104.707 28.2994
  1231 562.096 -43.4027 16.8663
  1232 387.162 -2.05812 147.334
  1233 318.217 -0.457008 5.23148
  1234 317.959 -0.462289 -5.27832
  1235 534.682 -9.99161 32.0082
  1236 510.927 -8.04253 0.495542
  1237 510.943 -8.01834 -0.495351
  1238 586.971 113.587 10.7785
  1239 533.780 -56.0394 70.9708
  1240 317.689 -4.28389 18.9785
  1241 317.391 -4.31406 -19.1040
  1242 510.366 -12.6841 2.71876
  1243 510.252 -12.7751 -2.61192
  1244 526.038 -14.8090 -8.54672
  1245 488.562 0.133840 15.4860
  1246 828.870 206.307 -71.8405
  1247 536.270 -19.8099 -27.6150
  1248 95.7202 22.0052 55.0096
  1249 553.586 -29.6718 38.1145
  1250 451.771 10.1802 -11.8165
  1251 36.3572 25.5888 20.9661
  1252 722.853 83.1325 -13.2399
  1253 541.192 -24.7433 -39.0125
  1254 453.793 6.70327 18.1182
  1255 312.038 -19.1993 60.5094
  1256 548.880 -42.6468 21.3625
  1257 788.608 155.893 55.6297
  1258 188.416 27.1409 103.932
  1259 551.016 -6.84903 -13.5308
  1260 1038.05 11.7534 -10.2825
  1261 1070.93 15.9655 45.5582
  1262 1141.01 38.1692 -108.743
  1263 536.019 -16.8917 -34.9402
  1264 535.592 -24.6114 29.1335
  1265 543.721 -38.8531 26.2927
  1266 -15.8884 1.98535 9.95395
  1267 -14.4088 1.63501 -10.8943
  1268 528.506 -58.5760 -34.8665
  1269 540.669 -54.8475 -50.8254
  1270 423.241 2.82654 -7.49502
  1271 526.134 -59.5870 50.5282
  1272 562.827 -26.8423 -38.5593
  1273 12.4793 17.4233 3.24012
  1274 460.547 -8.44354 1.54163
  1275 460.576 -8.49838 -1.54566
  1276 558.034 -4.76774 9.08443
  1277 536.980 -9.56904 -6.29178
  1278 506.838 -55.3108 -19.6878
  1279 465.024 -24.9526 9.14576
  1280 462.763 -24.5914 -9.75840
  1281 542.875 -11.7084 21.9570
  1282 556.533 -20.5810 -45.1447
  1283 37.6926 26.6775 -20.4876
</Section>

newXOutput 31

<Section columns = "stress_xx | stress_yy | stress_xy">
  1 612.216 -0.267915 1.11345
  2 612.212 -0.255008 -1.11597
  3 348.257 -0.0722554 -0.400947
  4 -4.34832 -4.28663 -6.25528
  5 1072.42 446.031 349.730
  6 1062.74 461.386 -347.175
  7 -5.05519 -4.06006 6.67430
  8 348.164 -0.0733863 0.400024
  9 616.201 -1.08816 0.315471
  10 615.077 -1.69378 -0.360401
  11 613.968 -1.18993 1.22416
  12 612.826 -1.58537 0.241067
  13 610.338 -1.35649 1.92389
  14 608.049 -1.35902 1.34122
  15 602.415 -1.19547 2.79350
  16 594.112 -0.919187 4.14166
  17 586.768 -0.929408 4.66865
  18 575.655 -1.21202 5.70659
  19 559.984 -0.172868 8.51916
  20 545.514 -0.889249 8.16894
  21 528.721 -1.10387 11.6026
  22 504.501 0.770523 10.1650
  23 486.724 1.23816 12.0780
  24 463.507 2.04099 9.50593
  25 447.336 2.25272 9.61037
  26 423.925 3.05288 4.91607
  27 418.941 4.78981 5.29044
  28 415.919 3.98514 -1.57045
  29 419.992 2.40947 -3.41728
  30 427.517 2.26921 -4.20012
  31 445.069 2.80764 -8.36402
  32 462.123 2.22089 -10.5277
  33 486.931 0.568165 -12.4497
  34 506.739 -0.224095 -11.2534
  35 527.675 -0.871329 -10.9775
  36 546.536 -0.701386 -7.70327
  37 562.571 -0.759596 -6.53228
  38 575.656 -1.19306 -5.42899
  39 587.258 -0.885458 -3.70873
  40 594.347 -1.08489 -3.90165
  41 601.207 -1.27718 -2.83596
  42 607.565 -1.49246 -1.15227
  43 610.783 -1.21827 -1.41819
  44 612.332 -0.805498 -0.847402
  45 610.775 -0.531328 -0.776559
  46 615.627 -1.68857 0.262733
  47 616.355 -1.12545 -0.324799
  48 597.767 -0.739859 -0.690434
  49 585.389 -2.85715 -1.30510
  50 570.125 -4.11190 -0.763157
  51 551.416 -5.89966 -1.06993
  52 533.556 -6.39136 -1.28390
  53 514.404 -7.79398 -1.23731
  54 497.371 -8.54851 -0.618588
  55 482.426 -9.39786 -0.144942
  56 465.148 -7.75370 -0.122798
  57 445.227 -7.16086 -0.329249
  58 426.051 -5.57273 -0.00373449
  59 407.912 -3.47287 0.0535545
  60 390.709 -2.41691 0.114228
  61 375.678 -1.16410 0.227396
  62 360.388 -0.254788 -0.451513
  63 348.387 0.501679 0.663473
  64 342.924 1.29161 0.479465
  65 346.371 0.0450676 1.07610
  66 341.988 -0.130683 1.31275
  67 337.803 -0.215115 1.63180
  68 332.191 0.0138035 2.09449
  69 325.128 0.0116944 2.61539
  70 319.684 -0.340035 4.94304
  71 304.972 0.442094 5.37830
  72 294.474 -0.00237379 6.10299
  73 278.850 -0.234467 6.93866
  74 260.916 -0.414013 8.42899
  75 238.471 -0.0718076 10.2369
  76 211.115 0.144596 11.3233
  77 187.165 -0.192446 16.2035
  78 140.414 1.46848 15.3714
  79 108.171 1.26321 16.2935
  80 69.1732 -0.342160 18.1879
  81 36.4249 2.89469 19.0713
  82 -1.04316 4.40807 11.7619
  83 -28.7342 4.49795 4.54736
  84 -29.0111 4.42840 -1.01171
  85 -28.6964 3.72007 -8.46322
  86 -16.9905 -1.04627 -8.19700
  87 -1.97963 -16.3081 -9.08549
  88 1.77384 -29.8095 -11.1730
  89 4.68195 -46.0534 -5.64247
  90 10.2493 -45.0752 1.78561
  91 21.4635 -3.95932 29.8762
  92 62.8195 108.202 96.9699
  93 355.976 354.602 314.986
  94 1302.21 196.608 215.472
  95 1178.26 27.9952 69.5415
  96 1099.69 11.7617 21.2818
  97 1070.76 10.0694 1.59484
  98 1086.37 13.2962 -18.5501
  99 1176.23 26.2635 -55.1057
  100 1374.47 94.8228 -184.149
  101 212.718 365.463 -264.770
  102 46.9860 82.2992 -81.0752
  103 23.5087 -1.59884 -32.0976
  104 9.62291 -44.6764 -6.57408
  105 2.89297 -34.6943 6.40459
  106 3.51136 -37.6621 9.62566
  107 0.225550 -14.0234 10.0731
  108 -17.7554 -0.614788 7.74305
  109 -29.5996 2.79381 7.34851
  110 -30.5807 5.37060 1.16718
  111 -29.6302 4.41440 -4.26356
  112 -3.15641 4.51711 -11.0563
  113 34.5905 2.91901 -18.2046
  114 67.3069 -0.0291226 -17.8913
  115 106.236 1.36456 -16.3226
  116 138.656 1.50537 -15.4812
  117 185.804 -0.199130 -16.3303
  118 209.953 0.158953 -11.4257
  119 237.453 -0.0685762 -10.3584
  120 260.401 -0.462012 -8.48518
  121 278.142 -0.220286 -6.95313
  122 293.934 0.0163414 -6.16160
  123 304.526 0.437206 -5.43226
  124 319.359 -0.343663 -4.98869
  125 324.863 0.00933564 -2.64326
  126 331.986 0.0115308 -2.11732
  127 337.642 -0.218903 -1.64983
  128 341.859 -0.133932 -1.32527
  129 346.261 0.0423372 -1.08403
  130 342.824 1.29039 -0.483100
  131 348.292 0.501041 -0.665777
  132 360.296 -0.257853 0.450421
  133 375.593 -1.17181 -0.230151
  134 390.635 -2.43373 -0.117428
  135 407.855 -3.49620 -0.0566157
  136 426.016 -5.60643 0.000656075
  137 445.216 -7.20371 0.326787
  138 465.165 -7.80355 0.120142
  139 482.464 -9.45427 0.143634
  140 497.425 -8.60501 0.620379
  141 514.484 -7.84541 1.24314
  142 533.628 -6.42647 1.30483
  143 551.474 -5.93111 1.17169
  144 570.231 -3.90966 0.779758
  145 585.791 -2.79044 1.27577
  146 597.882 -0.833266 0.679356
  147 539.600 -50.7367 0.0372177
  148 539.120 -50.0463 0.151138
  149 569.475 81.6063 -25.9773
  150 603.545 35.5255 53.9925
  151 457.607 -44.3465 -103.159
  152 461.386 -44.2609 99.9583
  153 448.365 -18.6890 13.3792
  154 448.390 -18.9387 -13.3839
  155 637.625 23.2287 -39.1704
  156 538.203 -19.5910 9.61123
  157 537.969 -19.1352 -9.49786
  158 695.437 153.895 5.35432
  159 552.831 -0.865834 -53.7245
  160 412.101 -31.9353 -46.5419
  161 412.141 -31.6808 46.1660
  162 553.262 -12.6201 48.0720
  163 528.756 38.7614 32.5001
  164 220.687 34.5776 -123.288
  165 243.940 32.8293 129.787
  166 670.381 8.52804 -0.625159
  167 553.710 -21.4211 -32.5506
  168 730.106 160.285 1.73764
  169 500.040 -14.1963 -1.20326
  170 499.942 -14.1604 1.24098
  171 558.032 -7.18015 -4.11876
  172 559.649 -6.50241 3.53103
  173 398.563 -5.44042 -7.63492
  174 398.622 -5.38648 7.60163
  175 595.414 -14.5975 131.279
  176 512.678 21.5354 -35.0638
  177 337.171 -25.0171 -73.7290
  178 338.156 -24.8390 73.2895
  179 379.685 -12.0341 -24.3801
  180 379.729 -11.9014 24.2194
  181 556.198 -14.8276 27.7028
  182 506.685 -34.6435 -3.78302
  183 504.989 -34.3863 4.53387
  184 572.726 -55.6392 -13.9363
  185 575.819 -53.0091 6.88404
  186 788.635 186.111 -32.2446
  187 580.349 92.7952 24.2126
  188 579.779 35.6094 -54.9961
  189 592.740 -3.55811 -151.746
  190 573.539 -32.5771 -36.6647
  191 578.563 -23.3247 43.8802
  192 483.721 -54.8418 51.8934
  193 483.770 -54.4395 -51.7544
  194 520.535 6.78222 41.9667
  195 241.784 -6.19119 -90.4886
  196 242.333 -6.67109 89.9734
  197 885.148 131.910 19.4371
  198 543.798 -32.5165 18.9474
  199 563.068 -10.6418 -17.7226
  200 451.191 -10.8576 -6.30619
  201 451.207 -10.8085 6.28988
  202 543.343 -7.11184 -37.2180
  203 617.170 90.4360 -43.1942
  204 520.727 46.9653 -6.49521
  205 343.023 -11.7472 33.9225
  206 342.523 -11.7791 -34.1505
  207 570.302 -6.69858 9.36070
  208 559.181 10.5350 55.3400
  209 456.289 -32.8037 -23.5719
  210 453.416 -31.0486 24.0053
  211 655.917 97.4132 37.9835
  212 764.223 108.529 25.1069
  213 55.2593 42.2217 -36.6561
  214 51.1971 39.0263 31.2767
  215 318.855 92.3294 214.489
  216 538.452 -35.8528 -13.7540
  217 572.153 -6.42717 -8.44159
  218 515.024 4.70664 -38.6751
  219 366.476 -3.40742 -10.8621
  220 366.597 -3.37000 10.7783
  221 486.632 -22.6782 -6.24211
  222 486.862 -22.8287 5.97236
  223 547.585 -7.45647 31.5267
  224 624.650 -35.9933 19.1835
  225 626.219 127.089 -12.3115
  226 491.118 -47.1928 -25.8236
  227 617.120 -10.7837 32.2663
  228 527.707 -9.19035 1.15276
  229 527.706 -9.12097 -1.15167
  230 487.701 -46.9743 26.6713
  231 556.831 -35.4960 29.4668
  232 772.384 104.629 -56.9936
  233 176.628 105.033 -157.604
  234 478.851 17.1578 8.44801
  235 562.001 49.5261 46.7511
  236 595.315 -4.25569 -47.6386
  237 557.482 -20.1946 -44.5331
  238 304.487 -9.48848 -42.2414
  239 305.481 -9.34988 42.1308
  240 558.065 -6.92401 -24.0747
  241 531.506 -13.7276 4.64049
  242 531.261 -13.7171 -4.44787
  243 117.080 10.1906 -58.7202
  244 118.769 8.92518 58.5056
  245 588.783 -51.6556 -49.9186
  246 581.969 -2.47674 1.12468
  247 582.520 -2.51965 -1.27366
  248 549.543 45.6283 -42.9566
  249 487.622 9.68663 25.4878
  250 987.720 158.113 106.530
  251 978.914 111.469 -66.1903
  252 721.064 154.210 0.504911
  253 450.730 -21.9982 136.458
  254 414.542 -14.6104 -142.513
  255 477.555 -9.81140 -2.49517
  256 477.517 -9.75510 2.48056
  257 400.619 -10.3568 15.2312
  258 400.604 -10.4941 -15.3499
  259 570.297 -6.44452 14.4535
  260 554.507 -39.6256 -23.5295
  261 369.022 -0.555030 -2.59142
  262 369.114 -0.544488 2.57777
  263 547.613 -22.4009 -18.9954
  264 239.677 -7.69163 -58.8041
  265 240.630 -7.71478 58.4145
  266 554.836 -24.2260 35.1300
  267 425.739 -45.1890 83.0799
  268 426.736 -45.9936 -82.8203
  269 485.363 18.9366 -11.8659
  270 419.006 -6.18679 -5.16432
  271 419.049 -6.14798 5.14739
  272 523.837 -1.21936 30.8152
  273 622.625 113.408 29.7965
  274 341.627 -3.92752 18.1374
  275 341.377 -3.95865 -18.2762
  276 568.612 -47.6967 14.8363
  277 526.344 -59.2694 -57.4673
  278 584.437 -3.19254 4.22513
  279 413.589 -23.9902 -32.0421
  280 412.935 -23.7317 31.9364
  281 710.250 81.6395 191.184
  282 345.859 -28.0337 98.5904
  283 555.207 77.8033 -2.74673
  284 692.940 77.9536 -21.5509
  285 526.353 -40.6752 3.45745
  286 526.884 -60.8668 52.1331
  287 346.824 -27.5973 -99.6274
  288 65.8877 81.5325 75.4080
  289 547.709 -22.4684 19.3619
  290 713.093 94.8217 15.0460
  291 588.652 -2.85630 -3.66545
  292 540.233 19.0578 -49.4704
  293 530.314 -30.0613 9.09759
  294 519.519 -43.7677 4.47749
  295 538.495 24.8401 47.7395
  296 566.002 -47.6872 -12.8773
  297 797.778 154.005 -15.0155
  298 530.176 -28.9072 -8.67590
  299 433.088 128.494 -260.478
  300 541.052 -57.4468 -14.2863
  301 537.329 -59.0290 20.3527
  302 399.271 -35.7863 -65.1538
  303 365.587 -1.24339 -5.59320
  304 365.695 -1.22147 5.55506
  305 399.471 -35.8241 64.8269
  306 573.651 -1.00807 -54.9730
  307 615.732 -25.5161 -19.6486
  308 473.810 -28.2223 -13.3740
  309 473.548 -28.2895 13.6007
  310 560.113 -48.2261 90.2586
  311 562.405 -4.68771 18.2075
  312 676.541 4.86286 36.4850
  313 464.959 -16.2049 -7.54759
  314 464.997 -16.1588 7.51318
  315 425.879 -10.7722 -10.3041
  316 425.892 -10.6772 10.2927
  317 482.928 6.72653 -24.6362
  318 610.670 44.8136 -52.1215
  319 930.919 252.919 -123.475
  320 554.648 -5.34903 -1.30669
  321 554.364 -5.28164 1.35171
  322 302.053 -1.15296 123.067
  323 423.269 -18.7493 -21.5816
  324 422.531 -18.6980 21.6406
  325 301.991 -1.88760 -122.595
  326 584.258 68.8374 -45.1254
  327 648.832 32.5185 36.7025
  328 559.784 -39.9082 -99.8010
  329 518.787 -20.1441 3.16478
  330 518.285 -20.0104 -2.95406
  331 551.823 -11.8261 -8.78125
  332 524.156 -0.930019 -28.8007
  333 583.726 2.38073 53.5033
  334 579.758 -4.35529 -9.87673
  335 356.444 -21.1555 49.5390
  336 356.055 -21.2655 -49.8864
  337 545.249 -1.18482 51.1495
  338 344.160 -2.60098 -10.8400
  339 344.374 -2.57725 10.7524
  340 556.094 -13.1268 14.3787
  341 667.858 135.814 -20.4698
  342 551.605 -11.9019 9.14241
  343 590.575 73.9392 45.1685
  344 564.368 -10.6056 52.3484
  345 450.767 -8.31293 2.40722
  346 450.763 -8.35900 -2.42009
  347 536.261 -1.85090 -45.4576
  348 704.211 147.634 11.0451
  349 589.851 107.490 0.933007
  350 360.481 41.6567 -181.826
  351 40.5085 16.4670 -26.5793
  352 44.0676 17.8399 28.4397
  353 -0.944027 4.67467 10.0703
  354 1.09928 2.93728 -10.5939
  355 1008.38 70.0514 23.6297
  356 488.252 -39.3485 -16.0562
  357 556.456 -12.7082 -14.0153
  358 504.342 -9.09972 0.198759
  359 504.286 -9.03374 -0.203036
  360 542.351 59.9339 -23.2918
  361 461.678 -46.7160 42.7675
  362 42.2685 63.4185 -47.7948
  363 462.045 -46.6874 -43.4760
  364 549.109 62.4514 24.7752
  365 556.091 -15.0862 -26.2961
  366 588.490 -33.0307 -30.1904
  367 630.394 132.025 8.43881
  368 589.589 -37.0491 24.0311
  369 253.126 -6.06000 39.2996
  370 251.729 -5.94064 -39.5226
  371 145.225 3.26534 -55.2550
  372 146.594 2.72592 55.0205
  373 489.993 1.90194 24.8583
  374 903.319 268.053 109.978
  375 573.607 -3.89600 -12.8350
  376 450.783 -37.5957 -32.9651
  377 450.467 -37.5188 32.9246
  378 553.511 -12.9517 -33.9165
  379 625.637 -30.2139 -1.01173
  380 488.235 -39.3211 16.4752
  381 682.831 6.75331 -62.3058
  382 398.469 -2.98690 -2.11039
  383 398.535 -2.96271 2.09873
  384 545.651 -3.26442 -21.9528
  385 302.120 -4.13391 -25.5663
  386 302.286 -4.27242 25.2761
  387 648.233 83.0410 -42.7105
  388 352.559 24.6615 169.308
  389 509.845 -26.7179 0.0443892
  390 510.333 -26.6776 -0.0628314
  391 599.857 101.021 -28.3315
  392 566.211 -16.9114 -49.2776
  393 564.740 -57.9146 51.2529
  394 475.950 -12.5850 -3.98006
  395 475.905 -12.5327 3.95035
  396 545.751 -42.1969 14.6801
  397 584.798 -3.05638 7.27723
  398 373.705 -13.1555 -30.3370
  399 373.857 -13.1627 30.1048
  400 556.669 18.7586 -54.6812
  401 523.601 -11.6771 1.67022
  402 523.572 -11.7086 -1.60987
  403 543.523 -6.47955 41.4799
  404 510.495 37.4856 11.3077
  405 561.509 -23.8982 42.5869
  406 805.263 167.629 32.6710
  407 277.395 -14.8504 -78.9873
  408 278.129 -14.8502 78.4308
  409 125.051 65.9184 -96.5004
  410 596.077 -2.10049 1.85395
  411 315.051 -2.45454 -16.2101
  412 315.440 -2.40268 16.0847
  413 553.850 -14.6385 33.1041
  414 502.738 -54.4372 29.6766
  415 564.564 -7.47418 6.18233
  416 578.714 29.3411 56.5973
  417 130.680 70.1879 100.270
  418 503.444 -54.1057 -27.5369
  419 519.902 -48.2300 -8.16593
  420 177.282 -3.52683 -49.8012
  421 178.473 -3.64898 49.4819
  422 400.776 -32.4994 -118.867
  423 595.245 -9.04624 46.3104
  424 399.418 -32.9339 117.883
  425 550.830 -31.0999 -26.5025
  426 517.098 35.1800 -24.6459
  427 550.870 -24.0408 25.3742
  428 588.744 -2.98092 -4.75178
  429 19.2481 21.3764 10.8700
  430 122.732 144.227 141.449
  431 533.432 -1.93756 21.3215
  432 454.376 6.55115 10.8629
  433 461.574 7.90403 -14.6944
  434 393.844 -6.16673 -10.7527
  435 393.895 -6.09080 10.6929
  436 543.063 -42.1607 -13.1856
  437 550.247 -10.8792 -46.2368
  438 456.576 8.94606 -3.98852
  439 804.305 192.241 44.9428
  440 116.728 37.5391 -72.5459
  441 128.218 34.4317 77.2239
  442 509.372 -18.2387 0.475481
  443 509.190 -18.2068 -0.351318
  444 677.798 148.261 -1.49045
  445 416.149 181.593 266.238
  446 647.247 -8.53417 -3.15228
  447 380.729 -19.3617 -41.1479
  448 380.917 -19.2380 40.8326
  449 384.557 -8.19856 16.5224
  450 384.476 -8.25449 -16.6533
  451 513.841 11.6860 -39.9072
  452 598.830 -1.16094 -1.19367
  453 500.824 23.3394 22.5358
  454 624.794 77.0580 47.4798
  455 521.085 -38.6295 -1.76027
  456 564.291 -7.14590 -6.02355
  457 590.988 -2.73177 4.37227
  458 597.035 -1.25625 0.678054
  459 597.451 -1.37934 -0.471034
  460 342.893 -0.512936 4.06215
  461 342.721 -0.521127 -4.09870
  462 568.574 -36.3533 32.0582
  463 518.586 20.7191 38.6643
  464 539.797 2.26923 -50.0183
  465 559.896 -12.1504 19.2179
  466 791.280 143.017 -163.919
  467 561.876 -31.3716 -36.6415
  468 7.62392 10.9994 5.75559
  469 7.48384 11.2638 -2.96706
  470 449.274 -25.0054 19.1426
  471 447.858 -24.6508 -18.8812
  472 689.227 15.9712 90.5264
  473 195.529 184.092 -204.202
  474 555.578 -1.82707 16.3380
  475 623.159 -35.9229 -53.3920
  476 341.531 -19.2360 57.1864
  477 672.198 119.389 -29.5358
  478 553.889 -30.1835 30.4243
  479 468.343 -22.0785 -10.2964
  480 468.747 -21.7250 10.2766
  481 489.883 2.74538 -21.9264
  482 340.503 -19.1507 -57.4987
  483 501.283 0.381354 21.9697
  484 475.242 -54.4786 -74.9650
  485 474.084 -54.5614 75.2931
  486 570.713 -4.01171 14.2088
  487 524.736 49.6638 4.66654
  488 522.975 10.3046 183.658
  489 772.083 155.688 -0.968422
  490 535.471 -9.43446 2.36833
  491 535.492 -9.40290 -2.48738
  492 418.636 -7.13126 -7.02886
  493 418.675 -7.07617 7.00791
  494 222.743 9.60671 104.076
  495 556.550 -27.0054 -36.1240
  496 505.874 -11.2025 -0.477870
  497 505.824 -11.1695 0.485017
  498 442.134 -46.5630 61.2830
  499 226.893 12.7847 -106.644
  500 556.565 -45.5292 -15.2130
  501 10.5095 3.94242 2.74932
  502 493.919 25.9020 1.67469
  503 537.165 -6.67969 -0.737934
  504 537.161 -6.76076 0.712396
  505 442.330 -46.4681 -61.7333
  506 623.654 -31.4974 66.6274
  507 622.063 22.6329 47.6816
  508 572.403 -4.36548 -2.86049
  509 554.878 -46.1523 15.5088
  510 358.836 -0.233760 -0.768548
  511 358.930 -0.230910 0.763512
  512 555.142 -21.4909 -38.9909
  513 541.087 40.1312 42.0952
  514 614.651 15.2391 -47.1786
  515 356.640 -0.454717 -2.29609
  516 356.746 -0.447772 2.28279
  517 1050.19 151.910 -134.903
  518 562.251 66.8245 36.8697
  519 572.845 -4.07754 2.52888
  520 520.999 -49.3083 9.44003
  521 442.457 -14.3080 10.7744
  522 442.442 -14.4092 -10.7525
  523 603.057 -36.9297 10.7742
  524 581.906 -11.7991 -49.3990
  525 651.289 127.617 25.6962
  526 544.380 9.45917 51.9169
  527 545.121 -10.8999 5.20894
  528 529.018 -56.7548 -72.9635
  529 551.531 -13.8241 38.8297
  530 1036.36 47.8013 -18.8204
  531 598.397 -45.2846 4.12473
  532 568.866 -4.26915 -0.579214
  533 569.006 -4.50705 0.473235
  534 1047.17 70.2048 65.5861
  535 531.554 -0.0808106 44.1654
  536 733.574 125.525 -4.70615
  537 555.099 -15.4351 -18.4437
  538 261.266 -2.30793 -17.4603
  539 261.996 -2.19535 17.2953
  540 380.344 -35.4833 -82.7003
  541 380.683 -34.8928 82.1207
  542 544.814 -10.4764 -5.17921
  543 594.071 21.7791 -54.5184
  544 522.577 -35.5316 3.77911
  545 564.607 64.6728 -38.1680
  546 564.987 -6.87413 19.0998
  547 701.578 37.1556 -15.0577
  548 486.382 -16.6004 -3.98206
  549 486.251 -16.5540 3.94829
  550 526.097 -24.9311 6.37427
  551 767.211 154.825 -19.2917
  552 556.233 24.3731 53.8699
  553 239.904 61.4545 153.214
  554 531.729 -31.7936 124.258
  555 694.856 37.8466 -137.883
  556 568.503 47.0222 -49.9486
  557 500.708 -43.5735 -107.994
  558 542.853 -59.6627 -24.7179
  559 565.603 -57.5382 -34.6596
  560 76.6946 101.700 -96.1440
  561 568.896 -7.62746 -11.2344
  562 849.787 164.767 -50.5196
  563 528.777 -23.9675 -7.45850
  564 532.780 -17.5917 6.18834
  565 532.298 -17.2106 -5.88126
  566 376.803 -1.95153 -5.12415
  567 376.892 -1.92651 5.09565
  568 57.8790 5.40256 -31.0038
  569 60.6608 5.67736 31.6890
  570 281.207 -12.7804 -60.1110
  571 283.231 -12.8547 60.0524
  572 540.184 -29.4386 -15.8266
  573 548.926 -59.9134 26.4979
  574 564.153 -53.7874 -1.02696
  575 467.466 -8.24276 -2.03948
  576 467.445 -8.19042 2.03035
  577 441.447 -46.4932 -92.3284
  578 491.449 -40.5866 114.023
  579 431.192 -43.7587 92.7865
  580 556.783 -12.4663 -49.5611
  581 357.146 -5.61836 18.3421
  582 356.973 -5.67457 -18.4759
  583 533.952 29.7225 -42.3509
  584 533.742 -0.947557 -19.3446
  585 663.192 142.761 -11.2361
  586 438.361 -6.45205 -1.90306
  587 438.380 -6.41357 1.89546
  588 565.454 -1.77088 -10.6831
  589 397.410 -12.9624 -20.6468
  590 397.437 -12.9237 20.4872
  591 321.951 14.2622 146.032
  592 550.361 -25.5325 -25.6093
  593 311.779 -16.7979 105.119
  594 540.890 -28.1901 16.2640
  595 567.596 -8.41187 12.4826
  596 559.859 -5.62657 -2.45841
  597 402.666 -4.71375 -4.87400
  598 402.726 -4.67754 4.85345
  599 636.614 126.329 -23.4487
  600 311.547 -16.2126 -105.471
  601 539.046 -23.5568 -12.7522
  602 488.607 -9.18408 -1.16340
  603 488.560 -9.12363 1.15916
  604 899.890 120.600 -21.7444
  605 332.772 -1.98162 10.0504
  606 332.499 -2.00026 -10.1340
  607 508.222 11.9093 36.4795
  608 711.381 61.8113 -0.943938
  609 342.515 1.74397 -144.813
  610 180.079 4.06620 -79.8072
  611 181.468 3.10648 79.3914
  612 431.237 -24.6739 25.9589
  613 435.482 -25.4023 -25.3157
  614 722.546 146.155 6.89670
  615 557.724 -5.81339 2.16797
  616 487.887 14.0961 -22.1114
  617 601.507 107.494 22.4253
  618 599.571 111.507 -14.9279
  619 492.642 -27.1333 -6.28110
  620 496.226 -26.5513 4.56186
  621 351.672 77.4423 -206.928
  622 427.248 -14.2231 -14.6476
  623 427.294 -14.0686 14.6076
  624 1046.12 214.598 161.791
  625 555.646 -18.3648 42.3336
  626 325.185 -11.1049 -38.4757
  627 843.794 206.874 142.972
  628 325.904 -11.0491 38.3509
  629 527.056 -19.8493 -144.367
  630 383.353 -1.68124 -1.88396
  631 383.433 -1.66695 1.87598
  632 471.839 4.45065 19.3103
  633 219.771 -3.12882 -34.4783
  634 220.866 -3.13770 34.2313
  635 486.480 -34.1663 12.7406
  636 509.004 -40.6108 -5.88661
  637 594.348 -1.48691 -4.09516
  638 348.377 -0.476109 3.04367
  639 348.239 -0.485148 -3.07036
  640 460.873 -10.2896 -3.34324
  641 460.863 -10.2387 3.32391
  642 523.042 -58.2878 73.5944
  643 603.162 67.2908 -49.4443
  644 406.780 -18.4806 -26.5582
  645 406.523 -18.1759 26.3841
  646 477.880 -34.0404 -16.6477
  647 745.679 161.493 7.86481
  648 560.952 -54.4653 4.01210
  649 490.347 -11.8232 -2.18175
  650 490.281 -11.7733 2.17957
  651 668.297 73.7750 34.2663
  652 562.783 -8.42683 -20.7443
  653 503.954 -0.503292 -17.8653
  654 237.422 -8.14062 -75.8428
  655 238.086 -8.35005 75.2689
  656 476.387 -40.7671 -25.5712
  657 710.105 154.880 -0.0250810
  658 555.259 75.0507 -16.6108
  659 374.645 -3.16957 -9.30967
  660 374.740 -3.12649 9.24565
  661 515.212 -14.7643 -0.863904
  662 515.309 -14.7719 0.962507
  663 942.276 122.638 54.2792
  664 601.645 -1.86095 1.01732
  665 584.455 -2.53003 7.18874
  666 582.486 -2.53890 -8.54296
  667 554.521 -51.7756 4.15446
  668 415.547 -4.61921 -2.43297
  669 415.595 -4.58907 2.42395
  670 595.431 95.0058 34.7168
  671 757.475 167.736 -13.7603
  672 421.192 -30.7757 -37.6147
  673 421.108 -30.4887 37.4482
  674 521.420 -53.6662 -14.4894
  675 552.577 32.9261 -50.7899
  676 648.384 2.05690 16.9000
  677 438.494 -7.95979 -5.05083
  678 438.516 -7.91391 5.03409
  679 379.274 -33.0143 -74.6397
  680 549.404 -53.2577 0.787466
  681 458.876 -50.8460 67.5846
  682 222.042 69.4898 -148.008
  683 430.452 -39.5148 52.1529
  684 519.548 0.152251 16.4104
  685 379.644 -32.6491 74.1764
  686 538.747 -23.9918 12.9092
  687 430.545 -39.3376 -52.5872
  688 447.339 6.10525 4.06877
  689 346.681 -8.93318 27.5012
  690 346.385 -8.93739 -27.6715
  691 459.040 -52.1586 -68.3112
  692 564.953 -37.4103 -30.9429
  693 519.001 -7.64136 -0.275659
  694 519.084 -7.71219 0.277403
  695 576.837 -36.9834 30.2568
  696 525.229 -54.8752 16.6636
  697 636.556 58.5566 46.2201
  698 575.785 -10.9531 51.2689
  699 554.100 -20.1267 30.6145
  700 533.674 44.0496 -32.1283
  701 636.763 106.768 36.7586
  702 550.717 -7.73530 -30.4964
  703 547.234 -18.4359 14.7729
  704 569.659 88.8525 8.94795
  705 557.396 -9.66978 26.2000
  706 178.184 121.948 155.519
  707 518.166 -59.7049 -43.9820
  708 599.819 10.8177 51.7094
  709 604.312 -18.7918 -34.9874
  710 599.481 -1.02830 2.16615
  711 553.338 -19.2956 -23.6904
  712 519.010 -60.1664 40.2731
  713 984.537 87.3405 -14.5271
  714 319.740 -1.25332 10.5037
  715 319.384 -1.26642 -10.5920
  716 559.951 -10.5760 -10.5407
  717 602.809 -0.803543 -2.14008
  718 475.598 -41.4372 25.6971
  719 568.394 -21.3328 46.2305
  720 849.802 208.726 -72.3012
  721 538.796 -39.1206 12.4482
  722 594.978 -39.3635 -15.4948
  723 547.412 -17.9624 -14.5269
  724 602.034 -1.29164 -0.596952
  725 556.445 -0.101491 54.2968
  726 26.7038 28.6788 35.3295
  727 619.419 -22.8382 -96.5393
  728 676.302 41.1526 18.6411
  729 565.192 -57.9513 31.4717
  730 411.067 -9.52587 11.9364
  731 411.054 -9.65274 -11.9843
  732 515.286 277.486 -279.171
  733 577.018 -38.3784 -27.6099
  734 445.701 2.66234 -7.78532
  735 513.011 2.99587 35.4045
  736 557.822 -28.1029 36.6583
  737 534.659 -45.0577 4.26616
  738 552.901 -50.6712 -79.1335
  739 531.568 -42.0592 -5.40810
  740 623.754 -29.7917 -1.16584
  741 575.078 -5.11859 6.05867
  742 516.843 -31.0132 1.86510
  743 923.732 184.526 -99.8642
  744 549.534 -15.0507 11.5369
  745 547.087 9.05595 -53.2614
  746 463.339 -4.91914 161.816
  747 584.588 46.9935 53.7978
  748 503.113 -39.4336 8.37032
  749 392.458 -30.4524 -54.7587
  750 392.524 -30.3800 54.3531
  751 537.990 60.5617 -7.45236
  752 544.799 -6.35665 47.1926
  753 549.828 -13.1940 -39.7901
  754 517.410 -31.6662 -2.00363
  755 500.705 -44.6656 15.9530
  756 573.874 94.2522 -10.0078
  757 534.023 -46.2282 -2.17021
  758 535.454 -33.9727 12.3066
  759 541.326 -7.39509 1.68340
  760 541.628 -7.21242 -1.66426
  761 727.560 158.555 0.722643
  762 593.361 -50.6364 -22.8474
  763 554.975 -17.2638 23.6694
  764 575.148 -5.11771 -5.45556
  765 584.399 3.80875 -54.0395
  766 661.390 35.5585 -27.9424
  767 336.798 -0.233253 -4.96110
  768 337.013 -0.228974 4.91756
  769 5.23502 -8.84365 -6.10064
  770 566.761 -0.784586 9.86610
  771 523.673 -0.690926 -38.9803
  772 539.294 -5.06906 34.0092
  773 484.809 63.2159 235.171
  774 613.278 125.094 -1.20765
  775 438.533 -30.8847 29.8693
  776 82.9467 1.62325 -30.2790
  777 85.0219 1.17537 30.5894
  778 534.948 -3.77959 -38.5259
  779 439.621 -31.1768 -29.8782
  780 571.834 -5.60989 4.45797
  781 301.574 -12.5464 51.2352
  782 299.122 -12.4971 -51.2246
  783 549.472 -14.6296 -11.2240
  784 359.554 -8.67154 -24.0095
  785 359.731 -8.61928 23.8207
  786 571.487 -5.72096 -14.1614
  787 442.402 -11.5514 -8.63569
  788 442.426 -11.4831 8.64024
  789 623.156 -3.84298 -34.6762
  790 564.094 -5.97254 -54.1446
  791 296.553 -1.77439 -13.3062
  792 297.076 -1.75765 13.1650
  793 18.2705 7.26943 -19.0066
  794 20.6915 7.68155 19.9531
  795 465.203 2.34020 -14.0071
  796 514.411 -57.7838 -33.5791
  797 -5.71300 -3.87930 10.0575
  798 -5.08036 -4.71875 -10.0955
  799 534.903 -11.0922 3.75894
  800 578.840 -45.3879 -13.4979
  801 600.939 88.7754 -40.3705
  802 574.083 -5.07489 -4.25322
  803 1193.14 244.858 -223.945
  804 534.789 -11.0639 -3.70446
  805 799.919 151.241 13.7744
  806 573.876 16.6962 -56.6136
  807 631.222 47.8562 -47.5630
  808 114.237 -1.31714 -27.7455
  809 116.064 -1.47155 27.7021
  810 365.964 -4.99620 14.3650
  811 365.831 -5.03531 -14.4764
  812 351.832 -0.719946 2.71684
  813 351.715 -0.727807 -2.73533
  814 639.818 107.509 -36.2716
  815 386.787 -2.19811 -4.08863
  816 386.864 -2.17366 4.06981
  817 546.428 -5.49265 -49.3190
  818 772.631 85.0273 75.2213
  819 496.298 11.4235 -30.7313
  820 178.561 -1.53280 29.4694
  821 177.231 -1.54751 -29.6817
  822 624.181 19.6959 170.435
  823 559.473 -10.6607 10.8774
  824 507.543 33.9981 -12.7860
  825 241.642 -0.305563 19.9319
  826 240.539 -0.197464 -20.0645
  827 358.089 -1.64884 -7.09340
  828 358.224 -1.62517 7.03719
  829 65.2407 57.6113 51.6314
  830 527.140 12.7696 45.3716
  831 584.432 85.5911 -34.9383
  832 625.893 72.7497 -47.8985
  833 417.298 -15.3249 -18.9000
  834 417.083 -15.2222 18.8874
  835 649.517 137.145 16.1069
  836 557.510 -5.13279 -0.487156
  837 557.554 -5.09593 0.575774
  838 554.330 -16.8642 -31.0954
  839 467.158 -30.7554 18.4123
  840 511.437 -57.4397 33.6401
  841 596.577 -48.8558 51.8628
  842 463.716 -13.2949 -5.65727
  843 463.720 -13.2534 5.62810
  844 530.917 49.3602 20.6925
  845 500.466 7.09932 -33.1231
  846 138.668 172.649 161.718
  847 502.198 -44.2897 -14.7452
  848 504.118 -22.4983 -1.13216
  849 504.381 -22.5583 1.09869
  850 554.429 -8.24337 51.5903
  851 548.252 -36.1648 -21.4502
  852 491.677 -32.3032 -8.94422
  853 1085.63 35.1239 -52.7077
  854 467.953 -43.9088 34.2984
  855 467.550 -44.4601 -34.8077
  856 553.338 -6.74082 25.8820
  857 822.999 214.573 -54.3745
  858 440.281 -39.5288 -41.8766
  859 483.984 -54.2963 40.7094
  860 440.211 -39.0697 41.5369
  861 476.476 -18.9971 -6.76565
  862 476.477 -18.9440 6.72776
  863 74.0082 30.3472 44.7057
  864 594.333 44.4028 -54.0632
  865 458.331 -17.6134 -9.73732
  866 458.422 -17.4461 9.76774
  867 453.289 -7.40756 -1.19760
  868 453.288 -7.36211 1.19126
  869 495.544 -10.0147 -0.826920
  870 495.488 -9.95653 0.821630
  871 408.146 -7.66191 -10.2698
  872 408.189 -7.58057 10.2344
  873 459.776 -23.8058 -14.2878
  874 459.844 -23.6596 14.3515
  875 11.8962 -0.926222 -7.46308
  876 685.680 128.804 24.5577
  877 590.474 -20.8788 -41.6390
  878 483.527 -53.4981 -41.0888
  879 521.384 -16.9874 2.87011
  880 521.166 -16.8263 -2.74147
  881 568.867 0.626364 55.3522
  882 612.891 -43.6552 -31.3276
  883 540.176 41.1807 -204.767
  884 253.926 -4.59794 102.481
  885 -6.51307 5.91745 -7.98066
  886 -5.37465 6.69382 8.70471
  887 73.6408 32.2659 -45.6865
  888 554.393 -16.2515 18.2785
  889 580.844 -4.15590 -7.60610
  890 523.356 -50.6225 89.9367
  891 253.350 -4.36858 -102.857
  892 583.179 -48.0087 7.82759
  893 644.394 -17.6915 80.3500
  894 480.786 2.01720 14.8209
  895 546.089 51.9958 35.0637
  896 299.938 -16.7312 74.9104
  897 298.824 -16.8639 -75.3631
  898 359.160 -16.6136 -42.1351
  899 372.115 -18.7590 -130.114
  900 584.971 -13.8627 47.7001
  901 796.095 189.979 36.8962
  902 588.326 22.5416 55.1346
  903 555.983 -12.0830 -28.5308
  904 379.656 -16.8011 133.311
  905 705.077 130.735 -15.8027
  906 73.4645 61.6686 -63.2189
  907 518.199 -0.966405 -15.6534
  908 359.528 -16.4837 41.7966
  909 435.197 -9.35120 7.54197
  910 435.174 -9.40886 -7.55464
  911 549.013 -35.9670 22.2581
  912 567.117 -4.10541 1.56476
  913 419.299 3.56659 -161.065
  914 596.541 -1.49510 3.58140
  915 592.843 -1.25152 -4.68225
  916 455.459 4.11901 -12.9304
  917 575.395 -2.42247 -8.69310
  918 436.042 -19.9523 -17.8296
  919 436.329 -19.6671 17.8897
  920 -13.2800 5.56977 -7.49805
  921 -18.8091 3.36361 8.13334
  922 567.081 -3.84248 -1.62212
  923 195.651 -4.55629 69.2676
  924 194.592 -4.16791 -69.6321
  925 610.210 88.7213 42.3733
  926 1061.11 19.2761 16.1245
  927 575.715 63.8918 45.4840
  928 643.878 -22.0094 27.0634
  929 564.280 -31.6059 36.6472
  930 701.091 146.572 -12.1278
  931 446.563 2.13293 9.75987
  932 542.441 -13.1329 -6.46957
  933 566.289 30.4920 -55.1347
  934 676.184 21.2721 -4.27776
  935 529.865 -32.7688 -9.06660
  936 280.739 -1.44943 -14.8450
  937 280.981 -1.39734 14.6484
  938 558.126 -13.4133 -21.8106
  939 20.2484 25.1288 7.05059
  940 535.934 -55.5979 -9.54643
  941 472.930 14.4194 -1.33060
  942 697.137 152.204 -8.02043
  943 113.904 84.4428 -102.732
  944 539.305 -4.03423 -30.4718
  945 380.283 -6.01778 -13.5209
  946 380.365 -5.95016 13.4219
  947 3.75623 -14.7035 10.9901
  948 370.237 -27.1112 -60.4445
  949 546.253 -31.7348 -20.9544
  950 351.075 0.763609 -1.14624
  951 351.175 0.766558 1.13988
  952 555.372 67.3402 -27.9487
  953 586.656 -2.13945 -0.715868
  954 586.695 -2.15923 0.960129
  955 370.423 -27.0474 60.0728
  956 554.168 -0.877547 -11.9245
  957 633.078 4.71377 32.9746
  958 562.379 -8.34592 8.26858
  959 95.0175 22.9924 -55.5496
  960 581.867 -3.87175 6.84958
  961 534.317 4.46298 48.3711
  962 563.347 77.8179 24.8413
  963 561.739 6.52638 -56.2480
  964 392.018 -20.4918 -36.5211
  965 602.564 -21.5527 33.5812
  966 392.278 -20.4232 36.1872
  967 19.4997 20.6534 -3.76522
  968 71.0989 11.3972 40.8026
  969 323.946 -5.44478 24.7362
  970 323.576 -5.44426 -24.8575
  971 542.828 -13.3592 6.88354
  972 587.361 101.600 13.5659
  973 300.377 26.8767 -153.173
  974 490.836 -30.4180 8.02028
  975 460.904 -47.9261 -50.4318
  976 667.963 127.628 26.8786
  977 515.166 -9.36453 0.0121559
  978 515.143 -9.31933 -0.0176602
  979 562.384 -10.7540 -15.3543
  980 526.225 45.6458 -19.0774
  981 1141.47 346.526 232.799
  982 115.026 5.97449 -52.7625
  983 116.619 4.95228 52.8591
  984 8.57819 -7.46624 4.48628
  985 527.342 29.4639 39.1614
  986 460.845 -48.2298 50.0901
  987 568.265 -27.0161 -42.2631
  988 617.782 50.4710 52.4520
  989 590.199 -47.6647 -62.4909
  990 858.935 180.358 62.5892
  991 506.309 -8.43176 -0.480091
  992 506.245 -8.36933 0.479598
  993 589.844 -24.2675 39.2358
  994 41.9324 76.3224 74.9169
  995 275.069 -5.53266 35.2976
  996 274.283 -5.46050 -35.6376
  997 325.169 -15.4684 48.4654
  998 324.104 -15.2208 -48.6209
  999 365.032 -14.6015 35.0792
  1000 399.078 -2.93766 -1.81401
  1001 399.143 -2.91719 1.80767
  1002 950.713 313.761 -202.969
  1003 873.802 219.516 94.3404
  1004 364.742 -14.6682 -35.3429
  1005 607.290 -2.91253 43.4888
  1006 548.600 56.9519 -33.6813
  1007 387.771 -33.6284 108.029
  1008 494.708 -58.5165 -59.9911
  1009 564.775 -4.81910 -17.2127
  1010 259.187 17.0152 125.234
  1011 332.300 -25.3003 86.2579
  1012 505.677 26.2522 -24.6374
  1013 571.751 -11.4525 -51.9865
  1014 704.204 308.714 316.235
  1015 479.691 15.0211 17.6371
  1016 643.731 137.446 -1.97334
  1017 469.242 19.0868 -182.630
  1018 481.655 -50.4029 -35.3730
  1019 603.023 -0.885744 -1.72610
  1020 585.985 53.7777 -52.3612
  1021 352.410 -2.07788 9.03612
  1022 352.244 -2.09855 -9.11022
  1023 13.3786 11.6333 -20.9741
  1024 392.638 -17.4277 -30.5305
  1025 331.883 -25.6212 -86.8576
  1026 392.377 -17.3978 30.2297
  1027 559.374 -17.1652 48.1086
  1028 502.700 -30.9263 -3.72753
  1029 530.300 9.91796 -46.9601
  1030 545.953 68.1340 9.84032
  1031 725.046 47.1390 34.0477
  1032 553.025 -42.1471 20.7090
  1033 355.548 -28.0249 -66.1307
  1034 526.333 18.8543 -44.0955
  1035 390.910 -33.2056 -108.532
  1036 743.058 159.785 -4.25653
  1037 513.022 33.9592 22.4143
  1038 637.351 -3.43936 -23.7797
  1039 484.609 -50.4454 32.8703
  1040 553.993 -17.7456 36.8466
  1041 549.794 -29.1873 25.2798
  1042 546.762 -27.6670 21.6197
  1043 672.293 86.0589 -35.4809
  1044 547.707 -8.93446 38.0640
  1045 494.020 -58.6780 59.0540
  1046 527.257 -21.7114 5.79866
  1047 355.776 -28.0874 65.8066
  1048 496.475 -36.3136 -9.59366
  1049 293.204 -14.3945 -92.2155
  1050 413.706 -42.7631 73.6990
  1051 556.845 -3.94097 -20.1644
  1052 543.880 -6.17361 -43.5561
  1053 471.942 -36.9424 -22.2538
  1054 293.691 -14.7807 91.5505
  1055 510.509 1.37547 -30.7622
  1056 381.835 -24.8053 -47.0663
  1057 680.364 143.883 16.3942
  1058 157.050 25.0160 -89.0429
  1059 1129.41 79.6432 107.002
  1060 276.906 19.7845 -130.859
  1061 546.411 -45.3527 -11.1456
  1062 381.956 -24.6052 46.7183
  1063 505.598 5.59515 34.5397
  1064 289.645 -5.62789 29.2416
  1065 289.523 -5.76473 -29.5167
  1066 554.426 -15.5356 -44.6999
  1067 584.332 -3.33114 2.56836
  1068 575.823 -1.44017 8.74674
  1069 572.062 18.9231 56.5802
  1070 536.873 -4.03178 41.0754
  1071 413.091 44.6829 197.258
  1072 606.512 -0.620564 0.774286
  1073 577.346 77.9959 36.1671
  1074 493.161 7.41294 29.8577
  1075 582.195 -2.37510 8.33464
  1076 384.064 -3.83588 -7.65218
  1077 384.141 -3.79345 7.61029
  1078 247.431 -6.80141 -48.8662
  1079 248.315 -7.04839 48.5715
  1080 494.805 25.0374 12.5642
  1081 726.347 42.2091 -60.6202
  1082 667.679 1.48484 -107.236
  1083 542.084 -0.536410 -12.4567
  1084 413.802 -43.0745 -74.2273
  1085 472.943 -35.1420 20.1417
  1086 544.965 -1.29487 12.9861
  1087 567.449 -41.3720 -24.7876
  1088 364.491 -0.689666 4.49558
  1089 364.389 -0.702898 -4.51957
  1090 545.392 -46.6502 11.1290
  1091 519.102 -10.8931 0.533502
  1092 519.014 -10.9066 -0.505484
  1093 505.529 -50.7414 22.1720
  1094 645.105 -20.4180 -13.0043
  1095 304.563 -0.493929 -8.30310
  1096 305.018 -0.476688 8.22412
  1097 443.322 -28.4779 -124.377
  1098 474.324 -11.2789 3.32571
  1099 474.361 -11.3335 -3.34801
  1100 285.051 156.568 216.838
  1101 650.688 53.8446 -41.1823
  1102 100.190 47.6944 -68.6929
  1103 562.616 -8.78016 -7.97333
  1104 155.224 52.0308 -102.234
  1105 320.467 -19.7779 -62.6244
  1106 606.297 -0.866380 0.540420
  1107 606.487 -0.825298 -0.386724
  1108 555.333 -31.8734 -31.0970
  1109 491.518 -55.4002 -81.2998
  1110 157.190 21.2991 84.8456
  1111 604.695 59.7723 50.3714
  1112 546.867 -5.98221 -0.617373
  1113 546.938 -5.98389 0.664636
  1114 593.827 -37.6798 98.9687
  1115 620.556 123.388 19.1020
  1116 375.088 -8.64516 -19.2195
  1117 375.190 -8.60902 19.1010
  1118 282.116 31.6445 154.737
  1119 528.911 2.81886 -45.3709
  1120 168.944 53.4863 109.614
  1121 667.958 -10.3772 -37.7599
  1122 663.645 145.272 5.46299
  1123 458.953 -35.8634 26.4292
  1124 431.236 2.51388 -1.90556
  1125 576.410 -5.34412 10.4035
  1126 595.197 -0.926025 4.02958
  1127 139.782 0.193103 -24.7401
  1128 141.451 0.132616 24.5850
  1129 478.965 8.32989 -22.1761
  1130 488.384 -14.3407 -3.03716
  1131 488.285 -14.2838 3.02412
  1132 52.4588 91.1215 -79.9134
  1133 82.0935 190.563 -155.470
  1134 494.259 -19.2505 3.08489
  1135 494.430 -19.2372 -3.11805
  1136 509.764 -12.4554 0.406649
  1137 509.694 -12.4360 -0.370336
  1138 136.828 86.9710 110.859
  1139 408.321 -4.79899 -3.78250
  1140 408.377 -4.76699 3.76772
  1141 510.597 38.8665 -0.503098
  1142 632.905 86.4564 -226.962
  1143 617.324 106.024 -32.7947
  1144 562.359 -21.7291 -45.1348
  1145 553.739 -27.7981 -31.8577
  1146 459.159 -36.1850 -26.8459
  1147 467.210 1.65091 13.6872
  1148 521.121 32.7335 -32.7693
  1149 514.299 27.9185 31.3669
  1150 526.926 -21.0989 -5.67151
  1151 503.935 -30.3213 3.33478
  1152 460.088 -29.3086 -20.1626
  1153 545.790 -3.27933 24.1596
  1154 945.149 95.1410 13.1531
  1155 549.120 -11.7922 43.9501
  1156 552.351 36.3007 48.8245
  1157 507.844 -49.7965 -17.4607
  1158 67.6879 10.4469 -39.4070
  1159 517.351 -23.9919 -3.26557
  1160 353.500 -0.447893 -0.248065
  1161 353.594 -0.445814 0.246023
  1162 626.085 -16.5924 19.6375
  1163 596.417 -50.3176 26.5209
  1164 853.093 151.876 38.6879
  1165 215.079 -0.354559 -20.4532
  1166 216.225 -0.309897 20.3139
  1167 464.752 -9.34374 -2.56534
  1168 464.736 -9.29166 2.55032
  1169 518.768 -45.6595 -4.73248
  1170 434.841 2.11992 6.25381
  1171 530.989 -37.8232 8.22860
  1172 31.7973 37.7505 -20.1320
  1173 99.0377 48.4030 67.1063
  1174 358.023 -19.8933 120.122
  1175 615.445 116.558 -23.4575
  1176 584.187 -1.72276 -6.59803
  1177 608.716 -1.08100 0.318139
  1178 609.235 -1.42966 -0.176402
  1179 366.502 -0.718040 -0.771365
  1180 366.593 -0.711991 0.766684
  1181 567.426 36.2491 55.1365
  1182 829.666 140.554 -3.01326
  1183 585.281 96.3471 -24.3440
  1184 436.482 -32.4755 123.600
  1185 356.139 -19.1804 -119.878
  1186 397.694 -26.0953 -42.3995
  1187 543.256 -15.4859 9.01905
  1188 754.318 167.183 12.3248
  1189 397.750 -25.9516 42.0980
  1190 554.245 -10.0795 6.82043
  1191 501.664 18.9370 29.9879
  1192 549.185 17.0969 53.2022
  1193 774.321 172.586 22.8556
  1194 465.552 -12.0370 4.73059
  1195 465.568 -12.0877 -4.75746
  1196 561.763 -10.8931 15.9713
  1197 342.392 -3.44386 14.0776
  1198 342.160 -3.47746 -14.1910
  1199 549.177 -7.88386 -2.77688
  1200 228.277 137.139 -210.516
  1201 475.727 -27.0142 -132.420
  1202 453.425 -13.9762 -8.26757
  1203 453.477 -13.9202 8.27112
  1204 586.432 -3.09723 2.39331
  1205 557.224 -7.71568 5.42195
  1206 32.0555 41.5417 31.2676
  1207 603.084 -0.807115 2.03576
  1208 74.4286 96.3131 95.4963
  1209 544.870 -8.53948 -3.62916
  1210 -0.462735 -13.0611 -11.4944
  1211 388.949 -38.0140 -93.1696
  1212 387.955 -37.1051 92.2779
  1213 603.054 -1.17951 -2.27594
  1214 520.519 -27.4888 -4.11055
  1215 586.114 -2.86276 -2.39439
  1216 475.143 -15.2638 -4.91976
  1217 475.106 -15.2167 4.87807
  1218 548.839 -7.83530 2.58394
  1219 516.988 -23.5138 3.23202
  1220 498.300 -16.0807 1.51116
  1221 498.463 -16.1151 -1.45823
  1222 585.527 -2.94691 -1.93710
  1223 507.810 -53.7225 -91.4286
  1224 573.715 -3.96857 -1.91710
  1225 547.084 -8.76076 3.97391
  1226 389.928 -4.00457 -5.74555
  1227 390.001 -3.96683 5.71738
  1228 432.424 -6.18304 -3.10574
  1229 432.453 -6.14444 3.09306
  1230 689.305 108.103 28.6909
  1231 580.082 -44.8119 17.0156
  1232 399.710 -2.15059 152.315
  1233 329.322 -0.464502 5.41213
  1234 329.057 -0.469913 -5.46007
  1235 551.993 -10.3270 32.7982
  1236 527.391 -8.33115 0.465842
  1237 527.406 -8.30640 -0.465682
  1238 606.079 117.219 11.0394
  1239 550.789 -57.8413 73.5610
  1240 328.671 -4.40995 19.6203
  1241 328.365 -4.44077 -19.7486
  1242 526.831 -13.1154 2.68603
  1243 526.713 -13.2099 -2.57671
  1244 542.953 -15.3127 -8.64951
  1245 504.770 0.141903 15.9028
  1246 854.863 212.814 -74.4108
  1247 553.561 -20.4677 -28.2295
  1248 99.1862 22.7236 57.0166
  1249 571.395 -30.6424 38.9514
  1250 467.004 10.5544 -12.1471
  1251 37.7659 26.4698 21.8355
  1252 745.471 86.0033 -14.2928
  1253 558.656 -25.5544 -39.9200
  1254 469.080 6.95458 18.6269
  1255 322.629 -19.8191 62.5563
  1256 566.503 -44.0317 21.6786
  1257 813.123 161.266 58.1367
  1258 194.865 28.0006 107.561
  1259 568.651 -7.09893 -13.8111
  1260 1069.23 12.1225 -10.5753
  1261 1102.94 16.4297 46.8258
  1262 1174.85 39.2335 -111.816
  1263 553.344 -17.4538 -35.7744
  1264 552.860 -25.4217 29.7675
  1265 561.208 -40.1179 26.7749
  1266 -16.3884 2.06521 10.2537
  1267 -14.8567 1.70563 -11.2289
  1268 545.433 -60.4701 -36.3048
  1269 557.908 -56.6157 -52.7915
  1270 437.715 2.93672 -7.70681
  1271 542.966 -61.5094 52.4631
  1272 580.905 -27.7179 -39.3930
  1273 13.0276 18.0496 3.48264
  1274 475.642 -8.72106 1.60165
  1275 475.672 -8.77716 -1.60583
  1276 575.827 -4.95021 9.25964
  1277 554.172 -9.91040 -6.36602
  1278 523.179 -57.0920 -20.6071
  1279 480.223 -25.7448 9.59814
  1280 477.897 -25.3710 -10.2247
  1281 560.339 -12.1092 22.4511
  1282 574.456 -21.2559 -46.2038
  1283 39.1493 27.5960 -21.3544
</Section>

newXOutput 32

<Section columns = "stress_xx | stress_yy | stress_xy">
  1 630.668 -0.289000 1.13990
  2 630.662 -0.275427 -1.14239
  3 360.028 -0.0697854 -0.410241
  4 -4.49017 -4.42483 -6.45974
  5 1102.07 460.241 360.059
  6 1092.16 476.004 -357.226
  7 -5.22068 -4.18942 6.89463
  8 359.932 -0.0709388 0.409313
  9 634.745 -1.12682 0.320686
  10 633.602 -1.75161 -0.376052
  11 632.485 -1.23600 1.24758
  12 631.332 -1.64216 0.235653
  13 628.816 -1.40706 1.96026
  14 626.498 -1.40867 1.36042
  15 620.770 -1.23863 2.84932
  16 612.303 -0.960332 4.22679
  17 604.820 -0.967156 4.77005
  18 593.475 -1.25377 5.83621
  19 577.454 -0.186267 8.72005
  20 562.662 -0.919386 8.36795
  21 545.466 -1.13657 11.8935
  22 520.668 0.792316 10.4259
  23 502.445 1.28036 12.3934
  24 478.643 2.10646 9.75889
  25 462.056 2.33543 9.86844
  26 438.044 3.15578 5.04940
  27 432.927 4.94971 5.43591
  28 429.823 4.12374 -1.61445
  29 434.002 2.50266 -3.50957
  30 441.725 2.35050 -4.31439
  31 459.728 2.90309 -8.58991
  32 477.223 2.29673 -10.8072
  33 502.652 0.594702 -12.7773
  34 522.953 -0.226567 -11.5421
  35 544.394 -0.896532 -11.2523
  36 563.702 -0.725903 -7.89207
  37 580.100 -0.788394 -6.68751
  38 593.472 -1.23484 -5.55333
  39 605.317 -0.919341 -3.78702
  40 612.541 -1.12905 -3.98089
  41 619.532 -1.32433 -2.89209
  42 626.001 -1.54568 -1.16694
  43 629.270 -1.26309 -1.44242
  44 630.831 -0.839845 -0.858365
  45 629.219 -0.560735 -0.786938
  46 634.163 -1.74460 0.275712
  47 634.901 -1.16479 -0.330114
  48 615.885 -0.786347 -0.706917
  49 603.218 -2.97570 -1.34125
  50 587.583 -4.27583 -0.777282
  51 568.413 -6.11997 -1.09190
  52 550.102 -6.62472 -1.30655
  53 530.460 -8.06197 -1.26063
  54 512.983 -8.83247 -0.624421
  55 497.648 -9.69607 -0.138194
  56 479.917 -7.99567 -0.114166
  57 459.473 -7.37688 -0.328542
  58 439.796 -5.73371 0.00623586
  59 421.185 -3.56577 0.0625724
  60 403.539 -2.47621 0.123496
  61 388.126 -1.18557 0.238276
  62 372.455 -0.253632 -0.461277
  63 360.157 0.519841 0.686349
  64 354.551 1.32879 0.498548
  65 358.064 0.0494423 1.11473
  66 353.547 -0.130356 1.36109
  67 349.224 -0.217072 1.69149
  68 343.432 0.0183840 2.16853
  69 336.144 0.0147504 2.70599
  70 330.509 -0.344169 5.10638
  71 315.347 0.456772 5.55446
  72 304.517 6.50162e-05 6.29834
  73 288.398 -0.238376 7.16215
  74 269.902 -0.422832 8.69911
  75 246.750 -0.0710277 10.5653
  76 218.534 0.150856 11.6901
  77 193.800 -0.193504 16.7307
  78 145.569 1.51307 15.8794
  79 112.270 1.30135 16.8334
  80 71.9600 -0.358330 18.8022
  81 38.0760 2.98104 19.7312
  82 -0.708969 4.54731 12.1990
  83 -29.4149 4.64186 4.75146
  84 -29.8065 4.57883 -0.985644
  85 -29.5844 3.85023 -8.70844
  86 -17.5272 -1.06910 -8.44984
  87 -2.03238 -16.8230 -9.36968
  88 1.84605 -30.7284 -11.5044
  89 4.85072 -47.3768 -5.75746
  90 10.6048 -46.1844 1.95857
  91 22.1857 -3.39877 31.0203
  92 64.8183 112.702 100.284
  93 366.158 366.760 324.505
  94 1338.61 202.305 221.249
  95 1211.69 28.7915 71.3498
  96 1131.30 12.1119 21.8355
  97 1101.71 10.3774 1.63103
  98 1117.71 13.6924 -19.0456
  99 1209.67 27.0311 -56.5475
  100 1412.38 97.5733 -188.950
  101 218.924 378.252 -272.892
  102 48.4761 86.2120 -83.9214
  103 24.3074 -0.958155 -33.3800
  104 9.96010 -45.7308 -6.93053
  105 3.01146 -35.6551 6.52651
  106 3.64273 -38.8319 9.90462
  107 0.239516 -14.4589 10.3893
  108 -18.3183 -0.621333 7.97859
  109 -30.5148 2.89171 7.55777
  110 -31.4225 5.55182 1.14445
  111 -30.3289 4.55426 -4.45943
  112 -2.87711 4.65975 -11.4707
  113 36.1973 3.00600 -18.8367
  114 70.0492 -0.0353947 -18.4959
  115 110.288 1.40563 -16.8630
  116 143.769 1.55090 -15.9920
  117 192.406 -0.200399 -16.8607
  118 217.343 0.165641 -11.7950
  119 245.708 -0.0678029 -10.6898
  120 269.376 -0.472236 -8.75640
  121 287.672 -0.223673 -7.17670
  122 303.963 0.0193231 -6.35833
  123 314.890 0.451775 -5.60966
  124 330.175 -0.347876 -5.15307
  125 335.871 0.0123391 -2.73447
  126 343.220 0.0160578 -2.19185
  127 349.057 -0.220951 -1.70990
  128 353.413 -0.133684 -1.37388
  129 357.949 0.0466515 -1.12282
  130 354.447 1.32757 -0.502250
  131 360.058 0.519197 -0.688698
  132 372.359 -0.256756 0.460178
  133 388.038 -1.19344 -0.241076
  134 403.462 -2.49336 -0.126746
  135 421.126 -3.58956 -0.0656790
  136 439.759 -5.76807 -0.00936740
  137 459.461 -7.42059 0.326031
  138 479.934 -8.04656 0.111438
  139 497.687 -9.75374 0.136834
  140 513.039 -8.89027 0.626239
  141 530.542 -8.11458 1.26659
  142 550.177 -6.66058 1.32797
  143 568.474 -6.15211 1.19622
  144 587.693 -4.06735 0.794136
  145 603.631 -2.90693 1.31105
  146 616.004 -0.882653 0.695506
  147 556.362 -52.3170 0.358317
  148 555.865 -51.6043 -0.164439
  149 587.438 84.1637 -26.6225
  150 622.298 36.6288 55.2418
  151 471.865 -45.7579 -106.593
  152 475.769 -45.6667 103.297
  153 462.658 -19.2521 13.9098
  154 462.683 -19.5083 -13.9142
  155 657.234 23.9761 -39.8848
  156 554.926 -20.2203 9.70457
  157 554.684 -19.7515 -9.59084
  158 717.009 158.557 5.36298
  159 570.169 -0.889843 -55.0589
  160 425.289 -32.9104 -48.1169
  161 425.333 -32.6492 47.7312
  162 570.567 -13.0230 49.2281
  163 545.568 40.0128 33.3487
  164 227.911 35.6287 -127.411
  165 251.853 33.8340 134.115
  166 690.760 8.87242 -1.17297
  167 570.944 -22.1045 -33.2571
  168 752.557 165.214 2.20571
  169 515.725 -14.6478 -1.34723
  170 515.624 -14.6115 1.38559
  171 575.223 -7.43936 -4.15104
  172 576.876 -6.74152 3.55578
  173 411.568 -5.59039 -7.91295
  174 411.629 -5.53521 7.87899
  175 613.415 -14.9343 135.665
  176 529.051 22.2486 -35.9849
  177 348.117 -25.8055 -76.1405
  178 349.132 -25.6223 75.6905
  179 392.086 -12.3866 -25.2014
  180 392.133 -12.2505 25.0371
  181 573.491 -15.3089 28.3083
  182 522.545 -35.7140 -4.12638
  183 520.803 -35.4489 4.89530
  184 590.360 -57.3727 -14.7435
  185 593.559 -54.6607 7.48077
  186 812.663 191.835 -33.6583
  187 598.628 95.6841 24.8061
  188 597.908 36.7262 -56.3377
  189 610.606 -3.52946 -156.742
  190 591.320 -33.6019 -37.4030
  191 596.507 -24.0636 44.8296
  192 498.849 -56.5498 53.7365
  193 498.893 -56.1335 -53.5943
  194 537.080 7.01288 43.0538
  195 249.797 -6.42195 -93.4804
  196 250.361 -6.91461 92.9518
  197 911.736 135.815 20.0459
  198 560.708 -33.5384 19.2359
  199 580.496 -10.9984 -18.0815
  200 465.583 -11.1852 -6.57306
  201 465.600 -11.1352 6.55636
  202 560.402 -7.33976 -38.1296
  203 636.412 93.2453 -44.1721
  204 537.347 48.4829 -6.66311
  205 354.337 -12.0959 35.0341
  206 353.823 -12.1281 -35.2672
  207 587.853 -6.93826 9.51931
  208 576.716 10.8692 56.7224
  209 470.753 -33.8019 -24.4669
  210 467.807 -31.9922 24.9057
  211 676.200 100.444 38.6956
  212 787.239 112.153 26.5438
  213 57.2311 43.6425 -38.0683
  214 53.0322 40.3391 32.4929
  215 328.811 95.3132 221.411
  216 555.206 -36.9746 -13.8848
  217 589.742 -6.65643 -8.58323
  218 531.428 4.87361 -39.6798
  219 378.606 -3.49695 -11.2316
  220 378.731 -3.45865 11.1459
  221 501.955 -23.3762 -6.59006
  222 502.192 -23.5324 6.31243
  223 564.737 -7.69708 32.2863
  224 643.709 -37.0728 20.2208
  225 645.832 130.989 -12.5703
  226 506.508 -48.6477 -26.8533
  227 636.107 -11.1160 32.7960
  228 544.110 -9.50425 1.12241
  229 544.109 -9.43306 -1.12144
  230 503.001 -48.4231 27.7216
  231 574.128 -36.6136 30.0250
  232 795.472 108.202 -59.4086
  233 182.376 108.447 -162.881
  234 494.362 17.7463 8.67719
  235 579.695 51.0862 47.9303
  236 613.758 -4.39213 -48.6801
  237 574.865 -20.8354 -45.5662
  238 314.633 -9.77464 -43.6049
  239 315.654 -9.63232 43.4930
  240 575.438 -7.15698 -24.6280
  241 548.028 -14.1779 4.64231
  242 547.776 -14.1678 -4.44530
  243 121.186 10.4953 -60.7526
  244 122.918 9.19130 60.5289
  245 606.787 -53.2474 -51.8323
  246 599.725 -2.58745 1.12805
  247 600.287 -2.63194 -1.28309
  248 566.904 47.0791 -44.0545
  249 503.352 10.0281 26.1664
  250 1016.91 162.783 109.705
  251 1007.79 114.762 -68.1236
  252 743.348 158.865 0.639126
  253 464.722 -22.7065 140.933
  254 427.486 -15.1098 -147.168
  255 492.648 -10.1205 -2.62372
  256 492.609 -10.0630 2.60860
  257 413.637 -10.6577 15.7717
  258 413.621 -10.7985 -15.8931
  259 587.907 -6.67030 14.7500
  260 571.725 -40.8684 -23.9071
  261 381.290 -0.560561 -2.68388
  262 381.386 -0.549796 2.66996
  263 564.625 -23.1176 -19.3285
  264 247.768 -7.93731 -60.7236
  265 248.746 -7.96108 60.3243
  266 572.107 -24.9954 35.8965
  267 439.176 -46.6164 85.8533
  268 440.197 -47.4461 -85.5845
  269 501.042 19.5814 -12.1822
  270 432.559 -6.36350 -5.35408
  271 432.605 -6.32390 5.33679
  272 540.448 -1.24987 31.5996
  273 642.089 116.905 30.4550
  274 352.998 -4.03549 18.7328
  275 352.740 -4.06730 -18.8747
  276 586.197 -49.1903 14.9110
  277 542.618 -61.1222 -59.5419
  278 602.296 -3.32283 4.28518
  279 426.880 -24.7119 -33.1462
  280 426.209 -24.4466 33.0383
  281 731.166 84.6711 197.411
  282 356.956 -28.9449 101.834
  283 572.788 80.2545 -2.81416
  284 714.110 80.4607 -21.6434
  285 542.756 -41.9390 3.28480
  286 543.188 -62.7673 54.0440
  287 357.945 -28.4963 -102.898
  288 68.1369 84.3418 78.1176
  289 564.724 -23.1861 19.7031
  290 734.819 97.8537 14.9167
  291 606.605 -2.97332 -3.71776
  292 557.301 19.6755 -50.7374
  293 546.833 -31.0036 9.12948
  294 535.725 -45.1248 4.88470
  295 555.528 25.6386 48.9690
  296 583.517 -49.1783 -12.9006
  297 822.118 158.609 -15.5943
  298 546.691 -29.8143 -8.70340
  299 446.132 132.718 -268.701
  300 557.816 -59.2352 -15.0533
  301 553.987 -60.8683 21.2996
  302 412.033 -36.8983 -67.3153
  303 377.735 -1.27043 -5.78897
  304 377.847 -1.24799 5.75003
  305 412.241 -36.9383 66.9801
  306 591.536 -1.04100 -56.2886
  307 634.635 -26.2989 -19.7990
  308 488.772 -29.0832 -13.9537
  309 488.506 -29.1527 14.1887
  310 577.249 -49.7028 93.3770
  311 579.890 -4.84948 18.6245
  312 697.009 5.15784 38.1223
  313 479.708 -16.6983 -7.88855
  314 479.748 -16.6516 7.85322
  315 439.591 -11.0890 -10.6925
  316 439.605 -10.9918 10.6811
  317 498.535 6.96507 -25.2910
  318 629.633 46.2156 -53.3060
  319 958.729 260.638 -127.501
  320 571.731 -5.55325 -1.30955
  321 571.441 -5.48362 1.35579
  322 311.772 -1.24139 127.122
  323 436.862 -19.3091 -22.3572
  324 436.105 -19.2574 22.4187
  325 311.708 -2.00248 -126.634
  326 602.580 70.9901 -46.2250
  327 668.757 33.5573 37.3219
  328 576.883 -41.1234 -103.213
  329 534.979 -20.7822 3.08722
  330 534.463 -20.6454 -2.87126
  331 568.889 -12.2248 -8.89509
  332 540.773 -0.953891 -29.5322
  333 601.881 2.44689 54.7529
  334 597.576 -4.51455 -10.0716
  335 368.058 -21.8005 51.1684
  336 367.657 -21.9130 -51.5242
  337 562.395 -1.21659 52.4327
  338 355.655 -2.66887 -11.2025
  339 355.875 -2.64459 11.1130
  340 573.308 -13.5626 14.6318
  341 688.595 139.985 -20.7853
  342 568.669 -12.3020 9.26417
  343 609.073 76.2404 46.2580
  344 581.979 -10.9442 53.5994
  345 465.156 -8.56489 2.51689
  346 465.152 -8.61187 -2.53011
  347 553.173 -1.90287 -46.6047
  348 725.949 152.163 11.0142
  349 608.425 110.823 0.954329
  350 371.755 42.9399 -187.718
  351 42.0739 16.9973 -27.5899
  352 45.7403 18.4165 29.5074
  353 -0.895558 4.86700 10.3156
  354 1.19719 3.08256 -10.8593
  355 1037.90 72.1137 24.2874
  356 503.592 -40.5574 -16.7672
  357 573.676 -13.1321 -14.2606
  358 520.137 -9.40156 0.163795
  359 520.079 -9.33401 -0.168308
  360 559.553 61.8396 -23.8896
  361 476.231 -48.1585 44.2911
  362 43.7576 65.6991 -49.6032
  363 476.604 -48.1275 -45.0190
  364 566.497 64.4313 25.4098
  365 573.376 -15.5766 -26.8628
  366 606.664 -34.0655 -30.7001
  367 650.134 136.070 8.61090
  368 607.776 -38.2102 24.3500
  369 261.719 -6.24339 40.5739
  370 260.285 -6.12020 -40.8014
  371 150.330 3.35636 -57.1093
  372 151.733 2.80151 56.8680
  373 505.780 1.98764 25.5137
  374 930.265 276.409 113.862
  375 591.326 -4.03672 -13.1138
  376 465.068 -38.7433 -34.1563
  377 464.746 -38.6659 34.1147
  378 570.775 -13.3708 -34.7007
  379 644.758 -31.1319 -1.50145
  380 503.575 -40.5298 17.1997
  381 703.385 7.11670 -64.7209
  382 411.493 -3.06394 -2.19708
  383 411.562 -3.03927 2.18521
  384 562.770 -3.37411 -22.4866
  385 312.282 -4.25256 -26.3878
  386 312.451 -4.39560 26.0901
  387 668.273 85.6360 -43.5585
  388 363.634 25.4172 174.829
  389 525.796 -27.5485 -0.155127
  390 526.298 -27.5075 0.136574
  391 618.682 104.155 -28.9917
  392 583.852 -17.4472 -50.4262
  393 582.087 -59.7108 53.1816
  394 490.997 -12.9756 -4.19090
  395 490.951 -12.9224 4.16026
  396 562.706 -43.5146 14.8086
  397 602.730 -3.17111 7.41521
  398 385.913 -13.5424 -31.3443
  399 386.071 -13.5504 31.1066
  400 574.157 19.3568 -56.0555
  401 539.905 -12.0646 1.61651
  402 539.875 -12.0976 -1.55504
  403 560.593 -6.68837 42.5018
  404 526.839 38.7120 11.6090
  405 578.988 -24.6564 43.5419
  406 829.808 172.667 33.8765
  407 286.544 -15.3331 -81.5770
  408 287.298 -15.3325 81.0062
  409 129.270 68.0513 -99.8600
  410 614.186 -2.19138 1.87471
  411 325.652 -2.51851 -16.7334
  412 326.052 -2.46530 16.6051
  413 571.115 -15.1100 33.8593
  414 518.438 -56.1257 30.8538
  415 581.938 -7.74067 6.25948
  416 596.804 30.2585 57.9835
  417 135.053 72.4588 103.732
  418 519.162 -55.7817 -28.6475
  419 536.108 -49.7247 -8.69893
  420 183.448 -3.64658 -51.4484
  421 184.668 -3.77204 51.1207
  422 413.391 -33.5594 -122.776
  423 613.672 -9.33584 47.3075
  424 412.004 -34.0036 121.766
  425 567.957 -32.0799 -27.0028
  426 533.607 36.3301 -25.2917
  427 567.994 -24.8072 25.8730
  428 606.723 -3.09922 -4.82751
  429 19.9514 22.2275 11.4163
  430 126.754 149.186 146.263
  431 550.275 -1.99694 21.8526
  432 469.263 6.79334 11.1573
  433 476.642 8.18980 -15.0892
  434 406.708 -6.33780 -11.1346
  435 406.762 -6.26004 11.0735
  436 559.944 -43.4764 -13.2741
  437 567.475 -11.2270 -47.3587
  438 471.516 9.27140 -4.09541
  439 828.766 198.151 46.7468
  440 120.735 38.7276 -75.0928
  441 132.581 35.5200 79.9112
  442 525.308 -18.8144 0.339032
  443 525.122 -18.7826 -0.211953
  444 698.889 152.753 -1.50116
  445 428.488 187.819 274.635
  446 667.001 -8.74404 -2.75554
  447 393.076 -19.9458 -42.5142
  448 393.271 -19.8193 42.1912
  449 397.137 -8.43253 17.0913
  450 397.053 -8.48964 -17.2252
  451 530.227 12.0831 -40.9510
  452 616.998 -1.21929 -1.20335
  453 516.901 24.1202 23.1351
  454 644.200 79.4510 48.5311
  455 537.345 -39.8297 -1.55496
  456 581.653 -7.40306 -6.10037
  457 609.021 -2.84239 4.44157
  458 615.143 -1.32016 0.683130
  459 615.566 -1.44742 -0.471782
  460 354.422 -0.521605 4.20186
  461 354.244 -0.529990 -4.23921
  462 586.200 -37.4969 32.6638
  463 535.109 21.4026 39.6765
  464 556.813 2.34883 -51.2839
  465 577.243 -12.5543 19.6050
  466 814.496 148.038 -169.492
  467 579.336 -32.3604 -37.4074
  468 8.04472 11.3710 6.05147
  469 7.89249 11.6514 -3.17561
  470 463.570 -25.7622 19.8767
  471 462.115 -25.3951 -19.6029
  472 709.896 16.7198 93.7929
  473 201.612 190.325 -210.833
  474 572.928 -1.89484 16.7258
  475 642.090 -36.9814 -55.4641
  476 352.686 -19.8270 59.0542
  477 692.975 123.096 -30.0015
  478 571.108 -31.1369 31.0354
  479 483.171 -22.7503 -10.7519
  480 483.588 -22.3871 10.7319
  481 505.667 2.84466 -22.5026
  482 351.628 -19.7382 -59.3732
  483 517.351 0.406459 22.5409
  484 490.074 -56.1901 -77.5277
  485 488.882 -56.2754 77.8719
  486 588.372 -4.15355 14.5209
  487 541.466 51.2645 4.79011
  488 538.854 10.7296 189.591
  489 795.760 160.348 -0.996860
  490 552.079 -9.75825 2.35351
  491 552.100 -9.72581 -2.47607
  492 432.171 -7.33564 -7.29493
  493 432.212 -7.27934 7.27359
  494 230.083 9.86862 107.562
  495 573.867 -27.8603 -36.9032
  496 521.711 -11.5670 -0.567796
  497 521.659 -11.5334 0.574861
  498 456.097 -48.0127 63.3707
  499 234.358 13.1416 -110.209
  500 573.822 -46.9538 -15.3262
  501 10.9114 4.22281 2.69970
  502 509.825 26.7697 1.72183
  503 553.806 -6.92197 -0.728506
  504 553.802 -7.00518 0.702199
  505 456.294 -47.9135 -63.8343
  506 642.588 -32.4009 69.0937
  507 641.265 23.3403 48.6826
  508 589.942 -4.53651 -2.88477
  509 572.084 -47.5948 15.6325
  510 370.858 -0.232558 -0.798213
  511 370.956 -0.229647 0.793086
  512 572.440 -22.1731 -39.8726
  513 558.216 41.4115 43.1792
  514 633.641 15.7194 -48.1766
  515 368.588 -0.460808 -2.37592
  516 368.697 -0.453705 2.36235
  517 1080.86 156.368 -138.773
  518 579.985 68.9239 37.8013
  519 590.392 -4.24116 2.54847
  520 537.234 -50.8377 10.0142
  521 456.603 -14.7364 11.2030
  522 456.587 -14.8400 -11.1803
  523 621.583 -38.0775 10.6708
  524 599.970 -12.1761 -50.5143
  525 671.560 131.534 26.1876
  526 561.531 9.76652 53.2343
  527 561.995 -11.2696 5.24247
  528 545.332 -58.5299 -75.5198
  529 568.763 -14.2690 39.7431
  530 1066.52 49.2160 -19.3556
  531 616.762 -46.6856 4.66827
  532 586.298 -4.43882 -0.574186
  533 586.442 -4.68370 0.464871
  534 1077.65 72.2450 67.4182
  535 548.359 -0.0748432 45.2875
  536 755.903 129.538 -4.23697
  537 572.307 -15.9400 -18.7944
  538 270.216 -2.37458 -18.0194
  539 270.964 -2.25861 17.8502
  540 392.500 -36.6065 -85.4256
  541 392.852 -35.9977 84.8297
  542 561.677 -10.8338 -5.21440
  543 612.543 22.4588 -55.7926
  544 538.879 -36.6369 3.63853
  545 582.405 66.7091 -39.1249
  546 582.500 -7.11154 19.5169
  547 722.809 38.4536 -16.0882
  548 501.702 -17.1157 -4.22660
  549 501.569 -17.0689 4.19156
  550 542.495 -25.7154 6.35422
  551 790.461 159.752 -20.5103
  552 573.721 25.1453 55.2319
  553 247.607 63.4076 158.291
  554 548.003 -32.7566 128.391
  555 715.527 39.3231 -142.538
  556 586.362 48.5041 -51.1954
  557 516.157 -44.9425 -111.608
  558 559.649 -61.5226 -25.8102
  559 582.997 -59.3291 -36.0827
  560 79.2536 105.283 -99.5062
  561 586.425 -7.89632 -11.4355
  562 875.481 169.713 -52.2304
  563 545.248 -24.7258 -7.47398
  564 549.346 -18.1583 6.20551
  565 548.850 -17.7665 -5.89157
  566 389.255 -1.99696 -5.30695
  567 389.348 -1.97138 5.27787
  568 60.1467 5.56541 -32.0935
  569 63.0047 5.84964 32.8001
  570 290.564 -13.1798 -62.0685
  571 292.644 -13.2569 62.0109
  572 556.987 -30.3674 -16.0437
  573 565.888 -61.7818 27.6521
  574 581.578 -55.4668 -1.42774
  575 482.295 -8.50046 -2.12752
  576 482.274 -8.44703 2.11810
  577 455.291 -47.9684 -95.4075
  578 506.639 -41.8646 117.819
  579 444.749 -45.1502 95.8756
  580 574.184 -12.8626 -50.7519
  581 368.962 -5.77540 18.9543
  582 368.784 -5.83297 -19.0911
  583 550.880 30.6848 -43.4480
  584 550.590 -0.978582 -19.8260
  585 683.852 147.110 -11.4204
  586 452.426 -6.64187 -1.97754
  587 452.447 -6.60263 1.96976
  588 583.031 -1.83351 -10.9315
  589 410.315 -13.3413 -21.3624
  590 410.344 -13.3021 21.1988
  591 332.190 14.6639 150.823
  592 567.473 -26.3431 -26.1087
  593 321.844 -17.3669 108.583
  594 557.711 -29.0795 16.4966
  595 585.104 -8.70340 12.7129
  596 577.081 -5.83892 -2.47191
  597 415.791 -4.84287 -5.05618
  598 415.853 -4.80589 5.03523
  599 656.488 130.209 -23.9254
  600 321.603 -16.7659 -108.943
  601 555.806 -24.3067 -12.9103
  602 503.990 -9.47984 -1.22481
  603 503.942 -9.41803 1.22039
  604 926.825 124.169 -22.4200
  605 343.937 -2.03415 10.3801
  606 343.657 -2.05322 -10.4656
  607 524.470 12.3129 37.4392
  608 732.940 63.8804 -0.366829
  609 353.365 1.74589 -149.553
  610 186.174 4.16207 -82.4909
  611 187.601 3.17563 82.0617
  612 445.027 -25.4174 26.8885
  613 449.388 -26.1679 -26.2301
  614 744.707 150.693 6.61575
  615 574.893 -6.03145 2.17410
  616 503.623 14.5834 -22.6996
  617 620.395 110.820 22.9489
  618 618.416 114.953 -15.2782
  619 508.124 -27.9692 -6.65572
  620 511.807 -27.3717 4.88572
  621 362.583 79.9173 -213.601
  622 440.979 -14.6434 -15.1887
  623 441.028 -14.4851 15.1480
  624 1076.81 220.937 166.573
  625 572.978 -18.9499 43.3126
  626 335.960 -11.4361 -39.7246
  627 868.623 213.872 148.144
  628 336.699 -11.3792 39.5975
  629 543.157 -20.4314 -149.110
  630 395.992 -1.71779 -1.95076
  631 396.075 -1.70322 1.94263
  632 487.170 4.61404 19.8259
  633 227.353 -3.22344 -35.5932
  634 228.475 -3.23268 35.3401
  635 501.782 -35.2152 13.3336
  636 524.921 -41.8654 -6.31413
  637 612.491 -1.54805 -4.16889
  638 360.077 -0.484390 3.15185
  639 359.934 -0.493644 -3.17910
  640 475.524 -10.6053 -3.50445
  641 475.515 -10.5535 3.48458
  642 539.204 -60.1111 76.1616
  643 621.977 69.3896 -50.6059
  644 419.911 -19.0309 -27.4748
  645 419.649 -18.7178 27.2960
  646 492.943 -35.0807 -17.3492
  647 768.608 166.393 8.37619
  648 578.289 -56.1642 4.49629
  649 505.776 -12.1997 -2.32999
  650 505.708 -12.1488 2.32750
  651 688.822 76.1024 34.7941
  652 580.237 -8.71329 -21.1958
  653 520.089 -0.509642 -18.3275
  654 245.369 -8.41565 -78.3357
  655 246.049 -8.63057 77.7468
  656 491.385 -42.0180 -26.5632
  657 732.098 159.546 -0.0529617
  658 572.832 77.4167 -17.0310
  659 387.007 -3.25172 -9.63252
  660 387.106 -3.20761 9.56711
  661 531.299 -15.2402 -0.765732
  662 531.399 -15.2473 0.866468
  663 970.280 126.254 55.8961
  664 619.870 -1.93612 1.02779
  665 602.402 -2.62585 7.33096
  666 600.398 -2.63206 -8.72237
  667 571.694 -53.3916 3.93074
  668 429.017 -4.74811 -2.52371
  669 429.067 -4.71738 2.51450
  670 614.111 97.9524 35.5441
  671 780.704 172.835 -14.4961
  672 434.660 -31.7100 -38.9130
  673 434.577 -31.4156 38.7425
  674 537.655 -55.3311 -15.2256
  675 569.987 33.9730 -52.0813
  676 668.199 2.15589 16.9156
  677 452.557 -8.19529 -5.25519
  678 452.580 -8.14852 5.23807
  679 391.438 -34.0502 -77.0961
  680 566.429 -54.9181 1.15305
  681 473.279 -52.4386 69.8934
  682 229.213 71.6832 -152.927
  683 444.122 -40.7355 53.9348
  684 536.068 0.158038 16.8273
  685 391.821 -33.6744 76.6206
  686 555.499 -24.7537 13.0692
  687 444.214 -40.5518 -54.3805
  688 462.042 6.32961 4.17875
  689 358.142 -9.19291 28.4048
  690 357.838 -9.19677 -28.5788
  691 473.441 -53.7918 -70.6427
  692 582.479 -38.5859 -31.5231
  693 535.175 -7.90733 -0.255607
  694 535.260 -7.97996 0.257307
  695 594.687 -38.1464 30.7881
  696 541.566 -56.5806 17.4744
  697 656.222 60.3857 47.1690
  698 593.693 -11.3051 52.4588
  699 571.338 -20.7726 31.2753
  700 550.621 45.4650 -32.9606
  701 656.573 110.067 37.5299
  702 567.933 -7.98664 -31.2219
  703 564.215 -19.0320 15.0087
  704 587.649 91.6315 9.17143
  705 574.743 -9.98853 26.7939
  706 183.934 125.954 160.714
  707 534.244 -61.5668 -45.6308
  708 618.418 11.1499 52.8737
  709 622.948 -19.3761 -35.6210
  710 617.693 -1.07824 2.19650
  711 570.524 -19.9182 -24.1665
  712 535.121 -62.0421 41.8062
  713 1013.51 89.9269 -14.9486
  714 330.513 -1.28511 10.8472
  715 330.148 -1.29848 -10.9374
  716 577.239 -10.9352 -10.7095
  717 621.103 -0.843897 -2.17273
  718 490.577 -42.7097 26.6933
  719 586.070 -22.0100 47.2762
  720 875.140 215.434 -75.2246
  721 555.556 -40.3423 12.5312
  722 613.295 -40.5893 -15.5480
  723 564.397 -18.5449 -14.7579
  724 620.263 -1.35070 -0.597164
  725 573.879 -0.106922 55.6383
  726 27.6254 29.9955 36.6881
  727 638.153 -23.4453 -99.9146
  728 696.943 42.5028 18.6636
  729 582.589 -59.7520 32.8027
  730 424.380 -9.80178 12.3726
  731 424.366 -9.93181 -12.4215
  732 530.215 286.865 -287.923
  733 594.868 -39.5821 -28.0628
  734 460.358 2.77719 -7.99649
  735 529.364 3.10499 36.3228
  736 575.174 -28.9925 37.4432
  737 551.290 -46.4594 4.09477
  738 569.853 -52.2470 -81.8980
  739 548.118 -43.3684 -5.28491
  740 642.833 -30.6936 -0.745959
  741 592.724 -5.30980 6.14696
  742 532.987 -31.9773 1.69501
  743 951.366 190.041 -102.960
  744 566.559 -15.5456 11.7048
  745 564.307 9.35130 -54.6088
  746 477.617 -5.04713 167.091
  747 602.868 48.4603 55.1100
  748 518.869 -40.6513 8.86523
  749 405.069 -31.3884 -56.5769
  750 405.139 -31.3148 56.1611
  751 555.085 62.4938 -7.64274
  752 561.911 -6.55978 48.3587
  753 567.027 -13.6154 -40.7361
  754 533.570 -32.6521 -1.83565
  755 516.379 -46.0441 16.6883
  756 591.983 97.1918 -10.2499
  757 550.635 -47.6671 -1.93434
  758 552.120 -35.0364 12.4092
  759 558.078 -7.65957 1.67598
  760 558.387 -7.47169 -1.65607
  761 750.002 163.352 0.514116
  762 611.542 -52.2014 -23.9532
  763 572.207 -17.8226 24.1521
  764 592.785 -5.30994 -5.52963
  765 602.575 3.92419 -55.3039
  766 681.645 36.7185 -28.2752
  767 348.134 -0.233281 -5.12761
  768 348.355 -0.228903 5.08311
  769 5.44179 -9.01386 -6.20376
  770 584.372 -0.819154 10.0934
  771 540.281 -0.698786 -39.9769
  772 556.264 -5.23011 34.8501
  773 499.469 65.3928 242.658
  774 632.529 128.939 -1.23670
  775 452.502 -31.8222 30.9411
  776 86.1023 1.66674 -31.3150
  777 88.2310 1.20519 31.6350
  778 551.818 -3.89599 -39.4914
  779 453.616 -32.1219 -30.9515
  780 589.376 -5.81895 4.50955
  781 311.584 -12.9330 52.8975
  782 309.061 -12.8816 -52.8839
  783 566.494 -15.1119 -11.3861
  784 371.398 -8.92068 -24.8038
  785 371.580 -8.86733 24.6107
  786 589.129 -5.92507 -14.4547
  787 456.555 -11.8951 -8.98102
  788 456.581 -11.8254 8.98585
  789 642.323 -3.94822 -35.2708
  790 581.712 -6.16244 -55.4545
  791 306.609 -1.82367 -13.7349
  792 307.146 -1.80644 13.5902
  793 19.1855 7.50254 -19.7088
  794 21.6720 7.92884 20.6868
  795 480.368 2.42567 -14.3793
  796 530.414 -59.5807 -34.8977
  797 -5.87368 -3.98221 10.3574
  798 -5.22926 -4.85595 -10.4048
  799 551.505 -11.4659 3.75903
  800 596.706 -46.8062 -13.5168
  801 619.750 91.5347 -41.3211
  802 591.677 -5.26634 -4.30404
  803 1227.08 252.181 -230.293
  804 551.387 -11.4372 -3.70394
  805 824.325 155.757 14.3032
  806 591.806 17.2202 -57.9952
  807 650.727 49.3595 -48.5616
  808 118.459 -1.36338 -28.6759
  809 120.332 -1.52235 28.6315
  810 378.052 -5.13550 14.8509
  811 377.914 -5.17547 -14.9647
  812 363.645 -0.734438 2.81082
  813 363.524 -0.742489 -2.82970
  814 659.710 110.839 -37.0180
  815 399.505 -2.25093 -4.23594
  816 399.586 -2.22596 4.21675
  817 563.587 -5.66343 -50.5424
  818 795.633 88.0526 78.1662
  819 512.244 11.8193 -31.5444
  820 184.857 -1.58073 30.4359
  821 183.495 -1.59594 -30.6536
  822 642.868 20.5173 175.995
  823 576.753 -11.0227 11.0513
  824 523.805 35.1155 -13.1228
  825 249.966 -0.309099 20.5725
  826 248.836 -0.197623 -20.7082
  827 370.018 -1.68794 -7.33735
  828 370.157 -1.66371 7.27992
  829 67.5024 59.5711 53.5427
  830 543.864 13.1929 46.5470
  831 602.799 88.2603 -35.7890
  832 645.326 75.0210 -48.9574
  833 430.747 -15.7779 -19.5750
  834 430.528 -15.6733 19.5629
  835 669.780 141.336 16.4061
  836 574.659 -5.33078 -0.485981
  837 574.705 -5.29262 0.576905
  838 571.587 -17.4096 -31.7852
  839 481.932 -31.6940 19.1517
  840 527.362 -59.2261 34.9533
  841 614.796 -50.3446 53.8522
  842 478.437 -13.7007 -5.92406
  843 478.442 -13.6587 5.89409
  844 547.807 50.9455 21.2332
  845 516.513 7.34950 -33.9940
  846 143.069 178.845 167.097
  847 517.914 -45.6555 -15.4450
  848 519.913 -23.1995 -1.34026
  849 520.184 -23.2626 1.30526
  850 571.786 -8.50660 52.8485
  851 565.294 -37.3004 -21.7902
  852 507.126 -33.2951 -9.41914
  853 1116.99 36.1376 -54.1498
  854 482.701 -45.2598 35.5579
  855 482.283 -45.8266 -36.0825
  856 570.619 -6.96217 26.4931
  857 847.917 221.239 -56.5626
  858 454.253 -40.7409 -43.3397
  859 499.147 -55.9801 42.2040
  860 454.184 -40.2692 42.9906
  861 491.529 -19.5796 -7.10231
  862 491.531 -19.5257 7.06320
  863 76.6262 31.3315 46.3481
  864 612.864 45.7912 -55.3495
  865 472.897 -18.1474 -10.1534
  866 472.992 -17.9759 10.1848
  867 467.746 -7.63325 -1.25008
  868 467.746 -7.58687 1.24357
  869 511.109 -10.3407 -0.909216
  870 511.052 -10.2812 0.903610
  871 421.395 -7.88007 -10.6407
  872 421.439 -7.79680 10.6047
  873 474.366 -24.5261 -14.8690
  874 474.436 -24.3768 14.9354
  875 12.3376 -0.704066 -7.87426
  876 706.833 132.798 24.8528
  877 608.740 -21.5364 -42.4962
  878 498.671 -55.1563 -42.5933
  879 537.641 -17.5319 2.80431
  880 537.417 -17.3668 -2.67293
  881 586.630 0.641294 56.6939
  882 631.594 -44.9797 -32.7211
  883 556.477 42.6545 -211.345
  884 262.249 -4.78710 105.881
  885 -6.49137 6.11138 -8.32448
  886 -5.32431 6.91435 9.07026
  887 76.2553 33.3117 -47.3683
  888 571.580 -16.7819 18.6211
  889 598.659 -4.31317 -7.74130
  890 539.481 -52.2059 93.0053
  891 261.657 -4.55335 -106.266
  892 601.146 -49.5095 7.66648
  893 663.859 -18.1144 83.2512
  894 496.352 2.08886 15.2127
  895 563.375 53.6485 35.9658
  896 309.786 -17.2652 77.3553
  897 308.640 -17.4019 -77.8191
  898 370.898 -17.1136 -43.5183
  899 383.873 -19.3957 -134.384
  900 603.115 -14.3050 48.7600
  901 820.199 195.973 38.6407
  902 606.653 23.2408 56.4467
  903 573.293 -12.4780 -29.1776
  904 391.628 -17.3710 137.683
  905 726.738 134.821 -15.7816
  906 76.0054 63.7373 -65.5263
  907 534.683 -0.991149 -16.0511
  908 371.277 -16.9803 43.1715
  909 449.166 -9.62834 7.83855
  910 449.141 -9.68716 -7.85142
  911 566.076 -37.0960 22.6204
  912 584.515 -4.27169 1.57020
  913 432.325 3.65398 -166.299
  914 614.733 -1.55557 3.64361
  915 610.980 -1.30391 -4.77281
  916 470.373 4.26823 -13.2779
  917 593.184 -2.50423 -8.88922
  918 449.993 -20.5500 -18.4952
  919 450.289 -20.2575 18.5579
  920 -13.6197 5.76800 -7.67736
  921 -19.3329 3.48369 8.34532
  922 584.476 -4.00022 -1.63122
  923 202.299 -4.72092 71.5735
  924 201.213 -4.32182 -71.9477
  925 629.265 91.4717 43.3502
  926 1091.84 19.8436 16.5510
  927 593.799 65.8908 46.6119
  928 663.458 -22.6210 28.3647
  929 581.808 -32.6031 37.4065
  930 722.743 151.076 -12.1224
  931 461.252 2.22245 10.0231
  932 559.254 -13.5708 -6.51872
  933 584.051 31.4550 -56.5109
  934 696.759 22.0297 -3.86652
  935 546.375 -33.7933 -9.08392
  936 290.301 -1.48857 -15.3195
  937 290.547 -1.43501 15.1176
  938 575.437 -13.8553 -22.2612
  939 21.0109 26.0327 7.44849
  940 552.571 -57.3274 -10.1579
  941 488.290 14.9243 -1.36625
  942 718.732 156.841 -8.01372
  943 117.727 87.2567 -106.315
  944 556.274 -4.16273 -31.2252
  945 392.771 -6.18538 -13.9857
  946 392.857 -6.11615 13.8845
  947 3.91691 -15.1123 11.2785
  948 382.202 -27.9473 -62.4286
  949 563.236 -32.7350 -21.2994
  950 362.899 0.790153 -1.18739
  951 363.003 0.793152 1.18090
  952 572.931 69.4674 -28.6569
  953 604.514 -2.23728 -0.727559
  954 604.556 -2.25734 0.977724
  955 382.396 -27.8825 62.0478
  956 571.495 -0.914817 -12.2102
  957 652.522 4.87524 33.4997
  958 579.715 -8.63753 8.38881
  959 98.3681 23.7143 -57.5199
  960 599.702 -4.01944 6.96760
  961 551.203 4.61832 49.6082
  962 581.138 80.2604 25.4687
  963 579.329 6.73428 -57.6403
  964 404.701 -21.1079 -37.7471
  965 621.143 -22.2313 34.1731
  966 404.970 -21.0381 37.4047
  967 20.2487 21.4025 -4.04973
  968 73.7103 11.7510 42.2576
  969 334.749 -5.60111 25.5400
  970 334.370 -5.60012 -25.6637
  971 559.654 -13.8029 6.94237
  972 605.857 104.756 13.8935
  973 309.947 27.6812 -158.204
  974 506.266 -31.3535 8.45902
  975 475.408 -49.4112 -52.1982
  976 688.666 131.558 27.3252
  977 531.244 -9.67787 -0.0438399
  978 531.219 -9.63165 0.0380102
  979 579.770 -11.1165 -15.6461
  980 542.986 47.1197 -19.5752
  981 1174.03 357.049 239.769
  982 119.126 6.14775 -54.5708
  983 120.759 5.09480 54.6689
  984 8.88626 -7.46940 4.77009
  985 544.102 30.4225 40.1835
  986 475.352 -49.7254 51.8469
  987 585.923 -27.8687 -43.1866
  988 636.937 52.0399 53.6294
  989 608.213 -49.1191 -64.7989
  990 884.887 185.781 64.6864
  991 522.155 -8.71411 -0.514061
  992 522.089 -8.65019 0.513483
  993 608.083 -25.0337 40.0224
  994 43.3187 79.3867 77.5893
  995 284.361 -5.69772 36.4353
  996 283.555 -5.62328 -36.7830
  997 335.890 -15.9387 50.0440
  998 334.795 -15.6825 -50.2024
  999 376.966 -15.0381 36.2416
  1000 412.121 -3.01258 -1.87663
  1001 412.190 -2.99172 1.87017
  1002 978.317 323.742 -209.616
  1003 900.136 226.183 97.5171
  1004 376.667 -15.1062 -36.5115
  1005 626.047 -3.00813 44.3776
  1006 565.958 58.7588 -34.5414
  1007 400.056 -34.7178 111.585
  1008 510.111 -60.3453 -62.1057
  1009 582.309 -4.98439 -17.6047
  1010 267.591 17.5020 129.391
  1011 343.051 -26.1119 89.0911
  1012 521.880 27.1223 -25.2893
  1013 589.553 -11.8177 -53.2043
  1014 724.256 319.219 325.960
  1015 495.223 15.5369 18.1113
  1016 663.859 141.644 -2.01316
  1017 483.619 19.7280 -188.535
  1018 496.767 -51.9593 -36.6903
  1019 621.301 -0.932246 -1.75060
  1020 604.314 55.4603 -53.6352
  1021 364.162 -2.12969 9.34059
  1022 363.991 -2.15084 -9.41632
  1023 13.8627 12.4073 -21.8621
  1024 405.367 -17.9476 -31.5615
  1025 342.620 -26.4426 -89.7063
  1026 405.100 -17.9176 31.2533
  1027 576.828 -17.7113 49.2390
  1028 518.454 -31.8823 -4.04955
  1029 547.095 10.2473 -48.1692
  1030 563.267 70.2923 10.0919
  1031 746.852 48.8336 35.6982
  1032 570.194 -43.4667 21.0009
  1033 367.062 -28.8971 -68.3014
  1034 543.045 19.4738 -45.2420
  1035 403.276 -34.2834 -112.099
  1036 765.950 164.591 -4.48786
  1037 529.423 35.0698 23.0072
  1038 656.882 -3.51492 -24.0215
  1039 499.809 -52.0049 34.1177
  1040 571.262 -18.3147 37.6851
  1041 566.887 -30.1087 25.7539
  1042 563.760 -28.5416 22.0008
  1043 692.965 88.7670 -36.0523
  1044 564.862 -9.22294 38.9842
  1045 509.412 -60.5117 61.1386
  1046 543.680 -22.4007 5.78336
  1047 367.298 -28.9623 67.9703
  1048 512.049 -37.4288 -10.1071
  1049 302.772 -14.8769 -95.2424
  1050 426.841 -44.1048 76.1571
  1051 574.210 -4.07798 -20.6380
  1052 560.959 -6.37015 -44.6323
  1053 486.830 -38.0731 -23.1297
  1054 303.273 -15.2736 94.5603
  1055 526.798 1.43104 -31.5594
  1056 394.184 -25.5604 -48.6296
  1057 701.474 148.273 16.6164
  1058 162.357 25.7788 -92.0813
  1059 1161.86 81.9190 109.936
  1060 285.836 20.3510 -135.182
  1061 563.380 -46.7684 -11.1570
  1062 394.310 -25.3552 48.2730
  1063 521.772 5.79522 35.4456
  1064 299.404 -5.79601 30.1854
  1065 299.280 -5.93673 -30.4675
  1066 571.743 -16.0297 -45.7597
  1067 602.169 -3.46568 2.59266
  1068 593.624 -1.49734 8.94092
  1069 589.947 19.5125 57.9687
  1070 553.792 -4.15771 42.1030
  1071 425.850 46.1202 203.613
  1072 624.866 -0.652559 0.779842
  1073 595.510 80.4326 37.0606
  1074 509.028 7.67459 30.6488
  1075 600.120 -2.46183 8.51424
  1076 396.688 -3.93631 -7.92186
  1077 396.769 -3.89288 7.87910
  1078 255.810 -7.01281 -50.4527
  1079 256.716 -7.26767 50.1516
  1080 510.731 25.8748 12.8996
  1081 748.104 43.7485 -63.0369
  1082 687.701 1.71976 -110.960
  1083 559.136 -0.558083 -12.7623
  1084 426.935 -44.4253 -76.7007
  1085 487.863 -36.2180 20.9520
  1086 562.086 -1.33962 13.3035
  1087 585.030 -42.6704 -25.1712
  1088 376.632 -0.699741 4.64876
  1089 376.527 -0.713275 -4.67324
  1090 562.330 -48.1064 11.1393
  1091 535.284 -11.2550 0.469421
  1092 535.193 -11.2692 -0.440981
  1093 521.321 -52.3113 23.1154
  1094 664.734 -21.0001 -13.8868
  1095 314.891 -0.506459 -8.57165
  1096 315.359 -0.488778 8.49084
  1097 457.129 -29.4034 -128.468
  1098 489.331 -11.6306 3.49923
  1099 489.368 -11.6862 -3.52225
  1100 293.898 161.722 223.828
  1101 670.716 55.5484 -41.9486
  1102 103.636 49.2436 -71.1477
  1103 579.952 -9.08486 -8.08776
  1104 160.414 53.6693 -105.732
  1105 330.982 -20.3929 -64.6665
  1106 624.615 -0.909873 0.550030
  1107 624.807 -0.867554 -0.392568
  1108 572.599 -32.8788 -31.7171
  1109 506.779 -57.1415 -84.0800
  1110 162.505 21.9490 87.7406
  1111 623.538 61.6327 51.5479
  1112 563.750 -6.20567 -0.617907
  1113 563.824 -6.20719 0.666263
  1114 611.862 -38.7763 102.386
  1115 639.994 127.180 19.5232
  1116 387.396 -8.89358 -19.8705
  1117 387.502 -8.85681 19.7493
  1118 291.142 32.6053 159.830
  1119 545.655 2.92018 -46.5331
  1120 174.547 55.1798 113.339
  1121 688.167 -10.5967 -39.4147
  1122 684.334 149.682 5.55497
  1123 473.481 -36.9581 27.4215
  1124 445.527 2.61663 -1.95719
  1125 594.149 -5.53331 10.6048
  1126 613.387 -0.969583 4.10529
  1127 144.871 0.195402 -25.5554
  1128 146.581 0.133291 25.3964
  1129 494.472 8.62839 -22.7686
  1130 503.760 -14.7889 -3.23577
  1131 503.659 -14.7311 3.22208
  1132 54.1982 94.8620 -82.7774
  1133 84.7042 197.708 -160.682
  1134 509.790 -19.8495 3.32282
  1135 509.965 -19.8348 -3.35749
  1136 525.705 -12.8584 0.321360
  1137 525.633 -12.8389 -0.284471
  1138 141.365 89.8213 114.672
  1139 421.599 -4.93180 -3.92352
  1140 421.657 -4.89916 3.90845
  1141 526.944 40.1365 -0.515017
  1142 651.658 89.5929 -234.205
  1143 636.625 109.306 -33.5241
  1144 579.871 -22.4168 -46.1657
  1145 570.965 -28.6786 -32.5206
  1146 473.687 -37.2884 -27.8521
  1147 482.433 1.71576 14.0526
  1148 537.725 33.8000 -33.6275
  1149 530.724 28.8348 32.1939
  1150 543.340 -21.7703 -5.65428
  1151 519.724 -31.2600 3.64297
  1152 474.668 -30.1981 -20.9427
  1153 562.913 -3.38850 24.7467
  1154 973.193 97.9439 13.5298
  1155 566.318 -12.1685 45.0118
  1156 569.765 37.4510 50.0674
  1157 523.704 -51.3353 -18.2632
  1158 70.2026 10.7687 -40.8168
  1159 533.507 -24.7456 -3.17002
  1160 365.396 -0.453428 -0.258547
  1161 365.494 -0.451302 0.256470
  1162 645.279 -17.0962 19.7689
  1163 614.683 -51.8666 27.7452
  1164 878.899 156.396 39.9617
  1165 222.585 -0.358895 -21.1132
  1166 223.760 -0.312840 20.9706
  1167 479.508 -9.63259 -2.68742
  1168 479.492 -9.57946 2.67196
  1169 534.951 -47.0739 -5.14894
  1170 449.229 2.20391 6.42452
  1171 547.529 -39.0025 8.20108
  1172 32.9442 39.1090 -21.0058
  1173 102.434 49.9796 69.4989
  1174 369.407 -20.5655 124.065
  1175 634.729 120.152 -23.9834
  1176 602.162 -1.78506 -6.74165
  1177 627.094 -1.12282 0.319483
  1178 627.623 -1.48151 -0.174420
  1179 378.717 -0.727681 -0.800346
  1180 378.811 -0.721509 0.795580
  1181 585.228 37.3871 56.5154
  1182 854.841 144.714 -3.10512
  1183 603.701 99.3436 -24.9327
  1184 450.111 -33.5254 127.667
  1185 367.465 -19.8336 -123.811
  1186 410.504 -26.8865 -43.8242
  1187 560.105 -15.9931 9.11983
  1188 777.373 172.391 13.2087
  1189 410.564 -26.7394 43.5153
  1190 571.361 -10.4261 6.89654
  1191 517.755 19.5727 30.7834
  1192 566.478 17.6451 54.5532
  1193 798.004 177.839 23.9187
  1194 480.325 -12.4064 4.95190
  1195 480.341 -12.4579 -4.97953
  1196 579.137 -11.2614 16.2772
  1197 353.810 -3.53802 14.5456
  1198 353.571 -3.57241 -14.6615
  1199 566.136 -8.16361 -2.78040
  1200 235.508 141.592 -217.374
  1201 490.427 -27.8678 -136.784
  1202 467.868 -14.3974 -8.61699
  1203 467.923 -14.3404 8.62074
  1204 604.306 -3.22176 2.42349
  1205 574.405 -7.99103 5.47938
  1206 33.1865 43.1191 32.5172
  1207 621.405 -0.843410 2.06683
  1208 76.9266 99.7298 98.8743
  1209 561.726 -8.83900 -3.64029
  1210 -0.456906 -13.4378 -11.8308
  1211 401.305 -39.2278 -96.2415
  1212 400.286 -38.2913 95.3241
  1213 621.374 -1.22590 -2.31317
  1214 536.764 -28.3487 -4.02071
  1215 603.988 -2.98100 -2.41856
  1216 490.165 -15.7341 -5.17937
  1217 490.128 -15.6864 5.13642
  1218 565.788 -8.11396 2.58437
  1219 533.134 -24.2517 3.13757
  1220 513.940 -16.5883 1.68322
  1221 514.106 -16.6229 -1.62930
  1222 603.375 -3.06823 -1.95479
  1223 523.499 -55.4075 -94.5342
  1224 591.275 -4.12828 -1.92781
  1225 563.998 -9.06657 3.99427
  1226 402.716 -4.10992 -5.95441
  1227 402.792 -4.07132 5.92567
  1228 446.331 -6.36372 -3.23240
  1229 446.362 -6.32437 3.21943
  1230 710.483 111.488 29.0495
  1231 597.980 -46.2156 17.1405
  1232 412.206 -2.24428 157.289
  1233 340.431 -0.471513 5.59262
  1234 340.158 -0.477052 -5.64163
  1235 569.233 -10.6617 33.5704
  1236 543.782 -8.62009 0.433682
  1237 543.798 -8.59479 -0.433555
  1238 625.113 120.834 11.2939
  1239 567.710 -59.6352 76.1582
  1240 339.651 -4.53468 20.2609
  1241 339.337 -4.56614 -20.3920
  1242 543.225 -13.5461 2.64655
  1243 543.103 -13.6440 -2.53483
  1244 559.791 -15.8157 -8.74192
  1245 520.933 0.150165 16.3129
  1246 880.695 219.285 -76.9834
  1247 570.777 -21.1237 -28.8251
  1248 102.661 23.4395 59.0297
  1249 589.123 -31.6095 39.7612
  1250 482.209 10.9299 -12.4730
  1251 39.1839 27.3507 22.7137
  1252 767.948 88.8749 -15.3783
  1253 576.044 -26.3627 -40.8026
  1254 484.339 7.20707 19.1286
  1255 333.206 -20.4361 64.5998
  1256 584.045 -45.4111 21.9710
  1257 837.475 166.638 60.6739
  1258 201.309 28.8555 111.192
  1259 586.201 -7.34947 -14.0812
  1260 1100.14 12.4894 -10.8647
  1261 1134.66 16.8889 48.0763
  1262 1208.37 40.2835 -114.851
  1263 570.594 -18.0145 -36.5877
  1264 570.052 -26.2296 30.3807
  1265 578.616 -41.3778 27.2332
  1266 -16.8853 2.14577 10.5508
  1267 -15.3014 1.77714 -11.5610
  1268 562.279 -62.3563 -37.7558
  1269 575.060 -58.3763 -54.7688
  1270 452.176 3.04764 -7.91580
  1271 559.716 -63.4237 54.4081
  1272 598.900 -28.5901 -40.1985
  1273 13.5830 18.6775 3.73320
  1274 490.686 -8.99753 1.66198
  1275 490.717 -9.05485 -1.66631
  1276 593.531 -5.13356 9.42737
  1277 571.283 -10.2521 -6.43260
  1278 539.448 -58.8652 -21.5393
  1279 495.369 -26.5326 10.0576
  1280 492.978 -26.1462 -10.6976
  1281 577.724 -12.5096 22.9306
  1282 592.300 -21.9284 -47.2345
  1283 40.6154 28.5143 -22.2309
</Section>

newXOutput 33

<Section columns = "stress_xx | stress_yy | stress_xy">
  1 649.007 -0.310678 1.16579
  2 648.999 -0.296426 -1.16826
  3 371.802 -0.0670470 -0.419317
  4 -4.63182 -4.56275 -6.66394
  5 1131.40 474.404 370.306
  6 1121.24 490.570 -367.185
  7 -5.38596 -4.31841 7.11481
  8 371.702 -0.0682219 0.418384
  9 653.175 -1.16556 0.325633
  10 652.014 -1.80946 -0.391860
  11 650.890 -1.28235 1.27010
  12 649.728 -1.69911 0.229584
  13 647.186 -1.45787 1.99520
  14 644.842 -1.45852 1.37833
  15 639.023 -1.28195 2.90321
  16 630.398 -1.00202 4.30915
  17 622.781 -1.00526 4.86861
  18 611.213 -1.29560 5.96260
  19 594.850 -0.200094 8.91647
  20 579.744 -0.949533 8.56297
  21 562.154 -1.16904 12.1791
  22 536.790 0.813889 10.6824
  23 518.131 1.32260 12.7038
  24 493.754 2.17179 10.0082
  25 476.758 2.41858 10.1229
  26 452.154 3.25875 5.18094
  27 446.907 5.10962 5.57959
  28 443.721 4.26267 -1.65797
  29 448.004 2.59659 -3.60060
  30 455.922 2.43211 -4.42714
  31 474.371 2.99864 -8.81275
  32 492.299 2.37267 -11.0825
  33 518.337 0.621665 -13.1001
  34 539.121 -0.228760 -11.8260
  35 561.056 -0.921529 -11.5221
  36 580.801 -0.750484 -8.07716
  37 597.555 -0.817381 -6.83937
  38 611.205 -1.27672 -5.67465
  39 623.285 -0.953455 -3.86294
  40 630.639 -1.17362 -4.05748
  41 637.756 -1.37170 -2.94623
  42 644.331 -1.59905 -1.18042
  43 647.649 -1.30809 -1.46547
  44 649.219 -0.874549 -0.868460
  45 647.553 -0.590710 -0.796532
  46 652.585 -1.80056 0.288881
  47 653.333 -1.20419 -0.335149
  48 633.899 -0.833890 -0.723049
  49 620.948 -3.09530 -1.37698
  50 604.951 -4.44096 -0.790817
  51 585.328 -6.34126 -1.11315
  52 566.574 -6.85886 -1.32814
  53 546.448 -8.33009 -1.28301
  54 528.535 -9.11606 -0.629492
  55 512.816 -9.99317 -0.130864
  56 494.640 -8.23648 -0.104892
  57 473.680 -7.59143 -0.327236
  58 453.510 -5.89318 0.0167137
  59 434.435 -3.65732 0.0719487
  60 416.352 -2.53428 0.133032
  61 400.564 -1.20607 0.249312
  62 384.519 -0.251943 -0.470760
  63 371.929 0.538078 0.709238
  64 366.183 1.36565 0.517770
  65 369.759 0.0539757 1.15345
  66 365.109 -0.129769 1.40962
  67 360.648 -0.218738 1.75139
  68 354.677 0.0231923 2.24271
  69 347.164 0.0179571 2.79667
  70 341.338 -0.347899 5.26949
  71 325.730 0.471448 5.73029
  72 314.568 0.00265126 6.49309
  73 297.957 -0.242053 7.38503
  74 278.901 -0.431351 8.96844
  75 255.045 -0.0700482 10.8927
  76 225.971 0.157216 12.0560
  77 200.456 -0.194224 17.2570
  78 150.751 1.55742 16.3869
  79 116.396 1.33929 17.3728
  80 74.7747 -0.374728 19.4169
  81 39.7529 3.06682 20.3923
  82 -0.352638 4.68610 12.6386
  83 -30.0787 4.78541 4.95869
  84 -30.5914 4.72943 -0.955968
  85 -30.4682 3.98076 -8.95140
  86 -18.0620 -1.09121 -8.70142
  87 -2.08432 -17.3361 -9.65271
  88 1.91905 -31.6425 -11.8332
  89 5.02024 -48.6873 -5.86800
  90 10.9610 -47.2696 2.13827
  91 22.9081 -2.79724 32.1725
  92 66.8104 117.251 103.600
  93 376.246 378.927 333.962
  94 1374.62 207.954 226.947
  95 1244.80 29.5803 73.1311
  96 1162.63 12.4598 22.3809
  97 1132.39 10.6838 1.66637
  98 1148.77 14.0859 -19.5346
  99 1242.78 27.7929 -57.9685
  100 1449.86 100.302 -193.680
  101 225.079 391.065 -280.967
  102 49.9608 90.1906 -86.7735
  103 25.1067 -0.276451 -34.6743
  104 10.2982 -46.7588 -7.29510
  105 3.13127 -36.6040 6.64289
  106 3.77495 -39.9964 10.1810
  107 0.253869 -14.8925 10.7044
  108 -18.8794 -0.627039 8.21275
  109 -31.4256 2.98988 7.76485
  110 -32.2535 5.73316 1.11801
  111 -31.0100 4.69370 -4.65850
  112 -2.57479 4.80193 -11.8878
  113 37.8308 3.09242 -19.4701
  114 72.8205 -0.0419266 -19.1008
  115 114.368 1.44647 -17.4028
  116 148.909 1.59618 -16.5022
  117 199.030 -0.201330 -17.3900
  118 224.754 0.172426 -12.1634
  119 253.979 -0.0668364 -11.0203
  120 278.363 -0.482148 -9.02678
  121 297.214 -0.226827 -7.39964
  122 314.000 0.0224475 -6.55443
  123 325.261 0.466345 -5.78670
  124 340.995 -0.351682 -5.31719
  125 346.885 0.0154947 -2.82574
  126 354.459 0.0208139 -2.26652
  127 360.476 -0.222708 -1.77016
  128 364.971 -0.133176 -1.42266
  129 369.640 0.0511260 -1.16169
  130 366.074 1.36443 -0.521535
  131 371.826 0.537428 -0.711630
  132 384.420 -0.255125 0.469653
  133 400.472 -1.21409 -0.252155
  134 416.272 -2.55175 -0.136329
  135 434.373 -3.68154 -0.0750982
  136 453.471 -5.92817 -0.0198963
  137 473.667 -7.63599 0.324677
  138 494.656 -8.28839 0.102091
  139 512.856 -10.0521 0.129452
  140 528.592 -9.17513 0.631335
  141 546.533 -8.38385 1.28910
  142 566.651 -6.89547 1.35004
  143 585.391 -6.37406 1.21999
  144 605.064 -4.22628 0.807907
  145 621.371 -3.02448 1.34592
  146 634.023 -0.933082 0.711306
  147 573.050 -53.8905 0.696350
  148 572.536 -53.1557 -0.496988
  149 605.338 86.7116 -27.2554
  150 640.967 37.7278 56.4605
  151 486.063 -47.1653 -110.026
  152 490.091 -47.0683 106.634
  153 476.909 -19.8115 14.4443
  154 476.934 -20.0742 -14.4485
  155 676.745 24.7225 -40.5669
  156 571.576 -20.8481 9.78606
  157 571.327 -20.3662 -9.67215
  158 738.482 163.193 5.36254
  159 587.440 -0.913357 -56.3680
  160 438.441 -33.8801 -49.6921
  161 438.488 -33.6123 49.2968
  162 587.801 -13.4246 50.3596
  163 562.328 41.2618 34.1839
  164 235.124 36.6737 -131.532
  165 259.751 34.8332 138.442
  166 711.022 9.22092 -1.74904
  167 588.104 -22.7859 -33.9431
  168 774.892 170.119 2.69516
  169 531.350 -15.0978 -1.49644
  170 531.246 -15.0612 1.53541
  171 592.330 -7.69939 -4.17795
  172 594.019 -6.98157 3.57579
  173 424.552 -5.73853 -8.19192
  174 424.615 -5.68214 8.15732
  175 631.306 -15.2621 140.049
  176 545.376 22.9616 -36.8919
  177 359.044 -26.5912 -78.5482
  178 360.088 -26.4028 78.0879
  179 404.469 -12.7362 -26.0224
  180 404.518 -12.5968 25.8546
  181 590.709 -15.7892 28.8967
  182 538.342 -36.7794 -4.48094
  183 536.556 -36.5064 5.26753
  184 607.908 -59.0987 -15.5690
  185 611.212 -56.3052 8.09709
  186 836.555 197.531 -35.0886
  187 616.840 98.5608 25.3875
  188 615.963 37.8392 -57.6519
  189 628.362 -3.49198 -161.733
  190 609.019 -34.6227 -38.1150
  191 614.370 -24.7999 45.7507
  192 513.916 -58.2506 55.5848
  193 513.954 -57.8203 -55.4395
  194 553.573 7.24383 44.1234
  195 257.805 -6.65404 -96.4698
  196 258.382 -7.15928 95.9279
  197 938.150 139.692 20.6519
  198 577.544 -34.5565 19.5061
  199 597.843 -11.3550 -18.4281
  200 479.932 -11.5106 -6.84261
  201 479.950 -11.4598 6.82554
  202 577.395 -7.56706 -39.0232
  203 655.573 96.0428 -45.1244
  204 553.919 49.9974 -6.82826
  205 365.639 -12.4419 36.1437
  206 365.112 -12.4746 -36.3819
  207 605.317 -7.17864 9.66995
  208 594.183 11.2026 58.0789
  209 485.169 -34.7944 -25.3670
  210 482.152 -32.9304 25.8107
  211 696.386 103.462 39.3773
  212 810.110 115.777 28.0117
  213 59.2100 45.0639 -39.4913
  214 54.8745 41.6524 33.7191
  215 338.725 98.2913 228.317
  216 571.887 -38.0920 -13.9981
  217 607.243 -6.88632 -8.71763
  218 547.781 5.04118 -40.6685
  219 390.726 -3.58510 -11.6011
  220 390.855 -3.54594 11.5136
  221 517.221 -24.0706 -6.94502
  222 517.466 -24.2326 6.65957
  223 581.821 -7.93716 33.0300
  224 662.664 -38.1448 21.2793
  225 665.367 134.869 -12.8207
  226 521.837 -50.0956 -27.8914
  227 655.000 -11.4462 33.2959
  228 560.442 -9.81823 1.08859
  229 560.440 -9.74526 -1.08774
  230 518.242 -49.8649 28.7799
  231 591.349 -37.7271 30.5602
  232 818.404 111.781 -61.8492
  233 188.114 111.857 -168.158
  234 509.841 18.3355 8.90334
  235 597.324 52.6410 49.0882
  236 632.117 -4.52780 -49.6915
  237 592.175 -21.4740 -46.5746
  238 324.774 -10.0590 -44.9651
  239 325.822 -9.91296 44.8520
  240 592.736 -7.38997 -25.1678
  241 564.478 -14.6275 4.63627
  242 564.218 -14.6178 -4.43497
  243 125.302 10.7980 -62.7888
  244 127.077 9.45556 62.5560
  245 624.693 -54.8313 -53.7588
  246 617.385 -2.69950 1.12970
  247 617.957 -2.74555 -1.29087
  248 584.206 48.5259 -45.1336
  249 519.045 10.3705 26.8352
  250 1045.87 167.418 112.857
  251 1036.44 118.031 -70.0410
  252 765.524 163.492 0.779397
  253 478.650 -23.4131 145.403
  254 440.376 -15.6097 -151.817
  255 507.689 -10.4282 -2.75449
  256 507.649 -10.3697 2.73886
  257 426.632 -10.9560 16.3133
  258 426.614 -11.1002 -16.4375
  259 605.433 -6.89656 15.0367
  260 588.866 -42.1063 -24.2628
  261 393.550 -0.565365 -2.77656
  262 393.650 -0.554383 2.76238
  263 581.560 -23.8322 -19.6457
  264 255.863 -8.18226 -62.6398
  265 256.864 -8.20664 62.2311
  266 589.304 -25.7624 36.6410
  267 452.566 -48.0391 88.6257
  268 453.610 -48.8936 -88.3476
  269 516.685 20.2269 -12.4939
  270 446.084 -6.53844 -5.54457
  271 446.131 -6.49808 5.52693
  272 557.004 -1.27980 32.3704
  273 661.472 120.385 31.0950
  274 364.362 -4.14212 19.3272
  275 364.098 -4.17458 -19.4722
  276 603.700 -50.6780 14.9630
  277 558.817 -62.9675 -61.6242
  278 620.058 -3.45426 4.34111
  279 440.137 -25.4290 -34.2514
  280 439.452 -25.1569 34.1413
  281 751.923 87.7203 203.627
  282 368.025 -29.8544 105.074
  283 590.309 82.6972 -2.88026
  284 735.166 82.9631 -21.7021
  285 559.089 -43.1973 3.09701
  286 559.416 -64.6601 55.9634
  287 369.036 -29.3938 -106.165
  288 70.3883 87.1560 80.8377
  289 581.662 -23.9018 20.0281
  290 756.423 100.879 14.7536
  291 624.461 -3.09137 -3.76651
  292 574.310 20.2923 -51.9830
  293 563.282 -31.9422 9.14710
  294 551.864 -46.4757 5.30535
  295 572.504 26.4355 50.1781
  296 600.949 -50.6634 -12.9020
  297 846.322 163.182 -16.1766
  298 563.136 -30.7180 -8.71718
  299 459.093 136.938 -276.895
  300 574.504 -61.0160 -15.8356
  301 570.569 -62.6998 22.2605
  302 424.758 -38.0055 -69.4750
  303 389.874 -1.29665 -5.98501
  304 389.990 -1.27370 5.94530
  305 424.976 -38.0476 69.1315
  306 609.345 -1.07354 -57.5756
  307 653.441 -27.0772 -19.9220
  308 503.682 -29.9394 -14.5400
  309 503.412 -30.0110 14.7833
  310 594.293 -51.1716 96.5001
  311 597.299 -5.01151 19.0312
  312 717.353 5.46101 39.7815
  313 494.409 -17.1888 -8.23386
  314 494.451 -17.1416 8.19762
  315 453.271 -11.4033 -11.0828
  316 453.287 -11.3039 11.0714
  317 514.107 7.20442 -25.9364
  318 648.510 47.6126 -54.4600
  319 986.348 268.315 -131.517
  320 588.730 -5.75859 -1.31034
  321 588.434 -5.68673 1.35779
  322 321.467 -1.33272 131.173
  323 450.420 -19.8650 -23.1351
  324 449.646 -19.8131 23.1990
  325 321.402 -2.12037 -130.669
  326 620.830 73.1346 -47.3020
  327 688.579 34.5942 37.9082
  328 593.889 -42.3316 -106.629
  329 551.103 -21.4180 3.00022
  330 550.575 -21.2783 -2.77911
  331 585.876 -12.6234 -8.99965
  332 557.334 -0.977352 -30.2510
  333 619.955 2.51270 55.9729
  334 615.305 -4.67447 -10.2595
  335 379.653 -22.4418 52.7956
  336 379.240 -22.5569 -53.1596
  337 579.476 -1.24774 53.6924
  338 367.146 -2.73567 -11.5647
  339 367.372 -2.71085 11.4732
  340 590.442 -13.9981 14.8729
  341 709.239 144.137 -21.0809
  342 585.654 -12.7020 9.37642
  343 627.498 78.5324 47.3242
  344 599.517 -11.2816 54.8231
  345 479.505 -8.81524 2.62798
  346 479.500 -8.86310 -2.64153
  347 570.025 -1.95418 -47.7313
  348 747.582 156.670 10.9620
  349 626.930 114.140 0.975066
  350 382.983 44.2168 -193.598
  351 43.6518 17.5265 -28.6077
  352 47.4247 18.9918 30.5821
  353 -0.842287 5.06150 10.5554
  354 1.29878 3.23067 -11.1194
  355 1067.19 74.1606 24.9378
  356 518.875 -41.7601 -17.4870
  357 590.815 -13.5557 -14.4943
  358 535.869 -9.70301 0.126728
  359 535.809 -9.63391 -0.131482
  360 576.699 63.7398 -24.4773
  361 490.732 -49.5942 45.8192
  362 45.2511 67.9890 -51.4237
  363 491.110 -49.5607 -46.5661
  364 583.826 66.4052 26.0336
  365 590.585 -16.0662 -27.4130
  366 624.752 -35.0960 -31.1827
  367 669.795 140.094 8.77693
  368 625.875 -39.3665 24.6426
  369 270.317 -6.42562 41.8455
  370 268.847 -6.29860 -42.0774
  371 155.450 3.44638 -58.9637
  372 156.885 2.87625 58.7157
  373 521.529 2.07458 26.1593
  374 957.023 284.729 117.753
  375 608.961 -4.17797 -13.3847
  376 479.306 -39.8846 -35.3516
  377 478.979 -39.8068 35.3089
  378 587.966 -13.7889 -35.4662
  379 663.776 -32.0441 -2.01567
  380 518.858 -41.7325 17.9329
  381 723.811 7.48863 -67.1530
  382 424.497 -3.13968 -2.28453
  383 424.568 -3.11455 2.27245
  384 579.823 -3.48383 -23.0097
  385 322.446 -4.37006 -27.2070
  386 322.618 -4.51763 26.9020
  387 688.218 88.2213 -44.3750
  388 374.667 26.1690 180.342
  389 541.683 -28.3754 -0.364996
  390 542.199 -28.3338 0.346360
  391 637.435 107.276 -29.6362
  392 601.417 -17.9811 -51.5475
  393 599.346 -61.4990 55.1215
  394 505.993 -13.3643 -4.40560
  395 505.946 -13.3103 4.37402
  396 579.586 -44.8269 14.9178
  397 620.569 -3.28646 7.54775
  398 398.103 -13.9261 -32.3506
  399 398.266 -13.9351 32.1076
  400 591.579 19.9537 -57.4047
  401 556.139 -12.4518 1.55723
  402 556.108 -12.4861 -1.49468
  403 577.598 -6.89667 43.5038
  404 543.138 39.9369 11.9059
  405 596.391 -25.4120 44.4714
  406 854.213 177.674 35.0868
  407 295.684 -15.8148 -84.1632
  408 296.459 -15.8138 83.5782
  409 133.490 70.1800 -103.227
  410 632.193 -2.28325 1.89340
  411 336.255 -2.58144 -17.2553
  412 336.664 -2.52692 17.1242
  413 588.307 -15.5804 34.5956
  414 534.073 -57.8067 32.0405
  415 599.226 -8.00786 6.33001
  416 614.820 31.1727 59.3418
  417 139.426 74.7252 107.200
  418 534.815 -57.4501 -29.7677
  419 552.245 -51.2126 -9.24551
  420 189.628 -3.76637 -53.0941
  421 190.877 -3.89510 52.7581
  422 425.960 -34.6180 -126.681
  423 632.014 -9.62424 48.2745
  424 424.544 -35.0716 125.644
  425 585.009 -33.0563 -27.4824
  426 550.069 37.4788 -25.9276
  427 585.044 -25.5713 26.3532
  428 624.605 -3.21843 -4.89900
  429 20.6582 23.0866 11.9733
  430 130.768 154.153 151.080
  431 567.059 -2.05603 22.3737
  432 484.128 7.03687 11.4478
  433 491.685 8.47681 -15.4785
  434 419.552 -6.50686 -11.5173
  435 419.609 -6.42730 11.4551
  436 576.750 -44.7866 -13.3439
  437 584.634 -11.5737 -48.4576
  438 486.433 9.59825 -4.20081
  439 853.086 204.031 48.5649
  440 124.748 39.9122 -77.6465
  441 136.948 36.6047 82.6043
  442 541.180 -19.3880 0.194804
  443 540.990 -19.3562 -0.0648763
  444 719.888 157.218 -1.50982
  445 440.738 194.055 283.001
  446 686.647 -8.94903 -2.33178
  447 405.399 -20.5263 -43.8792
  448 405.600 -20.3970 43.5487
  449 409.699 -8.66418 17.6605
  450 409.611 -8.72244 -17.7974
  451 546.565 12.4807 -41.9785
  452 635.063 -1.27859 -1.21152
  453 532.935 24.9010 23.7258
  454 663.518 81.8343 49.5531
  455 553.537 -41.0245 -1.33584
  456 598.929 -7.66100 -6.17082
  457 626.956 -2.95394 4.50695
  458 633.148 -1.38513 0.687326
  459 633.578 -1.51655 -0.471784
  460 365.951 -0.529802 4.34165
  461 365.768 -0.538376 -4.37977
  462 603.745 -38.6362 33.2441
  463 551.582 22.0856 40.6731
  464 573.768 2.42878 -52.5270
  465 594.511 -12.9581 19.9786
  466 837.530 153.074 -175.065
  467 596.719 -33.3457 -38.1486
  468 8.47544 11.7429 6.35352
  469 8.31058 12.0397 -3.39067
  470 477.821 -26.5144 20.6151
  471 476.329 -26.1349 -20.3289
  472 730.429 17.4813 97.0711
  473 207.667 196.561 -217.451
  474 590.206 -1.96297 17.1051
  475 660.913 -38.0313 -57.5512
  476 363.823 -20.4149 60.9187
  477 713.652 126.787 -30.4391
  478 588.252 -32.0870 31.6246
  479 497.950 -23.4182 -11.2130
  480 498.379 -23.0454 11.1927
  481 521.413 2.94438 -23.0700
  482 362.736 -20.3226 -61.2442
  483 533.376 0.432257 23.1030
  484 504.843 -57.8953 -80.0927
  485 503.619 -57.9831 80.4534
  486 605.949 -4.29577 14.8245
  487 558.147 52.8617 4.91183
  488 554.641 11.1595 195.511
  489 819.310 164.978 -1.02509
  490 568.613 -10.0822 2.33390
  491 568.634 -10.0489 -2.45995
  492 445.677 -7.53803 -7.56239
  493 445.719 -7.48056 7.54069
  494 237.417 10.1271 111.047
  495 591.109 -28.7124 -37.6593
  496 537.484 -11.9307 -0.661444
  497 537.431 -11.8966 0.668411
  498 470.011 -49.4561 65.4598
  499 241.815 13.4944 -113.775
  500 591.000 -48.3726 -15.4183
  501 11.3163 4.51207 2.64164
  502 525.692 27.6374 1.76845
  503 570.370 -7.16500 -0.717355
  504 570.367 -7.25032 0.690284
  505 470.209 -49.3527 -65.9365
  506 661.413 -33.2955 71.5724
  507 660.374 24.0456 49.6511
  508 607.389 -4.70870 -2.90544
  509 589.212 -49.0314 15.7351
  510 382.877 -0.230863 -0.828053
  511 382.979 -0.227892 0.822838
  512 589.663 -22.8532 -40.7315
  513 575.288 42.6885 44.2452
  514 652.542 16.1985 -49.1429
  515 380.532 -0.466392 -2.45583
  516 380.646 -0.459136 2.44201
  517 1111.29 160.793 -142.607
  518 597.655 71.0158 38.7162
  519 607.848 -4.40605 2.56477
  520 553.401 -52.3603 10.6020
  521 470.710 -15.1619 11.6349
  522 470.692 -15.2678 -11.6113
  523 640.016 -39.2199 10.5425
  524 617.953 -12.5518 -51.6003
  525 691.743 135.433 26.6589
  526 578.619 10.0736 54.5286
  527 578.790 -11.6393 5.26879
  528 561.566 -60.2979 -78.0817
  529 585.923 -14.7127 40.6357
  530 1096.42 50.6205 -19.8855
  531 635.032 -48.0798 5.23358
  532 603.640 -4.60971 -0.567940
  533 603.788 -4.86152 0.455300
  534 1107.87 74.2684 69.2304
  535 565.105 -0.0682954 46.3900
  536 778.107 133.541 -3.73469
  537 589.437 -16.4441 -19.1311
  538 279.177 -2.44061 -18.5769
  539 279.943 -2.32126 18.4035
  540 404.622 -37.7261 -88.1478
  541 404.987 -37.0991 87.5359
  542 578.462 -11.1914 -5.24253
  543 630.935 23.1362 -57.0367
  544 555.113 -37.7375 3.48399
  545 600.138 68.7383 -40.0641
  546 599.933 -7.34931 19.9222
  547 743.913 39.7558 -17.1465
  548 516.967 -17.6287 -4.47674
  549 516.831 -17.5815 4.44042
  550 558.823 -26.4967 6.32206
  551 813.573 164.665 -21.7585
  552 591.143 25.9153 56.5696
  553 255.289 65.3550 163.366
  554 564.190 -33.7138 132.522
  555 736.053 40.8124 -147.194
  556 604.154 49.9812 -52.4188
  557 531.531 -46.3063 -115.220
  558 576.367 -63.3748 -26.9164
  559 600.304 -61.1124 -37.5197
  560 81.8117 108.877 -102.876
  561 603.868 -8.16581 -11.6276
  562 901.017 174.628 -53.9408
  563 561.648 -25.4814 -7.47731
  564 565.840 -18.7234 6.21289
  565 565.331 -18.3211 -5.89228
  566 401.695 -2.04128 -5.49018
  567 401.791 -2.01514 5.46054
  568 62.4341 5.72725 -33.1862
  569 65.3671 6.02093 33.9141
  570 299.916 -13.5776 -64.0224
  571 302.053 -13.6574 63.9659
  572 573.717 -31.2930 -16.2444
  573 582.770 -63.6424 28.8203
  574 598.920 -57.1392 -1.84808
  575 497.076 -8.75697 -2.21650
  576 497.055 -8.70249 2.20680
  577 469.081 -49.4390 -98.4854
  578 521.758 -43.1381 121.613
  579 458.256 -46.5376 98.9632
  580 591.515 -13.2575 -51.9173
  581 380.768 -5.93067 19.5660
  582 380.584 -5.98957 -19.7057
  583 567.753 31.6453 -44.5273
  584 567.378 -1.00958 -20.2984
  585 704.422 151.436 -11.5943
  586 466.456 -6.83012 -2.05253
  587 466.478 -6.79015 2.04456
  588 600.529 -1.89632 -11.1742
  589 423.196 -13.7171 -22.0788
  590 423.227 -13.6774 21.9113
  591 342.397 15.0613 155.608
  592 584.509 -27.1511 -26.5891
  593 331.886 -17.9363 112.043
  594 574.459 -29.9657 16.7128
  595 602.527 -8.99536 12.9336
  596 594.217 -6.05234 -2.48192
  597 428.893 -4.97035 -5.23921
  598 428.957 -4.93262 5.21788
  599 676.279 134.070 -24.3853
  600 331.637 -17.3198 -112.411
  601 572.493 -25.0542 -13.0545
  602 519.317 -9.77473 -1.28734
  603 519.269 -9.71160 1.28272
  604 953.578 127.712 -23.0924
  605 355.101 -2.08590 10.7093
  606 354.814 -2.10539 -10.7965
  607 540.671 12.7169 38.3844
  608 754.371 65.9506 0.242681
  609 364.178 1.74457 -154.287
  610 192.273 4.25565 -85.1752
  611 193.737 3.24279 84.7325
  612 458.780 -26.1562 27.8208
  613 463.254 -26.9287 -27.1476
  614 766.752 155.212 6.30771
  615 591.977 -6.25054 2.17687
  616 519.323 15.0715 -23.2793
  617 639.210 114.131 23.4599
  618 637.190 118.384 -15.6203
  619 523.547 -28.8009 -7.03871
  620 527.329 -28.1882 5.21831
  621 373.444 82.3861 -220.258
  622 454.677 -15.0605 -15.7320
  623 454.728 -14.8984 15.6907
  624 1107.25 227.228 171.318
  625 590.237 -19.5332 44.2679
  626 346.727 -11.7651 -40.9707
  627 893.262 220.874 153.330
  628 347.487 -11.7071 40.8414
  629 559.170 -21.0086 -153.847
  630 408.617 -1.75322 -2.01771
  631 408.703 -1.73838 2.00942
  632 502.471 4.77828 20.3341
  633 234.947 -3.31742 -36.7055
  634 236.095 -3.32703 36.4466
  635 517.028 -36.2587 13.9351
  636 540.773 -43.1139 -6.75360
  637 630.535 -1.60975 -4.23940
  638 371.776 -0.492245 3.26026
  639 371.628 -0.501710 -3.28806
  640 490.131 -10.9194 -3.66809
  641 490.121 -10.8666 3.64768
  642 555.289 -61.9271 78.7340
  643 640.714 71.4802 -51.7404
  644 433.014 -19.5774 -28.3923
  645 432.745 -19.2559 28.2090
  646 507.953 -36.1153 -18.0579
  647 791.419 171.264 8.90023
  648 595.544 -57.8560 4.99914
  649 521.147 -12.5749 -2.48200
  650 521.078 -12.5231 2.47919
  651 709.242 78.4227 35.2884
  652 597.612 -8.99993 -21.6345
  653 536.179 -0.515404 -18.7823
  654 253.315 -8.69078 -80.8257
  655 254.011 -8.91110 80.2219
  656 506.327 -43.2625 -27.5620
  657 753.987 164.184 -0.0822973
  658 590.346 79.7745 -17.4438
  659 399.357 -3.33252 -9.95569
  660 399.460 -3.28740 9.88893
  661 547.321 -15.7148 -0.661096
  662 547.423 -15.7214 0.763904
  663 998.084 129.843 57.5013
  664 637.990 -2.01189 1.03708
  665 620.258 -2.72223 7.46810
  666 618.221 -2.72563 -8.89624
  667 588.788 -55.0009 3.68768
  668 442.459 -4.87551 -2.61486
  669 442.511 -4.84421 2.60546
  670 632.718 100.886 36.3529
  671 803.809 177.906 -15.2459
  672 448.092 -32.6388 -40.2127
  673 448.008 -32.3372 40.0384
  674 553.821 -56.9886 -15.9749
  675 587.333 35.0172 -53.3501
  676 687.908 2.25729 16.9015
  677 466.583 -8.42895 -5.46123
  678 466.607 -8.38133 5.44373
  679 403.570 -35.0822 -79.5494
  680 583.376 -56.5715 1.53666
  681 487.627 -54.0250 72.2040
  682 236.369 73.8691 -157.844
  683 457.750 -41.9504 55.7179
  684 552.535 0.163856 17.2371
  685 403.967 -34.6959 79.0620
  686 572.178 -25.5132 13.2150
  687 457.840 -41.7602 -56.1748
  688 476.726 6.55513 4.28723
  689 369.592 -9.45038 29.3070
  690 369.280 -9.45386 -29.4846
  691 487.786 -55.4188 -72.9760
  692 599.926 -39.7570 -32.0788
  693 551.281 -8.17360 -0.234078
  694 551.368 -8.24799 0.235729
  695 612.454 -39.3049 31.2934
  696 557.832 -58.2786 18.2984
  697 675.794 62.2082 48.0853
  698 611.523 -11.6560 53.6200
  699 588.502 -21.4169 31.9166
  700 567.514 46.8771 -33.7794
  701 676.296 113.350 38.2760
  702 585.079 -8.23754 -31.9317
  703 581.120 -19.6267 15.2310
  704 605.575 94.3996 9.39066
  705 592.015 -10.3070 27.3728
  706 189.671 129.956 165.908
  707 550.250 -63.4211 -47.2886
  708 636.931 11.4810 54.0071
  709 641.493 -19.9576 -36.2254
  710 635.801 -1.12895 2.22472
  711 587.632 -20.5395 -24.6259
  712 551.161 -63.9099 43.3489
  713 1042.26 92.4949 -15.3665
  714 341.288 -1.31631 11.1900
  715 340.914 -1.32995 -11.2822
  716 594.444 -11.2946 -10.8687
  717 639.293 -0.884921 -2.20341
  718 505.501 -43.9757 27.6962
  719 603.668 -22.6849 48.2947
  720 900.304 222.126 -78.1719
  721 572.244 -41.5591 12.5965
  722 631.520 -41.8098 -15.5760
  723 581.305 -19.1261 -14.9756
  724 638.387 -1.41051 -0.596401
  725 591.244 -0.112223 56.9537
  726 28.5485 31.3333 38.0568
  727 656.774 -24.0431 -103.297
  728 717.471 43.8525 18.6536
  729 599.899 -61.5449 34.1484
  730 437.666 -10.0752 12.8103
  731 437.650 -10.2084 -12.8602
  732 545.016 296.246 -296.636
  733 612.635 -40.7811 -28.4902
  734 474.997 2.89351 -8.20488
  735 545.668 3.21465 37.2263
  736 592.451 -29.8791 38.2044
  737 567.848 -47.8550 3.90679
  738 586.717 -53.8160 -84.6684
  739 564.597 -44.6721 -5.14570
  740 661.810 -31.5897 -0.301382
  741 610.280 -5.50194 6.22941
  742 549.065 -32.9370 1.51286
  743 978.813 195.519 -106.040
  744 583.507 -16.0397 11.8613
  745 581.464 9.64644 -55.9322
  746 491.824 -5.17289 172.356
  747 621.073 49.9216 56.3952
  748 534.562 -41.8632 9.37122
  749 417.649 -32.3197 -58.3935
  750 417.724 -32.2450 57.9677
  751 572.126 64.4206 -7.82986
  752 578.957 -6.76224 49.5022
  753 584.156 -14.0355 -41.6613
  754 549.663 -33.6337 -1.65547
  755 531.991 -47.4159 17.4340
  756 610.028 100.119 -10.4869
  757 567.176 -49.0999 -1.68218
  758 568.714 -36.0959 12.4955
  759 574.752 -7.92472 1.66534
  760 575.068 -7.73167 -1.64465
  761 772.333 168.121 0.293410
  762 629.628 -53.7589 -25.0772
  763 589.362 -18.3803 24.6184
  764 610.331 -5.50315 -5.59818
  765 620.672 4.03937 -56.5385
  766 701.793 37.8776 -28.5755
  767 359.471 -0.232876 -5.29402
  768 359.698 -0.228402 5.24858
  769 5.65047 -9.17657 -6.30084
  770 601.905 -0.854184 10.3152
  771 556.835 -0.705739 -40.9566
  772 573.170 -5.39065 35.6749
  773 514.039 67.5739 250.122
  774 651.706 132.765 -1.26516
  775 466.428 -32.7541 32.0161
  776 89.2802 1.70965 -32.3522
  777 91.4617 1.23451 32.6817
  778 568.628 -4.01178 -40.4392
  779 467.569 -33.0613 -32.0281
  780 606.828 -6.02898 4.55617
  781 321.588 -13.3176 54.5564
  782 318.996 -13.2642 -54.5396
  783 583.438 -15.5936 -11.5371
  784 383.230 -9.16746 -25.5972
  785 383.417 -9.11306 25.3998
  786 606.686 -6.12981 -14.7385
  787 470.670 -12.2363 -9.32902
  788 470.696 -12.1652 9.33412
  789 661.394 -4.05157 -35.8346
  790 599.256 -6.35151 -56.7369
  791 316.671 -1.87236 -14.1624
  792 317.220 -1.85465 14.0143
  793 20.1187 7.73510 -20.4149
  794 22.6698 8.17560 21.4244
  795 495.507 2.51157 -14.7462
  796 546.347 -61.3698 -36.2263
  797 -6.03255 -4.08352 10.6550
  798 -5.37691 -4.99192 -10.7124
  799 568.033 -11.8395 3.75269
  800 614.487 -48.2185 -13.5124
  801 638.485 94.2824 -42.2496
  802 609.180 -5.45878 -4.35021
  803 1260.69 259.455 -236.576
  804 567.912 -11.8105 -3.69707
  805 848.594 160.243 14.8349
  806 609.662 17.7426 -59.3487
  807 670.139 50.8580 -49.5279
  808 122.704 -1.40969 -29.6062
  809 124.622 -1.57320 29.5609
  810 390.127 -5.27321 15.3366
  811 389.985 -5.31403 -15.4528
  812 375.457 -0.748400 2.90489
  813 375.332 -0.756635 -2.92413
  814 679.514 114.153 -37.7391
  815 412.207 -2.30257 -4.38367
  816 412.291 -2.27710 4.36412
  817 580.681 -5.83332 -51.7425
  818 818.475 91.0892 81.1324
  819 528.150 12.2160 -32.3454
  820 191.172 -1.62843 31.4011
  821 189.778 -1.64414 -31.6240
  822 661.430 21.3486 181.547
  823 593.951 -11.3848 11.2154
  824 540.023 36.2318 -13.4546
  825 258.303 -0.312228 21.2114
  826 257.146 -0.197389 -21.3501
  827 381.941 -1.72613 -7.58144
  828 382.084 -1.70135 7.52283
  829 69.7686 61.5328 55.4647
  830 560.533 13.6161 47.7035
  831 621.097 90.9187 -36.6222
  832 664.672 77.2837 -49.9866
  833 444.165 -16.2276 -20.2518
  834 443.941 -16.1210 20.2403
  835 689.956 145.505 16.6923
  836 591.724 -5.52994 -0.483927
  837 591.772 -5.49047 0.577121
  838 588.769 -17.9539 -32.4563
  839 496.656 -32.6274 19.8971
  840 543.218 -61.0048 36.2761
  841 632.916 -51.8249 55.8550
  842 493.111 -14.1042 -6.19467
  843 493.116 -14.0617 6.16391
  844 564.644 52.5271 21.7654
  845 532.517 7.60046 -34.8516
  846 147.454 185.064 172.472
  847 533.566 -47.0148 -16.1554
  848 535.647 -23.8976 -1.55707
  849 535.925 -23.9638 1.52051
  850 589.073 -8.76891 54.0813
  851 582.261 -38.4317 -22.1100
  852 522.518 -34.2819 -9.90301
  853 1148.08 37.1426 -55.5749
  854 497.396 -46.6041 36.8228
  855 496.963 -47.1861 -37.3627
  856 587.828 -7.18326 27.0905
  857 872.684 227.875 -58.7683
  858 468.180 -41.9468 -44.8056
  859 514.250 -57.6564 43.7052
  860 468.113 -41.4626 44.4469
  861 506.530 -20.1589 -7.44447
  862 506.533 -20.1044 7.40414
  863 79.2525 32.3142 47.9990
  864 631.317 47.1745 -56.6071
  865 487.418 -18.6782 -10.5739
  866 487.516 -18.5026 10.6063
  867 482.161 -7.85756 -1.30315
  868 482.161 -7.81029 1.29648
  869 526.615 -10.6659 -0.994253
  870 526.556 -10.6052 0.988325
  871 434.618 -8.09604 -11.0128
  872 434.665 -8.01087 10.9761
  873 488.909 -25.2420 -15.4553
  874 488.982 -25.0898 15.5244
  875 12.7815 -0.466817 -8.29502
  876 727.882 136.776 25.1196
  877 626.921 -22.1913 -43.3244
  878 513.755 -56.8069 -44.1043
  879 553.830 -18.0750 2.73023
  880 553.600 -17.9059 -2.59619
  881 604.319 0.656206 58.0076
  882 650.195 -46.2961 -34.1331
  883 572.677 44.1344 -217.907
  884 270.562 -4.97831 109.278
  885 -6.45536 6.30511 -8.67290
  886 -5.26020 7.13472 9.44027
  887 78.8786 34.3557 -49.0591
  888 588.689 -17.3115 18.9496
  889 616.383 -4.47133 -7.87036
  890 555.528 -53.7830 96.0765
  891 269.954 -4.74035 -109.673
  892 619.025 -51.0041 7.48263
  893 683.205 -18.5272 86.1633
  894 511.884 2.16077 15.5987
  895 580.602 55.2964 36.8527
  896 319.622 -17.7977 79.7960
  897 318.444 -17.9383 -80.2708
  898 382.618 -17.6103 -44.8994
  899 395.590 -20.0330 -138.649
  900 621.177 -14.7458 49.7906
  901 844.157 201.948 40.4107
  902 624.901 23.9373 57.7296
  903 590.529 -12.8723 -29.8081
  904 403.556 -17.9413 142.050
  905 748.288 138.892 -15.7313
  906 78.5509 65.8062 -67.8448
  907 551.115 -1.01548 -16.4419
  908 383.008 -17.4737 44.5445
  909 463.098 -9.90337 8.13720
  910 463.073 -9.96331 -8.15026
  911 583.063 -38.2207 22.9624
  912 601.824 -4.43931 1.57327
  913 445.294 3.73962 -171.525
  914 632.826 -1.61657 3.70289
  915 629.022 -1.35683 -4.85998
  916 485.264 4.41811 -13.6206
  917 610.889 -2.58602 -9.08036
  918 463.905 -21.1437 -19.1640
  919 464.210 -20.8439 19.2294
  920 -13.9531 5.96697 -7.85239
  921 -19.8504 3.60425 8.55371
  922 601.782 -4.15932 -1.63803
  923 208.952 -4.88621 73.8784
  924 207.840 -4.47652 -74.2621
  925 648.241 94.2103 44.3029
  926 1122.30 20.4068 16.9715
  927 611.815 67.8823 47.7180
  928 682.926 -23.2251 29.6870
  929 599.258 -33.5966 38.1406
  930 744.290 155.559 -12.0952
  931 475.922 2.31302 10.2828
  932 575.990 -14.0085 -6.55927
  933 601.744 32.4150 -57.8613
  934 717.218 22.7908 -3.42555
  935 562.814 -34.8136 -9.08624
  936 299.870 -1.52717 -15.7924
  937 300.121 -1.47214 15.5854
  938 592.671 -14.2967 -22.6971
  939 21.7786 26.9404 7.85600
  940 569.135 -59.0494 -10.7849
  941 503.620 15.4306 -1.40142
  942 740.225 161.453 -7.99244
  943 121.550 90.0698 -109.907
  944 573.179 -4.29086 -31.9641
  945 405.244 -6.35105 -14.4508
  946 405.333 -6.28026 14.3475
  947 4.07972 -15.5162 11.5621
  948 394.142 -28.7794 -64.4098
  949 580.145 -33.7315 -21.6254
  950 374.723 0.816753 -1.22864
  951 374.831 0.819800 1.22204
  952 590.429 71.5876 -29.3525
  953 622.273 -2.33635 -0.738620
  954 622.317 -2.35666 0.994571
  955 394.343 -28.7135 64.0200
  956 588.752 -0.952527 -12.4898
  957 671.867 5.03760 33.9934
  958 596.967 -8.92964 8.50100
  959 101.729 24.4335 -59.4967
  960 617.444 -4.16802 7.07991
  961 568.031 4.77413 50.8243
  962 598.867 82.6939 26.0847
  963 596.849 6.94188 -59.0057
  964 417.357 -21.7199 -38.9726
  965 639.631 -22.9071 34.7361
  966 417.634 -21.6490 38.6219
  967 21.0034 22.1550 -4.34363
  968 76.3355 12.1032 43.7179
  969 345.548 -5.75594 26.3420
  970 345.160 -5.75448 -26.4680
  971 576.403 -14.2462 6.99237
  972 624.284 107.898 14.2141
  973 319.488 28.4803 -163.229
  974 521.638 -32.2843 8.90643
  975 489.858 -50.8895 -53.9681
  976 709.273 135.471 27.7472
  977 547.254 -9.99095 -0.102675
  978 547.229 -9.94375 0.0965139
  979 597.073 -11.4790 -15.9264
  980 559.698 48.5906 -20.0652
  981 1206.28 367.512 246.689
  982 123.241 6.31951 -56.3814
  983 124.913 5.23603 56.4810
  984 9.19562 -7.45785 5.06184
  985 560.809 31.3796 41.1895
  986 489.806 -51.2143 53.6074
  987 603.503 -28.7181 -44.0835
  988 656.005 53.6027 54.7752
  989 626.130 -50.5653 -67.1181
  990 910.678 191.171 66.7818
  991 537.937 -8.99621 -0.548920
  992 537.869 -8.93084 0.548254
  993 626.236 -25.7970 40.7804
  994 44.7034 82.4807 80.2704
  995 293.657 -5.86158 37.5700
  996 292.831 -5.78487 -37.9254
  997 346.601 -16.4062 51.6195
  998 345.476 -16.1415 -51.7807
  999 388.883 -15.4718 37.4027
  1000 425.145 -3.08616 -1.93930
  1001 425.216 -3.06492 1.93271
  1002 1005.69 333.692 -216.249
  1003 926.303 232.811 100.692
  1004 388.574 -15.5411 -37.6787
  1005 644.714 -3.10309 45.2356
  1006 583.258 60.5602 -35.3866
  1007 412.301 -35.8052 115.138
  1008 525.449 -62.1668 -64.2256
  1009 599.764 -5.14987 -17.9870
  1010 275.979 17.9841 133.546
  1011 353.780 -26.9215 91.9206
  1012 538.039 27.9920 -25.9316
  1013 607.278 -12.1815 -54.3937
  1014 744.117 329.729 335.632
  1015 510.722 16.0535 18.5790
  1016 683.904 145.819 -2.05160
  1017 497.919 20.3697 -194.427
  1018 511.820 -53.5084 -38.0142
  1019 639.474 -0.979579 -1.77343
  1020 622.569 57.1367 -54.8829
  1021 375.909 -2.18051 9.64493
  1022 375.733 -2.20212 -9.72225
  1023 14.3489 13.2042 -22.7610
  1024 418.070 -18.4640 -32.5923
  1025 353.335 -27.2619 -92.5511
  1026 417.797 -18.4339 32.2769
  1027 594.209 -18.2556 50.3433
  1028 534.147 -32.8338 -4.38169
  1029 563.835 10.5766 -49.3583
  1030 580.526 72.4438 10.3392
  1031 768.520 50.5358 37.3754
  1032 587.286 -44.7811 21.2714
  1033 378.553 -29.7655 -70.4691
  1034 559.703 20.0928 -46.3702
  1035 415.601 -35.3594 -115.662
  1036 788.726 169.368 -4.72373
  1037 545.779 36.1789 23.5914
  1038 676.310 -3.58762 -24.2334
  1039 514.951 -53.5572 35.3726
  1040 588.459 -18.8822 38.5024
  1041 583.905 -31.0268 26.2082
  1042 580.683 -29.4132 22.3638
  1043 713.532 91.4663 -36.5904
  1044 581.948 -9.51078 39.8853
  1045 524.737 -62.3381 63.2285
  1046 560.033 -23.0877 5.75723
  1047 378.797 -29.8335 70.1312
  1048 527.563 -38.5383 -10.6304
  1049 312.326 -15.3593 -98.2654
  1050 439.934 -45.4415 78.6139
  1051 591.502 -4.21527 -21.1010
  1052 577.974 -6.56604 -45.6878
  1053 501.665 -39.1978 -24.0121
  1054 312.840 -15.7664 97.5665
  1055 543.039 1.48718 -32.3438
  1056 406.507 -26.3112 -50.1915
  1057 722.487 152.640 16.8209
  1058 167.666 26.5375 -95.1230
  1059 1194.01 84.1737 112.835
  1060 294.745 20.9119 -139.502
  1061 580.273 -48.1783 -11.1492
  1062 406.638 -26.1010 49.8265
  1063 537.901 5.99607 36.3375
  1064 309.165 -5.96293 31.1268
  1065 309.039 -6.10751 -31.4159
  1066 588.988 -16.5221 -46.7960
  1067 619.909 -3.60131 2.61387
  1068 611.340 -1.55500 9.12994
  1069 607.759 20.0997 59.3295
  1070 570.649 -4.28308 43.1118
  1071 438.547 47.5546 209.954
  1072 643.113 -0.685100 0.784390
  1073 613.606 82.8597 37.9366
  1074 524.855 7.93706 31.4282
  1075 617.957 -2.54893 8.68865
  1076 409.298 -4.03517 -8.19204
  1077 409.381 -3.99076 8.14843
  1078 264.194 -7.22321 -52.0359
  1079 265.122 -7.48593 51.7287
  1080 526.619 26.7122 13.2301
  1081 769.717 45.2961 -65.4735
  1082 707.592 1.96583 -114.691
  1083 576.125 -0.579974 -13.0619
  1084 440.027 -45.7710 -79.1727
  1085 502.730 -37.2883 21.7691
  1086 579.143 -1.38447 13.6146
  1087 602.530 -43.9637 -25.5309
  1088 388.767 -0.709091 4.80195
  1089 388.658 -0.722920 -4.82692
  1090 579.194 -49.5566 11.1303
  1091 551.398 -11.6165 0.401200
  1092 551.305 -11.6313 -0.372363
  1093 537.048 -53.8739 24.0693
  1094 684.251 -21.5760 -14.7932
  1095 325.225 -0.518761 -8.83951
  1096 325.704 -0.500645 8.75693
  1097 470.877 -30.3275 -132.555
  1098 504.286 -11.9806 3.67583
  1099 504.324 -12.0372 -3.69957
  1100 302.704 166.870 230.800
  1101 690.644 57.2474 -42.6816
  1102 107.088 50.7902 -73.6115
  1103 597.204 -9.38997 -8.19435
  1104 165.604 55.3019 -109.234
  1105 341.483 -21.0051 -66.7051
  1106 642.824 -0.954059 0.559208
  1107 643.019 -0.910511 -0.398052
  1108 589.790 -33.8807 -32.3146
  1109 521.972 -58.8764 -86.8628
  1110 167.823 22.5952 90.6386
  1111 642.301 63.4858 52.6965
  1112 580.554 -6.43014 -0.617424
  1113 580.630 -6.43147 0.666846
  1114 629.793 -39.8632 105.808
  1115 659.355 130.954 19.9324
  1116 399.689 -9.13967 -20.5213
  1117 399.798 -9.10230 20.3977
  1118 300.144 33.5605 164.918
  1119 562.343 3.02199 -47.6757
  1120 180.146 56.8677 117.068
  1121 708.255 -10.8083 -41.0901
  1122 704.935 154.067 5.64201
  1123 487.960 -38.0467 28.4190
  1124 459.806 2.72048 -2.00814
  1125 611.800 -5.72299 10.7984
  1126 631.479 -1.01379 4.17798
  1127 149.984 0.197498 -26.3699
  1128 151.734 0.133783 26.2069
  1129 509.947 8.92806 -23.3527
  1130 519.080 -15.2352 -3.43923
  1131 518.977 -15.1766 3.42489
  1132 55.9360 98.6425 -85.6511
  1133 87.3055 204.896 -165.893
  1134 525.262 -20.4457 3.56757
  1135 525.441 -20.4296 -3.60377
  1136 541.581 -13.2604 0.231061
  1137 541.507 -13.2409 -0.193627
  1138 145.898 92.6681 118.491
  1139 434.852 -5.06300 -4.06518
  1140 434.912 -5.02974 4.04982
  1141 543.246 41.4049 -0.526689
  1142 670.274 92.7442 -241.426
  1143 655.847 112.574 -34.2332
  1144 597.307 -23.1022 -47.1706
  1145 588.115 -29.5562 -33.1619
  1146 488.167 -38.3856 -28.8634
  1147 497.629 1.78116 14.4128
  1148 554.279 34.8649 -34.4725
  1149 547.100 29.7500 33.0084
  1150 559.684 -22.4395 -5.62636
  1151 535.451 -32.1944 3.96126
  1152 489.201 -31.0824 -21.7279
  1153 579.969 -3.49764 25.3220
  1154 1001.03 100.726 13.9029
  1155 583.447 -12.5436 46.0513
  1156 587.116 38.5980 51.2885
  1157 539.499 -52.8668 -19.0771
  1158 72.7322 11.0890 -42.2319
  1159 549.597 -25.4965 -3.06390
  1160 377.293 -0.458445 -0.269130
  1161 377.393 -0.456273 0.267021
  1162 664.372 -17.5965 19.8718
  1163 632.853 -53.4078 28.9875
  1164 904.547 160.885 41.2332
  1165 230.109 -0.362771 -21.7716
  1166 231.310 -0.315329 21.6259
  1167 494.217 -9.91994 -2.81128
  1168 494.201 -9.86579 2.79537
  1169 551.066 -48.4819 -5.57888
  1170 463.604 2.28867 6.59303
  1171 563.998 -40.1769 8.15762
  1172 34.0961 40.4732 -21.8914
  1173 105.835 51.5538 71.9000
  1174 380.756 -21.2382 128.003
  1175 653.937 123.728 -24.4951
  1176 620.047 -1.84760 -6.88124
  1177 645.362 -1.16489 0.320369
  1178 645.900 -1.53351 -0.172053
  1179 390.925 -0.736526 -0.829465
  1180 391.023 -0.730236 0.824616
  1181 602.961 38.5212 57.8685
  1182 879.867 148.845 -3.19652
  1183 622.053 102.327 -25.5090
  1184 463.684 -34.5732 131.730
  1185 378.756 -20.4876 -127.740
  1186 423.284 -27.6729 -45.2485
  1187 576.877 -16.4995 9.21022
  1188 800.302 177.577 14.1168
  1189 423.348 -27.5227 44.9322
  1190 588.396 -10.7731 6.96485
  1191 533.803 20.2086 31.5673
  1192 583.708 18.1923 55.8805
  1193 821.558 183.062 24.9966
  1194 495.052 -12.7737 5.17629
  1195 495.067 -12.8261 -5.20469
  1196 596.430 -11.6298 16.5711
  1197 365.224 -3.63098 15.0132
  1198 364.978 -3.66615 -15.1315
  1199 583.014 -8.44398 -2.77939
  1200 242.715 146.039 -224.220
  1201 505.056 -28.7185 -141.144
  1202 482.269 -14.8159 -8.96994
  1203 482.326 -14.7579 8.97389
  1204 622.083 -3.34725 2.45115
  1205 591.503 -8.26710 5.53049
  1206 34.3209 44.7075 33.7787
  1207 639.622 -0.880164 2.09604
  1208 79.4243 103.158 102.262
  1209 578.503 -9.13904 -3.64580
  1210 -0.449794 -13.8110 -12.1643
  1211 413.623 -40.4383 -99.3103
  1212 412.579 -39.4743 98.3673
  1213 639.590 -1.27263 -2.34843
  1214 552.942 -29.2051 -3.91909
  1215 621.764 -3.10030 -2.43991
  1216 505.136 -16.2020 -5.44372
  1217 505.099 -16.1538 5.39951
  1218 582.657 -8.39328 2.58044
  1219 549.213 -24.9868 3.03265
  1220 529.519 -17.0940 1.86144
  1221 529.690 -17.1287 -1.80655
  1222 621.126 -3.19062 -1.97011
  1223 539.113 -57.0863 -97.6418
  1224 608.743 -4.28924 -1.93583
  1225 580.833 -9.37284 4.00890
  1226 415.487 -4.21364 -6.16396
  1227 415.566 -4.17421 6.13468
  1228 460.205 -6.54283 -3.36013
  1229 460.236 -6.50276 3.34688
  1230 731.552 114.860 29.3757
  1231 615.793 -47.6136 17.2416
  1232 424.651 -2.33917 162.255
  1233 351.542 -0.478047 5.77293
  1234 351.262 -0.483711 -5.82299
  1235 586.402 -10.9958 34.3251
  1236 560.102 -8.90932 0.399117
  1237 560.117 -8.88349 -0.399024
  1238 644.075 124.431 11.5421
  1239 584.546 -61.4210 78.7624
  1240 350.627 -4.65810 20.9002
  1241 350.305 -4.69016 -21.0340
  1242 559.548 -13.9760 2.60048
  1243 559.422 -14.0774 -2.48642
  1244 576.554 -16.3180 -8.82415
  1245 537.052 0.158623 16.7162
  1246 906.368 225.719 -79.5579
  1247 587.917 -21.7780 -29.4021
  1248 106.146 24.1528 61.0491
  1249 606.772 -32.5731 40.5443
  1250 497.388 11.3067 -12.7944
  1251 40.6110 28.2313 23.6007
  1252 790.286 91.7473 -16.4956
  1253 593.357 -27.1681 -41.6609
  1254 499.569 7.46072 19.6235
  1255 343.769 -21.0504 66.6398
  1256 601.505 -46.7850 22.2402
  1257 861.665 172.010 63.2405
  1258 207.748 29.7056 114.824
  1259 603.667 -7.60062 -14.3413
  1260 1130.79 12.8542 -11.1507
  1261 1166.09 17.3433 49.3102
  1262 1241.57 41.3194 -117.848
  1263 587.772 -18.5738 -37.3803
  1264 587.170 -27.0349 30.9735
  1265 595.945 -42.6329 27.6680
  1266 -17.3792 2.22704 10.8451
  1267 -15.7430 1.84953 -11.8904
  1268 579.044 -64.2347 -39.2192
  1269 592.126 -60.1292 -56.7572
  1270 466.621 3.15930 -8.12201
  1271 576.385 -65.3298 56.3629
  1272 616.812 -29.4588 -40.9762
  1273 14.1457 19.3068 3.99175
  1274 505.679 -9.27294 1.72261
  1275 505.710 -9.33145 -1.72710
  1276 611.146 -5.31778 9.58778
  1277 588.312 -10.5942 -6.49167
  1278 555.646 -60.6307 -22.4842
  1279 510.461 -27.3163 10.5240
  1280 508.006 -26.9172 -11.1771
  1281 595.031 -12.9097 23.3958
  1282 610.064 -22.5984 -48.2372
  1283 42.0908 29.4324 -23.1169
</Section>

newXOutput 34

<Section columns = "stress_xx | stress_yy | stress_xy">
  1 667.236 -0.332933 1.19113
  2 667.226 -0.317992 -1.19357
  3 383.578 -0.0640441 -0.428178
  4 -4.77326 -4.70036 -6.86787
  5 1160.39 488.521 380.470
  6 1150.00 505.083 -377.054
  7 -5.55105 -4.44704 7.33484
  8 383.474 -0.0652397 0.427240
  9 671.492 -1.20438 0.330316
  10 670.314 -1.86732 -0.407819
  11 669.184 -1.32898 1.29174
  12 668.013 -1.75621 0.222874
  13 665.449 -1.50891 2.02875
  14 663.081 -1.50857 1.39499
  15 657.176 -1.32541 2.95521
  16 648.398 -1.04424 4.38881
  17 640.653 -1.04371 4.96437
  18 628.867 -1.33750 6.08583
  19 612.173 -0.214345 9.10848
  20 596.761 -0.979688 8.75407
  21 578.785 -1.20128 12.4595
  22 552.869 0.835244 10.9347
  23 533.780 1.36489 13.0094
  24 508.840 2.23697 10.2539
  25 491.441 2.50215 10.3739
  26 466.256 3.36179 5.31071
  27 460.881 5.26956 5.72147
  28 457.614 4.40195 -1.70101
  29 462.000 2.69125 -3.69038
  30 470.109 2.51404 -4.53841
  31 488.995 3.09431 -9.03256
  32 507.349 2.44871 -11.3539
  33 533.986 0.649051 -13.4179
  34 555.243 -0.230678 -12.1051
  35 577.662 -0.946324 -11.7870
  36 597.834 -0.775128 -8.25861
  37 614.935 -0.846555 -6.98792
  38 628.855 -1.31869 -5.79301
  39 641.164 -0.987795 -3.93654
  40 648.642 -1.21860 -4.13147
  41 655.881 -1.41929 -2.99841
  42 662.556 -1.65257 -1.19273
  43 665.920 -1.35327 -1.48738
  44 667.498 -0.909600 -0.877705
  45 665.778 -0.621238 -0.805359
  46 670.895 -1.85644 0.302232
  47 671.652 -1.24364 -0.339912
  48 651.809 -0.882460 -0.738835
  49 638.580 -3.21593 -1.41228
  50 622.228 -4.60724 -0.803772
  51 602.161 -6.56349 -1.13370
  52 582.972 -7.09376 -1.34870
  53 562.371 -8.59830 -1.30447
  54 544.028 -9.39927 -0.633817
  55 527.931 -10.2891 -0.122965
  56 509.315 -8.47613 -0.0949882
  57 487.848 -7.80454 -0.325343
  58 467.192 -6.05114 0.0276874
  59 447.660 -3.74753 0.0816746
  60 429.148 -2.59114 0.142829
  61 412.991 -1.22561 0.260500
  62 396.579 -0.249731 -0.479964
  63 383.704 0.556389 0.732138
  64 377.819 1.40218 0.537125
  65 381.455 0.0586652 1.19227
  66 376.673 -0.128928 1.45833
  67 372.074 -0.220119 1.81149
  68 365.925 0.0282253 2.31702
  69 358.189 0.0213126 2.88742
  70 352.171 -0.351229 5.43236
  71 336.119 0.486122 5.90578
  72 324.627 0.00538349 6.68722
  73 307.525 -0.245502 7.60730
  74 287.912 -0.439572 9.23697
  75 263.356 -0.0688699 11.2192
  76 233.428 0.163675 12.4211
  77 207.132 -0.194608 17.7822
  78 155.959 1.60154 16.8938
  79 120.551 1.37703 17.9119
  80 77.6171 -0.391349 20.0318
  81 41.4554 3.15203 21.0547
  82 0.0256828 4.82445 13.0808
  83 -30.7257 4.92860 5.16905
  84 -31.3659 4.88019 -0.922706
  85 -31.3478 4.11164 -9.19211
  86 -18.5950 -1.11259 -8.95174
  87 -2.13546 -17.8474 -9.93459
  88 1.99282 -32.5521 -12.1595
  89 5.19052 -49.9849 -5.97413
  90 11.3179 -48.3311 2.32467
  91 23.6306 -2.15507 33.3326
  92 68.7956 121.849 106.918
  93 386.240 391.102 343.358
  94 1410.25 213.555 232.569
  95 1277.59 30.3617 74.8858
  96 1193.68 12.8053 22.9182
  97 1162.80 10.9886 1.70087
  98 1179.55 14.4768 -20.0174
  99 1275.58 28.5489 -59.3690
  100 1486.91 103.008 -198.339
  101 231.182 403.899 -288.994
  102 51.4403 94.2342 -89.6311
  103 25.9066 0.445937 -35.9803
  104 10.6372 -47.7606 -7.66769
  105 3.25239 -37.5410 6.75378
  106 3.90801 -41.1556 10.4548
  107 0.268607 -15.3241 11.0182
  108 -19.4386 -0.631911 8.44554
  109 -32.3320 3.08834 7.96977
  110 -33.0738 5.91462 1.08788
  111 -31.6737 4.83270 -4.86077
  112 -2.24958 4.94365 -12.3076
  113 39.4909 3.17826 -20.1048
  114 75.6205 -0.0487115 -19.7059
  115 118.477 1.48709 -17.9422
  116 154.076 1.64120 -17.0119
  117 205.675 -0.201923 -17.9182
  118 232.185 0.179307 -12.5309
  119 262.267 -0.0656774 -11.3499
  120 287.364 -0.491751 -9.29633
  121 306.766 -0.229749 -7.62194
  122 324.046 0.0257132 -6.74989
  123 335.640 0.480915 -5.96336
  124 351.820 -0.355085 -5.48104
  125 357.902 0.0188004 -2.91708
  126 365.701 0.0257958 -2.34129
  127 371.897 -0.224177 -1.83062
  128 376.530 -0.132411 -1.47161
  129 381.332 0.0557583 -1.20065
  130 377.706 1.40096 -0.540951
  131 383.597 0.555734 -0.734572
  132 396.476 -0.252967 0.478852
  133 412.896 -1.23377 -0.263382
  134 429.065 -2.60891 -0.146171
  135 447.597 -3.77217 -0.0848649
  136 467.152 -6.08674 -0.0309192
  137 487.834 -7.84991 0.322738
  138 509.332 -8.52904 0.0921161
  139 527.972 -10.3492 0.121500
  140 544.086 -9.45957 0.635683
  141 562.457 -8.65318 1.31069
  142 583.051 -7.13108 1.37108
  143 602.226 -6.59693 1.24301
  144 622.344 -4.38639 0.821083
  145 639.015 -3.14307 1.38037
  146 651.937 -0.984524 0.726763
  147 589.664 -55.4575 1.05102
  148 589.133 -54.7004 -0.846205
  149 623.174 89.2498 -27.8760
  150 659.554 38.8227 57.6490
  151 500.200 -48.5686 -113.457
  152 504.352 -48.4657 109.970
  153 491.118 -20.3673 14.9827
  154 491.143 -20.6364 -14.9866
  155 696.158 25.4680 -41.2170
  156 588.153 -21.4742 9.85591
  157 587.896 -20.9794 -9.74202
  158 759.856 167.802 5.35315
  159 604.644 -0.936365 -57.6520
  160 451.557 -34.8444 -51.2674
  161 451.608 -34.5703 50.8627
  162 604.966 -13.8249 51.4669
  163 579.036 42.5082 35.0059
  164 242.327 37.7127 -135.653
  165 267.634 35.8270 142.767
  166 731.169 9.57357 -2.35289
  167 605.190 -23.4654 -34.6090
  168 797.114 175.001 3.20557
  169 546.913 -15.5462 -1.65077
  170 546.808 -15.5093 1.69030
  171 609.354 -7.96020 -4.19960
  172 611.077 -7.22253 3.59115
  173 437.514 -5.88485 -8.47179
  174 437.579 -5.82728 8.43658
  175 649.089 -15.5811 144.432
  176 561.654 23.6742 -37.7850
  177 369.949 -27.3739 -80.9521
  178 371.023 -27.1805 80.4816
  179 416.832 -13.0830 -26.8431
  180 416.883 -12.9404 26.6719
  181 607.851 -16.2686 29.4683
  182 554.076 -37.8397 -4.84646
  183 552.245 -37.5589 5.65035
  184 625.368 -60.8175 -16.4123
  185 628.778 -57.9427 8.73268
  186 860.311 203.199 -36.5349
  187 634.986 101.426 25.9571
  188 633.944 38.9485 -58.9390
  189 646.006 -3.44572 -166.718
  190 626.638 -35.6397 -38.8009
  191 632.153 -25.5335 46.6441
  192 528.921 -59.9443 57.4380
  193 528.955 -59.5000 -57.2898
  194 570.014 7.47508 45.1757
  195 265.809 -6.88745 -99.4567
  196 266.399 -7.40508 98.9018
  197 964.392 143.542 21.2552
  198 594.307 -35.5707 19.7584
  199 615.110 -11.7115 -18.7626
  200 494.240 -11.8339 -7.11479
  201 494.259 -11.7823 7.09734
  202 594.322 -7.79374 -39.8989
  203 674.652 98.8287 -46.0514
  204 570.442 51.5089 -6.99070
  205 376.930 -12.7855 37.2514
  206 376.389 -12.8184 -37.4945
  207 622.694 -7.41971 9.81277
  208 611.582 11.5353 59.4099
  209 499.538 -35.7812 -26.2720
  210 496.452 -33.8631 26.7202
  211 716.477 106.469 40.0291
  212 832.839 119.401 29.5100
  213 61.1961 46.4859 -40.9250
  214 56.7239 42.9662 34.9552
  215 348.596 101.264 235.208
  216 588.495 -39.2048 -14.0944
  217 624.656 -7.11682 -8.84492
  218 564.085 5.20934 -41.6414
  219 402.835 -3.67188 -11.9706
  220 402.968 -3.63188 11.8813
  221 532.432 -24.7615 -7.30684
  222 532.684 -24.9292 7.01363
  223 598.837 -8.17672 33.7580
  224 681.514 -39.2094 22.3586
  225 684.823 138.730 -13.0628
  226 537.106 -51.5365 -28.9376
  227 673.797 -11.7742 33.7664
  228 576.702 -10.1323 1.05134
  229 576.700 -10.0575 -1.05063
  230 533.424 -51.2998 29.8459
  231 608.493 -38.8366 31.0729
  232 841.182 115.365 -64.3150
  233 193.840 115.260 -173.434
  234 525.287 18.9256 9.12648
  235 614.889 54.1907 50.2250
  236 650.391 -4.66265 -50.6732
  237 609.413 -22.1106 -47.5586
  238 334.912 -10.3414 -46.3220
  239 335.987 -10.1918 46.2076
  240 609.959 -7.62299 -25.6944
  241 580.855 -15.0763 4.62252
  242 580.589 -15.0671 -4.41704
  243 129.429 11.0986 -64.8288
  244 131.245 9.71798 64.5867
  245 642.504 -56.4074 -55.6979
  246 634.949 -2.81283 1.12968
  247 635.532 -2.86046 -1.29701
  248 601.447 49.9687 -46.1941
  249 534.701 10.7140 27.4944
  250 1074.62 172.020 115.987
  251 1064.88 121.277 -71.9425
  252 787.593 168.091 0.925600
  253 492.516 -24.1181 149.867
  254 453.213 -16.1102 -156.459
  255 522.678 -10.7347 -2.88743
  256 522.638 -10.6751 2.87129
  257 439.602 -11.2516 16.8561
  258 439.583 -11.3992 -16.9830
  259 622.876 -7.12329 15.3138
  260 605.932 -43.3395 -24.5969
  261 405.802 -0.569453 -2.86944
  262 405.905 -0.558260 2.85501
  263 598.421 -24.5449 -19.9472
  264 263.962 -8.42647 -64.5528
  265 264.986 -8.45145 64.1348
  266 606.426 -26.5269 37.3640
  267 465.909 -49.4570 91.3968
  268 466.976 -50.3363 -91.1095
  269 532.293 20.8730 -12.8012
  270 459.580 -6.71162 -5.73575
  271 459.629 -6.67053 5.71778
  272 573.505 -1.30914 33.1279
  273 680.776 123.848 31.7165
  274 375.721 -4.24742 19.9206
  275 375.450 -4.28052 -20.0685
  276 621.120 -52.1597 14.9927
  277 574.939 -64.8055 -63.7141
  278 637.727 -3.58678 4.39299
  279 453.362 -26.1414 -35.3575
  280 452.662 -25.8627 35.2454
  281 772.522 90.7870 209.831
  282 379.065 -30.7625 108.310
  283 607.773 85.1313 -2.94504
  284 756.108 85.4607 -21.7276
  285 575.353 -44.4500 2.89435
  286 575.568 -66.5452 57.8911
  287 380.099 -30.2899 -109.428
  288 72.6419 89.9748 83.5681
  289 598.526 -24.6154 20.3372
  290 777.907 103.897 14.5573
  291 642.219 -3.21042 -3.81176
  292 591.259 20.9081 -53.2073
  293 579.660 -32.8772 9.15073
  294 567.936 -47.8206 5.73917
  295 589.421 27.2308 51.3670
  296 618.301 -52.1425 -12.8819
  297 870.390 167.725 -16.7624
  298 579.511 -31.6181 -8.71748
  299 471.972 141.154 -285.060
  300 591.115 -62.7892 -16.6329
  301 587.075 -64.5237 23.2352
  302 437.449 -39.1078 -71.6329
  303 402.006 -1.32205 -6.18132
  304 402.125 -1.29862 6.14086
  305 437.676 -39.1521 71.2812
  306 627.078 -1.10567 -58.8343
  307 672.151 -27.8511 -20.0181
  308 518.540 -30.7908 -15.1327
  309 518.266 -30.8647 15.3844
  310 611.246 -52.6327 99.6279
  311 614.631 -5.17377 19.4279
  312 737.575 5.77234 41.4623
  313 509.063 -17.6764 -8.58341
  314 509.107 -17.6287 8.54628
  315 466.918 -11.7150 -11.4751
  316 466.935 -11.6135 11.4636
  317 529.644 7.44455 -26.5723
  318 667.303 49.0048 -55.5837
  319 1013.78 275.950 -135.523
  320 605.647 -5.96501 -1.30912
  321 605.344 -5.89092 1.35775
  322 331.140 -1.42692 135.219
  323 463.944 -20.4171 -23.9152
  324 463.152 -20.3649 23.9816
  325 331.072 -2.24123 -134.699
  326 639.008 75.2710 -48.3567
  327 708.300 35.6292 38.4620
  328 610.802 -43.5330 -110.048
  329 567.161 -22.0517 2.90397
  330 566.619 -21.9091 -2.67782
  331 602.783 -13.0219 -9.09511
  332 573.840 -1.00041 -30.9572
  333 637.951 2.57820 57.1638
  334 632.944 -4.83502 -10.4404
  335 391.229 -23.0796 54.4204
  336 390.804 -23.1971 -54.7924
  337 596.493 -1.27829 54.9289
  338 378.632 -2.80140 -11.9266
  339 378.865 -2.77606 11.8333
  340 607.498 -14.4332 15.1023
  341 729.789 148.267 -21.3569
  342 602.560 -13.1018 9.47936
  343 645.849 80.8150 48.3674
  344 616.982 -11.6178 56.0199
  345 493.811 -9.06399 2.74045
  346 493.806 -9.11270 -2.75433
  347 586.815 -2.00483 -48.8376
  348 769.109 161.154 10.8887
  349 645.367 117.443 0.995223
  350 394.165 45.4877 -199.467
  351 45.2420 18.0545 -29.6327
  352 49.1208 19.5661 31.6635
  353 -0.784245 5.25817 10.7898
  354 1.40403 3.38161 -11.3742
  355 1096.25 76.1922 25.5811
  356 534.100 -42.9567 -18.2154
  357 607.875 -13.9790 -14.7165
  358 551.539 -10.0040 0.0876032
  359 551.478 -9.93343 -0.0926031
  360 593.788 65.6345 -25.0551
  361 505.181 -51.0231 47.3514
  362 46.7487 70.2880 -53.2561
  363 505.564 -50.9870 -48.1172
  364 601.097 68.3730 26.6467
  365 607.718 -16.5548 -27.9467
  366 642.753 -36.1222 -31.6386
  367 689.376 144.098 8.93697
  368 643.887 -40.5182 24.9094
  369 278.922 -6.60668 43.1143
  370 277.415 -6.47585 -43.3505
  371 160.584 3.53543 -60.8181
  372 162.051 2.95016 60.5634
  373 537.240 2.16277 26.7952
  374 983.596 293.016 121.650
  375 626.513 -4.31974 -13.6478
  376 493.497 -41.0197 -36.5509
  377 493.165 -40.9415 36.5070
  378 605.085 -14.2062 -36.2131
  379 682.691 -32.9507 -2.55399
  380 534.082 -42.9291 18.6748
  381 744.108 7.86904 -69.6018
  382 437.480 -3.21412 -2.37271
  383 437.554 -3.18853 2.36043
  384 596.810 -3.59358 -23.5220
  385 332.611 -4.48642 -28.0239
  386 332.786 -4.63851 27.7116
  387 708.068 90.7971 -45.1603
  388 385.657 26.9169 185.846
  389 557.507 -29.1986 -0.585010
  390 558.036 -29.1564 0.566314
  391 656.115 110.382 -30.2650
  392 618.908 -18.5130 -52.6419
  393 616.518 -63.2792 57.0723
  394 520.938 -13.7511 -4.62406
  395 520.890 -13.6963 4.59154
  396 596.392 -46.1338 15.0080
  397 638.317 -3.40241 7.67496
  398 410.274 -14.3068 -33.3559
  399 410.441 -14.3167 33.1076
  400 608.935 20.5492 -58.7291
  401 572.304 -12.8384 1.49251
  402 572.272 -12.8742 -1.42892
  403 594.538 -7.10444 44.4861
  404 559.392 41.1603 12.1986
  405 613.719 -26.1651 45.3759
  406 878.481 182.649 36.3017
  407 304.816 -16.2957 -86.7457
  408 305.611 -16.2943 86.1468
  409 137.712 72.3046 -106.601
  410 650.098 -2.37609 1.91005
  411 346.858 -2.64334 -17.7758
  412 347.278 -2.58753 17.6420
  413 605.426 -16.0497 35.3133
  414 549.643 -59.4801 33.2364
  415 616.430 -8.27572 6.39404
  416 632.763 32.0838 60.6724
  417 143.798 76.9872 110.674
  418 550.403 -59.1109 -30.8975
  419 568.314 -52.6937 -9.80541
  420 195.822 -3.88618 -54.7385
  421 197.098 -4.01815 54.3942
  422 438.482 -35.6750 -130.581
  423 650.270 -9.91144 49.2118
  424 437.039 -36.1378 129.518
  425 601.987 -34.0292 -27.9418
  426 566.483 38.6260 -26.5537
  427 602.018 -26.3332 26.8151
  428 642.392 -3.33853 -4.96634
  429 21.3686 23.9538 12.5411
  430 134.776 159.127 155.900
  431 583.783 -2.11482 22.8851
  432 498.971 7.28172 11.7344
  433 506.703 8.76506 -15.8624
  434 432.376 -6.67393 -11.9009
  435 432.435 -6.59261 11.8374
  436 593.483 -46.0914 -13.3952
  437 601.725 -11.9193 -49.5337
  438 501.327 9.92658 -4.30473
  439 877.265 209.882 50.3968
  440 128.766 41.0929 -80.2070
  441 141.318 37.6857 85.3032
  442 556.989 -19.9595 0.0429624
  443 556.794 -19.9278 0.0897496
  444 740.793 161.657 -1.51646
  445 452.897 200.299 291.336
  446 706.185 -9.14914 -1.88142
  447 417.698 -21.1031 -45.2429
  448 417.906 -20.9710 44.9049
  449 422.242 -8.89355 18.2302
  450 422.151 -8.95293 -18.3698
  451 562.855 12.8787 -42.9900
  452 653.024 -1.33882 -1.21821
  453 548.928 25.6818 24.3078
  454 682.751 84.2079 50.5459
  455 569.662 -42.2141 -1.10318
  456 616.120 -7.91970 -6.23501
  457 644.794 -3.06641 4.56849
  458 651.049 -1.45112 0.690662
  459 651.486 -1.58671 -0.471056
  460 377.479 -0.537532 4.48150
  461 377.291 -0.546292 -4.52037
  462 621.210 -39.7711 33.7996
  463 568.005 22.7681 41.6541
  464 590.661 2.50911 -53.7481
  465 611.700 -13.3615 20.3390
  466 860.384 158.123 -180.639
  467 614.025 -34.3274 -38.8652
  468 8.91600 12.1151 6.66170
  469 8.73806 12.4287 -3.61219
  470 492.029 -27.2620 21.3580
  471 490.501 -26.8700 -21.0591
  472 750.829 18.2555 100.361
  473 213.695 202.801 -224.056
  474 607.412 -2.03147 17.4760
  475 679.628 -39.0728 -59.6530
  476 374.944 -20.9998 62.7799
  477 734.231 130.463 -30.8488
  478 605.320 -33.0337 32.1925
  479 512.680 -24.0823 -11.6793
  480 513.120 -23.6999 11.6589
  481 537.121 3.04454 -23.6288
  482 373.827 -20.9039 -63.1117
  483 549.357 0.458741 23.6562
  484 519.552 -59.5943 -82.6598
  485 518.294 -59.6846 83.0373
  486 623.444 -4.43836 15.1195
  487 574.778 54.4555 5.03172
  488 570.336 11.5944 201.418
  489 842.736 169.577 -1.05311
  490 585.072 -10.4064 2.30962
  491 585.093 -10.3722 -2.43912
  492 459.153 -7.73844 -7.83120
  493 459.197 -7.67985 7.80913
  494 244.743 10.3821 114.533
  495 608.277 -29.5616 -38.3927
  496 553.195 -12.2936 -0.758731
  497 553.140 -12.2590 0.765584
  498 483.877 -50.8935 67.5501
  499 249.264 13.8432 -117.339
  500 608.101 -49.7858 -15.4895
  501 11.7243 4.81016 2.57521
  502 541.521 28.5053 1.81456
  503 586.860 -7.40875 -0.704520
  504 586.857 -7.49615 0.676690
  505 484.075 -50.7857 -68.0398
  506 680.128 -34.1814 74.0630
  507 679.391 24.7489 50.5877
  508 624.747 -4.88201 -2.92258
  509 606.263 -50.4622 15.8169
  510 394.893 -0.228681 -0.858061
  511 394.999 -0.225653 0.852763
  512 606.813 -23.5311 -41.5680
  513 592.301 43.9621 45.2932
  514 671.352 16.6767 -50.0781
  515 392.474 -0.471478 -2.53582
  516 392.591 -0.464073 2.52175
  517 1141.46 165.183 -146.405
  518 615.262 73.1003 39.6145
  519 625.213 -4.57218 2.57786
  520 569.498 -53.8761 11.2029
  521 484.778 -15.5845 12.0699
  522 484.758 -15.6926 -12.0455
  523 658.355 -40.3571 10.3895
  524 635.856 -12.9260 -52.6574
  525 711.837 139.312 27.1104
  526 595.645 10.3803 55.8000
  527 595.508 -12.0091 5.28806
  528 577.722 -62.0589 -80.6492
  529 603.012 -15.1554 41.5077
  530 1126.08 52.0151 -20.4104
  531 653.208 -49.4674 5.82029
  532 620.892 -4.78179 -0.560502
  533 621.044 -5.04046 0.444550
  534 1137.83 76.2751 71.0231
  535 581.793 -0.0611671 47.4733
  536 800.184 137.535 -3.19989
  537 606.489 -16.9474 -19.4541
  538 288.149 -2.50602 -19.1327
  539 288.931 -2.38331 18.9552
  540 416.710 -38.8421 -90.8669
  541 417.089 -38.1968 90.2391
  542 595.170 -11.5491 -5.26374
  543 649.246 23.8115 -58.2511
  544 571.279 -38.8333 3.31576
  545 617.808 70.7607 -40.9858
  546 617.286 -7.58743 20.3161
  547 764.891 41.0620 -18.2324
  548 532.177 -18.1392 -4.73234
  549 532.038 -18.0917 4.69473
  550 575.083 -27.2750 6.27801
  551 836.548 169.566 -23.0357
  552 608.500 26.6832 57.8832
  553 262.952 67.2965 168.437
  554 580.291 -34.6653 136.651
  555 756.436 42.3143 -151.850
  556 621.877 51.4535 -53.6191
  557 546.830 -47.6652 -118.832
  558 593.007 -65.2192 -28.0363
  559 617.523 -62.8881 -38.9703
  560 84.3685 112.482 -106.253
  561 621.226 -8.43589 -11.8108
  562 926.396 179.512 -55.6506
  563 577.979 -26.2345 -7.46870
  564 582.262 -19.2871 6.21068
  565 581.739 -18.8744 -5.88356
  566 414.123 -2.08449 -5.67381
  567 414.222 -2.05782 5.64364
  568 64.7409 5.88810 -34.2820
  569 67.7480 6.19124 35.0310
  570 309.264 -13.9736 -65.9726
  571 311.457 -14.0562 65.9174
  572 590.375 -32.2154 -16.4289
  573 599.571 -65.4953 30.0024
  574 616.179 -58.8047 -2.28768
  575 511.809 -9.01228 -2.30642
  576 511.788 -8.95678 2.29643
  577 482.818 -50.9052 -101.562
  578 536.804 -44.4070 125.405
  579 471.712 -47.9209 102.049
  580 608.774 -13.6510 -53.0576
  581 392.563 -6.08419 20.1772
  582 392.375 -6.14439 -20.3197
  583 584.570 32.6043 -45.5891
  584 584.106 -1.04056 -20.7620
  585 724.902 155.737 -11.7581
  586 480.449 -7.01681 -2.12800
  587 480.472 -6.97614 2.11985
  588 617.951 -1.95931 -11.4112
  589 436.052 -14.0898 -22.7959
  590 436.085 -14.0496 22.6246
  591 352.573 15.4544 160.387
  592 601.471 -27.9565 -27.0508
  593 341.906 -18.5061 115.500
  594 591.134 -30.8488 16.9128
  595 619.867 -9.28773 13.1447
  596 611.269 -6.26680 -2.48853
  597 441.972 -5.09620 -5.42305
  598 442.039 -5.05774 5.40134
  599 695.988 137.912 -24.8286
  600 341.650 -17.8743 -115.876
  601 589.107 -25.7995 -13.1848
  602 534.588 -10.0687 -1.35094
  603 534.539 -10.0043 1.34613
  604 980.152 131.230 -23.7616
  605 366.264 -2.13687 11.0377
  606 365.969 -2.15678 -11.1268
  607 556.827 13.1212 39.3153
  608 775.675 68.0220 0.884034
  609 374.956 1.74004 -159.014
  610 198.375 4.34695 -87.8598
  611 199.876 3.30798 87.4038
  612 472.494 -26.8903 28.7556
  613 477.080 -27.6846 -28.0679
  614 788.681 159.712 5.97304
  615 608.977 -6.47063 2.17636
  616 534.986 15.5606 -23.8506
  617 657.953 117.428 23.9586
  618 655.892 121.798 -15.9543
  619 538.913 -29.6285 -7.42987
  620 542.791 -29.0008 5.55945
  621 384.255 84.8485 -226.900
  622 468.340 -15.4744 -16.2775
  623 468.393 -15.3086 16.2356
  624 1137.46 233.472 176.026
  625 607.424 -20.1146 45.2000
  626 357.486 -12.0917 -42.2140
  627 917.712 227.879 158.531
  628 358.266 -12.0327 42.0826
  629 575.095 -21.5810 -158.579
  630 421.228 -1.78757 -2.08477
  631 421.318 -1.77246 2.07634
  632 517.743 4.94335 20.8350
  633 242.553 -3.41077 -37.8152
  634 243.727 -3.42076 37.5506
  635 532.217 -37.2968 14.5449
  636 556.561 -44.3566 -7.20479
  637 648.482 -1.67202 -4.30673
  638 383.473 -0.499679 3.36888
  639 383.321 -0.509351 -3.39722
  640 504.691 -11.2316 -3.83409
  641 504.682 -11.1780 3.81314
  642 571.298 -63.7360 81.3114
  643 659.371 73.5627 -52.8482
  644 446.087 -20.1200 -29.3105
  645 445.813 -19.7902 29.1228
  646 522.909 -37.1442 -18.7737
  647 814.113 176.108 9.43665
  648 612.717 -59.5407 5.52035
  649 536.462 -12.9487 -2.63768
  650 536.392 -12.8962 2.63453
  651 729.558 80.7361 35.7496
  652 614.908 -9.28674 -22.0606
  653 552.224 -0.520584 -19.2296
  654 261.261 -8.96601 -83.3126
  655 261.972 -9.19165 82.6941
  656 521.214 -44.5006 -28.5673
  657 775.774 168.793 -0.113064
  658 607.801 82.1242 -17.8490
  659 411.695 -3.41198 -10.2792
  660 411.800 -3.36588 10.2111
  661 563.276 -16.1882 -0.550134
  662 563.381 -16.1942 0.654954
  663 1025.69 133.405 59.0949
  664 656.005 -2.08824 1.04522
  665 638.024 -2.81917 7.60025
  666 635.954 -2.81960 -9.06468
  667 605.803 -56.6036 3.42560
  668 455.874 -5.00143 -2.70640
  669 455.928 -4.96958 2.69682
  670 651.253 103.807 37.1435
  671 826.793 182.948 -16.0093
  672 461.486 -33.5622 -41.5137
  673 461.403 -33.2535 41.3357
  674 569.916 -58.6387 -16.7371
  675 604.617 36.0585 -54.5966
  676 707.510 2.36111 16.8582
  677 480.572 -8.66078 -5.66888
  678 480.597 -8.61234 5.65101
  679 415.672 -36.1103 -81.9996
  680 600.246 -58.2180 1.93801
  681 501.919 -55.6053 74.5164
  682 243.508 76.0475 -162.759
  683 471.334 -43.1595 57.5021
  684 568.950 0.169705 17.6397
  685 416.082 -35.7134 81.5004
  686 588.785 -26.2702 13.3469
  687 471.423 -42.9627 -57.9701
  688 491.390 6.78181 4.39424
  689 381.032 -9.70563 30.2076
  690 380.712 -9.70869 -30.3888
  691 502.076 -57.0394 -75.3110
  692 617.294 -40.9236 -32.6103
  693 567.319 -8.44013 -0.211106
  694 567.408 -8.51625 0.212702
  695 630.138 -40.4590 31.7732
  696 574.027 -59.9691 19.1354
  697 695.272 64.0242 48.9695
  698 629.275 -12.0057 54.7530
  699 605.591 -22.0596 32.5388
  700 584.354 48.2861 -34.5849
  701 695.932 116.619 38.9974
  702 602.156 -8.48797 -32.6258
  703 597.949 -20.2202 15.4400
  704 623.438 97.1569 9.60568
  705 609.212 -10.6251 27.9368
  706 195.394 133.954 171.101
  707 566.183 -65.2677 -48.9554
  708 655.361 11.8109 55.1100
  709 659.949 -20.5361 -36.8011
  710 653.808 -1.18041 2.25087
  711 604.665 -21.1593 -25.0688
  712 567.129 -65.7700 44.9009
  713 1070.79 95.0446 -15.7808
  714 352.065 -1.34694 11.5321
  715 351.681 -1.36083 -11.6262
  716 611.567 -11.6540 -11.0185
  717 657.379 -0.926597 -2.23217
  718 520.371 -45.2352 28.7057
  719 621.190 -23.3575 49.2863
  720 925.295 228.803 -81.1426
  721 588.860 -42.7708 12.6445
  722 649.656 -43.0248 -15.5794
  723 598.138 -19.7061 -15.1801
  724 656.405 -1.47106 -0.594686
  725 608.540 -0.117374 58.2434
  726 29.4731 32.6919 39.4354
  727 675.284 -24.6316 -106.686
  728 737.887 45.2016 18.6118
  729 617.123 -63.3299 35.5085
  730 450.924 -10.3462 13.2496
  731 450.907 -10.4824 -13.3003
  732 559.690 305.629 -305.311
  733 630.318 -41.9754 -28.8926
  734 489.618 3.01130 -8.41049
  735 561.924 3.32485 38.1153
  736 609.652 -30.7626 38.9422
  737 584.335 -49.2446 3.70252
  738 603.494 -55.3782 -87.4443
  739 581.006 -45.9702 -4.99076
  740 680.686 -32.4800 0.167485
  741 627.746 -5.69499 6.30613
  742 565.076 -33.8926 1.31888
  743 1006.07 200.961 -109.105
  744 600.377 -16.5333 12.0068
  745 598.556 9.94137 -57.2320
  746 505.960 -5.29642 177.614
  747 639.205 51.3775 57.6539
  748 550.193 -43.0692 9.88807
  749 430.198 -33.2463 -60.2085
  750 430.277 -33.1705 59.7728
  751 589.112 66.3420 -8.01375
  752 595.939 -6.96403 50.6235
  753 601.216 -14.4544 -42.5659
  754 565.690 -34.6112 -1.46333
  755 547.540 -48.7812 18.1899
  756 628.008 103.035 -10.7189
  757 583.644 -50.5265 -1.41404
  758 585.237 -37.1511 12.5659
  759 591.349 -8.19049 1.65153
  760 591.672 -7.99234 -1.63006
  761 794.554 172.861 0.0607573
  762 647.620 -55.3088 -26.2191
  763 606.441 -18.9369 25.0687
  764 627.788 -5.69731 -5.66130
  765 638.690 4.15432 -57.7439
  766 721.835 39.0359 -28.8438
  767 370.807 -0.232046 -5.46030
  768 371.041 -0.227477 5.41395
  769 5.86106 -9.33182 -6.39193
  770 619.360 -0.889668 10.5317
  771 573.335 -0.711790 -41.9195
  772 590.014 -5.55068 36.4837
  773 528.520 69.7590 257.564
  774 670.808 136.573 -1.29304
  775 480.313 -33.6807 33.0943
  776 92.4803 1.75199 -33.3907
  777 94.7135 1.26332 33.7296
  778 585.376 -4.12696 -41.3697
  779 481.479 -33.9951 -33.1080
  780 624.190 -6.23994 4.59793
  781 331.586 -13.7002 56.2117
  782 328.924 -13.6448 -56.1915
  783 600.304 -16.0746 -11.6773
  784 395.048 -9.41193 -26.3895
  785 395.240 -9.35651 26.1880
  786 624.160 -6.33514 -15.0131
  787 484.745 -12.5749 -9.67960
  788 484.773 -12.5025 9.68499
  789 680.370 -4.15301 -36.3682
  790 616.728 -6.53973 -57.9923
  791 326.737 -1.92047 -14.5887
  792 327.299 -1.90229 14.4373
  793 21.0697 7.96711 -21.1250
  794 23.6846 8.42182 22.1660
  795 510.619 2.59789 -15.1077
  796 562.212 -63.1513 -37.5648
  797 -6.18962 -4.18323 10.9505
  798 -5.52331 -5.12667 -11.0183
  799 584.487 -12.2129 3.74008
  800 632.182 -49.6251 -13.4851
  801 657.145 97.0187 -43.1564
  802 626.593 -5.65218 -4.39182
  803 1293.98 266.681 -242.796
  804 584.362 -12.1837 -3.68398
  805 872.727 164.699 15.3696
  806 627.444 18.2635 -60.6744
  807 689.458 52.3517 -50.4623
  808 126.972 -1.45608 -30.5365
  809 128.934 -1.62409 30.4903
  810 402.191 -5.40935 15.8222
  811 402.045 -5.45098 -15.9407
  812 387.268 -0.761837 2.99901
  813 387.138 -0.770253 -3.01862
  814 699.230 117.454 -38.4350
  815 424.894 -2.35305 -4.53180
  816 424.980 -2.32709 4.51190
  817 597.709 -6.00232 -52.9196
  818 841.159 94.1369 84.1195
  819 544.014 12.6135 -33.1345
  820 197.504 -1.67590 32.3649
  821 196.080 -1.69211 -32.5929
  822 679.870 22.1896 187.089
  823 611.067 -11.7470 11.3698
  824 556.197 37.3469 -13.7814
  825 266.652 -0.314953 21.8485
  826 265.469 -0.196763 -21.9901
  827 393.857 -1.76344 -7.82564
  828 394.005 -1.73812 7.76588
  829 72.0391 63.4964 57.3972
  830 577.147 14.0393 48.8411
  831 639.325 93.5665 -37.4380
  832 683.931 79.5379 -50.9864
  833 457.552 -16.6738 -20.9302
  834 457.323 -16.5653 20.9194
  835 710.047 149.652 16.9655
  836 608.704 -5.73023 -0.481013
  837 608.754 -5.68944 0.576441
  838 605.877 -18.4970 -33.1090
  839 511.331 -33.5556 20.6485
  840 559.006 -62.7759 37.6083
  841 650.938 -53.2968 57.8708
  842 507.738 -14.5054 -6.46899
  843 507.744 -14.4624 6.43746
  844 581.430 54.1050 22.2892
  845 548.478 7.85217 -35.6962
  846 151.822 191.306 177.842
  847 549.156 -48.3674 -16.8762
  848 551.319 -24.5927 -1.78240
  849 551.605 -24.6620 1.74427
  850 606.291 -9.03031 55.2888
  851 599.154 -39.5588 -22.4101
  852 537.852 -35.2636 -10.3956
  853 1178.89 38.1389 -56.9831
  854 512.038 -47.9417 38.0929
  855 511.590 -48.5387 -38.6480
  856 604.965 -7.40410 27.6744
  857 897.301 234.483 -60.9910
  858 482.063 -43.1464 -46.2739
  859 529.294 -59.3251 45.2127
  860 481.997 -42.6498 45.9059
  861 521.479 -20.7351 -7.79199
  862 521.483 -20.6800 7.75046
  863 81.8870 33.2951 49.6584
  864 649.692 48.5530 -57.8363
  865 501.894 -19.2058 -10.9987
  866 501.995 -19.0261 11.0320
  867 496.534 -8.08048 -1.35681
  868 496.535 -8.03235 1.34997
  869 542.062 -10.9904 -1.08197
  870 542.002 -10.9284 1.07571
  871 447.815 -8.30982 -11.3860
  872 447.864 -8.22281 11.3486
  873 503.405 -25.9535 -16.0465
  874 503.481 -25.7985 16.1183
  875 13.2280 -0.214581 -8.72530
  876 748.828 140.736 25.3585
  877 645.017 -22.8436 -44.1238
  878 528.780 -58.4501 -45.6214
  879 569.950 -18.6165 2.64802
  880 569.715 -18.4435 -2.51140
  881 621.935 0.671124 59.2937
  882 668.694 -47.6046 -35.5631
  883 588.777 45.6203 -224.453
  884 278.864 -5.17154 112.673
  885 -6.40514 6.49864 -9.02589
  886 -5.18239 7.35492 9.81471
  887 81.5106 35.3977 -50.7587
  888 605.721 -17.8402 19.2642
  889 634.016 -4.63035 -7.99340
  890 571.495 -55.3540 99.1502
  891 278.240 -4.92956 -113.078
  892 636.816 -52.4927 7.27643
  893 702.433 -18.9301 89.0860
  894 527.382 2.23291 15.9789
  895 597.771 56.9396 37.7246
  896 329.446 -18.3286 82.2326
  897 328.237 -18.4732 -82.7182
  898 394.320 -18.1038 -46.2782
  899 407.266 -20.6708 -142.908
  900 639.158 -15.1849 50.7924
  901 867.972 207.903 42.2056
  902 643.071 24.6313 58.9836
  903 607.690 -13.2661 -30.4224
  904 415.442 -18.5121 146.411
  905 769.727 142.947 -15.6521
  906 81.1009 67.8756 -70.1741
  907 567.495 -1.03941 -16.8259
  908 394.722 -17.9640 45.9154
  909 476.995 -10.1763 8.43785
  910 476.968 -10.2373 -8.45109
  911 599.976 -39.3410 23.2843
  912 619.044 -4.60823 1.57404
  913 458.204 3.82355 -176.742
  914 650.820 -1.67807 3.75929
  915 646.968 -1.41027 -4.94381
  916 500.133 4.56867 -13.9586
  917 628.511 -2.66784 -9.26661
  918 477.780 -21.7335 -19.8358
  919 478.094 -21.4265 19.9040
  920 -14.2803 6.16668 -8.02317
  921 -20.3617 3.72528 8.75854
  922 619.000 -4.31972 -1.64262
  923 215.610 -5.05214 76.1822
  924 214.473 -4.63199 -76.5754
  925 667.137 96.9371 45.2316
  926 1152.50 20.9658 17.3861
  927 629.762 69.8663 48.8025
  928 702.284 -23.8217 31.0301
  929 616.630 -34.5865 38.8499
  930 765.733 160.019 -12.0465
  931 490.574 2.40462 10.5389
  932 592.651 -14.4459 -6.59139
  933 619.368 33.3722 -59.1862
  934 737.561 23.5553 -2.95533
  935 579.184 -35.8298 -9.07382
  936 309.448 -1.56522 -16.2639
  937 309.702 -1.50875 16.0518
  938 609.827 -14.7377 -23.1184
  939 22.5513 27.8519 8.27305
  940 585.624 -60.7641 -11.4269
  941 518.920 15.9381 -1.43611
  942 761.618 166.040 -7.95686
  943 125.373 92.8822 -113.506
  944 590.021 -4.41861 -32.6888
  945 417.700 -6.51482 -14.9162
  946 417.792 -6.44249 14.8107
  947 4.24462 -15.9152 11.8411
  948 406.056 -29.6073 -66.3881
  949 596.980 -34.7245 -21.9329
  950 386.547 0.843408 -1.27000
  951 386.659 0.846501 1.26329
  952 607.867 73.7008 -30.0356
  953 639.934 -2.43663 -0.749065
  954 639.981 -2.45718 1.01068
  955 406.265 -29.5406 65.9895
  956 605.938 -0.990673 -12.7634
  957 691.113 5.20088 34.4562
  958 614.135 -9.22222 8.60530
  959 105.099 25.1499 -61.4798
  960 635.094 -4.31745 7.18664
  961 584.800 4.93041 52.0196
  962 616.534 85.1185 26.6895
  963 614.299 7.14919 -60.3445
  964 429.987 -22.3280 -40.1976
  965 658.028 -23.5800 35.2706
  966 430.273 -22.2561 39.8387
  967 21.7639 22.9111 -4.64686
  968 78.9742 12.4538 45.1833
  969 356.343 -5.90930 27.1421
  970 355.945 -5.90732 -27.2704
  971 593.076 -14.6890 7.03373
  972 642.644 111.026 14.5277
  973 329.000 29.2740 -168.249
  974 536.953 -33.2104 9.36231
  975 504.255 -52.3612 -55.7414
  976 729.785 139.364 28.1451
  977 563.198 -10.3037 -0.164287
  978 563.172 -10.2556 0.157788
  979 614.296 -11.8415 -16.1953
  980 576.358 50.0586 -20.5475
  981 1238.23 377.915 253.560
  982 127.370 6.48980 -58.1943
  983 129.080 5.37597 58.2953
  984 9.50624 -7.43168 5.36146
  985 577.464 32.3353 42.1796
  986 504.207 -52.6965 55.3714
  987 621.005 -29.5644 -44.9542
  988 674.986 55.1595 55.8898
  989 643.948 -52.0035 -69.4485
  990 936.310 196.527 68.8751
  991 553.656 -9.27805 -0.584646
  992 553.587 -9.21126 0.583888
  993 644.304 -26.5573 41.5102
  994 46.0866 85.6040 82.9599
  995 302.957 -6.02425 38.7019
  996 302.111 -5.94528 -39.0647
  997 357.301 -16.8709 53.1920
  998 356.146 -16.5977 -53.3558
  999 400.781 -15.9024 38.5625
  1000 438.148 -3.15842 -2.00201
  1001 438.221 -3.13681 1.99530
  1002 1032.82 343.611 -222.867
  1003 952.303 239.402 103.865
  1004 400.464 -15.9730 -38.8444
  1005 663.293 -3.19738 46.0631
  1006 600.498 62.3562 -36.2172
  1007 424.505 -36.8906 118.686
  1008 540.720 -63.9811 -66.3505
  1009 617.142 -5.31553 -18.3596
  1010 284.350 18.4614 137.699
  1011 364.487 -27.7291 94.7465
  1012 554.154 28.8613 -26.5643
  1013 624.927 -12.5440 -55.5551
  1014 763.789 340.242 345.249
  1015 526.187 16.5708 19.0402
  1016 703.867 149.972 -2.08866
  1017 512.143 21.0119 -200.307
  1018 526.815 -55.0501 -39.3445
  1019 657.541 -1.02772 -1.79461
  1020 640.750 58.8069 -56.1045
  1021 387.651 -2.23034 9.94910
  1022 387.470 -2.25240 -10.0280
  1023 14.8372 14.0239 -23.6707
  1024 430.747 -18.9767 -33.6228
  1025 364.028 -28.0792 -95.3920
  1026 430.469 -18.9466 33.3004
  1027 611.517 -18.7980 51.4219
  1028 549.779 -33.7808 -4.72377
  1029 580.518 10.9060 -50.5276
  1030 597.728 74.5885 10.5821
  1031 790.050 52.2456 39.0789
  1032 604.301 -46.0903 21.5208
  1033 390.021 -30.6301 -72.6336
  1034 576.308 20.7113 -47.4804
  1035 427.884 -36.4335 -119.221
  1036 811.388 174.114 -4.96402
  1037 562.088 37.2867 24.1668
  1038 695.637 -3.65747 -24.4158
  1039 530.034 -55.1022 36.6346
  1040 605.582 -19.4482 39.2987
  1041 600.848 -31.9417 26.6430
  1042 597.532 -30.2818 22.7089
  1043 733.995 94.1570 -37.0958
  1044 598.966 -9.79796 40.7675
  1045 539.998 -64.1572 65.3236
  1046 576.317 -23.7725 5.72049
  1047 390.272 -30.7009 72.2891
  1048 543.017 -39.6421 -11.1634
  1049 321.864 -15.8417 -101.284
  1050 452.985 -46.7732 81.0695
  1051 608.720 -4.35284 -21.5534
  1052 594.923 -6.76128 -46.7229
  1053 516.447 -40.3165 -24.9007
  1054 322.393 -16.2591 100.569
  1055 559.231 1.54387 -33.1155
  1056 418.804 -27.0577 -51.7520
  1057 743.405 156.983 17.0081
  1058 172.978 27.2918 -98.1678
  1059 1225.87 86.4073 115.700
  1060 303.633 21.4674 -143.819
  1061 597.090 -49.5824 -11.1224
  1062 418.940 -26.8426 51.3787
  1063 553.984 6.19768 37.2157
  1064 318.928 -6.12868 32.0658
  1065 318.801 -6.27707 -32.3617
  1066 606.163 -17.0130 -47.8091
  1067 637.554 -3.73801 2.63203
  1068 628.974 -1.61314 9.31389
  1069 625.499 20.6848 60.6628
  1070 587.445 -4.40787 44.1018
  1071 451.183 48.9859 216.280
  1072 661.253 -0.718173 0.787951
  1073 631.635 85.2773 38.7952
  1074 540.643 8.20033 32.1961
  1075 635.705 -2.63640 8.85798
  1076 421.891 -4.13246 -8.46266
  1077 421.977 -4.08709 8.41823
  1078 272.582 -7.43262 -53.6159
  1079 273.531 -7.70319 53.3027
  1080 542.468 27.5496 13.5559
  1081 791.189 46.8518 -67.9297
  1082 727.354 2.22297 -118.427
  1083 593.049 -0.602082 -13.3555
  1084 453.076 -47.1115 -81.6433
  1085 517.544 -38.3530 22.5928
  1086 596.134 -1.42939 13.9195
  1087 619.950 -45.2521 -25.8669
  1088 400.895 -0.717727 4.95513
  1089 400.782 -0.731842 -4.98057
  1090 595.982 -51.0009 11.1024
  1091 567.444 -11.9775 0.328928
  1092 567.348 -11.9931 -0.299720
  1093 552.710 -55.4292 25.0333
  1094 703.659 -22.1456 -15.7232
  1095 335.565 -0.530837 -9.10669
  1096 336.054 -0.512294 9.02236
  1097 484.565 -31.2500 -136.637
  1098 519.191 -12.3290 3.85543
  1099 519.229 -12.3866 -3.87989
  1100 311.469 172.014 237.756
  1101 710.473 58.9418 -43.3819
  1102 110.544 52.3341 -76.0842
  1103 614.373 -9.69546 -8.29327
  1104 170.793 56.9286 -112.740
  1105 351.972 -21.6147 -68.7399
  1106 660.925 -0.998919 0.567963
  1107 661.122 -0.954152 -0.403182
  1108 606.905 -34.8791 -32.8900
  1109 537.098 -60.6050 -89.6481
  1110 173.143 23.2378 93.5397
  1111 660.984 65.3317 53.8174
  1112 597.277 -6.65556 -0.615945
  1113 597.356 -6.65670 0.666407
  1114 647.621 -40.9407 109.235
  1115 678.638 134.709 20.3298
  1116 411.965 -9.38344 -21.1721
  1117 412.078 -9.34550 21.0460
  1118 309.120 34.5102 170.000
  1119 578.974 3.12429 -48.7990
  1120 185.742 58.5500 120.799
  1121 728.223 -11.0121 -42.7858
  1122 725.447 158.427 5.72418
  1123 502.390 -39.1293 29.4216
  1124 474.073 2.82539 -2.05840
  1125 629.364 -5.91315 10.9846
  1126 649.475 -1.05864 4.24770
  1127 155.121 0.199394 -27.1834
  1128 156.909 0.134097 27.0165
  1129 525.387 9.22888 -23.9285
  1130 534.344 -15.6796 -3.64744
  1131 534.239 -15.6201 3.63244
  1132 57.6722 102.462 -88.5341
  1133 89.8972 212.125 -171.100
  1134 540.677 -21.0393 3.81898
  1135 540.859 -21.0216 -3.85674
  1136 557.394 -13.6613 0.135861
  1137 557.317 -13.6418 -0.0979140
  1138 150.429 95.5114 122.315
  1139 448.080 -5.19262 -4.20745
  1140 448.142 -5.15875 4.19181
  1141 559.503 42.6715 -0.538117
  1142 688.755 95.9103 -248.625
  1143 674.990 115.827 -34.9225
  1144 614.669 -23.7852 -48.1499
  1145 605.192 -30.4310 -33.7820
  1146 502.598 -39.4767 -29.8797
  1147 512.797 1.84711 14.7679
  1148 570.784 35.9283 -35.3043
  1149 563.430 30.6644 33.8106
  1150 575.959 -23.1067 -5.58794
  1151 551.116 -33.1244 4.28944
  1152 503.686 -31.9615 -22.5181
  1153 596.958 -3.60675 25.8855
  1154 1028.67 103.487 14.2725
  1155 600.508 -12.9176 47.0688
  1156 604.405 39.7416 52.4882
  1157 555.229 -54.3911 -19.9019
  1158 75.2763 11.4077 -43.6524
  1159 565.620 -26.2444 -2.94742
  1160 389.188 -0.462951 -0.279812
  1161 389.293 -0.460736 0.277671
  1162 683.366 -18.0933 19.9467
  1163 650.928 -54.9413 30.2475
  1164 930.038 165.343 42.5023
  1165 237.649 -0.366189 -22.4284
  1166 238.877 -0.317366 22.2796
  1167 508.879 -10.2058 -2.93687
  1168 508.863 -10.1507 2.92051
  1169 567.114 -49.8834 -6.02204
  1170 477.965 2.37417 6.75936
  1171 580.397 -41.3463 8.09852
  1172 35.2529 41.8430 -22.7887
  1173 109.240 53.1256 74.3094
  1174 392.069 -21.9113 131.936
  1175 673.069 127.288 -24.9929
  1176 637.844 -1.91037 -7.01688
  1177 663.521 -1.20720 0.320809
  1178 664.069 -1.58567 -0.169309
  1179 403.127 -0.744588 -0.858714
  1180 403.228 -0.738184 0.853787
  1181 620.625 39.6516 59.1962
  1182 904.745 152.945 -3.28744
  1183 640.337 105.299 -26.0730
  1184 477.200 -35.6190 135.789
  1185 390.013 -21.1422 -131.663
  1186 436.034 -28.4546 -46.6722
  1187 593.575 -17.0051 9.29042
  1188 823.107 182.743 15.0488
  1189 436.101 -28.3013 46.3488
  1190 605.350 -11.1203 7.02551
  1191 549.809 20.8447 32.3396
  1192 600.875 18.7383 57.1844
  1193 844.984 188.256 26.0889
  1194 509.731 -13.1390 5.40370
  1195 509.746 -13.1921 -5.43286
  1196 613.643 -11.9984 16.8532
  1197 376.632 -3.72275 15.4801
  1198 376.381 -3.75868 -15.6009
  1199 599.812 -8.72494 -2.77394
  1200 249.896 150.477 -231.053
  1201 519.616 -29.5664 -145.499
  1202 496.626 -15.2316 -9.32632
  1203 496.685 -15.1727 9.33047
  1204 639.762 -3.47367 2.47634
  1205 608.518 -8.54385 5.57539
  1206 35.4586 46.3070 35.0519
  1207 657.737 -0.917367 2.12343
  1208 81.9216 106.596 105.659
  1209 595.203 -9.43956 -3.64580
  1210 -0.441405 -14.1806 -12.4949
  1211 425.901 -41.6456 -102.376
  1212 424.834 -40.6541 101.407
  1213 657.703 -1.31969 -2.38177
  1214 569.052 -30.0579 -3.80590
  1215 639.445 -3.22064 -2.45850
  1216 520.056 -16.6676 -5.71268
  1217 520.018 -16.6188 5.66723
  1218 599.445 -8.67320 2.57224
  1219 565.226 -25.7189 2.91749
  1220 545.039 -17.5978 2.04567
  1221 545.214 -17.6326 -1.98986
  1222 638.781 -3.31404 -1.98311
  1223 554.654 -58.7587 -100.751
  1224 626.120 -4.45141 -1.94121
  1225 597.589 -9.67952 4.01791
  1226 428.241 -4.31575 -6.37416
  1227 428.322 -4.27551 6.34436
  1228 474.044 -6.72039 -3.48890
  1229 474.077 -6.67962 3.47537
  1230 752.513 118.219 29.6699
  1231 633.519 -49.0060 17.3191
  1232 437.044 -2.43525 167.214
  1233 362.654 -0.484111 5.95305
  1234 362.367 -0.489897 -6.00413
  1235 603.499 -11.3292 35.0626
  1236 576.350 -9.19881 0.362200
  1237 576.365 -9.17246 -0.362141
  1238 662.963 128.011 11.7839
  1239 601.295 -63.1988 81.3733
  1240 361.600 -4.78021 21.5382
  1241 361.270 -4.81287 -21.6747
  1242 575.800 -14.4053 2.54795
  1243 575.671 -14.5102 -2.43161
  1244 593.241 -16.8195 -8.89640
  1245 553.126 0.167274 17.1128
  1246 931.882 232.117 -82.1342
  1247 604.982 -22.4305 -29.9608
  1248 109.639 24.8636 63.0744
  1249 624.341 -33.5331 41.3010
  1250 512.538 11.6848 -13.1113
  1251 42.0473 29.1118 24.4964
  1252 812.485 94.6205 -17.6443
  1253 610.596 -27.9708 -42.4950
  1254 514.770 7.71551 20.1116
  1255 354.319 -21.6621 68.6763
  1256 618.885 -48.1535 22.4865
  1257 885.695 177.381 65.8358
  1258 214.181 30.5511 118.458
  1259 621.050 -7.85236 -14.5916
  1260 1161.17 13.2169 -11.4333
  1261 1197.24 17.7929 50.5275
  1262 1274.46 42.3415 -120.807
  1263 604.878 -19.1317 -38.1527
  1264 604.212 -27.8377 31.5462
  1265 613.196 -43.8832 28.0796
  1266 -17.8701 2.30900 11.1367
  1267 -16.1815 1.92280 -12.2173
  1268 595.729 -66.1054 -40.6947
  1269 609.105 -61.8745 -58.7563
  1270 481.052 3.27170 -8.32546
  1271 592.973 -67.2278 58.3273
  1272 634.642 -30.3242 -41.7265
  1273 14.7155 19.9377 4.25822
  1274 520.622 -9.54729 1.78353
  1275 520.653 -9.60695 -1.78817
  1276 628.673 -5.50284 9.74099
  1277 605.260 -10.9366 -6.54338
  1278 571.773 -62.3884 -23.4415
  1279 525.499 -28.0957 10.9973
  1280 522.981 -27.6839 -11.6630
  1281 612.260 -13.3094 23.8468
  1282 627.749 -23.2659 -49.2123
  1283 43.5754 30.3503 -24.0124
</Section>

newXOutput 35

<Section columns = "stress_xx | stress_yy | stress_xy">
  1 685.354 -0.355750 1.21593
  2 685.342 -0.340111 -1.21834
  3 395.356 -0.0607809 -0.436827
  4 -4.91451 -4.83769 -7.07153
  5 1189.05 502.590 390.553
  6 1178.43 519.543 -386.831
  7 -5.71593 -4.57529 7.55471
  8 395.248 -0.0619961 0.435886
  9 689.697 -1.24326 0.334742
  10 688.502 -1.92518 -0.423923
  11 687.368 -1.37588 1.31253
  12 686.190 -1.81346 0.215539
  13 683.606 -1.56017 2.06094
  14 681.216 -1.55880 1.41042
  15 675.230 -1.36902 3.00535
  16 666.305 -1.08699 4.46581
  17 658.436 -1.08251 5.05739
  18 646.440 -1.37947 6.20594
  19 629.423 -0.229013 9.29617
  20 613.713 -1.00985 8.94129
  21 595.360 -1.23329 12.7347
  22 568.902 0.856384 11.1827
  23 549.392 1.40722 13.3101
  24 523.899 2.30200 10.4960
  25 506.105 2.58616 10.6213
  26 480.348 3.46490 5.43872
  27 474.847 5.42953 5.86159
  28 471.501 4.54156 -1.74358
  29 475.987 2.78664 -3.77893
  30 484.285 2.59630 -4.64818
  31 503.600 3.19008 -9.24938
  32 522.373 2.52486 -11.6213
  33 549.597 0.676852 -13.7309
  34 571.319 -0.232325 -12.3795
  35 594.212 -0.970920 -12.0470
  36 614.802 -0.799835 -8.43646
  37 632.241 -0.875913 -7.13322
  38 646.423 -1.36077 -5.90846
  39 658.953 -1.02236 -4.00785
  40 666.551 -1.26397 -4.20292
  41 673.906 -1.46707 -3.04869
  42 680.677 -1.70623 -1.20390
  43 684.086 -1.39862 -1.50817
  44 685.670 -0.944988 -0.886121
  45 683.895 -0.652305 -0.813434
  46 689.093 -1.91226 0.315760
  47 689.858 -1.28312 -0.344407
  48 669.617 -0.932031 -0.754279
  49 656.117 -3.33755 -1.44717
  50 639.416 -4.77464 -0.816158
  51 618.913 -6.78661 -1.15356
  52 599.296 -7.32937 -1.36826
  53 578.228 -8.86658 -1.32503
  54 559.462 -9.68207 -0.637410
  55 542.993 -10.5840 -0.114510
  56 523.944 -8.71463 -0.0844701
  57 501.976 -8.01619 -0.322876
  58 480.842 -6.20760 0.0391457
  59 460.861 -3.83642 0.0917417
  60 441.927 -2.64680 0.152880
  61 425.407 -1.24420 0.271833
  62 408.635 -0.247002 -0.488895
  63 395.479 0.574772 0.755045
  64 389.458 1.43840 0.556609
  65 393.153 0.0635084 1.23117
  66 388.239 -0.127835 1.50721
  67 383.503 -0.221219 1.87178
  68 377.176 0.0334794 2.39145
  69 369.218 0.0248150 2.97823
  70 363.007 -0.354164 5.59496
  71 346.514 0.500793 6.08092
  72 334.694 0.00826026 6.88075
  73 317.104 -0.248723 7.82894
  74 296.935 -0.447496 9.50469
  75 271.681 -0.0674937 11.5447
  76 240.904 0.170235 12.7853
  77 213.829 -0.194657 18.3063
  78 161.192 1.64542 17.4002
  79 124.732 1.41457 18.4505
  80 80.4869 -0.408185 20.6469
  81 43.1832 3.23669 21.7183
  82 0.425851 4.96235 13.5255
  83 -31.3561 5.07144 5.38250
  84 -32.1300 5.03110 -0.885878
  85 -32.2231 4.24287 -9.43057
  86 -19.1261 -1.13324 -9.20082
  87 -2.18581 -18.3569 -10.2153
  88 2.06736 -33.4571 -12.4832
  89 5.36154 -51.2695 -6.07585
  90 11.6757 -49.3689 2.51772
  91 24.3532 -1.47257 34.5007
  92 70.7740 126.495 110.237
  93 396.140 403.285 352.691
  94 1445.50 219.109 238.115
  95 1310.05 31.1358 76.6146
  96 1224.44 13.1485 23.4475
  97 1192.95 11.2918 1.73456
  98 1210.07 14.8652 -20.4940
  99 1308.06 29.2992 -60.7495
  100 1523.54 105.693 -202.930
  101 237.234 416.754 -296.974
  102 52.9145 98.3419 -92.4939
  103 26.7071 1.20868 -37.2978
  104 10.9771 -48.7363 -8.04827
  105 3.37481 -38.4663 6.85920
  106 4.04191 -42.3095 10.7261
  107 0.283726 -15.7537 11.3308
  108 -19.9961 -0.635954 8.67695
  109 -33.2340 3.18706 8.17253
  110 -33.8833 6.09621 1.05409
  111 -32.3201 4.97129 -5.06619
  112 -1.90164 5.08493 -12.7299
  113 41.1772 3.26354 -20.7408
  114 78.4489 -0.0557429 -20.3113
  115 122.615 1.52749 -18.4812
  116 159.270 1.68598 -17.5210
  117 212.341 -0.202179 -18.4453
  118 239.635 0.186286 -12.8976
  119 270.570 -0.0643265 -11.6784
  120 296.377 -0.501045 -9.56502
  121 316.327 -0.232442 -7.84361
  122 334.100 0.0291187 -6.94471
  123 346.024 0.495485 -6.13965
  124 362.648 -0.358092 -5.64461
  125 368.924 0.0222543 -3.00845
  126 376.946 0.0310002 -2.41618
  127 383.321 -0.225363 -1.89126
  128 388.092 -0.131393 -1.52072
  129 393.026 0.0605459 -1.23970
  130 389.342 1.43717 -0.560494
  131 395.369 0.574113 -0.757519
  132 408.529 -0.250291 0.487779
  133 425.309 -1.25250 -0.274754
  134 441.841 -2.66485 -0.156264
  135 460.795 -3.86145 -0.0949705
  136 480.800 -6.24379 -0.0424249
  137 501.962 -8.06235 0.320225
  138 523.961 -8.76849 0.0815270
  139 543.035 -10.6452 0.112991
  140 559.521 -9.74357 0.639296
  141 578.316 -8.92255 1.33138
  142 599.377 -7.36738 1.39109
  143 618.980 -6.82067 1.26529
  144 639.535 -4.54765 0.833675
  145 656.561 -3.26266 1.41441
  146 669.749 -1.03695 0.741880
  147 606.205 -57.0177 1.42202
  148 605.656 -56.2386 -1.21179
  149 640.946 91.7786 -28.4846
  150 678.059 39.9134 58.8078
  151 514.276 -49.9679 -116.886
  152 518.552 -49.8589 113.305
  153 505.285 -20.9196 15.5249
  154 505.309 -21.1949 -15.5284
  155 715.474 26.2126 -41.8357
  156 604.657 -22.0986 9.91436
  157 604.392 -21.5910 -9.80064
  158 781.131 172.384 5.33497
  159 621.781 -0.958856 -58.9113
  160 464.637 -35.8035 -52.8426
  161 464.693 -35.5230 52.4287
  162 622.061 -14.2240 52.5503
  163 595.691 43.7523 35.8148
  164 249.520 38.7456 -139.774
  165 275.501 36.8155 147.091
  166 751.201 9.93036 -2.98407
  167 622.203 -24.1429 -35.2550
  168 819.223 179.859 3.73655
  169 562.417 -15.9931 -1.81010
  170 562.310 -15.9560 1.85018
  171 626.295 -8.22175 -4.21610
  172 628.052 -7.46436 3.60198
  173 450.454 -6.02938 -8.75253
  174 450.522 -5.97064 8.71671
  175 666.764 -15.8912 148.814
  176 577.885 24.3865 -38.6644
  177 380.835 -28.1539 -83.3520
  178 381.937 -27.9554 82.8717
  179 429.175 -13.4269 -27.6634
  180 429.229 -13.2811 27.4889
  181 624.919 -16.7471 30.0234
  182 569.747 -38.8950 -5.22273
  183 567.873 -38.6064 6.04354
  184 642.743 -62.5289 -17.2732
  185 646.257 -59.5733 9.38721
  186 883.933 208.840 -37.9969
  187 653.065 104.279 26.5149
  188 651.853 40.0540 -60.1993
  189 663.542 -3.39075 -171.697
  190 644.176 -36.6527 -39.4612
  191 649.854 -26.2645 47.5101
  192 543.866 -61.6309 59.2961
  193 543.894 -61.1725 -59.1450
  194 586.402 7.70662 46.2108
  195 273.806 -7.12215 -102.441
  196 274.409 -7.65201 101.873
  197 990.462 147.364 21.8558
  198 610.996 -36.5811 19.9929
  199 632.297 -12.0679 -19.0853
  200 508.506 -12.1550 -7.38950
  201 508.526 -12.1027 7.37169
  202 611.185 -8.01981 -40.7571
  203 693.651 101.603 -46.9534
  204 586.916 53.0175 -7.15047
  205 388.209 -13.1265 38.3571
  206 387.655 -13.1597 -38.6050
  207 639.986 -7.66143 9.94793
  208 628.913 11.8673 60.7157
  209 513.861 -36.7624 -27.1819
  210 510.706 -34.7904 27.6341
  211 736.472 109.463 40.6513
  212 855.425 123.026 31.0380
  213 63.1892 47.9084 -42.3694
  214 58.5803 44.2805 36.2010
  215 358.424 104.231 242.084
  216 605.032 -40.3132 -14.1738
  217 641.983 -7.34790 -8.96524
  218 580.339 5.37809 -42.5987
  219 414.933 -3.75731 -12.3400
  220 415.070 -3.71648 12.2491
  221 547.587 -25.4489 -7.67535
  222 547.846 -25.6223 7.37445
  223 615.786 -8.41574 34.4706
  224 700.261 -40.2667 23.4583
  225 704.201 142.571 -13.2969
  226 552.316 -52.9704 -29.9918
  227 692.501 -12.1000 34.2080
  228 592.892 -10.4463 1.01076
  229 592.889 -10.3699 -1.01018
  230 548.547 -52.7277 30.9195
  231 625.561 -39.9420 31.5633
  232 863.808 118.954 -66.8054
  233 199.556 118.658 -178.709
  234 540.700 19.5165 9.34664
  235 632.388 55.7353 51.3410
  236 668.582 -4.79667 -51.6257
  237 626.577 -22.7450 -48.5186
  238 345.045 -10.6221 -47.6754
  239 346.146 -10.4689 47.5600
  240 627.108 -7.85604 -26.2081
  241 597.162 -15.5244 4.60122
  242 596.888 -15.5156 -4.39166
  243 133.567 11.3971 -66.8725
  244 135.424 9.97857 66.6210
  245 660.219 -57.9757 -57.6491
  246 652.419 -2.92741 1.12802
  247 653.012 -2.97661 -1.30156
  248 618.627 51.4074 -47.2362
  249 550.320 11.0585 28.1440
  250 1103.16 176.588 119.094
  251 1093.11 124.499 -73.8283
  252 809.556 172.663 1.07762
  253 506.319 -24.8216 154.325
  254 465.996 -16.6113 -161.094
  255 537.616 -11.0400 -3.02248
  256 537.575 -10.9793 3.00583
  257 452.548 -11.5447 17.4000
  258 452.527 -11.6955 -17.5295
  259 640.235 -7.35047 15.5815
  260 622.921 -44.5679 -24.9097
  261 418.046 -0.572833 -2.96251
  262 418.152 -0.561437 2.94784
  263 615.208 -25.2556 -20.2334
  264 272.063 -8.66993 -66.4625
  265 273.110 -8.69551 66.0355
  266 623.475 -27.2891 38.0656
  267 479.205 -50.8702 94.1667
  268 480.294 -51.7742 -93.8701
  269 547.866 21.5197 -13.1040
  270 473.047 -6.88306 -5.92760
  271 473.098 -6.84126 5.90930
  272 589.952 -1.33790 33.8722
  273 700.000 127.296 32.3200
  274 387.073 -4.35141 20.5129
  275 386.795 -4.38513 -20.6637
  276 638.459 -53.6355 15.0005
  277 590.985 -66.6363 -65.8113
  278 655.301 -3.72037 4.44091
  279 466.554 -26.8493 -36.4645
  280 465.838 -26.5640 36.3504
  281 792.965 93.8708 216.023
  282 390.077 -31.6690 111.543
  283 625.177 87.5570 -3.00853
  284 776.936 87.9539 -21.7205
  285 591.548 -45.6972 2.67712
  286 591.646 -68.4228 59.8270
  287 391.133 -31.1846 -112.686
  288 74.8976 92.7983 86.3087
  289 615.316 -25.3270 20.6307
  290 799.270 106.909 14.3283
  291 659.881 -3.33045 -3.85359
  292 608.149 21.5231 -54.4107
  293 595.969 -33.8084 9.14062
  294 583.940 -49.1594 6.18591
  295 606.280 28.0245 52.5361
  296 635.572 -53.6156 -12.8406
  297 894.323 172.238 -17.3514
  298 595.816 -32.5147 -8.70456
  299 484.768 145.367 -293.196
  300 607.650 -64.5549 -17.4449
  301 603.506 -66.3400 24.2233
  302 450.104 -40.2053 -73.7887
  303 414.128 -1.34666 -6.37785
  304 414.252 -1.32276 6.33666
  305 450.340 -40.2518 73.4290
  306 644.736 -1.13738 -60.0651
  307 690.766 -28.6205 -20.0875
  308 533.346 -31.6374 -15.7317
  309 533.068 -31.7136 15.9917
  310 628.109 -54.0861 102.760
  311 631.887 -5.33628 19.8147
  312 757.677 6.09178 43.1643
  313 523.670 -18.1613 -8.93708
  314 523.716 -18.1131 8.89907
  315 480.533 -12.0243 -11.8692
  316 480.551 -11.9207 11.8577
  317 545.146 7.68547 -27.1989
  318 686.011 50.3923 -56.6776
  319 1041.01 283.544 -139.519
  320 622.481 -6.17246 -1.30592
  321 622.173 -6.09614 1.35573
  322 340.788 -1.52397 139.262
  323 477.434 -20.9654 -24.6974
  324 476.624 -20.9131 24.7663
  325 340.719 -2.36504 -138.726
  326 657.115 77.3994 -49.3893
  327 727.921 36.6623 38.9837
  328 627.624 -44.7275 -113.470
  329 583.151 -22.6831 2.79867
  330 582.598 -22.5378 -2.56756
  331 619.612 -13.4204 -9.18164
  332 590.292 -1.02306 -31.6511
  333 655.868 2.64343 58.3259
  334 650.496 -4.99619 -10.6146
  335 402.785 -23.7138 56.0428
  336 402.348 -23.8337 -56.4226
  337 613.446 -1.30821 56.1426
  338 390.114 -2.86607 -12.2881
  339 390.353 -2.84021 12.1930
  340 624.474 -14.8679 15.3203
  341 750.246 152.378 -21.6135
  342 619.387 -13.5016 9.57315
  343 664.127 83.0885 49.3879
  344 634.374 -11.9528 57.1901
  345 508.077 -9.31114 2.85426
  346 508.071 -9.36066 -2.86846
  347 603.546 -2.05482 -49.9240
  348 790.532 165.616 10.7949
  349 663.736 120.731 1.01480
  350 405.300 46.7525 -205.325
  351 46.8445 18.5815 -30.6646
  352 50.8284 20.1392 32.7517
  353 -0.721463 5.45699 11.0189
  354 1.51292 3.53535 -11.6238
  355 1125.07 78.2088 26.2173
  356 549.268 -44.1473 -18.9523
  357 624.856 -14.4021 -14.9276
  358 567.147 -10.3046 0.0464669
  359 567.084 -10.2325 -0.0517167
  360 610.822 67.5236 -25.6230
  361 519.579 -52.4452 48.8876
  362 48.2504 72.5961 -55.1003
  363 519.966 -52.4065 -49.6720
  364 618.310 70.3348 27.2491
  365 624.776 -17.0425 -28.4644
  366 660.669 -37.1442 -32.0682
  367 708.879 148.080 9.09111
  368 661.811 -41.6651 25.1508
  369 287.532 -6.78659 44.3803
  370 285.990 -6.65195 -44.6206
  371 165.732 3.62350 -62.6725
  372 167.230 3.02323 62.4112
  373 552.912 2.25218 27.4214
  374 1009.99 301.268 125.553
  375 643.982 -4.46202 -13.9033
  376 507.642 -42.1486 -37.7540
  377 507.305 -42.0702 37.7090
  378 622.131 -14.6226 -36.9418
  379 701.505 -33.8516 -3.11601
  380 549.249 -44.1196 19.4250
  381 764.278 8.25789 -72.0670
  382 450.442 -3.28726 -2.46161
  383 450.519 -3.26125 2.44914
  384 613.730 -3.70335 -24.0239
  385 342.776 -4.60166 -28.8385
  386 342.953 -4.75826 28.5190
  387 727.824 93.3636 -45.9149
  388 396.605 27.6610 191.341
  389 573.267 -30.0182 -0.814959
  390 573.810 -29.9753 0.796230
  391 674.722 113.476 -30.8784
  392 636.323 -19.0429 -53.7099
  393 633.602 -65.0515 59.0338
  394 535.831 -14.1360 -4.84618
  395 535.783 -14.0806 4.81274
  396 613.124 -47.4353 15.0797
  397 655.973 -3.51894 7.79694
  398 422.426 -14.6846 -34.3599
  399 422.598 -14.6954 34.1065
  400 626.225 21.1434 -60.0290
  401 588.400 -13.2247 1.42245
  402 588.367 -13.2618 -1.35788
  403 611.412 -7.31167 45.4490
  404 575.602 42.3821 12.4870
  405 630.972 -26.9157 46.2557
  406 902.611 187.593 37.5209
  407 313.940 -16.7757 -89.3246
  408 314.754 -16.7738 88.7120
  409 141.934 74.4250 -109.982
  410 667.903 -2.46986 1.92472
  411 357.462 -2.70424 -18.2949
  412 357.891 -2.64714 18.1584
  413 622.473 -16.5179 36.0127
  414 565.149 -61.1462 34.4412
  415 633.548 -8.54423 6.45170
  416 650.632 32.9918 61.9759
  417 148.169 79.2448 114.153
  418 565.927 -60.7642 -32.0365
  419 584.315 -54.1682 -10.3784
  420 202.027 -4.00601 -56.3813
  421 203.330 -4.14118 56.0290
  422 450.959 -36.7306 -134.477
  423 668.442 -10.1974 50.1198
  424 449.488 -37.2022 133.388
  425 618.891 -34.9986 -28.3813
  426 582.848 39.7718 -27.1699
  427 618.918 -27.0928 27.2591
  428 660.084 -3.45947 -5.02961
  429 22.0824 24.8290 13.1195
  430 138.777 164.108 160.723
  431 600.447 -2.17332 23.3869
  432 513.791 7.52788 12.0171
  433 521.694 9.05451 -16.2410
  434 445.179 -6.83902 -12.2852
  435 445.240 -6.75598 12.2205
  436 610.143 -47.3908 -13.4285
  437 618.748 -12.2639 -50.5873
  438 516.197 10.2564 -4.40717
  439 901.304 215.705 52.2419
  440 132.789 42.2697 -82.7740
  441 145.692 38.7630 88.0077
  442 572.734 -20.5288 -0.116333
  443 572.535 -20.4973 0.251765
  444 761.606 166.071 -1.52113
  445 464.968 206.552 299.640
  446 725.617 -9.34436 -1.40492
  447 429.973 -21.6763 -46.6051
  448 430.187 -21.5416 46.2599
  449 434.765 -9.12066 18.8001
  450 434.671 -9.18112 -18.9425
  451 579.095 13.2772 -43.9857
  452 670.883 -1.39995 -1.22345
  453 564.879 26.4626 24.8813
  454 701.897 86.5719 51.5101
  455 585.719 -43.3985 -0.857226
  456 633.226 -8.17912 -6.29309
  457 662.536 -3.17976 4.62627
  458 668.848 -1.51810 0.693157
  459 669.291 -1.65786 -0.469614
  460 389.006 -0.544803 4.62140
  461 388.813 -0.553743 -4.66100
  462 638.597 -40.9018 34.3307
  463 584.378 23.4503 42.6197
  464 607.493 2.58981 -54.9472
  465 628.810 -13.7647 20.6864
  466 883.060 163.185 -186.213
  467 631.255 -35.3055 -39.5578
  468 9.36633 12.4875 6.97596
  469 9.17485 12.8184 -3.84012
  470 506.194 -28.0051 22.1050
  471 504.629 -27.6006 -21.7933
  472 771.096 19.0424 103.662
  473 219.696 209.044 -230.646
  474 624.546 -2.10032 17.8388
  475 698.236 -40.1059 -61.7691
  476 386.047 -21.5816 64.6377
  477 754.712 134.123 -31.2312
  478 622.314 -33.9772 32.7392
  479 527.361 -24.7425 -12.1509
  480 527.813 -24.3508 12.1303
  481 552.790 3.14513 -24.1790
  482 384.901 -21.4821 -64.9756
  483 565.295 0.485900 24.2005
  484 534.199 -61.2871 -85.2290
  485 532.908 -61.3799 85.6236
  486 640.857 -4.58132 15.4063
  487 591.359 56.0460 5.14979
  488 585.939 12.0341 207.313
  489 866.037 174.146 -1.08093
  490 601.457 -10.7306 2.28075
  491 601.478 -10.6956 -2.41369
  492 472.600 -7.93691 -8.10128
  493 472.646 -7.87721 8.07888
  494 252.062 10.6338 118.018
  495 625.370 -30.4079 -39.1037
  496 568.843 -12.6556 -0.859575
  497 568.787 -12.6206 0.866299
  498 497.695 -52.3247 69.6413
  499 256.704 14.1879 -120.903
  500 625.124 -51.1933 -15.5402
  501 12.1352 5.11701 2.50046
  502 557.311 29.3732 1.86015
  503 603.274 -7.65317 -0.690035
  504 603.271 -7.74262 0.661451
  505 497.892 -52.2126 -70.1441
  506 698.736 -35.0586 76.5654
  507 698.317 25.4500 51.4928
  508 642.015 -5.05640 -2.93625
  509 623.236 -51.8871 15.8783
  510 406.906 -0.226020 -0.888231
  511 407.015 -0.222937 0.882853
  512 623.890 -24.2068 -42.3824
  513 609.258 45.2324 46.3237
  514 690.073 17.1538 -50.9825
  515 404.411 -0.476073 -2.61588
  516 404.533 -0.468522 2.60156
  517 1171.40 169.540 -150.168
  518 632.806 75.1774 40.4965
  519 642.488 -4.73949 2.58780
  520 585.528 -55.3851 11.8169
  521 498.806 -16.0042 12.5079
  522 498.785 -16.1144 -12.4827
  523 676.601 -41.4889 10.2123
  524 653.679 -13.2989 -53.6860
  525 731.843 143.172 27.5424
  526 612.609 10.6867 57.0488
  527 612.149 -12.3788 5.30041
  528 593.799 -63.8130 -83.2221
  529 620.032 -15.5969 42.3596
  530 1155.50 53.3998 -20.9303
  531 671.291 -50.8483 6.42806
  532 638.055 -4.95500 -0.551899
  533 638.212 -5.22049 0.432647
  534 1167.55 78.2653 72.7964
  535 598.424 -0.0534587 48.5374
  536 822.137 141.520 -2.63315
  537 623.464 -17.4499 -19.7636
  538 297.130 -2.57081 -19.6868
  539 297.929 -2.44476 19.5053
  540 428.764 -39.9544 -93.5829
  541 429.157 -39.2911 92.9392
  542 611.801 -11.9069 -5.27816
  543 667.477 24.4845 -59.4361
  544 587.378 -39.9243 3.13409
  545 635.413 72.7761 -41.8901
  546 634.561 -7.82588 20.6987
  547 785.743 42.3723 -19.3452
  548 547.331 -18.6473 -4.99326
  549 547.191 -18.5996 4.95436
  550 591.273 -28.0505 6.22230
  551 859.386 174.453 -24.3413
  552 625.792 27.4490 59.1731
  553 270.594 69.2323 173.504
  554 596.306 -35.6110 140.778
  555 776.677 43.8288 -156.506
  556 639.534 52.9210 -54.7964
  557 562.055 -49.0191 -122.443
  558 609.569 -67.0559 -29.1696
  559 634.657 -64.6561 -40.4343
  560 86.9242 116.096 -109.638
  561 638.500 -8.70655 -11.9853
  562 951.620 184.364 -57.3597
  563 594.240 -26.9849 -7.44839
  564 598.612 -19.8494 6.19905
  565 598.076 -19.4263 -5.86562
  566 426.538 -2.12660 -5.85782
  567 426.640 -2.09941 5.82713
  568 67.0669 6.04795 -35.3806
  569 70.1471 6.36057 36.1508
  570 318.608 -14.3680 -67.9192
  571 320.856 -14.4534 67.8653
  572 606.961 -33.1344 -16.5975
  573 616.293 -67.3405 31.1981
  574 633.357 -60.4634 -2.74618
  575 526.495 -9.26640 -2.39724
  576 526.473 -9.20991 2.38696
  577 496.501 -52.3668 -104.637
  578 551.780 -45.6716 129.196
  579 485.117 -49.3001 105.133
  580 625.963 -14.0432 -54.1731
  581 404.348 -6.23598 20.7877
  582 404.154 -6.29745 -20.9329
  583 601.332 33.5615 -46.6335
  584 600.774 -1.07151 -21.2168
  585 745.294 160.015 -11.9119
  586 494.406 -7.20195 -2.20393
  587 494.430 -7.16061 2.19561
  588 635.296 -2.02248 -11.6427
  589 448.883 -14.4594 -23.5137
  590 448.918 -14.4188 23.3387
  591 362.717 15.8432 165.160
  592 618.359 -28.7594 -27.4941
  593 351.903 -19.0764 118.954
  594 607.736 -31.7288 17.0971
  595 637.123 -9.58049 13.3464
  596 628.236 -6.48224 -2.49180
  597 455.029 -5.22044 -5.60766
  598 455.098 -5.18128 5.58559
  599 715.613 141.735 -25.2557
  600 351.640 -18.4294 -119.336
  601 605.649 -26.5425 -13.3016
  602 549.804 -10.3619 -1.41559
  603 549.753 -10.2962 1.41059
  604 1006.55 134.723 -24.4275
  605 377.425 -2.18708 11.3656
  606 377.123 -2.20739 -11.4564
  607 572.937 13.5259 40.2319
  608 796.855 70.0944 1.55668
  609 385.698 1.73235 -163.734
  610 204.481 4.43600 -90.5449
  611 206.018 3.37121 90.0755
  612 486.170 -27.6197 29.6928
  613 490.867 -28.4358 -28.9911
  614 810.496 164.193 5.61223
  615 625.894 -6.69168 2.17263
  616 550.612 16.0506 -24.4136
  617 676.624 120.709 24.4450
  618 674.524 125.197 -16.2804
  619 554.221 -30.4519 -7.82902
  620 558.194 -29.8094 5.90894
  621 395.016 87.3047 -233.526
  622 481.969 -15.8852 -16.8252
  623 482.025 -15.7157 16.7827
  624 1167.42 239.671 180.697
  625 624.538 -20.6943 46.1091
  626 368.237 -12.4160 -43.4545
  627 941.974 234.888 163.746
  628 369.036 -12.3560 43.3211
  629 590.934 -22.1486 -163.304
  630 433.825 -1.82082 -2.15196
  631 433.917 -1.80546 2.14338
  632 532.984 5.10925 21.3288
  633 250.170 -3.50349 -38.9224
  634 251.370 -3.51385 38.6521
  635 547.350 -38.3295 15.1626
  636 572.285 -45.5934 -7.66745
  637 666.333 -1.73482 -4.37095
  638 395.169 -0.506699 3.47771
  639 395.012 -0.516573 -3.50656
  640 519.207 -11.5421 -4.00240
  641 519.198 -11.4876 3.98091
  642 587.232 -65.5379 83.8936
  643 677.950 75.6374 -53.9296
  644 459.130 -20.6587 -30.2295
  645 458.851 -20.3207 30.0374
  646 537.811 -38.1676 -19.4964
  647 836.690 180.924 9.98519
  648 629.809 -61.2184 6.05958
  649 551.721 -13.3213 -2.79694
  650 551.649 -13.2681 2.79345
  651 749.770 83.0427 36.1784
  652 632.126 -9.57370 -22.4743
  653 568.225 -0.525192 -19.6696
  654 269.205 -9.24131 -85.7963
  655 269.932 -9.47219 85.1635
  656 536.047 -45.7324 -29.5791
  657 797.458 173.374 -0.145236
  658 625.196 84.4659 -18.2470
  659 424.018 -3.49011 -10.6029
  660 424.127 -3.44306 10.5335
  661 579.166 -16.6603 -0.432980
  662 579.273 -16.6658 0.539755
  663 1053.10 136.941 60.6770
  664 673.916 -2.16514 1.05223
  665 655.699 -2.91665 7.72750
  666 653.600 -2.91395 -9.22778
  667 622.740 -58.1997 3.14484
  668 469.261 -5.12587 -2.79832
  669 469.317 -5.09349 2.78856
  670 669.715 106.716 37.9161
  671 849.656 187.962 -16.7862
  672 474.843 -34.4802 -42.8159
  673 474.760 -34.1645 42.6343
  674 585.943 -60.2815 -17.5119
  675 621.838 37.0970 -55.8212
  676 727.006 2.46739 16.7861
  677 494.524 -8.89080 -5.87809
  678 494.551 -8.84158 5.85987
  679 427.742 -37.1344 -84.4466
  680 617.038 -59.8577 2.35677
  681 516.157 -57.1796 76.8305
  682 250.632 78.2186 -167.671
  683 484.875 -44.3629 59.2873
  684 585.313 0.175583 18.0353
  685 428.165 -36.7272 83.9358
  686 605.318 -27.0249 13.4650
  687 484.963 -44.1595 -59.7663
  688 506.034 7.00963 4.49979
  689 392.462 -9.95865 31.1068
  690 392.134 -9.96128 -31.2913
  691 516.311 -58.6537 -77.6476
  692 634.585 -42.0858 -33.1180
  693 583.289 -8.70689 -0.186721
  694 583.381 -8.78471 0.188260
  695 647.740 -41.6086 32.2277
  696 590.151 -61.6524 19.9852
  697 714.658 65.8339 49.8219
  698 646.950 -12.3543 55.8580
  699 622.606 -22.7006 33.1422
  700 601.139 49.6919 -35.3771
  701 715.482 119.873 39.6944
  702 619.162 -8.73796 -33.3045
  703 614.703 -20.8123 15.6360
  704 641.239 99.9035 9.81654
  705 626.334 -10.9428 28.4863
  706 201.104 137.947 176.291
  707 582.045 -67.1067 -50.6308
  708 673.707 12.1398 56.1828
  709 678.314 -21.1116 -37.3485
  710 671.713 -1.23259 2.27498
  711 621.623 -21.7778 -25.4955
  712 583.025 -67.6225 46.4621
  713 1099.11 97.5763 -16.1916
  714 362.842 -1.37701 11.8735
  715 362.449 -1.39114 -11.9695
  716 628.610 -12.0135 -11.1592
  717 675.362 -0.968910 -2.25905
  718 535.187 -46.4883 29.7216
  719 638.635 -24.0277 50.2516
  720 950.113 235.465 -84.1358
  721 605.403 -43.9776 12.6755
  722 667.701 -44.2343 -15.5585
  723 614.895 -20.2849 -15.3718
  724 674.319 -1.53233 -0.592043
  725 625.768 -0.122360 59.5077
  726 30.3992 34.0712 40.8240
  727 693.682 -25.2109 -110.082
  728 758.191 46.5503 18.5386
  729 634.261 -65.1072 36.8829
  730 464.155 -10.6148 13.6903
  731 464.137 -10.7540 -13.7419
  732 574.238 315.013 -313.948
  733 647.919 -43.1649 -29.2704
  734 504.218 3.13054 -8.61336
  735 578.130 3.43557 38.9900
  736 626.779 -31.6432 39.6570
  737 600.749 -50.6281 3.48226
  738 620.183 -56.9336 -90.2258
  739 597.344 -47.2627 -4.82037
  740 699.461 -33.3646 0.660246
  741 645.123 -5.88892 6.37723
  742 581.022 -34.8439 1.11331
  743 1033.15 206.367 -112.153
  744 617.170 -17.0261 12.1413
  745 615.586 10.2361 -58.5085
  746 520.027 -5.41774 182.862
  747 657.262 52.8280 58.8864
  748 565.762 -44.2695 10.4155
  749 442.715 -34.1682 -62.0219
  750 442.799 -34.0913 61.5764
  751 606.045 68.2583 -8.19447
  752 612.855 -7.16513 51.7229
  753 618.206 -14.8720 -43.4503
  754 581.652 -35.5843 -1.25946
  755 563.028 -50.1400 18.9556
  756 645.924 105.939 -10.9459
  757 600.041 -51.9471 -1.13021
  758 601.689 -38.2022 12.6205
  759 607.869 -8.45687 1.63463
  760 608.199 -8.25365 -1.61238
  761 816.665 177.574 -0.183614
  762 665.517 -56.8514 -27.3786
  763 623.443 -19.4922 25.5031
  764 645.155 -5.89240 -5.71911
  765 656.629 4.26907 -58.9202
  766 741.771 40.1935 -29.0804
  767 382.144 -0.230795 -5.62645
  768 382.383 -0.226135 5.57921
  769 6.07353 -9.47965 -6.47707
  770 636.738 -0.925602 10.7429
  771 589.780 -0.716947 -42.8660
  772 606.795 -5.71020 37.2769
  773 542.912 71.9483 264.984
  774 689.836 140.362 -1.32035
  775 494.157 -34.6018 34.1754
  776 95.7023 1.79376 -34.4303
  777 97.9864 1.29164 34.7786
  778 602.065 -4.24153 -42.2829
  779 495.348 -34.9234 -34.1908
  780 641.464 -6.45180 4.63494
  781 341.577 -14.0809 57.8633
  782 338.848 -14.0235 -57.8397
  783 617.093 -16.5551 -11.8069
  784 406.853 -9.65409 -27.1807
  785 407.050 -9.59769 26.9752
  786 641.550 -6.54107 -15.2785
  787 498.782 -12.9112 -10.0327
  788 498.812 -12.8375 10.0384
  789 699.250 -4.25252 -36.8719
  790 634.128 -6.72709 -59.2210
  791 336.809 -1.96801 -15.0139
  792 337.383 -1.94935 14.8592
  793 22.0386 8.19857 -21.8388
  794 24.7164 8.66750 22.9114
  795 525.703 2.68463 -15.4639
  796 578.007 -64.9251 -38.9128
  797 -6.34491 -4.28136 11.2439
  798 -5.66847 -5.26021 -11.3226
  799 600.868 -12.5862 3.72130
  800 649.793 -51.0258 -13.4352
  801 675.730 99.7437 -44.0418
  802 643.916 -5.84651 -4.42897
  803 1326.95 273.859 -248.953
  804 600.740 -12.5567 -3.66478
  805 896.725 169.126 15.9070
  806 645.153 18.7829 -61.9727
  807 708.686 53.8408 -51.3652
  808 131.263 -1.50253 -31.4667
  809 133.268 -1.67501 31.4196
  810 414.243 -5.54392 16.3076
  811 414.093 -5.58636 -16.4284
  812 399.076 -0.774758 3.09319
  813 398.942 -0.783350 -3.11315
  814 718.859 120.740 -39.1062
  815 437.564 -2.40238 -4.68030
  816 437.654 -2.37594 4.66007
  817 614.672 -6.17043 -54.0741
  818 863.686 97.1956 87.1268
  819 559.838 13.0118 -33.9118
  820 203.854 -1.72313 33.3272
  821 202.400 -1.73983 -33.5603
  822 698.187 23.0402 192.622
  823 628.102 -12.1092 11.5147
  824 572.328 38.4610 -14.1031
  825 275.013 -0.317275 22.4839
  826 273.804 -0.195750 -22.6283
  827 405.766 -1.79986 -8.06994
  828 405.919 -1.77401 8.00906
  829 74.3139 65.4618 59.3401
  830 593.707 14.4623 49.9602
  831 657.485 96.2037 -38.2367
  832 703.104 81.7838 -51.9572
  833 470.907 -17.1167 -21.6103
  834 470.673 -17.0064 21.6001
  835 730.053 153.777 17.2261
  836 625.600 -5.93159 -0.477256
  837 625.652 -5.88949 0.574885
  838 622.912 -19.0390 -33.7435
  839 525.955 -34.4787 21.4056
  840 574.726 -64.5394 38.9497
  841 668.862 -54.7604 59.8995
  842 522.318 -14.9042 -6.74694
  843 522.326 -14.8609 6.71463
  844 598.163 55.6792 22.8047
  845 564.396 8.10463 -36.5279
  846 156.175 197.570 183.208
  847 564.683 -49.7135 -17.6071
  848 566.929 -25.2847 -2.01607
  849 567.223 -25.3573 1.97635
  850 623.440 -9.29077 56.4714
  851 615.973 -40.6815 -22.6907
  852 553.128 -36.2402 -10.8968
  853 1209.43 39.1268 -58.3747
  854 526.627 -49.2727 39.3681
  855 526.165 -49.8846 -39.9382
  856 622.032 -7.62467 28.2452
  857 921.770 241.063 -63.2302
  858 495.901 -44.3398 -47.7446
  859 544.278 -60.9865 46.7264
  860 495.837 -43.8310 47.3674
  861 536.377 -21.3083 -8.14475
  862 536.381 -21.2526 8.10201
  863 84.5295 34.2743 51.3262
  864 667.990 49.9265 -59.0376
  865 516.324 -19.7302 -11.4277
  866 516.429 -19.5466 11.4620
  867 510.864 -8.30202 -1.41103
  868 510.866 -8.25305 1.40402
  869 557.451 -11.3141 -1.17230
  870 557.390 -11.2509 1.16571
  871 460.987 -8.52145 -11.7602
  872 461.038 -8.43263 11.7222
  873 517.854 -26.6608 -16.6424
  874 517.933 -26.5030 16.7170
  875 13.6771 0.0525345 -9.16500
  876 769.672 144.680 25.5699
  877 663.028 -23.4931 -44.8950
  878 543.745 -60.0859 -47.1446
  879 586.003 -19.1564 2.55786
  880 585.762 -18.9796 -2.41874
  881 639.477 0.686074 60.5525
  882 687.092 -48.9052 -37.0108
  883 604.776 47.1122 -230.982
  884 287.155 -5.36677 116.065
  885 -6.34079 6.69198 -9.38342
  886 -5.09099 7.57496 10.1935
  887 84.1511 36.4379 -52.4671
  888 622.675 -18.3680 19.5652
  889 651.560 -4.79022 -8.11055
  890 587.384 -56.9187 102.226
  891 286.515 -5.12095 -116.480
  892 654.520 -53.9751 7.04822
  893 721.545 -19.3232 92.0190
  894 542.846 2.30528 16.3534
  895 614.882 58.5780 38.5818
  896 339.259 -18.8580 84.6650
  897 338.018 -19.0065 -85.1612
  898 406.005 -18.5941 -47.6547
  899 418.902 -21.3092 -147.163
  900 657.057 -15.6224 51.7659
  901 891.644 213.838 44.0248
  902 661.163 25.3227 60.2092
  903 624.778 -13.6593 -31.0208
  904 427.285 -19.0833 150.767
  905 791.056 146.987 -15.5446
  906 83.6554 69.9452 -72.5142
  907 583.824 -1.06293 -17.2033
  908 406.417 -18.4512 47.2842
  909 490.856 -10.4472 8.74043
  910 490.828 -10.5092 -8.75385
  911 616.814 -40.4571 23.5865
  912 636.177 -4.77840 1.57254
  913 471.057 3.90578 -181.949
  914 668.717 -1.74007 3.81288
  915 664.820 -1.46423 -5.02437
  916 514.978 4.71987 -14.2918
  917 646.050 -2.74967 -9.44805
  918 491.616 -22.3192 -20.5107
  919 491.939 -22.0052 20.5815
  920 -14.6014 6.36713 -8.18972
  921 -20.8667 3.84678 8.95982
  922 636.130 -4.48141 -1.64503
  923 222.273 -5.21870 78.4848
  924 221.111 -4.78820 -78.8873
  925 685.955 99.6524 46.1366
  926 1182.44 21.5206 17.7950
  927 647.640 71.8430 49.8658
  928 721.532 -24.4108 32.3935
  929 633.926 -35.5729 39.5347
  930 787.072 164.459 -11.9767
  931 505.206 2.49724 10.7914
  932 609.236 -14.8829 -6.61524
  933 636.923 34.3265 -60.4859
  934 757.790 24.3233 -2.45634
  935 595.484 -36.8418 -9.04695
  936 319.032 -1.60274 -16.7339
  937 319.289 -1.54483 16.5168
  938 626.905 -15.1781 -23.5256
  939 23.3290 28.7672 8.69954
  940 602.040 -62.4714 -12.0838
  941 534.190 16.4469 -1.47034
  942 782.911 170.601 -7.90721
  943 129.196 95.6938 -117.113
  944 606.800 -4.54599 -33.3995
  945 430.140 -6.67671 -15.3817
  946 430.235 -6.60287 15.2742
  947 4.41163 -16.3093 12.1155
  948 417.945 -30.4313 -68.3634
  949 613.741 -35.7139 -22.2221
  950 398.371 0.870116 -1.31146
  951 398.487 0.873252 1.30463
  952 625.245 75.8072 -30.7064
  953 657.497 -2.53808 -0.758905
  954 657.547 -2.55884 1.02608
  955 418.161 -30.3636 67.9561
  956 623.054 -1.02925 -13.0312
  957 710.261 5.36512 34.8885
  958 631.220 -9.51524 8.70187
  959 108.479 25.8637 -63.4693
  960 652.654 -4.46771 7.28789
  961 601.511 5.08716 53.1944
  962 634.138 87.5343 27.2832
  963 631.679 7.35624 -61.6572
  964 442.590 -22.9322 -41.4219
  965 676.337 -24.2501 35.7772
  966 442.884 -22.8593 41.0550
  967 22.5301 23.6707 -4.95934
  968 81.6263 12.8030 46.6539
  969 367.134 -6.06119 27.9405
  970 366.726 -6.05868 -28.0709
  971 609.673 -15.1315 7.06661
  972 660.935 114.141 14.8345
  973 338.484 30.0625 -173.262
  974 552.210 -34.1318 9.82648
  975 518.599 -53.8262 -57.5181
  976 750.202 143.240 28.5191
  977 579.076 -10.6162 -0.228613
  978 579.049 -10.5671 0.221770
  979 631.437 -12.2040 -16.4530
  980 592.968 51.5237 -21.0221
  981 1269.87 388.258 260.382
  982 131.514 6.65861 -60.0094
  983 133.261 5.51463 60.1118
  984 9.81813 -7.39101 5.66891
  985 594.065 33.2896 43.1540
  986 518.555 -54.1721 57.1388
  987 638.430 -30.4076 -45.7991
  988 693.881 56.7104 56.9737
  989 661.669 -53.4337 -71.7896
  990 961.783 201.849 70.9663
  991 569.313 -9.55959 -0.621218
  992 569.242 -9.49141 0.620366
  993 662.287 -27.3147 42.2123
  994 47.4682 88.7563 85.6577
  995 312.260 -6.18575 39.8307
  996 311.394 -6.10452 -40.2009
  997 367.989 -17.3330 54.7613
  998 366.806 -17.0512 -54.9276
  999 412.661 -16.3302 39.7209
  1000 451.130 -3.22937 -2.06476
  1001 451.206 -3.20740 2.05792
  1002 1059.73 353.500 -229.469
  1003 978.139 245.955 107.034
  1004 412.335 -16.4019 -40.0086
  1005 681.782 -3.29097 46.8607
  1006 617.680 64.1469 -37.0334
  1007 436.669 -37.9740 122.230
  1008 555.925 -65.7882 -68.4802
  1009 634.442 -5.48138 -18.7229
  1010 292.705 18.9340 141.849
  1011 375.172 -28.5346 97.5686
  1012 570.226 29.7302 -27.1876
  1013 642.500 -12.9051 -56.6887
  1014 783.276 350.759 354.814
  1015 541.619 17.0889 19.4949
  1016 723.747 154.103 -2.12439
  1017 526.292 21.6545 -206.174
  1018 541.753 -56.5846 -40.6811
  1019 675.506 -1.07665 -1.81419
  1020 658.857 60.4712 -57.3006
  1021 399.387 -2.27920 10.2531
  1022 399.201 -2.30170 -10.3335
  1023 15.3277 14.8661 -24.5910
  1024 443.399 -19.4858 -34.6531
  1025 374.698 -28.8944 -98.2289
  1026 443.116 -19.4558 34.3238
  1027 628.753 -19.3387 52.4752
  1028 565.350 -34.7233 -5.07556
  1029 597.145 11.2353 -51.6774
  1030 614.873 76.7264 10.8207
  1031 811.444 53.9631 40.8081
  1032 621.241 -47.3942 21.7494
  1033 401.465 -31.4910 -74.7949
  1034 592.859 21.3293 -48.5728
  1035 440.126 -37.5057 -122.775
  1036 833.935 178.831 -5.20865
  1037 578.351 38.3931 24.7336
  1038 714.863 -3.72443 -24.5691
  1039 545.058 -56.6400 37.9036
  1040 622.633 -20.0127 40.0746
  1041 617.717 -32.8535 27.0587
  1042 614.307 -31.1475 23.0366
  1043 754.355 96.8390 -37.5688
  1044 615.917 -10.0845 41.6312
  1045 555.193 -65.9691 67.4236
  1046 592.531 -24.4550 5.67335
  1047 401.724 -31.5646 74.4441
  1048 558.411 -40.7403 -11.7057
  1049 331.388 -16.3240 -104.300
  1050 465.995 -48.0998 83.5237
  1051 625.866 -4.49067 -21.9954
  1052 611.807 -6.95586 -47.7377
  1053 531.177 -41.4293 -25.7955
  1054 331.930 -16.7516 103.568
  1055 575.376 1.60111 -33.8748
  1056 431.075 -27.7999 -53.3110
  1057 764.226 161.303 17.1783
  1058 178.291 28.0419 -101.216
  1059 1257.45 88.6202 118.531
  1060 312.502 22.0175 -148.131
  1061 613.834 -50.9808 -11.0771
  1062 431.216 -27.5801 52.9295
  1063 570.022 6.40004 38.0803
  1064 328.692 -6.29324 33.0024
  1065 328.565 -6.44541 -33.3051
  1066 623.266 -17.5023 -48.7991
  1067 655.104 -3.87574 2.64722
  1068 646.524 -1.67175 9.49284
  1069 643.166 21.2680 61.9692
  1070 604.180 -4.53210 45.0734
  1071 463.757 50.4142 222.591
  1072 679.287 -0.751764 0.790548
  1073 649.596 87.6856 39.6366
  1074 556.392 8.46439 32.9526
  1075 653.367 -2.72421 9.02231
  1076 434.468 -4.22820 -8.73370
  1077 434.557 -4.18191 8.68848
  1078 280.975 -7.64103 -55.1925
  1079 281.945 -7.91943 54.8736
  1080 558.277 28.3870 13.8770
  1081 812.519 48.4157 -70.4048
  1082 746.987 2.49110 -122.170
  1083 609.909 -0.624405 -13.6434
  1084 466.085 -48.4469 -84.1124
  1085 532.306 -39.4119 23.4229
  1086 613.059 -1.47440 14.2183
  1087 637.290 -46.5355 -26.1796
  1088 413.015 -0.725657 5.10829
  1089 412.899 -0.740052 -5.13418
  1090 612.696 -52.4392 11.0559
  1091 583.422 -12.3381 0.252695
  1092 583.324 -12.3544 -0.223141
  1093 568.309 -56.9774 26.0071
  1094 722.957 -22.7090 -16.6763
  1095 345.908 -0.542687 -9.37316
  1096 346.409 -0.523726 9.28713
  1097 498.195 -32.1710 -140.714
  1098 534.046 -12.6758 4.03797
  1099 534.085 -12.7343 -4.06314
  1100 320.194 177.154 244.695
  1101 730.203 60.6317 -44.0498
  1102 114.006 53.8754 -78.5655
  1103 631.457 -10.0013 -8.38467
  1104 175.981 58.5495 -116.250
  1105 362.447 -22.2215 -70.7709
  1106 678.919 -1.04444 0.576302
  1107 679.118 -0.998456 -0.407967
  1108 623.945 -35.8738 -33.4435
  1109 552.155 -62.3274 -92.4358
  1110 178.466 23.8769 96.4436
  1111 679.587 67.1703 54.9110
  1112 613.922 -6.88189 -0.613491
  1113 614.003 -6.88283 0.664969
  1114 665.346 -42.0088 112.667
  1115 697.844 138.446 20.7155
  1116 424.225 -9.62492 -21.8227
  1117 424.342 -9.58644 21.6943
  1118 318.071 35.4543 175.077
  1119 595.549 3.22709 -49.9031
  1120 191.334 60.2269 124.533
  1121 748.071 -11.2081 -44.5014
  1122 745.871 162.762 5.80156
  1123 516.772 -40.2061 30.4290
  1124 488.326 2.93137 -2.10799
  1125 646.841 -6.10376 11.1635
  1126 667.375 -1.10412 4.31451
  1127 160.280 0.201096 -27.9959
  1128 162.107 0.134236 27.8252
  1129 540.795 9.53082 -24.4960
  1130 549.552 -16.1219 -3.86029
  1131 549.445 -16.0617 3.84461
  1132 59.4065 106.321 -91.4263
  1133 92.4793 219.396 -176.304
  1134 556.033 -21.6302 4.07692
  1135 556.219 -21.6109 -4.11624
  1136 573.142 -14.0612 0.0358648
  1137 573.064 -14.0418 0.00256268
  1138 154.956 98.3513 126.144
  1139 461.284 -5.32065 -4.35030
  1140 461.348 -5.28621 4.33439
  1141 575.715 43.9364 -0.549308
  1142 707.101 99.0909 -255.803
  1143 694.055 119.065 -35.5921
  1144 631.956 -24.4657 -49.1040
  1145 622.194 -31.3028 -34.3812
  1146 516.980 -40.5618 -30.9010
  1147 527.937 1.91359 15.1179
  1148 587.238 36.9902 -36.1232
  1149 579.712 31.5778 34.6007
  1150 592.164 -23.7717 -5.53924
  1151 566.720 -34.0501 4.62730
  1152 518.124 -32.8354 -23.3130
  1153 613.881 -3.71582 26.4374
  1154 1056.11 106.228 14.6385
  1155 617.501 -13.2904 48.0649
  1156 621.631 40.8819 53.6668
  1157 570.894 -55.9083 -20.7376
  1158 77.8348 11.7249 -45.0780
  1159 581.578 -26.9894 -2.82077
  1160 401.083 -0.466956 -0.290589
  1161 401.191 -0.464698 0.288419
  1162 702.262 -18.5867 19.9941
  1163 668.907 -56.4671 31.5247
  1164 955.373 169.770 43.7689
  1165 245.205 -0.369152 -23.0835
  1166 246.459 -0.318955 22.9317
  1167 523.495 -10.4901 -3.06414
  1168 523.479 -10.4341 3.04735
  1169 583.095 -51.2786 -6.47816
  1170 492.312 2.46042 6.92351
  1171 596.726 -42.5108 8.02406
  1172 36.4144 43.2183 -23.6974
  1173 112.650 54.6949 76.7271
  1174 403.348 -22.5848 135.864
  1175 692.124 130.831 -25.4768
  1176 655.553 -1.97337 -7.14864
  1177 681.572 -1.24974 0.320811
  1178 682.129 -1.63797 -0.166198
  1179 415.321 -0.751876 -0.888089
  1180 415.426 -0.745363 0.883085
  1181 638.220 40.7781 60.4989
  1182 929.475 157.017 -3.37791
  1183 658.552 108.257 -26.6248
  1184 490.660 -36.6628 139.843
  1185 401.236 -21.7975 -135.581
  1186 448.754 -29.2317 -48.0954
  1187 610.197 -17.5098 9.36061
  1188 845.787 187.887 16.0041
  1189 448.825 -29.0754 47.7649
  1190 622.223 -11.4678 7.07868
  1191 565.773 21.4809 33.1005
  1192 617.979 19.2833 58.4652
  1193 868.282 193.422 27.1952
  1194 524.363 -13.5023 5.63404
  1195 524.378 -13.5562 -5.66395
  1196 630.775 -12.3669 17.1239
  1197 388.035 -3.81334 15.9465
  1198 387.777 -3.85001 -16.0697
  1199 616.531 -9.00646 -2.76414
  1200 257.052 154.908 -237.875
  1201 534.106 -30.4115 -149.850
  1202 510.940 -15.6447 -9.68603
  1203 511.002 -15.5849 9.69038
  1204 657.346 -3.60101 2.49911
  1205 625.451 -8.82126 5.61422
  1206 36.5997 47.9173 36.3368
  1207 675.750 -0.955006 2.14903
  1208 84.4184 110.046 109.066
  1209 611.825 -9.74052 -3.64042
  1210 -0.431747 -14.5467 -12.8227
  1211 438.142 -42.8496 -105.438
  1212 437.051 -41.8308 104.444
  1213 675.715 -1.36705 -2.41323
  1214 585.096 -30.9074 -3.68137
  1215 657.030 -3.34198 -2.47439
  1216 534.924 -17.1307 -5.98615
  1217 534.887 -17.0815 5.93946
  1218 616.155 -8.95371 2.55986
  1219 581.174 -26.4482 2.79228
  1220 560.500 -18.0996 2.23578
  1221 560.678 -18.1346 -2.17908
  1222 656.339 -3.43847 -1.99384
  1223 570.120 -60.4249 -103.862
  1224 643.407 -4.61476 -1.94403
  1225 614.266 -9.98659 4.02141
  1226 440.976 -4.41627 -6.58499
  1227 441.060 -4.37523 6.55468
  1228 487.849 -6.89640 -3.61867
  1229 487.883 -6.85495 3.60488
  1230 773.368 121.567 29.9328
  1231 651.160 -50.3928 17.3734
  1232 449.387 -2.53251 172.165
  1233 373.767 -0.489712 6.13297
  1234 373.473 -0.495615 -6.18504
  1235 620.526 -11.6619 35.7831
  1236 592.528 -9.48852 0.322983
  1237 592.543 -9.46166 -0.322960
  1238 681.779 131.574 12.0195
  1239 617.960 -64.9687 83.9906
  1240 372.569 -4.90104 22.1748
  1241 372.232 -4.93427 -22.3139
  1242 591.982 -14.8338 2.48910
  1243 591.850 -14.9422 -2.37054
  1244 609.853 -17.3203 -8.95885
  1245 569.154 0.176116 17.5029
  1246 957.239 238.479 -84.7118
  1247 621.973 -23.0814 -30.5016
  1248 113.141 25.5719 65.1057
  1249 641.831 -34.4896 42.0319
  1250 527.660 12.0642 -13.4237
  1251 43.4925 29.9920 25.4007
  1252 834.547 97.4945 -18.8236
  1253 627.760 -28.7707 -43.3055
  1254 529.942 7.97143 20.5929
  1255 364.854 -22.2711 70.7092
  1256 636.185 -49.5165 22.7102
  1257 909.566 182.751 68.4591
  1258 220.609 31.3918 122.093
  1259 638.350 -8.10467 -14.8323
  1260 1191.28 13.5775 -11.7127
  1261 1228.11 18.2377 51.7286
  1262 1307.04 43.3499 -123.730
  1263 621.911 -19.6881 -38.9052
  1264 621.180 -28.6380 32.0991
  1265 630.370 -45.1287 28.4684
  1266 -18.3579 2.39166 11.4256
  1267 -16.6170 1.99693 -12.5416
  1268 612.335 -67.9684 -42.1820
  1269 626.000 -63.6124 -60.7659
  1270 495.467 3.38481 -8.52620
  1271 609.481 -69.1178 60.3011
  1272 652.390 -31.1861 -42.4497
  1273 15.2924 20.5700 4.53257
  1274 535.513 -9.82056 1.84473
  1275 535.545 -9.88134 -1.84952
  1276 646.113 -5.68872 9.88715
  1277 622.128 -11.2793 -6.58789
  1278 587.830 -64.1385 -24.4109
  1279 540.484 -28.8709 11.4771
  1280 537.904 -28.4465 -12.1550
  1281 629.412 -13.7087 24.2840
  1282 645.356 -23.9310 -50.1602
  1283 45.0691 31.2680 -24.9173
</Section>

newXOutput 36

<Section columns = "stress_xx | stress_yy | stress_xy">
  1 703.364 -0.379115 1.24020
  2 703.350 -0.362767 -1.24257
  3 407.135 -0.0572613 -0.445268
  4 -5.05555 -4.97471 -7.27492
  5 1217.40 516.612 400.555
  6 1206.55 533.951 -396.519
  7 -5.88062 -4.70318 7.77442
  8 407.023 -0.0584954 0.444325
  9 707.791 -1.28221 0.338916
  10 706.581 -1.98304 -0.440167
  11 705.444 -1.42302 1.33247
  12 704.260 -1.87083 0.207595
  13 701.658 -1.61165 2.09178
  14 699.248 -1.60920 1.42464
  15 693.185 -1.41276 3.05368
  16 684.118 -1.13024 4.54020
  17 676.131 -1.12164 5.14771
  18 663.932 -1.42150 6.32301
  19 646.600 -0.244095 9.47960
  20 630.600 -1.04002 9.12471
  21 611.878 -1.26508 13.0049
  22 584.891 0.877311 11.4265
  23 564.967 1.44959 13.6061
  24 538.931 2.36689 10.7345
  25 520.749 2.67058 10.8652
  26 494.430 3.56808 5.56500
  27 488.804 5.58953 5.99995
  28 485.381 4.68150 -1.78568
  29 489.966 2.88275 -3.86626
  30 498.450 2.67886 -4.75649
  31 518.187 3.28595 -9.46324
  32 537.372 2.60111 -11.8847
  33 565.172 0.705065 -14.0391
  34 587.349 -0.233705 -12.6493
  35 610.706 -0.995321 -12.3022
  36 631.704 -0.824603 -8.61077
  37 649.472 -0.905452 -7.27530
  38 663.910 -1.40294 -6.02105
  39 676.654 -1.05714 -4.07692
  40 684.367 -1.30972 -4.27188
  41 691.834 -1.51506 -3.09708
  42 698.696 -1.76003 -1.21394
  43 702.146 -1.44413 -1.52786
  44 703.734 -0.980704 -0.893724
  45 701.905 -0.683898 -0.820775
  46 707.181 -1.96799 0.329459
  47 707.954 -1.32265 -0.348640
  48 687.322 -0.982577 -0.769389
  49 673.557 -3.46013 -1.48164
  50 656.515 -4.94312 -0.827987
  51 635.584 -7.01059 -1.17273
  52 615.546 -7.56565 -1.38683
  53 594.019 -9.13490 -1.34470
  54 574.836 -9.96444 -0.640286
  55 558.002 -10.8777 -0.105511
  56 538.526 -8.95196 -0.0733510
  57 516.066 -8.22640 -0.319846
  58 494.461 -6.36257 0.0510774
  59 474.037 -3.92399 0.102142
  60 454.688 -2.70127 0.163180
  61 437.812 -1.26187 0.283309
  62 420.686 -0.243766 -0.497558
  63 407.256 0.593226 0.777957
  64 401.101 1.47430 0.576217
  65 404.851 0.0685030 1.27015
  66 399.806 -0.126495 1.55624
  67 394.933 -0.222041 1.93224
  68 388.429 0.0389515 2.46600
  69 380.249 0.0284623 3.06909
  70 373.847 -0.356710 5.75730
  71 356.915 0.515461 6.25570
  72 344.767 0.0112801 7.07365
  73 326.691 -0.251719 8.04997
  74 305.970 -0.455126 9.77160
  75 280.022 -0.0659202 11.8693
  76 248.398 0.176894 13.1487
  77 220.545 -0.194373 18.8294
  78 166.451 1.68907 17.9061
  79 128.941 1.45193 18.9886
  80 83.3838 -0.425232 21.2623
  81 44.9362 3.32079 22.3830
  82 0.847724 5.09982 13.9728
  83 -31.9698 5.21392 5.59903
  84 -32.8838 5.18218 -0.845505
  85 -33.0943 4.37445 -9.66681
  86 -19.6554 -1.15319 -9.44864
  87 -2.23536 -18.8647 -10.4949
  88 2.14268 -34.3574 -12.8045
  89 5.53329 -52.5414 -6.17321
  90 12.0341 -50.3831 2.71736
  91 25.0758 -0.750065 35.6765
  92 72.7455 131.189 113.558
  93 405.949 415.475 361.962
  94 1480.37 224.617 243.587
  95 1342.21 31.9026 78.3178
  96 1254.94 13.4895 23.9691
  97 1222.84 11.5935 1.76746
  98 1240.32 15.2510 -20.9644
  99 1340.24 30.0439 -62.1102
  100 1559.76 108.357 -207.452
  101 243.235 429.629 -304.906
  102 54.3833 102.513 -95.3616
  103 27.5081 2.01143 -38.6266
  104 11.3179 -49.6862 -8.43674
  105 3.49852 -39.3798 6.95919
  106 4.17664 -43.4581 10.9949
  107 0.299225 -16.1814 11.6423
  108 -20.5518 -0.639172 8.90699
  109 -34.1317 3.28606 8.37314
  110 -34.6823 6.27791 1.01666
  111 -32.9493 5.10945 -5.27476
  112 -1.53113 5.22575 -13.1548
  113 42.8897 3.34826 -21.3780
  114 81.3053 -0.0630142 -20.9169
  115 126.780 1.56768 -19.0196
  116 164.489 1.73051 -18.0295
  117 219.027 -0.202100 -18.9713
  118 247.103 0.193362 -13.2633
  119 278.888 -0.0627845 -12.0059
  120 305.402 -0.510034 -9.83287
  121 325.899 -0.234907 -8.06463
  122 344.161 0.0326627 -7.13887
  123 356.414 0.510055 -6.31556
  124 373.479 -0.360706 -5.80789
  125 379.948 0.0258544 -3.09987
  126 388.193 0.0364237 -2.49117
  127 394.746 -0.226270 -1.95207
  128 399.654 -0.130126 -1.56998
  129 404.720 0.0654863 -1.27882
  130 400.980 1.47308 -0.580158
  131 407.141 0.592562 -0.780470
  132 420.576 -0.247105 0.496438
  133 437.711 -1.27030 -0.286267
  134 454.600 -2.71960 -0.166604
  135 473.970 -3.94941 -0.105407
  136 494.418 -6.39933 -0.0544022
  137 516.051 -8.27332 0.317151
  138 538.543 -9.00674 0.0703374
  139 558.044 -10.9400 0.103938
  140 574.897 -10.0271 0.642192
  141 594.110 -9.19194 1.35117
  142 615.630 -7.60434 1.41011
  143 635.653 -7.04526 1.28685
  144 656.637 -4.71001 0.845694
  145 674.012 -3.38322 1.44803
  146 687.459 -1.09035 0.756664
  147 622.673 -58.5714 1.80906
  148 622.107 -57.7702 -1.59346
  149 658.654 94.2979 -29.0811
  150 696.481 41.0002 59.9372
  151 528.293 -51.3632 -120.314
  152 532.692 -51.2480 116.639
  153 519.411 -21.4684 16.0707
  154 519.434 -21.7498 -16.0738
  155 734.693 26.9564 -42.4233
  156 621.088 -22.7215 9.96161
  157 620.815 -22.2011 -9.84825
  158 802.308 176.940 5.30815
  159 638.851 -0.980820 -60.1462
  160 477.682 -36.7573 -54.4178
  161 477.741 -36.4706 53.9948
  162 639.087 -14.6218 53.6100
  163 612.294 44.9939 36.6109
  164 256.702 39.7725 -143.893
  165 283.353 37.7988 151.413
  166 771.119 10.2913 -3.64211
  167 639.142 -24.8183 -35.8816
  168 841.218 184.693 4.28768
  169 577.861 -16.4385 -1.97431
  170 577.751 -16.4011 2.01491
  171 643.154 -8.48400 -4.22755
  172 644.943 -7.70702 3.60835
  173 463.372 -6.17212 -9.03407
  174 463.442 -6.11226 8.99768
  175 684.333 -16.1926 153.194
  176 594.068 25.0984 -39.5301
  177 391.699 -28.9311 -85.7480
  178 392.831 -28.7276 85.2580
  179 441.499 -13.7681 -28.4833
  180 441.554 -13.6191 28.3056
  181 641.911 -17.2247 30.5622
  182 585.355 -39.9452 -5.60952
  183 583.439 -39.6488 6.44687
  184 660.031 -64.2331 -18.1513
  185 663.652 -61.1969 10.0603
  186 907.422 214.453 -39.4742
  187 671.077 107.120 27.0611
  188 669.689 41.1559 -61.4333
  189 680.968 -3.32713 -176.671
  190 661.635 -37.6618 -40.0962
  191 667.476 -26.9928 48.3492
  192 558.751 -63.3105 61.1588
  193 558.773 -62.8379 -61.0050
  194 602.739 7.93846 47.2289
  195 281.798 -7.35813 -105.423
  196 282.414 -7.90004 104.842
  197 1016.36 151.159 22.4536
  198 627.613 -37.5878 20.2101
  199 649.405 -12.4242 -19.3963
  200 522.730 -12.4741 -7.66668
  201 522.751 -12.4211 7.64851
  202 627.982 -8.24526 -41.5979
  203 712.568 104.366 -47.8309
  204 603.343 54.5230 -7.30759
  205 399.477 -13.4650 39.4607
  206 398.909 -13.4985 -39.7133
  207 657.193 -7.90379 10.0756
  208 646.176 12.1986 61.9967
  209 528.136 -37.7381 -28.0964
  210 524.914 -35.7125 28.5521
  211 756.374 112.446 41.2444
  212 877.869 126.652 32.5951
  213 65.1891 49.3314 -43.8243
  214 60.4436 45.5951 37.4565
  215 368.211 107.192 248.944
  216 621.498 -41.4171 -14.2368
  217 659.224 -7.57953 -9.07873
  218 596.543 5.54743 -43.5405
  219 427.019 -3.84140 -12.7093
  220 427.160 -3.79977 12.6167
  221 562.687 -26.1328 -8.05040
  222 562.954 -26.3120 7.74186
  223 632.667 -8.65424 35.1679
  224 718.906 -41.3166 24.5781
  225 723.501 146.393 -13.5230
  226 567.465 -54.3974 -31.0538
  227 711.112 -12.4236 34.6210
  228 609.011 -10.7604 0.966916
  229 609.007 -10.6822 -0.966476
  230 563.612 -54.1488 32.0004
  231 642.554 -41.0433 32.0318
  232 886.282 122.548 -69.3197
  233 205.261 122.050 -183.983
  234 556.079 20.1083 9.56386
  235 649.823 57.2749 52.4363
  236 686.689 -4.92981 -52.5493
  237 643.670 -23.3772 -49.4549
  238 355.174 -10.9009 -49.0253
  239 356.300 -10.7443 48.9091
  240 644.182 -8.08909 -26.7089
  241 613.397 -15.9717 4.57252
  242 613.116 -15.9634 -4.35897
  243 137.715 11.6937 -68.9197
  244 139.612 10.2373 68.6587
  245 677.840 -59.5363 -59.6124
  246 669.795 -3.04320 1.12475
  247 670.397 -3.09398 -1.30456
  248 635.748 52.8421 -48.2602
  249 565.902 11.4039 28.7841
  250 1131.48 181.122 122.178
  251 1121.12 127.697 -75.6986
  252 831.412 177.207 1.23532
  253 520.061 -25.5234 158.778
  254 478.725 -17.1130 -165.722
  255 552.502 -11.3439 -3.15958
  256 552.460 -11.2822 3.14242
  257 465.469 -11.8352 17.9448
  258 465.446 -11.9893 -18.0769
  259 657.513 -7.57808 15.8399
  260 639.835 -45.7915 -25.2017
  261 430.280 -0.575516 -3.05576
  262 430.389 -0.563923 3.04085
  263 631.920 -25.9643 -20.5044
  264 280.166 -8.91265 -68.3689
  265 281.236 -8.93882 67.9329
  266 640.450 -28.0487 38.7464
  267 492.454 -52.2787 96.9352
  268 493.566 -53.2072 -96.6292
  269 563.402 22.1671 -13.4024
  270 486.484 -7.05277 -6.12007
  271 486.537 -7.01029 6.10146
  272 606.344 -1.36609 34.6035
  273 719.145 130.727 32.9057
  274 398.418 -4.45409 21.1040
  275 398.134 -4.48842 -21.2577
  276 655.717 -55.1055 14.9867
  277 606.956 -68.4598 -67.9155
  278 672.783 -3.85500 4.48496
  279 479.713 -27.5527 -37.5722
  280 478.983 -27.2610 37.4562
  281 813.254 96.9715 222.203
  282 401.061 -32.5740 114.771
  283 642.522 89.9743 -3.07075
  284 797.651 90.4425 -21.6811
  285 607.675 -46.9389 2.44556
  286 607.648 -70.2928 61.7708
  287 402.139 -32.0779 -115.940
  288 77.1552 95.6263 89.0593
  289 632.031 -26.0366 20.9089
  290 820.514 109.914 14.0671
  291 677.448 -3.45142 -3.89207
  292 624.980 22.1371 -55.5934
  293 612.208 -34.7360 9.11702
  294 599.877 -50.4922 6.64532
  295 623.081 28.8165 53.6854
  296 652.762 -55.0828 -12.7786
  297 918.122 176.721 -17.9436
  298 612.051 -33.4079 -8.67867
  299 497.483 149.577 -301.302
  300 624.110 -66.3131 -18.2713
  301 619.863 -68.1487 25.2246
  302 462.724 -41.2980 -75.9425
  303 426.242 -1.37048 -6.57459
  304 426.369 -1.34611 6.53270
  305 462.969 -41.3467 75.5749
  306 662.320 -1.16863 -61.2685
  307 709.285 -29.3856 -20.1308
  308 548.101 -32.4794 -16.3367
  309 547.819 -32.5577 16.6052
  310 644.882 -55.5318 105.896
  311 649.068 -5.49901 20.1918
  312 777.658 6.41929 44.8870
  313 538.229 -18.6433 -9.29478
  314 538.277 -18.5946 9.25589
  315 494.114 -12.3311 -12.2651
  316 494.133 -12.2254 12.2536
  317 560.612 7.92715 -27.8164
  318 704.637 51.7751 -57.7421
  319 1068.07 291.096 -143.505
  320 639.233 -6.38091 -1.30078
  321 638.919 -6.30236 1.35175
  322 350.414 -1.62383 143.300
  323 490.889 -21.5099 -25.4816
  324 490.063 -21.4575 25.5530
  325 350.342 -2.49176 -142.748
  326 675.152 79.5199 -50.4001
  327 747.441 37.6937 39.4739
  328 644.355 -45.9153 -116.894
  329 599.076 -23.3124 2.68449
  330 598.510 -23.1643 -2.44852
  331 636.363 -13.8188 -9.25942
  332 606.688 -1.04531 -32.3328
  333 673.707 2.70843 59.4595
  334 667.959 -5.15796 -10.7822
  335 414.321 -24.3444 57.6627
  336 413.873 -24.4666 -58.0502
  337 630.336 -1.33751 57.3336
  338 401.591 -2.92970 -12.6493
  339 401.836 -2.90333 12.5524
  340 641.372 -15.3023 15.5271
  341 770.611 156.468 -21.8512
  342 636.137 -13.9011 9.65798
  343 682.332 85.3530 50.3859
  344 651.693 -12.2866 58.3341
  345 522.301 -9.55670 2.96938
  346 522.294 -9.60700 -2.98390
  347 620.216 -2.10415 -50.9908
  348 811.850 170.056 10.6808
  349 682.037 124.004 1.03381
  350 416.390 48.0113 -211.171
  351 48.4591 19.1073 -31.7035
  352 52.5475 20.7113 33.8466
  353 -0.653971 5.65793 11.2425
  354 1.62542 3.69188 -11.8682
  355 1153.66 80.2105 26.8465
  356 564.379 -45.3318 -19.6974
  357 641.758 -14.8249 -15.1275
  358 582.693 -10.6048 0.00336329
  359 582.629 -10.5312 -0.00886708
  360 627.800 69.4074 -26.1811
  361 533.924 -53.8606 50.4277
  362 49.7562 74.9131 -56.9560
  363 534.316 -53.8191 -51.2305
  364 635.465 72.2906 27.8411
  365 641.759 -17.5293 -28.9663
  366 678.500 -38.1619 -32.4720
  367 728.302 152.043 9.23942
  368 679.650 -42.8072 25.3671
  369 296.146 -6.96533 45.6435
  370 294.570 -6.82690 -45.8878
  371 170.892 3.71061 -64.5269
  372 172.422 3.09549 64.2589
  373 568.546 2.34280 28.0381
  374 1036.19 309.486 129.461
  375 661.368 -4.60480 -14.1512
  376 521.740 -43.2713 -38.9607
  377 521.399 -43.1928 38.9146
  378 639.106 -15.0381 -37.6526
  379 720.218 -34.7469 -3.70135
  380 564.359 -45.3042 20.1834
  381 784.322 8.65515 -74.5481
  382 463.383 -3.35914 -2.55119
  383 463.463 -3.33270 2.53853
  384 630.584 -3.81314 -24.5155
  385 352.941 -4.71577 -29.6508
  386 353.121 -4.87687 29.3242
  387 747.487 95.9209 -46.6392
  388 407.510 28.4014 196.827
  389 588.964 -30.8341 -1.05464
  390 589.520 -30.7907 1.03590
  391 693.257 116.556 -31.4766
  392 653.665 -19.5709 -54.7518
  393 650.599 -66.8158 61.0058
  394 550.673 -14.5191 -5.07188
  395 550.625 -14.4629 5.03751
  396 629.782 -48.7314 15.1329
  397 673.539 -3.63603 7.91379
  398 434.558 -15.0593 -35.3628
  399 434.735 -15.0711 35.1043
  400 643.449 21.7363 -61.3048
  401 604.427 -13.6104 1.34717
  402 604.393 -13.6490 -1.28165
  403 628.222 -7.51837 46.3928
  404 591.767 43.6023 12.7712
  405 648.151 -27.6638 47.1111
  406 926.605 192.506 38.7443
  407 323.054 -17.2548 -91.8997
  408 323.887 -17.2525 91.2736
  409 146.158 76.5412 -113.370
  410 685.608 -2.56453 1.93744
  411 368.066 -2.76412 -18.8127
  412 368.504 -2.70578 18.6736
  413 639.447 -16.9849 36.6940
  414 580.592 -62.8048 35.6549
  415 650.582 -8.81335 6.50314
  416 668.428 33.8967 63.2525
  417 152.540 81.4979 117.638
  418 581.387 -62.4101 -33.1845
  419 600.249 -55.6360 -10.9641
  420 208.245 -4.12585 -58.0225
  421 209.575 -4.26418 57.6623
  422 463.390 -37.7846 -138.369
  423 686.530 -10.4821 50.9990
  424 461.893 -38.2648 137.253
  425 635.721 -35.9644 -28.8011
  426 599.166 40.9161 -27.7766
  427 635.744 -27.8502 27.6853
  428 677.681 -3.58125 -5.08888
  429 22.7997 25.7122 13.7084
  430 142.770 169.096 165.547
  431 617.053 -2.23153 23.8792
  432 528.588 7.77533 12.2960
  433 536.660 9.34517 -16.6142
  434 457.961 -7.00216 -12.6702
  435 458.024 -6.91744 12.6044
  436 626.730 -48.6848 -13.4440
  437 635.702 -12.6075 -51.6188
  438 531.043 10.5877 -4.50817
  439 925.205 221.499 54.1000
  440 136.818 43.4428 -85.3476
  441 150.070 39.8367 90.7178
  442 588.416 -21.0960 -0.282924
  443 588.212 -21.0647 0.421012
  444 782.326 170.459 -1.52386
  445 476.951 212.813 307.912
  446 744.943 -9.53471 -0.902674
  447 442.224 -22.2460 -47.9658
  448 442.444 -22.1086 47.6135
  449 447.269 -9.34553 19.3702
  450 447.172 -9.40703 -19.5154
  451 595.287 13.6760 -44.9658
  452 688.642 -1.46196 -1.22728
  453 580.788 27.2435 25.4464
  454 720.958 88.9264 52.4461
  455 601.710 -44.5776 -0.598239
  456 650.248 -8.43923 -6.34516
  457 680.182 -3.29398 4.68037
  458 686.546 -1.58606 0.694830
  459 686.996 -1.72998 -0.467475
  460 400.532 -0.551620 4.76133
  461 400.333 -0.560737 -4.80164
  462 655.904 -42.0283 34.8377
  463 600.702 24.1319 43.5702
  464 624.264 2.67088 -56.1248
  465 645.842 -14.1676 21.0210
  466 905.560 168.261 -191.786
  467 648.409 -36.2800 -40.2267
  468 9.82637 12.8602 7.29626
  469 9.62089 13.2087 -4.07441
  470 520.315 -28.7437 22.8560
  471 518.715 -28.3266 -22.5314
  472 791.231 19.8418 106.973
  473 225.669 215.291 -237.223
  474 641.609 -2.16953 18.1934
  475 716.738 -41.1307 -63.8994
  476 397.133 -22.1604 66.4921
  477 775.095 137.769 -31.5867
  478 639.233 -34.9174 33.2652
  479 541.992 -25.3989 -12.6276
  480 542.456 -24.9979 12.6069
  481 568.421 3.24614 -24.7207
  482 395.958 -22.0573 -66.8359
  483 581.189 0.513726 24.7360
  484 548.785 -62.9737 -87.8002
  485 547.461 -63.0690 88.2121
  486 658.190 -4.72464 15.6850
  487 607.891 57.6330 5.26606
  488 601.452 12.4788 213.195
  489 889.215 178.685 -1.10855
  490 617.769 -11.0550 2.24740
  491 617.790 -11.0191 -2.38374
  492 486.017 -8.13343 -8.37261
  493 486.065 -8.07266 8.34987
  494 259.373 10.8821 121.503
  495 642.389 -31.2513 -39.7927
  496 584.429 -13.0168 -0.963894
  497 584.372 -12.9813 0.970475
  498 511.465 -53.7499 71.7336
  499 264.136 14.5287 -124.466
  500 642.070 -52.5952 -15.5707
  501 12.5491 5.43255 2.41746
  502 573.062 30.2411 1.90524
  503 619.613 -7.89822 -0.673938
  504 619.611 -7.98970 0.644606
  505 511.661 -53.6333 -72.2492
  506 717.236 -35.9271 79.0792
  507 717.152 26.1493 52.3668
  508 659.194 -5.23184 -2.94654
  509 640.132 -53.3063 15.9196
  510 418.914 -0.222888 -0.918557
  511 419.027 -0.219751 0.913102
  512 640.895 -24.8803 -43.1750
  513 626.156 46.4995 47.3367
  514 708.706 17.6300 -51.8565
  515 416.345 -0.480183 -2.69599
  516 416.470 -0.472490 2.68144
  517 1201.08 173.863 -153.896
  518 650.287 77.2471 41.3622
  519 659.675 -4.90796 2.59467
  520 601.489 -56.8874 12.4436
  521 512.795 -16.4210 12.9489
  522 512.773 -16.5334 -12.9228
  523 694.755 -42.6155 10.0112
  524 671.422 -13.6703 -54.6866
  525 751.762 147.013 27.9552
  526 629.510 10.9929 58.2754
  527 628.713 -12.7486 5.30599
  528 609.798 -65.5602 -85.8001
  529 636.981 -16.0374 43.1916
  530 1184.67 54.7746 -21.4451
  531 689.282 -52.2226 7.05652
  532 655.131 -5.12931 -0.542157
  533 655.291 -5.40157 0.419619
  534 1197.03 80.2393 74.5507
  535 614.997 -0.0451705 49.5828
  536 843.967 145.495 -2.03506
  537 640.363 -17.9517 -20.0598
  538 306.120 -2.63499 -20.2392
  539 306.936 -2.50562 20.0538
  540 440.785 -41.0631 -96.2955
  541 441.192 -40.3817 95.6362
  542 628.356 -12.2647 -5.28593
  543 685.628 25.1554 -60.5923
  544 603.409 -41.0105 2.93924
  545 652.954 74.7847 -42.7774
  546 651.757 -8.06465 21.0701
  547 806.472 43.6867 -20.4844
  548 562.431 -19.1530 -5.25939
  549 562.288 -19.1051 5.21920
  550 607.395 -28.8230 6.15516
  551 882.090 179.327 -25.6748
  552 643.018 28.2128 60.4396
  553 278.217 71.1623 178.568
  554 612.236 -36.5511 144.902
  555 796.777 45.3558 -161.162
  556 657.123 54.3838 -55.9513
  557 577.207 -50.3680 -126.054
  558 626.055 -68.8851 -30.3161
  559 651.705 -66.4167 -41.9113
  560 89.4784 119.721 -113.029
  561 655.690 -8.97776 -12.1512
  562 976.689 189.186 -59.0679
  563 610.432 -27.7328 -7.41660
  564 614.891 -20.4102 6.17820
  565 614.342 -19.9769 -5.83862
  566 438.940 -2.16764 -6.04219
  567 439.046 -2.13993 6.01100
  568 69.4119 6.20683 -36.4822
  569 72.5643 6.52892 37.2733
  570 327.947 -14.7607 -69.8619
  571 330.249 -14.8489 69.8096
  572 623.474 -34.0503 -16.7505
  573 632.936 -69.1781 32.4071
  574 650.453 -62.1152 -3.22328
  575 541.133 -9.51931 -2.48893
  576 541.111 -9.46186 2.47837
  577 510.131 -53.8241 -107.711
  578 566.684 -46.9317 132.985
  579 498.473 -50.6753 108.216
  580 643.082 -14.4339 -55.2642
  581 416.121 -6.38606 21.3976
  582 415.923 -6.44877 -21.5455
  583 618.038 34.5171 -47.6607
  584 617.382 -1.10244 -21.6630
  585 765.597 164.270 -12.0558
  586 508.326 -7.38555 -2.28032
  587 508.352 -7.34356 2.27182
  588 652.564 -2.08582 -11.8686
  589 461.690 -14.8259 -24.2321
  590 461.727 -14.7849 24.0534
  591 372.830 16.2278 169.927
  592 635.173 -29.5597 -27.9194
  593 361.879 -19.6470 122.403
  594 624.266 -32.6056 17.2657
  595 654.296 -9.87361 13.5389
  596 645.120 -6.69865 -2.49181
  597 468.062 -5.34308 -5.79300
  598 468.134 -5.30324 5.77059
  599 735.156 145.540 -25.6667
  600 361.607 -18.9852 -122.793
  601 622.119 -27.2832 -13.4051
  602 564.964 -10.6541 -1.48127
  603 564.912 -10.5872 1.47607
  604 1032.77 138.191 -25.0902
  605 388.584 -2.23652 11.6928
  606 388.275 -2.25723 -11.7853
  607 589.000 13.9310 41.1344
  608 817.910 72.1681 2.26007
  609 396.403 1.72151 -168.448
  610 210.590 4.52282 -93.2302
  611 212.163 3.43251 92.7475
  612 499.809 -28.3446 30.6324
  613 504.615 -29.1823 -29.9169
  614 832.197 168.656 5.22573
  615 642.728 -6.91365 2.16575
  616 566.201 16.5414 -24.9683
  617 695.222 123.976 24.9193
  618 693.084 128.580 -16.5986
  619 569.471 -31.2713 -8.23599
  620 573.539 -30.6141 6.26661
  621 405.727 89.7548 -240.138
  622 495.564 -16.2929 -17.3748
  623 495.622 -16.1198 17.3318
  624 1197.15 245.823 185.331
  625 641.580 -21.2722 46.9956
  626 378.979 -12.7381 -44.6922
  627 966.051 241.899 168.974
  628 379.798 -12.6771 44.5569
  629 606.688 -22.7115 -168.025
  630 446.408 -1.85301 -2.21926
  631 446.503 -1.83741 2.21054
  632 548.194 5.27596 21.8155
  633 257.800 -3.59557 -40.0270
  634 259.024 -3.60632 39.7512
  635 562.426 -39.3569 15.7883
  636 587.946 -46.8243 -8.14135
  637 684.088 -1.79815 -4.43212
  638 406.862 -0.513310 3.58673
  639 406.701 -0.523381 -3.61608
  640 533.677 -11.8509 -4.17294
  641 533.668 -11.7956 4.15093
  642 603.089 -67.3327 86.4805
  643 696.451 77.7041 -54.9850
  644 472.144 -21.1936 -31.1492
  645 471.860 -20.8476 30.9527
  646 552.659 -39.1855 -20.2257
  647 859.152 185.713 10.5456
  648 646.821 -62.8892 6.61653
  649 566.923 -13.6926 -2.95971
  650 566.850 -13.6386 2.95586
  651 769.879 85.3426 36.5751
  652 649.266 -9.86080 -22.8758
  653 584.180 -0.529233 -20.1024
  654 277.149 -9.51668 -88.2769
  655 277.891 -9.75272 87.6298
  656 550.826 -46.9578 -30.5970
  657 819.039 177.928 -0.178792
  658 642.532 86.7996 -18.6377
  659 436.329 -3.56694 -10.9268
  660 436.441 -3.51895 10.8562
  661 594.990 -17.1312 -0.309769
  662 595.100 -17.1360 0.418440
  663 1080.31 140.451 62.2476
  664 691.723 -2.24259 1.05813
  665 673.286 -3.01467 7.84995
  666 671.158 -3.00867 -9.38564
  667 639.599 -59.7892 2.84571
  668 482.621 -5.24884 -2.89059
  669 482.678 -5.21596 2.88066
  670 688.106 109.612 38.6709
  671 872.397 192.948 -17.5761
  672 488.163 -35.3929 -44.1193
  673 488.081 -35.0703 43.9340
  674 601.902 -61.9170 -18.2990
  675 638.996 38.1328 -57.0239
  676 746.398 2.57615 16.6857
  677 508.440 -9.11902 -6.08883
  678 508.468 -9.06904 6.07026
  679 439.780 -38.1547 -86.8904
  680 633.754 -61.4905 2.79265
  681 530.340 -58.7478 79.1460
  682 257.739 80.3823 -172.580
  683 498.373 -45.5606 61.0734
  684 601.623 0.181489 18.4240
  685 440.217 -37.7372 86.3680
  686 621.780 -27.7770 13.5697
  687 498.459 -45.3506 -61.5632
  688 520.658 7.23858 4.60388
  689 403.881 -10.2095 32.0043
  690 403.545 -10.2117 -32.1922
  691 530.491 -60.2619 -79.9855
  692 651.797 -43.2436 -33.6023
  693 599.191 -8.97385 -0.160957
  694 599.285 -9.05334 0.162432
  695 665.261 -42.7539 32.6574
  696 606.206 -63.3283 20.8474
  697 733.951 67.6373 50.6432
  698 664.548 -12.7016 56.9356
  699 639.547 -23.3399 33.7272
  700 617.870 51.0945 -36.1564
  701 734.947 123.112 40.3674
  702 636.099 -8.98749 -33.9681
  703 631.382 -21.4030 15.8192
  704 658.976 102.639 10.0233
  705 643.382 -11.2602 29.0215
  706 206.799 141.936 181.480
  707 597.836 -68.9381 -52.3146
  708 691.970 12.4677 57.2259
  709 696.591 -21.6842 -37.8681
  710 689.518 -1.28547 2.29711
  711 638.505 -22.3948 -25.9063
  712 598.851 -69.4673 48.0321
  713 1127.20 100.090 -16.5988
  714 373.619 -1.40651 12.2141
  715 373.218 -1.42088 -12.3119
  716 645.571 -12.3730 -11.2910
  717 693.244 -1.01185 -2.28409
  718 549.949 -47.7350 30.7437
  719 656.004 -24.6956 51.1907
  720 974.761 242.112 -87.1509
  721 621.875 -45.1794 12.6898
  722 685.658 -45.4385 -15.5136
  723 631.577 -20.8625 -15.5509
  724 692.130 -1.59428 -0.588491
  725 642.928 -0.127163 60.7470
  726 31.3266 35.4711 42.2223
  727 711.971 -25.7812 -113.485
  728 778.384 47.8985 18.4346
  729 651.315 -66.8766 38.2710
  730 477.358 -10.8810 14.1323
  731 477.338 -11.0231 -14.1849
  732 588.662 324.398 -322.546
  733 665.438 -44.3497 -29.6239
  734 518.799 3.25121 -8.81352
  735 594.287 3.54683 39.8504
  736 643.831 -32.5208 40.3490
  737 617.093 -52.0058 3.24630
  738 636.786 -58.4824 -93.0125
  739 613.612 -48.5497 -4.63481
  740 718.137 -34.2434 1.17651
  741 662.413 -6.08370 6.44284
  742 596.903 -35.7910 0.896371
  743 1060.04 211.737 -115.187
  744 633.887 -17.5182 12.2651
  745 632.553 10.5306 -59.7619
  746 534.024 -5.53686 188.103
  747 675.246 54.2731 60.0930
  748 581.269 -45.4641 10.9534
  749 455.202 -35.0854 -63.8334
  750 455.290 -35.0076 63.3784
  751 622.924 70.1693 -8.37203
  752 629.707 -7.36555 52.8006
  753 635.128 -15.2885 -44.3148
  754 597.547 -36.5533 -1.04408
  755 578.454 -51.4922 19.7311
  756 663.776 108.831 -11.1680
  757 616.368 -53.3616 -0.830963
  758 618.070 -39.2491 12.6597
  759 624.314 -8.72380 1.61471
  760 624.650 -8.51557 -1.59166
  761 838.666 182.260 -0.439479
  762 683.322 -58.3865 -28.5553
  763 640.370 -20.0464 25.9220
  764 662.434 -6.08838 -5.77172
  765 674.490 4.38365 -60.0681
  766 761.602 41.3505 -29.2860
  767 393.480 -0.229130 -5.79244
  768 393.725 -0.224381 5.74435
  769 6.28789 -9.62011 -6.55629
  770 654.038 -0.961977 10.9490
  771 606.170 -0.721217 -43.7962
  772 623.513 -5.86921 38.0546
  773 557.217 74.1416 272.381
  774 708.790 144.132 -1.34710
  775 507.959 -35.5175 35.2593
  776 98.9459 1.83497 -35.4711
  777 101.280 1.31947 35.8287
  778 618.693 -4.35549 -43.1792
  779 509.174 -35.8462 -35.2766
  780 658.650 -6.66454 4.66728
  781 351.562 -14.4597 59.5114
  782 348.765 -14.4002 -59.4841
  783 633.806 -17.0350 -11.9259
  784 418.644 -9.89397 -27.9708
  785 418.846 -9.83661 27.7613
  786 658.858 -6.74756 -15.5350
  787 512.780 -13.2449 -10.3882
  788 512.811 -13.1700 10.3942
  789 718.037 -4.35006 -37.3463
  790 651.456 -6.91357 -60.4234
  791 346.884 -2.01497 -15.4378
  792 347.471 -1.99585 15.2799
  793 23.0252 8.42948 -22.5565
  794 25.7650 8.91266 23.6606
  795 540.759 2.77177 -15.8148
  796 593.734 -66.6913 -40.2703
  797 -6.49841 -4.37792 11.5352
  798 -5.81239 -5.39253 -11.6252
  799 617.176 -12.9594 3.69650
  800 667.319 -52.4208 -13.3632
  801 694.240 102.457 -44.9060
  802 661.151 -6.04173 -4.46175
  803 1359.59 280.989 -255.048
  804 617.044 -12.9296 -3.63962
  805 920.588 173.523 16.4472
  806 662.790 19.3008 -63.2439
  807 727.823 55.3253 -52.2372
  808 135.577 -1.54904 -32.3967
  809 137.623 -1.72596 32.3488
  810 426.282 -5.67695 16.7928
  811 426.128 -5.72016 -16.9158
  812 410.882 -0.787168 3.18742
  813 410.743 -0.795934 -3.20772
  814 738.401 124.012 -39.7529
  815 450.218 -2.45057 -4.82916
  816 450.310 -2.42368 4.80861
  817 631.570 -6.33765 -55.2061
  818 886.056 100.265 90.1539
  819 575.621 13.4109 -34.6775
  820 210.221 -1.77012 34.2881
  821 208.738 -1.78731 -34.5262
  822 716.383 23.9004 198.146
  823 645.057 -12.4716 11.6504
  824 588.414 39.5739 -14.4200
  825 283.385 -0.319198 23.1175
  826 282.152 -0.194350 -23.2647
  827 417.668 -1.83541 -8.31429
  828 417.825 -1.80905 8.25233
  829 76.5929 67.4291 61.2932
  830 610.213 14.8853 51.0610
  831 675.575 98.8304 -39.0185
  832 722.191 84.0214 -52.8995
  833 484.231 -17.5563 -22.2918
  834 483.993 -17.4443 22.2823
  835 749.973 157.881 17.4741
  836 642.413 -6.13400 -0.472676
  837 642.467 -6.09058 0.572470
  838 639.873 -19.5798 -34.3602
  839 540.529 -35.3968 22.1683
  840 590.379 -66.2954 40.3002
  841 686.688 -56.2157 61.9407
  842 536.852 -15.3008 -7.02841
  843 536.860 -15.2571 6.99535
  844 614.844 57.2499 23.3121
  845 580.271 8.35783 -37.3468
  846 160.512 203.857 188.568
  847 580.149 -51.0532 -18.3480
  848 582.478 -25.9737 -2.25791
  849 582.779 -26.0496 2.21657
  850 640.520 -9.55030 57.6296
  851 632.717 -41.8000 -22.9522
  852 568.346 -37.2119 -11.4063
  853 1239.72 40.1063 -59.7500
  854 541.164 -50.5971 40.6482
  855 540.687 -51.2237 -41.2333
  856 639.027 -7.84497 28.8029
  857 946.092 247.614 -65.4855
  858 509.695 -45.5270 -49.2176
  859 559.204 -62.6404 48.2462
  860 509.633 -45.0061 48.8312
  861 551.222 -21.8783 -8.50261
  862 551.228 -21.8221 8.45866
  863 87.1800 35.2518 53.0023
  864 686.210 51.2953 -60.2113
  865 530.710 -20.2514 -11.8608
  866 530.818 -20.0639 11.8960
  867 525.153 -8.52218 -1.46580
  868 525.155 -8.47241 1.45863
  869 572.781 -11.6369 -1.26519
  870 572.719 -11.5727 1.25825
  871 474.132 -8.73094 -12.1353
  872 474.185 -8.64035 12.0967
  873 532.258 -27.3637 -17.2430
  874 532.339 -27.2032 17.3204
  875 14.1287 0.334426 -9.61405
  876 790.415 148.607 25.7543
  877 680.955 -24.1399 -45.6382
  878 558.651 -61.7144 -48.6737
  879 601.988 -19.6948 2.45991
  880 601.742 -19.5142 -2.31837
  881 656.947 0.701080 61.7845
  882 705.389 -50.1979 -38.4759
  883 620.677 48.6101 -237.494
  884 295.435 -5.56399 119.456
  885 -6.26242 6.88512 -9.74545
  886 -4.98607 7.79483 10.5767
  887 86.8000 37.4763 -54.1841
  888 639.553 -18.8949 19.8528
  889 669.013 -4.95090 -8.22190
  890 603.194 -58.4774 105.305
  891 294.780 -5.31450 -119.880
  892 672.138 -55.4514 6.79837
  893 740.540 -19.7064 94.9621
  894 558.276 2.37787 16.7223
  895 631.935 60.2118 39.4244
  896 349.059 -19.3858 87.0931
  897 347.787 -19.5383 -87.5996
  898 417.671 -19.0812 -49.0289
  899 430.497 -21.9481 -151.411
  900 674.876 -16.0583 52.7113
  901 915.174 219.753 45.8675
  902 679.177 26.0117 61.4066
  903 641.791 -14.0519 -31.6036
  904 439.086 -19.6550 155.117
  905 812.277 151.012 -15.4092
  906 86.2142 72.0150 -74.8648
  907 600.101 -1.08606 -17.5740
  908 418.094 -18.9352 48.6508
  909 504.681 -10.7159 9.04487
  910 504.651 -10.7790 -9.05846
  911 633.579 -41.5689 23.8693
  912 653.223 -4.94979 1.56883
  913 483.852 3.98634 -187.146
  914 686.517 -1.80255 3.86370
  915 682.578 -1.51869 -5.10173
  916 529.800 4.87172 -14.6204
  917 663.507 -2.83153 -9.62476
  918 505.415 -22.9011 -21.1883
  919 505.745 -22.5801 21.2619
  920 -14.9163 6.56830 -8.35206
  921 -21.3656 3.96875 9.15758
  922 653.173 -4.64432 -1.64530
  923 228.941 -5.38587 80.7863
  924 227.755 -4.94516 -81.1979
  925 704.695 102.356 47.0184
  926 1212.13 22.0714 18.1983
  927 665.450 73.8123 50.9080
  928 740.670 -24.9924 33.7768
  929 651.145 -36.5556 40.1955
  930 808.308 168.876 -11.8862
  931 519.818 2.59088 11.0405
  932 625.747 -15.3196 -6.63100
  933 654.410 35.2781 -61.7607
  934 777.904 25.0947 -1.92905
  935 611.715 -37.8497 -9.00587
  936 328.623 -1.63972 -17.2024
  937 328.883 -1.58039 16.9803
  938 643.907 -15.6181 -23.9187
  939 24.1117 29.6863 9.13542
  940 618.382 -64.1715 -12.7553
  941 549.429 16.9569 -1.50410
  942 804.104 175.139 -7.84376
  943 133.018 98.5045 -120.727
  944 623.516 -4.67299 -34.0964
  945 442.563 -6.83673 -15.8475
  946 442.661 -6.76142 15.7380
  947 4.58071 -16.6986 12.3852
  948 429.808 -31.2511 -70.3356
  949 630.430 -36.6998 -22.4933
  950 410.194 0.896875 -1.35300
  951 410.314 0.900054 1.34607
  952 642.563 77.9066 -31.3651
  953 674.965 -2.64066 -0.768152
  954 675.017 -2.66163 1.04076
  955 430.032 -31.1827 69.9197
  956 640.100 -1.06824 -13.2932
  957 729.312 5.53036 35.2909
  958 648.222 -9.80869 8.79086
  959 111.869 26.5748 -65.4649
  960 670.123 -4.61879 7.38376
  961 618.164 5.24439 54.3489
  962 651.681 89.9412 27.8660
  963 648.991 7.56306 -62.9441
  964 455.166 -23.5324 -42.6456
  965 694.557 -24.9173 36.2562
  966 455.468 -23.4586 42.2707
  967 23.3020 24.4337 -5.28098
  968 84.2917 13.1506 48.1295
  969 377.919 -6.21162 28.7370
  970 377.503 -6.20856 -28.8695
  971 626.195 -15.5734 7.09118
  972 679.160 117.243 15.1345
  973 347.939 30.8457 -178.270
  974 567.411 -35.0485 10.2988
  975 532.891 -55.2846 -59.2979
  976 770.525 147.098 28.8698
  977 594.889 -10.9284 -0.295592
  978 594.861 -10.8784 0.288399
  979 648.499 -12.5665 -16.6998
  980 609.528 52.9858 -21.4891
  981 1301.20 398.543 267.155
  982 135.671 6.82598 -61.8267
  983 137.456 5.65203 61.9302
  984 10.1313 -7.33593 5.98411
  985 610.614 34.2425 44.1128
  986 532.851 -55.6411 58.9094
  987 655.778 -31.2477 -46.6185
  988 712.689 58.2555 58.0272
  989 679.294 -54.8558 -74.1413
  990 987.099 207.138 73.0551
  991 584.907 -9.84082 -0.658616
  992 584.834 -9.77128 0.657667
  993 680.186 -28.0691 42.8870
  994 48.8481 91.9372 88.3636
  995 321.565 -6.34607 40.9567
  996 320.681 -6.26260 -41.3339
  997 378.667 -17.7923 56.3274
  998 377.454 -17.5019 -56.4961
  999 424.522 -16.7550 40.8779
  1000 464.091 -3.29902 -2.12753
  1001 464.169 -3.27671 2.12058
  1002 1086.41 363.357 -236.056
  1003 1003.81 252.471 110.202
  1004 424.188 -16.8278 -41.1712
  1005 700.184 -3.38383 47.6288
  1006 634.803 65.9322 -37.8352
  1007 448.792 -39.0554 125.770
  1008 571.066 -67.5881 -70.6147
  1009 651.665 -5.64740 -19.0769
  1010 301.044 19.4020 145.997
  1011 385.834 -29.3382 100.387
  1012 586.253 30.5987 -27.8015
  1013 659.997 -13.2649 -57.7951
  1014 802.578 361.278 364.324
  1015 557.018 17.6078 19.9433
  1016 743.545 158.212 -2.15879
  1017 540.366 22.2975 -212.029
  1018 556.633 -58.1118 -42.0238
  1019 693.367 -1.12636 -1.83220
  1020 676.891 62.1295 -58.4713
  1021 411.116 -2.32709 10.5569
  1022 410.925 -2.35003 -10.6387
  1023 15.8202 15.7306 -25.5219
  1024 456.026 -19.9915 -35.6831
  1025 385.347 -29.7076 -101.062
  1026 455.737 -19.9615 35.3469
  1027 645.916 -19.8775 53.5036
  1028 580.859 -35.6613 -5.43687
  1029 613.716 11.5646 -52.8079
  1030 631.963 78.8577 11.0552
  1031 832.703 55.6881 42.5625
  1032 638.106 -48.6930 21.9577
  1033 412.887 -32.3481 -76.9529
  1034 609.358 21.9468 -49.6475
  1035 452.326 -38.5761 -126.325
  1036 856.370 183.519 -5.45751
  1037 594.567 39.4981 25.2919
  1038 733.989 -3.78850 -24.6938
  1039 560.025 -58.1706 39.1794
  1040 639.612 -20.5758 40.8302
  1041 634.513 -33.7620 27.4555
  1042 631.009 -32.0101 23.3470
  1043 774.612 99.5127 -38.0100
  1044 632.800 -10.3704 42.4766
  1045 570.323 -67.7738 69.5284
  1046 608.676 -25.1352 5.61600
  1047 413.153 -32.4247 76.5959
  1048 573.747 -41.8328 -12.2574
  1049 340.896 -16.8064 -107.311
  1050 478.964 -49.4214 85.9763
  1051 642.939 -4.62876 -22.4272
  1052 628.626 -7.14978 -48.7327
  1053 545.855 -42.5362 -26.6963
  1054 341.451 -17.2440 106.563
  1055 591.472 1.65889 -34.6216
  1056 443.320 -28.5380 -54.8683
  1057 784.953 165.600 17.3317
  1058 183.607 28.7878 -104.266
  1059 1288.74 90.8126 121.328
  1060 321.350 22.5622 -152.440
  1061 630.503 -52.3733 -11.0134
  1062 443.466 -28.3134 54.4788
  1063 586.014 6.60315 38.9314
  1064 338.458 -6.45663 33.9365
  1065 338.329 -6.61254 -34.2458
  1066 640.299 -17.9900 -49.7666
  1067 672.560 -4.01447 2.65951
  1068 663.992 -1.73081 9.66690
  1069 660.761 21.8491 63.2488
  1070 620.854 -4.65575 46.0269
  1071 476.270 51.8396 228.888
  1072 697.217 -0.785860 0.792204
  1073 667.490 90.0846 40.4611
  1074 572.100 8.72923 33.6978
  1075 670.941 -2.81237 9.18173
  1076 447.028 -4.32242 -9.00512
  1077 447.121 -4.27521 8.95913
  1078 289.372 -7.84845 -56.7659
  1079 290.362 -8.13465 56.4414
  1080 574.048 29.2244 14.1934
  1081 833.710 49.9875 -72.8987
  1082 766.493 2.77015 -125.918
  1083 626.706 -0.646940 -13.9255
  1084 479.051 -49.7773 -86.5798
  1085 547.015 -40.4653 24.2593
  1086 629.920 -1.51948 14.5110
  1087 654.551 -47.8139 -26.4695
  1088 425.128 -0.732891 5.26142
  1089 425.008 -0.747559 -5.28775
  1090 629.336 -53.8716 10.9910
  1091 599.334 -12.6983 0.172589
  1092 599.233 -12.7153 -0.142712
  1093 583.843 -58.5184 26.9907
  1094 742.147 -23.2661 -17.6522
  1095 356.256 -0.554316 -9.63891
  1096 356.767 -0.534943 9.55123
  1097 511.766 -33.0905 -144.787
  1098 548.850 -13.0210 4.22336
  1099 548.889 -13.0803 -4.24925
  1100 328.877 182.289 251.618
  1101 749.836 62.3172 -44.6860
  1102 117.472 55.4141 -81.0555
  1103 648.460 -10.3075 -8.46868
  1104 181.168 60.1646 -119.765
  1105 372.908 -22.8256 -72.7981
  1106 696.807 -1.09059 0.584235
  1107 697.008 -1.04341 -0.412414
  1108 640.910 -36.8651 -33.9755
  1109 567.146 -64.0435 -95.2258
  1110 183.792 24.5123 99.3503
  1111 698.110 69.0020 55.9778
  1112 630.487 -7.10910 -0.610084
  1113 630.572 -7.10983 0.662553
  1114 682.969 -43.0676 116.103
  1115 716.973 142.164 21.0897
  1116 436.468 -9.86413 -22.4730
  1117 436.588 -9.82514 22.3424
  1118 326.997 36.3930 180.148
  1119 612.068 3.33038 -50.9884
  1120 196.922 61.8982 128.270
  1121 767.802 -11.3963 -46.2365
  1122 766.207 167.072 5.87421
  1123 531.106 -41.2769 31.4412
  1124 502.566 3.03839 -2.15690
  1125 664.232 -6.29480 11.3352
  1126 685.180 -1.15022 4.37847
  1127 165.462 0.202608 -28.8075
  1128 167.327 0.134205 28.6331
  1129 556.168 9.83388 -25.0554
  1130 564.705 -16.5624 -4.07766
  1131 564.596 -16.5015 4.06131
  1132 61.1390 110.219 -94.3273
  1133 95.0517 226.706 -181.505
  1134 571.332 -22.2183 4.34122
  1135 571.521 -22.1975 -4.38213
  1136 588.827 -14.4601 -0.0688209
  1137 588.747 -14.4407 0.107699
  1138 159.479 101.188 129.978
  1139 474.462 -5.44712 -4.49370
  1140 474.529 -5.41212 4.47754
  1141 591.882 45.1996 -0.560266
  1142 725.315 102.286 -262.959
  1143 713.042 122.290 -36.2424
  1144 649.170 -25.1438 -50.0332
  1145 639.123 -32.1717 -34.9598
  1146 531.314 -41.6408 -31.9269
  1147 543.049 1.98060 15.4628
  1148 603.643 38.0505 -36.9292
  1149 595.947 32.4903 35.3786
  1150 608.301 -24.4346 -5.48045
  1151 582.262 -34.9714 4.97464
  1152 532.513 -33.7042 -24.1126
  1153 630.738 -3.82486 26.9779
  1154 1083.36 108.949 15.0011
  1155 634.426 -13.6621 49.0396
  1156 638.795 42.0190 54.8245
  1157 586.494 -57.4183 -21.5839
  1158 80.4075 12.0406 -46.5088
  1159 597.470 -27.7316 -2.68417
  1160 412.976 -0.470465 -0.301458
  1161 413.088 -0.468167 0.299259
  1162 721.060 -19.0767 20.0143
  1163 686.793 -57.9851 32.8190
  1164 980.554 174.168 45.0329
  1165 252.778 -0.371661 -23.7370
  1166 254.057 -0.320097 23.5823
  1167 538.064 -10.7730 -3.19305
  1168 538.048 -10.7160 3.17582
  1169 599.009 -52.6674 -6.94699
  1170 506.644 2.54740 7.08552
  1171 612.985 -43.6704 7.93450
  1172 37.5808 44.5992 -24.6177
  1173 116.063 56.2618 79.1528
  1174 414.592 -23.2587 139.786
  1175 711.104 134.357 -25.9471
  1176 673.175 -2.03659 -7.27659
  1177 699.516 -1.29250 0.320387
  1178 700.082 -1.69040 -0.162730
  1179 427.508 -0.758404 -0.917583
  1180 427.616 -0.751785 0.912507
  1181 655.747 41.9009 61.7768
  1182 954.058 161.059 -3.46792
  1183 676.700 111.204 -27.1647
  1184 504.064 -37.7045 143.892
  1185 412.423 -22.4534 -139.495
  1186 461.444 -30.0042 -49.5178
  1187 626.744 -18.0137 9.42100
  1188 868.344 193.011 16.9822
  1189 461.519 -29.8450 49.1805
  1190 639.017 -11.8155 7.12450
  1191 581.693 22.1173 33.8502
  1192 635.019 19.8273 59.7231
  1193 891.454 198.560 28.3153
  1194 538.948 -13.8636 5.86723
  1195 538.962 -13.9181 -5.89789
  1196 647.827 -12.7356 17.3833
  1197 399.433 -3.90276 16.4124
  1198 399.168 -3.94016 -16.5378
  1199 633.171 -9.28849 -2.75008
  1200 264.183 159.332 -244.684
  1201 548.527 -31.2537 -154.196
  1202 525.212 -16.0550 -10.0490
  1203 525.275 -15.9945 10.0535
  1204 674.834 -3.72922 2.51951
  1205 642.302 -9.09929 5.64709
  1206 37.7440 49.5384 37.6332
  1207 693.662 -0.993073 2.17288
  1208 86.9147 113.506 112.482
  1209 628.370 -10.0419 -3.62977
  1210 -0.420827 -14.9093 -13.1477
  1211 450.344 -44.0503 -108.497
  1212 449.231 -43.0044 107.478
  1213 693.625 -1.41472 -2.44284
  1214 601.073 -31.7533 -3.54573
  1215 674.520 -3.46431 -2.48764
  1216 549.742 -17.5914 -6.26401
  1217 549.705 -17.5418 6.21608
  1218 632.785 -9.23476 2.54339
  1219 597.056 -27.1746 2.65724
  1220 575.901 -18.5996 2.43164
  1221 576.083 -18.6345 -2.37410
  1222 673.802 -3.56387 -2.00235
  1223 585.513 -62.0848 -106.975
  1224 660.603 -4.77923 -1.94432
  1225 630.866 -10.2940 4.01953
  1226 453.693 -4.51522 -6.79640
  1227 453.780 -4.47341 6.76561
  1228 501.620 -7.07087 -3.74943
  1229 501.656 -7.02878 3.73537
  1230 794.116 124.904 30.1647
  1231 668.717 -51.7741 17.4050
  1232 461.678 -2.63091 177.109
  1233 384.882 -0.494854 6.31267
  1234 384.580 -0.500873 -6.36570
  1235 637.483 -11.9940 36.4870
  1236 608.634 -9.77843 0.281517
  1237 608.649 -9.75107 -0.281532
  1238 700.522 135.121 12.2490
  1239 634.540 -66.7308 86.6143
  1240 383.534 -5.02059 22.8102
  1241 383.189 -5.05437 -22.9517
  1242 608.095 -15.2616 2.42405
  1243 607.959 -15.3735 -2.30333
  1244 626.390 -17.8203 -9.01171
  1245 585.138 0.185145 17.8865
  1246 982.439 244.805 -87.2906
  1247 638.890 -23.7305 -31.0247
  1248 116.651 26.2777 67.1428
  1249 659.242 -35.4426 42.7371
  1250 542.754 12.4448 -13.7317
  1251 44.9466 30.8720 26.3135
  1252 856.473 100.370 -20.0331
  1253 644.850 -29.5679 -44.0926
  1254 545.085 8.22846 21.0676
  1255 375.376 -22.8774 72.7385
  1256 653.405 -50.8742 22.9118
  1257 933.278 188.121 71.1097
  1258 227.032 32.2279 125.729
  1259 655.567 -8.35753 -15.0635
  1260 1221.14 13.9360 -11.9888
  1261 1258.71 18.6778 52.9137
  1262 1339.31 44.3448 -126.617
  1263 638.872 -20.2432 -39.6379
  1264 638.075 -29.4358 32.6326
  1265 647.466 -46.3695 28.8349
  1266 -18.8428 2.47499 11.7118
  1267 -17.0494 2.07192 -12.8633
  1268 628.862 -69.8238 -43.6810
  1269 642.809 -65.3427 -62.7858
  1270 509.865 3.49864 -8.72423
  1271 625.909 -70.9998 62.2841
  1272 670.056 -32.0446 -43.1464
  1273 15.8763 21.2038 4.81472
  1274 550.354 -10.0928 1.90620
  1275 550.386 -10.1546 -1.91113
  1276 663.466 -5.87540 10.0264
  1277 638.917 -11.6222 -6.62533
  1278 603.817 -65.8809 -25.3923
  1279 555.415 -29.6419 11.9633
  1280 552.773 -29.2048 -12.6532
  1281 646.487 -14.1077 24.7075
  1282 662.885 -24.5935 -51.0813
  1283 46.5718 32.1855 -25.8316
</Section>

newXOutput 37

<Section columns = "stress_xx | stress_yy | stress_xy">
  1 721.266 -0.403015 1.26395
  2 721.250 -0.385949 -1.26628
  3 418.914 -0.0534894 -0.453504
  4 -5.19638 -5.11144 -7.47805
  5 1245.42 530.587 410.476
  6 1234.35 548.306 -406.118
  7 -6.04510 -4.83070 7.99398
  8 418.798 -0.0547415 0.452560
  9 725.775 -1.32122 0.342843
  10 724.550 -2.04089 -0.456545
  11 723.412 -1.47042 1.35158
  12 722.223 -1.92834 0.199057
  13 719.606 -1.66333 2.12132
  14 717.178 -1.65978 1.43769
  15 711.042 -1.45664 3.10022
  16 701.839 -1.17400 4.61204
  17 693.738 -1.16111 5.23538
  18 681.343 -1.46360 6.43707
  19 663.704 -0.259586 9.65883
  20 647.423 -1.07019 9.30438
  21 628.340 -1.29665 13.2701
  22 600.835 0.898028 11.6661
  23 580.506 1.49200 13.8974
  24 553.937 2.43163 10.9696
  25 535.372 2.75542 11.1057
  26 508.502 3.67132 5.68955
  27 502.754 5.74955 6.13658
  28 499.253 4.82177 -1.82731
  29 503.935 2.97957 -3.95238
  30 512.602 2.76174 -4.86334
  31 532.754 3.38192 -9.67416
  32 552.344 2.67746 -12.1442
  33 580.709 0.733683 -14.3427
  34 603.333 -0.234821 -12.9145
  35 627.144 -1.01953 -12.5526
  36 648.541 -0.849433 -8.78160
  37 666.630 -0.935169 -7.41423
  38 681.315 -1.44520 -6.13083
  39 694.267 -1.09213 -4.14380
  40 702.090 -1.35586 -4.33838
  41 709.665 -1.56324 -3.14364
  42 716.614 -1.81396 -1.22289
  43 720.102 -1.48980 -1.54647
  44 721.692 -1.01674 -0.900532
  45 719.809 -0.716003 -0.827397
  46 725.160 -2.02365 0.343323
  47 725.940 -1.36221 -0.352617
  48 704.928 -1.03407 -0.784168
  49 690.902 -3.58363 -1.51569
  50 673.526 -5.11263 -0.839267
  51 652.175 -7.23538 -1.19124
  52 631.724 -7.80257 -1.40443
  53 609.745 -9.40323 -1.36351
  54 590.152 -10.2464 -0.642459
  55 572.957 -11.1702 -0.0959802
  56 553.062 -9.18812 -0.0616444
  57 530.117 -8.43518 -0.316266
  58 508.048 -6.51606 0.0634717
  59 487.189 -4.01026 0.112867
  60 467.431 -2.75456 0.173721
  61 450.205 -1.27861 0.294923
  62 432.732 -0.240028 -0.505956
  63 419.032 0.611748 0.800872
  64 412.745 1.50989 0.595945
  65 416.549 0.0736464 1.30921
  66 411.374 -0.124910 1.60543
  67 406.364 -0.222590 1.99288
  68 399.684 0.0446383 2.54064
  69 391.284 0.0322526 3.15999
  70 384.688 -0.358871 5.91937
  71 367.321 0.530127 6.43011
  72 354.847 0.0144416 7.26593
  73 336.287 -0.254492 8.27035
  74 315.016 -0.462464 10.0377
  75 288.376 -0.0641503 12.1929
  76 255.909 0.183654 13.5112
  77 227.280 -0.193755 19.3515
  78 171.735 1.73250 18.4114
  79 133.176 1.48909 19.5263
  80 86.3076 -0.442482 21.8778
  81 46.7140 3.40434 23.0489
  82 1.29116 5.23686 14.4226
  83 -32.5671 5.35605 5.81860
  84 -33.6274 5.33341 -0.801608
  85 -33.9612 4.50638 -9.90082
  86 -20.1829 -1.17241 -9.69522
  87 -2.28413 -19.3707 -10.7733
  88 2.21876 -35.2532 -13.1233
  89 5.70578 -53.8004 -6.26622
  90 12.3933 -51.3740 2.92354
  91 25.7985 0.0121292 36.8600
  92 74.7100 135.929 116.879
  93 415.666 427.671 371.171
  94 1514.88 230.079 248.985
  95 1374.05 32.6623 79.9958
  96 1285.16 13.8282 24.4831
  97 1252.47 11.8936 1.79957
  98 1270.30 15.6344 -21.4289
  99 1372.10 30.7830 -63.4517
  100 1595.57 110.999 -211.908
  101 249.187 442.522 -312.791
  102 55.8469 106.746 -98.2341
  103 28.3096 2.85389 -39.9666
  104 11.6596 -50.6103 -8.83306
  105 3.62352 -40.2816 7.05378
  106 4.31219 -44.6016 11.2611
  107 0.315101 -16.6072 11.9525
  108 -21.1058 -0.641572 9.13568
  109 -35.0250 3.38533 8.57163
  110 -35.4706 6.45973 0.975617
  111 -33.5613 5.24719 -5.48644
  112 -1.13820 5.36614 -13.5823
  113 44.6280 3.43242 -22.0164
  114 84.1897 -0.0705191 -21.5228
  115 130.973 1.60766 -19.5575
  116 169.735 1.77480 -18.5374
  117 225.733 -0.201687 -19.4962
  118 254.590 0.200535 -13.6281
  119 287.220 -0.0610521 -12.3324
  120 314.438 -0.518720 -10.0999
  121 335.479 -0.237148 -8.28499
  122 354.229 0.0363437 -7.33239
  123 366.810 0.524625 -6.49107
  124 384.313 -0.362934 -5.97087
  125 390.976 0.0295989 -3.19131
  126 399.442 0.0420631 -2.56624
  127 406.172 -0.226902 -2.01304
  128 411.218 -0.128613 -1.61939
  129 416.413 0.0705771 -1.31801
  130 412.620 1.50867 -0.599939
  131 418.914 0.611081 -0.803422
  132 432.619 -0.243415 0.504834
  133 450.101 -1.28717 -0.297915
  134 467.340 -2.77316 -0.177183
  135 487.119 -4.03604 -0.116166
  136 508.003 -6.55337 -0.0668404
  137 530.101 -8.48282 0.313527
  138 553.078 -9.24380 0.0585606
  139 573.000 -11.2337 0.0943525
  140 590.214 -10.3102 0.644383
  141 609.838 -9.46131 1.37010
  142 631.810 -7.84191 1.42814
  143 652.247 -7.27064 1.30770
  144 673.651 -4.87345 0.857152
  145 691.367 -3.50472 1.48126
  146 705.068 -1.14467 0.771119
  147 639.068 -60.1186 2.21186
  148 638.484 -59.2954 -1.99091
  149 676.298 96.8079 -29.6659
  150 714.823 42.0830 61.0377
  151 542.251 -52.7545 -123.739
  152 546.773 -52.6329 119.971
  153 533.494 -22.0136 16.6199
  154 533.517 -22.3011 -16.6227
  155 753.816 27.6994 -42.9804
  156 637.447 -23.3426 9.99789
  157 637.167 -22.8097 -9.88504
  158 823.388 181.469 5.27282
  159 655.854 -1.00225 -61.3570
  160 490.691 -37.7060 -55.9928
  161 490.754 -37.4131 55.5608
  162 656.044 -15.0184 54.6466
  163 628.844 46.2330 37.3942
  164 263.874 40.7935 -148.012
  165 291.189 38.7767 155.734
  166 790.925 10.6565 -4.32657
  167 656.008 -25.4919 -36.4889
  168 863.102 189.504 4.85858
  169 593.246 -16.8823 -2.14331
  170 593.134 -16.8448 2.18439
  171 659.931 -8.74693 -4.23406
  172 661.752 -7.95048 3.61037
  173 476.268 -6.31309 -9.31640
  174 476.340 -6.25214 9.27945
  175 701.797 -16.4854 157.572
  176 610.204 25.8100 -40.3825
  177 402.544 -29.7055 -88.1399
  178 403.703 -29.4970 87.6405
  179 453.802 -14.1064 -29.3026
  180 453.859 -13.9544 29.1218
  181 658.830 -17.7013 31.0850
  182 600.902 -40.9906 -6.00662
  183 598.944 -40.6864 6.86015
  184 677.235 -65.9300 -19.0463
  185 680.961 -62.8136 10.7518
  186 930.778 220.040 -40.9663
  187 689.023 109.949 27.5958
  188 687.452 42.2543 -62.6413
  189 698.287 -3.25492 -181.639
  190 679.015 -38.6671 -40.7064
  191 685.019 -27.7184 49.1616
  192 573.576 -64.9830 63.0261
  193 573.591 -64.4963 -62.8695
  194 619.023 8.17058 48.2304
  195 289.785 -7.59537 -108.401
  196 290.413 -8.14916 107.808
  197 1042.10 154.927 23.0487
  198 644.157 -38.5907 20.4101
  199 666.434 -12.7804 -19.6959
  200 536.912 -12.7911 -7.94624
  201 536.934 -12.7374 7.92773
  202 644.715 -8.47010 -42.4217
  203 731.406 107.118 -48.6841
  204 619.721 56.0255 -7.46210
  205 410.732 -13.8010 40.5623
  206 410.151 -13.8348 -40.8195
  207 674.315 -8.14675 10.1958
  208 663.372 12.5292 63.2532
  209 542.365 -38.7083 -29.0154
  210 539.076 -36.6292 29.4742
  211 776.181 115.418 41.8089
  212 900.174 130.278 34.1808
  213 67.1959 50.7549 -45.2895
  214 62.3137 46.9102 38.7216
  215 377.955 110.147 255.789
  216 637.892 -42.5167 -14.2835
  217 676.379 -7.81169 -9.18552
  218 612.697 5.71734 -44.4671
  219 439.094 -3.92417 -13.0785
  220 439.239 -3.88175 12.9843
  221 577.731 -26.8131 -8.43183
  222 578.006 -26.9982 8.11572
  223 649.481 -8.89222 35.8503
  224 737.449 -42.3593 25.7177
  225 742.723 150.196 -13.7412
  226 582.556 -55.8175 -32.1233
  227 729.631 -12.7450 35.0059
  228 625.059 -11.0744 0.919874
  229 625.055 -10.9946 -0.919581
  230 578.619 -55.5631 33.0885
  231 659.472 -42.1406 32.4789
  232 908.606 126.147 -71.8573
  233 210.955 125.437 -189.256
  234 571.426 20.7008 9.77817
  235 667.194 58.8094 53.5114
  236 704.714 -5.06206 -53.4444
  237 660.690 -24.0074 -50.3679
  238 365.297 -11.1780 -50.3718
  239 366.450 -11.0178 50.2548
  240 661.184 -8.32214 -27.1972
  241 629.561 -16.4182 4.53657
  242 629.273 -16.4105 -4.31914
  243 141.873 11.9882 -70.9705
  244 143.809 10.4943 70.6999
  245 695.368 -61.0892 -61.5874
  246 687.079 -3.16017 1.11992
  247 687.690 -3.21254 -1.30603
  248 652.809 54.2729 -49.2663
  249 581.446 11.7503 29.4148
  250 1159.59 185.624 125.240
  251 1148.92 130.873 -77.5535
  252 853.162 181.725 1.39861
  253 533.740 -26.2237 163.224
  254 491.402 -17.6152 -170.343
  255 567.337 -11.6466 -3.29869
  256 567.295 -11.5839 3.28102
  257 478.364 -12.1232 18.4906
  258 478.341 -12.2805 -18.6252
  259 674.708 -7.80612 16.0892
  260 656.673 -47.0104 -25.4731
  261 442.505 -0.577512 -3.14917
  262 442.618 -0.565728 3.13404
  263 648.559 -26.6710 -20.7606
  264 288.272 -9.15462 -70.2719
  265 289.364 -9.18138 69.8272
  266 657.352 -28.8060 39.4065
  267 505.656 -53.6825 99.7022
  268 506.790 -54.6354 -99.3869
  269 578.903 22.8151 -13.6965
  270 499.893 -7.22076 -6.31315
  271 499.947 -7.17763 6.29423
  272 622.681 -1.39371 35.3220
  273 738.211 134.143 33.4737
  274 409.756 -4.55549 21.6940
  275 409.465 -4.59040 -21.8505
  276 672.895 -56.5696 14.9517
  277 622.852 -70.2761 -70.0268
  278 690.172 -3.99064 4.52521
  279 492.838 -28.2516 -38.6807
  280 492.094 -27.9534 38.5627
  281 833.389 100.089 228.371
  282 412.016 -33.4775 117.996
  283 659.809 92.3833 -3.13171
  284 818.255 92.9267 -21.6101
  285 623.733 -48.1752 2.19996
  286 623.576 -72.1553 63.7223
  287 413.116 -32.9699 -119.190
  288 79.4146 98.4588 91.8196
  289 648.673 -26.7441 21.1720
  290 841.640 112.913 13.7744
  291 694.921 -3.57332 -3.92727
  292 641.753 22.7503 -56.7556
  293 628.378 -35.6600 9.08019
  294 615.748 -51.8190 7.11715
  295 639.825 29.6070 54.8153
  296 669.873 -56.5440 -12.6960
  297 941.787 181.175 -18.5389
  298 628.218 -34.2976 -8.64004
  299 510.117 153.783 -309.379
  300 640.495 -68.0639 -19.1118
  301 636.146 -69.9499 26.2388
  302 475.309 -42.3859 -78.0942
  303 438.346 -1.39352 -6.77152
  304 438.477 -1.36870 6.72894
  305 475.562 -42.4369 77.7188
  306 679.830 -1.19940 -62.4446
  307 727.710 -30.1462 -20.1483
  308 562.804 -33.3166 -16.9477
  309 562.519 -33.3973 17.2247
  310 661.566 -56.9699 109.037
  311 666.173 -5.66196 20.5593
  312 797.521 6.75483 46.6301
  313 552.741 -19.1224 -9.65638
  314 552.791 -19.0734 9.61663
  315 507.663 -12.6354 -12.6627
  316 507.683 -12.5278 12.6512
  317 576.043 8.16959 -28.4248
  318 723.179 53.1532 -58.7776
  319 1094.93 298.607 -147.481
  320 655.904 -6.59031 -1.29376
  321 655.585 -6.50953 1.34587
  322 360.016 -1.72650 147.334
  323 504.310 -22.0506 -26.2677
  324 503.466 -21.9982 26.3417
  325 359.943 -2.62137 -146.767
  326 693.118 81.6326 -51.3894
  327 766.862 38.7234 39.9329
  328 660.996 -47.0963 -120.322
  329 614.935 -23.9394 2.56162
  330 614.356 -23.7887 -2.32088
  331 653.036 -14.2170 -9.32861
  332 623.030 -1.06717 -33.0024
  333 691.469 2.77322 60.5652
  334 685.336 -5.32031 -10.9432
  335 425.838 -24.9714 59.2800
  336 425.378 -25.0960 -59.6751
  337 647.162 -1.36618 58.5024
  338 413.063 -2.99228 -13.0101
  339 413.313 -2.96542 12.9115
  340 658.193 -15.7362 15.7228
  341 790.884 160.539 -22.0702
  342 652.809 -14.3005 9.73403
  343 700.465 87.6084 51.3619
  344 668.940 -12.6192 59.4522
  345 536.484 -9.80067 3.08576
  346 536.477 -9.85172 -3.10060
  347 636.826 -2.15283 -52.0380
  348 833.065 174.474 10.5468
  349 700.270 127.264 1.05226
  350 427.434 49.2641 -217.005
  351 50.0857 19.6320 -32.7494
  352 54.2778 21.2822 34.9481
  353 -0.581798 5.86099 11.4609
  354 1.74151 3.85118 -12.1073
  355 1182.03 82.1975 27.4688
  356 579.432 -46.5103 -20.4505
  357 658.583 -15.2473 -15.3167
  358 598.179 -10.9044 -0.0416638
  359 598.113 -10.8294 0.0359021
  360 644.722 71.2857 -26.7297
  361 548.218 -55.2693 51.9716
  362 51.2659 77.2388 -58.8232
  363 548.614 -55.2250 -52.7925
  364 652.562 74.2404 28.4227
  365 658.668 -18.0152 -29.4526
  366 696.245 -39.1754 -32.8503
  367 747.648 155.985 9.38199
  368 697.402 -43.9447 25.5588
  369 304.766 -7.14293 46.9039
  370 303.156 -7.00070 -47.1520
  371 176.067 3.79678 -66.3811
  372 177.626 3.16694 66.1066
  373 584.141 2.43461 28.6454
  374 1062.22 317.670 133.373
  375 678.672 -4.74805 -14.3918
  376 535.792 -44.3879 -40.1710
  377 535.446 -44.3093 40.1237
  378 656.010 -15.4527 -38.3457
  379 738.831 -35.6365 -4.30962
  380 579.412 -46.4828 20.9498
  381 804.241 9.06076 -77.0448
  382 476.303 -3.42975 -2.64144
  383 476.385 -3.40292 2.62861
  384 647.373 -3.92295 -24.9968
  385 363.107 -4.82876 -30.4606
  386 363.289 -4.99437 30.1271
  387 767.057 98.4690 -47.3337
  388 418.374 29.1379 202.304
  389 604.598 -31.6464 -1.30386
  390 605.168 -31.6024 1.28514
  391 711.720 119.623 -32.0598
  392 670.933 -20.0969 -55.7680
  393 667.511 -68.5723 62.9880
  394 565.465 -14.9003 -5.30107
  395 565.416 -14.8435 5.26577
  396 646.366 -50.0223 15.1682
  397 691.015 -3.75368 8.02561
  398 446.670 -15.4310 -36.3644
  399 446.852 -15.4438 36.1010
  400 660.608 22.3279 -62.5568
  401 620.387 -13.9956 1.26678
  402 620.351 -14.0357 -1.20036
  403 644.968 -7.72454 47.3178
  404 607.886 44.8210 13.0512
  405 665.256 -28.4093 47.9426
  406 950.462 197.388 39.9717
  407 332.159 -17.7330 -94.4710
  408 333.012 -17.7303 93.8316
  409 150.383 78.6533 -116.765
  410 703.214 -2.66008 1.94826
  411 378.670 -2.82302 -19.3290
  412 379.117 -2.76344 19.1873
  413 656.350 -17.4509 37.3577
  414 595.970 -64.4561 36.8772
  415 667.533 -9.08306 6.54846
  416 686.152 34.7986 64.5025
  417 156.909 83.7465 121.128
  418 596.783 -64.0485 -34.3414
  419 616.116 -57.0971 -11.5624
  420 214.476 -4.24570 -59.6622
  421 215.831 -4.38714 59.2941
  422 475.775 -38.8371 -142.255
  423 704.534 -10.7655 51.8498
  424 474.252 -39.3257 141.114
  425 652.477 -36.9268 -29.2016
  426 615.437 42.0589 -28.3736
  427 652.496 -28.6054 28.0942
  428 695.185 -3.70384 -5.14425
  429 23.5204 26.6032 14.3078
  430 146.757 174.091 170.374
  431 633.599 -2.28946 24.3621
  432 543.361 8.02406 12.5711
  433 551.598 9.63700 -16.9822
  434 470.721 -7.16337 -13.0558
  435 470.787 -7.07700 12.9889
  436 643.244 -49.9734 -13.4420
  437 652.589 -12.9500 -52.6284
  438 545.865 10.9203 -4.60772
  439 948.968 227.264 55.9706
  440 140.852 44.6119 -87.9275
  441 154.451 40.9068 93.4334
  442 604.036 -21.6611 -0.456654
  443 603.828 -21.6301 0.597338
  444 802.955 174.822 -1.52468
  445 488.847 219.083 316.153
  446 764.164 -9.72019 -0.375119
  447 454.449 -22.8120 -49.3249
  448 454.676 -22.6721 48.9657
  449 459.753 -9.56817 19.9406
  450 459.653 -9.63068 -20.0885
  451 611.431 14.0753 -45.9304
  452 706.300 -1.52482 -1.22972
  453 596.655 28.0243 26.0032
  454 739.934 91.2717 53.3542
  455 617.635 -45.7516 -0.326464
  456 667.186 -8.70000 -6.39136
  457 697.734 -3.40904 4.73087
  458 704.144 -1.65495 0.695699
  459 704.600 -1.80303 -0.464654
  460 412.056 -0.557989 4.90128
  461 411.852 -0.567279 -4.94228
  462 673.133 -43.1505 35.3211
  463 616.976 24.8132 44.5058
  464 640.975 2.75234 -57.2811
  465 662.797 -14.5702 21.3432
  466 927.885 173.350 -197.359
  467 665.488 -37.2509 -40.8723
  468 10.2960 13.2332 7.62255
  469 10.0761 13.5997 -4.31501
  470 534.393 -29.4779 23.6110
  471 532.757 -29.0482 -23.2732
  472 811.237 20.6537 110.296
  473 231.614 221.541 -243.785
  474 658.602 -2.23907 18.5401
  475 735.134 -42.1472 -66.0434
  476 408.201 -22.7362 68.3429
  477 795.381 141.399 -31.9157
  478 656.079 -35.8544 33.7707
  479 556.575 -26.0516 -13.1092
  480 557.050 -25.6414 13.0883
  481 584.013 3.34757 -25.2540
  482 406.997 -22.6295 -68.6925
  483 597.039 0.542210 25.2630
  484 563.310 -64.6542 -90.3730
  485 561.954 -64.7520 90.8026
  486 675.442 -4.86829 15.9556
  487 624.373 59.2167 5.38055
  488 616.875 12.9282 219.065
  489 912.269 183.196 -1.13598
  490 634.008 -11.3794 2.20967
  491 634.029 -11.3427 -2.34938
  492 499.405 -8.32803 -8.64513
  493 499.454 -8.26622 8.62207
  494 266.677 11.1270 124.987
  495 659.334 -32.0919 -40.4600
  496 599.954 -13.3771 -1.07161
  497 599.895 -13.3412 1.07803
  498 525.187 -55.1691 73.8266
  499 271.560 14.8654 -128.029
  500 658.939 -53.9915 -15.5815
  501 12.9660 5.75672 2.32626
  502 588.774 31.1091 1.94982
  503 635.879 -8.14389 -0.656264
  504 635.877 -8.23736 0.626187
  505 525.382 -55.0480 -74.3550
  506 735.630 -36.7869 81.6043
  507 735.897 26.8466 53.2101
  508 676.285 -5.40829 -2.95352
  509 656.953 -54.7197 15.9411
  510 430.918 -0.219291 -0.949031
  511 431.034 -0.216103 0.943503
  512 657.827 -25.5516 -43.9462
  513 642.998 47.7633 48.3325
  514 727.250 18.1054 -52.7007
  515 428.274 -0.483814 -2.77615
  516 428.403 -0.475984 2.76137
  517 1230.53 178.153 -157.589
  518 667.705 79.3096 42.2120
  519 676.772 -5.07754 2.59852
  520 617.383 -58.3830 13.0827
  521 526.745 -16.8349 13.3928
  522 526.721 -16.9494 -13.3658
  523 712.817 -43.7369 9.78673
  524 689.085 -14.0403 -55.6595
  525 771.593 150.836 28.3490
  526 646.351 11.2987 59.4799
  527 645.201 -13.1182 5.30493
  528 625.720 -67.3006 -88.3831
  529 653.861 -16.4768 44.0040
  530 1213.60 56.1398 -21.9551
  531 707.180 -53.5904 7.70533
  532 672.119 -5.30469 -0.531303
  533 672.283 -5.58366 0.405490
  534 1226.26 82.1972 76.2861
  535 631.512 -0.0363032 50.6096
  536 865.673 149.461 -1.40619
  537 657.185 -18.4526 -20.3429
  538 315.119 -2.69855 -20.7900
  539 315.951 -2.56589 20.6007
  540 452.772 -42.1682 -99.0048
  541 453.193 -41.4689 98.3300
  542 644.835 -12.6226 -5.28718
  543 703.699 25.8243 -61.7199
  544 619.374 -42.0921 2.73146
  545 670.432 76.7865 -43.6478
  546 668.876 -8.30372 21.4307
  547 827.077 45.0052 -21.6497
  548 577.476 -19.6564 -5.53061
  549 577.331 -19.6082 5.48911
  550 623.450 -29.5925 6.07681
  551 904.660 184.188 -27.0355
  552 660.180 28.9745 61.6829
  553 285.819 73.0866 183.628
  554 628.082 -37.4855 149.024
  555 816.737 46.8951 -165.819
  556 674.644 55.8420 -57.0838
  557 592.286 -51.7121 -129.663
  558 642.464 -70.7067 -31.4755
  559 668.668 -68.1697 -43.4012
  560 92.0313 123.355 -116.427
  561 672.797 -9.24949 -12.3088
  562 1001.60 193.978 -60.7750
  563 626.555 -28.4780 -7.37355
  564 631.100 -20.9696 6.14830
  565 630.538 -20.5261 -5.80275
  566 451.329 -2.20761 -6.22689
  567 451.438 -2.17941 6.19521
  568 71.7757 6.36473 -37.5866
  569 74.9995 6.69632 38.3986
  570 337.281 -15.1518 -71.8009
  571 339.637 -15.2428 71.7503
  572 639.917 -34.9629 -16.8881
  573 649.501 -71.0082 33.6291
  574 667.468 -63.7603 -3.71865
  575 555.723 -9.77102 -2.58147
  576 555.702 -9.71264 2.57063
  577 523.709 -55.2768 -110.783
  578 581.518 -48.1874 136.771
  579 511.778 -52.0465 111.296
  580 660.131 -14.8233 -56.3313
  581 427.883 -6.53443 22.0068
  582 427.680 -6.59836 -22.1573
  583 634.689 35.4711 -48.6710
  584 633.931 -1.13335 -22.1007
  585 785.812 168.502 -12.1901
  586 522.210 -7.56761 -2.35714
  587 522.237 -7.52499 2.34846
  588 669.757 -2.14932 -12.0892
  589 474.471 -15.1894 -24.9510
  590 474.510 -15.1481 24.7686
  591 382.911 16.6082 174.688
  592 651.913 -30.3575 -28.3269
  593 371.832 -20.2180 125.849
  594 640.724 -33.4794 17.4190
  595 671.387 -10.1671 13.7224
  596 661.920 -6.91597 -2.48863
  597 481.072 -5.46414 -5.97906
  598 481.146 -5.42364 5.95632
  599 754.617 149.326 -26.0619
  600 371.553 -19.5414 -126.246
  601 638.517 -28.0216 -13.4956
  602 580.068 -10.9454 -1.54795
  603 580.016 -10.8773 1.54255
  604 1058.81 141.634 -25.7497
  605 399.741 -2.28522 12.0194
  606 399.425 -2.30630 -12.1135
  607 605.017 14.3363 42.0230
  608 838.843 74.2429 2.99367
  609 407.074 1.70757 -173.155
  610 216.701 4.60743 -95.9157
  611 218.310 3.49188 95.4198
  612 513.409 -29.0649 31.5741
  613 518.323 -29.9240 -30.8452
  614 853.784 173.100 4.81402
  615 659.480 -7.13651 2.15579
  616 581.753 17.0332 -25.5148
  617 713.749 127.228 25.3818
  618 711.574 131.948 -16.9090
  619 584.665 -32.0865 -8.65059
  620 588.826 -31.4150 6.63228
  621 416.390 92.1987 -246.734
  622 509.125 -16.6974 -17.9264
  623 509.185 -16.5208 17.8829
  624 1226.64 251.930 189.929
  625 658.551 -21.8483 47.8598
  626 389.713 -13.0578 -45.9270
  627 989.944 248.913 174.213
  628 390.551 -12.9959 45.7899
  629 622.355 -23.2696 -172.739
  630 458.975 -1.88415 -2.28665
  631 459.073 -1.86830 2.27781
  632 563.374 5.44347 22.2951
  633 265.440 -3.68702 -41.1290
  634 266.689 -3.69816 40.8477
  635 577.447 -40.3791 16.4217
  636 603.544 -48.0494 -8.62626
  637 701.748 -1.86200 -4.49031
  638 418.552 -0.519517 3.69592
  639 418.387 -0.529781 -3.72576
  640 548.102 -12.1580 -4.34566
  641 548.094 -12.1018 4.32313
  642 618.872 -69.1206 89.0718
  643 714.873 79.7632 -56.0148
  644 485.128 -21.7248 -32.0694
  645 484.839 -21.3707 31.8686
  646 567.454 -40.1978 -20.9616
  647 881.499 190.475 11.1175
  648 663.753 -64.5531 7.19088
  649 582.069 -14.0626 -3.12589
  650 581.994 -14.0079 3.12168
  651 789.886 87.6359 36.9403
  652 666.330 -10.1480 -23.2653
  653 600.091 -0.532715 -20.5281
  654 285.091 -9.79211 -90.7542
  655 285.847 -10.0332 90.0932
  656 565.551 -48.1770 -31.6210
  657 840.519 182.453 -0.213707
  658 659.809 89.1254 -19.0213
  659 448.625 -3.64248 -11.2509
  660 448.740 -3.59357 11.1791
  661 610.749 -17.6008 -0.180630
  662 610.862 -17.6049 0.291141
  663 1107.33 143.935 63.8068
  664 709.429 -2.32056 1.06296
  665 690.784 -3.11320 7.96768
  666 688.629 -3.10376 -9.53835
  667 656.381 -61.3722 2.52852
  668 495.952 -5.37036 -2.98321
  669 496.012 -5.33700 2.97311
  670 706.424 112.496 39.4081
  671 895.019 197.907 -18.3788
  672 501.446 -36.3002 -45.4237
  673 501.365 -35.9709 45.2349
  674 617.792 -63.5453 -19.0984
  675 656.091 39.1659 -58.2053
  676 765.686 2.68742 16.5574
  677 522.318 -9.34545 -6.30103
  678 522.348 -9.29474 6.28212
  679 451.788 -39.1711 -89.3308
  680 650.395 -63.1165 3.24533
  681 544.469 -60.3099 81.4629
  682 264.831 82.5386 -177.487
  683 511.829 -46.7526 62.8603
  684 617.881 0.187423 18.8058
  685 452.237 -38.7433 88.7972
  686 638.171 -28.5268 13.6611
  687 511.913 -46.5360 -63.3607
  688 535.262 7.46863 4.70654
  689 415.288 -10.4581 32.9003
  690 414.945 -10.4598 -33.0913
  691 544.616 -61.8639 -82.3248
  692 668.932 -44.3969 -34.0635
  693 615.027 -9.24097 -0.133843
  694 615.123 -9.32211 0.135250
  695 682.700 -43.8947 33.0626
  696 622.190 -64.9970 21.7219
  697 753.153 69.4346 51.4336
  698 682.069 -13.0477 57.9861
  699 656.415 -23.9776 34.2939
  700 634.548 52.4941 -36.9227
  701 754.326 126.338 41.0166
  702 652.967 -9.23656 -34.6168
  703 647.986 -21.9925 15.9898
  704 676.651 105.365 10.2260
  705 660.357 -11.5773 29.5425
  706 212.481 145.920 186.667
  707 613.557 -70.7621 -54.0067
  708 710.150 12.7947 58.2397
  709 714.779 -22.2537 -38.3602
  710 707.223 -1.33905 2.31728
  711 655.313 -23.0105 -26.3014
  712 614.606 -71.3045 49.6109
  713 1155.08 102.586 -17.0025
  714 384.397 -1.43546 12.5541
  715 383.987 -1.45006 -12.6537
  716 662.452 -12.7326 -11.4139
  717 711.025 -1.05539 -2.30732
  718 564.657 -48.9754 31.7719
  719 673.297 -25.3612 52.1042
  720 999.240 248.743 -90.1872
  721 638.275 -46.3763 12.6876
  722 703.526 -46.6374 -15.4451
  723 648.185 -21.4388 -15.7176
  724 709.839 -1.65692 -0.584053
  725 660.020 -0.131768 61.9615
  726 32.2555 36.8912 43.6302
  727 730.150 -26.3423 -116.893
  728 798.468 49.2465 18.3002
  729 668.284 -68.6384 39.6729
  730 490.533 -11.1448 14.5757
  731 490.512 -11.2898 -14.6291
  732 602.962 333.784 -331.106
  733 682.875 -45.5298 -29.9534
  734 533.360 3.37329 -9.01099
  735 610.395 3.65860 40.6967
  736 660.810 -33.3954 41.0187
  737 633.366 -53.3775 2.99490
  738 653.303 -60.0245 -95.8042
  739 629.810 -49.8312 -4.43436
  740 736.714 -35.1166 1.71590
  741 679.614 -6.27930 6.50305
  742 612.718 -36.7339 0.668295
  743 1086.75 217.071 -118.204
  744 650.528 -18.0096 12.3785
  745 649.456 10.8250 -60.9926
  746 547.951 -5.65380 193.334
  747 693.157 55.7130 61.2741
  748 596.715 -46.6531 11.5015
  749 467.657 -35.9979 -65.6430
  750 467.750 -35.9192 65.1787
  751 639.749 72.0752 -8.54649
  752 646.494 -7.56528 53.8569
  753 651.982 -15.7037 -45.1597
  754 613.378 -37.5182 -0.817435
  755 593.819 -52.8380 20.5160
  756 681.565 111.711 -11.3852
  757 632.623 -54.7700 -0.516586
  758 634.381 -40.2918 12.6837
  759 640.683 -8.99126 1.59183
  760 641.025 -8.77806 -1.56798
  761 860.559 186.918 -0.706616
  762 701.033 -59.9143 -29.7489
  763 657.223 -20.5994 26.3256
  764 679.624 -6.28523 -5.81924
  765 692.273 4.49810 -61.1878
  766 781.330 42.5067 -29.4610
  767 404.814 -0.227057 -5.95828
  768 405.065 -0.222220 5.90934
  769 6.50411 -9.75325 -6.62963
  770 671.263 -0.998788 11.1500
  771 622.507 -0.724608 -44.7103
  772 640.168 -6.02772 38.8170
  773 571.435 76.3389 279.755
  774 727.671 147.883 -1.37330
  775 521.719 -36.4279 36.3461
  776 102.211 1.87563 -36.5129
  777 104.594 1.34683 36.8799
  778 635.261 -4.46885 -44.0589
  779 522.959 -36.7635 -36.3652
  780 675.750 -6.87811 4.69507
  781 361.540 -14.8365 61.1557
  782 358.676 -14.7749 -61.1246
  783 650.442 -17.5142 -12.0348
  784 430.421 -10.1316 -28.7596
  785 430.629 -10.0733 28.5464
  786 676.083 -6.95460 -15.7827
  787 526.739 -13.5762 -10.7461
  788 526.771 -13.5001 10.7523
  789 736.729 -4.44562 -37.7917
  790 668.713 -7.09917 -61.5998
  791 356.964 -2.06137 -15.8606
  792 357.562 -2.04179 15.6995
  793 24.0293 8.65985 -23.2780
  794 26.8302 9.15728 24.4135
  795 555.788 2.85932 -16.1606
  796 609.393 -68.4500 -41.6369
  797 -6.65014 -4.47290 11.8243
  798 -5.95509 -5.52365 -11.9262
  799 633.412 -13.3323 3.66579
  800 684.761 -53.8099 -13.2693
  801 712.675 105.160 -45.7493
  802 678.297 -6.23781 -4.49026
  803 1391.92 288.072 -261.081
  804 633.277 -13.3023 -3.60861
  805 944.318 177.891 16.9900
  806 680.353 19.8173 -64.4884
  807 746.869 56.8053 -53.0786
  808 139.912 -1.59561 -33.3266
  809 142.000 -1.77694 33.2779
  810 438.308 -5.80846 17.2777
  811 438.150 -5.85242 -17.4029
  812 422.684 -0.799076 3.28168
  813 422.542 -0.808010 -3.30230
  814 757.856 127.270 -40.3757
  815 462.855 -2.49764 -4.97836
  816 462.950 -2.47030 4.95749
  817 648.403 -6.50397 -56.3160
  818 908.273 103.345 93.2002
  819 591.363 13.8108 -35.4317
  820 216.605 -1.81687 35.2475
  821 215.093 -1.83456 -35.4905
  822 734.459 24.7701 203.660
  823 661.932 -12.8340 11.7770
  824 604.456 40.6857 -14.7320
  825 291.768 -0.320723 23.7493
  826 290.510 -0.192566 -23.8992
  827 429.563 -1.87010 -8.55869
  828 429.723 -1.84324 8.49566
  829 78.8759 69.3981 63.2563
  830 626.665 15.3081 52.1436
  831 693.597 101.447 -39.7836
  832 741.193 86.2509 -53.8137
  833 497.523 -17.9925 -22.9748
  834 497.280 -17.8788 22.9661
  835 769.809 161.963 17.7099
  836 659.143 -6.33741 -0.467291
  837 659.199 -6.29267 0.569217
  838 656.762 -20.1195 -34.9593
  839 555.054 -36.3098 22.9364
  840 605.965 -68.0439 41.6594
  841 704.419 -57.6628 63.9941
  842 551.339 -15.6950 -7.31333
  843 551.349 -15.6510 7.27950
  844 631.473 58.8168 23.8112
  845 596.103 8.61176 -38.1530
  846 164.832 210.164 193.924
  847 595.553 -52.3863 -19.0987
  848 597.966 -26.6597 -2.50774
  849 598.275 -26.7389 2.46477
  850 657.532 -9.80887 58.7635
  851 649.389 -42.9143 -23.1949
  852 583.507 -38.1785 -11.9240
  853 1269.73 41.0775 -61.1091
  854 555.649 -51.9149 41.9331
  855 555.157 -52.5560 -42.5331
  856 655.953 -8.06501 29.3477
  857 970.268 254.137 -67.7562
  858 523.445 -46.7081 -50.6927
  859 574.070 -64.2871 49.7717
  860 523.385 -46.1753 50.2973
  861 566.017 -22.4453 -8.86544
  862 566.024 -22.3886 8.82030
  863 89.8382 36.2275 54.6865
  864 704.352 52.6593 -61.3578
  865 545.050 -20.7694 -12.2978
  866 545.161 -20.5781 12.3339
  867 539.399 -8.74097 -1.52110
  868 539.401 -8.69041 1.51377
  869 588.054 -11.9590 -1.36057
  870 587.990 -11.8936 1.35329
  871 487.252 -8.93831 -12.5114
  872 487.306 -8.84599 12.4722
  873 546.614 -28.0623 -17.8480
  874 546.698 -27.8993 17.9282
  875 14.5827 0.630988 -10.0724
  876 811.056 152.518 25.9121
  877 698.799 -24.7840 -46.3541
  878 573.498 -63.3356 -50.2085
  879 617.907 -20.2316 2.35433
  880 617.655 -20.0474 -2.21045
  881 674.345 0.716165 62.9900
  882 723.587 -51.4827 -39.9580
  883 636.479 50.1139 -243.990
  884 303.704 -5.76317 122.844
  885 -6.17012 7.07806 -10.1119
  886 -4.86773 8.01453 10.9643
  887 89.4572 38.5127 -55.9096
  888 656.354 -19.4209 20.1273
  889 686.378 -5.11238 -8.32758
  890 618.928 -60.0300 108.385
  891 303.033 -5.51018 -123.277
  892 689.669 -56.9217 6.52722
  893 759.421 -20.0798 97.9150
  894 573.671 2.45069 17.0857
  895 648.930 61.8409 40.2526
  896 358.846 -19.9121 89.5169
  897 357.544 -20.0685 -90.0336
  898 429.319 -19.5653 -50.4008
  899 442.052 -22.5875 -155.655
  900 692.614 -16.4925 53.6291
  901 938.563 225.649 47.7333
  902 697.115 26.6982 62.5763
  903 658.732 -14.4438 -32.1710
  904 450.844 -20.2271 159.461
  905 833.388 155.023 -15.2464
  906 88.7772 74.0851 -77.2259
  907 616.326 -1.10880 -17.9382
  908 429.752 -19.4162 50.0151
  909 518.470 -10.9827 9.35112
  910 518.439 -11.0467 -9.36488
  911 650.270 -42.6765 24.1330
  912 670.182 -5.12236 1.56296
  913 496.590 4.06524 -192.335
  914 704.221 -1.86550 3.91183
  915 700.243 -1.57364 -5.17594
  916 544.598 5.02420 -14.9443
  917 680.882 -2.91340 -9.79682
  918 519.175 -23.4790 -21.8687
  919 519.513 -23.1512 21.9451
  920 -15.2250 6.77020 -8.51022
  921 -21.8583 4.09118 9.35182
  922 670.130 -4.80842 -1.64348
  923 235.614 -5.55366 83.0864
  924 234.404 -5.10284 -83.5070
  925 723.356 105.049 47.8771
  926 1241.57 22.6181 18.5959
  927 683.192 75.7744 51.9295
  928 759.701 -25.5666 35.1797
  929 668.288 -37.5348 40.8325
  930 829.442 173.273 -11.7753
  931 534.410 2.68551 11.2862
  932 642.183 -15.7558 -6.63881
  933 671.829 36.2269 -63.0110
  934 797.906 25.8696 -1.37395
  935 627.877 -38.8536 -8.95086
  936 338.220 -1.67617 -17.6693
  937 338.483 -1.61544 17.4424
  938 660.833 -16.0575 -24.2981
  939 24.8993 30.6090 9.58060
  940 634.652 -65.8642 -13.4411
  941 564.637 17.4682 -1.53740
  942 825.198 179.651 -7.76674
  943 136.840 101.314 -124.348
  944 640.170 -4.79963 -34.7797
  945 454.969 -6.99489 -16.3133
  946 455.070 -6.91815 16.2018
  947 4.75186 -17.0830 12.6502
  948 441.646 -32.0670 -72.3046
  949 647.045 -37.6822 -22.7469
  950 422.016 0.923685 -1.39463
  951 422.139 0.926903 1.38760
  952 659.821 79.9993 -32.0118
  953 692.337 -2.74435 -0.776817
  954 692.392 -2.76550 1.05476
  955 441.876 -31.9978 71.8804
  956 657.076 -1.10766 -13.5495
  957 748.266 5.69665 35.6636
  958 665.143 -10.1025 8.87242
  959 115.268 27.2833 -67.4666
  960 687.503 -4.77065 7.47437
  961 634.759 5.40210 55.4835
  962 669.161 92.3395 28.4379
  963 666.233 7.76966 -64.2054
  964 467.715 -24.1288 -43.8684
  965 712.688 -25.5816 36.7080
  966 468.026 -24.0541 43.4857
  967 24.0794 25.2000 -5.61174
  968 86.9701 13.4966 49.6101
  969 388.699 -6.36060 29.5316
  970 388.274 -6.35697 -29.6661
  971 642.643 -16.0149 7.10761
  972 697.317 120.332 15.4278
  973 357.366 31.6237 -183.272
  974 582.555 -35.9606 10.7789
  975 547.130 -56.7365 -61.0807
  976 790.754 150.937 29.1973
  977 610.636 -11.2402 -0.365164
  978 610.607 -11.1893 0.357615
  979 665.481 -12.9289 -16.9358
  980 626.037 54.4450 -21.9487
  981 1332.24 408.769 273.879
  982 139.842 6.99191 -63.6460
  983 141.663 5.78818 63.7507
  984 10.4456 -7.26652 6.30701
  985 627.111 35.1940 45.0564
  986 547.094 -57.1035 60.6831
  987 673.050 -32.0847 -47.4129
  988 731.413 59.7948 59.0507
  989 696.823 -56.2701 -76.5032
  990 1012.26 212.395 75.1415
  991 600.439 -10.1217 -0.696818
  992 600.365 -10.0508 0.695769
  993 698.000 -28.8205 43.5348
  994 50.2263 95.1464 91.0772
  995 330.873 -6.50521 42.0796
  996 329.970 -6.41950 -42.4637
  997 389.333 -18.2489 57.8902
  998 388.092 -17.9500 -58.0612
  999 436.365 -17.1769 42.0333
  1000 477.030 -3.36739 -2.19032
  1001 477.111 -3.34475 2.18325
  1002 1112.86 373.184 -242.626
  1003 1029.32 258.949 113.366
  1004 436.023 -17.2508 -42.3322
  1005 718.499 -3.47591 48.3678
  1006 651.867 67.7123 -38.6229
  1007 460.876 -40.1349 129.306
  1008 586.142 -69.3809 -72.7538
  1009 668.811 -5.81358 -19.4218
  1010 309.365 19.8653 150.142
  1011 396.474 -30.1397 103.201
  1012 602.237 31.4667 -28.4062
  1013 677.420 -13.6233 -58.8746
  1014 821.699 371.798 373.781
  1015 572.382 18.1274 20.3855
  1016 763.261 162.300 -2.19190
  1017 554.366 22.9410 -217.872
  1018 571.456 -59.6318 -43.3723
  1019 711.127 -1.17681 -1.84866
  1020 694.852 63.7819 -59.6170
  1021 422.838 -2.37403 10.8604
  1022 422.643 -2.39739 -10.9437
  1023 16.3148 16.6173 -26.4633
  1024 468.627 -20.4936 -36.7126
  1025 395.973 -30.5186 -103.890
  1026 468.333 -20.4637 36.3698
  1027 663.008 -20.4146 54.5073
  1028 596.308 -36.5948 -5.80748
  1029 630.231 11.8940 -53.9194
  1030 648.996 80.9823 11.2854
  1031 853.828 57.4205 44.3416
  1032 654.896 -49.9867 22.1458
  1033 424.284 -33.2015 -79.1076
  1034 625.802 22.5638 -50.7049
  1035 464.485 -39.6447 -129.870
  1036 878.691 188.178 -5.71050
  1037 610.737 40.6017 25.8417
  1038 753.015 -3.84965 -24.7903
  1039 574.934 -59.6942 40.4619
  1040 656.520 -21.1373 41.5658
  1041 651.235 -34.6673 27.8339
  1042 647.638 -32.8698 23.6405
  1043 794.768 102.178 -38.4198
  1044 649.616 -10.6556 43.3039
  1045 585.389 -69.5713 71.6378
  1046 624.752 -25.8133 5.54866
  1047 424.558 -33.2810 78.7446
  1048 589.023 -42.9198 -12.8180
  1049 350.389 -17.2887 -110.318
  1050 491.892 -50.7381 88.4274
  1051 659.941 -4.76710 -22.8490
  1052 645.382 -7.34304 -49.7080
  1053 560.481 -43.6372 -27.6029
  1054 350.958 -17.7362 109.554
  1055 607.520 1.71720 -35.3563
  1056 455.538 -29.2719 -56.4239
  1057 805.584 169.874 17.4686
  1058 188.925 29.5295 -107.320
  1059 1319.74 92.9848 124.093
  1060 330.177 23.1016 -156.745
  1061 647.098 -53.7602 -10.9319
  1062 455.689 -29.0427 56.0266
  1063 601.961 6.80700 39.7693
  1064 348.225 -6.61886 34.8682
  1065 348.095 -6.77848 -35.1840
  1066 657.261 -18.4761 -50.7118
  1067 689.923 -4.15417 2.66894
  1068 681.378 -1.79034 9.83614
  1069 678.285 22.4284 64.5021
  1070 637.467 -4.77884 46.9624
  1071 488.723 53.2621 235.171
  1072 715.043 -0.820447 0.792939
  1073 685.318 92.4744 41.2689
  1074 587.769 8.99485 34.4319
  1075 688.430 -2.90087 9.33633
  1076 459.572 -4.41513 -9.27689
  1077 459.667 -4.36703 9.23016
  1078 297.772 -8.05489 -58.3359
  1079 298.783 -8.34887 58.0059
  1080 589.778 30.0618 14.5052
  1081 854.763 51.5674 -75.4106
  1082 785.873 3.06005 -129.671
  1083 643.440 -0.669685 -14.2020
  1084 491.977 -51.1027 -89.0456
  1085 561.673 -41.5132 25.1017
  1086 646.716 -1.56465 14.7978
  1087 671.733 -49.0874 -26.7368
  1088 437.233 -0.739440 5.41450
  1089 437.109 -0.754373 -5.44125
  1090 645.903 -55.2981 10.9082
  1091 615.179 -13.0579 0.0886952
  1092 615.075 -13.0756 -0.0585178
  1093 599.314 -60.0524 27.9838
  1094 761.229 -23.8171 -18.6504
  1095 366.608 -0.565725 -9.90394
  1096 367.129 -0.545947 9.81465
  1097 525.279 -34.0085 -148.854
  1098 563.605 -13.3646 4.41153
  1099 563.644 -13.4247 -4.43813
  1100 337.519 187.420 258.523
  1101 769.370 63.9982 -45.2909
  1102 120.944 56.9502 -83.5539
  1103 665.380 -10.6140 -8.54547
  1104 186.353 61.7740 -123.282
  1105 383.356 -23.4270 -74.8215
  1106 714.590 -1.13736 0.591769
  1107 714.793 -1.08898 -0.416528
  1108 657.802 -37.8528 -34.4863
  1109 582.070 -65.7536 -98.0178
  1110 189.119 25.1442 102.260
  1111 716.555 70.8266 57.0180
  1112 646.975 -7.33715 -0.605744
  1113 647.062 -7.33765 0.659180
  1114 700.491 -44.1172 119.544
  1115 736.025 145.865 21.4525
  1116 448.694 -10.1011 -23.1231
  1117 448.817 -10.0616 22.9902
  1118 335.898 37.3262 185.214
  1119 628.530 3.43416 -52.0550
  1120 202.505 63.5641 132.010
  1121 787.415 -11.5768 -47.9908
  1122 786.455 171.359 5.94221
  1123 545.392 -42.3418 32.4579
  1124 516.791 3.14645 -2.20516
  1125 681.537 -6.48627 11.4998
  1126 702.891 -1.19691 4.43963
  1127 170.667 0.203935 -29.6181
  1128 172.568 0.134008 29.4400
  1129 571.508 10.1380 -25.6068
  1130 579.802 -17.0009 -4.29945
  1131 579.691 -16.9393 4.28241
  1132 62.8696 114.154 -97.2368
  1133 97.6143 234.057 -186.703
  1134 586.573 -22.8039 4.61175
  1135 586.765 -22.7813 -4.65427
  1136 604.449 -14.8579 -0.178093
  1137 604.368 -14.8386 0.217391
  1138 163.999 104.020 133.817
  1139 487.615 -5.57203 -4.63764
  1140 487.684 -5.53650 4.62122
  1141 608.005 46.4611 -0.570995
  1142 743.396 105.495 -270.094
  1143 731.951 125.500 -36.8736
  1144 666.309 -25.8196 -50.9379
  1145 655.978 -33.0378 -35.5181
  1146 545.599 -42.7139 -32.9574
  1147 558.131 2.04814 15.8028
  1148 619.997 39.1094 -37.7226
  1149 612.134 33.4019 36.1447
  1150 624.369 -25.0954 -5.41178
  1151 597.743 -35.8885 5.33127
  1152 546.856 -34.5680 -24.9167
  1153 647.529 -3.93386 27.5072
  1154 1110.40 111.650 15.3602
  1155 651.284 -14.0326 49.9934
  1156 655.897 43.1528 55.9615
  1157 602.031 -58.9213 -22.4406
  1158 82.9943 12.3547 -47.9446
  1159 613.297 -28.4708 -2.53782
  1160 424.867 -0.473487 -0.312416
  1161 424.983 -0.471149 0.310190
  1162 739.760 -19.5631 20.0078
  1163 704.584 -59.4956 34.1299
  1164 1005.58 178.535 46.2943
  1165 260.365 -0.373720 -24.3888
  1166 261.669 -0.320795 24.2312
  1167 552.586 -11.0543 -3.32355
  1168 552.570 -10.9965 3.30589
  1169 614.857 -54.0499 -7.42828
  1170 520.960 2.63511 7.24541
  1171 629.176 -44.8252 7.83013
  1172 38.7518 45.9855 -25.5492
  1173 119.481 57.8263 81.5866
  1174 425.800 -23.9329 143.704
  1175 730.008 137.866 -26.4041
  1176 690.709 -2.10003 -7.40079
  1177 717.355 -1.33547 0.319547
  1178 717.929 -1.74296 -0.158911
  1179 439.687 -0.764180 -0.947191
  1180 439.799 -0.757461 0.942045
  1181 673.206 43.0201 63.0302
  1182 978.496 165.072 -3.55748
  1183 694.781 114.138 -27.6927
  1184 517.413 -38.7442 147.937
  1185 423.576 -23.1100 -143.403
  1186 474.104 -30.7722 -50.9396
  1187 643.217 -18.5168 9.47178
  1188 890.778 198.114 17.9826
  1189 474.182 -30.6101 50.5955
  1190 655.732 -12.1634 7.16313
  1191 597.571 22.7539 34.5887
  1192 651.997 20.3702 60.9585
  1193 914.500 203.669 29.4486
  1194 553.485 -14.2228 6.10321
  1195 553.500 -14.2780 -6.13461
  1196 664.800 -13.1042 17.6315
  1197 410.823 -3.99103 16.8775
  1198 410.553 -4.02914 -17.0052
  1199 649.732 -9.57100 -2.73186
  1200 271.289 163.748 -251.481
  1201 562.879 -32.0931 -158.538
  1202 539.440 -16.4627 -10.4151
  1203 539.506 -16.4014 10.4198
  1204 692.227 -3.85828 2.53760
  1205 659.073 -9.37791 5.67413
  1206 38.8915 51.1702 38.9410
  1207 711.474 -1.03155 2.19503
  1208 89.4102 116.977 115.907
  1209 644.840 -10.3437 -3.61394
  1210 -0.408652 -15.2683 -13.4699
  1211 462.508 -45.2477 -111.552
  1212 461.372 -44.1749 110.509
  1213 711.436 -1.46269 -2.47064
  1214 616.984 -32.5958 -3.39919
  1215 691.915 -3.58758 -2.49830
  1216 564.509 -18.0497 -6.54616
  1217 564.472 -17.9997 6.49700
  1218 649.338 -9.51632 2.52292
  1219 612.873 -27.8981 2.51254
  1220 591.244 -19.0977 2.63312
  1221 591.429 -19.1326 -2.57477
  1222 691.172 -3.69020 -2.00869
  1223 600.833 -63.7386 -110.089
  1224 677.711 -4.94480 -1.94215
  1225 647.389 -10.6018 4.01237
  1226 466.392 -4.61261 -7.00837
  1227 466.481 -4.57005 6.97711
  1228 515.356 -7.24382 -3.88112
  1229 515.393 -7.20110 3.86681
  1230 814.758 128.228 30.3662
  1231 686.189 -53.1498 17.4141
  1232 473.920 -2.73046 182.045
  1233 395.996 -0.499544 6.49214
  1234 395.688 -0.505676 -6.54611
  1235 654.369 -12.3254 37.1744
  1236 624.671 -10.0685 0.237853
  1237 624.685 -10.0407 -0.237905
  1238 719.193 138.651 12.4724
  1239 651.036 -68.4851 89.2441
  1240 394.494 -5.13888 23.4441
  1241 394.141 -5.17318 -23.5880
  1242 624.139 -15.6886 2.35294
  1243 624.000 -15.8040 -2.23013
  1244 642.853 -18.3195 -9.05514
  1245 601.076 0.194359 18.2637
  1246 1007.48 251.096 -89.8702
  1247 655.733 -24.3779 -31.5304
  1248 120.171 26.9811 69.1856
  1249 676.576 -36.3921 43.4172
  1250 557.819 12.8267 -14.0354
  1251 46.4096 31.7518 27.2347
  1252 878.264 103.245 -21.2722
  1253 661.866 -30.3622 -44.8567
  1254 560.198 8.48659 21.5358
  1255 385.883 -23.4810 74.7641
  1256 670.546 -52.2265 23.0916
  1257 956.835 193.490 73.7867
  1258 233.450 33.0593 129.367
  1259 672.702 -8.61091 -15.2854
  1260 1250.74 14.2925 -12.2617
  1261 1289.04 19.1133 54.0831
  1262 1371.28 45.3264 -129.468
  1263 655.761 -20.7968 -40.3513
  1264 654.896 -30.2311 33.1469
  1265 664.485 -47.6056 29.1792
  1266 -19.3248 2.55902 11.9953
  1267 -17.4787 2.14778 -13.1825
  1268 645.311 -71.6716 -45.1914
  1269 659.534 -67.0656 -64.8158
  1270 524.247 3.61317 -8.91960
  1271 642.258 -72.8739 64.2760
  1272 687.642 -32.8997 -43.8169
  1273 16.4671 21.8391 5.10463
  1274 565.144 -10.3639 1.96792
  1275 565.177 -10.4268 -1.97300
  1276 680.733 -6.06284 10.1588
  1277 655.625 -11.9654 -6.65585
  1278 619.735 -67.6158 -26.3854
  1279 570.293 -30.4087 12.4559
  1280 567.591 -29.9590 -13.1572
  1281 663.485 -14.5062 25.1176
  1282 680.336 -25.2536 -51.9759
  1283 48.0833 33.1029 -26.7550
</Section>

newXOutput 38

<Section columns = "stress_xx | stress_yy | stress_xy">
  1 739.061 -0.427435 1.28720
  2 739.043 -0.409642 -1.28948
  3 430.693 -0.0494692 -0.461539
  4 -5.33701 -5.24788 -7.68090
  5 1273.14 544.513 420.316
  6 1261.85 562.607 -415.629
  7 -6.20939 -4.95786 8.21338
  8 430.573 -0.0507383 0.460594
  9 743.651 -1.36028 0.346529
  10 742.412 -2.09874 -0.473052
  11 741.274 -1.51805 1.36989
  12 740.081 -1.98596 0.189940
  13 737.450 -1.71520 2.14956
  14 735.007 -1.71053 1.44959
  15 728.803 -1.50064 3.14501
  16 719.468 -1.21825 4.68136
  17 711.259 -1.20089 5.32046
  18 698.673 -1.50577 6.54817
  19 680.736 -0.275479 9.83394
  20 664.181 -1.10036 9.48035
  21 644.745 -1.32799 13.5304
  22 616.735 0.918538 11.9017
  23 596.007 1.53445 14.1841
  24 568.915 2.49624 11.2012
  25 549.975 2.84067 11.3428
  26 522.563 3.77463 5.81240
  27 516.694 5.90959 6.27149
  28 513.117 4.96236 -1.86849
  29 517.895 3.07708 -4.03730
  30 526.741 2.84493 -4.96875
  31 547.302 3.47800 -9.88217
  32 567.289 2.75391 -12.3998
  33 596.208 0.762700 -14.6416
  34 619.270 -0.235677 -13.1753
  35 643.526 -1.04355 -12.7984
  36 665.312 -0.874323 -8.94899
  37 683.715 -0.965062 -7.55006
  38 698.640 -1.48755 -6.23783
  39 711.793 -1.12734 -4.20852
  40 719.721 -1.40236 -4.40248
  41 727.399 -1.61161 -3.18839
  42 734.430 -1.86802 -1.23076
  43 737.954 -1.53563 -1.56402
  44 739.545 -1.05308 -0.906563
  45 737.607 -0.748606 -0.833315
  46 743.030 -2.07922 0.357347
  47 743.817 -1.40179 -0.356344
  48 722.433 -1.08649 -0.798622
  49 708.154 -3.70803 -1.54934
  50 690.449 -5.28315 -0.850011
  51 668.687 -7.46096 -1.20910
  52 647.830 -8.04010 -1.42107
  53 625.406 -9.67154 -1.38146
  54 605.410 -10.5278 -0.643945
  55 587.860 -11.4616 -0.0859305
  56 567.551 -9.42311 -0.0493635
  57 544.128 -8.64251 -0.312146
  58 521.603 -6.66809 0.0763179
  59 500.315 -4.09523 0.123908
  60 480.155 -2.80669 0.184497
  61 462.586 -1.29444 0.306671
  62 444.773 -0.235798 -0.514096
  63 430.808 0.630337 0.823786
  64 424.391 1.54518 0.615787
  65 428.246 0.0789364 1.34834
  66 422.942 -0.123086 1.65476
  67 417.796 -0.222869 2.05368
  68 410.940 0.0505366 2.61538
  69 402.320 0.0361839 3.25093
  70 395.532 -0.360653 6.08115
  71 377.732 0.544789 6.60415
  72 364.934 0.0177432 7.45757
  73 345.891 -0.257043 8.49010
  74 324.073 -0.469512 10.3030
  75 296.744 -0.0621849 12.5155
  76 263.438 0.190514 13.8729
  77 234.035 -0.192807 19.8724
  78 177.043 1.77570 18.9161
  79 137.438 1.52608 20.0634
  80 89.2580 -0.459930 22.4935
  81 48.5167 3.48736 23.7159
  82 1.75602 5.37346 14.8748
  83 -33.1479 5.49783 6.04121
  84 -34.3607 5.48480 -0.754208
  85 -34.8240 4.63866 -10.1326
  86 -20.7086 -1.19093 -9.94057
  87 -2.33211 -19.8749 -11.0506
  88 2.29559 -36.1445 -13.4396
  89 5.87899 -55.0468 -6.35490
  90 12.7533 -52.3415 3.13623
  91 26.5211 0.813699 38.0510
  92 76.6677 140.715 120.201
  93 425.294 439.872 380.319
  94 1549.02 235.496 254.311
  95 1405.59 33.4151 81.6491
  96 1315.11 14.1647 24.9895
  97 1281.85 12.1923 1.83093
  98 1300.03 16.0152 -21.8875
  99 1403.67 31.5167 -64.7740
  100 1630.98 113.621 -216.298
  101 255.089 455.432 -320.628
  102 57.3050 111.041 -101.111
  103 29.1116 3.73571 -41.3176
  104 12.0021 -51.5089 -9.23715
  105 3.74979 -41.1718 7.14301
  106 4.44855 -45.7398 11.5248
  107 0.331352 -17.0310 12.2616
  108 -21.6579 -0.643157 9.36301
  109 -35.9140 3.48486 8.76798
  110 -36.2484 6.64168 0.930978
  111 -34.1562 5.38452 -5.70123
  112 -0.722996 5.50609 -14.0123
  113 46.3919 3.51605 -22.6561
  114 87.1016 -0.0782513 -22.1287
  115 135.193 1.64743 -20.0949
  116 175.006 1.81886 -19.0446
  117 232.459 -0.200941 -20.0199
  118 262.095 0.207807 -13.9920
  119 295.567 -0.0591300 -12.6579
  120 323.486 -0.527105 -10.3660
  121 345.067 -0.239164 -8.50470
  122 364.303 0.0401602 -7.52525
  123 377.211 0.539195 -6.66617
  124 395.149 -0.364780 -6.13354
  125 402.005 0.0334857 -3.28277
  126 410.693 0.0479151 -2.64140
  127 417.599 -0.227262 -2.07416
  128 422.781 -0.126859 -1.66893
  129 428.107 0.0758160 -1.35726
  130 424.263 1.54396 -0.619833
  131 430.686 0.629667 -0.826372
  132 444.656 -0.239231 0.512971
  133 462.478 -1.30313 -0.309696
  134 480.062 -2.82555 -0.187995
  135 500.243 -4.12137 -0.127240
  136 521.556 -6.70592 -0.0797288
  137 544.112 -8.69087 0.309365
  138 567.567 -9.47966 0.0462100
  139 587.903 -11.5261 0.0842477
  140 605.473 -10.5927 0.645884
  141 625.501 -9.73064 1.38816
  142 647.918 -8.08007 1.44522
  143 668.761 -7.49679 1.32785
  144 690.578 -5.03791 0.868057
  145 708.629 -3.62712 1.51408
  146 722.578 -1.19991 0.785252
  147 655.391 -61.6593 2.63013
  148 654.790 -60.8141 -2.40387
  149 693.880 99.3087 -30.2391
  150 733.083 43.1619 62.1096
  151 556.148 -54.1419 -127.163
  152 560.794 -54.0137 123.302
  153 547.535 -22.5554 17.1726
  154 547.558 -22.8488 -17.1750
  155 772.843 28.4417 -43.5075
  156 653.735 -23.9621 10.0234
  157 653.447 -23.4167 -9.91123
  158 844.370 185.973 5.22914
  159 672.791 -1.02313 -62.5441
  160 503.664 -38.6494 -57.5675
  161 503.732 -38.3505 57.1266
  162 672.933 -15.4136 55.6602
  163 645.342 47.4698 38.1649
  164 271.035 41.8086 -152.129
  165 299.009 39.7494 160.053
  166 810.618 11.0258 -5.03701
  167 672.801 -26.1634 -37.0774
  168 884.874 194.293 5.44885
  169 608.571 -17.3246 -2.31698
  170 608.457 -17.2869 2.35851
  171 676.627 -9.01051 -4.23574
  172 678.480 -8.19471 3.60813
  173 489.141 -6.45232 -9.59945
  174 489.216 -6.39029 9.56196
  175 719.155 -16.7695 161.949
  176 626.293 26.5213 -41.2216
  177 413.367 -30.4771 -90.5277
  178 414.555 -30.2637 90.0191
  179 466.084 -14.4420 -30.1214
  180 466.144 -14.2870 29.9376
  181 675.674 -18.1770 31.5920
  182 616.387 -42.0309 -6.41381
  183 614.387 -41.7190 7.28317
  184 694.355 -67.6198 -19.9580
  185 698.186 -64.4235 11.4612
  186 954.002 225.599 -42.4729
  187 706.903 112.767 28.1192
  188 705.143 43.3491 -63.8235
  189 715.499 -3.17419 -186.601
  190 696.316 -39.6685 -41.2920
  191 702.482 -28.4414 49.9478
  192 588.341 -66.6486 64.8976
  193 588.350 -66.1478 -64.7384
  194 635.256 8.40300 49.2153
  195 297.765 -7.83385 -111.377
  196 298.405 -8.39935 110.772
  197 1067.66 158.669 23.6410
  198 660.630 -39.5898 20.5934
  199 683.385 -13.1364 -19.9842
  200 551.052 -13.1060 -8.22814
  201 551.076 -13.0516 8.20928
  202 661.384 -8.69433 -43.2286
  203 750.163 109.859 -49.5133
  204 636.050 57.5251 -7.61402
  205 421.974 -14.1345 41.6618
  206 421.381 -14.1685 -41.9234
  207 691.353 -8.39029 10.3089
  208 680.501 12.8592 64.4854
  209 556.547 -39.6729 -29.9388
  210 553.194 -37.5406 30.4002
  211 795.895 118.378 42.3451
  212 922.340 133.905 35.7945
  213 69.2094 52.1789 -46.7651
  214 64.1906 48.2257 39.9962
  215 387.658 113.097 262.618
  216 654.215 -43.6118 -14.3142
  217 693.450 -8.04436 -9.28574
  218 628.801 5.88782 -45.3786
  219 451.157 -4.00563 -13.4476
  220 451.305 -3.96244 13.3518
  221 592.721 -27.4901 -8.81950
  222 593.003 -27.6810 8.49588
  223 666.228 -9.12967 36.5178
  224 755.892 -43.3946 26.8765
  225 761.868 153.980 -13.9516
  226 597.587 -57.2308 -33.2003
  227 748.057 -13.0641 35.3631
  228 641.038 -11.3884 0.869705
  229 641.034 -11.3069 -0.869567
  230 593.568 -56.9706 34.1836
  231 676.315 -43.2339 32.9047
  232 930.782 129.751 -74.4178
  233 216.637 128.818 -194.527
  234 586.739 21.2941 9.98959
  235 684.500 60.3390 54.5664
  236 722.656 -5.19339 -54.3114
  237 677.639 -24.6354 -51.2578
  238 375.415 -11.4533 -51.7148
  239 376.593 -11.2897 51.5970
  240 678.112 -8.55520 -27.6730
  241 645.655 -16.8639 4.49352
  242 645.360 -16.8568 -4.27231
  243 146.042 12.2807 -73.0247
  244 148.015 10.7495 72.7444
  245 712.802 -62.6344 -63.5739
  246 704.270 -3.27829 1.11356
  247 704.890 -3.33223 -1.30602
  248 669.810 55.6997 -50.2546
  249 596.953 12.0977 30.0362
  250 1187.49 190.093 128.280
  251 1176.51 134.026 -79.3931
  252 874.808 186.215 1.56735
  253 547.358 -26.9224 167.665
  254 504.026 -18.1180 -174.956
  255 582.121 -11.9479 -3.43975
  256 582.078 -11.8844 3.42157
  257 491.235 -12.4087 19.0373
  258 491.210 -12.5691 -19.1743
  259 691.822 -8.03456 16.3295
  260 673.438 -48.2246 -25.7242
  261 454.720 -0.578829 -3.24274
  262 454.836 -0.566862 3.22739
  263 665.125 -27.3758 -21.0022
  264 296.381 -9.39584 -72.1714
  265 297.494 -9.42318 71.7182
  266 674.182 -29.5609 40.0463
  267 518.812 -55.0816 102.468
  268 519.967 -56.0589 -102.143
  269 594.368 23.4637 -13.9864
  270 513.271 -7.38705 -6.50680
  271 513.327 -7.34329 6.48759
  272 638.964 -1.42076 36.0278
  273 757.199 137.543 34.0244
  274 421.086 -4.65561 22.2829
  275 420.789 -4.69108 -22.4420
  276 689.992 -58.0280 14.8958
  277 638.674 -72.0852 -72.1447
  278 707.470 -4.12726 4.56174
  279 505.931 -28.9460 -39.7897
  280 505.172 -28.6416 39.6699
  281 853.373 103.223 234.526
  282 422.943 -34.3795 121.216
  283 677.038 94.7839 -3.19143
  284 838.748 95.4066 -21.5080
  285 639.724 -49.4061 1.94056
  286 639.431 -74.0104 65.6813
  287 424.064 -33.8604 -122.435
  288 81.6759 101.296 94.5896
  289 665.242 -27.4496 21.4203
  290 862.649 115.905 13.4506
  291 712.300 -3.69610 -3.95925
  292 658.466 23.3626 -57.8977
  293 644.480 -36.5803 9.03038
  294 631.553 -53.1399 7.60115
  295 656.511 30.3959 55.9260
  296 686.905 -57.9993 -12.5934
  297 965.320 185.600 -19.1372
  298 644.316 -35.1839 -8.58892
  299 522.670 157.986 -317.427
  300 656.805 -69.8072 -19.9662
  301 652.355 -71.7436 27.2657
  302 487.858 -43.4690 -80.2436
  303 450.440 -1.41580 -6.96860
  304 450.574 -1.39053 6.92536
  305 488.121 -43.5224 79.8605
  306 697.265 -1.22968 -63.5940
  307 746.042 -30.9024 -20.1405
  308 577.456 -34.1493 -17.5645
  309 577.168 -34.2321 17.8499
  310 678.162 -58.4005 112.181
  311 683.203 -5.82513 20.9175
  312 817.265 7.09835 48.3932
  313 567.207 -19.5988 -10.0218
  314 567.259 -19.5494 9.98118
  315 521.178 -12.9373 -13.0619
  316 521.200 -12.8277 13.0504
  317 591.437 8.41277 -29.0242
  318 741.639 54.5269 -59.7845
  319 1121.61 306.078 -151.446
  320 672.494 -6.80063 -1.28488
  321 672.170 -6.71762 1.33812
  322 369.595 -1.83194 151.363
  323 517.696 -22.5876 -27.0556
  324 516.836 -22.5353 27.1321
  325 369.520 -2.75384 -150.780
  326 711.013 83.7374 -52.3575
  327 786.184 39.7515 40.3612
  328 677.547 -48.2706 -123.752
  329 630.729 -24.5643 2.43023
  330 630.138 -24.4110 -2.18481
  331 669.631 -14.6151 -9.38939
  332 639.317 -1.08864 -33.6602
  333 709.152 2.83784 61.6433
  334 702.626 -5.48323 -11.0978
  335 437.334 -25.5950 60.8948
  336 436.862 -25.7217 -61.2973
  337 663.925 -1.39421 59.6491
  338 424.528 -3.05384 -13.3705
  339 424.784 -3.02650 13.2702
  340 674.937 -16.1697 15.9076
  341 811.065 164.590 -22.2707
  342 669.404 -14.6997 9.80145
  343 718.526 89.8550 52.3159
  344 686.116 -12.9505 60.5448
  345 550.626 -10.0430 3.20338
  346 550.618 -10.0948 -3.21853
  347 653.376 -2.20084 -53.0662
  348 854.176 178.870 10.3931
  349 718.435 130.508 1.07014
  350 438.433 50.5110 -222.828
  351 51.7241 20.1557 -33.8020
  352 56.0193 21.8520 36.0561
  353 -0.504975 6.06616 11.6740
  354 1.86116 4.01322 -12.3413
  355 1210.18 84.1700 28.0843
  356 594.429 -47.6829 -21.2114
  357 675.330 -15.6695 -15.4953
  358 613.603 -11.2036 -0.0885716
  359 613.536 -11.1272 0.0825481
  360 661.588 73.1586 -27.2687
  361 562.461 -56.6713 53.5190
  362 52.7795 79.5733 -60.7016
  363 562.861 -56.6242 -54.3579
  364 669.602 76.1844 28.9940
  365 675.502 -18.5002 -29.9236
  366 713.907 -40.1846 -33.2035
  367 766.915 159.908 9.51890
  368 715.069 -45.0775 25.7263
  369 313.390 -7.31938 48.1613
  370 311.746 -7.17337 -48.4131
  371 181.254 3.88201 -68.2351
  372 182.842 3.23759 67.9542
  373 599.697 2.52760 29.2434
  374 1088.06 325.820 137.290
  375 695.894 -4.89178 -14.6252
  376 549.797 -45.4985 -41.3847
  377 549.448 -45.4199 41.3363
  378 672.843 -15.8665 -39.0213
  379 757.345 -36.5205 -4.94043
  380 594.409 -47.6556 21.7240
  381 824.035 9.47468 -79.5567
  382 489.202 -3.49911 -2.73233
  383 489.286 -3.47189 2.71933
  384 664.096 -4.03277 -25.4682
  385 373.271 -4.94065 -31.2681
  386 373.456 -5.11076 30.9278
  387 786.534 101.008 -47.9987
  388 429.196 29.8708 207.773
  389 620.169 -32.4550 -1.56241
  390 620.753 -32.4106 1.54373
  391 730.112 122.677 -32.6281
  392 688.127 -20.6210 -56.7588
  393 684.337 -70.3210 64.9802
  394 580.206 -15.2796 -5.53365
  395 580.156 -15.2222 5.49744
  396 662.878 -51.3079 15.1858
  397 708.403 -3.87186 8.13248
  398 458.763 -15.7999 -37.3646
  399 458.950 -15.8137 37.0965
  400 677.701 22.9182 -63.7852
  401 636.278 -14.3803 1.18139
  402 636.241 -14.4219 -1.11411
  403 661.649 -7.93016 48.2243
  404 623.961 46.0381 13.3271
  405 682.287 -29.1524 48.7505
  406 974.185 202.241 41.2028
  407 341.255 -18.2103 -97.0384
  408 342.127 -18.2071 96.3861
  409 154.609 80.7613 -120.166
  410 720.723 -2.75649 1.95722
  411 389.272 -2.88093 -19.8438
  412 389.729 -2.82014 19.6997
  413 673.181 -17.9157 38.0039
  414 611.286 -66.1001 38.1078
  415 684.401 -9.35333 6.58779
  416 703.803 35.6976 65.7263
  417 161.277 85.9907 124.623
  418 612.115 -65.6795 -35.5069
  419 631.916 -58.5517 -12.1730
  420 220.718 -4.36554 -61.3002
  421 222.099 -4.51007 60.9244
  422 488.114 -39.8881 -146.137
  423 722.455 -11.0476 52.6725
  424 486.567 -40.3849 144.971
  425 669.161 -37.8857 -29.5831
  426 631.659 43.2003 -28.9613
  427 669.175 -29.3583 28.4859
  428 712.597 -3.82722 -5.19578
  429 24.2445 27.5020 14.9176
  430 150.736 179.092 175.203
  431 650.086 -2.34711 24.8358
  432 558.110 8.27405 12.8424
  433 566.510 9.93000 -17.3450
  434 483.460 -7.32266 -13.4421
  435 483.528 -7.23468 13.3741
  436 659.686 -51.2567 -13.4228
  437 669.409 -13.2914 -53.6165
  438 560.662 11.2544 -4.70585
  439 972.594 233.002 57.8533
  440 144.891 45.7773 -90.5136
  441 158.836 41.9733 96.1542
  442 619.593 -22.2241 -0.637371
  443 619.381 -22.1934 0.780590
  444 823.493 179.160 -1.52363
  445 500.655 225.360 324.363
  446 783.281 -9.90081 0.177339
  447 466.650 -23.3745 -50.6824
  448 466.884 -23.2321 50.3163
  449 472.217 -9.78860 20.5111
  450 472.114 -9.85210 -20.6615
  451 627.526 14.4750 -46.8797
  452 723.859 -1.58851 -1.23081
  453 612.479 28.8052 26.5517
  454 758.826 93.6077 54.2348
  455 633.493 -46.9204 -0.0421464
  456 684.041 -8.96140 -6.43180
  457 715.193 -3.52493 4.77783
  458 721.643 -1.72476 0.695781
  459 722.104 -1.87701 -0.461168
  460 423.577 -0.563917 5.04124
  461 423.368 -0.573375 -5.08291
  462 690.284 -44.2684 35.7811
  463 633.200 25.4939 45.4265
  464 657.625 2.83419 -58.4164
  465 679.675 -14.9725 21.6530
  466 950.037 178.452 -202.930
  467 682.491 -38.2183 -41.4949
  468 10.7753 13.6064 7.95478
  469 10.5404 13.9913 -4.56189
  470 548.427 -30.2076 24.3698
  471 546.757 -29.7653 -24.0186
  472 831.113 21.4780 113.628
  473 237.533 227.794 -250.333
  474 675.523 -2.30895 18.8789
  475 753.426 -43.1554 -68.2009
  476 419.251 -23.3090 70.1903
  477 815.571 145.015 -32.2185
  478 672.851 -36.7880 34.2561
  479 571.109 -26.7004 -13.5956
  480 571.596 -26.2812 13.5747
  481 599.566 3.44942 -25.7791
  482 418.020 -23.1986 -70.5454
  483 612.845 0.571342 25.7814
  484 577.775 -66.3286 -92.9475
  485 576.386 -66.4289 93.3950
  486 692.614 -5.01229 16.2184
  487 640.805 60.7969 5.49328
  488 632.208 13.3824 224.921
  489 935.202 187.677 -1.16320
  490 650.175 -11.7039 2.16764
  491 650.195 -11.6663 -2.31070
  492 512.762 -8.52072 -8.91878
  493 512.814 -8.45790 8.89543
  494 273.972 11.3686 128.471
  495 676.207 -32.9297 -41.1059
  496 615.417 -13.7365 -1.18265
  497 615.357 -13.7002 1.18890
  498 538.861 -56.5824 75.9202
  499 278.974 15.1983 -131.590
  500 675.733 -55.3823 -15.5727
  501 13.3858 6.08947 2.22692
  502 604.447 31.9771 1.99390
  503 652.071 -8.39012 -0.637047
  504 652.070 -8.48555 0.606231
  505 539.056 -56.4567 -76.4614
  506 753.919 -37.6383 84.1403
  507 754.552 27.5421 54.0233
  508 693.288 -5.58572 -2.95725
  509 673.697 -56.1274 15.9431
  510 442.916 -0.215238 -0.979648
  511 443.036 -0.212000 0.974050
  512 674.687 -26.2207 -44.6963
  513 659.782 49.0239 49.3113
  514 745.706 18.5799 -53.5153
  515 440.198 -0.486975 -2.85635
  516 440.331 -0.479011 2.84135
  517 1259.74 182.411 -161.247
  518 685.060 81.3649 43.0459
  519 693.783 -5.24821 2.59942
  520 633.210 -59.8719 13.7341
  521 540.655 -17.2461 13.8394
  522 540.630 -17.3625 -13.8115
  523 730.788 -44.8530 9.53916
  524 706.670 -14.4089 -56.6051
  525 791.338 154.640 28.7242
  526 663.129 11.6044 60.6628
  527 661.614 -13.4878 5.29737
  528 641.565 -69.0342 -90.9709
  529 670.671 -16.9151 44.7970
  530 1242.30 57.4955 -22.4603
  531 724.987 -54.9516 8.37415
  532 689.020 -5.48109 -0.519361
  533 689.188 -5.76673 0.390286
  534 1255.24 84.1393 78.0030
  535 647.969 -0.0268576 51.6181
  536 887.258 153.418 -0.747078
  537 673.931 -18.9527 -20.6133
  538 324.127 -2.76151 -21.3390
  539 324.974 -2.62557 21.1459
  540 464.725 -43.2697 -101.711
  541 465.160 -42.5525 101.021
  542 661.238 -12.9805 -5.28206
  543 721.691 26.4911 -62.8193
  544 635.272 -43.1690 2.51099
  545 687.847 78.7816 -44.5015
  546 685.916 -8.54310 21.7804
  547 847.561 46.3279 -22.8405
  548 592.466 -20.1573 -5.80678
  549 592.319 -20.1090 5.76398
  550 639.437 -30.3592 5.98746
  551 927.097 189.036 -28.4230
  552 677.277 29.7341 62.9034
  553 293.402 75.0053 188.685
  554 643.844 -38.4144 153.144
  555 836.560 48.4467 -170.474
  556 692.100 57.2956 -58.1943
  557 607.292 -53.0512 -133.271
  558 658.797 -72.5207 -32.6475
  559 685.547 -69.9153 -44.9036
  560 94.5826 126.999 -119.832
  561 689.821 -9.52172 -12.4581
  562 1026.37 198.739 -62.4810
  563 642.610 -29.2207 -7.31946
  564 647.239 -21.5275 6.10955
  565 646.664 -21.0740 -5.75818
  566 463.704 -2.24652 -6.41189
  567 463.816 -2.21784 6.37973
  568 74.1583 6.52167 -38.6938
  569 77.4523 6.86277 39.5266
  570 346.610 -15.5412 -73.7360
  571 349.019 -15.6351 73.6872
  572 656.288 -35.8723 -17.0107
  573 665.987 -72.8308 34.8639
  574 684.402 -65.3987 -4.23198
  575 570.267 -10.0215 -2.67483
  576 570.245 -9.96224 2.66371
  577 537.234 -56.7252 -113.853
  578 596.282 -49.4388 140.556
  579 525.034 -53.4137 114.375
  580 677.110 -15.2113 -57.3747
  581 439.634 -6.68112 22.6153
  582 439.425 -6.74625 -22.7683
  583 651.284 36.4235 -49.6646
  584 650.421 -1.16424 -22.5300
  585 805.939 172.711 -12.3149
  586 536.058 -7.74814 -2.43438
  587 536.085 -7.70493 2.42553
  588 686.873 -2.21299 -12.3044
  589 487.227 -15.5499 -25.6704
  590 487.269 -15.5083 25.4844
  591 392.960 16.9844 179.443
  592 668.581 -31.1527 -28.7169
  593 381.763 -20.7893 129.291
  594 657.111 -34.3500 17.5574
  595 688.396 -10.4609 13.8971
  596 678.639 -7.13416 -2.48232
  597 494.059 -5.58363 -6.16580
  598 494.135 -5.54249 6.14273
  599 773.997 153.093 -26.4416
  600 381.477 -20.0983 -129.694
  601 654.844 -28.7577 -13.5732
  602 595.117 -11.2358 -1.61560
  603 595.064 -11.1665 1.61000
  604 1084.68 145.053 -26.4059
  605 410.894 -2.33317 12.3452
  606 410.571 -2.35462 -12.4410
  607 620.988 14.7421 42.8979
  608 859.652 76.3189 3.75697
  609 417.708 1.69054 -177.856
  610 222.816 4.68985 -98.6014
  611 224.459 3.54935 98.0922
  612 526.971 -29.7806 32.5180
  613 531.991 -30.6612 -31.7759
  614 875.259 177.526 4.37754
  615 676.151 -7.36021 2.14282
  616 597.267 17.5257 -26.0534
  617 732.204 130.466 25.8324
  618 729.994 135.301 -17.2117
  619 599.801 -32.8977 -9.07266
  620 604.054 -32.2120 7.00577
  621 427.003 94.6366 -253.315
  622 522.651 -17.0988 -18.4798
  623 522.713 -16.9188 18.4359
  624 1255.89 257.992 194.491
  625 675.451 -22.4226 48.7020
  626 400.438 -13.3753 -47.1589
  627 1013.65 255.929 179.464
  628 401.295 -13.3125 47.0200
  629 637.938 -23.8230 -177.447
  630 471.526 -1.91424 -2.35414
  631 471.627 -1.89817 2.34517
  632 578.522 5.61178 22.7678
  633 273.091 -3.77784 -42.2283
  634 274.364 -3.78937 41.9418
  635 592.413 -41.3960 17.0625
  636 619.078 -49.2687 -9.12196
  637 719.315 -1.92636 -4.54556
  638 430.239 -0.525327 3.80527
  639 430.069 -0.535779 -3.83558
  640 562.482 -12.4633 -4.52051
  641 562.474 -12.4064 4.49746
  642 634.580 -70.9015 91.6674
  643 733.219 81.8145 -57.0192
  644 498.083 -22.2522 -32.9900
  645 497.788 -21.8902 32.7850
  646 582.197 -41.2047 -21.7039
  647 903.731 195.211 11.7008
  648 680.605 -66.2100 7.78235
  649 597.159 -14.4313 -3.29540
  650 597.084 -14.3759 3.29082
  651 809.790 89.9227 37.2745
  652 683.316 -10.4354 -23.6431
  653 615.956 -0.535645 -20.9468
  654 293.032 -10.0676 -93.2282
  655 293.802 -10.3137 92.5535
  656 580.222 -49.3899 -32.6509
  657 861.898 186.951 -0.249959
  658 677.027 91.4433 -19.3978
  659 460.907 -3.71673 -11.5752
  660 461.025 -3.66692 11.5022
  661 626.444 -18.0691 -0.0456902
  662 626.559 -18.0725 0.157987
  663 1134.16 147.394 65.3547
  664 727.034 -2.39903 1.06672
  665 708.194 -3.21223 8.08079
  666 706.013 -3.19920 -9.68601
  667 673.086 -62.9486 2.19359
  668 509.256 -5.49044 -3.07615
  669 509.318 -5.45661 3.06590
  670 724.672 115.367 40.1280
  671 917.521 202.838 -19.1940
  672 514.692 -37.2023 -46.7289
  673 514.611 -36.8663 46.5367
  674 633.614 -65.1663 -19.9095
  675 673.124 40.1963 -59.3654
  676 784.871 2.80122 16.4017
  677 536.160 -9.57009 -6.51466
  678 536.191 -9.51870 6.49541
  679 463.764 -40.1836 -91.7678
  680 666.959 -64.7358 3.71454
  681 558.543 -61.8661 83.7810
  682 271.906 84.6877 -182.391
  683 525.242 -47.9390 64.6479
  684 634.087 0.193381 19.1809
  685 464.226 -39.7458 91.2230
  686 654.490 -29.2742 13.7396
  687 525.325 -47.7158 -65.1588
  688 549.844 7.69978 4.80778
  689 426.684 -10.7046 33.7945
  690 426.333 -10.7058 -33.9887
  691 558.687 -63.4597 -84.6652
  692 685.990 -45.5459 -34.5021
  693 630.796 -9.50824 -0.105409
  694 630.895 -9.59100 0.106744
  695 700.059 -45.0311 33.4438
  696 638.106 -66.6586 22.6084
  697 772.264 71.2258 52.1937
  698 699.514 -13.3926 59.0098
  699 673.210 -24.6137 34.8428
  700 651.171 53.8905 -37.6763
  701 773.620 129.549 41.6425
  702 669.766 -9.48517 -35.2508
  703 664.517 -22.5805 16.1481
  704 694.264 108.080 10.4247
  705 677.259 -11.8940 30.0496
  706 218.149 149.901 191.852
  707 629.206 -72.5787 -55.7069
  708 728.247 13.1207 59.2247
  709 732.880 -22.8203 -38.8252
  710 724.830 -1.39330 2.33555
  711 672.046 -23.6247 -26.6812
  712 630.291 -73.1342 51.1981
  713 1182.75 105.065 -17.4027
  714 395.174 -1.46386 12.8933
  715 394.756 -1.47868 -12.9946
  716 679.253 -13.0922 -11.5282
  717 728.706 -1.09952 -2.32879
  718 579.312 -50.2095 32.8060
  719 690.515 -26.0245 52.9924
  720 1023.55 255.360 -93.2440
  721 654.604 -47.5683 12.6692
  722 721.306 -47.8308 -15.3535
  723 664.719 -22.0139 -15.8722
  724 727.446 -1.72020 -0.578750
  725 677.045 -0.136157 63.1517
  726 33.1856 38.3315 45.0476
  727 748.221 -26.8945 -120.308
  728 818.442 50.5941 18.1359
  729 685.170 -70.3925 41.0880
  730 503.680 -11.4062 15.0203
  731 503.657 -11.5540 -15.0745
  732 617.141 343.170 -339.628
  733 700.232 -46.7052 -30.2595
  734 547.900 3.49677 -9.20581
  735 626.453 3.77088 41.5292
  736 677.714 -34.2671 41.6663
  737 649.568 -54.7433 2.72836
  738 669.735 -61.5601 -98.6009
  739 645.939 -51.1073 -4.21928
  740 755.192 -35.9841 2.27803
  741 696.729 -6.47569 6.55799
  742 628.469 -37.6727 0.429301
  743 1113.28 222.371 -121.206
  744 667.094 -18.5003 12.4815
  745 666.298 11.1193 -62.2008
  746 561.810 -5.76856 198.557
  747 710.995 57.1478 62.4299
  748 612.100 -47.8364 12.0595
  749 480.082 -36.9059 -67.4507
  750 480.178 -36.8263 66.9772
  751 656.521 73.9759 -8.71788
  752 663.217 -7.76432 54.8923
  753 668.767 -16.1177 -45.9852
  754 629.144 -38.4788 -0.579734
  755 609.123 -54.1774 21.3102
  756 699.289 114.580 -11.5976
  757 648.808 -56.1725 -0.187351
  758 650.621 -41.3304 12.6929
  759 656.976 -9.25921 1.56605
  760 657.325 -9.04109 -1.54139
  761 882.344 191.550 -0.984809
  762 718.653 -61.4348 -30.9591
  763 674.000 -21.1513 26.7142
  764 696.728 -6.48291 -5.86176
  765 709.979 4.61244 -62.2798
  766 800.954 43.6624 -29.6058
  767 416.147 -0.224580 -6.12393
  768 416.404 -0.219659 6.07418
  769 6.72218 -9.87910 -6.69713
  770 688.411 -1.03603 11.3460
  771 638.789 -0.727127 -45.6086
  772 656.762 -6.18572 39.5644
  773 585.566 78.5401 287.107
  774 746.478 151.616 -1.39896
  775 535.438 -37.3330 37.4354
  776 105.497 1.91574 -37.5558
  777 107.929 1.37370 37.9320
  778 651.769 -4.58160 -44.9220
  779 536.702 -37.6755 -37.4565
  780 692.762 -7.09249 4.71839
  781 371.511 -15.2114 62.7963
  782 368.581 -15.1477 -62.7614
  783 667.004 -17.9927 -12.1335
  784 442.185 -10.3670 -29.5473
  785 442.397 -10.3078 29.3303
  786 693.227 -7.16217 -16.0218
  787 540.659 -13.9051 -11.1062
  788 540.693 -13.8278 11.1127
  789 755.329 -4.53917 -38.2087
  790 685.898 -7.28386 -62.7507
  791 367.047 -2.10721 -16.2821
  792 367.657 -2.08717 16.1179
  793 25.0508 8.88968 -24.0032
  794 27.9120 9.40139 25.1702
  795 570.788 2.94727 -16.5013
  796 624.984 -70.2012 -43.0125
  797 -6.80010 -4.56634 12.1113
  798 -6.09655 -5.65357 -12.2255
  799 649.576 -13.7050 3.62930
  800 702.120 -55.1934 -13.1540
  801 731.037 107.852 -46.5720
  802 695.356 -6.43473 -4.51456
  803 1423.94 295.109 -267.052
  804 649.437 -13.6748 -3.57186
  805 967.914 182.231 17.5352
  806 697.845 20.3324 -65.7065
  807 765.825 58.2809 -53.8899
  808 144.270 -1.64223 -34.2564
  809 146.397 -1.82793 34.2068
  810 450.321 -5.93845 17.7623
  811 450.159 -5.98314 -17.8896
  812 434.482 -0.810488 3.37596
  813 434.336 -0.819587 -3.39690
  814 777.226 130.514 -40.9747
  815 475.474 -2.54359 -5.12786
  816 475.572 -2.51582 5.10670
  817 665.172 -6.66939 -57.4042
  818 930.337 106.436 96.2652
  819 607.063 14.2114 -36.1745
  820 223.006 -1.86338 36.2055
  821 221.466 -1.88156 -36.4532
  822 752.416 25.6493 209.165
  823 678.727 -13.1964 11.8946
  824 620.454 41.7964 -15.0392
  825 300.162 -0.321852 24.3793
  826 298.880 -0.190400 -24.5319
  827 441.449 -1.90394 -8.80310
  828 441.614 -1.87659 8.73904
  829 81.1630 71.3688 65.2295
  830 643.063 15.7309 53.2084
  831 711.550 104.053 -40.5321
  832 760.109 88.4723 -54.7001
  833 510.784 -18.4254 -23.6591
  834 510.537 -18.3102 23.6512
  835 789.560 166.025 17.9335
  836 675.792 -6.54179 -0.461118
  837 675.849 -6.49572 0.565143
  838 673.578 -20.6580 -35.5411
  839 569.530 -37.2177 23.7098
  840 621.485 -69.7850 43.0271
  841 722.054 -59.1017 66.0596
  842 565.780 -16.0870 -7.60158
  843 565.791 -16.0427 7.56701
  844 648.050 60.3802 24.3024
  845 611.891 8.86641 -38.9468
  846 169.136 216.492 199.273
  847 610.895 -53.7131 -19.8588
  848 613.394 -27.3427 -2.76539
  849 613.710 -27.4252 2.72076
  850 674.476 -10.0665 59.8736
  851 665.988 -44.0244 -23.4190
  852 598.611 -39.1402 -12.4497
  853 1299.49 42.0405 -62.4525
  854 570.082 -53.2262 43.2225
  855 569.574 -53.8818 -43.8373
  856 672.808 -8.28479 29.8800
  857 994.298 260.633 -70.0420
  858 537.150 -47.8831 -52.1698
  859 588.879 -65.9264 51.3030
  860 537.093 -47.3385 51.7654
  861 580.760 -23.0092 -9.23313
  862 580.768 -22.9521 9.18679
  863 92.5041 37.2016 56.3788
  864 722.419 54.0187 -62.4773
  865 559.345 -21.2844 -12.7386
  866 559.460 -21.0893 12.7757
  867 553.603 -8.95837 -1.57691
  868 553.606 -8.90707 1.56943
  869 603.269 -12.2803 -1.45839
  870 603.204 -12.2138 1.45076
  871 500.344 -9.14358 -12.8883
  872 500.401 -9.04957 12.8486
  873 560.925 -28.7567 -18.4574
  874 561.011 -28.5913 18.5404
  875 15.0393 0.942117 -10.5399
  876 831.597 156.413 26.0436
  877 716.560 -25.4254 -47.0428
  878 588.287 -64.9496 -51.7488
  879 633.759 -20.7669 2.24128
  880 633.502 -20.5790 -2.09513
  881 691.670 0.731353 64.1693
  882 741.687 -52.7598 -41.4569
  883 652.184 51.6235 -250.470
  884 311.962 -5.96429 126.229
  885 -6.06397 7.27082 -10.4829
  886 -4.73604 8.23407 11.3561
  887 92.1225 39.5473 -57.6436
  888 673.080 -19.9459 20.3888
  889 703.655 -5.27463 -8.42769
  890 634.584 -61.5765 111.467
  891 311.276 -5.70798 -126.671
  892 707.115 -58.3859 6.23514
  893 778.189 -20.4436 100.877
  894 589.031 2.52373 17.4436
  895 665.868 63.4655 41.0666
  896 368.621 -20.4369 91.9364
  897 367.288 -20.5971 -92.4630
  898 440.948 -20.0461 -51.7701
  899 453.567 -23.2274 -159.893
  900 710.272 -16.9250 54.5197
  901 961.812 231.526 49.6216
  902 714.976 27.3824 63.7187
  903 675.601 -14.8352 -32.7232
  904 462.560 -20.7997 163.799
  905 854.392 159.018 -15.0568
  906 91.3444 76.1554 -79.5972
  907 632.499 -1.13115 -18.2959
  908 441.392 -19.8941 51.3772
  909 532.223 -11.2474 9.65912
  910 532.190 -11.3123 -9.67302
  911 666.887 -43.7798 24.3779
  912 687.056 -5.29606 1.55496
  913 509.272 4.14251 -197.514
  914 721.830 -1.92891 3.95730
  915 717.817 -1.62908 -5.24707
  916 559.371 5.17732 -15.2637
  917 698.177 -2.99529 -9.96430
  918 532.897 -24.0531 -22.5517
  919 533.244 -23.7186 22.6309
  920 -15.5277 6.97282 -8.66422
  921 -22.3450 4.21407 9.54257
  922 687.001 -4.97368 -1.63962
  923 242.291 -5.72203 85.3852
  924 241.057 -5.26123 -85.8147
  925 741.940 107.730 48.7131
  926 1270.75 23.1609 18.9881
  927 700.866 77.7294 52.9304
  928 778.625 -26.1335 36.6019
  929 685.355 -38.5105 41.4462
  930 850.473 177.648 -11.6444
  931 548.981 2.78113 11.5284
  932 658.544 -16.1917 -6.63884
  933 689.181 37.1730 -64.2370
  934 817.796 26.6480 -0.791478
  935 643.971 -39.8534 -8.88216
  936 347.823 -1.71210 -18.1348
  937 348.089 -1.64998 17.9031
  938 677.682 -16.4964 -24.6640
  939 25.6918 31.5354 10.0350
  940 650.850 -67.5498 -14.1409
  941 579.814 17.9807 -1.57026
  942 846.194 184.140 -7.67640
  943 140.662 104.123 -127.977
  944 656.761 -4.92590 -35.4495
  945 467.358 -7.15123 -16.7792
  946 467.462 -7.07308 16.6658
  947 4.92505 -17.4626 12.9107
  948 453.457 -32.8789 -74.2704
  949 663.588 -38.6610 -22.9831
  950 433.835 0.950543 -1.43634
  951 433.962 0.953799 1.42920
  952 677.020 82.0852 -32.6467
  953 709.614 -2.84911 -0.784913
  954 709.672 -2.87042 1.06807
  955 453.695 -32.8090 73.8381
  956 673.983 -1.14748 -13.8002
  957 767.124 5.86401 36.0073
  958 681.982 -10.3968 8.94670
  959 118.676 27.9892 -69.4743
  960 704.795 -4.92327 7.55981
  961 651.295 5.56027 56.5982
  962 686.580 94.7291 28.9992
  963 683.407 7.97605 -65.4416
  964 480.237 -24.7213 -45.0904
  965 730.731 -26.2431 37.1330
  966 480.556 -24.6458 44.7000
  967 24.8624 25.9698 -5.95152
  968 89.6615 13.8412 51.0956
  969 399.473 -6.50816 30.3243
  970 399.039 -6.50392 -30.4607
  971 659.017 -16.4559 7.11605
  972 715.406 123.407 15.7144
  973 366.763 32.3966 -188.267
  974 597.642 -36.8681 11.2669
  975 561.316 -58.1818 -62.8663
  976 810.890 154.759 29.5021
  977 626.318 -11.5516 -0.437269
  978 626.288 -11.4999 0.429361
  979 682.384 -13.2913 -17.1612
  980 642.495 55.9013 -22.4009
  981 1362.99 418.938 280.556
  982 144.027 7.15641 -65.4674
  983 145.884 5.92310 65.5731
  984 10.7612 -7.18289 6.63755
  985 643.555 36.1442 45.9847
  986 561.286 -58.5595 62.4598
  987 690.246 -32.9186 -48.1827
  988 750.051 61.3285 60.0447
  989 714.257 -57.6765 -78.8752
  990 1037.26 217.618 77.2251
  991 615.910 -10.4023 -0.735806
  992 615.834 -10.3301 0.734655
  993 715.732 -29.5689 44.1560
  994 51.6027 98.3836 93.7985
  995 340.183 -6.66320 43.1995
  996 339.262 -6.57526 -43.5903
  997 399.988 -18.7028 59.4497
  998 398.718 -18.3953 -59.6230
  999 448.189 -17.5959 43.1871
  1000 489.948 -3.43449 -2.25312
  1001 490.032 -3.41154 2.24595
  1002 1139.09 382.981 -249.179
  1003 1054.67 265.392 116.526
  1004 447.838 -17.6708 -43.4915
  1005 736.726 -3.56718 49.0780
  1006 668.874 69.4871 -39.3966
  1007 472.919 -41.2124 132.838
  1008 601.153 -71.1667 -74.8972
  1009 685.880 -5.97993 -19.7577
  1010 317.670 20.3240 154.285
  1011 407.092 -30.9392 106.012
  1012 618.177 32.3343 -29.0019
  1013 694.768 -13.9803 -59.9276
  1014 840.641 382.320 383.185
  1015 587.713 18.6477 20.8214
  1016 782.896 166.366 -2.22374
  1017 568.292 23.5850 -223.702
  1018 586.221 -61.1447 -44.7266
  1019 728.786 -1.22799 -1.86362
  1020 712.740 65.4285 -60.7380
  1021 434.553 -2.42003 11.1637
  1022 434.353 -2.44379 -11.2483
  1023 16.8114 17.5261 -27.4150
  1024 481.201 -20.9922 -37.7416
  1025 406.577 -31.3276 -106.715
  1026 480.903 -20.9625 37.3923
  1027 680.029 -20.9498 55.4868
  1028 611.697 -37.5240 -6.18722
  1029 646.691 12.2233 -55.0120
  1030 665.972 83.1003 11.5115
  1031 874.821 59.1605 46.1450
  1032 671.611 -51.2753 22.3142
  1033 435.659 -34.0513 -81.2589
  1034 642.194 23.1803 -51.7450
  1035 476.603 -40.7114 -133.411
  1036 900.900 192.808 -5.96754
  1037 626.861 41.7039 26.3832
  1038 771.943 -3.90788 -24.8591
  1039 589.785 -61.2107 41.7508
  1040 673.355 -21.6973 42.2819
  1041 667.885 -35.5695 28.1940
  1042 664.195 -33.7266 23.9173
  1043 814.822 104.835 -38.7989
  1044 666.365 -10.9401 44.1134
  1045 600.392 -71.3618 73.7517
  1046 640.761 -26.4890 5.47151
  1047 435.939 -34.1337 80.8901
  1048 604.240 -44.0012 -13.3875
  1049 359.867 -17.7710 -113.320
  1050 504.778 -52.0498 90.8768
  1051 676.870 -4.90569 -23.2608
  1052 662.072 -7.53564 -50.6640
  1053 575.055 -44.7324 -28.5151
  1054 360.449 -18.2283 112.541
  1055 623.520 1.77605 -36.0789
  1056 467.731 -30.0016 -57.9778
  1057 826.122 174.126 17.5893
  1058 194.245 30.2671 -110.376
  1059 1350.47 95.1371 126.824
  1060 338.985 23.6357 -161.047
  1061 663.619 -55.1414 -10.8326
  1062 467.886 -29.7678 57.5728
  1063 617.862 7.01157 40.5941
  1064 357.992 -6.77994 35.7973
  1065 357.862 -6.94321 -36.1196
  1066 674.154 -18.9607 -51.6351
  1067 707.194 -4.29482 2.67559
  1068 698.682 -1.85030 10.0007
  1069 695.737 23.0057 65.7294
  1070 654.019 -4.90135 47.8802
  1071 501.115 54.6816 241.439
  1072 732.767 -0.855512 0.792774
  1073 703.078 94.8550 42.0602
  1074 603.397 9.26122 35.1550
  1075 705.833 -2.98969 9.48619
  1076 472.099 -4.50634 -9.54898
  1077 472.197 -4.45738 9.50153
  1078 306.176 -8.26033 -59.9025
  1079 307.206 -8.56207 59.5673
  1080 605.470 30.8991 14.8124
  1081 875.679 53.1552 -77.9404
  1082 805.128 3.36071 -133.430
  1083 660.110 -0.692639 -14.4730
  1084 504.861 -52.4230 -91.5095
  1085 576.278 -42.5555 25.9501
  1086 663.448 -1.60989 15.0788
  1087 688.837 -50.3560 -26.9819
  1088 449.329 -0.745312 5.56751
  1089 449.201 -0.760503 -5.59468
  1090 662.396 -56.7188 10.8077
  1091 630.957 -13.4171 0.00109742
  1092 630.851 -13.4355 0.0293572
  1093 614.721 -61.5793 28.9862
  1094 780.205 -24.3618 -19.6706
  1095 376.963 -0.576917 -10.1682
  1096 377.495 -0.556741 10.0774
  1097 538.734 -34.9250 -152.917
  1098 578.309 -13.7065 4.60241
  1099 578.349 -13.7674 -4.62972
  1100 346.121 192.546 265.412
  1101 788.808 65.6750 -45.8648
  1102 124.419 58.4836 -86.0606
  1103 682.218 -10.9208 -8.61516
  1104 191.538 63.3775 -126.804
  1105 393.789 -24.0258 -76.8409
  1106 732.270 -1.18474 0.598912
  1107 732.474 -1.13517 -0.420318
  1108 674.620 -38.8370 -34.9763
  1109 596.928 -67.4574 -100.812
  1110 194.449 25.7726 105.172
  1111 734.920 72.6443 58.0321
  1112 663.385 -7.56599 -0.600490
  1113 663.475 -7.56626 0.654870
  1114 717.913 -45.1576 122.988
  1115 755.001 149.547 21.8041
  1116 460.902 -10.3358 -23.7729
  1117 461.029 -10.2959 23.6379
  1118 344.774 38.2540 190.275
  1119 644.936 3.53844 -53.1033
  1120 208.085 65.2245 135.752
  1121 806.912 -11.7495 -49.7637
  1122 806.616 175.621 6.00562
  1123 559.630 -43.4010 33.4791
  1124 531.002 3.25553 -2.25276
  1125 698.758 -6.67815 11.6575
  1126 720.509 -1.24420 4.49805
  1127 175.894 0.205082 -30.4276
  1128 177.831 0.133651 30.2459
  1129 586.814 10.4433 -26.1502
  1130 594.844 -17.4374 -4.52556
  1131 594.732 -17.3753 4.50782
  1132 64.5982 118.127 -100.155
  1133 100.167 241.445 -191.896
  1134 601.757 -23.3867 4.88837
  1135 601.952 -23.3624 -4.93251
  1136 620.008 -15.2547 -0.291851
  1137 619.925 -15.2355 0.331541
  1138 168.516 106.850 137.661
  1139 500.743 -5.69541 -4.78209
  1140 500.814 -5.65936 4.76543
  1141 624.082 47.7209 -0.581502
  1142 761.347 108.719 -277.206
  1143 750.782 128.697 -37.4859
  1144 683.375 -26.4929 -51.8185
  1145 672.760 -33.9010 -36.0565
  1146 559.836 -43.7811 -33.9924
  1147 573.185 2.11619 16.1378
  1148 636.302 40.1667 -38.5034
  1149 628.274 34.3125 36.8990
  1150 640.369 -25.7541 -5.33343
  1151 613.164 -36.8013 5.69698
  1152 561.152 -35.4267 -25.7252
  1153 664.255 -4.04282 28.0254
  1154 1137.26 114.331 15.7159
  1155 668.075 -14.4020 50.9266
  1156 672.937 44.2834 57.0782
  1157 617.504 -60.4173 -23.3073
  1158 85.5951 12.6674 -49.3855
  1159 629.059 -29.2072 -2.38190
  1160 436.756 -0.476028 -0.323460
  1161 436.875 -0.473653 0.321208
  1162 758.364 -20.0461 19.9750
  1163 722.283 -60.9985 35.4573
  1164 1030.45 182.873 47.5529
  1165 267.968 -0.375331 -25.0390
  1166 269.296 -0.321051 24.8786
  1167 567.062 -11.3342 -3.45561
  1168 567.046 -11.2755 3.43751
  1169 630.639 -55.4261 -7.92179
  1170 535.260 2.72353 7.40318
  1171 645.297 -45.9752 7.71122
  1172 39.9275 47.3772 -26.4920
  1173 122.903 59.3883 84.0282
  1174 436.974 -24.6076 147.617
  1175 748.836 141.360 -26.8477
  1176 708.158 -2.16367 -7.52132
  1177 735.088 -1.37865 0.318300
  1178 735.671 -1.79564 -0.154753
  1179 451.858 -0.769218 -0.976908
  1180 451.973 -0.762401 0.971696
  1181 690.597 44.1356 64.2595
  1182 1002.79 169.057 -3.64660
  1183 712.794 117.059 -28.2090
  1184 530.706 -39.7820 151.977
  1185 434.695 -23.7671 -147.306
  1186 486.734 -31.5356 -52.3604
  1187 659.616 -19.0189 9.51312
  1188 913.090 203.197 19.0049
  1189 486.816 -31.3707 52.0098
  1190 672.368 -12.5115 7.19471
  1191 613.406 23.3906 35.3161
  1192 668.913 20.9121 62.1716
  1193 937.421 208.751 30.5950
  1194 567.976 -14.5801 6.34188
  1195 567.991 -14.6359 -6.37402
  1196 681.695 -13.4728 17.8688
  1197 422.208 -4.07816 17.3421
  1198 421.932 -4.11695 -17.4719
  1199 666.216 -9.85397 -2.70956
  1200 278.370 168.156 -258.265
  1201 577.163 -32.9296 -162.875
  1202 553.625 -16.8678 -10.7842
  1203 553.693 -16.8057 10.7892
  1204 709.527 -3.98817 2.55341
  1205 675.763 -9.65709 5.69546
  1206 40.0422 52.8125 40.2601
  1207 729.186 -1.07044 2.21550
  1208 91.9050 120.458 119.340
  1209 661.233 -10.6458 -3.59306
  1210 -0.395230 -15.6239 -13.7893
  1211 474.633 -46.4420 -114.604
  1212 473.475 -45.3424 113.536
  1213 729.147 -1.51095 -2.49668
  1214 632.829 -33.4348 -3.24197
  1215 709.218 -3.71177 -2.50642
  1216 579.226 -18.5056 -6.83249
  1217 579.188 -18.4553 6.78211
  1218 665.812 -9.79836 2.49853
  1219 628.625 -28.6188 2.35840
  1220 606.528 -19.5938 2.84009
  1221 606.716 -19.6286 -2.78097
  1222 708.447 -3.81745 -2.01291
  1223 616.081 -65.3863 -113.204
  1224 694.730 -5.11144 -1.93757
  1225 663.836 -10.9098 4.00005
  1226 479.071 -4.70846 -7.22087
  1227 479.163 -4.66517 7.18915
  1228 529.058 -7.41524 -4.01373
  1229 529.096 -7.37193 3.99917
  1230 835.295 131.541 30.5377
  1231 703.578 -54.5200 17.4012
  1232 486.111 -2.83114 186.973
  1233 407.110 -0.503788 6.67136
  1234 406.795 -0.510030 -6.72625
  1235 671.186 -12.6561 37.8456
  1236 640.637 -10.3587 0.192039
  1237 640.652 -10.3304 -0.192130
  1238 737.791 142.164 12.6899
  1239 667.449 -70.2316 91.8799
  1240 405.449 -5.25590 24.0766
  1241 405.089 -5.29071 -24.2229
  1242 640.114 -16.1148 2.27590
  1243 639.971 -16.2338 -2.15104
  1244 659.243 -18.8180 -9.08934
  1245 616.969 0.203755 18.6346
  1246 1032.37 257.351 -92.4503
  1247 672.503 -25.0236 -32.0189
  1248 123.698 27.6819 71.2341
  1249 693.832 -37.3381 44.0725
  1250 572.855 13.2098 -14.3348
  1251 47.8812 32.6314 28.1642
  1252 899.921 106.122 -22.5402
  1253 678.809 -31.1538 -45.5981
  1254 575.281 8.74581 21.9974
  1255 396.375 -24.0820 76.7860
  1256 687.609 -53.5734 23.2499
  1257 980.236 198.858 76.4896
  1258 239.861 33.8860 133.005
  1259 689.756 -8.86480 -15.4982
  1260 1280.09 14.6469 -12.5314
  1261 1319.09 19.5443 55.2370
  1262 1402.94 46.2950 -132.283
  1263 672.579 -21.3491 -41.0456
  1264 671.643 -31.0239 33.6423
  1265 681.428 -48.8369 29.5019
  1266 -19.8037 2.64372 12.2762
  1267 -17.9051 2.22448 -13.4992
  1268 661.681 -73.5119 -46.7130
  1269 676.175 -68.7811 -66.8555
  1270 538.611 3.72839 -9.11233
  1271 658.529 -74.7402 66.2767
  1272 705.147 -33.7514 -44.4616
  1273 17.0649 22.4758 5.40224
  1274 579.884 -10.6339 2.02988
  1275 579.918 -10.6978 -2.03512
  1276 697.914 -6.25103 10.2846
  1277 672.256 -12.3088 -6.67959
  1278 635.583 -69.3431 -27.3899
  1279 585.119 -31.1715 12.9546
  1280 582.356 -30.7091 -13.6671
  1281 680.408 -14.9044 25.5146
  1282 697.710 -25.9112 -52.8446
  1283 49.6037 34.0200 -27.6876
</Section>

newXOutput 39

<Section columns = "stress_xx | stress_yy | stress_xy">
  1 756.751 -0.452364 1.30994
  2 756.730 -0.433834 -1.31217
  3 442.471 -0.0452045 -0.469376
  4 -5.47744 -5.38403 -7.88349
  5 1300.55 558.392 430.077
  6 1289.04 576.856 -425.051
  7 -6.37347 -5.08466 8.43262
  8 442.347 -0.0464898 0.468431
  9 761.419 -1.39939 0.349978
  10 760.167 -2.15657 -0.489684
  11 759.030 -1.56591 1.38740
  12 757.835 -2.04370 0.180257
  13 755.193 -1.76727 2.17655
  14 752.736 -1.76144 1.46036
  15 746.467 -1.54477 3.18809
  16 737.006 -1.26299 4.74823
  17 728.693 -1.24100 5.40299
  18 715.923 -1.54800 6.65638
  19 697.697 -0.291770 10.0050
  20 680.875 -1.13054 9.65269
  21 661.094 -1.35913 13.7858
  22 632.589 0.938842 12.1332
  23 611.471 1.57694 14.4662
  24 583.865 2.56070 11.4293
  25 564.557 2.92632 11.5765
  26 536.611 3.87800 5.93356
  27 530.624 6.06967 6.40470
  28 526.972 5.10328 -1.90921
  29 531.844 3.17529 -4.12103
  30 540.867 2.92842 -5.07273
  31 561.829 3.57417 -10.0873
  32 582.207 2.83046 -12.6516
  33 611.670 0.792113 -14.9358
  34 635.162 -0.236277 -13.4315
  35 659.852 -1.06739 -13.0396
  36 682.019 -0.899273 -9.11300
  37 700.726 -0.995129 -7.68283
  38 715.885 -1.52999 -6.34212
  39 729.233 -1.16275 -4.27111
  40 737.261 -1.44923 -4.46422
  41 745.038 -1.66016 -3.23137
  42 752.146 -1.92219 -1.23759
  43 755.705 -1.58160 -1.58055
  44 757.294 -1.08973 -0.911835
  45 755.302 -0.781695 -0.838544
  46 760.794 -2.13470 0.371524
  47 761.587 -1.44140 -0.359825
  48 739.839 -1.13981 -0.812756
  49 725.312 -3.83329 -1.58259
  50 707.286 -5.45463 -0.860227
  51 685.120 -7.68728 -1.22631
  52 663.864 -8.27819 -1.43678
  53 641.003 -9.93981 -1.39857
  54 620.609 -10.8088 -0.644756
  55 602.710 -11.7518 -0.0753734
  56 581.993 -9.65693 -0.0365212
  57 558.100 -8.84842 -0.307499
  58 535.126 -6.81865 0.0896053
  59 513.417 -4.17893 0.135258
  60 492.862 -2.85768 0.195503
  61 474.954 -1.30939 0.318548
  62 456.807 -0.231083 -0.521980
  63 442.583 0.648991 0.846697
  64 436.038 1.58016 0.635739
  65 439.942 0.0843706 1.38753
  66 434.509 -0.121025 1.70422
  67 429.227 -0.222883 2.11464
  68 422.196 0.0566431 2.69020
  69 413.358 0.0402545 3.34188
  70 406.378 -0.362061 6.24263
  71 388.148 0.559449 6.77780
  72 375.025 0.0211836 7.64859
  73 355.503 -0.259376 8.70920
  74 333.140 -0.476273 10.5674
  75 305.126 -0.0600249 12.8372
  76 270.984 0.197475 14.2336
  77 240.808 -0.191528 20.3923
  78 182.376 1.81867 19.4202
  79 141.726 1.56288 20.6001
  80 92.2347 -0.477569 23.1093
  81 50.3438 3.56984 24.3841
  82 2.24217 5.50965 15.3294
  83 -33.7124 5.63926 6.26683
  84 -35.0838 5.63634 -0.703326
  85 -35.6826 4.77127 -10.3622
  86 -21.2324 -1.20875 -10.1847
  87 -2.37931 -20.3773 -11.3267
  88 2.37319 -37.0312 -13.7535
  89 6.05293 -56.2805 -6.43928
  90 13.1139 -53.2859 3.35537
  91 27.2438 1.65433 39.2494
  92 78.6183 145.547 123.524
  93 434.834 452.077 389.406
  94 1582.80 240.868 259.566
  95 1436.83 34.1608 83.2782
  96 1344.80 14.4991 25.4885
  97 1310.98 12.4894 1.86154
  98 1329.50 16.3936 -22.3403
  99 1434.93 32.2450 -66.0777
  100 1666.00 116.223 -220.623
  101 260.942 468.358 -328.418
  102 58.7577 115.397 -103.992
  103 29.9140 4.65658 -42.6795
  104 12.3455 -52.3819 -9.64894
  105 3.87733 -42.0504 7.22690
  106 4.58573 -46.8728 11.7861
  107 0.347975 -17.4530 12.5694
  108 -22.2083 -0.643934 9.58899
  109 -36.7986 3.58466 8.96223
  110 -37.0157 6.82373 0.882766
  111 -34.7342 5.52144 -5.91909
  112 -0.285665 5.64560 -14.4447
  113 48.1813 3.59913 -23.2969
  114 90.0408 -0.0862047 -22.7349
  115 139.441 1.68701 -20.6317
  116 180.302 1.86267 -19.5512
  117 239.204 -0.199863 -20.5424
  118 269.618 0.215176 -14.3550
  119 303.928 -0.0570192 -12.9823
  120 332.544 -0.535191 -10.6312
  121 354.664 -0.240960 -8.72375
  122 374.383 0.0441110 -7.71744
  123 387.616 0.553764 -6.84087
  124 405.987 -0.366249 -6.29590
  125 413.037 0.0375129 -3.37423
  126 421.944 0.0539766 -2.71662
  127 429.026 -0.227355 -2.13542
  128 434.345 -0.124866 -1.71860
  129 439.798 0.0812005 -1.39657
  130 435.906 1.57894 -0.639835
  131 442.457 0.648320 -0.849317
  132 456.687 -0.234559 0.520855
  133 474.844 -1.31818 -0.321604
  134 492.766 -2.87678 -0.199035
  135 513.343 -4.20541 -0.138621
  136 535.078 -6.85698 -0.0930569
  137 558.083 -8.89745 0.304676
  138 582.010 -9.71432 0.0332985
  139 602.754 -11.8174 0.0736351
  140 620.674 -10.8748 0.646709
  141 641.100 -9.99991 1.40539
  142 663.954 -8.31878 1.46135
  143 685.196 -7.72366 1.34732
  144 707.418 -5.20338 0.878421
  145 725.797 -3.75040 1.54651
  146 739.988 -1.25604 0.799067
  147 671.642 -63.1935 3.06360
  148 671.024 -62.3263 -2.83205
  149 711.397 101.800 -30.8007
  150 751.262 44.2370 63.1533
  151 569.987 -55.5253 -130.584
  152 574.755 -55.3905 126.631
  153 561.534 -23.0937 17.7286
  154 561.556 -23.3930 -17.7306
  155 791.776 29.1834 -44.0048
  156 669.951 -24.5800 10.0383
  157 669.657 -24.0222 -9.92701
  158 865.256 190.451 5.17725
  159 689.662 -1.04345 -63.7078
  160 516.602 -39.5877 -59.1418
  161 516.674 -39.2829 58.6922
  162 689.753 -15.8076 56.6512
  163 661.788 48.7042 38.9232
  164 278.185 42.8178 -156.246
  165 306.814 40.7169 164.370
  166 830.200 11.3992 -5.77299
  167 689.523 -26.8330 -37.6472
  168 906.535 199.059 6.05811
  169 623.837 -17.7653 -2.49521
  170 623.721 -17.7275 2.53716
  171 693.243 -9.27469 -4.23267
  172 695.125 -8.43967 3.60171
  173 501.991 -6.58982 -9.88319
  174 502.069 -6.52675 9.84519
  175 736.410 -17.0451 166.323
  176 642.334 27.2322 -42.0476
  177 424.169 -31.2459 -92.9114
  178 425.386 -31.0277 92.3937
  179 478.347 -14.7749 -30.9396
  180 478.408 -14.6169 30.7528
  181 692.446 -18.6518 32.0836
  182 631.810 -43.0664 -6.83088
  183 629.770 -42.7468 7.71571
  184 711.390 -69.3025 -20.8859
  185 715.327 -66.0266 12.1882
  186 977.095 231.132 -43.9936
  187 724.718 115.574 28.6315
  188 722.762 44.4404 -64.9804
  189 732.605 -3.08498 -191.557
  190 713.539 -40.6660 -41.8535
  191 719.867 -29.1616 50.7082
  192 603.046 -68.3073 66.7734
  193 603.048 -67.7922 -66.6116
  194 651.436 8.63570 50.1839
  195 305.739 -8.07356 -114.351
  196 306.392 -8.65060 113.733
  197 1093.06 162.384 24.2305
  198 677.031 -40.5851 20.7602
  199 700.258 -13.4923 -20.2615
  200 565.151 -13.4188 -8.51228
  201 565.175 -13.3639 8.49308
  202 677.988 -8.91794 -44.0189
  203 768.841 112.588 -50.3189
  204 652.331 59.0217 -7.76340
  205 433.204 -14.4656 42.7590
  206 432.598 -14.4997 -43.0250
  207 708.309 -8.63439 10.4148
  208 697.562 13.1886 65.6938
  209 570.683 -40.6322 -30.8665
  210 567.266 -38.4468 31.3299
  211 815.515 121.326 42.8535
  212 944.368 137.532 37.4356
  213 71.2296 53.6034 -48.2508
  214 66.0742 49.5416 41.2802
  215 397.319 116.042 269.432
  216 670.469 -44.7026 -14.3293
  217 710.436 -8.27752 -9.37951
  218 644.856 6.05887 -46.2753
  219 463.207 -4.08580 -13.8165
  220 463.359 -4.04185 13.7191
  221 607.656 -28.1635 -9.21325
  222 607.945 -28.3604 8.88218
  223 682.908 -9.36659 37.1708
  224 774.234 -44.4228 28.0545
  225 780.937 157.745 -14.1544
  226 612.560 -58.6373 -34.2844
  227 766.393 -13.3810 35.6930
  228 656.948 -11.7023 0.816480
  229 656.943 -11.6192 -0.816500
  230 608.460 -58.3714 35.2856
  231 693.084 -44.3231 33.3096
  232 952.811 133.360 -77.0005
  233 222.309 132.194 -199.797
  234 602.018 21.8881 10.1981
  235 701.743 61.8637 55.6015
  236 740.516 -5.32377 -55.1508
  237 694.516 -25.2613 -52.1252
  238 385.528 -11.7267 -53.0542
  239 386.731 -11.5598 52.9359
  240 694.967 -8.78824 -28.1367
  241 661.679 -17.3088 4.44351
  242 661.378 -17.3022 -4.21861
  243 150.220 12.5713 -75.0822
  244 152.231 11.0029 74.7922
  245 730.143 -64.1721 -65.5716
  246 721.369 -3.39752 1.10571
  247 721.998 -3.45304 -1.30455
  248 686.751 57.1227 -51.2255
  249 612.422 12.4460 30.6485
  250 1215.19 194.529 131.297
  251 1203.90 137.156 -81.2176
  252 896.348 190.679 1.74144
  253 560.914 -27.6196 172.099
  254 516.598 -18.6212 -179.563
  255 596.854 -12.2480 -3.58271
  256 596.811 -12.1835 3.56402
  257 504.080 -12.6917 19.5848
  258 504.054 -12.8551 -19.7242
  259 708.855 -8.26339 16.5611
  260 690.128 -49.4341 -25.9554
  261 466.924 -0.579478 -3.33644
  262 467.044 -0.567333 3.32088
  263 681.618 -28.0786 -21.2294
  264 304.491 -9.63631 -74.0675
  265 305.625 -9.66422 73.6059
  266 690.939 -30.3133 40.6661
  267 531.922 -56.4762 105.231
  268 533.098 -57.4777 -104.897
  269 609.796 24.1129 -14.2719
  270 526.620 -7.55166 -6.70100
  271 526.678 -7.50729 6.68149
  272 655.192 -1.44726 36.7211
  273 776.109 140.927 34.5579
  274 432.408 -4.75446 22.8705
  275 432.106 -4.79048 -23.0322
  276 707.010 -59.4805 14.8194
  277 654.422 -73.8873 -74.2692
  278 724.677 -4.26484 4.59463
  279 518.990 -29.6360 -40.8992
  280 518.218 -29.3253 40.7776
  281 873.207 106.373 240.669
  282 433.842 -35.2799 124.432
  283 694.208 97.1764 -3.24992
  284 859.131 97.8822 -21.3752
  285 655.647 -50.6316 1.66764
  286 655.212 -75.8581 67.6477
  287 434.984 -34.7495 -125.675
  288 83.9388 104.137 97.3691
  289 681.738 -28.1531 21.6540
  290 883.542 118.891 13.0963
  291 729.586 -3.81975 -3.98808
  292 675.121 23.9740 -59.0198
  293 660.513 -37.4971 8.96781
  294 647.292 -54.4549 8.09710
  295 673.140 31.1833 57.0177
  296 703.858 -59.4488 -12.4708
  297 988.722 189.997 -19.7383
  298 660.346 -36.0667 -8.52553
  299 535.145 162.185 -325.447
  300 673.042 -71.5433 -20.8343
  301 668.491 -73.5299 28.3051
  302 500.372 -44.5474 -82.3907
  303 462.523 -1.43731 -7.16582
  304 462.662 -1.41161 7.12194
  305 500.644 -44.6032 82.0001
  306 714.627 -1.25945 -64.7171
  307 764.280 -31.6541 -20.1077
  308 592.057 -34.9773 -18.1870
  309 591.766 -35.0624 18.4809
  310 694.670 -59.8235 115.329
  311 700.158 -5.98850 21.2664
  312 836.893 7.44982 50.1758
  313 581.625 -20.0724 -10.3909
  314 581.679 -20.0227 10.3495
  315 534.660 -13.2368 -13.4627
  316 534.683 -13.1253 13.4511
  317 606.796 8.65669 -29.6147
  318 760.016 55.8961 -60.7631
  319 1148.11 313.508 -155.400
  320 689.005 -7.01183 -1.27419
  321 688.676 -6.92660 1.32855
  322 379.150 -1.94012 155.389
  323 531.048 -23.1209 -27.8452
  324 530.172 -23.0687 27.9243
  325 379.073 -2.88915 -154.790
  326 728.838 85.8346 -53.3046
  327 805.408 40.7780 40.7594
  328 694.009 -49.4383 -127.184
  329 646.457 -25.1870 2.29050
  330 645.854 -25.0311 -2.04048
  331 686.151 -15.0130 -9.44192
  332 655.549 -1.10973 -34.3062
  333 726.759 2.90232 62.6941
  334 719.830 -5.64669 -11.2462
  335 448.810 -26.2150 62.5069
  336 448.327 -26.3439 -62.9166
  337 680.625 -1.42161 60.7741
  338 435.987 -3.11438 -13.7304
  339 436.248 -3.08658 13.6285
  340 691.604 -16.6028 16.0819
  341 831.156 168.622 -22.4532
  342 685.923 -15.0987 9.86042
  343 736.514 92.0927 53.2484
  344 703.219 -13.2805 61.6123
  345 564.727 -10.2838 3.32219
  346 564.718 -10.3363 -3.33765
  347 669.867 -2.24820 -54.0754
  348 875.185 183.246 10.2203
  349 736.533 133.739 1.08746
  350 449.386 51.7521 -228.639
  351 53.3743 20.6782 -34.8614
  352 57.7719 22.4207 37.1705
  353 -0.423531 6.27341 11.8818
  354 1.98437 4.17800 -12.5702
  355 1238.10 86.1280 28.6931
  356 609.370 -48.8495 -21.9800
  357 692.000 -16.0913 -15.6634
  358 628.966 -11.5022 -0.137318
  359 628.898 -11.4244 0.131029
  360 678.399 75.0261 -27.7984
  361 576.653 -58.0668 55.0699
  362 54.2969 81.9162 -62.5912
  363 577.056 -58.0167 -55.9265
  364 686.583 78.1225 29.5552
  365 692.263 -18.9843 -30.3796
  366 731.485 -41.1896 -33.5319
  367 786.104 163.811 9.65021
  368 732.651 -46.2057 25.8698
  369 322.019 -7.49468 49.4159
  370 320.341 -7.34490 -49.6713
  371 186.453 3.96633 -70.0889
  372 188.071 3.30746 69.8015
  373 615.214 2.62176 29.8322
  374 1113.73 333.936 141.210
  375 713.036 -5.03596 -14.8515
  376 563.757 -46.6030 -42.6016
  377 563.404 -46.5246 42.5521
  378 689.605 -16.2793 -39.6799
  379 775.760 -37.3989 -5.59343
  380 609.348 -48.8224 22.5058
  381 843.707 9.89687 -82.0836
  382 502.079 -3.56724 -2.82385
  383 502.165 -3.53965 2.81068
  384 680.754 -4.14261 -25.9296
  385 383.435 -5.05145 -32.0731
  386 383.622 -5.22604 31.7261
  387 805.920 103.538 -48.6348
  388 439.975 30.5999 213.232
  389 635.679 -33.2601 -1.83011
  390 636.275 -33.2152 1.81149
  391 748.431 125.717 -33.1818
  392 705.248 -21.1430 -57.7246
  393 701.078 -72.0619 66.9822
  394 594.896 -15.6570 -5.76955
  395 594.846 -15.5991 5.73242
  396 679.317 -52.5883 15.1860
  397 725.702 -3.99056 8.23451
  398 470.836 -16.1658 -38.3635
  399 471.027 -16.1807 38.0907
  400 694.730 23.5073 -64.9903
  401 652.102 -14.7644 1.09112
  402 652.064 -14.8075 -1.02301
  403 678.267 -8.13524 49.1124
  404 639.990 47.2537 13.5989
  405 699.245 -29.8929 49.5352
  406 997.774 207.063 42.4375
  407 350.342 -18.6868 -99.6020
  408 351.232 -18.6830 98.9368
  409 158.835 82.8651 -123.573
  410 738.135 -2.85373 1.96435
  411 399.874 -2.93786 -20.3572
  412 400.339 -2.87588 20.2107
  413 689.942 -18.3794 38.6329
  414 626.539 -67.7368 39.3466
  415 701.187 -9.62412 6.62126
  416 721.383 36.5936 66.9243
  417 165.644 88.2304 128.123
  418 627.384 -67.3033 -36.6809
  419 647.650 -59.9998 -12.7957
  420 226.972 -4.48537 -62.9366
  421 228.378 -4.63294 62.5531
  422 500.408 -40.9377 -150.014
  423 740.294 -11.3283 53.4676
  424 498.837 -41.4423 148.824
  425 685.772 -38.8412 -29.9460
  426 647.833 44.3402 -29.5396
  427 685.782 -30.1090 28.8609
  428 729.916 -3.95137 -5.24357
  429 24.9719 28.4085 15.5376
  430 154.708 184.100 180.034
  431 666.514 -2.40448 25.3005
  432 572.836 8.52527 13.1101
  433 581.395 10.2241 -17.7026
  434 496.177 -7.48006 -13.8289
  435 496.247 -7.39050 13.7599
  436 676.056 -52.5348 -13.3868
  437 686.162 -13.6317 -54.5833
  438 575.434 11.5899 -4.80257
  439 996.084 238.712 59.7476
  440 148.934 46.9389 -93.1059
  441 163.223 43.0362 98.8803
  442 635.087 -22.7849 -0.824926
  443 634.871 -22.7546 0.970619
  444 843.939 183.473 -1.52075
  445 512.378 231.646 332.542
  446 802.294 -10.0766 0.754294
  447 478.827 -23.9335 -52.0381
  448 479.066 -23.7886 51.6654
  449 484.661 -10.0069 21.0817
  450 484.555 -10.0713 -21.2347
  451 643.572 14.8751 -47.8139
  452 741.319 -1.65302 -1.23058
  453 628.261 29.5860 27.0920
  454 777.633 95.9346 55.0882
  455 649.286 -48.0841 0.254474
  456 700.814 -9.22341 -6.46659
  457 732.558 -3.64160 4.82132
  458 739.043 -1.79547 0.695096
  459 739.510 -1.95187 -0.457030
  460 435.095 -0.569410 5.18118
  461 434.881 -0.579032 -5.22350
  462 707.357 -45.3822 36.2181
  463 649.375 26.1743 46.3325
  464 674.214 2.91643 -59.5310
  465 696.476 -15.3744 21.9507
  466 972.018 183.566 -208.500
  467 699.420 -39.1822 -42.0948
  468 11.2640 13.9798 8.29292
  469 11.0138 14.3836 -4.81498
  470 562.419 -30.9329 25.1322
  471 560.715 -30.4780 -24.7676
  472 850.861 22.3146 116.970
  473 243.424 234.050 -256.867
  474 692.375 -2.37917 19.2100
  475 771.613 -44.1555 -70.3717
  476 430.283 -23.8789 72.0340
  477 835.665 148.616 -32.4956
  478 689.550 -37.7185 34.7218
  479 585.594 -27.3456 -14.0867
  480 586.092 -26.9173 14.0657
  481 615.080 3.55167 -26.2960
  482 429.024 -23.7647 -72.3945
  483 628.606 0.601114 26.2913
  484 592.181 -67.9969 -95.5236
  485 590.759 -68.0998 95.9893
  486 709.707 -5.15660 16.4734
  487 657.187 62.3739 5.60426
  488 647.453 13.8414 230.765
  489 958.012 192.129 -1.19024
  490 666.269 -12.0284 2.12140
  491 666.290 -11.9899 -2.26779
  492 526.090 -8.71152 -9.19353
  493 526.143 -8.64773 9.16988
  494 281.260 11.6069 131.954
  495 693.006 -33.7647 -41.7308
  496 630.818 -14.0950 -1.29692
  497 630.758 -14.0583 1.30299
  498 552.487 -57.9897 78.0145
  499 286.381 15.5272 -135.151
  500 692.450 -56.7676 -15.5448
  501 13.8086 6.43073 2.11949
  502 620.080 32.8451 2.03748
  503 668.189 -8.63688 -0.616320
  504 668.189 -8.73425 0.584771
  505 552.681 -57.8594 -78.5682
  506 772.103 -38.4811 86.6869
  507 773.119 28.2359 54.8067
  508 710.205 -5.76410 -2.95781
  509 690.366 -57.5294 15.9261
  510 454.909 -0.210735 -1.01040
  511 455.032 -0.207450 1.00474
  512 691.476 -26.8877 -45.4256
  513 676.509 50.2813 50.2733
  514 764.075 19.0536 -54.3009
  515 452.116 -0.489672 -2.93657
  516 452.253 -0.481578 2.92136
  517 1288.71 186.636 -164.872
  518 702.353 83.4130 43.8642
  519 710.706 -5.41992 2.59744
  520 648.970 -61.3543 14.3975
  521 554.526 -17.6544 14.2886
  522 554.499 -17.7728 -14.2599
  523 748.668 -45.9639 9.26887
  524 724.177 -14.7760 -57.5238
  525 810.997 158.426 29.0809
  526 679.846 11.9097 61.8241
  527 677.952 -13.8573 5.28345
  528 657.333 -70.7611 -93.5634
  529 687.412 -17.3522 45.5710
  530 1270.75 58.8417 -22.9606
  531 742.704 -56.3062 9.06265
  532 705.835 -5.65848 -0.506356
  533 706.008 -5.95073 0.374032
  534 1283.99 86.0657 79.7015
  535 664.370 -0.0168347 52.6085
  536 908.721 157.366 -0.0582880
  537 690.601 -19.4519 -20.8711
  538 333.143 -2.82386 -21.8863
  539 334.005 -2.68466 21.6895
  540 476.645 -44.3676 -104.413
  541 477.094 -43.6327 103.708
  542 677.567 -13.3384 -5.27068
  543 739.605 27.1560 -63.8910
  544 651.104 -44.2413 2.27808
  545 705.198 80.7700 -45.3388
  546 702.880 -8.78275 22.1196
  547 867.923 47.6546 -24.0563
  548 607.402 -20.6559 -6.08780
  549 607.253 -20.6075 6.04368
  550 655.356 -31.1230 5.88733
  551 949.401 193.871 -29.8365
  552 694.310 30.4919 64.1013
  553 300.964 76.9183 193.737
  554 659.523 -39.3377 157.260
  555 856.245 50.0104 -175.130
  556 709.488 58.7446 -59.2830
  557 622.226 -54.3855 -136.877
  558 675.054 -74.3273 -33.8319
  559 702.341 -71.6535 -46.4184
  560 97.1322 130.652 -123.244
  561 706.763 -9.79444 -12.5993
  562 1050.98 203.471 -64.1856
  563 658.597 -29.9608 -7.25454
  564 663.307 -22.0839 6.06211
  565 662.719 -21.6205 -5.70510
  566 476.066 -2.28439 -6.59716
  567 476.180 -2.25524 6.56456
  568 76.5592 6.67765 -39.8037
  569 79.9227 7.02826 40.6572
  570 355.933 -15.9290 -75.6672
  571 358.395 -16.0257 75.6205
  572 672.588 -36.7785 -17.1185
  573 682.396 -74.6459 36.1113
  574 701.256 -67.0304 -4.76297
  575 584.763 -10.2708 -2.76899
  576 584.741 -10.2107 2.75760
  577 550.706 -58.1692 -116.921
  578 610.976 -50.6858 144.338
  579 538.241 -54.7770 117.451
  580 694.019 -15.5978 -58.3946
  581 451.372 -6.82614 23.2230
  582 451.159 -6.89243 -23.3785
  583 667.825 37.3743 -50.6416
  584 666.851 -1.19512 -22.9511
  585 825.979 176.897 -12.4303
  586 549.868 -7.92715 -2.51202
  587 549.897 -7.88337 2.50301
  588 703.915 -2.27683 -12.5144
  589 499.958 -15.9074 -26.3901
  590 500.001 -15.8656 26.2006
  591 402.978 17.3565 184.192
  592 685.176 -31.9453 -29.0897
  593 391.672 -21.3610 132.728
  594 673.427 -35.2176 17.6809
  595 705.324 -10.7550 14.0630
  596 695.275 -7.35321 -2.47294
  597 507.022 -5.70157 -6.35318
  598 507.101 -5.65981 6.32980
  599 793.295 156.842 -26.8058
  600 391.378 -20.6556 -133.139
  601 671.100 -29.4915 -13.6383
  602 610.112 -11.5252 -1.68420
  603 610.058 -11.4548 1.67839
  604 1110.37 148.448 -27.0590
  605 422.044 -2.38038 12.6704
  606 421.714 -2.40220 -12.7678
  607 636.913 15.1481 43.7593
  608 880.341 78.3962 4.54943
  609 428.307 1.67047 -182.549
  610 228.933 4.77010 -101.287
  611 230.611 3.60494 100.765
  612 540.495 -30.4919 33.4638
  613 545.621 -31.3937 -32.7090
  614 896.622 181.934 3.91673
  615 692.740 -7.58473 2.12689
  616 612.743 18.0191 -26.5839
  617 750.588 133.689 26.2715
  618 748.343 138.638 -17.5069
  619 614.880 -33.7049 -9.50203
  620 619.225 -33.0052 7.38690
  621 437.567 97.0685 -259.881
  622 536.143 -17.4972 -19.0350
  623 536.207 -17.3138 18.9906
  624 1284.92 264.010 199.016
  625 692.280 -22.9951 49.5227
  626 411.153 -13.6905 -48.3879
  627 1037.19 262.947 184.726
  628 412.029 -13.6269 48.2473
  629 653.437 -24.3718 -182.149
  630 484.062 -1.94330 -2.42171
  631 484.166 -1.92701 2.41262
  632 593.639 5.78086 23.2336
  633 280.752 -3.86803 -43.3250
  634 282.048 -3.87996 43.0333
  635 607.323 -42.4077 17.7107
  636 634.550 -50.4823 -9.62823
  637 736.788 -1.99121 -4.59795
  638 441.922 -0.530744 3.91476
  639 441.748 -0.541381 -3.94553
  640 576.817 -12.7668 -4.69742
  641 576.809 -12.7092 4.67385
  642 650.214 -72.6756 94.2672
  643 751.487 83.8582 -57.9986
  644 511.008 -22.7759 -33.9111
  645 510.708 -22.4061 33.7019
  646 596.886 -42.2062 -22.4523
  647 925.849 199.920 12.2952
  648 697.378 -67.8602 8.39062
  649 612.194 -14.7986 -3.46817
  650 612.117 -14.7426 3.46321
  651 829.594 92.2032 37.5780
  652 700.226 -10.7228 -24.0093
  653 631.776 -0.538030 -21.3585
  654 300.971 -10.3431 -95.6989
  655 301.755 -10.5942 95.0106
  656 594.839 -50.5966 -33.6865
  657 883.176 191.422 -0.287525
  658 694.187 93.7534 -19.7673
  659 473.174 -3.78972 -11.8996
  660 473.296 -3.73903 11.8255
  661 642.075 -18.5361 0.0949235
  662 642.192 -18.5388 0.0191052
  663 1160.80 150.828 66.8914
  664 744.539 -2.47800 1.06946
  665 725.517 -3.31176 8.18935
  666 723.312 -3.29499 -9.82870
  667 689.715 -64.5187 1.84121
  668 522.532 -5.60909 -3.16941
  669 522.595 -5.57482 3.15900
  670 742.848 118.226 40.8308
  671 939.904 207.743 -20.0214
  672 527.900 -38.0992 -48.0350
  673 527.821 -37.7567 47.8395
  674 649.369 -66.7803 -20.7324
  675 690.095 41.2240 -60.5046
  676 803.953 2.91757 16.2189
  677 549.965 -9.79297 -6.72966
  678 549.997 -9.74090 6.71009
  679 475.709 -41.1923 -94.2013
  680 683.448 -66.3483 4.19997
  681 572.564 -63.4164 86.1002
  682 278.965 86.8295 -187.291
  683 538.613 -49.1199 66.4360
  684 650.241 0.199365 19.5494
  685 476.184 -40.7444 93.6456
  686 670.739 -30.0192 13.8053
  687 538.693 -48.8900 -66.9572
  688 564.405 7.93201 4.90761
  689 438.068 -10.9490 34.6871
  690 437.710 -10.9496 -34.8843
  691 572.704 -65.0494 -87.0067
  692 702.972 -46.6905 -34.9183
  693 646.499 -9.77563 -0.0756852
  694 646.600 -9.85998 0.0769448
  695 717.337 -46.1632 33.8012
  696 653.952 -68.3129 23.5066
  697 791.284 73.0110 52.9238
  698 716.883 -13.7363 60.0072
  699 689.932 -25.2481 35.3740
  700 667.741 55.2838 -38.4173
  701 792.830 132.746 42.2452
  702 686.496 -9.73333 -35.8704
  703 680.974 -23.1673 16.2943
  704 711.814 110.784 10.6194
  705 694.087 -12.2104 30.5431
  706 223.803 153.877 197.034
  707 644.786 -74.3879 -57.4149
  708 746.263 13.4459 60.1812
  709 750.893 -23.3840 -39.2635
  710 742.339 -1.44820 2.35195
  711 688.706 -24.2375 -27.0458
  712 645.906 -74.9564 52.7937
  713 1210.21 107.527 -17.7995
  714 405.951 -1.49172 13.2317
  715 405.525 -1.50675 -13.3347
  716 695.975 -13.4518 -11.6340
  717 746.288 -1.14423 -2.34853
  718 593.914 -51.4374 33.8458
  719 707.658 -26.6854 53.8556
  720 1047.70 261.962 -96.3206
  721 670.863 -48.7555 12.6350
  722 738.998 -49.0190 -15.2390
  723 681.179 -22.5878 -16.0148
  724 744.953 -1.78413 -0.572602
  725 694.002 -0.140317 64.3178
  726 34.1171 39.7918 46.4744
  727 766.185 -27.4377 -123.728
  728 838.308 51.9415 17.9422
  729 701.973 -72.1391 42.5163
  730 516.798 -11.6653 15.4661
  731 516.774 -11.8159 -15.5212
  732 631.199 352.555 -348.111
  733 717.508 -47.8760 -30.5424
  734 562.419 3.62163 -9.39799
  735 642.463 3.88368 42.3481
  736 694.546 -35.1358 42.2923
  737 665.701 -56.1033 2.44695
  738 686.082 -63.0891 -101.402
  739 662.000 -52.3779 -3.98985
  740 773.573 -36.8458 2.86254
  741 713.758 -6.67284 6.60774
  742 644.155 -38.6074 0.179603
  743 1139.63 227.635 -124.193
  744 683.584 -18.9902 12.5744
  745 683.076 11.4133 -63.3869
  746 575.601 -5.88116 203.771
  747 728.760 58.5774 63.5609
  748 627.425 -49.0140 12.6273
  749 492.474 -37.8093 -69.2564
  750 492.576 -37.7289 68.7738
  751 673.238 75.8714 -8.88624
  752 679.877 -7.96265 55.9068
  753 685.485 -16.5304 -46.7916
  754 644.845 -39.4354 -0.331198
  755 624.366 -55.5105 22.1135
  756 716.951 117.438 -11.8053
  757 664.923 -57.5691 0.156470
  758 666.792 -42.3650 12.6874
  759 673.196 -9.52762 1.53743
  760 673.550 -9.30462 -1.51197
  761 904.021 196.155 -1.27384
  762 736.182 -62.9481 -32.1856
  763 690.703 -21.7019 27.0880
  764 713.745 -6.68139 -5.89939
  765 727.607 4.72671 -63.3444
  766 820.475 44.8176 -29.7210
  767 427.478 -0.221706 -6.28940
  768 427.741 -0.216703 6.23885
  769 6.94209 -9.99771 -6.75882
  770 705.484 -1.07369 11.5370
  771 655.018 -0.728781 -46.4912
  772 673.293 -6.34322 40.2970
  773 599.611 80.7453 294.437
  774 765.212 155.331 -1.42409
  775 549.116 -38.2329 38.5272
  776 108.805 1.95532 -38.5997
  777 111.284 1.40012 38.9851
  778 668.218 -4.69376 -45.7688
  779 550.403 -38.5821 -38.5503
  780 709.689 -7.30764 4.73733
  781 381.474 -15.5844 64.4331
  782 378.479 -15.5186 -64.3942
  783 683.490 -18.4706 -12.2223
  784 453.933 -10.6001 -30.3337
  785 454.150 -10.5401 30.1131
  786 710.290 -7.37026 -16.2524
  787 554.540 -14.2316 -11.4685
  788 554.575 -14.1531 11.4754
  789 773.835 -4.63070 -38.5975
  790 703.013 -7.46764 -63.8762
  791 377.133 -2.15249 -16.7024
  792 377.754 -2.13199 16.5351
  793 26.0896 9.11897 -24.7321
  794 29.0103 9.64496 25.9306
  795 585.759 3.03561 -16.8369
  796 640.508 -71.9450 -44.3968
  797 -6.94831 -4.65822 12.3962
  798 -6.23680 -5.78229 -12.5232
  799 665.668 -14.0774 3.58714
  800 719.396 -56.5711 -13.0175
  801 749.324 110.532 -47.3743
  802 712.329 -6.63244 -4.53477
  803 1455.66 302.099 -272.964
  804 665.526 -14.0471 -3.52951
  805 991.379 186.542 18.0829
  806 715.265 20.8461 -66.8987
  807 784.691 59.7522 -54.6715
  808 148.648 -1.68889 -35.1859
  809 150.816 -1.87894 35.1356
  810 462.321 -6.06694 18.2465
  811 462.154 -6.11234 -18.3759
  812 446.277 -0.821411 3.47025
  813 446.127 -0.830671 -3.49150
  814 796.511 133.744 -41.5503
  815 488.077 -2.58844 -5.27766
  816 488.177 -2.56025 5.25620
  817 681.876 -6.83391 -58.4708
  818 952.249 109.538 99.3484
  819 622.722 14.6128 -36.9061
  820 229.423 -1.90964 37.1619
  821 227.855 -1.92831 -37.4143
  822 770.256 26.5378 214.661
  823 695.444 -13.5588 12.0034
  824 636.408 42.9059 -15.3417
  825 308.566 -0.322589 25.0075
  826 307.261 -0.187854 -25.1627
  827 453.327 -1.93695 -9.04749
  828 453.496 -1.90911 8.98244
  829 83.4540 73.3412 67.2125
  830 659.406 16.1536 54.2555
  831 729.435 106.648 -41.2644
  832 778.941 90.6858 -55.5592
  833 524.013 -18.8551 -24.3446
  834 523.761 -18.7383 24.3376
  835 809.227 170.065 18.1451
  836 692.359 -6.74709 -0.454175
  837 692.418 -6.69970 0.560265
  838 690.321 -21.1953 -36.1060
  839 583.956 -38.1207 24.4884
  840 636.938 -71.5187 44.4033
  841 739.594 -60.5324 68.1368
  842 580.175 -16.4767 -7.89310
  843 580.186 -16.4321 7.85778
  844 664.575 61.9400 24.7856
  845 627.636 9.12176 -39.7283
  846 173.424 222.842 204.617
  847 626.176 -55.0336 -20.6283
  848 628.761 -28.0227 -3.03069
  849 629.084 -28.1087 2.98439
  850 691.353 -10.3232 60.9602
  851 682.515 -45.1303 -23.6249
  852 613.659 -40.0970 -12.9833
  853 1328.99 42.9955 -63.7802
  854 584.463 -54.5310 44.5164
  855 583.940 -55.2009 -45.1459
  856 689.594 -8.50429 30.3998
  857 1018.18 267.101 -72.3422
  858 550.812 -49.0520 -53.6488
  859 603.629 -67.5585 52.8398
  860 550.757 -48.4958 53.2355
  861 595.452 -23.5701 -9.60556
  862 595.462 -23.5127 9.55802
  863 95.1776 38.1739 58.0792
  864 740.409 55.3735 -63.5704
  865 573.595 -21.7962 -13.1832
  866 573.713 -21.5974 13.2212
  867 567.766 -9.17441 -1.63323
  868 567.769 -9.12238 1.62559
  869 618.426 -12.6007 -1.55860
  870 618.360 -12.5332 1.55060
  871 513.411 -9.34677 -13.2660
  872 513.469 -9.25110 13.2258
  873 575.189 -29.4469 -19.0710
  874 575.279 -29.2791 19.1569
  875 15.4983 1.26771 -11.0166
  876 852.037 160.292 26.1495
  877 734.238 -26.0640 -47.7049
  878 603.018 -66.5565 -53.2945
  879 649.545 -21.3005 2.12092
  880 649.283 -21.1091 -1.97256
  881 708.924 0.746665 65.3229
  882 759.688 -54.0291 -42.9722
  883 667.792 53.1390 -256.933
  884 320.208 -6.16734 129.612
  885 -5.94407 7.46337 -10.8582
  886 -4.59109 8.45345 11.7521
  887 94.7959 40.5801 -59.3859
  888 689.730 -20.4700 20.6377
  889 720.845 -5.43763 -8.52234
  890 650.164 -63.1171 114.551
  891 319.507 -5.90787 -130.063
  892 724.476 -59.8441 5.92244
  893 796.843 -20.7978 103.849
  894 604.356 2.59698 17.7960
  895 682.747 65.0854 41.8665
  896 378.384 -20.9601 94.3514
  897 377.021 -21.1242 -94.8878
  898 452.559 -20.5239 -53.1371
  899 465.042 -23.8677 -164.125
  900 727.851 -17.3559 55.3834
  901 984.923 237.384 51.5318
  902 732.760 28.0642 64.8340
  903 692.396 -15.2259 -33.2605
  904 474.234 -21.3726 168.132
  905 875.289 162.999 -14.8406
  906 93.9156 78.2258 -81.9786
  907 648.621 -1.15313 -18.6473
  908 453.013 -20.3690 52.7370
  909 545.940 -11.5100 9.96879
  910 545.906 -11.5759 -9.98284
  911 683.433 -44.8790 24.6045
  912 703.845 -5.47086 1.54490
  913 521.896 4.21817 -202.683
  914 739.344 -1.99278 4.00018
  915 735.299 -1.68498 -5.31518
  916 574.119 5.33105 -15.5786
  917 715.390 -3.07720 -10.1273
  918 546.581 -24.6234 -23.2373
  919 546.935 -24.2822 23.3193
  920 -15.8244 7.17615 -8.81408
  921 -22.8255 4.33742 9.72986
  922 703.788 -5.14006 -1.63377
  923 248.972 -5.89099 87.6826
  924 247.716 -5.42032 -88.1208
  925 760.447 110.400 49.5267
  926 1299.69 23.6996 19.3749
  927 718.472 79.6772 53.9112
  928 797.442 -26.6930 38.0430
  929 702.347 -39.4826 42.0369
  930 871.402 182.003 -11.4938
  931 563.531 2.87772 11.7672
  932 674.833 -16.6272 -6.63124
  933 706.464 38.1164 -65.4391
  934 837.574 27.4299 -0.182097
  935 659.997 -40.8491 -8.80003
  936 357.431 -1.74750 -18.5987
  937 357.699 -1.68401 18.3622
  938 694.456 -16.9347 -25.0166
  939 26.4891 32.4653 10.4986
  940 666.976 -69.2282 -14.8545
  941 594.959 18.4943 -1.60267
  942 867.091 188.604 -7.57297
  943 144.482 106.931 -131.612
  944 673.290 -5.05180 -36.1060
  945 479.729 -7.30576 -17.2451
  946 479.836 -7.22623 17.1298
  947 5.10029 -17.8374 13.1667
  948 465.242 -33.6869 -76.2329
  949 680.059 -39.6364 -23.2022
  950 445.652 0.977449 -1.47811
  951 445.783 0.980740 1.47088
  952 694.158 84.1644 -33.2698
  953 726.797 -2.95491 -0.792450
  954 726.858 -2.97636 1.08072
  955 465.488 -33.6163 75.7926
  956 690.820 -1.18771 -14.0454
  957 785.886 6.03249 36.3222
  958 698.741 -10.6913 9.01383
  959 122.093 28.6924 -71.4880
  960 721.998 -5.07664 7.64019
  961 667.774 5.71893 57.6935
  962 703.938 97.1100 29.5499
  963 700.512 8.18227 -66.6529
  964 492.733 -25.3100 -46.3115
  965 748.688 -26.9016 37.5317
  966 493.060 -25.2338 45.9135
  967 25.6508 26.7429 -6.30026
  968 92.3656 14.1843 52.5860
  969 410.242 -6.65429 31.1150
  970 409.799 -6.64944 -31.2532
  971 675.317 -16.8964 7.11666
  972 733.429 126.469 15.9946
  973 376.133 33.1643 -193.256
  974 612.673 -37.7710 11.7623
  975 575.451 -59.6207 -64.6547
  976 830.934 158.564 29.7845
  977 641.935 -11.8627 -0.511852
  978 641.905 -11.8101 0.503578
  979 699.208 -13.6536 -17.3763
  980 658.903 57.3547 -22.8457
  981 1393.44 429.049 287.184
  982 148.225 7.31950 -67.2907
  983 150.116 6.05679 67.3974
  984 11.0780 -7.08514 6.97566
  985 659.946 37.0929 46.8981
  986 575.425 -60.0090 64.2393
  987 707.366 -33.7494 -48.9281
  988 768.605 62.8566 61.0096
  989 731.597 -59.0751 -81.2570
  990 1062.11 222.810 79.3058
  991 631.319 -10.6824 -0.775560
  992 631.241 -10.6090 0.774304
  993 733.381 -30.3144 44.7511
  994 52.9773 101.648 96.5272
  995 349.495 -6.82002 44.3164
  996 348.556 -6.72986 -44.7137
  997 410.631 -19.1541 61.0059
  998 409.333 -18.8380 -61.1812
  999 459.994 -18.0120 44.3393
  1000 502.845 -3.50033 -2.31593
  1001 502.930 -3.47708 2.30865
  1002 1165.10 392.746 -255.716
  1003 1079.85 271.797 119.683
  1004 459.635 -18.0880 -44.6490
  1005 754.867 -3.65762 49.7600
  1006 685.821 71.2567 -40.1565
  1007 484.923 -42.2879 136.365
  1008 616.100 -72.9455 -77.0449
  1009 702.874 -6.14642 -20.0848
  1010 325.959 20.7781 158.425
  1011 417.687 -31.7367 108.818
  1012 634.072 33.2014 -29.5885
  1013 712.041 -14.3358 -60.9544
  1014 859.405 392.842 392.535
  1015 603.009 19.1687 21.2511
  1016 802.450 170.411 -2.25432
  1017 582.144 24.2295 -229.520
  1018 600.930 -62.6506 -46.0865
  1019 746.345 -1.27989 -1.87709
  1020 730.556 67.0694 -61.8347
  1021 446.261 -2.46510 11.4667
  1022 446.056 -2.48926 -11.5527
  1023 17.3100 18.4567 -28.3769
  1024 493.750 -21.4873 -38.7700
  1025 417.158 -32.1346 -109.535
  1026 493.447 -21.4578 38.4143
  1027 696.979 -21.4832 56.4424
  1028 627.026 -38.4488 -6.57587
  1029 663.095 12.5527 -56.0861
  1030 682.893 85.2117 11.7336
  1031 895.682 60.9079 47.9720
  1032 688.252 -52.5587 22.4632
  1033 447.009 -34.8973 -83.4067
  1034 658.532 23.7963 -52.7681
  1035 488.680 -41.7763 -136.947
  1036 922.997 197.410 -6.22853
  1037 642.938 42.8047 26.9165
  1038 790.772 -3.96317 -24.9005
  1039 604.578 -62.7202 43.0460
  1040 690.120 -22.2558 42.9786
  1041 684.462 -36.4685 28.5362
  1042 680.679 -34.5804 24.1778
  1043 834.775 107.484 -39.1475
  1044 683.047 -11.2240 44.9055
  1045 615.330 -73.1453 75.8699
  1046 656.701 -27.1626 5.38476
  1047 447.297 -34.9828 83.0323
  1048 619.398 -45.0771 -13.9655
  1049 369.330 -18.2533 -116.319
  1050 517.623 -53.3567 93.3244
  1051 693.728 -5.04453 -23.6629
  1052 678.699 -7.72757 -51.6009
  1053 589.578 -45.8219 -29.4328
  1054 369.924 -18.7202 115.525
  1055 639.472 1.83542 -36.7896
  1056 479.896 -30.7271 -59.5298
  1057 846.565 178.356 17.6939
  1058 199.567 31.0005 -113.435
  1059 1380.93 97.2696 129.524
  1060 347.771 24.1646 -165.344
  1061 680.068 -56.5169 -10.7160
  1062 480.057 -30.4889 59.1173
  1063 633.717 7.21686 41.4059
  1064 367.759 -6.93986 36.7240
  1065 367.629 -7.10677 -37.0526
  1066 690.977 -19.4436 -52.5367
  1067 724.374 -4.43637 2.67951
  1068 715.906 -1.91070 10.1605
  1069 713.119 23.5813 66.9310
  1070 670.511 -5.02330 48.7806
  1071 513.447 56.0983 247.692
  1072 750.389 -0.891043 0.791731
  1073 720.772 97.2266 42.8352
  1074 618.985 9.52834 35.8673
  1075 723.151 -3.07882 9.63140
  1076 484.608 -4.59608 -9.82135
  1077 484.709 -4.54626 9.77320
  1078 314.583 -8.46478 -61.4657
  1079 315.633 -8.77427 61.1254
  1080 621.121 31.7363 15.1151
  1081 896.458 54.7508 -80.4875
  1082 824.259 3.67206 -137.193
  1083 676.717 -0.715799 -14.7384
  1084 517.703 -53.7384 -93.9716
  1085 590.832 -43.5923 26.8042
  1086 680.115 -1.65520 15.3540
  1087 705.863 -51.6197 -27.2052
  1088 461.416 -0.750516 5.72045
  1089 461.285 -0.765960 -5.74801
  1090 678.817 -58.1337 10.6898
  1091 646.669 -13.7757 -0.0901217
  1092 646.561 -13.7949 0.120832
  1093 630.065 -63.0993 29.9975
  1094 799.074 -24.9004 -20.7123
  1095 387.320 -0.587894 -10.4318
  1096 387.862 -0.567326 10.3394
  1097 552.132 -35.8399 -156.975
  1098 592.964 -14.0468 4.79593
  1099 593.004 -14.1084 -4.82395
  1100 354.683 197.668 272.283
  1101 808.150 67.3476 -46.4084
  1102 127.900 60.0145 -88.5754
  1103 698.976 -11.2278 -8.67790
  1104 196.720 64.9754 -130.329
  1105 404.209 -24.6219 -78.8564
  1106 749.846 -1.23270 0.605672
  1107 750.053 -1.18195 -0.423789
  1108 691.365 -39.8177 -35.4458
  1109 611.719 -69.1552 -103.608
  1110 199.780 26.3975 108.086
  1111 753.208 74.4553 59.0203
  1112 679.718 -7.79560 -0.594343
  1113 679.810 -7.79561 0.649643
  1114 735.235 -46.1888 126.437
  1115 773.901 153.212 22.1447
  1116 473.093 -10.5683 -24.4223
  1117 473.223 -10.5280 24.2852
  1118 353.625 39.1765 195.329
  1119 661.287 3.64320 -54.1333
  1120 213.660 66.8795 139.497
  1121 826.293 -11.9146 -51.5551
  1122 826.689 179.859 6.06452
  1123 573.820 -44.4543 34.5045
  1124 545.198 3.36562 -2.29970
  1125 715.895 -6.87042 11.8084
  1126 738.034 -1.29206 4.55378
  1127 181.143 0.206052 -31.2362
  1128 183.115 0.133136 31.0508
  1129 602.085 10.7496 -26.6857
  1130 609.832 -17.8720 -4.75588
  1131 609.718 -17.8093 4.73743
  1132 66.3247 122.138 -103.081
  1133 102.710 248.872 -197.084
  1134 616.883 -23.9669 5.17093
  1135 617.082 -23.9409 -5.21671
  1136 635.505 -15.6504 -0.409996
  1137 635.420 -15.6313 0.450048
  1138 173.028 109.675 141.509
  1139 513.846 -5.81726 -4.92703
  1140 513.919 -5.78072 4.91013
  1141 640.114 48.9790 -0.591790
  1142 779.168 111.956 -284.297
  1143 769.536 131.880 -38.0796
  1144 700.368 -27.1638 -52.6752
  1145 689.470 -34.7613 -36.5753
  1146 574.026 -44.8425 -35.0316
  1147 588.209 2.18475 16.4679
  1148 652.557 41.2225 -39.2718
  1149 644.366 35.2222 37.6416
  1150 656.301 -26.4107 -5.24557
  1151 628.525 -37.7099 6.07159
  1152 575.400 -36.2804 -26.5379
  1153 680.915 -4.15174 28.5327
  1154 1163.92 116.992 16.0682
  1155 684.799 -14.7702 51.8393
  1156 689.916 45.4108 58.1747
  1157 632.913 -61.9063 -24.1840
  1158 88.2096 12.9785 -50.8312
  1159 644.756 -29.9407 -2.21661
  1160 448.641 -0.478097 -0.334587
  1161 448.764 -0.475685 0.332310
  1162 776.871 -20.5255 19.9163
  1163 739.890 -62.4938 36.8007
  1164 1055.17 187.182 48.8087
  1165 275.585 -0.376497 -25.6874
  1166 276.936 -0.320867 25.5243
  1167 581.492 -11.6126 -3.58917
  1168 581.476 -11.5530 3.57064
  1169 646.355 -56.7961 -8.42727
  1170 549.544 2.81266 7.55887
  1171 661.351 -47.1203 7.57803
  1172 41.1078 48.7743 -27.4458
  1173 126.329 60.9478 86.4775
  1174 448.113 -25.2826 151.524
  1175 767.590 144.837 -27.2783
  1176 725.520 -2.22752 -7.63824
  1177 752.718 -1.42201 0.316657
  1178 753.309 -1.84843 -0.150261
  1179 464.020 -0.773526 -1.00673
  1180 464.138 -0.766617 1.00145
  1181 707.921 45.2476 65.4649
  1182 1026.94 173.014 -3.73528
  1183 730.740 119.969 -28.7137
  1184 543.944 -40.8177 156.012
  1185 445.779 -24.4249 -151.204
  1186 499.333 -32.2945 -53.7804
  1187 675.943 -19.5202 9.54521
  1188 935.281 208.259 20.0486
  1189 499.419 -32.1269 53.4232
  1190 688.926 -12.8597 7.21937
  1191 629.198 24.0274 36.0327
  1192 685.766 21.4530 63.3627
  1193 960.217 213.806 31.7540
  1194 582.421 -14.9353 6.58318
  1195 582.435 -14.9918 -6.61605
  1196 698.511 -13.8415 18.0955
  1197 433.585 -4.16415 17.8059
  1198 433.303 -4.20362 -17.9378
  1199 682.622 -10.1374 -2.68327
  1200 285.426 172.557 -265.037
  1201 591.380 -33.7634 -167.207
  1202 567.768 -17.2702 -11.1563
  1203 567.838 -17.2074 11.1615
  1204 726.734 -4.11884 2.56701
  1205 692.374 -9.93679 5.71119
  1206 41.1961 54.4652 41.5903
  1207 746.800 -1.10972 2.23433
  1208 94.3988 123.949 122.782
  1209 677.551 -10.9482 -3.56723
  1210 -0.380567 -15.9760 -14.1058
  1211 486.721 -47.6330 -117.651
  1212 485.541 -46.5067 116.559
  1213 746.761 -1.55949 -2.52099
  1214 648.608 -34.2704 -3.07427
  1215 726.428 -3.83685 -2.51207
  1216 593.892 -18.9592 -7.12290
  1217 593.855 -18.9086 7.07130
  1218 682.210 -10.0809 2.47031
  1219 644.312 -29.3366 2.19500
  1220 621.754 -20.0881 3.05243
  1221 621.945 -20.1227 -2.99258
  1222 725.630 -3.94559 -2.01505
  1223 631.256 -67.0279 -116.320
  1224 711.662 -5.27909 -1.93063
  1225 680.206 -11.2181 3.98267
  1226 491.732 -4.80278 -7.43387
  1227 491.826 -4.75878 7.40171
  1228 542.725 -7.58515 -4.14723
  1229 542.765 -7.54128 4.13241
  1230 855.728 134.843 30.6797
  1231 720.883 -55.8848 17.3665
  1232 498.251 -2.93293 191.894
  1233 418.224 -0.507591 6.85033
  1234 417.902 -0.513941 -6.90612
  1235 687.933 -12.9862 38.5009
  1236 656.535 -10.6490 0.144123
  1237 656.549 -10.6202 -0.144254
  1238 756.318 145.661 12.9014
  1239 683.779 -71.9704 94.5214
  1240 416.399 -5.37168 24.7076
  1241 416.032 -5.40698 -24.8563
  1242 656.020 -16.5402 2.19304
  1243 655.874 -16.6628 -2.06621
  1244 675.559 -19.3156 -9.11449
  1245 632.816 0.213330 18.9993
  1246 1057.11 263.572 -95.0308
  1247 689.200 -25.6676 -32.4907
  1248 127.233 28.3803 73.2882
  1249 711.010 -38.2806 44.7034
  1250 587.861 13.5940 -14.6299
  1251 49.3615 33.5107 29.1021
  1252 921.446 109.000 -23.8366
  1253 695.679 -31.9427 -46.3172
  1254 590.333 9.00609 22.4525
  1255 406.853 -24.6804 78.8040
  1256 704.593 -54.9150 23.3871
  1257 1003.48 204.225 79.2177
  1258 246.267 34.7082 136.645
  1259 706.729 -9.11919 -15.7020
  1260 1309.18 14.9992 -12.7980
  1261 1348.88 19.9708 56.3757
  1262 1434.32 47.2506 -135.064
  1263 689.327 -21.8999 -41.7212
  1264 688.318 -31.8143 34.1192
  1265 698.294 -50.0636 29.8031
  1266 -20.2797 2.72909 12.5544
  1267 -18.3284 2.30203 -13.8133
  1268 677.974 -75.3446 -48.2454
  1269 692.734 -70.4893 -68.9049
  1270 552.958 3.84430 -9.30243
  1271 674.721 -76.5986 68.2860
  1272 722.573 -34.5997 -45.0808
  1273 17.6695 23.1139 5.70749
  1274 594.574 -10.9028 2.09208
  1275 594.608 -10.9677 -2.09747
  1276 715.011 -6.43995 10.4039
  1277 688.808 -12.6523 -6.69667
  1278 651.362 -71.0630 -28.4056
  1279 599.891 -31.9301 13.4593
  1280 597.069 -31.4550 -14.1825
  1281 697.254 -15.3021 25.8985
  1282 715.007 -26.5662 -53.6875
  1283 51.1328 34.9369 -28.6292
</Section>

newXOutput 40

<Section columns = "stress_xx | stress_yy | stress_xy">
  1 774.335 -0.477786 1.33219
  2 774.313 -0.458511 -1.33436
  3 454.248 -0.0406993 -0.477018
  4 -5.61766 -5.51988 -8.08581
  5 1327.65 572.223 439.757
  6 1315.93 591.050 -434.386
  7 -6.53736 -5.21109 8.65170
  8 454.121 -0.0419999 0.476074
  9 779.081 -1.43854 0.353196
  10 777.817 -2.21438 -0.506435
  11 776.681 -1.61398 1.40413
  12 775.485 -2.10155 0.170023
  13 772.834 -1.81952 2.20230
  14 770.366 -1.81250 1.47004
  15 764.036 -1.58902 3.22948
  16 754.453 -1.30819 4.81267
  17 746.041 -1.28142 5.48301
  18 733.094 -1.59029 6.76173
  19 714.586 -0.308455 10.1721
  20 697.505 -1.16071 9.82144
  21 677.386 -1.39005 14.0365
  22 648.398 0.958942 12.3608
  23 626.897 1.61946 14.7438
  24 598.787 2.62502 11.6541
  25 579.117 3.01238 11.8069
  26 550.648 3.98144 6.05304
  27 544.544 6.22977 6.53622
  28 540.818 5.24452 -1.94949
  29 545.783 3.27419 -4.20358
  30 554.979 3.01221 -5.17529
  31 576.335 3.67044 -10.2896
  32 597.098 2.90710 -12.8996
  33 627.094 0.821915 -15.2256
  34 651.006 -0.236624 -13.6834
  35 676.122 -1.09104 -13.2762
  36 698.661 -0.924282 -9.27367
  37 717.665 -1.02537 -7.81259
  38 733.051 -1.57252 -6.44373
  39 746.586 -1.19837 -4.33163
  40 754.710 -1.49645 -4.52365
  41 762.582 -1.70889 -3.27261
  42 769.764 -1.97649 -1.24339
  43 773.354 -1.62771 -1.59606
  44 774.940 -1.12667 -0.916363
  45 772.894 -0.815258 -0.843100
  46 778.452 -2.19009 0.385850
  47 779.250 -1.48103 -0.363066
  48 757.148 -1.19401 -0.826576
  49 742.378 -3.95939 -1.61544
  50 724.037 -5.62704 -0.869926
  51 701.474 -7.91432 -1.24289
  52 679.827 -8.51682 -1.45158
  53 656.536 -10.2080 -1.41487
  54 635.751 -11.0892 -0.644908
  55 617.508 -12.0408 -0.0643207
  56 596.390 -9.88958 -0.0231303
  57 572.034 -9.05290 -0.302336
  58 548.617 -6.96777 0.103324
  59 526.493 -4.26137 0.146910
  60 505.549 -2.90752 0.206732
  61 487.310 -1.32345 0.330551
  62 468.835 -0.225890 -0.529613
  63 454.357 0.667710 0.869603
  64 447.686 1.61485 0.655798
  65 451.636 0.0899465 1.42678
  66 446.076 -0.118731 1.75382
  67 440.658 -0.222635 2.17573
  68 433.453 0.0629547 2.76509
  69 424.397 0.0444624 3.43285
  70 417.224 -0.363099 6.40381
  71 398.566 0.574105 6.95106
  72 385.122 0.0247612 7.83896
  73 365.122 -0.261491 8.92765
  74 342.217 -0.482747 10.8310
  75 313.520 -0.0576710 13.1579
  76 278.547 0.204536 14.5935
  77 247.599 -0.189921 20.9110
  78 187.732 1.86144 19.9237
  79 146.039 1.59952 21.1361
  80 95.2375 -0.495395 23.7253
  81 52.1953 3.65179 25.0532
  82 2.74946 5.64541 15.7865
  83 -34.2607 5.78035 6.49545
  84 -35.7969 5.78803 -0.648981
  85 -36.5371 4.90423 -10.5896
  86 -21.7544 -1.22586 -10.4276
  87 -2.42574 -20.8781 -11.6017
  88 2.45153 -37.9134 -14.0648
  89 6.22759 -57.5016 -6.51938
  90 13.4753 -54.2072 3.58090
  91 27.9664 2.53372 40.4551
  92 80.5619 150.424 126.846
  93 444.286 464.285 398.432
  94 1616.22 246.196 264.750
  95 1467.77 34.8998 84.8833
  96 1374.23 14.8313 25.9802
  97 1339.85 12.7850 1.89143
  98 1358.71 16.7696 -22.7875
  99 1465.91 32.9681 -67.3630
  100 1700.62 118.805 -224.885
  101 266.747 481.299 -336.160
  102 60.2051 119.813 -106.877
  103 30.7168 5.61618 -44.0521
  104 12.6897 -53.2297 -10.0684
  105 4.00613 -42.9175 7.30548
  106 4.72371 -48.0006 12.0448
  107 0.364968 -17.8730 12.8761
  108 -22.7569 -0.643907 9.81363
  109 -37.6790 3.68471 9.15437
  110 -37.7726 7.00590 0.831004
  111 -35.2954 5.65794 -6.14001
  112 0.173643 5.78469 -14.8797
  113 49.9959 3.68168 -23.9388
  114 93.0070 -0.0943732 -23.3412
  115 143.715 1.72638 -21.1680
  116 185.622 1.90626 -20.0571
  117 245.968 -0.198455 -21.0638
  118 277.158 0.222644 -14.7170
  119 312.303 -0.0547203 -13.3058
  120 341.612 -0.542981 -10.8956
  121 364.269 -0.242537 -8.94212
  122 384.469 0.0481946 -7.90897
  123 398.026 0.568332 -7.01514
  124 416.825 -0.367346 -6.45792
  125 424.069 0.0416786 -3.46569
  126 433.195 0.0602442 -2.79191
  127 440.452 -0.227185 -2.19682
  128 445.907 -0.122639 -1.76840
  129 451.489 0.0867282 -1.43594
  130 447.550 1.61363 -0.659941
  131 454.227 0.667037 -0.872257
  132 468.712 -0.229408 0.528488
  133 487.196 -1.33236 -0.333637
  134 505.450 -2.92686 -0.210296
  135 526.416 -4.28817 -0.150301
  136 548.567 -7.00657 -0.106814
  137 572.016 -9.10259 0.299472
  138 596.407 -9.94778 0.0198387
  139 617.552 -12.1074 0.0625265
  140 635.816 -11.1563 0.646872
  141 656.635 -10.2691 1.42180
  142 679.919 -8.55800 1.47655
  143 701.552 -7.95123 1.36611
  144 724.172 -5.36980 0.888255
  145 742.872 -3.87452 1.57854
  146 757.301 -1.31303 0.812569
  147 687.822 -64.7213 3.51199
  148 687.186 -63.8322 -3.27519
  149 728.852 104.282 -31.3510
  150 769.361 45.3083 64.1692
  151 583.768 -56.9048 -134.003
  152 588.658 -56.7632 129.958
  153 575.492 -23.6286 18.2877
  154 575.514 -23.9337 -18.2893
  155 810.614 29.9244 -44.4729
  156 686.097 -25.1962 10.0429
  157 685.795 -24.6261 -9.93259
  158 886.045 194.903 5.11729
  159 706.468 -1.06322 -64.8484
  160 529.504 -40.5209 -60.7156
  161 529.580 -40.2103 60.2575
  162 706.505 -16.2003 57.6200
  163 678.182 49.9361 39.6691
  164 285.325 43.8212 -160.361
  165 314.602 41.6792 168.685
  166 849.672 11.7769 -6.53408
  167 706.173 -27.5006 -38.1987
  168 928.086 203.802 6.68598
  169 639.044 -18.2044 -2.67790
  170 638.926 -18.1666 2.72025
  171 709.780 -9.53946 -4.22497
  172 711.691 -8.68532 3.59121
  173 514.819 -6.72561 -10.1676
  174 514.898 -6.66152 10.1291
  175 753.561 -17.3122 170.695
  176 658.329 27.9428 -42.8606
  177 434.951 -32.0120 -95.2909
  178 436.195 -31.7890 94.7644
  179 490.588 -15.1051 -31.7572
  180 490.651 -14.9442 31.5675
  181 709.144 -19.1256 32.5599
  182 647.172 -44.0970 -7.25763
  183 645.092 -43.7697 8.15758
  184 728.342 -70.9781 -21.8300
  185 732.384 -67.6229 12.9327
  186 1000.06 236.639 -45.5280
  187 742.466 118.369 29.1326
  188 740.309 45.5283 -66.1122
  189 749.605 -2.98737 -196.507
  190 730.685 -41.6597 -42.3912
  191 737.174 -29.8792 51.4432
  192 617.692 -69.9591 68.6531
  193 617.687 -69.4298 -68.4889
  194 667.564 8.86868 51.1364
  195 313.708 -8.31447 -117.321
  196 314.371 -8.90289 116.692
  197 1118.29 166.073 24.8173
  198 693.361 -41.5768 20.9108
  199 717.054 -13.8480 -20.5280
  200 579.207 -13.7296 -8.79860
  201 579.233 -13.6741 8.77907
  202 694.528 -9.14093 -44.7928
  203 787.439 115.307 -51.1013
  204 668.564 60.5154 -7.91026
  205 444.421 -14.7942 43.8541
  206 443.803 -14.8285 -44.1243
  207 725.181 -8.87902 10.5138
  208 714.557 13.5174 66.8785
  209 584.772 -41.5860 -31.7982
  210 581.292 -39.3479 32.2633
  211 835.044 124.264 43.3345
  212 966.260 141.160 39.1035
  213 73.2562 55.0283 -49.7466
  214 67.9643 50.8579 42.5734
  215 406.938 118.981 276.230
  216 686.652 -45.7891 -14.3290
  217 727.338 -8.51113 -9.46696
  218 660.860 6.23047 -47.1572
  219 475.245 -4.16468 -14.1851
  220 475.401 -4.12001 14.0863
  221 622.537 -28.8336 -9.61295
  222 622.834 -29.0363 9.27449
  223 699.522 -9.60299 37.8095
  224 792.477 -45.4438 29.2511
  225 799.928 161.492 -14.3497
  226 627.474 -60.0371 -35.3756
  227 784.637 -13.6955 35.9960
  228 672.789 -12.0161 0.760264
  229 672.783 -11.9313 -0.760449
  230 623.294 -59.7656 36.3941
  231 709.780 -45.4084 33.6940
  232 974.694 136.973 -79.6049
  233 227.968 135.564 -205.065
  234 617.263 22.4828 10.4039
  235 718.922 63.3835 56.6171
  236 758.294 -5.45319 -55.9630
  237 711.323 -25.8851 -52.9701
  238 395.635 -11.9984 -54.3900
  239 396.862 -11.8282 54.2712
  240 711.750 -9.02127 -28.5884
  241 677.634 -17.7528 4.38669
  242 677.326 -17.7469 -4.15820
  243 154.407 12.8599 -77.1431
  244 156.455 11.2545 76.8432
  245 747.393 -65.7023 -67.5803
  246 738.378 -3.51783 1.09639
  247 739.015 -3.57492 -1.30165
  248 703.633 58.5418 -52.1790
  249 627.853 12.7952 31.2517
  250 1242.67 198.934 134.293
  251 1231.08 140.264 -83.0272
  252 917.784 195.116 1.92077
  253 574.410 -28.3152 176.528
  254 529.117 -19.1250 -184.162
  255 611.536 -12.5468 -3.72752
  256 611.492 -12.4814 3.70832
  257 516.900 -12.9723 20.1330
  258 516.872 -13.1387 -20.2748
  259 725.809 -8.49259 16.7840
  260 706.744 -50.6390 -26.1671
  261 479.118 -0.579469 -3.43027
  262 479.241 -0.567151 3.41451
  263 698.038 -28.7794 -21.4426
  264 312.603 -9.87603 -75.9601
  265 313.758 -9.90450 75.4903
  266 707.624 -31.0634 41.2663
  267 544.986 -57.8661 107.993
  268 546.182 -58.8917 -107.650
  269 625.188 24.7626 -14.5533
  270 539.939 -7.71459 -6.89570
  271 539.999 -7.66964 6.87592
  272 671.366 -1.47321 37.4021
  273 794.941 144.296 35.0745
  274 443.722 -4.85207 23.4569
  275 443.414 -4.88861 -23.6212
  276 723.949 -60.9273 14.7227
  277 670.097 -75.6823 -76.4000
  278 741.794 -4.40334 4.62396
  279 532.016 -30.3215 -42.0091
  280 531.230 -30.0048 41.8858
  281 892.893 109.540 246.799
  282 444.713 -36.1788 127.645
  283 711.320 99.5606 -3.30721
  284 879.404 100.354 -21.2123
  285 671.503 -51.8518 1.38143
  286 670.920 -77.6984 69.6212
  287 445.874 -35.6372 -128.912
  288 86.2033 106.982 100.158
  289 698.161 -28.8545 21.8735
  290 904.318 121.871 12.7119
  291 746.781 -3.94425 -4.01383
  292 691.717 24.5846 -60.1223
  293 676.479 -38.4103 8.89273
  294 662.965 -55.7640 8.60474
  295 689.711 31.9691 58.0907
  296 720.733 -60.8925 -12.3288
  297 1011.99 194.365 -20.3421
  298 676.308 -36.9461 -8.45011
  299 547.540 166.380 -333.437
  300 689.204 -73.2721 -21.7157
  301 684.554 -75.3088 29.3566
  302 512.851 -45.6211 -84.5355
  303 474.597 -1.45808 -7.36316
  304 474.738 -1.43195 7.31865
  305 513.132 -45.6794 84.1375
  306 731.916 -1.28869 -65.8140
  307 782.427 -32.4015 -20.0503
  308 606.607 -35.8008 -18.8149
  309 606.313 -35.8881 19.1173
  310 711.090 -61.2392 118.481
  311 717.040 -6.15207 21.6062
  312 856.405 7.80918 51.9776
  313 595.996 -20.5432 -10.7636
  314 596.052 -20.4933 10.7213
  315 548.109 -13.5338 -13.8649
  316 548.133 -13.4205 13.8534
  317 622.118 8.90133 -30.1965
  318 778.311 57.2608 -61.7139
  319 1174.43 320.899 -159.344
  320 705.436 -7.22387 -1.26173
  321 705.102 -7.13642 1.31719
  322 388.682 -2.05103 159.409
  323 544.365 -23.6505 -28.6364
  324 543.473 -23.5985 28.7182
  325 388.603 -3.02726 -158.794
  326 746.594 87.9242 -54.2310
  327 824.535 41.8030 41.1277
  328 710.382 -50.5993 -130.618
  329 662.120 -25.8074 2.14260
  330 661.506 -25.6492 -1.88807
  331 702.594 -15.4107 -9.48635
  332 671.727 -1.13044 -34.9406
  333 744.289 2.96669 63.7181
  334 736.949 -5.81068 -11.3883
  335 460.266 -26.8316 64.1163
  336 459.771 -26.9626 -64.5331
  337 697.262 -1.44836 61.8778
  338 447.440 -3.17392 -14.0899
  339 447.706 -3.14566 13.9864
  340 708.194 -17.0355 16.2456
  341 851.155 172.634 -22.6178
  342 702.365 -15.4974 9.91110
  343 754.431 94.3218 54.1596
  344 720.251 -13.6093 62.6550
  345 578.786 -10.5231 3.44216
  346 578.777 -10.5762 -3.45793
  347 686.297 -2.29491 -55.0659
  348 896.091 187.600 10.0285
  349 754.564 136.956 1.10423
  350 460.294 52.9874 -234.439
  351 55.0361 21.1996 -35.9275
  352 59.5355 22.9883 38.2914
  353 -0.337494 6.48273 12.0844
  354 2.11109 4.34550 -12.7940
  355 1265.80 88.0719 29.2953
  356 624.254 -50.0103 -22.7561
  357 708.594 -16.5128 -15.8213
  358 644.269 -11.8003 -0.187861
  359 644.200 -11.7212 0.181304
  360 695.154 76.8884 -28.3187
  361 590.794 -59.4558 56.6240
  362 55.8180 84.2677 -64.4918
  363 591.200 -59.4026 -57.4981
  364 703.507 80.0547 30.1065
  365 708.951 -19.4674 -30.8207
  366 748.980 -42.1904 -33.8360
  367 805.216 167.694 9.77601
  368 750.149 -47.3291 25.9898
  369 330.651 -7.66885 50.6676
  370 328.941 -7.51530 -50.9263
  371 191.666 4.04973 -71.9424
  372 193.311 3.37655 71.6486
  373 630.691 2.71706 30.4119
  374 1139.22 342.020 145.134
  375 730.097 -5.18060 -15.0707
  376 577.670 -47.7015 -43.8217
  377 577.313 -47.6234 43.7710
  378 706.297 -16.6913 -40.3216
  379 794.077 -38.2717 -6.26824
  380 624.232 -49.9834 23.2951
  381 863.257 10.3273 -84.6249
  382 514.933 -3.63415 -2.91596
  383 515.022 -3.60621 2.90264
  384 697.346 -4.25247 -26.3813
  385 393.598 -5.16115 -32.8757
  386 393.786 -5.34023 32.5221
  387 825.214 106.060 -49.2423
  388 450.713 31.3254 218.683
  389 651.126 -34.0616 -2.10676
  390 651.736 -34.0162 2.08823
  391 766.680 128.745 -33.7211
  392 722.296 -21.6631 -58.6658
  393 717.734 -73.7951 68.9936
  394 609.536 -16.0326 -6.00867
  395 609.486 -15.9742 5.97063
  396 695.685 -53.8634 15.1690
  397 742.913 -4.10976 8.33179
  398 482.888 -16.5288 -39.3610
  399 483.084 -16.5448 39.0836
  400 711.693 24.0952 -66.1725
  401 667.858 -15.1480 0.996054
  402 667.819 -15.1926 -0.927160
  403 694.820 -8.33978 49.9825
  404 655.974 48.4677 13.8667
  405 716.131 -30.6309 50.2969
  406 1021.23 211.855 43.6756
  407 359.419 -19.1623 -102.162
  408 360.327 -19.1580 101.484
  409 163.062 84.9648 -126.987
  410 755.450 -2.95178 1.96971
  411 410.474 -2.99384 -20.8691
  412 410.947 -2.93069 20.7202
  413 706.631 -18.8420 39.2449
  414 641.729 -69.3664 40.5934
  415 717.891 -9.89541 6.64899
  416 738.890 37.4868 68.0968
  417 170.010 90.4657 131.629
  418 642.591 -68.9197 -37.8630
  419 663.317 -61.4414 -13.4302
  420 233.237 -4.60519 -64.5712
  421 234.667 -4.75577 64.1803
  422 512.657 -41.9857 -153.887
  423 758.050 -11.6077 54.2354
  424 511.062 -42.4980 152.671
  425 702.311 -39.7932 -30.2904
  426 663.960 45.4786 -30.1087
  427 702.316 -30.8576 29.2193
  428 747.144 -4.07625 -5.28767
  429 25.7026 29.3227 16.1678
  430 158.672 189.113 184.866
  431 682.883 -2.46158 25.7561
  432 587.536 8.77772 13.3740
  433 596.252 10.5194 -18.0552
  434 508.873 -7.63558 -14.2162
  435 508.945 -7.54447 14.1462
  436 692.355 -53.8076 -13.3341
  437 702.848 -13.9710 -55.5293
  438 590.180 11.9268 -4.89790
  439 1019.44 244.394 61.6532
  440 152.982 48.0966 -95.7043
  441 167.614 44.0956 101.611
  442 650.521 -23.3437 -1.01917
  443 650.301 -23.3138 1.16728
  444 864.295 187.761 -1.51606
  445 524.016 237.939 340.689
  446 821.204 -10.2475 1.35535
  447 490.978 -24.4891 -53.3921
  448 491.224 -24.3418 53.0129
  449 497.085 -10.2230 21.6523
  450 496.976 -10.2883 -21.8078
  451 659.570 15.2755 -48.7333
  452 758.682 -1.71832 -1.22906
  453 644.001 30.3667 27.6243
  454 796.357 98.2525 55.9150
  455 665.013 -49.2428 0.563162
  456 717.505 -9.48599 -6.49585
  457 749.831 -3.75906 4.86143
  458 756.346 -1.86703 0.693658
  459 756.819 -2.02760 -0.452256
  460 446.609 -0.574473 5.32110
  461 446.391 -0.584255 -5.36405
  462 724.353 -46.4917 36.6325
  463 665.499 26.8541 47.2241
  464 690.743 2.99907 -60.6250
  465 713.201 -15.7761 22.2365
  466 993.829 188.693 -214.068
  467 716.275 -40.1425 -42.6724
  468 11.7621 14.3535 8.63692
  469 11.4961 14.7766 -5.07425
  470 576.367 -31.6538 25.8982
  471 574.629 -31.1863 -25.5200
  472 870.482 23.1633 120.322
  473 249.288 240.309 -263.386
  474 709.156 -2.44971 19.5335
  475 789.698 -45.1474 -72.5553
  476 441.298 -24.4458 73.8741
  477 855.663 152.203 -32.7475
  478 706.176 -38.6457 35.1680
  479 600.031 -27.9870 -14.5823
  480 600.540 -27.5499 14.5613
  481 630.555 3.65433 -26.8049
  482 440.011 -24.3279 -74.2398
  483 644.324 0.631518 26.7930
  484 606.526 -69.6593 -98.1010
  485 605.073 -69.7646 98.5852
  486 726.722 -5.30123 16.7209
  487 673.520 63.9474 5.71352
  488 662.610 14.3051 236.596
  489 980.701 196.553 -1.21708
  490 682.292 -12.3529 2.07106
  491 682.313 -12.3136 -2.22074
  492 539.388 -8.90044 -9.46933
  493 539.442 -8.83570 9.44540
  494 288.540 11.8420 135.437
  495 709.733 -34.5968 -42.3350
  496 646.159 -14.4525 -1.41437
  497 646.097 -14.4156 1.42024
  498 566.066 -59.3911 80.1092
  499 293.778 15.8523 -138.711
  500 709.093 -58.1473 -15.4979
  501 14.2342 6.78045 2.00404
  502 635.674 33.7131 2.08057
  503 684.236 -8.88415 -0.594118
  504 684.235 -8.98343 0.561840
  505 566.258 -59.2562 -80.6755
  506 790.183 -39.3155 89.2439
  507 791.596 28.9279 55.5608
  508 727.037 -5.94339 -2.95526
  509 706.961 -58.9258 15.8902
  510 466.895 -0.205790 -1.04129
  511 467.022 -0.202459 1.03556
  512 708.194 -27.5525 -46.1344
  513 693.179 51.5356 51.2187
  514 782.358 19.5265 -55.0579
  515 464.029 -0.491911 -3.01682
  516 464.169 -0.483691 3.00140
  517 1317.45 190.829 -168.463
  518 719.584 85.4540 44.6671
  519 727.543 -5.59264 2.59263
  520 664.664 -62.8301 15.0727
  521 568.357 -18.0599 14.7405
  522 568.330 -18.1802 -14.7109
  523 766.459 -47.0696 8.97623
  524 741.606 -15.1416 -58.4159
  525 830.569 162.193 29.4195
  526 696.502 12.2149 62.9643
  527 694.216 -14.2266 5.26328
  528 673.025 -72.4813 -96.1604
  529 704.085 -17.7883 46.3263
  530 1298.98 60.1785 -23.4562
  531 760.330 -57.6544 9.77049
  532 722.565 -5.83682 -0.492312
  533 722.741 -6.13564 0.356751
  534 1312.51 87.9766 81.3819
  535 680.713 -0.00623549 53.5811
  536 930.064 161.304 0.659643
  537 707.197 -19.9503 -21.1165
  538 342.166 -2.88561 -22.4319
  539 343.044 -2.74318 22.2314
  540 488.532 -45.4620 -107.112
  541 488.994 -44.7094 106.392
  542 693.821 -13.6962 -5.25318
  543 757.441 27.8189 -64.9353
  544 666.870 -45.3090 2.03295
  545 722.486 82.7519 -46.1598
  546 719.767 -9.02268 22.4484
  547 888.165 48.9855 -25.2968
  548 622.284 -21.1521 -6.37355
  549 622.133 -21.1037 6.32811
  550 671.209 -31.8839 5.77663
  551 971.575 198.693 -31.2756
  552 711.278 31.2476 65.2769
  553 308.506 78.8256 198.786
  554 675.119 -40.2554 161.374
  555 875.795 51.5862 -179.784
  556 726.810 60.1891 -60.3504
  557 637.088 -55.7150 -140.482
  558 691.237 -76.1265 -35.0285
  559 719.052 -73.3844 -47.9452
  560 99.6802 134.315 -126.661
  561 723.624 -10.0676 -12.7326
  562 1075.44 208.173 -65.8888
  563 674.516 -30.6983 -7.17899
  564 679.306 -22.6388 6.00616
  565 678.706 -22.1656 -5.64366
  566 488.413 -2.32124 -6.78270
  567 488.530 -2.29163 6.74966
  568 78.9785 6.83269 -40.9163
  569 82.4104 7.19283 41.7905
  570 365.251 -16.3151 -77.5946
  571 367.764 -16.4147 77.5499
  572 688.818 -37.6815 -17.2117
  573 698.728 -76.4536 37.3709
  574 718.031 -68.6554 -5.31131
  575 599.212 -10.5189 -2.86393
  576 599.190 -10.4579 2.85226
  577 564.126 -59.6088 -119.988
  578 625.601 -51.9285 148.118
  579 551.398 -56.1363 120.525
  580 710.860 -15.9830 -59.3915
  581 463.098 -6.96950 23.8299
  582 462.880 -7.03695 -23.9878
  583 684.311 38.3234 -51.6023
  584 683.222 -1.22597 -23.3641
  585 845.931 181.061 -12.5365
  586 563.642 -8.10466 -2.59005
  587 563.672 -8.06032 2.58087
  588 720.882 -2.34082 -12.7192
  589 512.663 -16.2620 -27.1102
  590 512.709 -16.2199 26.9172
  591 412.964 17.7245 188.934
  592 701.699 -32.7355 -29.4456
  593 401.558 -21.9330 136.162
  594 689.672 -36.0820 17.7900
  595 722.172 -11.0494 14.2205
  596 711.831 -7.57306 -2.46058
  597 519.961 -5.81797 -6.54118
  598 520.042 -5.77562 6.51750
  599 812.511 160.574 -27.1549
  600 401.256 -21.2135 -136.579
  601 687.285 -30.2231 -13.6910
  602 625.052 -11.8137 -1.75372
  603 624.996 -11.7422 1.74771
  604 1135.89 151.819 -27.7088
  605 433.190 -2.42686 12.9948
  606 432.854 -2.44903 -13.0937
  607 652.791 15.5545 44.6072
  608 900.909 80.4748 5.37056
  609 438.870 1.64737 -187.236
  610 235.052 4.84821 -103.973
  611 236.764 3.65866 103.437
  612 553.981 -31.1987 34.4115
  613 559.211 -32.1216 -33.6442
  614 917.873 186.324 3.43203
  615 709.249 -7.81002 2.10809
  616 628.181 18.5133 -27.1066
  617 768.901 136.898 26.6991
  618 766.622 141.961 -17.7947
  619 629.903 -34.5080 -9.93853
  620 634.338 -33.7945 7.77551
  621 448.082 99.4943 -266.432
  622 549.600 -17.8926 -19.5919
  623 549.667 -17.7058 19.5471
  624 1313.72 269.983 203.506
  625 709.039 -23.5658 50.3220
  626 421.859 -14.0036 -49.6139
  627 1060.54 269.966 189.997
  628 422.753 -13.9391 49.4717
  629 668.852 -24.9160 -186.845
  630 496.582 -1.97134 -2.48935
  631 496.689 -1.95484 2.48014
  632 608.724 5.95072 23.6926
  633 288.424 -3.95759 -44.4190
  634 289.742 -3.96992 44.1222
  635 622.177 -43.4143 18.3661
  636 649.960 -51.6903 -10.1449
  637 754.169 -2.05653 -4.64752
  638 453.601 -0.535774 4.02439
  639 453.422 -0.546591 -4.05560
  640 591.106 -13.0687 -4.87633
  641 591.100 -13.0104 4.85226
  642 665.774 -74.4428 96.8710
  643 769.679 85.8945 -58.9533
  644 523.903 -23.2959 -34.8325
  645 523.599 -22.9184 34.6192
  646 611.523 -43.2023 -23.2067
  647 947.854 204.602 12.9003
  648 714.072 -69.5035 9.01542
  649 627.173 -15.1646 -3.64412
  650 627.095 -15.1081 3.63876
  651 849.297 94.4774 37.8515
  652 717.061 -11.0104 -24.3641
  653 647.550 -0.539876 -21.7634
  654 308.908 -10.6187 -98.1662
  655 309.706 -10.8746 97.4646
  656 609.403 -51.7973 -34.7277
  657 904.353 195.866 -0.326381
  658 711.287 96.0558 -20.1299
  659 485.427 -3.86146 -12.2240
  660 485.552 -3.80991 12.1488
  661 657.641 -19.0018 0.241088
  662 657.761 -19.0037 -0.125380
  663 1187.25 154.237 68.4169
  664 761.945 -2.55743 1.07119
  665 742.753 -3.41177 8.29346
  666 740.526 -3.39111 -9.96652
  667 706.268 -66.0823 1.47169
  668 535.779 -5.72632 -3.26296
  669 535.845 -5.69162 3.25240
  670 760.953 121.074 41.5167
  671 962.169 212.621 -20.8607
  672 541.072 -38.9909 -49.3418
  673 540.994 -38.6420 49.1429
  674 665.056 -68.3871 -21.5666
  675 707.004 42.2491 -61.6231
  676 822.934 3.03650 16.0096
  677 563.733 -10.0141 -6.94598
  678 563.766 -9.96138 6.92609
  679 487.622 -42.1971 -96.6312
  680 699.863 -67.9543 4.70134
  681 586.531 -64.9608 88.4205
  682 286.008 88.9641 -192.189
  683 551.941 -50.2952 68.2245
  684 666.342 0.205371 19.9112
  685 488.111 -41.7393 96.0647
  686 686.917 -30.7617 13.8585
  687 552.019 -50.0586 -68.7559
  688 578.943 8.16530 5.00605
  689 449.441 -11.1912 35.5779
  690 449.075 -11.1913 -35.7781
  691 586.666 -66.6331 -89.3490
  692 719.878 -47.8307 -35.3125
  693 662.136 -10.0431 -0.0447006
  694 662.239 -10.1290 0.0458801
  695 734.536 -47.2909 34.1353
  696 669.730 -69.9602 24.4163
  697 810.214 74.7904 53.6244
  698 734.176 -14.0786 60.9785
  699 706.582 -25.8809 35.8879
  700 684.257 56.6740 -39.1459
  701 811.956 135.929 42.8253
  702 703.159 -9.98102 -36.4757
  703 697.358 -23.7526 16.4287
  704 729.302 113.478 10.8102
  705 710.843 -12.5264 31.0231
  706 229.442 157.848 202.214
  707 660.297 -76.1898 -59.1305
  708 764.197 13.7702 61.1096
  709 768.820 -23.9446 -39.6755
  710 759.752 -1.50374 2.36653
  711 705.293 -24.8489 -27.3955
  712 661.452 -76.7712 54.3973
  713 1237.46 109.971 -18.1929
  714 416.726 -1.51904 13.5693
  715 416.292 -1.53427 -13.6739
  716 712.619 -13.8114 -11.7314
  717 763.772 -1.18951 -2.36658
  718 608.462 -52.6591 34.8911
  719 724.727 -27.3440 54.6942
  720 1071.68 268.548 -99.4164
  721 687.052 -49.9378 12.5852
  722 756.604 -50.2018 -15.1021
  723 697.566 -23.1604 -16.1456
  724 762.360 -1.84867 -0.565628
  725 710.892 -0.144233 65.4602
  726 35.0498 41.2718 47.9105
  727 784.042 -27.9720 -127.153
  728 858.066 53.2887 17.7195
  729 718.693 -73.8781 43.9573
  730 529.888 -11.9220 15.9131
  731 529.863 -12.0754 -15.9689
  732 645.138 361.939 -356.555
  733 734.703 -49.0421 -30.8024
  734 576.917 3.74785 -9.58757
  735 658.423 3.99697 43.1534
  736 711.304 -36.0015 42.8970
  737 681.764 -57.4575 2.15093
  738 702.345 -64.6115 -104.208
  739 677.991 -53.6432 -3.74632
  740 791.857 -37.7020 3.46906
  741 730.701 -6.87073 6.65243
  742 659.778 -39.5379 -0.0805846
  743 1165.80 232.866 -127.163
  744 700.000 -19.4793 12.6574
  745 699.793 11.7073 -64.5511
  746 589.323 -5.99161 208.976
  747 746.454 60.0020 64.6673
  748 642.688 -50.1862 13.2047
  749 504.836 -38.7081 -71.0600
  750 504.942 -38.6271 70.5685
  751 689.903 77.7619 -9.05161
  752 696.472 -8.16029 56.9009
  753 702.135 -16.9420 -47.5793
  754 660.482 -40.3878 -0.0720417
  755 639.548 -56.8373 22.9256
  756 734.548 120.283 -12.0084
  757 680.969 -58.9597 0.514613
  758 682.894 -43.3954 12.6676
  759 689.341 -9.79645 1.50605
  760 689.702 -9.56863 -1.47976
  761 925.590 200.733 -1.57351
  762 753.620 -64.4541 -33.4281
  763 707.333 -22.2514 27.4473
  764 730.676 -6.88066 -5.93223
  765 745.159 4.84093 -64.3819
  766 839.895 45.9723 -29.8069
  767 438.807 -0.218441 -6.45467
  768 439.075 -0.213358 6.40335
  769 7.16382 -10.1091 -6.81474
  770 722.481 -1.11177 11.7233
  771 671.192 -0.729578 -47.3583
  772 689.762 -6.50022 41.0150
  773 613.571 82.9544 301.744
  774 783.873 159.028 -1.44870
  775 562.752 -39.1275 39.6213
  776 112.133 1.99438 -39.6446
  777 114.658 1.42607 40.0391
  778 684.607 -4.80531 -46.5996
  779 564.062 -39.4833 -39.6466
  780 726.531 -7.52354 4.75199
  781 391.430 -15.9554 66.0661
  782 388.370 -15.8875 -66.0231
  783 699.901 -18.9477 -12.3015
  784 465.667 -10.8311 -31.1188
  785 465.889 -10.7702 30.8946
  786 727.272 -7.57885 -16.4747
  787 568.382 -14.5557 -11.8330
  788 568.419 -14.4761 11.8401
  789 792.251 -4.72018 -38.9587
  790 720.057 -7.65049 -64.9768
  791 387.221 -2.19722 -17.1214
  792 387.854 -2.17627 16.9512
  793 27.1455 9.34773 -25.4647
  794 30.1248 9.88802 26.6947
  795 600.701 3.12435 -17.1675
  796 655.965 -73.6813 -45.7896
  797 -7.09478 -4.74856 12.6790
  798 -6.37584 -5.90983 -12.8193
  799 681.689 -14.4496 3.53945
  800 736.590 -57.9431 -12.8603
  801 767.538 113.202 -48.1566
  802 729.215 -6.83093 -4.55095
  803 1487.07 309.043 -278.815
  804 681.544 -14.4191 -3.48167
  805 1014.71 190.824 18.6328
  806 732.614 21.3585 -68.0652
  807 803.469 61.2192 -55.4238
  808 153.049 -1.73560 -36.1151
  809 155.255 -1.92996 36.0641
  810 474.307 -6.19394 18.7304
  811 474.136 -6.24003 -18.8618
  812 458.067 -0.831852 3.56454
  813 457.913 -0.841270 -3.58609
  814 815.710 136.961 -42.1030
  815 500.661 -2.63221 -5.42773
  816 500.765 -2.60362 5.40599
  817 698.517 -6.99752 -59.5162
  818 974.012 112.650 102.449
  819 638.340 15.0149 -37.6266
  820 235.855 -1.95566 38.1167
  821 234.261 -1.97481 -38.3737
  822 787.978 27.4356 220.146
  823 712.082 -13.9211 12.1037
  824 652.318 44.0143 -15.6395
  825 316.980 -0.322935 25.6339
  826 315.652 -0.184932 -25.7916
  827 465.195 -1.96912 -9.29186
  828 465.368 -1.94081 9.22583
  829 85.7488 75.3153 69.2052
  830 675.696 16.5762 55.2851
  831 747.252 109.234 -41.9806
  832 797.689 92.8914 -56.3912
  833 537.210 -19.2815 -25.0313
  834 536.954 -19.1633 25.0252
  835 828.811 174.084 18.3449
  836 708.845 -6.95327 -0.446478
  837 708.906 -6.90455 0.554602
  838 706.993 -21.7314 -36.6540
  839 598.333 -39.0187 25.2719
  840 652.325 -73.2451 45.7876
  841 757.040 -61.9552 70.2256
  842 594.524 -16.8641 -8.18778
  843 594.536 -16.8193 8.15173
  844 681.048 63.4962 25.2610
  845 643.337 9.37781 -40.4976
  846 177.695 229.211 209.955
  847 641.396 -56.3477 -21.4069
  848 644.068 -28.6997 -3.30348
  849 644.399 -28.7892 3.25549
  850 708.161 -10.5789 62.0236
  851 698.969 -46.2320 -23.8130
  852 628.650 -41.0489 -13.5244
  853 1358.24 43.9425 -65.0925
  854 598.792 -55.8295 45.8146
  855 598.254 -56.5134 -46.4587
  856 706.310 -8.72352 30.9073
  857 1041.93 273.542 -74.6566
  858 564.430 -50.2150 -55.1295
  859 618.321 -69.1834 54.3819
  860 564.377 -49.6473 54.7074
  861 610.093 -24.1279 -9.98259
  862 610.104 -24.0702 9.93386
  863 97.8586 39.1445 59.7874
  864 758.323 56.7238 -64.6373
  865 587.801 -22.3049 -13.6314
  866 587.922 -22.1025 13.6703
  867 581.886 -9.38907 -1.69003
  868 581.889 -9.33634 1.68224
  869 633.526 -12.9203 -1.66112
  870 633.459 -12.8517 1.65277
  871 526.450 -9.54790 -13.6445
  872 526.511 -9.45061 13.6038
  873 589.407 -30.1330 -19.6888
  874 589.500 -29.9628 19.7775
  875 15.9598 1.60767 -11.5023
  876 872.378 164.154 26.2299
  877 751.835 -26.6999 -48.3406
  878 617.690 -68.1562 -54.8453
  879 665.265 -21.8326 1.99339
  880 664.998 -21.6377 -1.84291
  881 726.107 0.762122 66.4509
  882 777.592 -55.2907 -44.5036
  883 683.304 54.6603 -263.380
  884 328.443 -6.37228 132.993
  885 -5.81051 7.65574 -11.2378
  886 -4.43296 8.67266 12.1524
  887 97.4772 41.6109 -61.1363
  888 706.305 -20.9932 20.8741
  889 737.947 -5.60135 -8.61164
  890 665.668 -64.6517 117.637
  891 327.727 -6.10982 -133.452
  892 741.752 -61.2964 5.58948
  893 815.385 -21.1424 106.830
  894 619.646 2.67044 18.1431
  895 699.569 66.7008 42.6524
  896 388.133 -21.4818 96.7619
  897 386.740 -21.6497 -97.3079
  898 464.151 -20.9987 -54.5014
  899 476.477 -24.5086 -168.352
  900 745.351 -17.7850 56.2207
  901 1007.90 243.222 53.4634
  902 750.469 28.7438 65.9228
  903 709.120 -15.6161 -33.7831
  904 485.865 -21.9460 172.459
  905 896.079 166.966 -14.5985
  906 96.4907 80.2964 -84.3699
  907 664.691 -1.17473 -18.9924
  908 464.615 -20.8408 54.0943
  909 559.621 -11.7707 10.2801
  910 559.585 -11.8374 -10.2943
  911 699.905 -45.9740 24.8128
  912 720.549 -5.64672 1.53281
  913 534.465 4.29224 -207.843
  914 756.765 -2.05707 4.04051
  915 752.691 -1.74134 -5.38032
  916 588.842 5.48539 -15.8891
  917 732.523 -3.15911 -10.2859
  918 560.226 -25.1898 -23.9253
  919 560.589 -24.8421 24.0102
  920 -16.1150 7.38019 -8.95983
  921 -23.3000 4.46123 9.91369
  922 720.490 -5.30751 -1.62596
  923 255.657 -6.06051 89.9785
  924 254.379 -5.58009 -90.4254
  925 778.877 113.059 50.3182
  926 1328.38 24.2345 19.7563
  927 736.012 81.6181 54.8719
  928 816.153 -27.2452 39.5026
  929 719.265 -40.4512 42.6050
  930 892.230 186.337 -11.3239
  931 578.060 2.97528 12.0027
  932 691.048 -17.0622 -6.61617
  933 723.680 39.0573 -66.6176
  934 857.242 28.2153 0.453748
  935 675.956 -41.8408 -8.70471
  936 367.045 -1.78239 -19.0610
  937 367.315 -1.71753 18.8199
  938 711.155 -17.3725 -25.3562
  939 27.2912 33.3989 10.9712
  940 683.031 -70.8995 -15.5815
  941 610.072 19.0091 -1.63465
  942 887.890 193.045 -7.45668
  943 148.302 109.738 -135.254
  944 689.757 -5.17734 -36.7495
  945 492.082 -7.45849 -17.7110
  946 492.192 -7.37762 17.5939
  947 5.27754 -18.2074 13.4181
  948 477.002 -34.4909 -78.1921
  949 696.459 -40.6083 -23.4045
  950 457.465 1.00440 -1.51995
  951 457.600 1.00773 1.51263
  952 711.237 86.2369 -33.8814
  953 743.888 -3.06172 -0.799439
  954 743.951 -3.08330 1.09271
  955 477.255 -34.4197 77.7439
  956 707.589 -1.22834 -14.2851
  957 804.554 6.20211 36.6089
  958 715.420 -10.9862 9.07396
  959 125.519 29.3930 -73.5074
  960 739.113 -5.23073 7.71561
  961 684.195 5.87806 58.7695
  962 721.234 99.4825 30.0901
  963 717.549 8.38832 -67.8398
  964 505.200 -25.8949 -47.5315
  965 766.558 -27.5573 37.9043
  966 505.536 -25.8180 47.1262
  967 26.4447 27.5193 -6.65789
  968 95.0824 14.5259 54.0811
  969 421.004 -6.79902 31.9038
  970 420.553 -6.79352 -32.0438
  971 691.544 -17.3363 7.10961
  972 751.385 129.518 16.2683
  973 385.473 33.9269 -198.239
  974 627.647 -38.6694 12.2652
  975 589.533 -61.0531 -66.4456
  976 850.884 162.351 30.0448
  977 657.488 -12.1733 -0.588853
  978 657.457 -12.1199 0.580210
  979 715.954 -14.0158 -17.5811
  980 675.260 58.8051 -23.2834
  981 1423.61 439.104 293.764
  982 152.436 7.48120 -69.1159
  983 154.362 6.18926 69.2235
  984 11.3960 -6.97334 7.32129
  985 676.285 38.0403 47.7966
  986 589.512 -61.4520 66.0215
  987 724.412 -34.5771 -49.6495
  988 787.074 64.3793 61.9458
  989 748.843 -60.4660 -83.6484
  990 1086.81 227.970 81.3836
  991 646.667 -10.9622 -0.816061
  992 646.588 -10.8875 0.814697
  993 750.948 -31.0569 45.3204
  994 54.3500 104.941 99.2632
  995 358.808 -6.97570 45.4302
  996 357.852 -6.88331 -45.8339
  997 421.261 -19.6027 62.5587
  998 419.936 -19.2780 -62.7360
  999 471.780 -18.4253 45.4898
  1000 515.719 -3.56493 -2.37874
  1001 515.807 -3.54139 2.37136
  1002 1190.89 402.481 -262.234
  1003 1104.88 278.167 122.836
  1004 471.413 -18.5022 -45.8046
  1005 772.922 -3.74718 50.4141
  1006 702.711 73.0211 -40.9029
  1007 496.887 -43.3615 139.888
  1008 630.983 -74.7173 -79.1967
  1009 719.792 -6.31305 -20.4032
  1010 334.230 21.2277 162.562
  1011 428.260 -32.5322 111.620
  1012 649.924 34.0681 -30.1661
  1013 729.240 -14.6900 -61.9554
  1014 877.995 403.364 401.831
  1015 618.271 19.6904 21.6748
  1016 821.922 174.434 -2.28366
  1017 595.923 24.8745 -235.325
  1018 615.583 -64.1494 -47.4517
  1019 763.806 -1.33248 -1.88913
  1020 748.300 68.7046 -62.9073
  1021 457.960 -2.50924 11.7694
  1022 457.751 -2.53380 -11.8567
  1023 17.8106 19.4090 -29.3490
  1024 506.273 -21.9790 -39.7978
  1025 427.717 -32.9395 -112.351
  1026 505.965 -21.9498 39.4359
  1027 713.858 -22.0147 57.3744
  1028 642.295 -39.3691 -6.97325
  1029 679.443 12.8821 -57.1418
  1030 699.758 87.3166 11.9516
  1031 916.413 62.6626 49.8224
  1032 704.819 -53.8372 22.5931
  1033 458.336 -35.7397 -85.5510
  1034 674.817 24.4119 -53.7745
  1035 500.716 -42.8394 -140.479
  1036 944.983 201.983 -6.49338
  1037 658.969 43.9040 27.4416
  1038 809.504 -4.01550 -24.9150
  1039 619.315 -64.2228 44.3472
  1040 706.814 -22.8129 43.6562
  1041 700.967 -37.3644 28.8608
  1042 697.092 -35.4313 24.4222
  1043 854.628 110.125 -39.4662
  1044 699.663 -11.5072 45.6802
  1045 630.205 -74.9217 77.9923
  1046 672.575 -27.8338 5.28859
  1047 458.631 -35.8282 85.1712
  1048 634.499 -46.1476 -14.5521
  1049 378.777 -18.7355 -119.313
  1050 530.428 -54.6587 95.7702
  1051 710.515 -5.18360 -24.0554
  1052 695.262 -7.91884 -52.5189
  1053 604.049 -46.9056 -30.3558
  1054 379.384 -19.2120 118.504
  1055 655.375 1.89530 -37.4886
  1056 492.035 -31.4486 -61.0799
  1057 866.915 182.564 17.7829
  1058 204.890 31.7298 -116.497
  1059 1411.11 99.3827 132.191
  1060 356.537 24.6883 -169.637
  1061 696.444 -57.8869 -10.5823
  1062 492.201 -31.2060 60.6600
  1063 649.527 7.42285 42.2049
  1064 377.527 -7.09864 37.6481
  1065 377.397 -7.26914 -37.9829
  1066 707.731 -19.9250 -53.4170
  1067 741.462 -4.57881 2.68077
  1068 733.049 -1.97154 10.3158
  1069 730.429 24.1549 68.1073
  1070 686.942 -5.14468 49.6637
  1071 525.719 57.5121 253.931
  1072 767.910 -0.927027 0.789829
  1073 738.400 99.5892 43.5940
  1074 634.533 9.79620 36.5687
  1075 740.385 -3.16827 9.77203
  1076 497.099 -4.68435 -10.0940
  1077 497.203 -4.63371 10.0451
  1078 322.993 -8.66824 -63.0254
  1079 324.062 -8.98546 62.6802
  1080 636.733 32.5735 15.4133
  1081 917.103 56.3544 -83.0515
  1082 843.267 3.99402 -140.961
  1083 693.262 -0.739164 -14.9985
  1084 530.505 -55.0488 -96.4316
  1085 605.334 -44.6237 27.6638
  1086 696.718 -1.70059 15.6235
  1087 722.812 -52.8785 -27.4070
  1088 473.494 -0.755063 5.87329
  1089 473.359 -0.770751 -5.90124
  1090 695.165 -59.5428 10.5549
  1091 662.316 -14.1338 -0.184881
  1092 662.205 -14.1537 0.215825
  1093 645.347 -64.6123 31.0178
  1094 817.839 -25.4329 -21.7753
  1095 397.680 -0.598658 -10.6946
  1096 398.232 -0.577705 10.6007
  1097 565.472 -36.7533 -161.028
  1098 607.568 -14.3855 4.99202
  1099 607.609 -14.4478 -5.02076
  1100 363.204 202.785 279.138
  1101 827.396 69.0161 -46.9219
  1102 131.384 61.5427 -91.0984
  1103 715.653 -11.5351 -8.73382
  1104 201.901 66.5675 -133.857
  1105 414.614 -25.2153 -80.8678
  1106 767.321 -1.28123 0.612057
  1107 767.529 -1.22931 -0.426949
  1108 708.037 -40.7950 -35.8952
  1109 626.445 -70.8470 -106.405
  1110 205.113 27.0189 111.003
  1111 771.417 76.2595 59.9830
  1112 695.974 -8.02593 -0.587322
  1113 696.069 -8.02569 0.643519
  1114 752.459 -47.2111 129.889
  1115 792.724 156.859 22.4743
  1116 485.266 -10.7986 -25.0713
  1117 485.399 -10.7579 24.9322
  1118 362.451 40.0936 200.378
  1119 677.581 3.74845 -55.1455
  1120 219.231 68.5290 143.243
  1121 845.561 -12.0720 -53.3644
  1122 846.677 184.074 6.11896
  1123 587.963 -45.5020 35.5341
  1124 559.378 3.47671 -2.34601
  1125 732.947 -7.06306 11.9526
  1126 755.467 -1.34049 4.60688
  1127 186.413 0.206852 -32.0436
  1128 188.419 0.132469 31.8548
  1129 617.321 11.0569 -27.2135
  1130 624.764 -18.3046 -4.99031
  1131 624.648 -18.2414 4.97114
  1132 68.0491 126.185 -106.014
  1133 105.242 256.336 -202.268
  1134 631.953 -24.5445 5.45931
  1135 632.155 -24.5166 -5.50674
  1136 650.939 -16.0450 -0.532429
  1137 650.853 -16.0261 0.572816
  1138 177.536 112.497 145.362
  1139 526.922 -5.93761 -5.07242
  1140 526.998 -5.90059 5.05530
  1141 656.101 50.2354 -0.601865
  1142 796.862 115.208 -291.366
  1143 788.213 135.049 -38.6551
  1144 717.289 -27.8323 -53.5085
  1145 706.107 -35.6188 -37.0748
  1146 588.167 -45.8980 -36.0750
  1147 603.204 2.25381 16.7933
  1148 668.762 42.2769 -40.0280
  1149 660.411 36.1310 38.3727
  1150 672.166 -27.0652 -5.14841
  1151 643.825 -38.6143 6.45489
  1152 589.601 -37.1292 -27.3548
  1153 697.510 -4.26062 29.0293
  1154 1190.39 119.635 16.4172
  1155 701.457 -15.1373 52.7320
  1156 706.833 46.5351 59.2513
  1157 648.259 -63.3884 -25.0704
  1158 90.8378 13.2882 -52.2819
  1159 660.390 -30.6714 -2.04214
  1160 460.523 -0.479701 -0.345793
  1161 460.649 -0.477254 0.343494
  1162 795.284 -21.0015 19.8321
  1163 757.405 -63.9816 38.1599
  1164 1079.75 191.462 50.0616
  1165 283.217 -0.377219 -26.3342
  1166 284.591 -0.320247 26.1684
  1167 595.875 -11.8894 -3.72420
  1168 595.860 -11.8291 3.70525
  1169 662.006 -58.1600 -8.94449
  1170 563.811 2.90249 7.71250
  1171 677.336 -48.2607 7.43081
  1172 42.2926 50.1766 -28.4107
  1173 129.758 62.5049 88.9344
  1174 459.217 -25.9580 155.427
  1175 786.268 148.298 -27.6961
  1176 742.798 -2.29156 -7.75161
  1177 770.246 -1.46557 0.314625
  1178 770.843 -1.90132 -0.145445
  1179 476.172 -0.777116 -1.03665
  1180 476.294 -0.770118 1.03131
  1181 725.177 46.3560 66.6467
  1182 1050.94 176.943 -3.82353
  1183 748.619 122.867 -29.2071
  1184 557.127 -41.8515 160.042
  1185 456.829 -25.0833 -155.096
  1186 511.902 -33.0489 -55.1993
  1187 692.196 -20.0206 9.56823
  1188 957.351 213.302 21.1133
  1189 511.992 -32.8787 54.8358
  1190 705.407 -13.2081 7.23726
  1191 644.946 24.6643 36.7385
  1192 702.557 21.9930 64.5322
  1193 982.890 218.833 32.9253
  1194 596.818 -15.2886 6.82705
  1195 596.832 -15.3456 -6.86064
  1196 715.250 -14.2101 18.3116
  1197 444.955 -4.24902 18.2690
  1198 444.667 -4.28916 -18.4030
  1199 698.951 -10.4211 -2.65308
  1200 292.456 176.951 -271.796
  1201 605.529 -34.5944 -171.534
  1202 581.867 -17.6700 -11.5313
  1203 581.940 -17.6066 11.5367
  1204 743.849 -4.25028 2.57842
  1205 708.906 -10.2170 5.72145
  1206 42.3529 56.1283 42.9315
  1207 764.317 -1.14939 2.25157
  1208 96.8916 127.450 126.232
  1209 693.794 -11.2509 -3.53655
  1210 -0.364670 -16.3246 -14.4197
  1211 498.770 -48.8208 -120.696
  1212 497.569 -47.6680 119.579
  1213 764.277 -1.60829 -2.54360
  1214 664.323 -35.1027 -2.89631
  1215 743.547 -3.96280 -2.51529
  1216 608.508 -19.4103 -7.41727
  1217 608.471 -19.3596 7.36446
  1218 698.531 -10.3638 2.43833
  1219 659.936 -30.0516 2.02252
  1220 636.921 -20.5804 3.27002
  1221 637.116 -20.6149 -3.20947
  1222 742.722 -4.07458 -2.01515
  1223 646.360 -68.6635 -119.438
  1224 728.506 -5.44774 -1.92138
  1225 696.500 -11.5267 3.96033
  1226 504.373 -4.89560 -7.64733
  1227 504.470 -4.85091 7.61475
  1228 556.358 -7.75356 -4.28157
  1229 556.399 -7.70914 4.26652
  1230 876.057 138.134 30.7927
  1231 738.106 -57.2440 17.3104
  1232 510.342 -3.03583 196.807
  1233 429.336 -0.510960 7.02903
  1234 429.008 -0.517414 -7.08569
  1235 704.612 -13.3156 39.1405
  1236 672.363 -10.9394 0.0941545
  1237 672.378 -10.9102 -0.0943246
  1238 774.774 149.141 13.1071
  1239 700.026 -73.7016 97.1685
  1240 427.343 -5.48623 25.3372
  1241 426.968 -5.52200 -25.4881
  1242 671.859 -16.9648 2.10450
  1243 671.709 -17.0910 -1.97574
  1244 691.802 -19.8124 -9.13076
  1245 648.618 0.223082 19.3578
  1246 1081.69 269.758 -97.6113
  1247 705.825 -26.3098 -32.9458
  1248 130.777 29.0762 75.3477
  1249 728.112 -39.2197 45.3101
  1250 602.838 13.9795 -14.9207
  1251 50.8504 34.3898 30.0482
  1252 942.838 111.879 -25.1610
  1253 712.477 -32.7287 -47.0144
  1254 605.355 9.26743 22.9013
  1255 417.316 -25.2762 80.8182
  1256 721.499 -56.2513 23.5034
  1257 1026.58 209.591 81.9703
  1258 252.667 35.5258 140.285
  1259 723.621 -9.37404 -15.8970
  1260 1338.03 15.3496 -13.0616
  1261 1378.41 20.3928 57.4994
  1262 1465.40 48.1936 -137.811
  1263 706.004 -22.4493 -42.3783
  1264 704.921 -32.6022 34.5779
  1265 715.086 -51.2855 30.0833
  1266 -20.7528 2.81513 12.8300
  1267 -18.7487 2.38042 -14.1250
  1268 694.191 -77.1700 -49.7885
  1269 709.209 -72.1901 -70.9636
  1270 567.287 3.96089 -9.48995
  1271 690.836 -78.4493 70.3035
  1272 739.919 -35.4445 -45.6750
  1273 18.2809 23.7534 6.02033
  1274 609.214 -11.1706 2.15450
  1275 609.248 -11.2365 -2.16004
  1276 732.023 -6.62957 10.5167
  1277 705.282 -12.9960 -6.70724
  1278 667.073 -72.7754 -29.4323
  1279 614.611 -32.6846 13.9698
  1280 611.731 -32.1969 -14.7035
  1281 714.025 -15.6995 26.2697
  1282 732.228 -27.2188 -54.5051
  1283 52.6705 35.8536 -29.5798
</Section>

newXOutput 41

<Section columns = "stress_xx | stress_yy | stress_xy">
  1 3.46517e-10 9.09495e-13 2.38302e-12
  2 2.81489e-10 2.27374e-12 -1.66533e-12
  3 -3.03771e-10 -1.81899e-12 -3.16414e-12
  4 -5.45697e-12 5.45697e-12 3.33067e-13
  5 5.91172e-12 -2.95586e-12 -1.04083e-12
  6 -3.59250e-10 -3.15140e-10 2.01358e-10
  7 8.18545e-12 9.54969e-12 -2.96710e-12
  8 -3.69710e-10 0.00000 2.29035e-12
  9 3.56825e-10 -9.09495e-13 2.52292e-13
  10 3.54097e-10 -2.12215e-12 -2.05568e-12
  11 3.55612e-10 -1.81899e-12 5.03100e-13
  12 3.56522e-10 -2.72848e-12 -2.37355e-12
  13 3.58947e-10 -2.12215e-12 -4.23390e-13
  14 3.66223e-10 -3.03165e-13 -3.68220e-12
  15 3.68649e-10 -3.03165e-13 -3.15902e-12
  16 3.72665e-10 6.82121e-13 -6.33650e-12
  17 3.93508e-10 1.21266e-12 -8.86221e-12
  18 4.15033e-10 3.94114e-12 -1.31853e-11
  19 4.43606e-10 2.04636e-12 -2.41562e-11
  20 5.03405e-10 9.09495e-13 -2.70901e-11
  21 5.45242e-10 1.02318e-11 -4.68982e-11
  22 6.79393e-10 8.18545e-12 -6.31548e-11
  23 8.38327e-10 2.59206e-11 -1.21961e-10
  24 1.15536e-09 2.21310e-11 -1.86151e-10
  25 1.66528e-09 1.64164e-10 -4.24870e-10
  26 3.24781e-09 2.10396e-10 -8.73960e-10
  27 4.56172e-09 5.58430e-10 -1.80093e-09
  28 4.69390e-09 -1.38850e-10 -8.06209e-11
  29 5.94355e-10 -3.62047e-09 3.95954e-10
  30 0.00000 0.00000 0.00000
  31 6.44044e-09 4.24461e-09 7.45959e-10
  32 6.07452e-09 3.96903e-09 7.22644e-10
  33 2.60813e-09 1.51522e-09 1.22929e-09
  34 2.04909e-09 4.57173e-10 8.17679e-10
  35 1.30080e-09 1.73259e-10 3.68205e-10
  36 9.12830e-10 3.15291e-11 1.53655e-10
  37 6.62718e-10 1.78867e-11 8.24896e-11
  38 5.27204e-10 1.06108e-11 5.00711e-11
  39 4.39589e-10 5.45697e-12 3.24185e-11
  40 3.87899e-10 6.13909e-12 2.57294e-11
  41 3.50762e-10 2.42532e-12 1.42109e-11
  42 3.26509e-10 9.09495e-13 9.54792e-12
  43 3.13776e-10 -6.06330e-13 5.21805e-12
  44 2.99527e-10 -1.51582e-12 1.99840e-12
  45 2.87173e-10 9.09495e-13 2.41474e-12
  46 2.89826e-10 -1.51582e-12 3.21965e-12
  47 2.91341e-10 -9.09495e-13 2.73034e-25
  48 2.55871e-10 2.42532e-12 6.66134e-13
  49 2.35104e-10 2.72848e-12 -4.99600e-13
  50 2.00998e-10 6.82121e-12 1.43635e-12
  51 1.58252e-10 1.00044e-11 1.33227e-12
  52 1.15051e-10 1.61435e-11 -1.45717e-13
  53 7.00311e-11 1.94026e-11 -1.33227e-12
  54 3.12260e-11 2.09184e-11 -6.66134e-13
  55 -3.63798e-12 2.00089e-11 -2.33147e-12
  56 -3.93356e-11 2.11458e-11 -2.97679e-12
  57 -7.39722e-11 2.18279e-11 -3.83027e-12
  58 -1.14596e-10 1.94026e-11 -2.99760e-12
  59 -1.50673e-10 1.45519e-11 -3.77476e-12
  60 -1.91297e-10 9.70128e-12 -2.10942e-12
  61 -2.31315e-10 1.21266e-12 -1.94289e-12
  62 -2.70423e-10 6.06330e-13 -3.71925e-12
  63 -3.08546e-10 -4.54747e-13 -1.49880e-12
  64 -3.15595e-10 5.45697e-12 -1.83187e-12
  65 -2.97632e-10 2.72848e-12 -4.57967e-12
  66 -2.95586e-10 2.72848e-12 -8.10463e-12
  67 -2.92857e-10 3.63798e-12 -1.04361e-11
  68 -2.84066e-10 3.63798e-12 -1.17684e-11
  69 -2.69817e-10 4.24431e-12 -1.18794e-11
  70 -2.48292e-10 5.22959e-12 -1.25316e-11
  71 -2.34043e-10 9.09495e-12 -1.06581e-11
  72 -2.10700e-10 1.06108e-11 -1.14353e-11
  73 -1.93116e-10 7.88229e-12 -1.29896e-11
  74 -1.65225e-10 9.09495e-12 -1.33227e-11
  75 -1.47338e-10 7.27596e-12 -1.22125e-11
  76 -1.23994e-10 8.18545e-12 -1.09912e-11
  77 -9.04947e-11 8.41283e-12 -1.33227e-11
  78 -5.66918e-11 9.70128e-12 -1.23235e-11
  79 -4.39589e-11 6.97279e-12 -7.99361e-12
  80 -3.00133e-11 6.36646e-12 -4.44089e-12
  81 -1.87962e-11 6.06330e-12 -3.77476e-12
  82 6.97279e-12 7.88229e-12 -3.88578e-12
  83 5.76013e-12 3.94114e-12 -3.33067e-12
  84 7.27596e-12 7.27596e-12 -1.08247e-12
  85 2.15247e-11 1.09139e-11 3.55271e-12
  86 1.21266e-11 1.03076e-11 2.22045e-12
  87 -3.03165e-13 6.97279e-12 -2.22045e-13
  88 1.81899e-11 1.45519e-11 2.10942e-12
  89 2.18279e-11 1.81899e-11 -1.11022e-13
  90 1.39456e-11 1.57646e-11 2.33147e-12
  91 5.45697e-12 1.09139e-11 -7.77156e-13
  92 1.63709e-11 1.00044e-11 -3.33067e-13
  93 1.50067e-11 -1.81899e-12 -1.49880e-12
  94 1.22782e-11 1.50067e-11 -5.11779e-12
  95 1.75836e-11 1.27329e-11 -4.04692e-12
  96 1.27329e-11 1.00044e-11 -9.48720e-13
  97 -1.36424e-11 1.21266e-11 9.69925e-12
  98 -5.85108e-11 1.03076e-11 1.96194e-11
  99 -1.68560e-10 -6.06330e-13 4.73855e-11
  100 -3.44395e-10 -4.60811e-11 1.32349e-10
  101 -8.15514e-11 -3.08016e-10 1.41630e-10
  102 -1.72804e-11 -1.45216e-10 5.31975e-11
  103 -8.86757e-12 -6.54836e-11 3.31766e-11
  104 -2.12215e-12 -2.09184e-11 1.62684e-11
  105 1.81899e-12 -5.14968e-27 7.40399e-12
  106 2.72848e-12 1.45519e-11 1.37504e-12
  107 4.85064e-12 1.06108e-11 -2.09408e-12
  108 1.00044e-11 6.06330e-12 -1.62304e-12
  109 1.03076e-11 3.63798e-12 2.91091e-13
  110 -4.54747e-12 3.86535e-12 7.05092e-12
  111 -2.18279e-11 5.15380e-12 1.01732e-11
  112 -5.09317e-11 4.85064e-12 1.37416e-11
  113 -8.82210e-11 6.36646e-12 1.66847e-11
  114 -1.22175e-10 8.79178e-12 1.51446e-11
  115 -1.61587e-10 7.57912e-12 1.40610e-11
  116 -1.90388e-10 7.57912e-12 1.58602e-11
  117 -2.23963e-10 7.73070e-12 1.60567e-11
  118 -2.54052e-10 8.79178e-12 1.22924e-11
  119 -2.80124e-10 6.97279e-12 1.06732e-11
  120 -3.01649e-10 5.45697e-12 9.12351e-12
  121 -3.16807e-10 4.54747e-12 8.79702e-12
  122 -3.34391e-10 3.94114e-12 6.23554e-12
  123 -3.45002e-10 5.45697e-12 7.52096e-12
  124 -3.48109e-10 2.72848e-12 5.95670e-12
  125 -3.62585e-10 2.72848e-12 5.30388e-12
  126 -3.65011e-10 2.12215e-12 4.45987e-12
  127 -3.65617e-10 1.81899e-12 3.65062e-12
  128 -3.67436e-10 2.42532e-12 2.79469e-12
  129 -3.61979e-10 3.41061e-12 1.56008e-12
  130 -3.81533e-10 5.45697e-12 1.19138e-12
  131 -3.66754e-10 1.81899e-12 -2.11271e-13
  132 -3.28024e-10 1.21266e-12 2.24807e-12
  133 -2.79821e-10 1.51582e-12 1.22392e-12
  134 -2.37075e-10 1.81899e-12 2.53224e-12
  135 -1.90084e-10 3.94114e-12 2.81113e-12
  136 -1.42488e-10 5.15380e-12 2.94598e-12
  137 -9.24653e-11 6.06330e-12 2.70945e-12
  138 -4.13820e-11 9.54969e-12 2.15125e-12
  139 2.72848e-12 5.45697e-12 8.69746e-13
  140 4.24431e-11 6.66963e-12 1.76363e-12
  141 8.79178e-11 5.45697e-12 2.07276e-12
  142 1.40972e-10 5.91172e-12 1.77043e-12
  143 1.90388e-10 1.21266e-12 1.42894e-12
  144 2.41471e-10 1.59162e-12 6.45782e-14
  145 2.83308e-10 2.72848e-12 1.84506e-12
  146 3.11957e-10 2.72848e-12 8.22575e-13
  147 -1.24449e-10 9.48906e-11 -1.24427e-10
  148 -8.88706e-11 1.01344e-10 2.54789e-11
  149 -3.62282e-11 -4.84154e-10 1.16939e-10
  150 -1.85082e-10 1.03379e-10 1.79257e-10
  151 -1.80860e-10 3.98878e-11 1.15075e-10
  152 -5.20686e-11 -2.92175e-11 -1.01565e-10
  153 -1.01105e-10 4.57779e-11 -2.95944e-11
  154 -1.08685e-10 2.57690e-11 1.04389e-11
  155 -1.54614e-11 -2.06607e-10 -1.20098e-10
  156 1.23821e-10 3.28717e-11 -1.92574e-11
  157 7.21099e-11 8.41932e-11 3.73392e-11
  158 -3.63798e-11 -1.89933e-10 2.15717e-10
  159 -4.06544e-10 1.47793e-10 -3.94851e-10
  160 -1.85385e-10 3.89567e-11 5.10759e-11
  161 -1.27481e-10 2.92554e-11 -8.45712e-11
  162 1.00772e-10 1.72804e-10 -1.10192e-10
  163 -4.89308e-10 4.17458e-10 2.76160e-10
  164 -1.12019e-10 -1.50067e-11 1.04594e-10
  165 -1.50067e-11 -2.34953e-11 -3.81639e-11
  166 -1.63891e-10 -1.20053e-11 1.41468e-10
  167 -3.63798e-11 2.50263e-10 8.11504e-11
  168 1.03682e-11 -9.64064e-12 1.18621e-11
  169 3.80169e-11 1.70985e-11 -2.99830e-12
  170 1.80080e-11 4.03816e-11 4.79616e-12
  171 1.77351e-10 2.28511e-11 2.16806e-11
  172 2.14944e-10 5.91172e-12 -6.44975e-12
  173 -2.10245e-10 5.91172e-12 6.09690e-12
  174 -1.71894e-10 1.66741e-11 -1.55570e-11
  175 -2.33870e-12 -7.49683e-11 -6.61614e-11
  176 -3.74192e-11 -1.34995e-09 -6.63065e-10
  177 -1.95022e-10 2.75447e-11 7.42524e-11
  178 -9.53670e-11 5.58690e-12 -7.63794e-11
  179 -2.26464e-10 1.49417e-11 2.30653e-11
  180 -1.65918e-10 2.13082e-11 -4.47023e-11
  181 2.30284e-10 5.22050e-11 -6.23838e-11
  182 -3.15291e-11 5.47213e-11 3.26958e-12
  183 -7.38207e-11 9.68612e-11 -3.40283e-11
  184 -1.60981e-10 8.93903e-11 8.97192e-11
  185 -8.41283e-11 -3.16807e-11 -1.67054e-10
  186 -8.91305e-11 -1.46732e-10 1.81498e-10
  187 -1.70227e-10 -1.82505e-10 3.69832e-10
  188 1.92510e-11 -4.71725e-10 -1.88752e-10
  189 -1.94480e-10 -2.37984e-11 1.35709e-10
  190 -1.72652e-10 6.53320e-11 -2.14207e-10
  191 -1.10049e-10 1.67953e-10 2.72950e-11
  192 -1.01084e-10 1.61110e-11 -1.24246e-10
  193 -1.68516e-10 6.87318e-11 7.71030e-11
  194 2.03424e-10 3.31814e-10 -2.88590e-10
  195 -1.56282e-10 1.39456e-11 8.31066e-11
  196 -5.15380e-11 -4.69906e-12 -5.24580e-11
  197 -2.47079e-11 -7.27596e-11 8.54770e-11
  198 5.65403e-11 7.98840e-11 -2.88634e-11
  199 2.33740e-10 8.38251e-11 1.01918e-10
  200 -8.54925e-11 1.35125e-11 3.86976e-12
  201 -7.36691e-11 3.36513e-11 -1.10983e-11
  202 6.60293e-11 4.79486e-10 3.11418e-10
  203 -5.82077e-12 -2.04454e-10 -2.25153e-11
  204 -7.69433e-11 -1.20854e-09 7.16478e-10
  205 -1.59707e-10 1.25510e-11 -5.16670e-11
  206 -2.44472e-10 1.54614e-11 3.41590e-11
  207 2.64360e-10 1.25813e-11 -1.52640e-11
  208 -1.37334e-10 2.95434e-10 -1.55093e-11
  209 -1.26723e-10 4.53232e-11 2.63901e-11
  210 -1.13384e-10 5.85108e-11 -6.09469e-11
  211 -1.22132e-10 -6.34048e-11 2.22018e-10
  212 -5.30539e-12 -1.07624e-10 -1.76335e-11
  213 -3.78956e-11 -2.53143e-11 4.81339e-11
  214 -3.03165e-12 -1.51582e-12 -5.16254e-12
  215 1.16415e-11 -3.31056e-11 -2.66058e-11
  216 -8.00355e-11 1.54484e-10 -2.71093e-11
  217 2.37681e-10 2.44048e-11 4.19526e-11
  218 -3.31966e-10 8.77662e-10 -2.52975e-10
  219 -2.73940e-10 5.45697e-12 8.32300e-12
  220 -2.12094e-10 1.09139e-11 -2.26152e-11
  221 -2.77396e-11 3.04681e-11 1.86280e-12
  222 -4.50200e-11 6.41194e-11 -1.43635e-11
  223 3.38150e-10 6.02085e-11 -1.00023e-10
  224 -3.74712e-11 -1.04956e-10 -1.25962e-10
  225 2.72848e-12 -3.67739e-10 1.30569e-10
  226 -1.27329e-10 6.83637e-11 4.02902e-11
  227 -1.65073e-10 8.18545e-11 1.29368e-10
  228 1.22418e-10 8.18545e-12 -3.09839e-12
  229 9.76797e-11 2.34650e-11 1.02585e-11
  230 -1.17871e-10 6.53017e-11 -9.84712e-11
  231 -6.06330e-13 1.22630e-10 -2.63312e-11
  232 -1.74320e-10 -1.14899e-10 1.25360e-10
  233 -7.71252e-11 -7.27596e-11 1.13983e-10
  234 -1.21399e-09 1.04283e-09 2.51571e-10
  235 -2.78175e-10 1.95282e-10 2.28434e-10
  236 -6.51805e-11 -1.79928e-10 -2.42285e-10
  237 -2.30830e-10 2.96677e-10 -7.42739e-11
  238 -2.39561e-10 1.41881e-11 4.12679e-11
  239 -1.36242e-10 1.23691e-11 -4.90941e-11
  240 3.36149e-10 1.41517e-10 2.05994e-10
  241 1.22652e-10 1.78001e-11 -8.07054e-12
  242 8.67918e-11 4.76835e-11 2.08524e-11
  243 -9.42843e-11 2.12215e-12 5.79884e-11
  244 -1.80383e-11 6.05845e-28 -2.04281e-11
  245 -1.81171e-10 4.89308e-11 1.19722e-10
  246 2.73498e-10 3.24820e-12 -2.45964e-12
  247 2.29453e-10 5.06718e-12 6.40559e-12
  248 -2.04636e-11 -5.26446e-10 1.23222e-11
  249 2.13883e-10 6.60293e-10 -5.77377e-10
  250 9.09495e-13 4.24431e-12 8.25607e-12
  251 -9.47174e-11 -6.54836e-11 1.27325e-10
  252 6.10661e-12 -1.80340e-10 1.10440e-10
  253 -2.42532e-11 -4.47168e-11 -7.67615e-11
  254 -1.69530e-10 1.38243e-11 1.27741e-10
  255 -1.31227e-11 1.09139e-11 -9.90778e-13
  256 -1.45519e-11 2.80644e-11 9.51620e-14
  257 -1.58252e-10 2.53359e-11 -3.17068e-11
  258 -2.00219e-10 1.36424e-11 1.35424e-11
  259 2.96697e-10 1.50572e-11 -2.71910e-11
  260 -1.47728e-10 1.58382e-10 -1.06471e-10
  261 -2.95472e-10 2.16005e-12 1.65955e-12
  262 -2.40789e-10 5.45697e-12 -4.48599e-12
  263 5.18412e-11 1.42184e-10 6.23113e-11
  264 -1.92358e-10 1.30740e-11 5.56032e-11
  265 -7.96945e-11 6.02540e-12 -4.65253e-11
  266 1.13384e-10 1.03986e-10 -6.63319e-11
  267 -8.10966e-11 -4.39589e-12 -1.02618e-10
  268 -1.82354e-10 4.80516e-11 9.43148e-11
  269 -1.00057e-09 -2.11795e-09 8.39013e-10
  270 -1.61132e-10 6.66963e-12 1.26961e-12
  271 -1.34150e-10 1.74320e-11 -5.99867e-12
  272 4.76348e-10 9.32232e-11 -1.76436e-10
  273 -1.15116e-10 -1.41881e-10 2.92260e-10
  274 -2.00868e-10 9.48473e-12 -3.12845e-11
  275 -2.82983e-10 6.62632e-12 1.68545e-11
  276 -1.18780e-10 1.22236e-10 4.52007e-11
  277 -1.76442e-10 6.45741e-11 1.00805e-10
  278 2.93039e-10 4.18368e-12 -5.17176e-12
  279 -1.80686e-10 3.04681e-11 3.22740e-11
  280 -1.40820e-10 3.54703e-11 -6.47260e-11
  281 3.24820e-12 -5.96369e-11 -1.63887e-11
  282 -6.40284e-11 -8.18545e-12 -7.89702e-11
  283 -8.74934e-11 -6.07361e-10 3.56272e-10
  284 -3.78956e-12 -1.80989e-10 -5.87030e-11
  285 -3.00133e-11 7.79134e-11 -4.77638e-13
  286 -7.32793e-11 -1.83198e-11 -1.35415e-10
  287 -1.76260e-10 2.85581e-11 9.76206e-11
  288 2.42532e-12 -8.94336e-12 -4.53447e-12
  289 1.38113e-10 5.21011e-11 -3.60946e-11
  290 -1.26810e-10 -8.69217e-11 1.67064e-10
  291 2.60115e-10 7.42754e-12 1.66672e-11
  292 -3.47124e-10 -8.88122e-10 -6.16868e-10
  293 4.97190e-11 5.80561e-11 -1.70353e-11
  294 -1.10655e-10 1.06259e-10 -7.49609e-11
  295 -2.18847e-10 4.25757e-10 -1.75170e-11
  296 -1.30058e-10 4.33526e-11 -1.75249e-10
  297 -4.05375e-11 -1.34605e-10 1.67825e-10
  298 -1.15203e-11 1.18992e-10 1.04916e-11
  299 -1.67499e-10 -1.05501e-10 1.56171e-10
  300 -1.38546e-10 9.41327e-11 5.79151e-11
  301 -1.11413e-10 2.53143e-11 -1.47243e-10
  302 -1.91124e-10 4.17068e-11 7.03057e-11
  303 -2.92727e-10 4.54747e-12 4.61364e-12
  304 -2.32571e-10 8.44531e-12 -1.21213e-11
  305 -1.09139e-10 1.52016e-11 -9.05942e-11
  306 -1.79777e-10 -1.42033e-10 -3.57704e-10
  307 -4.79001e-11 -1.22175e-10 -1.62981e-10
  308 -7.97757e-11 3.97579e-11 1.31310e-11
  309 -9.18590e-11 6.71510e-11 -4.10505e-11
  310 -3.62499e-11 -6.57435e-11 -1.01312e-10
  311 3.61589e-10 1.72804e-11 -4.15824e-11
  312 -2.37768e-11 -1.22782e-10 -7.71050e-11
  313 -6.16637e-11 2.03727e-11 4.23971e-12
  314 -6.62112e-11 4.40195e-11 -1.71579e-11
  315 -1.46948e-10 1.40322e-11 7.28175e-12
  316 -1.26550e-10 2.83243e-11 -1.97030e-11
  317 1.33862e-09 -2.95889e-10 -7.32470e-10
  318 2.57690e-12 -3.05439e-10 -1.13499e-10
  319 -1.51106e-10 -1.70725e-10 1.69168e-10
  320 1.67347e-10 1.31227e-11 5.78109e-12
  321 1.97490e-10 4.02776e-12 -1.62088e-12
  322 -3.22221e-11 -2.06585e-11 -5.93335e-11
  323 -1.62193e-10 2.63753e-11 2.08093e-11
  324 -1.32786e-10 4.07757e-11 -4.80588e-11
  325 -1.51106e-10 9.48473e-12 1.08921e-10
  326 2.71333e-11 -3.07864e-10 -1.33851e-11
  327 -1.54463e-10 1.13687e-11 1.68843e-10
  328 -1.87096e-10 2.07885e-11 1.27419e-10
  329 6.60899e-11 3.00133e-11 -8.89963e-12
  330 2.75880e-11 7.21532e-11 1.29063e-11
  331 1.47793e-10 5.03254e-11 4.17028e-11
  332 4.84501e-10 7.49683e-10 5.44999e-10
  333 -1.58772e-10 1.84108e-10 7.29976e-11
  334 3.09358e-10 2.37768e-11 5.30379e-11
  335 -1.32656e-10 1.53315e-11 -7.21685e-11
  336 -2.16330e-10 2.44264e-11 5.27448e-11
  337 6.45741e-11 2.59358e-10 -1.51646e-10
  338 -3.04031e-10 4.54747e-12 1.00647e-11
  339 -2.24515e-10 7.40589e-12 -2.02041e-11
  340 2.08123e-10 2.54659e-11 -2.61649e-11
  341 1.66741e-12 -1.01105e-10 1.94111e-11
  342 1.87659e-10 1.78867e-11 -1.54739e-11
  343 -2.04939e-10 1.84931e-11 2.81352e-10
  344 -5.12349e-11 2.13277e-10 -4.29000e-11
  345 -7.05508e-11 2.29972e-11 -5.73351e-12
  346 -8.05552e-11 7.27596e-12 1.95290e-12
  347 -3.39242e-10 6.92580e-10 1.56611e-11
  348 -7.32143e-11 -1.36879e-10 2.18982e-10
  349 -8.76147e-11 -4.14578e-10 2.96141e-10
  350 -1.47156e-10 -2.67391e-11 1.36185e-10
  351 -4.61244e-11 -3.50805e-12 3.53686e-11
  352 0.00000 2.20877e-12 -6.33422e-12
  353 -4.24431e-12 -1.51582e-12 6.42938e-12
  354 4.41755e-12 7.27596e-12 6.06658e-13
  355 -3.57735e-11 -1.65225e-11 4.56086e-11
  356 -8.83726e-11 6.04814e-11 1.97399e-11
  357 1.65376e-10 7.35175e-11 6.84661e-11
  358 6.00267e-11 7.45786e-12 -8.17019e-14
  359 4.27463e-11 2.38288e-11 1.44051e-12
  360 9.73159e-11 -6.85304e-10 1.50408e-10
  361 -1.19902e-10 3.77440e-11 -1.05208e-10
  362 -2.19795e-11 -5.68434e-11 5.14092e-11
  363 -1.60223e-10 5.94203e-11 5.68729e-11
  364 -2.85945e-10 -2.43745e-11 4.42169e-10
  365 1.32028e-10 1.74926e-10 1.35926e-10
  366 -1.01863e-10 -4.47168e-11 -2.13995e-10
  367 -4.98706e-11 -2.70726e-10 2.60293e-10
  368 -1.45519e-10 1.20508e-10 7.78409e-11
  369 -1.09659e-10 8.96502e-12 -3.77436e-11
  370 -2.28543e-10 9.87451e-12 3.78979e-11
  371 -1.34757e-10 6.82121e-12 5.02953e-11
  372 -3.62282e-11 4.39589e-12 -2.52506e-11
  373 7.31494e-10 2.20098e-10 -3.75351e-10
  374 4.54747e-12 1.44003e-11 -1.20180e-12
  375 3.76379e-10 3.94114e-11 9.83241e-11
  376 -1.50370e-10 4.94159e-11 3.98452e-11
  377 -1.21872e-10 5.00222e-11 -8.18755e-11
  378 7.53062e-11 2.98132e-10 1.91164e-10
  379 -1.71440e-10 5.07801e-11 1.26309e-10
  380 -1.04410e-10 8.13088e-11 -6.86118e-11
  381 -1.82263e-10 -3.54703e-11 1.28341e-10
  382 -2.13883e-10 4.54747e-12 4.28140e-12
  383 -1.73865e-10 1.22782e-11 -8.01442e-12
  384 5.95264e-10 2.06910e-10 3.05256e-10
  385 -2.74667e-10 9.27685e-12 2.46651e-11
  386 -1.66256e-10 1.03682e-11 -3.55882e-11
  387 5.60855e-12 -2.31466e-10 -5.59830e-11
  388 -1.22782e-11 -4.00178e-11 -4.81282e-11
  389 1.30361e-11 4.21399e-11 -4.99333e-12
  390 -3.12260e-11 8.77662e-11 -5.88245e-12
  391 3.03165e-13 -2.35104e-10 2.44159e-11
  392 -2.45260e-10 1.34908e-10 -2.62901e-10
  393 -5.63887e-11 -5.07801e-11 -1.30266e-10
  394 -2.47079e-11 1.63709e-11 1.39112e-12
  395 -2.89522e-11 3.91083e-11 -6.56419e-12
  396 -2.80124e-11 1.02773e-10 -5.49639e-12
  397 3.24690e-10 6.66963e-12 -1.11967e-11
  398 -2.28435e-10 1.65225e-11 2.85563e-11
  399 -1.63103e-10 1.90994e-11 -5.02792e-11
  400 -2.13883e-10 -5.76468e-10 -4.67279e-10
  401 1.04743e-10 1.33393e-11 -5.36167e-12
  402 7.94292e-11 3.59250e-11 1.38778e-11
  403 2.54840e-10 1.21327e-10 -1.42553e-10
  404 -7.31688e-10 -7.39722e-11 8.27241e-10
  405 1.43700e-11 1.59162e-10 -5.19680e-11
  406 5.27507e-12 -5.63887e-11 4.08577e-11
  407 -1.79352e-10 1.90994e-11 7.61327e-11
  408 -6.82121e-11 2.36469e-12 -6.19504e-11
  409 -6.47560e-11 -3.78350e-11 8.62560e-11
  410 3.14867e-10 2.00089e-12 -2.34776e-12
  411 -2.99588e-10 7.09406e-12 1.53313e-11
  412 -2.00089e-10 7.09406e-12 -2.65787e-11
  413 2.25858e-10 6.68479e-11 -7.64576e-11
  414 -1.08048e-10 5.34783e-11 -1.21803e-10
  415 2.33376e-10 8.91305e-12 -1.10657e-11
  416 -2.12594e-10 1.97815e-10 1.43183e-10
  417 -2.54659e-12 -1.58252e-11 -1.80189e-11
  418 -1.35515e-10 7.88662e-11 4.95000e-11
  419 -8.79178e-11 8.35219e-11 2.36710e-11
  420 -1.65268e-10 1.10439e-11 4.63430e-11
  421 -5.46996e-11 8.05552e-12 -2.94050e-11
  422 -1.73168e-10 2.89219e-11 1.16150e-10
  423 -1.55827e-10 1.44458e-10 9.34180e-11
  424 -4.87489e-11 -3.00133e-11 -8.16347e-11
  425 -9.42237e-11 2.03181e-10 -7.11098e-12
  426 1.30422e-10 -5.76620e-10 -1.28809e-10
  427 1.36727e-10 7.18501e-11 -4.81194e-11
  428 2.78955e-10 1.00044e-11 2.36819e-11
  429 2.36469e-12 3.45608e-12 -1.23592e-26
  430 -1.81899e-13 -1.50976e-11 -1.04583e-11
  431 4.80365e-10 3.13776e-11 -8.90658e-11
  432 9.00945e-10 1.04956e-09 -1.00449e-09
  433 2.53143e-11 -1.25632e-09 2.93210e-10
  434 -2.19188e-10 6.88617e-12 8.53190e-12
  435 -1.76962e-10 1.66308e-11 -2.20419e-11
  436 -1.17476e-10 1.42184e-10 -7.67164e-11
  437 -2.64117e-10 4.49108e-10 1.00274e-11
  438 -2.32558e-09 -3.10608e-09 1.17582e-09
  439 8.18545e-12 1.60071e-11 9.51213e-12
  440 -7.34872e-11 -1.54614e-11 7.20660e-11
  441 -1.10655e-11 -7.42754e-12 -2.14481e-11
  442 4.75969e-11 2.50111e-11 -5.06223e-12
  443 1.84931e-11 6.13909e-11 6.96665e-12
  444 -9.64064e-12 -2.39379e-10 1.68291e-10
  445 6.21488e-12 -2.86491e-11 -8.21565e-12
  446 -2.56174e-11 -1.40365e-10 -1.13493e-10
  447 -2.10639e-10 2.47383e-11 4.21117e-11
  448 -1.40426e-10 2.60115e-11 -6.87117e-11
  449 -1.83536e-10 1.65528e-11 -3.19411e-11
  450 -2.29556e-10 1.09139e-11 1.44430e-11
  451 -4.53535e-10 -8.35371e-10 -9.09578e-10
  452 2.66846e-10 2.18279e-12 6.25333e-12
  453 -6.40648e-10 8.79299e-10 -9.50946e-12
  454 -1.55372e-10 -1.31877e-11 2.36036e-10
  455 -7.74370e-11 1.21093e-10 -3.72678e-11
  456 1.96087e-10 2.20098e-11 2.93765e-11
  457 3.17262e-10 2.72848e-12 -5.91475e-12
  458 3.10501e-10 1.81899e-12 -1.03428e-12
  459 2.59570e-10 3.27418e-12 2.36478e-12
  460 -2.65572e-10 4.54747e-12 -9.92956e-12
  461 -3.40303e-10 1.66741e-12 4.46698e-12
  462 -7.43967e-11 1.46065e-10 5.96581e-12
  463 -2.42077e-10 5.82380e-10 -1.45377e-10
  464 -5.74346e-10 3.17868e-10 -3.69760e-10
  465 2.38288e-10 3.03771e-11 -3.63398e-11
  466 -2.17976e-10 -1.44913e-10 1.27875e-10
  467 -1.85689e-10 1.87204e-10 -1.33805e-10
  468 -3.03165e-13 3.33481e-12 -2.10942e-12
  469 -1.96191e-11 -2.33870e-12 1.64026e-11
  470 -1.12388e-10 5.39200e-11 -4.87794e-11
  471 -1.22933e-10 3.41061e-11 1.88873e-11
  472 -8.57524e-12 -1.01214e-10 -5.40342e-11
  473 -8.17029e-11 -1.46883e-10 1.22898e-10
  474 4.07150e-10 1.21266e-11 -4.41270e-11
  475 -1.82657e-10 1.71288e-11 1.27944e-10
  476 -1.18386e-10 1.12171e-11 -7.04437e-11
  477 6.82121e-12 -9.62549e-11 -1.82077e-11
  478 6.16941e-11 1.05501e-10 -4.82475e-11
  479 -6.77574e-11 2.89522e-11 7.04630e-12
  480 -7.16985e-11 5.68434e-11 -2.53270e-11
  481 1.31115e-09 1.85275e-09 1.20862e-10
  482 -2.13277e-10 2.21310e-11 5.79656e-11
  483 6.69843e-10 7.83681e-11 -2.05199e-10
  484 -1.79019e-10 5.83592e-11 9.79454e-11
  485 -7.53581e-11 -1.46818e-11 -1.17559e-10
  486 3.43243e-10 1.20053e-11 -2.79926e-11
  487 -2.66634e-10 -5.11288e-10 7.17309e-10
  488 -9.45118e-27 -6.40284e-11 -4.65045e-11
  489 -1.45519e-11 -1.50370e-10 1.41807e-10
  490 1.42401e-10 9.61466e-12 -4.71726e-12
  491 1.14986e-10 2.70250e-11 1.48691e-11
  492 -1.62540e-10 9.35480e-12 5.37047e-12
  493 -1.35904e-10 2.01388e-11 -1.47293e-11
  494 -2.42532e-11 -1.22782e-11 -4.12205e-11
  495 -1.47793e-10 2.77396e-10 -2.16910e-11
  496 6.11180e-11 1.05501e-11 -2.90354e-12
  497 4.36557e-11 3.11047e-11 5.54556e-12
  498 -1.07927e-10 1.48551e-11 -1.08691e-10
  499 -1.25359e-10 1.51582e-12 9.65474e-11
  500 -1.43830e-10 1.02513e-10 -1.47525e-10
  501 -4.91127e-12 -1.60071e-11 1.51388e-11
  502 -1.18000e-09 -6.27681e-10 1.14315e-09
  503 1.24449e-10 1.66741e-11 4.59355e-12
  504 1.50370e-10 5.30539e-12 -1.58155e-12
  505 -1.78867e-10 5.56308e-11 7.52728e-11
  506 -2.89522e-11 -8.98884e-11 -9.63812e-11
  507 -1.67688e-10 7.08269e-11 1.61537e-10
  508 2.12519e-10 1.15203e-11 1.69517e-11
  509 -7.35175e-11 1.19599e-10 1.40638e-11
  510 -3.29965e-10 1.63709e-12 1.25854e-12
  511 -2.73576e-10 7.27596e-13 -2.76446e-12
  512 -1.27784e-10 3.16618e-10 3.15737e-11
  513 -3.50004e-10 3.35452e-10 1.78082e-10
  514 -2.59856e-11 -2.30752e-10 -1.65820e-10
  515 -3.28509e-10 2.00089e-12 1.09809e-12
  516 -2.70848e-10 2.91038e-12 -5.42899e-12
  517 -1.64467e-10 -8.57957e-11 1.50480e-10
  518 -2.71029e-10 3.97146e-11 3.41974e-10
  519 2.52580e-10 4.67740e-12 -4.62036e-12
  520 -1.19599e-10 9.00400e-11 -1.03757e-10
  521 -1.03379e-10 3.72893e-11 -2.31048e-11
  522 -1.14445e-10 1.86446e-11 8.66607e-12
  523 -1.62686e-10 8.78799e-11 1.05437e-10
  524 -1.42401e-10 -9.21188e-11 -2.86081e-10
  525 -9.02219e-11 -1.43154e-10 2.61742e-10
  526 -6.04164e-11 3.41190e-10 -1.07778e-10
  527 1.69924e-10 1.37940e-11 -9.59594e-12
  528 -1.81899e-10 5.49335e-11 1.12111e-10
  529 2.07516e-10 1.00348e-10 -9.97292e-11
  530 -6.39678e-11 -1.15203e-11 6.24498e-11
  531 -6.19972e-11 -7.56396e-11 -1.58394e-10
  532 1.97664e-10 6.51805e-12 5.74540e-12
  533 2.37833e-10 1.06108e-12 -2.49922e-12
  534 -7.88229e-12 2.42532e-12 1.49174e-11
  535 2.53359e-10 2.10093e-10 -2.13379e-10
  536 7.57912e-13 -9.51938e-11 -2.47580e-11
  537 1.41751e-10 1.09659e-10 8.96604e-11
  538 -2.75728e-10 6.82121e-12 1.69683e-11
  539 -1.47338e-10 9.54969e-12 -2.17326e-11
  540 -1.85992e-10 3.83504e-11 8.72538e-11
  541 -8.77662e-11 2.12215e-12 -9.12603e-11
  542 1.34908e-10 3.65314e-11 2.50772e-11
  543 -2.00089e-11 -3.29237e-10 -2.12544e-10
  544 -3.11827e-12 6.43143e-11 -5.64154e-12
  545 -5.19711e-13 -1.67217e-10 9.26194e-12
  546 3.12502e-10 2.18279e-11 -4.17283e-11
  547 -1.58382e-10 -5.31405e-11 1.40100e-10
  548 -8.91305e-12 2.29193e-11 -2.92624e-13
  549 -2.67391e-11 4.87489e-11 -5.92859e-12
  550 6.28851e-11 4.35258e-11 -1.36099e-11
  551 -1.24081e-10 -1.35255e-10 1.57467e-10
  552 -2.10851e-10 3.21506e-10 4.63591e-11
  553 -3.03165e-13 -2.74870e-11 -2.77371e-11
  554 -2.34953e-11 -6.24520e-11 -8.08104e-11
  555 -2.03337e-10 -6.84720e-11 1.28359e-10
  556 4.10572e-11 -5.73112e-10 -6.20705e-11
  557 -1.84173e-10 3.25902e-11 1.22855e-10
  558 -1.55220e-10 8.91305e-11 7.66497e-11
  559 -1.72622e-10 7.25777e-11 1.01730e-10
  560 -3.45608e-11 -9.02673e-11 7.39056e-11
  561 2.38937e-10 4.32660e-11 6.33898e-11
  562 -7.53581e-11 -1.23691e-10 1.71658e-10
  563 1.83415e-11 9.82254e-11 1.91375e-11
  564 1.16285e-10 2.58556e-11 -1.27952e-11
  565 7.21099e-11 6.70428e-11 2.69665e-11
  566 -2.67543e-10 3.33481e-12 3.85023e-12
  567 -2.21159e-10 6.82121e-12 -1.02834e-11
  568 -8.08151e-11 5.32704e-12 3.16335e-11
  569 -1.42921e-11 4.41755e-12 -1.35844e-11
  570 -2.06975e-10 1.63709e-11 5.90335e-11
  571 -9.79656e-11 6.88617e-12 -5.80250e-11
  572 -1.98790e-11 1.55913e-10 2.24820e-11
  573 -9.17074e-11 -8.18545e-12 -1.52156e-10
  574 -1.39932e-10 1.07061e-10 6.37800e-11
  575 -3.66396e-11 9.61466e-12 -1.12100e-12
  576 -3.32615e-11 2.44264e-11 -1.36795e-12
  577 -1.81444e-10 4.65358e-11 1.04686e-10
  578 -4.07757e-11 -4.88095e-11 -9.35918e-11
  579 -6.49379e-11 -1.41881e-11 -1.00501e-10
  580 -3.10592e-10 2.91493e-10 -1.82583e-10
  581 -1.97620e-10 1.41621e-11 -3.37706e-11
  582 -2.67911e-10 9.22487e-12 1.62302e-11
  583 -1.53964e-10 -1.19702e-09 -2.84142e-10
  584 7.68220e-10 2.75122e-10 4.15584e-10
  585 3.11827e-12 -2.61415e-10 9.90215e-11
  586 -1.11413e-10 5.60855e-12 1.26222e-14
  587 -9.26169e-11 2.04636e-11 -3.17801e-12
  588 5.46909e-10 3.85019e-11 1.10517e-10
  589 -2.03337e-10 1.67607e-11 1.83606e-11
  590 -1.58122e-10 2.61155e-11 -4.03784e-11
  591 -1.97490e-11 -2.96235e-11 -5.33621e-11
  592 -2.30784e-11 1.97588e-10 4.93980e-11
  593 -5.14514e-11 -1.23431e-11 -6.88259e-11
  594 7.88229e-11 6.26036e-11 -2.74502e-11
  595 2.64273e-10 1.63709e-11 -2.22201e-11
  596 1.81509e-10 1.49417e-11 1.28052e-11
  597 -2.02298e-10 5.19711e-12 4.20696e-12
  598 -1.63709e-10 1.49417e-11 -1.05868e-11
  599 2.88007e-12 -2.00998e-10 3.47202e-11
  600 -1.63189e-10 2.09184e-11 9.97711e-11
  601 3.53187e-11 1.18386e-10 3.73451e-11
  602 1.86446e-11 8.29914e-12 -1.51296e-12
  603 1.00044e-11 2.38742e-11 1.08767e-12
  604 -5.06718e-11 -8.39334e-11 1.25158e-10
  605 -2.23129e-10 7.88229e-12 -1.74583e-11
  606 -3.14685e-10 4.39589e-12 9.21285e-12
  607 1.05761e-10 5.36602e-10 -3.69078e-10
  608 -1.63709e-11 -1.71288e-10 -5.44842e-11
  609 -1.52795e-10 3.94114e-12 1.22861e-10
  610 -1.25738e-10 6.02540e-12 7.40879e-11
  611 -3.34239e-11 -3.29692e-12 -3.54872e-11
  612 -1.26117e-10 4.50200e-11 -5.87135e-11
  613 -1.49417e-10 3.40411e-11 2.54315e-11
  614 -9.41977e-11 -1.26160e-10 1.93310e-10
  615 2.08577e-10 3.94114e-12 -4.36627e-12
  616 4.10052e-10 -1.39958e-09 -3.61473e-10
  617 -1.21872e-10 -2.00240e-10 3.29803e-10
  618 -2.41666e-11 -5.18282e-10 1.51517e-10
  619 -2.88440e-11 3.87185e-11 3.10121e-12
  620 -5.10833e-11 7.62460e-11 -1.67765e-11
  621 -1.39932e-10 -5.89872e-11 1.41717e-10
  622 -1.49027e-10 1.79300e-11 1.11716e-11
  623 -1.24601e-10 3.46907e-11 -2.92965e-11
  624 1.03076e-11 2.03120e-11 -3.62333e-12
  625 1.03682e-10 1.35287e-10 -8.56675e-11
  626 -2.45564e-10 1.55751e-11 3.82128e-11
  627 3.24820e-12 -2.42965e-11 -4.75810e-14
  628 -1.51090e-10 1.25056e-11 -5.31450e-11
  629 -1.85537e-10 -8.07794e-28 1.34268e-10
  630 -2.56478e-10 2.07885e-12 6.50619e-13
  631 -2.07625e-10 7.79567e-12 -2.51584e-12
  632 9.73679e-10 3.67566e-10 -5.80373e-10
  633 -2.16005e-10 8.94336e-12 3.14499e-11
  634 -9.59517e-11 6.97279e-12 -2.67564e-11
  635 -9.17290e-11 8.12049e-11 -4.98887e-11
  636 -5.43098e-11 6.70428e-11 9.59308e-12
  637 3.15465e-10 6.10661e-12 2.08494e-11
  638 -2.69817e-10 4.54747e-12 -9.82547e-12
  639 -3.38787e-10 2.72848e-12 3.90310e-12
  640 -5.78179e-11 1.03942e-11 2.48181e-12
  641 -5.17113e-11 2.85841e-11 -5.55508e-12
  642 -5.80777e-11 -3.54703e-11 -1.21724e-10
  643 1.33826e-11 -3.45478e-10 -5.50408e-11
  644 -1.88720e-10 2.28889e-11 2.52644e-11
  645 -1.40669e-10 3.39545e-11 -5.45952e-11
  646 -9.01699e-11 4.96324e-11 1.73865e-11
  647 1.27329e-11 -8.41932e-11 4.08805e-11
  648 -1.03834e-10 1.42488e-11 -1.64369e-10
  649 1.73941e-11 1.43245e-11 -1.96823e-12
  650 5.34328e-12 3.46745e-11 1.91513e-12
  651 -1.34150e-10 -4.80516e-11 1.87127e-10
  652 2.75918e-10 1.05842e-10 1.42948e-10
  653 1.19432e-09 9.12072e-10 7.52294e-10
  654 -1.70985e-10 1.31877e-11 6.98979e-11
  655 -5.92687e-11 3.94114e-12 -4.93217e-11
  656 -1.20963e-10 5.95069e-11 3.23244e-11
  657 -1.16718e-11 -1.96451e-10 1.73644e-10
  658 1.80383e-11 -7.93837e-10 2.66792e-10
  659 -2.63147e-10 5.15380e-12 6.99836e-12
  660 -2.05243e-10 1.18234e-11 -1.92207e-11
  661 4.87717e-11 4.63842e-11 1.27919e-11
  662 7.62839e-11 1.69393e-11 -6.27126e-12
  663 -1.40322e-11 -2.70250e-11 3.97342e-11
  664 3.23666e-10 -4.54747e-13 -1.04934e-12
  665 3.39393e-10 5.15380e-12 -1.33574e-11
  666 3.64404e-10 1.65225e-11 5.31797e-11
  667 -1.11218e-10 1.11868e-10 3.95288e-11
  668 -1.69734e-10 5.68434e-12 8.37950e-13
  669 -1.40176e-10 1.58025e-11 -3.28904e-12
  670 -1.68408e-10 -9.30716e-11 3.21633e-10
  671 -6.51805e-11 -1.44913e-10 1.96011e-10
  672 -1.76182e-10 3.81988e-11 4.17576e-11
  673 -1.28109e-10 3.80688e-11 -7.75927e-11
  674 -1.12626e-10 8.76147e-11 3.80688e-11
  675 -8.67052e-11 -1.01500e-09 -2.43085e-10
  676 -1.63969e-10 2.15680e-11 1.44131e-10
  677 -1.13427e-10 1.02643e-11 2.81118e-12
  678 -9.57568e-11 2.50761e-11 -8.76977e-12
  679 -1.91721e-10 3.72893e-11 7.78951e-11
  680 -1.22175e-10 5.89656e-11 -1.49575e-10
  681 -9.06463e-11 4.24431e-12 -1.14832e-10
  682 -1.01181e-10 -4.16094e-11 1.14708e-10
  683 -1.16545e-10 2.83243e-11 -9.89685e-11
  684 5.71163e-10 2.21917e-11 -8.73699e-11
  685 -1.03500e-10 7.27596e-12 -9.12603e-11
  686 1.01560e-10 4.68390e-11 -2.39501e-11
  687 -1.78911e-10 4.98923e-11 6.26269e-11
  688 7.48009e-10 1.13414e-09 -9.43207e-10
  689 -1.72154e-10 1.27329e-11 -4.45536e-11
  690 -2.56737e-10 1.24731e-11 2.63468e-11
  691 -1.79019e-10 5.85108e-11 8.76971e-11
  692 -1.70227e-10 1.25813e-10 -1.65866e-10
  693 8.00355e-11 2.05286e-11 2.52179e-12
  694 1.00694e-10 6.36646e-12 -1.23436e-12
  695 -1.12664e-10 1.42563e-10 3.89661e-11
  696 -1.17974e-10 5.98967e-11 -1.30086e-10
  697 -1.51734e-10 1.51582e-13 1.99350e-10
  698 -1.10049e-10 1.99331e-10 1.50785e-11
  699 1.72544e-10 7.74370e-11 -6.37986e-11
  700 5.66485e-11 -2.15940e-10 -1.36509e-11
  701 -1.22479e-10 -8.83726e-11 2.60793e-10
  702 2.65686e-10 2.87741e-10 2.77440e-10
  703 1.56282e-10 3.50155e-11 -2.75770e-11
  704 -1.48637e-10 -3.66916e-10 3.69486e-10
  705 2.89089e-10 3.91083e-11 -6.23574e-11
  706 5.19711e-12 -2.00089e-11 -1.14670e-11
  707 -1.67499e-10 7.59428e-11 8.49501e-11
  708 -1.75381e-10 1.33089e-10 1.31127e-10
  709 -6.15858e-11 -1.28758e-10 -2.01678e-10
  710 3.28214e-10 1.25056e-12 -2.41612e-12
  711 9.03431e-11 1.67195e-10 1.01412e-10
  712 -9.56485e-11 8.03387e-12 -1.38375e-10
  713 -6.40284e-11 -4.60204e-11 8.92277e-11
  714 -2.16460e-10 8.31538e-12 -2.04598e-11
  715 -3.17284e-10 5.58690e-12 1.16298e-11
  716 1.86295e-10 4.69906e-11 5.17225e-11
  717 2.93312e-10 1.21266e-12 7.25635e-12
  718 -1.16675e-10 6.73026e-11 -8.20266e-11
  719 -5.14514e-11 1.80210e-10 -2.24605e-11
  720 -1.67044e-10 -1.72956e-10 1.36143e-10
  721 1.16935e-12 8.71816e-11 -1.25168e-11
  722 -7.48817e-11 -6.91216e-11 -1.84318e-10
  723 9.77707e-11 9.82254e-11 5.98410e-11
  724 2.68951e-10 2.20877e-12 3.93733e-12
  725 -4.51716e-11 2.59206e-10 -7.46373e-11
  726 9.22487e-12 4.80733e-12 3.87467e-14
  727 -1.89825e-10 -7.92560e-12 1.29626e-10
  728 -1.48551e-10 -3.21355e-11 1.58401e-10
  729 -6.44442e-11 -4.02776e-11 -1.48502e-10
  730 -1.49521e-10 2.51021e-11 -2.60125e-11
  731 -1.80444e-10 1.20053e-11 1.01497e-11
  732 -1.89175e-10 -2.22144e-10 1.53134e-10
  733 -1.37031e-10 2.09184e-11 -2.05586e-10
  734 -1.98982e-09 -3.36528e-09 5.95400e-10
  735 4.53232e-10 2.12822e-10 -2.94764e-10
  736 4.62326e-11 1.32938e-10 -5.31774e-11
  737 -5.40500e-11 9.28984e-11 8.54695e-12
  738 -1.85277e-10 4.30061e-11 1.19882e-10
  739 -1.06411e-10 1.30240e-10 -6.22502e-11
  740 -4.24431e-11 -1.16567e-10 -1.40280e-10
  741 2.71679e-10 7.40589e-12 -1.03138e-11
  742 1.25813e-11 5.06285e-11 -6.55970e-12
  743 -1.12595e-10 -1.20963e-10 1.69872e-10
  744 1.76442e-10 2.54659e-11 -2.07211e-11
  745 -4.42318e-10 -1.97360e-10 -5.83963e-10
  746 -1.01344e-11 -5.50894e-11 -6.22002e-11
  747 -2.19643e-10 1.38698e-10 2.03681e-10
  748 -9.42843e-11 9.76191e-11 -5.80508e-11
  749 -1.96602e-10 3.62282e-11 5.87663e-11
  750 -1.21872e-10 2.16763e-11 -8.28781e-11
  751 4.71638e-11 -8.16077e-10 4.26631e-10
  752 1.73194e-10 1.81899e-10 -1.50781e-10
  753 -7.60565e-11 3.81874e-10 1.48132e-10
  754 -4.23565e-11 1.08750e-10 -1.23592e-11
  755 -1.16155e-10 8.21144e-11 -8.53543e-11
  756 -8.04253e-11 -6.60813e-10 2.48315e-10
  757 -1.17325e-10 1.17780e-10 -9.35909e-11
  758 3.09228e-11 7.12438e-11 -1.61944e-11
  759 1.61370e-10 5.71682e-12 -3.02691e-12
  760 1.34086e-10 1.94892e-11 1.06462e-11
  761 -5.06285e-11 -1.63709e-10 2.06989e-10
  762 -1.73454e-10 6.47041e-11 1.11589e-10
  763 1.96581e-10 4.85930e-11 -4.69303e-11
  764 2.31163e-10 1.68257e-11 3.07532e-11
  765 -9.58607e-11 -2.40652e-10 -2.95497e-10
  766 -7.27596e-12 -1.84108e-10 -8.91906e-11
  767 -3.39696e-10 2.42532e-12 4.90317e-12
  768 -2.57084e-10 4.09273e-12 -1.04361e-11
  769 7.40589e-12 9.09495e-12 3.56857e-14
  770 4.05635e-10 5.27507e-12 -2.24642e-11
  771 -2.12064e-10 8.85696e-10 1.90501e-10
  772 3.68215e-10 8.01655e-11 -1.32095e-10
  773 7.27596e-12 -4.92426e-11 -2.79523e-11
  774 -3.51671e-11 -3.65920e-10 2.43378e-10
  775 -1.24904e-10 4.74453e-11 -6.92918e-11
  776 -1.09897e-10 7.73070e-12 2.85774e-11
  777 -3.01649e-11 6.21488e-12 -1.28231e-11
  778 1.36424e-11 6.85001e-10 3.39034e-10
  779 -1.53705e-10 4.01693e-11 3.35302e-11
  780 2.54009e-10 5.71682e-12 -7.38220e-12
  781 -1.16545e-10 1.20833e-11 -5.61218e-11
  782 -2.23736e-10 1.58512e-11 5.03210e-11
  783 1.30361e-10 6.89700e-11 5.05013e-11
  784 -2.51566e-10 1.12777e-11 2.26798e-11
  785 -1.80080e-10 1.47338e-11 -4.17499e-11
  786 3.06954e-10 4.72937e-11 8.90399e-11
  787 -1.09321e-10 1.52795e-11 6.18448e-12
  788 -9.56788e-11 3.32875e-11 -1.63702e-11
  789 -3.54703e-11 -1.72076e-10 -1.57724e-10
  790 -2.82701e-10 3.71377e-11 -3.59490e-10
  791 -3.03252e-10 6.23654e-12 1.42255e-11
  792 -1.87486e-10 1.06541e-11 -2.13877e-11
  793 -4.95675e-11 2.88007e-12 2.23215e-11
  794 4.54747e-12 5.45697e-12 -5.53030e-12
  795 5.85715e-09 4.00742e-09 7.26086e-12
  796 -1.51626e-10 8.04253e-11 6.66107e-11
  797 4.54747e-12 6.51805e-12 -6.88959e-13
  798 -1.51582e-12 7.12438e-12 -7.21645e-13
  799 1.38395e-10 1.42488e-11 -5.98237e-12
  800 -1.05198e-10 -1.19750e-11 -1.86906e-10
  801 3.48640e-12 -1.40820e-10 -1.49325e-11
  802 2.21917e-10 1.36424e-11 2.26208e-11
  803 -2.84672e-10 -1.47490e-10 1.75556e-10
  804 1.06714e-10 3.51671e-11 1.93179e-11
  805 -1.29928e-12 -1.01604e-10 8.42913e-11
  806 -1.01604e-10 -3.91343e-10 -3.41896e-10
  807 -5.45697e-12 -2.51172e-10 -1.02550e-10
  808 -1.43245e-10 9.54969e-12 2.56276e-11
  809 -3.78956e-11 8.03387e-12 -1.45439e-11
  810 -2.05676e-10 1.26030e-11 -2.88817e-11
  811 -2.65443e-10 7.40589e-12 1.18833e-11
  812 -2.74971e-10 2.72848e-12 -7.66054e-12
  813 -3.38635e-10 1.66741e-12 1.96172e-12
  814 2.98834e-12 -1.12128e-10 -1.44884e-11
  815 -2.44351e-10 3.33481e-12 2.33210e-12
  816 -1.99331e-10 1.06108e-11 -8.63198e-12
  817 -4.05786e-10 4.52170e-10 -1.42502e-10
  818 1.51582e-13 -1.01863e-10 -1.66134e-11
  819 -6.63931e-11 -1.98846e-09 -1.14003e-09
  820 -7.06374e-11 8.94336e-12 -2.23155e-11
  821 -1.94329e-10 8.64020e-12 2.83117e-11
  822 4.54747e-12 -7.33053e-11 -4.11962e-11
  823 2.22371e-10 1.92510e-11 -1.97475e-11
  824 -2.66742e-10 -1.79573e-09 5.36120e-10
  825 -1.33999e-10 6.97279e-12 -2.08583e-11
  826 -2.56478e-10 7.12438e-12 1.90222e-11
  827 -3.01801e-10 4.24431e-12 6.05058e-12
  828 -2.31618e-10 9.54969e-12 -1.61121e-11
  829 -3.06954e-12 -5.34328e-12 -5.74540e-12
  830 -2.97102e-11 4.32768e-10 -2.13045e-10
  831 -4.54747e-13 -6.62415e-11 -2.40606e-12
  832 -3.94114e-12 -2.92251e-10 -5.63508e-11
  833 -1.69166e-10 2.05546e-11 1.57598e-11
  834 -1.40790e-10 3.31056e-11 -3.88106e-11
  835 -6.39245e-11 -1.93852e-10 2.60551e-10
  836 1.73350e-10 9.64064e-12 3.49720e-12
  837 2.06819e-10 1.63709e-12 -8.16027e-13
  838 6.26036e-11 2.45412e-10 1.40832e-10
  839 -1.02409e-10 6.71207e-11 -5.35239e-11
  840 -1.08533e-10 3.30450e-11 -1.31090e-10
  841 -4.39156e-11 -7.89961e-11 -1.18393e-10
  842 -5.82077e-11 1.66741e-11 4.41601e-12
  843 -5.83592e-11 3.80472e-11 -1.22443e-11
  844 -4.54098e-10 4.37857e-11 5.48218e-10
  845 -1.74259e-10 2.38106e-10 -8.49637e-10
  846 8.79178e-12 -8.79178e-12 -4.41314e-12
  847 -9.26385e-11 7.18501e-11 2.49953e-11
  848 1.61110e-11 3.36513e-11 -4.29610e-12
  849 -1.22132e-11 7.43187e-11 -1.28320e-12
  850 3.88051e-11 2.14034e-10 -1.01678e-10
  851 -1.10655e-10 1.83566e-10 -4.29379e-11
  852 -5.04770e-11 4.95675e-11 7.22316e-12
  853 -1.14986e-10 -3.24820e-12 6.62804e-11
  854 -1.20205e-10 5.16896e-11 -9.52571e-11
  855 -1.45064e-10 5.92687e-11 4.54838e-11
  856 3.50307e-10 3.72893e-11 -7.15862e-11
  857 -1.15870e-10 -1.62800e-10 1.65049e-10
  858 -1.65831e-10 5.13865e-11 4.99871e-11
  859 -1.10200e-10 3.59250e-11 -1.17517e-10
  860 -1.26117e-10 3.97146e-11 -9.28424e-11
  861 -4.04076e-11 2.41666e-11 2.84497e-12
  862 -4.91127e-11 5.27507e-11 -1.50118e-11
  863 -5.30539e-12 -1.21266e-12 -1.01863e-11
  864 1.58252e-11 -3.98177e-10 -1.25766e-10
  865 -8.24609e-11 2.34953e-11 6.75822e-12
  866 -7.94292e-11 4.79001e-11 -2.29539e-11
  867 -7.22139e-11 7.63976e-12 5.73304e-13
  868 -6.38465e-11 2.16460e-11 -3.84692e-12
  869 3.53187e-11 1.03076e-11 -8.74043e-13
  870 2.13731e-11 2.77396e-11 1.44329e-12
  871 -1.86446e-10 1.00044e-11 6.25387e-12
  872 -1.56069e-10 2.03727e-11 -2.03004e-11
  873 -9.47390e-11 3.21355e-11 1.21867e-11
  874 -9.42843e-11 5.65403e-11 -3.58602e-11
  875 -4.39589e-12 -2.50111e-11 2.12984e-11
  876 -9.85892e-11 -1.06775e-10 2.15511e-10
  877 -9.82254e-11 -8.87667e-11 -2.43913e-10
  878 -1.55675e-10 7.07890e-11 6.18568e-11
  879 8.58563e-11 2.27374e-11 -8.06096e-12
  880 4.62023e-11 5.85715e-11 1.67366e-11
  881 -1.22479e-10 2.35559e-10 4.36434e-12
  882 -1.78109e-10 3.92599e-11 1.24317e-10
  883 -1.91449e-10 -5.57823e-11 1.42481e-10
  884 -4.12911e-11 -1.03682e-11 -5.21416e-11
  885 -2.52840e-11 3.81988e-12 1.56332e-11
  886 9.09495e-13 3.63798e-12 -1.26565e-12
  887 -5.44181e-11 -1.45519e-11 5.32858e-11
  888 1.97360e-10 3.53187e-11 -3.45380e-11
  889 2.76304e-10 1.96451e-11 4.10172e-11
  890 -4.14730e-11 -4.31100e-11 -1.10711e-10
  891 -1.46792e-10 1.12777e-11 9.31664e-11
  892 -1.50067e-10 1.08412e-10 7.92444e-11
  893 -1.14596e-11 -9.45874e-11 -7.86038e-11
  894 9.00036e-10 5.12955e-11 -2.14737e-10
  895 -3.63798e-10 1.69014e-10 3.48362e-10
  896 -8.58563e-11 2.18279e-12 -6.40821e-11
  897 -1.92631e-10 1.96451e-11 7.16520e-11
  898 -2.25252e-10 2.15247e-11 4.20264e-11
  899 -1.63709e-10 1.81899e-11 1.19123e-10
  900 -1.39698e-10 1.68984e-10 5.48273e-11
  901 2.98834e-12 1.26030e-11 2.18924e-12
  902 -1.90236e-10 1.67650e-10 1.34900e-10
  903 2.01605e-10 2.12822e-10 1.96503e-10
  904 -3.11827e-11 -3.19622e-11 -7.11365e-11
  905 2.20877e-12 -7.61377e-11 -1.85804e-11
  906 -4.04725e-11 -4.03209e-11 6.52214e-11
  907 1.21363e-09 3.53612e-10 5.88529e-10
  908 -1.47944e-10 1.77351e-11 -6.36019e-11
  909 -1.05501e-10 2.91038e-11 -1.26898e-11
  910 -1.22964e-10 1.40062e-11 4.80700e-12
  911 1.81899e-11 1.00434e-10 -2.56037e-11
  912 2.34104e-10 3.81988e-12 -2.82571e-12
  913 -1.65528e-10 -2.85841e-12 1.33484e-10
  914 3.43009e-10 1.29928e-12 -5.95906e-12
  915 3.50337e-10 6.00267e-12 2.80567e-11
  916 1.66269e-09 1.09529e-10 2.94598e-10
  917 4.58992e-10 2.25858e-11 7.27274e-11
  918 -1.37182e-10 2.71333e-11 1.47915e-11
  919 -1.20811e-10 4.41105e-11 -3.78308e-11
  920 1.75836e-11 1.04592e-11 1.22125e-12
  921 9.09495e-13 3.09228e-12 3.03479e-12
  922 1.96815e-10 9.45874e-12 7.82707e-12
  923 -4.63842e-11 2.18279e-12 -3.65041e-11
  924 -1.50612e-10 1.09139e-11 6.53515e-11
  925 -1.60071e-10 -4.19883e-11 2.75632e-10
  926 -1.63709e-11 1.05242e-11 1.69266e-11
  927 -2.44108e-10 8.45830e-11 2.82118e-10
  928 -3.10744e-11 -1.13535e-10 -1.03861e-10
  929 -3.00133e-11 1.46039e-10 -2.14165e-11
  930 3.78956e-12 -4.39589e-11 1.18397e-11
  931 1.65331e-09 5.20989e-10 -8.07883e-10
  932 1.17022e-10 5.16896e-11 3.16552e-11
  933 -3.71074e-11 -6.50834e-10 -2.79826e-10
  934 -2.27374e-11 -1.54008e-10 -8.12961e-11
  935 -4.71118e-11 1.33696e-10 -6.76126e-12
  936 -2.93009e-10 5.15380e-12 1.45947e-11
  937 -1.68408e-10 9.85286e-12 -1.94844e-11
  938 1.71531e-10 1.25692e-10 1.20812e-10
  939 4.54747e-13 1.36424e-12 2.49800e-13
  940 -1.18416e-10 9.73159e-11 4.36340e-11
  941 -1.75714e-09 -1.43882e-10 7.78088e-10
  942 1.30967e-11 -1.56069e-10 4.78859e-11
  943 -5.41149e-11 -5.85108e-11 8.69227e-11
  944 3.62585e-10 4.23218e-10 4.18637e-10
  945 -2.43138e-10 8.33703e-12 1.02404e-11
  946 -1.89023e-10 1.57646e-11 -2.47857e-11
  947 -1.29928e-13 2.59856e-12 4.42702e-12
  948 -2.03363e-10 3.09228e-11 6.21821e-11
  949 -6.87578e-11 1.88084e-10 1.78191e-12
  950 -3.52732e-10 4.54747e-12 7.78942e-13
  951 -2.88916e-10 5.00222e-12 -2.69229e-12
  952 -1.45519e-12 -4.90400e-10 1.30288e-10
  953 2.35819e-10 2.98834e-12 2.09356e-12
  954 2.84022e-10 2.20877e-12 2.20191e-13
  955 -1.17325e-10 1.60071e-11 -7.89036e-11
  956 6.63476e-10 5.22959e-11 1.70419e-10
  957 -1.64255e-10 4.74756e-11 1.48615e-10
  958 2.30405e-10 1.27329e-11 -1.39976e-11
  959 -7.36691e-11 -6.66963e-12 5.82578e-11
  960 3.01043e-10 6.36646e-12 -1.10331e-11
  961 8.65839e-11 3.09410e-10 -2.07990e-10
  962 -2.33740e-10 -1.45064e-10 4.05997e-10
  963 -2.76486e-10 -1.94783e-10 -4.55736e-10
  964 -2.03987e-10 2.70250e-11 3.67678e-11
  965 -1.57039e-10 1.15961e-10 1.00566e-10
  966 -1.46429e-10 2.85841e-11 -6.35325e-11
  967 -1.61110e-11 -1.59811e-11 2.28090e-11
  968 -9.09495e-13 4.36557e-12 -1.52295e-11
  969 -1.73843e-10 1.01344e-11 -3.87607e-11
  970 -2.69860e-10 1.01344e-11 2.50931e-11
  971 1.57646e-10 1.87962e-11 -1.28262e-11
  972 -1.32241e-10 -2.99951e-10 3.43503e-10
  973 -1.33999e-10 -1.30361e-11 1.23024e-10
  974 -7.26080e-11 8.15514e-11 -3.16136e-11
  975 -1.68620e-10 6.02085e-11 6.74699e-11
  976 -9.18590e-11 -1.17325e-10 2.37900e-10
  977 8.84808e-11 8.57524e-12 -2.85904e-12
  978 6.74325e-11 2.50761e-11 6.00710e-12
  979 2.12276e-10 7.47605e-11 8.40911e-11
  980 1.54766e-10 -1.14202e-09 1.84679e-10
  981 5.45697e-12 1.12777e-11 -2.41843e-12
  982 -1.06411e-10 5.82077e-12 5.16649e-11
  983 -2.74667e-11 2.36469e-12 -2.30399e-11
  984 1.45519e-11 1.00044e-11 9.99201e-13
  985 -3.76349e-10 5.20049e-10 6.66270e-11
  986 -1.08594e-10 2.83762e-11 -1.15075e-10
  987 -2.12973e-10 1.32483e-10 -2.05516e-10
  988 -1.72804e-10 4.56566e-11 2.01620e-10
  989 -1.83718e-10 3.41970e-11 1.23890e-10
  990 2.85841e-12 -1.66308e-11 2.12110e-11
  991 6.62112e-11 6.54836e-12 -1.73718e-12
  992 5.03860e-11 2.18279e-11 2.43972e-12
  993 -1.41123e-10 1.44155e-10 6.64712e-11
  994 5.76013e-12 6.06330e-13 -5.27356e-12
  995 -1.34605e-10 9.24653e-12 -3.91770e-11
  996 -2.47686e-10 1.03076e-11 3.31650e-11
  997 -1.28057e-10 1.34605e-11 -6.02518e-11
  998 -2.27919e-10 1.83718e-11 4.94232e-11
  999 -1.51582e-10 2.07668e-11 -5.85226e-11
  1000 -2.13367e-10 2.36469e-12 -1.86392e-13
  1001 -1.70985e-10 1.27329e-11 -1.15741e-12
  1002 -2.51475e-10 -2.28283e-10 1.51363e-10
  1003 7.42754e-12 1.75836e-11 2.46421e-12
  1004 -2.28283e-10 1.94026e-11 3.62277e-11
  1005 -1.65346e-10 1.12595e-10 1.24400e-10
  1006 2.07365e-11 -1.68984e-10 2.77351e-11
  1007 -5.82077e-11 -1.83198e-11 -8.55268e-11
  1008 -1.74259e-10 6.69388e-11 9.04889e-11
  1009 4.22157e-10 6.97279e-11 1.48195e-10
  1010 -2.01908e-11 -1.85537e-11 -4.45186e-11
  1011 -7.52282e-11 -1.29928e-12 -7.50947e-11
  1012 -2.16763e-11 -6.73632e-10 -1.09782e-10
  1013 -1.98270e-10 1.81899e-13 -3.19078e-10
  1014 4.91127e-12 -1.63709e-11 -2.83107e-12
  1015 -2.39538e-10 1.07980e-09 -5.23763e-10
  1016 -1.60677e-11 -2.98769e-10 1.96952e-10
  1017 -1.74320e-10 -2.47079e-11 1.40561e-10
  1018 -1.45701e-10 6.67569e-11 5.11835e-11
  1019 2.79215e-10 1.81899e-12 5.32907e-12
  1020 4.14730e-11 -4.30009e-10 -7.90888e-11
  1021 -2.32982e-10 7.42754e-12 -1.77081e-11
  1022 -3.03771e-10 3.63798e-12 7.10955e-12
  1023 -5.45697e-12 -4.82032e-11 2.87943e-11
  1024 -2.05546e-10 2.27374e-11 3.00132e-11
  1025 -1.83848e-10 2.74148e-11 8.58920e-11
  1026 -1.55160e-10 2.67391e-11 -5.57221e-11
  1027 2.71333e-11 1.82354e-10 -7.15722e-11
  1028 -1.72804e-11 4.60204e-11 6.51999e-13
  1029 -6.27551e-10 -9.04298e-11 -6.37205e-10
  1030 -1.98400e-10 -3.27028e-10 4.98315e-10
  1031 -1.92813e-11 -1.36242e-10 -4.90129e-11
  1032 -3.25902e-11 1.16718e-10 -6.59497e-12
  1033 -2.00240e-10 3.04681e-11 6.84783e-11
  1034 -4.37285e-10 -1.71203e-09 -8.65524e-10
  1035 -1.76962e-10 3.19622e-11 1.07519e-10
  1036 -2.71029e-11 -1.72258e-10 1.83115e-10
  1037 -6.76816e-10 5.58581e-10 3.95907e-10
  1038 -2.78912e-11 -1.60829e-10 -1.28161e-10
  1039 -1.15809e-10 5.30539e-11 -1.08677e-10
  1040 1.64982e-10 9.51331e-11 -8.06912e-11
  1041 8.29156e-11 8.57957e-11 -4.27473e-11
  1042 1.03137e-10 7.09406e-11 -3.78875e-11
  1043 4.69906e-12 -2.01756e-10 -5.64548e-11
  1044 2.73606e-10 9.62549e-11 -1.20424e-10
  1045 -8.76753e-11 -1.81899e-12 -1.28580e-10
  1046 8.51287e-11 3.23780e-11 -1.37470e-11
  1047 -1.05956e-10 1.18234e-11 -8.15736e-11
  1048 -6.33008e-11 5.69344e-11 1.20393e-11
  1049 -1.71440e-10 1.97057e-11 8.75311e-11
  1050 -9.92865e-11 6.21488e-12 -1.00829e-10
  1051 4.82032e-10 1.26571e-10 2.21795e-10
  1052 -1.75381e-10 5.85108e-10 1.54399e-10
  1053 -1.11868e-10 5.23869e-11 2.59989e-11
  1054 -6.35130e-11 -3.94114e-12 -6.46150e-11
  1055 2.09184e-10 1.18762e-09 4.26434e-10
  1056 -2.04333e-10 3.00133e-11 4.88254e-11
  1057 -6.83637e-11 -1.63861e-10 2.37470e-10
  1058 -9.79656e-11 -6.49639e-12 8.19635e-11
  1059 8.79178e-12 1.42488e-11 -1.79648e-12
  1060 -1.34787e-10 -4.54747e-12 1.11755e-10
  1061 -1.24419e-10 1.28239e-10 -1.11610e-10
  1062 -1.35212e-10 2.19795e-11 -7.66887e-11
  1063 3.69073e-10 3.43061e-10 -3.86241e-10
  1064 -1.48702e-10 1.19750e-11 -3.85664e-11
  1065 -2.60873e-10 1.04592e-11 2.95848e-11
  1066 -2.25191e-10 3.83989e-10 1.63203e-12
  1067 2.86339e-10 3.03165e-12 -5.04484e-12
  1068 3.82139e-10 4.69906e-12 -1.82727e-11
  1069 -1.83458e-10 2.36209e-10 8.03286e-11
  1070 3.06318e-10 1.33696e-10 -1.74262e-10
  1071 3.03165e-13 -4.39589e-11 -4.01693e-11
  1072 3.40515e-10 5.45697e-13 -1.64846e-12
  1073 -2.17521e-10 -3.31966e-11 3.39356e-10
  1074 4.81486e-10 4.16185e-10 -5.05006e-10
  1075 3.62888e-10 5.30539e-12 -1.37806e-11
  1076 -2.45412e-10 3.03165e-12 5.07209e-12
  1077 -1.98876e-10 1.01560e-11 -1.40721e-11
  1078 -2.09866e-10 1.15961e-11 4.70430e-11
  1079 -9.68612e-11 6.36646e-12 -4.27991e-11
  1080 -1.01515e-09 7.50182e-10 4.53654e-10
  1081 -1.78564e-10 -6.65447e-11 1.26679e-10
  1082 -1.94450e-10 -3.60160e-11 1.28702e-10
  1083 8.63292e-10 9.58607e-11 2.48135e-10
  1084 -1.85385e-10 4.79001e-11 8.31192e-11
  1085 -1.04289e-10 7.18501e-11 -6.62101e-11
  1086 4.73695e-10 8.64020e-12 -4.25154e-11
  1087 -1.48066e-10 7.63976e-11 -1.83140e-10
  1088 -2.49202e-10 3.63798e-12 -7.04437e-12
  1089 -3.03226e-10 2.36469e-12 8.57277e-13
  1090 -5.54792e-11 1.09867e-10 6.88758e-12
  1091 9.56485e-11 9.54969e-12 -4.69945e-12
  1092 7.68523e-11 3.03165e-11 1.15463e-11
  1093 -1.14596e-10 6.74542e-11 -1.10606e-10
  1094 -1.74168e-10 1.78867e-11 1.33188e-10
  1095 -3.22689e-10 5.09317e-12 1.00052e-11
  1096 -2.11185e-10 9.09495e-12 -1.60538e-11
  1097 -1.77200e-10 2.50111e-11 1.23166e-10
  1098 -2.58296e-11 3.21961e-11 -2.89768e-12
  1099 -2.56478e-11 1.20053e-11 3.48440e-13
  1100 4.69906e-12 -2.77396e-11 -1.46775e-11
  1101 -3.63798e-13 -2.22099e-10 -8.55482e-11
  1102 -5.91172e-11 -2.47079e-11 6.95456e-11
  1103 1.95087e-10 3.15291e-11 4.06064e-11
  1104 -8.42798e-11 -2.47079e-11 9.03495e-11
  1105 -2.08456e-10 2.25555e-11 6.30482e-11
  1106 3.32117e-10 7.57912e-13 3.35219e-13
  1107 2.74061e-10 1.97057e-12 5.55112e-14
  1108 -1.45909e-10 2.19448e-10 -5.37784e-11
  1109 -1.80686e-10 5.39634e-11 1.08404e-10
  1110 -1.65225e-11 -7.12438e-12 -2.63192e-11
  1111 -1.84173e-10 5.15380e-11 2.31547e-10
  1112 1.48793e-10 1.32786e-11 2.48135e-12
  1113 1.76988e-10 3.63798e-12 -3.87273e-13
  1114 -2.07365e-11 -7.91260e-11 -8.41494e-11
  1115 -8.71296e-11 -2.22462e-10 2.96388e-10
  1116 -2.41562e-10 1.12777e-11 1.65280e-11
  1117 -1.83718e-10 1.80080e-11 -3.60711e-11
  1118 -7.04858e-12 -2.97860e-11 -3.95517e-11
  1119 -5.52791e-10 6.67569e-10 -1.93661e-10
  1120 -1.15203e-11 -1.77351e-11 -2.76862e-11
  1121 -1.75684e-10 -1.03076e-11 1.33795e-10
  1122 -2.69817e-11 -2.34346e-10 2.19927e-10
  1123 -1.19326e-10 5.80258e-11 -7.32029e-11
  1124 -3.23962e-10 -2.68628e-09 -2.12249e-11
  1125 3.05226e-10 9.45874e-12 -1.72727e-11
  1126 3.56158e-10 1.09139e-12 -6.52631e-12
  1127 -1.73532e-10 8.36735e-12 2.25953e-11
  1128 -5.27507e-11 8.18545e-12 -1.67200e-11
  1129 2.00816e-10 -3.37113e-09 9.55902e-12
  1130 4.85064e-12 1.94026e-11 -9.37051e-13
  1131 -1.24298e-11 4.21399e-11 -1.44329e-12
  1132 -2.16460e-11 -1.19871e-10 5.75090e-11
  1133 -3.54703e-11 -1.87538e-10 9.10777e-11
  1134 -1.47035e-11 5.95719e-11 -4.17721e-12
  1135 3.48640e-12 2.66785e-11 -1.79618e-12
  1136 6.69994e-11 1.30361e-11 -2.80910e-12
  1137 4.92643e-11 3.66830e-11 7.38298e-12
  1138 -1.45519e-12 -1.58252e-11 -1.08913e-11
  1139 -1.88038e-10 5.22959e-12 2.44670e-12
  1140 -1.54159e-10 1.34150e-11 -7.20257e-12
  1141 -3.62161e-10 -7.65976e-10 9.81946e-10
  1142 -2.13549e-10 -1.00226e-10 1.40822e-10
  1143 9.09495e-13 -9.23137e-11 1.16182e-11
  1144 -2.32679e-10 2.29951e-10 -1.60275e-10
  1145 -9.32232e-11 2.46321e-10 1.85546e-11
  1146 -1.33696e-10 4.94765e-11 3.20900e-11
  1147 1.12032e-09 1.00590e-10 -2.90732e-10
  1148 -1.63709e-12 -8.56744e-11 -1.05770e-11
  1149 -4.96129e-10 6.65447e-10 3.77320e-11
  1150 4.14730e-11 8.16726e-11 2.14828e-11
  1151 -5.32964e-11 9.25866e-11 -2.09832e-11
  1152 -1.12050e-10 4.07454e-11 2.05430e-11
  1153 4.04574e-10 3.31966e-11 -7.97747e-11
  1154 -3.89264e-11 -4.31100e-11 7.40950e-11
  1155 1.80989e-10 1.31422e-10 -1.19576e-10
  1156 -2.77396e-10 2.99951e-10 1.27480e-10
  1157 -1.11140e-10 7.93079e-11 3.40763e-11
  1158 -7.07587e-11 2.18279e-12 4.21915e-11
  1159 1.81899e-12 8.60988e-11 7.93809e-12
  1160 -3.50155e-10 -1.81899e-13 8.86458e-13
  1161 -2.92312e-10 -1.45519e-12 -3.23075e-12
  1162 -1.64982e-10 5.89353e-11 1.30770e-10
  1163 -5.22959e-11 -7.83681e-11 -1.40241e-10
  1164 -5.45697e-12 -5.89353e-11 5.25722e-11
  1165 -2.38288e-10 7.63976e-12 1.98771e-11
  1166 -1.12414e-10 7.27596e-12 -1.71863e-11
  1167 -4.57021e-11 9.09495e-12 6.04183e-13
  1168 -4.43379e-11 2.47837e-11 -1.16573e-12
  1169 -6.29370e-11 7.78527e-11 1.34928e-11
  1170 2.39434e-09 6.31007e-10 -1.28199e-09
  1171 7.57306e-29 7.32143e-11 -9.23207e-12
  1172 -1.81899e-11 -3.12260e-11 3.61302e-11
  1173 -3.78956e-12 -6.66963e-12 -1.53072e-11
  1174 -4.25644e-11 -2.12822e-11 -7.28750e-11
  1175 2.20098e-11 -3.47063e-10 4.87585e-11
  1176 4.14548e-10 1.36424e-11 4.57634e-11
  1177 3.38514e-10 -7.27596e-13 -5.28629e-13
  1178 2.79761e-10 3.63798e-13 1.19904e-12
  1179 -3.06197e-10 1.81899e-12 1.00748e-12
  1180 -2.51324e-10 3.03165e-12 -2.19269e-12
  1181 -2.40561e-10 2.32224e-10 1.44257e-10
  1182 -2.07365e-11 -1.04410e-10 1.21446e-10
  1183 -4.62023e-11 -4.74029e-10 8.01981e-11
  1184 -3.76531e-11 -3.56522e-11 -8.45365e-11
  1185 -1.65528e-10 2.16460e-11 1.11742e-10
  1186 -1.95541e-10 3.27418e-11 4.41972e-11
  1187 1.52613e-10 2.47383e-11 -1.57703e-11
  1188 6.21488e-12 1.10655e-11 7.34715e-12
  1189 -1.31331e-10 3.05590e-11 -7.54397e-11
  1190 1.99483e-10 1.28845e-11 -1.21012e-11
  1191 -2.59358e-10 7.83984e-10 -3.10787e-10
  1192 -1.60981e-10 3.45608e-10 -2.81482e-11
  1193 1.47035e-11 -1.77351e-11 1.86816e-11
  1194 -4.27463e-11 3.51065e-11 -7.16094e-12
  1195 -4.91127e-11 1.29148e-11 1.91468e-12
  1196 2.40652e-10 2.45564e-11 -3.04298e-11
  1197 -2.12367e-10 1.00044e-11 -2.51882e-11
  1198 -2.93085e-10 6.82121e-12 1.43298e-11
  1199 1.55887e-10 2.41926e-11 1.83686e-11
  1200 -9.54969e-11 -1.00590e-10 1.34663e-10
  1201 -1.79625e-10 1.60677e-11 1.29410e-10
  1202 -8.67052e-11 1.75836e-11 5.51993e-12
  1203 -8.24609e-11 3.89567e-11 -1.73097e-11
  1204 2.88674e-10 2.54659e-12 -2.26624e-12
  1205 2.07820e-10 9.54969e-12 -7.97802e-12
  1206 7.27596e-12 1.09139e-12 -1.59872e-12
  1207 3.47245e-10 3.63798e-13 -3.36106e-12
  1208 4.91127e-12 -6.91216e-12 -6.07419e-12
  1209 1.39698e-10 2.92857e-11 2.18991e-11
  1210 3.45608e-12 8.54925e-12 -1.74860e-12
  1211 -1.81899e-10 3.71377e-11 9.74911e-11
  1212 -7.06374e-11 -5.60855e-12 -8.92619e-11
  1213 3.11047e-10 2.54659e-12 9.92331e-12
  1214 -1.47338e-11 9.91349e-11 3.74700e-12
  1215 2.46473e-10 5.30539e-12 1.39055e-11
  1216 -3.41061e-11 1.92510e-11 3.14183e-12
  1217 -4.53232e-11 4.22915e-11 -1.16851e-11
  1218 1.82808e-10 5.63887e-12 -5.79157e-12
  1219 4.67480e-11 3.78350e-11 -9.44535e-12
  1220 2.57690e-12 4.95675e-11 2.41474e-12
  1221 2.44048e-11 2.10700e-11 -2.47664e-12
  1222 2.39046e-10 4.39589e-12 9.67282e-12
  1223 -1.83536e-10 4.54747e-11 1.16237e-10
  1224 2.11367e-10 8.73115e-12 1.12493e-11
  1225 1.76442e-10 9.39811e-12 -6.53243e-12
  1226 -2.32285e-10 4.00178e-12 4.41871e-12
  1227 -1.88629e-10 1.29148e-11 -1.11910e-11
  1228 -1.27147e-10 8.00355e-12 2.11116e-12
  1229 -1.07320e-10 2.01908e-11 -6.41154e-12
  1230 -1.10049e-10 -8.71296e-11 1.97702e-10
  1231 -1.36970e-10 1.20417e-10 6.22902e-11
  1232 -1.94632e-11 -4.22006e-11 -6.43485e-11
  1233 -2.52294e-10 4.18368e-12 -1.26232e-11
  1234 -3.41606e-10 2.91038e-12 5.73419e-12
  1235 2.82701e-10 6.68479e-11 -9.16577e-11
  1236 1.23509e-10 6.73026e-12 -2.80471e-12
  1237 1.00408e-10 2.05546e-11 7.19425e-12
  1238 -8.91305e-11 -3.03316e-10 3.04327e-10
  1239 -4.63842e-11 -5.52973e-11 -1.16374e-10
  1240 -1.93904e-10 8.91305e-12 -3.34566e-11
  1241 -2.84308e-10 8.73115e-12 1.96824e-11
  1242 1.13005e-10 1.56888e-11 -6.67184e-12
  1243 8.25366e-11 4.09273e-11 1.74236e-11
  1244 1.08048e-10 6.51198e-11 3.79030e-11
  1245 6.65204e-10 2.98314e-11 -1.07054e-10
  1246 -9.91349e-11 -1.47702e-10 1.76567e-10
  1247 3.76531e-11 2.04636e-10 1.04283e-10
  1248 -3.33481e-12 -4.54747e-13 -1.42594e-11
  1249 -7.54881e-11 1.59707e-10 4.43422e-12
  1250 -9.34233e-10 -3.02389e-09 1.28230e-09
  1251 -9.45874e-12 -2.72848e-12 -4.62963e-12
  1252 -1.49885e-10 -9.45874e-11 1.39590e-10
  1253 -1.89630e-10 2.63602e-10 -8.13793e-11
  1254 6.34464e-10 7.80528e-10 -8.57949e-10
  1255 -1.07138e-10 9.64064e-12 -7.08766e-11
  1256 -9.38295e-11 1.28997e-10 2.39265e-11
  1257 5.82077e-12 -3.63798e-11 4.13003e-12
  1258 -1.69772e-11 -1.42488e-11 -3.31297e-11
  1259 2.62116e-10 5.03860e-11 7.69385e-11
  1260 -4.96584e-11 1.30967e-11 2.67043e-11
  1261 6.36646e-12 1.12777e-11 1.09250e-12
  1262 -2.06091e-10 -8.18545e-12 9.54928e-11
  1263 -1.18234e-11 3.05408e-10 1.26024e-10
  1264 1.12777e-10 9.09495e-11 -5.61322e-11
  1265 -5.15380e-11 1.30512e-10 -2.09464e-12
  1266 6.91216e-12 4.54747e-12 1.12676e-13
  1267 1.85537e-11 1.16415e-11 2.19824e-12
  1268 -1.66983e-10 7.89441e-11 9.11745e-11
  1269 -1.78867e-10 6.00267e-11 1.10721e-10
  1270 0.00000 0.00000 0.00000
  1271 -5.86624e-11 -3.61524e-11 -1.33331e-10
  1272 -1.47338e-10 -1.48551e-11 -2.43860e-10
  1273 3.94114e-12 3.48640e-12 -7.77156e-13
  1274 -1.84173e-11 2.13731e-11 5.62050e-13
  1275 -1.47793e-11 7.95808e-12 -2.52792e-12
  1276 2.89219e-10 9.45874e-12 -1.54088e-11
  1277 1.63557e-10 3.60766e-11 3.28626e-11
  1278 -1.33696e-10 8.67658e-11 5.19708e-11
  1279 -6.92732e-11 6.73026e-11 -2.77139e-11
  1280 -5.72982e-11 3.41970e-11 7.24289e-12
  1281 2.67543e-10 3.51671e-11 -4.57462e-11
  1282 -1.93419e-10 4.27463e-11 -2.60431e-10
  1283 -3.61979e-11 -1.29148e-11 3.58145e-11
</Section>

