newXOutput 1

<Section columns = "stress_xx | stress_yy | stress_xy">
  1 0.00000 0.00000 0.00000
  2 0.00000 0.00000 0.00000
  3 0.00000 0.00000 0.00000
  4 0.00000 0.00000 0.00000
  5 0.00000 0.00000 0.00000
  6 0.00000 0.00000 0.00000
  7 0.00000 0.00000 0.00000
  8 0.00000 0.00000 0.00000
  9 0.00000 0.00000 0.00000
  10 0.00000 0.00000 0.00000
  11 0.00000 0.00000 0.00000
  12 0.00000 0.00000 0.00000
  13 0.00000 0.00000 0.00000
  14 0.00000 0.00000 0.00000
  15 0.00000 0.00000 0.00000
  16 0.00000 0.00000 0.00000
  17 0.00000 0.00000 0.00000
  18 0.00000 0.00000 0.00000
  19 0.00000 0.00000 0.00000
  20 0.00000 0.00000 0.00000
  21 0.00000 0.00000 0.00000
  22 0.00000 0.00000 0.00000
  23 0.00000 0.00000 0.00000
  24 0.00000 0.00000 0.00000
  25 0.00000 0.00000 0.00000
  26 0.00000 0.00000 0.00000
  27 0.00000 0.00000 0.00000
  28 0.00000 0.00000 0.00000
  29 0.00000 0.00000 0.00000
  30 0.00000 0.00000 0.00000
  31 0.00000 0.00000 0.00000
  32 0.00000 0.00000 0.00000
  33 0.00000 0.00000 0.00000
  34 0.00000 0.00000 0.00000
  35 0.00000 0.00000 0.00000
  36 0.00000 0.00000 0.00000
  37 0.00000 0.00000 0.00000
  38 0.00000 0.00000 0.00000
  39 0.00000 0.00000 0.00000
  40 0.00000 0.00000 0.00000
  41 0.00000 0.00000 0.00000
  42 0.00000 0.00000 0.00000
  43 0.00000 0.00000 0.00000
  44 0.00000 0.00000 0.00000
  45 0.00000 0.00000 0.00000
  46 0.00000 0.00000 0.00000
  47 0.00000 0.00000 0.00000
  48 0.00000 0.00000 0.00000
  49 0.00000 0.00000 0.00000
  50 0.00000 0.00000 0.00000
  51 0.00000 0.00000 0.00000
  52 0.00000 0.00000 0.00000
  53 0.00000 0.00000 0.00000
  54 0.00000 0.00000 0.00000
  55 0.00000 0.00000 0.00000
  56 0.00000 0.00000 0.00000
  57 0.00000 0.00000 0.00000
  58 0.00000 0.00000 0.00000
  59 0.00000 0.00000 0.00000
  60 0.00000 0.00000 0.00000
  61 0.00000 0.00000 0.00000
  62 0.00000 0.00000 0.00000
  63 0.00000 0.00000 0.00000
  64 0.00000 0.00000 0.00000
  65 0.00000 0.00000 0.00000
  66 0.00000 0.00000 0.00000
  67 0.00000 0.00000 0.00000
  68 0.00000 0.00000 0.00000
  69 0.00000 0.00000 0.00000
  70 0.00000 0.00000 0.00000
  71 0.00000 0.00000 0.00000
  72 0.00000 0.00000 0.00000
  73 0.00000 0.00000 0.00000
  74 0.00000 0.00000 0.00000
  75 0.00000 0.00000 0.00000
  76 0.00000 0.00000 0.00000
  77 0.00000 0.00000 0.00000
  78 0.00000 0.00000 0.00000
  79 0.00000 0.00000 0.00000
  80 0.00000 0.00000 0.00000
  81 0.00000 0.00000 0.00000
  82 0.00000 0.00000 0.00000
  83 0.00000 0.00000 0.00000
  84 0.00000 0.00000 0.00000
  85 0.00000 0.00000 0.00000
  86 0.00000 0.00000 0.00000
  87 0.00000 0.00000 0.00000
  88 0.00000 0.00000 0.00000
  89 0.00000 0.00000 0.00000
  90 0.00000 0.00000 0.00000
  91 0.00000 0.00000 0.00000
  92 0.00000 0.00000 0.00000
  93 0.00000 0.00000 0.00000
  94 0.00000 0.00000 0.00000
  95 0.00000 0.00000 0.00000
  96 0.00000 0.00000 0.00000
  97 0.00000 0.00000 0.00000
  98 0.00000 0.00000 0.00000
  99 0.00000 0.00000 0.00000
  100 0.00000 0.00000 0.00000
  101 0.00000 0.00000 0.00000
  102 0.00000 0.00000 0.00000
  103 0.00000 0.00000 0.00000
  104 0.00000 0.00000 0.00000
  105 0.00000 0.00000 0.00000
  106 0.00000 0.00000 0.00000
  107 0.00000 0.00000 0.00000
  108 0.00000 0.00000 0.00000
  109 0.00000 0.00000 0.00000
  110 0.00000 0.00000 0.00000
  111 0.00000 0.00000 0.00000
  112 0.00000 0.00000 0.00000
  113 0.00000 0.00000 0.00000
  114 0.00000 0.00000 0.00000
  115 0.00000 0.00000 0.00000
  116 0.00000 0.00000 0.00000
  117 0.00000 0.00000 0.00000
  118 0.00000 0.00000 0.00000
  119 0.00000 0.00000 0.00000
  120 0.00000 0.00000 0.00000
  121 0.00000 0.00000 0.00000
  122 0.00000 0.00000 0.00000
  123 0.00000 0.00000 0.00000
  124 0.00000 0.00000 0.00000
  125 0.00000 0.00000 0.00000
  126 0.00000 0.00000 0.00000
  127 0.00000 0.00000 0.00000
  128 0.00000 0.00000 0.00000
  129 0.00000 0.00000 0.00000
  130 0.00000 0.00000 0.00000
  131 0.00000 0.00000 0.00000
  132 0.00000 0.00000 0.00000
  133 0.00000 0.00000 0.00000
  134 0.00000 0.00000 0.00000
  135 0.00000 0.00000 0.00000
  136 0.00000 0.00000 0.00000
  137 0.00000 0.00000 0.00000
  138 0.00000 0.00000 0.00000
  139 0.00000 0.00000 0.00000
  140 0.00000 0.00000 0.00000
  141 0.00000 0.00000 0.00000
  142 0.00000 0.00000 0.00000
  143 0.00000 0.00000 0.00000
  144 0.00000 0.00000 0.00000
  145 0.00000 0.00000 0.00000
  146 0.00000 0.00000 0.00000
  147 0.00000 0.00000 0.00000
  148 0.00000 0.00000 0.00000
  149 0.00000 0.00000 0.00000
  150 0.00000 0.00000 0.00000
  151 0.00000 0.00000 0.00000
  152 0.00000 0.00000 0.00000
  153 0.00000 0.00000 0.00000
  154 0.00000 0.00000 0.00000
  155 0.00000 0.00000 0.00000
  156 0.00000 0.00000 0.00000
  157 0.00000 0.00000 0.00000
  158 0.00000 0.00000 0.00000
  159 0.00000 0.00000 0.00000
  160 0.00000 0.00000 0.00000
  161 0.00000 0.00000 0.00000
  162 0.00000 0.00000 0.00000
  163 0.00000 0.00000 0.00000
  164 0.00000 0.00000 0.00000
  165 0.00000 0.00000 0.00000
  166 0.00000 0.00000 0.00000
  167 0.00000 0.00000 0.00000
  168 0.00000 0.00000 0.00000
  169 0.00000 0.00000 0.00000
  170 0.00000 0.00000 0.00000
  171 0.00000 0.00000 0.00000
  172 0.00000 0.00000 0.00000
  173 0.00000 0.00000 0.00000
  174 0.00000 0.00000 0.00000
  175 0.00000 0.00000 0.00000
  176 0.00000 0.00000 0.00000
  177 0.00000 0.00000 0.00000
  178 0.00000 0.00000 0.00000
  179 0.00000 0.00000 0.00000
  180 0.00000 0.00000 0.00000
  181 0.00000 0.00000 0.00000
  182 0.00000 0.00000 0.00000
  183 0.00000 0.00000 0.00000
  184 0.00000 0.00000 0.00000
  185 0.00000 0.00000 0.00000
  186 0.00000 0.00000 0.00000
  187 0.00000 0.00000 0.00000
  188 0.00000 0.00000 0.00000
  189 0.00000 0.00000 0.00000
  190 0.00000 0.00000 0.00000
  191 0.00000 0.00000 0.00000
  192 0.00000 0.00000 0.00000
  193 0.00000 0.00000 0.00000
  194 0.00000 0.00000 0.00000
  195 0.00000 0.00000 0.00000
  196 0.00000 0.00000 0.00000
  197 0.00000 0.00000 0.00000
  198 0.00000 0.00000 0.00000
  199 0.00000 0.00000 0.00000
  200 0.00000 0.00000 0.00000
  201 0.00000 0.00000 0.00000
  202 0.00000 0.00000 0.00000
  203 0.00000 0.00000 0.00000
  204 0.00000 0.00000 0.00000
  205 0.00000 0.00000 0.00000
  206 0.00000 0.00000 0.00000
  207 0.00000 0.00000 0.00000
  208 0.00000 0.00000 0.00000
  209 0.00000 0.00000 0.00000
  210 0.00000 0.00000 0.00000
  211 0.00000 0.00000 0.00000
  212 0.00000 0.00000 0.00000
  213 0.00000 0.00000 0.00000
  214 0.00000 0.00000 0.00000
  215 0.00000 0.00000 0.00000
  216 0.00000 0.00000 0.00000
  217 0.00000 0.00000 0.00000
  218 0.00000 0.00000 0.00000
  219 0.00000 0.00000 0.00000
  220 0.00000 0.00000 0.00000
  221 0.00000 0.00000 0.00000
  222 0.00000 0.00000 0.00000
  223 0.00000 0.00000 0.00000
  224 0.00000 0.00000 0.00000
  225 0.00000 0.00000 0.00000
  226 0.00000 0.00000 0.00000
  227 0.00000 0.00000 0.00000
  228 0.00000 0.00000 0.00000
  229 0.00000 0.00000 0.00000
  230 0.00000 0.00000 0.00000
  231 0.00000 0.00000 0.00000
  232 0.00000 0.00000 0.00000
  233 0.00000 0.00000 0.00000
  234 0.00000 0.00000 0.00000
  235 0.00000 0.00000 0.00000
  236 0.00000 0.00000 0.00000
  237 0.00000 0.00000 0.00000
  238 0.00000 0.00000 0.00000
  239 0.00000 0.00000 0.00000
  240 0.00000 0.00000 0.00000
  241 0.00000 0.00000 0.00000
  242 0.00000 0.00000 0.00000
  243 0.00000 0.00000 0.00000
  244 0.00000 0.00000 0.00000
  245 0.00000 0.00000 0.00000
  246 0.00000 0.00000 0.00000
  247 0.00000 0.00000 0.00000
  248 0.00000 0.00000 0.00000
  249 0.00000 0.00000 0.00000
  250 0.00000 0.00000 0.00000
  251 0.00000 0.00000 0.00000
  252 0.00000 0.00000 0.00000
  253 0.00000 0.00000 0.00000
  254 0.00000 0.00000 0.00000
  255 0.00000 0.00000 0.00000
  256 0.00000 0.00000 0.00000
  257 0.00000 0.00000 0.00000
  258 0.00000 0.00000 0.00000
  259 0.00000 0.00000 0.00000
  260 0.00000 0.00000 0.00000
  261 0.00000 0.00000 0.00000
  262 0.00000 0.00000 0.00000
  263 0.00000 0.00000 0.00000
  264 0.00000 0.00000 0.00000
  265 0.00000 0.00000 0.00000
  266 0.00000 0.00000 0.00000
  267 0.00000 0.00000 0.00000
  268 0.00000 0.00000 0.00000
  269 0.00000 0.00000 0.00000
  270 0.00000 0.00000 0.00000
  271 0.00000 0.00000 0.00000
  272 0.00000 0.00000 0.00000
  273 0.00000 0.00000 0.00000
  274 0.00000 0.00000 0.00000
  275 0.00000 0.00000 0.00000
  276 0.00000 0.00000 0.00000
  277 0.00000 0.00000 0.00000
  278 0.00000 0.00000 0.00000
  279 0.00000 0.00000 0.00000
  280 0.00000 0.00000 0.00000
  281 0.00000 0.00000 0.00000
  282 0.00000 0.00000 0.00000
  283 0.00000 0.00000 0.00000
  284 0.00000 0.00000 0.00000
  285 0.00000 0.00000 0.00000
  286 0.00000 0.00000 0.00000
  287 0.00000 0.00000 0.00000
  288 0.00000 0.00000 0.00000
  289 0.00000 0.00000 0.00000
  290 0.00000 0.00000 0.00000
  291 0.00000 0.00000 0.00000
  292 0.00000 0.00000 0.00000
  293 0.00000 0.00000 0.00000
  294 0.00000 0.00000 0.00000
  295 0.00000 0.00000 0.00000
  296 0.00000 0.00000 0.00000
  297 0.00000 0.00000 0.00000
  298 0.00000 0.00000 0.00000
  299 0.00000 0.00000 0.00000
  300 0.00000 0.00000 0.00000
  301 0.00000 0.00000 0.00000
  302 0.00000 0.00000 0.00000
  303 0.00000 0.00000 0.00000
  304 0.00000 0.00000 0.00000
  305 0.00000 0.00000 0.00000
  306 0.00000 0.00000 0.00000
  307 0.00000 0.00000 0.00000
  308 0.00000 0.00000 0.00000
  309 0.00000 0.00000 0.00000
  310 0.00000 0.00000 0.00000
  311 0.00000 0.00000 0.00000
  312 0.00000 0.00000 0.00000
  313 0.00000 0.00000 0.00000
  314 0.00000 0.00000 0.00000
  315 0.00000 0.00000 0.00000
  316 0.00000 0.00000 0.00000
  317 0.00000 0.00000 0.00000
  318 0.00000 0.00000 0.00000
  319 0.00000 0.00000 0.00000
  320 0.00000 0.00000 0.00000
  321 0.00000 0.00000 0.00000
  322 0.00000 0.00000 0.00000
  323 0.00000 0.00000 0.00000
  324 0.00000 0.00000 0.00000
  325 0.00000 0.00000 0.00000
  326 0.00000 0.00000 0.00000
  327 0.00000 0.00000 0.00000
  328 0.00000 0.00000 0.00000
  329 0.00000 0.00000 0.00000
  330 0.00000 0.00000 0.00000
  331 0.00000 0.00000 0.00000
  332 0.00000 0.00000 0.00000
  333 0.00000 0.00000 0.00000
  334 0.00000 0.00000 0.00000
  335 0.00000 0.00000 0.00000
  336 0.00000 0.00000 0.00000
  337 0.00000 0.00000 0.00000
  338 0.00000 0.00000 0.00000
  339 0.00000 0.00000 0.00000
  340 0.00000 0.00000 0.00000
  341 0.00000 0.00000 0.00000
  342 0.00000 0.00000 0.00000
  343 0.00000 0.00000 0.00000
  344 0.00000 0.00000 0.00000
  345 0.00000 0.00000 0.00000
  346 0.00000 0.00000 0.00000
  347 0.00000 0.00000 0.00000
  348 0.00000 0.00000 0.00000
  349 0.00000 0.00000 0.00000
  350 0.00000 0.00000 0.00000
  351 0.00000 0.00000 0.00000
  352 0.00000 0.00000 0.00000
  353 0.00000 0.00000 0.00000
  354 0.00000 0.00000 0.00000
  355 0.00000 0.00000 0.00000
  356 0.00000 0.00000 0.00000
  357 0.00000 0.00000 0.00000
  358 0.00000 0.00000 0.00000
  359 0.00000 0.00000 0.00000
  360 0.00000 0.00000 0.00000
  361 0.00000 0.00000 0.00000
  362 0.00000 0.00000 0.00000
  363 0.00000 0.00000 0.00000
  364 0.00000 0.00000 0.00000
  365 0.00000 0.00000 0.00000
  366 0.00000 0.00000 0.00000
  367 0.00000 0.00000 0.00000
  368 0.00000 0.00000 0.00000
  369 0.00000 0.00000 0.00000
  370 0.00000 0.00000 0.00000
  371 0.00000 0.00000 0.00000
  372 0.00000 0.00000 0.00000
  373 0.00000 0.00000 0.00000
  374 0.00000 0.00000 0.00000
  375 0.00000 0.00000 0.00000
  376 0.00000 0.00000 0.00000
  377 0.00000 0.00000 0.00000
  378 0.00000 0.00000 0.00000
  379 0.00000 0.00000 0.00000
  380 0.00000 0.00000 0.00000
  381 0.00000 0.00000 0.00000
  382 0.00000 0.00000 0.00000
  383 0.00000 0.00000 0.00000
  384 0.00000 0.00000 0.00000
  385 0.00000 0.00000 0.00000
  386 0.00000 0.00000 0.00000
  387 0.00000 0.00000 0.00000
  388 0.00000 0.00000 0.00000
  389 0.00000 0.00000 0.00000
  390 0.00000 0.00000 0.00000
  391 0.00000 0.00000 0.00000
  392 0.00000 0.00000 0.00000
  393 0.00000 0.00000 0.00000
  394 0.00000 0.00000 0.00000
  395 0.00000 0.00000 0.00000
  396 0.00000 0.00000 0.00000
  397 0.00000 0.00000 0.00000
  398 0.00000 0.00000 0.00000
</Section>

newXOutput 2

<Section columns = "stress_xx | stress_yy | stress_xy">
  1 3.60592 0.00345485 -0.00444614
  2 3.60727 0.00434471 0.00600529
  3 3.60592 0.00345485 -0.00444614
  4 3.60727 0.00434471 0.00600529
  5 5.74952 0.234887 1.49525
  6 5.98669 0.218475 -1.46923
  7 5.74952 0.234887 1.49525
  8 5.98669 0.218475 -1.46923
  9 3.61586 0.00249493 -0.0116195
  10 3.64901 0.00448621 -0.0205110
  11 3.69643 0.0103421 -0.0412328
  12 3.80464 0.00409635 -0.0548071
  13 3.94111 0.00730435 -0.0878409
  14 4.09722 -0.0342807 -0.0833140
  15 4.23393 -0.0423990 -0.00457160
  16 4.14520 -0.0300100 0.0803993
  17 3.95995 0.0284871 0.136051
  18 3.86007 0.0734018 -0.00518599
  19 3.93404 0.0356684 -0.126958
  20 4.13932 -0.0442726 -0.0981503
  21 4.19324 -0.0513625 0.0221090
  22 4.11881 -0.0228004 0.0713029
  23 3.91096 0.00267063 0.0878057
  24 3.79443 0.0151047 0.0691551
  25 3.69879 0.0118604 0.0397009
  26 3.64922 0.00360179 0.0188222
  27 3.61762 0.00293386 0.0111811
  28 3.61342 0.0132417 0.00702658
  29 3.60609 0.0273643 0.00809447
  30 3.58810 0.0478406 0.00715817
  31 3.58090 0.0557239 -0.000694760
  32 3.59032 0.0453395 -0.00862081
  33 3.60335 0.0298282 -0.00745784
  34 3.60913 0.0149641 -0.00778152
  35 3.61586 0.00249493 -0.0116195
  36 3.64901 0.00448621 -0.0205110
  37 3.69643 0.0103421 -0.0412328
  38 3.80464 0.00409635 -0.0548071
  39 3.94111 0.00730435 -0.0878409
  40 4.09722 -0.0342807 -0.0833140
  41 4.23393 -0.0423990 -0.00457160
  42 4.14520 -0.0300100 0.0803993
  43 3.95995 0.0284871 0.136051
  44 3.86007 0.0734018 -0.00518599
  45 3.93404 0.0356684 -0.126958
  46 4.13932 -0.0442726 -0.0981503
  47 4.19324 -0.0513625 0.0221090
  48 4.11881 -0.0228004 0.0713029
  49 3.91096 0.00267063 0.0878057
  50 3.79443 0.0151047 0.0691551
  51 3.69879 0.0118604 0.0397009
  52 3.64922 0.00360179 0.0188222
  53 3.61762 0.00293386 0.0111811
  54 3.61342 0.0132417 0.00702658
  55 3.60609 0.0273643 0.00809447
  56 3.58810 0.0478406 0.00715817
  57 3.58090 0.0557239 -0.000694760
  58 3.59032 0.0453395 -0.00862081
  59 3.60335 0.0298282 -0.00745784
  60 3.60913 0.0149641 -0.00778152
  61 8.04628 0.393312 0.814482
  62 7.31935 0.122207 0.298172
  63 6.88096 0.0548454 0.113482
  64 6.78858 0.0390088 0.0239760
  65 6.87886 0.0507386 -0.0975130
  66 7.20852 0.105931 -0.261739
  67 8.11989 0.343326 -0.700172
  68 1.03631 -1.26105 -1.18512
  69 0.204899 -2.58515 -0.275675
  70 0.0678109 -2.88049 -0.121594
  71 0.0645082 -2.82302 -0.0698856
  72 0.100825 -2.76149 0.129425
  73 0.219609 -2.50710 0.290343
  74 1.13386 -1.18462 1.31828
  75 8.04628 0.393312 0.814482
  76 7.31935 0.122207 0.298172
  77 6.88096 0.0548454 0.113482
  78 6.78858 0.0390088 0.0239760
  79 6.87886 0.0507386 -0.0975130
  80 7.20852 0.105931 -0.261739
  81 8.11989 0.343326 -0.700172
  82 1.03631 -1.26105 -1.18512
  83 0.204899 -2.58515 -0.275675
  84 0.0678109 -2.88049 -0.121594
  85 0.0645082 -2.82302 -0.0698856
  86 0.100825 -2.76149 0.129425
  87 0.219609 -2.50710 0.290343
  88 1.13386 -1.18462 1.31828
  89 3.29181 0.192284 -0.0506201
  90 3.29181 0.192284 -0.0506201
  91 3.00242 0.0405386 0.447863
  92 2.88284 -0.0195006 -0.531063
  93 3.00242 0.0405386 0.447863
  94 2.88284 -0.0195006 -0.531063
  95 1.66605 0.0307638 0.210177
  96 1.66605 0.0307638 0.210177
  97 4.45178 0.282982 -0.0833171
  98 4.55545 0.154137 0.173994
  99 4.45178 0.282982 -0.0833171
  100 4.55545 0.154137 0.173994
  101 3.54900 0.0885555 0.0523729
  102 3.54900 0.0885555 0.0523729
  103 4.28192 -0.243128 -0.0198903
  104 4.28192 -0.243128 -0.0198903
  105 3.55406 0.0924211 -0.0644900
  106 3.55406 0.0924211 -0.0644900
  107 4.22365 -0.514611 -0.449822
  108 4.22365 -0.514611 -0.449822
  109 2.92594 -0.602636 1.14731
  110 2.92594 -0.602636 1.14731
  111 1.95099 -0.360659 -0.918817
  112 1.95099 -0.360659 -0.918817
  113 3.57091 0.0621589 0.216941
  114 3.57091 0.0621589 0.216941
  115 3.71011 0.0274555 -0.206220
  116 3.71011 0.0274555 -0.206220
  117 5.07902 0.324701 0.00440470
  118 5.45876 0.360714 0.0237174
  119 5.07902 0.324701 0.00440470
  120 5.45876 0.360714 0.0237174
  121 5.33558 0.440292 -0.102446
  122 5.33558 0.440292 -0.102446
  123 0.565255 -0.964837 -0.286848
  124 0.565255 -0.964837 -0.286848
  125 4.60734 -0.577446 0.468394
  126 4.60734 -0.577446 0.468394
  127 3.84299 -0.0907974 0.235540
  128 3.84299 -0.0907974 0.235540
  129 0.860164 -0.837007 0.666659
  130 0.860164 -0.837007 0.666659
  131 3.55457 0.0742106 -0.00337202
  132 3.55457 0.0742106 -0.00337202
  133 3.83895 -0.176468 -0.297538
  134 3.83895 -0.176468 -0.297538
  135 3.61710 0.0302932 0.0384132
  136 3.61710 0.0302932 0.0384132
  137 3.62108 0.0265702 -0.0359133
  138 3.62108 0.0265702 -0.0359133
  139 3.66324 0.0522925 -0.111808
  140 3.66324 0.0522925 -0.111808
  141 3.64490 0.0507568 0.101096
  142 3.64490 0.0507568 0.101096
  143 3.47682 0.122780 -0.00398560
  144 3.47682 0.122780 -0.00398560
  145 2.87824 0.193258 -0.0226392
  146 2.87824 0.193258 -0.0226392
  147 4.25424 -0.152884 0.0871102
  148 4.25424 -0.152884 0.0871102
  149 4.90464 -0.195124 -0.137009
  150 4.90464 -0.195124 -0.137009
  151 3.75627 -0.413413 0.575066
  152 3.75627 -0.413413 0.575066
  153 2.83686 -0.773183 -1.26398
  154 2.83686 -0.773183 -1.26398
  155 3.30279 0.137516 0.205816
  156 3.30279 0.137516 0.205816
  157 4.32472 -0.0305359 -0.185198
  158 4.32472 -0.0305359 -0.185198
  159 5.99650 0.462721 0.308501
  160 5.99650 0.462721 0.308501
  161 2.95737 -0.819631 1.47373
  162 2.95737 -0.819631 1.47373
  163 6.15276 0.211984 -0.0676912
  164 6.15276 0.211984 -0.0676912
  165 3.46242 0.122176 0.0978756
  166 3.46242 0.122176 0.0978756
  167 3.28380 0.113342 -0.298716
  168 3.28380 0.113342 -0.298716
  169 4.07413 0.119069 0.105303
  170 4.07413 0.119069 0.105303
  171 3.42779 0.145302 -0.110564
  172 3.42779 0.145302 -0.110564
  173 3.57844 0.0597451 0.0167843
  174 3.57844 0.0597451 0.0167843
  175 3.64419 0.0289975 -0.0605789
  176 3.64419 0.0289975 -0.0605789
  177 5.74126 0.415910 -0.282045
  178 5.74126 0.415910 -0.282045
  179 3.58182 0.0580707 -0.0203078
  180 3.58182 0.0580707 -0.0203078
  181 2.60153 0.189647 -0.153527
  182 2.60153 0.189647 -0.153527
  183 4.79990 0.350294 0.0560020
  184 4.79990 0.350294 0.0560020
  185 0.949997 -0.822835 -0.863181
  186 0.949997 -0.822835 -0.863181
  187 2.57763 -0.0314322 0.643526
  188 2.57763 -0.0314322 0.643526
  189 3.50423 -0.557455 -0.889772
  190 3.50423 -0.557455 -0.889772
  191 4.13770 -0.111542 0.0387920
  192 4.13770 -0.111542 0.0387920
  193 3.86621 -0.0111426 0.149441
  194 3.86621 -0.0111426 0.149441
  195 5.32464 0.118631 0.254626
  196 5.32464 0.118631 0.254626
  197 2.12985 0.0607739 -0.394846
  198 2.12985 0.0607739 -0.394846
  199 6.08755 0.279448 0.151972
  200 6.08755 0.279448 0.151972
  201 3.94062 -0.0459830 -0.152943
  202 3.94062 -0.0459830 -0.152943
  203 3.65016 0.0207871 0.0559461
  204 3.65016 0.0207871 0.0559461
  205 4.10615 -0.157566 -0.0668247
  206 4.10615 -0.157566 -0.0668247
  207 4.50756 -0.232680 0.00662258
  208 4.50756 -0.232680 0.00662258
  209 0.276893 -1.63593 0.122827
  210 0.276893 -1.63593 0.122827
  211 3.77234 0.0219267 -0.134674
  212 3.77234 0.0219267 -0.134674
  213 3.73858 0.0308610 0.118508
  214 3.73858 0.0308610 0.118508
  215 3.59866 -0.327169 -0.571676
  216 3.59866 -0.327169 -0.571676
  217 4.20773 -0.0889632 -0.116363
  218 4.20773 -0.0889632 -0.116363
  219 3.41722 0.125905 -0.206050
  220 3.41722 0.125905 -0.206050
  221 0.940695 -1.20833 0.936212
  222 0.940695 -1.20833 0.936212
  223 4.25632 0.0133249 0.172506
  224 4.25632 0.0133249 0.172506
  225 4.11697 0.100719 -0.141220
  226 4.11697 0.100719 -0.141220
  227 6.00884 0.361003 -0.252401
  228 6.00884 0.361003 -0.252401
  229 4.52121 -0.174522 -0.111093
  230 4.52121 -0.174522 -0.111093
  231 4.99153 -0.277024 -0.799804
  232 4.99153 -0.277024 -0.799804
  233 3.60588 -0.161560 0.445775
  234 3.60588 -0.161560 0.445775
  235 3.51826 0.102867 0.0167916
  236 3.51826 0.102867 0.0167916
  237 1.84192 -0.282186 0.815413
  238 1.84192 -0.282186 0.815413
  239 4.77768 -0.449977 0.950828
  240 4.77768 -0.449977 0.950828
  241 1.23230 -0.184080 -0.399586
  242 1.23230 -0.184080 -0.399586
  243 4.20175 -0.311996 -0.181757
  244 4.20175 -0.311996 -0.181757
  245 3.37942 0.155944 0.120380
  246 3.37942 0.155944 0.120380
  247 0.127602 -2.10750 -0.0975516
  248 0.127602 -2.10750 -0.0975516
  249 0.235090 -1.87314 0.325412
  250 0.235090 -1.87314 0.325412
  251 3.45081 0.0247752 0.325689
  252 3.45081 0.0247752 0.325689
  253 3.61279 0.0141134 0.0140493
  254 3.61279 0.0141134 0.0140493
  255 3.57802 0.0603288 0.00263081
  256 3.57802 0.0603288 0.00263081
  257 3.35146 -0.0409746 -0.428827
  258 3.35146 -0.0409746 -0.428827
  259 3.61565 0.0127874 -0.0148734
  260 3.61565 0.0127874 -0.0148734
  261 4.02613 -0.280199 0.255111
  262 4.02613 -0.280199 0.255111
  263 3.72129 0.0138806 -0.0675023
  264 3.72129 0.0138806 -0.0675023
  265 2.86013 -0.242237 -0.784264
  266 2.86013 -0.242237 -0.784264
  267 4.93312 0.375064 -0.0421191
  268 4.93312 0.375064 -0.0421191
  269 3.57321 0.0820399 -0.170166
  270 3.57321 0.0820399 -0.170166
  271 3.55756 0.0768403 -0.0351934
  272 3.55756 0.0768403 -0.0351934
  273 2.99689 0.146383 -0.297050
  274 2.99689 0.146383 -0.297050
  275 0.889338 -0.382117 0.226521
  276 0.889338 -0.382117 0.226521
  277 3.85894 -0.629546 0.790784
  278 3.85894 -0.629546 0.790784
  279 3.59996 0.0554549 0.0685268
  280 3.59996 0.0554549 0.0685268
  281 5.41560 0.388039 -0.0700676
  282 5.41560 0.388039 -0.0700676
  283 6.58624 0.505036 0.713774
  284 6.58624 0.505036 0.713774
  285 4.33808 -0.458082 0.237185
  286 4.33808 -0.458082 0.237185
  287 3.05744 0.154444 0.219568
  288 3.05744 0.154444 0.219568
  289 3.98384 -0.779562 1.03975
  290 3.98384 -0.779562 1.03975
  291 4.07509 -0.0459777 0.0968951
  292 4.07509 -0.0459777 0.0968951
  293 3.59781 0.0365893 0.0190993
  294 3.59781 0.0365893 0.0190993
  295 3.54127 0.100279 -0.110147
  296 3.54127 0.100279 -0.110147
  297 3.57911 0.0593411 -0.00524060
  298 3.57911 0.0593411 -0.00524060
  299 3.63734 0.0103396 -0.0266732
  300 3.63734 0.0103396 -0.0266732
  301 3.71700 0.0192909 0.0677710
  302 3.71700 0.0192909 0.0677710
  303 3.51953 0.102288 -0.0285553
  304 3.51953 0.102288 -0.0285553
  305 0.809908 -1.41187 -0.884045
  306 0.809908 -1.41187 -0.884045
  307 2.37462 0.151710 0.200881
  308 2.37462 0.151710 0.200881
  309 3.60272 0.0304517 -0.0183934
  310 3.60272 0.0304517 -0.0183934
  311 3.14541 0.184299 -0.147330
  312 3.14541 0.184299 -0.147330
  313 3.15297 0.201047 0.0567048
  314 3.15297 0.201047 0.0567048
  315 3.59393 0.0533251 -0.0487972
  316 3.59393 0.0533251 -0.0487972
  317 4.87060 0.235267 0.0324580
  318 4.87060 0.235267 0.0324580
  319 3.56405 0.0888714 0.150081
  320 3.56405 0.0888714 0.150081
  321 4.58271 0.133270 -0.158295
  322 4.58271 0.133270 -0.158295
  323 6.95625 0.201299 0.453177
  324 6.95625 0.201299 0.453177
  325 3.54896 0.0920808 0.0954900
  326 3.54896 0.0920808 0.0954900
  327 3.48720 0.121640 0.0499508
  328 3.48720 0.121640 0.0499508
  329 2.78204 -0.696911 -1.42973
  330 2.78204 -0.696911 -1.42973
  331 3.63927 0.00936052 0.0261076
  332 3.63927 0.00936052 0.0261076
  333 3.55352 0.0774896 0.0262737
  334 3.55352 0.0774896 0.0262737
  335 3.41136 0.156796 0.00570982
  336 3.41136 0.156796 0.00570982
  337 1.75418 -0.630405 1.16779
  338 1.75418 -0.630405 1.16779
  339 4.42045 0.286332 0.0277581
  340 4.42045 0.286332 0.0277581
  341 0.257688 -1.83665 -0.383383
  342 0.257688 -1.83665 -0.383383
  343 2.71398 0.171639 0.180683
  344 2.71398 0.171639 0.180683
  345 6.57383 0.0950437 0.0668442
  346 6.57383 0.0950437 0.0668442
  347 6.85187 0.337373 -0.461680
  348 6.85187 0.337373 -0.461680
  349 3.11071 -0.356103 0.877100
  350 3.23787 -0.184267 0.656113
  351 3.11071 -0.356103 0.877100
  352 3.23787 -0.184267 0.656113
  353 6.66529 0.172883 0.242412
  354 6.66529 0.172883 0.242412
  355 3.68712 -0.00364482 0.254326
  356 3.68712 -0.00364482 0.254326
  357 4.42863 -0.595116 -0.595019
  358 4.42863 -0.595116 -0.595019
  359 4.15138 -0.0374541 0.137356
  360 4.15138 -0.0374541 0.137356
  361 2.86097 -0.690781 1.57511
  362 2.86097 -0.690781 1.57511
  363 4.86993 0.392411 -0.0141415
  364 4.86993 0.392411 -0.0141415
  365 6.67809 0.0650100 -0.0514404
  366 6.67809 0.0650100 -0.0514404
  367 3.94377 0.00390032 -0.125705
  368 3.94377 0.00390032 -0.125705
  369 3.48757 0.129173 -0.0596205
  370 3.48757 0.129173 -0.0596205
  371 5.48598 0.424387 0.112126
  372 5.48598 0.424387 0.112126
  373 4.13408 0.169891 -0.0297807
  374 4.13408 0.169891 -0.0297807
  375 3.79345 0.0155860 -0.0827758
  376 3.79345 0.0155860 -0.0827758
  377 0.993462 -0.526932 -0.663297
  378 0.993462 -0.526932 -0.663297
  379 4.20062 -0.0746256 0.0452239
  380 4.20062 -0.0746256 0.0452239
  381 3.57333 -0.00411189 -0.298634
  382 3.57333 -0.00411189 -0.298634
  383 4.11374 -0.00985383 -0.162625
  384 4.11374 -0.00985383 -0.162625
  385 6.69533 0.122166 -0.202206
  386 6.69533 0.122166 -0.202206
  387 3.58355 0.0571719 0.0386494
  388 3.58355 0.0571719 0.0386494
  389 4.38298 0.207493 0.143722
  390 4.38298 0.207493 0.143722
  391 4.77847 -0.119647 -0.00205566
  392 4.77847 -0.119647 -0.00205566
  393 3.59845 0.0670422 -0.0853184
  394 3.59845 0.0670422 -0.0853184
  395 7.08678 0.585425 -0.835051
  396 7.08678 0.585425 -0.835051
  397 4.15253 -0.0581412 -0.0375130
  398 4.15253 -0.0581412 -0.0375130
</Section>

newXOutput 3

<Section columns = "stress_xx | stress_yy | stress_xy">
  1 7.20887 0.00690810 -0.00888040
  2 7.21158 0.00868628 0.0119943
  3 7.20887 0.00690810 -0.00888040
  4 7.21158 0.00868628 0.0119943
  5 11.4903 0.472288 2.99073
  6 11.9640 0.439610 -2.93873
  7 11.4903 0.472288 2.99073
  8 11.9640 0.439610 -2.93873
  9 7.22872 0.00498751 -0.0232088
  10 7.29492 0.00896675 -0.0409714
  11 7.38963 0.0206676 -0.0823715
  12 7.60578 0.00818161 -0.109501
  13 7.87840 0.0145793 -0.175539
  14 8.19036 -0.0685703 -0.166556
  15 8.46366 -0.0847852 -0.00924557
  16 8.28677 -0.0599930 0.160507
  17 7.91705 0.0570010 0.271712
  18 7.71766 0.146801 -0.0103600
  19 7.86530 0.0713251 -0.253566
  20 8.27506 -0.0885128 -0.195942
  21 8.38237 -0.102712 0.0443240
  22 8.23351 -0.0456034 0.142555
  23 7.81820 0.00531034 0.175479
  24 7.58539 0.0301791 0.138172
  25 7.39436 0.0237019 0.0793098
  26 7.29535 0.00719906 0.0375974
  27 7.23226 0.00586526 0.0223339
  28 7.22385 0.0264661 0.0140339
  29 7.20922 0.0546888 0.0161682
  30 7.17330 0.0956061 0.0142988
  31 7.15892 0.111359 -0.00138785
  32 7.17773 0.0906086 -0.0172199
  33 7.20375 0.0596131 -0.0148947
  34 7.21528 0.0299096 -0.0155433
  35 7.22872 0.00498751 -0.0232088
  36 7.29492 0.00896675 -0.0409714
  37 7.38963 0.0206676 -0.0823715
  38 7.60578 0.00818161 -0.109501
  39 7.87840 0.0145793 -0.175539
  40 8.19036 -0.0685703 -0.166556
  41 8.46366 -0.0847852 -0.00924557
  42 8.28677 -0.0599930 0.160507
  43 7.91705 0.0570010 0.271712
  44 7.71766 0.146801 -0.0103600
  45 7.86530 0.0713251 -0.253566
  46 8.27506 -0.0885128 -0.195942
  47 8.38237 -0.102712 0.0443240
  48 8.23351 -0.0456034 0.142555
  49 7.81820 0.00531034 0.175479
  50 7.58539 0.0301791 0.138172
  51 7.39436 0.0237019 0.0793098
  52 7.29535 0.00719906 0.0375974
  53 7.23226 0.00586526 0.0223339
  54 7.22385 0.0264661 0.0140339
  55 7.20922 0.0546888 0.0161682
  56 7.17330 0.0956061 0.0142988
  57 7.15892 0.111359 -0.00138785
  58 7.17773 0.0906086 -0.0172199
  59 7.20375 0.0596131 -0.0148947
  60 7.21528 0.0299096 -0.0155433
  61 16.0784 0.786465 1.62817
  62 14.6261 0.244151 0.595837
  63 13.7505 0.109493 0.226697
  64 13.5660 0.0778877 0.0478589
  65 13.7463 0.101327 -0.194782
  66 14.4048 0.211610 -0.522968
  67 16.2255 0.686492 -1.39970
  68 2.07165 -2.51859 -2.37117
  69 0.409597 -5.16891 -0.552129
  70 0.135356 -5.76065 -0.243497
  71 0.128767 -5.64584 -0.139766
  72 0.201419 -5.52247 0.259195
  73 0.439057 -5.01282 0.581546
  74 2.26645 -2.36575 2.63748
  75 16.0784 0.786465 1.62817
  76 14.6261 0.244151 0.595837
  77 13.7505 0.109493 0.226697
  78 13.5660 0.0778877 0.0478589
  79 13.7463 0.101327 -0.194782
  80 14.4048 0.211610 -0.522968
  81 16.2255 0.686492 -1.39970
  82 2.07165 -2.51859 -2.37117
  83 0.409597 -5.16891 -0.552129
  84 0.135356 -5.76065 -0.243497
  85 0.128767 -5.64584 -0.139766
  86 0.201419 -5.52247 0.259195
  87 0.439057 -5.01282 0.581546
  88 2.26645 -2.36575 2.63748
  89 6.58140 0.384355 -0.101173
  90 6.58140 0.384355 -0.101173
  91 6.00288 0.0810767 0.895315
  92 5.76383 -0.0389515 -1.06171
  93 6.00288 0.0810767 0.895315
  94 5.76383 -0.0389515 -1.06171
  95 3.33174 0.0617862 0.420259
  96 3.33174 0.0617862 0.420259
  97 8.89979 0.565792 -0.166252
  98 9.10664 0.308344 0.347066
  99 8.89979 0.565792 -0.166252
  100 9.10664 0.308344 0.347066
  101 7.09520 0.176983 0.104638
  102 7.09520 0.176983 0.104638
  103 8.55970 -0.486029 -0.0392191
  104 8.55970 -0.486029 -0.0392191
  105 7.10531 0.184712 -0.128851
  106 7.10531 0.184712 -0.128851
  107 8.44286 -1.02881 -0.899713
  108 8.44286 -1.02881 -0.899713
  109 5.84944 -1.20489 2.29425
  110 5.84944 -1.20489 2.29425
  111 3.90091 -0.720925 -1.83748
  112 3.90091 -0.720925 -1.83748
  113 7.13894 0.124222 0.433593
  114 7.13894 0.124222 0.433593
  115 7.41703 0.0548387 -0.412191
  116 7.41703 0.0548387 -0.412191
  117 10.1527 0.649400 0.00981034
  118 10.9115 0.720868 0.0475783
  119 10.1527 0.649400 0.00981034
  120 10.9115 0.720868 0.0475783
  121 10.6655 0.880313 -0.205607
  122 10.6655 0.880313 -0.205607
  123 1.13031 -1.92856 -0.573942
  124 1.13031 -1.92856 -0.573942
  125 9.20940 -1.15413 0.937265
  126 9.20940 -1.15413 0.937265
  127 7.68253 -0.181551 0.470951
  128 7.68253 -0.181551 0.470951
  129 1.72005 -1.67296 1.33373
  130 1.72005 -1.67296 1.33373
  131 7.10635 0.148309 -0.00673599
  132 7.10635 0.148309 -0.00673599
  133 7.67441 -0.352825 -0.594971
  134 7.67441 -0.352825 -0.594971
  135 7.23121 0.0605427 0.0767375
  136 7.23121 0.0605427 0.0767375
  137 7.23915 0.0531035 -0.0717421
  138 7.23915 0.0531035 -0.0717421
  139 7.32338 0.104501 -0.223412
  140 7.32338 0.104501 -0.223412
  141 7.28676 0.101436 0.201998
  142 7.28676 0.101436 0.201998
  143 6.95103 0.245392 -0.00796637
  144 6.95103 0.245392 -0.00796637
  145 5.75494 0.386365 -0.0452643
  146 5.75494 0.386365 -0.0452643
  147 8.50449 -0.305602 0.173662
  148 8.50449 -0.305602 0.173662
  149 9.80374 -0.389543 -0.275043
  150 9.80374 -0.389543 -0.275043
  151 7.50898 -0.826540 1.14988
  152 7.50898 -0.826540 1.14988
  153 5.67109 -1.54551 -2.52807
  154 5.67109 -1.54551 -2.52807
  155 6.60328 0.274892 0.411375
  156 6.60328 0.274892 0.411375
  157 8.64547 -0.0609603 -0.369639
  158 8.64547 -0.0609603 -0.369639
  159 11.9855 0.925144 0.617369
  160 11.9855 0.925144 0.617369
  161 5.91195 -1.63852 2.94736
  162 5.91195 -1.63852 2.94736
  163 12.2972 0.423490 -0.135354
  164 12.2972 0.423490 -0.135354
  165 6.92226 0.244191 0.195584
  166 6.92226 0.244191 0.195584
  167 6.56527 0.226575 -0.597107
  168 6.56527 0.226575 -0.597107
  169 8.14522 0.238127 0.210285
  170 8.14522 0.238127 0.210285
  171 6.85308 0.290422 -0.220951
  172 6.85308 0.290422 -0.220951
  173 7.15401 0.119399 0.0335299
  174 7.15401 0.119399 0.0335299
  175 7.28532 0.0579503 -0.121026
  176 7.28532 0.0579503 -0.121026
  177 11.4755 0.832048 -0.564998
  178 11.4755 0.832048 -0.564998
  179 7.16076 0.116054 -0.0405683
  180 7.16076 0.116054 -0.0405683
  181 5.20183 0.379219 -0.306928
  182 5.20183 0.379219 -0.306928
  183 9.59528 0.700344 0.111385
  184 9.59528 0.700344 0.111385
  185 1.89957 -1.64462 -1.72684
  186 1.89957 -1.64462 -1.72684
  187 5.15376 -0.0627631 1.28661
  188 5.15376 -0.0627631 1.28661
  189 7.00516 -1.11454 -1.77925
  190 7.00516 -1.11454 -1.77925
  191 8.27150 -0.223021 0.0778041
  192 8.27150 -0.223021 0.0778041
  193 7.72889 -0.0223136 0.298716
  194 7.72889 -0.0223136 0.298716
  195 10.6430 0.237886 0.510306
  196 10.6430 0.237886 0.510306
  197 4.25886 0.121675 -0.789477
  198 4.25886 0.121675 -0.789477
  199 12.1671 0.558367 0.303947
  200 12.1671 0.558367 0.303947
  201 7.87760 -0.0919698 -0.305799
  202 7.87760 -0.0919698 -0.305799
  203 7.29724 0.0415406 0.111769
  204 7.29724 0.0415406 0.111769
  205 8.20841 -0.315046 -0.133869
  206 8.20841 -0.315046 -0.133869
  207 9.01051 -0.465004 0.0124821
  208 9.01051 -0.465004 0.0124821
  209 0.553580 -3.27080 0.245831
  210 0.553580 -3.27080 0.245831
  211 7.54132 0.0437919 -0.269142
  212 7.54132 0.0437919 -0.269142
  213 7.47388 0.0616661 0.236819
  214 7.47388 0.0616661 0.236819
  215 7.19413 -0.654107 -1.14306
  216 7.19413 -0.654107 -1.14306
  217 8.41164 -0.177852 -0.232204
  218 8.41164 -0.177852 -0.232204
  219 6.83191 0.251663 -0.411838
  220 6.83191 0.251663 -0.411838
  221 1.88075 -2.41515 1.87315
  222 1.88075 -2.41515 1.87315
  223 8.50896 0.0267515 0.344352
  224 8.50896 0.0267515 0.344352
  225 8.23075 0.201436 -0.281982
  226 8.23075 0.201436 -0.281982
  227 12.0100 0.721492 -0.504976
  228 12.0100 0.721492 -0.504976
  229 9.03783 -0.348734 -0.221316
  230 9.03783 -0.348734 -0.221316
  231 9.97694 -0.552677 -1.60034
  232 9.97694 -0.552677 -1.60034
  233 7.20865 -0.322999 0.891219
  234 7.20865 -0.322999 0.891219
  235 7.03382 0.205589 0.0335497
  236 7.03382 0.205589 0.0335497
  237 3.68295 -0.564004 1.63065
  238 3.68295 -0.564004 1.63065
  239 9.54949 -0.898681 1.90217
  240 9.54949 -0.898681 1.90217
  241 2.46437 -0.367633 -0.799159
  242 2.46437 -0.367633 -0.799159
  243 8.39931 -0.623748 -0.363774
  244 8.39931 -0.623748 -0.363774
  245 6.75642 0.311706 0.240583
  246 6.75642 0.311706 0.240583
  247 0.254984 -4.21405 -0.195291
  248 0.254984 -4.21405 -0.195291
  249 0.469968 -3.74504 0.651416
  250 0.469968 -3.74504 0.651416
  251 6.89893 0.0495171 0.651040
  252 6.89893 0.0495171 0.651040
  253 7.22261 0.0282084 0.0280634
  254 7.22261 0.0282084 0.0280634
  255 7.15316 0.120562 0.00525575
  256 7.15316 0.120562 0.00525575
  257 6.70036 -0.0819250 -0.857287
  258 6.70036 -0.0819250 -0.857287
  259 7.22829 0.0255593 -0.0297096
  260 7.22829 0.0255593 -0.0297096
  261 8.04841 -0.560190 0.510285
  262 8.04841 -0.560190 0.510285
  263 7.43931 0.0277345 -0.134864
  264 7.43931 0.0277345 -0.134864
  265 5.71821 -0.484293 -1.56809
  266 5.71821 -0.484293 -1.56809
  267 9.86144 0.749825 -0.0836376
  268 9.86144 0.749825 -0.0836376
  269 7.14357 0.163960 -0.340072
  270 7.14357 0.163960 -0.340072
  271 7.11230 0.153568 -0.0703102
  272 7.11230 0.153568 -0.0703102
  273 5.99196 0.292662 -0.593806
  274 5.99196 0.292662 -0.593806
  275 1.77855 -0.763433 0.453106
  276 1.77855 -0.763433 0.453106
  277 7.71394 -1.25865 1.58136
  278 7.71394 -1.25865 1.58136
  279 7.19698 0.110828 0.136909
  280 7.19698 0.110828 0.136909
  281 10.8253 0.775544 -0.140373
  282 10.8253 0.775544 -0.140373
  283 13.1631 1.01051 1.42779
  284 13.1631 1.01051 1.42779
  285 8.67162 -0.915736 0.474774
  286 8.67162 -0.915736 0.474774
  287 6.11300 0.308762 0.438886
  288 6.11300 0.308762 0.438886
  289 7.96332 -1.55852 2.07930
  290 7.96332 -1.55852 2.07930
  291 8.14627 -0.0919487 0.193775
  292 8.14627 -0.0919487 0.193775
  293 7.19268 0.0731239 0.0381528
  294 7.19268 0.0731239 0.0381528
  295 7.07976 0.200419 -0.220095
  296 7.07976 0.200419 -0.220095
  297 7.15535 0.118589 -0.0104688
  298 7.15535 0.118589 -0.0104688
  299 7.27162 0.0206648 -0.0532826
  300 7.27162 0.0206648 -0.0532826
  301 7.43075 0.0385480 0.135401
  302 7.43075 0.0385480 0.135401
  303 7.03635 0.204432 -0.0570541
  304 7.03635 0.204432 -0.0570541
  305 1.61922 -2.82196 -1.76891
  306 1.61922 -2.82196 -1.76891
  307 4.74824 0.303421 0.401596
  308 4.74824 0.303421 0.401596
  309 7.20248 0.0608594 -0.0367420
  310 7.20248 0.0608594 -0.0367420
  311 6.28882 0.368419 -0.294488
  312 6.28882 0.368419 -0.294488
  313 6.30396 0.401897 0.113332
  314 6.30396 0.401897 0.113332
  315 7.18493 0.106572 -0.0974871
  316 7.18493 0.106572 -0.0974871
  317 9.73622 0.470696 0.0638771
  318 9.73622 0.470696 0.0638771
  319 7.12525 0.177620 0.299913
  320 7.12525 0.177620 0.299913
  321 9.16106 0.266614 -0.315699
  322 9.16106 0.266614 -0.315699
  323 13.9017 0.402206 0.905993
  324 13.9017 0.402206 0.905993
  325 7.09514 0.184033 0.190801
  326 7.09514 0.184033 0.190801
  327 6.97177 0.243114 0.0998076
  328 6.97177 0.243114 0.0998076
  329 5.56110 -1.39121 -2.86013
  330 5.56110 -1.39121 -2.86013
  331 7.27548 0.0187078 0.0521524
  332 7.27548 0.0187078 0.0521524
  333 7.10424 0.154864 0.0524906
  334 7.10424 0.154864 0.0524906
  335 6.82027 0.313397 0.0114088
  336 6.82027 0.313397 0.0114088
  337 3.50736 -1.26023 2.33570
  338 3.50736 -1.26023 2.33570
  339 8.83722 0.572485 0.0553604
  340 8.83722 0.572485 0.0553604
  341 0.515091 -3.67203 -0.767319
  342 0.515091 -3.67203 -0.767319
  343 5.42660 0.343186 0.361180
  344 5.42660 0.343186 0.361180
  345 13.1376 0.189828 0.133543
  346 13.1376 0.189828 0.133543
  347 13.6936 0.674446 -0.923113
  348 13.6936 0.674446 -0.923113
  349 6.21887 -0.711971 1.75371
  350 6.47318 -0.368390 1.31172
  351 6.21887 -0.711971 1.75371
  352 6.47318 -0.368390 1.31172
  353 13.3205 0.345364 0.484513
  354 13.3205 0.345364 0.484513
  355 7.37111 -0.00731715 0.508384
  356 7.37111 -0.00731715 0.508384
  357 8.85224 -1.18961 -1.19027
  358 8.85224 -1.18961 -1.19027
  359 8.29919 -0.0748444 0.274250
  360 8.29919 -0.0748444 0.274250
  361 5.71857 -1.37907 3.15075
  362 5.71857 -1.37907 3.15075
  363 9.73531 0.784406 -0.0282503
  364 9.73531 0.784406 -0.0282503
  365 13.3456 0.129829 -0.102797
  366 13.3456 0.129829 -0.102797
  367 7.88380 0.00775732 -0.251251
  368 7.88380 0.00775732 -0.251251
  369 6.97251 0.258173 -0.119133
  370 6.97251 0.258173 -0.119133
  371 10.9659 0.848322 0.224730
  372 10.9659 0.848322 0.224730
  373 8.26504 0.339706 -0.0594674
  374 8.26504 0.339706 -0.0594674
  375 7.58345 0.0311340 -0.165398
  376 7.58345 0.0311340 -0.165398
  377 1.98679 -1.05308 -1.32681
  378 1.98679 -1.05308 -1.32681
  379 8.39729 -0.149200 0.0901509
  380 8.39729 -0.149200 0.0901509
  381 7.14375 -0.00825200 -0.596982
  382 7.14375 -0.00825200 -0.596982
  383 8.22412 -0.0196746 -0.324732
  384 8.22412 -0.0196746 -0.324732
  385 13.3804 0.244056 -0.404121
  386 13.3804 0.244056 -0.404121
  387 7.16422 0.114258 0.0772125
  388 7.16422 0.114258 0.0772125
  389 8.76220 0.414933 0.286829
  390 8.76220 0.414933 0.286829
  391 9.55176 -0.238842 -0.00311273
  392 9.55176 -0.238842 -0.00311273
  393 7.19397 0.133987 -0.170464
  394 7.19397 0.133987 -0.170464
  395 14.1628 1.17155 -1.67025
  396 14.1628 1.17155 -1.67025
  397 8.30101 -0.116272 -0.0751119
  398 8.30101 -0.116272 -0.0751119
</Section>

newXOutput 4

<Section columns = "stress_xx | stress_yy | stress_xy">
  1 10.8089 0.0103597 -0.0133028
  2 10.8129 0.0130247 0.0179671
  3 10.8089 0.0103597 -0.0133028
  4 10.8129 0.0130247 0.0179671
  5 17.2224 0.712199 4.48643
  6 17.9320 0.663400 -4.40849
  7 17.2224 0.712199 4.48643
  8 17.9320 0.663400 -4.40849
  9 10.8386 0.00747773 -0.0347680
  10 10.9377 0.0134416 -0.0613814
  11 11.0796 0.0309765 -0.123417
  12 11.4034 0.0122558 -0.164082
  13 11.8119 0.0218248 -0.263094
  14 12.2794 -0.102869 -0.249727
  15 12.6892 -0.127159 -0.0140215
  16 12.4247 -0.0899489 0.240323
  17 11.8713 0.0855414 0.406984
  18 11.5728 0.220198 -0.0155219
  19 11.7938 0.106970 -0.379825
  20 12.4072 -0.132720 -0.293377
  21 12.5674 -0.154049 0.0666446
  22 12.3441 -0.0684088 0.213756
  23 11.7217 0.00791918 0.263020
  24 11.3729 0.0452232 0.207052
  25 11.0867 0.0355246 0.118827
  26 10.9384 0.0107918 0.0563256
  27 10.8439 0.00879420 0.0334584
  28 10.8313 0.0396732 0.0210220
  29 10.8094 0.0819736 0.0242212
  30 10.7556 0.143297 0.0214220
  31 10.7341 0.166904 -0.00207926
  32 10.7622 0.135808 -0.0257972
  33 10.8012 0.0893549 -0.0223107
  34 10.8185 0.0448364 -0.0232854
  35 10.8386 0.00747773 -0.0347680
  36 10.9377 0.0134416 -0.0613814
  37 11.0796 0.0309765 -0.123417
  38 11.4034 0.0122558 -0.164082
  39 11.8119 0.0218248 -0.263094
  40 12.2794 -0.102869 -0.249727
  41 12.6892 -0.127159 -0.0140215
  42 12.4247 -0.0899489 0.240323
  43 11.8713 0.0855414 0.406984
  44 11.5728 0.220198 -0.0155219
  45 11.7938 0.106970 -0.379825
  46 12.4072 -0.132720 -0.293377
  47 12.5674 -0.154049 0.0666446
  48 12.3441 -0.0684088 0.213756
  49 11.7217 0.00791918 0.263020
  50 11.3729 0.0452232 0.207052
  51 11.0867 0.0355246 0.118827
  52 10.9384 0.0107918 0.0563256
  53 10.8439 0.00879420 0.0334584
  54 10.8313 0.0396732 0.0210220
  55 10.8094 0.0819736 0.0242212
  56 10.7556 0.143297 0.0214220
  57 10.7341 0.166904 -0.00207926
  58 10.7622 0.135808 -0.0257972
  59 10.8012 0.0893549 -0.0223107
  60 10.8185 0.0448364 -0.0232854
  61 24.0963 1.17946 2.44107
  62 21.9202 0.365831 0.892996
  63 20.6086 0.163943 0.339646
  64 20.3322 0.116637 0.0716492
  65 20.6022 0.151765 -0.291809
  66 21.5888 0.317037 -0.783687
  67 24.3170 1.02950 -2.09858
  68 3.10601 -3.77262 -3.55815
  69 0.614093 -7.75129 -0.829363
  70 0.202636 -8.64048 -0.365711
  71 0.192778 -8.46844 -0.209641
  72 0.301782 -8.28293 0.389311
  73 0.658344 -7.51716 0.873608
  74 3.39776 -3.54339 3.95762
  75 24.0963 1.17946 2.44107
  76 21.9202 0.365831 0.892996
  77 20.6086 0.163943 0.339646
  78 20.3322 0.116637 0.0716492
  79 20.6022 0.151765 -0.291809
  80 21.5888 0.317037 -0.783687
  81 24.3170 1.02950 -2.09858
  82 3.10601 -3.77262 -3.55815
  83 0.614093 -7.75129 -0.829363
  84 0.202636 -8.64048 -0.365711
  85 0.192778 -8.46844 -0.209641
  86 0.301782 -8.28293 0.389311
  87 0.658344 -7.51716 0.873608
  88 3.39776 -3.54339 3.95762
  89 9.86876 0.576213 -0.151657
  90 9.86876 0.576213 -0.151657
  91 9.00138 0.121614 1.34236
  92 8.64299 -0.0583528 -1.59195
  93 9.00138 0.121614 1.34236
  94 8.64299 -0.0583528 -1.59195
  95 4.99706 0.0930663 0.630245
  96 4.99706 0.0930663 0.630245
  97 13.3440 0.848429 -0.248805
  98 13.6536 0.462620 0.519217
  99 13.3440 0.848429 -0.248805
  100 13.6536 0.462620 0.519217
  101 10.6386 0.265284 0.156797
  102 10.6386 0.265284 0.156797
  103 12.8333 -0.728704 -0.0579878
  104 12.8333 -0.728704 -0.0579878
  105 10.6538 0.276873 -0.193082
  106 10.6538 0.276873 -0.193082
  107 12.6576 -1.54259 -1.34967
  108 12.6576 -1.54259 -1.34967
  109 8.77050 -1.80675 3.44081
  110 8.77050 -1.80675 3.44081
  111 5.84976 -1.08080 -2.75597
  112 5.84976 -1.08080 -2.75597
  113 10.7041 0.186188 0.649954
  114 10.7041 0.186188 0.649954
  115 11.1208 0.0821497 -0.617911
  116 11.1208 0.0821497 -0.617911
  117 15.2212 0.974098 0.0162135
  118 16.3581 1.08046 0.0715820
  119 15.2212 0.974098 0.0162135
  120 16.3581 1.08046 0.0715820
  121 15.9896 1.32006 -0.309478
  122 15.9896 1.32006 -0.309478
  123 1.69515 -2.89117 -0.861281
  124 1.69515 -2.89117 -0.861281
  125 13.8062 -1.73005 1.40661
  126 13.8062 -1.73005 1.40661
  127 11.5186 -0.272262 0.706231
  128 11.5186 -0.272262 0.706231
  129 2.57964 -2.50786 2.00122
  130 2.57964 -2.50786 2.00122
  131 10.6553 0.222297 -0.0100919
  132 10.6553 0.222297 -0.0100919
  133 11.5064 -0.529069 -0.892298
  134 11.5064 -0.529069 -0.892298
  135 10.8423 0.0907485 0.114973
  136 10.8423 0.0907485 0.114973
  137 10.8542 0.0795999 -0.107487
  138 10.8542 0.0795999 -0.107487
  139 10.9804 0.156625 -0.334810
  140 10.9804 0.156625 -0.334810
  141 10.9256 0.152037 0.302708
  142 10.9256 0.152037 0.302708
  143 10.4226 0.367838 -0.0119423
  144 10.4226 0.367838 -0.0119423
  145 8.63008 0.579321 -0.0678753
  146 8.63008 0.579321 -0.0678753
  147 12.7508 -0.458152 0.259658
  148 12.7508 -0.458152 0.259658
  149 14.6973 -0.583255 -0.414100
  150 14.6973 -0.583255 -0.414100
  151 11.2581 -1.23938 1.72443
  152 11.2581 -1.23938 1.72443
  153 8.50268 -2.31697 -3.79227
  154 8.50268 -2.31697 -3.79227
  155 9.90146 0.412127 0.616676
  156 9.90146 0.412127 0.616676
  157 12.9622 -0.0912733 -0.553326
  158 12.9622 -0.0912733 -0.553326
  159 17.9669 1.38727 0.926602
  160 17.9669 1.38727 0.926602
  161 8.86372 -2.45667 4.42089
  162 8.86372 -2.45667 4.42089
  163 18.4333 0.634518 -0.202989
  164 18.4333 0.634518 -0.202989
  165 10.3795 0.366044 0.293126
  166 10.3795 0.366044 0.293126
  167 9.84442 0.339699 -0.895174
  168 9.84442 0.339699 -0.895174
  169 12.2133 0.357175 0.314946
  170 12.2133 0.357175 0.314946
  171 10.2759 0.435358 -0.331161
  172 10.2759 0.435358 -0.331161
  173 10.7267 0.178961 0.0502372
  174 10.7267 0.178961 0.0502372
  175 10.9234 0.0868583 -0.181343
  176 10.9234 0.0868583 -0.181343
  177 17.2027 1.24841 -0.848855
  178 17.2027 1.24841 -0.848855
  179 10.7368 0.173949 -0.0607815
  180 10.7368 0.173949 -0.0607815
  181 7.80090 0.568716 -0.460204
  182 7.80090 0.568716 -0.460204
  183 14.3861 1.05015 0.166150
  184 14.3861 1.05015 0.166150
  185 2.84871 -2.46534 -2.59097
  186 2.84871 -2.46534 -2.59097
  187 7.72839 -0.0939928 1.92926
  188 7.72839 -0.0939928 1.92926
  189 10.5028 -1.67124 -2.66843
  190 10.5028 -1.67124 -2.66843
  191 12.4014 -0.334436 0.117036
  192 12.4014 -0.334436 0.117036
  193 11.5880 -0.0335128 0.447825
  194 11.5880 -0.0335128 0.447825
  195 15.9551 0.357762 0.767035
  196 15.9551 0.357762 0.767035
  197 6.38703 0.182704 -1.18389
  198 6.38703 0.182704 -1.18389
  199 18.2387 0.836758 0.455924
  200 18.2387 0.836758 0.455924
  201 11.8109 -0.137961 -0.458567
  202 11.8109 -0.137961 -0.458567
  203 10.9413 0.0622605 0.167470
  204 10.9413 0.0622605 0.167470
  205 12.3068 -0.472438 -0.201131
  206 12.3068 -0.472438 -0.201131
  207 13.5088 -0.696972 0.0175808
  208 13.5088 -0.696972 0.0175808
  209 0.830060 -4.90459 0.369011
  210 0.830060 -4.90459 0.369011
  211 11.3070 0.0655956 -0.403402
  212 11.3070 0.0655956 -0.403402
  213 11.2059 0.0924152 0.354932
  214 11.2059 0.0924152 0.354932
  215 10.7864 -0.980816 -1.71416
  216 10.7864 -0.980816 -1.71416
  217 12.6117 -0.266667 -0.347525
  218 12.6117 -0.266667 -0.347525
  219 10.2441 0.377274 -0.617363
  220 10.2441 0.377274 -0.617363
  221 2.82016 -3.62046 2.81081
  222 2.82016 -3.62046 2.81081
  223 12.7579 0.0402797 0.515538
  224 12.7579 0.0402797 0.515538
  225 12.3414 0.302149 -0.422287
  226 12.3414 0.302149 -0.422287
  227 18.0036 1.08147 -0.757723
  228 18.0036 1.08147 -0.757723
  229 13.5499 -0.522636 -0.330669
  230 13.5499 -0.522636 -0.330669
  231 14.9563 -0.826961 -2.40159
  232 14.9563 -0.826961 -2.40159
  233 10.8083 -0.484316 1.33633
  234 10.8083 -0.484316 1.33633
  235 10.5467 0.308164 0.0502746
  236 10.5467 0.308164 0.0502746
  237 5.52310 -0.845455 2.44570
  238 5.52310 -0.845455 2.44570
  239 14.3154 -1.34611 2.85401
  240 14.3154 -1.34611 2.85401
  241 3.69622 -0.550660 -1.19872
  242 3.69622 -0.550660 -1.19872
  243 12.5927 -0.935254 -0.546049
  244 12.5927 -0.935254 -0.546049
  245 10.1310 0.467286 0.360608
  246 10.1310 0.467286 0.360608
  247 0.382147 -6.31964 -0.293218
  248 0.382147 -6.31964 -0.293218
  249 0.704635 -5.61570 0.978010
  250 0.704635 -5.61570 0.978010
  251 10.3444 0.0742257 0.976055
  252 10.3444 0.0742257 0.976055
  253 10.8294 0.0422848 0.0420422
  254 10.8294 0.0422848 0.0420422
  255 10.7254 0.180701 0.00787484
  256 10.7254 0.180701 0.00787484
  257 10.0467 -0.122851 -1.28538
  258 10.0467 -0.122851 -1.28538
  259 10.8379 0.0383157 -0.0445087
  260 10.8379 0.0383157 -0.0445087
  261 12.0668 -0.839976 0.765524
  262 12.0668 -0.839976 0.765524
  263 11.1540 0.0415615 -0.202085
  264 11.1540 0.0415615 -0.202085
  265 8.57423 -0.726168 -2.35147
  266 8.57423 -0.726168 -2.35147
  267 14.7850 1.12428 -0.124558
  268 14.7850 1.12428 -0.124558
  269 10.7111 0.245759 -0.509717
  270 10.7111 0.245759 -0.509717
  271 10.6642 0.230182 -0.105351
  272 10.6642 0.230182 -0.105351
  273 8.98521 0.438838 -0.890268
  274 8.98521 0.438838 -0.890268
  275 2.66764 -1.14395 0.679755
  276 2.66764 -1.14395 0.679755
  277 11.5650 -1.88732 2.37174
  278 11.5650 -1.88732 2.37174
  279 10.7911 0.166120 0.205147
  280 10.7911 0.166120 0.205147
  281 16.2291 1.16252 -0.210916
  282 16.2291 1.16252 -0.210916
  283 19.7305 1.51643 2.14206
  284 19.7305 1.51643 2.14206
  285 13.0006 -1.37296 0.712764
  286 13.0006 -1.37296 0.712764
  287 9.16668 0.462957 0.657953
  288 9.16668 0.462957 0.657953
  289 11.9384 -2.33686 3.11865
  290 11.9384 -2.33686 3.11865
  291 12.2135 -0.137913 0.290639
  292 12.2135 -0.137913 0.290639
  293 10.7846 0.109604 0.0571607
  294 10.7846 0.109604 0.0571607
  295 10.6155 0.300420 -0.329844
  296 10.6155 0.300420 -0.329844
  297 10.7287 0.177743 -0.0156846
  298 10.7287 0.177743 -0.0156846
  299 10.9028 0.0309758 -0.0798282
  300 10.9028 0.0309758 -0.0798282
  301 11.1413 0.0577714 0.202890
  302 11.1413 0.0577714 0.202890
  303 10.5505 0.306432 -0.0854966
  304 10.5505 0.306432 -0.0854966
  305 2.42794 -4.23025 -2.65458
  306 2.42794 -4.23025 -2.65458
  307 7.12086 0.455133 0.602145
  308 7.12086 0.455133 0.602145
  309 10.7993 0.0912230 -0.0550459
  310 10.7993 0.0912230 -0.0550459
  311 9.43024 0.552360 -0.441475
  312 9.43024 0.552360 -0.441475
  313 9.45295 0.602551 0.169883
  314 9.45295 0.602551 0.169883
  315 10.7730 0.159740 -0.146070
  316 10.7730 0.159740 -0.146070
  317 14.5969 0.706287 0.0942605
  318 14.5969 0.706287 0.0942605
  319 10.6836 0.266245 0.449498
  320 10.6836 0.266245 0.449498
  321 13.7351 0.400032 -0.472214
  322 13.7351 0.400032 -0.472214
  323 20.8364 0.602722 1.35845
  324 20.8364 0.602722 1.35845
  325 10.6385 0.275856 0.285932
  326 10.6385 0.275856 0.285932
  327 10.4537 0.364423 0.149571
  328 10.4537 0.364423 0.149571
  329 8.33719 -2.08290 -4.29121
  330 8.33719 -2.08290 -4.29121
  331 10.9086 0.0280418 0.0781345
  332 10.9086 0.0280418 0.0781345
  333 10.6522 0.232124 0.0786507
  334 10.6522 0.232124 0.0786507
  335 10.2267 0.469801 0.0170971
  336 10.2267 0.469801 0.0170971
  337 5.25952 -1.88947 3.50372
  338 5.25952 -1.88947 3.50372
  339 13.2503 0.858457 0.0828074
  340 13.2503 0.858457 0.0828074
  341 0.772210 -5.50615 -1.15181
  342 0.772210 -5.50615 -1.15181
  343 8.13786 0.514642 0.541492
  344 8.13786 0.514642 0.541492
  345 19.6913 0.284353 0.200097
  346 19.6913 0.284353 0.200097
  347 20.5251 1.01122 -1.38430
  348 20.5251 1.01122 -1.38430
  349 9.32448 -1.06761 2.62983
  350 9.70595 -0.552370 1.96683
  351 9.32448 -1.06761 2.62983
  352 9.70595 -0.552370 1.96683
  353 19.9655 0.517444 0.726302
  354 19.9655 0.517444 0.726302
  355 11.0520 -0.0110169 0.762173
  356 11.0520 -0.0110169 0.762173
  357 13.2709 -1.78348 -1.78575
  358 13.2709 -1.78348 -1.78575
  359 12.4434 -0.112171 0.410685
  360 12.4434 -0.112171 0.410685
  361 8.57280 -2.06488 4.72690
  362 8.57280 -2.06488 4.72690
  363 14.5961 1.17599 -0.0423262
  364 14.5961 1.17599 -0.0423262
  365 20.0027 0.194456 -0.154071
  366 20.0027 0.194456 -0.154071
  367 11.8201 0.0115711 -0.376637
  368 11.8201 0.0115711 -0.376637
  369 10.4548 0.387001 -0.178537
  370 10.4548 0.387001 -0.178537
  371 16.4397 1.27181 0.337810
  372 16.4397 1.27181 0.337810
  373 12.3929 0.509448 -0.0890600
  374 12.3929 0.509448 -0.0890600
  375 11.3700 0.0466441 -0.247866
  376 11.3700 0.0466441 -0.247866
  377 2.97997 -1.57846 -1.99055
  378 2.97997 -1.57846 -1.99055
  379 12.5900 -0.223722 0.134782
  380 12.5900 -0.223722 0.134782
  381 10.7113 -0.0124203 -0.895044
  382 10.7113 -0.0124203 -0.895044
  383 12.3312 -0.0294624 -0.486321
  384 12.3312 -0.0294624 -0.486321
  385 20.0552 0.365673 -0.605745
  386 20.0552 0.365673 -0.605745
  387 10.7420 0.171259 0.115689
  388 10.7420 0.171259 0.115689
  389 13.1376 0.622318 0.429321
  390 13.1376 0.622318 0.429321
  391 14.3199 -0.357584 -0.00317399
  392 14.3199 -0.357584 -0.00317399
  393 10.7866 0.200834 -0.255439
  394 10.7866 0.200834 -0.255439
  395 21.2280 1.75837 -2.50561
  396 21.2280 1.75837 -2.50561
  397 12.4454 -0.174391 -0.112796
  398 12.4454 -0.174391 -0.112796
</Section>

newXOutput 5

<Section columns = "stress_xx | stress_yy | stress_xy">
  1 14.4059 0.0138098 -0.0177134
  2 14.4113 0.0173600 0.0239237
  3 14.4059 0.0138098 -0.0177134
  4 14.4113 0.0173600 0.0239237
  5 22.9457 0.954616 5.98235
  6 23.8907 0.889840 -5.87852
  7 22.9457 0.954616 5.98235
  8 23.8907 0.889840 -5.87852
  9 14.4455 0.00996560 -0.0462971
  10 14.5775 0.0179109 -0.0817410
  11 14.7664 0.0412690 -0.164368
  12 15.1975 0.0163189 -0.218550
  13 15.7416 0.0290411 -0.350506
  14 16.3644 -0.137176 -0.332827
  15 16.9105 -0.169519 -0.0188991
  16 16.5591 -0.119878 0.319848
  17 15.8226 0.114108 0.541866
  18 15.4254 0.293593 -0.0206719
  19 15.7195 0.142604 -0.505735
  20 16.5358 -0.176896 -0.390454
  21 16.7483 -0.205372 0.0890704
  22 16.4506 -0.0912166 0.284906
  23 15.6216 0.0104973 0.350430
  24 15.1570 0.0602372 0.275793
  25 14.7759 0.0473285 0.158252
  26 14.5784 0.0143800 0.0750070
  27 14.4526 0.0117207 0.0445547
  28 14.4358 0.0528630 0.0279909
  29 14.4066 0.109219 0.0322535
  30 14.3350 0.190912 0.0285277
  31 14.3063 0.222360 -0.00276901
  32 14.3438 0.180936 -0.0343529
  33 14.3957 0.119054 -0.0297058
  34 14.4187 0.0597447 -0.0310079
  35 14.4455 0.00996560 -0.0462971
  36 14.5775 0.0179109 -0.0817410
  37 14.7664 0.0412690 -0.164368
  38 15.1975 0.0163189 -0.218550
  39 15.7416 0.0290411 -0.350506
  40 16.3644 -0.137176 -0.332827
  41 16.9105 -0.169519 -0.0188991
  42 16.5591 -0.119878 0.319848
  43 15.8226 0.114108 0.541866
  44 15.4254 0.293593 -0.0206719
  45 15.7195 0.142604 -0.505735
  46 16.5358 -0.176896 -0.390454
  47 16.7483 -0.205372 0.0890704
  48 16.4506 -0.0912166 0.284906
  49 15.6216 0.0104973 0.350430
  50 15.1570 0.0602372 0.275793
  51 14.7759 0.0473285 0.158252
  52 14.5784 0.0143800 0.0750070
  53 14.4526 0.0117207 0.0445547
  54 14.4358 0.0528630 0.0279909
  55 14.4066 0.109219 0.0322535
  56 14.3350 0.190912 0.0285277
  57 14.3063 0.222360 -0.00276901
  58 14.3438 0.180936 -0.0343529
  59 14.3957 0.119054 -0.0297058
  60 14.4187 0.0597447 -0.0310079
  61 32.1002 1.57229 3.25317
  62 29.2018 0.487250 1.18965
  63 27.4554 0.218197 0.452330
  64 27.0873 0.155258 0.0953472
  65 27.4468 0.202054 -0.388593
  66 28.7606 0.422213 -1.04390
  67 32.3942 1.37235 -2.79682
  68 4.13939 -5.02313 -4.74605
  69 0.818388 -10.3323 -1.10738
  70 0.269650 -11.5200 -0.488235
  71 0.256540 -11.2908 -0.279511
  72 0.401913 -11.0429 0.519773
  73 0.877470 -10.0201 1.16653
  74 4.52779 -4.71755 5.27867
  75 32.1002 1.57229 3.25317
  76 29.2018 0.487250 1.18965
  77 27.4554 0.218197 0.452330
  78 27.0873 0.155258 0.0953472
  79 27.4468 0.202054 -0.388593
  80 28.7606 0.422213 -1.04390
  81 32.3942 1.37235 -2.79682
  82 4.13939 -5.02313 -4.74605
  83 0.818388 -10.3323 -1.10738
  84 0.269650 -11.5200 -0.488235
  85 0.256540 -11.2908 -0.279511
  86 0.401913 -11.0429 0.519773
  87 0.877470 -10.0201 1.16653
  88 4.52779 -4.71755 5.27867
  89 13.1539 0.767858 -0.202075
  90 13.1539 0.767858 -0.202075
  91 11.9979 0.162151 1.78899
  92 11.5203 -0.0777046 -2.12177
  93 11.9979 0.162151 1.78899
  94 11.5203 -0.0777046 -2.12177
  95 6.66201 0.124603 0.840136
  96 6.66201 0.124603 0.840136
  97 17.7845 1.13090 -0.330978
  98 18.1962 0.616966 0.690450
  99 17.7845 1.13090 -0.330978
  100 18.1962 0.616966 0.690450
  101 14.1793 0.353458 0.208848
  102 14.1793 0.353458 0.208848
  103 17.1028 -0.971154 -0.0761979
  104 17.1028 -0.971154 -0.0761979
  105 14.1994 0.368903 -0.257185
  106 14.1994 0.368903 -0.257185
  107 16.8680 -2.05597 -1.79970
  108 16.8680 -2.05597 -1.79970
  109 11.6891 -2.40823 4.58701
  110 11.6891 -2.40823 4.58701
  111 7.79753 -1.44029 -3.67431
  112 7.79753 -1.44029 -3.67431
  113 14.2664 0.248059 0.866026
  114 14.2664 0.248059 0.866026
  115 14.8214 0.109389 -0.823383
  116 14.8214 0.109389 -0.823383
  117 20.2843 1.29879 0.0236108
  118 21.7988 1.43950 0.0957278
  119 20.2843 1.29879 0.0236108
  120 21.7988 1.43950 0.0957278
  121 21.3081 1.75954 -0.414058
  122 21.3081 1.75954 -0.414058
  123 2.25979 -3.85267 -1.14886
  124 2.25979 -3.85267 -1.14886
  125 18.3977 -2.30521 1.87643
  126 18.3977 -2.30521 1.87643
  127 15.3513 -0.362929 0.941382
  128 15.3513 -0.362929 0.941382
  129 3.43896 -3.34171 2.66912
  130 3.43896 -3.34171 2.66912
  131 14.2015 0.296173 -0.0134398
  132 14.2015 0.296173 -0.0134398
  133 15.3349 -0.705202 -1.18952
  134 15.3349 -0.705202 -1.18952
  135 14.4505 0.120911 0.153120
  136 14.4505 0.120911 0.153120
  137 14.4663 0.106059 -0.143147
  138 14.4663 0.106059 -0.143147
  139 14.6344 0.208666 -0.446004
  140 14.6344 0.208666 -0.446004
  141 14.5613 0.202561 0.403224
  142 14.5613 0.202561 0.403224
  143 13.8916 0.490117 -0.0159134
  144 13.8916 0.490117 -0.0159134
  145 11.5037 0.772127 -0.0904723
  146 11.5037 0.772127 -0.0904723
  147 16.9930 -0.610535 0.345099
  148 16.9930 -0.610535 0.345099
  149 19.5854 -0.776264 -0.554175
  150 19.5854 -0.776264 -0.554175
  151 15.0038 -1.65194 2.29873
  152 15.0038 -1.65194 2.29873
  153 11.3316 -3.08757 -5.05657
  154 11.3316 -3.08757 -5.05657
  155 13.1973 0.549221 0.821720
  156 13.1973 0.549221 0.821720
  157 17.2751 -0.121475 -0.736260
  158 17.2751 -0.121475 -0.736260
  159 23.9408 1.84909 1.23620
  160 23.9408 1.84909 1.23620
  161 11.8127 -3.27409 5.89431
  162 11.8127 -3.27409 5.89431
  163 24.5611 0.845072 -0.270595
  164 24.5611 0.845072 -0.270595
  165 13.8342 0.487736 0.390501
  166 13.8342 0.487736 0.390501
  167 13.1213 0.452713 -1.19292
  168 13.1213 0.452713 -1.19292
  169 16.2783 0.476211 0.419288
  170 16.2783 0.476211 0.419288
  171 13.6961 0.580113 -0.441195
  172 13.6961 0.580113 -0.441195
  173 14.2965 0.238431 0.0669060
  174 14.2965 0.238431 0.0669060
  175 14.5584 0.115722 -0.241529
  176 14.5584 0.115722 -0.241529
  177 22.9230 1.66500 -1.13361
  178 22.9230 1.66500 -1.13361
  179 14.3100 0.231757 -0.0809475
  180 14.3100 0.231757 -0.0809475
  181 10.3987 0.758138 -0.613353
  182 10.3987 0.758138 -0.613353
  183 19.1725 1.39971 0.220300
  184 19.1725 1.39971 0.220300
  185 3.79742 -3.28502 -3.45558
  186 3.79742 -3.28502 -3.45558
  187 10.3015 -0.125122 2.57146
  188 10.3015 -0.125122 2.57146
  189 13.9972 -2.22757 -3.55731
  190 13.9972 -2.22757 -3.55731
  191 16.5274 -0.445788 0.156486
  192 16.5274 -0.445788 0.156486
  193 15.4437 -0.0447402 0.596769
  194 15.4437 -0.0447402 0.596769
  195 21.2610 0.478260 1.02481
  196 21.2610 0.478260 1.02481
  197 8.51436 0.243859 -1.57809
  198 8.51436 0.243859 -1.57809
  199 24.3024 1.11462 0.607902
  200 24.3024 1.11462 0.607902
  201 15.7406 -0.183955 -0.611249
  202 15.7406 -0.183955 -0.611249
  203 14.5822 0.0829469 0.223048
  204 14.5822 0.0829469 0.223048
  205 16.4013 -0.629744 -0.268611
  206 16.4013 -0.629744 -0.268611
  207 18.0026 -0.928586 0.0219205
  208 18.0026 -0.928586 0.0219205
  209 1.10634 -6.53730 0.492368
  210 1.10634 -6.53730 0.492368
  211 15.0692 0.0873381 -0.537457
  212 15.0692 0.0873381 -0.537457
  213 14.9347 0.123109 0.472847
  214 14.9347 0.123109 0.472847
  215 14.3755 -1.30729 -2.28497
  216 14.3755 -1.30729 -2.28497
  217 16.8080 -0.355408 -0.462326
  218 16.8080 -0.355408 -0.462326
  219 13.6537 0.502740 -0.822625
  220 13.6537 0.502740 -0.822625
  221 3.75892 -4.82426 3.74920
  222 3.75892 -4.82426 3.74920
  223 17.0032 0.0539093 0.686067
  224 17.0032 0.0539093 0.686067
  225 16.4488 0.402860 -0.562134
  226 16.4488 0.402860 -0.562134
  227 23.9895 1.44093 -1.01064
  228 23.9895 1.44093 -1.01064
  229 18.0573 -0.696228 -0.439156
  230 18.0573 -0.696228 -0.439156
  231 19.9295 -1.09988 -3.20357
  232 19.9295 -1.09988 -3.20357
  233 14.4049 -0.645512 1.78112
  234 14.4049 -0.645512 1.78112
  235 14.0568 0.410595 0.0669663
  236 14.0568 0.410595 0.0669663
  237 7.36236 -1.12654 3.26056
  238 7.36236 -1.12654 3.26056
  239 19.0755 -1.79228 3.80637
  240 19.0755 -1.79228 3.80637
  241 4.92783 -0.733161 -1.59826
  242 4.92783 -0.733161 -1.59826
  243 16.7819 -1.24652 -0.728582
  244 16.7819 -1.24652 -0.728582
  245 13.5032 0.622685 0.480456
  246 13.5032 0.622685 0.480456
  247 0.509089 -8.42429 -0.391332
  248 0.509089 -8.42429 -0.391332
  249 0.939091 -7.48512 1.30519
  250 0.939091 -7.48512 1.30519
  251 13.7872 0.0989010 1.30073
  252 13.7872 0.0989010 1.30073
  253 14.4333 0.0563427 0.0559859
  254 14.4333 0.0563427 0.0559859
  255 14.2949 0.240744 0.0104881
  256 14.2949 0.240744 0.0104881
  257 13.3905 -0.163753 -1.71311
  258 13.3905 -0.163753 -1.71311
  259 14.4446 0.0510566 -0.0592709
  260 14.4446 0.0510566 -0.0592709
  261 16.0814 -1.11955 1.02083
  262 16.0814 -1.11955 1.02083
  263 14.8655 0.0553619 -0.269167
  264 14.8655 0.0553619 -0.269167
  265 11.4282 -0.967863 -3.13441
  266 11.4282 -0.967863 -3.13441
  267 19.7037 1.49844 -0.164881
  268 19.7037 1.49844 -0.164881
  269 14.2757 0.327439 -0.679103
  270 14.2757 0.327439 -0.679103
  271 14.2134 0.306684 -0.140315
  272 14.2134 0.306684 -0.140315
  273 11.9766 0.584911 -1.18644
  274 11.9766 0.584911 -1.18644
  275 3.55661 -1.52367 0.906468
  276 3.55661 -1.52367 0.906468
  277 15.4121 -2.51555 3.16191
  278 15.4121 -2.51555 3.16191
  279 14.3822 0.221331 0.273242
  280 14.3822 0.221331 0.273242
  281 21.6270 1.54896 -0.281695
  282 21.6270 1.54896 -0.281695
  283 26.2886 2.02278 2.85656
  284 26.2886 2.02278 2.85656
  285 17.3251 -1.82976 0.951154
  286 17.3251 -1.82976 0.951154
  287 12.2185 0.617027 0.876771
  288 12.2185 0.617027 0.876771
  289 15.9092 -3.11460 4.15780
  290 15.9092 -3.11460 4.15780
  291 16.2769 -0.183871 0.387488
  292 16.2769 -0.183871 0.387488
  293 14.3736 0.146029 0.0761230
  294 14.3736 0.146029 0.0761230
  295 14.1484 0.400282 -0.439394
  296 14.1484 0.400282 -0.439394
  297 14.2992 0.236805 -0.0208880
  298 14.2992 0.236805 -0.0208880
  299 14.5310 0.0412725 -0.106310
  300 14.5310 0.0412725 -0.106310
  301 14.8485 0.0769612 0.270238
  302 14.8485 0.0769612 0.270238
  303 14.0619 0.408287 -0.113883
  304 14.0619 0.408287 -0.113883
  305 3.23606 -5.63676 -3.54107
  306 3.23606 -5.63676 -3.54107
  307 9.49249 0.606846 0.802528
  308 9.49249 0.606846 0.802528
  309 14.3931 0.121543 -0.0733051
  310 14.3931 0.121543 -0.0733051
  311 12.5697 0.736124 -0.588291
  312 12.5697 0.736124 -0.588291
  313 12.6000 0.803010 0.226356
  314 12.6000 0.803010 0.226356
  315 14.3582 0.212830 -0.194546
  316 14.3582 0.212830 -0.194546
  317 19.4525 0.942040 0.123611
  318 19.4525 0.942040 0.123611
  319 14.2392 0.354747 0.598834
  320 14.2392 0.354747 0.598834
  321 18.3047 0.533524 -0.627843
  322 18.3047 0.533524 -0.627843
  323 27.7604 0.802847 1.81054
  324 27.7604 0.802847 1.81054
  325 14.1791 0.367552 0.380884
  326 14.1791 0.367552 0.380884
  327 13.9330 0.485567 0.199240
  328 13.9330 0.485567 0.199240
  329 11.1103 -2.77199 -5.72295
  330 11.1103 -2.77199 -5.72295
  331 14.5388 0.0373627 0.104054
  332 14.5388 0.0373627 0.104054
  333 14.1973 0.309269 0.104754
  334 14.1973 0.309269 0.104754
  335 13.6307 0.626009 0.0227745
  336 13.6307 0.626009 0.0227745
  337 7.01068 -2.51813 4.67186
  338 7.01068 -2.51813 4.67186
  339 17.6598 1.14425 0.110100
  340 17.6598 1.14425 0.110100
  341 1.02904 -7.33901 -1.53685
  342 1.02904 -7.33901 -1.53685
  343 10.8478 0.686006 0.721620
  344 10.8478 0.686006 0.721620
  345 26.2350 0.378621 0.266506
  346 26.2350 0.378621 0.266506
  347 27.3465 1.34770 -1.84523
  348 27.3465 1.34770 -1.84523
  349 12.4275 -1.42301 3.50547
  350 12.9362 -0.736208 2.62144
  351 12.4275 -1.42301 3.50547
  352 12.9362 -0.736208 2.62144
  353 26.6005 0.689124 0.967780
  354 26.6005 0.689124 0.967780
  355 14.7297 -0.0147441 1.01569
  356 14.7297 -0.0147441 1.01569
  357 17.6845 -2.37674 -2.38145
  358 17.6845 -2.37674 -2.38145
  359 16.5841 -0.149433 0.546662
  360 16.5841 -0.149433 0.546662
  361 11.4237 -2.74821 6.30356
  362 11.4237 -2.74821 6.30356
  363 19.4524 1.56715 -0.0563694
  364 19.4524 1.56715 -0.0563694
  365 26.6493 0.258894 -0.205261
  366 26.6493 0.258894 -0.205261
  367 15.7526 0.0153418 -0.501863
  368 15.7526 0.0153418 -0.501863
  369 13.9345 0.515657 -0.237833
  370 13.9345 0.515657 -0.237833
  371 21.9074 1.69484 0.451364
  372 21.9074 1.69484 0.451364
  373 16.5176 0.679114 -0.118559
  374 16.5176 0.679114 -0.118559
  375 15.1531 0.0621165 -0.330181
  376 15.1531 0.0621165 -0.330181
  377 3.97302 -2.10305 -2.65449
  378 3.97302 -2.10305 -2.65449
  379 16.7788 -0.298193 0.179117
  380 16.7788 -0.298193 0.179117
  381 14.2759 -0.0166166 -1.19282
  382 14.2759 -0.0166166 -1.19282
  383 16.4348 -0.0392172 -0.647394
  384 16.4348 -0.0392172 -0.647394
  385 26.7198 0.487016 -0.807080
  386 26.7198 0.487016 -0.807080
  387 14.3169 0.228174 0.154080
  388 14.3169 0.228174 0.154080
  389 17.5093 0.829649 0.571200
  390 17.5093 0.829649 0.571200
  391 19.0828 -0.475875 -0.00224220
  392 19.0828 -0.475875 -0.00224220
  393 14.3762 0.267585 -0.340241
  394 14.3762 0.267585 -0.340241
  395 28.2825 2.34589 -3.34110
  396 28.2825 2.34589 -3.34110
  397 16.5858 -0.232500 -0.150566
  398 16.5858 -0.232500 -0.150566
</Section>

newXOutput 6

<Section columns = "stress_xx | stress_yy | stress_xy">
  1 17.9999 0.0172582 -0.0221122
  2 18.0068 0.0216922 0.0298642
  3 17.9999 0.0172582 -0.0221122
  4 18.0068 0.0216922 0.0298642
  5 28.6604 1.19953 7.47847
  6 29.8400 1.11893 -7.34880
  7 28.6604 1.19953 7.47847
  8 29.8400 1.11893 -7.34880
  9 18.0493 0.0124511 -0.0577963
  10 18.2141 0.0223745 -0.102050
  11 18.4499 0.0515450 -0.205226
  12 18.9882 0.0203711 -0.272905
  13 19.6675 0.0362282 -0.437776
  14 20.4453 -0.171492 -0.415855
  15 21.1277 -0.211867 -0.0238780
  16 20.6898 -0.149780 0.399084
  17 19.7712 0.142702 0.676361
  18 19.2756 0.366986 -0.0258098
  19 19.6424 0.178226 -0.631298
  20 20.6609 -0.221038 -0.487176
  21 20.9251 -0.256683 0.111601
  22 20.5530 -0.114027 0.356005
  23 19.5177 0.0130446 0.437707
  24 18.9376 0.0752211 0.344398
  25 18.4618 0.0591137 0.197586
  26 18.2153 0.0179638 0.0936417
  27 18.0582 0.0146447 0.0556229
  28 18.0373 0.0660356 0.0349407
  29 18.0009 0.136425 0.0402652
  30 17.9115 0.238453 0.0356160
  31 17.8757 0.277728 -0.00345708
  32 17.9225 0.225995 -0.0428871
  33 17.9872 0.148709 -0.0370801
  34 18.0159 0.0746345 -0.0387109
  35 18.0493 0.0124511 -0.0577963
  36 18.2141 0.0223745 -0.102050
  37 18.4499 0.0515450 -0.205226
  38 18.9882 0.0203711 -0.272905
  39 19.6675 0.0362282 -0.437776
  40 20.4453 -0.171492 -0.415855
  41 21.1277 -0.211867 -0.0238780
  42 20.6898 -0.149780 0.399084
  43 19.7712 0.142702 0.676361
  44 19.2756 0.366986 -0.0258098
  45 19.6424 0.178226 -0.631298
  46 20.6609 -0.221038 -0.487176
  47 20.9251 -0.256683 0.111601
  48 20.5530 -0.114027 0.356005
  49 19.5177 0.0130446 0.437707
  50 18.9376 0.0752211 0.344398
  51 18.4618 0.0591137 0.197586
  52 18.2153 0.0179638 0.0936417
  53 18.0582 0.0146447 0.0556229
  54 18.0373 0.0660356 0.0349407
  55 18.0009 0.136425 0.0402652
  56 17.9115 0.238453 0.0356160
  57 17.8757 0.277728 -0.00345708
  58 17.9225 0.225995 -0.0428871
  59 17.9872 0.148709 -0.0370801
  60 18.0159 0.0746345 -0.0387109
  61 40.0900 1.96497 4.06448
  62 36.4708 0.608408 1.48579
  63 34.2908 0.272255 0.564751
  64 33.8312 0.193751 0.118953
  65 34.2800 0.252195 -0.485136
  66 35.9203 0.527139 -1.30360
  67 40.4573 1.71503 -3.49440
  68 5.17180 -6.27014 -5.93487
  69 1.02248 -12.9119 -1.38617
  70 0.336400 -14.3992 -0.611070
  71 0.320054 -14.1130 -0.349375
  72 0.501814 -13.8023 0.650581
  73 1.09644 -12.5217 1.46031
  74 5.65655 -5.88823 6.60065
  75 40.0900 1.96497 4.06448
  76 36.4708 0.608408 1.48579
  77 34.2908 0.272255 0.564751
  78 33.8312 0.193751 0.118953
  79 34.2800 0.252195 -0.485136
  80 35.9203 0.527139 -1.30360
  81 40.4573 1.71503 -3.49440
  82 5.17180 -6.27014 -5.93487
  83 1.02248 -12.9119 -1.38617
  84 0.336400 -14.3992 -0.611070
  85 0.320054 -14.1130 -0.349375
  86 0.501814 -13.8023 0.650581
  87 1.09644 -12.5217 1.46031
  88 5.65655 -5.88823 6.60065
  89 16.4368 0.959290 -0.252424
  90 16.4368 0.959290 -0.252424
  91 14.9925 0.202687 2.23522
  92 14.3958 -0.0970073 -2.65117
  93 14.9925 0.202687 2.23522
  94 14.3958 -0.0970073 -2.65117
  95 8.32660 0.156397 1.04993
  96 8.32660 0.156397 1.04993
  97 22.2212 1.41319 -0.412771
  98 22.7346 0.771382 0.860769
  99 22.2212 1.41319 -0.412771
  100 22.7346 0.771382 0.860769
  101 17.7171 0.441504 0.260792
  102 17.7171 0.441504 0.260792
  103 21.3681 -1.21338 -0.0938510
  104 21.3681 -1.21338 -0.0938510
  105 17.7422 0.460805 -0.321159
  106 17.7422 0.460805 -0.321159
  107 21.0739 -2.56893 -2.24979
  108 21.0739 -2.56893 -2.24979
  109 14.6053 -3.00933 5.73283
  110 14.6053 -3.00933 5.73283
  111 9.74423 -1.79938 -4.59249
  112 9.74423 -1.79938 -4.59249
  113 17.8258 0.309834 1.08181
  114 17.8258 0.309834 1.08181
  115 18.5188 0.136556 -1.02860
  116 18.5188 0.136556 -1.02860
  117 25.3422 1.62349 0.0319989
  118 27.2334 1.79798 0.120015
  119 25.3422 1.62349 0.0319989
  120 27.2334 1.79798 0.120015
  121 26.6208 2.19875 -0.519343
  122 26.6208 2.19875 -0.519343
  123 2.82423 -4.81305 -1.43669
  124 2.82423 -4.81305 -1.43669
  125 22.9840 -2.87960 2.34672
  126 22.9840 -2.87960 2.34672
  127 19.1805 -0.453552 1.17640
  128 19.1805 -0.453552 1.17640
  129 4.29800 -4.17451 3.33743
  130 4.29800 -4.17451 3.33743
  131 17.7449 0.369938 -0.0167797
  132 17.7449 0.369938 -0.0167797
  133 19.1599 -0.881224 -1.48664
  134 19.1599 -0.881224 -1.48664
  135 18.0557 0.151029 0.191179
  136 18.0557 0.151029 0.191179
  137 18.0753 0.132482 -0.178724
  138 18.0753 0.132482 -0.178724
  139 18.2852 0.260623 -0.556994
  140 18.2852 0.260623 -0.556994
  141 18.1941 0.253008 0.503549
  142 18.1941 0.253008 0.503549
  143 17.3580 0.612231 -0.0198797
  144 17.3580 0.612231 -0.0198797
  145 14.3757 0.964782 -0.113055
  146 14.3757 0.964782 -0.113055
  147 21.2313 -0.762752 0.429985
  148 21.2313 -0.762752 0.429985
  149 24.4679 -0.968569 -0.695266
  150 24.4679 -0.968569 -0.695266
  151 18.7459 -2.06421 2.87278
  152 18.7459 -2.06421 2.87278
  153 14.1580 -3.85732 -6.32099
  154 14.1580 -3.85732 -6.32099
  155 16.4909 0.686176 1.02651
  156 16.4909 0.686176 1.02651
  157 21.5839 -0.151565 -0.918442
  158 21.5839 -0.151565 -0.918442
  159 29.9073 2.31062 1.54615
  160 29.9073 2.31062 1.54615
  161 14.7589 -4.09077 7.36762
  162 14.7589 -4.09077 7.36762
  163 30.6806 1.05515 -0.338171
  164 30.6806 1.05515 -0.338171
  165 17.2863 0.609267 0.487710
  166 17.2863 0.609267 0.487710
  167 16.3958 0.565618 -1.49034
  168 16.3958 0.565618 -1.49034
  169 20.3404 0.595237 0.523311
  170 20.3404 0.595237 0.523311
  171 17.1139 0.724685 -0.551054
  172 17.1139 0.724685 -0.551054
  173 17.8635 0.297811 0.0835366
  174 17.8635 0.297811 0.0835366
  175 18.1903 0.144540 -0.301584
  176 18.1903 0.144540 -0.301584
  177 28.6363 2.08182 -1.41926
  178 28.6363 2.08182 -1.41926
  179 17.8803 0.289478 -0.101067
  180 17.8803 0.289478 -0.101067
  181 12.9954 0.947484 -0.766375
  182 12.9954 0.947484 -0.766375
  183 23.9543 1.74903 0.273837
  184 23.9543 1.74903 0.273837
  185 4.74571 -4.10365 -4.32066
  186 4.74571 -4.10365 -4.32066
  187 12.8732 -0.156151 3.21322
  188 12.8732 -0.156151 3.21322
  189 17.4882 -2.78353 -4.44589
  190 17.4882 -2.78353 -4.44589
  191 20.6496 -0.557078 0.196154
  192 20.6496 -0.557078 0.196154
  193 19.2958 -0.0559957 0.745547
  194 19.2958 -0.0559957 0.745547
  195 26.5606 0.599377 1.28363
  196 26.5606 0.599377 1.28363
  197 10.6408 0.305141 -1.97208
  198 10.6408 0.305141 -1.97208
  199 30.3581 1.39196 0.759881
  200 30.3581 1.39196 0.759881
  201 19.6667 -0.229953 -0.763843
  202 19.6667 -0.229953 -0.763843
  203 18.2201 0.103600 0.278504
  204 18.2201 0.103600 0.278504
  205 20.4919 -0.786963 -0.336308
  206 20.4919 -0.786963 -0.336308
  207 22.4917 -1.15984 0.0255034
  208 22.4917 -1.15984 0.0255034
  209 1.38241 -8.16895 0.615901
  210 1.38241 -8.16895 0.615901
  211 18.8282 0.109020 -0.671305
  212 18.8282 0.109020 -0.671305
  213 18.6602 0.153746 0.590565
  214 18.6602 0.153746 0.590565
  215 17.9614 -1.63354 -2.85550
  216 17.9614 -1.63354 -2.85550
  217 21.0005 -0.444075 -0.576609
  218 21.0005 -0.444075 -0.576609
  219 17.0608 0.628059 -1.02763
  220 17.0608 0.628059 -1.02763
  221 4.69704 -6.02656 4.68830
  222 4.69704 -6.02656 4.68830
  223 21.2448 0.0676403 0.855940
  224 21.2448 0.0676403 0.855940
  225 20.5530 0.503567 -0.701527
  226 20.5530 0.503567 -0.701527
  227 29.9679 1.79989 -1.26373
  228 29.9679 1.79989 -1.26373
  229 22.5602 -0.869511 -0.546779
  230 22.5602 -0.869511 -0.546779
  231 24.8966 -1.37143 -4.00627
  232 24.8966 -1.37143 -4.00627
  233 17.9984 -0.806587 2.22557
  234 17.9984 -0.806587 2.22557
  235 17.5643 0.512880 0.0836248
  236 17.5643 0.512880 0.0836248
  237 9.20074 -1.40726 4.07525
  238 9.20074 -1.40726 4.07525
  239 23.8298 -2.23717 4.75923
  240 23.8298 -2.23717 4.75923
  241 6.15922 -0.915139 -1.99779
  242 6.15922 -0.915139 -1.99779
  243 20.9670 -1.55753 -0.911372
  244 20.9670 -1.55753 -0.911372
  245 16.8729 0.777903 0.600127
  246 16.8729 0.777903 0.600127
  247 0.635813 -10.5280 -0.489635
  248 0.635813 -10.5280 -0.489635
  249 1.17334 -9.35331 1.63297
  250 1.17334 -9.35331 1.63297
  251 17.2273 0.123543 1.62507
  252 17.2273 0.123543 1.62507
  253 18.0342 0.0703821 0.0698945
  254 18.0342 0.0703821 0.0698945
  255 17.8614 0.300692 0.0130955
  256 17.8614 0.300692 0.0130955
  257 16.7317 -0.204631 -2.14047
  258 16.7317 -0.204631 -2.14047
  259 18.0483 0.0637820 -0.0739961
  260 18.0483 0.0637820 -0.0739961
  261 20.0921 -1.39893 1.27619
  262 20.0921 -1.39893 1.27619
  263 18.5737 0.0691357 -0.336109
  264 18.5737 0.0691357 -0.336109
  265 14.2801 -1.20938 -3.91691
  266 14.2801 -1.20938 -3.91691
  267 24.6177 1.87229 -0.204609
  268 24.6177 1.87229 -0.204609
  269 17.8375 0.409000 -0.848230
  270 17.8375 0.409000 -0.848230
  271 17.7597 0.383073 -0.175203
  272 17.7597 0.383073 -0.175203
  273 14.9662 0.730881 -1.48231
  274 14.9662 0.730881 -1.48231
  275 4.44545 -1.90258 1.13324
  276 4.44545 -1.90258 1.13324
  277 19.2553 -3.14335 3.95187
  278 19.2553 -3.14335 3.95187
  279 17.9705 0.276460 0.341193
  280 17.9705 0.276460 0.341193
  281 27.0190 1.93487 -0.352707
  282 27.0190 1.93487 -0.352707
  283 32.8373 2.52957 3.57131
  284 32.8373 2.52957 3.57131
  285 21.6450 -2.28613 1.18994
  286 21.6450 -2.28613 1.18994
  287 15.2684 0.770972 1.09534
  288 15.2684 0.770972 1.09534
  289 19.8757 -3.89174 5.19675
  290 19.8757 -3.89174 5.19675
  291 20.3364 -0.229822 0.484320
  292 20.3364 -0.229822 0.484320
  293 17.9597 0.182400 0.0950397
  294 17.9597 0.182400 0.0950397
  295 17.6786 0.500007 -0.548746
  296 17.6786 0.500007 -0.548746
  297 17.8668 0.295773 -0.0260791
  298 17.8668 0.295773 -0.0260791
  299 18.1561 0.0515550 -0.132729
  300 18.1561 0.0515550 -0.132729
  301 18.5525 0.0961174 0.337446
  302 18.5525 0.0961174 0.337446
  303 17.5706 0.509999 -0.142213
  304 17.5706 0.509999 -0.142213
  305 4.04358 -7.04148 -4.42837
  306 4.04358 -7.04148 -4.42837
  307 11.8631 0.758560 1.00275
  308 11.8631 0.758560 1.00275
  309 17.9841 0.151819 -0.0915198
  310 17.9841 0.151819 -0.0915198
  311 15.7071 0.919709 -0.734936
  312 15.7071 0.919709 -0.734936
  313 15.7450 1.00327 0.282753
  314 15.7450 1.00327 0.282753
  315 17.9404 0.265842 -0.242916
  316 17.9404 0.265842 -0.242916
  317 24.3032 1.17795 0.151933
  318 24.3032 1.17795 0.151933
  319 17.7919 0.443127 0.747923
  320 17.7919 0.443127 0.747923
  321 22.8700 0.667090 -0.782588
  322 22.8700 0.667090 -0.782588
  323 34.6737 1.00258 2.26227
  324 34.6737 1.00258 2.26227
  325 17.7169 0.459119 0.475659
  326 17.7169 0.459119 0.475659
  327 17.4097 0.606546 0.248816
  328 17.4097 0.606546 0.248816
  329 13.8804 -3.45847 -7.15535
  330 13.8804 -3.45847 -7.15535
  331 18.1658 0.0466703 0.129911
  332 18.1658 0.0466703 0.129911
  333 17.7396 0.386299 0.130801
  334 17.7396 0.386299 0.130801
  335 17.0322 0.782022 0.0284413
  336 17.0322 0.782022 0.0284413
  337 8.76082 -3.14621 5.84012
  338 8.76082 -3.14621 5.84012
  339 22.0656 1.42986 0.137237
  340 22.0656 1.42986 0.137237
  341 1.28559 -9.17061 -1.92245
  342 1.28559 -9.17061 -1.92245
  343 13.5563 0.857278 0.901562
  344 13.5563 0.857278 0.901562
  345 32.7687 0.472631 0.332771
  346 32.7687 0.472631 0.332771
  347 34.1577 1.68387 -2.30591
  348 34.1577 1.68387 -2.30591
  349 15.5281 -1.77818 4.38061
  350 16.1639 -0.919903 3.27555
  351 15.5281 -1.77818 4.38061
  352 16.1639 -0.919903 3.27555
  353 33.2255 0.860405 1.20895
  354 33.2255 0.860405 1.20895
  355 18.4044 -0.0184986 1.26895
  356 18.4044 -0.0184986 1.26895
  357 22.0931 -2.96937 -2.97739
  358 22.0931 -2.96937 -2.97739
  359 20.7213 -0.186632 0.682180
  360 20.7213 -0.186632 0.682180
  361 14.2711 -3.42906 7.88073
  362 14.2711 -3.42906 7.88073
  363 24.3041 1.95791 -0.0703797
  364 24.3041 1.95791 -0.0703797
  365 33.2854 0.323142 -0.256368
  366 33.2854 0.323142 -0.256368
  367 19.6814 0.0190696 -0.626930
  368 19.6814 0.0190696 -0.626930
  369 17.4115 0.644142 -0.297021
  370 17.4115 0.644142 -0.297021
  371 27.3690 2.11742 0.565388
  372 27.3690 2.11742 0.565388
  373 20.6392 0.848707 -0.147964
  374 20.6392 0.848707 -0.147964
  375 18.9328 0.0775513 -0.412343
  376 18.9328 0.0775513 -0.412343
  377 4.96593 -2.62687 -3.31866
  378 4.96593 -2.62687 -3.31866
  379 20.9637 -0.372613 0.223159
  380 20.9637 -0.372613 0.223159
  381 17.8375 -0.0208410 -1.49031
  382 17.8375 -0.0208410 -1.49031
  383 20.5352 -0.0489389 -0.807953
  384 20.5352 -0.0489389 -0.807953
  385 33.3742 0.608087 -1.00812
  386 33.3742 0.608087 -1.00812
  387 17.8889 0.285004 0.192386
  388 17.8889 0.285004 0.192386
  389 21.8772 1.03693 0.712468
  390 21.8772 1.03693 0.712468
  391 23.8406 -0.593715 -0.000320126
  392 23.8406 -0.593715 -0.000320126
  393 17.9630 0.334238 -0.424873
  394 17.9630 0.334238 -0.424873
  395 35.3263 2.93410 -4.17674
  396 35.3263 2.93410 -4.17674
  397 20.7222 -0.290598 -0.188420
  398 20.7222 -0.290598 -0.188420
</Section>

newXOutput 7

<Section columns = "stress_xx | stress_yy | stress_xy">
  1 21.5910 0.0207050 -0.0264992
  2 21.5993 0.0260213 0.0357885
  3 21.5910 0.0207050 -0.0264992
  4 21.5993 0.0260213 0.0357885
  5 34.3664 1.44695 8.97481
  6 35.7800 1.35065 -8.81933
  7 34.3664 1.44695 8.97481
  8 35.7800 1.35065 -8.81933
  9 21.6502 0.0149343 -0.0692656
  10 21.8477 0.0268325 -0.122310
  11 22.1303 0.0618046 -0.245991
  12 22.7753 0.0244122 -0.327149
  13 23.5896 0.0433862 -0.524904
  14 24.5221 -0.205816 -0.498811
  15 25.3407 -0.254202 -0.0289577
  16 24.8170 -0.179655 0.478031
  17 23.7168 0.171322 0.810469
  18 23.1233 0.440376 -0.0309358
  19 23.5626 0.213837 -0.756514
  20 24.7824 -0.265149 -0.583543
  21 25.0979 -0.307981 0.134236
  22 24.6513 -0.136840 0.427054
  23 23.4102 0.0155614 0.524854
  24 22.7147 0.0901749 0.412866
  25 22.1445 0.0708802 0.236829
  26 21.8491 0.0215430 0.112230
  27 21.6610 0.0175663 0.0666631
  28 21.6358 0.0791910 0.0418714
  29 21.5922 0.163591 0.0482563
  30 21.4851 0.285920 0.0426869
  31 21.4423 0.333006 -0.00414350
  32 21.4983 0.270985 -0.0513996
  33 21.5758 0.178322 -0.0444337
  34 21.6101 0.0895057 -0.0463942
  35 21.6502 0.0149343 -0.0692656
  36 21.8477 0.0268325 -0.122310
  37 22.1303 0.0618046 -0.245991
  38 22.7753 0.0244122 -0.327149
  39 23.5896 0.0433862 -0.524904
  40 24.5221 -0.205816 -0.498811
  41 25.3407 -0.254202 -0.0289577
  42 24.8170 -0.179655 0.478031
  43 23.7168 0.171322 0.810469
  44 23.1233 0.440376 -0.0309358
  45 23.5626 0.213837 -0.756514
  46 24.7824 -0.265149 -0.583543
  47 25.0979 -0.307981 0.134236
  48 24.6513 -0.136840 0.427054
  49 23.4102 0.0155614 0.524854
  50 22.7147 0.0901749 0.412866
  51 22.1445 0.0708802 0.236829
  52 21.8491 0.0215430 0.112230
  53 21.6610 0.0175663 0.0666631
  54 21.6358 0.0791910 0.0418714
  55 21.5922 0.163591 0.0482563
  56 21.4851 0.285920 0.0426869
  57 21.4423 0.333006 -0.00414350
  58 21.4983 0.270985 -0.0513996
  59 21.5758 0.178322 -0.0444337
  60 21.6101 0.0895057 -0.0463942
  61 48.0657 2.35748 4.87499
  62 43.7274 0.729304 1.78144
  63 41.1150 0.326119 0.676907
  64 40.5641 0.232116 0.142468
  65 41.1019 0.302188 -0.581438
  66 43.0678 0.631815 -1.56280
  67 48.5062 2.05756 -4.19134
  68 6.20323 -7.51363 -7.12461
  69 1.22638 -15.4901 -1.66574
  70 0.402885 -17.2780 -0.734215
  71 0.383320 -16.9350 -0.419234
  72 0.601485 -16.5612 0.781736
  73 1.31524 -15.0219 1.75495
  74 6.78402 -7.05543 7.92353
  75 48.0657 2.35748 4.87499
  76 43.7274 0.729304 1.78144
  77 41.1150 0.326119 0.676907
  78 40.5641 0.232116 0.142468
  79 41.1019 0.302188 -0.581438
  80 43.0678 0.631815 -1.56280
  81 48.5062 2.05756 -4.19134
  82 6.20323 -7.51363 -7.12461
  83 1.22638 -15.4901 -1.66574
  84 0.402885 -17.2780 -0.734215
  85 0.383320 -16.9350 -0.419234
  86 0.601485 -16.5612 0.781736
  87 1.31524 -15.0219 1.75495
  88 6.78402 -7.05543 7.92353
  89 19.7175 1.15051 -0.302707
  90 19.7175 1.15051 -0.302707
  91 17.9851 0.243222 2.68103
  92 17.2695 -0.116261 -3.18017
  93 17.9851 0.243222 2.68103
  94 17.2695 -0.116261 -3.18017
  95 9.99082 0.188446 1.25963
  96 9.99082 0.188446 1.25963
  97 26.6542 1.69531 -0.494185
  98 27.2688 0.925867 1.03017
  99 26.6542 1.69531 -0.494185
  100 27.2688 0.925867 1.03017
  101 21.2522 0.529424 0.312630
  102 21.2522 0.529424 0.312630
  103 25.6293 -1.45538 -0.110948
  104 25.6293 -1.45538 -0.110948
  105 21.2823 0.552576 -0.385004
  106 21.2823 0.552576 -0.385004
  107 25.2754 -3.08149 -2.69995
  108 25.2754 -3.08149 -2.69995
  109 17.5191 -3.61004 6.87828
  110 17.5191 -3.61004 6.87828
  111 11.6899 -2.15809 -5.51051
  112 11.6899 -2.15809 -5.51051
  113 21.3824 0.371514 1.29730
  114 21.3824 0.371514 1.29730
  115 22.2130 0.163652 -1.23358
  116 22.2130 0.163652 -1.23358
  117 30.3948 1.94818 0.0413745
  118 32.6620 2.15591 0.144443
  119 30.3948 1.94818 0.0413745
  120 32.6620 2.15591 0.144443
  121 31.9279 2.63769 -0.625328
  122 31.9279 2.63769 -0.625328
  123 3.38846 -5.77233 -1.72477
  124 3.38846 -5.77233 -1.72477
  125 27.5651 -3.45324 2.81747
  126 27.5651 -3.45324 2.81747
  127 23.0063 -0.544132 1.41129
  128 23.0063 -0.544132 1.41129
  129 5.15675 -5.00627 4.00615
  130 5.15675 -5.00627 4.00615
  131 21.2855 0.443592 -0.0201115
  132 21.2855 0.443592 -0.0201115
  133 22.9815 -1.05713 -1.78365
  134 22.9815 -1.05713 -1.78365
  135 21.6579 0.181105 0.229150
  136 21.6579 0.181105 0.229150
  137 21.6814 0.158868 -0.214217
  138 21.6814 0.158868 -0.214217
  139 21.9330 0.312496 -0.667780
  140 21.9330 0.312496 -0.667780
  141 21.8238 0.303377 0.603681
  142 21.8238 0.303377 0.603681
  143 20.8219 0.734178 -0.0238411
  144 20.8219 0.734178 -0.0238411
  145 17.2462 1.15729 -0.135624
  146 17.2462 1.15729 -0.135624
  147 25.4657 -0.914802 0.514320
  148 25.4657 -0.914802 0.514320
  149 29.3450 -1.16017 -0.837371
  150 29.3450 -1.16017 -0.837371
  151 22.4844 -2.47619 3.44657
  152 22.4844 -2.47619 3.44657
  153 16.9817 -4.62621 -7.58551
  154 16.9817 -4.62621 -7.58551
  155 19.7822 0.822990 1.23104
  156 19.7822 0.822990 1.23104
  157 25.8888 -0.181545 -1.09988
  158 25.8888 -0.181545 -1.09988
  159 35.8662 2.77185 1.85646
  160 35.8662 2.77185 1.85646
  161 17.7023 -4.90671 8.84083
  162 17.7023 -4.90671 8.84083
  163 36.7918 1.26476 -0.405719
  164 36.7918 1.26476 -0.405719
  165 20.7358 0.730637 0.584754
  166 20.7358 0.730637 0.584754
  167 19.6680 0.678414 -1.78743
  168 19.6680 0.678414 -1.78743
  169 24.3993 0.714252 0.627016
  170 24.3993 0.714252 0.627016
  171 20.5291 0.869075 -0.660736
  172 20.5291 0.869075 -0.660736
  173 21.4276 0.357099 0.100129
  174 21.4276 0.357099 0.100129
  175 21.8192 0.173315 -0.361509
  176 21.8192 0.173315 -0.361509
  177 34.3426 2.49886 -1.70580
  178 34.3426 2.49886 -1.70580
  179 21.4477 0.347112 -0.121139
  180 21.4477 0.347112 -0.121139
  181 15.5907 1.13676 -0.919272
  182 15.5907 1.13676 -0.919272
  183 28.7317 2.09811 0.326763
  184 28.7317 2.09811 0.326763
  185 5.69356 -4.92123 -5.18622
  186 5.69356 -4.92123 -5.18622
  187 15.4433 -0.187079 3.85455
  188 15.4433 -0.187079 3.85455
  189 20.9760 -3.33912 -5.33417
  190 20.9760 -3.33912 -5.33417
  191 24.7678 -0.668304 0.236039
  192 24.7678 -0.668304 0.236039
  193 23.1444 -0.0672793 0.894160
  194 23.1444 -0.0672793 0.894160
  195 31.8539 0.721113 1.54348
  196 31.8539 0.721113 1.54348
  197 12.7665 0.366548 -2.36585
  198 12.7665 0.366548 -2.36585
  199 36.4059 1.66878 0.911859
  200 36.4059 1.66878 0.911859
  201 23.5891 -0.275955 -0.916350
  202 23.5891 -0.275955 -0.916350
  203 21.8549 0.124220 0.333838
  204 21.8549 0.124220 0.333838
  205 24.5787 -0.944095 -0.404220
  206 24.5787 -0.944095 -0.404220
  207 26.9763 -1.39075 0.0283315
  208 26.9763 -1.39075 0.0283315
  209 1.65827 -9.79953 0.739609
  210 1.65827 -9.79953 0.739609
  211 22.5838 0.130640 -0.804948
  212 22.5838 0.130640 -0.804948
  213 22.3824 0.184329 0.708087
  214 22.3824 0.184329 0.708087
  215 21.5442 -1.95956 -3.42573
  216 21.5442 -1.95956 -3.42573
  217 25.1892 -0.532667 -0.690374
  218 25.1892 -0.532667 -0.690374
  219 20.4654 0.753233 -1.23237
  220 20.4654 0.753233 -1.23237
  221 5.63452 -7.22734 5.62812
  222 5.63452 -7.22734 5.62812
  223 25.4827 0.0814725 1.02516
  224 25.4827 0.0814725 1.02516
  225 24.6541 0.604272 -0.840464
  226 24.6541 0.604272 -0.840464
  227 35.9386 2.15833 -1.51698
  228 35.9386 2.15833 -1.51698
  229 27.0586 -1.04248 -0.653539
  230 27.0586 -1.04248 -0.653539
  231 29.8576 -1.64162 -4.80968
  232 29.8576 -1.64162 -4.80968
  233 21.5887 -0.967542 2.66970
  234 21.5887 -0.967542 2.66970
  235 21.0691 0.615020 0.100250
  236 21.0691 0.615020 0.100250
  237 11.0382 -1.68761 4.88975
  238 11.0382 -1.68761 4.88975
  239 28.5782 -2.68080 5.71258
  240 28.5782 -2.68080 5.71258
  241 7.39038 -1.09659 -2.39730
  242 7.39038 -1.09659 -2.39730
  243 25.1479 -1.86831 -1.09442
  244 25.1479 -1.86831 -1.09442
  245 20.2402 0.932940 0.719621
  246 20.2402 0.932940 0.719621
  247 0.762317 -12.6307 -0.588124
  248 0.762317 -12.6307 -0.588124
  249 1.40737 -11.2203 1.96133
  250 1.40737 -11.2203 1.96133
  251 20.6647 0.148152 1.94908
  252 20.6647 0.148152 1.94908
  253 21.6321 0.0844032 0.0837682
  254 21.6321 0.0844032 0.0837682
  255 21.4251 0.360546 0.0156971
  256 21.4251 0.360546 0.0156971
  257 20.0704 -0.245486 -2.56746
  258 20.0704 -0.245486 -2.56746
  259 21.6490 0.0764920 -0.0886846
  260 21.6490 0.0764920 -0.0886846
  261 24.0990 -1.67809 1.53161
  262 24.0990 -1.67809 1.53161
  263 22.2787 0.0828828 -0.402911
  264 22.2787 0.0828828 -0.402911
  265 17.1300 -1.45071 -4.69897
  266 17.1300 -1.45071 -4.69897
  267 29.5269 2.24584 -0.243745
  268 29.5269 2.24584 -0.243745
  269 21.3964 0.490441 -1.01710
  270 21.3964 0.490441 -1.01710
  271 21.3032 0.459350 -0.210015
  272 21.3032 0.459350 -0.210015
  273 17.9540 0.876747 -1.77789
  274 17.9540 0.876747 -1.77789
  275 5.33417 -2.28071 1.36008
  276 5.33417 -2.28071 1.36008
  277 23.0946 -3.77070 4.74163
  278 23.0946 -3.77070 4.74163
  279 21.5558 0.331508 0.409000
  280 21.5558 0.331508 0.409000
  281 32.4051 2.32025 -0.423953
  282 32.4051 2.32025 -0.423953
  283 39.3766 3.03680 4.28628
  284 39.3766 3.03680 4.28628
  285 25.9604 -2.74208 1.42913
  286 25.9604 -2.74208 1.42913
  287 18.3164 0.924794 1.31366
  288 18.3164 0.924794 1.31366
  289 23.8378 -4.66826 6.23550
  290 23.8378 -4.66826 6.23550
  291 24.3920 -0.275766 0.581137
  292 24.3920 -0.275766 0.581137
  293 21.5429 0.218717 0.113911
  294 21.5429 0.218717 0.113911
  295 21.2060 0.599593 -0.657900
  296 21.2060 0.599593 -0.657900
  297 21.4316 0.354649 -0.0312580
  298 21.4316 0.354649 -0.0312580
  299 21.7782 0.0618233 -0.159084
  300 21.7782 0.0618233 -0.159084
  301 22.2533 0.115240 0.404514
  302 22.2533 0.115240 0.404514
  303 21.0766 0.611567 -0.170487
  304 21.0766 0.611567 -0.170487
  305 4.85051 -8.44441 -5.31648
  306 4.85051 -8.44441 -5.31648
  307 14.2327 0.910274 1.20280
  308 14.2327 0.910274 1.20280
  309 21.5720 0.182051 -0.109690
  310 21.5720 0.182051 -0.109690
  311 18.8426 1.10312 -0.881410
  312 18.8426 1.10312 -0.881410
  313 18.8880 1.20334 0.339073
  314 18.8880 1.20334 0.339073
  315 21.5198 0.318776 -0.291180
  316 21.5198 0.318776 -0.291180
  317 29.1490 1.41403 0.179229
  318 29.1490 1.41403 0.179229
  319 21.3418 0.531384 0.896765
  320 21.3418 0.531384 0.896765
  321 27.4310 0.800731 -0.936451
  322 27.4310 0.800731 -0.936451
  323 41.5763 1.20193 2.71364
  324 41.5763 1.20193 2.71364
  325 21.2520 0.550558 0.570255
  326 21.2520 0.550558 0.570255
  327 20.8838 0.727361 0.298298
  328 20.8838 0.727361 0.298298
  329 16.6476 -4.14235 -8.58842
  330 16.6476 -4.14235 -8.58842
  331 21.7899 0.0559648 0.155706
  332 21.7899 0.0559648 0.155706
  333 21.2792 0.463216 0.156792
  334 21.2792 0.463216 0.156792
  335 20.4313 0.937840 0.0340974
  336 20.4313 0.937840 0.0340974
  337 10.5100 -3.77371 7.00849
  338 10.5100 -3.77371 7.00849
  339 26.4677 1.71530 0.164221
  340 26.4677 1.71530 0.164221
  341 1.54186 -11.0009 -2.30860
  342 1.54186 -11.0009 -2.30860
  343 16.2635 1.02846 1.08132
  344 16.2635 1.02846 1.08132
  345 39.2924 0.566386 0.398893
  346 39.2924 0.566386 0.398893
  347 40.9588 2.01975 -2.76634
  348 40.9588 2.01975 -2.76634
  349 18.6260 -2.13311 5.25527
  350 19.3890 -1.10346 3.92916
  351 18.6260 -2.13311 5.25527
  352 19.3890 -1.10346 3.92916
  353 39.8404 1.03129 1.44980
  354 39.8404 1.03129 1.44980
  355 22.0759 -0.0222803 1.52194
  356 22.0759 -0.0222803 1.52194
  357 26.4967 -3.56139 -3.57354
  358 26.4967 -3.56139 -3.57354
  359 24.8549 -0.223768 0.817243
  360 24.8549 -0.223768 0.817243
  361 17.1153 -4.10743 9.45840
  362 17.1153 -4.10743 9.45840
  363 29.1513 2.34825 -0.0843573
  364 29.1513 2.34825 -0.0843573
  365 39.9110 0.387202 -0.307392
  366 39.9110 0.387202 -0.307392
  367 23.6065 0.0227545 -0.751838
  368 23.6065 0.0227545 -0.751838
  369 20.8859 0.772455 -0.356102
  370 20.8859 0.772455 -0.356102
  371 32.8246 2.53956 0.679882
  372 32.8246 2.53956 0.679882
  373 24.7578 1.01822 -0.177276
  374 24.7578 1.01822 -0.177276
  375 22.7090 0.0929484 -0.494353
  376 22.7090 0.0929484 -0.494353
  377 5.95871 -3.14992 -3.98304
  378 5.95871 -3.14992 -3.98304
  379 25.1446 -0.446981 0.266906
  380 25.1446 -0.446981 0.266906
  381 21.3963 -0.0250934 -1.78751
  382 21.3963 -0.0250934 -1.78751
  383 24.6322 -0.0586276 -0.967998
  384 24.6322 -0.0586276 -0.967998
  385 40.0184 0.728886 -1.20888
  386 40.0184 0.728886 -1.20888
  387 21.4581 0.341749 0.230605
  388 21.4581 0.341749 0.230605
  389 26.2414 1.24415 0.853126
  390 26.2414 1.24415 0.853126
  391 28.5932 -0.711105 0.00258949
  392 28.5932 -0.711105 0.00258949
  393 21.5468 0.400795 -0.509333
  394 21.5468 0.400795 -0.509333
  395 42.3594 3.52300 -5.01251
  396 42.3594 3.52300 -5.01251
  397 24.8545 -0.348685 -0.226359
  398 24.8545 -0.348685 -0.226359
</Section>

newXOutput 8

<Section columns = "stress_xx | stress_yy | stress_xy">
  1 25.1792 0.0241502 -0.0308745
  2 25.1888 0.0303472 0.0416968
  3 25.1792 0.0241502 -0.0308745
  4 25.1888 0.0303472 0.0416968
  5 40.0637 1.69686 10.4713
  6 41.7107 1.58502 -10.2901
  7 40.0637 1.69686 10.4713
  8 41.7107 1.58502 -10.2901
  9 25.2482 0.0174151 -0.0807051
  10 25.4782 0.0312849 -0.142519
  11 25.8074 0.0720478 -0.286663
  12 26.5590 0.0284424 -0.381280
  13 27.5079 0.0505151 -0.611891
  14 28.5949 -0.240150 -0.581696
  15 29.5495 -0.296524 -0.0341381
  16 28.9405 -0.209503 0.556689
  17 27.6596 0.199969 0.944190
  18 26.9685 0.513764 -0.0360497
  19 27.4799 0.249436 -0.881384
  20 28.9003 -0.309227 -0.679556
  21 29.2665 -0.359266 0.156975
  22 28.7455 -0.159655 0.498051
  23 27.2990 0.0180476 0.611869
  24 26.4884 0.105099 0.481198
  25 25.8241 0.0826280 0.275981
  26 25.4799 0.0251178 0.130771
  27 25.2607 0.0204854 0.0776753
  28 25.2314 0.0923292 0.0487832
  29 25.1806 0.190717 0.0562270
  30 25.0559 0.333312 0.0497405
  31 25.0060 0.388196 -0.00482825
  32 25.0712 0.315904 -0.0598907
  33 25.1615 0.207892 -0.0517666
  34 25.2014 0.104358 -0.0540581
  35 25.2482 0.0174151 -0.0807051
  36 25.4782 0.0312849 -0.142519
  37 25.8074 0.0720478 -0.286663
  38 26.5590 0.0284424 -0.381280
  39 27.5079 0.0505151 -0.611891
  40 28.5949 -0.240150 -0.581696
  41 29.5495 -0.296524 -0.0341381
  42 28.9405 -0.209503 0.556689
  43 27.6596 0.199969 0.944190
  44 26.9685 0.513764 -0.0360497
  45 27.4799 0.249436 -0.881384
  46 28.9003 -0.309227 -0.679556
  47 29.2665 -0.359266 0.156975
  48 28.7455 -0.159655 0.498051
  49 27.2990 0.0180476 0.611869
  50 26.4884 0.105099 0.481198
  51 25.8241 0.0826280 0.275981
  52 25.4799 0.0251178 0.130771
  53 25.2607 0.0204854 0.0776753
  54 25.2314 0.0923292 0.0487832
  55 25.1806 0.190717 0.0562270
  56 25.0559 0.333312 0.0497405
  57 25.0060 0.388196 -0.00482825
  58 25.0712 0.315904 -0.0598907
  59 25.1615 0.207892 -0.0517666
  60 25.2014 0.104358 -0.0540581
  61 56.0273 2.74984 5.68470
  62 50.9714 0.849941 2.07657
  63 47.9278 0.379788 0.788801
  64 47.2859 0.270354 0.165891
  65 47.9124 0.352033 -0.677501
  66 50.2032 0.736243 -1.82149
  67 56.5411 2.39993 -4.88762
  68 7.23368 -8.75363 -8.31526
  69 1.43007 -18.0669 -1.94609
  70 0.469106 -20.1565 -0.857672
  71 0.446339 -19.7567 -0.489088
  72 0.700925 -19.3196 0.913237
  73 1.53389 -17.5207 2.05044
  74 7.91022 -8.21915 9.24733
  75 56.0273 2.74984 5.68470
  76 50.9714 0.849941 2.07657
  77 47.9278 0.379788 0.788801
  78 47.2859 0.270354 0.165891
  79 47.9124 0.352033 -0.677501
  80 50.2032 0.736243 -1.82149
  81 56.5411 2.39993 -4.88762
  82 7.23368 -8.75363 -8.31526
  83 1.43007 -18.0669 -1.94609
  84 0.469106 -20.1565 -0.857672
  85 0.446339 -19.7567 -0.489088
  86 0.700925 -19.3196 0.913237
  87 1.53389 -17.5207 2.05044
  88 7.91022 -8.21915 9.24733
  89 22.9960 1.34152 -0.352922
  90 22.9960 1.34152 -0.352922
  91 20.9758 0.283757 3.12644
  92 20.1413 -0.135465 -3.70875
  93 20.9758 0.283757 3.12644
  94 20.1413 -0.135465 -3.70875
  95 11.6547 0.220749 1.46923
  96 11.6547 0.220749 1.46923
  97 31.0834 1.97727 -0.575222
  98 31.7988 1.08042 1.19867
  99 31.0834 1.97727 -0.575222
  100 31.7988 1.08042 1.19867
  101 24.7845 0.617218 0.364362
  102 24.7845 0.617218 0.364362
  103 29.8864 -1.69715 -0.127492
  104 29.8864 -1.69715 -0.127492
  105 24.8195 0.644219 -0.448722
  106 24.8195 0.644219 -0.448722
  107 29.4724 -3.59363 -3.15018
  108 29.4724 -3.59363 -3.15018
  109 20.4304 -4.21037 8.02336
  110 20.4304 -4.21037 8.02336
  111 13.6344 -2.51641 -6.42837
  112 13.6344 -2.51641 -6.42837
  113 24.9361 0.433099 1.51251
  114 24.9361 0.433099 1.51251
  115 25.9041 0.190676 -1.43830
  116 25.9041 0.190676 -1.43830
  117 35.4421 2.27288 0.0517341
  118 38.0845 2.51329 0.169012
  119 35.4421 2.27288 0.0517341
  120 38.0845 2.51329 0.169012
  121 37.2293 3.07636 -0.732013
  122 37.2293 3.07636 -0.732013
  123 3.95249 -6.73050 -2.01308
  124 3.95249 -6.73050 -2.01308
  125 32.1409 -4.02612 3.28870
  126 32.1409 -4.02612 3.28870
  127 26.8287 -0.634669 1.64605
  128 26.8287 -0.634669 1.64605
  129 6.01522 -5.83697 4.67528
  130 6.01522 -5.83697 4.67528
  131 24.8233 0.517135 -0.0234354
  132 24.8233 0.517135 -0.0234354
  133 26.7996 -1.23293 -2.08055
  134 26.7996 -1.23293 -2.08055
  135 25.2571 0.211137 0.267033
  136 25.2571 0.211137 0.267033
  137 25.2844 0.185218 -0.249626
  138 25.2844 0.185218 -0.249626
  139 25.5777 0.364286 -0.778363
  140 25.5777 0.364286 -0.778363
  141 25.4504 0.353670 0.703623
  142 25.4504 0.353670 0.703623
  143 24.2831 0.855959 -0.0277977
  144 24.2831 0.855959 -0.0277977
  145 20.1152 1.34964 -0.158178
  146 20.1152 1.34964 -0.158178
  147 29.6960 -1.06669 0.598103
  148 29.6960 -1.06669 0.598103
  149 34.2166 -1.35107 -0.980485
  150 34.2166 -1.35107 -0.980485
  151 26.2194 -2.88789 4.02011
  152 26.2194 -2.88789 4.02011
  153 19.8027 -5.39424 -8.85013
  154 19.8027 -5.39424 -8.85013
  155 23.0711 0.959664 1.43531
  156 23.0711 0.959664 1.43531
  157 30.1897 -0.211413 -1.28056
  158 30.1897 -0.211413 -1.28056
  159 41.8177 3.23279 2.16712
  160 41.8177 3.23279 2.16712
  161 20.6429 -5.72192 10.3139
  162 20.6429 -5.72192 10.3139
  163 42.8947 1.47390 -0.473237
  164 42.8947 1.47390 -0.473237
  165 24.1827 0.851848 0.681631
  166 24.1827 0.851848 0.681631
  167 22.9378 0.791102 -2.08421
  168 22.9378 0.791102 -2.08421
  169 28.4553 0.833256 0.730403
  170 28.4553 0.833256 0.730403
  171 23.9419 1.01328 -0.770244
  172 23.9419 1.01328 -0.770244
  173 24.9889 0.416297 0.116683
  174 24.9889 0.416297 0.116683
  175 25.4450 0.202045 -0.421304
  176 25.4450 0.202045 -0.421304
  177 40.0419 2.91612 -1.99322
  178 40.0419 2.91612 -1.99322
  179 25.0123 0.404659 -0.141164
  180 25.0123 0.404659 -0.141164
  181 18.1849 1.32595 -1.07204
  182 18.1849 1.32595 -1.07204
  183 33.5045 2.44695 0.379079
  184 33.5045 2.44695 0.379079
  185 6.64099 -5.73777 -6.05225
  186 6.64099 -5.73777 -6.05225
  187 18.0119 -0.217908 4.49543
  188 18.0119 -0.217908 4.49543
  189 24.4606 -3.89433 -6.22216
  190 24.4606 -3.89433 -6.22216
  191 28.8822 -0.779467 0.276140
  192 28.8822 -0.779467 0.276140
  193 26.9895 -0.0785908 1.04261
  194 26.9895 -0.0785908 1.04261
  195 37.1410 0.843466 1.80437
  196 37.1410 0.843466 1.80437
  197 14.8913 0.428080 -2.75941
  198 14.8913 0.428080 -2.75941
  199 42.4458 1.94507 1.06384
  200 42.4458 1.94507 1.06384
  201 27.5079 -0.321960 -1.06877
  202 27.5079 -0.321960 -1.06877
  203 25.4866 0.144806 0.389050
  204 25.4866 0.144806 0.389050
  205 28.6616 -1.10114 -0.472349
  206 28.6616 -1.10114 -0.472349
  207 31.4563 -1.62130 0.0304068
  208 31.4563 -1.62130 0.0304068
  209 1.93393 -11.4290 0.863494
  210 1.93393 -11.4290 0.863494
  211 26.3361 0.152200 -0.938385
  212 26.3361 0.152200 -0.938385
  213 26.1014 0.214855 0.825413
  214 26.1014 0.214855 0.825413
  215 25.1237 -2.28536 -3.99568
  216 25.1237 -2.28536 -3.99568
  217 29.3741 -0.621186 -0.803625
  218 29.3741 -0.621186 -0.803625
  219 23.8674 0.878262 -1.43684
  220 23.8674 0.878262 -1.43684
  221 6.57136 -8.42663 6.56866
  222 6.57136 -8.42663 6.56866
  223 29.7169 0.0954058 1.19372
  224 29.7169 0.0954058 1.19372
  225 28.7520 0.704975 -0.978948
  226 28.7520 0.704975 -0.978948
  227 41.9018 2.51627 -1.77039
  228 41.9018 2.51627 -1.77039
  229 31.5524 -1.21515 -0.759440
  230 31.5524 -1.21515 -0.759440
  231 34.8126 -1.91045 -5.61380
  232 34.8126 -1.91045 -5.61380
  233 25.1760 -1.12838 3.11349
  234 25.1760 -1.12838 3.11349
  235 24.5711 0.717016 0.116843
  236 24.5711 0.717016 0.116843
  237 12.8749 -1.96760 5.70407
  238 12.8749 -1.96760 5.70407
  239 33.3208 -3.12316 6.66643
  240 33.3208 -3.12316 6.66643
  241 8.62131 -1.27753 -2.79680
  242 8.62131 -1.27753 -2.79680
  243 29.3247 -2.17884 -1.27772
  244 29.3247 -2.17884 -1.27772
  245 23.6051 1.08780 0.838939
  246 23.6051 1.08780 0.838939
  247 0.888604 -14.7325 -0.686801
  248 0.888604 -14.7325 -0.686801
  249 1.64119 -13.0860 2.29029
  250 1.64119 -13.0860 2.29029
  251 24.0995 0.172728 2.27275
  252 24.0995 0.172728 2.27275
  253 25.2271 0.0984058 0.0976070
  254 25.2271 0.0984058 0.0976070
  255 24.9860 0.420306 0.0182930
  256 24.9860 0.420306 0.0182930
  257 23.4066 -0.286316 -2.99409
  258 23.4066 -0.286316 -2.99409
  259 25.2467 0.0891865 -0.103336
  260 25.2467 0.0891865 -0.103336
  261 28.1021 -1.95706 1.78710
  262 28.1021 -1.95706 1.78710
  263 25.9804 0.0966035 -0.469574
  264 25.9804 0.0966035 -0.469574
  265 19.9778 -1.69187 -5.48059
  266 19.9778 -1.69187 -5.48059
  267 34.4314 2.61909 -0.282290
  268 34.4314 2.61909 -0.282290
  269 24.9524 0.571763 -1.18571
  270 24.9524 0.571763 -1.18571
  271 24.8439 0.535515 -0.244752
  272 24.8439 0.535515 -0.244752
  273 20.9400 1.02251 -2.07318
  274 20.9400 1.02251 -2.07318
  275 6.22277 -2.65804 1.58698
  276 6.22277 -2.65804 1.58698
  277 26.9299 -4.39762 5.53118
  278 26.9299 -4.39762 5.53118
  279 25.1382 0.386476 0.476665
  280 25.1382 0.386476 0.476665
  281 37.7853 2.70510 -0.495430
  282 37.7853 2.70510 -0.495430
  283 45.9066 3.54445 5.00148
  284 45.9066 3.54445 5.00148
  285 30.2713 -3.19760 1.66872
  286 30.2713 -3.19760 1.66872
  287 21.3625 1.07849 1.53173
  288 21.3625 1.07849 1.53173
  289 27.7955 -5.44419 7.27404
  290 27.7955 -5.44419 7.27404
  291 28.4437 -0.321704 0.677937
  292 28.4437 -0.321704 0.677937
  293 25.1232 0.254980 0.132737
  294 25.1232 0.254980 0.132737
  295 24.7307 0.699042 -0.766856
  296 24.7307 0.699042 -0.766856
  297 24.9935 0.413432 -0.0364245
  298 24.9935 0.413432 -0.0364245
  299 25.3972 0.0720775 -0.185377
  300 25.3972 0.0720775 -0.185377
  301 25.9509 0.134329 0.471442
  302 25.9509 0.134329 0.471442
  303 24.5799 0.712991 -0.198705
  304 24.5799 0.712991 -0.198705
  305 5.65684 -9.84556 -6.20540
  306 5.65684 -9.84556 -6.20540
  307 16.6014 1.06199 1.40269
  308 16.6014 1.06199 1.40269
  309 25.1570 0.212240 -0.127816
  310 25.1570 0.212240 -0.127816
  311 21.9760 1.28635 -1.02771
  312 21.9760 1.28635 -1.02771
  313 22.0291 1.40321 0.395317
  314 22.0291 1.40321 0.395317
  315 25.0962 0.371633 -0.339337
  316 25.0962 0.371633 -0.339337
  317 33.9898 1.65026 0.205502
  318 33.9898 1.65026 0.205502
  319 24.8888 0.619519 1.04536
  320 24.8888 0.619519 1.04536
  321 31.9876 0.934445 -1.08943
  322 31.9876 0.934445 -1.08943
  323 48.4682 1.40089 3.16464
  324 48.4682 1.40089 3.16464
  325 24.7842 0.641870 0.664673
  326 24.7842 0.641870 0.664673
  327 24.3552 0.848012 0.347688
  328 24.3552 0.848012 0.347688
  329 19.4118 -4.82363 -10.0221
  330 19.4118 -4.82363 -10.0221
  331 25.4109 0.0652462 0.181439
  332 25.4109 0.0652462 0.181439
  333 24.8160 0.540018 0.182726
  334 24.8160 0.540018 0.182726
  335 23.8279 1.09346 0.0397429
  336 23.8279 1.09346 0.0397429
  337 12.2581 -4.40063 8.17698
  338 12.2581 -4.40063 8.17698
  339 30.8662 2.00055 0.191051
  340 30.8662 2.00055 0.191051
  341 1.79784 -12.8300 -2.69530
  342 1.79784 -12.8300 -2.69530
  343 18.9693 1.19955 1.26089
  344 18.9693 1.19955 1.26089
  345 45.8062 0.659886 0.464870
  346 45.8062 0.659886 0.464870
  347 47.7499 2.35533 -3.22651
  348 47.7499 2.35533 -3.22651
  349 21.7215 -2.48782 6.12944
  350 22.6116 -1.28687 4.58227
  351 21.7215 -2.48782 6.12944
  352 22.6116 -1.28687 4.58227
  353 46.4453 1.20177 1.69035
  354 46.4453 1.20177 1.69035
  355 25.7443 -0.0260893 1.77465
  356 25.7443 -0.0260893 1.77465
  357 30.8954 -4.15279 -4.16993
  358 30.8954 -4.15279 -4.16993
  359 28.9849 -0.260840 0.951850
  360 28.9849 -0.260840 0.951850
  361 19.9560 -4.78332 11.0366
  362 19.9560 -4.78332 11.0366
  363 33.9940 2.73818 -0.0983020
  364 33.9940 2.73818 -0.0983020
  365 46.5262 0.451074 -0.358333
  366 46.5262 0.451074 -0.358333
  367 27.5279 0.0263967 -0.876588
  368 27.5279 0.0263967 -0.876588
  369 24.3577 0.900597 -0.415075
  370 24.3577 0.900597 -0.415075
  371 38.2741 2.96125 0.794842
  372 38.2741 2.96125 0.794842
  373 28.8732 1.18767 -0.206494
  374 28.8732 1.18767 -0.206494
  375 26.4818 0.108308 -0.576210
  376 26.4818 0.108308 -0.576210
  377 6.95134 -3.67219 -4.64763
  378 6.95134 -3.67219 -4.64763
  379 29.3216 -0.521298 0.310361
  380 29.3216 -0.521298 0.310361
  381 24.9522 -0.0293736 -2.08443
  382 24.9522 -0.0293736 -2.08443
  383 28.7258 -0.0682832 -1.12753
  384 28.7258 -0.0682832 -1.12753
  385 46.6525 0.849415 -1.40934
  386 46.6525 0.849415 -1.40934
  387 25.0244 0.398408 0.268740
  388 25.0244 0.398408 0.268740
  389 30.6018 1.45132 0.993176
  390 30.6018 1.45132 0.993176
  391 33.3407 -0.828045 0.00648391
  392 33.3407 -0.828045 0.00648391
  393 25.1277 0.467255 -0.593623
  394 25.1277 0.467255 -0.593623
  395 49.3818 4.11258 -5.84841
  396 49.3818 4.11258 -5.84841
  397 28.9828 -0.406762 -0.264381
  398 28.9828 -0.406762 -0.264381
</Section>

newXOutput 9

<Section columns = "stress_xx | stress_yy | stress_xy">
  1 28.7644 0.0275938 -0.0352381
  2 28.7754 0.0346700 0.0475891
  3 28.7644 0.0275938 -0.0352381
  4 28.7754 0.0346700 0.0475891
  5 45.7524 1.94926 11.9681
  6 47.6322 1.82201 -11.7611
  7 45.7524 1.94926 11.9681
  8 47.6322 1.82201 -11.7611
  9 28.8431 0.0198936 -0.0921149
  10 29.1056 0.0357316 -0.162679
  11 29.4813 0.0822746 -0.327243
  12 30.3392 0.0324617 -0.435300
  13 31.4224 0.0576151 -0.698736
  14 32.6636 -0.274491 -0.664510
  15 33.7541 -0.338834 -0.0394186
  16 33.0605 -0.239324 0.635060
  17 31.5996 0.228642 1.07753
  18 30.8112 0.587149 -0.0411516
  19 31.3945 0.285025 -1.00591
  20 33.0147 -0.353272 -0.775216
  21 33.4311 -0.410538 0.179818
  22 32.8356 -0.182472 0.568997
  23 31.1841 0.0205033 0.698753
  24 30.2587 0.119993 0.549393
  25 29.5004 0.0943573 0.315043
  26 29.1076 0.0286881 0.149267
  27 28.8574 0.0234020 0.0886596
  28 28.8240 0.105450 0.0556759
  29 28.7660 0.217805 0.0641771
  30 28.6237 0.380629 0.0567769
  31 28.5668 0.443298 -0.00551134
  32 28.6412 0.360754 -0.0683604
  33 28.7442 0.237419 -0.0590788
  34 28.7898 0.119193 -0.0617026
  35 28.8431 0.0198936 -0.0921149
  36 29.1056 0.0357316 -0.162679
  37 29.4813 0.0822746 -0.327243
  38 30.3392 0.0324617 -0.435300
  39 31.4224 0.0576151 -0.698736
  40 32.6636 -0.274491 -0.664510
  41 33.7541 -0.338834 -0.0394186
  42 33.0605 -0.239324 0.635060
  43 31.5996 0.228642 1.07753
  44 30.8112 0.587149 -0.0411516
  45 31.3945 0.285025 -1.00591
  46 33.0147 -0.353272 -0.775216
  47 33.4311 -0.410538 0.179818
  48 32.8356 -0.182472 0.568997
  49 31.1841 0.0205033 0.698753
  50 30.2587 0.119993 0.549393
  51 29.5004 0.0943573 0.315043
  52 29.1076 0.0286881 0.149267
  53 28.8574 0.0234020 0.0886596
  54 28.8240 0.105450 0.0556759
  55 28.7660 0.217805 0.0641771
  56 28.6237 0.380629 0.0567769
  57 28.5668 0.443298 -0.00551134
  58 28.6412 0.360754 -0.0683604
  59 28.7442 0.237419 -0.0590788
  60 28.7898 0.119193 -0.0617026
  61 63.9750 3.14203 6.49361
  62 58.2030 0.970319 2.37121
  63 54.7294 0.433263 0.900432
  64 53.9966 0.308465 0.189224
  65 54.7116 0.401732 -0.773324
  66 57.3265 0.840423 -2.07968
  67 64.5619 2.74213 -5.58325
  68 8.26316 -9.99012 -9.50681
  69 1.63356 -20.6423 -2.22722
  70 0.535064 -23.0347 -0.981439
  71 0.509111 -22.5783 -0.558935
  72 0.800136 -22.0775 1.04508
  73 1.75237 -20.0181 2.34680
  74 9.03514 -9.37940 10.5720
  75 63.9750 3.14203 6.49361
  76 58.2030 0.970319 2.37121
  77 54.7294 0.433263 0.900432
  78 53.9966 0.308465 0.189224
  79 54.7116 0.401732 -0.773324
  80 57.3265 0.840423 -2.07968
  81 64.5619 2.74213 -5.58325
  82 8.26316 -9.99012 -9.50681
  83 1.63356 -20.6423 -2.22722
  84 0.535064 -23.0347 -0.981439
  85 0.509111 -22.5783 -0.558935
  86 0.800136 -22.0775 1.04508
  87 1.75237 -20.0181 2.34680
  88 9.03514 -9.37940 10.5720
  89 26.2722 1.53232 -0.403070
  90 26.2722 1.53232 -0.403070
  91 23.9645 0.324290 3.57144
  92 23.0113 -0.154621 -4.23691
  93 23.9645 0.324290 3.57144
  94 23.0113 -0.154621 -4.23691
  95 13.3182 0.253307 1.67874
  96 13.3182 0.253307 1.67874
  97 35.5089 2.25905 -0.655882
  98 36.3244 1.23505 1.36626
  99 35.5089 2.25905 -0.655882
  100 36.3244 1.23505 1.36626
  101 28.3141 0.704885 0.415988
  102 28.3141 0.704885 0.415988
  103 34.1394 -1.93870 -0.143482
  104 34.1394 -1.93870 -0.143482
  105 28.3540 0.735732 -0.512312
  106 28.3540 0.735732 -0.512312
  107 33.6651 -4.10537 -3.60047
  108 33.6651 -4.10537 -3.60047
  109 23.3393 -4.81032 9.16807
  110 23.3393 -4.81032 9.16807
  111 15.5779 -2.87434 -7.34606
  112 15.5779 -2.87434 -7.34606
  113 28.4869 0.494588 1.72743
  114 28.4869 0.494588 1.72743
  115 29.5920 0.217628 -1.64278
  116 29.5920 0.217628 -1.64278
  117 40.4842 2.59757 0.0630744
  118 43.5011 2.87011 0.193720
  119 40.4842 2.59757 0.0630744
  120 43.5011 2.87011 0.193720
  121 42.5250 3.51477 -0.839392
  122 42.5250 3.51477 -0.839392
  123 4.51631 -7.68756 -2.30164
  124 4.51631 -7.68756 -2.30164
  125 36.7115 -4.59824 3.76039
  126 36.7115 -4.59824 3.76039
  127 30.6477 -0.725163 1.88068
  128 30.6477 -0.725163 1.88068
  129 6.87340 -6.66664 5.34482
  130 6.87340 -6.66664 5.34482
  131 28.3583 0.590568 -0.0267514
  132 28.3583 0.590568 -0.0267514
  133 30.6142 -1.40862 -2.37735
  134 30.6142 -1.40862 -2.37735
  135 28.8533 0.241125 0.304828
  136 28.8533 0.241125 0.304828
  137 28.8845 0.211531 -0.284952
  138 28.8845 0.211531 -0.284952
  139 29.2193 0.415993 -0.888743
  140 29.2193 0.415993 -0.888743
  141 29.0741 0.403885 0.803373
  142 29.0741 0.403885 0.803373
  143 27.7417 0.977576 -0.0317495
  144 27.7417 0.977576 -0.0317495
  145 22.9826 1.54184 -0.180718
  146 22.9826 1.54184 -0.180718
  147 33.9224 -1.21840 0.681337
  148 33.9224 -1.21840 0.681337
  149 39.0827 -1.54127 -1.12461
  150 39.0827 -1.54127 -1.12461
  151 29.9509 -3.29931 4.59339
  152 29.9509 -3.29931 4.59339
  153 22.6212 -6.16142 -10.1149
  154 22.6212 -6.16142 -10.1149
  155 26.3578 1.09620 1.63933
  156 26.3578 1.09620 1.63933
  157 34.4867 -0.241170 -1.46050
  158 34.4867 -0.241170 -1.46050
  159 47.7617 3.69343 2.47813
  160 47.7617 3.69343 2.47813
  161 23.5807 -6.53639 11.7869
  162 23.5807 -6.53639 11.7869
  163 48.9894 1.68256 -0.540725
  164 48.9894 1.68256 -0.540725
  165 27.6271 0.972898 0.778344
  166 27.6271 0.972898 0.778344
  167 26.2054 0.903681 -2.38066
  168 26.2054 0.903681 -2.38066
  169 32.5083 0.952249 0.833473
  170 32.5083 0.952249 0.833473
  171 27.3522 1.15731 -0.879576
  172 27.3522 1.15731 -0.879576
  173 28.5473 0.475404 0.133199
  174 28.5473 0.475404 0.133199
  175 29.0678 0.230731 -0.480969
  176 29.0678 0.230731 -0.480969
  177 45.7343 3.33360 -2.28153
  178 45.7343 3.33360 -2.28153
  179 28.5740 0.462120 -0.161142
  180 28.5740 0.462120 -0.161142
  181 20.7778 1.51507 -1.22469
  182 20.7778 1.51507 -1.22469
  183 38.2728 2.79554 0.430788
  184 38.2728 2.79554 0.430788
  185 7.58799 -6.55326 -6.91874
  186 7.58799 -6.55326 -6.91874
  187 20.5791 -0.248638 5.13587
  188 20.5791 -0.248638 5.13587
  189 27.9418 -4.44917 -7.10985
  190 27.9418 -4.44917 -7.10985
  191 32.9928 -0.890568 0.316457
  192 32.9928 -0.890568 0.316457
  193 30.8311 -0.0899302 1.19089
  194 30.8311 -0.0899302 1.19089
  195 42.4219 0.966436 2.06629
  196 42.4219 0.966436 2.06629
  197 17.0153 0.489736 -3.15274
  198 17.0153 0.489736 -3.15274
  199 48.4778 2.22085 1.21581
  200 48.4778 2.22085 1.21581
  201 31.4230 -0.367969 -1.22110
  202 31.4230 -0.367969 -1.22110
  203 29.1153 0.165359 0.444141
  204 29.1153 0.165359 0.444141
  205 32.7406 -1.25810 -0.540691
  206 32.7406 -1.25810 -0.540691
  207 35.9317 -1.85150 0.0317314
  208 35.9317 -1.85150 0.0317314
  209 2.20939 -13.0575 0.987555
  210 2.20939 -13.0575 0.987555
  211 30.0850 0.173699 -1.07162
  212 30.0850 0.173699 -1.07162
  213 29.8171 0.245327 0.942543
  214 29.8171 0.245327 0.942543
  215 28.7001 -2.61092 -4.56533
  216 28.7001 -2.61092 -4.56533
  217 33.5552 -0.709632 -0.916361
  218 33.5552 -0.709632 -0.916361
  219 27.2670 1.00314 -1.64106
  220 27.2670 1.00314 -1.64106
  221 7.50755 -9.62440 7.50992
  222 7.50755 -9.62440 7.50992
  223 33.9475 0.109440 1.36164
  224 33.9475 0.109440 1.36164
  225 32.8467 0.805674 -1.11698
  226 32.8467 0.805674 -1.11698
  227 47.8573 2.87369 -2.02397
  228 47.8573 2.87369 -2.02397
  229 36.0416 -1.38751 -0.864482
  230 36.0416 -1.38751 -0.864482
  231 39.7615 -2.17793 -6.41862
  232 39.7615 -2.17793 -6.41862
  233 28.7602 -1.28909 3.55696
  234 28.7602 -1.28909 3.55696
  235 28.0705 0.818867 0.133402
  236 28.0705 0.818867 0.133402
  237 14.7106 -2.24723 6.51820
  238 14.7106 -2.24723 6.51820
  239 38.0575 -3.56426 7.62078
  240 38.0575 -3.56426 7.62078
  241 9.85201 -1.45794 -3.19628
  242 9.85201 -1.45794 -3.19628
  243 33.4973 -2.48913 -1.46127
  244 33.4973 -2.48913 -1.46127
  245 26.9677 1.24247 0.958081
  246 26.9677 1.24247 0.958081
  247 1.01467 -16.8333 -0.785666
  248 1.01467 -16.8333 -0.785666
  249 1.87481 -14.9505 2.61983
  250 1.87481 -14.9505 2.61983
  251 27.5316 0.197270 2.59609
  252 27.5316 0.197270 2.59609
  253 28.8191 0.112390 0.111411
  254 28.8191 0.112390 0.111411
  255 28.5440 0.479971 0.0208830
  256 28.5440 0.479971 0.0208830
  257 26.7402 -0.327122 -3.42035
  258 26.7402 -0.327122 -3.42035
  259 28.8414 0.101866 -0.117951
  260 28.8414 0.101866 -0.117951
  261 32.1013 -2.23581 2.04265
  262 32.1013 -2.23581 2.04265
  263 29.6788 0.110298 -0.536099
  264 29.6788 0.110298 -0.536099
  265 22.8236 -1.93285 -6.26176
  266 22.8236 -1.93285 -6.26176
  267 39.3311 2.99204 -0.320245
  268 39.3311 2.99204 -0.320245
  269 28.5057 0.652967 -1.35406
  270 28.5057 0.652967 -1.35406
  271 28.3818 0.611568 -0.279412
  272 28.3818 0.611568 -0.279412
  273 23.9241 1.16817 -2.36818
  274 23.9241 1.16817 -2.36818
  275 7.11125 -3.03457 1.81395
  276 7.11125 -3.03457 1.81395
  277 30.7614 -5.02411 6.32053
  278 30.7614 -5.02411 6.32053
  279 28.7177 0.441363 0.544187
  280 28.7177 0.441363 0.544187
  281 43.1596 3.08943 -0.567138
  282 43.1596 3.08943 -0.567138
  283 52.4273 4.05254 5.71691
  284 52.4273 4.05254 5.71691
  285 34.5776 -3.65270 1.90869
  286 34.5776 -3.65270 1.90869
  287 24.4068 1.23206 1.74955
  288 24.4068 1.23206 1.74955
  289 31.7490 -6.21951 8.31238
  290 31.7490 -6.21951 8.31238
  291 32.4915 -0.367635 0.774721
  292 32.4915 -0.367635 0.774721
  293 28.7005 0.291188 0.151518
  294 28.7005 0.291188 0.151518
  295 28.2525 0.798353 -0.875615
  296 28.2525 0.798353 -0.875615
  297 28.5526 0.472123 -0.0415788
  298 28.5526 0.472123 -0.0415788
  299 29.0132 0.0823175 -0.211606
  300 29.0132 0.0823175 -0.211606
  301 29.6452 0.153385 0.538232
  302 29.6452 0.153385 0.538232
  303 28.0805 0.814273 -0.226868
  304 28.0805 0.814273 -0.226868
  305 6.46257 -11.2449 -7.09512
  306 6.46257 -11.2449 -7.09512
  307 18.9690 1.21370 1.60241
  308 18.9690 1.21370 1.60241
  309 28.7391 0.242385 -0.145898
  310 28.7391 0.242385 -0.145898
  311 25.1075 1.46940 -1.17385
  312 25.1075 1.46940 -1.17385
  313 25.1681 1.60289 0.451484
  314 25.1681 1.60289 0.451484
  315 28.6697 0.424412 -0.387389
  316 28.6697 0.424412 -0.387389
  317 38.8256 1.88666 0.230756
  318 38.8256 1.88666 0.230756
  319 28.4331 0.707533 1.19371
  320 28.4331 0.707533 1.19371
  321 36.5399 1.06823 -1.24154
  322 36.5399 1.06823 -1.24154
  323 55.3494 1.59945 3.61527
  324 55.3494 1.59945 3.61527
  325 28.3137 0.733054 0.758914
  326 28.3137 0.733054 0.758914
  327 27.8241 0.968499 0.396984
  328 27.8241 0.968499 0.396984
  329 22.1730 -5.50232 -11.4565
  330 22.1730 -5.50232 -11.4565
  331 29.0288 0.0745145 0.207110
  332 29.0288 0.0745145 0.207110
  333 28.3499 0.616706 0.208605
  334 28.3499 0.616706 0.208605
  335 27.2221 1.24889 0.0453777
  336 27.2221 1.24889 0.0453777
  337 14.0052 -5.02698 9.34557
  338 14.0052 -5.02698 9.34557
  339 35.2610 2.28563 0.217729
  340 35.2610 2.28563 0.217729
  341 2.05354 -14.6578 -3.08255
  342 2.05354 -14.6578 -3.08255
  343 21.6738 1.37054 1.44028
  344 21.6738 1.37054 1.44028
  345 52.3100 0.753131 0.530705
  346 52.3100 0.753131 0.530705
  347 54.5308 2.69061 -3.68642
  348 54.5308 2.69061 -3.68642
  349 24.8144 -2.84229 7.00312
  350 25.8317 -1.47014 5.23487
  351 24.8144 -2.84229 7.00312
  352 25.8317 -1.47014 5.23487
  353 53.0402 1.37186 1.93058
  354 53.0402 1.37186 1.93058
  355 29.4097 -0.0299254 2.02711
  356 29.4097 -0.0299254 2.02711
  357 35.2891 -4.74357 -4.76653
  358 35.2891 -4.74357 -4.76653
  359 33.1114 -0.297848 1.08600
  360 33.1114 -0.297848 1.08600
  361 22.7934 -5.45674 12.6152
  362 22.7934 -5.45674 12.6152
  363 38.8321 3.12770 -0.112214
  364 38.8321 3.12770 -0.112214
  365 53.1311 0.514759 -0.409191
  366 53.1311 0.514759 -0.409191
  367 31.4455 0.0299963 -1.00118
  368 31.4455 0.0299963 -1.00118
  369 27.8268 1.02857 -0.473942
  370 27.8268 1.02857 -0.473942
  371 43.7175 3.38249 0.910266
  372 43.7175 3.38249 0.910266
  373 32.9855 1.35704 -0.235620
  374 32.9855 1.35704 -0.235620
  375 30.2512 0.123630 -0.657916
  376 30.2512 0.123630 -0.657916
  377 7.94384 -4.19370 -5.31244
  378 7.94384 -4.19370 -5.31244
  379 33.4947 -0.595564 0.353524
  380 33.4947 -0.595564 0.353524
  381 28.5052 -0.0336816 -2.38107
  382 28.5052 -0.0336816 -2.38107
  383 32.8162 -0.0779058 -1.28655
  384 32.8162 -0.0779058 -1.28655
  385 53.2764 0.969675 -1.60952
  386 53.2764 0.969675 -1.60952
  387 28.5878 0.454984 0.306789
  388 28.5878 0.454984 0.306789
  389 34.9584 1.65844 1.13262
  390 34.9584 1.65844 1.13262
  391 38.0831 -0.944536 0.0113604
  392 38.0831 -0.944536 0.0113604
  393 28.7057 0.533619 -0.677743
  394 28.7057 0.533619 -0.677743
  395 56.3935 4.70285 -6.68444
  396 56.3935 4.70285 -6.68444
  397 33.1071 -0.464827 -0.302488
  398 33.1071 -0.464827 -0.302488
</Section>

newXOutput 10

<Section columns = "stress_xx | stress_yy | stress_xy">
  1 32.3466 0.0310357 -0.0395900
  2 32.3591 0.0389896 0.0534654
  3 32.3466 0.0310357 -0.0395900
  4 32.3591 0.0389896 0.0534654
  5 51.4324 2.20414 13.4650
  6 53.5444 2.06164 -13.2323
  7 51.4324 2.20414 13.4650
  8 53.5444 2.06164 -13.2323
  9 32.4351 0.0223698 -0.103495
  10 32.7299 0.0401728 -0.182788
  11 33.1520 0.0924851 -0.367730
  12 34.1159 0.0364701 -0.489208
  13 35.3331 0.0646862 -0.785439
  14 36.7282 -0.308842 -0.747253
  15 37.9546 -0.381131 -0.0447989
  16 37.1768 -0.269119 0.713144
  17 35.5367 0.257342 1.21048
  18 34.6515 0.660532 -0.0462415
  19 35.3064 0.320601 -1.13009
  20 37.1255 -0.397285 -0.870524
  21 37.5916 -0.461796 0.202763
  22 36.9217 -0.205292 0.639892
  23 35.0655 0.0229286 0.785506
  24 34.0256 0.134857 0.617452
  25 33.1735 0.106068 0.354013
  26 32.7323 0.0322540 0.167716
  27 32.4512 0.0263163 0.0996160
  28 32.4136 0.118554 0.0625497
  29 32.3485 0.244853 0.0721069
  30 32.1887 0.427873 0.0637960
  31 32.1247 0.498312 -0.00619277
  32 32.2083 0.405535 -0.0768086
  33 32.3239 0.266904 -0.0663705
  34 32.3752 0.134008 -0.0693276
  35 32.4351 0.0223698 -0.103495
  36 32.7299 0.0401728 -0.182788
  37 33.1520 0.0924851 -0.367730
  38 34.1159 0.0364701 -0.489208
  39 35.3331 0.0646862 -0.785439
  40 36.7282 -0.308842 -0.747253
  41 37.9546 -0.381131 -0.0447989
  42 37.1768 -0.269119 0.713144
  43 35.5367 0.257342 1.21048
  44 34.6515 0.660532 -0.0462415
  45 35.3064 0.320601 -1.13009
  46 37.1255 -0.397285 -0.870524
  47 37.5916 -0.461796 0.202763
  48 36.9217 -0.205292 0.639892
  49 35.0655 0.0229286 0.785506
  50 34.0256 0.134857 0.617452
  51 33.1735 0.106068 0.354013
  52 32.7323 0.0322540 0.167716
  53 32.4512 0.0263163 0.0996160
  54 32.4136 0.118554 0.0625497
  55 32.3485 0.244853 0.0721069
  56 32.1887 0.427873 0.0637960
  57 32.1247 0.498312 -0.00619277
  58 32.2083 0.405535 -0.0768086
  59 32.3239 0.266904 -0.0663705
  60 32.3752 0.134008 -0.0693276
  61 71.9087 3.53406 7.30171
  62 65.4222 1.09044 2.66534
  63 61.5197 0.486546 1.01180
  64 60.6963 0.346450 0.212466
  65 61.4996 0.451284 -0.868908
  66 64.4377 0.944356 -2.33736
  67 72.5686 3.08417 -6.27823
  68 9.29165 -11.2231 -10.6993
  69 1.83685 -23.2164 -2.50913
  70 0.600758 -25.9126 -1.10552
  71 0.571637 -25.3996 -0.628777
  72 0.899117 -24.8348 1.17728
  73 1.97069 -22.5141 2.64401
  74 10.1588 -10.5362 11.8976
  75 71.9087 3.53406 7.30171
  76 65.4222 1.09044 2.66534
  77 61.5197 0.486546 1.01180
  78 60.6963 0.346450 0.212466
  79 61.4996 0.451284 -0.868908
  80 64.4377 0.944356 -2.33736
  81 72.5686 3.08417 -6.27823
  82 9.29165 -11.2231 -10.6993
  83 1.83685 -23.2164 -2.50913
  84 0.600758 -25.9126 -1.10552
  85 0.571637 -25.3996 -0.628777
  86 0.899117 -24.8348 1.17728
  87 1.97069 -22.5141 2.64401
  88 10.1588 -10.5362 11.8976
  89 29.5463 1.72290 -0.453150
  90 29.5463 1.72290 -0.453150
  91 26.9513 0.364822 4.01603
  92 25.8794 -0.173729 -4.76467
  93 26.9513 0.364822 4.01603
  94 25.8794 -0.173729 -4.76467
  95 14.9813 0.286118 1.88815
  96 14.9813 0.286118 1.88815
  97 39.9306 2.54066 -0.736166
  98 40.8459 1.38974 1.53294
  99 39.9306 2.54066 -0.736166
  100 40.8459 1.38974 1.53294
  101 31.8408 0.792426 0.467508
  102 31.8408 0.792426 0.467508
  103 38.3882 -2.18002 -0.158922
  104 38.3882 -2.18002 -0.158922
  105 31.8857 0.827117 -0.575774
  106 31.8857 0.827117 -0.575774
  107 37.8534 -4.61669 -4.05082
  108 37.8534 -4.61669 -4.05082
  109 26.2458 -5.40989 10.3124
  110 26.2458 -5.40989 10.3124
  111 17.5203 -3.23189 -8.26359
  112 17.5203 -3.23189 -8.26359
  113 32.0349 0.555982 1.94206
  114 32.0349 0.555982 1.94206
  115 33.2768 0.244510 -1.84701
  116 33.2768 0.244510 -1.84701
  117 45.5210 2.92226 0.0753921
  118 48.9116 3.22638 0.218567
  119 45.5210 2.92226 0.0753921
  120 48.9116 3.22638 0.218567
  121 47.8151 3.95290 -0.947463
  122 47.8151 3.95290 -0.947463
  123 5.07994 -8.64352 -2.59044
  124 5.07994 -8.64352 -2.59044
  125 41.2768 -5.16960 4.23254
  126 41.2768 -5.16960 4.23254
  127 34.4632 -0.815614 2.11518
  128 34.4632 -0.815614 2.11518
  129 7.73131 -7.49525 6.01477
  130 7.73131 -7.49525 6.01477
  131 31.8905 0.663890 -0.0300593
  132 31.8905 0.663890 -0.0300593
  133 34.4254 -1.58420 -2.67404
  134 34.4254 -1.58420 -2.67404
  135 32.4466 0.271071 0.342536
  136 32.4466 0.271071 0.342536
  137 32.4816 0.237807 -0.320196
  138 32.4816 0.237807 -0.320196
  139 32.8579 0.467618 -0.998920
  140 32.8579 0.467618 -0.998920
  141 32.6947 0.454024 0.902932
  142 32.6947 0.454024 0.902932
  143 31.1977 1.09903 -0.0356964
  144 31.1977 1.09903 -0.0356964
  145 25.8484 1.73390 -0.203244
  146 25.8484 1.73390 -0.203244
  147 38.1449 -1.36996 0.764023
  148 38.1449 -1.36996 0.764023
  149 43.9433 -1.73077 -1.26973
  150 43.9433 -1.73077 -1.26973
  151 33.6789 -3.71044 5.16641
  152 33.6789 -3.71044 5.16641
  153 25.4370 -6.92775 -11.3797
  154 25.4370 -6.92775 -11.3797
  155 29.6422 1.23259 1.84309
  156 29.6422 1.23259 1.84309
  157 38.7797 -0.270816 -1.63969
  158 38.7797 -0.270816 -1.63969
  159 53.6983 4.15377 2.78949
  160 53.6983 4.15377 2.78949
  161 26.5157 -7.35013 13.2598
  162 26.5157 -7.35013 13.2598
  163 55.0759 1.89076 -0.608183
  164 55.0759 1.89076 -0.608183
  165 31.0689 1.09379 0.874891
  166 31.0689 1.09379 0.874891
  167 29.4707 1.01615 -2.67679
  168 29.4707 1.01615 -2.67679
  169 36.5582 1.07123 0.936228
  170 36.5582 1.07123 0.936228
  171 30.7599 1.30116 -0.988733
  172 30.7599 1.30116 -0.988733
  173 32.1028 0.534420 0.149678
  174 32.1028 0.534420 0.149678
  175 32.6875 0.259372 -0.540505
  176 32.6875 0.259372 -0.540505
  177 51.4198 3.75131 -2.57071
  178 51.4198 3.75131 -2.57071
  179 32.1328 0.519493 -0.181074
  180 32.1328 0.519493 -0.181074
  181 23.3695 1.70411 -1.37721
  182 23.3695 1.70411 -1.37721
  183 43.0367 3.14389 0.481892
  184 43.0367 3.14389 0.481892
  185 8.53457 -7.36770 -7.78571
  186 8.53457 -7.36770 -7.78571
  187 23.1448 -0.279268 5.77588
  188 23.1448 -0.279268 5.77588
  189 31.4198 -5.00364 -7.99724
  190 31.4198 -5.00364 -7.99724
  191 37.0994 -1.00161 0.356989
  192 37.0994 -1.00161 0.356989
  193 34.6691 -0.101297 1.33901
  194 34.6691 -0.101297 1.33901
  195 47.6966 1.09002 2.32923
  196 47.6966 1.09002 2.32923
  197 19.1384 0.551517 -3.54587
  198 19.1384 0.551517 -3.54587
  199 54.5018 2.49610 1.36778
  200 54.5018 2.49610 1.36778
  201 35.3346 -0.413982 -1.37335
  202 35.3346 -0.413982 -1.37335
  203 32.7410 0.185879 0.499112
  204 32.7410 0.185879 0.499112
  205 36.8158 -1.41497 -0.609248
  206 36.8158 -1.41497 -0.609248
  207 40.4025 -2.08134 0.0323073
  208 40.4025 -2.08134 0.0323073
  209 2.48465 -14.6848 1.11179
  210 2.48465 -14.6848 1.11179
  211 33.8306 0.195137 -1.20465
  212 33.8306 0.195137 -1.20465
  213 33.5296 0.275743 1.05948
  214 33.5296 0.275743 1.05948
  215 32.2733 -2.93626 -5.13470
  216 32.2733 -2.93626 -5.13470
  217 37.7326 -0.798003 -1.02858
  218 37.7326 -0.798003 -1.02858
  219 30.6640 1.12788 -1.84502
  220 30.6640 1.12788 -1.84502
  221 8.44310 -10.8207 8.45189
  222 8.44310 -10.8207 8.45189
  223 38.1744 0.123575 1.52890
  224 38.1744 0.123575 1.52890
  225 36.9383 0.906371 -1.25456
  226 36.9383 0.906371 -1.25456
  227 53.8054 3.23062 -2.27771
  228 53.8054 3.23062 -2.27771
  229 40.5263 -1.55955 -0.968668
  230 40.5263 -1.55955 -0.968668
  231 44.7044 -2.44404 -7.22415
  232 44.7044 -2.44404 -7.22415
  233 32.3413 -1.44968 4.00009
  234 32.3413 -1.44968 4.00009
  235 31.5672 0.920574 0.149929
  236 31.5672 0.920574 0.149929
  237 16.5454 -2.52649 7.33215
  238 16.5454 -2.52649 7.33215
  239 42.7885 -4.00409 8.57562
  240 42.7885 -4.00409 8.57562
  241 11.0825 -1.63783 -3.59574
  242 11.0825 -1.63783 -3.59574
  243 37.6658 -2.79918 -1.64508
  244 37.6658 -2.79918 -1.64508
  245 30.3277 1.39697 1.07705
  246 30.3277 1.39697 1.07705
  247 1.14052 -18.9332 -0.884718
  248 1.14052 -18.9332 -0.884718
  249 2.10821 -16.8137 2.94997
  250 2.10821 -16.8137 2.94997
  251 30.9611 0.221779 2.91909
  252 30.9611 0.221779 2.91909
  253 32.4082 0.126356 0.125180
  254 32.4082 0.126356 0.125180
  255 32.0991 0.539542 0.0234673
  256 32.0991 0.539542 0.0234673
  257 30.0713 -0.367905 -3.84625
  258 30.0713 -0.367905 -3.84625
  259 32.4331 0.114529 -0.132530
  260 32.4331 0.114529 -0.132530
  261 36.0967 -2.51437 2.29826
  262 36.0967 -2.51437 2.29826
  263 33.3740 0.123966 -0.602485
  264 33.3740 0.123966 -0.602485
  265 25.6674 -2.17364 -7.04250
  266 25.6674 -2.17364 -7.04250
  267 44.2260 3.36470 -0.357614
  268 44.2260 3.36470 -0.357614
  269 32.0561 0.734052 -1.52215
  270 32.0561 0.734052 -1.52215
  271 31.9169 0.687510 -0.313998
  272 31.9169 0.687510 -0.313998
  273 26.9064 1.31373 -2.66288
  274 26.9064 1.31373 -2.66288
  275 7.99960 -3.41031 2.04097
  276 7.99960 -3.41031 2.04097
  277 34.5889 -5.65016 7.10967
  278 34.5889 -5.65016 7.10967
  279 32.2943 0.496169 0.611567
  280 32.2943 0.496169 0.611567
  281 48.5281 3.47323 -0.639074
  282 48.5281 3.47323 -0.639074
  283 58.9387 4.56105 6.43255
  284 58.9387 4.56105 6.43255
  285 38.8795 -4.10737 2.14907
  286 38.8795 -4.10737 2.14907
  287 27.4492 1.38551 1.96712
  288 27.4492 1.38551 1.96712
  289 35.6981 -6.99422 9.35052
  290 35.6981 -6.99422 9.35052
  291 36.5354 -0.413559 0.871488
  292 36.5354 -0.413559 0.871488
  293 32.2750 0.327342 0.170254
  294 32.2750 0.327342 0.170254
  295 31.7717 0.897527 -0.984178
  296 31.7717 0.897527 -0.984178
  297 32.1088 0.530722 -0.0467209
  298 32.1088 0.530722 -0.0467209
  299 32.6262 0.0925433 -0.237773
  300 32.6262 0.0925433 -0.237773
  301 33.3363 0.172408 0.604882
  302 33.3363 0.172408 0.604882
  303 31.5784 0.915412 -0.254974
  304 31.5784 0.915412 -0.254974
  305 7.26771 -12.6425 -7.98565
  306 7.26771 -12.6425 -7.98565
  307 21.3357 1.36542 1.80197
  308 21.3357 1.36542 1.80197
  309 32.3183 0.272486 -0.163936
  310 32.3183 0.272486 -0.163936
  311 28.2370 1.65227 -1.31981
  312 28.2370 1.65227 -1.31981
  313 28.3052 1.80237 0.507574
  314 28.3052 1.80237 0.507574
  315 32.2403 0.477113 -0.435335
  316 32.2403 0.477113 -0.435335
  317 43.6566 2.12322 0.254994
  318 43.6566 2.12322 0.254994
  319 31.9745 0.795424 1.34181
  320 31.9745 0.795424 1.34181
  321 41.0879 1.20210 -1.39277
  322 41.0879 1.20210 -1.39277
  323 62.2201 1.79764 4.06554
  324 62.2201 1.79764 4.06554
  325 31.8404 0.824112 0.852978
  326 31.8404 0.824112 0.852978
  327 31.2903 1.08882 0.446188
  328 31.2903 1.08882 0.446188
  329 24.9313 -6.17841 -12.8915
  330 24.9313 -6.17841 -12.8915
  331 32.6437 0.0837697 0.232719
  332 32.6437 0.0837697 0.232719
  333 31.8812 0.693281 0.234427
  334 31.8812 0.693281 0.234427
  335 30.6139 1.40413 0.0510020
  336 30.6139 1.40413 0.0510020
  337 15.7513 -5.65276 10.5143
  338 15.7513 -5.65276 10.5143
  339 39.6522 2.57053 0.244253
  340 39.6522 2.57053 0.244253
  341 2.30896 -16.4844 -3.47036
  342 2.30896 -16.4844 -3.47036
  343 24.3769 1.54145 1.61949
  344 24.3769 1.54145 1.61949
  345 58.8039 0.846124 0.596396
  346 58.8039 0.846124 0.596396
  347 61.3017 3.02559 -4.14608
  348 61.3017 3.02559 -4.14608
  349 27.9047 -3.19654 7.87631
  350 29.0492 -1.65326 5.88698
  351 27.9047 -3.19654 7.87631
  352 29.0492 -1.65326 5.88698
  353 59.6251 1.54156 2.17050
  354 59.6251 1.54156 2.17050
  355 33.0719 -0.0337886 2.27929
  356 33.0719 -0.0337886 2.27929
  357 39.6778 -5.33374 -5.36336
  358 39.6778 -5.33374 -5.36336
  359 37.2344 -0.334794 1.21970
  360 37.2344 -0.334794 1.21970
  361 25.6275 -6.12770 14.1944
  362 25.6275 -6.12770 14.1944
  363 43.6657 3.51681 -0.126093
  364 43.6657 3.51681 -0.126093
  365 59.7255 0.578257 -0.459967
  366 59.7255 0.578257 -0.459967
  367 35.3594 0.0335534 -1.12561
  368 35.3594 0.0335534 -1.12561
  369 31.2934 1.15637 -0.532701
  370 31.2934 1.15637 -0.532701
  371 49.1549 3.80328 1.02615
  372 49.1549 3.80328 1.02615
  373 37.0947 1.52633 -0.264652
  374 37.0947 1.52633 -0.264652
  375 34.0171 0.138915 -0.739469
  376 34.0171 0.138915 -0.739469
  377 8.93620 -4.71443 -5.97745
  378 8.93620 -4.71443 -5.97745
  379 37.6638 -0.669779 0.396396
  380 37.6638 -0.669779 0.396396
  381 32.0553 -0.0380174 -2.67742
  382 32.0553 -0.0380174 -2.67742
  383 36.9032 -0.0874954 -1.44506
  384 36.9032 -0.0874954 -1.44506
  385 59.8902 1.08967 -1.80940
  386 59.8902 1.08967 -1.80940
  387 32.1483 0.511474 0.344753
  388 32.1483 0.511474 0.344753
  389 39.3113 1.86550 1.27146
  390 39.3113 1.86550 1.27146
  391 42.8203 -1.06058 0.0172162
  392 42.8203 -1.06058 0.0172162
  393 32.2807 0.599886 -0.761693
  394 32.2807 0.599886 -0.761693
  395 63.3946 5.29380 -7.52059
  396 63.3946 5.29380 -7.52059
  397 37.2274 -0.522882 -0.340678
  398 37.2274 -0.522882 -0.340678
</Section>

newXOutput 11

<Section columns = "stress_xx | stress_yy | stress_xy">
  1 35.9259 0.0344761 -0.0439303
  2 35.9398 0.0433061 0.0593257
  3 35.9259 0.0344761 -0.0439303
  4 35.9398 0.0433061 0.0593257
  5 57.1038 2.46150 14.9621
  6 59.4473 2.30388 -14.7038
  7 57.1038 2.46150 14.9621
  8 59.4473 2.30388 -14.7038
  9 36.0240 0.0248436 -0.114846
  10 36.3512 0.0446084 -0.202848
  11 36.8196 0.102679 -0.408125
  12 37.8891 0.0404676 -0.543005
  13 39.2401 0.0717286 -0.872002
  14 40.7888 -0.343200 -0.829924
  15 42.1509 -0.423415 -0.0502788
  16 41.2896 -0.298886 0.790942
  17 39.4709 0.286068 1.34305
  18 38.4893 0.733913 -0.0513194
  19 39.2154 0.356167 -1.25392
  20 41.2328 -0.441266 -0.965480
  21 41.7480 -0.513043 0.225812
  22 41.0037 -0.228114 0.710737
  23 38.9432 0.0253237 0.872129
  24 37.7890 0.149691 0.685375
  25 36.8435 0.117760 0.392894
  26 36.3539 0.0358153 0.186119
  27 36.0421 0.0292281 0.110545
  28 36.0003 0.131641 0.0694047
  29 35.9281 0.271862 0.0800164
  30 35.7508 0.475042 0.0707979
  31 35.6798 0.553237 -0.00687254
  32 35.7725 0.450246 -0.0852355
  33 35.9008 0.296346 -0.0736416
  34 35.9576 0.148806 -0.0769333
  35 36.0240 0.0248436 -0.114846
  36 36.3512 0.0446084 -0.202848
  37 36.8196 0.102679 -0.408125
  38 37.8891 0.0404676 -0.543005
  39 39.2401 0.0717286 -0.872002
  40 40.7888 -0.343200 -0.829924
  41 42.1509 -0.423415 -0.0502788
  42 41.2896 -0.298886 0.790942
  43 39.4709 0.286068 1.34305
  44 38.4893 0.733913 -0.0513194
  45 39.2154 0.356167 -1.25392
  46 41.2328 -0.441266 -0.965480
  47 41.7480 -0.513043 0.225812
  48 41.0037 -0.228114 0.710737
  49 38.9432 0.0253237 0.872129
  50 37.7890 0.149691 0.685375
  51 36.8435 0.117760 0.392894
  52 36.3539 0.0358153 0.186119
  53 36.0421 0.0292281 0.110545
  54 36.0003 0.131641 0.0694047
  55 35.9281 0.271862 0.0800164
  56 35.7508 0.475042 0.0707979
  57 35.6798 0.553237 -0.00687254
  58 35.7725 0.450246 -0.0852355
  59 35.9008 0.296346 -0.0736416
  60 35.9576 0.148806 -0.0769333
  61 79.8285 3.92593 8.10902
  62 72.6290 1.21030 2.95897
  63 68.2988 0.539637 1.12291
  64 67.3851 0.384309 0.235618
  65 68.2763 0.500691 -0.964255
  66 71.5369 1.04804 -2.59454
  67 80.5613 3.42606 -6.97254
  68 10.3192 -12.4526 -11.8926
  69 2.03995 -25.7890 -2.79181
  70 0.666189 -28.7901 -1.22991
  71 0.633916 -28.2207 -0.698613
  72 0.997870 -27.5916 1.30982
  73 2.18886 -25.0088 2.94208
  74 11.2811 -11.6895 13.2241
  75 79.8285 3.92593 8.10902
  76 72.6290 1.21030 2.95897
  77 68.2988 0.539637 1.12291
  78 67.3851 0.384309 0.235618
  79 68.2763 0.500691 -0.964255
  80 71.5369 1.04804 -2.59454
  81 80.5613 3.42606 -6.97254
  82 10.3192 -12.4526 -11.8926
  83 2.03995 -25.7890 -2.79181
  84 0.666189 -28.7901 -1.22991
  85 0.633916 -28.2207 -0.698613
  86 0.997870 -27.5916 1.30982
  87 2.18886 -25.0088 2.94208
  88 11.2811 -11.6895 13.2241
  89 32.8181 1.91328 -0.503164
  90 32.8181 1.91328 -0.503164
  91 29.9361 0.405352 4.46022
  92 28.7458 -0.192788 -5.29201
  93 29.9361 0.405352 4.46022
  94 28.7458 -0.192788 -5.29201
  95 16.6440 0.319181 2.09747
  96 16.6440 0.319181 2.09747
  97 44.3486 2.82210 -0.816074
  98 45.3631 1.54450 1.69871
  99 44.3486 2.82210 -0.816074
  100 45.3631 1.54450 1.69871
  101 35.3648 0.879842 0.518922
  102 35.3648 0.879842 0.518922
  103 42.6329 -2.42112 -0.173812
  104 42.6329 -2.42112 -0.173812
  105 35.4146 0.918374 -0.639109
  106 35.4146 0.918374 -0.639109
  107 42.0372 -5.12761 -4.50124
  108 42.0372 -5.12761 -4.50124
  109 29.1498 -6.00908 11.4564
  110 29.1498 -6.00908 11.4564
  111 19.4617 -3.58906 -9.18096
  112 19.4617 -3.58906 -9.18096
  113 35.5800 0.617281 2.15640
  114 35.5800 0.617281 2.15640
  115 36.9584 0.271321 -2.05099
  116 36.9584 0.271321 -2.05099
  117 50.5526 3.24695 0.0886839
  118 54.3162 3.58211 0.243552
  119 50.5526 3.24695 0.0886839
  120 54.3162 3.58211 0.243552
  121 53.0994 4.39077 -1.05622
  122 53.0994 4.39077 -1.05622
  123 5.64336 -9.59837 -2.87949
  124 5.64336 -9.59837 -2.87949
  125 45.8370 -5.74021 4.70516
  126 45.8370 -5.74021 4.70516
  127 38.2754 -0.906021 2.34955
  128 38.2754 -0.906021 2.34955
  129 8.58893 -8.32283 6.68512
  130 8.58893 -8.32283 6.68512
  131 35.4200 0.737102 -0.0333593
  132 35.4200 0.737102 -0.0333593
  133 38.2331 -1.75967 -2.97062
  134 38.2331 -1.75967 -2.97062
  135 36.0369 0.300973 0.380157
  136 36.0369 0.300973 0.380157
  137 36.0757 0.264047 -0.355356
  138 36.0757 0.264047 -0.355356
  139 36.4934 0.519159 -1.10890
  140 36.4934 0.519159 -1.10890
  141 36.3123 0.504086 1.00230
  142 36.3123 0.504086 1.00230
  143 34.6511 1.22031 -0.0396384
  144 34.6511 1.22031 -0.0396384
  145 28.7127 1.92580 -0.225755
  146 28.7127 1.92580 -0.225755
  147 42.3634 -1.52134 0.846162
  148 42.3634 -1.52134 0.846162
  149 48.7984 -1.91957 -1.41586
  150 48.7984 -1.91957 -1.41586
  151 37.4033 -4.12129 5.73918
  152 37.4033 -4.12129 5.73918
  153 28.2502 -7.69323 -12.6446
  154 28.2502 -7.69323 -12.6446
  155 32.9242 1.36885 2.04660
  156 32.9242 1.36885 2.04660
  157 43.0688 -0.300351 -1.81815
  158 43.0688 -0.300351 -1.81815
  159 59.6274 4.61381 3.10120
  160 59.6274 4.61381 3.10120
  161 29.4479 -8.16314 14.7325
  162 29.4479 -8.16314 14.7325
  163 61.1541 2.09850 -0.675610
  164 61.1541 2.09850 -0.675610
  165 34.5081 1.21452 0.971274
  166 34.5081 1.21452 0.971274
  167 32.7336 1.12851 -2.97260
  168 32.7336 1.12851 -2.97260
  169 40.6051 1.19020 1.03867
  170 40.6051 1.19020 1.03867
  171 34.1652 1.44483 -1.09772
  172 34.1652 1.44483 -1.09772
  173 35.6556 0.593346 0.166118
  174 35.6556 0.593346 0.166118
  175 36.3042 0.287969 -0.599913
  176 36.3042 0.287969 -0.599913
  177 57.0983 4.16923 -2.86077
  178 57.0983 4.16923 -2.86077
  179 35.6888 0.576781 -0.200960
  180 35.6888 0.576781 -0.200960
  181 25.9599 1.89308 -1.52960
  182 25.9599 1.89308 -1.52960
  183 47.7960 3.49201 0.532393
  184 47.7960 3.49201 0.532393
  185 9.48071 -8.18111 -8.65314
  186 9.48071 -8.18111 -8.65314
  187 25.7089 -0.309800 6.41544
  188 25.7089 -0.309800 6.41544
  189 34.8945 -5.55774 -8.88433
  190 34.8945 -5.55774 -8.88433
  191 41.2022 -1.11258 0.397736
  192 41.2022 -1.11258 0.397736
  193 38.5037 -0.112692 1.48696
  194 38.5037 -0.112692 1.48696
  195 52.9651 1.21422 2.59319
  196 52.9651 1.21422 2.59319
  197 21.2607 0.613421 -3.93878
  198 21.2607 0.613421 -3.93878
  199 60.5180 2.77084 1.51975
  200 60.5180 2.77084 1.51975
  201 39.2425 -0.459997 -1.52550
  202 39.2425 -0.459997 -1.52550
  203 36.3635 0.206366 0.553961
  204 36.3635 0.206366 0.553961
  205 40.8872 -1.57176 -0.678017
  206 40.8872 -1.57176 -0.678017
  207 44.8688 -2.31083 0.0321366
  208 44.8688 -2.31083 0.0321366
  209 2.75970 -16.3111 1.23620
  210 2.75970 -16.3111 1.23620
  211 37.5729 0.216515 -1.33747
  212 37.5729 0.216515 -1.33747
  213 37.2389 0.306104 1.17622
  214 37.2389 0.306104 1.17622
  215 35.8434 -3.26136 -5.70378
  216 35.8434 -3.26136 -5.70378
  217 41.9061 -0.886301 -1.14030
  218 41.9061 -0.886301 -1.14030
  219 34.0585 1.25248 -2.04871
  220 34.0585 1.25248 -2.04871
  221 9.37800 -12.0154 9.39457
  222 9.37800 -12.0154 9.39457
  223 42.3977 0.137811 1.69552
  224 42.3977 0.137811 1.69552
  225 41.0267 1.00706 -1.39169
  226 41.0267 1.00706 -1.39169
  227 59.7458 3.58703 -2.53160
  228 59.7458 3.58703 -2.53160
  229 45.0064 -1.73129 -1.07200
  230 45.0064 -1.73129 -1.07200
  231 49.6412 -2.70880 -8.03038
  232 49.6412 -2.70880 -8.03038
  233 35.9194 -1.61015 4.44290
  234 35.9194 -1.61015 4.44290
  235 35.0612 1.02214 0.166422
  236 35.0612 1.02214 0.166422
  237 18.3794 -2.80539 8.14592
  238 18.3794 -2.80539 8.14592
  239 47.5136 -4.44267 9.53095
  240 47.5136 -4.44267 9.53095
  241 12.3127 -1.81721 -3.99519
  242 12.3127 -1.81721 -3.99519
  243 41.8301 -3.10898 -1.82914
  244 41.8301 -3.10898 -1.82914
  245 33.6854 1.55129 1.19584
  246 33.6854 1.55129 1.19584
  247 1.26616 -21.0322 -0.983958
  248 1.26616 -21.0322 -0.983958
  249 2.34141 -18.6757 3.28069
  250 2.34141 -18.6757 3.28069
  251 34.3879 0.246256 3.24175
  252 34.3879 0.246256 3.24175
  253 35.9943 0.140304 0.138915
  254 35.9943 0.140304 0.138915
  255 35.6514 0.599019 0.0260458
  256 35.6514 0.599019 0.0260458
  257 33.3998 -0.408664 -4.27178
  258 33.3998 -0.408664 -4.27178
  259 36.0219 0.127178 -0.147072
  260 36.0219 0.127178 -0.147072
  261 40.0883 -2.79271 2.55393
  262 40.0883 -2.79271 2.55393
  263 37.0659 0.137607 -0.668733
  264 37.0659 0.137607 -0.668733
  265 28.5091 -2.41426 -7.82279
  266 28.5091 -2.41426 -7.82279
  267 49.1162 3.73705 -0.394397
  268 49.1162 3.73705 -0.394397
  269 35.6036 0.815018 -1.68999
  270 35.6036 0.815018 -1.68999
  271 35.4492 0.763340 -0.348508
  272 35.4492 0.763340 -0.348508
  273 29.8869 1.45918 -2.95729
  274 29.8869 1.45918 -2.95729
  275 8.88784 -3.78526 2.26806
  276 8.88784 -3.78526 2.26806
  277 38.4125 -6.27577 7.89860
  278 38.4125 -6.27577 7.89860
  279 35.8680 0.550895 0.678804
  280 35.8680 0.550895 0.678804
  281 53.8908 3.85651 -0.711239
  282 53.8908 3.85651 -0.711239
  283 65.4409 5.06999 7.14842
  284 65.4409 5.06999 7.14842
  285 43.1769 -4.56161 2.38983
  286 43.1769 -4.56161 2.38983
  287 30.4897 1.53884 2.18445
  288 30.4897 1.53884 2.18445
  289 39.6429 -7.76834 10.3885
  290 39.6429 -7.76834 10.3885
  291 40.5755 -0.459477 0.968238
  292 40.5755 -0.459477 0.968238
  293 35.8465 0.363442 0.188946
  294 35.8465 0.363442 0.188946
  295 35.2880 0.996564 -1.09254
  296 35.2880 0.996564 -1.09254
  297 35.6621 0.589228 -0.0518507
  298 35.6621 0.589228 -0.0518507
  299 36.2361 0.102755 -0.263877
  300 36.2361 0.102755 -0.263877
  301 37.0242 0.191398 0.671393
  302 37.0242 0.191398 0.671393
  303 35.0736 1.01641 -0.283025
  304 35.0736 1.01641 -0.283025
  305 8.07224 -14.0383 -8.87698
  306 8.07224 -14.0383 -8.87698
  307 23.7013 1.51713 2.00136
  308 23.7013 1.51713 2.00136
  309 35.8945 0.302544 -0.181929
  310 35.8945 0.302544 -0.181929
  311 31.3645 1.83497 -1.46560
  312 31.3645 1.83497 -1.46560
  313 31.4403 2.00166 0.563589
  314 31.4403 2.00166 0.563589
  315 35.8080 0.529737 -0.483176
  316 35.8080 0.529737 -0.483176
  317 48.4825 2.35993 0.278218
  318 48.4825 2.35993 0.278218
  319 35.5131 0.883194 1.48967
  320 35.5131 0.883194 1.48967
  321 45.6316 1.33603 -1.54313
  322 45.6316 1.33603 -1.54313
  323 69.0801 1.99543 4.51544
  324 69.0801 1.99543 4.51544
  325 35.3644 0.915042 0.946865
  326 35.3644 0.915042 0.946865
  327 34.7539 1.20898 0.495300
  328 34.7539 1.20898 0.495300
  329 27.6865 -6.85192 -14.3272
  330 27.6865 -6.85192 -14.3272
  331 36.2556 0.0930118 0.258266
  332 36.2556 0.0930118 0.258266
  333 35.4096 0.769742 0.260193
  334 35.4096 0.769742 0.260193
  335 34.0032 1.55917 0.0566157
  336 34.0032 1.55917 0.0566157
  337 17.4964 -6.27796 11.6831
  338 17.4964 -6.27796 11.6831
  339 44.0397 2.85525 0.270626
  340 44.0397 2.85525 0.270626
  341 2.56409 -18.3097 -3.85871
  342 2.56409 -18.3097 -3.85871
  343 27.0786 1.71226 1.79851
  344 27.0786 1.71226 1.79851
  345 65.2879 0.938864 0.661945
  346 65.2879 0.938864 0.661945
  347 68.0626 3.36028 -4.60547
  348 68.0626 3.36028 -4.60547
  349 30.9926 -3.55055 8.74902
  350 32.2642 -1.83625 6.53859
  351 30.9926 -3.55055 8.74902
  352 32.2642 -1.83625 6.53859
  353 66.2001 1.71086 2.41011
  354 66.2001 1.71086 2.41011
  355 36.7310 -0.0376789 2.53121
  356 36.7310 -0.0376789 2.53121
  357 44.0616 -5.92329 -5.96040
  358 44.0616 -5.92329 -5.96040
  359 41.3538 -0.371676 1.35295
  360 41.3538 -0.371676 1.35295
  361 28.4582 -6.79618 15.7740
  362 28.4582 -6.79618 15.7740
  363 48.4948 3.90551 -0.139940
  364 48.4948 3.90551 -0.139940
  365 66.3097 0.641570 -0.510660
  366 66.3097 0.641570 -0.510660
  367 39.2696 0.0370681 -1.24988
  368 39.2696 0.0370681 -1.24988
  369 34.7573 1.28400 -0.591354
  370 34.7573 1.28400 -0.591354
  371 54.5862 4.22363 1.14250
  372 54.5862 4.22363 1.14250
  373 41.2007 1.69555 -0.293591
  374 41.2007 1.69555 -0.293591
  375 37.7797 0.154163 -0.820871
  376 37.7797 0.154163 -0.820871
  377 9.92843 -5.23439 -6.64268
  378 9.92843 -5.23439 -6.64268
  379 41.8291 -0.743943 0.438977
  380 41.8291 -0.743943 0.438977
  381 35.6025 -0.0423809 -2.97349
  382 35.6025 -0.0423809 -2.97349
  383 40.9868 -0.0970519 -1.60306
  384 40.9868 -0.0970519 -1.60306
  385 66.4939 1.20939 -2.00900
  386 66.4939 1.20939 -2.00900
  387 35.7060 0.567880 0.382633
  388 35.7060 0.567880 0.382633
  389 43.6605 2.07251 1.40969
  390 43.6605 2.07251 1.40969
  391 47.5524 -1.17617 0.0240486
  392 47.5524 -1.17617 0.0240486
  393 35.8529 0.666058 -0.845474
  394 35.8529 0.666058 -0.845474
  395 70.3851 5.88543 -8.35685
  396 70.3851 5.88543 -8.35685
  397 41.3436 -0.580926 -0.378950
  398 41.3436 -0.580926 -0.378950
</Section>

newXOutput 12

<Section columns = "stress_xx | stress_yy | stress_xy">
  1 39.5023 0.0379149 -0.0482589
  2 39.5176 0.0476195 0.0651702
  3 39.5023 0.0379149 -0.0482589
  4 39.5176 0.0476195 0.0651702
  5 62.7665 2.72134 16.4593
  6 65.3411 2.54874 -16.1755
  7 62.7665 2.72134 16.4593
  8 65.3411 2.54874 -16.1755
  9 39.6101 0.0273151 -0.126167
  10 39.9694 0.0490383 -0.222859
  11 40.4839 0.112857 -0.448428
  12 41.6589 0.0444543 -0.596691
  13 43.1433 0.0787422 -0.958424
  14 44.8454 -0.377567 -0.912524
  15 46.3431 -0.465687 -0.0558577
  16 45.3988 -0.328627 0.868455
  17 43.4023 0.314821 1.47523
  18 42.3247 0.807291 -0.0563853
  19 43.1217 0.391721 -1.37741
  20 45.3365 -0.485214 -1.06009
  21 45.9004 -0.564276 0.248963
  22 45.0816 -0.250938 0.781530
  23 42.8173 0.0276884 0.958622
  24 41.5490 0.164496 0.753164
  25 40.5103 0.129434 0.431684
  26 39.9724 0.0393723 0.204476
  27 39.6299 0.0321374 0.121446
  28 39.5840 0.144711 0.0762408
  29 39.5047 0.298832 0.0879055
  30 39.3100 0.522138 0.0777827
  31 39.2321 0.608075 -0.00755066
  32 39.3339 0.494888 -0.0936412
  33 39.4747 0.325745 -0.0808922
  34 39.5370 0.163585 -0.0845197
  35 39.6101 0.0273151 -0.126167
  36 39.9694 0.0490383 -0.222859
  37 40.4839 0.112857 -0.448428
  38 41.6589 0.0444543 -0.596691
  39 43.1433 0.0787422 -0.958424
  40 44.8454 -0.377567 -0.912524
  41 46.3431 -0.465687 -0.0558577
  42 45.3988 -0.328627 0.868455
  43 43.4023 0.314821 1.47523
  44 42.3247 0.807291 -0.0563853
  45 43.1217 0.391721 -1.37741
  46 45.3365 -0.485214 -1.06009
  47 45.9004 -0.564276 0.248963
  48 45.0816 -0.250938 0.781530
  49 42.8173 0.0276884 0.958622
  50 41.5490 0.164496 0.753164
  51 40.5103 0.129434 0.431684
  52 39.9724 0.0393723 0.204476
  53 39.6299 0.0321374 0.121446
  54 39.5840 0.144711 0.0762408
  55 39.5047 0.298832 0.0879055
  56 39.3100 0.522138 0.0777827
  57 39.2321 0.608075 -0.00755066
  58 39.3339 0.494888 -0.0936412
  59 39.4747 0.325745 -0.0808922
  60 39.5370 0.163585 -0.0845197
  61 87.7344 4.31763 8.91552
  62 79.8235 1.32991 3.25210
  63 75.0667 0.592536 1.23376
  64 74.0629 0.422044 0.258680
  65 75.0419 0.549953 -1.05937
  66 78.6241 1.15148 -2.85122
  67 88.5401 3.76777 -7.66620
  68 11.3457 -13.6786 -13.0869
  69 2.24284 -28.3602 -3.07528
  70 0.731357 -31.6673 -1.35461
  71 0.695950 -31.0416 -0.768443
  72 1.09639 -30.3479 1.44271
  73 2.40686 -27.5020 3.24100
  74 12.4022 -12.8393 14.5515
  75 87.7344 4.31763 8.91552
  76 79.8235 1.32991 3.25210
  77 75.0667 0.592536 1.23376
  78 74.0629 0.422044 0.258680
  79 75.0419 0.549953 -1.05937
  80 78.6241 1.15148 -2.85122
  81 88.5401 3.76777 -7.66620
  82 11.3457 -13.6786 -13.0869
  83 2.24284 -28.3602 -3.07528
  84 0.731357 -31.6673 -1.35461
  85 0.695950 -31.0416 -0.768443
  86 1.09639 -30.3479 1.44271
  87 2.40686 -27.5020 3.24100
  88 12.4022 -12.8393 14.5515
  89 36.0877 2.10344 -0.553110
  90 36.0877 2.10344 -0.553110
  91 32.9190 0.445882 4.90400
  92 31.6103 -0.211799 -5.81894
  93 32.9190 0.445882 4.90400
  94 31.6103 -0.211799 -5.81894
  95 18.3064 0.352496 2.30669
  96 18.3064 0.352496 2.30669
  97 48.7628 3.10338 -0.895609
  98 49.8762 1.69933 1.86359
  99 48.7628 3.10338 -0.895609
  100 49.8762 1.69933 1.86359
  101 38.8861 0.967132 0.570230
  102 38.8861 0.967132 0.570230
  103 46.8735 -2.66200 -0.188153
  104 46.8735 -2.66200 -0.188153
  105 38.9407 1.00950 -0.702316
  106 38.9407 1.00950 -0.702316
  107 46.2167 -5.63812 -4.95172
  108 46.2167 -5.63812 -4.95172
  109 32.0515 -6.60789 12.5999
  110 32.0515 -6.60789 12.5999
  111 21.4020 -3.94584 -10.0982
  112 21.4020 -3.94584 -10.0982
  113 39.1223 0.678486 2.37046
  114 39.1223 0.678486 2.37046
  115 40.6369 0.298061 -2.25473
  116 40.6369 0.298061 -2.25473
  117 55.5790 3.57164 0.102946
  118 59.7148 3.93728 0.268675
  119 55.5790 3.57164 0.102946
  120 59.7148 3.93728 0.268675
  121 58.3782 4.82836 -1.16567
  122 58.3782 4.82836 -1.16567
  123 6.20658 -10.5521 -3.16877
  124 6.20658 -10.5521 -3.16877
  125 50.3919 -6.31005 5.17824
  126 50.3919 -6.31005 5.17824
  127 42.0841 -0.996386 2.58379
  128 42.0841 -0.996386 2.58379
  129 9.44627 -9.14936 7.35588
  130 9.44627 -9.14936 7.35588
  131 38.9466 0.810205 -0.0366514
  132 38.9466 0.810205 -0.0366514
  133 42.0374 -1.93502 -3.26709
  134 42.0374 -1.93502 -3.26709
  135 39.6243 0.330832 0.417691
  136 39.6243 0.330832 0.417691
  137 39.6668 0.290251 -0.390433
  138 39.6668 0.290251 -0.390433
  139 40.1258 0.570618 -1.21867
  140 40.1258 0.570618 -1.21867
  141 39.9269 0.554072 1.10148
  142 39.9269 0.554072 1.10148
  143 38.1020 1.34143 -0.0435756
  144 38.1020 1.34143 -0.0435756
  145 31.5755 2.11755 -0.248252
  146 31.5755 2.11755 -0.248252
  147 46.5779 -1.67257 0.927757
  148 46.5779 -1.67257 0.927757
  149 53.6481 -2.10767 -1.56298
  150 53.6481 -2.10767 -1.56298
  151 41.1243 -4.53186 6.31169
  152 41.1243 -4.53186 6.31169
  153 31.0608 -8.45786 -13.9096
  154 31.0608 -8.45786 -13.9096
  155 36.2040 1.50497 2.24986
  156 36.2040 1.50497 2.24986
  157 47.3540 -0.329775 -1.99586
  158 47.3540 -0.329775 -1.99586
  159 65.5491 5.07356 3.41324
  160 65.5491 5.07356 3.41324
  161 32.3774 -8.97542 16.2052
  162 32.3774 -8.97542 16.2052
  163 67.2242 2.30577 -0.743007
  164 67.2242 2.30577 -0.743007
  165 37.9448 1.33509 1.06749
  166 37.9448 1.33509 1.06749
  167 35.9943 1.24077 -3.26808
  168 35.9943 1.24077 -3.26808
  169 44.6490 1.30916 1.14079
  170 44.6490 1.30916 1.14079
  171 37.5680 1.58831 -1.20652
  172 37.5680 1.58831 -1.20652
  173 39.2054 0.652182 0.182521
  174 39.2054 0.652182 0.182521
  175 39.9179 0.316523 -0.659191
  176 39.9179 0.316523 -0.659191
  177 62.7699 4.58738 -3.15169
  178 62.7699 4.58738 -3.15169
  179 39.2419 0.633982 -0.220799
  180 39.2419 0.633982 -0.220799
  181 28.5492 2.08198 -1.68187
  182 28.5492 2.08198 -1.68187
  183 52.5509 3.83988 0.582293
  184 52.5509 3.83988 0.582293
  185 10.4264 -8.99347 -9.52103
  186 10.4264 -8.99347 -9.52103
  187 28.2716 -0.340234 7.05457
  188 28.2716 -0.340234 7.05457
  189 38.3660 -6.11148 -9.77112
  190 38.3660 -6.11148 -9.77112
  191 45.3012 -1.22349 0.438696
  192 45.3012 -1.22349 0.438696
  193 42.3348 -0.124115 1.63475
  194 42.3348 -0.124115 1.63475
  195 58.2274 1.33903 2.85818
  196 58.2274 1.33903 2.85818
  197 23.3822 0.675449 -4.33147
  198 23.3822 0.675449 -4.33147
  199 66.5264 3.04506 1.67172
  200 66.5264 3.04506 1.67172
  201 43.1468 -0.506017 -1.67757
  202 43.1468 -0.506017 -1.67757
  203 39.9831 0.226820 0.608690
  204 39.9831 0.226820 0.608690
  205 44.9547 -1.72846 -0.746999
  206 44.9547 -1.72846 -0.746999
  207 49.3305 -2.53997 0.0312211
  208 49.3305 -2.53997 0.0312211
  209 3.03455 -17.9364 1.36079
  210 3.03455 -17.9364 1.36079
  211 41.3119 0.237833 -1.47009
  212 41.3119 0.237833 -1.47009
  213 40.9449 0.336411 1.29276
  214 40.9449 0.336411 1.29276
  215 39.4103 -3.58624 -6.27257
  216 39.4103 -3.58624 -6.27257
  217 46.0759 -0.974525 -1.25150
  218 46.0759 -0.974525 -1.25150
  219 37.4504 1.37693 -2.25215
  220 37.4504 1.37693 -2.25215
  221 10.3123 -13.2087 10.3380
  222 10.3123 -13.2087 10.3380
  223 46.6173 0.152148 1.86149
  224 46.6173 0.152148 1.86149
  225 45.1119 1.10776 -1.52837
  226 45.1119 1.10776 -1.52837
  227 65.6787 3.94295 -2.78565
  228 65.6787 3.94295 -2.78565
  229 49.4821 -1.90273 -1.17448
  230 49.4821 -1.90273 -1.17448
  231 54.5719 -2.97221 -8.83731
  232 54.5719 -2.97221 -8.83731
  233 39.4944 -1.77051 4.88538
  234 39.4944 -1.77051 4.88538
  235 38.5525 1.12356 0.182883
  236 38.5525 1.12356 0.182883
  237 20.2125 -3.08394 8.95949
  238 20.2125 -3.08394 8.95949
  239 52.2329 -4.87998 10.4868
  240 52.2329 -4.87998 10.4868
  241 13.5427 -1.99607 -4.39462
  242 13.5427 -1.99607 -4.39462
  243 45.9904 -3.41854 -2.01345
  244 45.9904 -3.41854 -2.01345
  245 37.0407 1.70542 1.31445
  246 37.0407 1.70542 1.31445
  247 1.39157 -23.1301 -1.08338
  248 1.39157 -23.1301 -1.08338
  249 2.57439 -20.5365 3.61200
  250 2.57439 -20.5365 3.61200
  251 37.8120 0.270699 3.56409
  252 37.8120 0.270699 3.56409
  253 39.5774 0.154233 0.152615
  254 39.5774 0.154233 0.152615
  255 39.2009 0.658402 0.0286186
  256 39.2009 0.658402 0.0286186
  257 36.7258 -0.449399 -4.69694
  258 36.7258 -0.449399 -4.69694
  259 39.6077 0.139811 -0.161578
  260 39.6077 0.139811 -0.161578
  261 44.0760 -3.07086 2.80965
  262 44.0760 -3.07086 2.80965
  263 40.7546 0.151222 -0.734843
  264 40.7546 0.151222 -0.734843
  265 31.3487 -2.65471 -8.60265
  266 31.3487 -2.65471 -8.60265
  267 54.0016 4.10910 -0.430598
  268 54.0016 4.10910 -0.430598
  269 39.1483 0.895866 -1.85757
  270 39.1483 0.895866 -1.85757
  271 38.9788 0.839058 -0.382943
  272 38.9788 0.839058 -0.382943
  273 32.8656 1.60453 -3.25141
  274 32.8656 1.60453 -3.25141
  275 9.77595 -4.15943 2.49521
  276 9.77595 -4.15943 2.49521
  277 42.2322 -6.90095 8.68733
  278 42.2322 -6.90095 8.68733
  279 39.4387 0.605540 0.745900
  280 39.4387 0.605540 0.745900
  281 59.2475 4.23926 -0.783630
  282 59.2475 4.23926 -0.783630
  283 71.9337 5.57935 7.86449
  284 71.9337 5.57935 7.86449
  285 47.4697 -5.01544 2.63099
  286 47.4697 -5.01544 2.63099
  287 33.5283 1.69204 2.40152
  288 33.5283 1.69204 2.40152
  289 43.5834 -8.54185 11.4262
  290 43.5834 -8.54185 11.4262
  291 44.6117 -0.505388 1.06497
  292 44.6117 -0.505388 1.06497
  293 39.4151 0.399489 0.207592
  294 39.4151 0.399489 0.207592
  295 38.8017 1.09546 -1.20071
  296 38.8017 1.09546 -1.20071
  297 39.2127 0.647643 -0.0569684
  298 39.2127 0.647643 -0.0569684
  299 39.8430 0.112953 -0.289918
  300 39.8430 0.112953 -0.289918
  301 40.7088 0.210354 0.737766
  302 40.7088 0.210354 0.737766
  303 38.5661 1.11726 -0.311021
  304 38.5661 1.11726 -0.311021
  305 8.87618 -15.4323 -9.76911
  306 8.87618 -15.4323 -9.76911
  307 26.0659 1.66884 2.20059
  308 26.0659 1.66884 2.20059
  309 39.4678 0.332559 -0.199879
  310 39.4678 0.332559 -0.199879
  311 34.4900 2.01750 -1.61122
  312 34.4900 2.01750 -1.61122
  313 34.5734 2.20076 0.619528
  314 34.5734 2.20076 0.619528
  315 39.3728 0.582284 -0.530911
  316 39.3728 0.582284 -0.530911
  317 53.3036 2.59680 0.300432
  318 53.3036 2.59680 0.300432
  319 39.0489 0.970843 1.63729
  320 39.0489 0.970843 1.63729
  321 50.1710 1.47004 -1.69262
  322 50.1710 1.47004 -1.69262
  323 75.9295 2.19284 4.96497
  324 75.9295 2.19284 4.96497
  325 38.8856 1.00585 1.04058
  326 38.8856 1.00585 1.04058
  327 38.2149 1.32898 0.544319
  328 38.2149 1.32898 0.544319
  329 30.4388 -7.52283 -15.7635
  330 30.4388 -7.52283 -15.7635
  331 39.8645 0.102241 0.283752
  332 39.8645 0.102241 0.283752
  333 38.9352 0.846090 0.285904
  334 38.9352 0.846090 0.285904
  335 37.3900 1.71401 0.0622189
  336 37.3900 1.71401 0.0622189
  337 19.2405 -6.90258 12.8520
  338 19.2405 -6.90258 12.8520
  339 48.4236 3.13979 0.296847
  340 48.4236 3.13979 0.296847
  341 2.81895 -20.1337 -4.24762
  342 2.81895 -20.1337 -4.24762
  343 29.7790 1.88299 1.97735
  344 29.7790 1.88299 1.97735
  345 71.7620 1.03135 0.727352
  346 71.7620 1.03135 0.727352
  347 74.8134 3.69466 -5.06461
  348 74.8134 3.69466 -5.06461
  349 34.0779 -3.90433 9.62124
  350 35.4767 -2.01909 7.18970
  351 34.0779 -3.90433 9.62124
  352 35.4767 -2.01909 7.18970
  353 72.7651 1.87977 2.64941
  354 72.7651 1.87977 2.64941
  355 40.3870 -0.0415962 2.78287
  356 40.3870 -0.0415962 2.78287
  357 48.4405 -6.51222 -6.55767
  358 48.4405 -6.51222 -6.55767
  359 45.4697 -0.408494 1.48575
  360 45.4697 -0.408494 1.48575
  361 31.2855 -7.46220 17.3542
  362 31.2855 -7.46220 17.3542
  363 53.3194 4.29381 -0.153753
  364 53.3194 4.29381 -0.153753
  365 72.8834 0.704697 -0.561270
  366 72.8834 0.704697 -0.561270
  367 43.1762 0.0405406 -1.37400
  368 43.1762 0.0405406 -1.37400
  369 38.2186 1.41146 -0.649899
  370 38.2186 1.41146 -0.649899
  371 60.0116 4.64354 1.25930
  372 60.0116 4.64354 1.25930
  373 45.3037 1.86470 -0.322438
  374 45.3037 1.86470 -0.322438
  375 41.5388 0.169374 -0.902122
  376 41.5388 0.169374 -0.902122
  377 10.9205 -5.75358 -7.30812
  378 10.9205 -5.75358 -7.30812
  379 45.9904 -0.818056 0.481269
  380 45.9904 -0.818056 0.481269
  381 39.1468 -0.0467720 -3.26927
  382 39.1468 -0.0467720 -3.26927
  383 45.0672 -0.106575 -1.76056
  384 45.0672 -0.106575 -1.76056
  385 73.0875 1.32885 -2.20831
  386 73.0875 1.32885 -2.20831
  387 39.2608 0.624201 0.420428
  388 39.2608 0.624201 0.420428
  389 48.0059 2.27946 1.54732
  390 48.0059 2.27946 1.54732
  391 52.2794 -1.29132 0.0318549
  392 52.2794 -1.29132 0.0318549
  393 39.4222 0.732133 -0.929085
  394 39.4222 0.732133 -0.929085
  395 77.3649 6.47773 -9.19323
  396 77.3649 6.47773 -9.19323
  397 45.4559 -0.638959 -0.417306
  398 45.4559 -0.638959 -0.417306
</Section>

newXOutput 13

<Section columns = "stress_xx | stress_yy | stress_xy">
  1 43.0757 0.0413520 -0.0525760
  2 43.0925 0.0519298 0.0709988
  3 43.0757 0.0413520 -0.0525760
  4 43.0925 0.0519298 0.0709988
  5 68.4207 2.98365 17.9568
  6 71.2255 2.79621 -17.6474
  7 68.4207 2.98365 17.9568
  8 71.2255 2.79621 -17.6474
  9 43.1931 0.0297842 -0.137458
  10 43.5845 0.0534627 -0.242821
  11 44.1451 0.123019 -0.488639
  12 45.4252 0.0484302 -0.650266
  13 47.0428 0.0857271 -1.04471
  14 48.8979 -0.411943 -0.995053
  15 50.5311 -0.507945 -0.0615355
  16 49.5044 -0.358341 0.945683
  17 47.3309 0.343600 1.60703
  18 46.1575 0.880668 -0.0614391
  19 47.0253 0.427265 -1.50056
  20 49.4367 -0.529131 -1.15434
  21 50.0487 -0.615496 0.272216
  22 49.1555 -0.273764 0.852273
  23 46.6877 0.0300230 1.04498
  24 45.3056 0.179271 0.820817
  25 44.1738 0.141089 0.470385
  26 43.5879 0.0429248 0.222787
  27 43.2148 0.0350443 0.132319
  28 43.1648 0.157763 0.0830582
  29 43.0784 0.325763 0.0957743
  30 42.8664 0.569159 0.0847503
  31 42.7815 0.662825 -0.00822714
  32 42.8923 0.539461 -0.102026
  33 43.0457 0.355102 -0.0881224
  34 43.1136 0.178346 -0.0920869
  35 43.1931 0.0297842 -0.137458
  36 43.5845 0.0534627 -0.242821
  37 44.1451 0.123019 -0.488639
  38 45.4252 0.0484302 -0.650266
  39 47.0428 0.0857271 -1.04471
  40 48.8979 -0.411943 -0.995053
  41 50.5311 -0.507945 -0.0615355
  42 49.5044 -0.358341 0.945683
  43 47.3309 0.343600 1.60703
  44 46.1575 0.880668 -0.0614391
  45 47.0253 0.427265 -1.50056
  46 49.4367 -0.529131 -1.15434
  47 50.0487 -0.615496 0.272216
  48 49.1555 -0.273764 0.852273
  49 46.6877 0.0300230 1.04498
  50 45.3056 0.179271 0.820817
  51 44.1738 0.141089 0.470385
  52 43.5879 0.0429248 0.222787
  53 43.2148 0.0350443 0.132319
  54 43.1648 0.157763 0.0830582
  55 43.0784 0.325763 0.0957743
  56 42.8664 0.569159 0.0847503
  57 42.7815 0.662825 -0.00822714
  58 42.8923 0.539461 -0.102026
  59 43.0457 0.355102 -0.0881224
  60 43.1136 0.178346 -0.0920869
  61 95.6264 4.70917 9.72121
  62 87.0056 1.44925 3.54472
  63 81.8235 0.645245 1.34435
  64 80.7297 0.459654 0.281652
  65 81.7962 0.599070 -1.15424
  66 85.6993 1.25468 -3.10740
  67 96.5048 4.10933 -8.35919
  68 12.3712 -14.9011 -14.2820
  69 2.44553 -30.9301 -3.35952
  70 0.796262 -34.5441 -1.47962
  71 0.757737 -33.8623 -0.838268
  72 1.19469 -33.1037 1.57594
  73 2.62471 -29.9939 3.54079
  74 13.5220 -13.9857 15.8798
  75 95.6264 4.70917 9.72121
  76 87.0056 1.44925 3.54472
  77 81.8235 0.645245 1.34435
  78 80.7297 0.459654 0.281652
  79 81.7962 0.599070 -1.15424
  80 85.6993 1.25468 -3.10740
  81 96.5048 4.10933 -8.35919
  82 12.3712 -14.9011 -14.2820
  83 2.44553 -30.9301 -3.35952
  84 0.796262 -34.5441 -1.47962
  85 0.757737 -33.8623 -0.838268
  86 1.19469 -33.1037 1.57594
  87 2.62471 -29.9939 3.54079
  88 13.5220 -13.9857 15.8798
  89 39.3551 2.29340 -0.602990
  90 39.3551 2.29340 -0.602990
  91 35.8999 0.486410 5.34737
  92 34.4729 -0.230761 -6.34546
  93 35.8999 0.486410 5.34737
  94 34.4729 -0.230761 -6.34546
  95 19.9685 0.386062 2.51581
  96 19.9685 0.386062 2.51581
  97 53.1733 3.38448 -0.974771
  98 54.3849 1.85423 2.02757
  99 53.1733 3.38448 -0.974771
  100 54.3849 1.85423 2.02757
  101 42.4046 1.05430 0.621434
  102 42.4046 1.05430 0.621434
  103 51.1101 -2.90265 -0.201948
  104 51.1101 -2.90265 -0.201948
  105 42.4640 1.10050 -0.765397
  106 42.4640 1.10050 -0.765397
  107 50.3918 -6.14823 -5.40226
  108 50.3918 -6.14823 -5.40226
  109 34.9507 -7.20631 13.7432
  110 34.9507 -7.20631 13.7432
  111 23.3412 -4.30223 -11.0152
  112 23.3412 -4.30223 -11.0152
  113 42.6618 0.739596 2.58423
  114 42.6618 0.739596 2.58423
  115 44.3123 0.324730 -2.45821
  116 44.3123 0.324730 -2.45821
  117 60.6001 3.89632 0.118176
  118 65.1074 4.29191 0.293934
  119 60.6001 3.89632 0.118176
  120 65.1074 4.29191 0.293934
  121 63.6513 5.26569 -1.27580
  122 63.6513 5.26569 -1.27580
  123 6.76960 -11.5048 -3.45830
  124 6.76960 -11.5048 -3.45830
  125 54.9417 -6.87915 5.65178
  126 54.9417 -6.87915 5.65178
  127 45.8894 -1.08671 2.81790
  128 45.8894 -1.08671 2.81790
  129 10.3033 -9.97486 8.02705
  130 10.3033 -9.97486 8.02705
  131 42.4705 0.883197 -0.0399356
  132 42.4705 0.883197 -0.0399356
  133 45.8382 -2.11027 -3.56346
  134 45.8382 -2.11027 -3.56346
  135 43.2087 0.360649 0.455138
  136 43.2087 0.360649 0.455138
  137 43.2550 0.316418 -0.425428
  138 43.2550 0.316418 -0.425428
  139 43.7551 0.621994 -1.32824
  140 43.7551 0.621994 -1.32824
  141 43.5385 0.603981 1.20047
  142 43.5385 0.603981 1.20047
  143 41.5503 1.46239 -0.0475079
  144 41.5503 1.46239 -0.0475079
  145 34.4367 2.30916 -0.270735
  146 34.4367 2.30916 -0.270735
  147 50.7885 -1.82362 1.00881
  148 50.7885 -1.82362 1.00881
  149 58.4923 -2.29508 -1.71110
  150 58.4923 -2.29508 -1.71110
  151 44.8417 -4.94215 6.88395
  152 44.8417 -4.94215 6.88395
  153 33.8688 -9.22164 -15.1748
  154 33.8688 -9.22164 -15.1748
  155 39.4815 1.64095 2.45286
  156 39.4815 1.64095 2.45286
  157 51.6352 -0.359089 -2.17283
  158 51.6352 -0.359089 -2.17283
  159 71.4634 5.53301 3.72563
  160 71.4634 5.53301 3.72563
  161 35.3040 -9.78697 17.6777
  162 35.3040 -9.78697 17.6777
  163 73.2860 2.51257 -0.810373
  164 73.2860 2.51257 -0.810373
  165 41.3789 1.45550 1.16355
  166 41.3789 1.45550 1.16355
  167 39.2526 1.35291 -3.56325
  168 39.2526 1.35291 -3.56325
  169 48.6899 1.42811 1.24260
  170 48.6899 1.42811 1.24260
  171 40.9683 1.73162 -1.31516
  172 40.9683 1.73162 -1.31516
  173 42.7524 0.710928 0.198885
  174 42.7524 0.710928 0.198885
  175 43.5285 0.345032 -0.718341
  176 43.5285 0.345032 -0.718341
  177 68.4346 5.00574 -3.44348
  178 68.4346 5.00574 -3.44348
  179 42.7921 0.691097 -0.240592
  180 42.7921 0.691097 -0.240592
  181 31.1372 2.27079 -1.83401
  182 31.1372 2.27079 -1.83401
  183 57.3013 4.18751 0.631593
  184 57.3013 4.18751 0.631593
  185 11.3717 -9.80480 -10.3894
  186 11.3717 -9.80480 -10.3894
  187 30.8328 -0.370569 7.69325
  188 30.8328 -0.370569 7.69325
  189 41.8342 -6.66484 -10.6576
  190 41.8342 -6.66484 -10.6576
  191 49.3963 -1.33434 0.479868
  192 49.3963 -1.33434 0.479868
  193 46.1624 -0.135565 1.78238
  194 46.1624 -0.135565 1.78238
  195 63.4836 1.46446 3.12418
  196 63.4836 1.46446 3.12418
  197 25.5028 0.737599 -4.72394
  198 25.5028 0.737599 -4.72394
  199 72.5269 3.31877 1.82367
  200 72.5269 3.31877 1.82367
  201 47.0475 -0.552039 -1.82956
  202 47.0475 -0.552039 -1.82956
  203 43.5996 0.247240 0.663298
  204 43.5996 0.247240 0.663298
  205 49.0183 -1.88508 -0.816192
  206 49.0183 -1.88508 -0.816192
  207 53.7876 -2.76876 0.0295631
  208 53.7876 -2.76876 0.0295631
  209 3.30920 -19.5605 1.48556
  210 3.30920 -19.5605 1.48556
  211 45.0475 0.259091 -1.60251
  212 45.0475 0.259091 -1.60251
  213 44.6476 0.366662 1.40911
  214 44.6476 0.366662 1.40911
  215 42.9740 -3.91090 -6.84107
  216 42.9740 -3.91090 -6.84107
  217 50.2419 -1.06268 -1.36219
  218 50.2419 -1.06268 -1.36219
  219 40.8399 1.50123 -2.45533
  220 40.8399 1.50123 -2.45533
  221 11.2459 -14.4005 11.2821
  222 11.2459 -14.4005 11.2821
  223 50.8332 0.166585 2.02681
  224 50.8332 0.166585 2.02681
  225 49.1940 1.20844 -1.66460
  226 49.1940 1.20844 -1.66460
  227 71.6041 4.29836 -3.03985
  228 71.6041 4.29836 -3.03985
  229 53.9532 -2.07385 -1.27611
  230 53.9532 -2.07385 -1.27611
  231 59.4967 -3.23427 -9.64493
  232 59.4967 -3.23427 -9.64493
  233 43.0662 -1.93074 5.32753
  234 43.0662 -1.93074 5.32753
  235 42.0412 1.22483 0.199312
  236 42.0412 1.22483 0.199312
  237 22.0447 -3.36212 9.77289
  238 22.0447 -3.36212 9.77289
  239 56.9465 -5.31604 11.4430
  240 56.9465 -5.31604 11.4430
  241 14.7725 -2.17441 -4.79403
  242 14.7725 -2.17441 -4.79403
  243 50.1464 -3.72786 -2.19801
  244 50.1464 -3.72786 -2.19801
  245 40.3936 1.85938 1.43289
  246 40.3936 1.85938 1.43289
  247 1.51677 -25.2272 -1.18300
  248 1.51677 -25.2272 -1.18300
  249 2.80717 -22.3960 3.94389
  250 2.80717 -22.3960 3.94389
  251 41.2335 0.295109 3.88608
  252 41.2335 0.295109 3.88608
  253 43.1576 0.168144 0.166281
  254 43.1576 0.168144 0.166281
  255 42.7475 0.717691 0.0311856
  256 42.7475 0.717691 0.0311856
  257 40.0492 -0.490110 -5.12174
  258 40.0492 -0.490110 -5.12174
  259 43.1905 0.152429 -0.176047
  260 43.1905 0.152429 -0.176047
  261 48.0600 -3.34880 3.06544
  262 48.0600 -3.34880 3.06544
  263 44.4400 0.164811 -0.800815
  264 44.4400 0.164811 -0.800815
  265 34.1864 -2.89497 -9.38206
  266 34.1864 -2.89497 -9.38206
  267 58.8823 4.48086 -0.466216
  268 58.8823 4.48086 -0.466216
  269 42.6901 0.976597 -2.02489
  270 42.6901 0.976597 -2.02489
  271 42.5055 0.914666 -0.417303
  272 42.5055 0.914666 -0.417303
  273 35.8425 1.74978 -3.54524
  274 35.8425 1.74978 -3.54524
  275 10.6639 -4.53280 2.72242
  276 10.6639 -4.53280 2.72242
  277 46.0481 -7.52570 9.47584
  278 46.0481 -7.52570 9.47584
  279 43.0066 0.660106 0.812855
  280 43.0066 0.660106 0.812855
  281 64.5985 4.62150 -0.856246
  282 64.5985 4.62150 -0.856246
  283 78.4173 6.08914 8.58078
  284 78.4173 6.08914 8.58078
  285 51.7581 -5.46884 2.87254
  286 51.7581 -5.46884 2.87254
  287 36.5651 1.84512 2.61835
  288 36.5651 1.84512 2.61835
  289 47.5196 -9.31476 12.4637
  290 47.5196 -9.31476 12.4637
  291 48.6440 -0.551292 1.16169
  292 48.6440 -0.551292 1.16169
  293 42.9808 0.435481 0.226193
  294 42.9808 0.435481 0.226193
  295 42.3125 1.19423 -1.30869
  296 42.3125 1.19423 -1.30869
  297 42.7603 0.705966 -0.0620740
  298 42.7603 0.705966 -0.0620740
  299 43.4469 0.123136 -0.315897
  300 43.4469 0.123136 -0.315897
  301 44.3903 0.229277 0.804000
  302 44.3903 0.229277 0.804000
  303 42.0560 1.21797 -0.338961
  304 42.0560 1.21797 -0.338961
  305 9.67952 -16.8245 -10.6620
  306 9.67952 -16.8245 -10.6620
  307 28.4296 1.82055 2.39965
  308 28.4296 1.82055 2.39965
  309 43.0382 0.362530 -0.217785
  310 43.0382 0.362530 -0.217785
  311 37.6135 2.19984 -1.75668
  312 37.6135 2.19984 -1.75668
  313 37.7046 2.39966 0.675390
  314 37.7046 2.39966 0.675390
  315 42.9348 0.634754 -0.578542
  316 42.9348 0.634754 -0.578542
  317 58.1197 2.83384 0.321640
  318 58.1197 2.83384 0.321640
  319 42.5818 1.05837 1.78466
  320 42.5818 1.05837 1.78466
  321 54.7060 1.60413 -1.84124
  322 54.7060 1.60413 -1.84124
  323 82.7684 2.38987 5.41413
  324 82.7684 2.38987 5.41413
  325 42.4040 1.09652 1.13411
  326 42.4040 1.09652 1.13411
  327 41.6733 1.44881 0.593245
  328 41.6733 1.44881 0.593245
  329 33.1882 -8.19117 -17.2004
  330 33.1882 -8.19117 -17.2004
  331 43.4704 0.111457 0.309177
  332 43.4704 0.111457 0.309177
  333 42.4581 0.922325 0.311559
  334 42.4581 0.922325 0.311559
  335 40.7744 1.86867 0.0678117
  336 40.7744 1.86867 0.0678117
  337 20.9836 -7.52664 14.0210
  338 20.9836 -7.52664 14.0210
  339 52.8039 3.42415 0.322916
  340 52.8039 3.42415 0.322916
  341 3.07352 -21.9565 -4.63708
  342 3.07352 -21.9565 -4.63708
  343 32.4781 2.05362 2.15600
  344 32.4781 2.05362 2.15600
  345 78.2262 1.12359 0.792618
  346 78.2262 1.12359 0.792618
  347 81.5543 4.02875 -5.52347
  348 81.5543 4.02875 -5.52347
  349 37.1606 -4.25788 10.4930
  350 38.6867 -2.20180 7.84031
  351 37.1606 -4.25788 10.4930
  352 38.6867 -2.20180 7.84031
  353 79.3202 2.04829 2.88840
  354 79.3202 2.04829 2.88840
  355 44.0400 -0.0455403 3.03426
  356 44.0400 -0.0455403 3.03426
  357 52.8143 -7.10054 -7.15515
  358 52.8143 -7.10054 -7.15515
  359 49.5821 -0.445250 1.61809
  360 49.5821 -0.445250 1.61809
  361 34.1095 -8.12576 18.9348
  362 34.1095 -8.12576 18.9348
  363 58.1394 4.68170 -0.167534
  364 58.1394 4.68170 -0.167534
  365 79.4469 0.767641 -0.611798
  366 79.4469 0.767641 -0.611798
  367 47.0790 0.0439710 -1.49796
  368 47.0790 0.0439710 -1.49796
  369 41.6773 1.53875 -0.708339
  370 41.6773 1.53875 -0.708339
  371 65.4309 5.06300 1.37656
  372 65.4309 5.06300 1.37656
  373 49.4036 2.03377 -0.351192
  374 49.4036 2.03377 -0.351192
  375 45.2945 0.184547 -0.983223
  376 45.2945 0.184547 -0.983223
  377 11.9125 -6.27201 -7.97377
  378 11.9125 -6.27201 -7.97377
  379 50.1479 -0.892117 0.523272
  380 50.1479 -0.892117 0.523272
  381 42.6882 -0.0511906 -3.56477
  382 42.6882 -0.0511906 -3.56477
  383 49.1442 -0.116066 -1.91754
  384 49.1442 -0.116066 -1.91754
  385 79.6711 1.44804 -2.40733
  386 79.6711 1.44804 -2.40733
  387 42.8128 0.680439 0.458138
  388 42.8128 0.680439 0.458138
  389 52.3476 2.48637 1.68436
  390 52.3476 2.48637 1.68436
  391 57.0013 -1.40602 0.0406324
  392 57.0013 -1.40602 0.0406324
  393 42.9885 0.798113 -1.01253
  394 42.9885 0.798113 -1.01253
  395 84.3341 7.07070 -10.0297
  396 84.3341 7.07070 -10.0297
  397 49.5641 -0.696980 -0.455743
  398 49.5641 -0.696980 -0.455743
</Section>

newXOutput 14

<Section columns = "stress_xx | stress_yy | stress_xy">
  1 46.6462 0.0447876 -0.0568815
  2 46.6644 0.0562369 0.0768116
  3 46.6462 0.0447876 -0.0568815
  4 46.6644 0.0562369 0.0768116
  5 74.0662 3.24843 19.4544
  6 77.1008 3.04629 -19.1195
  7 74.0662 3.24843 19.4544
  8 77.1008 3.04629 -19.1195
  9 46.7732 0.0322511 -0.148720
  10 47.1966 0.0578816 -0.262733
  11 47.8031 0.133164 -0.528758
  12 49.1881 0.0523953 -0.703731
  13 50.9385 0.0926835 -1.13085
  14 52.9464 -0.446327 -1.07751
  15 54.7150 -0.550191 -0.0673117
  16 53.6064 -0.388028 1.02263
  17 51.2566 0.372405 1.73845
  18 49.9879 0.954041 -0.0664810
  19 50.9260 0.462797 -1.62337
  20 53.5333 -0.573014 -1.24825
  21 54.1930 -0.666703 0.295571
  22 53.2254 -0.296593 0.922964
  23 50.5545 0.0323275 1.13122
  24 49.0587 0.194016 0.888335
  25 47.8343 0.152725 0.508995
  26 47.2004 0.0464729 0.241052
  27 46.7968 0.0379488 0.143165
  28 46.7426 0.170799 0.0898568
  29 46.6492 0.352654 0.103623
  30 46.4199 0.616107 0.0917009
  31 46.3281 0.717487 -0.00890196
  32 46.4479 0.583965 -0.110389
  33 46.6137 0.384416 -0.0953323
  34 46.6871 0.193088 -0.0996348
  35 46.7732 0.0322511 -0.148720
  36 47.1966 0.0578816 -0.262733
  37 47.8031 0.133164 -0.528758
  38 49.1881 0.0523953 -0.703731
  39 50.9385 0.0926835 -1.13085
  40 52.9464 -0.446327 -1.07751
  41 54.7150 -0.550191 -0.0673117
  42 53.6064 -0.388028 1.02263
  43 51.2566 0.372405 1.73845
  44 49.9879 0.954041 -0.0664810
  45 50.9260 0.462797 -1.62337
  46 53.5333 -0.573014 -1.24825
  47 54.1930 -0.666703 0.295571
  48 53.2254 -0.296593 0.922964
  49 50.5545 0.0323275 1.13122
  50 49.0587 0.194016 0.888335
  51 47.8343 0.152725 0.508995
  52 47.2004 0.0464729 0.241052
  53 46.7968 0.0379488 0.143165
  54 46.7426 0.170799 0.0898568
  55 46.6492 0.352654 0.103623
  56 46.4199 0.616107 0.0917009
  57 46.3281 0.717487 -0.00890196
  58 46.4479 0.583965 -0.110389
  59 46.6137 0.384416 -0.0953323
  60 46.6871 0.193088 -0.0996348
  61 103.504 5.10055 10.5261
  62 94.1754 1.56835 3.83685
  63 88.5692 0.697763 1.45468
  64 87.3857 0.497139 0.304536
  65 88.5393 0.648043 -1.24888
  66 92.7625 1.35763 -3.36308
  67 104.456 4.45072 -9.05153
  68 13.3958 -16.1201 -15.4781
  69 2.64803 -33.4985 -3.64454
  70 0.860906 -37.4207 -1.60495
  71 0.819280 -36.6828 -0.908086
  72 1.29276 -35.8590 1.70952
  73 2.84239 -32.4843 3.84143
  74 14.6405 -15.1286 17.2090
  75 103.504 5.10055 10.5261
  76 94.1754 1.56835 3.83685
  77 88.5692 0.697763 1.45468
  78 87.3857 0.497139 0.304536
  79 88.5393 0.648043 -1.24888
  80 92.7625 1.35763 -3.36308
  81 104.456 4.45072 -9.05153
  82 13.3958 -16.1201 -15.4781
  83 2.64803 -33.4985 -3.64454
  84 0.860906 -37.4207 -1.60495
  85 0.819280 -36.6828 -0.908086
  86 1.29276 -35.8590 1.70952
  87 2.84239 -32.4843 3.84143
  88 14.6405 -15.1286 17.2090
  89 42.6203 2.48314 -0.652803
  90 42.6203 2.48314 -0.652803
  91 38.8789 0.526936 5.79034
  92 37.3338 -0.249676 -6.87157
  93 38.8789 0.526936 5.79034
  94 37.3338 -0.249676 -6.87157
  95 21.6301 0.419878 2.72484
  96 21.6301 0.419878 2.72484
  97 57.5800 3.66541 -1.05356
  98 58.8895 2.00920 2.19065
  99 57.5800 3.66541 -1.05356
  100 58.8895 2.00920 2.19065
  101 45.9203 1.14134 0.672533
  102 45.9203 1.14134 0.672533
  103 55.3425 -3.14308 -0.215198
  104 55.3425 -3.14308 -0.215198
  105 45.9845 1.19137 -0.828352
  106 45.9845 1.19137 -0.828352
  107 54.5625 -6.65793 -5.85287
  108 54.5625 -6.65793 -5.85287
  109 37.8475 -7.80436 14.8860
  110 37.8475 -7.80436 14.8860
  111 25.2793 -4.65825 -11.9321
  112 25.2793 -4.65825 -11.9321
  113 46.1984 0.800612 2.79772
  114 46.1984 0.800612 2.79772
  115 47.9845 0.351329 -2.66145
  116 47.9845 0.351329 -2.66145
  117 65.6160 4.22101 0.134371
  118 70.4940 4.64600 0.319330
  119 65.6160 4.22101 0.134371
  120 70.4940 4.64600 0.319330
  121 68.9187 5.70276 -1.38661
  122 68.9187 5.70276 -1.38661
  123 7.33242 -12.4563 -3.74807
  124 7.33242 -12.4563 -3.74807
  125 59.4862 -7.44749 6.12578
  126 59.4862 -7.44749 6.12578
  127 49.6914 -1.17699 3.05188
  128 49.6914 -1.17699 3.05188
  129 11.1601 -10.7993 8.69862
  130 11.1601 -10.7993 8.69862
  131 45.9916 0.956080 -0.0432119
  132 45.9916 0.956080 -0.0432119
  133 49.6356 -2.28541 -3.85972
  134 49.6356 -2.28541 -3.85972
  135 46.7902 0.390422 0.492498
  136 46.7902 0.390422 0.492498
  137 46.8401 0.342549 -0.460341
  138 46.8401 0.342549 -0.460341
  139 47.3814 0.673288 -1.43761
  140 47.3814 0.673288 -1.43761
  141 47.1470 0.653815 1.29927
  142 47.1470 0.653815 1.29927
  143 44.9959 1.58319 -0.0514354
  144 44.9959 1.58319 -0.0514354
  145 37.2964 2.50061 -0.293203
  146 37.2964 2.50061 -0.293203
  147 54.9952 -1.97451 1.08931
  148 54.9952 -1.97451 1.08931
  149 63.3311 -2.48179 -1.86020
  150 63.3311 -2.48179 -1.86020
  151 48.5556 -5.35215 7.45596
  152 48.5556 -5.35215 7.45596
  153 36.6742 -9.98457 -16.4400
  154 36.6742 -9.98457 -16.4400
  155 42.7567 1.77678 2.65560
  156 42.7567 1.77678 2.65560
  157 55.9125 -0.388292 -2.34907
  158 55.9125 -0.388292 -2.34907
  159 77.3702 5.99217 4.03835
  160 77.3702 5.99217 4.03835
  161 38.2279 -10.5978 19.1501
  162 38.2279 -10.5978 19.1501
  163 79.3396 2.71891 -0.877708
  164 79.3396 2.71891 -0.877708
  165 44.8105 1.57576 1.25944
  166 44.8105 1.57576 1.25944
  167 42.5087 1.46495 -3.85809
  168 42.5087 1.46495 -3.85809
  169 52.7278 1.54705 1.34410
  170 52.7278 1.54705 1.34410
  171 44.3661 1.87475 -1.42362
  172 44.3661 1.87475 -1.42362
  173 46.2966 0.769584 0.215213
  174 46.2966 0.769584 0.215213
  175 47.1361 0.373498 -0.777362
  176 47.1361 0.373498 -0.777362
  177 74.0923 5.42432 -3.73613
  178 74.0923 5.42432 -3.73613
  179 46.3395 0.748126 -0.260338
  180 46.3395 0.748126 -0.260338
  181 33.7240 2.45953 -1.98602
  182 33.7240 2.45953 -1.98602
  183 62.0472 4.53491 0.680296
  184 62.0472 4.53491 0.680296
  185 12.3166 -10.6151 -11.2582
  186 12.3166 -10.6151 -11.2582
  187 33.3925 -0.400807 8.33150
  188 33.3925 -0.400807 8.33150
  189 45.2991 -7.21783 -11.5438
  190 45.2991 -7.21783 -11.5438
  191 53.4875 -1.44513 0.521253
  192 53.4875 -1.44513 0.521253
  193 49.9866 -0.147043 1.92984
  194 49.9866 -0.147043 1.92984
  195 68.7335 1.59049 3.39119
  196 68.7335 1.59049 3.39119
  197 27.6226 0.799871 -5.11620
  198 27.6226 0.799871 -5.11620
  199 78.5195 3.59197 1.97563
  200 78.5195 3.59197 1.97563
  201 50.9446 -0.598065 -1.98145
  202 50.9446 -0.598065 -1.98145
  203 47.2130 0.267628 0.717787
  204 47.2130 0.267628 0.717787
  205 53.0782 -2.04161 -0.885596
  206 53.0782 -2.04161 -0.885596
  207 58.2402 -2.99720 0.0271644
  208 58.2402 -2.99720 0.0271644
  209 3.58365 -21.1836 1.61050
  210 3.58365 -21.1836 1.61050
  211 48.7799 0.280289 -1.73472
  212 48.7799 0.280289 -1.73472
  213 48.3471 0.396859 1.52527
  214 48.3471 0.396859 1.52527
  215 46.5346 -4.23533 -7.40929
  216 46.5346 -4.23533 -7.40929
  217 54.4041 -1.15075 -1.47237
  218 54.4041 -1.15075 -1.47237
  219 44.2269 1.62539 -2.65824
  220 44.2269 1.62539 -2.65824
  221 12.1788 -15.5908 12.2269
  222 12.1788 -15.5908 12.2269
  223 55.0455 0.181122 2.19150
  224 55.0455 0.181122 2.19150
  225 53.2729 1.30913 -1.80038
  226 53.2729 1.30913 -1.80038
  227 77.5220 4.65327 -3.29421
  228 77.5220 4.65327 -3.29421
  229 58.4197 -2.24467 -1.37690
  230 58.4197 -2.24467 -1.37690
  231 64.4154 -3.49499 -10.4532
  232 64.4154 -3.49499 -10.4532
  233 46.6351 -2.09086 5.76935
  234 46.6351 -2.09086 5.76935
  235 45.5272 1.32597 0.215708
  236 45.5272 1.32597 0.215708
  237 23.8760 -3.63994 10.5861
  238 23.8760 -3.63994 10.5861
  239 61.6542 -5.75084 12.3998
  240 61.6542 -5.75084 12.3998
  241 16.0021 -2.35224 -5.19342
  242 16.0021 -2.35224 -5.19342
  243 54.2984 -4.03694 -2.38282
  244 54.2984 -4.03694 -2.38282
  245 43.7441 2.01316 1.55116
  246 43.7441 2.01316 1.55116
  247 1.64175 -27.3232 -1.28280
  248 1.64175 -27.3232 -1.28280
  249 3.03973 -24.2543 4.27638
  250 3.03973 -24.2543 4.27638
  251 44.6523 0.319486 4.20775
  252 44.6523 0.319486 4.20775
  253 46.7348 0.182037 0.179912
  254 46.7348 0.182037 0.179912
  255 46.2913 0.776888 0.0337470
  256 46.2913 0.776888 0.0337470
  257 43.3702 -0.530798 -5.54618
  258 43.3702 -0.530798 -5.54618
  259 46.7704 0.165031 -0.190480
  260 46.7704 0.165031 -0.190480
  261 52.0401 -3.62653 3.32128
  262 52.0401 -3.62653 3.32128
  263 48.1223 0.178374 -0.866651
  264 48.1223 0.178374 -0.866651
  265 37.0220 -3.13506 -10.1610
  266 37.0220 -3.13506 -10.1610
  267 63.7582 4.85232 -0.501256
  268 63.7582 4.85232 -0.501256
  269 46.2292 1.05721 -2.19196
  270 46.2292 1.05721 -2.19196
  271 46.0295 0.990163 -0.451589
  272 46.0295 0.990163 -0.451589
  273 38.8176 1.89493 -3.83877
  274 38.8176 1.89493 -3.83877
  275 11.5518 -4.90539 2.94970
  276 11.5518 -4.90539 2.94970
  277 49.8600 -8.15002 10.2642
  278 49.8600 -8.15002 10.2642
  279 46.5716 0.714591 0.879669
  280 46.5716 0.714591 0.879669
  281 69.9436 5.00321 -0.929085
  282 69.9436 5.00321 -0.929085
  283 84.8916 6.59935 9.29727
  284 84.8916 6.59935 9.29727
  285 56.0420 -5.92182 3.11448
  286 56.0420 -5.92182 3.11448
  287 39.6000 1.99808 2.83493
  288 39.6000 1.99808 2.83493
  289 51.4514 -10.0871 13.5010
  290 51.4514 -10.0871 13.5010
  291 52.6725 -0.597189 1.25839
  292 52.6725 -0.597189 1.25839
  293 46.5436 0.471420 0.244750
  294 46.5436 0.471420 0.244750
  295 45.8206 1.29286 -1.41647
  296 45.8206 1.29286 -1.41647
  297 46.3051 0.764198 -0.0671675
  298 46.3051 0.764198 -0.0671675
  299 47.0477 0.133306 -0.341814
  300 47.0477 0.133306 -0.341814
  301 48.0685 0.248168 0.870097
  302 48.0685 0.248168 0.870097
  303 45.5431 1.31854 -0.366846
  304 45.5431 1.31854 -0.366846
  305 10.4823 -18.2150 -11.5558
  306 10.4823 -18.2150 -11.5558
  307 30.7923 1.97226 2.59855
  308 30.7923 1.97226 2.59855
  309 46.6056 0.392458 -0.235647
  310 46.6056 0.392458 -0.235647
  311 40.7351 2.38201 -1.90196
  312 40.7351 2.38201 -1.90196
  313 40.8337 2.59837 0.731177
  314 40.8337 2.59837 0.731177
  315 46.4938 0.687146 -0.626068
  316 46.4938 0.687146 -0.626068
  317 62.9309 3.07103 0.341844
  318 62.9309 3.07103 0.341844
  319 46.1120 1.14578 1.93178
  320 46.1120 1.14578 1.93178
  321 59.2367 1.73829 -1.98899
  322 59.2367 1.73829 -1.98899
  323 89.5967 2.58651 5.86292
  324 89.5967 2.58651 5.86292
  325 45.9196 1.18707 1.22747
  326 45.9196 1.18707 1.22747
  327 45.1290 1.56849 0.642080
  328 45.1290 1.56849 0.642080
  329 35.9346 -8.85692 -18.6379
  330 35.9346 -8.85692 -18.6379
  331 47.0732 0.120660 0.334540
  332 47.0732 0.120660 0.334540
  333 45.9782 0.998447 0.337159
  334 45.9782 0.998447 0.337159
  335 44.1564 2.02313 0.0733939
  336 44.1564 2.02313 0.0733939
  337 22.7257 -8.15013 15.1902
  338 22.7257 -8.15013 15.1902
  339 57.1805 3.70834 0.348835
  340 57.1805 3.70834 0.348835
  341 3.32780 -23.7780 -5.02708
  342 3.32780 -23.7780 -5.02708
  343 35.1758 2.22416 2.33448
  344 35.1758 2.22416 2.33448
  345 84.6806 1.21558 0.857742
  346 84.6806 1.21558 0.857742
  347 88.2851 4.36255 -5.98208
  348 88.2851 4.36255 -5.98208
  349 40.2409 -4.61121 11.3642
  350 41.8941 -2.38436 8.49043
  351 40.2409 -4.61121 11.3642
  352 41.8941 -2.38436 8.49043
  353 85.8655 2.21642 3.12708
  354 85.8655 2.21642 3.12708
  355 47.6898 -0.0495114 3.28538
  356 47.6898 -0.0495114 3.28538
  357 57.1833 -7.68825 -7.75285
  358 57.1833 -7.68825 -7.75285
  359 53.6910 -0.481943 1.74999
  360 53.6910 -0.481943 1.74999
  361 36.9301 -8.78686 20.5158
  362 36.9301 -8.78686 20.5158
  363 62.9550 5.06918 -0.181283
  364 62.9550 5.06918 -0.181283
  365 86.0001 0.830401 -0.662243
  366 86.0001 0.830401 -0.662243
  367 50.9781 0.0473594 -1.62176
  368 50.9781 0.0473594 -1.62176
  369 45.1333 1.66588 -0.766672
  370 45.1333 1.66588 -0.766672
  371 70.8441 5.48203 1.49427
  372 70.8441 5.48203 1.49427
  373 53.5004 2.20277 -0.379854
  374 53.5004 2.20277 -0.379854
  375 49.0468 0.199684 -1.06417
  376 49.0468 0.199684 -1.06417
  377 12.9043 -6.78967 -8.63962
  378 12.9043 -6.78967 -8.63962
  379 54.3014 -0.966129 0.564988
  380 54.3014 -0.966129 0.564988
  381 46.2268 -0.0556367 -3.85998
  382 46.2268 -0.0556367 -3.85998
  383 53.2179 -0.125523 -2.07402
  384 53.2179 -0.125523 -2.07402
  385 86.2446 1.56696 -2.60605
  386 86.2446 1.56696 -2.60605
  387 46.3619 0.736592 0.495764
  388 46.3619 0.736592 0.495764
  389 56.6855 2.69321 1.82079
  390 56.6855 2.69321 1.82079
  391 61.7181 -1.52027 0.0503783
  392 61.7181 -1.52027 0.0503783
  393 46.5520 0.863998 -1.09580
  394 46.5520 0.863998 -1.09580
  395 91.2928 7.66435 -10.8663
  396 91.2928 7.66435 -10.8663
  397 53.6684 -0.754992 -0.494263
  398 53.6684 -0.754992 -0.494263
</Section>

newXOutput 15

<Section columns = "stress_xx | stress_yy | stress_xy">
  1 50.2138 0.0482215 -0.0611754
  2 50.2334 0.0605408 0.0826086
  3 50.2138 0.0482215 -0.0611754
  4 50.2334 0.0605408 0.0826086
  5 79.7032 3.51567 20.9521
  6 82.9669 3.29898 -20.5918
  7 79.7032 3.51567 20.9521
  8 82.9669 3.29898 -20.5918
  9 50.3504 0.0347156 -0.159953
  10 50.8056 0.0622948 -0.282596
  11 51.4578 0.143294 -0.568786
  12 52.9475 0.0563497 -0.757085
  13 54.8304 0.0996115 -1.21685
  14 56.9909 -0.480719 -1.15990
  15 58.8948 -0.592425 -0.0731859
  16 57.7048 -0.417689 1.09929
  17 55.1794 0.401236 1.86950
  18 53.8159 1.02741 -0.0715108
  19 54.8240 0.498318 -1.74584
  20 57.6264 -0.616866 -1.34181
  21 58.3332 -0.717897 0.319027
  22 57.2911 -0.319424 0.993604
  23 54.4176 0.0346020 1.21732
  24 52.8085 0.208732 0.955718
  25 51.4915 0.164344 0.547517
  26 50.8098 0.0500166 0.259272
  27 50.3758 0.0408509 0.153983
  28 50.3175 0.183818 0.0966368
  29 50.2171 0.379507 0.111452
  30 49.9705 0.662982 0.0986345
  31 49.8718 0.772062 -0.00957514
  32 50.0006 0.628400 -0.118731
  33 50.1788 0.413688 -0.102522
  34 50.2578 0.207812 -0.107164
  35 50.3504 0.0347156 -0.159953
  36 50.8056 0.0622948 -0.282596
  37 51.4578 0.143294 -0.568786
  38 52.9475 0.0563497 -0.757085
  39 54.8304 0.0996115 -1.21685
  40 56.9909 -0.480719 -1.15990
  41 58.8948 -0.592425 -0.0731859
  42 57.7048 -0.417689 1.09929
  43 55.1794 0.401236 1.86950
  44 53.8159 1.02741 -0.0715108
  45 54.8240 0.498318 -1.74584
  46 57.6264 -0.616866 -1.34181
  47 58.3332 -0.717897 0.319027
  48 57.2911 -0.319424 0.993604
  49 54.4176 0.0346020 1.21732
  50 52.8085 0.208732 0.955718
  51 51.4915 0.164344 0.547517
  52 50.8098 0.0500166 0.259272
  53 50.3758 0.0408509 0.153983
  54 50.3175 0.183818 0.0966368
  55 50.2171 0.379507 0.111452
  56 49.9705 0.662982 0.0986345
  57 49.8718 0.772062 -0.00957514
  58 50.0006 0.628400 -0.118731
  59 50.1788 0.413688 -0.102522
  60 50.2578 0.207812 -0.107164
  61 111.369 5.49177 11.3302
  62 101.333 1.68718 4.12848
  63 95.3037 0.750092 1.56475
  64 94.0307 0.534502 0.327331
  65 95.2714 0.696874 -1.34328
  66 99.8138 1.46034 -3.61826
  67 112.393 4.79195 -9.74319
  68 14.4194 -17.3356 -16.6750
  69 2.85032 -36.0655 -3.93034
  70 0.925287 -40.2968 -1.73059
  71 0.880578 -39.5030 -0.977898
  72 1.39059 -38.6137 1.84345
  73 3.05992 -34.9734 4.14292
  74 15.7577 -16.2681 18.5390
  75 111.369 5.49177 11.3302
  76 101.333 1.68718 4.12848
  77 95.3037 0.750092 1.56475
  78 94.0307 0.534502 0.327331
  79 95.2714 0.696874 -1.34328
  80 99.8138 1.46034 -3.61826
  81 112.393 4.79195 -9.74319
  82 14.4194 -17.3356 -16.6750
  83 2.85032 -36.0655 -3.93034
  84 0.925287 -40.2968 -1.73059
  85 0.880578 -39.5030 -0.977898
  86 1.39059 -38.6137 1.84345
  87 3.05992 -34.9734 4.14292
  88 15.7577 -16.2681 18.5390
  89 45.8832 2.67267 -0.702549
  90 45.8832 2.67267 -0.702549
  91 41.8559 0.567460 6.23290
  92 40.1928 -0.268544 -7.39726
  93 41.8559 0.567460 6.23290
  94 40.1928 -0.268544 -7.39726
  95 23.2914 0.453944 2.93378
  96 23.2914 0.453944 2.93378
  97 61.9831 3.94618 -1.13198
  98 63.3899 2.16424 2.35284
  99 61.9831 3.94618 -1.13198
  100 63.3899 2.16424 2.35284
  101 49.4332 1.22825 0.723526
  102 49.4332 1.22825 0.723526
  103 59.5708 -3.38328 -0.227903
  104 59.5708 -3.38328 -0.227903
  105 49.5023 1.28212 -0.891180
  106 49.5023 1.28212 -0.891180
  107 58.7289 -7.16722 -6.30353
  108 58.7289 -7.16722 -6.30353
  109 40.7418 -8.40203 16.0285
  110 40.7418 -8.40203 16.0285
  111 27.2164 -5.01389 -12.8488
  112 27.2164 -5.01389 -12.8488
  113 49.7321 0.861534 3.01092
  114 49.7321 0.861534 3.01092
  115 51.6535 0.377857 -2.86445
  116 51.6535 0.377857 -2.86445
  117 70.6266 4.54570 0.151526
  118 75.8747 4.99954 0.344862
  119 70.6266 4.54570 0.151526
  120 75.8747 4.99954 0.344862
  121 74.1805 6.13956 -1.49809
  122 74.1805 6.13956 -1.49809
  123 7.89504 -13.4067 -4.03808
  124 7.89504 -13.4067 -4.03808
  125 64.0256 -8.01507 6.60023
  126 64.0256 -8.01507 6.60023
  127 53.4899 -1.26722 3.28572
  128 53.4899 -1.26722 3.28572
  129 12.0166 -11.6227 9.37059
  130 12.0166 -11.6227 9.37059
  131 49.5100 1.02885 -0.0464803
  132 49.5100 1.02885 -0.0464803
  133 53.4295 -2.46043 -4.15588
  134 53.4295 -2.46043 -4.15588
  135 50.3687 0.420153 0.529772
  136 50.3687 0.420153 0.529772
  137 50.4223 0.368644 -0.495171
  138 50.4223 0.368644 -0.495171
  139 51.0046 0.724500 -1.54678
  140 51.0046 0.724500 -1.54678
  141 50.7526 0.703572 1.39788
  142 50.7526 0.703572 1.39788
  143 48.4391 1.70382 -0.0553581
  144 48.4391 1.70382 -0.0553581
  145 40.1545 2.69192 -0.315657
  146 40.1545 2.69192 -0.315657
  147 59.1979 -2.12524 1.16928
  148 59.1979 -2.12524 1.16928
  149 68.1644 -2.66780 -2.01030
  150 68.1644 -2.66780 -2.01030
  151 52.2660 -5.76187 8.02770
  152 52.2660 -5.76187 8.02770
  153 39.4769 -10.7467 -17.7053
  154 39.4769 -10.7467 -17.7053
  155 46.0296 1.91249 2.85809
  156 46.0296 1.91249 2.85809
  157 60.1859 -0.417384 -2.52457
  158 60.1859 -0.417384 -2.52457
  159 83.2697 6.45103 4.35141
  160 83.2697 6.45103 4.35141
  161 41.1490 -11.4079 20.6223
  162 41.1490 -11.4079 20.6223
  163 85.3851 2.92480 -0.945011
  164 85.3851 2.92480 -0.945011
  165 48.2394 1.69585 1.35516
  166 48.2394 1.69585 1.35516
  167 45.7624 1.57688 -4.15262
  168 45.7624 1.57688 -4.15262
  169 56.7627 1.66598 1.44528
  170 56.7627 1.66598 1.44528
  171 47.7614 2.01769 -1.53191
  172 47.7614 2.01769 -1.53191
  173 49.8380 0.828150 0.231503
  174 49.8380 0.828150 0.231503
  175 50.7406 0.401920 -0.836256
  176 50.7406 0.401920 -0.836256
  177 79.7432 5.84312 -4.02963
  178 79.7432 5.84312 -4.02963
  179 49.8840 0.805069 -0.280039
  180 49.8840 0.805069 -0.280039
  181 36.3095 2.64820 -2.13791
  182 36.3095 2.64820 -2.13791
  183 66.7886 4.88206 0.728403
  184 66.7886 4.88206 0.728403
  185 13.2610 -11.4243 -12.1275
  186 13.2610 -11.4243 -12.1275
  187 35.9507 -0.430948 8.96931
  188 35.9507 -0.430948 8.96931
  189 48.7608 -7.77045 -12.4297
  190 48.7608 -7.77045 -12.4297
  191 57.5749 -1.55586 0.562849
  192 57.5749 -1.55586 0.562849
  193 53.8072 -0.158548 2.07714
  194 53.8072 -0.158548 2.07714
  195 73.9773 1.71713 3.65920
  196 73.9773 1.71713 3.65920
  197 29.7415 0.862265 -5.50825
  198 29.7415 0.862265 -5.50825
  199 84.5043 3.86465 2.12757
  200 84.5043 3.86465 2.12757
  201 54.8382 -0.644094 -2.13326
  202 54.8382 -0.644094 -2.13326
  203 50.8235 0.287984 0.772156
  204 50.8235 0.287984 0.772156
  205 57.1342 -2.19805 -0.955210
  206 57.1342 -2.19805 -0.955210
  207 62.6883 -3.22529 0.0240271
  208 62.6883 -3.22529 0.0240271
  209 3.85789 -22.8056 1.73561
  210 3.85789 -22.8056 1.73561
  211 52.5089 0.301427 -1.86673
  212 52.5089 0.301427 -1.86673
  213 52.0434 0.427001 1.64123
  214 52.0434 0.427001 1.64123
  215 50.0921 -4.55953 -7.97721
  216 50.0921 -4.55953 -7.97721
  217 58.5625 -1.23876 -1.58205
  218 58.5625 -1.23876 -1.58205
  219 47.6113 1.74941 -2.86090
  220 47.6113 1.74941 -2.86090
  221 13.1112 -16.7795 13.1724
  222 13.1112 -16.7795 13.1724
  223 59.2542 0.195760 2.35553
  224 59.2542 0.195760 2.35553
  225 57.3486 1.40981 -1.93572
  226 57.3486 1.40981 -1.93572
  227 83.4323 5.00768 -3.54871
  228 83.4323 5.00768 -3.54871
  229 62.8818 -2.41518 -1.47684
  230 62.8818 -2.41518 -1.47684
  231 69.3281 -3.75435 -11.2622
  232 69.3281 -3.75435 -11.2622
  233 50.2008 -2.25085 6.21084
  234 50.2008 -2.25085 6.21084
  235 49.0105 1.42696 0.232071
  236 49.0105 1.42696 0.232071
  237 25.7065 -3.91741 11.3991
  238 25.7065 -3.91741 11.3991
  239 66.3562 -6.18439 13.3571
  240 66.3562 -6.18439 13.3571
  241 17.2314 -2.52955 -5.59280
  242 17.2314 -2.52955 -5.59280
  243 58.4463 -4.34578 -2.56787
  244 58.4463 -4.34578 -2.56787
  245 47.0921 2.16676 1.66925
  246 47.0921 2.16676 1.66925
  247 1.76652 -29.4184 -1.38279
  248 1.76652 -29.4184 -1.38279
  249 3.27209 -26.1114 4.60945
  250 3.27209 -26.1114 4.60945
  251 48.0685 0.343830 4.52908
  252 48.0685 0.343830 4.52908
  253 50.3092 0.195912 0.193510
  254 50.3092 0.195912 0.193510
  255 49.8323 0.835990 0.0363026
  256 49.8323 0.835990 0.0363026
  257 46.6886 -0.571462 -5.97025
  258 46.6886 -0.571462 -5.97025
  259 50.3473 0.177618 -0.204877
  260 50.3473 0.177618 -0.204877
  261 56.0165 -3.90407 3.57718
  262 56.0165 -3.90407 3.57718
  263 51.8012 0.191911 -0.932349
  264 51.8012 0.191911 -0.932349
  265 39.8555 -3.37497 -10.9396
  266 39.8555 -3.37497 -10.9396
  267 68.6294 5.22348 -0.535717
  268 68.6294 5.22348 -0.535717
  269 49.7654 1.13770 -2.35877
  270 49.7654 1.13770 -2.35877
  271 49.5507 1.06555 -0.485799
  272 49.5507 1.06555 -0.485799
  273 41.7908 2.03997 -4.13202
  274 41.7908 2.03997 -4.13202
  275 12.4396 -5.27719 3.17703
  276 12.4396 -5.27719 3.17703
  277 53.6681 -8.77390 11.0523
  278 53.6681 -8.77390 11.0523
  279 50.1336 0.768996 0.946341
  280 50.1336 0.768996 0.946341
  281 75.2828 5.38440 -1.00215
  282 75.2828 5.38440 -1.00215
  283 91.3568 7.10997 10.0140
  284 91.3568 7.10997 10.0140
  285 60.3215 -6.37437 3.35680
  286 60.3215 -6.37437 3.35680
  287 42.6330 2.15091 3.05127
  288 42.6330 2.15091 3.05127
  289 55.3790 -10.8588 14.5381
  290 55.3790 -10.8588 14.5381
  291 56.6971 -0.643080 1.35507
  292 56.6971 -0.643080 1.35507
  293 50.1036 0.507306 0.263263
  294 50.1036 0.507306 0.263263
  295 49.3260 1.39135 -1.52405
  296 49.3260 1.39135 -1.52405
  297 49.8471 0.822338 -0.0722488
  298 49.8471 0.822338 -0.0722488
  299 50.6455 0.143462 -0.367669
  300 50.6455 0.143462 -0.367669
  301 51.7435 0.267025 0.936056
  302 51.7435 0.267025 0.936056
  303 49.0276 1.41897 -0.394675
  304 49.0276 1.41897 -0.394675
  305 11.2844 -19.6036 -12.4503
  306 11.2844 -19.6036 -12.4503
  307 33.1539 2.12397 2.79729
  308 33.1539 2.12397 2.79729
  309 50.1701 0.422343 -0.253466
  310 50.1701 0.422343 -0.253466
  311 43.8547 2.56400 -2.04707
  312 43.8547 2.56400 -2.04707
  313 43.9609 2.79688 0.786888
  314 43.9609 2.79688 0.786888
  315 50.0499 0.739463 -0.673490
  316 50.0499 0.739463 -0.673490
  317 67.7372 3.30838 0.361048
  318 67.7372 3.30838 0.361048
  319 49.6394 1.23306 2.07867
  320 49.6394 1.23306 2.07867
  321 63.7632 1.87252 -2.13588
  322 63.7632 1.87252 -2.13588
  323 96.4145 2.78277 6.31134
  324 96.4145 2.78277 6.31134
  325 49.4325 1.27750 1.32065
  326 49.4325 1.27750 1.32065
  327 48.5822 1.68799 0.690823
  328 48.5822 1.68799 0.690823
  329 38.6780 -9.52009 -20.0761
  330 38.6780 -9.52009 -20.0761
  331 50.6730 0.129850 0.359843
  332 50.6730 0.129850 0.359843
  333 49.4956 1.07446 0.362703
  334 49.4956 1.07446 0.362703
  335 47.5359 2.17740 0.0789658
  336 47.5359 2.17740 0.0789658
  337 24.4668 -8.77305 16.3594
  338 24.4668 -8.77305 16.3594
  339 61.5535 3.99235 0.374604
  340 61.5535 3.99235 0.374604
  341 3.58181 -25.5983 -5.41764
  342 3.58181 -25.5983 -5.41764
  343 37.8721 2.39460 2.51277
  344 37.8721 2.39460 2.51277
  345 91.1252 1.30732 0.922724
  346 91.1252 1.30732 0.922724
  347 95.0060 4.69604 -6.44042
  348 95.0060 4.69604 -6.44042
  349 43.3186 -4.96430 12.2350
  350 45.0991 -2.56679 9.14004
  351 43.3186 -4.96430 12.2350
  352 45.0991 -2.56679 9.14004
  353 92.4008 2.38416 3.36545
  354 92.4008 2.38416 3.36545
  355 51.3366 -0.0535092 3.53624
  356 51.3366 -0.0535092 3.53624
  357 61.5473 -8.27535 -8.35077
  358 61.5473 -8.27535 -8.35077
  359 57.7963 -0.518572 1.88144
  360 57.7963 -0.518572 1.88144
  361 39.7474 -9.44551 22.0974
  362 39.7474 -9.44551 22.0974
  363 67.7660 5.45625 -0.194998
  364 67.7660 5.45625 -0.194998
  365 92.5430 0.892978 -0.712606
  366 92.5430 0.892978 -0.712606
  367 54.8735 0.0507058 -1.74540
  368 54.8735 0.0507058 -1.74540
  369 48.5868 1.79283 -0.824900
  370 48.5868 1.79283 -0.824900
  371 76.2514 5.90061 1.61243
  372 76.2514 5.90061 1.61243
  373 57.5941 2.37170 -0.408424
  374 57.5941 2.37170 -0.408424
  375 52.7957 0.214784 -1.14497
  376 52.7957 0.214784 -1.14497
  377 13.8960 -7.30657 -9.30568
  378 13.8960 -7.30657 -9.30568
  379 58.4511 -1.04009 0.606416
  380 58.4511 -1.04009 0.606416
  381 49.7624 -0.0601102 -4.15491
  382 49.7624 -0.0601102 -4.15491
  383 57.2882 -0.134947 -2.23000
  384 57.2882 -0.134947 -2.23000
  385 92.8081 1.68562 -2.80450
  386 92.8081 1.68562 -2.80450
  387 49.9081 0.792661 0.533307
  388 49.9081 0.792661 0.533307
  389 61.0197 2.90001 1.95662
  390 61.0197 2.90001 1.95662
  391 66.4298 -1.63408 0.0610901
  392 66.4298 -1.63408 0.0610901
  393 50.1125 0.929787 -1.17891
  394 50.1125 0.929787 -1.17891
  395 98.2409 8.25866 -11.7030
  396 98.2409 8.25866 -11.7030
  397 57.7686 -0.812992 -0.532864
  398 57.7686 -0.812992 -0.532864
</Section>

newXOutput 16

<Section columns = "stress_xx | stress_yy | stress_xy">
  1 53.7784 0.0516538 -0.0654579
  2 53.7995 0.0648417 0.0883899
  3 53.7784 0.0516538 -0.0654579
  4 53.7995 0.0648417 0.0883899
  5 85.3316 3.78538 22.4500
  6 88.8238 3.55426 -22.0643
  7 85.3316 3.78538 22.4500
  8 88.8238 3.55426 -22.0643
  9 53.9245 0.0371778 -0.171157
  10 54.4116 0.0667025 -0.302410
  11 55.1095 0.153407 -0.608723
  12 56.7034 0.0602933 -0.810329
  13 58.7186 0.106511 -1.30271
  14 61.0314 -0.515119 -1.24221
  15 63.0704 -0.634645 -0.0791579
  16 61.7997 -0.447323 1.17567
  17 59.0994 0.430094 2.00016
  18 57.6413 1.10078 -0.0765286
  19 58.7193 0.533829 -1.86796
  20 61.7160 -0.660685 -1.43502
  21 62.4693 -0.769079 0.342584
  22 61.3529 -0.342257 1.06419
  23 58.2771 0.0368466 1.30329
  24 56.5548 0.223419 1.02297
  25 55.1455 0.175944 0.585949
  26 54.4162 0.0535559 0.277446
  27 53.9518 0.0437505 0.164774
  28 53.8894 0.196819 0.103398
  29 53.7820 0.406321 0.119260
  30 53.5183 0.709783 0.105551
  31 53.4127 0.826549 -0.0102467
  32 53.5504 0.672767 -0.127052
  33 53.7411 0.442918 -0.109691
  34 53.8255 0.222518 -0.114673
  35 53.9245 0.0371778 -0.171157
  36 54.4116 0.0667025 -0.302410
  37 55.1095 0.153407 -0.608723
  38 56.7034 0.0602933 -0.810329
  39 58.7186 0.106511 -1.30271
  40 61.0314 -0.515119 -1.24221
  41 63.0704 -0.634645 -0.0791579
  42 61.7997 -0.447323 1.17567
  43 59.0994 0.430094 2.00016
  44 57.6413 1.10078 -0.0765286
  45 58.7193 0.533829 -1.86796
  46 61.7160 -0.660685 -1.43502
  47 62.4693 -0.769079 0.342584
  48 61.3529 -0.342257 1.06419
  49 58.2771 0.0368466 1.30329
  50 56.5548 0.223419 1.02297
  51 55.1455 0.175944 0.585949
  52 54.4162 0.0535559 0.277446
  53 53.9518 0.0437505 0.164774
  54 53.8894 0.196819 0.103398
  55 53.7820 0.406321 0.119260
  56 53.5183 0.709783 0.105551
  57 53.4127 0.826549 -0.0102467
  58 53.5504 0.672767 -0.127052
  59 53.7411 0.442918 -0.109691
  60 53.8255 0.222518 -0.114673
  61 119.219 5.88282 12.1335
  62 108.478 1.80577 4.41960
  63 102.027 0.802233 1.67457
  64 100.665 0.571741 0.350037
  65 101.992 0.745561 -1.43745
  66 106.853 1.56281 -3.87294
  67 120.316 5.13302 -10.4342
  68 15.4420 -18.5476 -17.8728
  69 3.05242 -38.6312 -4.21691
  70 0.989408 -43.1727 -1.85654
  71 0.941631 -42.3231 -1.04770
  72 1.48821 -41.3679 1.97773
  73 3.27728 -37.4611 4.44527
  74 16.8737 -17.4041 19.8699
  75 119.219 5.88282 12.1335
  76 108.478 1.80577 4.41960
  77 102.027 0.802233 1.67457
  78 100.665 0.571741 0.350037
  79 101.992 0.745561 -1.43745
  80 106.853 1.56281 -3.87294
  81 120.316 5.13302 -10.4342
  82 15.4420 -18.5476 -17.8728
  83 3.05242 -38.6312 -4.21691
  84 0.989408 -43.1727 -1.85654
  85 0.941631 -42.3231 -1.04770
  86 1.48821 -41.3679 1.97773
  87 3.27728 -37.4611 4.44527
  88 16.8737 -17.4041 19.8699
  89 49.1440 2.86200 -0.752228
  90 49.1440 2.86200 -0.752228
  91 44.8310 0.607983 6.67505
  92 43.0500 -0.287363 -7.92254
  93 44.8310 0.607983 6.67505
  94 43.0500 -0.287363 -7.92254
  95 24.9523 0.488259 3.14261
  96 24.9523 0.488259 3.14261
  97 66.3824 4.22677 -1.21002
  98 67.8861 2.31935 2.51413
  99 66.3824 4.22677 -1.21002
  100 67.8861 2.31935 2.51413
  101 52.9435 1.31504 0.774416
  102 52.9435 1.31504 0.774416
  103 63.7950 -3.62327 -0.240066
  104 63.7950 -3.62327 -0.240066
  105 53.0173 1.37274 -0.953882
  106 53.0173 1.37274 -0.953882
  107 62.8909 -7.67611 -6.75425
  108 62.8909 -7.67611 -6.75425
  109 43.6338 -8.99933 17.1705
  110 43.6338 -8.99933 17.1705
  111 29.1524 -5.36914 -13.7653
  112 29.1524 -5.36914 -13.7653
  113 53.2631 0.922362 3.22384
  114 53.2631 0.922362 3.22384
  115 55.3194 0.404315 -3.06720
  116 55.3194 0.404315 -3.06720
  117 75.6321 4.87038 0.169638
  118 81.2494 5.35254 0.370529
  119 75.6321 4.87038 0.169638
  120 81.2494 5.35254 0.370529
  121 79.4367 6.57609 -1.61025
  122 79.4367 6.57609 -1.61025
  123 8.45746 -14.3561 -4.32833
  124 8.45746 -14.3561 -4.32833
  125 68.5598 -8.58190 7.07514
  126 68.5598 -8.58190 7.07514
  127 57.2850 -1.35742 3.51944
  128 57.2850 -1.35742 3.51944
  129 12.8728 -12.4451 10.0430
  130 12.8728 -12.4451 10.0430
  131 53.0256 1.10152 -0.0497408
  132 53.0256 1.10152 -0.0497408
  133 57.2200 -2.63535 -4.45192
  134 57.2200 -2.63535 -4.45192
  135 53.9442 0.449841 0.566959
  136 53.9442 0.449841 0.566959
  137 54.0015 0.394703 -0.529920
  138 54.0015 0.394703 -0.529920
  139 54.6248 0.775630 -1.65576
  140 54.6248 0.775630 -1.65576
  141 54.3551 0.753253 1.49631
  142 54.3551 0.753253 1.49631
  143 51.8796 1.82428 -0.0592758
  144 51.8796 1.82428 -0.0592758
  145 43.0111 2.88307 -0.338096
  146 43.0111 2.88307 -0.338096
  147 63.3967 -2.27580 1.24871
  148 63.3967 -2.27580 1.24871
  149 72.9924 -2.85312 -2.16139
  150 72.9924 -2.85312 -2.16139
  151 55.9730 -6.17131 8.59920
  152 55.9730 -6.17131 8.59920
  153 42.2770 -11.5079 -18.9707
  154 42.2770 -11.5079 -18.9707
  155 49.3002 2.04805 3.06033
  156 49.3002 2.04805 3.06033
  157 64.4553 -0.446365 -2.69933
  158 64.4553 -0.446365 -2.69933
  159 89.1617 6.90960 4.66479
  160 89.1617 6.90960 4.66479
  161 44.0674 -12.2172 22.0945
  162 44.0674 -12.2172 22.0945
  163 91.4224 3.13022 -1.01228
  164 91.4224 3.13022 -1.01228
  165 51.6659 1.81579 1.45073
  166 51.6659 1.81579 1.45073
  167 49.0138 1.68870 -4.44682
  168 49.0138 1.68870 -4.44682
  169 60.7946 1.78490 1.54616
  170 60.7946 1.78490 1.54616
  171 51.1542 2.16046 -1.64002
  172 51.1542 2.16046 -1.64002
  173 53.3765 0.886627 0.247755
  174 53.3765 0.886627 0.247755
  175 54.3422 0.430298 -0.895022
  176 54.3422 0.430298 -0.895022
  177 85.3873 6.26213 -4.32399
  178 85.3873 6.26213 -4.32399
  179 53.4257 0.861926 -0.299693
  180 53.4257 0.861926 -0.299693
  181 38.8938 2.83679 -2.28968
  182 38.8938 2.83679 -2.28968
  183 71.5256 5.22898 0.775917
  184 71.5256 5.22898 0.775917
  185 14.2050 -12.2326 -12.9973
  186 14.2050 -12.2326 -12.9973
  187 38.5074 -0.460992 9.60668
  188 38.5074 -0.460992 9.60668
  189 52.2193 -8.32271 -13.3153
  190 52.2193 -8.32271 -13.3153
  191 61.6585 -1.66652 0.604656
  192 61.6585 -1.66652 0.604656
  193 57.6244 -0.170081 2.22427
  194 57.6244 -0.170081 2.22427
  195 79.2149 1.84438 3.92822
  196 79.2149 1.84438 3.92822
  197 31.8596 0.924780 -5.90008
  198 31.8596 0.924780 -5.90008
  199 90.4813 4.13682 2.27951
  200 90.4813 4.13682 2.27951
  201 58.7281 -0.690126 -2.28498
  202 58.7281 -0.690126 -2.28498
  203 54.4308 0.308306 0.826406
  204 54.4308 0.308306 0.826406
  205 61.1863 -2.35441 -1.02503
  206 61.1863 -2.35441 -1.02503
  207 67.1318 -3.45302 0.0201531
  208 67.1318 -3.45302 0.0201531
  209 4.13194 -24.4266 1.86090
  210 4.13194 -24.4266 1.86090
  211 56.2347 0.322506 -1.99854
  212 56.2347 0.322506 -1.99854
  213 55.7365 0.457089 1.75700
  214 55.7365 0.457089 1.75700
  215 53.6464 -4.88350 -8.54484
  216 53.6464 -4.88350 -8.54484
  217 62.7172 -1.32669 -1.69122
  218 62.7172 -1.32669 -1.69122
  219 50.9933 1.87328 -3.06330
  220 50.9933 1.87328 -3.06330
  221 14.0428 -17.9668 14.1186
  222 14.0428 -17.9668 14.1186
  223 63.4592 0.210498 2.51893
  224 63.4592 0.210498 2.51893
  225 61.4212 1.51050 -2.07060
  226 61.4212 1.51050 -2.07060
  227 89.3352 5.36159 -3.80336
  228 89.3352 5.36159 -3.80336
  229 67.3393 -2.58539 -1.57593
  230 67.3393 -2.58539 -1.57593
  231 74.2347 -4.01238 -12.0719
  232 74.2347 -4.01238 -12.0719
  233 53.7635 -2.41073 6.65201
  234 53.7635 -2.41073 6.65201
  235 52.4911 1.52780 0.248402
  236 52.4911 1.52780 0.248402
  237 27.5360 -4.19451 12.2119
  238 27.5360 -4.19451 12.2119
  239 71.0524 -6.61668 14.3148
  240 71.0524 -6.61668 14.3148
  241 18.4605 -2.70635 -5.99215
  242 18.4605 -2.70635 -5.99215
  243 62.5900 -4.65438 -2.75318
  244 62.5900 -4.65438 -2.75318
  245 50.4378 2.32018 1.78717
  246 50.4378 2.32018 1.78717
  247 1.89107 -31.5125 -1.48297
  248 1.89107 -31.5125 -1.48297
  249 3.50424 -27.9672 4.94311
  250 3.50424 -27.9672 4.94311
  251 51.4821 0.368141 4.85008
  252 51.4821 0.368141 4.85008
  253 53.8805 0.209768 0.207073
  254 53.8805 0.209768 0.207073
  255 53.3704 0.895000 0.0388526
  256 53.3704 0.895000 0.0388526
  257 50.0044 -0.612103 -6.39396
  258 50.0044 -0.612103 -6.39396
  259 53.9213 0.190190 -0.219239
  260 53.9213 0.190190 -0.219239
  261 59.9890 -4.18140 3.83314
  262 59.9890 -4.18140 3.83314
  263 55.4770 0.205422 -0.997911
  264 55.4770 0.205422 -0.997911
  265 42.6871 -3.61471 -11.7177
  266 42.6871 -3.61471 -11.7177
  267 73.4959 5.59435 -0.569603
  268 73.4959 5.59435 -0.569603
  269 53.2987 1.21808 -2.52533
  270 53.2987 1.21808 -2.52533
  271 53.0691 1.14082 -0.519936
  272 53.0691 1.14082 -0.519936
  273 44.7623 2.18491 -4.42497
  274 44.7623 2.18491 -4.42497
  275 13.3272 -5.64820 3.40443
  276 13.3272 -5.64820 3.40443
  277 57.4722 -9.39735 11.8401
  278 57.4722 -9.39735 11.8401
  279 53.6928 0.823322 1.01287
  280 53.6928 0.823322 1.01287
  281 80.6163 5.76507 -1.07543
  282 80.6163 5.76507 -1.07543
  283 97.8127 7.62102 10.7309
  284 97.8127 7.62102 10.7309
  285 64.5964 -6.82651 3.59951
  286 64.5964 -6.82651 3.59951
  287 45.6641 2.30362 3.26736
  288 45.6641 2.30362 3.26736
  289 59.3023 -11.6299 15.5750
  290 59.3023 -11.6299 15.5750
  291 60.7178 -0.688964 1.45173
  292 60.7178 -0.688964 1.45173
  293 53.6606 0.543138 0.281731
  294 53.6606 0.543138 0.281731
  295 52.8286 1.48970 -1.63144
  296 52.8286 1.48970 -1.63144
  297 53.3863 0.880387 -0.0773181
  298 53.3863 0.880387 -0.0773181
  299 54.2403 0.153603 -0.393462
  300 54.2403 0.153603 -0.393462
  301 55.4154 0.285849 1.00188
  302 55.4154 0.285849 1.00188
  303 52.5094 1.51926 -0.422450
  304 52.5094 1.51926 -0.422450
  305 12.0859 -20.9905 -13.3456
  306 12.0859 -20.9905 -13.3456
  307 35.5146 2.27567 2.99586
  308 35.5146 2.27567 2.99586
  309 53.7317 0.452185 -0.271241
  310 53.7317 0.452185 -0.271241
  311 46.9723 2.74582 -2.19202
  312 46.9723 2.74582 -2.19202
  313 47.0862 2.99520 0.842524
  314 47.0862 2.99520 0.842524
  315 53.6032 0.791702 -0.720808
  316 53.6032 0.791702 -0.720808
  317 72.5386 3.54588 0.379255
  318 72.5386 3.54588 0.379255
  319 53.1639 1.32023 2.22531
  320 53.1639 1.32023 2.22531
  321 68.2853 2.00683 -2.28190
  322 68.2853 2.00683 -2.28190
  323 103.222 2.97865 6.75939
  324 103.222 2.97865 6.75939
  325 52.9426 1.36780 1.41366
  326 52.9426 1.36780 1.41366
  327 52.0328 1.80734 0.739475
  328 52.0328 1.80734 0.739475
  329 41.4184 -10.1807 -21.5149
  330 41.4184 -10.1807 -21.5149
  331 54.2698 0.139028 0.385084
  332 54.2698 0.139028 0.385084
  333 53.0102 1.15035 0.388192
  334 53.0102 1.15035 0.388192
  335 50.9130 2.33147 0.0845273
  336 50.9130 2.33147 0.0845273
  337 26.2069 -9.39540 17.5288
  338 26.2069 -9.39540 17.5288
  339 65.9228 4.27618 0.400222
  340 65.9228 4.27618 0.400222
  341 3.83553 -27.4173 -5.80874
  342 3.83553 -27.4173 -5.80874
  343 40.5671 2.56496 2.69087
  344 40.5671 2.56496 2.69087
  345 97.5600 1.39881 0.987567
  346 97.5600 1.39881 0.987567
  347 101.717 5.02924 -6.89848
  348 101.717 5.02924 -6.89848
  349 46.3939 -5.31716 13.1052
  350 48.3015 -2.74907 9.78916
  351 46.3939 -5.31716 13.1052
  352 48.3015 -2.74907 9.78916
  353 98.9263 2.55151 3.60351
  354 98.9263 2.55151 3.60351
  355 54.9803 -0.0575338 3.78683
  356 54.9803 -0.0575338 3.78683
  357 65.9064 -8.86183 -8.94890
  358 65.9064 -8.86183 -8.94890
  359 61.8981 -0.555139 2.01244
  360 61.8981 -0.555139 2.01244
  361 42.5614 -10.1017 23.6794
  362 42.5614 -10.1017 23.6794
  363 72.5725 5.84292 -0.208681
  364 72.5725 5.84292 -0.208681
  365 99.0757 0.955372 -0.762888
  366 99.0757 0.955372 -0.762888
  367 58.7653 0.0540105 -1.86889
  368 58.7653 0.0540105 -1.86889
  369 52.0376 1.91962 -0.883021
  370 52.0376 1.91962 -0.883021
  371 81.6527 6.31875 1.73103
  372 81.6527 6.31875 1.73103
  373 61.6847 2.54055 -0.436901
  374 61.6847 2.54055 -0.436901
  375 56.5412 0.229847 -1.22562
  376 56.5412 0.229847 -1.22562
  377 14.8875 -7.82271 -9.97195
  378 14.8875 -7.82271 -9.97195
  379 62.5968 -1.11400 0.647558
  380 62.5968 -1.11400 0.647558
  381 53.2952 -0.0646110 -4.44956
  382 53.2952 -0.0646110 -4.44956
  383 61.3553 -0.144338 -2.38547
  384 61.3553 -0.144338 -2.38547
  385 99.3616 1.80402 -3.00265
  386 99.3616 1.80402 -3.00265
  387 53.4515 0.848647 0.570765
  388 53.4515 0.848647 0.570765
  389 65.3502 3.10675 2.09186
  390 65.3502 3.10675 2.09186
  391 71.1364 -1.74744 0.0727649
  392 71.1364 -1.74744 0.0727649
  393 53.6702 0.995481 -1.26185
  394 53.6702 0.995481 -1.26185
  395 105.178 8.85363 -12.5398
  396 105.178 8.85363 -12.5398
  397 61.8649 -0.870981 -0.571546
  398 61.8649 -0.870981 -0.571546
</Section>

newXOutput 17

<Section columns = "stress_xx | stress_yy | stress_xy">
  1 57.3401 0.0550846 -0.0697289
  2 57.3627 0.0691394 0.0941555
  3 57.3401 0.0550846 -0.0697289
  4 57.3627 0.0691394 0.0941555
  5 90.9514 4.05753 23.9481
  6 94.6716 3.81213 -23.5369
  7 90.9514 4.05753 23.9481
  8 94.6716 3.81213 -23.5369
  9 57.4958 0.0396376 -0.182332
  10 58.0146 0.0711047 -0.322175
  11 58.7579 0.163504 -0.648568
  12 60.4559 0.0642263 -0.863464
  13 62.6031 0.113382 -1.38843
  14 65.0679 -0.549527 -1.32446
  15 67.2419 -0.676853 -0.0852272
  16 65.8910 -0.476931 1.25176
  17 63.0166 0.458978 2.13044
  18 61.4643 1.17415 -0.0815345
  19 62.6118 0.569328 -1.98975
  20 65.8021 -0.704471 -1.52788
  21 66.6014 -0.820247 0.366241
  22 65.4106 -0.365092 1.13473
  23 62.1329 0.0390613 1.38914
  24 60.2977 0.238076 1.09008
  25 58.7964 0.187525 0.624292
  26 58.0195 0.0570908 0.295575
  27 57.5249 0.0466477 0.175538
  28 57.4584 0.209804 0.110141
  29 57.3440 0.433096 0.127048
  30 57.0632 0.756511 0.112451
  31 56.9507 0.880950 -0.0109166
  32 57.0973 0.717065 -0.135352
  33 57.3004 0.472106 -0.116840
  34 57.3902 0.237206 -0.122164
  35 57.4958 0.0396376 -0.182332
  36 58.0146 0.0711047 -0.322175
  37 58.7579 0.163504 -0.648568
  38 60.4559 0.0642263 -0.863464
  39 62.6031 0.113382 -1.38843
  40 65.0679 -0.549527 -1.32446
  41 67.2419 -0.676853 -0.0852272
  42 65.8910 -0.476931 1.25176
  43 63.0166 0.458978 2.13044
  44 61.4643 1.17415 -0.0815345
  45 62.6118 0.569328 -1.98975
  46 65.8021 -0.704471 -1.52788
  47 66.6014 -0.820247 0.366241
  48 65.4106 -0.365092 1.13473
  49 62.1329 0.0390613 1.38914
  50 60.2977 0.238076 1.09008
  51 58.7964 0.187525 0.624292
  52 58.0195 0.0570908 0.295575
  53 57.5249 0.0466477 0.175538
  54 57.4584 0.209804 0.110141
  55 57.3440 0.433096 0.127048
  56 57.0632 0.756511 0.112451
  57 56.9507 0.880950 -0.0109166
  58 57.0973 0.717065 -0.135352
  59 57.3004 0.472106 -0.116840
  60 57.3902 0.237206 -0.122164
  61 127.056 6.27370 12.9359
  62 115.611 1.92410 4.71023
  63 108.740 0.854186 1.78413
  64 107.288 0.608858 0.372656
  65 108.702 0.794107 -1.53139
  66 113.881 1.66503 -4.12713
  67 128.225 5.47392 -11.1245
  68 16.4636 -19.7562 -19.0714
  69 3.25431 -41.1954 -4.50426
  70 1.05327 -46.0482 -1.98280
  71 1.00244 -45.1429 -1.11750
  72 1.58559 -44.1215 2.11236
  73 3.49449 -39.9474 4.74848
  74 17.9884 -18.5366 21.2017
  75 127.056 6.27370 12.9359
  76 115.611 1.92410 4.71023
  77 108.740 0.854186 1.78413
  78 107.288 0.608858 0.372656
  79 108.702 0.794107 -1.53139
  80 113.881 1.66503 -4.12713
  81 128.225 5.47392 -11.1245
  82 16.4636 -19.7562 -19.0714
  83 3.25431 -41.1954 -4.50426
  84 1.05327 -46.0482 -1.98280
  85 1.00244 -45.1429 -1.11750
  86 1.58559 -44.1215 2.11236
  87 3.49449 -39.9474 4.74848
  88 17.9884 -18.5366 21.2017
  89 52.4026 3.05112 -0.801840
  90 52.4026 3.05112 -0.801840
  91 47.8042 0.648504 7.11680
  92 45.9054 -0.306136 -8.44741
  93 47.8042 0.648504 7.11680
  94 45.9054 -0.306136 -8.44741
  95 26.6129 0.522821 3.35135
  96 26.6129 0.522821 3.35135
  97 70.7779 4.50720 -1.28770
  98 72.3780 2.47453 2.67454
  99 70.7779 4.50720 -1.28770
  100 72.3780 2.47453 2.67454
  101 56.4509 1.40171 0.825201
  102 56.4509 1.40171 0.825201
  103 68.0152 -3.86303 -0.251688
  104 68.0152 -3.86303 -0.251688
  105 56.5295 1.46323 -1.01646
  106 56.5295 1.46323 -1.01646
  107 67.0485 -8.18459 -7.20504
  108 67.0485 -8.18459 -7.20504
  109 46.5233 -9.59624 18.3122
  110 46.5233 -9.59624 18.3122
  111 31.0873 -5.72402 -14.6817
  112 31.0873 -5.72402 -14.6817
  113 56.7911 0.983096 3.43647
  114 56.7911 0.983096 3.43647
  115 58.9822 0.430703 -3.26970
  116 58.9822 0.430703 -3.26970
  117 80.6323 5.19506 0.188705
  118 86.6182 5.70500 0.396330
  119 80.6323 5.19506 0.188705
  120 86.6182 5.70500 0.396330
  121 84.6872 7.01235 -1.72307
  122 84.6872 7.01235 -1.72307
  123 9.01968 -15.3043 -4.61882
  124 9.01968 -15.3043 -4.61882
  125 73.0889 -9.14798 7.55049
  126 73.0889 -9.14798 7.55049
  127 61.0768 -1.44757 3.75302
  128 61.0768 -1.44757 3.75302
  129 13.7288 -13.2665 10.7157
  130 13.7288 -13.2665 10.7157
  131 56.5384 1.17407 -0.0529935
  132 56.5384 1.17407 -0.0529935
  133 61.0071 -2.81016 -4.74786
  134 61.0071 -2.81016 -4.74786
  135 57.5168 0.479486 0.604061
  136 57.5168 0.479486 0.604061
  137 57.5778 0.420726 -0.564587
  138 57.5778 0.420726 -0.564587
  139 58.2419 0.826678 -1.76453
  140 58.2419 0.826678 -1.76453
  141 57.9547 0.802859 1.59454
  142 57.9547 0.802859 1.59454
  143 55.3175 1.94459 -0.0631887
  144 55.3175 1.94459 -0.0631887
  145 45.8661 3.07408 -0.360521
  146 45.8661 3.07408 -0.360521
  147 67.5916 -2.42620 1.32760
  148 67.5916 -2.42620 1.32760
  149 77.8149 -3.03775 -2.31345
  150 77.8149 -3.03775 -2.31345
  151 59.6764 -6.58047 9.17043
  152 59.6764 -6.58047 9.17043
  153 45.0746 -12.2683 -20.2361
  154 45.0746 -12.2683 -20.2361
  155 52.5686 2.18347 3.26232
  156 52.5686 2.18347 3.26232
  157 68.7209 -0.475236 -2.87337
  158 68.7209 -0.475236 -2.87337
  159 95.0464 7.36787 4.97851
  160 95.0464 7.36787 4.97851
  161 46.9829 -13.0259 23.5665
  162 46.9829 -13.0259 23.5665
  163 97.4516 3.33519 -1.07952
  164 97.4516 3.33519 -1.07952
  165 55.0897 1.93557 1.54613
  166 55.0897 1.93557 1.54613
  167 52.2630 1.80042 -4.74070
  168 52.2630 1.80042 -4.74070
  169 64.8234 1.90380 1.64672
  170 64.8234 1.90380 1.64672
  171 54.5446 2.30305 -1.74796
  172 54.5446 2.30305 -1.74796
  173 56.9121 0.945014 0.263970
  174 56.9121 0.945014 0.263970
  175 57.9407 0.458632 -0.953660
  176 57.9407 0.458632 -0.953660
  177 91.0244 6.68136 -4.61919
  178 91.0244 6.68136 -4.61919
  179 56.9646 0.918698 -0.319302
  180 56.9646 0.918698 -0.319302
  181 41.4769 3.02530 -2.44132
  182 41.4769 3.02530 -2.44132
  183 76.2582 5.57566 0.822840
  184 76.2582 5.57566 0.822840
  185 15.1486 -13.0397 -13.8675
  186 15.1486 -13.0397 -13.8675
  187 41.0627 -0.490939 10.2436
  188 41.0627 -0.490939 10.2436
  189 55.6745 -8.87459 -14.2006
  190 55.6745 -8.87459 -14.2006
  191 65.7382 -1.77712 0.646673
  192 65.7382 -1.77712 0.646673
  193 61.4381 -0.181641 2.37124
  194 61.4381 -0.181641 2.37124
  195 84.4464 1.97224 4.19824
  196 84.4464 1.97224 4.19824
  197 33.9769 0.987416 -6.29169
  198 33.9769 0.987416 -6.29169
  199 96.4505 4.40849 2.43144
  200 96.4505 4.40849 2.43144
  201 62.6144 -0.736162 -2.43661
  202 62.6144 -0.736162 -2.43661
  203 58.0352 0.328596 0.880536
  204 58.0352 0.328596 0.880536
  205 65.2347 -2.51068 -1.09507
  206 65.2347 -2.51068 -1.09507
  207 71.5708 -3.68041 0.0155445
  208 71.5708 -3.68041 0.0155445
  209 4.40579 -26.0465 1.98636
  210 4.40579 -26.0465 1.98636
  211 59.9571 0.343525 -2.13014
  212 59.9571 0.343525 -2.13014
  213 59.4264 0.487122 1.87257
  214 59.4264 0.487122 1.87257
  215 57.1975 -5.20725 -9.11219
  216 57.1975 -5.20725 -9.11219
  217 66.8682 -1.41454 -1.79989
  218 66.8682 -1.41454 -1.79989
  219 54.3727 1.99701 -3.26545
  220 54.3727 1.99701 -3.26545
  221 14.9739 -19.1526 15.0656
  222 14.9739 -19.1526 15.0656
  223 67.6606 0.225336 2.68169
  224 67.6606 0.225336 2.68169
  225 65.4906 1.61117 -2.20505
  226 65.4906 1.61117 -2.20505
  227 95.2306 5.71501 -4.05816
  228 95.2306 5.71501 -4.05816
  229 71.7924 -2.75529 -1.67419
  230 71.7924 -2.75529 -1.67419
  231 79.1354 -4.26906 -12.8823
  232 79.1354 -4.26906 -12.8823
  233 57.3232 -2.57049 7.09285
  234 57.3232 -2.57049 7.09285
  235 55.9690 1.62851 0.264700
  236 55.9690 1.62851 0.264700
  237 29.3647 -4.47127 13.0246
  238 29.3647 -4.47127 13.0246
  239 75.7429 -7.04772 15.2730
  240 75.7429 -7.04772 15.2730
  241 19.6894 -2.88264 -6.39149
  242 19.6894 -2.88264 -6.39149
  243 66.7297 -4.96274 -2.93873
  244 66.7297 -4.96274 -2.93873
  245 53.7811 2.47343 1.90491
  246 53.7811 2.47343 1.90491
  247 2.01541 -33.6058 -1.58333
  248 2.01541 -33.6058 -1.58333
  249 3.73618 -29.8218 5.27736
  250 3.73618 -29.8218 5.27736
  251 54.8930 0.392420 5.17075
  252 54.8930 0.392420 5.17075
  253 57.4490 0.223607 0.220601
  254 57.4490 0.223607 0.220601
  255 56.9057 0.953917 0.0413969
  256 56.9057 0.953917 0.0413969
  257 53.3178 -0.652721 -6.81731
  258 53.3178 -0.652721 -6.81731
  259 57.4923 0.202747 -0.233564
  260 57.4923 0.202747 -0.233564
  261 63.9578 -4.45852 4.08916
  262 63.9578 -4.45852 4.08916
  263 59.1495 0.218907 -1.06334
  264 59.1495 0.218907 -1.06334
  265 45.5166 -3.85426 -12.4953
  266 45.5166 -3.85426 -12.4953
  267 78.3577 5.96492 -0.602915
  268 78.3577 5.96492 -0.602915
  269 56.8293 1.29834 -2.69163
  270 56.8293 1.29834 -2.69163
  271 56.5847 1.21599 -0.553998
  272 56.5847 1.21599 -0.553998
  273 47.7319 2.32975 -4.71763
  274 47.7319 2.32975 -4.71763
  275 14.2147 -6.01844 3.63188
  276 14.2147 -6.01844 3.63188
  277 61.2725 -10.0204 12.6278
  278 61.2725 -10.0204 12.6278
  279 57.2491 0.877568 1.07927
  280 57.2491 0.877568 1.07927
  281 85.9439 6.14523 -1.14894
  282 85.9439 6.14523 -1.14894
  283 104.259 8.13247 11.4479
  284 104.259 8.13247 11.4479
  285 68.8669 -7.27822 3.84260
  286 68.8669 -7.27822 3.84260
  287 48.6934 2.45620 3.48320
  288 48.6934 2.45620 3.48320
  289 63.2214 -12.4004 16.6117
  290 63.2214 -12.4004 16.6117
  291 64.7348 -0.734841 1.54838
  292 64.7348 -0.734841 1.54838
  293 57.2147 0.578916 0.300154
  294 57.2147 0.578916 0.300154
  295 56.3285 1.58792 -1.73863
  296 56.3285 1.58792 -1.73863
  297 56.9226 0.938344 -0.0823754
  298 56.9226 0.938344 -0.0823754
  299 57.8321 0.163731 -0.419193
  300 57.8321 0.163731 -0.419193
  301 59.0840 0.304641 1.06756
  302 59.0840 0.304641 1.06756
  303 55.9885 1.61940 -0.450169
  304 55.9885 1.61940 -0.450169
  305 12.8869 -22.3756 -14.2417
  306 12.8869 -22.3756 -14.2417
  307 37.8743 2.42738 3.19426
  308 37.8743 2.42738 3.19426
  309 57.2904 0.481984 -0.288973
  310 57.2904 0.481984 -0.288973
  311 50.0879 2.92746 -2.33679
  312 50.0879 2.92746 -2.33679
  313 50.2094 3.19333 0.898084
  314 50.2094 3.19333 0.898084
  315 57.1536 0.843865 -0.768021
  316 57.1536 0.843865 -0.768021
  317 77.3351 3.78355 0.396467
  318 77.3351 3.78355 0.396467
  319 56.6857 1.40727 2.37170
  320 56.6857 1.40727 2.37170
  321 72.8032 2.14121 -2.42707
  322 72.8032 2.14121 -2.42707
  323 110.019 3.17414 7.20706
  324 110.019 3.17414 7.20706
  325 56.4500 1.45797 1.50650
  326 56.4500 1.45797 1.50650
  327 55.4808 1.92653 0.788035
  328 55.4808 1.92653 0.788035
  329 44.1559 -10.8387 -22.9543
  330 44.1559 -10.8387 -22.9543
  331 57.8636 0.148192 0.410265
  332 57.8636 0.148192 0.410265
  333 56.5220 1.22614 0.413626
  334 56.5220 1.22614 0.413626
  335 54.2876 2.48536 0.0900784
  336 54.2876 2.48536 0.0900784
  337 27.9459 -10.0172 18.6982
  338 27.9459 -10.0172 18.6982
  339 70.2886 4.55984 0.425691
  340 70.2886 4.55984 0.425691
  341 4.08898 -29.2350 -6.20040
  342 4.08898 -29.2350 -6.20040
  343 43.2607 2.73522 2.86880
  344 43.2607 2.73522 2.86880
  345 103.985 1.49006 1.05227
  346 103.985 1.49006 1.05227
  347 108.418 5.36215 -7.35628
  348 108.418 5.36215 -7.35628
  349 49.4666 -5.66980 13.9750
  350 51.5014 -2.93122 10.4378
  351 49.4666 -5.66980 13.9750
  352 51.5014 -2.93122 10.4378
  353 105.442 2.71848 3.84125
  354 105.442 2.71848 3.84125
  355 58.6209 -0.0615851 4.03716
  356 58.6209 -0.0615851 4.03716
  357 70.2606 -9.44770 -9.54724
  358 70.2606 -9.44770 -9.54724
  359 65.9964 -0.591644 2.14300
  360 65.9964 -0.591644 2.14300
  361 45.3720 -10.7554 25.2618
  362 45.3720 -10.7554 25.2618
  363 77.3746 6.22919 -0.222331
  364 77.3746 6.22919 -0.222331
  365 105.598 1.01759 -0.813087
  366 105.598 1.01759 -0.813087
  367 62.6533 0.0572736 -1.99222
  368 62.6533 0.0572736 -1.99222
  369 55.4859 2.04623 -0.941037
  370 55.4859 2.04623 -0.941037
  371 87.0479 6.73645 1.85009
  372 87.0479 6.73645 1.85009
  373 65.7723 2.70933 -0.465287
  374 65.7723 2.70933 -0.465287
  375 60.2833 0.244873 -1.30612
  376 60.2833 0.244873 -1.30612
  377 15.8789 -8.33808 -10.6384
  378 15.8789 -8.33808 -10.6384
  379 66.7387 -1.18786 0.688415
  380 66.7387 -1.18786 0.688415
  381 56.8251 -0.0691391 -4.74392
  382 56.8251 -0.0691391 -4.74392
  383 65.4190 -0.153696 -2.54044
  384 65.4190 -0.153696 -2.54044
  385 105.905 1.92216 -3.20051
  386 105.905 1.92216 -3.20051
  387 56.9921 0.904549 0.608140
  388 56.9921 0.904549 0.608140
  389 69.6770 3.31345 2.22651
  390 69.6770 3.31345 2.22651
  391 75.8379 -1.86036 0.0854002
  392 75.8379 -1.86036 0.0854002
  393 57.2249 1.06108 -1.34462
  394 57.2249 1.06108 -1.34462
  395 112.105 9.44926 -13.3766
  396 112.105 9.44926 -13.3766
  397 65.9572 -0.928959 -0.610309
  398 65.9572 -0.928959 -0.610309
</Section>

newXOutput 18

<Section columns = "stress_xx | stress_yy | stress_xy">
  1 60.8989 0.0585137 -0.0739885
  2 60.9230 0.0734339 0.0999055
  3 60.8989 0.0585137 -0.0739885
  4 60.9230 0.0734339 0.0999055
  5 96.5627 4.33214 25.4463
  6 100.510 4.07260 -25.0098
  7 96.5627 4.33214 25.4463
  8 100.510 4.07260 -25.0098
  9 61.0640 0.0420952 -0.193477
  10 61.6145 0.0755013 -0.341891
  11 62.4032 0.173585 -0.688324
  12 64.2050 0.0681486 -0.916489
  13 66.4838 0.120225 -1.47402
  14 69.1003 -0.583944 -1.40663
  15 71.4093 -0.719049 -0.0913936
  16 69.9788 -0.506511 1.32758
  17 66.9310 0.487888 2.26035
  18 65.2848 1.24751 -0.0865283
  19 66.5015 0.604817 -2.11120
  20 69.8846 -0.748226 -1.62041
  21 70.7295 -0.871403 0.389998
  22 69.4643 -0.387930 1.20522
  23 65.9851 0.0412461 1.47485
  24 64.0373 0.252704 1.15707
  25 62.4442 0.199089 0.662547
  26 61.6198 0.0606213 0.313658
  27 61.0951 0.0495425 0.186274
  28 61.0245 0.222772 0.116865
  29 60.9031 0.459832 0.134817
  30 60.6052 0.803166 0.119333
  31 60.4859 0.935263 -0.0115848
  32 60.6414 0.761295 -0.143631
  33 60.8567 0.501251 -0.123969
  34 60.9521 0.251875 -0.129635
  35 61.0640 0.0420952 -0.193477
  36 61.6145 0.0755013 -0.341891
  37 62.4032 0.173585 -0.688324
  38 64.2050 0.0681486 -0.916489
  39 66.4838 0.120225 -1.47402
  40 69.1003 -0.583944 -1.40663
  41 71.4093 -0.719049 -0.0913936
  42 69.9788 -0.506511 1.32758
  43 66.9310 0.487888 2.26035
  44 65.2848 1.24751 -0.0865283
  45 66.5015 0.604817 -2.11120
  46 69.8846 -0.748226 -1.62041
  47 70.7295 -0.871403 0.389998
  48 69.4643 -0.387930 1.20522
  49 65.9851 0.0412461 1.47485
  50 64.0373 0.252704 1.15707
  51 62.4442 0.199089 0.662547
  52 61.6198 0.0606213 0.313658
  53 61.0951 0.0495425 0.186274
  54 61.0245 0.222772 0.116865
  55 60.9031 0.459832 0.134817
  56 60.6052 0.803166 0.119333
  57 60.4859 0.935263 -0.0115848
  58 60.6414 0.761295 -0.143631
  59 60.8567 0.501251 -0.123969
  60 60.9521 0.251875 -0.129635
  61 134.879 6.66442 13.7376
  62 122.732 2.04218 5.00036
  63 115.441 0.905951 1.89343
  64 113.901 0.645852 0.395187
  65 115.401 0.842511 -1.62509
  66 120.896 1.76702 -4.38082
  67 136.120 5.81466 -11.8142
  68 17.4842 -20.9612 -20.2710
  69 3.45601 -43.7582 -4.79239
  70 1.11687 -48.9233 -2.10937
  71 1.06301 -47.9625 -1.18730
  72 1.68275 -46.8747 2.24733
  73 3.71154 -42.4322 5.05255
  74 19.1017 -19.6657 22.5344
  75 134.879 6.66442 13.7376
  76 122.732 2.04218 5.00036
  77 115.441 0.905951 1.89343
  78 113.901 0.645852 0.395187
  79 115.401 0.842511 -1.62509
  80 120.896 1.76702 -4.38082
  81 136.120 5.81466 -11.8142
  82 17.4842 -20.9612 -20.2710
  83 3.45601 -43.7582 -4.79239
  84 1.11687 -48.9233 -2.10937
  85 1.06301 -47.9625 -1.18730
  86 1.68275 -46.8747 2.24733
  87 3.71154 -42.4322 5.05255
  88 19.1017 -19.6657 22.5344
  89 55.6589 3.24002 -0.851386
  90 55.6589 3.24002 -0.851386
  91 50.7754 0.689023 7.55815
  92 48.7590 -0.324861 -8.97188
  93 50.7754 0.689023 7.55815
  94 48.7590 -0.324861 -8.97188
  95 28.2731 0.557631 3.56000
  96 28.2731 0.557631 3.56000
  97 75.1698 4.78746 -1.36501
  98 76.8658 2.62977 2.83406
  99 75.1698 4.78746 -1.36501
  100 76.8658 2.62977 2.83406
  101 59.9556 1.48825 0.875882
  102 59.9556 1.48825 0.875882
  103 72.2312 -4.10256 -0.262771
  104 72.2312 -4.10256 -0.262771
  105 60.0389 1.55359 -1.07891
  106 60.0389 1.55359 -1.07891
  107 71.2017 -8.69267 -7.65588
  108 71.2017 -8.69267 -7.65588
  109 49.4105 -10.1928 19.4536
  110 49.4105 -10.1928 19.4536
  111 33.0212 -6.07851 -15.5979
  112 33.0212 -6.07851 -15.5979
  113 60.3164 1.04374 3.64882
  114 60.3164 1.04374 3.64882
  115 62.6419 0.457022 -3.47196
  116 62.6419 0.457022 -3.47196
  117 85.6274 5.51974 0.208723
  118 91.9810 6.05692 0.422265
  119 85.6274 5.51974 0.208723
  120 91.9810 6.05692 0.422265
  121 89.9322 7.44835 -1.83657
  122 89.9322 7.44835 -1.83657
  123 9.58171 -16.2515 -4.90955
  124 9.58171 -16.2515 -4.90955
  125 77.6127 -9.71331 8.02631
  126 77.6127 -9.71331 8.02631
  127 64.8652 -1.53767 3.98648
  128 64.8652 -1.53767 3.98648
  129 14.5844 -14.0868 11.3889
  130 14.5844 -14.0868 11.3889
  131 60.0484 1.24652 -0.0562384
  132 60.0484 1.24652 -0.0562384
  133 64.7908 -2.98485 -5.04368
  134 64.7908 -2.98485 -5.04368
  135 61.0865 0.509088 0.641077
  136 61.0865 0.509088 0.641077
  137 61.1511 0.446713 -0.599172
  138 61.1511 0.446713 -0.599172
  139 61.8560 0.877645 -1.87310
  140 61.8560 0.877645 -1.87310
  141 61.5512 0.852389 1.69259
  142 61.5512 0.852389 1.69259
  143 58.7529 2.06473 -0.0670968
  144 58.7529 2.06473 -0.0670968
  145 48.7196 3.26494 -0.382931
  146 48.7196 3.26494 -0.382931
  147 71.7825 -2.57644 1.40595
  148 71.7825 -2.57644 1.40595
  149 82.6320 -3.22168 -2.46650
  150 82.6320 -3.22168 -2.46650
  151 63.3764 -6.98935 9.74141
  152 63.3764 -6.98935 9.74141
  153 47.8695 -13.0278 -21.5017
  154 47.8695 -13.0278 -21.5017
  155 55.8346 2.31876 3.46405
  156 55.8346 2.31876 3.46405
  157 72.9825 -0.503997 -3.04667
  158 72.9825 -0.503997 -3.04667
  159 100.924 7.82585 5.29255
  160 100.924 7.82585 5.29255
  161 49.8957 -13.8338 25.0384
  162 49.8957 -13.8338 25.0384
  163 103.473 3.53970 -1.14673
  164 103.473 3.53970 -1.14673
  165 58.5111 2.05519 1.64137
  166 58.5111 2.05519 1.64137
  167 55.5098 1.91203 -5.03427
  168 55.5098 1.91203 -5.03427
  169 68.8493 2.02270 1.74697
  170 68.8493 2.02270 1.74697
  171 57.9324 2.44546 -1.85573
  172 57.9324 2.44546 -1.85573
  173 60.4450 1.00331 0.280148
  174 60.4450 1.00331 0.280148
  175 61.5362 0.486923 -1.01217
  176 61.5362 0.486923 -1.01217
  177 96.6547 7.10080 -4.91523
  178 96.6547 7.10080 -4.91523
  179 60.5006 0.975385 -0.338864
  180 60.5006 0.975385 -0.338864
  181 44.0588 3.21374 -2.59283
  182 44.0588 3.21374 -2.59283
  183 80.9862 5.92210 0.869173
  184 80.9862 5.92210 0.869173
  185 16.0918 -13.8459 -14.7381
  186 16.0918 -13.8459 -14.7381
  187 43.6164 -0.520789 10.8801
  188 43.6164 -0.520789 10.8801
  189 59.1265 -9.42612 -15.0855
  190 59.1265 -9.42612 -15.0855
  191 69.8141 -1.88766 0.688899
  192 69.8141 -1.88766 0.688899
  193 65.2483 -0.193228 2.51805
  194 65.2483 -0.193228 2.51805
  195 89.6717 2.10071 4.46925
  196 89.6717 2.10071 4.46925
  197 36.0933 1.05017 -6.68308
  198 36.0933 1.05017 -6.68308
  199 102.412 4.67964 2.58336
  200 102.412 4.67964 2.58336
  201 66.4971 -0.782200 -2.58815
  202 66.4971 -0.782200 -2.58815
  203 61.6365 0.348853 0.934548
  204 61.6365 0.348853 0.934548
  205 69.2792 -2.66687 -1.16530
  206 69.2792 -2.66687 -1.16530
  207 76.0053 -3.90744 0.0102032
  208 76.0053 -3.90744 0.0102032
  209 4.67943 -27.6653 2.11200
  210 4.67943 -27.6653 2.11200
  211 63.6763 0.364485 -2.26155
  212 63.6763 0.364485 -2.26155
  213 63.1130 0.517101 1.98795
  214 63.1130 0.517101 1.98795
  215 60.7455 -5.53078 -9.67925
  216 60.7455 -5.53078 -9.67925
  217 71.0154 -1.50233 -1.90805
  218 71.0154 -1.50233 -1.90805
  219 57.7497 2.12060 -3.46733
  220 57.7497 2.12060 -3.46733
  221 15.9042 -20.3368 16.0132
  222 15.9042 -20.3368 16.0132
  223 71.8583 0.240274 2.84381
  224 71.8583 0.240274 2.84381
  225 69.5569 1.71185 -2.33905
  226 69.5569 1.71185 -2.33905
  227 101.118 6.06792 -4.31309
  228 101.118 6.06792 -4.31309
  229 76.2409 -2.92488 -1.77161
  230 76.2409 -2.92488 -1.77161
  231 84.0301 -4.52440 -13.6933
  232 84.0301 -4.52440 -13.6933
  233 60.8797 -2.73012 7.53336
  234 60.8797 -2.73012 7.53336
  235 59.4443 1.72907 0.280967
  236 59.4443 1.72907 0.280967
  237 31.1925 -4.74766 13.8371
  238 31.1925 -4.74766 13.8371
  239 80.4276 -7.47752 16.2316
  240 80.4276 -7.47752 16.2316
  241 20.9181 -3.05843 -6.79081
  242 20.9181 -3.05843 -6.79081
  243 70.8652 -5.27085 -3.12452
  244 70.8652 -5.27085 -3.12452
  245 57.1220 2.62649 2.02248
  246 57.1220 2.62649 2.02248
  247 2.13953 -35.6980 -1.68388
  248 2.13953 -35.6980 -1.68388
  249 3.96792 -31.6751 5.61219
  250 3.96792 -31.6751 5.61219
  251 58.3012 0.416665 5.49108
  252 58.3012 0.416665 5.49108
  253 61.0145 0.237427 0.234096
  254 61.0145 0.237427 0.234096
  255 60.4381 1.01274 0.0439355
  256 60.4381 1.01274 0.0439355
  257 56.6286 -0.693315 -7.24029
  258 56.6286 -0.693315 -7.24029
  259 61.0603 0.215289 -0.247853
  260 61.0603 0.215289 -0.247853
  261 67.9227 -4.73545 4.34523
  262 67.9227 -4.73545 4.34523
  263 62.8189 0.232366 -1.12863
  264 62.8189 0.232366 -1.12863
  265 48.3440 -4.09365 -13.2725
  266 48.3440 -4.09365 -13.2725
  267 83.2147 6.33520 -0.635656
  268 83.2147 6.33520 -0.635656
  269 60.3570 1.37849 -2.85767
  270 60.3570 1.37849 -2.85767
  271 60.0975 1.29105 -0.587986
  272 60.0975 1.29105 -0.587986
  273 50.6997 2.47449 -5.01000
  274 50.6997 2.47449 -5.01000
  275 15.1021 -6.38789 3.85940
  276 15.1021 -6.38789 3.85940
  277 65.0690 -10.6430 13.4153
  278 65.0690 -10.6430 13.4153
  279 60.8025 0.931735 1.14552
  280 60.8025 0.931735 1.14552
  281 91.2657 6.52487 -1.22266
  282 91.2657 6.52487 -1.22266
  283 110.697 8.64435 12.1652
  284 110.697 8.64435 12.1652
  285 73.1329 -7.72951 4.08608
  286 73.1329 -7.72951 4.08608
  287 51.7208 2.60866 3.69880
  288 51.7208 2.60866 3.69880
  289 67.1361 -13.1703 17.6482
  290 67.1361 -13.1703 17.6482
  291 68.7478 -0.780711 1.64501
  292 68.7478 -0.780711 1.64501
  293 60.7660 0.614642 0.318534
  294 60.7660 0.614642 0.318534
  295 59.8257 1.68601 -1.84564
  296 59.8257 1.68601 -1.84564
  297 60.4560 0.996211 -0.0874207
  298 60.4560 0.996211 -0.0874207
  299 61.4209 0.173845 -0.444862
  300 61.4209 0.173845 -0.444862
  301 62.7494 0.323400 1.13311
  302 62.7494 0.323400 1.13311
  303 59.4649 1.71941 -0.477834
  304 59.4649 1.71941 -0.477834
  305 13.6872 -23.7590 -15.1386
  306 13.6872 -23.7590 -15.1386
  307 40.2329 2.57908 3.39251
  308 40.2329 2.57908 3.39251
  309 60.8462 0.511740 -0.306662
  310 60.8462 0.511740 -0.306662
  311 53.2015 3.10893 -2.48140
  312 53.2015 3.10893 -2.48140
  313 53.3307 3.39126 0.953569
  314 53.3307 3.39126 0.953569
  315 60.7010 0.895952 -0.815131
  316 60.7010 0.895952 -0.815131
  317 82.1267 4.02137 0.412689
  318 82.1267 4.02137 0.412689
  319 60.2047 1.49420 2.51786
  320 60.2047 1.49420 2.51786
  321 77.3168 2.27566 -2.57138
  322 77.3168 2.27566 -2.57138
  323 116.805 3.36925 7.65436
  324 116.805 3.36925 7.65436
  325 59.9546 1.54802 1.59916
  326 59.9546 1.54802 1.59916
  327 58.9261 2.04555 0.836504
  328 58.9261 2.04555 0.836504
  329 46.8904 -11.4942 -24.3943
  330 46.8904 -11.4942 -24.3943
  331 61.4544 0.157344 0.435385
  332 61.4544 0.157344 0.435385
  333 60.0311 1.30181 0.439005
  334 60.0311 1.30181 0.439005
  335 57.6599 2.63905 0.0956192
  336 57.6599 2.63905 0.0956192
  337 29.6840 -10.6384 19.8678
  338 29.6840 -10.6384 19.8678
  339 74.6507 4.84332 0.451011
  340 74.6507 4.84332 0.451011
  341 4.34214 -31.0515 -6.59260
  342 4.34214 -31.0515 -6.59260
  343 45.9530 2.90539 3.04654
  344 45.9530 2.90539 3.04654
  345 110.400 1.58105 1.11683
  346 110.400 1.58105 1.11683
  347 115.109 5.69476 -7.81381
  348 115.109 5.69476 -7.81381
  349 52.5368 -6.02221 14.8443
  350 54.6987 -3.11322 11.0859
  351 52.5368 -6.02221 14.8443
  352 54.6987 -3.11322 11.0859
  353 111.948 2.88506 4.07869
  354 111.948 2.88506 4.07869
  355 62.2585 -0.0656630 4.28723
  356 62.2585 -0.0656630 4.28723
  357 74.6099 -10.0330 -10.1458
  358 74.6099 -10.0330 -10.1458
  359 70.0912 -0.628085 2.27311
  360 70.0912 -0.628085 2.27311
  361 48.1792 -11.4067 26.8448
  362 48.1792 -11.4067 26.8448
  363 82.1721 6.61505 -0.235948
  364 82.1721 6.61505 -0.235948
  365 112.110 1.07962 -0.863204
  366 112.110 1.07962 -0.863204
  367 66.5377 0.0604951 -2.11539
  368 66.5377 0.0604951 -2.11539
  369 58.9315 2.17268 -0.998948
  370 58.9315 2.17268 -0.998948
  371 92.4372 7.15371 1.96958
  372 92.4372 7.15371 1.96958
  373 69.8567 2.87803 -0.493581
  374 69.8567 2.87803 -0.493581
  375 64.0220 0.259863 -1.38647
  376 64.0220 0.259863 -1.38647
  377 16.8702 -8.85270 -11.3051
  378 16.8702 -8.85270 -11.3051
  379 70.8767 -1.26167 0.728987
  380 70.8767 -1.26167 0.728987
  381 60.3522 -0.0736944 -5.03800
  382 60.3522 -0.0736944 -5.03800
  383 69.4794 -0.163021 -2.69491
  384 69.4794 -0.163021 -2.69491
  385 112.439 2.04003 -3.39809
  386 112.439 2.04003 -3.39809
  387 60.5298 0.960368 0.645431
  388 60.5298 0.960368 0.645431
  389 74.0000 3.52008 2.36056
  390 74.0000 3.52008 2.36056
  391 80.5344 -1.97283 0.0989932
  392 80.5344 -1.97283 0.0989932
  393 60.7768 1.12658 -1.42722
  394 60.7768 1.12658 -1.42722
  395 119.022 10.0456 -14.2136
  396 119.022 10.0456 -14.2136
  397 70.0456 -0.986926 -0.649153
  398 70.0456 -0.986926 -0.649153
</Section>

newXOutput 19

<Section columns = "stress_xx | stress_yy | stress_xy">
  1 64.4548 0.0619412 -0.0782366
  2 64.4803 0.0777253 0.105640
  3 64.4548 0.0619412 -0.0782366
  4 64.4803 0.0777253 0.105640
  5 102.165 4.60919 26.9446
  6 106.340 4.33565 -26.4828
  7 102.165 4.60919 26.9446
  8 106.340 4.33565 -26.4828
  9 64.6294 0.0445504 -0.204594
  10 65.2113 0.0798924 -0.361559
  11 66.0453 0.183650 -0.727988
  12 67.9506 0.0720603 -0.969405
  13 70.3608 0.127040 -1.55946
  14 73.1287 -0.618368 -1.48873
  15 75.5726 -0.761231 -0.0976566
  16 74.0629 -0.536066 1.40311
  17 70.8425 0.516825 2.38987
  18 69.1029 1.32088 -0.0915101
  19 70.3884 0.640294 -2.23230
  20 73.9636 -0.791948 -1.71258
  21 74.8536 -0.922546 0.413855
  22 73.5139 -0.410769 1.27566
  23 69.8336 0.0434013 1.56044
  24 67.7734 0.267302 1.22391
  25 66.0887 0.210634 0.700712
  26 65.2171 0.0641474 0.331696
  27 64.6623 0.0524348 0.196983
  28 64.5876 0.235723 0.123571
  29 64.4593 0.486530 0.142565
  30 64.1444 0.849748 0.126199
  31 64.0183 0.989490 -0.0122514
  32 64.1826 0.805456 -0.151889
  33 64.4102 0.530354 -0.131078
  34 64.5110 0.266526 -0.137088
  35 64.6294 0.0445504 -0.204594
  36 65.2113 0.0798924 -0.361559
  37 66.0453 0.183650 -0.727988
  38 67.9506 0.0720603 -0.969405
  39 70.3608 0.127040 -1.55946
  40 73.1287 -0.618368 -1.48873
  41 75.5726 -0.761231 -0.0976566
  42 74.0629 -0.536066 1.40311
  43 70.8425 0.516825 2.38987
  44 69.1029 1.32088 -0.0915101
  45 70.3884 0.640294 -2.23230
  46 73.9636 -0.791948 -1.71258
  47 74.8536 -0.922546 0.413855
  48 73.5139 -0.410769 1.27566
  49 69.8336 0.0434013 1.56044
  50 67.7734 0.267302 1.22391
  51 66.0887 0.210634 0.700712
  52 65.2171 0.0641474 0.331696
  53 64.6623 0.0524348 0.196983
  54 64.5876 0.235723 0.123571
  55 64.4593 0.486530 0.142565
  56 64.1444 0.849748 0.126199
  57 64.0183 0.989490 -0.0122514
  58 64.1826 0.805456 -0.151889
  59 64.4102 0.530354 -0.131078
  60 64.5110 0.266526 -0.137088
  61 142.688 7.05497 14.5384
  62 129.841 2.16000 5.28999
  63 122.131 0.957530 2.00248
  64 120.503 0.682726 0.417630
  65 122.089 0.890774 -1.71856
  66 127.900 1.86876 -4.63401
  67 144.002 6.15523 -12.5032
  68 18.5038 -22.1628 -21.4714
  69 3.65751 -46.3196 -5.08130
  70 1.18020 -51.7982 -2.23626
  71 1.12333 -50.7819 -1.25708
  72 1.77968 -49.6273 2.38265
  73 3.92843 -44.9157 5.35746
  74 20.2138 -20.7913 23.8679
  75 142.688 7.05497 14.5384
  76 129.841 2.16000 5.28999
  77 122.131 0.957530 2.00248
  78 120.503 0.682726 0.417630
  79 122.089 0.890774 -1.71856
  80 127.900 1.86876 -4.63401
  81 144.002 6.15523 -12.5032
  82 18.5038 -22.1628 -21.4714
  83 3.65751 -46.3196 -5.08130
  84 1.18020 -51.7982 -2.23626
  85 1.12333 -50.7819 -1.25708
  86 1.77968 -49.6273 2.38265
  87 3.92843 -44.9157 5.35746
  88 20.2138 -20.7913 23.8679
  89 58.9131 3.42872 -0.900866
  90 58.9131 3.42872 -0.900866
  91 53.7447 0.729540 7.99909
  92 51.6108 -0.343539 -9.49593
  93 53.7447 0.729540 7.99909
  94 51.6108 -0.343539 -9.49593
  95 29.9329 0.592688 3.76855
  96 29.9329 0.592688 3.76855
  97 79.5579 5.06756 -1.44195
  98 81.3494 2.78509 2.99270
  99 79.5579 5.06756 -1.44195
  100 81.3494 2.78509 2.99270
  101 63.4576 1.57467 0.926459
  102 63.4576 1.57467 0.926459
  103 76.4432 -4.34188 -0.273315
  104 76.4432 -4.34188 -0.273315
  105 63.5456 1.64383 -1.14123
  106 63.5456 1.64383 -1.14123
  107 75.3506 -9.20035 -8.10678
  108 75.3506 -9.20035 -8.10678
  109 52.2952 -10.7889 20.5945
  110 52.2952 -10.7889 20.5945
  111 34.9540 -6.43263 -16.5139
  112 34.9540 -6.43263 -16.5139
  113 63.8388 1.10428 3.86088
  114 63.8388 1.10428 3.86088
  115 66.2984 0.483270 -3.67397
  116 66.2984 0.483270 -3.67397
  117 90.6172 5.84442 0.229689
  118 97.3378 6.40830 0.448333
  119 90.6172 5.84442 0.229689
  120 97.3378 6.40830 0.448333
  121 95.1715 7.88409 -1.95073
  122 95.1715 7.88409 -1.95073
  123 10.1435 -17.1975 -5.20052
  124 10.1435 -17.1975 -5.20052
  125 82.1314 -10.2779 8.50257
  126 82.1314 -10.2779 8.50257
  127 68.6501 -1.62774 4.21980
  128 68.6501 -1.62774 4.21980
  129 15.4398 -14.9061 12.0625
  130 15.4398 -14.9061 12.0625
  131 63.5557 1.31886 -0.0594754
  132 63.5557 1.31886 -0.0594754
  133 68.5710 -3.15944 -5.33940
  134 68.5710 -3.15944 -5.33940
  135 64.6532 0.538648 0.678007
  136 64.6532 0.538648 0.678007
  137 64.7214 0.472663 -0.633676
  138 64.7214 0.472663 -0.633676
  139 65.4670 0.928530 -1.98147
  140 65.4670 0.928530 -1.98147
  141 65.1448 0.901844 1.79045
  142 65.1448 0.901844 1.79045
  143 62.1857 2.18470 -0.0709999
  144 62.1857 2.18470 -0.0709999
  145 51.5716 3.45564 -0.405326
  146 51.5716 3.45564 -0.405326
  147 75.9696 -2.72651 1.48377
  148 75.9696 -2.72651 1.48377
  149 87.4436 -3.40493 -2.62052
  150 87.4436 -3.40493 -2.62052
  151 67.0728 -7.39795 10.3121
  152 67.0728 -7.39795 10.3121
  153 50.6618 -13.7866 -22.7674
  154 50.6618 -13.7866 -22.7674
  155 59.0984 2.45391 3.66553
  156 59.0984 2.45391 3.66553
  157 77.2402 -0.532647 -3.21924
  158 77.2402 -0.532647 -3.21924
  159 106.794 8.28353 5.60691
  160 106.794 8.28353 5.60691
  161 52.8057 -14.6410 26.5102
  162 52.8057 -14.6410 26.5102
  163 109.486 3.74375 -1.21390
  164 109.486 3.74375 -1.21390
  165 61.9298 2.17466 1.73644
  166 61.9298 2.17466 1.73644
  167 58.7544 2.02353 -5.32751
  168 58.7544 2.02353 -5.32751
  169 72.8722 2.14158 1.84691
  170 72.8722 2.14158 1.84691
  171 61.3178 2.58770 -1.96333
  172 61.3178 2.58770 -1.96333
  173 63.9750 1.06152 0.296289
  174 63.9750 1.06152 0.296289
  175 65.1287 0.515171 -1.07056
  176 65.1287 0.515171 -1.07056
  177 102.278 7.52046 -5.21211
  178 102.278 7.52046 -5.21211
  179 64.0337 1.03199 -0.358382
  180 64.0337 1.03199 -0.358382
  181 46.6395 3.40210 -2.74421
  182 46.6395 3.40210 -2.74421
  183 85.7098 6.26831 0.914918
  184 85.7098 6.26831 0.914918
  185 17.0345 -14.6510 -15.6093
  186 17.0345 -14.6510 -15.6093
  187 46.1687 -0.550544 11.5162
  188 46.1687 -0.550544 11.5162
  189 62.5752 -9.97727 -15.9702
  190 62.5752 -9.97727 -15.9702
  191 73.8862 -1.99814 0.731333
  192 73.8862 -1.99814 0.731333
  193 69.0550 -0.204842 2.66470
  194 69.0550 -0.204842 2.66470
  195 94.8909 2.22978 4.74126
  196 94.8909 2.22978 4.74126
  197 38.2089 1.11305 -7.07426
  198 38.2089 1.11305 -7.07426
  199 108.366 4.95030 2.73528
  200 108.366 4.95030 2.73528
  201 70.3763 -0.828242 -2.73960
  202 70.3763 -0.828242 -2.73960
  203 65.2348 0.369077 0.988441
  204 65.2348 0.369077 0.988441
  205 73.3199 -2.82297 -1.23575
  206 73.3199 -2.82297 -1.23575
  207 80.4353 -4.13413 0.00413123
  208 80.4353 -4.13413 0.00413123
  209 4.95288 -29.2831 2.23782
  210 4.95288 -29.2831 2.23782
  211 67.3921 0.385386 -2.39275
  212 67.3921 0.385386 -2.39275
  213 66.7964 0.547026 2.10315
  214 66.7964 0.547026 2.10315
  215 64.2904 -5.85408 -10.2460
  216 64.2904 -5.85408 -10.2460
  217 75.1588 -1.59004 -2.01571
  218 75.1588 -1.59004 -2.01571
  219 61.1241 2.24404 -3.66896
  220 61.1241 2.24404 -3.66896
  221 16.8340 -21.5196 16.9615
  222 16.8340 -21.5196 16.9615
  223 76.0524 0.255311 3.00530
  224 76.0524 0.255311 3.00530
  225 73.6201 1.81252 -2.47261
  226 73.6201 1.81252 -2.47261
  227 106.999 6.42035 -4.56818
  228 106.999 6.42035 -4.56818
  229 80.6850 -3.09417 -1.86818
  230 80.6850 -3.09417 -1.86818
  231 88.9188 -4.77840 -14.5050
  232 88.9188 -4.77840 -14.5050
  233 64.4333 -2.88964 7.97354
  234 64.4333 -2.88964 7.97354
  235 62.9169 1.82949 0.297201
  236 62.9169 1.82949 0.297201
  237 33.0195 -5.02370 14.6493
  238 33.0195 -5.02370 14.6493
  239 85.1065 -7.90606 17.1908
  240 85.1065 -7.90606 17.1908
  241 22.1465 -3.23370 -7.19010
  242 22.1465 -3.23370 -7.19010
  243 74.9967 -5.57873 -3.31056
  244 74.9967 -5.57873 -3.31056
  245 60.4605 2.77938 2.13988
  246 60.4605 2.77938 2.13988
  247 2.26344 -37.7893 -1.78462
  248 2.26344 -37.7893 -1.78462
  249 4.19944 -33.5272 5.94761
  250 4.19944 -33.5272 5.94761
  251 61.7069 0.440877 5.81109
  252 61.7069 0.440877 5.81109
  253 64.5770 0.251229 0.247557
  254 64.5770 0.251229 0.247557
  255 63.9678 1.07147 0.0464685
  256 63.9678 1.07147 0.0464685
  257 59.9369 -0.733886 -7.66291
  258 59.9369 -0.733886 -7.66291
  259 64.6254 0.227815 -0.262107
  260 64.6254 0.227815 -0.262107
  261 71.8839 -5.01217 4.60136
  262 71.8839 -5.01217 4.60136
  263 66.4850 0.245799 -1.19378
  264 66.4850 0.245799 -1.19378
  265 51.1695 -4.33286 -14.0493
  266 51.1695 -4.33286 -14.0493
  267 88.0671 6.70518 -0.667825
  268 88.0671 6.70518 -0.667825
  269 63.8819 1.45852 -3.02347
  270 63.8819 1.45852 -3.02347
  271 63.6076 1.36599 -0.621899
  272 63.6076 1.36599 -0.621899
  273 53.6657 2.61912 -5.30209
  274 53.6657 2.61912 -5.30209
  275 15.9894 -6.75656 4.08698
  276 15.9894 -6.75656 4.08698
  277 68.8615 -11.2651 14.2026
  278 68.8615 -11.2651 14.2026
  279 64.3530 0.985823 1.21163
  280 64.3530 0.985823 1.21163
  281 96.5817 6.90400 -1.29660
  282 96.5817 6.90400 -1.29660
  283 117.125 9.15663 12.8827
  284 117.125 9.15663 12.8827
  285 77.3945 -8.18039 4.32994
  286 77.3945 -8.18039 4.32994
  287 54.7463 2.76100 3.91415
  288 54.7463 2.76100 3.91415
  289 71.0466 -13.9396 18.6845
  290 71.0466 -13.9396 18.6845
  291 72.7571 -0.826575 1.74162
  292 72.7571 -0.826575 1.74162
  293 64.3144 0.650314 0.336869
  294 64.3144 0.650314 0.336869
  295 63.3201 1.78396 -1.95244
  296 63.3201 1.78396 -1.95244
  297 63.9867 1.05399 -0.0924540
  298 63.9867 1.05399 -0.0924540
  299 65.0067 0.183945 -0.470470
  300 65.0067 0.183945 -0.470470
  301 66.4117 0.342127 1.19852
  302 66.4117 0.342127 1.19852
  303 62.9387 1.81927 -0.505444
  304 62.9387 1.81927 -0.505444
  305 14.4870 -25.1405 -16.0363
  306 14.4870 -25.1405 -16.0363
  307 42.5906 2.73078 3.59059
  308 42.5906 2.73078 3.59059
  309 64.3991 0.541453 -0.324307
  310 64.3991 0.541453 -0.324307
  311 56.3132 3.29022 -2.62583
  312 56.3132 3.29022 -2.62583
  313 56.4500 3.58901 1.00898
  314 56.4500 3.58901 1.00898
  315 64.2457 0.947962 -0.862137
  316 64.2457 0.947962 -0.862137
  317 86.9135 4.25934 0.427922
  318 86.9135 4.25934 0.427922
  319 63.7208 1.58101 2.66377
  320 63.7208 1.58101 2.66377
  321 81.8261 2.41019 -2.71484
  322 81.8261 2.41019 -2.71484
  323 123.581 3.56398 8.10129
  324 123.581 3.56398 8.10129
  325 63.4565 1.63794 1.69164
  326 63.4565 1.63794 1.69164
  327 62.3689 2.16442 0.884882
  328 62.3689 2.16442 0.884882
  329 49.6220 -12.1471 -25.8350
  330 49.6220 -12.1471 -25.8350
  331 65.0422 0.166482 0.460445
  332 65.0422 0.166482 0.460445
  333 63.5374 1.37737 0.464329
  334 63.5374 1.37737 0.464329
  335 61.0297 2.79255 0.101150
  336 61.0297 2.79255 0.101150
  337 31.4210 -11.2591 21.0374
  338 31.4210 -11.2591 21.0374
  339 79.0091 5.12662 0.476183
  340 79.0091 5.12662 0.476183
  341 4.59502 -32.8668 -6.98535
  342 4.59502 -32.8668 -6.98535
  343 48.6439 3.07547 3.22410
  344 48.6439 3.07547 3.22410
  345 116.806 1.67181 1.18125
  346 116.806 1.67181 1.18125
  347 121.790 6.02707 -8.27106
  348 121.790 6.02707 -8.27106
  349 55.6044 -6.37439 15.7131
  350 57.8936 -3.29509 11.7335
  351 55.6044 -6.37439 15.7131
  352 57.8936 -3.29509 11.7335
  353 118.444 3.05125 4.31582
  354 118.444 3.05125 4.31582
  355 65.8929 -0.0697675 4.53703
  356 65.8929 -0.0697675 4.53703
  357 78.9543 -10.6176 -10.7446
  358 78.9543 -10.6176 -10.7446
  359 74.1824 -0.664464 2.40278
  360 74.1824 -0.664464 2.40278
  361 50.9831 -12.0556 28.4281
  362 50.9831 -12.0556 28.4281
  363 86.9651 7.00051 -0.249533
  364 86.9651 7.00051 -0.249533
  365 118.613 1.14147 -0.913240
  366 118.613 1.14147 -0.913240
  367 70.4184 0.0636752 -2.23841
  368 70.4184 0.0636752 -2.23841
  369 62.3746 2.29896 -1.05675
  370 62.3746 2.29896 -1.05675
  371 97.8205 7.57053 2.08952
  372 97.8205 7.57053 2.08952
  373 73.9381 3.04666 -0.521784
  374 73.9381 3.04666 -0.521784
  375 67.7574 0.274816 -1.46667
  376 67.7574 0.274816 -1.46667
  377 17.8613 -9.36655 -11.9720
  378 17.8613 -9.36655 -11.9720
  379 75.0108 -1.33542 0.769276
  380 75.0108 -1.33542 0.769276
  381 63.8764 -0.0782768 -5.33180
  382 63.8764 -0.0782768 -5.33180
  383 73.5365 -0.172313 -2.84888
  384 73.5365 -0.172313 -2.84888
  385 118.962 2.15764 -3.59538
  386 118.962 2.15764 -3.59538
  387 64.0647 1.01610 0.682640
  388 64.0647 1.01610 0.682640
  389 78.3194 3.72667 2.49402
  390 78.3194 3.72667 2.49402
  391 85.2257 -2.08486 0.113541
  392 85.2257 -2.08486 0.113541
  393 64.3258 1.19199 -1.50966
  394 64.3258 1.19199 -1.50966
  395 125.928 10.6425 -15.0506
  396 125.928 10.6425 -15.0506
  397 74.1299 -1.04488 -0.688077
  398 74.1299 -1.04488 -0.688077
</Section>

newXOutput 20

<Section columns = "stress_xx | stress_yy | stress_xy">
  1 68.0077 0.0653671 -0.0824733
  2 68.0347 0.0820136 0.111359
  3 68.0077 0.0653671 -0.0824733
  4 68.0347 0.0820136 0.111359
  5 107.760 4.88869 28.4431
  6 112.160 4.60127 -27.9560
  7 107.760 4.88869 28.4431
  8 112.160 4.60127 -27.9560
  9 68.1918 0.0470033 -0.215682
  10 68.8051 0.0842780 -0.381178
  11 69.6843 0.193699 -0.767562
  12 71.6928 0.0759613 -1.02221
  13 74.2341 0.133827 -1.64477
  14 77.1532 -0.652800 -1.57076
  15 79.7317 -0.803401 -0.104016
  16 78.1436 -0.565593 1.47837
  17 74.7511 0.545788 2.51902
  18 72.9185 1.39424 -0.0964799
  19 74.2726 0.675761 -2.35308
  20 78.0391 -0.835638 -1.80441
  21 78.9736 -0.973675 0.437812
  22 77.5595 -0.433611 1.34604
  23 73.6785 0.0455268 1.64590
  24 71.5062 0.281872 1.29063
  25 69.7301 0.222161 0.738790
  26 68.8113 0.0676691 0.349689
  27 68.2265 0.0553248 0.207666
  28 68.1478 0.248657 0.130258
  29 68.0126 0.513189 0.150294
  30 67.6807 0.896257 0.133048
  31 67.5478 1.04363 -0.0129164
  32 67.7210 0.849549 -0.160126
  33 67.9608 0.559416 -0.138166
  34 68.0669 0.281159 -0.144522
  35 68.1918 0.0470033 -0.215682
  36 68.8051 0.0842780 -0.381178
  37 69.6843 0.193699 -0.767562
  38 71.6928 0.0759613 -1.02221
  39 74.2341 0.133827 -1.64477
  40 77.1532 -0.652800 -1.57076
  41 79.7317 -0.803401 -0.104016
  42 78.1436 -0.565593 1.47837
  43 74.7511 0.545788 2.51902
  44 72.9185 1.39424 -0.0964799
  45 74.2726 0.675761 -2.35308
  46 78.0391 -0.835638 -1.80441
  47 78.9736 -0.973675 0.437812
  48 77.5595 -0.433611 1.34604
  49 73.6785 0.0455268 1.64590
  50 71.5062 0.281872 1.29063
  51 69.7301 0.222161 0.738790
  52 68.8113 0.0676691 0.349689
  53 68.2265 0.0553248 0.207666
  54 68.1478 0.248657 0.130258
  55 68.0126 0.513189 0.150294
  56 67.6807 0.896257 0.133048
  57 67.5478 1.04363 -0.0129164
  58 67.7210 0.849549 -0.160126
  59 67.9608 0.559416 -0.138166
  60 68.0669 0.281159 -0.144522
  61 150.484 7.44535 15.3384
  62 136.937 2.27758 5.57913
  63 128.811 1.00892 2.11127
  64 127.094 0.719478 0.439987
  65 128.765 0.938897 -1.81180
  66 134.892 1.97026 -4.88671
  67 151.870 6.49564 -13.1915
  68 19.5224 -23.3609 -22.6726
  69 3.85881 -48.8796 -5.37098
  70 1.24328 -54.6726 -2.36346
  71 1.18341 -53.6010 -1.32686
  72 1.87638 -52.3794 2.51832
  73 4.14516 -47.3978 5.66324
  74 21.3247 -21.9135 25.2022
  75 150.484 7.44535 15.3384
  76 136.937 2.27758 5.57913
  77 128.811 1.00892 2.11127
  78 127.094 0.719478 0.439987
  79 128.765 0.938897 -1.81180
  80 134.892 1.97026 -4.88671
  81 151.870 6.49564 -13.1915
  82 19.5224 -23.3609 -22.6726
  83 3.85881 -48.8796 -5.37098
  84 1.24328 -54.6726 -2.36346
  85 1.18341 -53.6010 -1.32686
  86 1.87638 -52.3794 2.51832
  87 4.14516 -47.3978 5.66324
  88 21.3247 -21.9135 25.2022
  89 62.1650 3.61721 -0.950279
  90 62.1650 3.61721 -0.950279
  91 56.7120 0.770055 8.43963
  92 54.4607 -0.362170 -10.0196
  93 56.7120 0.770055 8.43963
  94 54.4607 -0.362170 -10.0196
  95 31.5923 0.627990 3.97700
  96 31.5923 0.627990 3.97700
  97 83.9423 5.34748 -1.51853
  98 85.8288 2.94047 3.15045
  99 83.9423 5.34748 -1.51853
  100 85.8288 2.94047 3.15045
  101 66.9568 1.66096 0.976932
  102 66.9568 1.66096 0.976932
  103 80.6511 -4.58097 -0.283323
  104 80.6511 -4.58097 -0.283323
  105 67.0495 1.73394 -1.20343
  106 67.0495 1.73394 -1.20343
  107 79.4952 -9.70762 -8.55773
  108 79.4952 -9.70762 -8.55773
  109 55.1775 -11.3847 21.7351
  110 55.1775 -11.3847 21.7351
  111 36.8857 -6.78638 -17.4298
  112 36.8857 -6.78638 -17.4298
  113 67.3584 1.16474 4.07266
  114 67.3584 1.16474 4.07266
  115 69.9519 0.509450 -3.87574
  116 69.9519 0.509450 -3.87574
  117 95.6019 6.16910 0.251600
  118 102.689 6.75915 0.474533
  119 95.6019 6.16910 0.251600
  120 102.689 6.75915 0.474533
  121 100.405 8.31956 -2.06555
  122 100.405 8.31956 -2.06555
  123 10.7052 -18.1425 -5.49173
  124 10.7052 -18.1425 -5.49173
  125 86.6450 -10.8417 8.97927
  126 86.6450 -10.8417 8.97927
  127 72.4317 -1.71776 4.45299
  128 72.4317 -1.71776 4.45299
  129 16.2949 -15.7243 12.7365
  130 16.2949 -15.7243 12.7365
  131 67.0603 1.39109 -0.0627046
  132 67.0603 1.39109 -0.0627046
  133 72.3478 -3.33392 -5.63501
  134 72.3478 -3.33392 -5.63501
  135 68.2170 0.568166 0.714851
  136 68.2170 0.568166 0.714851
  137 68.2888 0.498578 -0.668099
  138 68.2888 0.498578 -0.668099
  139 69.0750 0.979334 -2.08965
  140 69.0750 0.979334 -2.08965
  141 68.7353 0.951224 1.88812
  142 68.7353 0.951224 1.88812
  143 65.6159 2.30452 -0.0748982
  144 65.6159 2.30452 -0.0748982
  145 54.4220 3.64620 -0.427707
  146 54.4220 3.64620 -0.427707
  147 80.1527 -2.87641 1.56105
  148 80.1527 -2.87641 1.56105
  149 92.2499 -3.58748 -2.77552
  150 92.2499 -3.58748 -2.77552
  151 70.7658 -7.80627 10.8826
  152 70.7658 -7.80627 10.8826
  153 53.4515 -14.5444 -24.0331
  154 53.4515 -14.5444 -24.0331
  155 62.3599 2.58892 3.86676
  156 62.3599 2.58892 3.86676
  157 81.4940 -0.561187 -3.39109
  158 81.4940 -0.561187 -3.39109
  159 112.656 8.74092 5.92159
  160 112.656 8.74092 5.92159
  161 55.7129 -15.4475 27.9819
  162 55.7129 -15.4475 27.9819
  163 115.490 3.94736 -1.28105
  164 115.490 3.94736 -1.28105
  165 65.3461 2.29397 1.83136
  166 65.3461 2.29397 1.83136
  167 61.9966 2.13492 -5.62044
  168 61.9966 2.13492 -5.62044
  169 76.8920 2.26046 1.94655
  170 76.8920 2.26046 1.94655
  171 64.7007 2.72975 -2.07075
  172 64.7007 2.72975 -2.07075
  173 67.5022 1.11964 0.312392
  174 67.5022 1.11964 0.312392
  175 68.7181 0.543375 -1.12881
  176 68.7181 0.543375 -1.12881
  177 107.895 7.94032 -5.50983
  178 107.895 7.94032 -5.50983
  179 67.5641 1.08850 -0.377853
  180 67.5641 1.08850 -0.377853
  181 49.2189 3.59038 -2.89548
  182 49.2189 3.59038 -2.89548
  183 90.4290 6.61428 0.960078
  184 90.4290 6.61428 0.960078
  185 17.9768 -15.4551 -16.4808
  186 17.9768 -15.4551 -16.4808
  187 48.7195 -0.580203 12.1518
  188 48.7195 -0.580203 12.1518
  189 66.0207 -10.5281 -16.8546
  190 66.0207 -10.5281 -16.8546
  191 77.9545 -2.10856 0.773975
  192 77.9545 -2.10856 0.773975
  193 72.8583 -0.216484 2.81118
  194 72.8583 -0.216484 2.81118
  195 100.104 2.35945 5.01425
  196 100.104 2.35945 5.01425
  197 40.3237 1.17604 -7.46522
  198 40.3237 1.17604 -7.46522
  199 114.311 5.22044 2.88718
  200 114.311 5.22044 2.88718
  201 74.2519 -0.874286 -2.89097
  202 74.2519 -0.874286 -2.89097
  203 68.8301 0.389269 1.04222
  204 68.8301 0.389269 1.04222
  205 77.3568 -2.97898 -1.30640
  206 77.3568 -2.97898 -1.30640
  207 84.8607 -4.36047 -0.00266944
  208 84.8607 -4.36047 -0.00266944
  209 5.22613 -30.8998 2.36381
  210 5.22613 -30.8998 2.36381
  211 71.1047 0.406228 -2.52375
  212 71.1047 0.406228 -2.52375
  213 70.4766 0.576896 2.21814
  214 70.4766 0.576896 2.21814
  215 67.8322 -6.17716 -10.8125
  216 67.8322 -6.17716 -10.8125
  217 79.2985 -1.67767 -2.12288
  218 79.2985 -1.67767 -2.12288
  219 64.4960 2.36734 -3.87033
  220 64.4960 2.36734 -3.87033
  221 17.7631 -22.7009 17.9105
  222 17.7631 -22.7009 17.9105
  223 80.2429 0.270449 3.16615
  224 80.2429 0.270449 3.16615
  225 77.6801 1.91320 -2.60572
  226 77.6801 1.91320 -2.60572
  227 112.872 6.77227 -4.82340
  228 112.872 6.77227 -4.82340
  229 85.1245 -3.26315 -1.96393
  230 85.1245 -3.26315 -1.96393
  231 93.8015 -5.03107 -15.3173
  232 93.8015 -5.03107 -15.3173
  233 67.9838 -3.04905 8.41340
  234 67.9838 -3.04905 8.41340
  235 66.3869 1.92977 0.313402
  236 66.3869 1.92977 0.313402
  237 34.8455 -5.29939 15.4614
  238 34.8455 -5.29939 15.4614
  239 89.7798 -8.33335 18.1504
  240 89.7798 -8.33335 18.1504
  241 23.3747 -3.40846 -7.58938
  242 23.3747 -3.40846 -7.58938
  243 79.1241 -5.88637 -3.49684
  244 79.1241 -5.88637 -3.49684
  245 63.7966 2.93209 2.25710
  246 63.7966 2.93209 2.25710
  247 2.38713 -39.8797 -1.88554
  248 2.38713 -39.8797 -1.88554
  249 4.43076 -35.3781 6.28362
  250 4.43076 -35.3781 6.28362
  251 65.1098 0.465057 6.13076
  252 65.1098 0.465057 6.13076
  253 68.1367 0.265013 0.260984
  254 68.1367 0.265013 0.260984
  255 67.4946 1.13011 0.0489959
  256 67.4946 1.13011 0.0489959
  257 63.2427 -0.774434 -8.08516
  258 63.2427 -0.774434 -8.08516
  259 68.1876 0.240326 -0.276325
  260 68.1876 0.240326 -0.276325
  261 75.8413 -5.28870 4.85754
  262 75.8413 -5.28870 4.85754
  263 70.1479 0.259207 -1.25880
  264 70.1479 0.259207 -1.25880
  265 53.9929 -4.57189 -14.8256
  266 53.9929 -4.57189 -14.8256
  267 92.9147 7.07487 -0.699427
  268 92.9147 7.07487 -0.699427
  269 67.4040 1.53843 -3.18901
  270 67.4040 1.53843 -3.18901
  271 67.1149 1.44083 -0.655739
  272 67.1149 1.44083 -0.655739
  273 56.6299 2.76366 -5.59388
  274 56.6299 2.76366 -5.59388
  275 16.8765 -7.12445 4.31462
  276 16.8765 -7.12445 4.31462
  277 72.6503 -11.8869 14.9896
  278 72.6503 -11.8869 14.9896
  279 67.9006 1.03983 1.27760
  280 67.9006 1.03983 1.27760
  281 101.892 7.28262 -1.37075
  282 101.892 7.28262 -1.37075
  283 123.544 9.66933 13.6003
  284 123.544 9.66933 13.6003
  285 81.6517 -8.63084 4.57419
  286 81.6517 -8.63084 4.57419
  287 57.7700 2.91322 4.12926
  288 57.7700 2.91322 4.12926
  289 74.9528 -14.7083 19.7206
  290 74.9528 -14.7083 19.7206
  291 76.7625 -0.872431 1.83821
  292 76.7625 -0.872431 1.83821
  293 67.8599 0.685932 0.355161
  294 67.8599 0.685932 0.355161
  295 66.8118 1.88177 -2.05906
  296 66.8118 1.88177 -2.05906
  297 67.5145 1.11167 -0.0974753
  298 67.5145 1.11167 -0.0974753
  299 68.5895 0.194031 -0.496017
  300 68.5895 0.194031 -0.496017
  301 70.0707 0.360820 1.26380
  302 70.0707 0.360820 1.26380
  303 66.4098 1.91900 -0.532999
  304 66.4098 1.91900 -0.532999
  305 15.2861 -26.5203 -16.9348
  306 15.2861 -26.5203 -16.9348
  307 44.9473 2.88248 3.78850
  308 44.9473 2.88248 3.78850
  309 67.9491 0.571124 -0.341909
  310 67.9491 0.571124 -0.341909
  311 59.4229 3.47134 -2.77010
  312 59.4229 3.47134 -2.77010
  313 59.5673 3.78656 1.06431
  314 59.5673 3.78656 1.06431
  315 67.7874 0.999896 -0.909040
  316 67.7874 0.999896 -0.909040
  317 91.6953 4.49748 0.442171
  318 91.6953 4.49748 0.442171
  319 67.2342 1.66769 2.80944
  320 67.2342 1.66769 2.80944
  321 86.3311 2.54479 -2.85744
  322 86.3311 2.54479 -2.85744
  323 130.346 3.75834 8.54784
  324 130.346 3.75834 8.54784
  325 66.9556 1.72774 1.78396
  326 66.9556 1.72774 1.78396
  327 65.8091 2.28312 0.933168
  328 65.8091 2.28312 0.933168
  329 52.3505 -12.7974 -27.2762
  330 52.3505 -12.7974 -27.2762
  331 68.6270 0.175608 0.485444
  332 68.6270 0.175608 0.485444
  333 67.0409 1.45282 0.489598
  334 67.0409 1.45282 0.489598
  335 64.3970 2.94586 0.106670
  336 64.3970 2.94586 0.106670
  337 33.1571 -11.8791 22.2071
  338 33.1571 -11.8791 22.2071
  339 83.3640 5.40975 0.501206
  340 83.3640 5.40975 0.501206
  341 4.84762 -34.6807 -7.37865
  342 4.84762 -34.6807 -7.37865
  343 51.3335 3.24546 3.40148
  344 51.3335 3.24546 3.40148
  345 123.202 1.76232 1.24554
  346 123.202 1.76232 1.24554
  347 128.462 6.35908 -8.72804
  348 128.462 6.35908 -8.72804
  349 58.6696 -6.72635 16.5814
  350 61.0860 -3.47681 12.3807
  351 58.6696 -6.72635 16.5814
  352 61.0860 -3.47681 12.3807
  353 124.930 3.21706 4.55264
  354 124.930 3.21706 4.55264
  355 69.5243 -0.0738985 4.78656
  356 69.5243 -0.0738985 4.78656
  357 83.2938 -11.2017 -11.3435
  358 83.2938 -11.2017 -11.3435
  359 78.2702 -0.700780 2.53200
  360 78.2702 -0.700780 2.53200
  361 53.7837 -12.7020 30.0119
  362 53.7837 -12.7020 30.0119
  363 91.7537 7.38557 -0.263085
  364 91.7537 7.38557 -0.263085
  365 125.104 1.20314 -0.963194
  366 125.104 1.20314 -0.963194
  367 74.2955 0.0668140 -2.36127
  368 74.2955 0.0668140 -2.36127
  369 65.8150 2.42507 -1.11445
  370 65.8150 2.42507 -1.11445
  371 103.198 7.98692 2.20990
  372 103.198 7.98692 2.20990
  373 78.0163 3.21522 -0.549895
  374 78.0163 3.21522 -0.549895
  375 71.4893 0.289733 -1.54673
  376 71.4893 0.289733 -1.54673
  377 18.8523 -9.87965 -12.6391
  378 18.8523 -9.87965 -12.6391
  379 79.1411 -1.40913 0.809281
  380 79.1411 -1.40913 0.809281
  381 67.3977 -0.0828863 -5.62532
  382 67.3977 -0.0828863 -5.62532
  383 77.5903 -0.181572 -3.00235
  384 77.5903 -0.181572 -3.00235
  385 125.476 2.27500 -3.79238
  386 125.476 2.27500 -3.79238
  387 67.5967 1.07176 0.719765
  388 67.5967 1.07176 0.719765
  389 82.6350 3.93320 2.62689
  390 82.6350 3.93320 2.62689
  391 89.9121 -2.19644 0.129042
  392 89.9121 -2.19644 0.129042
  393 67.8719 1.25731 -1.59193
  394 67.8719 1.25731 -1.59193
  395 132.824 11.2401 -15.8877
  396 132.824 11.2401 -15.8877
  397 78.2103 -1.10283 -0.727080
  398 78.2103 -1.10283 -0.727080
</Section>

newXOutput 21

<Section columns = "stress_xx | stress_yy | stress_xy">
  1 71.5578 0.0687914 -0.0866987
  2 71.5863 0.0862987 0.117062
  3 71.5578 0.0687914 -0.0866987
  4 71.5863 0.0862987 0.117062
  5 113.345 5.17062 29.9417
  6 117.971 4.86947 -29.4294
  7 113.345 5.17062 29.9417
  8 117.971 4.86947 -29.4294
  9 71.7512 0.0494539 -0.226740
  10 72.3959 0.0886580 -0.400749
  11 73.3200 0.203732 -0.807046
  12 75.4316 0.0798518 -1.07491
  13 78.1036 0.140585 -1.72994
  14 81.1736 -0.687241 -1.65272
  15 83.8868 -0.845559 -0.110471
  16 82.2206 -0.595095 1.55335
  17 78.6570 0.574776 2.64780
  18 76.7316 1.46759 -0.101438
  19 78.1541 0.711217 -2.47351
  20 82.1111 -0.879296 -1.89590
  21 83.0896 -1.02479 0.461867
  22 81.6011 -0.456454 1.41638
  23 77.5198 0.0476228 1.73123
  24 75.2355 0.296412 1.35721
  25 73.3684 0.233669 0.776779
  26 72.4026 0.0711865 0.367638
  27 71.7879 0.0582123 0.218320
  28 71.7051 0.261574 0.136927
  29 71.5630 0.539810 0.158002
  30 71.2142 0.942694 0.139881
  31 71.0746 1.09768 -0.0135798
  32 71.2565 0.893575 -0.168342
  33 71.5085 0.588435 -0.145235
  34 71.6200 0.295774 -0.151936
  35 71.7512 0.0494539 -0.226740
  36 72.3959 0.0886580 -0.400749
  37 73.3200 0.203732 -0.807046
  38 75.4316 0.0798518 -1.07491
  39 78.1036 0.140585 -1.72994
  40 81.1736 -0.687241 -1.65272
  41 83.8868 -0.845559 -0.110471
  42 82.2206 -0.595095 1.55335
  43 78.6570 0.574776 2.64780
  44 76.7316 1.46759 -0.101438
  45 78.1541 0.711217 -2.47351
  46 82.1111 -0.879296 -1.89590
  47 83.0896 -1.02479 0.461867
  48 81.6011 -0.456454 1.41638
  49 77.5198 0.0476228 1.73123
  50 75.2355 0.296412 1.35721
  51 73.3684 0.233669 0.776779
  52 72.4026 0.0711865 0.367638
  53 71.7879 0.0582123 0.218320
  54 71.7051 0.261574 0.136927
  55 71.5630 0.539810 0.158002
  56 71.2142 0.942694 0.139881
  57 71.0746 1.09768 -0.0135798
  58 71.2565 0.893575 -0.168342
  59 71.5085 0.588435 -0.145235
  60 71.6200 0.295774 -0.151936
  61 158.266 7.83557 16.1376
  62 144.022 2.39490 5.86777
  63 135.479 1.06013 2.21981
  64 133.674 0.756110 0.462257
  65 135.431 0.986879 -1.90481
  66 141.873 2.07153 -5.13892
  67 159.724 6.83588 -13.8792
  68 20.5401 -24.5555 -23.8748
  69 4.05991 -51.4382 -5.66144
  70 1.30610 -57.5468 -2.49097
  71 1.24324 -56.4200 -1.39664
  72 1.97286 -55.1309 2.65434
  73 4.36173 -49.8784 5.96987
  74 22.4342 -23.0322 26.5375
  75 158.266 7.83557 16.1376
  76 144.022 2.39490 5.86777
  77 135.479 1.06013 2.21981
  78 133.674 0.756110 0.462257
  79 135.431 0.986879 -1.90481
  80 141.873 2.07153 -5.13892
  81 159.724 6.83588 -13.8792
  82 20.5401 -24.5555 -23.8748
  83 4.05991 -51.4382 -5.66144
  84 1.30610 -57.5468 -2.49097
  85 1.24324 -56.4200 -1.39664
  86 1.97286 -55.1309 2.65434
  87 4.36173 -49.8784 5.96987
  88 22.4342 -23.0322 26.5375
  89 65.4148 3.80550 -0.999625
  90 65.4148 3.80550 -0.999625
  91 59.6775 0.810567 8.87977
  92 57.3088 -0.380754 -10.5428
  93 59.6775 0.810567 8.87977
  94 57.3088 -0.380754 -10.5428
  95 33.2514 0.663538 4.18536
  96 33.2514 0.663538 4.18536
  97 88.3230 5.62724 -1.59473
  98 90.3040 3.09592 3.30732
  99 88.3230 5.62724 -1.59473
  100 90.3040 3.09592 3.30732
  101 70.4533 1.74713 1.02730
  102 70.4533 1.74713 1.02730
  103 84.8550 -4.81984 -0.292796
  104 84.8550 -4.81984 -0.292796
  105 70.5507 1.82392 -1.26551
  106 70.5507 1.82392 -1.26551
  107 83.6354 -10.2145 -9.00875
  108 83.6354 -10.2145 -9.00875
  109 58.0575 -11.9802 22.8753
  110 58.0575 -11.9802 22.8753
  111 38.8164 -7.13975 -18.3455
  112 38.8164 -7.13975 -18.3455
  113 70.8752 1.22510 4.28416
  114 70.8752 1.22510 4.28416
  115 73.6022 0.535559 -4.07726
  116 73.6022 0.535559 -4.07726
  117 100.581 6.49378 0.274452
  118 108.034 7.10946 0.500866
  119 100.581 6.49378 0.274452
  120 108.034 7.10946 0.500866
  121 105.633 8.75476 -2.18102
  122 105.633 8.75476 -2.18102
  123 11.2666 -19.0863 -5.78317
  124 11.2666 -19.0863 -5.78317
  125 91.1535 -11.4048 9.45643
  126 91.1535 -11.4048 9.45643
  127 76.2100 -1.80774 4.68606
  128 76.2100 -1.80774 4.68606
  129 17.1497 -16.5415 13.4109
  130 17.1497 -16.5415 13.4109
  131 70.5620 1.46321 -0.0659260
  132 70.5620 1.46321 -0.0659260
  133 76.1212 -3.50829 -5.93051
  134 76.1212 -3.50829 -5.93051
  135 71.7779 0.597641 0.751611
  136 71.7779 0.597641 0.751611
  137 71.8533 0.524457 -0.702441
  138 71.8533 0.524457 -0.702441
  139 72.6799 1.03006 -2.19762
  140 72.6799 1.03006 -2.19762
  141 72.3229 1.00053 1.98561
  142 72.3229 1.00053 1.98561
  143 69.0436 2.42417 -0.0787917
  144 69.0436 2.42417 -0.0787917
  145 57.2709 3.83661 -0.450073
  146 57.2709 3.83661 -0.450073
  147 84.3319 -3.02616 1.63780
  148 84.3319 -3.02616 1.63780
  149 97.0508 -3.76934 -2.93148
  150 97.0508 -3.76934 -2.93148
  151 74.4553 -8.21431 11.4528
  152 74.4553 -8.21431 11.4528
  153 56.2386 -15.3015 -25.2989
  154 56.2386 -15.3015 -25.2989
  155 65.6191 2.72379 4.06774
  156 65.6191 2.72379 4.06774
  157 85.7440 -0.589617 -3.56221
  158 85.7440 -0.589617 -3.56221
  159 118.512 9.19802 6.23659
  160 118.512 9.19802 6.23659
  161 58.6174 -16.2532 29.4534
  162 58.6174 -16.2532 29.4534
  163 121.487 4.15051 -1.34815
  164 121.487 4.15051 -1.34815
  165 68.7597 2.41312 1.92611
  166 68.7597 2.41312 1.92611
  167 65.2366 2.24621 -5.91305
  168 65.2366 2.24621 -5.91305
  169 80.9089 2.37932 2.04587
  170 80.9089 2.37932 2.04587
  171 68.0812 2.87163 -2.17801
  172 68.0812 2.87163 -2.17801
  173 71.0266 1.17767 0.328459
  174 71.0266 1.17767 0.328459
  175 72.3046 0.571536 -1.18695
  176 72.3046 0.571536 -1.18695
  177 113.504 8.36040 -5.80837
  178 113.504 8.36040 -5.80837
  179 71.0916 1.14493 -0.397279
  180 71.0916 1.14493 -0.397279
  181 51.7971 3.77859 -3.04661
  182 51.7971 3.77859 -3.04661
  183 95.1437 6.96001 1.00465
  184 95.1437 6.96001 1.00465
  185 18.9187 -16.2582 -17.3529
  186 18.9187 -16.2582 -17.3529
  187 51.2688 -0.609767 12.7870
  188 51.2688 -0.609767 12.7870
  189 69.4630 -11.0785 -17.7387
  190 69.4630 -11.0785 -17.7387
  191 82.0190 -2.21891 0.816824
  192 82.0190 -2.21891 0.816824
  193 76.6582 -0.228152 2.95750
  194 76.6582 -0.228152 2.95750
  195 105.311 2.48973 5.28823
  196 105.311 2.48973 5.28823
  197 42.4376 1.23915 -7.85597
  198 42.4376 1.23915 -7.85597
  199 120.249 5.49009 3.03907
  200 120.249 5.49009 3.03907
  201 78.1239 -0.920333 -3.04225
  202 78.1239 -0.920333 -3.04225
  203 72.4224 0.409429 1.09587
  204 72.4224 0.409429 1.09587
  205 81.3900 -3.13491 -1.37726
  206 81.3900 -3.13491 -1.37726
  207 89.2817 -4.58646 -0.0101969
  208 89.2817 -4.58646 -0.0101969
  209 5.49918 -32.5154 2.48997
  210 5.49918 -32.5154 2.48997
  211 74.8140 0.427011 -2.65455
  212 74.8140 0.427011 -2.65455
  213 74.1536 0.606713 2.33295
  214 74.1536 0.606713 2.33295
  215 71.3708 -6.50001 -11.3787
  216 71.3708 -6.50001 -11.3787
  217 83.4344 -1.76524 -2.22954
  218 83.4344 -1.76524 -2.22954
  219 67.8655 2.49050 -4.07144
  220 67.8655 2.49050 -4.07144
  221 18.6915 -23.8807 18.8603
  222 18.6915 -23.8807 18.8603
  223 84.4298 0.285686 3.32637
  224 84.4298 0.285686 3.32637
  225 81.7369 2.01386 -2.73840
  226 81.7369 2.01386 -2.73840
  227 118.737 7.12371 -5.07875
  228 118.737 7.12371 -5.07875
  229 89.5596 -3.43183 -2.05884
  230 89.5596 -3.43183 -2.05884
  231 98.6783 -5.28241 -16.1304
  232 98.6783 -5.28241 -16.1304
  233 71.5312 -3.20833 8.85293
  234 71.5312 -3.20833 8.85293
  235 69.8542 2.02991 0.329572
  236 69.8542 2.02991 0.329572
  237 36.6707 -5.57472 16.2733
  238 36.6707 -5.57472 16.2733
  239 94.4472 -8.75940 19.1104
  240 94.4472 -8.75940 19.1104
  241 24.6027 -3.58272 -7.98863
  242 24.6027 -3.58272 -7.98863
  243 83.2474 -6.19377 -3.68337
  244 83.2474 -6.19377 -3.68337
  245 67.1303 3.08463 2.37415
  246 67.1303 3.08463 2.37415
  247 2.51061 -41.9691 -1.98666
  248 2.51061 -41.9691 -1.98666
  249 4.66187 -37.2278 6.62021
  250 4.66187 -37.2278 6.62021
  251 68.5102 0.489204 6.45010
  252 68.5102 0.489204 6.45010
  253 71.6934 0.278780 0.274377
  254 71.6934 0.278780 0.274377
  255 71.0186 1.18866 0.0515176
  256 71.0186 1.18866 0.0515176
  257 66.5460 -0.814958 -8.50706
  258 66.5460 -0.814958 -8.50706
  259 71.7468 0.252823 -0.290507
  260 71.7468 0.252823 -0.290507
  261 79.7950 -5.56502 5.11377
  262 79.7950 -5.56502 5.11377
  263 73.8075 0.272588 -1.32368
  264 73.8075 0.272588 -1.32368
  265 56.8143 -4.81075 -15.6015
  266 56.8143 -4.81075 -15.6015
  267 97.7576 7.44427 -0.730462
  268 97.7576 7.44427 -0.730462
  269 70.9233 1.61822 -3.35429
  270 70.9233 1.61822 -3.35429
  271 70.6195 1.51555 -0.689506
  272 70.6195 1.51555 -0.689506
  273 59.5923 2.90809 -5.88538
  274 59.5923 2.90809 -5.88538
  275 17.7635 -7.49156 4.54231
  276 17.7635 -7.49156 4.54231
  277 76.4351 -12.5082 15.7765
  278 76.4351 -12.5082 15.7765
  279 71.4454 1.09376 1.34344
  280 71.4454 1.09376 1.34344
  281 107.196 7.66072 -1.44513
  282 107.196 7.66072 -1.44513
  283 129.955 10.1824 14.3182
  284 129.955 10.1824 14.3182
  285 85.9044 -9.08088 4.81881
  286 85.9044 -9.08088 4.81881
  287 60.7918 3.06531 4.34412
  288 60.7918 3.06531 4.34412
  289 78.8547 -15.4765 20.7564
  290 78.8547 -15.4765 20.7564
  291 80.7641 -0.918281 1.93478
  292 80.7641 -0.918281 1.93478
  293 71.4025 0.721498 0.373409
  294 71.4025 0.721498 0.373409
  295 70.3007 1.97945 -2.16548
  296 70.3007 1.97945 -2.16548
  297 71.0395 1.16927 -0.102485
  298 71.0395 1.16927 -0.102485
  299 72.1692 0.204103 -0.521503
  300 72.1692 0.204103 -0.521503
  301 73.7266 0.379482 1.32894
  302 73.7266 0.379482 1.32894
  303 69.8783 2.01858 -0.560500
  304 69.8783 2.01858 -0.560500
  305 16.0846 -27.8983 -17.8341
  306 16.0846 -27.8983 -17.8341
  307 47.3030 3.03417 3.98626
  308 47.3030 3.03417 3.98626
  309 71.4961 0.600752 -0.359468
  310 71.4961 0.600752 -0.359468
  311 62.5306 3.65228 -2.91420
  312 62.5306 3.65228 -2.91420
  313 62.6827 3.98392 1.11957
  314 62.6827 3.98392 1.11957
  315 71.3263 1.05175 -0.955840
  316 71.3263 1.05175 -0.955840
  317 96.4723 4.73577 0.455439
  318 96.4723 4.73577 0.455439
  319 70.7448 1.75426 2.95487
  320 70.7448 1.75426 2.95487
  321 90.8318 2.67947 -2.99919
  322 90.8318 2.67947 -2.99919
  323 137.101 3.95231 8.99401
  324 137.101 3.95231 8.99401
  325 70.4520 1.81741 1.87609
  326 70.4520 1.81741 1.87609
  327 69.2467 2.40166 0.981365
  328 69.2467 2.40166 0.981365
  329 55.0762 -13.4451 -28.7180
  330 55.0762 -13.4451 -28.7180
  331 72.2088 0.184721 0.510384
  332 72.2088 0.184721 0.510384
  333 70.5417 1.52816 0.514813
  334 70.5417 1.52816 0.514813
  335 67.7620 3.09898 0.112180
  336 67.7620 3.09898 0.112180
  337 34.8921 -12.4987 23.3770
  338 34.8921 -12.4987 23.3770
  339 87.7152 5.69271 0.526081
  340 87.7152 5.69271 0.526081
  341 5.09995 -36.4934 -7.77250
  342 5.09995 -36.4934 -7.77250
  343 54.0217 3.41535 3.57868
  344 54.0217 3.41535 3.57868
  345 129.588 1.85258 1.30968
  346 129.588 1.85258 1.30968
  347 135.123 6.69081 -9.18475
  348 135.123 6.69081 -9.18475
  349 61.7323 -7.07807 17.4493
  350 64.2758 -3.65840 13.0273
  351 61.7323 -7.07807 17.4493
  352 64.2758 -3.65840 13.0273
  353 131.407 3.38249 4.78914
  354 131.407 3.38249 4.78914
  355 73.1527 -0.0780560 5.03584
  356 73.1527 -0.0780560 5.03584
  357 87.6284 -11.7851 -11.9427
  358 87.6284 -11.7851 -11.9427
  359 82.3545 -0.737034 2.66079
  360 82.3545 -0.737034 2.66079
  361 56.5810 -13.3459 31.5962
  362 56.5810 -13.3459 31.5962
  363 96.5378 7.77023 -0.276604
  364 96.5378 7.77023 -0.276604
  365 131.586 1.26464 -1.01307
  366 131.586 1.26464 -1.01307
  367 78.1689 0.0699116 -2.48398
  368 78.1689 0.0699116 -2.48398
  369 69.2528 2.55102 -1.17205
  370 69.2528 2.55102 -1.17205
  371 108.569 8.40287 2.33071
  372 108.569 8.40287 2.33071
  373 82.0915 3.38371 -0.577915
  374 82.0915 3.38371 -0.577915
  375 75.2179 0.304613 -1.62663
  376 75.2179 0.304613 -1.62663
  377 19.8431 -10.3920 -13.3064
  378 19.8431 -10.3920 -13.3064
  379 83.2675 -1.48279 0.849004
  380 83.2675 -1.48279 0.849004
  381 70.9161 -0.0875229 -5.91856
  382 70.9161 -0.0875229 -5.91856
  383 81.6408 -0.190798 -3.15532
  384 81.6408 -0.190798 -3.15532
  385 131.980 2.39209 -3.98909
  386 131.980 2.39209 -3.98909
  387 71.1259 1.12732 0.756807
  388 71.1259 1.12732 0.756807
  389 86.9469 4.13968 2.75917
  390 86.9469 4.13968 2.75917
  391 94.5934 -2.30758 0.145492
  392 94.5934 -2.30758 0.145492
  393 71.4152 1.32253 -1.67404
  394 71.4152 1.32253 -1.67404
  395 139.709 11.8384 -16.7249
  396 139.709 11.8384 -16.7249
  397 82.2868 -1.16076 -0.766163
  398 82.2868 -1.16076 -0.766163
</Section>

newXOutput 22

<Section columns = "stress_xx | stress_yy | stress_xy">
  1 75.1049 0.0722140 -0.0909128
  2 75.1349 0.0905807 0.122750
  3 75.1049 0.0722140 -0.0909128
  4 75.1349 0.0905807 0.122750
  5 118.923 5.45499 31.4404
  6 123.773 5.14024 -30.9030
  7 118.923 5.45499 31.4404
  8 123.773 5.14024 -30.9030
  9 75.3077 0.0519022 -0.237770
  10 75.9837 0.0930326 -0.420271
  11 76.9527 0.213750 -0.846440
  12 79.1670 0.0837318 -1.12750
  13 81.9695 0.147316 -1.81496
  14 85.1901 -0.721689 -1.73461
  15 88.0378 -0.887704 -0.117022
  16 86.2942 -0.624569 1.62804
  17 82.5600 0.603791 2.77620
  18 80.5423 1.54095 -0.106383
  19 82.0327 0.746663 -2.59361
  20 86.1796 -0.922921 -1.98705
  21 87.2016 -1.07590 0.486021
  22 85.6387 -0.479300 1.48666
  23 81.3575 0.0496892 1.81643
  24 78.9615 0.310923 1.42366
  25 77.0035 0.245160 0.814680
  26 75.9908 0.0746996 0.385541
  27 75.3463 0.0610975 0.228948
  28 75.2594 0.274474 0.143578
  29 75.1105 0.566392 0.165691
  30 74.7448 0.989058 0.146696
  31 74.5985 1.15165 -0.0142415
  32 74.7891 0.937532 -0.176538
  33 75.0532 0.617413 -0.152284
  34 75.1701 0.310371 -0.159332
  35 75.3077 0.0519022 -0.237770
  36 75.9837 0.0930326 -0.420271
  37 76.9527 0.213750 -0.846440
  38 79.1670 0.0837318 -1.12750
  39 81.9695 0.147316 -1.81496
  40 85.1901 -0.721689 -1.73461
  41 88.0378 -0.887704 -0.117022
  42 86.2942 -0.624569 1.62804
  43 82.5600 0.603791 2.77620
  44 80.5423 1.54095 -0.106383
  45 82.0327 0.746663 -2.59361
  46 86.1796 -0.922921 -1.98705
  47 87.2016 -1.07590 0.486021
  48 85.6387 -0.479300 1.48666
  49 81.3575 0.0496892 1.81643
  50 78.9615 0.310923 1.42366
  51 77.0035 0.245160 0.814680
  52 75.9908 0.0746996 0.385541
  53 75.3463 0.0610975 0.228948
  54 75.2594 0.274474 0.143578
  55 75.1105 0.566392 0.165691
  56 74.7448 0.989058 0.146696
  57 74.5985 1.15165 -0.0142415
  58 74.7891 0.937532 -0.176538
  59 75.0532 0.617413 -0.152284
  60 75.1701 0.310371 -0.159332
  61 166.034 8.22562 16.9360
  62 151.094 2.51197 6.15592
  63 142.137 1.11115 2.32809
  64 140.243 0.792621 0.484440
  65 142.086 1.03472 -1.99759
  66 148.841 2.17256 -5.39063
  67 167.564 7.17596 -14.5661
  68 21.5568 -25.7466 -25.0778
  69 4.26082 -53.9954 -5.95268
  70 1.36866 -60.4206 -2.61880
  71 1.30284 -59.2387 -1.46641
  72 2.06912 -57.8819 2.79071
  73 4.57814 -52.3577 6.27735
  74 23.5425 -24.1475 27.8735
  75 166.034 8.22562 16.9360
  76 151.094 2.51197 6.15592
  77 142.137 1.11115 2.32809
  78 140.243 0.792621 0.484440
  79 142.086 1.03472 -1.99759
  80 148.841 2.17256 -5.39063
  81 167.564 7.17596 -14.5661
  82 21.5568 -25.7466 -25.0778
  83 4.26082 -53.9954 -5.95268
  84 1.36866 -60.4206 -2.61880
  85 1.30284 -59.2387 -1.46641
  86 2.06912 -57.8819 2.79071
  87 4.57814 -52.3577 6.27735
  88 23.5425 -24.1475 27.8735
  89 68.6624 3.99357 -1.04891
  90 68.6624 3.99357 -1.04891
  91 62.6409 0.851077 9.31950
  92 60.1551 -0.399292 -11.0656
  93 62.6409 0.851077 9.31950
  94 60.1551 -0.399292 -11.0656
  95 34.9101 0.699330 4.39363
  96 34.9101 0.699330 4.39363
  97 92.7000 5.90683 -1.67058
  98 94.7750 3.25144 3.46332
  99 92.7000 5.90683 -1.67058
  100 94.7750 3.25144 3.46332
  101 73.9470 1.83318 1.07757
  102 73.9470 1.83318 1.07757
  103 89.0548 -5.05849 -0.301735
  104 89.0548 -5.05849 -0.301735
  105 74.0491 1.91378 -1.32746
  106 74.0491 1.91378 -1.32746
  107 87.7713 -10.7210 -9.45981
  108 87.7713 -10.7210 -9.45981
  109 60.9350 -12.5752 24.0151
  110 60.9350 -12.5752 24.0151
  111 40.7460 -7.49274 -19.2610
  112 40.7460 -7.49274 -19.2610
  113 74.3891 1.28536 4.49538
  114 74.3891 1.28536 4.49538
  115 77.2494 0.561600 -4.27854
  116 77.2494 0.561600 -4.27854
  117 105.556 6.81846 0.298242
  118 113.373 7.45923 0.527330
  119 105.556 6.81846 0.298242
  120 113.373 7.45923 0.527330
  121 110.856 9.18971 -2.29716
  122 110.856 9.18971 -2.29716
  123 11.8278 -20.0291 -6.07486
  124 11.8278 -20.0291 -6.07486
  125 95.6568 -11.9671 9.93403
  126 95.6568 -11.9671 9.93403
  127 79.9848 -1.89768 4.91899
  128 79.9848 -1.89768 4.91899
  129 18.0042 -17.3577 14.0856
  130 18.0042 -17.3577 14.0856
  131 74.0611 1.53522 -0.0691397
  132 74.0611 1.53522 -0.0691397
  133 79.8912 -3.68255 -6.22591
  134 79.8912 -3.68255 -6.22591
  135 75.3358 0.627074 0.788285
  136 75.3358 0.627074 0.788285
  137 75.4147 0.550301 -0.736702
  138 75.4147 0.550301 -0.736702
  139 76.2818 1.08070 -2.30540
  140 76.2818 1.08070 -2.30540
  141 75.9075 1.04976 2.08291
  142 75.9075 1.04976 2.08291
  143 72.4687 2.54366 -0.0826803
  144 72.4687 2.54366 -0.0826803
  145 60.1183 4.02688 -0.472424
  146 60.1183 4.02688 -0.472424
  147 88.5072 -3.17574 1.71402
  148 88.5072 -3.17574 1.71402
  149 101.846 -3.95051 -3.08842
  150 101.846 -3.95051 -3.08842
  151 78.1414 -8.62207 12.0228
  152 78.1414 -8.62207 12.0228
  153 59.0231 -16.0577 -26.5648
  154 59.0231 -16.0577 -26.5648
  155 68.8761 2.85853 4.26846
  156 68.8761 2.85853 4.26846
  157 89.9900 -0.617936 -3.73261
  158 89.9900 -0.617936 -3.73261
  159 124.360 9.65482 6.55190
  160 124.360 9.65482 6.55190
  161 61.5191 -17.0582 30.9248
  162 61.5191 -17.0582 30.9248
  163 127.476 4.35321 -1.41523
  164 127.476 4.35321 -1.41523
  165 72.1709 2.53211 2.02070
  166 72.1709 2.53211 2.02070
  167 68.4743 2.35739 -6.20534
  168 68.4743 2.35739 -6.20534
  169 84.9228 2.49817 2.14489
  170 84.9228 2.49817 2.14489
  171 71.4592 3.01333 -2.28509
  172 71.4592 3.01333 -2.28509
  173 74.5482 1.23562 0.344488
  174 74.5482 1.23562 0.344488
  175 75.8880 0.599654 -1.24495
  176 75.8880 0.599654 -1.24495
  177 119.107 8.78069 -6.10774
  178 119.107 8.78069 -6.10774
  179 74.6162 1.20128 -0.416660
  180 74.6162 1.20128 -0.416660
  181 54.3740 3.96672 -3.19762
  182 54.3740 3.96672 -3.19762
  183 99.8540 7.30551 1.04865
  184 99.8540 7.30551 1.04865
  185 19.8601 -17.0602 -18.2254
  186 19.8601 -17.0602 -18.2254
  187 53.8166 -0.639235 13.4217
  188 53.8166 -0.639235 13.4217
  189 72.9021 -11.6285 -18.6225
  190 72.9021 -11.6285 -18.6225
  191 86.0796 -2.32920 0.859880
  192 86.0796 -2.32920 0.859880
  193 80.4546 -0.239848 3.10365
  194 80.4546 -0.239848 3.10365
  195 110.512 2.62060 5.56319
  196 110.512 2.62060 5.56319
  197 44.5507 1.30239 -8.24650
  198 44.5507 1.30239 -8.24650
  199 126.180 5.75923 3.19095
  200 126.180 5.75923 3.19095
  201 81.9924 -0.966384 -3.19344
  202 81.9924 -0.966384 -3.19344
  203 76.0116 0.429556 1.14941
  204 76.0116 0.429556 1.14941
  205 85.4193 -3.29076 -1.44833
  206 85.4193 -3.29076 -1.44833
  207 93.6981 -4.81211 -0.0184490
  208 93.6981 -4.81211 -0.0184490
  209 5.77203 -34.1300 2.61631
  210 5.77203 -34.1300 2.61631
  211 78.5200 0.447735 -2.78515
  212 78.5200 0.447735 -2.78515
  213 77.8274 0.636476 2.44757
  214 77.8274 0.636476 2.44757
  215 74.9063 -6.82264 -11.9446
  216 74.9063 -6.82264 -11.9446
  217 87.5666 -1.85273 -2.33570
  218 87.5666 -1.85273 -2.33570
  219 71.2324 2.61352 -4.27229
  220 71.2324 2.61352 -4.27229
  221 19.6193 -25.0590 19.8107
  222 19.6193 -25.0590 19.8107
  223 88.6130 0.301022 3.48596
  224 88.6130 0.301022 3.48596
  225 85.7906 2.11453 -2.87063
  226 85.7906 2.11453 -2.87063
  227 124.596 7.47465 -5.33425
  228 124.596 7.47465 -5.33425
  229 93.9902 -3.60021 -2.15292
  230 93.9902 -3.60021 -2.15292
  231 103.549 -5.53241 -16.9441
  232 103.549 -5.53241 -16.9441
  233 75.0756 -3.36750 9.29213
  234 75.0756 -3.36750 9.29213
  235 73.3188 2.12991 0.345710
  236 73.3188 2.12991 0.345710
  237 38.4950 -5.84970 17.0850
  238 38.4950 -5.84970 17.0850
  239 99.1090 -9.18421 20.0709
  240 99.1090 -9.18421 20.0709
  241 25.8304 -3.75647 -8.38786
  242 25.8304 -3.75647 -8.38786
  243 87.3666 -6.50094 -3.87013
  244 87.3666 -6.50094 -3.87013
  245 70.4616 3.23698 2.49103
  246 70.4616 3.23698 2.49103
  247 2.63388 -44.0576 -2.08795
  248 2.63388 -44.0576 -2.08795
  249 4.89277 -39.0762 6.95738
  250 4.89277 -39.0762 6.95738
  251 71.9079 0.513317 6.76912
  252 71.9079 0.513317 6.76912
  253 75.2472 0.292528 0.287737
  254 75.2472 0.292528 0.287737
  255 74.5398 1.24711 0.0540338
  256 74.5398 1.24711 0.0540338
  257 69.8468 -0.855460 -8.92859
  258 69.8468 -0.855460 -8.92859
  259 75.3031 0.265304 -0.304654
  260 75.3031 0.265304 -0.304654
  261 83.7448 -5.84114 5.37006
  262 83.7448 -5.84114 5.37006
  263 77.4640 0.285945 -1.38843
  264 77.4640 0.285945 -1.38843
  265 59.6337 -5.04943 -16.3770
  266 59.6337 -5.04943 -16.3770
  267 102.596 7.81337 -0.760933
  268 102.596 7.81337 -0.760933
  269 74.4397 1.69790 -3.51933
  270 74.4397 1.69790 -3.51933
  271 74.1213 1.59017 -0.723199
  272 74.1213 1.59017 -0.723199
  273 62.5529 3.05241 -6.17659
  274 62.5529 3.05241 -6.17659
  275 18.6505 -7.85790 4.77007
  276 18.6505 -7.85790 4.77007
  277 80.2161 -13.1290 16.5631
  278 80.2161 -13.1290 16.5631
  279 74.9872 1.14761 1.40913
  280 74.9872 1.14761 1.40913
  281 112.495 8.03831 -1.51971
  282 112.495 8.03831 -1.51971
  283 136.356 10.6959 15.0362
  284 136.356 10.6959 15.0362
  285 90.1527 -9.53049 5.06381
  286 90.1527 -9.53049 5.06381
  287 63.8117 3.21728 4.55873
  288 63.8117 3.21728 4.55873
  289 82.7524 -16.2440 21.7921
  290 82.7524 -16.2440 21.7921
  291 84.7619 -0.964124 2.03134
  292 84.7619 -0.964124 2.03134
  293 74.9422 0.757011 0.391612
  294 74.9422 0.757011 0.391612
  295 73.7869 2.07700 -2.27171
  296 73.7869 2.07700 -2.27171
  297 74.5617 1.22677 -0.107482
  298 74.5617 1.22677 -0.107482
  299 75.7460 0.214161 -0.546927
  300 75.7460 0.214161 -0.546927
  301 77.3793 0.398111 1.39394
  302 77.3793 0.398111 1.39394
  303 73.3440 2.11803 -0.587946
  304 73.3440 2.11803 -0.587946
  305 16.8826 -29.2745 -18.7341
  306 16.8826 -29.2745 -18.7341
  307 49.6577 3.18586 4.18385
  308 49.6577 3.18586 4.18385
  309 75.0403 0.630337 -0.376985
  310 75.0403 0.630337 -0.376985
  311 65.6364 3.83305 -3.05813
  312 65.6364 3.83305 -3.05813
  313 65.7961 4.18108 1.17476
  314 65.7961 4.18108 1.17476
  315 74.8623 1.10354 -1.00254
  316 74.8623 1.10354 -1.00254
  317 101.244 4.97421 0.467727
  318 101.244 4.97421 0.467727
  319 74.2526 1.84070 3.10007
  320 74.2526 1.84070 3.10007
  321 95.3283 2.81422 -3.14009
  322 95.3283 2.81422 -3.14009
  323 143.846 4.14590 9.43981
  324 143.846 4.14590 9.43981
  325 73.9457 1.90696 1.96806
  326 73.9457 1.90696 1.96806
  327 72.6817 2.52004 1.02947
  328 72.6817 2.52004 1.02947
  329 57.7989 -14.0903 -30.1604
  330 57.7989 -14.0903 -30.1604
  331 75.7876 0.193821 0.535263
  332 75.7876 0.193821 0.535263
  333 74.0398 1.60339 0.539973
  334 74.0398 1.60339 0.539973
  335 71.1245 3.25191 0.117680
  336 71.1245 3.25191 0.117680
  337 36.6261 -13.1176 24.5469
  338 36.6261 -13.1176 24.5469
  339 92.0629 5.97548 0.550809
  340 92.0629 5.97548 0.550809
  341 5.35199 -38.3049 -8.16690
  342 5.35199 -38.3049 -8.16690
  343 56.7086 3.58516 3.75569
  344 56.7086 3.58516 3.75569
  345 135.964 1.94261 1.37368
  346 135.964 1.94261 1.37368
  347 141.775 7.02223 -9.64118
  348 141.775 7.02223 -9.64118
  349 64.7924 -7.42958 18.3166
  350 67.4632 -3.83985 13.6735
  351 64.7924 -7.42958 18.3166
  352 67.4632 -3.83985 13.6735
  353 137.873 3.54754 5.02534
  354 137.873 3.54754 5.02534
  355 76.7780 -0.0822399 5.28484
  356 76.7780 -0.0822399 5.28484
  357 91.9581 -12.3679 -12.5421
  358 91.9581 -12.3679 -12.5421
  359 86.4352 -0.773226 2.78913
  360 86.4352 -0.773226 2.78913
  361 59.3749 -13.9875 33.1809
  362 59.3749 -13.9875 33.1809
  363 101.317 8.15449 -0.290091
  364 101.317 8.15449 -0.290091
  365 138.058 1.32596 -1.06286
  366 138.058 1.32596 -1.06286
  367 82.0386 0.0729681 -2.60653
  368 82.0386 0.0729681 -2.60653
  369 72.6881 2.67680 -1.22954
  370 72.6881 2.67680 -1.22954
  371 113.934 8.81839 2.45196
  372 113.934 8.81839 2.45196
  373 86.1636 3.55212 -0.605843
  374 86.1636 3.55212 -0.605843
  375 78.9431 0.319457 -1.70639
  376 78.9431 0.319457 -1.70639
  377 20.8338 -10.9036 -13.9738
  378 20.8338 -10.9036 -13.9738
  379 87.3900 -1.55640 0.888446
  380 87.3900 -1.55640 0.888446
  381 74.4317 -0.0921863 -6.21151
  382 74.4317 -0.0921863 -6.21151
  383 85.6880 -0.199990 -3.30780
  384 85.6880 -0.199990 -3.30780
  385 138.474 2.50893 -4.18552
  386 138.474 2.50893 -4.18552
  387 74.6523 1.18281 0.793766
  388 74.6523 1.18281 0.793766
  389 91.2551 4.34611 2.89087
  390 91.2551 4.34611 2.89087
  391 99.2696 -2.41829 0.162889
  392 99.2696 -2.41829 0.162889
  393 74.9555 1.38766 -1.75598
  394 74.9555 1.38766 -1.75598
  395 146.583 12.4372 -17.5622
  396 146.583 12.4372 -17.5622
  397 86.3592 -1.21869 -0.805326
  398 86.3592 -1.21869 -0.805326
</Section>

newXOutput 23

<Section columns = "stress_xx | stress_yy | stress_xy">
  1 78.6491 0.0756351 -0.0951155
  2 78.6806 0.0948596 0.128422
  3 78.6491 0.0756351 -0.0951155
  4 78.6806 0.0948596 0.128422
  5 124.491 5.74179 32.9392
  6 129.566 5.41358 -32.3766
  7 124.491 5.74179 32.9392
  8 129.566 5.41358 -32.3766
  9 78.8613 0.0543482 -0.248772
  10 79.5684 0.0974016 -0.439746
  11 80.5822 0.223751 -0.885745
  12 82.8989 0.0876012 -1.17998
  13 85.8316 0.154019 -1.89986
  14 89.2026 -0.756145 -1.81643
  15 92.1846 -0.929836 -0.123669
  16 90.3641 -0.654018 1.70247
  17 86.4601 0.632832 2.90423
  18 84.3505 1.61430 -0.111317
  19 85.9087 0.782098 -2.71337
  20 90.2445 -0.966515 -2.07785
  21 91.3096 -1.12699 0.510273
  22 89.6723 -0.502148 1.55689
  23 85.1916 0.0517263 1.90150
  24 82.6841 0.325405 1.48998
  25 80.6355 0.256632 0.852493
  26 79.5760 0.0782083 0.403400
  27 78.9018 0.0639802 0.239549
  28 78.8108 0.287357 0.150210
  29 78.6551 0.592935 0.173360
  30 78.2726 1.03535 0.153495
  31 78.1195 1.20553 -0.0149016
  32 78.3189 0.981421 -0.184713
  33 78.5951 0.646349 -0.159312
  34 78.7173 0.324950 -0.166709
  35 78.8613 0.0543482 -0.248772
  36 79.5684 0.0974016 -0.439746
  37 80.5822 0.223751 -0.885745
  38 82.8989 0.0876012 -1.17998
  39 85.8316 0.154019 -1.89986
  40 89.2026 -0.756145 -1.81643
  41 92.1846 -0.929836 -0.123669
  42 90.3641 -0.654018 1.70247
  43 86.4601 0.632832 2.90423
  44 84.3505 1.61430 -0.111317
  45 85.9087 0.782098 -2.71337
  46 90.2445 -0.966515 -2.07785
  47 91.3096 -1.12699 0.510273
  48 89.6723 -0.502148 1.55689
  49 85.1916 0.0517263 1.90150
  50 82.6841 0.325405 1.48998
  51 80.6355 0.256632 0.852493
  52 79.5760 0.0782083 0.403400
  53 78.9018 0.0639802 0.239549
  54 78.8108 0.287357 0.150210
  55 78.6551 0.592935 0.173360
  56 78.2726 1.03535 0.153495
  57 78.1195 1.20553 -0.0149016
  58 78.3189 0.981421 -0.184713
  59 78.5951 0.646349 -0.159312
  60 78.7173 0.324950 -0.166709
  61 173.789 8.61551 17.7336
  62 158.155 2.62880 6.44357
  63 148.783 1.16199 2.43613
  64 146.802 0.829014 0.506538
  65 148.730 1.08243 -2.09014
  66 155.798 2.27335 -5.64185
  67 175.391 7.51587 -15.2524
  68 22.5724 -26.9342 -26.2816
  69 4.46152 -56.5512 -6.24469
  70 1.43096 -63.2940 -2.74694
  71 1.36219 -62.0572 -1.53617
  72 2.16514 -60.6324 2.92742
  73 4.79439 -54.8356 6.58569
  74 24.6494 -25.2594 29.2105
  75 173.789 8.61551 17.7336
  76 158.155 2.62880 6.44357
  77 148.783 1.16199 2.43613
  78 146.802 0.829014 0.506538
  79 148.730 1.08243 -2.09014
  80 155.798 2.27335 -5.64185
  81 175.391 7.51587 -15.2524
  82 22.5724 -26.9342 -26.2816
  83 4.46152 -56.5512 -6.24469
  84 1.43096 -63.2940 -2.74694
  85 1.36219 -62.0572 -1.53617
  86 2.16514 -60.6324 2.92742
  87 4.79439 -54.8356 6.58569
  88 24.6494 -25.2594 29.2105
  89 71.9077 4.18144 -1.09812
  90 71.9077 4.18144 -1.09812
  91 65.6025 0.891585 9.75883
  92 62.9996 -0.417784 -11.5880
  93 65.6025 0.891585 9.75883
  94 62.9996 -0.417784 -11.5880
  95 36.5685 0.735365 4.60179
  96 36.5685 0.735365 4.60179
  97 97.0733 6.18626 -1.74605
  98 99.2419 3.40703 3.61844
  99 97.0733 6.18626 -1.74605
  100 99.2419 3.40703 3.61844
  101 77.4380 1.91910 1.12773
  102 77.4380 1.91910 1.12773
  103 93.2505 -5.29692 -0.310141
  104 93.2505 -5.29692 -0.310141
  105 77.5448 2.00351 -1.38929
  106 77.5448 2.00351 -1.38929
  107 91.9029 -11.2270 -9.91094
  108 91.9029 -11.2270 -9.91094
  109 63.8101 -13.1699 25.1546
  110 63.8101 -13.1699 25.1546
  111 42.6746 -7.84536 -20.1764
  112 42.6746 -7.84536 -20.1764
  113 77.9003 1.34554 4.70631
  114 77.9003 1.34554 4.70631
  115 80.8935 0.587572 -4.47958
  116 80.8935 0.587572 -4.47958
  117 110.525 7.14313 0.322967
  118 118.706 7.80848 0.553924
  119 110.525 7.14313 0.322967
  120 118.706 7.80848 0.553924
  121 116.073 9.62438 -2.41394
  122 116.073 9.62438 -2.41394
  123 12.3889 -20.9708 -6.36678
  124 12.3889 -20.9708 -6.36678
  125 100.155 -12.5287 10.4121
  126 100.155 -12.5287 10.4121
  127 83.7563 -1.98757 5.15179
  128 83.7563 -1.98757 5.15179
  129 18.8585 -18.1729 14.7608
  130 18.8585 -18.1729 14.7608
  131 77.5574 1.60713 -0.0723456
  132 77.5574 1.60713 -0.0723456
  133 83.6578 -3.85670 -6.52119
  134 83.6578 -3.85670 -6.52119
  135 78.8908 0.656465 0.824875
  136 78.8908 0.656465 0.824875
  137 78.9733 0.576108 -0.770882
  138 78.9733 0.576108 -0.770882
  139 79.8807 1.13126 -2.41298
  140 79.8807 1.13126 -2.41298
  141 79.4891 1.09891 2.18003
  142 79.4891 1.09891 2.18003
  143 75.8913 2.66299 -0.0865640
  144 75.8913 2.66299 -0.0865640
  145 62.9641 4.21699 -0.494760
  146 62.9641 4.21699 -0.494760
  147 92.6786 -3.32516 1.78970
  148 92.6786 -3.32516 1.78970
  149 106.637 -4.13099 -3.24632
  150 106.637 -4.13099 -3.24632
  151 81.8239 -9.02956 12.5925
  152 81.8239 -9.02956 12.5925
  153 61.8050 -16.8130 -27.8308
  154 61.8050 -16.8130 -27.8308
  155 72.1308 2.99312 4.46894
  156 72.1308 2.99312 4.46894
  157 94.2321 -0.646145 -3.90228
  158 94.2321 -0.646145 -3.90228
  159 130.200 10.1113 6.86753
  160 130.200 10.1113 6.86753
  161 64.4181 -17.8625 32.3960
  162 64.4181 -17.8625 32.3960
  163 133.456 4.55546 -1.48227
  164 133.456 4.55546 -1.48227
  165 75.5795 2.65095 2.11513
  166 75.5795 2.65095 2.11513
  167 71.7097 2.46846 -6.49731
  168 71.7097 2.46846 -6.49731
  169 88.9336 2.61701 2.24360
  170 88.9336 2.61701 2.24360
  171 74.8347 3.15485 -2.39200
  172 74.8347 3.15485 -2.39200
  173 78.0669 1.29347 0.360481
  174 78.0669 1.29347 0.360481
  175 79.4685 0.627729 -1.30283
  176 79.4685 0.627729 -1.30283
  177 124.704 9.20119 -6.40793
  178 124.704 9.20119 -6.40793
  179 78.1381 1.25754 -0.435995
  180 78.1381 1.25754 -0.435995
  181 56.9498 4.15477 -3.34850
  182 56.9498 4.15477 -3.34850
  183 104.560 7.65077 1.09206
  184 104.560 7.65077 1.09206
  185 20.8011 -17.8612 -19.0983
  186 20.8011 -17.8612 -19.0983
  187 56.3629 -0.668609 14.0560
  188 56.3629 -0.668609 14.0560
  189 76.3379 -12.1782 -19.5059
  190 76.3379 -12.1782 -19.5059
  191 90.1364 -2.43943 0.903141
  192 90.1364 -2.43943 0.903141
  193 84.2475 -0.251570 3.24965
  194 84.2475 -0.251570 3.24965
  195 115.707 2.75208 5.83912
  196 115.707 2.75208 5.83912
  197 46.6629 1.36574 -8.63681
  198 46.6629 1.36574 -8.63681
  199 132.102 6.02787 3.34281
  200 132.102 6.02787 3.34281
  201 85.8572 -1.01244 -3.34454
  202 85.8572 -1.01244 -3.34454
  203 79.5978 0.449651 1.20283
  204 79.5978 0.449651 1.20283
  205 89.4448 -3.44652 -1.51959
  206 89.4448 -3.44652 -1.51959
  207 98.1101 -5.03740 -0.0274241
  208 98.1101 -5.03740 -0.0274241
  209 6.04469 -35.7435 2.74283
  210 6.04469 -35.7435 2.74283
  211 82.2227 0.468400 -2.91555
  212 82.2227 0.468400 -2.91555
  213 81.4980 0.666185 2.56199
  214 81.4980 0.666185 2.56199
  215 78.4386 -7.14504 -12.5102
  216 78.4386 -7.14504 -12.5102
  217 91.6951 -1.94015 -2.44137
  218 91.6951 -1.94015 -2.44137
  219 74.5969 2.73639 -4.47289
  220 74.5969 2.73639 -4.47289
  221 20.5464 -26.2358 20.7618
  222 20.5464 -26.2358 20.7618
  223 92.7926 0.316458 3.64491
  224 92.7926 0.316458 3.64491
  225 89.8412 2.21519 -3.00242
  226 89.8412 2.21519 -3.00242
  227 130.446 7.82510 -5.58987
  228 130.446 7.82510 -5.58987
  229 98.4164 -3.76828 -2.24617
  230 98.4164 -3.76828 -2.24617
  231 108.414 -5.78109 -17.7584
  232 108.414 -5.78109 -17.7584
  233 78.6169 -3.52655 9.73101
  234 78.6169 -3.52655 9.73101
  235 76.7808 2.22976 0.361815
  236 76.7808 2.22976 0.361815
  237 40.3184 -6.12433 17.8965
  238 40.3184 -6.12433 17.8965
  239 103.765 -9.60777 21.0319
  240 103.765 -9.60777 21.0319
  241 27.0580 -3.92971 -8.78707
  242 27.0580 -3.92971 -8.78707
  243 91.4817 -6.80786 -4.05714
  244 91.4817 -6.80786 -4.05714
  245 73.7906 3.38916 2.60774
  246 73.7906 3.38916 2.60774
  247 2.75693 -46.1451 -2.18944
  248 2.75693 -46.1451 -2.18944
  249 5.12347 -40.9234 7.29514
  250 5.12347 -40.9234 7.29514
  251 75.3030 0.537399 7.08780
  252 75.3030 0.537399 7.08780
  253 78.7981 0.306258 0.301063
  254 78.7981 0.306258 0.301063
  255 78.0581 1.30548 0.0565443
  256 78.0581 1.30548 0.0565443
  257 73.1450 -0.895938 -9.34975
  258 73.1450 -0.895938 -9.34975
  259 78.8564 0.277770 -0.318765
  260 78.8564 0.277770 -0.318765
  261 87.6909 -6.11705 5.62640
  262 87.6909 -6.11705 5.62640
  263 81.1173 0.299275 -1.45304
  264 81.1173 0.299275 -1.45304
  265 62.4510 -5.28794 -17.1520
  266 62.4510 -5.28794 -17.1520
  267 107.429 8.18219 -0.790841
  268 107.429 8.18219 -0.790841
  269 77.9534 1.77747 -3.68411
  270 77.9534 1.77747 -3.68411
  271 77.6203 1.66468 -0.756818
  272 77.6203 1.66468 -0.756818
  273 65.5117 3.19664 -6.46751
  274 65.5117 3.19664 -6.46751
  275 19.5372 -8.22346 4.99789
  276 19.5372 -8.22346 4.99789
  277 83.9933 -13.7495 17.3495
  278 83.9933 -13.7495 17.3495
  279 78.5262 1.20138 1.47469
  280 78.5262 1.20138 1.47469
  281 117.788 8.41539 -1.59451
  282 117.788 8.41539 -1.59451
  283 142.747 11.2099 15.7543
  284 142.747 11.2099 15.7543
  285 94.3965 -9.97969 5.30919
  286 94.3965 -9.97969 5.30919
  287 66.8298 3.36913 4.77311
  288 66.8298 3.36913 4.77311
  289 86.6458 -17.0109 22.8275
  290 86.6458 -17.0109 22.8275
  291 88.7558 -1.00996 2.12787
  292 88.7558 -1.00996 2.12787
  293 78.4791 0.792472 0.409773
  294 78.4791 0.792472 0.409773
  295 77.2704 2.17441 -2.37774
  296 77.2704 2.17441 -2.37774
  297 78.0811 1.28419 -0.112468
  298 78.0811 1.28419 -0.112468
  299 79.3198 0.224206 -0.572291
  300 79.3198 0.224206 -0.572291
  301 81.0288 0.416707 1.45881
  302 81.0288 0.416707 1.45881
  303 76.8071 2.21733 -0.615338
  304 76.8071 2.21733 -0.615338
  305 17.6799 -30.6490 -19.6349
  306 17.6799 -30.6490 -19.6349
  307 52.0114 3.33755 4.38127
  308 52.0114 3.33755 4.38127
  309 78.5816 0.659879 -0.394459
  310 78.5816 0.659879 -0.394459
  311 68.7402 4.01364 -3.20190
  312 68.7402 4.01364 -3.20190
  313 68.9075 4.37806 1.22987
  314 68.9075 4.37806 1.22987
  315 78.3954 1.15524 -1.04913
  316 78.3954 1.15524 -1.04913
  317 106.012 5.21281 0.479041
  318 106.012 5.21281 0.479041
  319 77.7576 1.92703 3.24502
  320 77.7576 1.92703 3.24502
  321 99.8206 2.94905 -3.28015
  322 99.8206 2.94905 -3.28015
  323 150.580 4.33912 9.88523
  324 150.580 4.33912 9.88523
  325 77.4366 1.99639 2.05985
  326 77.4366 1.99639 2.05985
  327 76.1142 2.63826 1.07749
  328 76.1142 2.63826 1.07749
  329 60.5186 -14.7330 -31.6034
  330 60.5186 -14.7330 -31.6034
  331 79.3634 0.202909 0.560082
  332 79.3634 0.202909 0.560082
  333 77.5351 1.67850 0.565079
  334 77.5351 1.67850 0.565079
  335 74.4846 3.40465 0.123169
  336 74.4846 3.40465 0.123169
  337 38.3592 -13.7361 25.7169
  338 38.3592 -13.7361 25.7169
  339 96.4069 6.25809 0.575391
  340 96.4069 6.25809 0.575391
  341 5.60375 -40.1151 -8.56184
  342 5.60375 -40.1151 -8.56184
  343 59.3941 3.75487 3.93253
  344 59.3941 3.75487 3.93253
  345 142.331 2.03239 1.43755
  346 142.331 2.03239 1.43755
  347 148.416 7.35336 -10.0973
  348 148.416 7.35336 -10.0973
  349 67.8501 -7.78085 19.1835
  350 70.6481 -4.02116 14.3191
  351 67.8501 -7.78085 19.1835
  352 70.6481 -4.02116 14.3191
  353 144.330 3.71220 5.26123
  354 144.330 3.71220 5.26123
  355 80.4002 -0.0864501 5.53359
  356 80.4002 -0.0864501 5.53359
  357 96.2830 -12.9502 -13.1417
  358 96.2830 -12.9502 -13.1417
  359 90.5125 -0.809355 2.91704
  360 90.5125 -0.809355 2.91704
  361 62.1655 -14.6266 34.7660
  362 62.1655 -14.6266 34.7660
  363 106.093 8.53835 -0.303545
  364 106.093 8.53835 -0.303545
  365 144.520 1.38709 -1.11257
  366 144.520 1.38709 -1.11257
  367 85.9047 0.0759837 -2.72892
  368 85.9047 0.0759837 -2.72892
  369 76.1207 2.80241 -1.28692
  370 76.1207 2.80241 -1.28692
  371 119.294 9.23347 2.57364
  372 119.294 9.23347 2.57364
  373 90.2326 3.72046 -0.633681
  374 90.2326 3.72046 -0.633681
  375 82.6650 0.334265 -1.78600
  376 82.6650 0.334265 -1.78600
  377 21.8244 -11.4144 -14.6415
  378 21.8244 -11.4144 -14.6415
  379 91.5087 -1.62995 0.927607
  380 91.5087 -1.62995 0.927607
  381 77.9444 -0.0968766 -6.50418
  382 77.9444 -0.0968766 -6.50418
  383 89.7319 -0.209150 -3.45978
  384 89.7319 -0.209150 -3.45978
  385 144.958 2.62551 -4.38166
  386 144.958 2.62551 -4.38166
  387 78.1758 1.23821 0.830643
  388 78.1758 1.23821 0.830643
  389 95.5596 4.55248 3.02198
  390 95.5596 4.55248 3.02198
  391 103.941 -2.52854 0.181231
  392 103.941 -2.52854 0.181231
  393 78.4930 1.45269 -1.83775
  394 78.4930 1.45269 -1.83775
  395 153.447 13.0368 -18.3995
  396 153.447 13.0368 -18.3995
  397 90.4278 -1.27660 -0.844567
  398 90.4278 -1.27660 -0.844567
</Section>

newXOutput 24

<Section columns = "stress_xx | stress_yy | stress_xy">
  1 82.1905 0.0790546 -0.0993070
  2 82.2234 0.0991353 0.134079
  3 82.1905 0.0790546 -0.0993070
  4 82.2234 0.0991353 0.134079
  5 130.052 6.03101 34.4382
  6 135.350 5.68948 -33.8505
  7 130.052 6.03101 34.4382
  8 135.350 5.68948 -33.8505
  9 82.4120 0.0567919 -0.259745
  10 83.1501 0.101765 -0.459172
  11 84.2085 0.233736 -0.924960
  12 86.6274 0.0914601 -1.23235
  13 89.6900 0.160694 -1.98461
  14 93.2111 -0.790609 -1.89818
  15 96.3274 -0.971955 -0.130410
  16 94.4306 -0.683440 1.77661
  17 90.3575 0.661899 3.03188
  18 88.1562 1.68765 -0.116239
  19 89.7819 0.817522 -2.83280
  20 94.3060 -1.01008 -2.16832
  21 95.4136 -1.17807 0.534623
  22 93.7020 -0.524997 1.62707
  23 89.0220 0.0537339 1.98645
  24 86.4034 0.339858 1.55617
  25 84.2643 0.268087 0.890219
  26 83.1582 0.0817126 0.421213
  27 82.4543 0.0668605 0.250124
  28 82.3593 0.300224 0.156824
  29 82.1967 0.619441 0.181010
  30 81.7976 1.08157 0.160277
  31 81.6378 1.25933 -0.0155601
  32 81.8458 1.02524 -0.192867
  33 82.1341 0.675243 -0.166321
  34 82.2616 0.339511 -0.174068
  35 82.4120 0.0567919 -0.259745
  36 83.1501 0.101765 -0.459172
  37 84.2085 0.233736 -0.924960
  38 86.6274 0.0914601 -1.23235
  39 89.6900 0.160694 -1.98461
  40 93.2111 -0.790609 -1.89818
  41 96.3274 -0.971955 -0.130410
  42 94.4306 -0.683440 1.77661
  43 90.3575 0.661899 3.03188
  44 88.1562 1.68765 -0.116239
  45 89.7819 0.817522 -2.83280
  46 94.3060 -1.01008 -2.16832
  47 95.4136 -1.17807 0.534623
  48 93.7020 -0.524997 1.62707
  49 89.0220 0.0537339 1.98645
  50 86.4034 0.339858 1.55617
  51 84.2643 0.268087 0.890219
  52 83.1582 0.0817126 0.421213
  53 82.4543 0.0668605 0.250124
  54 82.3593 0.300224 0.156824
  55 82.1967 0.619441 0.181010
  56 81.7976 1.08157 0.160277
  57 81.6378 1.25933 -0.0155601
  58 81.8458 1.02524 -0.192867
  59 82.1341 0.675243 -0.166321
  60 82.2616 0.339511 -0.174068
  61 181.530 9.00522 18.5303
  62 165.203 2.74537 6.73072
  63 155.419 1.21265 2.54391
  64 153.350 0.865287 0.528550
  65 155.363 1.12999 -2.18246
  66 162.743 2.37390 -5.89259
  67 183.204 7.85562 -15.9381
  68 23.5871 -28.1184 -27.4863
  69 4.66203 -59.1055 -6.53748
  70 1.49300 -66.1671 -2.87539
  71 1.42130 -64.8755 -1.60592
  72 2.26095 -63.3824 3.06448
  73 5.01049 -57.3120 6.89488
  74 25.7551 -26.3678 30.5482
  75 181.530 9.00522 18.5303
  76 165.203 2.74537 6.73072
  77 155.419 1.21265 2.54391
  78 153.350 0.865287 0.528550
  79 155.363 1.12999 -2.18246
  80 162.743 2.37390 -5.89259
  81 183.204 7.85562 -15.9381
  82 23.5871 -28.1184 -27.4863
  83 4.66203 -59.1055 -6.53748
  84 1.49300 -66.1671 -2.87539
  85 1.42130 -64.8755 -1.60592
  86 2.26095 -63.3824 3.06448
  87 5.01049 -57.3120 6.89488
  88 25.7551 -26.3678 30.5482
  89 75.1509 4.36910 -1.14727
  90 75.1509 4.36910 -1.14727
  91 68.5621 0.932090 10.1978
  92 65.8423 -0.436229 -12.1100
  93 68.5621 0.932090 10.1978
  94 65.8423 -0.436229 -12.1100
  95 38.2265 0.771644 4.80986
  96 38.2265 0.771644 4.80986
  97 101.443 6.46551 -1.82117
  98 103.705 3.56268 3.77269
  99 101.443 6.46551 -1.82117
  100 103.705 3.56268 3.77269
  101 80.9263 2.00490 1.17779
  102 80.9263 2.00490 1.17779
  103 97.4422 -5.53513 -0.318016
  104 97.4422 -5.53513 -0.318016
  105 81.0377 2.09312 -1.45099
  106 81.0377 2.09312 -1.45099
  107 96.0302 -11.7327 -10.3621
  108 96.0302 -11.7327 -10.3621
  109 66.6828 -13.7642 26.2936
  110 66.6828 -13.7642 26.2936
  111 44.6021 -8.19761 -21.0916
  112 44.6021 -8.19761 -21.0916
  113 81.4086 1.40562 4.91696
  114 81.4086 1.40562 4.91696
  115 84.5344 0.613475 -4.68037
  116 84.5344 0.613475 -4.68037
  117 115.489 7.46781 0.348624
  118 124.033 8.15719 0.580649
  119 115.489 7.46781 0.348624
  120 124.033 8.15719 0.580649
  121 121.284 10.0588 -2.53137
  122 121.284 10.0588 -2.53137
  123 12.9497 -21.9113 -6.65894
  124 12.9497 -21.9113 -6.65894
  125 104.648 -13.0895 10.8905
  126 104.648 -13.0895 10.8905
  127 87.5245 -2.07743 5.38445
  128 87.5245 -2.07743 5.38445
  129 19.7124 -18.9871 15.4364
  130 19.7124 -18.9871 15.4364
  131 81.0509 1.67893 -0.0755437
  132 81.0509 1.67893 -0.0755437
  133 87.4210 -4.03074 -6.81636
  134 87.4210 -4.03074 -6.81636
  135 82.4429 0.685813 0.861380
  136 82.4429 0.685813 0.861380
  137 82.5289 0.601881 -0.804982
  138 82.5289 0.601881 -0.804982
  139 83.4766 1.18174 -2.52036
  140 83.4766 1.18174 -2.52036
  141 83.0677 1.14799 2.27695
  142 83.0677 1.14799 2.27695
  143 79.3112 2.78216 -0.0904428
  144 79.3112 2.78216 -0.0904428
  145 65.8083 4.40695 -0.517082
  146 65.8083 4.40695 -0.517082
  147 96.8461 -3.47441 1.86486
  148 96.8461 -3.47441 1.86486
  149 111.421 -4.31079 -3.40518
  150 111.421 -4.31079 -3.40518
  151 85.5031 -9.43677 13.1619
  152 85.5031 -9.43677 13.1619
  153 64.5843 -17.5675 -29.0969
  154 64.5843 -17.5675 -29.0969
  155 75.3832 3.12759 4.66916
  156 75.3832 3.12759 4.66916
  157 98.4704 -0.674245 -4.07124
  158 98.4704 -0.674245 -4.07124
  159 136.034 10.5675 7.18346
  160 136.034 10.5675 7.18346
  161 67.3143 -18.6661 33.8672
  162 67.3143 -18.6661 33.8672
  163 139.429 4.75726 -1.54928
  164 139.429 4.75726 -1.54928
  165 78.9855 2.76963 2.20940
  166 78.9855 2.76963 2.20940
  167 74.9428 2.57943 -6.78896
  168 74.9428 2.57943 -6.78896
  169 92.9415 2.73584 2.34200
  170 92.9415 2.73584 2.34200
  171 78.2077 3.29620 -2.49874
  172 78.2077 3.29620 -2.49874
  173 81.5829 1.35124 0.376437
  174 81.5829 1.35124 0.376437
  175 83.0459 0.655761 -1.36059
  176 83.0459 0.655761 -1.36059
  177 130.293 9.62189 -6.70894
  178 130.293 9.62189 -6.70894
  179 81.6571 1.31372 -0.455286
  180 81.6571 1.31372 -0.455286
  181 59.5243 4.34275 -3.49926
  182 59.5243 4.34275 -3.49926
  183 109.261 7.99580 1.13490
  184 109.261 7.99580 1.13490
  185 21.7417 -18.6612 -19.9717
  186 21.7417 -18.6612 -19.9717
  187 58.9078 -0.697889 14.6899
  188 58.9078 -0.697889 14.6899
  189 79.7705 -12.7276 -20.3891
  190 79.7705 -12.7276 -20.3891
  191 94.1895 -2.54960 0.946608
  192 94.1895 -2.54960 0.946608
  193 88.0370 -0.263319 3.39548
  194 88.0370 -0.263319 3.39548
  195 120.895 2.88416 6.11603
  196 120.895 2.88416 6.11603
  197 48.7743 1.42920 -9.02691
  198 48.7743 1.42920 -9.02691
  199 138.017 6.29602 3.49466
  200 138.017 6.29602 3.49466
  201 89.7186 -1.05849 -3.49556
  202 89.7186 -1.05849 -3.49556
  203 83.1811 0.469713 1.25614
  204 83.1811 0.469713 1.25614
  205 93.4665 -3.60220 -1.59106
  206 93.4665 -3.60220 -1.59106
  207 102.518 -5.26235 -0.0371199
  208 102.518 -5.26235 -0.0371199
  209 6.31715 -37.3559 2.86952
  210 6.31715 -37.3559 2.86952
  211 85.9221 0.489008 -3.04575
  212 85.9221 0.489008 -3.04575
  213 85.1653 0.695841 2.67622
  214 85.1653 0.695841 2.67622
  215 81.9679 -7.46722 -13.0755
  216 81.9679 -7.46722 -13.0755
  217 95.8199 -2.02749 -2.54654
  218 95.8199 -2.02749 -2.54654
  219 77.9589 2.85912 -4.67324
  220 77.9589 2.85912 -4.67324
  221 21.4729 -27.4112 21.7136
  222 21.4729 -27.4112 21.7136
  223 96.9686 0.331992 3.80324
  224 96.9686 0.331992 3.80324
  225 93.8886 2.31586 -3.13378
  226 93.8886 2.31586 -3.13378
  227 136.290 8.17506 -5.84563
  228 136.290 8.17506 -5.84563
  229 102.838 -3.93605 -2.33860
  230 102.838 -3.93605 -2.33860
  231 113.273 -6.02844 -18.5734
  232 113.273 -6.02844 -18.5734
  233 82.1553 -3.68548 10.1696
  234 82.1553 -3.68548 10.1696
  235 80.2401 2.32948 0.377889
  236 80.2401 2.32948 0.377889
  237 42.1409 -6.39861 18.7078
  238 42.1409 -6.39861 18.7078
  239 108.415 -10.0301 21.9933
  240 108.415 -10.0301 21.9933
  241 28.2852 -4.10246 -9.18626
  242 28.2852 -4.10246 -9.18626
  243 95.5928 -7.11455 -4.24438
  244 95.5928 -7.11455 -4.24438
  245 77.1171 3.54117 2.72428
  246 77.1171 3.54117 2.72428
  247 2.87977 -48.2316 -2.29111
  248 2.87977 -48.2316 -2.29111
  249 5.35396 -42.7693 7.63349
  250 5.35396 -42.7693 7.63349
  251 78.6955 0.561447 7.40615
  252 78.6955 0.561447 7.40615
  253 82.3460 0.319970 0.314356
  254 82.3460 0.319970 0.314356
  255 81.5737 1.36375 0.0590493
  256 81.5737 1.36375 0.0590493
  257 76.4408 -0.936393 -9.77056
  258 76.4408 -0.936393 -9.77056
  259 82.4069 0.290220 -0.332841
  260 82.4069 0.290220 -0.332841
  261 91.6333 -6.39277 5.88280
  262 91.6333 -6.39277 5.88280
  263 84.7674 0.312580 -1.51752
  264 84.7674 0.312580 -1.51752
  265 65.2664 -5.52628 -17.9265
  266 65.2664 -5.52628 -17.9265
  267 112.258 8.55071 -0.820188
  268 112.258 8.55071 -0.820188
  269 81.4642 1.85691 -3.84864
  270 81.4642 1.85691 -3.84864
  271 81.1165 1.73908 -0.790364
  272 81.1165 1.73908 -0.790364
  273 68.4687 3.34076 -6.75815
  274 68.4687 3.34076 -6.75815
  275 20.4239 -8.58825 5.22576
  276 20.4239 -8.58825 5.22576
  277 87.7666 -14.3695 18.1357
  278 87.7666 -14.3695 18.1357
  279 82.0624 1.25508 1.54011
  280 82.0624 1.25508 1.54011
  281 123.075 8.79196 -1.66952
  282 123.075 8.79196 -1.66952
  283 149.130 11.7242 16.4727
  284 149.130 11.7242 16.4727
  285 98.6359 -10.4285 5.55494
  286 98.6359 -10.4285 5.55494
  287 69.8460 3.52086 4.98723
  288 69.8460 3.52086 4.98723
  289 90.5350 -17.7772 23.8627
  290 90.5350 -17.7772 23.8627
  291 92.7459 -1.05579 2.22439
  292 92.7459 -1.05579 2.22439
  293 82.0130 0.827879 0.427889
  294 82.0130 0.827879 0.427889
  295 80.7512 2.27169 -2.48359
  296 80.7512 2.27169 -2.48359
  297 81.5976 1.34151 -0.117442
  298 81.5976 1.34151 -0.117442
  299 82.8906 0.234236 -0.597593
  300 82.8906 0.234236 -0.597593
  301 84.6751 0.435271 1.52355
  302 84.6751 0.435271 1.52355
  303 80.2676 2.31649 -0.642676
  304 80.2676 2.31649 -0.642676
  305 18.4766 -32.0217 -20.5365
  306 18.4766 -32.0217 -20.5365
  307 54.3641 3.48923 4.57854
  308 54.3641 3.48923 4.57854
  309 82.1200 0.689380 -0.411890
  310 82.1200 0.689380 -0.411890
  311 71.8420 4.19406 -3.34549
  312 71.8420 4.19406 -3.34549
  313 72.0169 4.57484 1.28491
  314 72.0169 4.57484 1.28491
  315 81.9257 1.20688 -1.09562
  316 81.9257 1.20688 -1.09562
  317 110.774 5.45157 0.489382
  318 110.774 5.45157 0.489382
  319 81.2599 2.01324 3.38973
  320 81.2599 2.01324 3.38973
  321 104.309 3.08395 -3.41936
  322 104.309 3.08395 -3.41936
  323 157.304 4.53196 10.3303
  324 157.304 4.53196 10.3303
  325 80.9247 2.08569 2.15148
  326 80.9247 2.08569 2.15148
  327 79.5440 2.75633 1.12541
  328 79.5440 2.75633 1.12541
  329 63.2353 -15.3731 -33.0470
  330 63.2353 -15.3731 -33.0470
  331 82.9363 0.211983 0.584842
  332 82.9363 0.211983 0.584842
  333 81.0277 1.75351 0.590130
  334 81.0277 1.75351 0.590130
  335 77.8423 3.55719 0.128649
  336 77.8423 3.55719 0.128649
  337 40.0912 -14.3539 26.8871
  338 40.0912 -14.3539 26.8871
  339 100.747 6.54052 0.599826
  340 100.747 6.54052 0.599826
  341 5.85524 -41.9241 -8.95732
  342 5.85524 -41.9241 -8.95732
  343 62.0782 3.92449 4.10918
  344 62.0782 3.92449 4.10918
  345 148.688 2.12193 1.50128
  346 148.688 2.12193 1.50128
  347 155.048 7.68420 -10.5532
  348 155.048 7.68420 -10.5532
  349 70.9053 -8.13190 20.0499
  350 73.8304 -4.20234 14.9643
  351 70.9053 -8.13190 20.0499
  352 73.8304 -4.20234 14.9643
  353 150.778 3.87649 5.49681
  354 150.778 3.87649 5.49681
  355 84.0193 -0.0906866 5.78208
  356 84.0193 -0.0906866 5.78208
  357 100.603 -13.5318 -13.7415
  358 100.603 -13.5318 -13.7415
  359 94.5863 -0.845422 3.04450
  360 94.5863 -0.845422 3.04450
  361 64.9528 -15.2632 36.3516
  362 64.9528 -15.2632 36.3516
  363 110.863 8.92181 -0.316966
  364 110.863 8.92181 -0.316966
  365 150.971 1.44806 -1.16220
  366 150.971 1.44806 -1.16220
  367 89.7671 0.0789584 -2.85116
  368 89.7671 0.0789584 -2.85116
  369 79.5508 2.92785 -1.34421
  370 79.5508 2.92785 -1.34421
  371 124.647 9.64812 2.69575
  372 124.647 9.64812 2.69575
  373 94.2986 3.88872 -0.661428
  374 94.2986 3.88872 -0.661428
  375 86.3834 0.349038 -1.86546
  376 86.3834 0.349038 -1.86546
  377 22.8149 -11.9245 -15.3094
  378 22.8149 -11.9245 -15.3094
  379 95.6235 -1.70346 0.966489
  380 95.6235 -1.70346 0.966489
  381 81.4543 -0.101594 -6.79657
  382 81.4543 -0.101594 -6.79657
  383 93.7725 -0.218276 -3.61126
  384 93.7725 -0.218276 -3.61126
  385 151.432 2.74183 -4.57751
  386 151.432 2.74183 -4.57751
  387 81.6965 1.29353 0.867438
  388 81.6965 1.29353 0.867438
  389 99.8604 4.75881 3.15250
  390 99.8604 4.75881 3.15250
  391 108.607 -2.63836 0.200515
  392 108.607 -2.63836 0.200515
  393 82.0276 1.51763 -1.91936
  394 82.0276 1.51763 -1.91936
  395 160.301 13.6370 -19.2369
  396 160.301 13.6370 -19.2369
  397 94.4924 -1.33450 -0.883886
  398 94.4924 -1.33450 -0.883886
</Section>

newXOutput 25

<Section columns = "stress_xx | stress_yy | stress_xy">
  1 85.7289 0.0824724 -0.103487
  2 85.7634 0.103408 0.139720
  3 85.7289 0.0824724 -0.103487
  4 85.7634 0.103408 0.139720
  5 135.603 6.32266 35.9372
  6 141.125 5.96793 -35.3245
  7 135.603 6.32266 35.9372
  8 141.125 5.96793 -35.3245
  9 85.9597 0.0592333 -0.270689
  10 86.7288 0.106123 -0.478550
  11 87.8317 0.243706 -0.964085
  12 90.3525 0.0953086 -1.28462
  13 93.5447 0.167341 -2.06923
  14 97.2157 -0.825081 -1.97986
  15 100.466 -1.01406 -0.137246
  16 98.4934 -0.712835 1.85048
  17 94.2520 0.690992 3.15917
  18 91.9595 1.76100 -0.121149
  19 93.6523 0.852935 -2.95189
  20 98.3639 -1.05360 -2.25844
  21 99.5136 -1.22913 0.559070
  22 97.7276 -0.547849 1.69720
  23 92.8489 0.0557123 2.07127
  24 90.1192 0.354283 1.62222
  25 87.8900 0.279523 0.927858
  26 86.7373 0.0852127 0.438983
  27 86.0040 0.0697385 0.260671
  28 85.9049 0.313074 0.163420
  29 85.7355 0.645908 0.188639
  30 85.3197 1.12772 0.167043
  31 85.1532 1.31304 -0.0162169
  32 85.3699 1.06900 -0.201000
  33 85.6702 0.704096 -0.173310
  34 85.8030 0.354053 -0.181407
  35 85.9597 0.0592333 -0.270689
  36 86.7288 0.106123 -0.478550
  37 87.8317 0.243706 -0.964085
  38 90.3525 0.0953086 -1.28462
  39 93.5447 0.167341 -2.06923
  40 97.2157 -0.825081 -1.97986
  41 100.466 -1.01406 -0.137246
  42 98.4934 -0.712835 1.85048
  43 94.2520 0.690992 3.15917
  44 91.9595 1.76100 -0.121149
  45 93.6523 0.852935 -2.95189
  46 98.3639 -1.05360 -2.25844
  47 99.5136 -1.22913 0.559070
  48 97.7276 -0.547849 1.69720
  49 92.8489 0.0557123 2.07127
  50 90.1192 0.354283 1.62222
  51 87.8900 0.279523 0.927858
  52 86.7373 0.0852127 0.438983
  53 86.0040 0.0697385 0.260671
  54 85.9049 0.313074 0.163420
  55 85.7355 0.645908 0.188639
  56 85.3197 1.12772 0.167043
  57 85.1532 1.31304 -0.0162169
  58 85.3699 1.06900 -0.201000
  59 85.6702 0.704096 -0.173310
  60 85.8030 0.354053 -0.181407
  61 189.258 9.39477 19.3263
  62 172.239 2.86170 7.01739
  63 162.044 1.26312 2.65144
  64 159.888 0.901441 0.550477
  65 161.985 1.17742 -2.27456
  66 169.677 2.47422 -6.14283
  67 191.004 8.19520 -16.6230
  68 24.6008 -29.2991 -28.6918
  69 4.86234 -61.6585 -6.83104
  70 1.55478 -69.0399 -3.00416
  71 1.48017 -67.6935 -1.67567
  72 2.35653 -66.1318 3.20190
  73 5.22643 -59.7871 7.20492
  74 26.8595 -27.4728 31.8868
  75 189.258 9.39477 19.3263
  76 172.239 2.86170 7.01739
  77 162.044 1.26312 2.65144
  78 159.888 0.901441 0.550477
  79 161.985 1.17742 -2.27456
  80 169.677 2.47422 -6.14283
  81 191.004 8.19520 -16.6230
  82 24.6008 -29.2991 -28.6918
  83 4.86234 -61.6585 -6.83104
  84 1.55478 -69.0399 -3.00416
  85 1.48017 -67.6935 -1.67567
  86 2.35653 -66.1318 3.20190
  87 5.22643 -59.7871 7.20492
  88 26.8595 -27.4728 31.8868
  89 78.3919 4.55655 -1.19635
  90 78.3919 4.55655 -1.19635
  91 71.5198 0.972592 10.6363
  92 68.6832 -0.454629 -12.6316
  93 71.5198 0.972592 10.6363
  94 68.6832 -0.454629 -12.6316
  95 39.8841 0.808164 5.01784
  96 39.8841 0.808164 5.01784
  97 105.809 6.74461 -1.89592
  98 108.163 3.71841 3.92607
  99 105.809 6.74461 -1.89592
  100 108.163 3.71841 3.92607
  101 84.4119 2.09058 1.22775
  102 84.4119 2.09058 1.22775
  103 101.630 -5.77312 -0.325362
  104 101.630 -5.77312 -0.325362
  105 84.5278 2.18260 -1.51257
  106 84.5278 2.18260 -1.51257
  107 100.153 -12.2380 -10.8133
  108 100.153 -12.2380 -10.8133
  109 69.5532 -14.3581 27.4323
  110 69.5532 -14.3581 27.4323
  111 46.5285 -8.54948 -22.0066
  112 46.5285 -8.54948 -22.0066
  113 84.9141 1.46561 5.12733
  114 84.9141 1.46561 5.12733
  115 88.1723 0.639309 -4.88092
  116 88.1723 0.639309 -4.88092
  117 120.448 7.79248 0.375209
  118 129.355 8.50537 0.607502
  119 120.448 7.79248 0.375209
  120 129.355 8.50537 0.607502
  121 126.490 10.4930 -2.64945
  122 126.490 10.4930 -2.64945
  123 13.5104 -22.8508 -6.95133
  124 13.5104 -22.8508 -6.95133
  125 109.136 -13.6496 11.3695
  126 109.136 -13.6496 11.3695
  127 91.2893 -2.16724 5.61699
  128 91.2893 -2.16724 5.61699
  129 20.5661 -19.8002 16.1123
  130 20.5661 -19.8002 16.1123
  131 84.5417 1.75062 -0.0787341
  132 84.5417 1.75062 -0.0787341
  133 91.1808 -4.20468 -7.11142
  134 91.1808 -4.20468 -7.11142
  135 85.9921 0.715120 0.897800
  136 85.9921 0.715120 0.897800
  137 86.0815 0.627617 -0.839002
  138 86.0815 0.627617 -0.839002
  139 87.0694 1.23214 -2.62755
  140 87.0694 1.23214 -2.62755
  141 86.6433 1.19700 2.37370
  142 86.6433 1.19700 2.37370
  143 82.7287 2.90117 -0.0943168
  144 82.7287 2.90117 -0.0943168
  145 68.6510 4.59677 -0.539389
  146 68.6510 4.59677 -0.539389
  147 101.010 -3.62351 1.93950
  148 101.010 -3.62351 1.93950
  149 116.201 -4.48990 -3.56500
  150 116.201 -4.48990 -3.56500
  151 89.1787 -9.84370 13.7311
  152 89.1787 -9.84370 13.7311
  153 67.3611 -18.3212 -30.3630
  154 67.3611 -18.3212 -30.3630
  155 78.6333 3.26191 4.86914
  156 78.6333 3.26191 4.86914
  157 102.705 -0.702234 -4.23948
  158 102.705 -0.702234 -4.23948
  159 141.860 11.0235 7.49971
  160 141.860 11.0235 7.49971
  161 70.2077 -19.4690 35.3382
  162 70.2077 -19.4690 35.3382
  163 145.393 4.95862 -1.61626
  164 145.393 4.95862 -1.61626
  165 82.3890 2.88815 2.30351
  166 82.3890 2.88815 2.30351
  167 78.1736 2.69029 -7.08030
  168 78.1736 2.69029 -7.08030
  169 96.9464 2.85466 2.44010
  170 96.9464 2.85466 2.44010
  171 81.5783 3.43737 -2.60531
  172 81.5783 3.43737 -2.60531
  173 85.0960 1.40891 0.392357
  174 85.0960 1.40891 0.392357
  175 86.6204 0.683750 -1.41822
  176 86.6204 0.683750 -1.41822
  177 135.875 10.0428 -7.01076
  178 135.875 10.0428 -7.01076
  179 85.1733 1.36982 -0.474531
  180 85.1733 1.36982 -0.474531
  181 62.0976 4.53065 -3.64990
  182 62.0976 4.53065 -3.64990
  183 113.958 8.34059 1.17716
  184 113.958 8.34059 1.17716
  185 22.6819 -19.4602 -20.8455
  186 22.6819 -19.4602 -20.8455
  187 61.4512 -0.727074 15.3233
  188 61.4512 -0.727074 15.3233
  189 83.1999 -13.2765 -21.2720
  190 83.1999 -13.2765 -21.2720
  191 98.2387 -2.65971 0.990278
  192 98.2387 -2.65971 0.990278
  193 91.8231 -0.275095 3.54115
  194 91.8231 -0.275095 3.54115
  195 126.078 3.01683 6.39391
  196 126.078 3.01683 6.39391
  197 50.8849 1.49279 -9.41678
  198 50.8849 1.49279 -9.41678
  199 143.925 6.56366 3.64650
  200 143.925 6.56366 3.64650
  201 93.5763 -1.10455 -3.64648
  202 93.5763 -1.10455 -3.64648
  203 86.7613 0.489744 1.30932
  204 86.7613 0.489744 1.30932
  205 97.4845 -3.75779 -1.66274
  206 97.4845 -3.75779 -1.66274
  207 106.921 -5.48695 -0.0475347
  208 106.921 -5.48695 -0.0475347
  209 6.58941 -38.9673 2.99638
  210 6.58941 -38.9673 2.99638
  211 89.6183 0.509557 -3.17575
  212 89.6183 0.509557 -3.17575
  213 88.8295 0.725443 2.79027
  214 88.8295 0.725443 2.79027
  215 85.4940 -7.78918 -13.6405
  216 85.4940 -7.78918 -13.6405
  217 99.9409 -2.11476 -2.65122
  218 99.9409 -2.11476 -2.65122
  219 81.3184 2.98171 -4.87333
  220 81.3184 2.98171 -4.87333
  221 22.3988 -28.5850 22.6661
  222 22.3988 -28.5850 22.6661
  223 101.141 0.347626 3.96094
  224 101.141 0.347626 3.96094
  225 97.9329 2.41652 -3.26470
  226 97.9329 2.41652 -3.26470
  227 142.125 8.52453 -6.10152
  228 142.125 8.52453 -6.10152
  229 107.255 -4.10351 -2.43020
  230 107.255 -4.10351 -2.43020
  231 118.126 -6.27446 -19.3891
  232 118.126 -6.27446 -19.3891
  233 85.6906 -3.84429 10.6078
  234 85.6906 -3.84429 10.6078
  235 83.6968 2.42905 0.393931
  236 83.6968 2.42905 0.393931
  237 43.9626 -6.67254 19.5190
  238 43.9626 -6.67254 19.5190
  239 113.060 -10.4512 22.9551
  240 113.060 -10.4512 22.9551
  241 29.5123 -4.27470 -9.58543
  242 29.5123 -4.27470 -9.58543
  243 99.6998 -7.42100 -4.43187
  244 99.6998 -7.42100 -4.43187
  245 80.4413 3.69300 2.84064
  246 80.4413 3.69300 2.84064
  247 3.00240 -50.3172 -2.39297
  248 3.00240 -50.3172 -2.39297
  249 5.58424 -44.6140 7.97242
  250 5.58424 -44.6140 7.97242
  251 82.0854 0.585463 7.72417
  252 82.0854 0.585463 7.72417
  253 85.8911 0.333665 0.327615
  254 85.8911 0.333665 0.327615
  255 85.0865 1.42193 0.0615487
  256 85.0865 1.42193 0.0615487
  257 79.7340 -0.976826 -10.1910
  258 79.7340 -0.976826 -10.1910
  259 85.9544 0.302656 -0.346882
  260 85.9544 0.302656 -0.346882
  261 95.5718 -6.66829 6.13925
  262 95.5718 -6.66829 6.13925
  263 88.4143 0.325859 -1.58186
  264 88.4143 0.325859 -1.58186
  265 68.0797 -5.76444 -18.7007
  266 68.0797 -5.76444 -18.7007
  267 117.082 8.91894 -0.848975
  268 117.082 8.91894 -0.848975
  269 84.9723 1.93625 -4.01292
  270 84.9723 1.93625 -4.01292
  271 84.6100 1.81337 -0.823837
  272 84.6100 1.81337 -0.823837
  273 71.4239 3.48478 -7.04849
  274 71.4239 3.48478 -7.04849
  275 21.3105 -8.95226 5.45370
  276 21.3105 -8.95226 5.45370
  277 91.5361 -14.9891 18.9217
  278 91.5361 -14.9891 18.9217
  279 85.5956 1.30869 1.60539
  280 85.5956 1.30869 1.60539
  281 128.356 9.16803 -1.74474
  282 128.356 9.16803 -1.74474
  283 155.504 12.2389 17.1912
  284 155.504 12.2389 17.1912
  285 102.871 -10.8768 5.80107
  286 102.871 -10.8768 5.80107
  287 72.8604 3.67246 5.20112
  288 72.8604 3.67246 5.20112
  289 94.4200 -18.5430 24.8978
  290 94.4200 -18.5430 24.8978
  291 96.7323 -1.10161 2.32088
  292 96.7323 -1.10161 2.32088
  293 85.5442 0.863234 0.445962
  294 85.5442 0.863234 0.445962
  295 84.2293 2.36883 -2.58924
  296 84.2293 2.36883 -2.58924
  297 85.1114 1.39875 -0.122404
  298 85.1114 1.39875 -0.122404
  299 86.4584 0.244253 -0.622836
  300 86.4584 0.244253 -0.622836
  301 88.3183 0.453803 1.58815
  302 88.3183 0.453803 1.58815
  303 83.7254 2.41552 -0.669959
  304 83.7254 2.41552 -0.669959
  305 19.2728 -33.3926 -21.4389
  306 19.2728 -33.3926 -21.4389
  307 56.7158 3.64091 4.77564
  308 56.7158 3.64091 4.77564
  309 85.6555 0.718837 -0.429278
  310 85.6555 0.718837 -0.429278
  311 74.9418 4.37431 -3.48892
  312 74.9418 4.37431 -3.48892
  313 75.1244 4.77144 1.33987
  314 75.1244 4.77144 1.33987
  315 85.4531 1.25843 -1.14201
  316 85.4531 1.25843 -1.14201
  317 115.532 5.69048 0.498753
  318 115.532 5.69048 0.498753
  319 84.7593 2.09933 3.53420
  320 84.7593 2.09933 3.53420
  321 108.792 3.21892 -3.55773
  322 108.792 3.21892 -3.55773
  323 164.018 4.72443 10.7749
  324 164.018 4.72443 10.7749
  325 84.4102 2.17486 2.24292
  326 84.4102 2.17486 2.24292
  327 82.9713 2.87423 1.17325
  328 82.9713 2.87423 1.17325
  329 65.9491 -16.0106 -34.4912
  330 65.9491 -16.0106 -34.4912
  331 86.5061 0.221045 0.609542
  332 86.5061 0.221045 0.609542
  333 84.5175 1.82840 0.615128
  334 84.5175 1.82840 0.615128
  335 81.1975 3.70955 0.134118
  336 81.1975 3.70955 0.134118
  337 41.8222 -14.9712 28.0573
  338 41.8222 -14.9712 28.0573
  339 105.084 6.82277 0.624114
  340 105.084 6.82277 0.624114
  341 6.10644 -43.7317 -9.35336
  342 6.10644 -43.7317 -9.35336
  343 64.7611 4.09402 4.28566
  344 64.7611 4.09402 4.28566
  345 155.035 2.21123 1.56487
  346 155.035 2.21123 1.56487
  347 161.671 8.01474 -11.0088
  348 161.671 8.01474 -11.0088
  349 73.9579 -8.48273 20.9158
  350 77.0103 -4.38337 15.6089
  351 73.9579 -8.48273 20.9158
  352 77.0103 -4.38337 15.6089
  353 157.215 4.04040 5.73208
  354 157.215 4.04040 5.73208
  355 87.6355 -0.0949494 6.03030
  356 87.6355 -0.0949494 6.03030
  357 104.918 -14.1128 -14.3415
  358 104.918 -14.1128 -14.3415
  359 98.6566 -0.881427 3.17153
  360 98.6566 -0.881427 3.17153
  361 67.7367 -15.8974 37.9376
  362 67.7367 -15.8974 37.9376
  363 115.629 9.30487 -0.330355
  364 115.629 9.30487 -0.330355
  365 157.413 1.50884 -1.21174
  366 157.413 1.50884 -1.21174
  367 93.6259 0.0818924 -2.97324
  368 93.6259 0.0818924 -2.97324
  369 82.9783 3.05313 -1.40138
  370 82.9783 3.05313 -1.40138
  371 129.995 10.0623 2.81829
  372 129.995 10.0623 2.81829
  373 98.3614 4.05691 -0.689085
  374 98.3614 4.05691 -0.689085
  375 90.0986 0.363774 -1.94477
  376 90.0986 0.363774 -1.94477
  377 23.8052 -12.4338 -15.9775
  378 23.8052 -12.4338 -15.9775
  379 99.7345 -1.77692 1.00509
  380 99.7345 -1.77692 1.00509
  381 84.9614 -0.106338 -7.08868
  382 84.9614 -0.106338 -7.08868
  383 97.8098 -0.227369 -3.76225
  384 97.8098 -0.227369 -3.76225
  385 157.896 2.85790 -4.77308
  386 157.896 2.85790 -4.77308
  387 85.2144 1.34877 0.904150
  388 85.2144 1.34877 0.904150
  389 104.157 4.96508 3.28244
  390 104.157 4.96508 3.28244
  391 113.268 -2.74774 0.220738
  392 113.268 -2.74774 0.220738
  393 85.5594 1.58247 -2.00080
  394 85.5594 1.58247 -2.00080
  395 167.145 14.2378 -20.0743
  396 167.145 14.2378 -20.0743
  397 98.5530 -1.39239 -0.923284
  398 98.5530 -1.39239 -0.923284
</Section>

newXOutput 26

<Section columns = "stress_xx | stress_yy | stress_xy">
  1 89.2644 0.0858887 -0.107656
  2 89.3004 0.107677 0.145347
  3 89.2644 0.0858887 -0.107656
  4 89.3004 0.107677 0.145347
  5 141.147 6.61672 37.4363
  6 146.891 6.24893 -36.7986
  7 141.147 6.61672 37.4363
  8 146.891 6.24893 -36.7986
  9 89.5045 0.0616724 -0.281605
  10 90.3045 0.110476 -0.497881
  11 91.4518 0.253660 -1.00312
  12 94.0742 0.0991466 -1.33677
  13 97.3957 0.173961 -2.15371
  14 101.216 -0.859560 -2.06146
  15 104.601 -1.05616 -0.144176
  16 102.553 -0.742205 1.92407
  17 98.1436 0.720111 3.28608
  18 95.7603 1.83434 -0.126047
  19 97.5200 0.888339 -3.07065
  20 102.418 -1.09710 -2.34823
  21 103.610 -1.28018 0.583615
  22 101.749 -0.570702 1.76728
  23 96.6721 0.0576615 2.15596
  24 93.8317 0.368679 1.68814
  25 91.5125 0.290942 0.965409
  26 90.3135 0.0887084 0.456708
  27 89.5507 0.0726140 0.271192
  28 89.4475 0.325907 0.169998
  29 89.2714 0.672337 0.196250
  30 88.8390 1.17379 0.173792
  31 88.6659 1.36666 -0.0168721
  32 88.8911 1.11268 -0.209113
  33 89.2034 0.732907 -0.180280
  34 89.3415 0.368578 -0.188728
  35 89.5045 0.0616724 -0.281605
  36 90.3045 0.110476 -0.497881
  37 91.4518 0.253660 -1.00312
  38 94.0742 0.0991466 -1.33677
  39 97.3957 0.173961 -2.15371
  40 101.216 -0.859560 -2.06146
  41 104.601 -1.05616 -0.144176
  42 102.553 -0.742205 1.92407
  43 98.1436 0.720111 3.28608
  44 95.7603 1.83434 -0.126047
  45 97.5200 0.888339 -3.07065
  46 102.418 -1.09710 -2.34823
  47 103.610 -1.28018 0.583615
  48 101.749 -0.570702 1.76728
  49 96.6721 0.0576615 2.15596
  50 93.8317 0.368679 1.68814
  51 91.5125 0.290942 0.965409
  52 90.3135 0.0887084 0.456708
  53 89.5507 0.0726140 0.271192
  54 89.4475 0.325907 0.169998
  55 89.2714 0.672337 0.196250
  56 88.8390 1.17379 0.173792
  57 88.6659 1.36666 -0.0168721
  58 88.8911 1.11268 -0.209113
  59 89.2034 0.732907 -0.180280
  60 89.3415 0.368578 -0.188728
  61 196.972 9.78415 20.1214
  62 179.263 2.97778 7.30356
  63 168.658 1.31342 2.75871
  64 166.415 0.937478 0.572319
  65 168.596 1.22472 -2.36642
  66 176.599 2.57430 -6.39258
  67 198.790 8.53461 -17.3073
  68 25.6135 -30.4764 -29.8982
  69 5.06246 -64.2100 -7.12538
  70 1.61630 -71.9123 -3.13324
  71 1.53879 -70.5114 -1.74541
  72 2.45188 -68.8807 3.33966
  73 5.44221 -62.2607 7.51582
  74 27.9626 -28.5743 33.2263
  75 196.972 9.78415 20.1214
  76 179.263 2.97778 7.30356
  77 168.658 1.31342 2.75871
  78 166.415 0.937478 0.572319
  79 168.596 1.22472 -2.36642
  80 176.599 2.57430 -6.39258
  81 198.790 8.53461 -17.3073
  82 25.6135 -30.4764 -29.8982
  83 5.06246 -64.2100 -7.12538
  84 1.61630 -71.9123 -3.13324
  85 1.53879 -70.5114 -1.74541
  86 2.45188 -68.8807 3.33966
  87 5.44221 -62.2607 7.51582
  88 27.9626 -28.5743 33.2263
  89 81.6306 4.74380 -1.24537
  90 81.6306 4.74380 -1.24537
  91 74.4755 1.01309 11.0744
  92 71.5223 -0.472982 -13.1528
  93 74.4755 1.01309 11.0744
  94 71.5223 -0.472982 -13.1528
  95 41.5414 0.844927 5.22572
  96 41.5414 0.844927 5.22572
  97 110.171 7.02353 -1.97031
  98 112.618 3.87420 4.07858
  99 110.171 7.02353 -1.97031
  100 112.618 3.87420 4.07858
  101 87.8947 2.17613 1.27761
  102 87.8947 2.17613 1.27761
  103 105.814 -6.01089 -0.332180
  104 105.814 -6.01089 -0.332180
  105 88.0152 2.27195 -1.57402
  106 88.0152 2.27195 -1.57402
  107 104.272 -12.7428 -11.2646
  108 104.272 -12.7428 -11.2646
  109 72.4211 -14.9516 28.5706
  110 72.4211 -14.9516 28.5706
  111 48.4538 -8.90099 -22.9214
  112 48.4538 -8.90099 -22.9214
  113 88.4168 1.52550 5.33742
  114 88.4168 1.52550 5.33742
  115 91.8071 0.665074 -5.08123
  116 91.8071 0.665074 -5.08123
  117 125.401 8.11715 0.402720
  118 134.670 8.85302 0.634485
  119 125.401 8.11715 0.402720
  120 134.670 8.85302 0.634485
  121 131.690 10.9268 -2.76817
  122 131.690 10.9268 -2.76817
  123 14.0708 -23.7892 -7.24396
  124 14.0708 -23.7892 -7.24396
  125 113.619 -14.2090 11.8488
  126 113.619 -14.2090 11.8488
  127 95.0507 -2.25701 5.84939
  128 95.0507 -2.25701 5.84939
  129 21.4195 -20.6123 16.7887
  130 21.4195 -20.6123 16.7887
  131 88.0297 1.82220 -0.0819168
  132 88.0297 1.82220 -0.0819168
  133 94.9372 -4.37850 -7.40637
  134 94.9372 -4.37850 -7.40637
  135 89.5383 0.744384 0.934137
  136 89.5383 0.744384 0.934137
  137 89.6312 0.653318 -0.872941
  138 89.6312 0.653318 -0.872941
  139 90.6592 1.28246 -2.73454
  140 90.6592 1.28246 -2.73454
  141 90.2160 1.24593 2.47026
  142 90.2160 1.24593 2.47026
  143 86.1435 3.02002 -0.0981858
  144 86.1435 3.02002 -0.0981858
  145 71.4922 4.78644 -0.561681
  146 71.4922 4.78644 -0.561681
  147 105.169 -3.77244 2.01360
  148 105.169 -3.77244 2.01360
  149 120.975 -4.66833 -3.72578
  150 120.975 -4.66833 -3.72578
  151 92.8509 -10.2503 14.3000
  152 92.8509 -10.2503 14.3000
  153 70.1352 -19.0741 -31.6292
  154 70.1352 -19.0741 -31.6292
  155 81.8812 3.39610 5.06886
  156 81.8812 3.39610 5.06886
  157 106.935 -0.730114 -4.40700
  158 106.935 -0.730114 -4.40700
  159 147.678 11.4791 7.81625
  160 147.678 11.4791 7.81625
  161 73.0983 -20.2711 36.8090
  162 73.0983 -20.2711 36.8090
  163 151.350 5.15953 -1.68320
  164 151.350 5.15953 -1.68320
  165 85.7900 3.00653 2.39746
  166 85.7900 3.00653 2.39746
  167 81.4021 2.80104 -7.37132
  168 81.4021 2.80104 -7.37132
  169 100.948 2.97347 2.53789
  170 100.948 2.97347 2.53789
  171 84.9464 3.57836 -2.71171
  172 84.9464 3.57836 -2.71171
  173 88.6063 1.46650 0.408239
  174 88.6063 1.46650 0.408239
  175 90.1919 0.711696 -1.47572
  176 90.1919 0.711696 -1.47572
  177 141.451 10.4639 -7.31340
  178 141.451 10.4639 -7.31340
  179 88.6866 1.42582 -0.493731
  180 88.6866 1.42582 -0.493731
  181 64.6697 4.71847 -3.80040
  182 64.6697 4.71847 -3.80040
  183 118.651 8.68515 1.21885
  184 118.651 8.68515 1.21885
  185 23.6216 -20.2582 -21.7198
  186 23.6216 -20.2582 -21.7198
  187 63.9931 -0.756166 15.9563
  188 63.9931 -0.756166 15.9563
  189 86.6261 -13.8251 -22.1545
  190 86.6261 -13.8251 -22.1545
  191 102.284 -2.76976 1.03415
  192 102.284 -2.76976 1.03415
  193 95.6057 -0.286898 3.68666
  194 95.6057 -0.286898 3.68666
  195 131.254 3.15011 6.67275
  196 131.254 3.15011 6.67275
  197 52.9946 1.55649 -9.80645
  198 52.9946 1.55649 -9.80645
  199 149.824 6.83082 3.79832
  200 149.824 6.83082 3.79832
  201 97.4306 -1.15061 -3.79732
  202 97.4306 -1.15061 -3.79732
  203 90.3385 0.509742 1.36239
  204 90.3385 0.509742 1.36239
  205 101.499 -3.91330 -1.73461
  206 101.499 -3.91330 -1.73461
  207 111.319 -5.71121 -0.0586665
  208 111.319 -5.71121 -0.0586665
  209 6.86148 -40.5776 3.12342
  210 6.86148 -40.5776 3.12342
  211 93.3113 0.530047 -3.30555
  212 93.3113 0.530047 -3.30555
  213 92.4905 0.754992 2.90412
  214 92.4905 0.754992 2.90412
  215 89.0171 -8.11092 -14.2053
  216 89.0171 -8.11092 -14.2053
  217 104.058 -2.20196 -2.75541
  218 104.058 -2.20196 -2.75541
  219 84.6754 3.10416 -5.07316
  220 84.6754 3.10416 -5.07316
  221 23.3240 -29.7574 23.6193
  222 23.3240 -29.7574 23.6193
  223 105.310 0.363359 4.11802
  224 105.310 0.363359 4.11802
  225 101.974 2.51717 -3.39518
  226 101.974 2.51717 -3.39518
  227 147.954 8.87352 -6.35753
  228 147.954 8.87352 -6.35753
  229 111.668 -4.27067 -2.52098
  230 111.668 -4.27067 -2.52098
  231 122.973 -6.51916 -20.2054
  232 122.973 -6.51916 -20.2054
  233 89.2228 -4.00299 11.0457
  234 89.2228 -4.00299 11.0457
  235 87.1508 2.52848 0.409942
  236 87.1508 2.52848 0.409942
  237 45.7834 -6.94612 20.3299
  238 45.7834 -6.94612 20.3299
  239 117.699 -10.8710 23.9174
  240 117.699 -10.8710 23.9174
  241 30.7392 -4.44644 -9.98457
  242 30.7392 -4.44644 -9.98457
  243 103.803 -7.72721 -4.61959
  244 103.803 -7.72721 -4.61959
  245 83.7631 3.84465 2.95683
  246 83.7631 3.84465 2.95683
  247 3.12482 -52.4019 -2.49502
  248 3.12482 -52.4019 -2.49502
  249 5.81432 -46.4575 8.31193
  250 5.81432 -46.4575 8.31193
  251 85.4726 0.609446 8.04186
  252 85.4726 0.609446 8.04186
  253 89.4332 0.347341 0.340840
  254 89.4332 0.347341 0.340840
  255 88.5964 1.48001 0.0640426
  256 88.5964 1.48001 0.0640426
  257 83.0247 -1.01723 -10.6111
  258 83.0247 -1.01723 -10.6111
  259 89.4989 0.315077 -0.360888
  260 89.4989 0.315077 -0.360888
  261 99.5067 -6.94361 6.39574
  262 99.5067 -6.94361 6.39574
  263 92.0580 0.339114 -1.64608
  264 92.0580 0.339114 -1.64608
  265 70.8910 -6.00243 -19.4744
  266 70.8910 -6.00243 -19.4744
  267 121.902 9.28688 -0.877206
  268 121.902 9.28688 -0.877206
  269 88.4775 2.01547 -4.17695
  270 88.4775 2.01547 -4.17695
  271 88.1008 1.88755 -0.857238
  272 88.1008 1.88755 -0.857238
  273 74.3773 3.62870 -7.33855
  274 74.3773 3.62870 -7.33855
  275 22.1969 -9.31550 5.68169
  276 22.1969 -9.31550 5.68169
  277 95.3018 -15.6082 19.7075
  278 95.3018 -15.6082 19.7075
  279 89.1260 1.36223 1.67054
  280 89.1260 1.36223 1.67054
  281 133.632 9.54358 -1.82017
  282 133.632 9.54358 -1.82017
  283 161.868 12.7540 17.9099
  284 161.868 12.7540 17.9099
  285 107.102 -11.3248 6.04758
  286 107.102 -11.3248 6.04758
  287 75.8729 3.82395 5.41476
  288 75.8729 3.82395 5.41476
  289 98.3007 -19.3081 25.9326
  290 98.3007 -19.3081 25.9326
  291 100.715 -1.14743 2.41736
  292 100.715 -1.14743 2.41736
  293 89.0724 0.898536 0.463992
  294 89.0724 0.898536 0.463992
  295 87.7046 2.46585 -2.69471
  296 87.7046 2.46585 -2.69471
  297 88.6223 1.45590 -0.127354
  298 88.6223 1.45590 -0.127354
  299 90.0232 0.254256 -0.648018
  300 90.0232 0.254256 -0.648018
  301 91.9583 0.472303 1.65261
  302 91.9583 0.472303 1.65261
  303 87.1805 2.51441 -0.697189
  304 87.1805 2.51441 -0.697189
  305 20.0683 -34.7617 -22.3421
  306 20.0683 -34.7617 -22.3421
  307 59.0666 3.79258 4.97258
  308 59.0666 3.79258 4.97258
  309 89.1881 0.748253 -0.446624
  310 89.1881 0.748253 -0.446624
  311 78.0397 4.55438 -3.63218
  312 78.0397 4.55438 -3.63218
  313 78.2300 4.96784 1.39475
  314 78.2300 4.96784 1.39475
  315 88.9777 1.30991 -1.18830
  316 88.9777 1.30991 -1.18830
  317 120.284 5.92954 0.507158
  318 120.284 5.92954 0.507158
  319 88.2560 2.18531 3.67843
  320 88.2560 2.18531 3.67843
  321 113.272 3.35397 -3.69526
  322 113.272 3.35397 -3.69526
  323 170.721 4.91652 11.2192
  324 170.721 4.91652 11.2192
  325 87.8929 2.26392 2.33420
  326 87.8929 2.26392 2.33420
  327 86.3960 2.99197 1.22099
  328 86.3960 2.99197 1.22099
  329 68.6600 -16.6456 -35.9359
  330 68.6600 -16.6456 -35.9359
  331 90.0730 0.230095 0.634183
  332 90.0730 0.230095 0.634183
  333 88.0046 1.90318 0.640071
  334 88.0046 1.90318 0.640071
  335 84.5504 3.86172 0.139577
  336 84.5504 3.86172 0.139577
  337 43.5522 -15.5879 29.2276
  338 43.5522 -15.5879 29.2276
  339 109.417 7.10485 0.648258
  340 109.417 7.10485 0.648258
  341 6.35737 -45.5382 -9.74994
  342 6.35737 -45.5382 -9.74994
  343 67.4425 4.26346 4.46195
  344 67.4425 4.26346 4.46195
  345 161.373 2.30029 1.62833
  346 161.373 2.30029 1.62833
  347 168.283 8.34499 -11.4641
  348 168.283 8.34499 -11.4641
  349 77.0081 -8.83333 21.7812
  350 80.1877 -4.56427 16.2531
  351 77.0081 -8.83333 21.7812
  352 80.1877 -4.56427 16.2531
  353 163.643 4.20393 5.96704
  354 163.643 4.20393 5.96704
  355 91.2485 -0.0992383 6.27826
  356 91.2485 -0.0992383 6.27826
  357 109.228 -14.6932 -14.9417
  358 109.228 -14.6932 -14.9417
  359 102.723 -0.917370 3.29812
  360 102.723 -0.917370 3.29812
  361 70.5173 -16.5292 39.5240
  362 70.5173 -16.5292 39.5240
  363 120.391 9.68754 -0.343711
  364 120.391 9.68754 -0.343711
  365 163.844 1.56946 -1.26121
  366 163.844 1.56946 -1.26121
  367 97.4810 0.0847857 -3.09517
  368 97.4810 0.0847857 -3.09517
  369 86.4032 3.17825 -1.45846
  370 86.4032 3.17825 -1.45846
  371 135.337 10.4761 2.94126
  372 135.337 10.4761 2.94126
  373 102.421 4.22503 -0.716651
  374 102.421 4.22503 -0.716651
  375 93.8103 0.378474 -2.02394
  376 93.8103 0.378474 -2.02394
  377 24.7953 -12.9424 -16.6458
  378 24.7953 -12.9424 -16.6458
  379 103.842 -1.85032 1.04342
  380 103.842 -1.85032 1.04342
  381 88.4655 -0.111108 -7.38051
  382 88.4655 -0.111108 -7.38051
  383 101.844 -0.236430 -3.91275
  384 101.844 -0.236430 -3.91275
  385 164.351 2.97371 -4.96836
  386 164.351 2.97371 -4.96836
  387 88.7295 1.40393 0.940781
  388 88.7295 1.40393 0.940781
  389 108.451 5.17130 3.41181
  390 108.451 5.17130 3.41181
  391 117.924 -2.85668 0.241897
  392 117.924 -2.85668 0.241897
  393 89.0883 1.64723 -2.08209
  394 89.0883 1.64723 -2.08209
  395 173.978 14.8392 -20.9118
  396 173.978 14.8392 -20.9118
  397 102.610 -1.45027 -0.962759
  398 102.610 -1.45027 -0.962759
</Section>

newXOutput 27

<Section columns = "stress_xx | stress_yy | stress_xy">
  1 92.7970 0.0893033 -0.111814
  2 92.8345 0.111944 0.150957
  3 92.7970 0.0893033 -0.111814
  4 92.8345 0.111944 0.150957
  5 146.682 6.91320 38.9356
  6 152.648 6.53248 -38.2728
  7 146.682 6.91320 38.9356
  8 152.648 6.53248 -38.2728
  9 93.0464 0.0641092 -0.292492
  10 93.8771 0.114823 -0.517164
  11 95.0687 0.263597 -1.04207
  12 97.7925 0.102974 -1.38882
  13 101.243 0.180553 -2.23805
  14 105.213 -0.894047 -2.14300
  15 108.731 -1.09824 -0.151200
  16 106.609 -0.771548 1.99739
  17 102.033 0.749256 3.41262
  18 99.5587 1.90769 -0.130933
  19 101.385 0.923731 -3.18908
  20 106.469 -1.14057 -2.43768
  21 107.702 -1.33122 0.608256
  22 105.767 -0.593558 1.83731
  23 100.492 0.0595816 2.24052
  24 97.5408 0.383045 1.75393
  25 95.1319 0.302342 1.00287
  26 93.8867 0.0921999 0.474389
  27 93.0945 0.0754871 0.281686
  28 92.9873 0.338724 0.176557
  29 92.8045 0.698727 0.203840
  30 92.3555 1.21979 0.180525
  31 92.1757 1.42020 -0.0175258
  32 92.4095 1.15630 -0.217205
  33 92.7337 0.761676 -0.187229
  34 92.8770 0.383085 -0.196030
  35 93.0464 0.0641092 -0.292492
  36 93.8771 0.114823 -0.517164
  37 95.0687 0.263597 -1.04207
  38 97.7925 0.102974 -1.38882
  39 101.243 0.180553 -2.23805
  40 105.213 -0.894047 -2.14300
  41 108.731 -1.09824 -0.151200
  42 106.609 -0.771548 1.99739
  43 102.033 0.749256 3.41262
  44 99.5587 1.90769 -0.130933
  45 101.385 0.923731 -3.18908
  46 106.469 -1.14057 -2.43768
  47 107.702 -1.33122 0.608256
  48 105.767 -0.593558 1.83731
  49 100.492 0.0595816 2.24052
  50 97.5408 0.383045 1.75393
  51 95.1319 0.302342 1.00287
  52 93.8867 0.0921999 0.474389
  53 93.0945 0.0754871 0.281686
  54 92.9873 0.338724 0.176557
  55 92.8045 0.698727 0.203840
  56 92.3555 1.21979 0.180525
  57 92.1757 1.42020 -0.0175258
  58 92.4095 1.15630 -0.217205
  59 92.7337 0.761676 -0.187229
  60 92.8770 0.383085 -0.196030
  61 204.673 10.1734 20.9157
  62 186.276 3.09362 7.58923
  63 175.261 1.36353 2.86574
  64 172.931 0.973397 0.594076
  65 175.196 1.27187 -2.45806
  66 183.509 2.67415 -6.64185
  67 206.562 8.87386 -17.9908
  68 26.6252 -31.6502 -31.1054
  69 5.26238 -66.7601 -7.42050
  70 1.67757 -74.7844 -3.26263
  71 1.59718 -73.3290 -1.81514
  72 2.54701 -71.6290 3.47777
  73 5.65783 -64.7329 7.82757
  74 29.0644 -29.6724 34.5665
  75 204.673 10.1734 20.9157
  76 186.276 3.09362 7.58923
  77 175.261 1.36353 2.86574
  78 172.931 0.973397 0.594076
  79 175.196 1.27187 -2.45806
  80 183.509 2.67415 -6.64185
  81 206.562 8.87386 -17.9908
  82 26.6252 -31.6502 -31.1054
  83 5.26238 -66.7601 -7.42050
  84 1.67757 -74.7844 -3.26263
  85 1.59718 -73.3290 -1.81514
  86 2.54701 -71.6290 3.47777
  87 5.65783 -64.7329 7.82757
  88 29.0644 -29.6724 34.5665
  89 84.8672 4.93085 -1.29432
  90 84.8672 4.93085 -1.29432
  91 77.4294 1.05359 11.5121
  92 74.3595 -0.491290 -13.6736
  93 77.4294 1.05359 11.5121
  94 74.3595 -0.491290 -13.6736
  95 43.1982 0.881930 5.43350
  96 43.1982 0.881930 5.43350
  97 114.529 7.30230 -2.04434
  98 117.068 4.03006 4.23022
  99 114.529 7.30230 -2.04434
  100 117.068 4.03006 4.23022
  101 91.3748 2.26157 1.32736
  102 91.3748 2.26157 1.32736
  103 109.993 -6.24843 -0.338471
  104 109.993 -6.24843 -0.338471
  105 91.4999 2.36118 -1.63536
  106 91.4999 2.36118 -1.63536
  107 108.386 -13.2473 -11.7160
  108 108.386 -13.2473 -11.7160
  109 75.2867 -15.5448 29.7086
  110 75.2867 -15.5448 29.7086
  111 50.3781 -9.25212 -23.8361
  112 50.3781 -9.25212 -23.8361
  113 91.9167 1.58531 5.54723
  114 91.9167 1.58531 5.54723
  115 95.4388 0.690771 -5.28129
  116 95.4388 0.690771 -5.28129
  117 130.350 8.44182 0.431153
  118 139.980 9.20015 0.661596
  119 130.350 8.44182 0.431153
  120 139.980 9.20015 0.661596
  121 136.885 11.3605 -2.88753
  122 136.885 11.3605 -2.88753
  123 14.6311 -24.7266 -7.53683
  124 14.6311 -24.7266 -7.53683
  125 118.097 -14.7676 12.3286
  126 118.097 -14.7676 12.3286
  127 98.8087 -2.34673 6.08167
  128 98.8087 -2.34673 6.08167
  129 22.2727 -21.4233 17.4654
  130 22.2727 -21.4233 17.4654
  131 91.5150 1.89368 -0.0850917
  132 91.5150 1.89368 -0.0850917
  133 98.6902 -4.55222 -7.70121
  134 98.6902 -4.55222 -7.70121
  135 93.0817 0.773607 0.970389
  136 93.0817 0.773607 0.970389
  137 93.1780 0.678984 -0.906801
  138 93.1780 0.678984 -0.906801
  139 94.2460 1.33270 -2.84134
  140 94.2460 1.33270 -2.84134
  141 93.7857 1.29478 2.56663
  142 93.7857 1.29478 2.56663
  143 89.5558 3.13871 -0.102050
  144 89.5558 3.13871 -0.102050
  145 74.3319 4.97596 -0.583958
  146 74.3319 4.97596 -0.583958
  147 109.325 -3.92121 2.08718
  148 109.325 -3.92121 2.08718
  149 125.744 -4.84607 -3.88750
  150 125.744 -4.84607 -3.88750
  151 96.5197 -10.6567 14.8687
  152 96.5197 -10.6567 14.8687
  153 72.9067 -19.8261 -32.8955
  154 72.9067 -19.8261 -32.8955
  155 85.1268 3.53015 5.26833
  156 85.1268 3.53015 5.26833
  157 111.162 -0.757883 -4.57380
  158 111.162 -0.757883 -4.57380
  159 153.490 11.9345 8.13310
  160 153.490 11.9345 8.13310
  161 75.9863 -21.0726 38.2797
  162 75.9863 -21.0726 38.2797
  163 157.298 5.36000 -1.75010
  164 157.298 5.36000 -1.75010
  165 89.1885 3.12474 2.49125
  166 89.1885 3.12474 2.49125
  167 84.6284 2.91169 -7.66202
  168 84.6284 2.91169 -7.66202
  169 104.947 3.09227 2.63538
  170 104.947 3.09227 2.63538
  171 88.3120 3.71918 -2.81793
  172 88.3120 3.71918 -2.81793
  173 92.1138 1.52401 0.424086
  174 92.1138 1.52401 0.424086
  175 93.7603 0.739599 -1.53310
  176 93.7603 0.739599 -1.53310
  177 147.020 10.8852 -7.61683
  178 147.020 10.8852 -7.61683
  179 92.1972 1.48175 -0.512887
  180 92.1972 1.48175 -0.512887
  181 67.2405 4.90622 -3.95079
  182 67.2405 4.90622 -3.95079
  183 123.339 9.02948 1.25996
  184 123.339 9.02948 1.25996
  185 24.5609 -21.0551 -22.5946
  186 24.5609 -21.0551 -22.5946
  187 66.5335 -0.785165 16.5889
  188 66.5335 -0.785165 16.5889
  189 90.0491 -14.3734 -23.0368
  190 90.0491 -14.3734 -23.0368
  191 106.326 -2.87974 1.07823
  192 106.326 -2.87974 1.07823
  193 99.3849 -0.298727 3.83201
  194 99.3849 -0.298727 3.83201
  195 136.425 3.28397 6.95255
  196 136.425 3.28397 6.95255
  197 55.1035 1.62030 -10.1959
  198 55.1035 1.62030 -10.1959
  199 155.716 7.09747 3.95013
  200 155.716 7.09747 3.95013
  201 101.281 -1.19668 -3.94807
  202 101.281 -1.19668 -3.94807
  203 93.9128 0.529708 1.41535
  204 93.9128 0.529708 1.41535
  205 105.509 -4.06872 -1.80669
  206 105.509 -4.06872 -1.80669
  207 115.713 -5.93512 -0.0705133
  208 115.713 -5.93512 -0.0705133
  209 7.13335 -42.1868 3.25063
  210 7.13335 -42.1868 3.25063
  211 97.0009 0.550480 -3.43515
  212 97.0009 0.550480 -3.43515
  213 96.1484 0.784488 3.01778
  214 96.1484 0.784488 3.01778
  215 92.5370 -8.43243 -14.7697
  216 92.5370 -8.43243 -14.7697
  217 108.172 -2.28909 -2.85910
  218 108.172 -2.28909 -2.85910
  219 88.0299 3.22647 -5.27274
  220 88.0299 3.22647 -5.27274
  221 24.2485 -30.9282 24.5731
  222 24.2485 -30.9282 24.5731
  223 109.475 0.379191 4.27447
  224 109.475 0.379191 4.27447
  225 106.012 2.61783 -3.52522
  226 106.012 2.61783 -3.52522
  227 153.775 9.22202 -6.61367
  228 153.775 9.22202 -6.61367
  229 116.076 -4.43753 -2.61094
  230 116.076 -4.43753 -2.61094
  231 127.814 -6.76254 -21.0223
  232 127.814 -6.76254 -21.0223
  233 92.7521 -4.16157 11.4832
  234 92.7521 -4.16157 11.4832
  235 90.6022 2.62778 0.425920
  236 90.6022 2.62778 0.425920
  237 47.6033 -7.21935 21.1407
  238 47.6033 -7.21935 21.1407
  239 122.332 -11.2896 24.8801
  240 122.332 -11.2896 24.8801
  241 31.9658 -4.61768 -10.3837
  242 31.9658 -4.61768 -10.3837
  243 107.902 -8.03318 -4.80755
  244 107.902 -8.03318 -4.80755
  245 87.0825 3.99613 3.07285
  246 87.0825 3.99613 3.07285
  247 3.24702 -54.4856 -2.59726
  248 3.24702 -54.4856 -2.59726
  249 6.04419 -48.2998 8.65202
  250 6.04419 -48.2998 8.65202
  251 88.8572 0.633396 8.35923
  252 88.8572 0.633396 8.35923
  253 92.9725 0.361000 0.354033
  254 92.9725 0.361000 0.354033
  255 92.1036 1.53801 0.0665310
  256 92.1036 1.53801 0.0665310
  257 86.3130 -1.05762 -11.0308
  258 86.3130 -1.05762 -11.0308
  259 93.0406 0.327483 -0.374858
  260 93.0406 0.327483 -0.374858
  261 103.438 -7.21873 6.65229
  262 103.438 -7.21873 6.65229
  263 95.6985 0.352342 -1.71015
  264 95.6985 0.352342 -1.71015
  265 73.7003 -6.24025 -20.2476
  266 73.7003 -6.24025 -20.2476
  267 126.717 9.65453 -0.904881
  268 126.717 9.65453 -0.904881
  269 91.9800 2.09457 -4.34072
  270 91.9800 2.09457 -4.34072
  271 91.5888 1.96162 -0.890565
  272 91.5888 1.96162 -0.890565
  273 77.3289 3.77252 -7.62831
  274 77.3289 3.77252 -7.62831
  275 23.0833 -9.67797 5.90974
  276 23.0833 -9.67797 5.90974
  277 99.0636 -16.2270 20.4931
  278 99.0636 -16.2270 20.4931
  279 92.6535 1.41569 1.73554
  280 92.6535 1.41569 1.73554
  281 138.902 9.91864 -1.89580
  282 138.902 9.91864 -1.89580
  283 168.224 13.2695 18.6287
  284 168.224 13.2695 18.6287
  285 111.328 -11.7723 6.29445
  286 111.328 -11.7723 6.29445
  287 78.8835 3.97531 5.62816
  288 78.8835 3.97531 5.62816
  289 102.177 -20.0727 26.9672
  290 102.177 -20.0727 26.9672
  291 104.694 -1.19324 2.51382
  292 104.694 -1.19324 2.51382
  293 92.5978 0.933786 0.481979
  294 92.5978 0.933786 0.481979
  295 91.1772 2.56272 -2.79998
  296 91.1772 2.56272 -2.79998
  297 92.1304 1.51295 -0.132292
  298 92.1304 1.51295 -0.132292
  299 93.5851 0.264246 -0.673139
  300 93.5851 0.264246 -0.673139
  301 95.5951 0.490771 1.71695
  302 95.5951 0.490771 1.71695
  303 90.6330 2.61316 -0.724364
  304 90.6330 2.61316 -0.724364
  305 20.8632 -36.1291 -23.2460
  306 20.8632 -36.1291 -23.2460
  307 61.4163 3.94425 5.16935
  308 61.4163 3.94425 5.16935
  309 92.7178 0.777626 -0.463928
  310 92.7178 0.777626 -0.463928
  311 81.1356 4.73428 -3.77527
  312 81.1356 4.73428 -3.77527
  313 81.3335 5.16405 1.44957
  314 81.3335 5.16405 1.44957
  315 92.4994 1.36132 -1.23449
  316 92.4994 1.36132 -1.23449
  317 125.032 6.16876 0.514600
  318 125.032 6.16876 0.514600
  319 91.7499 2.27116 3.82243
  320 91.7499 2.27116 3.82243
  321 117.747 3.48909 -3.83195
  322 117.747 3.48909 -3.83195
  323 177.414 5.10823 11.6631
  324 177.414 5.10823 11.6631
  325 91.3729 2.35284 2.42531
  326 91.3729 2.35284 2.42531
  327 89.8181 3.10956 1.26865
  328 89.8181 3.10956 1.26865
  329 71.3679 -17.2781 -37.3813
  330 71.3679 -17.2781 -37.3813
  331 93.6369 0.239131 0.658764
  332 93.6369 0.239131 0.658764
  333 91.4890 1.97786 0.664960
  334 91.4890 1.97786 0.664960
  335 87.9008 4.01370 0.145027
  336 87.9008 4.01370 0.145027
  337 45.2812 -16.2041 30.3980
  338 45.2812 -16.2041 30.3980
  339 113.747 7.38675 0.672256
  340 113.747 7.38675 0.672256
  341 6.60801 -47.3434 -10.1471
  342 6.60801 -47.3434 -10.1471
  343 70.1226 4.43280 4.63806
  344 70.1226 4.43280 4.63806
  345 167.701 2.38911 1.69165
  346 167.701 2.38911 1.69165
  347 174.886 8.67495 -11.9191
  348 174.886 8.67495 -11.9191
  349 80.0558 -9.18371 22.6461
  350 83.3626 -4.74503 16.8968
  351 80.0558 -9.18371 22.6461
  352 83.3626 -4.74503 16.8968
  353 170.061 4.36708 6.20169
  354 170.061 4.36708 6.20169
  355 94.8586 -0.103553 6.52596
  356 94.8586 -0.103553 6.52596
  357 113.534 -15.2730 -15.5421
  358 113.534 -15.2730 -15.5421
  359 106.787 -0.953251 3.42428
  360 106.787 -0.953251 3.42428
  361 73.2946 -17.1586 41.1108
  362 73.2946 -17.1586 41.1108
  363 125.148 10.0698 -0.357035
  364 125.148 10.0698 -0.357035
  365 170.265 1.62989 -1.31059
  366 170.265 1.62989 -1.31059
  367 101.333 0.0876386 -3.21694
  368 101.333 0.0876386 -3.21694
  369 89.8255 3.30319 -1.51543
  370 89.8255 3.30319 -1.51543
  371 140.672 10.8895 3.06464
  372 140.672 10.8895 3.06464
  373 106.478 4.39308 -0.744127
  374 106.478 4.39308 -0.744127
  375 97.5188 0.393138 -2.10296
  376 97.5188 0.393138 -2.10296
  377 25.7854 -13.4502 -17.3143
  378 25.7854 -13.4502 -17.3143
  379 107.945 -1.92368 1.08146
  380 107.945 -1.92368 1.08146
  381 91.9669 -0.115905 -7.67206
  382 91.9669 -0.115905 -7.67206
  383 105.875 -0.245457 -4.06276
  384 105.875 -0.245457 -4.06276
  385 170.796 3.08927 -5.16336
  386 170.796 3.08927 -5.16336
  387 92.2417 1.45900 0.977330
  388 92.2417 1.45900 0.977330
  389 112.741 5.37747 3.54059
  390 112.741 5.37747 3.54059
  391 122.575 -2.96518 0.263991
  392 122.575 -2.96518 0.263991
  393 92.6143 1.71188 -2.16320
  394 92.6143 1.71188 -2.16320
  395 180.801 15.4413 -21.7493
  396 180.801 15.4413 -21.7493
  397 106.663 -1.50814 -1.00231
  398 106.663 -1.50814 -1.00231
</Section>

newXOutput 28

<Section columns = "stress_xx | stress_yy | stress_xy">
  1 96.3268 0.0927163 -0.115961
  2 96.3658 0.116207 0.156553
  3 96.3268 0.0927163 -0.115961
  4 96.3658 0.116207 0.156553
  5 152.208 7.21208 40.4349
  6 158.396 6.81857 -39.7472
  7 152.208 7.21208 40.4349
  8 158.396 6.81857 -39.7472
  9 96.5853 0.0665438 -0.303351
  10 97.4468 0.119165 -0.536399
  11 98.6825 0.273520 -1.08093
  12 101.507 0.106792 -1.44077
  13 105.087 0.187118 -2.32226
  14 109.206 -0.928542 -2.22447
  15 112.858 -1.14031 -0.158318
  16 110.661 -0.800864 2.07043
  17 105.919 0.778427 3.53879
  18 103.355 1.98103 -0.135806
  19 105.247 0.959114 -3.30717
  20 110.517 -1.18400 -2.52679
  21 111.790 -1.38225 0.632993
  22 109.780 -0.616415 1.90729
  23 104.308 0.0614726 2.32496
  24 101.247 0.397384 1.81959
  25 98.7482 0.313725 1.04025
  26 97.4568 0.0956870 0.492025
  27 96.6353 0.0783579 0.292153
  28 96.5242 0.351524 0.183099
  29 96.3346 0.725080 0.211411
  30 95.8691 1.26572 0.187241
  31 95.6827 1.47365 -0.0181778
  32 95.9251 1.19986 -0.225277
  33 96.2611 0.790404 -0.194159
  34 96.4097 0.397574 -0.203314
  35 96.5853 0.0665438 -0.303351
  36 97.4468 0.119165 -0.536399
  37 98.6825 0.273520 -1.08093
  38 101.507 0.106792 -1.44077
  39 105.087 0.187118 -2.32226
  40 109.206 -0.928542 -2.22447
  41 112.858 -1.14031 -0.158318
  42 110.661 -0.800864 2.07043
  43 105.919 0.778427 3.53879
  44 103.355 1.98103 -0.135806
  45 105.247 0.959114 -3.30717
  46 110.517 -1.18400 -2.52679
  47 111.790 -1.38225 0.632993
  48 109.780 -0.616415 1.90729
  49 104.308 0.0614726 2.32496
  50 101.247 0.397384 1.81959
  51 98.7482 0.313725 1.04025
  52 97.4568 0.0956870 0.492025
  53 96.6353 0.0783579 0.292153
  54 96.5242 0.351524 0.183099
  55 96.3346 0.725080 0.211411
  56 95.8691 1.26572 0.187241
  57 95.6827 1.47365 -0.0181778
  58 95.9251 1.19986 -0.225277
  59 96.2611 0.790404 -0.194159
  60 96.4097 0.397574 -0.203314
  61 212.360 10.5624 21.7091
  62 193.276 3.20921 7.87442
  63 181.854 1.41346 2.97252
  64 179.437 1.00920 0.615749
  65 181.786 1.31889 -2.54948
  66 190.408 2.77377 -6.89063
  67 214.321 9.21294 -18.6737
  68 27.6358 -32.8205 -32.3134
  69 5.46210 -69.3087 -7.71639
  70 1.73857 -77.6561 -3.39234
  71 1.65533 -76.1463 -1.88487
  72 2.64192 -74.3768 3.61623
  73 5.87329 -67.2038 8.14017
  74 30.1650 -30.7671 35.9076
  75 212.360 10.5624 21.7091
  76 193.276 3.20921 7.87442
  77 181.854 1.41346 2.97252
  78 179.437 1.00920 0.615749
  79 181.786 1.31889 -2.54948
  80 190.408 2.77377 -6.89063
  81 214.321 9.21294 -18.6737
  82 27.6358 -32.8205 -32.3134
  83 5.46210 -69.3087 -7.71639
  84 1.73857 -77.6561 -3.39234
  85 1.65533 -76.1463 -1.88487
  86 2.64192 -74.3768 3.61623
  87 5.87329 -67.2038 8.14017
  88 30.1650 -30.7671 35.9076
  89 88.1016 5.11768 -1.34320
  90 88.1016 5.11768 -1.34320
  91 80.3813 1.09408 11.9495
  92 77.1950 -0.509552 -14.1939
  93 80.3813 1.09408 11.9495
  94 77.1950 -0.509552 -14.1939
  95 44.8548 0.919173 5.64119
  96 44.8548 0.919173 5.64119
  97 118.884 7.58089 -2.11801
  98 121.514 4.18599 4.38100
  99 118.884 7.58089 -2.11801
  100 121.514 4.18599 4.38100
  101 94.8521 2.34688 1.37701
  102 94.8521 2.34688 1.37701
  103 114.169 -6.48576 -0.344237
  104 114.169 -6.48576 -0.344237
  105 94.9818 2.45029 -1.69656
  106 94.9818 2.45029 -1.69656
  107 112.496 -13.7514 -12.1674
  108 112.496 -13.7514 -12.1674
  109 78.1498 -16.1376 30.8461
  110 78.1498 -16.1376 30.8461
  111 52.3014 -9.60289 -24.7506
  112 52.3014 -9.60289 -24.7506
  113 95.4137 1.64502 5.75676
  114 95.4137 1.64502 5.75676
  115 99.0674 0.716400 -5.48111
  116 99.0674 0.716400 -5.48111
  117 135.293 8.76649 0.460505
  118 145.284 9.54675 0.688834
  119 135.293 8.76649 0.460505
  120 145.284 9.54675 0.688834
  121 142.074 11.7938 -3.00753
  122 142.074 11.7938 -3.00753
  123 15.1911 -25.6628 -7.82993
  124 15.1911 -25.6628 -7.82993
  125 122.569 -15.3254 12.8089
  126 122.569 -15.3254 12.8089
  127 102.563 -2.43642 6.31381
  128 102.563 -2.43642 6.31381
  129 23.1255 -22.2334 18.1425
  130 23.1255 -22.2334 18.1425
  131 94.9976 1.96505 -0.0882590
  132 94.9976 1.96505 -0.0882590
  133 102.440 -4.72583 -7.99594
  134 102.440 -4.72583 -7.99594
  135 96.6221 0.802788 1.00656
  136 96.6221 0.802788 1.00656
  137 96.7219 0.704614 -0.940581
  138 96.7219 0.704614 -0.940581
  139 97.8298 1.38286 -2.94794
  140 97.8298 1.38286 -2.94794
  141 97.3525 1.34357 2.66283
  142 97.3525 1.34357 2.66283
  143 92.9656 3.25723 -0.105909
  144 92.9656 3.25723 -0.105909
  145 77.1700 5.16533 -0.606220
  146 77.1700 5.16533 -0.606220
  147 113.477 -4.06981 2.16024
  148 113.477 -4.06981 2.16024
  149 130.507 -5.02312 -4.05018
  150 130.507 -5.02312 -4.05018
  151 100.185 -11.0628 15.4371
  152 100.185 -11.0628 15.4371
  153 75.6757 -20.5773 -34.1618
  154 75.6757 -20.5773 -34.1618
  155 88.3701 3.66407 5.46756
  156 88.3701 3.66407 5.46756
  157 115.385 -0.785543 -4.73989
  158 115.385 -0.785543 -4.73989
  159 159.294 12.3895 8.45025
  160 159.294 12.3895 8.45025
  161 78.8714 -21.8733 39.7503
  162 78.8714 -21.8733 39.7503
  163 163.239 5.56003 -1.81697
  164 163.239 5.56003 -1.81697
  165 92.5844 3.24280 2.58488
  166 92.5844 3.24280 2.58488
  167 87.8524 3.02223 -7.95241
  168 87.8524 3.02223 -7.95241
  169 108.943 3.21105 2.73257
  170 108.943 3.21105 2.73257
  171 91.6752 3.85982 -2.92399
  172 91.6752 3.85982 -2.92399
  173 95.6185 1.58142 0.439896
  174 95.6185 1.58142 0.439896
  175 97.3258 0.767460 -1.59036
  176 97.3258 0.767460 -1.59036
  177 152.582 11.3068 -7.92107
  178 152.582 11.3068 -7.92107
  179 95.7049 1.53759 -0.531997
  180 95.7049 1.53759 -0.531997
  181 69.8102 5.09389 -4.10104
  182 69.8102 5.09389 -4.10104
  183 128.023 9.37357 1.30050
  184 128.023 9.37357 1.30050
  185 25.4998 -21.8510 -23.4697
  186 25.4998 -21.8510 -23.4697
  187 69.0725 -0.814070 17.2210
  188 69.0725 -0.814070 17.2210
  189 93.4689 -14.9213 -23.9187
  190 93.4689 -14.9213 -23.9187
  191 110.364 -2.98966 1.12251
  192 110.364 -2.98966 1.12251
  193 103.161 -0.310583 3.97719
  194 103.161 -0.310583 3.97719
  195 141.589 3.41843 7.23332
  196 141.589 3.41843 7.23332
  197 57.2116 1.68423 -10.5851
  198 57.2116 1.68423 -10.5851
  199 161.600 7.36364 4.10192
  200 161.600 7.36364 4.10192
  201 105.128 -1.24274 -4.09873
  202 105.128 -1.24274 -4.09873
  203 97.4840 0.549642 1.46818
  204 97.4840 0.549642 1.46818
  205 109.516 -4.22406 -1.87896
  206 109.516 -4.22406 -1.87896
  207 120.103 -6.15868 -0.0830732
  208 120.103 -6.15868 -0.0830732
  209 7.40503 -43.7950 3.37802
  210 7.40503 -43.7950 3.37802
  211 100.687 0.570855 -3.56455
  212 100.687 0.570855 -3.56455
  213 99.8030 0.813930 3.13126
  214 99.8030 0.813930 3.13126
  215 96.0538 -8.75373 -15.3339
  216 96.0538 -8.75373 -15.3339
  217 112.282 -2.37614 -2.96230
  218 112.282 -2.37614 -2.96230
  219 91.3820 3.34864 -5.47206
  220 91.3820 3.34864 -5.47206
  221 25.1724 -32.0976 25.5277
  222 25.1724 -32.0976 25.5277
  223 113.637 0.395122 4.43030
  224 113.637 0.395122 4.43030
  225 110.047 2.71848 -3.65483
  226 110.047 2.71848 -3.65483
  227 159.589 9.57003 -6.86994
  228 159.589 9.57003 -6.86994
  229 120.480 -4.60409 -2.70008
  230 120.480 -4.60409 -2.70008
  231 132.649 -7.00460 -21.8399
  232 132.649 -7.00460 -21.8399
  233 96.2783 -4.32004 11.9205
  234 96.2783 -4.32004 11.9205
  235 94.0509 2.72693 0.441867
  236 94.0509 2.72693 0.441867
  237 49.4224 -7.49224 21.9512
  238 49.4224 -7.49224 21.9512
  239 126.960 -11.7070 25.8433
  240 126.960 -11.7070 25.8433
  241 33.1922 -4.78842 -10.7828
  242 33.1922 -4.78842 -10.7828
  243 111.997 -8.33892 -4.99574
  244 111.997 -8.33892 -4.99574
  245 90.3996 4.14743 3.18870
  246 90.3996 4.14743 3.18870
  247 3.36901 -56.5683 -2.69968
  248 3.36901 -56.5683 -2.69968
  249 6.27385 -50.1408 8.99270
  250 6.27385 -50.1408 8.99270
  251 92.2392 0.657314 8.67626
  252 92.2392 0.657314 8.67626
  253 96.5088 0.374640 0.367192
  254 96.5088 0.374640 0.367192
  255 95.6079 1.59592 0.0690138
  256 95.6079 1.59592 0.0690138
  257 89.5987 -1.09799 -11.4502
  258 89.5987 -1.09799 -11.4502
  259 96.5793 0.339874 -0.388794
  260 96.5793 0.339874 -0.388794
  261 107.365 -7.49365 6.90889
  262 107.365 -7.49365 6.90889
  263 99.3359 0.365546 -1.77410
  264 99.3359 0.365546 -1.77410
  265 76.5076 -6.47790 -21.0204
  266 76.5076 -6.47790 -21.0204
  267 131.527 10.0219 -0.932003
  268 131.527 10.0219 -0.932003
  269 95.4797 2.17356 -4.50425
  270 95.4797 2.17356 -4.50425
  271 95.0741 2.03559 -0.923820
  272 95.0741 2.03559 -0.923820
  273 80.2787 3.91624 -7.91779
  274 80.2787 3.91624 -7.91779
  275 23.9695 -10.0397 6.13785
  276 23.9695 -10.0397 6.13785
  277 102.822 -16.8453 21.2785
  278 102.822 -16.8453 21.2785
  279 96.1782 1.46907 1.80041
  280 96.1782 1.46907 1.80041
  281 144.166 10.2932 -1.97164
  282 144.166 10.2932 -1.97164
  283 174.570 13.7854 19.3477
  284 174.570 13.7854 19.3477
  285 115.550 -12.2194 6.54170
  286 115.550 -12.2194 6.54170
  287 81.8923 4.12654 5.84131
  288 81.8923 4.12654 5.84131
  289 106.049 -20.8366 28.0015
  290 106.049 -20.8366 28.0015
  291 108.668 -1.23904 2.61026
  292 108.668 -1.23904 2.61026
  293 96.1204 0.968983 0.499922
  294 96.1204 0.968983 0.499922
  295 94.6471 2.65947 -2.90506
  296 94.6471 2.65947 -2.90506
  297 95.6357 1.56992 -0.137219
  298 95.6357 1.56992 -0.137219
  299 97.1439 0.274222 -0.698200
  300 97.1439 0.274222 -0.698200
  301 99.2288 0.509206 1.78114
  302 99.2288 0.509206 1.78114
  303 94.0828 2.71177 -0.751486
  304 94.0828 2.71177 -0.751486
  305 21.6576 -37.4947 -24.1508
  306 21.6576 -37.4947 -24.1508
  307 63.7650 4.09592 5.36597
  308 63.7650 4.09592 5.36597
  309 96.2446 0.806957 -0.481189
  310 96.2446 0.806957 -0.481189
  311 84.2296 4.91401 -3.91820
  312 84.2296 4.91401 -3.91820
  313 84.4352 5.36007 1.50431
  314 84.4352 5.36007 1.50431
  315 96.0182 1.41265 -1.28057
  316 96.0182 1.41265 -1.28057
  317 129.775 6.40813 0.521082
  318 129.775 6.40813 0.521082
  319 95.2411 2.35690 3.96618
  320 95.2411 2.35690 3.96618
  321 122.218 3.62428 -3.96780
  322 122.218 3.62428 -3.96780
  323 184.097 5.29957 12.1067
  324 184.097 5.29957 12.1067
  325 94.8501 2.44165 2.51624
  326 94.8501 2.44165 2.51624
  327 93.2376 3.22698 1.31621
  328 93.2376 3.22698 1.31621
  329 74.0728 -17.9080 -38.8271
  330 74.0728 -17.9080 -38.8271
  331 97.1978 0.248155 0.683286
  332 97.1978 0.248155 0.683286
  333 94.9706 2.05242 0.689796
  334 94.9706 2.05242 0.689796
  335 91.2488 4.16549 0.150466
  336 91.2488 4.16549 0.150466
  337 47.0092 -16.8198 31.5685
  338 47.0092 -16.8198 31.5685
  339 118.073 7.66849 0.696109
  340 118.073 7.66849 0.696109
  341 6.85838 -49.1473 -10.5447
  342 6.85838 -49.1473 -10.5447
  343 72.8014 4.60206 4.81399
  344 72.8014 4.60206 4.81399
  345 174.020 2.47770 1.75483
  346 174.020 2.47770 1.75483
  347 181.479 9.00461 -12.3738
  348 181.479 9.00461 -12.3738
  349 83.1010 -9.53386 23.5105
  350 86.5350 -4.92566 17.5399
  351 83.1010 -9.53386 23.5105
  352 86.5350 -4.92566 17.5399
  353 176.470 4.52986 6.43603
  354 176.470 4.52986 6.43603
  355 98.4655 -0.107894 6.77339
  356 98.4655 -0.107894 6.77339
  357 117.834 -15.8522 -16.1427
  358 117.834 -15.8522 -16.1427
  359 110.847 -0.989070 3.55000
  360 110.847 -0.989070 3.55000
  361 76.0686 -17.7856 42.6980
  362 76.0686 -17.7856 42.6980
  363 129.901 10.4517 -0.370326
  364 129.901 10.4517 -0.370326
  365 176.677 1.69015 -1.35990
  366 176.677 1.69015 -1.35990
  367 105.180 0.0904511 -3.33856
  368 105.180 0.0904511 -3.33856
  369 93.2452 3.42798 -1.57229
  370 93.2452 3.42798 -1.57229
  371 146.002 11.3024 3.18845
  372 146.002 11.3024 3.18845
  373 110.532 4.56105 -0.771513
  374 110.532 4.56105 -0.771513
  375 101.224 0.407767 -2.18184
  376 101.224 0.407767 -2.18184
  377 26.7753 -13.9573 -17.9829
  378 26.7753 -13.9573 -17.9829
  379 112.044 -1.99698 1.11923
  380 112.044 -1.99698 1.11923
  381 95.4654 -0.120729 -7.96332
  382 95.4654 -0.120729 -7.96332
  383 109.902 -0.254451 -4.21228
  384 109.902 -0.254451 -4.21228
  385 177.231 3.20458 -5.35807
  386 177.231 3.20458 -5.35807
  387 95.7511 1.51400 1.01380
  388 95.7511 1.51400 1.01380
  389 117.027 5.58358 3.66879
  390 117.027 5.58358 3.66879
  391 127.221 -3.07324 0.287016
  392 127.221 -3.07324 0.287016
  393 96.1375 1.77645 -2.24415
  394 96.1375 1.77645 -2.24415
  395 187.613 16.0441 -22.5869
  396 187.613 16.0441 -22.5869
  397 110.711 -1.56599 -1.04194
  398 110.711 -1.56599 -1.04194
</Section>

newXOutput 29

<Section columns = "stress_xx | stress_yy | stress_xy">
  1 99.8536 0.0961277 -0.120096
  2 99.8942 0.120467 0.162134
  3 99.8536 0.0961277 -0.120096
  4 99.8942 0.120467 0.162134
  5 157.726 7.51337 41.9343
  6 164.134 7.10719 -41.2217
  7 157.726 7.51337 41.9343
  8 164.134 7.10719 -41.2217
  9 100.121 0.0689760 -0.314182
  10 101.013 0.123501 -0.555587
  11 102.293 0.283426 -1.11970
  12 105.219 0.110598 -1.49260
  13 108.927 0.193655 -2.40633
  14 113.194 -0.963044 -2.30586
  15 116.980 -1.18236 -0.165529
  16 114.710 -0.830155 2.14321
  17 109.802 0.807624 3.66459
  18 107.148 2.05437 -0.140668
  19 109.106 0.994486 -3.42494
  20 114.561 -1.22740 -2.61557
  21 115.874 -1.43326 0.657826
  22 113.790 -0.639274 1.97721
  23 108.120 0.0633346 2.40927
  24 104.949 0.411693 1.88512
  25 102.361 0.325090 1.07754
  26 101.024 0.0991699 0.509618
  27 100.173 0.0812263 0.302594
  28 100.058 0.364307 0.189622
  29 99.8618 0.751395 0.218963
  30 99.3799 1.31158 0.193940
  31 99.1869 1.52702 -0.0188281
  32 99.4378 1.24334 -0.233329
  33 99.7857 0.819091 -0.201070
  34 99.9395 0.412045 -0.210579
  35 100.121 0.0689760 -0.314182
  36 101.013 0.123501 -0.555587
  37 102.293 0.283426 -1.11970
  38 105.219 0.110598 -1.49260
  39 108.927 0.193655 -2.40633
  40 113.194 -0.963044 -2.30586
  41 116.980 -1.18236 -0.165529
  42 114.710 -0.830155 2.14321
  43 109.802 0.807624 3.66459
  44 107.148 2.05437 -0.140668
  45 109.106 0.994486 -3.42494
  46 114.561 -1.22740 -2.61557
  47 115.874 -1.43326 0.657826
  48 113.790 -0.639274 1.97721
  49 108.120 0.0633346 2.40927
  50 104.949 0.411693 1.88512
  51 102.361 0.325090 1.07754
  52 101.024 0.0991699 0.509618
  53 100.173 0.0812263 0.302594
  54 100.058 0.364307 0.189622
  55 99.8618 0.751395 0.218963
  56 99.3799 1.31158 0.193940
  57 99.1869 1.52702 -0.0188281
  58 99.4378 1.24334 -0.233329
  59 99.7857 0.819091 -0.201070
  60 99.9395 0.412045 -0.210579
  61 220.034 10.9513 22.5018
  62 200.265 3.32455 8.15911
  63 188.435 1.46321 3.07905
  64 185.932 1.04488 0.637337
  65 188.365 1.36578 -2.64067
  66 197.295 2.87315 -7.13892
  67 222.066 9.55185 -19.3559
  68 28.6455 -33.9873 -33.5222
  69 5.66162 -71.8560 -8.01305
  70 1.79933 -80.5275 -3.52236
  71 1.71323 -78.9635 -1.95459
  72 2.73660 -77.1241 3.75504
  73 6.08860 -69.6732 8.45363
  74 31.2642 -31.8584 37.2495
  75 220.034 10.9513 22.5018
  76 200.265 3.32455 8.15911
  77 188.435 1.46321 3.07905
  78 185.932 1.04488 0.637337
  79 188.365 1.36578 -2.64067
  80 197.295 2.87315 -7.13892
  81 222.066 9.55185 -19.3559
  82 28.6455 -33.9873 -33.5222
  83 5.66162 -71.8560 -8.01305
  84 1.79933 -80.5275 -3.52236
  85 1.71323 -78.9635 -1.95459
  86 2.73660 -77.1241 3.75504
  87 6.08860 -69.6732 8.45363
  88 31.2642 -31.8584 37.2495
  89 91.3338 5.30431 -1.39202
  90 91.3338 5.30431 -1.39202
  91 83.3313 1.13457 12.3864
  92 80.0287 -0.527769 -14.7139
  93 83.3313 1.13457 12.3864
  94 80.0287 -0.527769 -14.7139
  95 46.5109 0.956655 5.84878
  96 46.5109 0.956655 5.84878
  97 123.235 7.85932 -2.19133
  98 125.956 4.34199 4.53092
  99 123.235 7.85932 -2.19133
  100 125.956 4.34199 4.53092
  101 98.3268 2.43207 1.42656
  102 98.3268 2.43207 1.42656
  103 118.340 -6.72287 -0.349478
  104 118.340 -6.72287 -0.349478
  105 98.4610 2.53927 -1.75765
  106 98.4610 2.53927 -1.75765
  107 116.602 -14.2551 -12.6188
  108 116.602 -14.2551 -12.6188
  109 81.0106 -16.7301 31.9833
  110 81.0106 -16.7301 31.9833
  111 54.2235 -9.95328 -25.6649
  112 54.2235 -9.95328 -25.6649
  113 98.9080 1.70464 5.96601
  114 98.9080 1.70464 5.96601
  115 102.693 0.741961 -5.68069
  116 102.693 0.741961 -5.68069
  117 140.231 9.09116 0.490773
  118 150.582 9.89283 0.716200
  119 140.231 9.09116 0.490773
  120 150.582 9.89283 0.716200
  121 147.258 12.2269 -3.12816
  122 147.258 12.2269 -3.12816
  123 15.7510 -26.5979 -8.12327
  124 15.7510 -26.5979 -8.12327
  125 127.037 -15.8826 13.2895
  126 127.037 -15.8826 13.2895
  127 106.315 -2.52606 6.54582
  128 106.315 -2.52606 6.54582
  129 23.9781 -23.0424 18.8201
  130 23.9781 -23.0424 18.8201
  131 98.4774 2.03631 -0.0914186
  132 98.4774 2.03631 -0.0914186
  133 106.186 -4.89933 -8.29056
  134 106.186 -4.89933 -8.29056
  135 100.160 0.831926 1.04264
  136 100.160 0.831926 1.04264
  137 100.263 0.730209 -0.974281
  138 100.263 0.730209 -0.974281
  139 101.411 1.43294 -3.05434
  140 101.411 1.43294 -3.05434
  141 100.916 1.39228 2.75883
  142 100.916 1.39228 2.75883
  143 96.3728 3.37560 -0.109764
  144 96.3728 3.37560 -0.109764
  145 80.0066 5.35456 -0.628468
  146 80.0066 5.35456 -0.628468
  147 117.625 -4.21826 2.23278
  148 117.625 -4.21826 2.23278
  149 135.265 -5.19950 -4.21381
  150 135.265 -5.19950 -4.21381
  151 103.847 -11.4686 16.0053
  152 103.847 -11.4686 16.0053
  153 78.4420 -21.3277 -35.4283
  154 78.4420 -21.3277 -35.4283
  155 91.6112 3.79785 5.66653
  156 91.6112 3.79785 5.66653
  157 119.604 -0.813094 -4.90527
  158 119.604 -0.813094 -4.90527
  159 165.091 12.8443 8.76769
  160 165.091 12.8443 8.76769
  161 81.7538 -22.6733 41.2208
  162 81.7538 -22.6733 41.2208
  163 169.171 5.75962 -1.88381
  164 169.171 5.75962 -1.88381
  165 95.9778 3.36070 2.67834
  166 95.9778 3.36070 2.67834
  167 91.0741 3.13267 -8.24248
  168 91.0741 3.13267 -8.24248
  169 112.936 3.32983 2.82945
  170 112.936 3.32983 2.82945
  171 95.0359 4.00029 -3.02988
  172 95.0359 4.00029 -3.02988
  173 99.1205 1.63875 0.455669
  174 99.1205 1.63875 0.455669
  175 100.888 0.795278 -1.64749
  176 100.888 0.795278 -1.64749
  177 158.138 11.7285 -8.22611
  178 158.138 11.7285 -8.22611
  179 99.2099 1.59335 -0.551063
  180 99.2099 1.59335 -0.551063
  181 72.3786 5.28148 -4.25118
  182 72.3786 5.28148 -4.25118
  183 132.702 9.71743 1.34048
  184 132.702 9.71743 1.34048
  185 26.4383 -22.6459 -24.3454
  186 26.4383 -22.6459 -24.3454
  187 71.6100 -0.842883 17.8527
  188 71.6100 -0.842883 17.8527
  189 96.8855 -15.4688 -24.8004
  190 96.8855 -15.4688 -24.8004
  191 114.398 -3.09953 1.16699
  192 114.398 -3.09953 1.16699
  193 106.933 -0.322466 4.12222
  194 106.933 -0.322466 4.12222
  195 146.748 3.55349 7.51503
  196 146.748 3.55349 7.51503
  197 59.3189 1.74828 -10.9741
  198 59.3189 1.74828 -10.9741
  199 167.477 7.62931 4.25369
  200 167.477 7.62931 4.25369
  201 108.972 -1.28881 -4.24930
  202 108.972 -1.28881 -4.24930
  203 101.052 0.569545 1.52090
  204 101.052 0.569545 1.52090
  205 113.519 -4.37931 -1.95144
  206 113.519 -4.37931 -1.95144
  207 124.488 -6.38191 -0.0963442
  208 124.488 -6.38191 -0.0963442
  209 7.67651 -45.4022 3.50558
  210 7.67651 -45.4022 3.50558
  211 104.370 0.591172 -3.69376
  212 104.370 0.591172 -3.69376
  213 103.454 0.843319 3.24454
  214 103.454 0.843319 3.24454
  215 99.5675 -9.07480 -15.8978
  216 99.5675 -9.07480 -15.8978
  217 116.388 -2.46313 -3.06502
  218 116.388 -2.46313 -3.06502
  219 94.7315 3.47067 -5.67113
  220 94.7315 3.47067 -5.67113
  221 26.0957 -33.2655 26.4829
  222 26.0957 -33.2655 26.4829
  223 117.795 0.411151 4.58551
  224 117.795 0.411151 4.58551
  225 114.079 2.81913 -3.78401
  226 114.079 2.81913 -3.78401
  227 165.395 9.91756 -7.12632
  228 165.395 9.91756 -7.12632
  229 124.880 -4.77034 -2.78841
  230 124.880 -4.77034 -2.78841
  231 137.478 -7.24534 -22.6582
  232 137.478 -7.24534 -22.6582
  233 99.8015 -4.47838 12.3574
  234 99.8015 -4.47838 12.3574
  235 97.4970 2.82595 0.457783
  236 97.4970 2.82595 0.457783
  237 51.2406 -7.76478 22.7616
  238 51.2406 -7.76478 22.7616
  239 131.582 -12.1231 26.8069
  240 131.582 -12.1231 26.8069
  241 34.4183 -4.95866 -11.1819
  242 34.4183 -4.95866 -11.1819
  243 116.087 -8.64443 -5.18417
  244 116.087 -8.64443 -5.18417
  245 93.7143 4.29856 3.30438
  246 93.7143 4.29856 3.30438
  247 3.49079 -58.6501 -2.80228
  248 3.49079 -58.6501 -2.80228
  249 6.50331 -51.9806 9.33397
  250 6.50331 -51.9806 9.33397
  251 95.6186 0.681199 8.99297
  252 95.6186 0.681199 8.99297
  253 100.042 0.388264 0.380318
  254 100.042 0.388264 0.380318
  255 99.1095 1.65373 0.0714911
  256 99.1095 1.65373 0.0714911
  257 92.8820 -1.13833 -11.8692
  258 92.8820 -1.13833 -11.8692
  259 100.115 0.352250 -0.402695
  260 100.115 0.352250 -0.402695
  261 111.289 -7.76837 7.16555
  262 111.289 -7.76837 7.16555
  263 102.970 0.378724 -1.83791
  264 102.970 0.378724 -1.83791
  265 79.3129 -6.71537 -21.7928
  266 79.3129 -6.71537 -21.7928
  267 136.332 10.3890 -0.958572
  268 136.332 10.3890 -0.958572
  269 98.9765 2.25243 -4.66753
  270 98.9765 2.25243 -4.66753
  271 98.5566 2.10945 -0.957003
  272 98.5566 2.10945 -0.957003
  273 83.2267 4.05985 -8.20698
  274 83.2267 4.05985 -8.20698
  275 24.8556 -10.4006 6.36602
  276 24.8556 -10.4006 6.36602
  277 106.576 -17.4632 22.0636
  278 106.576 -17.4632 22.0636
  279 99.7000 1.52237 1.86515
  280 99.7000 1.52237 1.86515
  281 149.424 10.6672 -2.04769
  282 149.424 10.6672 -2.04769
  283 180.908 14.3017 20.0668
  284 180.908 14.3017 20.0668
  285 119.767 -12.6661 6.78932
  286 119.767 -12.6661 6.78932
  287 84.8992 4.27766 6.05422
  288 84.8992 4.27766 6.05422
  289 109.917 -21.6000 29.0357
  290 109.917 -21.6000 29.0357
  291 112.640 -1.28483 2.70668
  292 112.640 -1.28483 2.70668
  293 99.6400 1.00413 0.517822
  294 99.6400 1.00413 0.517822
  295 98.1143 2.75608 -3.00995
  296 98.1143 2.75608 -3.00995
  297 99.1382 1.62680 -0.142134
  298 99.1382 1.62680 -0.142134
  299 100.700 0.284184 -0.723202
  300 100.700 0.284184 -0.723202
  301 102.859 0.527610 1.84521
  302 102.859 0.527610 1.84521
  303 97.5300 2.81024 -0.778554
  304 97.5300 2.81024 -0.778554
  305 22.4513 -38.8585 -25.0563
  306 22.4513 -38.8585 -25.0563
  307 66.1128 4.24758 5.56242
  308 66.1128 4.24758 5.56242
  309 99.7686 0.836246 -0.498408
  310 99.7686 0.836246 -0.498408
  311 87.3216 5.09356 -4.06096
  312 87.3216 5.09356 -4.06096
  313 87.5348 5.55591 1.55897
  314 87.5348 5.55591 1.55897
  315 99.5342 1.46390 -1.32656
  316 99.5342 1.46390 -1.32656
  317 134.513 6.64765 0.526607
  318 134.513 6.64765 0.526607
  319 98.7294 2.44252 4.10970
  320 98.7294 2.44252 4.10970
  321 126.685 3.75955 -4.10283
  322 126.685 3.75955 -4.10283
  323 190.770 5.49053 12.5498
  324 190.770 5.49053 12.5498
  325 98.3246 2.53033 2.60701
  326 98.3246 2.53033 2.60701
  327 96.6546 3.34425 1.36369
  328 96.6546 3.34425 1.36369
  329 76.7748 -18.5353 -40.2736
  330 76.7748 -18.5353 -40.2736
  331 100.756 0.257167 0.707749
  332 100.756 0.257167 0.707749
  333 98.4495 2.12687 0.714578
  334 98.4495 2.12687 0.714578
  335 94.5944 4.31710 0.155895
  336 94.5944 4.31710 0.155895
  337 48.7362 -17.4348 32.7390
  338 48.7362 -17.4348 32.7390
  339 122.395 7.95004 0.719818
  340 122.395 7.95004 0.719818
  341 7.10848 -50.9500 -10.9429
  342 7.10848 -50.9500 -10.9429
  343 75.4788 4.77122 4.98975
  344 75.4788 4.77122 4.98975
  345 180.329 2.56605 1.81787
  346 180.329 2.56605 1.81787
  347 188.062 9.33398 -12.8283
  348 188.062 9.33398 -12.8283
  349 86.1437 -9.88379 24.3745
  350 89.7050 -5.10614 18.1826
  351 86.1437 -9.88379 24.3745
  352 89.7050 -5.10614 18.1826
  353 182.869 4.69227 6.67006
  354 182.869 4.69227 6.67006
  355 102.069 -0.112262 7.02057
  356 102.069 -0.112262 7.02057
  357 122.130 -16.4308 -16.7435
  358 122.130 -16.4308 -16.7435
  359 114.903 -1.02483 3.67529
  360 114.903 -1.02483 3.67529
  361 78.8393 -18.4101 44.2857
  362 78.8393 -18.4101 44.2857
  363 134.650 10.8332 -0.383584
  364 134.650 10.8332 -0.383584
  365 183.078 1.75024 -1.40912
  366 183.078 1.75024 -1.40912
  367 109.025 0.0932233 -3.46002
  368 109.025 0.0932233 -3.46002
  369 96.6624 3.55259 -1.62906
  370 96.6624 3.55259 -1.62906
  371 151.326 11.7149 3.31268
  372 151.326 11.7149 3.31268
  373 114.582 4.72895 -0.798809
  374 114.582 4.72895 -0.798809
  375 104.926 0.422360 -2.26056
  376 104.926 0.422360 -2.26056
  377 27.7650 -14.4637 -18.6518
  378 27.7650 -14.4637 -18.6518
  379 116.140 -2.07024 1.15673
  380 116.140 -2.07024 1.15673
  381 98.9610 -0.125579 -8.25431
  382 98.9610 -0.125579 -8.25431
  383 113.926 -0.263412 -4.36131
  384 113.926 -0.263412 -4.36131
  385 183.656 3.31964 -5.55249
  386 183.656 3.31964 -5.55249
  387 99.2578 1.56891 1.05018
  388 99.2578 1.56891 1.05018
  389 121.309 5.78964 3.79642
  390 121.309 5.78964 3.79642
  391 131.863 -3.18086 0.310969
  392 131.863 -3.18086 0.310969
  393 99.6578 1.84092 -2.32494
  394 99.6578 1.84092 -2.32494
  395 194.415 16.6474 -23.4245
  396 194.415 16.6474 -23.4245
  397 114.756 -1.62384 -1.08165
  398 114.756 -1.62384 -1.08165
</Section>

newXOutput 30

<Section columns = "stress_xx | stress_yy | stress_xy">
  1 103.378 0.0995376 -0.124221
  2 103.420 0.124724 0.167699
  3 103.378 0.0995376 -0.124221
  4 103.420 0.124724 0.167699
  5 163.236 7.81705 43.4338
  6 169.864 7.39835 -42.6963
  7 163.236 7.81705 43.4338
  8 169.864 7.39835 -42.6963
  9 103.654 0.0714060 -0.324984
  10 104.577 0.127832 -0.574728
  11 105.901 0.293317 -1.15838
  12 108.927 0.114395 -1.54433
  13 112.763 0.200165 -2.49026
  14 117.179 -0.997553 -2.38719
  15 121.099 -1.22441 -0.172833
  16 118.755 -0.859419 2.21570
  17 113.682 0.836846 3.79002
  18 110.939 2.12770 -0.145518
  19 112.963 1.02985 -3.54237
  20 118.601 -1.27077 -2.70401
  21 119.954 -1.48426 0.682755
  22 117.796 -0.662135 2.04709
  23 111.929 0.0651677 2.49346
  24 108.648 0.425974 1.95052
  25 105.971 0.336437 1.11475
  26 104.588 0.102648 0.527166
  27 103.708 0.0840922 0.313008
  28 103.589 0.377073 0.196128
  29 103.386 0.777671 0.226495
  30 102.888 1.35737 0.200623
  31 102.688 1.58030 -0.0194769
  32 102.948 1.28676 -0.241360
  33 103.307 0.847736 -0.207960
  34 103.466 0.426498 -0.217826
  35 103.654 0.0714060 -0.324984
  36 104.577 0.127832 -0.574728
  37 105.901 0.293317 -1.15838
  38 108.927 0.114395 -1.54433
  39 112.763 0.200165 -2.49026
  40 117.179 -0.997553 -2.38719
  41 121.099 -1.22441 -0.172833
  42 118.755 -0.859419 2.21570
  43 113.682 0.836846 3.79002
  44 110.939 2.12770 -0.145518
  45 112.963 1.02985 -3.54237
  46 118.601 -1.27077 -2.70401
  47 119.954 -1.48426 0.682755
  48 117.796 -0.662135 2.04709
  49 111.929 0.0651677 2.49346
  50 108.648 0.425974 1.95052
  51 105.971 0.336437 1.11475
  52 104.588 0.102648 0.527166
  53 103.708 0.0840922 0.313008
  54 103.589 0.377073 0.196128
  55 103.386 0.777671 0.226495
  56 102.888 1.35737 0.200623
  57 102.688 1.58030 -0.0194769
  58 102.948 1.28676 -0.241360
  59 103.307 0.847736 -0.207960
  60 103.466 0.426498 -0.217826
  61 227.694 11.3400 23.2936
  62 207.242 3.43965 8.44332
  63 195.006 1.51278 3.18534
  64 192.417 1.08045 0.658843
  65 194.933 1.41253 -2.73164
  66 204.171 2.97230 -7.38673
  67 229.798 9.89059 -20.0374
  68 29.6542 -35.1507 -34.7319
  69 5.86095 -74.4018 -8.31049
  70 1.85982 -83.3985 -3.65270
  71 1.77090 -81.7804 -2.02430
  72 2.83106 -79.8708 3.89420
  73 6.30374 -72.1412 8.76794
  74 32.3622 -32.9462 38.5922
  75 227.694 11.3400 23.2936
  76 207.242 3.43965 8.44332
  77 195.006 1.51278 3.18534
  78 192.417 1.08045 0.658843
  79 194.933 1.41253 -2.73164
  80 204.171 2.97230 -7.38673
  81 229.798 9.89059 -20.0374
  82 29.6542 -35.1507 -34.7319
  83 5.86095 -74.4018 -8.31049
  84 1.85982 -83.3985 -3.65270
  85 1.77090 -81.7804 -2.02430
  86 2.83106 -79.8708 3.89420
  87 6.30374 -72.1412 8.76794
  88 32.3622 -32.9462 38.5922
  89 94.5639 5.49074 -1.44077
  90 94.5639 5.49074 -1.44077
  91 86.2793 1.17506 12.8229
  92 82.8605 -0.545940 -15.2334
  93 86.2793 1.17506 12.8229
  94 82.8605 -0.545940 -15.2334
  95 48.1667 0.994377 6.05628
  96 48.1667 0.994377 6.05628
  97 127.583 8.13759 -2.26428
  98 130.394 4.49805 4.67998
  99 127.583 8.13759 -2.26428
  100 130.394 4.49805 4.67998
  101 101.799 2.51713 1.47601
  102 101.799 2.51713 1.47601
  103 122.508 -6.95976 -0.354197
  104 122.508 -6.95976 -0.354197
  105 101.937 2.62813 -1.81861
  106 101.937 2.62813 -1.81861
  107 120.703 -14.7584 -13.0703
  108 120.703 -14.7584 -13.0703
  109 83.8690 -17.3222 33.1201
  110 83.8690 -17.3222 33.1201
  111 56.1447 -10.3033 -26.5790
  112 56.1447 -10.3033 -26.5790
  113 102.400 1.76417 6.17499
  114 102.400 1.76417 6.17499
  115 106.315 0.767454 -5.88003
  116 106.315 0.767454 -5.88003
  117 145.165 9.41583 0.521954
  118 155.874 10.2384 0.743691
  119 145.165 9.41583 0.521954
  120 155.874 10.2384 0.743691
  121 152.436 12.6598 -3.24943
  122 152.436 12.6598 -3.24943
  123 16.3107 -27.5320 -8.41684
  124 16.3107 -27.5320 -8.41684
  125 131.499 -16.4389 13.7706
  126 131.499 -16.4389 13.7706
  127 110.063 -2.61566 6.77770
  128 110.063 -2.61566 6.77770
  129 24.8304 -23.8505 19.4980
  130 24.8304 -23.8505 19.4980
  131 101.955 2.10747 -0.0945706
  132 101.955 2.10747 -0.0945706
  133 109.929 -5.07272 -8.58507
  134 109.929 -5.07272 -8.58507
  135 103.694 0.861024 1.07864
  136 103.694 0.861024 1.07864
  137 103.801 0.755769 -1.00790
  138 103.801 0.755769 -1.00790
  139 104.988 1.48294 -3.16055
  140 104.988 1.48294 -3.16055
  141 104.477 1.44091 2.85466
  142 104.477 1.44091 2.85466
  143 99.7775 3.49381 -0.113613
  144 99.7775 3.49381 -0.113613
  145 82.8416 5.54364 -0.650700
  146 82.8416 5.54364 -0.650700
  147 121.770 -4.36654 2.30480
  148 121.770 -4.36654 2.30480
  149 140.018 -5.37519 -4.37838
  150 140.018 -5.37519 -4.37838
  151 107.505 -11.8742 16.5732
  152 107.505 -11.8742 16.5732
  153 81.2058 -22.0772 -36.6947
  154 81.2058 -22.0772 -36.6947
  155 94.8500 3.93149 5.86526
  156 94.8500 3.93149 5.86526
  157 123.819 -0.840534 -5.06994
  158 123.819 -0.840534 -5.06994
  159 170.881 13.2987 9.08542
  160 170.881 13.2987 9.08542
  161 84.6335 -23.4726 42.6910
  162 84.6335 -23.4726 42.6910
  163 175.096 5.95877 -1.95061
  164 175.096 5.95877 -1.95061
  165 99.3686 3.47846 2.77166
  166 99.3686 3.47846 2.77166
  167 94.2936 3.24300 -8.53223
  168 94.2936 3.24300 -8.53223
  169 116.926 3.44859 2.92603
  170 116.926 3.44859 2.92603
  171 98.3942 4.14058 -3.13560
  172 98.3942 4.14058 -3.13560
  173 102.620 1.69599 0.471407
  174 102.620 1.69599 0.471407
  175 104.448 0.823053 -1.70450
  176 104.448 0.823053 -1.70450
  177 163.686 12.1504 -8.53193
  178 163.686 12.1504 -8.53193
  179 102.712 1.64902 -0.570085
  180 102.712 1.64902 -0.570085
  181 74.9458 5.46900 -4.40118
  182 74.9458 5.46900 -4.40118
  183 137.377 10.0611 1.37988
  184 137.377 10.0611 1.37988
  185 27.3763 -23.4398 -25.2215
  186 27.3763 -23.4398 -25.2215
  187 74.1460 -0.871603 18.4840
  188 74.1460 -0.871603 18.4840
  189 100.299 -16.0160 -25.6817
  190 100.299 -16.0160 -25.6817
  191 118.428 -3.20933 1.21167
  192 118.428 -3.20933 1.21167
  193 110.702 -0.334374 4.26708
  194 110.702 -0.334374 4.26708
  195 151.900 3.68914 7.79770
  196 151.900 3.68914 7.79770
  197 61.4253 1.81244 -11.3629
  198 61.4253 1.81244 -11.3629
  199 173.345 7.89449 4.40545
  200 173.345 7.89449 4.40545
  201 112.812 -1.33488 -4.39978
  202 112.812 -1.33488 -4.39978
  203 104.617 0.589415 1.57351
  204 104.617 0.589415 1.57351
  205 117.518 -4.53448 -2.02412
  206 117.518 -4.53448 -2.02412
  207 128.868 -6.60478 -0.110325
  208 128.868 -6.60478 -0.110325
  209 7.94779 -47.0082 3.63331
  210 7.94779 -47.0082 3.63331
  211 108.050 0.611432 -3.82277
  212 108.050 0.611432 -3.82277
  213 107.103 0.872656 3.35764
  214 107.103 0.872656 3.35764
  215 103.078 -9.39565 -16.4614
  216 103.078 -9.39565 -16.4614
  217 120.490 -2.55003 -3.16724
  218 120.490 -2.55003 -3.16724
  219 98.0786 3.59255 -5.86994
  220 98.0786 3.59255 -5.86994
  221 27.0183 -34.4319 27.4389
  222 27.0183 -34.4319 27.4389
  223 121.949 0.427279 4.74009
  224 121.949 0.427279 4.74009
  225 118.107 2.91978 -3.91276
  226 118.107 2.91978 -3.91276
  227 171.194 10.2646 -7.38283
  228 171.194 10.2646 -7.38283
  229 129.275 -4.93629 -2.87592
  230 129.275 -4.93629 -2.87592
  231 142.302 -7.48477 -23.4770
  232 142.302 -7.48477 -23.4770
  233 103.322 -4.63661 12.7940
  234 103.322 -4.63661 12.7940
  235 100.940 2.92482 0.473667
  236 100.940 2.92482 0.473667
  237 53.0579 -8.03697 23.5717
  238 53.0579 -8.03697 23.5717
  239 136.198 -12.5380 27.7710
  240 136.198 -12.5380 27.7710
  241 35.6443 -5.12841 -11.5809
  242 35.6443 -5.12841 -11.5809
  243 120.174 -8.94970 -5.37284
  244 120.174 -8.94970 -5.37284
  245 97.0266 4.44951 3.41989
  246 97.0266 4.44951 3.41989
  247 3.61237 -60.7309 -2.90508
  248 3.61237 -60.7309 -2.90508
  249 6.73257 -53.8191 9.67581
  250 6.73257 -53.8191 9.67581
  251 98.9954 0.705052 9.30935
  252 98.9954 0.705052 9.30935
  253 103.573 0.401869 0.393411
  254 103.573 0.401869 0.393411
  255 102.608 1.71146 0.0739630
  256 102.608 1.71146 0.0739630
  257 96.1627 -1.17864 -12.2878
  258 96.1627 -1.17864 -12.2878
  259 103.648 0.364611 -0.416561
  260 103.648 0.364611 -0.416561
  261 115.209 -8.04289 7.42225
  262 115.209 -8.04289 7.42225
  263 106.601 0.391877 -1.90159
  264 106.601 0.391877 -1.90159
  265 82.1162 -6.95268 -22.5647
  266 82.1162 -6.95268 -22.5647
  267 141.133 10.7558 -0.984592
  268 141.133 10.7558 -0.984592
  269 102.471 2.33119 -4.83055
  270 102.471 2.33119 -4.83055
  271 102.036 2.18320 -0.990113
  272 102.036 2.18320 -0.990113
  273 86.1729 4.20336 -8.49589
  274 86.1729 4.20336 -8.49589
  275 25.7415 -10.7608 6.59424
  276 25.7415 -10.7608 6.59424
  277 110.326 -18.0807 22.8486
  278 110.326 -18.0807 22.8486
  279 103.219 1.57559 1.92974
  280 103.219 1.57559 1.92974
  281 154.677 11.0408 -2.12394
  282 154.677 11.0408 -2.12394
  283 187.236 14.8184 20.7861
  284 187.236 14.8184 20.7861
  285 123.980 -13.1124 7.03730
  286 123.980 -13.1124 7.03730
  287 87.9043 4.42866 6.26689
  288 87.9043 4.42866 6.26689
  289 113.781 -22.3628 30.0696
  290 113.781 -22.3628 30.0696
  291 116.607 -1.33062 2.80308
  292 116.607 -1.33062 2.80308
  293 103.157 1.03922 0.535680
  294 103.157 1.03922 0.535680
  295 101.579 2.85256 -3.11465
  296 101.579 2.85256 -3.11465
  297 102.638 1.68359 -0.147037
  298 102.638 1.68359 -0.147037
  299 104.253 0.294133 -0.748143
  300 104.253 0.294133 -0.748143
  301 106.487 0.545982 1.90914
  302 106.487 0.545982 1.90914
  303 100.975 2.90857 -0.805569
  304 100.975 2.90857 -0.805569
  305 23.2444 -40.2205 -25.9625
  306 23.2444 -40.2205 -25.9625
  307 68.4596 4.39923 5.75871
  308 68.4596 4.39923 5.75871
  309 103.290 0.865493 -0.515585
  310 103.290 0.865493 -0.515585
  311 90.4116 5.27294 -4.20355
  312 90.4116 5.27294 -4.20355
  313 90.6325 5.75155 1.61356
  314 90.6325 5.75155 1.61356
  315 103.047 1.51509 -1.37244
  316 103.047 1.51509 -1.37244
  317 139.247 6.88733 0.531178
  318 139.247 6.88733 0.531178
  319 102.215 2.52802 4.25298
  320 102.215 2.52802 4.25298
  321 131.147 3.89489 -4.23702
  322 131.147 3.89489 -4.23702
  323 197.432 5.68113 12.9925
  324 197.432 5.68113 12.9925
  325 101.796 2.61889 2.69760
  326 101.796 2.61889 2.69760
  327 100.069 3.46136 1.41108
  328 100.069 3.46136 1.41108
  329 79.4739 -19.1601 -41.7206
  330 79.4739 -19.1601 -41.7206
  331 104.311 0.266166 0.732154
  332 104.311 0.266166 0.732154
  333 101.926 2.20121 0.739306
  334 101.926 2.20121 0.739306
  335 97.9376 4.46851 0.161314
  336 97.9376 4.46851 0.161314
  337 50.4621 -18.0494 33.9097
  338 50.4621 -18.0494 33.9097
  339 126.714 8.23143 0.743383
  340 126.714 8.23143 0.743383
  341 7.35829 -52.7514 -11.3417
  342 7.35829 -52.7514 -11.3417
  343 78.1549 4.94029 5.16532
  344 78.1549 4.94029 5.16532
  345 186.629 2.65416 1.88078
  346 186.629 2.65416 1.88078
  347 194.635 9.66305 -13.2824
  348 194.635 9.66305 -13.2824
  349 89.1840 -10.2335 25.2379
  350 92.8724 -5.28649 18.8248
  351 89.1840 -10.2335 25.2379
  352 92.8724 -5.28649 18.8248
  353 189.259 4.85430 6.90378
  354 189.259 4.85430 6.90378
  355 105.670 -0.116655 7.26748
  356 105.670 -0.116655 7.26748
  357 126.421 -17.0088 -17.3446
  358 126.421 -17.0088 -17.3446
  359 118.956 -1.06052 3.80015
  360 118.956 -1.06052 3.80015
  361 81.6066 -19.0322 45.8737
  362 81.6066 -19.0322 45.8737
  363 139.393 11.2143 -0.396810
  364 139.393 11.2143 -0.396810
  365 189.470 1.81016 -1.45827
  366 189.470 1.81016 -1.45827
  367 112.865 0.0959553 -3.58133
  368 112.865 0.0959553 -3.58133
  369 100.077 3.67705 -1.68572
  370 100.077 3.67705 -1.68572
  371 156.644 12.1270 3.43733
  372 156.644 12.1270 3.43733
  373 118.630 4.89678 -0.826015
  374 118.630 4.89678 -0.826015
  375 108.624 0.436917 -2.33915
  376 108.624 0.436917 -2.33915
  377 28.7547 -14.9693 -19.3209
  378 28.7547 -14.9693 -19.3209
  379 120.232 -2.14345 1.19395
  380 120.232 -2.14345 1.19395
  381 102.454 -0.130456 -8.54502
  382 102.454 -0.130456 -8.54502
  383 117.947 -0.272339 -4.50985
  384 117.947 -0.272339 -4.50985
  385 190.072 3.43444 -5.74663
  386 190.072 3.43444 -5.74663
  387 102.762 1.62373 1.08649
  388 102.762 1.62373 1.08649
  389 125.588 5.99566 3.92347
  390 125.588 5.99566 3.92347
  391 136.499 -3.28804 0.335849
  392 136.499 -3.28804 0.335849
  393 103.175 1.90530 -2.40557
  394 103.175 1.90530 -2.40557
  395 201.207 17.2514 -24.2622
  396 201.207 17.2514 -24.2622
  397 118.797 -1.68167 -1.12143
  398 118.797 -1.68167 -1.12143
</Section>

newXOutput 31

<Section columns = "stress_xx | stress_yy | stress_xy">
  1 106.899 0.102946 -0.128334
  2 106.942 0.128977 0.173249
  3 106.899 0.102946 -0.128334
  4 106.942 0.128977 0.173249
  5 168.737 8.12314 44.9333
  6 175.585 7.69203 -44.1710
  7 168.737 8.12314 44.9333
  8 175.585 7.69203 -44.1710
  9 107.185 0.0738336 -0.335759
  10 108.138 0.132157 -0.593821
  11 109.505 0.303192 -1.19698
  12 112.632 0.118181 -1.59595
  13 116.596 0.206647 -2.57406
  14 121.160 -1.03207 -2.46844
  15 125.213 -1.26644 -0.180230
  16 122.797 -0.888657 2.28793
  17 117.560 0.866095 3.91509
  18 114.728 2.20104 -0.150356
  19 116.817 1.06520 -3.65947
  20 122.638 -1.31410 -2.79211
  21 124.030 -1.53525 0.707779
  22 121.798 -0.684998 2.11691
  23 115.734 0.0669720 2.57752
  24 112.344 0.440227 2.01579
  25 109.578 0.347766 1.15187
  26 108.149 0.106123 0.544671
  27 107.241 0.0869558 0.323396
  28 107.117 0.389823 0.202616
  29 106.908 0.803910 0.234008
  30 106.393 1.40309 0.207290
  31 106.187 1.63350 -0.0201241
  32 106.455 1.33011 -0.249370
  33 106.826 0.876341 -0.214832
  34 106.990 0.440933 -0.225054
  35 107.185 0.0738336 -0.335759
  36 108.138 0.132157 -0.593821
  37 109.505 0.303192 -1.19698
  38 112.632 0.118181 -1.59595
  39 116.596 0.206647 -2.57406
  40 121.160 -1.03207 -2.46844
  41 125.213 -1.26644 -0.180230
  42 122.797 -0.888657 2.28793
  43 117.560 0.866095 3.91509
  44 114.728 2.20104 -0.150356
  45 116.817 1.06520 -3.65947
  46 122.638 -1.31410 -2.79211
  47 124.030 -1.53525 0.707779
  48 121.798 -0.684998 2.11691
  49 115.734 0.0669720 2.57752
  50 112.344 0.440227 2.01579
  51 109.578 0.347766 1.15187
  52 108.149 0.106123 0.544671
  53 107.241 0.0869558 0.323396
  54 107.117 0.389823 0.202616
  55 106.908 0.803910 0.234008
  56 106.393 1.40309 0.207290
  57 106.187 1.63350 -0.0201241
  58 106.455 1.33011 -0.249370
  59 106.826 0.876341 -0.214832
  60 106.990 0.440933 -0.225054
  61 235.341 11.7285 24.0846
  62 214.207 3.55450 8.72704
  63 201.567 1.56217 3.29137
  64 198.891 1.11591 0.680265
  65 201.490 1.45914 -2.82238
  66 211.035 3.07122 -7.63406
  67 237.516 10.2292 -20.7183
  68 30.6620 -36.3107 -35.9424
  69 6.06008 -76.9462 -8.60871
  70 1.92006 -86.2692 -3.78335
  71 1.82833 -84.5971 -2.09400
  72 2.92530 -82.6170 4.03371
  73 6.51873 -74.6077 9.08309
  74 33.4589 -34.0306 39.9357
  75 235.341 11.7285 24.0846
  76 214.207 3.55450 8.72704
  77 201.567 1.56217 3.29137
  78 198.891 1.11591 0.680265
  79 201.490 1.45914 -2.82238
  80 211.035 3.07122 -7.63406
  81 237.516 10.2292 -20.7183
  82 30.6620 -36.3107 -35.9424
  83 6.06008 -76.9462 -8.60871
  84 1.92006 -86.2692 -3.78335
  85 1.82833 -84.5971 -2.09400
  86 2.92530 -82.6170 4.03371
  87 6.51873 -74.6077 9.08309
  88 33.4589 -34.0306 39.9357
  89 97.7917 5.67696 -1.48946
  90 97.7917 5.67696 -1.48946
  91 89.2255 1.21555 13.2590
  92 85.6906 -0.564067 -15.7526
  93 89.2255 1.21555 13.2590
  94 85.6906 -0.564067 -15.7526
  95 49.8221 1.03234 6.26368
  96 49.8221 1.03234 6.26368
  97 131.926 8.41569 -2.33688
  98 134.827 4.65419 4.82818
  99 131.926 8.41569 -2.33688
  100 134.827 4.65419 4.82818
  101 105.268 2.60208 1.52536
  102 105.268 2.60208 1.52536
  103 126.671 -7.19643 -0.358395
  104 126.671 -7.19643 -0.358395
  105 105.411 2.71686 -1.87945
  106 105.411 2.71686 -1.87945
  107 124.801 -15.2612 -13.5218
  108 124.801 -15.2612 -13.5218
  109 86.7250 -17.9139 34.2565
  110 86.7250 -17.9139 34.2565
  111 58.0647 -10.6530 -27.4930
  112 58.0647 -10.6530 -27.4930
  113 105.888 1.82361 6.38368
  114 105.888 1.82361 6.38368
  115 109.935 0.792879 -6.07912
  116 109.935 0.792879 -6.07912
  117 150.093 9.74049 0.554044
  118 161.160 10.5834 0.771309
  119 150.093 9.74049 0.554044
  120 161.160 10.5834 0.771309
  121 157.608 13.0924 -3.37132
  122 157.608 13.0924 -3.37132
  123 16.8702 -28.4650 -8.71065
  124 16.8702 -28.4650 -8.71065
  125 135.957 -16.9946 14.2522
  126 135.957 -16.9946 14.2522
  127 113.808 -2.70522 7.00945
  128 113.808 -2.70522 7.00945
  129 25.6824 -24.6575 20.1763
  130 25.6824 -24.6575 20.1763
  131 105.429 2.17852 -0.0977149
  132 105.429 2.17852 -0.0977149
  133 113.668 -5.24601 -8.87947
  134 113.668 -5.24601 -8.87947
  135 107.226 0.890079 1.11456
  136 107.226 0.890079 1.11456
  137 107.336 0.781293 -1.04144
  138 107.336 0.781293 -1.04144
  139 108.563 1.53286 -3.26657
  140 108.563 1.53286 -3.26657
  141 108.035 1.48947 2.95030
  142 108.035 1.48947 2.95030
  143 103.180 3.61185 -0.117458
  144 103.180 3.61185 -0.117458
  145 85.6752 5.73257 -0.672917
  146 85.6752 5.73257 -0.672917
  147 125.910 -4.51466 2.37629
  148 125.910 -4.51466 2.37629
  149 144.765 -5.55020 -4.54390
  150 144.765 -5.55020 -4.54390
  151 111.160 -12.2795 17.1409
  152 111.160 -12.2795 17.1409
  153 83.9670 -22.8259 -37.9613
  154 83.9670 -22.8259 -37.9613
  155 98.0865 4.06500 6.06374
  156 98.0865 4.06500 6.06374
  157 128.030 -0.867866 -5.23390
  158 128.030 -0.867866 -5.23390
  159 176.663 13.7529 9.40345
  160 176.663 13.7529 9.40345
  161 87.5104 -24.2711 44.1612
  162 87.5104 -24.2711 44.1612
  163 181.013 6.15748 -2.01737
  164 181.013 6.15748 -2.01737
  165 102.757 3.59605 2.86481
  166 102.757 3.59605 2.86481
  167 97.5107 3.35322 -8.82167
  168 97.5107 3.35322 -8.82167
  169 120.913 3.56735 3.02231
  170 120.913 3.56735 3.02231
  171 101.750 4.28070 -3.24115
  172 101.750 4.28070 -3.24115
  173 106.116 1.75314 0.487108
  174 106.116 1.75314 0.487108
  175 108.004 0.850786 -1.76138
  176 108.004 0.850786 -1.76138
  177 169.228 12.5726 -8.83855
  178 169.228 12.5726 -8.83855
  179 106.211 1.70461 -0.589062
  180 106.211 1.70461 -0.589062
  181 77.5117 5.65644 -4.55106
  182 77.5117 5.65644 -4.55106
  183 142.048 10.4045 1.41873
  184 142.048 10.4045 1.41873
  185 28.3139 -24.2327 -26.0980
  186 28.3139 -24.2327 -26.0980
  187 76.6806 -0.900231 19.1148
  188 76.6806 -0.900231 19.1148
  189 103.709 -16.5628 -26.5628
  190 103.709 -16.5628 -26.5628
  191 122.455 -3.31907 1.25655
  192 122.455 -3.31907 1.25655
  193 114.467 -0.346309 4.41179
  194 114.467 -0.346309 4.41179
  195 157.046 3.82538 8.08132
  196 157.046 3.82538 8.08132
  197 63.5308 1.87671 -11.7515
  198 63.5308 1.87671 -11.7515
  199 179.207 8.15918 4.55719
  200 179.207 8.15918 4.55719
  201 116.649 -1.38096 -4.55017
  202 116.649 -1.38096 -4.55017
  203 108.180 0.609254 1.62600
  204 108.180 0.609254 1.62600
  205 121.513 -4.68957 -2.09699
  206 121.513 -4.68957 -2.09699
  207 133.245 -6.82731 -0.125012
  208 133.245 -6.82731 -0.125012
  209 8.21889 -48.6132 3.76122
  210 8.21889 -48.6132 3.76122
  211 111.727 0.631634 -3.95158
  212 111.727 0.631634 -3.95158
  213 110.748 0.901939 3.47055
  214 110.748 0.901939 3.47055
  215 106.586 -9.71628 -17.0247
  216 106.586 -9.71628 -17.0247
  217 124.589 -2.63687 -3.26898
  218 124.589 -2.63687 -3.26898
  219 101.423 3.71430 -6.06850
  220 101.423 3.71430 -6.06850
  221 27.9403 -35.5968 28.3955
  222 27.9403 -35.5968 28.3955
  223 126.100 0.443505 4.89406
  224 126.100 0.443505 4.89406
  225 122.133 3.02043 -4.04107
  226 122.133 3.02043 -4.04107
  227 176.986 10.6112 -7.63946
  228 176.986 10.6112 -7.63946
  229 133.665 -5.10194 -2.96261
  230 133.665 -5.10194 -2.96261
  231 147.119 -7.72289 -24.2965
  232 147.119 -7.72289 -24.2965
  233 106.839 -4.79473 13.2303
  234 106.839 -4.79473 13.2303
  235 104.381 3.02356 0.489519
  236 104.381 3.02356 0.489519
  237 54.8743 -8.30881 24.3817
  238 54.8743 -8.30881 24.3817
  239 140.809 -12.9517 28.7355
  240 140.809 -12.9517 28.7355
  241 36.8700 -5.29766 -11.9799
  242 36.8700 -5.29766 -11.9799
  243 124.257 -9.25473 -5.56173
  244 124.257 -9.25473 -5.56173
  245 100.336 4.60029 3.53523
  246 100.336 4.60029 3.53523
  247 3.73373 -62.8108 -3.00806
  248 3.73373 -62.8108 -3.00806
  249 6.96162 -55.6564 10.0182
  250 6.96162 -55.6564 10.0182
  251 102.370 0.728872 9.62540
  252 102.370 0.728872 9.62540
  253 107.100 0.415456 0.406472
  254 107.100 0.415456 0.406472
  255 106.104 1.76909 0.0764293
  256 106.104 1.76909 0.0764293
  257 99.4410 -1.21894 -12.7061
  258 99.4410 -1.21894 -12.7061
  259 107.178 0.376957 -0.430392
  260 107.178 0.376957 -0.430392
  261 119.125 -8.31721 7.67900
  262 119.125 -8.31721 7.67900
  263 110.229 0.405005 -1.96514
  264 110.229 0.405005 -1.96514
  265 84.9174 -7.18981 -23.3362
  266 84.9174 -7.18981 -23.3362
  267 145.929 11.1223 -1.01006
  268 145.929 11.1223 -1.01006
  269 105.962 2.40984 -4.99333
  270 105.962 2.40984 -4.99333
  271 105.513 2.25684 -1.02315
  272 105.513 2.25684 -1.02315
  273 89.1173 4.34677 -8.78450
  274 89.1173 4.34677 -8.78450
  275 26.6274 -11.1202 6.82253
  276 26.6274 -11.1202 6.82253
  277 114.073 -18.6977 23.6333
  278 114.073 -18.6977 23.6333
  279 106.735 1.62874 1.99421
  280 106.735 1.62874 1.99421
  281 159.923 11.4138 -2.20040
  282 159.923 11.4138 -2.20040
  283 193.556 15.3355 21.5056
  284 193.556 15.3355 21.5056
  285 128.189 -13.5583 7.28566
  286 128.189 -13.5583 7.28566
  287 90.9075 4.57953 6.47932
  288 90.9075 4.57953 6.47932
  289 117.641 -23.1250 31.1034
  290 117.641 -23.1250 31.1034
  291 120.571 -1.37640 2.89946
  292 120.571 -1.37640 2.89946
  293 106.671 1.07426 0.553494
  294 106.671 1.07426 0.553494
  295 105.041 2.94891 -3.21916
  296 105.041 2.94891 -3.21916
  297 106.135 1.74029 -0.151929
  298 106.135 1.74029 -0.151929
  299 107.803 0.304068 -0.773025
  300 107.803 0.304068 -0.773025
  301 110.111 0.564322 1.97294
  302 110.111 0.564322 1.97294
  303 104.416 3.00677 -0.832529
  304 104.416 3.00677 -0.832529
  305 24.0369 -41.5808 -26.8695
  306 24.0369 -41.5808 -26.8695
  307 70.8053 4.55088 5.95484
  308 70.8053 4.55088 5.95484
  309 106.808 0.894698 -0.532720
  310 106.808 0.894698 -0.532720
  311 93.4996 5.45215 -4.34597
  312 93.4996 5.45215 -4.34597
  313 93.7282 5.94700 1.66808
  314 93.7282 5.94700 1.66808
  315 106.558 1.56619 -1.41822
  316 106.558 1.56619 -1.41822
  317 143.975 7.12715 0.534797
  318 143.975 7.12715 0.534797
  319 105.698 2.61340 4.39603
  320 105.698 2.61340 4.39603
  321 135.606 4.03031 -4.37038
  322 135.606 4.03031 -4.37038
  323 204.084 5.87135 13.4349
  324 204.084 5.87135 13.4349
  325 105.266 2.70733 2.78803
  326 105.266 2.70733 2.78803
  327 103.481 3.57831 1.45838
  328 103.481 3.57831 1.45838
  329 82.1700 -19.7824 -43.1682
  330 82.1700 -19.7824 -43.1682
  331 107.863 0.275152 0.756499
  332 107.863 0.275152 0.756499
  333 105.399 2.27545 0.763981
  334 105.399 2.27545 0.763981
  335 101.278 4.61974 0.166724
  336 101.278 4.61974 0.166724
  337 52.1871 -18.6633 35.0804
  338 52.1871 -18.6633 35.0804
  339 131.029 8.51264 0.766804
  340 131.029 8.51264 0.766804
  341 7.60783 -54.5515 -11.7410
  342 7.60783 -54.5515 -11.7410
  343 80.8296 5.10926 5.34071
  344 80.8296 5.10926 5.34071
  345 192.919 2.74204 1.94355
  346 192.919 2.74204 1.94355
  347 201.199 9.99183 -13.7363
  348 201.199 9.99183 -13.7363
  349 92.2217 -10.5830 26.1009
  350 96.0374 -5.46671 19.4665
  351 92.2217 -10.5830 26.1009
  352 96.0374 -5.46671 19.4665
  353 195.639 5.01596 7.13720
  354 195.639 5.01596 7.13720
  355 109.268 -0.121074 7.51413
  356 109.268 -0.121074 7.51413
  357 130.707 -17.5862 -17.9458
  358 130.707 -17.5862 -17.9458
  359 123.005 -1.09616 3.92458
  360 123.005 -1.09616 3.92458
  361 84.3706 -19.6519 47.4622
  362 84.3706 -19.6519 47.4622
  363 144.133 11.5950 -0.410004
  364 144.133 11.5950 -0.410004
  365 195.852 1.86991 -1.50733
  366 195.852 1.86991 -1.50733
  367 116.702 0.0986473 -3.70249
  368 116.702 0.0986473 -3.70249
  369 103.489 3.80134 -1.74227
  370 103.489 3.80134 -1.74227
  371 161.956 12.5386 3.56239
  372 161.956 12.5386 3.56239
  373 122.674 5.06453 -0.853131
  374 122.674 5.06453 -0.853131
  375 112.319 0.451439 -2.41758
  376 112.319 0.451439 -2.41758
  377 29.7441 -15.4741 -19.9901
  378 29.7441 -15.4741 -19.9901
  379 124.320 -2.21661 1.23089
  380 124.320 -2.21661 1.23089
  381 105.944 -0.135359 -8.83545
  382 105.944 -0.135359 -8.83545
  383 121.965 -0.281234 -4.65790
  384 121.965 -0.281234 -4.65790
  385 196.478 3.54899 -5.94048
  386 196.478 3.54899 -5.94048
  387 106.263 1.67848 1.12271
  388 106.263 1.67848 1.12271
  389 129.863 6.20162 4.04995
  390 129.863 6.20162 4.04995
  391 141.130 -3.39479 0.361652
  392 141.130 -3.39479 0.361652
  393 106.690 1.96959 -2.48603
  394 106.690 1.96959 -2.48603
  395 207.988 17.8560 -25.0998
  396 207.988 17.8560 -25.0998
  397 122.835 -1.73950 -1.16129
  398 122.835 -1.73950 -1.16129
</Section>

newXOutput 32

<Section columns = "stress_xx | stress_yy | stress_xy">
  1 110.417 0.106352 -0.132436
  2 110.462 0.133228 0.178784
  3 110.417 0.106352 -0.132436
  4 110.462 0.133228 0.178784
  5 174.230 8.43161 46.4329
  6 181.297 7.98824 -45.6458
  7 174.230 8.43161 46.4329
  8 181.297 7.98824 -45.6458
  9 110.712 0.0762590 -0.346505
  10 111.695 0.136477 -0.612867
  11 113.106 0.313052 -1.23548
  12 116.333 0.121957 -1.64747
  13 120.425 0.213103 -2.65772
  14 125.137 -1.06659 -2.54962
  15 129.323 -1.30846 -0.187719
  16 126.835 -0.917869 2.35989
  17 121.434 0.895369 4.03978
  18 118.514 2.27437 -0.155182
  19 120.668 1.10054 -3.77625
  20 126.672 -1.35741 -2.87989
  21 128.102 -1.58623 0.732898
  22 125.795 -0.707862 2.18669
  23 119.536 0.0687475 2.66145
  24 116.036 0.454451 2.08093
  25 113.182 0.359077 1.18890
  26 111.708 0.109593 0.562132
  27 110.770 0.0898170 0.333758
  28 110.643 0.402557 0.209086
  29 110.426 0.830111 0.241502
  30 109.895 1.44873 0.213940
  31 109.683 1.68662 -0.0207697
  32 109.959 1.37339 -0.257361
  33 110.342 0.904904 -0.221684
  34 110.511 0.455350 -0.232264
  35 110.712 0.0762590 -0.346505
  36 111.695 0.136477 -0.612867
  37 113.106 0.313052 -1.23548
  38 116.333 0.121957 -1.64747
  39 120.425 0.213103 -2.65772
  40 125.137 -1.06659 -2.54962
  41 129.323 -1.30846 -0.187719
  42 126.835 -0.917869 2.35989
  43 121.434 0.895369 4.03978
  44 118.514 2.27437 -0.155182
  45 120.668 1.10054 -3.77625
  46 126.672 -1.35741 -2.87989
  47 128.102 -1.58623 0.732898
  48 125.795 -0.707862 2.18669
  49 119.536 0.0687475 2.66145
  50 116.036 0.454451 2.08093
  51 113.182 0.359077 1.18890
  52 111.708 0.109593 0.562132
  53 110.770 0.0898170 0.333758
  54 110.643 0.402557 0.209086
  55 110.426 0.830111 0.241502
  56 109.895 1.44873 0.213940
  57 109.683 1.68662 -0.0207697
  58 109.959 1.37339 -0.257361
  59 110.342 0.904904 -0.221684
  60 110.511 0.455350 -0.232264
  61 242.975 12.1168 24.8747
  62 221.160 3.66912 9.01026
  63 208.116 1.61139 3.39716
  64 205.355 1.15125 0.701604
  65 208.037 1.50562 -2.91290
  66 217.887 3.16991 -7.88090
  67 245.221 10.5676 -21.3984
  68 31.6687 -37.4671 -37.1537
  69 6.25901 -79.4892 -8.90770
  70 1.98004 -89.1395 -3.91432
  71 1.88552 -87.4136 -2.16370
  72 3.01931 -85.3626 4.17357
  73 6.73357 -77.0729 9.39911
  74 34.5543 -35.1116 41.2801
  75 242.975 12.1168 24.8747
  76 221.160 3.66912 9.01026
  77 208.116 1.61139 3.39716
  78 205.355 1.15125 0.701604
  79 208.037 1.50562 -2.91290
  80 217.887 3.16991 -7.88090
  81 245.221 10.5676 -21.3984
  82 31.6687 -37.4671 -37.1537
  83 6.25901 -79.4892 -8.90770
  84 1.98004 -89.1395 -3.91432
  85 1.88552 -87.4136 -2.16370
  86 3.01931 -85.3626 4.17357
  87 6.73357 -77.0729 9.39911
  88 34.5543 -35.1116 41.2801
  89 101.017 5.86298 -1.53808
  90 101.017 5.86298 -1.53808
  91 92.1697 1.25603 13.6947
  92 88.5188 -0.582148 -16.2713
  93 92.1697 1.25603 13.6947
  94 88.5188 -0.582148 -16.2713
  95 51.4772 1.07053 6.47098
  96 51.4772 1.07053 6.47098
  97 136.266 8.69363 -2.40911
  98 139.257 4.81039 4.97553
  99 136.266 8.69363 -2.40911
  100 139.257 4.81039 4.97553
  101 108.734 2.68690 1.57461
  102 108.734 2.68690 1.57461
  103 130.831 -7.43288 -0.362074
  104 130.831 -7.43288 -0.362074
  105 108.882 2.80547 -1.94017
  106 108.882 2.80547 -1.94017
  107 128.893 -15.7637 -13.9734
  108 128.893 -15.7637 -13.9734
  109 89.5786 -18.5052 35.3925
  110 89.5786 -18.5052 35.3925
  111 59.9837 -11.0023 -28.4068
  112 59.9837 -11.0023 -28.4068
  113 109.374 1.88295 6.59209
  114 109.374 1.88295 6.59209
  115 113.551 0.818236 -6.27798
  116 113.551 0.818236 -6.27798
  117 155.015 10.0652 0.587041
  118 166.440 10.9279 0.799051
  119 155.015 10.0652 0.587041
  120 166.440 10.9279 0.799051
  121 162.775 13.5247 -3.49383
  122 162.775 13.5247 -3.49383
  123 17.4295 -29.3968 -9.00469
  124 17.4295 -29.3968 -9.00469
  125 140.409 -17.5495 14.7341
  126 140.409 -17.5495 14.7341
  127 117.549 -2.79474 7.24106
  128 117.549 -2.79474 7.24106
  129 26.5341 -25.4635 20.8550
  130 26.5341 -25.4635 20.8550
  131 108.901 2.24946 -0.100852
  132 108.901 2.24946 -0.100852
  133 117.405 -5.41919 -9.17376
  134 117.405 -5.41919 -9.17376
  135 110.755 0.919093 1.15040
  136 110.755 0.919093 1.15040
  137 110.868 0.806782 -1.07491
  138 110.868 0.806782 -1.07491
  139 112.135 1.58270 -3.37239
  140 112.135 1.58270 -3.37239
  141 111.590 1.53796 3.04576
  142 111.590 1.53796 3.04576
  143 106.579 3.72974 -0.121298
  144 106.579 3.72974 -0.121298
  145 88.5071 5.92135 -0.695119
  146 88.5071 5.92135 -0.695119
  147 130.047 -4.66263 2.44727
  148 130.047 -4.66263 2.44727
  149 149.507 -5.72453 -4.71035
  150 149.507 -5.72453 -4.71035
  151 114.812 -12.6845 17.7082
  152 114.812 -12.6845 17.7082
  153 86.7256 -23.5738 -39.2279
  154 86.7256 -23.5738 -39.2279
  155 101.321 4.19837 6.26197
  156 101.321 4.19837 6.26197
  157 132.237 -0.895087 -5.39715
  158 132.237 -0.895087 -5.39715
  159 182.439 14.2068 9.72177
  160 182.439 14.2068 9.72177
  161 90.3845 -25.0690 45.6312
  162 90.3845 -25.0690 45.6312
  163 186.921 6.35575 -2.08410
  164 186.921 6.35575 -2.08410
  165 106.143 3.71349 2.95780
  166 106.143 3.71349 2.95780
  167 100.726 3.46334 -9.11080
  168 100.726 3.46334 -9.11080
  169 124.897 3.68609 3.11829
  170 124.897 3.68609 3.11829
  171 105.103 4.42064 -3.34653
  172 105.103 4.42064 -3.34653
  173 109.609 1.81021 0.502773
  174 109.609 1.81021 0.502773
  175 111.558 0.878477 -1.81814
  176 111.558 0.878477 -1.81814
  177 174.764 12.9949 -9.14595
  178 174.764 12.9949 -9.14595
  179 109.708 1.76012 -0.607995
  180 109.708 1.76012 -0.607995
  181 80.0765 5.84380 -4.70082
  182 80.0765 5.84380 -4.70082
  183 146.714 10.7476 1.45701
  184 146.714 10.7476 1.45701
  185 29.2511 -25.0246 -26.9749
  186 29.2511 -25.0246 -26.9749
  187 79.2136 -0.928767 19.7452
  188 79.2136 -0.928767 19.7452
  189 107.116 -17.1092 -27.4435
  190 107.116 -17.1092 -27.4435
  191 126.477 -3.42875 1.30164
  192 126.477 -3.42875 1.30164
  193 118.230 -0.358271 4.55633
  194 118.230 -0.358271 4.55633
  195 162.187 3.96220 8.36588
  196 162.187 3.96220 8.36588
  197 65.6356 1.94110 -12.1399
  198 65.6356 1.94110 -12.1399
  199 185.060 8.42339 4.70891
  200 185.060 8.42339 4.70891
  201 120.482 -1.42703 -4.70048
  202 120.482 -1.42703 -4.70048
  203 111.739 0.629061 1.67837
  204 111.739 0.629061 1.67837
  205 125.505 -4.84457 -2.17006
  206 125.505 -4.84457 -2.17006
  207 137.617 -7.04950 -0.140405
  208 137.617 -7.04950 -0.140405
  209 8.48979 -50.2172 3.88930
  210 8.48979 -50.2172 3.88930
  211 115.400 0.651779 -4.08019
  212 115.400 0.651779 -4.08019
  213 114.390 0.931170 3.58327
  214 114.390 0.931170 3.58327
  215 110.090 -10.0367 -17.5877
  216 110.090 -10.0367 -17.5877
  217 128.684 -2.72363 -3.37023
  218 128.684 -2.72363 -3.37023
  219 104.765 3.83590 -6.26681
  220 104.765 3.83590 -6.26681
  221 28.8616 -36.7603 29.3527
  222 28.8616 -36.7603 29.3527
  223 130.247 0.459829 5.04742
  224 130.247 0.459829 5.04742
  225 126.155 3.12107 -4.16895
  226 126.155 3.12107 -4.16895
  227 182.770 10.9573 -7.89620
  228 182.770 10.9573 -7.89620
  229 138.052 -5.26729 -3.04850
  230 138.052 -5.26729 -3.04850
  231 151.931 -7.95969 -25.1166
  232 151.931 -7.95969 -25.1166
  233 110.353 -4.95273 13.6662
  234 110.353 -4.95273 13.6662
  235 107.819 3.12216 0.505340
  236 107.819 3.12216 0.505340
  237 56.6898 -8.58032 25.1915
  238 56.6898 -8.58032 25.1915
  239 145.414 -13.3642 29.7004
  240 145.414 -13.3642 29.7004
  241 38.0955 -5.46641 -12.3789
  242 38.0955 -5.46641 -12.3789
  243 128.336 -9.55953 -5.75086
  244 128.336 -9.55953 -5.75086
  245 103.644 4.75089 3.65040
  246 103.644 4.75089 3.65040
  247 3.85488 -64.8897 -3.11123
  248 3.85488 -64.8897 -3.11123
  249 7.19046 -57.4925 10.3612
  250 7.19046 -57.4925 10.3612
  251 105.741 0.752659 9.94113
  252 105.741 0.752659 9.94113
  253 110.625 0.429026 0.419499
  254 110.625 0.429026 0.419499
  255 109.597 1.82663 0.0788902
  256 109.597 1.82663 0.0788902
  257 102.717 -1.25921 -13.1240
  258 102.717 -1.25921 -13.1240
  259 110.705 0.389288 -0.444188
  260 110.705 0.389288 -0.444188
  261 123.037 -8.59134 7.93579
  262 123.037 -8.59134 7.93579
  263 113.853 0.418108 -2.02855
  264 113.853 0.418108 -2.02855
  265 87.7167 -7.42677 -24.1073
  266 87.7167 -7.42677 -24.1073
  267 150.721 11.4885 -1.03499
  268 150.721 11.4885 -1.03499
  269 109.450 2.48837 -5.15586
  270 109.450 2.48837 -5.15586
  271 108.988 2.33037 -1.05612
  272 108.988 2.33037 -1.05612
  273 92.0599 4.49008 -9.07283
  274 92.0599 4.49008 -9.07283
  275 27.5131 -11.4788 7.05087
  276 27.5131 -11.4788 7.05087
  277 117.816 -19.3143 24.4178
  278 117.816 -19.3143 24.4178
  279 110.248 1.68181 2.05853
  280 110.248 1.68181 2.05853
  281 165.165 11.7864 -2.27706
  282 165.165 11.7864 -2.27706
  283 199.866 15.8530 22.2251
  284 199.866 15.8530 22.2251
  285 132.393 -14.0038 7.53438
  286 132.393 -14.0038 7.53438
  287 93.9088 4.73028 6.69151
  288 93.9088 4.73028 6.69151
  289 121.496 -23.8866 32.1369
  290 121.496 -23.8866 32.1369
  291 124.530 -1.42218 2.99582
  292 124.530 -1.42218 2.99582
  293 110.182 1.10925 0.571266
  294 110.182 1.10925 0.571266
  295 108.500 3.04513 -3.32349
  296 108.500 3.04513 -3.32349
  297 109.629 1.79690 -0.156809
  298 109.629 1.79690 -0.156809
  299 111.350 0.313989 -0.797847
  300 111.350 0.313989 -0.797847
  301 113.732 0.582630 2.03660
  302 113.732 0.582630 2.03660
  303 107.856 3.10482 -0.859437
  304 107.856 3.10482 -0.859437
  305 24.8288 -42.9394 -27.7773
  306 24.8288 -42.9394 -27.7773
  307 73.1501 4.70253 6.15080
  308 73.1501 4.70253 6.15080
  309 110.323 0.923861 -0.549813
  310 110.323 0.923861 -0.549813
  311 96.5858 5.63118 -4.48823
  312 96.5858 5.63118 -4.48823
  313 96.8220 6.14226 1.72252
  314 96.8220 6.14226 1.72252
  315 110.065 1.61722 -1.46390
  316 110.065 1.61722 -1.46390
  317 148.699 7.36713 0.537468
  318 148.699 7.36713 0.537468
  319 109.178 2.69867 4.53884
  320 109.178 2.69867 4.53884
  321 140.060 4.16580 -4.50291
  322 140.060 4.16580 -4.50291
  323 210.726 6.06120 13.8769
  324 210.726 6.06120 13.8769
  325 108.732 2.79565 2.87828
  326 108.732 2.79565 2.87828
  327 106.890 3.69510 1.50559
  328 106.890 3.69510 1.50559
  329 84.8631 -20.4022 -44.6163
  330 84.8631 -20.4022 -44.6163
  331 111.412 0.284125 0.780786
  332 111.412 0.284125 0.780786
  333 108.870 2.34957 0.788603
  334 108.870 2.34957 0.788603
  335 104.617 4.77078 0.172123
  336 104.617 4.77078 0.172123
  337 53.9111 -19.2768 36.2512
  338 53.9111 -19.2768 36.2512
  339 135.341 8.79368 0.790082
  340 135.341 8.79368 0.790082
  341 7.85709 -56.3504 -12.1409
  342 7.85709 -56.3504 -12.1409
  343 83.5030 5.27815 5.51593
  344 83.5030 5.27815 5.51593
  345 199.200 2.82968 2.00619
  346 199.200 2.82968 2.00619
  347 207.753 10.3203 -14.1899
  348 207.753 10.3203 -14.1899
  349 95.2570 -10.9322 26.9634
  350 99.1999 -5.64679 20.1077
  351 95.2570 -10.9322 26.9634
  352 99.1999 -5.64679 20.1077
  353 202.009 5.17725 7.37031
  354 202.009 5.17725 7.37031
  355 112.863 -0.125518 7.76052
  356 112.863 -0.125518 7.76052
  357 134.989 -18.1630 -18.5471
  358 134.989 -18.1630 -18.5471
  359 127.051 -1.13173 4.04857
  360 127.051 -1.13173 4.04857
  361 87.1314 -20.2692 49.0510
  362 87.1314 -20.2692 49.0510
  363 148.868 11.9753 -0.423165
  364 148.868 11.9753 -0.423165
  365 202.223 1.92948 -1.55631
  366 202.223 1.92948 -1.55631
  367 120.536 0.101299 -3.82349
  368 120.536 0.101299 -3.82349
  369 106.898 3.92546 -1.79873
  370 106.898 3.92546 -1.79873
  371 167.262 12.9498 3.68786
  372 167.262 12.9498 3.68786
  373 126.716 5.23222 -0.880158
  374 126.716 5.23222 -0.880158
  375 116.011 0.465926 -2.49587
  376 116.011 0.465926 -2.49587
  377 30.7335 -15.9782 -20.6596
  378 30.7335 -15.9782 -20.6596
  379 128.404 -2.28971 1.26756
  380 128.404 -2.28971 1.26756
  381 109.431 -0.140288 -9.12560
  382 109.431 -0.140288 -9.12560
  383 125.979 -0.290096 -4.80547
  384 125.979 -0.290096 -4.80547
  385 202.874 3.66330 -6.13404
  386 202.874 3.66330 -6.13404
  387 109.761 1.73315 1.15885
  388 109.761 1.73315 1.15885
  389 134.134 6.40753 4.17586
  390 134.134 6.40753 4.17586
  391 145.756 -3.50110 0.388377
  392 145.756 -3.50110 0.388377
  393 110.202 2.03379 -2.56634
  394 110.202 2.03379 -2.56634
  395 214.759 18.4612 -25.9375
  396 214.759 18.4612 -25.9375
  397 126.868 -1.79731 -1.20123
  398 126.868 -1.79731 -1.20123
</Section>

newXOutput 33

<Section columns = "stress_xx | stress_yy | stress_xy">
  1 113.932 0.109757 -0.136528
  2 113.979 0.137476 0.184304
  3 113.932 0.109757 -0.136528
  4 113.979 0.137476 0.184304
  5 179.715 8.74248 47.9326
  6 187.000 8.28696 -47.1207
  7 179.715 8.74248 47.9326
  8 187.000 8.28696 -47.1207
  9 114.236 0.0786821 -0.357224
  10 115.250 0.140791 -0.631866
  11 116.705 0.322896 -1.27390
  12 120.031 0.125723 -1.69888
  13 124.250 0.219531 -2.74125
  14 129.110 -1.10113 -2.63073
  15 133.430 -1.35047 -0.195300
  16 130.870 -0.947055 2.43157
  17 125.306 0.924669 4.16412
  18 122.297 2.34770 -0.159996
  19 124.517 1.13587 -3.89269
  20 130.702 -1.40068 -2.96733
  21 132.170 -1.63719 0.758111
  22 129.789 -0.730729 2.25641
  23 123.334 0.0704943 2.74526
  24 119.725 0.468647 2.14594
  25 116.783 0.370371 1.22585
  26 115.263 0.113059 0.579549
  27 114.296 0.0926759 0.344093
  28 114.165 0.415273 0.215538
  29 113.942 0.856274 0.248976
  30 113.395 1.49431 0.220575
  31 113.176 1.73964 -0.0214137
  32 113.460 1.41661 -0.265331
  33 113.855 0.933426 -0.228516
  34 114.030 0.469750 -0.239456
  35 114.236 0.0786821 -0.357224
  36 115.250 0.140791 -0.631866
  37 116.705 0.322896 -1.27390
  38 120.031 0.125723 -1.69888
  39 124.250 0.219531 -2.74125
  40 129.110 -1.10113 -2.63073
  41 133.430 -1.35047 -0.195300
  42 130.870 -0.947055 2.43157
  43 125.306 0.924669 4.16412
  44 122.297 2.34770 -0.159996
  45 124.517 1.13587 -3.89269
  46 130.702 -1.40068 -2.96733
  47 132.170 -1.63719 0.758111
  48 129.789 -0.730729 2.25641
  49 123.334 0.0704943 2.74526
  50 119.725 0.468647 2.14594
  51 116.783 0.370371 1.22585
  52 115.263 0.113059 0.579549
  53 114.296 0.0926759 0.344093
  54 114.165 0.415273 0.215538
  55 113.942 0.856274 0.248976
  56 113.395 1.49431 0.220575
  57 113.176 1.73964 -0.0214137
  58 113.460 1.41661 -0.265331
  59 113.855 0.933426 -0.228516
  60 114.030 0.469750 -0.239456
  61 250.595 12.5050 25.6641
  62 228.101 3.78349 9.29300
  63 214.655 1.66042 3.50270
  64 211.808 1.18647 0.722860
  65 214.573 1.55197 -3.00320
  66 224.729 3.26837 -8.12726
  67 252.913 10.9058 -22.0779
  68 32.6744 -38.6202 -38.3659
  69 6.45775 -82.0308 -9.20746
  70 2.03976 -92.0094 -4.04560
  71 1.94247 -90.2299 -2.23339
  72 3.11310 -88.1077 4.31378
  73 6.94824 -79.5366 9.71597
  74 35.6484 -36.1892 42.6252
  75 250.595 12.5050 25.6641
  76 228.101 3.78349 9.29300
  77 214.655 1.66042 3.50270
  78 211.808 1.18647 0.722860
  79 214.573 1.55197 -3.00320
  80 224.729 3.26837 -8.12726
  81 252.913 10.9058 -22.0779
  82 32.6744 -38.6202 -38.3659
  83 6.45775 -82.0308 -9.20746
  84 2.03976 -92.0094 -4.04560
  85 1.94247 -90.2299 -2.23339
  86 3.11310 -88.1077 4.31378
  87 6.94824 -79.5366 9.71597
  88 35.6484 -36.1892 42.6252
  89 104.241 6.04879 -1.58664
  90 104.241 6.04879 -1.58664
  91 95.1120 1.29651 14.1301
  92 91.3453 -0.600185 -16.7896
  93 95.1120 1.29651 14.1301
  94 91.3453 -0.600185 -16.7896
  95 53.1318 1.10897 6.67819
  96 53.1318 1.10897 6.67819
  97 140.603 8.97140 -2.48100
  98 143.682 4.96665 5.12202
  99 140.603 8.97140 -2.48100
  100 143.682 4.96665 5.12202
  101 112.198 2.77161 1.62375
  102 112.198 2.77161 1.62375
  103 134.986 -7.66911 -0.365234
  104 134.986 -7.66911 -0.365234
  105 112.350 2.89396 -2.00077
  106 112.350 2.89396 -2.00077
  107 132.982 -16.2658 -14.4251
  108 132.982 -16.2658 -14.4251
  109 92.4299 -19.0962 36.5281
  110 92.4299 -19.0962 36.5281
  111 61.9016 -11.3512 -29.3204
  112 61.9016 -11.3512 -29.3204
  113 112.857 1.94221 6.80023
  114 112.857 1.94221 6.80023
  115 117.164 0.843526 -6.47659
  116 117.164 0.843526 -6.47659
  117 159.933 10.3898 0.620942
  118 171.715 11.2719 0.826918
  119 159.933 10.3898 0.620942
  120 171.715 11.2719 0.826918
  121 167.937 13.9567 -3.61697
  122 167.937 13.9567 -3.61697
  123 17.9886 -30.3277 -9.29896
  124 17.9886 -30.3277 -9.29896
  125 144.857 -18.1036 15.2165
  126 144.857 -18.1036 15.2165
  127 121.287 -2.88421 7.47255
  128 121.287 -2.88421 7.47255
  129 27.3855 -26.2684 21.5340
  130 27.3855 -26.2684 21.5340
  131 112.369 2.32030 -0.103981
  132 112.369 2.32030 -0.103981
  133 121.137 -5.59226 -9.46793
  134 121.137 -5.59226 -9.46793
  135 114.281 0.948066 1.18615
  136 114.281 0.948066 1.18615
  137 114.397 0.832237 -1.10829
  138 114.397 0.832237 -1.10829
  139 115.704 1.63247 -3.47801
  140 115.704 1.63247 -3.47801
  141 115.142 1.58637 3.14104
  142 115.142 1.58637 3.14104
  143 109.976 3.84747 -0.125133
  144 109.976 3.84747 -0.125133
  145 91.3376 6.10998 -0.717306
  146 91.3376 6.10998 -0.717306
  147 134.179 -4.81043 2.51773
  148 134.179 -4.81043 2.51773
  149 154.244 -5.89819 -4.87774
  150 154.244 -5.89819 -4.87774
  151 118.460 -13.0892 18.2754
  152 118.460 -13.0892 18.2754
  153 89.4817 -24.3209 -40.4946
  154 89.4817 -24.3209 -40.4946
  155 104.553 4.33161 6.45996
  156 104.553 4.33161 6.45996
  157 136.441 -0.922200 -5.55970
  158 136.441 -0.922200 -5.55970
  159 188.207 14.6604 10.0404
  160 188.207 14.6604 10.0404
  161 93.2560 -25.8662 47.1011
  162 93.2560 -25.8662 47.1011
  163 192.822 6.55359 -2.15080
  164 192.822 6.55359 -2.15080
  165 109.526 3.83078 3.05063
  166 109.526 3.83078 3.05063
  167 103.938 3.57336 -9.39961
  168 103.938 3.57336 -9.39961
  169 128.878 3.80482 3.21396
  170 128.878 3.80482 3.21396
  171 108.454 4.56041 -3.45175
  172 108.454 4.56041 -3.45175
  173 113.100 1.86719 0.518402
  174 113.100 1.86719 0.518402
  175 115.109 0.906126 -1.87478
  176 115.109 0.906126 -1.87478
  177 180.292 13.4175 -9.45413
  178 180.292 13.4175 -9.45413
  179 113.202 1.81555 -0.626883
  180 113.202 1.81555 -0.626883
  181 82.6400 6.03109 -4.85045
  182 82.6400 6.03109 -4.85045
  183 151.375 11.0906 1.49473
  184 151.375 11.0906 1.49473
  185 30.1878 -25.8154 -27.8523
  186 30.1878 -25.8154 -27.8523
  187 81.7452 -0.957212 20.3751
  188 81.7452 -0.957212 20.3751
  189 110.520 -17.6553 -28.3239
  190 110.520 -17.6553 -28.3239
  191 130.496 -3.53837 1.34692
  192 130.496 -3.53837 1.34692
  193 121.988 -0.370258 4.70071
  194 121.988 -0.370258 4.70071
  195 167.321 4.09962 8.65138
  196 167.321 4.09962 8.65138
  197 67.7395 2.00560 -12.5280
  198 67.7395 2.00560 -12.5280
  199 190.906 8.68710 4.86060
  200 190.906 8.68710 4.86060
  201 124.311 -1.47311 -4.85070
  202 124.311 -1.47311 -4.85070
  203 115.295 0.648836 1.73063
  204 115.295 0.648836 1.73063
  205 129.492 -4.99948 -2.24333
  206 129.492 -4.99948 -2.24333
  207 141.984 -7.27135 -0.156502
  208 141.984 -7.27135 -0.156502
  209 8.76049 -51.8201 4.01755
  210 8.76049 -51.8201 4.01755
  211 119.071 0.671867 -4.20861
  212 119.071 0.671867 -4.20861
  213 118.029 0.960348 3.69580
  214 118.029 0.960348 3.69580
  215 113.592 -10.3569 -18.1504
  216 113.592 -10.3569 -18.1504
  217 132.775 -2.81033 -3.47100
  218 132.775 -2.81033 -3.47100
  219 108.105 3.95737 -6.46487
  220 108.105 3.95737 -6.46487
  221 29.7822 -37.9222 30.3107
  222 29.7822 -37.9222 30.3107
  223 134.391 0.476251 5.20015
  224 134.391 0.476251 5.20015
  225 130.175 3.22172 -4.29640
  226 130.175 3.22172 -4.29640
  227 188.548 11.3029 -8.15305
  228 188.548 11.3029 -8.15305
  229 142.433 -5.43234 -3.13358
  230 142.433 -5.43234 -3.13358
  231 156.737 -8.19519 -25.9374
  232 156.737 -8.19519 -25.9374
  233 113.864 -5.11061 14.1018
  234 113.864 -5.11061 14.1018
  235 111.255 3.22062 0.521130
  236 111.255 3.22062 0.521130
  237 58.5045 -8.85147 26.0011
  238 58.5045 -8.85147 26.0011
  239 150.013 -13.7754 30.6657
  240 150.013 -13.7754 30.6657
  241 39.3207 -5.63467 -12.7779
  242 39.3207 -5.63467 -12.7779
  243 132.410 -9.86409 -5.94022
  244 132.410 -9.86409 -5.94022
  245 106.949 4.90132 3.76540
  246 106.949 4.90132 3.76540
  247 3.97582 -66.9677 -3.21458
  248 3.97582 -66.9677 -3.21458
  249 7.41910 -59.3274 10.7048
  250 7.41910 -59.3274 10.7048
  251 109.110 0.776415 10.2565
  252 109.110 0.776415 10.2565
  253 114.147 0.442578 0.432493
  254 114.147 0.442578 0.432493
  255 113.088 1.88409 0.0813456
  256 113.088 1.88409 0.0813456
  257 105.990 -1.29946 -13.5416
  258 105.990 -1.29946 -13.5416
  259 114.229 0.401605 -0.457950
  260 114.229 0.401605 -0.457950
  261 126.946 -8.86526 8.19264
  262 126.946 -8.86526 8.19264
  263 117.475 0.431186 -2.09183
  264 117.475 0.431186 -2.09183
  265 90.5139 -7.66356 -24.8779
  266 90.5139 -7.66356 -24.8779
  267 155.507 11.8544 -1.05937
  268 155.507 11.8544 -1.05937
  269 112.936 2.56679 -5.31814
  270 112.936 2.56679 -5.31814
  271 112.459 2.40380 -1.08901
  272 112.459 2.40380 -1.08901
  273 95.0007 4.63329 -9.36087
  274 95.0007 4.63329 -9.36087
  275 28.3988 -11.8367 7.27927
  276 28.3988 -11.8367 7.27927
  277 121.555 -19.9305 25.2021
  278 121.555 -19.9305 25.2021
  279 113.759 1.73480 2.12272
  280 113.759 1.73480 2.12272
  281 170.400 12.1584 -2.35391
  282 170.400 12.1584 -2.35391
  283 206.168 16.3709 22.9448
  284 206.168 16.3709 22.9448
  285 136.593 -14.4488 7.78346
  286 136.593 -14.4488 7.78346
  287 96.9083 4.88091 6.90345
  288 96.9083 4.88091 6.90345
  289 125.347 -24.6476 33.1702
  290 125.347 -24.6476 33.1702
  291 128.486 -1.46795 3.09215
  292 128.486 -1.46795 3.09215
  293 113.690 1.14419 0.588995
  294 113.690 1.14419 0.588995
  295 111.956 3.14121 -3.42762
  296 111.956 3.14121 -3.42762
  297 113.120 1.85342 -0.161677
  298 113.120 1.85342 -0.161677
  299 114.894 0.323897 -0.822609
  300 114.894 0.323897 -0.822609
  301 117.350 0.600907 2.10014
  302 117.350 0.600907 2.10014
  303 111.292 3.20274 -0.886291
  304 111.292 3.20274 -0.886291
  305 25.6201 -44.2961 -28.6859
  306 25.6201 -44.2961 -28.6859
  307 75.4939 4.85417 6.34661
  308 75.4939 4.85417 6.34661
  309 113.836 0.952982 -0.566865
  310 113.836 0.952982 -0.566865
  311 99.6699 5.81005 -4.63032
  312 99.6699 5.81005 -4.63032
  313 99.9139 6.33734 1.77690
  314 99.9139 6.33734 1.77690
  315 113.570 1.66818 -1.50948
  316 113.570 1.66818 -1.50948
  317 153.418 7.60727 0.539195
  318 153.418 7.60727 0.539195
  319 112.655 2.78382 4.68141
  320 112.655 2.78382 4.68141
  321 144.510 4.30136 -4.63462
  322 144.510 4.30136 -4.63462
  323 217.358 6.25068 14.3185
  324 217.358 6.25068 14.3185
  325 112.196 2.88384 2.96837
  326 112.196 2.88384 2.96837
  327 110.297 3.81174 1.55271
  328 110.297 3.81174 1.55271
  329 87.5533 -21.0194 -46.0649
  330 87.5533 -21.0194 -46.0649
  331 114.958 0.293087 0.805015
  332 114.958 0.293087 0.805015
  333 112.338 2.42359 0.813171
  334 112.338 2.42359 0.813171
  335 107.953 4.92163 0.177512
  336 107.953 4.92163 0.177512
  337 55.6341 -19.8896 37.4222
  338 55.6341 -19.8896 37.4222
  339 139.649 9.07455 0.813218
  340 139.649 9.07455 0.813218
  341 8.10607 -58.1481 -12.5412
  342 8.10607 -58.1481 -12.5412
  343 86.1751 5.44694 5.69096
  344 86.1751 5.44694 5.69096
  345 205.471 2.91709 2.06870
  346 205.471 2.91709 2.06870
  347 214.298 10.6485 -14.6432
  348 214.298 10.6485 -14.6432
  349 98.2898 -11.2813 27.8254
  350 102.360 -5.82673 20.7485
  351 98.2898 -11.2813 27.8254
  352 102.360 -5.82673 20.7485
  353 208.370 5.33817 7.60311
  354 208.370 5.33817 7.60311
  355 116.455 -0.129989 8.00666
  356 116.455 -0.129989 8.00666
  357 139.265 -18.7392 -19.1487
  358 139.265 -18.7392 -19.1487
  359 131.094 -1.16724 4.17214
  360 131.094 -1.16724 4.17214
  361 89.8888 -20.8841 50.6403
  362 89.8888 -20.8841 50.6403
  363 153.599 12.3552 -0.436293
  364 153.599 12.3552 -0.436293
  365 208.585 1.98888 -1.60522
  366 208.585 1.98888 -1.60522
  367 124.366 0.103912 -3.94434
  368 124.366 0.103912 -3.94434
  369 110.305 4.04942 -1.85508
  370 110.305 4.04942 -1.85508
  371 172.562 13.3606 3.81374
  372 172.562 13.3606 3.81374
  373 130.754 5.39983 -0.907095
  374 130.754 5.39983 -0.907095
  375 119.699 0.480378 -2.57402
  376 119.699 0.480378 -2.57402
  377 31.7227 -16.4816 -21.3292
  378 31.7227 -16.4816 -21.3292
  379 132.484 -2.36277 1.30396
  380 132.484 -2.36277 1.30396
  381 112.915 -0.145243 -9.41546
  382 112.915 -0.145243 -9.41546
  383 129.990 -0.298924 -4.95255
  384 129.990 -0.298924 -4.95255
  385 209.260 3.77735 -6.32733
  386 209.260 3.77735 -6.32733
  387 113.256 1.78773 1.19491
  388 113.256 1.78773 1.19491
  389 138.402 6.61338 4.30119
  390 138.402 6.61338 4.30119
  391 150.377 -3.60697 0.416020
  392 150.377 -3.60697 0.416020
  393 113.711 2.09789 -2.64648
  394 113.711 2.09789 -2.64648
  395 221.520 19.0670 -26.7753
  396 221.520 19.0670 -26.7753
  397 130.897 -1.85511 -1.24124
  398 130.897 -1.85511 -1.24124
</Section>

newXOutput 34

<Section columns = "stress_xx | stress_yy | stress_xy">
  1 117.445 0.113161 -0.140608
  2 117.493 0.141720 0.189809
  3 117.445 0.113161 -0.140608
  4 117.493 0.141720 0.189809
  5 185.191 9.05572 49.4323
  6 192.694 8.58820 -48.5957
  7 185.191 9.05572 49.4323
  8 192.694 8.58820 -48.5957
  9 117.758 0.0811029 -0.367914
  10 118.802 0.145100 -0.650818
  11 120.300 0.332725 -1.31223
  12 123.726 0.129479 -1.75018
  13 128.071 0.225932 -2.82464
  14 133.079 -1.13567 -2.71178
  15 137.532 -1.39246 -0.202973
  16 134.901 -0.976215 2.50299
  17 129.176 0.953994 4.28808
  18 126.078 2.42102 -0.164798
  19 128.363 1.17119 -4.00881
  20 134.728 -1.44392 -3.05443
  21 136.234 -1.68814 0.783419
  22 133.779 -0.753597 2.32608
  23 127.129 0.0722125 2.82894
  24 123.411 0.482814 2.21083
  25 120.380 0.381647 1.26271
  26 118.815 0.116520 0.596923
  27 117.820 0.0955324 0.354403
  28 117.684 0.427974 0.221972
  29 117.455 0.882399 0.256431
  30 116.892 1.53981 0.227193
  31 116.666 1.79259 -0.0220560
  32 116.959 1.45976 -0.273281
  33 117.365 0.961907 -0.235329
  34 117.545 0.484132 -0.246629
  35 117.758 0.0811029 -0.367914
  36 118.802 0.145100 -0.650818
  37 120.300 0.332725 -1.31223
  38 123.726 0.129479 -1.75018
  39 128.071 0.225932 -2.82464
  40 133.079 -1.13567 -2.71178
  41 137.532 -1.39246 -0.202973
  42 134.901 -0.976215 2.50299
  43 129.176 0.953994 4.28808
  44 126.078 2.42102 -0.164798
  45 128.363 1.17119 -4.00881
  46 134.728 -1.44392 -3.05443
  47 136.234 -1.68814 0.783419
  48 133.779 -0.753597 2.32608
  49 127.129 0.0722125 2.82894
  50 123.411 0.482814 2.21083
  51 120.380 0.381647 1.26271
  52 118.815 0.116520 0.596923
  53 117.820 0.0955324 0.354403
  54 117.684 0.427974 0.221972
  55 117.455 0.882399 0.256431
  56 116.892 1.53981 0.227193
  57 116.666 1.79259 -0.0220560
  58 116.959 1.45976 -0.273281
  59 117.365 0.961907 -0.235329
  60 117.545 0.484132 -0.246629
  61 258.202 12.8930 26.4526
  62 235.030 3.89761 9.57525
  63 221.183 1.70928 3.60800
  64 218.251 1.22158 0.744034
  65 221.098 1.59819 -3.09327
  66 231.559 3.36659 -8.37314
  67 260.591 11.2439 -22.7566
  68 33.6791 -39.7697 -39.5788
  69 6.65629 -84.5709 -9.50800
  70 2.09923 -94.8790 -4.17720
  71 1.99918 -93.0459 -2.30307
  72 3.20667 -90.8523 4.45434
  73 7.16276 -81.9990 10.0337
  74 36.7412 -37.2634 43.9711
  75 258.202 12.8930 26.4526
  76 235.030 3.89761 9.57525
  77 221.183 1.70928 3.60800
  78 218.251 1.22158 0.744034
  79 221.098 1.59819 -3.09327
  80 231.559 3.36659 -8.37314
  81 260.591 11.2439 -22.7566
  82 33.6791 -39.7697 -39.5788
  83 6.65629 -84.5709 -9.50800
  84 2.09923 -94.8790 -4.17720
  85 1.99918 -93.0459 -2.30307
  86 3.20667 -90.8523 4.45434
  87 7.16276 -81.9990 10.0337
  88 36.7412 -37.2634 43.9711
  89 107.462 6.23440 -1.63513
  90 107.462 6.23440 -1.63513
  91 98.0524 1.33698 14.5650
  92 94.1699 -0.618177 -17.3076
  93 98.0524 1.33698 14.5650
  94 94.1699 -0.618177 -17.3076
  95 54.7861 1.14763 6.88531
  96 54.7861 1.14763 6.88531
  97 144.935 9.24901 -2.55253
  98 148.103 5.12299 5.26766
  99 144.935 9.24901 -2.55253
  100 148.103 5.12299 5.26766
  101 115.659 2.85619 1.67280
  102 115.659 2.85619 1.67280
  103 139.138 -7.90512 -0.367877
  104 139.138 -7.90512 -0.367877
  105 115.816 2.98232 -2.06125
  106 115.816 2.98232 -2.06125
  107 137.066 -16.7675 -14.8767
  108 137.066 -16.7675 -14.8767
  109 95.2787 -19.6868 37.6634
  110 95.2787 -19.6868 37.6634
  111 63.8185 -11.6998 -30.2338
  112 63.8185 -11.6998 -30.2338
  113 116.337 2.00137 7.00809
  114 116.337 2.00137 7.00809
  115 120.774 0.868749 -6.67497
  116 120.774 0.868749 -6.67497
  117 164.846 10.7145 0.655742
  118 176.983 11.6154 0.854909
  119 164.846 10.7145 0.655742
  120 176.983 11.6154 0.854909
  121 173.093 14.3885 -3.74073
  122 173.093 14.3885 -3.74073
  123 18.5475 -31.2574 -9.59347
  124 18.5475 -31.2574 -9.59347
  125 149.299 -18.6570 15.6993
  126 149.299 -18.6570 15.6993
  127 125.022 -2.97365 7.70390
  128 125.022 -2.97365 7.70390
  129 28.2367 -27.0724 22.2135
  130 28.2367 -27.0724 22.2135
  131 115.836 2.39104 -0.107102
  132 115.836 2.39104 -0.107102
  133 124.867 -5.76523 -9.76199
  134 124.867 -5.76523 -9.76199
  135 117.804 0.976997 1.22182
  136 117.804 0.976997 1.22182
  137 117.924 0.857656 -1.14160
  138 117.924 0.857656 -1.14160
  139 119.269 1.68215 -3.58345
  140 119.269 1.68215 -3.58345
  141 118.691 1.63471 3.23613
  142 118.691 1.63471 3.23613
  143 113.371 3.96504 -0.128963
  144 113.371 3.96504 -0.128963
  145 94.1665 6.29847 -0.739479
  146 94.1665 6.29847 -0.739479
  147 138.308 -4.95807 2.58768
  148 138.308 -4.95807 2.58768
  149 158.976 -6.07116 -5.04606
  150 158.976 -6.07116 -5.04606
  151 122.105 -13.4936 18.8423
  152 122.105 -13.4936 18.8423
  153 92.2351 -25.0671 -41.7613
  154 92.2351 -25.0671 -41.7613
  155 107.783 4.46471 6.65769
  156 107.783 4.46471 6.65769
  157 140.640 -0.949203 -5.72154
  158 140.640 -0.949203 -5.72154
  159 193.968 15.1137 10.3593
  160 193.968 15.1137 10.3593
  161 96.1246 -26.6626 48.5708
  162 96.1246 -26.6626 48.5708
  163 198.715 6.75100 -2.21746
  164 198.715 6.75100 -2.21746
  165 112.907 3.94792 3.14331
  166 112.907 3.94792 3.14331
  167 107.149 3.68326 -9.68811
  168 107.149 3.68326 -9.68811
  169 132.856 3.92355 3.30934
  170 132.856 3.92355 3.30934
  171 111.803 4.70001 -3.55679
  172 111.803 4.70001 -3.55679
  173 116.588 1.92408 0.533995
  174 116.588 1.92408 0.533995
  175 118.656 0.933732 -1.93130
  176 118.656 0.933732 -1.93130
  177 185.814 13.8402 -9.76309
  178 185.814 13.8402 -9.76309
  179 116.692 1.87089 -0.645727
  180 116.692 1.87089 -0.645727
  181 85.2023 6.21829 -4.99996
  182 85.2023 6.21829 -4.99996
  183 156.033 11.4333 1.53189
  184 156.033 11.4333 1.53189
  185 31.1242 -26.6053 -28.7302
  186 31.1242 -26.6053 -28.7302
  187 84.2754 -0.985566 21.0046
  188 84.2754 -0.985566 21.0046
  189 113.921 -18.2010 -29.2041
  190 113.921 -18.2010 -29.2041
  191 134.512 -3.64793 1.39239
  192 134.512 -3.64793 1.39239
  193 125.744 -0.382272 4.84493
  194 125.744 -0.382272 4.84493
  195 172.449 4.23763 8.93781
  196 172.449 4.23763 8.93781
  197 69.8425 2.07022 -12.9159
  198 69.8425 2.07022 -12.9159
  199 196.744 8.95034 5.01228
  200 196.744 8.95034 5.01228
  201 128.137 -1.51919 -5.00082
  202 128.137 -1.51919 -5.00082
  203 118.849 0.668580 1.78278
  204 118.849 0.668580 1.78278
  205 133.476 -5.15432 -2.31679
  206 133.476 -5.15432 -2.31679
  207 146.347 -7.49285 -0.173300
  208 146.347 -7.49285 -0.173300
  209 9.03101 -53.4219 4.14598
  210 9.03101 -53.4219 4.14598
  211 122.738 0.691897 -4.33683
  212 122.738 0.691897 -4.33683
  213 121.664 0.989474 3.80815
  214 121.664 0.989474 3.80815
  215 117.090 -10.6768 -18.7128
  216 117.090 -10.6768 -18.7128
  217 136.863 -2.89695 -3.57128
  218 136.863 -2.89695 -3.57128
  219 111.442 4.07870 -6.66267
  220 111.442 4.07870 -6.66267
  221 30.7022 -39.0827 31.2693
  222 30.7022 -39.0827 31.2693
  223 138.531 0.492772 5.35228
  224 138.531 0.492772 5.35228
  225 134.191 3.32236 -4.42342
  226 134.191 3.32236 -4.42342
  227 194.317 11.6480 -8.41002
  228 194.317 11.6480 -8.41002
  229 146.811 -5.59709 -3.21786
  230 146.811 -5.59709 -3.21786
  231 161.537 -8.42937 -26.7587
  232 161.537 -8.42937 -26.7587
  233 117.372 -5.26838 14.5371
  234 117.372 -5.26838 14.5371
  235 114.688 3.31894 0.536889
  236 114.688 3.31894 0.536889
  237 60.3183 -9.12229 26.8105
  238 60.3183 -9.12229 26.8105
  239 154.607 -14.1854 31.6314
  240 154.607 -14.1854 31.6314
  241 40.5458 -5.80244 -13.1769
  242 40.5458 -5.80244 -13.1769
  243 136.481 -10.1684 -6.12981
  244 136.481 -10.1684 -6.12981
  245 110.252 5.05158 3.88023
  246 110.252 5.05158 3.88023
  247 4.09655 -69.0447 -3.31813
  248 4.09655 -69.0447 -3.31813
  249 7.64754 -61.1610 11.0490
  250 7.64754 -61.1610 11.0490
  251 112.476 0.800137 10.5716
  252 112.476 0.800137 10.5716
  253 117.666 0.456113 0.445455
  254 117.666 0.456113 0.445455
  255 116.575 1.94145 0.0837956
  256 116.575 1.94145 0.0837956
  257 109.261 -1.33969 -13.9588
  258 109.261 -1.33969 -13.9588
  259 117.751 0.413906 -0.471678
  260 117.751 0.413906 -0.471678
  261 130.851 -9.13899 8.44953
  262 130.851 -9.13899 8.44953
  263 121.093 0.444238 -2.15499
  264 121.093 0.444238 -2.15499
  265 93.3092 -7.90018 -25.6481
  266 93.3092 -7.90018 -25.6481
  267 160.290 12.2200 -1.08321
  268 160.290 12.2200 -1.08321
  269 116.419 2.64510 -5.48018
  270 116.419 2.64510 -5.48018
  271 115.928 2.47712 -1.12183
  272 115.928 2.47712 -1.12183
  273 97.9398 4.77640 -9.64863
  274 97.9398 4.77640 -9.64863
  275 29.2843 -12.1938 7.50772
  276 29.2843 -12.1938 7.50772
  277 125.290 -20.5463 25.9862
  278 125.290 -20.5463 25.9862
  279 117.266 1.78772 2.18678
  280 117.266 1.78772 2.18678
  281 175.630 12.5300 -2.43097
  282 175.630 12.5300 -2.43097
  283 212.461 16.8891 23.6647
  284 212.461 16.8891 23.6647
  285 140.788 -14.8934 8.03291
  286 140.788 -14.8934 8.03291
  287 99.9060 5.03142 7.11515
  288 99.9060 5.03142 7.11515
  289 129.195 -25.4080 34.2033
  290 129.195 -25.4080 34.2033
  291 132.439 -1.51371 3.18847
  292 132.439 -1.51371 3.18847
  293 117.196 1.17907 0.606682
  294 117.196 1.17907 0.606682
  295 115.410 3.23716 -3.53157
  296 115.410 3.23716 -3.53157
  297 116.609 1.90986 -0.166534
  298 116.609 1.90986 -0.166534
  299 118.435 0.333791 -0.847313
  300 118.435 0.333791 -0.847313
  301 120.965 0.619152 2.16354
  302 120.965 0.619152 2.16354
  303 114.726 3.30053 -0.913092
  304 114.726 3.30053 -0.913092
  305 26.4108 -45.6511 -29.5952
  306 26.4108 -45.6511 -29.5952
  307 77.8367 5.00580 6.54225
  308 77.8367 5.00580 6.54225
  309 117.345 0.982061 -0.583874
  310 117.345 0.982061 -0.583874
  311 102.752 5.98874 -4.77225
  312 102.752 5.98874 -4.77225
  313 103.004 6.53222 1.83119
  314 103.004 6.53222 1.83119
  315 117.072 1.71907 -1.55496
  316 117.072 1.71907 -1.55496
  317 158.132 7.84755 0.539979
  318 158.132 7.84755 0.539979
  319 116.130 2.86885 4.82375
  320 116.130 2.86885 4.82375
  321 148.955 4.43700 -4.76551
  322 148.955 4.43700 -4.76551
  323 223.979 6.43979 14.7597
  324 223.979 6.43979 14.7597
  325 115.656 2.97191 3.05829
  326 115.656 2.97191 3.05829
  327 113.701 3.92822 1.59974
  328 113.701 3.92822 1.59974
  329 90.2406 -21.6341 -47.5141
  330 90.2406 -21.6341 -47.5141
  331 118.501 0.302035 0.829185
  332 118.501 0.302035 0.829185
  333 115.803 2.49749 0.837686
  334 115.803 2.49749 0.837686
  335 111.286 5.07230 0.182892
  336 111.286 5.07230 0.182892
  337 57.3560 -20.5020 38.5931
  338 57.3560 -20.5020 38.5931
  339 143.953 9.35524 0.836212
  340 143.953 9.35524 0.836212
  341 8.35478 -59.9445 -12.9422
  342 8.35478 -59.9445 -12.9422
  343 88.8457 5.61565 5.86582
  344 88.8457 5.61565 5.86582
  345 211.733 3.00427 2.13106
  346 211.733 3.00427 2.13106
  347 220.833 10.9764 -15.0962
  348 220.833 10.9764 -15.0962
  349 101.320 -11.6301 28.6869
  350 105.517 -6.00654 21.3887
  351 101.320 -11.6301 28.6869
  352 105.517 -6.00654 21.3887
  353 214.721 5.49872 7.83560
  354 214.721 5.49872 7.83560
  355 120.044 -0.134485 8.25253
  356 120.044 -0.134485 8.25253
  357 143.537 -19.3148 -19.7505
  358 143.537 -19.3148 -19.7505
  359 135.133 -1.20269 4.29528
  360 135.133 -1.20269 4.29528
  361 92.6429 -21.4965 52.2299
  362 92.6429 -21.4965 52.2299
  363 158.325 12.7347 -0.449389
  364 158.325 12.7347 -0.449389
  365 214.937 2.04812 -1.65404
  366 214.937 2.04812 -1.65404
  367 128.192 0.106484 -4.06504
  368 128.192 0.106484 -4.06504
  369 113.709 4.17322 -1.91133
  370 113.709 4.17322 -1.91133
  371 177.857 13.7709 3.94003
  372 177.857 13.7709 3.94003
  373 134.789 5.56736 -0.933944
  374 134.789 5.56736 -0.933944
  375 123.384 0.494794 -2.65202
  376 123.384 0.494794 -2.65202
  377 32.7118 -16.9842 -21.9990
  378 32.7118 -16.9842 -21.9990
  379 136.561 -2.43578 1.34009
  380 136.561 -2.43578 1.34009
  381 116.397 -0.150225 -9.70506
  382 116.397 -0.150225 -9.70506
  383 133.998 -0.307720 -5.09915
  384 133.998 -0.307720 -5.09915
  385 215.637 3.89116 -6.52033
  386 215.637 3.89116 -6.52033
  387 116.749 1.84223 1.23090
  388 116.749 1.84223 1.23090
  389 142.666 6.81919 4.42596
  390 142.666 6.81919 4.42596
  391 154.994 -3.71241 0.444578
  392 154.994 -3.71241 0.444578
  393 117.217 2.16190 -2.72645
  394 117.217 2.16190 -2.72645
  395 228.271 19.6735 -27.6130
  396 228.271 19.6735 -27.6130
  397 134.923 -1.91290 -1.28132
  398 134.923 -1.91290 -1.28132
</Section>

newXOutput 35

<Section columns = "stress_xx | stress_yy | stress_xy">
  1 120.954 0.116562 -0.144677
  2 121.004 0.145961 0.195299
  3 120.954 0.116562 -0.144677
  4 121.004 0.145961 0.195299
  5 190.659 9.37135 50.9321
  6 198.379 8.89195 -50.0708
  7 190.659 9.37135 50.9321
  8 198.379 8.89195 -50.0708
  9 121.277 0.0835215 -0.378577
  10 122.350 0.149404 -0.669724
  11 123.892 0.342538 -1.35047
  12 127.417 0.133224 -1.80138
  13 131.889 0.232307 -2.90790
  14 137.044 -1.17021 -2.79275
  15 141.630 -1.43444 -0.210736
  16 138.928 -1.00535 2.57413
  17 133.042 0.983346 4.41169
  18 129.857 2.49435 -0.169588
  19 132.205 1.20650 -4.12460
  20 138.752 -1.48713 -3.14121
  21 140.295 -1.73908 0.808820
  22 137.765 -0.776466 2.39570
  23 130.920 0.0739021 2.91249
  24 127.093 0.496954 2.27558
  25 123.975 0.392905 1.29948
  26 122.364 0.119977 0.614253
  27 121.340 0.0983865 0.364686
  28 121.201 0.440657 0.228388
  29 120.965 0.908487 0.263867
  30 120.385 1.58524 0.233794
  31 120.153 1.84545 -0.0226968
  32 120.455 1.50285 -0.281211
  33 120.873 0.990347 -0.242123
  34 121.057 0.498496 -0.253784
  35 121.277 0.0835215 -0.378577
  36 122.350 0.149404 -0.669724
  37 123.892 0.342538 -1.35047
  38 127.417 0.133224 -1.80138
  39 131.889 0.232307 -2.90790
  40 137.044 -1.17021 -2.79275
  41 141.630 -1.43444 -0.210736
  42 138.928 -1.00535 2.57413
  43 133.042 0.983346 4.41169
  44 129.857 2.49435 -0.169588
  45 132.205 1.20650 -4.12460
  46 138.752 -1.48713 -3.14121
  47 140.295 -1.73908 0.808820
  48 137.765 -0.776466 2.39570
  49 130.920 0.0739021 2.91249
  50 127.093 0.496954 2.27558
  51 123.975 0.392905 1.29948
  52 122.364 0.119977 0.614253
  53 121.340 0.0983865 0.364686
  54 121.201 0.440657 0.228388
  55 120.965 0.908487 0.263867
  56 120.385 1.58524 0.233794
  57 120.153 1.84545 -0.0226968
  58 120.455 1.50285 -0.281211
  59 120.873 0.990347 -0.242123
  60 121.057 0.498496 -0.253784
  61 265.796 13.2809 27.2403
  62 241.948 4.01150 9.85701
  63 227.701 1.75797 3.71305
  64 224.684 1.25658 0.765126
  65 227.613 1.64427 -3.18313
  66 238.377 3.46460 -8.61854
  67 268.256 11.5818 -23.4347
  68 34.6828 -40.9158 -40.7926
  69 6.85464 -87.1096 -9.80931
  70 2.15845 -97.7483 -4.30911
  71 2.05565 -95.8617 -2.37275
  72 3.30002 -93.5963 4.59525
  73 7.37712 -84.4599 10.3522
  74 37.8328 -38.3341 45.3179
  75 265.796 13.2809 27.2403
  76 241.948 4.01150 9.85701
  77 227.701 1.75797 3.71305
  78 224.684 1.25658 0.765126
  79 227.613 1.64427 -3.18313
  80 238.377 3.46460 -8.61854
  81 268.256 11.5818 -23.4347
  82 34.6828 -40.9158 -40.7926
  83 6.85464 -87.1096 -9.80931
  84 2.15845 -97.7483 -4.30911
  85 2.05565 -95.8617 -2.37275
  86 3.30002 -93.5963 4.59525
  87 7.37712 -84.4599 10.3522
  88 37.8328 -38.3341 45.3179
  89 110.681 6.41980 -1.68356
  90 110.681 6.41980 -1.68356
  91 100.991 1.37745 14.9995
  92 96.9928 -0.636125 -17.8251
  93 100.991 1.37745 14.9995
  94 96.9928 -0.636125 -17.8251
  95 56.4401 1.18654 7.09232
  96 56.4401 1.18654 7.09232
  97 149.264 9.52646 -2.62370
  98 152.521 5.27939 5.41246
  99 149.264 9.52646 -2.62370
  100 152.521 5.27939 5.41246
  101 119.118 2.94065 1.72174
  102 119.118 2.94065 1.72174
  103 143.285 -8.14092 -0.370004
  104 143.285 -8.14092 -0.370004
  105 119.279 3.07056 -2.12160
  106 119.279 3.07056 -2.12160
  107 141.147 -17.2688 -15.3285
  108 141.147 -17.2688 -15.3285
  109 98.1252 -20.2770 38.7983
  110 98.1252 -20.2770 38.7983
  111 65.7343 -12.0480 -31.1471
  112 65.7343 -12.0480 -31.1471
  113 119.815 2.06044 7.21567
  114 119.815 2.06044 7.21567
  115 124.381 0.893904 -6.87310
  116 124.381 0.893904 -6.87310
  117 169.754 11.0391 0.691440
  118 182.246 11.9583 0.883024
  119 169.754 11.0391 0.691440
  120 182.246 11.9583 0.883024
  121 178.243 14.8201 -3.86511
  122 178.243 14.8201 -3.86511
  123 19.1062 -32.1860 -9.88821
  124 19.1062 -32.1860 -9.88821
  125 153.736 -19.2097 16.1825
  126 153.736 -19.2097 16.1825
  127 128.753 -3.06304 7.93512
  128 128.753 -3.06304 7.93512
  129 29.0876 -27.8753 22.8933
  130 29.0876 -27.8753 22.8933
  131 119.299 2.46166 -0.110216
  132 119.299 2.46166 -0.110216
  133 128.593 -5.93808 -10.0559
  134 128.593 -5.93808 -10.0559
  135 121.324 1.00589 1.25740
  136 121.324 1.00589 1.25740
  137 121.447 0.883040 -1.17483
  138 121.447 0.883040 -1.17483
  139 122.832 1.73176 -3.68869
  140 122.832 1.73176 -3.68869
  141 122.237 1.68298 3.33105
  142 122.237 1.68298 3.33105
  143 116.763 4.08246 -0.132788
  144 116.763 4.08246 -0.132788
  145 96.9939 6.48681 -0.761635
  146 96.9939 6.48681 -0.761635
  147 142.433 -5.10555 2.65712
  148 142.433 -5.10555 2.65712
  149 163.702 -6.24346 -5.21531
  150 163.702 -6.24346 -5.21531
  151 125.746 -13.8978 19.4089
  152 125.746 -13.8978 19.4089
  153 94.9860 -25.8125 -43.0281
  154 94.9860 -25.8125 -43.0281
  155 111.010 4.59768 6.85518
  156 111.010 4.59768 6.85518
  157 144.836 -0.976097 -5.88269
  158 144.836 -0.976097 -5.88269
  159 199.721 15.5667 10.6784
  160 199.721 15.5667 10.6784
  161 98.9906 -27.4583 50.0404
  162 98.9906 -27.4583 50.0404
  163 204.600 6.94797 -2.28408
  164 204.600 6.94797 -2.28408
  165 116.285 4.06490 3.23583
  166 116.285 4.06490 3.23583
  167 110.357 3.79307 -9.97629
  168 110.357 3.79307 -9.97629
  169 136.831 4.04226 3.40442
  170 136.831 4.04226 3.40442
  171 115.149 4.83943 -3.66167
  172 115.149 4.83943 -3.66167
  173 120.073 1.98088 0.549553
  174 120.073 1.98088 0.549553
  175 122.201 0.961296 -1.98769
  176 122.201 0.961296 -1.98769
  177 191.329 14.2631 -10.0728
  178 191.329 14.2631 -10.0728
  179 120.181 1.92615 -0.664527
  180 120.181 1.92615 -0.664527
  181 87.7634 6.40542 -5.14934
  182 87.7634 6.40542 -5.14934
  183 160.686 11.7757 1.56849
  184 160.686 11.7757 1.56849
  185 32.0601 -27.3942 -29.6084
  186 32.0601 -27.3942 -29.6084
  187 86.8041 -1.01383 21.6337
  188 86.8041 -1.01383 21.6337
  189 117.318 -18.7464 -30.0839
  190 117.318 -18.7464 -30.0839
  191 138.523 -3.75742 1.43807
  192 138.523 -3.75742 1.43807
  193 129.495 -0.394312 4.98899
  194 129.495 -0.394312 4.98899
  195 177.572 4.37622 9.22518
  196 177.572 4.37622 9.22518
  197 71.9448 2.13494 -13.3036
  198 71.9448 2.13494 -13.3036
  199 202.575 9.21309 5.16394
  200 202.575 9.21309 5.16394
  201 131.959 -1.56527 -5.15086
  202 131.959 -1.56527 -5.15086
  203 122.399 0.688292 1.83481
  204 122.399 0.688292 1.83481
  205 137.457 -5.30907 -2.39045
  206 137.457 -5.30907 -2.39045
  207 150.705 -7.71401 -0.190798
  208 150.705 -7.71401 -0.190798
  209 9.30133 -55.0227 4.27459
  210 9.30133 -55.0227 4.27459
  211 126.401 0.711871 -4.46485
  212 126.401 0.711871 -4.46485
  213 125.297 1.01855 3.92031
  214 125.297 1.01855 3.92031
  215 120.585 -10.9966 -19.2749
  216 120.585 -10.9966 -19.2749
  217 140.947 -2.98349 -3.67109
  218 140.947 -2.98349 -3.67109
  219 114.777 4.19988 -6.86022
  220 114.777 4.19988 -6.86022
  221 31.6216 -40.2417 32.2287
  222 31.6216 -40.2417 32.2287
  223 142.667 0.509390 5.50379
  224 142.667 0.509390 5.50379
  225 138.204 3.42300 -4.55002
  226 138.204 3.42300 -4.55002
  227 200.080 11.9926 -8.66710
  228 200.080 11.9926 -8.66710
  229 151.184 -5.76154 -3.30133
  230 151.184 -5.76154 -3.30133
  231 166.331 -8.66226 -27.5807
  232 166.331 -8.66226 -27.5807
  233 120.877 -5.42604 14.9721
  234 120.877 -5.42604 14.9721
  235 118.118 3.41712 0.552616
  236 118.118 3.41712 0.552616
  237 62.1313 -9.39276 27.6197
  238 62.1313 -9.39276 27.6197
  239 159.195 -14.5941 32.5976
  240 159.195 -14.5941 32.5976
  241 41.7706 -5.96972 -13.5758
  242 41.7706 -5.96972 -13.5758
  243 140.548 -10.4725 -6.31963
  244 140.548 -10.4725 -6.31963
  245 113.553 5.20167 3.99490
  246 113.553 5.20167 3.99490
  247 4.21708 -71.1208 -3.42185
  248 4.21708 -71.1208 -3.42185
  249 7.87577 -62.9934 11.3938
  250 7.87577 -62.9934 11.3938
  251 115.840 0.823827 10.8863
  252 115.840 0.823827 10.8863
  253 121.182 0.469630 0.458384
  254 121.182 0.469630 0.458384
  255 120.060 1.99872 0.0862401
  256 120.060 1.99872 0.0862401
  257 112.529 -1.37990 -14.3756
  258 112.529 -1.37990 -14.3756
  259 121.269 0.426193 -0.485371
  260 121.269 0.426193 -0.485371
  261 134.752 -9.41252 8.70647
  262 134.752 -9.41252 8.70647
  263 124.708 0.457267 -2.21801
  264 124.708 0.457267 -2.21801
  265 96.1025 -8.13664 -26.4178
  266 96.1025 -8.13664 -26.4178
  267 165.067 12.5854 -1.10650
  268 165.067 12.5854 -1.10650
  269 119.899 2.72329 -5.64196
  270 119.899 2.72329 -5.64196
  271 119.394 2.55033 -1.15459
  272 119.394 2.55033 -1.15459
  273 100.877 4.91940 -9.93610
  274 100.877 4.91940 -9.93610
  275 30.1697 -12.5502 7.73623
  276 30.1697 -12.5502 7.73623
  277 129.021 -21.1616 26.7701
  278 129.021 -21.1616 26.7701
  279 120.771 1.84056 2.25070
  280 120.771 1.84056 2.25070
  281 180.854 12.9010 -2.50823
  282 180.854 12.9010 -2.50823
  283 218.744 17.4077 24.3847
  284 218.744 17.4077 24.3847
  285 144.980 -15.3377 8.28272
  286 144.980 -15.3377 8.28272
  287 102.902 5.18181 7.32662
  288 102.902 5.18181 7.32662
  289 133.037 -26.1678 35.2362
  290 133.037 -26.1678 35.2362
  291 136.387 -1.55946 3.28477
  292 136.387 -1.55946 3.28477
  293 120.698 1.21391 0.624326
  294 120.698 1.21391 0.624326
  295 118.861 3.33298 -3.63533
  296 118.861 3.33298 -3.63533
  297 120.095 1.96620 -0.171379
  298 120.095 1.96620 -0.171379
  299 121.973 0.343672 -0.871957
  300 121.973 0.343672 -0.871957
  301 124.576 0.637365 2.22681
  302 124.576 0.637365 2.22681
  303 118.158 3.39818 -0.939840
  304 118.158 3.39818 -0.939840
  305 27.2009 -47.0043 -30.5053
  306 27.2009 -47.0043 -30.5053
  307 80.1785 5.15743 6.73773
  308 80.1785 5.15743 6.73773
  309 120.852 1.01110 -0.600843
  310 120.852 1.01110 -0.600843
  311 105.832 6.16726 -4.91401
  312 105.832 6.16726 -4.91401
  313 106.092 6.72692 1.88542
  314 106.092 6.72692 1.88542
  315 120.571 1.76987 -1.60034
  316 120.571 1.76987 -1.60034
  317 162.842 8.08798 0.539823
  318 162.842 8.08798 0.539823
  319 119.602 2.95377 4.96585
  320 119.602 2.95377 4.96585
  321 153.397 4.57271 -4.89557
  322 153.397 4.57271 -4.89557
  323 230.591 6.62853 15.2006
  324 230.591 6.62853 15.2006
  325 119.115 3.05986 3.14804
  326 119.115 3.05986 3.14804
  327 117.102 4.04454 1.64669
  328 117.102 4.04454 1.64669
  329 92.9249 -22.2463 -48.9639
  330 92.9249 -22.2463 -48.9639
  331 122.041 0.310972 0.853297
  332 122.041 0.310972 0.853297
  333 119.266 2.57129 0.862149
  334 119.266 2.57129 0.862149
  335 114.618 5.22278 0.188262
  336 114.618 5.22278 0.188262
  337 59.0770 -21.1137 39.7642
  338 59.0770 -21.1137 39.7642
  339 148.254 9.63576 0.859063
  340 148.254 9.63576 0.859063
  341 8.60321 -61.7397 -13.3437
  342 8.60321 -61.7397 -13.3437
  343 91.5151 5.78425 6.04050
  344 91.5151 5.78425 6.04050
  345 217.985 3.09122 2.19330
  346 217.985 3.09122 2.19330
  347 227.358 11.3040 -15.5488
  348 227.358 11.3040 -15.5488
  349 104.348 -11.9787 29.5480
  350 108.673 -6.18621 22.0284
  351 104.348 -11.9787 29.5480
  352 108.673 -6.18621 22.0284
  353 221.063 5.65890 8.06778
  354 221.063 5.65890 8.06778
  355 123.630 -0.139007 8.49814
  356 123.630 -0.139007 8.49814
  357 147.804 -19.8898 -20.3525
  358 147.804 -19.8898 -20.3525
  359 139.168 -1.23808 4.41799
  360 139.168 -1.23808 4.41799
  361 95.3938 -22.1066 53.8199
  362 95.3938 -22.1066 53.8199
  363 163.047 13.1138 -0.462453
  364 163.047 13.1138 -0.462453
  365 221.279 2.10718 -1.70278
  366 221.279 2.10718 -1.70278
  367 132.014 0.109017 -4.18558
  368 132.014 0.109017 -4.18558
  369 117.111 4.29685 -1.96747
  370 117.111 4.29685 -1.96747
  371 183.145 14.1809 4.06673
  372 183.145 14.1809 4.06673
  373 138.821 5.73483 -0.960703
  374 138.821 5.73483 -0.960703
  375 127.066 0.509175 -2.72988
  376 127.066 0.509175 -2.72988
  377 33.7007 -17.4861 -22.6690
  378 33.7007 -17.4861 -22.6690
  379 140.634 -2.50874 1.37594
  380 140.634 -2.50874 1.37594
  381 119.876 -0.155233 -9.99437
  382 119.876 -0.155233 -9.99437
  383 138.002 -0.316482 -5.24527
  384 138.002 -0.316482 -5.24527
  385 222.005 4.00472 -6.71304
  386 222.005 4.00472 -6.71304
  387 120.239 1.89666 1.26680
  388 120.239 1.89666 1.26680
  389 146.926 7.02495 4.55015
  390 146.926 7.02495 4.55015
  391 159.605 -3.81741 0.474050
  392 159.605 -3.81741 0.474050
  393 120.720 2.22582 -2.80627
  394 120.720 2.22582 -2.80627
  395 235.011 20.2805 -28.4508
  396 235.011 20.2805 -28.4508
  397 138.944 -1.97068 -1.32148
  398 138.944 -1.97068 -1.32148
</Section>

newXOutput 36

<Section columns = "stress_xx | stress_yy | stress_xy">
  1 124.461 0.119963 -0.148736
  2 124.512 0.150199 0.200774
  3 124.461 0.119963 -0.148736
  4 124.512 0.150199 0.200774
  5 196.118 9.68935 52.4319
  6 204.055 9.19820 -51.5460
  7 196.118 9.68935 52.4319
  8 204.055 9.19820 -51.5460
  9 124.792 0.0859378 -0.389212
  10 125.896 0.153702 -0.688583
  11 127.481 0.352335 -1.38863
  12 131.105 0.136959 -1.85248
  13 135.704 0.238654 -2.99102
  14 141.005 -1.20477 -2.87365
  15 145.724 -1.47641 -0.218591
  16 142.953 -1.03446 2.64501
  17 136.905 1.01272 4.53493
  18 133.633 2.56767 -0.174367
  19 136.046 1.24180 -4.24007
  20 142.771 -1.53030 -3.22765
  21 144.351 -1.79000 0.834314
  22 141.747 -0.799338 2.46527
  23 134.708 0.0755632 2.99592
  24 130.772 0.511065 2.34020
  25 127.566 0.404146 1.33618
  26 125.911 0.123431 0.631540
  27 124.858 0.101238 0.374943
  28 124.715 0.453325 0.234787
  29 124.472 0.934537 0.271284
  30 123.877 1.63060 0.240380
  31 123.638 1.89822 -0.0233360
  32 123.948 1.54587 -0.289120
  33 124.377 1.01875 -0.248897
  34 124.567 0.512842 -0.260921
  35 124.792 0.0859378 -0.389212
  36 125.896 0.153702 -0.688583
  37 127.481 0.352335 -1.38863
  38 131.105 0.136959 -1.85248
  39 135.704 0.238654 -2.99102
  40 141.005 -1.20477 -2.87365
  41 145.724 -1.47641 -0.218591
  42 142.953 -1.03446 2.64501
  43 136.905 1.01272 4.53493
  44 133.633 2.56767 -0.174367
  45 136.046 1.24180 -4.24007
  46 142.771 -1.53030 -3.22765
  47 144.351 -1.79000 0.834314
  48 141.747 -0.799338 2.46527
  49 134.708 0.0755632 2.99592
  50 130.772 0.511065 2.34020
  51 127.566 0.404146 1.33618
  52 125.911 0.123431 0.631540
  53 124.858 0.101238 0.374943
  54 124.715 0.453325 0.234787
  55 124.472 0.934537 0.271284
  56 123.877 1.63060 0.240380
  57 123.638 1.89822 -0.0233360
  58 123.948 1.54587 -0.289120
  59 124.377 1.01875 -0.248897
  60 124.567 0.512842 -0.260921
  61 273.377 13.6685 28.0271
  62 248.854 4.12515 10.1383
  63 234.208 1.80648 3.81786
  64 231.106 1.29146 0.786136
  65 234.117 1.69022 -3.27276
  66 245.184 3.56237 -8.86346
  67 275.907 11.9195 -24.1121
  68 35.6855 -42.0585 -42.0071
  69 7.05279 -89.6469 -10.1114
  70 2.21741 -100.617 -4.44134
  71 2.11189 -98.6772 -2.44241
  72 3.39315 -96.3397 4.73651
  73 7.59133 -86.9194 10.6717
  74 38.9230 -39.4015 46.6654
  75 273.377 13.6685 28.0271
  76 248.854 4.12515 10.1383
  77 234.208 1.80648 3.81786
  78 231.106 1.29146 0.786136
  79 234.117 1.69022 -3.27276
  80 245.184 3.56237 -8.86346
  81 275.907 11.9195 -24.1121
  82 35.6855 -42.0585 -42.0071
  83 7.05279 -89.6469 -10.1114
  84 2.21741 -100.617 -4.44134
  85 2.11189 -98.6772 -2.44241
  86 3.39315 -96.3397 4.73651
  87 7.59133 -86.9194 10.6717
  88 38.9230 -39.4015 46.6654
  89 113.898 6.60500 -1.73192
  90 113.898 6.60500 -1.73192
  91 103.927 1.41792 15.4337
  92 99.8138 -0.654029 -18.3422
  93 103.927 1.41792 15.4337
  94 99.8138 -0.654029 -18.3422
  95 58.0937 1.22568 7.29924
  96 58.0937 1.22568 7.29924
  97 153.590 9.80374 -2.69453
  98 156.934 5.43586 5.55641
  99 153.590 9.80374 -2.69453
  100 156.934 5.43586 5.55641
  101 122.573 3.02499 1.77059
  102 122.573 3.02499 1.77059
  103 147.429 -8.37650 -0.371617
  104 147.429 -8.37650 -0.371617
  105 122.739 3.15867 -2.18183
  106 122.739 3.15867 -2.18183
  107 145.222 -17.7697 -15.7802
  108 145.222 -17.7697 -15.7802
  109 100.969 -20.8669 39.9328
  110 100.969 -20.8669 39.9328
  111 67.6491 -12.3958 -32.0601
  112 67.6491 -12.3958 -32.0601
  113 123.290 2.11942 7.42297
  114 123.290 2.11942 7.42297
  115 127.985 0.918993 -7.07099
  116 127.985 0.918993 -7.07099
  117 174.656 11.3638 0.728033
  118 187.503 12.3008 0.911261
  119 174.656 11.3638 0.728033
  120 187.503 12.3008 0.911261
  121 183.388 15.2514 -3.99009
  122 183.388 15.2514 -3.99009
  123 19.6647 -33.1136 -10.1832
  124 19.6647 -33.1136 -10.1832
  125 158.169 -19.7616 16.6662
  126 158.169 -19.7616 16.6662
  127 132.481 -3.15239 8.16621
  128 132.481 -3.15239 8.16621
  129 29.9382 -28.6773 23.5736
  130 29.9382 -28.6773 23.5736
  131 122.760 2.53219 -0.113322
  132 122.760 2.53219 -0.113322
  133 132.315 -6.11083 -10.3498
  134 132.315 -6.11083 -10.3498
  135 124.841 1.03474 1.29291
  136 124.841 1.03474 1.29291
  137 124.968 0.908390 -1.20797
  138 124.968 0.908390 -1.20797
  139 126.392 1.78128 -3.79374
  140 126.392 1.78128 -3.79374
  141 125.780 1.73117 3.42578
  142 125.780 1.73117 3.42578
  143 120.152 4.19971 -0.136609
  144 120.152 4.19971 -0.136609
  145 99.8198 6.67501 -0.783777
  146 99.8198 6.67501 -0.783777
  147 146.554 -5.25287 2.72604
  148 146.554 -5.25287 2.72604
  149 168.423 -6.41508 -5.38549
  150 168.423 -6.41508 -5.38549
  151 129.384 -14.3017 19.9753
  152 129.384 -14.3017 19.9753
  153 97.7343 -26.5571 -44.2950
  154 97.7343 -26.5571 -44.2950
  155 114.235 4.73051 7.05243
  156 114.235 4.73051 7.05243
  157 149.028 -1.00288 -6.04313
  158 149.028 -1.00288 -6.04313
  159 205.468 16.0194 10.9979
  160 205.468 16.0194 10.9979
  161 101.854 -28.2534 51.5098
  162 101.854 -28.2534 51.5098
  163 210.477 7.14451 -2.35066
  164 210.477 7.14451 -2.35066
  165 119.661 4.18173 3.32819
  166 119.661 4.18173 3.32819
  167 113.563 3.90277 -10.2642
  168 113.563 3.90277 -10.2642
  169 140.804 4.16096 3.49920
  170 140.804 4.16096 3.49920
  171 118.492 4.97868 -3.76638
  172 118.492 4.97868 -3.76638
  173 123.556 2.03760 0.565074
  174 123.556 2.03760 0.565074
  175 125.743 0.988818 -2.04396
  176 125.743 0.988818 -2.04396
  177 196.838 14.6863 -10.3833
  178 196.838 14.6863 -10.3833
  179 123.666 1.98132 -0.683284
  180 123.666 1.98132 -0.683284
  181 90.3232 6.59247 -5.29859
  182 90.3232 6.59247 -5.29859
  183 165.334 12.1180 1.60453
  184 165.334 12.1180 1.60453
  185 32.9956 -28.1820 -30.4871
  186 32.9956 -28.1820 -30.4871
  187 89.3313 -1.04200 22.2624
  188 89.3313 -1.04200 22.2624
  189 120.712 -19.2914 -30.9634
  190 120.712 -19.2914 -30.9634
  191 142.531 -3.86686 1.48394
  192 142.531 -3.86686 1.48394
  193 133.244 -0.406378 5.13289
  194 133.244 -0.406378 5.13289
  195 182.688 4.51540 9.51348
  196 182.688 4.51540 9.51348
  197 74.0461 2.19978 -13.6911
  198 74.0461 2.19978 -13.6911
  199 208.398 9.47536 5.31557
  200 208.398 9.47536 5.31557
  201 135.778 -1.61136 -5.30081
  202 135.778 -1.61136 -5.30081
  203 125.946 0.707972 1.88673
  204 125.946 0.707972 1.88673
  205 141.433 -5.46373 -2.46431
  206 141.433 -5.46373 -2.46431
  207 155.059 -7.93483 -0.208994
  208 155.059 -7.93483 -0.208994
  209 9.57146 -56.6224 4.40336
  210 9.57146 -56.6224 4.40336
  211 130.062 0.731788 -4.59268
  212 130.062 0.731788 -4.59268
  213 128.926 1.04757 4.03228
  214 128.926 1.04757 4.03228
  215 124.077 -11.3161 -19.8368
  216 124.077 -11.3161 -19.8368
  217 145.027 -3.06997 -3.77041
  218 145.027 -3.06997 -3.77041
  219 118.109 4.32093 -7.05751
  220 118.109 4.32093 -7.05751
  221 32.5403 -41.3992 33.1886
  222 32.5403 -41.3992 33.1886
  223 146.800 0.526106 5.65469
  224 146.800 0.526106 5.65469
  225 142.214 3.52363 -4.67618
  226 142.214 3.52363 -4.67618
  227 205.835 12.3368 -8.92429
  228 205.835 12.3368 -8.92429
  229 155.552 -5.92569 -3.38399
  230 155.552 -5.92569 -3.38399
  231 171.119 -8.89384 -28.4033
  232 171.119 -8.89384 -28.4033
  233 124.380 -5.58357 15.4068
  234 124.380 -5.58357 15.4068
  235 121.546 3.51516 0.568313
  236 121.546 3.51516 0.568313
  237 63.9434 -9.66290 28.4287
  238 63.9434 -9.66290 28.4287
  239 163.777 -15.0017 33.5642
  240 163.777 -15.0017 33.5642
  241 42.9952 -6.13651 -13.9747
  242 42.9952 -6.13651 -13.9747
  243 144.610 -10.7764 -6.50968
  244 144.610 -10.7764 -6.50968
  245 116.851 5.35158 4.10939
  246 116.851 5.35158 4.10939
  247 4.33739 -73.1959 -3.52577
  248 4.33739 -73.1959 -3.52577
  249 8.10380 -64.8245 11.7391
  250 8.10380 -64.8245 11.7391
  251 119.201 0.847485 11.2008
  252 119.201 0.847485 11.2008
  253 124.695 0.483129 0.471281
  254 124.695 0.483129 0.471281
  255 123.542 2.05590 0.0886793
  256 123.542 2.05590 0.0886793
  257 115.795 -1.42008 -14.7921
  258 115.795 -1.42008 -14.7921
  259 124.784 0.438465 -0.499030
  260 124.784 0.438465 -0.499030
  261 138.650 -9.68586 8.96346
  262 138.650 -9.68586 8.96346
  263 128.321 0.470270 -2.28090
  264 128.321 0.470270 -2.28090
  265 98.8937 -8.37292 -27.1871
  266 98.8937 -8.37292 -27.1871
  267 169.840 12.9505 -1.12926
  268 169.840 12.9505 -1.12926
  269 123.377 2.80137 -5.80350
  270 123.377 2.80137 -5.80350
  271 122.858 2.62344 -1.18727
  272 122.858 2.62344 -1.18727
  273 103.812 5.06231 -10.2233
  274 103.812 5.06231 -10.2233
  275 31.0550 -12.9058 7.96480
  276 31.0550 -12.9058 7.96480
  277 132.749 -21.7766 27.5538
  278 132.749 -21.7766 27.5538
  279 124.273 1.89332 2.31448
  280 124.273 1.89332 2.31448
  281 186.072 13.2716 -2.58568
  282 186.072 13.2716 -2.58568
  283 225.019 17.9267 25.1048
  284 225.019 17.9267 25.1048
  285 149.166 -15.7815 8.53290
  286 149.166 -15.7815 8.53290
  287 105.896 5.33207 7.53784
  288 105.896 5.33207 7.53784
  289 136.876 -26.9271 36.2688
  290 136.876 -26.9271 36.2688
  291 140.332 -1.60521 3.38105
  292 140.332 -1.60521 3.38105
  293 124.198 1.24869 0.641928
  294 124.198 1.24869 0.641928
  295 122.309 3.42868 -3.73890
  296 122.309 3.42868 -3.73890
  297 123.578 2.02246 -0.176213
  298 123.578 2.02246 -0.176213
  299 125.508 0.353539 -0.896542
  300 125.508 0.353539 -0.896542
  301 128.185 0.655547 2.28994
  302 128.185 0.655547 2.28994
  303 121.586 3.49569 -0.966535
  304 121.586 3.49569 -0.966535
  305 27.9904 -48.3558 -31.4162
  306 27.9904 -48.3558 -31.4162
  307 82.5193 5.30905 6.93305
  308 82.5193 5.30905 6.93305
  309 124.356 1.04010 -0.617769
  310 124.356 1.04010 -0.617769
  311 108.911 6.34561 -5.05560
  312 108.911 6.34561 -5.05560
  313 109.178 6.92143 1.93957
  314 109.178 6.92143 1.93957
  315 124.067 1.82061 -1.64563
  316 124.067 1.82061 -1.64563
  317 167.546 8.32857 0.538732
  318 167.546 8.32857 0.538732
  319 123.071 3.03857 5.10772
  320 123.071 3.03857 5.10772
  321 157.834 4.70850 -5.02482
  322 157.834 4.70850 -5.02482
  323 237.192 6.81690 15.6410
  324 237.192 6.81690 15.6410
  325 122.570 3.14769 3.23762
  326 122.570 3.14769 3.23762
  327 120.501 4.16070 1.69355
  328 120.501 4.16070 1.69355
  329 95.6062 -22.8560 -50.4142
  330 95.6062 -22.8560 -50.4142
  331 125.578 0.319895 0.877351
  332 125.578 0.319895 0.877351
  333 122.725 2.64498 0.886558
  334 122.725 2.64498 0.886558
  335 117.946 5.37307 0.193622
  336 117.946 5.37307 0.193622
  337 60.7969 -21.7250 40.9354
  338 60.7969 -21.7250 40.9354
  339 152.552 9.91611 0.881773
  340 152.552 9.91611 0.881773
  341 8.85136 -63.5336 -13.7457
  342 8.85136 -63.5336 -13.7457
  343 94.1831 5.95277 6.21500
  344 94.1831 5.95277 6.21500
  345 224.228 3.17793 2.25540
  346 224.228 3.17793 2.25540
  347 233.874 11.6314 -16.0012
  348 233.874 11.6314 -16.0012
  349 107.373 -12.3271 30.4085
  350 111.825 -6.36575 22.6677
  351 107.373 -12.3271 30.4085
  352 111.825 -6.36575 22.6677
  353 227.395 5.81871 8.29965
  354 227.395 5.81871 8.29965
  355 127.212 -0.143555 8.74349
  356 127.212 -0.143555 8.74349
  357 152.066 -20.4642 -20.9547
  358 152.066 -20.4642 -20.9547
  359 143.200 -1.27340 4.54027
  360 143.200 -1.27340 4.54027
  361 98.1413 -22.7143 55.4103
  362 98.1413 -22.7143 55.4103
  363 167.764 13.4926 -0.475484
  364 167.764 13.4926 -0.475484
  365 227.612 2.16607 -1.75144
  366 227.612 2.16607 -1.75144
  367 135.833 0.111510 -4.30597
  368 135.833 0.111510 -4.30597
  369 120.510 4.42032 -2.02352
  370 120.510 4.42032 -2.02352
  371 188.428 14.5904 4.19383
  372 188.428 14.5904 4.19383
  373 142.851 5.90222 -0.987374
  374 142.851 5.90222 -0.987374
  375 130.744 0.523521 -2.80760
  376 130.744 0.523521 -2.80760
  377 34.6896 -17.9873 -23.3393
  378 34.6896 -17.9873 -23.3393
  379 144.703 -2.58165 1.41153
  380 144.703 -2.58165 1.41153
  381 123.351 -0.160266 -10.2834
  382 123.351 -0.160266 -10.2834
  383 142.004 -0.325211 -5.39090
  384 142.004 -0.325211 -5.39090
  385 228.362 4.11803 -6.90547
  386 228.362 4.11803 -6.90547
  387 123.726 1.95100 1.30262
  388 123.726 1.95100 1.30262
  389 151.183 7.23065 4.67379
  390 151.183 7.23065 4.67379
  391 164.211 -3.92198 0.504433
  392 164.211 -3.92198 0.504433
  393 124.220 2.28965 -2.88593
  394 124.220 2.28965 -2.88593
  395 241.742 20.8882 -29.2886
  396 241.742 20.8882 -29.2886
  397 142.962 -2.02844 -1.36172
  398 142.962 -2.02844 -1.36172
</Section>

newXOutput 37

<Section columns = "stress_xx | stress_yy | stress_xy">
  1 127.965 0.123361 -0.152783
  2 128.018 0.154434 0.206234
  3 127.965 0.123361 -0.152783
  4 128.018 0.154434 0.206234
  5 201.569 10.0097 53.9318
  6 209.723 9.50695 -53.0212
  7 201.569 10.0097 53.9318
  8 209.723 9.50695 -53.0212
  9 128.305 0.0883518 -0.399820
  10 129.439 0.157995 -0.707395
  11 131.066 0.362117 -1.42670
  12 134.790 0.140684 -1.90346
  13 139.515 0.244975 -3.07401
  14 144.963 -1.23933 -2.95448
  15 149.814 -1.51837 -0.226537
  16 146.973 -1.06354 2.71562
  17 140.766 1.04213 4.65780
  18 137.407 2.64099 -0.179133
  19 139.883 1.27709 -4.35520
  20 146.787 -1.57345 -3.31377
  21 148.403 -1.84091 0.859902
  22 145.725 -0.822211 2.53479
  23 138.491 0.0771960 3.07923
  24 134.448 0.525148 2.40470
  25 131.155 0.415369 1.37278
  26 129.454 0.126879 0.648784
  27 128.373 0.104088 0.385174
  28 128.226 0.465975 0.241168
  29 127.976 0.960550 0.278681
  30 127.365 1.67590 0.246949
  31 127.120 1.95092 -0.0239736
  32 127.438 1.58882 -0.297010
  33 127.879 1.04710 -0.255653
  34 128.074 0.527171 -0.268039
  35 128.305 0.0883518 -0.399820
  36 129.439 0.157995 -0.707395
  37 131.066 0.362117 -1.42670
  38 134.790 0.140684 -1.90346
  39 139.515 0.244975 -3.07401
  40 144.963 -1.23933 -2.95448
  41 149.814 -1.51837 -0.226537
  42 146.973 -1.06354 2.71562
  43 140.766 1.04213 4.65780
  44 137.407 2.64099 -0.179133
  45 139.883 1.27709 -4.35520
  46 146.787 -1.57345 -3.31377
  47 148.403 -1.84091 0.859902
  48 145.725 -0.822211 2.53479
  49 138.491 0.0771960 3.07923
  50 134.448 0.525148 2.40470
  51 131.155 0.415369 1.37278
  52 129.454 0.126879 0.648784
  53 128.373 0.104088 0.385174
  54 128.226 0.465975 0.241168
  55 127.976 0.960550 0.278681
  56 127.365 1.67590 0.246949
  57 127.120 1.95092 -0.0239736
  58 127.438 1.58882 -0.297010
  59 127.879 1.04710 -0.255653
  60 128.074 0.527171 -0.268039
  61 280.944 14.0560 28.8131
  62 255.749 4.23855 10.4191
  63 240.705 1.85481 3.92243
  64 237.518 1.32623 0.807065
  65 240.610 1.73605 -3.36218
  66 251.980 3.65992 -9.10790
  67 283.546 12.2571 -24.7887
  68 36.6872 -43.1978 -43.2224
  69 7.25074 -92.1827 -10.4142
  70 2.27611 -103.486 -4.57388
  71 2.16789 -101.493 -2.51207
  72 3.48605 -99.0827 4.87812
  73 7.80537 -89.3774 10.9919
  74 40.0120 -40.4654 48.0137
  75 280.944 14.0560 28.8131
  76 255.749 4.23855 10.4191
  77 240.705 1.85481 3.92243
  78 237.518 1.32623 0.807065
  79 240.610 1.73605 -3.36218
  80 251.980 3.65992 -9.10790
  81 283.546 12.2571 -24.7887
  82 36.6872 -43.1978 -43.2224
  83 7.25074 -92.1827 -10.4142
  84 2.27611 -103.486 -4.57388
  85 2.16789 -101.493 -2.51207
  86 3.48605 -99.0827 4.87812
  87 7.80537 -89.3774 10.9919
  88 40.0120 -40.4654 48.0137
  89 117.113 6.79000 -1.78021
  90 117.113 6.79000 -1.78021
  91 106.862 1.45838 15.8674
  92 102.633 -0.671888 -18.8589
  93 106.862 1.45838 15.8674
  94 102.633 -0.671888 -18.8589
  95 59.7469 1.26505 7.50607
  96 59.7469 1.26505 7.50607
  97 157.912 10.0809 -2.76500
  98 161.342 5.59240 5.69952
  99 157.912 10.0809 -2.76500
  100 161.342 5.59240 5.69952
  101 126.026 3.10921 1.81933
  102 126.026 3.10921 1.81933
  103 151.568 -8.61186 -0.372718
  104 151.568 -8.61186 -0.372718
  105 126.196 3.24667 -2.24195
  106 126.196 3.24667 -2.24195
  107 149.294 -18.2702 -16.2321
  108 149.294 -18.2702 -16.2321
  109 103.811 -21.4564 41.0669
  110 103.811 -21.4564 41.0669
  111 69.5628 -12.7433 -32.9730
  112 69.5628 -12.7433 -32.9730
  113 126.762 2.17831 7.63000
  114 126.762 2.17831 7.63000
  115 131.586 0.944015 -7.26865
  116 131.586 0.944015 -7.26865
  117 179.553 11.6885 0.765516
  118 192.754 12.6427 0.939620
  119 179.553 11.6885 0.765516
  120 192.754 12.6427 0.939620
  121 188.528 15.6824 -4.11569
  122 188.528 15.6824 -4.11569
  123 20.2231 -34.0401 -10.4784
  124 20.2231 -34.0401 -10.4784
  125 162.596 -20.3128 17.1503
  126 162.596 -20.3128 17.1503
  127 136.206 -3.24170 8.39716
  128 136.206 -3.24170 8.39716
  129 30.7885 -29.4782 24.2542
  130 30.7885 -29.4782 24.2542
  131 126.218 2.60260 -0.116421
  132 126.218 2.60260 -0.116421
  133 136.035 -6.28348 -10.6435
  134 136.035 -6.28348 -10.6435
  135 128.355 1.06354 1.32833
  136 128.355 1.06354 1.32833
  137 128.485 0.933704 -1.24105
  138 128.485 0.933704 -1.24105
  139 129.949 1.83073 -3.89860
  140 129.949 1.83073 -3.89860
  141 129.320 1.77930 3.52033
  142 129.320 1.77930 3.52033
  143 123.539 4.31681 -0.140424
  144 123.539 4.31681 -0.140424
  145 102.644 6.86306 -0.805904
  146 102.644 6.86306 -0.805904
  147 150.672 -5.40003 2.79445
  148 150.672 -5.40003 2.79445
  149 173.139 -6.58602 -5.55659
  150 173.139 -6.58602 -5.55659
  151 133.019 -14.7054 20.5414
  152 133.019 -14.7054 20.5414
  153 100.480 -27.3009 -45.5619
  154 100.480 -27.3009 -45.5619
  155 117.458 4.86321 7.24942
  156 117.458 4.86321 7.24942
  157 153.216 -1.02956 -6.20287
  158 153.216 -1.02956 -6.20287
  159 211.207 16.4719 11.3176
  160 211.207 16.4719 11.3176
  161 104.714 -29.0477 52.9790
  162 104.714 -29.0477 52.9790
  163 216.346 7.34062 -2.41721
  164 216.346 7.34062 -2.41721
  165 123.034 4.29840 3.42039
  166 123.034 4.29840 3.42039
  167 116.766 4.01236 -10.5517
  168 116.766 4.01236 -10.5517
  169 144.773 4.27964 3.59369
  170 144.773 4.27964 3.59369
  171 121.833 5.11775 -3.87092
  172 121.833 5.11775 -3.87092
  173 127.035 2.09423 0.580560
  174 127.035 2.09423 0.580560
  175 129.281 1.01630 -2.10011
  176 129.281 1.01630 -2.10011
  177 202.339 15.1096 -10.6946
  178 202.339 15.1096 -10.6946
  179 127.148 2.03642 -0.701996
  180 127.148 2.03642 -0.701996
  181 92.8819 6.77945 -5.44772
  182 92.8819 6.77945 -5.44772
  183 169.979 12.4600 1.64003
  184 169.979 12.4600 1.64003
  185 33.9306 -28.9688 -31.3663
  186 33.9306 -28.9688 -31.3663
  187 91.8570 -1.07008 22.8906
  188 91.8570 -1.07008 22.8906
  189 124.104 -19.8360 -31.8426
  190 124.104 -19.8360 -31.8426
  191 146.535 -3.97624 1.53001
  192 146.535 -3.97624 1.53001
  193 136.989 -0.418470 5.27664
  194 136.989 -0.418470 5.27664
  195 187.799 4.65516 9.80270
  196 187.799 4.65516 9.80270
  197 76.1467 2.26473 -14.0784
  198 76.1467 2.26473 -14.0784
  199 214.214 9.73714 5.46718
  200 214.214 9.73714 5.46718
  201 139.594 -1.65745 -5.45067
  202 139.594 -1.65745 -5.45067
  203 129.491 0.727622 1.93853
  204 129.491 0.727622 1.93853
  205 145.406 -5.61832 -2.53835
  206 145.406 -5.61832 -2.53835
  207 159.409 -8.15531 -0.227885
  208 159.409 -8.15531 -0.227885
  209 9.84140 -58.2210 4.53231
  210 9.84140 -58.2210 4.53231
  211 133.719 0.751649 -4.72031
  212 133.719 0.751649 -4.72031
  213 132.552 1.07654 4.14407
  214 132.552 1.07654 4.14407
  215 127.566 -11.6354 -20.3983
  216 127.566 -11.6354 -20.3983
  217 149.104 -3.15637 -3.86925
  218 149.104 -3.15637 -3.86925
  219 121.439 4.44184 -7.25456
  220 121.439 4.44184 -7.25456
  221 33.4583 -42.5553 34.1493
  222 33.4583 -42.5553 34.1493
  223 150.930 0.542920 5.80498
  224 150.930 0.542920 5.80498
  225 146.221 3.62427 -4.80192
  226 146.221 3.62427 -4.80192
  227 211.583 12.6805 -9.18159
  228 211.583 12.6805 -9.18159
  229 159.916 -6.08954 -3.46586
  230 159.916 -6.08954 -3.46586
  231 175.901 -9.12412 -29.2265
  232 175.901 -9.12412 -29.2265
  233 127.879 -5.74100 15.8411
  234 127.879 -5.74100 15.8411
  235 124.971 3.61307 0.583978
  236 124.971 3.61307 0.583978
  237 65.7546 -9.93269 29.2375
  238 65.7546 -9.93269 29.2375
  239 168.354 -15.4080 34.5312
  240 168.354 -15.4080 34.5312
  241 44.2195 -6.30281 -14.3735
  242 44.2195 -6.30281 -14.3735
  243 148.669 -11.0800 -6.69995
  244 148.669 -11.0800 -6.69995
  245 120.146 5.50131 4.22372
  246 120.146 5.50131 4.22372
  247 4.45750 -75.2701 -3.62987
  248 4.45750 -75.2701 -3.62987
  249 8.33162 -66.6544 12.0850
  250 8.33162 -66.6544 12.0850
  251 122.560 0.871111 11.5149
  252 122.560 0.871111 11.5149
  253 128.206 0.496610 0.484145
  254 128.206 0.496610 0.484145
  255 127.022 2.11300 0.0911130
  256 127.022 2.11300 0.0911130
  257 119.058 -1.46024 -15.2082
  258 119.058 -1.46024 -15.2082
  259 128.297 0.450722 -0.512654
  260 128.297 0.450722 -0.512654
  261 142.544 -9.95900 9.22049
  262 142.544 -9.95900 9.22049
  263 131.929 0.483248 -2.34365
  264 131.929 0.483248 -2.34365
  265 101.683 -8.60903 -27.9559
  266 101.683 -8.60903 -27.9559
  267 174.609 13.3153 -1.15148
  268 174.609 13.3153 -1.15148
  269 126.851 2.87934 -5.96479
  270 126.851 2.87934 -5.96479
  271 126.318 2.69644 -1.21987
  272 126.318 2.69644 -1.21987
  273 106.746 5.20511 -10.5102
  274 106.746 5.20511 -10.5102
  275 31.9402 -13.2606 8.19342
  276 31.9402 -13.2606 8.19342
  277 136.473 -22.3911 28.3372
  278 136.473 -22.3911 28.3372
  279 127.772 1.94600 2.37813
  280 127.772 1.94600 2.37813
  281 191.285 13.6416 -2.66333
  282 191.285 13.6416 -2.66333
  283 231.285 18.4461 25.8250
  284 231.285 18.4461 25.8250
  285 153.349 -16.2249 8.78343
  286 153.349 -16.2249 8.78343
  287 108.888 5.48222 7.74882
  288 108.888 5.48222 7.74882
  289 140.710 -27.6857 37.3012
  290 140.710 -27.6857 37.3012
  291 144.273 -1.65095 3.47730
  292 144.273 -1.65095 3.47730
  293 127.695 1.28342 0.659488
  294 127.695 1.28342 0.659488
  295 125.755 3.52424 -3.84229
  296 125.755 3.52424 -3.84229
  297 127.058 2.07864 -0.181035
  298 127.058 2.07864 -0.181035
  299 129.040 0.363393 -0.921068
  300 129.040 0.363393 -0.921068
  301 131.790 0.673697 2.35295
  302 131.790 0.673697 2.35295
  303 125.012 3.59306 -0.993176
  304 125.012 3.59306 -0.993176
  305 28.7792 -49.7055 -32.3278
  306 28.7792 -49.7055 -32.3278
  307 84.8591 5.46066 7.12821
  308 84.8591 5.46066 7.12821
  309 127.857 1.06905 -0.634655
  310 127.857 1.06905 -0.634655
  311 111.987 6.52378 -5.19703
  312 111.987 6.52378 -5.19703
  313 112.262 7.11575 1.99365
  314 112.262 7.11575 1.99365
  315 127.560 1.87127 -1.69081
  316 127.560 1.87127 -1.69081
  317 172.246 8.56930 0.536707
  318 172.246 8.56930 0.536707
  319 126.537 3.12325 5.24935
  320 126.537 3.12325 5.24935
  321 162.267 4.84436 -5.15325
  322 162.267 4.84436 -5.15325
  323 243.784 7.00491 16.0811
  324 243.784 7.00491 16.0811
  325 126.023 3.23539 3.32703
  326 126.023 3.23539 3.32703
  327 123.898 4.27671 1.74032
  328 123.898 4.27671 1.74032
  329 98.2847 -23.4631 -51.8650
  330 98.2847 -23.4631 -51.8650
  331 129.113 0.328807 0.901347
  332 129.113 0.328807 0.901347
  333 126.183 2.71856 0.910915
  334 126.183 2.71856 0.910915
  335 121.273 5.52318 0.198972
  336 121.273 5.52318 0.198972
  337 62.5159 -22.3357 42.1066
  338 62.5159 -22.3357 42.1066
  339 156.845 10.1963 0.904342
  340 156.845 10.1963 0.904342
  341 9.09924 -65.3262 -14.1482
  342 9.09924 -65.3262 -14.1482
  343 96.8498 6.12120 6.38932
  344 96.8498 6.12120 6.38932
  345 230.462 3.26442 2.31737
  346 230.462 3.26442 2.31737
  347 240.380 11.9584 -16.4533
  348 240.380 11.9584 -16.4533
  349 110.396 -12.6752 31.2686
  350 114.975 -6.54516 23.3064
  351 110.396 -12.6752 31.2686
  352 114.975 -6.54516 23.3064
  353 233.718 5.97816 8.53122
  354 233.718 5.97816 8.53122
  355 130.792 -0.148128 8.98859
  356 130.792 -0.148128 8.98859
  357 156.323 -21.0380 -21.5570
  358 156.323 -21.0380 -21.5570
  359 147.229 -1.30867 4.66213
  360 147.229 -1.30867 4.66213
  361 100.885 -23.3196 57.0010
  362 100.885 -23.3196 57.0010
  363 172.477 13.8709 -0.488483
  364 172.477 13.8709 -0.488483
  365 233.934 2.22480 -1.80003
  366 233.934 2.22480 -1.80003
  367 139.649 0.113964 -4.42621
  368 139.649 0.113964 -4.42621
  369 123.907 4.54362 -2.07946
  370 123.907 4.54362 -2.07946
  371 193.705 14.9995 4.32133
  372 193.705 14.9995 4.32133
  373 146.877 6.06954 -1.01396
  374 146.877 6.06954 -1.01396
  375 134.420 0.537832 -2.88517
  376 134.420 0.537832 -2.88517
  377 35.6782 -18.4877 -24.0096
  378 35.6782 -18.4877 -24.0096
  379 148.768 -2.65451 1.44684
  380 148.768 -2.65451 1.44684
  381 126.824 -0.165326 -10.5722
  382 126.824 -0.165326 -10.5722
  383 146.002 -0.333907 -5.53606
  384 146.002 -0.333907 -5.53606
  385 234.710 4.23110 -7.09761
  386 234.710 4.23110 -7.09761
  387 127.210 2.00526 1.33836
  388 127.210 2.00526 1.33836
  389 155.436 7.43630 4.79685
  390 155.436 7.43630 4.79685
  391 168.813 -4.02611 0.535724
  392 168.813 -4.02611 0.535724
  393 127.718 2.35338 -2.96542
  394 127.718 2.35338 -2.96542
  395 248.462 21.4965 -30.1263
  396 248.462 21.4965 -30.1263
  397 146.976 -2.08620 -1.40203
  398 146.976 -2.08620 -1.40203
</Section>

newXOutput 38

<Section columns = "stress_xx | stress_yy | stress_xy">
  1 131.466 0.126758 -0.156820
  2 131.520 0.158666 0.211680
  3 131.466 0.126758 -0.156820
  4 131.520 0.158666 0.211680
  5 207.012 10.3325 55.4317
  6 215.381 9.81819 -54.4966
  7 207.012 10.3325 55.4317
  8 215.381 9.81819 -54.4966
  9 131.815 0.0907636 -0.410399
  10 132.979 0.162283 -0.726161
  11 134.649 0.371884 -1.46469
  12 138.471 0.144399 -1.95435
  13 143.322 0.251269 -3.15687
  14 148.916 -1.27389 -3.03524
  15 153.900 -1.56031 -0.234572
  16 150.991 -1.09259 2.78596
  17 144.624 1.07155 4.78032
  18 141.178 2.71431 -0.183887
  19 143.718 1.31237 -4.47002
  20 150.800 -1.61656 -3.39955
  21 152.452 -1.89181 0.885582
  22 149.700 -0.845086 2.60426
  23 142.272 0.0788004 3.16241
  24 138.121 0.539203 2.46907
  25 134.740 0.426574 1.40930
  26 132.994 0.130324 0.665985
  27 131.885 0.106935 0.395379
  28 131.733 0.478610 0.247532
  29 131.478 0.986525 0.286060
  30 130.850 1.72112 0.253502
  31 130.599 2.00352 -0.0246096
  32 130.925 1.63171 -0.304879
  33 131.378 1.07542 -0.262389
  34 131.578 0.541482 -0.275139
  35 131.815 0.0907636 -0.410399
  36 132.979 0.162283 -0.726161
  37 134.649 0.371884 -1.46469
  38 138.471 0.144399 -1.95435
  39 143.322 0.251269 -3.15687
  40 148.916 -1.27389 -3.03524
  41 153.900 -1.56031 -0.234572
  42 150.991 -1.09259 2.78596
  43 144.624 1.07155 4.78032
  44 141.178 2.71431 -0.183887
  45 143.718 1.31237 -4.47002
  46 150.800 -1.61656 -3.39955
  47 152.452 -1.89181 0.885582
  48 149.700 -0.845086 2.60426
  49 142.272 0.0788004 3.16241
  50 138.121 0.539203 2.46907
  51 134.740 0.426574 1.40930
  52 132.994 0.130324 0.665985
  53 131.885 0.106935 0.395379
  54 131.733 0.478610 0.247532
  55 131.478 0.986525 0.286060
  56 130.850 1.72112 0.253502
  57 130.599 2.00352 -0.0246096
  58 130.925 1.63171 -0.304879
  59 131.378 1.07542 -0.262389
  60 131.578 0.541482 -0.275139
  61 288.498 14.4433 29.5983
  62 262.632 4.35172 10.6994
  63 247.191 1.90297 4.02675
  64 243.919 1.36089 0.827913
  65 247.093 1.78174 -3.45138
  66 258.764 3.75724 -9.35186
  67 291.170 12.5945 -25.4647
  68 37.6879 -44.3335 -44.4386
  69 7.44850 -94.7171 -10.7179
  70 2.33456 -106.354 -4.70674
  71 2.22365 -104.308 -2.58173
  72 3.57874 -101.825 5.02008
  73 8.01927 -91.8341 11.3130
  74 41.0996 -41.5259 49.3628
  75 288.498 14.4433 29.5983
  76 262.632 4.35172 10.6994
  77 247.191 1.90297 4.02675
  78 243.919 1.36089 0.827913
  79 247.093 1.78174 -3.45138
  80 258.764 3.75724 -9.35186
  81 291.170 12.5945 -25.4647
  82 37.6879 -44.3335 -44.4386
  83 7.44850 -94.7171 -10.7179
  84 2.33456 -106.354 -4.70674
  85 2.22365 -104.308 -2.58173
  86 3.57874 -101.825 5.02008
  87 8.01927 -91.8341 11.3130
  88 41.0996 -41.5259 49.3628
  89 120.326 6.97480 -1.82844
  90 120.326 6.97480 -1.82844
  91 109.795 1.49884 16.3007
  92 105.451 -0.689703 -19.3752
  93 109.795 1.49884 16.3007
  94 105.451 -0.689703 -19.3752
  95 61.3997 1.30465 7.71280
  96 61.3997 1.30465 7.71280
  97 162.230 10.3578 -2.83512
  98 165.747 5.74901 5.84178
  99 162.230 10.3578 -2.83512
  100 165.747 5.74901 5.84178
  101 129.477 3.19331 1.86798
  102 129.477 3.19331 1.86798
  103 155.704 -8.84700 -0.373306
  104 155.704 -8.84700 -0.373306
  105 129.651 3.33454 -2.30194
  106 129.651 3.33454 -2.30194
  107 153.361 -18.7704 -16.6839
  108 153.361 -18.7704 -16.6839
  109 106.650 -22.0456 42.2006
  110 106.650 -22.0456 42.2006
  111 71.4754 -13.0904 -33.8857
  112 71.4754 -13.0904 -33.8857
  113 130.231 2.23711 7.83675
  114 130.231 2.23711 7.83675
  115 135.184 0.968970 -7.46606
  116 135.184 0.968970 -7.46606
  117 184.446 12.0131 0.803887
  118 198.000 12.9841 0.968101
  119 184.446 12.0131 0.803887
  120 198.000 12.9841 0.968101
  121 193.662 16.1132 -4.24190
  122 193.662 16.1132 -4.24190
  123 20.7812 -34.9655 -10.7738
  124 20.7812 -34.9655 -10.7738
  125 167.018 -20.8633 17.6348
  126 167.018 -20.8633 17.6348
  127 139.928 -3.33096 8.62799
  128 139.928 -3.33096 8.62799
  129 31.6386 -30.2782 24.9352
  130 31.6386 -30.2782 24.9352
  131 129.673 2.67291 -0.119512
  132 129.673 2.67291 -0.119512
  133 139.751 -6.45601 -10.9371
  134 139.751 -6.45601 -10.9371
  135 131.867 1.09231 1.36367
  136 131.867 1.09231 1.36367
  137 132.000 0.958984 -1.27404
  138 132.000 0.958984 -1.27404
  139 133.503 1.88010 -4.00326
  140 133.503 1.88010 -4.00326
  141 132.857 1.82734 3.61471
  142 132.857 1.82734 3.61471
  143 126.923 4.43375 -0.144235
  144 126.923 4.43375 -0.144235
  145 105.467 7.05096 -0.828015
  146 105.467 7.05096 -0.828015
  147 154.785 -5.54703 2.86235
  148 154.785 -5.54703 2.86235
  149 177.849 -6.75629 -5.72862
  150 177.849 -6.75629 -5.72862
  151 136.650 -15.1087 21.1072
  152 136.650 -15.1087 21.1072
  153 103.223 -28.0439 -46.8289
  154 103.223 -28.0439 -46.8289
  155 120.679 4.99578 7.44617
  156 120.679 4.99578 7.44617
  157 157.400 -1.05612 -6.36191
  158 157.400 -1.05612 -6.36191
  159 216.939 16.9240 11.6376
  160 216.939 16.9240 11.6376
  161 107.572 -29.8413 54.4481
  162 107.572 -29.8413 54.4481
  163 222.207 7.53631 -2.48372
  164 222.207 7.53631 -2.48372
  165 126.405 4.41493 3.51244
  166 126.405 4.41493 3.51244
  167 119.967 4.12185 -10.8390
  168 119.967 4.12185 -10.8390
  169 148.739 4.39832 3.68787
  170 148.739 4.39832 3.68787
  171 125.172 5.25666 -3.97530
  172 125.172 5.25666 -3.97530
  173 130.512 2.15078 0.596011
  174 130.512 2.15078 0.596011
  175 132.817 1.04374 -2.15614
  176 132.817 1.04374 -2.15614
  177 207.835 15.5331 -11.0066
  178 207.835 15.5331 -11.0066
  179 130.628 2.09143 -0.720665
  180 130.628 2.09143 -0.720665
  181 95.4393 6.96635 -5.59673
  182 95.4393 6.96635 -5.59673
  183 174.618 12.8018 1.67497
  184 174.618 12.8018 1.67497
  185 34.8652 -29.7547 -32.2459
  186 34.8652 -29.7547 -32.2459
  187 94.3813 -1.09807 23.5184
  188 94.3813 -1.09807 23.5184
  189 127.492 -20.3803 -32.7215
  190 127.492 -20.3803 -32.7215
  191 150.535 -4.08555 1.57627
  192 150.535 -4.08555 1.57627
  193 140.731 -0.430587 5.42022
  194 140.731 -0.430587 5.42022
  195 192.903 4.79550 10.0928
  196 192.903 4.79550 10.0928
  197 78.2464 2.32979 -14.4654
  198 78.2464 2.32979 -14.4654
  199 220.022 9.99845 5.61877
  200 220.022 9.99845 5.61877
  201 143.406 -1.70353 -5.60044
  202 143.406 -1.70353 -5.60044
  203 133.032 0.747240 1.99022
  204 133.032 0.747240 1.99022
  205 149.375 -5.77282 -2.61260
  206 149.375 -5.77282 -2.61260
  207 163.754 -8.37544 -0.247471
  208 163.754 -8.37544 -0.247471
  209 10.1111 -59.8186 4.66143
  210 10.1111 -59.8186 4.66143
  211 137.373 0.771453 -4.84775
  212 137.373 0.771453 -4.84775
  213 136.175 1.10545 4.25567
  214 136.175 1.10545 4.25567
  215 131.052 -11.9545 -20.9596
  216 131.052 -11.9545 -20.9596
  217 153.177 -3.24270 -3.96761
  218 153.177 -3.24270 -3.96761
  219 124.767 4.56261 -7.45135
  220 124.767 4.56261 -7.45135
  221 34.3758 -43.7098 35.1106
  222 34.3758 -43.7098 35.1106
  223 155.055 0.559832 5.95466
  224 155.055 0.559832 5.95466
  225 150.224 3.72490 -4.92724
  226 150.224 3.72490 -4.92724
  227 217.324 13.0237 -9.43899
  228 217.324 13.0237 -9.43899
  229 164.276 -6.25308 -3.54693
  230 164.276 -6.25308 -3.54693
  231 180.678 -9.35310 -30.0503
  232 180.678 -9.35310 -30.0503
  233 131.375 -5.89831 16.2751
  234 131.375 -5.89831 16.2751
  235 128.393 3.71084 0.599613
  236 128.393 3.71084 0.599613
  237 67.5649 -10.2021 30.0461
  238 67.5649 -10.2021 30.0461
  239 172.925 -15.8131 35.4986
  240 172.925 -15.8131 35.4986
  241 45.4437 -6.46862 -14.7724
  242 45.4437 -6.46862 -14.7724
  243 152.724 -11.3834 -6.89046
  244 152.724 -11.3834 -6.89046
  245 123.440 5.65088 4.33787
  246 123.440 5.65088 4.33787
  247 4.57740 -77.3433 -3.73416
  248 4.57740 -77.3433 -3.73416
  249 8.55924 -68.4831 12.4315
  250 8.55924 -68.4831 12.4315
  251 125.916 0.894704 11.8286
  252 125.916 0.894704 11.8286
  253 131.713 0.510075 0.496977
  254 131.713 0.510075 0.496977
  255 130.498 2.17000 0.0935413
  256 130.498 2.17000 0.0935413
  257 122.319 -1.50038 -15.6240
  258 122.319 -1.50038 -15.6240
  259 131.807 0.462965 -0.526244
  260 131.807 0.462965 -0.526244
  261 146.434 -10.2319 9.47757
  262 146.434 -10.2319 9.47757
  263 135.535 0.496202 -2.40628
  264 135.535 0.496202 -2.40628
  265 104.470 -8.84497 -28.7244
  266 104.470 -8.84497 -28.7244
  267 179.372 13.6798 -1.17316
  268 179.372 13.6798 -1.17316
  269 130.323 2.95719 -6.12584
  270 130.323 2.95719 -6.12584
  271 129.776 2.76934 -1.25241
  272 129.776 2.76934 -1.25241
  273 109.678 5.34781 -10.7968
  274 109.678 5.34781 -10.7968
  275 32.8252 -13.6147 8.42211
  276 32.8252 -13.6147 8.42211
  277 140.193 -23.0052 29.1204
  278 140.193 -23.0052 29.1204
  279 131.268 1.99861 2.44165
  280 131.268 1.99861 2.44165
  281 196.492 14.0112 -2.74117
  282 196.492 14.0112 -2.74117
  283 237.542 18.9659 26.5454
  284 237.542 18.9659 26.5454
  285 157.527 -16.6679 9.03432
  286 157.527 -16.6679 9.03432
  287 111.878 5.63224 7.95956
  288 111.878 5.63224 7.95956
  289 144.541 -28.4438 38.3335
  290 144.541 -28.4438 38.3335
  291 148.210 -1.69668 3.57353
  292 148.210 -1.69668 3.57353
  293 131.189 1.31810 0.677005
  294 131.189 1.31810 0.677005
  295 129.198 3.61966 -3.94548
  296 129.198 3.61966 -3.94548
  297 130.535 2.13472 -0.185846
  298 130.535 2.13472 -0.185846
  299 132.570 0.373233 -0.945536
  300 132.570 0.373233 -0.945536
  301 135.393 0.691817 2.41583
  302 135.393 0.691817 2.41583
  303 128.436 3.69030 -1.01977
  304 128.436 3.69030 -1.01977
  305 29.5675 -51.0534 -33.2402
  306 29.5675 -51.0534 -33.2402
  307 87.1980 5.61227 7.32321
  308 87.1980 5.61227 7.32321
  309 131.355 1.09796 -0.651499
  310 131.355 1.09796 -0.651499
  311 115.061 6.70179 -5.33829
  312 115.061 6.70179 -5.33829
  313 115.344 7.30988 2.04765
  314 115.344 7.30988 2.04765
  315 131.051 1.92186 -1.73589
  316 131.051 1.92186 -1.73589
  317 176.941 8.81018 0.533752
  318 176.941 8.81018 0.533752
  319 130.001 3.20782 5.39075
  320 130.001 3.20782 5.39075
  321 166.696 4.98029 -5.28087
  322 166.696 4.98029 -5.28087
  323 250.365 7.19255 16.5207
  324 250.365 7.19255 16.5207
  325 129.473 3.32298 3.41627
  326 129.473 3.32298 3.41627
  327 127.292 4.39256 1.78700
  328 127.292 4.39256 1.78700
  329 100.960 -24.0678 -53.3163
  330 100.960 -24.0678 -53.3163
  331 132.644 0.337706 0.925286
  332 132.644 0.337706 0.925286
  333 129.637 2.79203 0.935219
  334 129.637 2.79203 0.935219
  335 124.597 5.67310 0.204312
  336 124.597 5.67310 0.204312
  337 64.2338 -22.9458 43.2779
  338 64.2338 -22.9458 43.2779
  339 161.136 10.4763 0.926771
  340 161.136 10.4763 0.926771
  341 9.34684 -67.1176 -14.5513
  342 9.34684 -67.1176 -14.5513
  343 99.5151 6.28953 6.56347
  344 99.5151 6.28953 6.56347
  345 236.686 3.35067 2.37920
  346 236.686 3.35067 2.37920
  347 246.876 12.2851 -16.9051
  348 246.876 12.2851 -16.9051
  349 113.417 -13.0232 32.1282
  350 118.123 -6.72442 23.9447
  351 113.417 -13.0232 32.1282
  352 118.123 -6.72442 23.9447
  353 240.032 6.13725 8.76248
  354 240.032 6.13725 8.76248
  355 134.369 -0.152726 9.23342
  356 134.369 -0.152726 9.23342
  357 160.576 -21.6112 -22.1596
  358 160.576 -21.6112 -22.1596
  359 151.254 -1.34388 4.78357
  360 151.254 -1.34388 4.78357
  361 103.626 -23.9224 58.5922
  362 103.626 -23.9224 58.5922
  363 177.185 14.2489 -0.501450
  364 177.185 14.2489 -0.501450
  365 240.247 2.28336 -1.84853
  366 240.247 2.28336 -1.84853
  367 143.461 0.116379 -4.54629
  368 143.461 0.116379 -4.54629
  369 127.301 4.66677 -2.13530
  370 127.301 4.66677 -2.13530
  371 198.976 15.4082 4.44924
  372 198.976 15.4082 4.44924
  373 150.900 6.23679 -1.04045
  374 150.900 6.23679 -1.04045
  375 138.091 0.552108 -2.96259
  376 138.091 0.552108 -2.96259
  377 36.6668 -18.9874 -24.6802
  378 36.6668 -18.9874 -24.6802
  379 152.829 -2.72732 1.48189
  380 152.829 -2.72732 1.48189
  381 130.295 -0.170411 -10.8606
  382 130.295 -0.170411 -10.8606
  383 149.996 -0.342570 -5.68073
  384 149.996 -0.342570 -5.68073
  385 241.049 4.34392 -7.28948
  386 241.049 4.34392 -7.28948
  387 130.691 2.05944 1.37402
  388 130.691 2.05944 1.37402
  389 159.685 7.64190 4.91935
  390 159.685 7.64190 4.91935
  391 173.409 -4.12982 0.567921
  392 173.409 -4.12982 0.567921
  393 131.213 2.41703 -3.04476
  394 131.213 2.41703 -3.04476
  395 255.172 22.1054 -30.9641
  396 255.172 22.1054 -30.9641
  397 150.985 -2.14395 -1.44241
  398 150.985 -2.14395 -1.44241
</Section>

newXOutput 39

<Section columns = "stress_xx | stress_yy | stress_xy">
  1 134.964 0.130153 -0.160845
  2 135.020 0.162894 0.217110
  3 134.964 0.130153 -0.160845
  4 135.020 0.162894 0.217110
  5 212.447 10.6576 56.9316
  6 221.030 10.1319 -55.9719
  7 212.447 10.6576 56.9316
  8 221.030 10.1319 -55.9719
  9 135.322 0.0931731 -0.420951
  10 136.515 0.166565 -0.744881
  11 138.229 0.381635 -1.50258
  12 142.149 0.148104 -2.00513
  13 147.125 0.257536 -3.23959
  14 152.866 -1.30847 -3.11593
  15 157.983 -1.60224 -0.242698
  16 155.004 -1.12162 2.85604
  17 148.479 1.10101 4.90247
  18 144.947 2.78762 -0.188630
  19 147.550 1.34765 -4.58451
  20 154.809 -1.65964 -3.48501
  21 156.496 -1.94269 0.911354
  22 153.670 -0.867962 2.67367
  23 146.049 0.0803765 3.24547
  24 141.790 0.553230 2.53330
  25 138.322 0.437762 1.44574
  26 136.532 0.133765 0.683143
  27 135.394 0.109779 0.405558
  28 135.239 0.491228 0.253878
  29 134.977 1.01246 0.293420
  30 134.333 1.76627 0.260040
  31 134.075 2.05605 -0.0252440
  32 134.410 1.67453 -0.312729
  33 134.874 1.10370 -0.269106
  34 135.078 0.555775 -0.282222
  35 135.322 0.0931731 -0.420951
  36 136.515 0.166565 -0.744881
  37 138.229 0.381635 -1.50258
  38 142.149 0.148104 -2.00513
  39 147.125 0.257536 -3.23959
  40 152.866 -1.30847 -3.11593
  41 157.983 -1.60224 -0.242698
  42 155.004 -1.12162 2.85604
  43 148.479 1.10101 4.90247
  44 144.947 2.78762 -0.188630
  45 147.550 1.34765 -4.58451
  46 154.809 -1.65964 -3.48501
  47 156.496 -1.94269 0.911354
  48 153.670 -0.867962 2.67367
  49 146.049 0.0803765 3.24547
  50 141.790 0.553230 2.53330
  51 138.322 0.437762 1.44574
  52 136.532 0.133765 0.683143
  53 135.394 0.109779 0.405558
  54 135.239 0.491228 0.253878
  55 134.977 1.01246 0.293420
  56 134.333 1.76627 0.260040
  57 134.075 2.05605 -0.0252440
  58 134.410 1.67453 -0.312729
  59 134.874 1.10370 -0.269106
  60 135.078 0.555775 -0.282222
  61 296.040 14.8305 30.3826
  62 269.503 4.46465 10.9792
  63 253.666 1.95096 4.13083
  64 250.310 1.39543 0.848680
  65 253.565 1.82730 -3.54036
  66 265.537 3.85433 -9.59535
  67 298.782 12.9317 -26.1400
  68 38.6876 -45.4659 -45.6555
  69 7.64607 -97.2500 -11.0223
  70 2.39276 -109.222 -4.83991
  71 2.27917 -107.123 -2.65137
  72 3.67120 -104.567 5.16239
  73 8.23300 -94.2893 11.6350
  74 42.1860 -42.5831 50.7127
  75 296.040 14.8305 30.3826
  76 269.503 4.46465 10.9792
  77 253.666 1.95096 4.13083
  78 250.310 1.39543 0.848680
  79 253.565 1.82730 -3.54036
  80 265.537 3.85433 -9.59535
  81 298.782 12.9317 -26.1400
  82 38.6876 -45.4659 -45.6555
  83 7.64607 -97.2500 -11.0223
  84 2.39276 -109.222 -4.83991
  85 2.27917 -107.123 -2.65137
  86 3.67120 -104.567 5.16239
  87 8.23300 -94.2893 11.6350
  88 42.1860 -42.5831 50.7127
  89 123.536 7.15939 -1.87661
  90 123.536 7.15939 -1.87661
  91 112.726 1.53930 16.7337
  92 108.266 -0.707475 -19.8910
  93 112.726 1.53930 16.7337
  94 108.266 -0.707475 -19.8910
  95 63.0522 1.34449 7.91943
  96 63.0522 1.34449 7.91943
  97 166.544 10.6346 -2.90489
  98 170.148 5.90568 5.98321
  99 166.544 10.6346 -2.90489
  100 170.148 5.90568 5.98321
  101 132.924 3.27730 1.91652
  102 132.924 3.27730 1.91652
  103 159.835 -9.08193 -0.373385
  104 159.835 -9.08193 -0.373385
  105 133.103 3.42229 -2.36181
  106 133.103 3.42229 -2.36181
  107 157.425 -19.2701 -17.1359
  108 157.425 -19.2701 -17.1359
  109 109.487 -22.6344 43.3340
  110 109.487 -22.6344 43.3340
  111 73.3870 -13.4372 -34.7983
  112 73.3870 -13.4372 -34.7983
  113 133.697 2.29582 8.04323
  114 133.697 2.29582 8.04323
  115 138.779 0.993858 -7.66324
  116 138.779 0.993858 -7.66324
  117 189.333 12.3378 0.843143
  118 203.239 13.3250 0.996703
  119 189.333 12.3378 0.843143
  120 203.239 13.3250 0.996703
  121 198.790 16.5437 -4.36871
  122 198.790 16.5437 -4.36871
  123 21.3392 -35.8899 -11.0695
  124 21.3392 -35.8899 -11.0695
  125 171.435 -21.4130 18.1197
  126 171.435 -21.4130 18.1197
  127 143.646 -3.42019 8.85868
  128 143.646 -3.42019 8.85868
  129 32.4883 -31.0771 25.6166
  130 32.4883 -31.0771 25.6166
  131 133.126 2.74312 -0.122596
  132 133.126 2.74312 -0.122596
  133 143.463 -6.62844 -11.2306
  134 143.463 -6.62844 -11.2306
  135 135.375 1.12103 1.39893
  136 135.375 1.12103 1.39893
  137 135.512 0.984229 -1.30695
  138 135.512 0.984229 -1.30695
  139 137.053 1.92939 -4.10773
  140 137.053 1.92939 -4.10773
  141 136.392 1.87532 3.70890
  142 136.392 1.87532 3.70890
  143 130.305 4.55053 -0.148040
  144 130.305 4.55053 -0.148040
  145 108.288 7.23871 -0.850111
  146 108.288 7.23871 -0.850111
  147 158.895 -5.69387 2.92974
  148 158.895 -5.69387 2.92974
  149 182.555 -6.92589 -5.90156
  150 182.555 -6.92589 -5.90156
  151 140.277 -15.5118 21.6728
  152 140.277 -15.5118 21.6728
  153 105.964 -28.7860 -48.0959
  154 105.964 -28.7860 -48.0959
  155 123.898 5.12821 7.64268
  156 123.898 5.12821 7.64268
  157 161.581 -1.08258 -6.52026
  158 161.581 -1.08258 -6.52026
  159 222.664 17.3759 11.9578
  160 222.664 17.3759 11.9578
  161 110.427 -30.6342 55.9171
  162 110.427 -30.6342 55.9171
  163 228.061 7.73156 -2.55020
  164 228.061 7.73156 -2.55020
  165 129.773 4.53130 3.60433
  166 129.773 4.53130 3.60433
  167 123.167 4.23124 -11.1259
  168 123.167 4.23124 -11.1259
  169 152.702 4.51699 3.78176
  170 152.702 4.51699 3.78176
  171 128.508 5.39539 -4.07951
  172 128.508 5.39539 -4.07951
  173 133.986 2.20724 0.611425
  174 133.986 2.20724 0.611425
  175 136.350 1.07113 -2.21204
  176 136.350 1.07113 -2.21204
  177 213.323 15.9569 -11.3194
  178 213.323 15.9569 -11.3194
  179 134.105 2.14636 -0.739290
  180 134.105 2.14636 -0.739290
  181 97.9955 7.15317 -5.74561
  182 97.9955 7.15317 -5.74561
  183 179.254 13.1433 1.70936
  184 179.254 13.1433 1.70936
  185 35.7994 -30.5395 -33.1259
  186 35.7994 -30.5395 -33.1259
  187 96.9041 -1.12598 24.1457
  188 96.9041 -1.12598 24.1457
  189 130.876 -20.9243 -33.6000
  190 130.876 -20.9243 -33.6000
  191 154.532 -4.19481 1.62273
  192 154.532 -4.19481 1.62273
  193 144.469 -0.442731 5.56364
  194 144.469 -0.442731 5.56364
  195 198.001 4.93643 10.3839
  196 198.001 4.93643 10.3839
  197 80.3453 2.39496 -14.8523
  198 80.3453 2.39496 -14.8523
  199 225.823 10.2593 5.77034
  200 225.823 10.2593 5.77034
  201 147.214 -1.74963 -5.75013
  202 147.214 -1.74963 -5.75013
  203 136.571 0.766826 2.04179
  204 136.571 0.766826 2.04179
  205 153.341 -5.92723 -2.68703
  206 153.341 -5.92723 -2.68703
  207 168.095 -8.59524 -0.267749
  208 168.095 -8.59524 -0.267749
  209 10.3807 -61.4152 4.79073
  210 10.3807 -61.4152 4.79073
  211 141.024 0.791201 -4.97499
  212 141.024 0.791201 -4.97499
  213 139.795 1.13432 4.36708
  214 139.795 1.13432 4.36708
  215 134.535 -12.2734 -21.5206
  216 134.535 -12.2734 -21.5206
  217 157.246 -3.32896 -4.06550
  218 157.246 -3.32896 -4.06550
  219 128.091 4.68324 -7.64790
  220 128.091 4.68324 -7.64790
  221 35.2925 -44.8629 36.0726
  222 35.2925 -44.8629 36.0726
  223 159.178 0.576840 6.10374
  224 159.178 0.576840 6.10374
  225 154.225 3.82553 -5.05212
  226 154.225 3.82553 -5.05212
  227 223.057 13.3665 -9.69650
  228 223.057 13.3665 -9.69650
  229 168.632 -6.41634 -3.62720
  230 168.632 -6.41634 -3.62720
  231 185.448 -9.58079 -30.8747
  232 185.448 -9.58079 -30.8747
  233 134.868 -6.05550 16.7088
  234 134.868 -6.05550 16.7088
  235 131.813 3.80847 0.615216
  236 131.813 3.80847 0.615216
  237 69.3744 -10.4713 30.8545
  238 69.3744 -10.4713 30.8545
  239 177.491 -16.2170 36.4664
  240 177.491 -16.2170 36.4664
  241 46.6676 -6.63394 -15.1712
  242 46.6676 -6.63394 -15.1712
  243 156.775 -11.6866 -7.08118
  244 156.775 -11.6866 -7.08118
  245 126.731 5.80027 4.45186
  246 126.731 5.80027 4.45186
  247 4.69709 -79.4156 -3.83863
  248 4.69709 -79.4156 -3.83863
  249 8.78665 -70.3106 12.7786
  250 8.78665 -70.3106 12.7786
  251 129.269 0.918265 12.1421
  252 129.269 0.918265 12.1421
  253 135.218 0.523521 0.509777
  254 135.218 0.523521 0.509777
  255 133.972 2.22692 0.0959643
  256 133.972 2.22692 0.0959643
  257 125.578 -1.54050 -16.0394
  258 125.578 -1.54050 -16.0394
  259 135.314 0.475192 -0.539801
  260 135.314 0.475192 -0.539801
  261 150.320 -10.5047 9.73470
  262 150.320 -10.5047 9.73470
  263 139.138 0.509131 -2.46878
  264 139.138 0.509131 -2.46878
  265 107.256 -9.08075 -29.4923
  266 107.256 -9.08075 -29.4923
  267 184.131 14.0440 -1.19431
  268 184.131 14.0440 -1.19431
  269 133.792 3.03493 -6.28664
  270 133.792 3.03493 -6.28664
  271 133.231 2.84213 -1.28488
  272 133.231 2.84213 -1.28488
  273 112.608 5.49041 -11.0831
  274 112.608 5.49041 -11.0831
  275 33.7102 -13.9680 8.65084
  276 33.7102 -13.9680 8.65084
  277 143.909 -23.6188 29.9035
  278 143.909 -23.6188 29.9035
  279 134.762 2.05114 2.50503
  280 134.762 2.05114 2.50503
  281 201.693 14.3803 -2.81921
  282 201.693 14.3803 -2.81921
  283 243.790 19.4861 27.2658
  284 243.790 19.4861 27.2658
  285 161.701 -17.1104 9.28557
  286 161.701 -17.1104 9.28557
  287 114.867 5.78215 8.17006
  288 114.867 5.78215 8.17006
  289 148.367 -29.2013 39.3655
  290 148.367 -29.2013 39.3655
  291 152.144 -1.74241 3.66975
  292 152.144 -1.74241 3.66975
  293 134.680 1.35272 0.694480
  294 134.680 1.35272 0.694480
  295 132.638 3.71496 -4.04849
  296 132.638 3.71496 -4.04849
  297 134.010 2.19072 -0.190645
  298 134.010 2.19072 -0.190645
  299 136.096 0.383060 -0.969944
  300 136.096 0.383060 -0.969944
  301 138.992 0.709904 2.47857
  302 138.992 0.709904 2.47857
  303 131.857 3.78740 -1.04630
  304 131.857 3.78740 -1.04630
  305 30.3552 -52.3996 -34.1533
  306 30.3552 -52.3996 -34.1533
  307 89.5358 5.76386 7.51805
  308 89.5358 5.76386 7.51805
  309 134.851 1.12684 -0.668301
  310 134.851 1.12684 -0.668301
  311 118.134 6.87963 -5.47939
  312 118.134 6.87963 -5.47939
  313 118.424 7.50382 2.10158
  314 118.424 7.50382 2.10158
  315 134.538 1.97237 -1.78087
  316 134.538 1.97237 -1.78087
  317 181.631 9.05122 0.529870
  318 181.631 9.05122 0.529870
  319 133.462 3.29227 5.53192
  320 133.462 3.29227 5.53192
  321 171.121 5.11630 -5.40767
  322 171.121 5.11630 -5.40767
  323 256.936 7.37982 16.9600
  324 256.936 7.37982 16.9600
  325 132.921 3.41044 3.50535
  326 132.921 3.41044 3.50535
  327 130.683 4.50826 1.83359
  328 130.683 4.50826 1.83359
  329 103.633 -24.6699 -54.7681
  330 103.633 -24.6699 -54.7681
  331 136.173 0.346592 0.949167
  332 136.173 0.346592 0.949167
  333 133.089 2.86540 0.959471
  334 133.089 2.86540 0.959471
  335 127.918 5.82284 0.209643
  336 127.918 5.82284 0.209643
  337 65.9507 -23.5554 44.4493
  338 65.9507 -23.5554 44.4493
  339 165.422 10.7561 0.949059
  340 165.422 10.7561 0.949059
  341 9.59417 -68.9077 -14.9550
  342 9.59417 -68.9077 -14.9550
  343 102.179 6.45778 6.73743
  344 102.179 6.45778 6.73743
  345 242.901 3.43670 2.44090
  346 242.901 3.43670 2.44090
  347 253.363 12.6116 -17.3566
  348 253.363 12.6116 -17.3566
  349 116.435 -13.3709 32.9873
  350 121.268 -6.90356 24.5825
  351 116.435 -13.3709 32.9873
  352 121.268 -6.90356 24.5825
  353 246.336 6.29597 8.99343
  354 246.336 6.29597 8.99343
  355 137.943 -0.157350 9.47800
  356 137.943 -0.157350 9.47800
  357 164.824 -22.1839 -22.7623
  358 164.824 -22.1839 -22.7623
  359 155.276 -1.37902 4.90458
  360 155.276 -1.37902 4.90458
  361 106.364 -24.5229 60.1837
  362 106.364 -24.5229 60.1837
  363 181.889 14.6265 -0.514384
  364 181.889 14.6265 -0.514384
  365 246.550 2.34175 -1.89696
  366 246.550 2.34175 -1.89696
  367 147.269 0.118755 -4.66622
  368 147.269 0.118755 -4.66622
  369 130.693 4.78975 -2.19104
  370 130.693 4.78975 -2.19104
  371 204.241 15.8164 4.57754
  372 204.241 15.8164 4.57754
  373 154.920 6.40397 -1.06685
  374 154.920 6.40397 -1.06685
  375 141.760 0.566350 -3.03988
  376 141.760 0.566350 -3.03988
  377 37.6552 -19.4863 -25.3510
  378 37.6552 -19.4863 -25.3510
  379 156.887 -2.80009 1.51667
  380 156.887 -2.80009 1.51667
  381 133.762 -0.175523 -11.1488
  382 133.762 -0.175523 -11.1488
  383 153.988 -0.351200 -5.82493
  384 153.988 -0.351200 -5.82493
  385 247.378 4.45650 -7.48106
  386 247.378 4.45650 -7.48106
  387 134.170 2.11354 1.40960
  388 134.170 2.11354 1.40960
  389 163.931 7.84745 5.04129
  390 163.931 7.84745 5.04129
  391 178.001 -4.23308 0.601021
  392 178.001 -4.23308 0.601021
  393 134.704 2.48058 -3.12393
  394 134.704 2.48058 -3.12393
  395 261.872 22.7148 -31.8019
  396 261.872 22.7148 -31.8019
  397 154.991 -2.20168 -1.48287
  398 154.991 -2.20168 -1.48287
</Section>

newXOutput 40

<Section columns = "stress_xx | stress_yy | stress_xy">
  1 138.459 0.133547 -0.164860
  2 138.517 0.167120 0.222526
  3 138.459 0.133547 -0.164860
  4 138.517 0.167120 0.222526
  5 217.873 10.9850 58.4316
  6 226.671 10.4481 -57.4474
  7 217.873 10.9850 58.4316
  8 226.671 10.4481 -57.4474
  9 138.826 0.0955803 -0.431476
  10 140.049 0.170842 -0.763554
  11 141.805 0.391371 -1.54039
  12 145.823 0.151799 -2.05580
  13 150.925 0.263776 -3.32218
  14 156.811 -1.34305 -3.19655
  15 162.061 -1.64416 -0.250914
  16 159.014 -1.15063 2.92585
  17 152.331 1.13049 5.02427
  18 148.714 2.86093 -0.193360
  19 151.379 1.38291 -4.69867
  20 158.815 -1.70269 -3.57014
  21 160.537 -1.99357 0.937218
  22 157.636 -0.890840 2.74304
  23 149.822 0.0819244 3.32840
  24 145.456 0.567229 2.59742
  25 141.901 0.448933 1.48209
  26 140.066 0.137201 0.700258
  27 138.900 0.112621 0.415712
  28 138.741 0.503829 0.260207
  29 138.472 1.03836 0.300761
  30 137.813 1.81135 0.266561
  31 137.549 2.10849 -0.0258769
  32 137.891 1.71728 -0.320559
  33 138.367 1.13194 -0.275804
  34 138.577 0.570051 -0.289286
  35 138.826 0.0955803 -0.431476
  36 140.049 0.170842 -0.763554
  37 141.805 0.391371 -1.54039
  38 145.823 0.151799 -2.05580
  39 150.925 0.263776 -3.32218
  40 156.811 -1.34305 -3.19655
  41 162.061 -1.64416 -0.250914
  42 159.014 -1.15063 2.92585
  43 152.331 1.13049 5.02427
  44 148.714 2.86093 -0.193360
  45 151.379 1.38291 -4.69867
  46 158.815 -1.70269 -3.57014
  47 160.537 -1.99357 0.937218
  48 157.636 -0.890840 2.74304
  49 149.822 0.0819244 3.32840
  50 145.456 0.567229 2.59742
  51 141.901 0.448933 1.48209
  52 140.066 0.137201 0.700258
  53 138.900 0.112621 0.415712
  54 138.741 0.503829 0.260207
  55 138.472 1.03836 0.300761
  56 137.813 1.81135 0.266561
  57 137.549 2.10849 -0.0258769
  58 137.891 1.71728 -0.320559
  59 138.367 1.13194 -0.275804
  60 138.577 0.570051 -0.289286
  61 303.568 15.2174 31.1661
  62 276.362 4.57734 11.2585
  63 260.131 1.99878 4.23467
  64 256.691 1.42986 0.869367
  65 260.027 1.87273 -3.62912
  66 272.299 3.95120 -9.83836
  67 306.381 13.2687 -26.8146
  68 39.6863 -46.5948 -46.8732
  69 7.84344 -99.7816 -11.3275
  70 2.45070 -112.089 -4.97340
  71 2.33446 -109.937 -2.72101
  72 3.76345 -107.308 5.30505
  73 8.44658 -96.7431 11.9578
  74 43.2711 -43.6368 52.0633
  75 303.568 15.2174 31.1661
  76 276.362 4.57734 11.2585
  77 260.131 1.99878 4.23467
  78 256.691 1.42986 0.869367
  79 260.027 1.87273 -3.62912
  80 272.299 3.95120 -9.83836
  81 306.381 13.2687 -26.8146
  82 39.6863 -46.5948 -46.8732
  83 7.84344 -99.7816 -11.3275
  84 2.45070 -112.089 -4.97340
  85 2.33446 -109.937 -2.72101
  86 3.76345 -107.308 5.30505
  87 8.44658 -96.7431 11.9578
  88 43.2711 -43.6368 52.0633
  89 126.744 7.34378 -1.92471
  90 126.744 7.34378 -1.92471
  91 115.655 1.57975 17.1662
  92 111.080 -0.725203 -20.4065
  93 115.655 1.57975 17.1662
  94 111.080 -0.725203 -20.4065
  95 64.7043 1.38456 8.12597
  96 64.7043 1.38456 8.12597
  97 170.855 10.9113 -2.97431
  98 174.545 6.06242 6.12380
  99 170.855 10.9113 -2.97431
  100 174.545 6.06242 6.12380
  101 136.369 3.36116 1.96497
  102 136.369 3.36116 1.96497
  103 163.963 -9.31664 -0.372955
  104 163.963 -9.31664 -0.372955
  105 136.552 3.50991 -2.42156
  106 136.552 3.50991 -2.42156
  107 161.484 -19.7694 -17.5878
  108 161.484 -19.7694 -17.5878
  109 112.322 -23.2228 44.4669
  110 112.322 -23.2228 44.4669
  111 75.2976 -13.7836 -35.7106
  112 75.2976 -13.7836 -35.7106
  113 137.161 2.35444 8.24943
  114 137.161 2.35444 8.24943
  115 142.371 1.01868 -7.86017
  116 142.371 1.01868 -7.86017
  117 194.215 12.6624 0.883281
  118 208.473 13.6654 1.02542
  119 194.215 12.6624 0.883281
  120 208.473 13.6654 1.02542
  121 203.913 16.9739 -4.49613
  122 203.913 16.9739 -4.49613
  123 21.8969 -36.8131 -11.3654
  124 21.8969 -36.8131 -11.3654
  125 175.848 -21.9620 18.6050
  126 175.848 -21.9620 18.6050
  127 147.361 -3.50937 9.08924
  128 147.361 -3.50937 9.08924
  129 33.3378 -31.8750 26.2983
  130 33.3378 -31.8750 26.2983
  131 136.576 2.81322 -0.125672
  132 136.576 2.81322 -0.125672
  133 147.173 -6.80077 -11.5240
  134 147.173 -6.80077 -11.5240
  135 138.881 1.14972 1.43411
  136 138.881 1.14972 1.43411
  137 139.021 1.00944 -1.33979
  138 139.021 1.00944 -1.33979
  139 140.601 1.97860 -4.21202
  140 140.601 1.97860 -4.21202
  141 139.923 1.92322 3.80291
  142 139.923 1.92322 3.80291
  143 133.684 4.66716 -0.151841
  144 133.684 4.66716 -0.151841
  145 111.108 7.42632 -0.872192
  146 111.108 7.42632 -0.872192
  147 163.000 -5.84055 2.99662
  148 163.000 -5.84055 2.99662
  149 187.255 -7.09481 -6.07542
  150 187.255 -7.09481 -6.07542
  151 143.902 -15.9146 22.2381
  152 143.902 -15.9146 22.2381
  153 108.702 -29.5273 -49.3630
  154 108.702 -29.5273 -49.3630
  155 127.114 5.26050 7.83894
  156 127.114 5.26050 7.83894
  157 165.757 -1.10893 -6.67792
  158 165.757 -1.10893 -6.67792
  159 228.382 17.8275 12.2784
  160 228.382 17.8275 12.2784
  161 113.279 -31.4264 57.3859
  162 113.279 -31.4264 57.3859
  163 233.906 7.92639 -2.61664
  164 233.906 7.92639 -2.61664
  165 133.139 4.64752 3.69607
  166 133.139 4.64752 3.69607
  167 126.363 4.34052 -11.4125
  168 126.363 4.34052 -11.4125
  169 156.662 4.63564 3.87536
  170 156.662 4.63564 3.87536
  171 131.842 5.53395 -4.18355
  172 131.842 5.53395 -4.18355
  173 137.458 2.26362 0.626805
  174 137.458 2.26362 0.626805
  175 139.880 1.09849 -2.26783
  176 139.880 1.09849 -2.26783
  177 218.805 16.3808 -11.6329
  178 218.805 16.3808 -11.6329
  179 137.579 2.20121 -0.757871
  180 137.579 2.20121 -0.757871
  181 100.551 7.33991 -5.89437
  182 100.551 7.33991 -5.89437
  183 183.885 13.4847 1.74320
  184 183.885 13.4847 1.74320
  185 36.7332 -31.3233 -34.0063
  186 36.7332 -31.3233 -34.0063
  187 99.4254 -1.15379 24.7726
  188 99.4254 -1.15379 24.7726
  189 134.258 -21.4678 -34.4783
  190 134.258 -21.4678 -34.4783
  191 158.525 -4.30400 1.66939
  192 158.525 -4.30400 1.66939
  193 148.204 -0.454900 5.70690
  194 148.204 -0.454900 5.70690
  195 203.094 5.07794 10.6759
  196 203.094 5.07794 10.6759
  197 82.4434 2.46024 -15.2389
  198 82.4434 2.46024 -15.2389
  199 231.616 10.5196 5.92188
  200 231.616 10.5196 5.92188
  201 151.019 -1.79572 -5.89972
  202 151.019 -1.79572 -5.89972
  203 140.106 0.786381 2.09326
  204 140.106 0.786381 2.09326
  205 157.303 -6.08157 -2.76166
  206 157.303 -6.08157 -2.76166
  207 172.432 -8.81470 -0.288717
  208 172.432 -8.81470 -0.288717
  209 10.6501 -63.0107 4.92020
  210 10.6501 -63.0107 4.92020
  211 144.672 0.810893 -5.10204
  212 144.672 0.810893 -5.10204
  213 143.412 1.16313 4.47831
  214 143.412 1.16313 4.47831
  215 138.015 -12.5921 -22.0813
  216 138.015 -12.5921 -22.0813
  217 161.312 -3.41515 -4.16291
  218 161.312 -3.41515 -4.16291
  219 131.414 4.80374 -7.84419
  220 131.414 4.80374 -7.84419
  221 36.2086 -46.0146 37.0353
  222 36.2086 -46.0146 37.0353
  223 163.296 0.593947 6.25221
  224 163.296 0.593947 6.25221
  225 158.223 3.92616 -5.17659
  226 158.223 3.92616 -5.17659
  227 228.784 13.7087 -9.95411
  228 228.784 13.7087 -9.95411
  229 172.983 -6.57929 -3.70668
  230 172.983 -6.57929 -3.70668
  231 190.213 -9.80718 -31.6997
  232 190.213 -9.80718 -31.6997
  233 138.358 -6.21258 17.1421
  234 138.358 -6.21258 17.1421
  235 135.230 3.90597 0.630789
  236 135.230 3.90597 0.630789
  237 71.1829 -10.7400 31.6628
  238 71.1829 -10.7400 31.6628
  239 182.051 -16.6196 37.4347
  240 182.051 -16.6196 37.4347
  241 47.8913 -6.79878 -15.5700
  242 47.8913 -6.79878 -15.5700
  243 160.821 -11.9895 -7.27214
  244 160.821 -11.9895 -7.27214
  245 130.020 5.94949 4.56569
  246 130.020 5.94949 4.56569
  247 4.81657 -81.4869 -3.94330
  248 4.81657 -81.4869 -3.94330
  249 9.01387 -72.1368 13.1262
  250 9.01387 -72.1368 13.1262
  251 132.620 0.941793 12.4552
  252 132.620 0.941793 12.4552
  253 138.720 0.536950 0.522544
  254 138.720 0.536950 0.522544
  255 137.443 2.28374 0.0983819
  256 137.443 2.28374 0.0983819
  257 128.834 -1.58059 -16.4544
  258 128.834 -1.58059 -16.4544
  259 138.817 0.487406 -0.553323
  260 138.817 0.487406 -0.553323
  261 154.203 -10.7772 9.99186
  262 154.203 -10.7772 9.99186
  263 142.737 0.522035 -2.53115
  264 142.737 0.522035 -2.53115
  265 110.039 -9.31636 -30.2599
  266 110.039 -9.31636 -30.2599
  267 188.886 14.4079 -1.21493
  268 188.886 14.4079 -1.21493
  269 137.259 3.11256 -6.44719
  270 137.259 3.11256 -6.44719
  271 136.684 2.91481 -1.31727
  272 136.684 2.91481 -1.31727
  273 115.536 5.63291 -11.3691
  274 115.536 5.63291 -11.3691
  275 34.5950 -14.3206 8.87963
  276 34.5950 -14.3206 8.87963
  277 147.622 -24.2321 30.6863
  278 147.622 -24.2321 30.6863
  279 138.252 2.10360 2.56828
  280 138.252 2.10360 2.56828
  281 206.889 14.7489 -2.89743
  282 206.889 14.7489 -2.89743
  283 250.029 20.0066 27.9864
  284 250.029 20.0066 27.9864
  285 165.870 -17.5526 9.53718
  286 165.870 -17.5526 9.53718
  287 117.853 5.93193 8.38033
  288 117.853 5.93193 8.38033
  289 152.189 -29.9582 40.3972
  290 152.189 -29.9582 40.3972
  291 156.074 -1.78813 3.76594
  292 156.074 -1.78813 3.76594
  293 138.169 1.38730 0.711914
  294 138.169 1.38730 0.711914
  295 136.075 3.81013 -4.15132
  296 136.075 3.81013 -4.15132
  297 137.482 2.24662 -0.195433
  298 137.482 2.24662 -0.195433
  299 139.619 0.392873 -0.994295
  300 139.619 0.392873 -0.994295
  301 142.588 0.727961 2.54119
  302 142.588 0.727961 2.54119
  303 135.275 3.88437 -1.07279
  304 135.275 3.88437 -1.07279
  305 31.1422 -53.7440 -35.0672
  306 31.1422 -53.7440 -35.0672
  307 91.8727 5.91546 7.71273
  308 91.8727 5.91546 7.71273
  309 138.343 1.15567 -0.685063
  310 138.343 1.15567 -0.685063
  311 121.204 7.05729 -5.62032
  312 121.204 7.05729 -5.62032
  313 121.502 7.69758 2.15544
  314 121.502 7.69758 2.15544
  315 138.023 2.02282 -1.82576
  316 138.023 2.02282 -1.82576
  317 186.317 9.29240 0.525063
  318 186.317 9.29240 0.525063
  319 136.920 3.37661 5.67285
  320 136.920 3.37661 5.67285
  321 175.541 5.25238 -5.53366
  322 175.541 5.25238 -5.53366
  323 263.497 7.56672 17.3989
  324 263.497 7.56672 17.3989
  325 136.365 3.49779 3.59426
  326 136.365 3.49779 3.59426
  327 134.072 4.62380 1.88010
  328 134.072 4.62380 1.88010
  329 106.302 -25.2695 -56.2205
  330 106.302 -25.2695 -56.2205
  331 139.698 0.355466 0.972990
  332 139.698 0.355466 0.972990
  333 136.538 2.93866 0.983670
  334 136.538 2.93866 0.983670
  335 131.238 5.97239 0.214964
  336 131.238 5.97239 0.214964
  337 67.6667 -24.1645 45.6207
  338 67.6667 -24.1645 45.6207
  339 169.705 11.0358 0.971208
  340 169.705 11.0358 0.971208
  341 9.84122 -70.6966 -15.3592
  342 9.84122 -70.6966 -15.3592
  343 104.842 6.62593 6.91122
  344 104.842 6.62593 6.91122
  345 249.106 3.52250 2.50247
  346 249.106 3.52250 2.50247
  347 259.841 12.9377 -17.8078
  348 259.841 12.9377 -17.8078
  349 119.450 -13.7184 33.8459
  350 124.411 -7.08256 25.2198
  351 119.450 -13.7184 33.8459
  352 124.411 -7.08256 25.2198
  353 252.630 6.45432 9.22408
  354 252.630 6.45432 9.22408
  355 141.513 -0.162000 9.72232
  356 141.513 -0.162000 9.72232
  357 169.067 -22.7559 -23.3652
  358 169.067 -22.7559 -23.3652
  359 159.295 -1.41410 5.02517
  360 159.295 -1.41410 5.02517
  361 109.098 -25.1210 61.7755
  362 109.098 -25.1210 61.7755
  363 186.589 15.0036 -0.527286
  364 186.589 15.0036 -0.527286
  365 252.843 2.39998 -1.94530
  366 252.843 2.39998 -1.94530
  367 151.074 0.121091 -4.78601
  368 151.074 0.121091 -4.78601
  369 134.081 4.91257 -2.24668
  370 134.081 4.91257 -2.24668
  371 209.500 16.2242 4.70624
  372 209.500 16.2242 4.70624
  373 158.937 6.57108 -1.09317
  374 158.937 6.57108 -1.09317
  375 145.425 0.580556 -3.11702
  376 145.425 0.580556 -3.11702
  377 38.6434 -19.9845 -26.0219
  378 38.6434 -19.9845 -26.0219
  379 160.940 -2.87280 1.55118
  380 160.940 -2.87280 1.55118
  381 137.227 -0.180660 -11.4368
  382 137.227 -0.180660 -11.4368
  383 157.976 -0.359796 -5.96865
  384 157.976 -0.359796 -5.96865
  385 253.697 4.56884 -7.67235
  386 253.697 4.56884 -7.67235
  387 137.646 2.16756 1.44510
  388 137.646 2.16756 1.44510
  389 168.173 8.05296 5.16267
  390 168.173 8.05296 5.16267
  391 182.587 -4.33592 0.635021
  392 182.587 -4.33592 0.635021
  393 138.194 2.54404 -3.20295
  394 138.194 2.54404 -3.20295
  395 268.561 23.3249 -32.6397
  396 268.561 23.3249 -32.6397
  397 158.994 -2.25940 -1.52340
  398 158.994 -2.25940 -1.52340
</Section>

newXOutput 41

<Section columns = "stress_xx | stress_yy | stress_xy">
  1 141.952 0.136939 -0.168864
  2 142.011 0.171342 0.227927
  3 141.952 0.136939 -0.168864
  4 142.011 0.171342 0.227927
  5 223.291 11.3148 59.9316
  6 232.303 10.7668 -58.9229
  7 223.291 11.3148 59.9316
  8 232.303 10.7668 -58.9229
  9 142.328 0.0979853 -0.441973
  10 143.580 0.175113 -0.782181
  11 145.379 0.401092 -1.57812
  12 149.494 0.155484 -2.10637
  13 154.721 0.269990 -3.40463
  14 160.753 -1.37764 -3.27711
  15 166.135 -1.68607 -0.259218
  16 163.021 -1.17961 2.99539
  17 156.181 1.15999 5.14570
  18 152.478 2.93424 -0.198079
  19 155.206 1.41816 -4.81251
  20 162.818 -1.74570 -3.65495
  21 164.574 -2.04443 0.963174
  22 161.599 -0.913720 2.81235
  23 153.592 0.0834442 3.41121
  24 149.118 0.581200 2.66140
  25 145.477 0.460086 1.51836
  26 143.597 0.140633 0.717330
  27 142.403 0.115461 0.425839
  28 142.240 0.516414 0.266518
  29 141.965 1.06423 0.308082
  30 141.290 1.85636 0.273066
  31 141.020 2.16085 -0.0265082
  32 141.370 1.75997 -0.328369
  33 141.857 1.16013 -0.282483
  34 142.072 0.584309 -0.296332
  35 142.328 0.0979853 -0.441973
  36 143.580 0.175113 -0.782181
  37 145.379 0.401092 -1.57812
  38 149.494 0.155484 -2.10637
  39 154.721 0.269990 -3.40463
  40 160.753 -1.37764 -3.27711
  41 166.135 -1.68607 -0.259218
  42 163.021 -1.17961 2.99539
  43 156.181 1.15999 5.14570
  44 152.478 2.93424 -0.198079
  45 155.206 1.41816 -4.81251
  46 162.818 -1.74570 -3.65495
  47 164.574 -2.04443 0.963174
  48 161.599 -0.913720 2.81235
  49 153.592 0.0834442 3.41121
  50 149.118 0.581200 2.66140
  51 145.477 0.460086 1.51836
  52 143.597 0.140633 0.717330
  53 142.403 0.115461 0.425839
  54 142.240 0.516414 0.266518
  55 141.965 1.06423 0.308082
  56 141.290 1.85636 0.273066
  57 141.020 2.16085 -0.0265082
  58 141.370 1.75997 -0.328369
  59 141.857 1.16013 -0.282483
  60 142.072 0.584309 -0.296332
  61 311.082 15.6042 31.9488
  62 283.210 4.68980 11.5374
  63 266.586 2.04642 4.33827
  64 263.062 1.46419 0.889974
  65 266.479 1.91803 -3.71766
  66 279.049 4.04785 -10.0809
  67 313.966 13.6056 -27.4885
  68 40.6839 -47.7203 -48.0917
  69 8.04061 -102.312 -11.6334
  70 2.50839 -114.956 -5.10721
  71 2.38952 -112.752 -2.79063
  72 3.85547 -110.049 5.44807
  73 8.66000 -99.1954 12.2815
  74 44.3549 -44.6871 53.4147
  75 311.082 15.6042 31.9488
  76 283.210 4.68980 11.5374
  77 266.586 2.04642 4.33827
  78 263.062 1.46419 0.889974
  79 266.479 1.91803 -3.71766
  80 279.049 4.04785 -10.0809
  81 313.966 13.6056 -27.4885
  82 40.6839 -47.7203 -48.0917
  83 8.04061 -102.312 -11.6334
  84 2.50839 -114.956 -5.10721
  85 2.38952 -112.752 -2.79063
  86 3.85547 -110.049 5.44807
  87 8.66000 -99.1954 12.2815
  88 44.3549 -44.6871 53.4147
  89 129.950 7.52797 -1.97275
  90 129.950 7.52797 -1.97275
  91 118.582 1.62020 17.5984
  92 113.892 -0.742887 -20.9216
  93 118.582 1.62020 17.5984
  94 113.892 -0.742887 -20.9216
  95 66.3561 1.42486 8.33241
  96 66.3561 1.42486 8.33241
  97 175.162 11.1877 -3.04338
  98 178.937 6.21923 6.26355
  99 175.162 11.1877 -3.04338
  100 178.937 6.21923 6.26355
  101 139.811 3.44490 2.01331
  102 139.811 3.44490 2.01331
  103 168.086 -9.55113 -0.372018
  104 168.086 -9.55113 -0.372018
  105 139.998 3.59742 -2.48119
  106 139.998 3.59742 -2.48119
  107 165.538 -20.2684 -18.0398
  108 165.538 -20.2684 -18.0398
  109 115.154 -23.8108 45.5995
  110 115.154 -23.8108 45.5995
  111 77.2070 -14.1296 -36.6228
  112 77.2070 -14.1296 -36.6228
  113 140.622 2.41297 8.45536
  114 140.622 2.41297 8.45536
  115 145.959 1.04344 -8.05687
  116 145.959 1.04344 -8.05687
  117 199.093 12.9871 0.924298
  118 213.701 14.0053 1.05427
  119 199.093 12.9871 0.924298
  120 213.701 14.0053 1.05427
  121 209.031 17.4039 -4.62414
  122 209.031 17.4039 -4.62414
  123 22.4545 -37.7353 -11.6615
  124 22.4545 -37.7353 -11.6615
  125 180.255 -22.5103 19.0907
  126 180.255 -22.5103 19.0907
  127 151.072 -3.59851 9.31967
  128 151.072 -3.59851 9.31967
  129 34.1870 -32.6719 26.9805
  130 34.1870 -32.6719 26.9805
  131 140.023 2.88322 -0.128741
  132 140.023 2.88322 -0.128741
  133 150.879 -6.97299 -11.8173
  134 150.879 -6.97299 -11.8173
  135 142.384 1.17836 1.46920
  136 142.384 1.17836 1.46920
  137 142.527 1.03462 -1.37255
  138 142.527 1.03462 -1.37255
  139 144.146 2.02774 -4.31611
  140 144.146 2.02774 -4.31611
  141 143.451 1.97106 3.89674
  142 143.451 1.97106 3.89674
  143 137.061 4.78362 -0.155637
  144 137.061 4.78362 -0.155637
  145 113.926 7.61378 -0.894258
  146 113.926 7.61378 -0.894258
  147 167.102 -5.98708 3.06300
  148 167.102 -5.98708 3.06300
  149 191.949 -7.26306 -6.25020
  150 191.949 -7.26306 -6.25020
  151 147.523 -16.3172 22.8032
  152 147.523 -16.3172 22.8032
  153 111.437 -30.2678 -50.6301
  154 111.437 -30.2678 -50.6301
  155 130.328 5.39266 8.03495
  156 130.328 5.39266 8.03495
  157 169.930 -1.13517 -6.83488
  158 169.930 -1.13517 -6.83488
  159 234.093 18.2787 12.5992
  160 234.093 18.2787 12.5992
  161 116.129 -32.2179 58.8546
  162 116.129 -32.2179 58.8546
  163 239.744 8.12080 -2.68303
  164 239.744 8.12080 -2.68303
  165 136.502 4.76358 3.78765
  166 136.502 4.76358 3.78765
  167 129.558 4.44969 -11.6988
  168 129.558 4.44969 -11.6988
  169 160.620 4.75429 3.96866
  170 160.620 4.75429 3.96866
  171 135.174 5.67233 -4.28742
  172 135.174 5.67233 -4.28742
  173 140.926 2.31991 0.642149
  174 140.926 2.31991 0.642149
  175 143.407 1.12580 -2.32349
  176 143.407 1.12580 -2.32349
  177 224.280 16.8049 -11.9472
  178 224.280 16.8049 -11.9472
  179 141.051 2.25597 -0.776409
  180 141.051 2.25597 -0.776409
  181 103.104 7.52657 -6.04300
  182 103.104 7.52657 -6.04300
  183 188.512 13.8258 1.77649
  184 188.512 13.8258 1.77649
  185 37.6665 -32.1062 -34.8872
  186 37.6665 -32.1062 -34.8872
  187 101.945 -1.18151 25.3991
  188 101.945 -1.18151 25.3991
  189 137.636 -22.0111 -35.3563
  190 137.636 -22.0111 -35.3563
  191 162.514 -4.41314 1.71623
  192 162.514 -4.41314 1.71623
  193 151.936 -0.467095 5.85001
  194 151.936 -0.467095 5.85001
  195 208.181 5.22003 10.9688
  196 208.181 5.22003 10.9688
  197 84.5406 2.52563 -15.6253
  198 84.5406 2.52563 -15.6253
  199 237.401 10.7795 6.07339
  200 237.401 10.7795 6.07339
  201 154.821 -1.84181 -6.04922
  202 154.821 -1.84181 -6.04922
  203 143.639 0.805906 2.14461
  204 143.639 0.805906 2.14461
  205 161.261 -6.23582 -2.83647
  206 161.261 -6.23582 -2.83647
  207 176.764 -9.03381 -0.310374
  208 176.764 -9.03381 -0.310374
  209 10.9193 -64.6051 5.04984
  210 10.9193 -64.6051 5.04984
  211 148.316 0.830528 -5.22889
  212 148.316 0.830528 -5.22889
  213 147.025 1.19189 4.58936
  214 147.025 1.19189 4.58936
  215 141.492 -12.9105 -22.6417
  216 141.492 -12.9105 -22.6417
  217 165.374 -3.50126 -4.25984
  218 165.374 -3.50126 -4.25984
  219 134.734 4.92409 -8.04023
  220 134.734 4.92409 -8.04023
  221 37.1240 -47.1647 37.9986
  222 37.1240 -47.1647 37.9986
  223 167.411 0.611150 6.40007
  224 167.411 0.611150 6.40007
  225 162.217 4.02679 -5.30063
  226 162.217 4.02679 -5.30063
  227 234.503 14.0505 -10.2118
  228 234.503 14.0505 -10.2118
  229 177.329 -6.74194 -3.78537
  230 177.329 -6.74194 -3.78537
  231 194.972 -10.0323 -32.5253
  232 194.972 -10.0323 -32.5253
  233 141.846 -6.36955 17.5751
  234 141.846 -6.36955 17.5751
  235 138.645 4.00333 0.646331
  236 138.645 4.00333 0.646331
  237 72.9907 -11.0085 32.4708
  238 72.9907 -11.0085 32.4708
  239 186.606 -17.0211 38.4033
  240 186.606 -17.0211 38.4033
  241 49.1148 -6.96313 -15.9687
  242 49.1148 -6.96313 -15.9687
  243 164.864 -12.2922 -7.46331
  244 164.864 -12.2922 -7.46331
  245 133.306 6.09854 4.67934
  246 133.306 6.09854 4.67934
  247 4.93585 -83.5573 -4.04814
  248 4.93585 -83.5573 -4.04814
  249 9.24088 -73.9618 13.4745
  250 9.24088 -73.9618 13.4745
  251 135.968 0.965290 12.7680
  252 135.968 0.965290 12.7680
  253 142.218 0.550362 0.535279
  254 142.218 0.550362 0.535279
  255 140.911 2.34048 0.100794
  256 140.911 2.34048 0.100794
  257 132.087 -1.62066 -16.8691
  258 132.087 -1.62066 -16.8691
  259 142.319 0.499604 -0.566811
  260 142.319 0.499604 -0.566811
  261 158.082 -11.0496 10.2491
  262 158.082 -11.0496 10.2491
  263 146.334 0.534915 -2.59339
  264 146.334 0.534915 -2.59339
  265 112.820 -9.55180 -31.0270
  266 112.820 -9.55180 -31.0270
  267 193.636 14.7716 -1.23502
  268 193.636 14.7716 -1.23502
  269 140.722 3.19008 -6.60750
  270 140.722 3.19008 -6.60750
  271 140.134 2.98738 -1.34960
  272 140.134 2.98738 -1.34960
  273 118.463 5.77531 -11.6549
  274 118.463 5.77531 -11.6549
  275 35.4797 -14.6724 9.10848
  276 35.4797 -14.6724 9.10848
  277 151.330 -24.8449 31.4688
  278 151.330 -24.8449 31.4688
  279 141.740 2.15598 2.63140
  280 141.740 2.15598 2.63140
  281 212.079 15.1170 -2.97585
  282 212.079 15.1170 -2.97585
  283 256.260 20.5275 28.7071
  284 256.260 20.5275 28.7071
  285 170.036 -17.9944 9.78914
  286 170.036 -17.9944 9.78914
  287 120.838 6.08159 8.59035
  288 120.838 6.08159 8.59035
  289 156.007 -30.7145 41.4288
  290 156.007 -30.7145 41.4288
  291 160.000 -1.83384 3.86211
  292 160.000 -1.83384 3.86211
  293 141.655 1.42183 0.729305
  294 141.655 1.42183 0.729305
  295 139.510 3.90517 -4.25396
  296 139.510 3.90517 -4.25396
  297 140.951 2.30245 -0.200209
  298 140.951 2.30245 -0.200209
  299 143.140 0.402673 -1.01859
  300 143.140 0.402673 -1.01859
  301 146.181 0.745986 2.60367
  302 146.181 0.745986 2.60367
  303 138.690 3.98120 -1.09922
  304 138.690 3.98120 -1.09922
  305 31.9287 -55.0867 -35.9818
  306 31.9287 -55.0867 -35.9818
  307 94.2085 6.06704 7.90724
  308 94.2085 6.06704 7.90724
  309 141.833 1.18445 -0.701784
  310 141.833 1.18445 -0.701784
  311 124.273 7.23479 -5.76109
  312 124.273 7.23479 -5.76109
  313 124.578 7.89115 2.20923
  314 124.578 7.89115 2.20923
  315 141.505 2.07318 -1.87054
  316 141.505 2.07318 -1.87054
  317 190.998 9.53373 0.519335
  318 190.998 9.53373 0.519335
  319 140.375 3.46083 5.81355
  320 140.375 3.46083 5.81355
  321 179.958 5.38853 -5.65885
  322 179.958 5.38853 -5.65885
  323 270.048 7.75326 17.8374
  324 270.048 7.75326 17.8374
  325 139.807 3.58501 3.68300
  326 139.807 3.58501 3.68300
  327 137.458 4.73919 1.92652
  328 137.458 4.73919 1.92652
  329 108.969 -25.8666 -57.6734
  330 108.969 -25.8666 -57.6734
  331 143.221 0.364328 0.996756
  332 143.221 0.364328 0.996756
  333 139.984 3.01180 1.00782
  334 139.984 3.01180 1.00782
  335 134.554 6.12175 0.220276
  336 134.554 6.12175 0.220276
  337 69.3816 -24.7730 46.7922
  338 69.3816 -24.7730 46.7922
  339 173.985 11.3153 0.993217
  340 173.985 11.3153 0.993217
  341 10.0880 -72.4843 -15.7639
  342 10.0880 -72.4843 -15.7639
  343 107.503 6.79399 7.08483
  344 107.503 6.79399 7.08483
  345 255.302 3.60807 2.56391
  346 255.302 3.60807 2.56391
  347 266.309 13.2636 -18.2587
  348 266.309 13.2636 -18.2587
  349 122.464 -14.0657 34.7041
  350 127.551 -7.26143 25.8566
  351 122.464 -14.0657 34.7041
  352 127.551 -7.26143 25.8566
  353 258.915 6.61232 9.45442
  354 258.915 6.61232 9.45442
  355 145.081 -0.166675 9.96638
  356 145.081 -0.166675 9.96638
  357 173.305 -23.3273 -23.9683
  358 173.305 -23.3273 -23.9683
  359 163.309 -1.44912 5.14534
  360 163.309 -1.44912 5.14534
  361 111.829 -25.7167 63.3677
  362 111.829 -25.7167 63.3677
  363 191.284 15.3805 -0.540155
  364 191.284 15.3805 -0.540155
  365 259.127 2.45804 -1.99357
  366 259.127 2.45804 -1.99357
  367 154.875 0.123389 -4.90563
  368 154.875 0.123389 -4.90563
  369 137.468 5.03523 -2.30222
  370 137.468 5.03523 -2.30222
  371 214.754 16.6316 4.83533
  372 214.754 16.6316 4.83533
  373 162.951 6.73811 -1.11940
  374 162.951 6.73811 -1.11940
  375 149.087 0.594729 -3.19401
  376 149.087 0.594729 -3.19401
  377 39.6316 -20.4820 -26.6931
  378 39.6316 -20.4820 -26.6931
  379 164.990 -2.94546 1.58542
  380 164.990 -2.94546 1.58542
  381 140.689 -0.185823 -11.7244
  382 140.689 -0.185823 -11.7244
  383 161.961 -0.368360 -6.11189
  384 161.961 -0.368360 -6.11189
  385 260.007 4.68094 -7.86336
  386 260.007 4.68094 -7.86336
  387 141.119 2.22150 1.48053
  388 141.119 2.22150 1.48053
  389 172.411 8.25840 5.28349
  390 172.411 8.25840 5.28349
  391 187.169 -4.43832 0.669920
  392 187.169 -4.43832 0.669920
  393 141.680 2.60742 -3.28180
  394 141.680 2.60742 -3.28180
  395 275.241 23.9356 -33.4774
  396 275.241 23.9356 -33.4774
  397 162.992 -2.31711 -1.56400
  398 162.992 -2.31711 -1.56400
</Section>

newXOutput 42

<Section columns = "stress_xx | stress_yy | stress_xy">
  1 145.441 0.140330 -0.172858
  2 145.502 0.175562 0.233313
  3 145.441 0.140330 -0.172858
  4 145.502 0.175562 0.233313
  5 228.701 11.6470 61.4316
  6 237.926 11.0880 -60.3984
  7 228.701 11.6470 61.4316
  8 237.926 11.0880 -60.3984
  9 145.826 0.100388 -0.452443
  10 147.108 0.179379 -0.800762
  11 148.949 0.410797 -1.61576
  12 153.162 0.159159 -2.15684
  13 158.514 0.276178 -3.48695
  14 164.691 -1.41224 -3.35759
  15 170.205 -1.72796 -0.267612
  16 167.024 -1.20856 3.06468
  17 160.027 1.18952 5.26678
  18 156.239 3.00755 -0.202785
  19 159.030 1.45340 -4.92603
  20 166.816 -1.78869 -3.73943
  21 168.606 -2.09527 0.989221
  22 165.557 -0.936601 2.88161
  23 157.358 0.0849360 3.49389
  24 152.777 0.595144 2.72526
  25 149.050 0.471222 1.55455
  26 147.126 0.144061 0.734359
  27 145.903 0.118299 0.435941
  28 145.737 0.528983 0.272812
  29 145.455 1.09005 0.315385
  30 144.764 1.90130 0.279555
  31 144.488 2.21312 -0.0271378
  32 144.846 1.80260 -0.336159
  33 145.344 1.18829 -0.289143
  34 145.564 0.598550 -0.303360
  35 145.826 0.100388 -0.452443
  36 147.108 0.179379 -0.800762
  37 148.949 0.410797 -1.61576
  38 153.162 0.159159 -2.15684
  39 158.514 0.276178 -3.48695
  40 164.691 -1.41224 -3.35759
  41 170.205 -1.72796 -0.267612
  42 167.024 -1.20856 3.06468
  43 160.027 1.18952 5.26678
  44 156.239 3.00755 -0.202785
  45 159.030 1.45340 -4.92603
  46 166.816 -1.78869 -3.73943
  47 168.606 -2.09527 0.989221
  48 165.557 -0.936601 2.88161
  49 157.358 0.0849360 3.49389
  50 152.777 0.595144 2.72526
  51 149.050 0.471222 1.55455
  52 147.126 0.144061 0.734359
  53 145.903 0.118299 0.435941
  54 145.737 0.528983 0.272812
  55 145.455 1.09005 0.315385
  56 144.764 1.90130 0.279555
  57 144.488 2.21312 -0.0271378
  58 144.846 1.80260 -0.336159
  59 145.344 1.18829 -0.289143
  60 145.564 0.598550 -0.303360
  61 318.584 15.9908 32.7306
  62 290.047 4.80201 11.8158
  63 273.030 2.09389 4.44163
  64 269.422 1.49840 0.910501
  65 272.919 1.96320 -3.80599
  66 285.789 4.14427 -10.3230
  67 321.538 13.9423 -28.1616
  68 41.6806 -48.8423 -49.3109
  69 8.23759 -104.840 -11.9401
  70 2.56583 -117.823 -5.24133
  71 2.44433 -115.566 -2.86025
  72 3.94728 -112.789 5.59143
  73 8.87326 -101.646 12.6060
  74 45.4375 -45.7341 54.7669
  75 318.584 15.9908 32.7306
  76 290.047 4.80201 11.8158
  77 273.030 2.09389 4.44163
  78 269.422 1.49840 0.910501
  79 272.919 1.96320 -3.80599
  80 285.789 4.14427 -10.3230
  81 321.538 13.9423 -28.1616
  82 41.6806 -48.8423 -49.3109
  83 8.23759 -104.840 -11.9401
  84 2.56583 -117.823 -5.24133
  85 2.44433 -115.566 -2.86025
  86 3.94728 -112.789 5.59143
  87 8.87326 -101.646 12.6060
  88 45.4375 -45.7341 54.7669
  89 133.154 7.71196 -2.02072
  90 133.154 7.71196 -2.02072
  91 121.507 1.66064 18.0301
  92 116.703 -0.760528 -21.4363
  93 121.507 1.66064 18.0301
  94 116.703 -0.760528 -21.4363
  95 68.0074 1.46539 8.53876
  96 68.0074 1.46539 8.53876
  97 179.465 11.4640 -3.11210
  98 183.326 6.37610 6.40248
  99 179.465 11.4640 -3.11210
  100 183.326 6.37610 6.40248
  101 143.251 3.52852 2.06156
  102 143.251 3.52852 2.06156
  103 172.206 -9.78541 -0.370574
  104 172.206 -9.78541 -0.370574
  105 143.442 3.68480 -2.54070
  106 143.442 3.68480 -2.54070
  107 169.589 -20.7670 -18.4919
  108 169.589 -20.7670 -18.4919
  109 117.984 -24.3985 46.7317
  110 117.984 -24.3985 46.7317
  111 79.1155 -14.4753 -37.5348
  112 79.1155 -14.4753 -37.5348
  113 144.080 2.47141 8.66101
  114 144.080 2.47141 8.66101
  115 149.545 1.06813 -8.25333
  116 149.545 1.06813 -8.25333
  117 203.965 13.3117 0.966191
  118 218.924 14.3446 1.08323
  119 203.965 13.3117 0.966191
  120 218.924 14.3446 1.08323
  121 214.143 17.8337 -4.75275
  122 214.143 17.8337 -4.75275
  123 23.0119 -38.6565 -11.9579
  124 23.0119 -38.6565 -11.9579
  125 184.657 -23.0578 19.5769
  126 184.657 -23.0578 19.5769
  127 154.780 -3.68762 9.54996
  128 154.780 -3.68762 9.54996
  129 35.0360 -33.4678 27.6630
  130 35.0360 -33.4678 27.6630
  131 143.468 2.95311 -0.131802
  132 143.468 2.95311 -0.131802
  133 154.581 -7.14510 -12.1104
  134 154.581 -7.14510 -12.1104
  135 145.884 1.20696 1.50422
  136 145.884 1.20696 1.50422
  137 146.030 1.05976 -1.40524
  138 146.030 1.05976 -1.40524
  139 147.688 2.07680 -4.42001
  140 147.688 2.07680 -4.42001
  141 146.977 2.01882 3.99040
  142 146.977 2.01882 3.99040
  143 140.436 4.89994 -0.159428
  144 140.436 4.89994 -0.159428
  145 116.743 7.80110 -0.916308
  146 116.743 7.80110 -0.916308
  147 171.201 -6.13344 3.12887
  148 171.201 -6.13344 3.12887
  149 196.639 -7.43064 -6.42588
  150 196.639 -7.43064 -6.42588
  151 151.140 -16.7194 23.3681
  152 151.140 -16.7194 23.3681
  153 114.170 -31.0075 -51.8973
  154 114.170 -31.0075 -51.8973
  155 133.540 5.52469 8.23072
  156 133.540 5.52469 8.23072
  157 174.099 -1.16130 -6.99115
  158 174.099 -1.16130 -6.99115
  159 239.797 18.7297 12.9202
  160 239.797 18.7297 12.9202
  161 118.976 -33.0087 60.3230
  162 118.976 -33.0087 60.3230
  163 245.574 8.31479 -2.74940
  164 245.574 8.31479 -2.74940
  165 139.863 4.87950 3.87907
  166 139.863 4.87950 3.87907
  167 132.750 4.55876 -11.9848
  168 132.750 4.55876 -11.9848
  169 164.574 4.87292 4.06166
  170 164.574 4.87292 4.06166
  171 138.503 5.81055 -4.39113
  172 138.503 5.81055 -4.39113
  173 144.392 2.37611 0.657458
  174 144.392 2.37611 0.657458
  175 146.931 1.15307 -2.37904
  176 146.931 1.15307 -2.37904
  177 229.748 17.2292 -12.2622
  178 229.748 17.2292 -12.2622
  179 144.519 2.31066 -0.794904
  180 144.519 2.31066 -0.794904
  181 105.657 7.71316 -6.19151
  182 105.657 7.71316 -6.19151
  183 193.134 14.1667 1.80924
  184 193.134 14.1667 1.80924
  185 38.5995 -32.8880 -35.7685
  186 38.5995 -32.8880 -35.7685
  187 104.464 -1.20915 26.0251
  188 104.464 -1.20915 26.0251
  189 141.012 -22.5540 -36.2339
  190 141.012 -22.5540 -36.2339
  191 166.499 -4.52221 1.76327
  192 166.499 -4.52221 1.76327
  193 155.664 -0.479315 5.99295
  194 155.664 -0.479315 5.99295
  195 213.261 5.36269 11.2626
  196 213.261 5.36269 11.2626
  197 86.6371 2.59113 -16.0115
  198 86.6371 2.59113 -16.0115
  199 243.179 11.0389 6.22488
  200 243.179 11.0389 6.22488
  201 158.619 -1.88791 -6.19864
  202 158.619 -1.88791 -6.19864
  203 147.169 0.825399 2.19584
  204 147.169 0.825399 2.19584
  205 165.215 -6.38998 -2.91148
  206 165.215 -6.38998 -2.91148
  207 181.091 -9.25259 -0.332717
  208 181.091 -9.25259 -0.332717
  209 11.1882 -66.1985 5.17965
  210 11.1882 -66.1985 5.17965
  211 151.957 0.850108 -5.35555
  212 151.957 0.850108 -5.35555
  213 150.636 1.22060 4.70022
  214 150.636 1.22060 4.70022
  215 144.965 -13.2287 -23.2018
  216 144.965 -13.2287 -23.2018
  217 169.432 -3.58731 -4.35630
  218 169.432 -3.58731 -4.35630
  219 138.051 5.04431 -8.23602
  220 138.051 5.04431 -8.23602
  221 38.0388 -48.3134 38.9626
  222 38.0388 -48.3134 38.9626
  223 171.523 0.628451 6.54734
  224 171.523 0.628451 6.54734
  225 166.208 4.12741 -5.42425
  226 166.208 4.12741 -5.42425
  227 240.214 14.3919 -10.4696
  228 240.214 14.3919 -10.4696
  229 181.672 -6.90430 -3.86327
  230 181.672 -6.90430 -3.86327
  231 199.725 -10.2561 -33.3515
  232 199.725 -10.2561 -33.3515
  233 145.330 -6.52640 18.0079
  234 145.330 -6.52640 18.0079
  235 142.057 4.10055 0.661842
  236 142.057 4.10055 0.661842
  237 74.7975 -11.2766 33.2786
  238 74.7975 -11.2766 33.2786
  239 191.155 -17.4213 39.3723
  240 191.155 -17.4213 39.3723
  241 50.3380 -7.12700 -16.3675
  242 50.3380 -7.12700 -16.3675
  243 168.903 -12.5947 -7.65471
  244 168.903 -12.5947 -7.65471
  245 136.590 6.24742 4.79283
  246 136.590 6.24742 4.79283
  247 5.05492 -85.6267 -4.15318
  248 5.05492 -85.6267 -4.15318
  249 9.46769 -75.7856 13.8233
  250 9.46769 -75.7856 13.8233
  251 139.314 0.988754 13.0805
  252 139.314 0.988754 13.0805
  253 145.714 0.563756 0.547982
  254 145.714 0.563756 0.547982
  255 144.377 2.39713 0.103201
  256 144.377 2.39713 0.103201
  257 135.338 -1.66071 -17.2835
  258 135.338 -1.66071 -17.2835
  259 145.817 0.511788 -0.580266
  260 145.817 0.511788 -0.580266
  261 161.958 -11.3218 10.5063
  262 161.958 -11.3218 10.5063
  263 149.927 0.547771 -2.65550
  264 149.927 0.547771 -2.65550
  265 115.599 -9.78707 -31.7936
  266 115.599 -9.78707 -31.7936
  267 198.381 15.1350 -1.25458
  268 198.381 15.1350 -1.25458
  269 144.183 3.26749 -6.76757
  270 144.183 3.26749 -6.76757
  271 143.581 3.05986 -1.38185
  272 143.581 3.05986 -1.38185
  273 121.388 5.91761 -11.9404
  274 121.388 5.91761 -11.9404
  275 36.3643 -15.0235 9.33738
  276 36.3643 -15.0235 9.33738
  277 155.036 -25.4574 32.2512
  278 155.036 -25.4574 32.2512
  279 145.225 2.20828 2.69438
  280 145.225 2.20828 2.69438
  281 217.263 15.4846 -3.05447
  282 217.263 15.4846 -3.05447
  283 262.481 21.0487 29.4279
  284 262.481 21.0487 29.4279
  285 174.196 -18.4357 10.0415
  286 174.196 -18.4357 10.0415
  287 123.821 6.23113 8.80013
  288 123.821 6.23113 8.80013
  289 159.820 -31.4702 42.4601
  290 159.820 -31.4702 42.4601
  291 163.922 -1.87954 3.95825
  292 163.922 -1.87954 3.95825
  293 145.137 1.45630 0.746655
  294 145.137 1.45630 0.746655
  295 142.943 4.00008 -4.35641
  296 142.943 4.00008 -4.35641
  297 144.417 2.35818 -0.204974
  298 144.417 2.35818 -0.204974
  299 146.658 0.412460 -1.04282
  300 146.658 0.412460 -1.04282
  301 149.771 0.763981 2.66603
  302 149.771 0.763981 2.66603
  303 142.103 4.07789 -1.12560
  304 142.103 4.07789 -1.12560
  305 32.7145 -56.4276 -36.8972
  306 32.7145 -56.4276 -36.8972
  307 96.5434 6.21862 8.10160
  308 96.5434 6.21862 8.10160
  309 145.320 1.21320 -0.718464
  310 145.320 1.21320 -0.718464
  311 127.339 7.41211 -5.90169
  312 127.339 7.41211 -5.90169
  313 127.653 8.08453 2.26295
  314 127.653 8.08453 2.26295
  315 144.985 2.12348 -1.91523
  316 144.985 2.12348 -1.91523
  317 195.674 9.77521 0.512688
  318 195.674 9.77521 0.512688
  319 143.828 3.54494 5.95402
  320 143.828 3.54494 5.95402
  321 184.370 5.52476 -5.78323
  322 184.370 5.52476 -5.78323
  323 276.590 7.93944 18.2755
  324 276.590 7.93944 18.2755
  325 143.247 3.67211 3.77158
  326 143.247 3.67211 3.77158
  327 140.842 4.85442 1.97285
  328 140.842 4.85442 1.97285
  329 111.633 -26.4612 -59.1268
  330 111.633 -26.4612 -59.1268
  331 146.740 0.373178 1.02046
  332 146.740 0.373178 1.02046
  333 143.428 3.08485 1.03191
  334 143.428 3.08485 1.03191
  335 137.869 6.27094 0.225577
  336 137.869 6.27094 0.225577
  337 71.0955 -25.3810 47.9638
  338 71.0955 -25.3810 47.9638
  339 178.261 11.5946 1.01509
  340 178.261 11.5946 1.01509
  341 10.3345 -74.2707 -16.1691
  342 10.3345 -74.2707 -16.1691
  343 110.163 6.96195 7.25826
  344 110.163 6.96195 7.25826
  345 261.489 3.69342 2.62522
  346 261.489 3.69342 2.62522
  347 272.767 13.5892 -18.7093
  348 272.767 13.5892 -18.7093
  349 125.474 -14.4127 35.5617
  350 130.689 -7.44016 26.4929
  351 125.474 -14.4127 35.5617
  352 130.689 -7.44016 26.4929
  353 265.191 6.76995 9.68445
  354 265.191 6.76995 9.68445
  355 148.646 -0.171375 10.2102
  356 148.646 -0.171375 10.2102
  357 177.538 -23.8981 -24.5716
  358 177.538 -23.8981 -24.5716
  359 167.321 -1.48408 5.26509
  360 167.321 -1.48408 5.26509
  361 114.557 -26.3100 64.9603
  362 114.557 -26.3100 64.9603
  363 195.975 15.7569 -0.552992
  364 195.975 15.7569 -0.552992
  365 265.401 2.51594 -2.04175
  366 265.401 2.51594 -2.04175
  367 158.672 0.125647 -5.02511
  368 158.672 0.125647 -5.02511
  369 140.852 5.15773 -2.35765
  370 140.852 5.15773 -2.35765
  371 220.001 17.0386 4.96481
  372 220.001 17.0386 4.96481
  373 166.962 6.90507 -1.14554
  374 166.962 6.90507 -1.14554
  375 152.746 0.608866 -3.27087
  376 152.746 0.608866 -3.27087
  377 40.6195 -20.9788 -27.3644
  378 40.6195 -20.9788 -27.3644
  379 169.037 -3.01808 1.61940
  380 169.037 -3.01808 1.61940
  381 144.148 -0.191011 -12.0118
  382 144.148 -0.191011 -12.0118
  383 165.943 -0.376891 -6.25466
  384 165.943 -0.376891 -6.25466
  385 266.307 4.79279 -8.05409
  386 266.307 4.79279 -8.05409
  387 144.589 2.27536 1.51587
  388 144.589 2.27536 1.51587
  389 176.646 8.46380 5.40375
  390 176.646 8.46380 5.40375
  391 191.746 -4.54030 0.705714
  392 191.746 -4.54030 0.705714
  393 145.163 2.67070 -3.36050
  394 145.163 2.67070 -3.36050
  395 281.910 24.5469 -34.3152
  396 281.910 24.5469 -34.3152
  397 166.986 -2.37481 -1.60467
  398 166.986 -2.37481 -1.60467
</Section>

newXOutput 43

<Section columns = "stress_xx | stress_yy | stress_xy">
  1 148.928 0.143719 -0.176840
  2 148.990 0.179778 0.238685
  3 148.928 0.143719 -0.176840
  4 148.990 0.179778 0.238685
  5 234.103 11.9815 62.9316
  6 243.540 11.4117 -61.8740
  7 234.103 11.9815 62.9316
  8 243.540 11.4117 -61.8740
  9 149.322 0.102788 -0.462886
  10 150.633 0.183640 -0.819298
  11 152.516 0.420487 -1.65331
  12 156.827 0.162824 -2.20720
  13 162.303 0.282339 -3.56914
  14 168.625 -1.44684 -3.43800
  15 174.271 -1.76984 -0.276095
  16 171.024 -1.23748 3.13369
  17 163.871 1.21908 5.38749
  18 159.998 3.08086 -0.207480
  19 162.851 1.48863 -5.03923
  20 170.812 -1.83164 -3.82358
  21 172.635 -2.14611 1.01536
  22 169.512 -0.959484 2.95083
  23 161.121 0.0863997 3.57646
  24 156.433 0.609059 2.78899
  25 152.620 0.482340 1.59065
  26 150.652 0.147485 0.751346
  27 149.401 0.121134 0.446018
  28 149.230 0.541536 0.279088
  29 148.942 1.11584 0.322670
  30 148.236 1.94617 0.286029
  31 147.953 2.26531 -0.0277660
  32 148.320 1.84515 -0.343929
  33 148.829 1.21640 -0.295784
  34 149.054 0.612773 -0.310371
  35 149.322 0.102788 -0.462886
  36 150.633 0.183640 -0.819298
  37 152.516 0.420487 -1.65331
  38 156.827 0.162824 -2.20720
  39 162.303 0.282339 -3.56914
  40 168.625 -1.44684 -3.43800
  41 174.271 -1.76984 -0.276095
  42 171.024 -1.23748 3.13369
  43 163.871 1.21908 5.38749
  44 159.998 3.08086 -0.207480
  45 162.851 1.48863 -5.03923
  46 170.812 -1.83164 -3.82358
  47 172.635 -2.14611 1.01536
  48 169.512 -0.959484 2.95083
  49 161.121 0.0863997 3.57646
  50 156.433 0.609059 2.78899
  51 152.620 0.482340 1.59065
  52 150.652 0.147485 0.751346
  53 149.401 0.121134 0.446018
  54 149.230 0.541536 0.279088
  55 148.942 1.11584 0.322670
  56 148.236 1.94617 0.286029
  57 147.953 2.26531 -0.0277660
  58 148.320 1.84515 -0.343929
  59 148.829 1.21640 -0.295784
  60 149.054 0.612773 -0.310371
  61 326.073 16.3773 33.5116
  62 296.872 4.91400 12.0937
  63 279.464 2.14119 4.54474
  64 275.773 1.53250 0.930948
  65 279.350 2.00825 -3.89410
  66 292.517 4.24047 -10.5646
  67 329.097 14.2788 -28.8341
  68 42.6763 -49.9609 -50.5310
  69 8.43438 -107.367 -12.2476
  70 2.62301 -120.689 -5.37577
  71 2.49892 -118.380 -2.92987
  72 4.03887 -115.529 5.73515
  73 9.08637 -104.096 12.9313
  74 46.5187 -46.7776 56.1198
  75 326.073 16.3773 33.5116
  76 296.872 4.91400 12.0937
  77 279.464 2.14119 4.54474
  78 275.773 1.53250 0.930948
  79 279.350 2.00825 -3.89410
  80 292.517 4.24047 -10.5646
  81 329.097 14.2788 -28.8341
  82 42.6763 -49.9609 -50.5310
  83 8.43438 -107.367 -12.2476
  84 2.62301 -120.689 -5.37577
  85 2.49892 -118.380 -2.92987
  86 4.03887 -115.529 5.73515
  87 9.08637 -104.096 12.9313
  88 46.5187 -46.7776 56.1198
  89 136.356 7.89574 -2.06862
  90 136.356 7.89574 -2.06862
  91 124.430 1.70108 18.4615
  92 119.511 -0.778126 -21.9505
  93 124.430 1.70108 18.4615
  94 119.511 -0.778126 -21.9505
  95 69.6584 1.50615 8.74501
  96 69.6584 1.50615 8.74501
  97 183.765 11.7402 -3.18048
  98 187.710 6.53304 6.54057
  99 183.765 11.7402 -3.18048
  100 187.710 6.53304 6.54057
  101 146.688 3.61203 2.10971
  102 146.688 3.61203 2.10971
  103 176.322 -10.0195 -0.368626
  104 176.322 -10.0195 -0.368626
  105 146.883 3.77206 -2.60010
  106 146.883 3.77206 -2.60010
  107 173.635 -21.2651 -18.9439
  108 173.635 -21.2651 -18.9439
  109 120.812 -24.9859 47.8635
  110 120.812 -24.9859 47.8635
  111 81.0228 -14.8207 -38.4466
  112 81.0228 -14.8207 -38.4466
  113 147.535 2.52976 8.86639
  114 147.535 2.52976 8.86639
  115 153.127 1.09275 -8.44956
  116 153.127 1.09275 -8.44956
  117 208.832 13.6364 1.00896
  118 224.140 14.6835 1.11231
  119 208.832 13.6364 1.00896
  120 224.140 14.6835 1.11231
  121 219.250 18.2631 -4.88196
  122 219.250 18.2631 -4.88196
  123 23.5691 -39.5765 -12.2544
  124 23.5691 -39.5765 -12.2544
  125 189.054 -23.6046 20.0635
  126 189.054 -23.6046 20.0635
  127 158.485 -3.77668 9.78012
  128 158.485 -3.77668 9.78012
  129 35.8846 -34.2627 28.3459
  130 35.8846 -34.2627 28.3459
  131 146.909 3.02290 -0.134856
  132 146.909 3.02290 -0.134856
  133 158.280 -7.31710 -12.4035
  134 158.280 -7.31710 -12.4035
  135 149.381 1.23553 1.53915
  136 149.381 1.23553 1.53915
  137 149.530 1.08486 -1.43784
  138 149.530 1.08486 -1.43784
  139 151.227 2.12578 -4.52372
  140 151.227 2.12578 -4.52372
  141 150.500 2.06650 4.08387
  142 150.500 2.06650 4.08387
  143 143.807 5.01609 -0.163215
  144 143.807 5.01609 -0.163215
  145 119.558 7.98827 -0.938343
  146 119.558 7.98827 -0.938343
  147 175.295 -6.27965 3.19424
  148 175.295 -6.27965 3.19424
  149 201.323 -7.59755 -6.60247
  150 201.323 -7.59755 -6.60247
  151 154.754 -17.1214 23.9326
  152 154.754 -17.1214 23.9326
  153 116.901 -31.7464 -53.1645
  154 116.901 -31.7464 -53.1645
  155 136.749 5.65658 8.42625
  156 136.749 5.65658 8.42625
  157 178.265 -1.18732 -7.14674
  158 178.265 -1.18732 -7.14674
  159 245.493 19.1804 13.2416
  160 245.493 19.1804 13.2416
  161 121.820 -33.7988 61.7914
  162 121.820 -33.7988 61.7914
  163 251.396 8.50835 -2.81572
  164 251.396 8.50835 -2.81572
  165 143.221 4.99526 3.97034
  166 143.221 4.99526 3.97034
  167 135.940 4.66773 -12.2705
  168 135.940 4.66773 -12.2705
  169 168.526 4.99155 4.15438
  170 168.526 4.99155 4.15438
  171 141.829 5.94859 -4.49468
  172 141.829 5.94859 -4.49468
  173 147.855 2.43223 0.672731
  174 147.855 2.43223 0.672731
  175 150.452 1.18030 -2.43446
  176 150.452 1.18030 -2.43446
  177 235.210 17.6537 -12.5780
  178 235.210 17.6537 -12.5780
  179 147.985 2.36526 -0.813355
  180 147.985 2.36526 -0.813355
  181 108.208 7.89967 -6.33989
  182 108.208 7.89967 -6.33989
  183 197.752 14.5073 1.84145
  184 197.752 14.5073 1.84145
  185 39.5319 -33.6689 -36.6502
  186 39.5319 -33.6689 -36.6502
  187 106.981 -1.23670 26.6507
  188 106.981 -1.23670 26.6507
  189 144.384 -23.0965 -37.1113
  190 144.384 -23.0965 -37.1113
  191 170.481 -4.63123 1.81050
  192 170.481 -4.63123 1.81050
  193 159.389 -0.491561 6.13574
  194 159.389 -0.491561 6.13574
  195 218.336 5.50594 11.5573
  196 218.336 5.50594 11.5573
  197 88.7326 2.65674 -16.3974
  198 88.7326 2.65674 -16.3974
  199 248.950 11.2978 6.37634
  200 248.950 11.2978 6.37634
  201 162.413 -1.93401 -6.34796
  202 162.413 -1.93401 -6.34796
  203 150.695 0.844861 2.24697
  204 150.695 0.844861 2.24697
  205 169.166 -6.54407 -2.98668
  206 169.166 -6.54407 -2.98668
  207 185.415 -9.47102 -0.355745
  208 185.415 -9.47102 -0.355745
  209 11.4570 -67.7908 5.30964
  210 11.4570 -67.7908 5.30964
  211 155.595 0.869632 -5.48202
  212 155.595 0.869632 -5.48202
  213 154.243 1.24926 4.81089
  214 154.243 1.24926 4.81089
  215 148.436 -13.5468 -23.7616
  216 148.436 -13.5468 -23.7616
  217 173.487 -3.67328 -4.45229
  218 173.487 -3.67328 -4.45229
  219 141.367 5.16439 -8.43157
  220 141.367 5.16439 -8.43157
  221 38.9530 -49.4606 39.9273
  222 38.9530 -49.4606 39.9273
  223 175.631 0.645848 6.69400
  224 175.631 0.645848 6.69400
  225 170.197 4.22804 -5.54745
  226 170.197 4.22804 -5.54745
  227 245.919 14.7327 -10.7275
  228 245.919 14.7327 -10.7275
  229 186.010 -7.06636 -3.94038
  230 186.010 -7.06636 -3.94038
  231 204.473 -10.4786 -34.1783
  232 204.473 -10.4786 -34.1783
  233 148.811 -6.68314 18.4402
  234 148.811 -6.68314 18.4402
  235 145.466 4.19764 0.677323
  236 145.466 4.19764 0.677323
  237 76.6035 -11.5443 34.0863
  238 76.6035 -11.5443 34.0863
  239 195.698 -17.8203 40.3418
  240 195.698 -17.8203 40.3418
  241 51.5610 -7.29039 -16.7662
  242 51.5610 -7.29039 -16.7662
  243 172.938 -12.8969 -7.84634
  244 172.938 -12.8969 -7.84634
  245 139.872 6.39612 4.90615
  246 139.872 6.39612 4.90615
  247 5.17379 -87.6951 -4.25840
  248 5.17379 -87.6951 -4.25840
  249 9.69429 -77.6081 14.1726
  250 9.69429 -77.6081 14.1726
  251 142.657 1.01219 13.3926
  252 142.657 1.01219 13.3926
  253 149.208 0.577133 0.560653
  254 149.208 0.577133 0.560653
  255 147.839 2.45369 0.105603
  256 147.839 2.45369 0.105603
  257 138.587 -1.70074 -17.6974
  258 138.587 -1.70074 -17.6974
  259 149.312 0.523957 -0.593687
  260 149.312 0.523957 -0.593687
  261 165.830 -11.5937 10.7636
  262 165.830 -11.5937 10.7636
  263 153.517 0.560602 -2.71748
  264 153.517 0.560602 -2.71748
  265 118.377 -10.0222 -32.5598
  266 118.377 -10.0222 -32.5598
  267 203.121 15.4981 -1.27361
  268 203.121 15.4981 -1.27361
  269 147.641 3.34479 -6.92739
  270 147.641 3.34479 -6.92739
  271 147.025 3.13222 -1.41404
  272 147.025 3.13222 -1.41404
  273 124.311 6.05981 -12.2256
  274 124.311 6.05981 -12.2256
  275 37.2488 -15.3738 9.56634
  276 37.2488 -15.3738 9.56634
  277 158.737 -26.0694 33.0334
  278 158.737 -26.0694 33.0334
  279 148.707 2.26051 2.75723
  280 148.707 2.26051 2.75723
  281 222.442 15.8517 -3.13327
  282 222.442 15.8517 -3.13327
  283 268.694 21.5704 30.1488
  284 268.694 21.5704 30.1488
  285 178.353 -18.8767 10.2941
  286 178.353 -18.8767 10.2941
  287 126.802 6.38056 9.00968
  288 126.802 6.38056 9.00968
  289 163.630 -32.2254 43.4912
  290 163.630 -32.2254 43.4912
  291 167.841 -1.92524 4.05438
  292 167.841 -1.92524 4.05438
  293 148.617 1.49072 0.763964
  294 148.617 1.49072 0.763964
  295 146.372 4.09486 -4.45868
  296 146.372 4.09486 -4.45868
  297 147.881 2.41383 -0.209728
  298 147.881 2.41383 -0.209728
  299 150.172 0.422233 -1.06700
  300 150.172 0.422233 -1.06700
  301 153.357 0.781944 2.72825
  302 153.357 0.781944 2.72825
  303 145.514 4.17446 -1.15192
  304 145.514 4.17446 -1.15192
  305 33.4998 -57.7667 -37.8133
  306 33.4998 -57.7667 -37.8133
  307 98.8773 6.37019 8.29580
  308 98.8773 6.37019 8.29580
  309 148.804 1.24191 -0.735103
  310 148.804 1.24191 -0.735103
  311 130.404 7.58927 -6.04212
  312 130.404 7.58927 -6.04212
  313 130.725 8.27773 2.31659
  314 130.725 8.27773 2.31659
  315 148.461 2.17370 -1.95982
  316 148.461 2.17370 -1.95982
  317 200.345 10.0168 0.505125
  318 200.345 10.0168 0.505125
  319 147.278 3.62893 6.09426
  320 147.278 3.62893 6.09426
  321 188.778 5.66106 -5.90680
  322 188.778 5.66106 -5.90680
  323 283.121 8.12525 18.7133
  324 283.121 8.12525 18.7133
  325 146.683 3.75910 3.85999
  326 146.683 3.75910 3.85999
  327 144.223 4.96950 2.01910
  328 144.223 4.96950 2.01910
  329 114.294 -27.0533 -60.5807
  330 114.294 -27.0533 -60.5807
  331 150.257 0.382015 1.04412
  332 150.257 0.382015 1.04412
  333 146.869 3.15778 1.05595
  334 146.869 3.15778 1.05595
  335 141.181 6.41993 0.230869
  336 141.181 6.41993 0.230869
  337 72.8084 -25.9885 49.1355
  338 72.8084 -25.9885 49.1355
  339 182.533 11.8738 1.03682
  340 182.533 11.8738 1.03682
  341 10.5807 -76.0558 -16.5749
  342 10.5807 -76.0558 -16.5749
  343 112.822 7.12983 7.43152
  344 112.822 7.12983 7.43152
  345 267.667 3.77854 2.68639
  346 267.667 3.77854 2.68639
  347 279.216 13.9145 -19.1596
  348 279.216 13.9145 -19.1596
  349 128.482 -14.7596 36.4189
  350 133.825 -7.61876 27.1287
  351 128.482 -14.7596 36.4189
  352 133.825 -7.61876 27.1287
  353 271.458 6.92723 9.91417
  354 271.458 6.92723 9.91417
  355 152.208 -0.176100 10.4537
  356 152.208 -0.176100 10.4537
  357 181.767 -24.4684 -25.1751
  358 181.767 -24.4684 -25.1751
  359 171.329 -1.51899 5.38442
  360 171.329 -1.51899 5.38442
  361 117.282 -26.9010 66.5532
  362 117.282 -26.9010 66.5532
  363 200.662 16.1329 -0.565797
  364 200.662 16.1329 -0.565797
  365 271.665 2.57367 -2.08986
  366 271.665 2.57367 -2.08986
  367 162.467 0.127867 -5.14444
  368 162.467 0.127867 -5.14444
  369 144.233 5.28006 -2.41299
  370 144.233 5.28006 -2.41299
  371 225.243 17.4452 5.09468
  372 225.243 17.4452 5.09468
  373 170.970 7.07196 -1.17160
  374 170.970 7.07196 -1.17160
  375 156.401 0.622969 -3.34758
  376 156.401 0.622969 -3.34758
  377 41.6074 -21.4748 -28.0359
  378 41.6074 -21.4748 -28.0359
  379 173.079 -3.09064 1.65311
  380 173.079 -3.09064 1.65311
  381 147.604 -0.196226 -12.2989
  382 147.604 -0.196226 -12.2989
  383 169.921 -0.385388 -6.39696
  384 169.921 -0.385388 -6.39696
  385 272.598 4.90440 -8.24454
  386 272.598 4.90440 -8.24454
  387 148.057 2.32914 1.55114
  388 148.057 2.32914 1.55114
  389 180.877 8.66915 5.52346
  390 180.877 8.66915 5.52346
  391 196.318 -4.64184 0.742401
  392 196.318 -4.64184 0.742401
  393 148.644 2.73389 -3.43904
  394 148.644 2.73389 -3.43904
  395 288.570 25.1587 -35.1529
  396 288.570 25.1587 -35.1529
  397 170.977 -2.43250 -1.64542
  398 170.977 -2.43250 -1.64542
</Section>

newXOutput 44

<Section columns = "stress_xx | stress_yy | stress_xy">
  1 152.412 0.147106 -0.180812
  2 152.476 0.183991 0.244042
  3 152.412 0.147106 -0.180812
  4 152.476 0.183991 0.244042
  5 239.496 12.3183 64.4316
  6 249.146 11.7378 -63.3496
  7 239.496 12.3183 64.4316
  8 249.146 11.7378 -63.3496
  9 152.814 0.105187 -0.473302
  10 154.155 0.187895 -0.837787
  11 156.081 0.430162 -1.69078
  12 160.488 0.166478 -2.25746
  13 166.088 0.288474 -3.65120
  14 172.555 -1.48145 -3.51834
  15 178.333 -1.81171 -0.284666
  16 175.020 -1.26638 3.20245
  17 167.712 1.24866 5.50785
  18 163.755 3.15416 -0.212163
  19 166.669 1.52385 -5.15211
  20 174.804 -1.87456 -3.90741
  21 176.660 -2.19693 1.04159
  22 173.462 -0.982368 3.01999
  23 164.880 0.0878356 3.65889
  24 160.086 0.622947 2.85259
  25 156.186 0.493441 1.62667
  26 154.174 0.150904 0.768291
  27 152.896 0.123967 0.456069
  28 152.721 0.554072 0.285347
  29 152.427 1.14159 0.329935
  30 151.705 1.99097 0.292486
  31 151.415 2.31742 -0.0283925
  32 151.790 1.88765 -0.351680
  33 152.311 1.24448 -0.302406
  34 152.540 0.626979 -0.317363
  35 152.814 0.105187 -0.473302
  36 154.155 0.187895 -0.837787
  37 156.081 0.430162 -1.69078
  38 160.488 0.166478 -2.25746
  39 166.088 0.288474 -3.65120
  40 172.555 -1.48145 -3.51834
  41 178.333 -1.81171 -0.284666
  42 175.020 -1.26638 3.20245
  43 167.712 1.24866 5.50785
  44 163.755 3.15416 -0.212163
  45 166.669 1.52385 -5.15211
  46 174.804 -1.87456 -3.90741
  47 176.660 -2.19693 1.04159
  48 173.462 -0.982368 3.01999
  49 164.880 0.0878356 3.65889
  50 160.086 0.622947 2.85259
  51 156.186 0.493441 1.62667
  52 154.174 0.150904 0.768291
  53 152.896 0.123967 0.456069
  54 152.721 0.554072 0.285347
  55 152.427 1.14159 0.329935
  56 151.705 1.99097 0.292486
  57 151.415 2.31742 -0.0283925
  58 151.790 1.88765 -0.351680
  59 152.311 1.24448 -0.302406
  60 152.540 0.626979 -0.317363
  61 333.549 16.7635 34.2918
  62 303.685 5.02574 12.3711
  63 285.887 2.18832 4.64762
  64 282.113 1.56650 0.951316
  65 285.770 2.05317 -3.98200
  66 299.234 4.33645 -10.8057
  67 336.643 14.6152 -29.5059
  68 43.6710 -51.0761 -51.7518
  69 8.63097 -109.893 -12.5559
  70 2.67994 -123.555 -5.51052
  71 2.55326 -121.193 -2.99947
  72 4.13023 -118.268 5.87922
  73 9.29932 -106.544 13.2575
  74 47.5986 -47.8178 57.4735
  75 333.549 16.7635 34.2918
  76 303.685 5.02574 12.3711
  77 285.887 2.18832 4.64762
  78 282.113 1.56650 0.951316
  79 285.770 2.05317 -3.98200
  80 299.234 4.33645 -10.8057
  81 336.643 14.6152 -29.5059
  82 43.6710 -51.0761 -51.7518
  83 8.63097 -109.893 -12.5559
  84 2.67994 -123.555 -5.51052
  85 2.55326 -121.193 -2.99947
  86 4.13023 -118.268 5.87922
  87 9.29932 -106.544 13.2575
  88 47.5986 -47.8178 57.4735
  89 139.556 8.07933 -2.11647
  90 139.556 8.07933 -2.11647
  91 127.351 1.74152 18.8924
  92 122.318 -0.795680 -22.4644
  93 127.351 1.74152 18.8924
  94 122.318 -0.795680 -22.4644
  95 71.3091 1.54714 8.95116
  96 71.3091 1.54714 8.95116
  97 188.061 12.0162 -3.24851
  98 192.090 6.69005 6.67783
  99 188.061 12.0162 -3.24851
  100 192.090 6.69005 6.67783
  101 150.122 3.69541 2.15776
  102 150.122 3.69541 2.15776
  103 180.433 -10.2533 -0.366175
  104 180.433 -10.2533 -0.366175
  105 150.322 3.85920 -2.65937
  106 150.322 3.85920 -2.65937
  107 177.677 -21.7629 -19.3961
  108 177.677 -21.7629 -19.3961
  109 123.637 -25.5729 48.9949
  110 123.637 -25.5729 48.9949
  111 82.9292 -15.1656 -39.3582
  112 82.9292 -15.1656 -39.3582
  113 150.988 2.58802 9.07149
  114 150.988 2.58802 9.07149
  115 156.707 1.11731 -8.64554
  116 156.707 1.11731 -8.64554
  117 213.694 13.9610 1.05259
  118 229.351 15.0218 1.14151
  119 213.694 13.9610 1.05259
  120 229.351 15.0218 1.14151
  121 224.351 18.6924 -5.01175
  122 224.351 18.6924 -5.01175
  123 24.1262 -40.4955 -12.5513
  124 24.1262 -40.4955 -12.5513
  125 193.447 -24.1507 20.5504
  126 193.447 -24.1507 20.5504
  127 162.187 -3.86569 10.0102
  128 162.187 -3.86569 10.0102
  129 36.7330 -35.0567 29.0292
  130 36.7330 -35.0567 29.0292
  131 150.349 3.09259 -0.137902
  132 150.349 3.09259 -0.137902
  133 161.976 -7.48900 -12.6964
  134 161.976 -7.48900 -12.6964
  135 152.875 1.26405 1.57400
  136 152.875 1.26405 1.57400
  137 153.028 1.10994 -1.47037
  138 153.028 1.10994 -1.47037
  139 154.763 2.17468 -4.62724
  140 154.763 2.17468 -4.62724
  141 154.019 2.11412 4.17717
  142 154.019 2.11412 4.17717
  143 147.176 5.13209 -0.166996
  144 147.176 5.13209 -0.166996
  145 122.372 8.17529 -0.960363
  146 122.372 8.17529 -0.960363
  147 179.386 -6.42569 3.25911
  148 179.386 -6.42569 3.25911
  149 206.002 -7.76379 -6.77997
  150 206.002 -7.76379 -6.77997
  151 158.365 -17.5232 24.4969
  152 158.365 -17.5232 24.4969
  153 119.628 -32.4845 -54.4318
  154 119.628 -32.4845 -54.4318
  155 139.957 5.78834 8.62153
  156 139.957 5.78834 8.62153
  157 182.426 -1.21324 -7.30163
  158 182.426 -1.21324 -7.30163
  159 251.183 19.6309 13.5631
  160 251.183 19.6309 13.5631
  161 124.661 -34.5882 63.2595
  162 124.661 -34.5882 63.2595
  163 257.211 8.70149 -2.88201
  164 257.211 8.70149 -2.88201
  165 146.577 5.11088 4.06145
  166 146.577 5.11088 4.06145
  167 139.128 4.77660 -12.5559
  168 139.128 4.77660 -12.5559
  169 172.474 5.11016 4.24679
  170 172.474 5.11016 4.24679
  171 145.153 6.08646 -4.59805
  172 145.153 6.08646 -4.59805
  173 151.315 2.48826 0.687970
  174 151.315 2.48826 0.687970
  175 153.970 1.20749 -2.48976
  176 153.970 1.20749 -2.48976
  177 240.666 18.0784 -12.8945
  178 240.666 18.0784 -12.8945
  179 151.448 2.41978 -0.831763
  180 151.448 2.41978 -0.831763
  181 110.758 8.08610 -6.48814
  182 110.758 8.08610 -6.48814
  183 202.366 14.8477 1.87312
  184 202.366 14.8477 1.87312
  185 40.4640 -34.4487 -37.5324
  186 40.4640 -34.4487 -37.5324
  187 109.496 -1.26416 27.2759
  188 109.496 -1.26416 27.2759
  189 147.753 -23.6386 -37.9883
  190 147.753 -23.6386 -37.9883
  191 174.459 -4.74018 1.85793
  192 174.459 -4.74018 1.85793
  193 163.110 -0.503832 6.27837
  194 163.110 -0.503832 6.27837
  195 223.405 5.64976 11.8529
  196 223.405 5.64976 11.8529
  197 90.8274 2.72245 -16.7832
  198 90.8274 2.72245 -16.7832
  199 254.713 11.5563 6.52778
  200 254.713 11.5563 6.52778
  201 166.204 -1.98011 -6.49720
  202 166.204 -1.98011 -6.49720
  203 154.219 0.864292 2.29798
  204 154.219 0.864292 2.29798
  205 173.112 -6.69807 -3.06207
  206 173.112 -6.69807 -3.06207
  207 189.734 -9.68912 -0.379456
  208 189.734 -9.68912 -0.379456
  209 11.7257 -69.3821 5.43980
  210 11.7257 -69.3821 5.43980
  211 159.230 0.889101 -5.60829
  212 159.230 0.889101 -5.60829
  213 157.847 1.27787 4.92138
  214 157.847 1.27787 4.92138
  215 151.904 -13.8645 -24.3211
  216 151.904 -13.8645 -24.3211
  217 177.537 -3.75918 -4.54780
  218 177.537 -3.75918 -4.54780
  219 144.679 5.28434 -8.62686
  220 144.679 5.28434 -8.62686
  221 39.8665 -50.6063 40.8926
  222 39.8665 -50.6063 40.8926
  223 179.736 0.663342 6.84006
  224 179.736 0.663342 6.84006
  225 174.182 4.32866 -5.67023
  226 174.182 4.32866 -5.67023
  227 251.616 15.0731 -10.9855
  228 251.616 15.0731 -10.9855
  229 190.343 -7.22812 -4.01670
  230 190.343 -7.22812 -4.01670
  231 209.215 -10.6998 -35.0057
  232 209.215 -10.6998 -35.0057
  233 152.290 -6.83976 18.8723
  234 152.290 -6.83976 18.8723
  235 148.873 4.29459 0.692773
  236 148.873 4.29459 0.692773
  237 78.4086 -11.8118 34.8937
  238 78.4086 -11.8118 34.8937
  239 200.236 -18.2181 41.3116
  240 200.236 -18.2181 41.3116
  241 52.7838 -7.45330 -17.1648
  242 52.7838 -7.45330 -17.1648
  243 176.968 -13.1989 -8.03818
  244 176.968 -13.1989 -8.03818
  245 143.151 6.54466 5.01930
  246 143.151 6.54466 5.01930
  247 5.29245 -89.7626 -4.36380
  248 5.29245 -89.7626 -4.36380
  249 9.92069 -79.4295 14.5226
  250 9.92069 -79.4295 14.5226
  251 145.998 1.03559 13.7045
  252 145.998 1.03559 13.7045
  253 152.698 0.590493 0.573293
  254 152.698 0.590493 0.573293
  255 151.299 2.51016 0.107999
  256 151.299 2.51016 0.107999
  257 141.833 -1.74075 -18.1111
  258 141.833 -1.74075 -18.1111
  259 152.805 0.536111 -0.607074
  260 152.805 0.536111 -0.607074
  261 169.698 -11.8655 11.0210
  262 169.698 -11.8655 11.0210
  263 157.104 0.573409 -2.77934
  264 157.104 0.573409 -2.77934
  265 121.152 -10.2571 -33.3256
  266 121.152 -10.2571 -33.3256
  267 207.858 15.8609 -1.29211
  268 207.858 15.8609 -1.29211
  269 151.096 3.42197 -7.08697
  270 151.096 3.42197 -7.08697
  271 150.467 3.20448 -1.44615
  272 150.467 3.20448 -1.44615
  273 127.232 6.20191 -12.5105
  274 127.232 6.20191 -12.5105
  275 38.1332 -15.7233 9.79535
  276 38.1332 -15.7233 9.79535
  277 162.434 -26.6809 33.8153
  278 162.434 -26.6809 33.8153
  279 152.186 2.31266 2.81995
  280 152.186 2.31266 2.81995
  281 227.615 16.2183 -3.21225
  282 227.615 16.2183 -3.21225
  283 274.898 22.0924 30.8698
  284 274.898 22.0924 30.8698
  285 182.505 -19.3172 10.5471
  286 182.505 -19.3172 10.5471
  287 129.781 6.52986 9.21899
  288 129.781 6.52986 9.21899
  289 167.435 -32.9800 44.5221
  290 167.435 -32.9800 44.5221
  291 171.755 -1.97093 4.15048
  292 171.755 -1.97093 4.15048
  293 152.095 1.52509 0.781230
  294 152.095 1.52509 0.781230
  295 149.799 4.18951 -4.56076
  296 149.799 4.18951 -4.56076
  297 151.342 2.46939 -0.214470
  298 151.342 2.46939 -0.214470
  299 153.684 0.431993 -1.09111
  300 153.684 0.431993 -1.09111
  301 156.941 0.799876 2.79035
  302 156.941 0.799876 2.79035
  303 148.922 4.27088 -1.17820
  304 148.922 4.27088 -1.17820
  305 34.2844 -59.1041 -38.7302
  306 34.2844 -59.1041 -38.7302
  307 101.210 6.52175 8.48983
  308 101.210 6.52175 8.48983
  309 152.285 1.27058 -0.751701
  310 152.285 1.27058 -0.751701
  311 133.467 7.76625 -6.18240
  312 133.467 7.76625 -6.18240
  313 133.795 8.47074 2.37016
  314 133.795 8.47074 2.37016
  315 151.935 2.22385 -2.00431
  316 151.935 2.22385 -2.00431
  317 205.011 10.2586 0.496650
  318 205.011 10.2586 0.496650
  319 150.725 3.71281 6.23426
  320 150.725 3.71281 6.23426
  321 193.182 5.79744 -6.02957
  322 193.182 5.79744 -6.02957
  323 289.642 8.31070 19.1506
  324 289.642 8.31070 19.1506
  325 150.117 3.84596 3.94823
  326 150.117 3.84596 3.94823
  327 147.602 5.08442 2.06526
  328 147.602 5.08442 2.06526
  329 116.951 -27.6429 -62.0350
  330 116.951 -27.6429 -62.0350
  331 153.771 0.390840 1.06771
  332 153.771 0.390840 1.06771
  333 150.307 3.23061 1.07994
  334 150.307 3.23061 1.07994
  335 144.491 6.56875 0.236152
  336 144.491 6.56875 0.236152
  337 74.5203 -26.5954 50.3072
  338 74.5203 -26.5954 50.3072
  339 186.802 12.1528 1.05841
  340 186.802 12.1528 1.05841
  341 10.8267 -77.8397 -16.9813
  342 10.8267 -77.8397 -16.9813
  343 115.479 7.29761 7.60460
  344 115.479 7.29761 7.60460
  345 273.835 3.86344 2.74743
  346 273.835 3.86344 2.74743
  347 285.655 14.2395 -19.6096
  348 285.655 14.2395 -19.6096
  349 131.488 -15.1062 37.2756
  350 136.958 -7.79723 27.7641
  351 131.488 -15.1062 37.2756
  352 136.958 -7.79723 27.7641
  353 277.715 7.08414 10.1436
  354 277.715 7.08414 10.1436
  355 155.766 -0.180850 10.6970
  356 155.766 -0.180850 10.6970
  357 185.991 -25.0380 -25.7787
  358 185.991 -25.0380 -25.7787
  359 175.334 -1.55383 5.50333
  360 175.334 -1.55383 5.50333
  361 120.003 -27.4895 68.1465
  362 120.003 -27.4895 68.1465
  363 205.344 16.5086 -0.578570
  364 205.344 16.5086 -0.578570
  365 277.920 2.63124 -2.13789
  366 277.920 2.63124 -2.13789
  367 166.257 0.130049 -5.26361
  368 166.257 0.130049 -5.26361
  369 147.612 5.40224 -2.46822
  370 147.612 5.40224 -2.46822
  371 230.479 17.8514 5.22494
  372 230.479 17.8514 5.22494
  373 174.974 7.23878 -1.19756
  374 174.974 7.23878 -1.19756
  375 160.053 0.637038 -3.42416
  376 160.053 0.637038 -3.42416
  377 42.5951 -21.9701 -28.7076
  378 42.5951 -21.9701 -28.7076
  379 177.118 -3.16316 1.68656
  380 177.118 -3.16316 1.68656
  381 151.057 -0.201465 -12.5857
  382 151.057 -0.201465 -12.5857
  383 173.896 -0.393852 -6.53878
  384 173.896 -0.393852 -6.53878
  385 278.880 5.01578 -8.43471
  386 278.880 5.01578 -8.43471
  387 151.521 2.38284 1.58632
  388 151.521 2.38284 1.58632
  389 185.105 8.87445 5.64261
  390 185.105 8.87445 5.64261
  391 200.885 -4.74295 0.779979
  392 200.885 -4.74295 0.779979
  393 152.122 2.79699 -3.51742
  394 152.122 2.79699 -3.51742
  395 295.219 25.7712 -35.9907
  396 295.219 25.7712 -35.9907
  397 174.964 -2.49018 -1.68624
  398 174.964 -2.49018 -1.68624
</Section>

newXOutput 45

<Section columns = "stress_xx | stress_yy | stress_xy">
  1 155.893 0.150491 -0.184773
  2 155.959 0.188200 0.249384
  3 155.893 0.150491 -0.184773
  4 155.959 0.188200 0.249384
  5 244.881 12.6575 65.9316
  6 254.742 12.0663 -64.8253
  7 244.881 12.6575 65.9316
  8 254.742 12.0663 -64.8253
  9 156.304 0.107583 -0.483690
  10 157.674 0.192146 -0.856232
  11 159.642 0.439822 -1.72816
  12 164.146 0.170123 -2.30762
  13 169.870 0.294582 -3.73312
  14 176.482 -1.51606 -3.59861
  15 182.391 -1.85357 -0.293325
  16 179.013 -1.29526 3.27094
  17 171.551 1.27827 5.62786
  18 167.509 3.22746 -0.216834
  19 170.485 1.55906 -5.26466
  20 178.793 -1.91745 -3.99092
  21 180.681 -2.24774 1.06791
  22 177.409 -1.00525 3.08910
  23 168.636 0.0892436 3.74121
  24 163.735 0.636808 2.91607
  25 159.750 0.504525 1.66260
  26 157.694 0.154320 0.785193
  27 156.387 0.126798 0.466094
  28 156.209 0.566592 0.291589
  29 155.908 1.16731 0.337182
  30 155.171 2.03570 0.298928
  31 154.875 2.36945 -0.0290175
  32 155.258 1.93008 -0.359411
  33 155.790 1.27251 -0.309010
  34 156.024 0.641167 -0.324338
  35 156.304 0.107583 -0.483690
  36 157.674 0.192146 -0.856232
  37 159.642 0.439822 -1.72816
  38 164.146 0.170123 -2.30762
  39 169.870 0.294582 -3.73312
  40 176.482 -1.51606 -3.59861
  41 182.391 -1.85357 -0.293325
  42 179.013 -1.29526 3.27094
  43 171.551 1.27827 5.62786
  44 167.509 3.22746 -0.216834
  45 170.485 1.55906 -5.26466
  46 178.793 -1.91745 -3.99092
  47 180.681 -2.24774 1.06791
  48 177.409 -1.00525 3.08910
  49 168.636 0.0892436 3.74121
  50 163.735 0.636808 2.91607
  51 159.750 0.504525 1.66260
  52 157.694 0.154320 0.785193
  53 156.387 0.126798 0.466094
  54 156.209 0.566592 0.291589
  55 155.908 1.16731 0.337182
  56 155.171 2.03570 0.298928
  57 154.875 2.36945 -0.0290175
  58 155.258 1.93008 -0.359411
  59 155.790 1.27251 -0.309010
  60 156.024 0.641167 -0.324338
  61 341.011 17.1496 35.0711
  62 310.487 5.13726 12.6480
  63 292.300 2.23528 4.75026
  64 288.442 1.60038 0.971606
  65 292.180 2.09796 -4.06969
  66 305.940 4.43220 -11.0463
  67 344.176 14.9514 -30.1770
  68 44.6646 -52.1878 -52.9733
  69 8.82737 -112.418 -12.8649
  70 2.73662 -126.421 -5.64559
  71 2.60738 -124.007 -3.06907
  72 4.22138 -121.006 6.02364
  73 9.51212 -108.991 13.5846
  74 48.6773 -48.8546 58.8280
  75 341.011 17.1496 35.0711
  76 310.487 5.13726 12.6480
  77 292.300 2.23528 4.75026
  78 288.442 1.60038 0.971606
  79 292.180 2.09796 -4.06969
  80 305.940 4.43220 -11.0463
  81 344.176 14.9514 -30.1770
  82 44.6646 -52.1878 -52.9733
  83 8.82737 -112.418 -12.8649
  84 2.73662 -126.421 -5.64559
  85 2.60738 -124.007 -3.06907
  86 4.22138 -121.006 6.02364
  87 9.51212 -108.991 13.5846
  88 48.6773 -48.8546 58.8280
  89 142.753 8.26271 -2.16424
  90 142.753 8.26271 -2.16424
  91 130.271 1.78195 19.3230
  92 125.123 -0.813192 -22.9778
  93 130.271 1.78195 19.3230
  94 125.123 -0.813192 -22.9778
  95 72.9593 1.58836 9.15722
  96 72.9593 1.58836 9.15722
  97 192.354 12.2920 -3.31620
  98 196.467 6.84712 6.81427
  99 192.354 12.2920 -3.31620
  100 196.467 6.84712 6.81427
  101 153.553 3.77868 2.20571
  102 153.553 3.77868 2.20571
  103 184.541 -10.4869 -0.363222
  104 184.541 -10.4869 -0.363222
  105 153.758 3.94622 -2.71852
  106 153.758 3.94622 -2.71852
  107 181.715 -22.2603 -19.8482
  108 181.715 -22.2603 -19.8482
  109 126.460 -26.1595 50.1259
  110 126.460 -26.1595 50.1259
  111 84.8344 -15.5103 -40.2697
  112 84.8344 -15.5103 -40.2697
  113 154.438 2.64619 9.27632
  114 154.438 2.64619 9.27632
  115 160.284 1.14180 -8.84129
  116 160.284 1.14180 -8.84129
  117 218.551 14.2857 1.09709
  118 234.556 15.3597 1.17082
  119 218.551 14.2857 1.09709
  120 234.556 15.3597 1.17082
  121 229.447 19.1213 -5.14214
  122 229.447 19.1213 -5.14214
  123 24.6830 -41.4134 -12.8483
  124 24.6830 -41.4134 -12.8483
  125 197.834 -24.6960 21.0378
  126 197.834 -24.6960 21.0378
  127 165.885 -3.95467 10.2401
  128 165.885 -3.95467 10.2401
  129 37.5811 -35.8496 29.7128
  130 37.5811 -35.8496 29.7128
  131 153.785 3.16217 -0.140941
  132 153.785 3.16217 -0.140941
  133 165.669 -7.66080 -12.9892
  134 165.669 -7.66080 -12.9892
  135 156.367 1.29253 1.60878
  136 156.367 1.29253 1.60878
  137 156.522 1.13497 -1.50283
  138 156.522 1.13497 -1.50283
  139 158.296 2.22351 -4.73057
  140 158.296 2.22351 -4.73057
  141 157.536 2.16166 4.27029
  142 157.536 2.16166 4.27029
  143 150.543 5.24794 -0.170772
  144 150.543 5.24794 -0.170772
  145 125.184 8.36217 -0.982367
  146 125.184 8.36217 -0.982367
  147 183.472 -6.57158 3.32347
  148 183.472 -6.57158 3.32347
  149 210.676 -7.92936 -6.95837
  150 210.676 -7.92936 -6.95837
  151 161.973 -17.9246 25.0610
  152 161.973 -17.9246 25.0610
  153 122.354 -33.2217 -55.6991
  154 122.354 -33.2217 -55.6991
  155 143.162 5.91997 8.81657
  156 143.162 5.91997 8.81657
  157 186.584 -1.23904 -7.45584
  158 186.584 -1.23904 -7.45584
  159 256.865 20.0810 13.8850
  160 256.865 20.0810 13.8850
  161 127.500 -35.3769 64.7275
  162 127.500 -35.3769 64.7275
  163 263.017 8.89421 -2.94825
  164 263.017 8.89421 -2.94825
  165 149.930 5.22634 4.15241
  166 149.930 5.22634 4.15241
  167 142.314 4.88536 -12.8409
  168 142.314 4.88536 -12.8409
  169 176.420 5.22876 4.33892
  170 176.420 5.22876 4.33892
  171 148.475 6.22416 -4.70127
  172 148.475 6.22416 -4.70127
  173 154.773 2.54421 0.703173
  174 154.773 2.54421 0.703173
  175 157.486 1.23464 -2.54495
  176 157.486 1.23464 -2.54495
  177 246.114 18.5033 -13.2118
  178 246.114 18.5033 -13.2118
  179 154.909 2.47422 -0.850129
  180 154.909 2.47422 -0.850129
  181 113.307 8.27245 -6.63628
  182 113.307 8.27245 -6.63628
  183 206.976 15.1879 1.90424
  184 206.976 15.1879 1.90424
  185 41.3957 -35.2276 -38.4150
  186 41.3957 -35.2276 -38.4150
  187 112.010 -1.29153 27.9007
  188 112.010 -1.29153 27.9007
  189 151.119 -24.1805 -38.8651
  190 151.119 -24.1805 -38.8651
  191 178.433 -4.84908 1.90554
  192 178.433 -4.84908 1.90554
  193 166.828 -0.516129 6.42084
  194 166.828 -0.516129 6.42084
  195 228.468 5.79416 12.1494
  196 228.468 5.79416 12.1494
  197 92.9213 2.78827 -17.1687
  198 92.9213 2.78827 -17.1687
  199 260.468 11.8143 6.67918
  200 260.468 11.8143 6.67918
  201 169.992 -2.02621 -6.64635
  202 169.992 -2.02621 -6.64635
  203 157.740 0.883692 2.34888
  204 157.740 0.883692 2.34888
  205 177.056 -6.85199 -3.13764
  206 177.056 -6.85199 -3.13764
  207 194.048 -9.90688 -0.403848
  208 194.048 -9.90688 -0.403848
  209 11.9941 -70.9723 5.57013
  210 11.9941 -70.9723 5.57013
  211 162.862 0.908514 -5.73437
  212 162.862 0.908514 -5.73437
  213 161.448 1.30642 5.03169
  214 161.448 1.30642 5.03169
  215 155.368 -14.1821 -24.8803
  216 155.368 -14.1821 -24.8803
  217 181.585 -3.84501 -4.64285
  218 181.585 -3.84501 -4.64285
  219 147.989 5.40414 -8.82190
  220 147.989 5.40414 -8.82190
  221 40.7793 -51.7506 41.8585
  222 40.7793 -51.7506 41.8585
  223 183.836 0.680934 6.98553
  224 183.836 0.680934 6.98553
  225 178.164 4.42928 -5.79259
  226 178.164 4.42928 -5.79259
  227 257.307 15.4131 -11.2436
  228 257.307 15.4131 -11.2436
  229 194.673 -7.38958 -4.09224
  230 194.673 -7.38958 -4.09224
  231 213.950 -10.9198 -35.8337
  232 213.950 -10.9198 -35.8337
  233 155.765 -6.99627 19.3040
  234 155.765 -6.99627 19.3040
  235 152.277 4.39140 0.708193
  236 152.277 4.39140 0.708193
  237 80.2129 -12.0789 35.7009
  238 80.2129 -12.0789 35.7009
  239 204.768 -18.6147 42.2818
  240 204.768 -18.6147 42.2818
  241 54.0064 -7.61572 -17.5635
  242 54.0064 -7.61572 -17.5635
  243 180.995 -13.5007 -8.23024
  244 180.995 -13.5007 -8.23024
  245 146.428 6.69302 5.13229
  246 146.428 6.69302 5.13229
  247 5.41090 -91.8292 -4.46940
  248 5.41090 -91.8292 -4.46940
  249 10.1469 -81.2495 14.8732
  250 10.1469 -81.2495 14.8732
  251 149.336 1.05895 14.0160
  252 149.336 1.05895 14.0160
  253 156.185 0.603835 0.585900
  254 156.185 0.603835 0.585900
  255 154.756 2.56654 0.110390
  256 154.756 2.56654 0.110390
  257 145.076 -1.78073 -18.5243
  258 145.076 -1.78073 -18.5243
  259 156.294 0.548251 -0.620428
  260 156.294 0.548251 -0.620428
  261 173.562 -12.1371 11.2784
  262 173.562 -12.1371 11.2784
  263 160.688 0.586191 -2.84106
  264 160.688 0.586191 -2.84106
  265 123.926 -10.4919 -34.0910
  266 123.926 -10.4919 -34.0910
  267 212.589 16.2234 -1.31009
  268 212.589 16.2234 -1.31009
  269 154.549 3.49905 -7.24630
  270 154.549 3.49905 -7.24630
  271 153.906 3.27664 -1.47820
  272 153.906 3.27664 -1.47820
  273 130.151 6.34390 -12.7951
  274 130.151 6.34390 -12.7951
  275 39.0175 -16.0722 10.0244
  276 39.0175 -16.0722 10.0244
  277 166.128 -27.2921 34.5970
  278 166.128 -27.2921 34.5970
  279 155.663 2.36474 2.88254
  280 155.663 2.36474 2.88254
  281 232.782 16.5845 -3.29143
  282 232.782 16.5845 -3.29143
  283 281.093 22.6148 31.5909
  284 281.093 22.6148 31.5909
  285 186.653 -19.7574 10.8005
  286 186.653 -19.7574 10.8005
  287 132.758 6.67904 9.42806
  288 132.758 6.67904 9.42806
  289 171.236 -33.7339 45.5528
  290 171.236 -33.7339 45.5528
  291 175.667 -2.01662 4.24656
  292 175.667 -2.01662 4.24656
  293 155.569 1.55941 0.798455
  294 155.569 1.55941 0.798455
  295 153.223 4.28403 -4.66266
  296 153.223 4.28403 -4.66266
  297 154.800 2.52486 -0.219201
  298 154.800 2.52486 -0.219201
  299 157.193 0.441740 -1.11517
  300 157.193 0.441740 -1.11517
  301 160.521 0.817778 2.85232
  302 160.521 0.817778 2.85232
  303 152.327 4.36717 -1.20442
  304 152.327 4.36717 -1.20442
  305 35.0684 -60.4398 -39.6478
  306 35.0684 -60.4398 -39.6478
  307 103.542 6.67330 8.68371
  308 103.542 6.67330 8.68371
  309 155.763 1.29920 -0.768258
  310 155.763 1.29920 -0.768258
  311 136.527 7.94307 -6.32251
  312 136.527 7.94307 -6.32251
  313 136.864 8.66356 2.42366
  314 136.864 8.66356 2.42366
  315 155.405 2.27393 -2.04870
  316 155.405 2.27393 -2.04870
  317 209.673 10.5005 0.487264
  318 209.673 10.5005 0.487264
  319 154.169 3.79657 6.37404
  320 154.169 3.79657 6.37404
  321 197.582 5.93388 -6.15154
  322 197.582 5.93388 -6.15154
  323 296.153 8.49579 19.5875
  324 296.153 8.49579 19.5875
  325 153.549 3.93270 4.03631
  326 153.549 3.93270 4.03631
  327 150.978 5.19919 2.11133
  328 150.978 5.19919 2.11133
  329 119.606 -28.2300 -63.4899
  330 119.606 -28.2300 -63.4899
  331 157.282 0.399653 1.09125
  332 157.282 0.399653 1.09125
  333 153.742 3.30333 1.10388
  334 153.742 3.30333 1.10388
  335 147.798 6.71738 0.241425
  336 147.798 6.71738 0.241425
  337 76.2313 -27.2018 51.4790
  338 76.2313 -27.2018 51.4790
  339 191.067 12.4316 1.07987
  340 191.067 12.4316 1.07987
  341 11.0724 -79.6223 -17.3882
  342 11.0724 -79.6223 -17.3882
  343 118.135 7.46530 7.77750
  344 118.135 7.46530 7.77750
  345 279.994 3.94811 2.80834
  346 279.994 3.94811 2.80834
  347 292.086 14.5642 -20.0593
  348 292.086 14.5642 -20.0593
  349 134.491 -15.4526 38.1318
  350 140.088 -7.97556 28.3989
  351 134.491 -15.4526 38.1318
  352 140.088 -7.97556 28.3989
  353 283.963 7.24070 10.3727
  354 283.963 7.24070 10.3727
  355 159.322 -0.185626 10.9400
  356 159.322 -0.185626 10.9400
  357 190.211 -25.6071 -26.3825
  358 190.211 -25.6071 -26.3825
  359 179.335 -1.58860 5.62183
  360 179.335 -1.58860 5.62183
  361 122.721 -28.0757 69.7401
  362 122.721 -28.0757 69.7401
  363 210.022 16.8838 -0.591311
  364 210.022 16.8838 -0.591311
  365 284.165 2.68864 -2.18584
  366 284.165 2.68864 -2.18584
  367 170.044 0.132192 -5.38264
  368 170.044 0.132192 -5.38264
  369 150.988 5.52425 -2.52336
  370 150.988 5.52425 -2.52336
  371 235.709 18.2571 5.35559
  372 235.709 18.2571 5.35559
  373 178.976 7.40552 -1.22344
  374 178.976 7.40552 -1.22344
  375 163.702 0.651073 -3.50059
  376 163.702 0.651073 -3.50059
  377 43.5827 -22.4647 -29.3794
  378 43.5827 -22.4647 -29.3794
  379 181.153 -3.23563 1.71974
  380 181.153 -3.23563 1.71974
  381 154.508 -0.206730 -12.8722
  382 154.508 -0.206730 -12.8722
  383 177.868 -0.402284 -6.68013
  384 177.868 -0.402284 -6.68013
  385 285.152 5.12691 -8.62459
  386 285.152 5.12691 -8.62459
  387 154.983 2.43646 1.62143
  388 154.983 2.43646 1.62143
  389 189.328 9.07970 5.76120
  390 189.328 9.07970 5.76120
  391 205.447 -4.84364 0.818445
  392 205.447 -4.84364 0.818445
  393 155.597 2.86000 -3.59564
  394 155.597 2.86000 -3.59564
  395 301.858 26.3842 -36.8284
  396 301.858 26.3842 -36.8284
  397 178.947 -2.54784 -1.72713
  398 178.947 -2.54784 -1.72713
</Section>

newXOutput 46

<Section columns = "stress_xx | stress_yy | stress_xy">
  1 159.371 0.153875 -0.188724
  2 159.438 0.192407 0.254712
  3 159.371 0.153875 -0.188724
  4 159.438 0.192407 0.254712
  5 250.258 12.9990 67.4316
  6 260.330 12.3974 -66.3010
  7 250.258 12.9990 67.4316
  8 260.330 12.3974 -66.3010
  9 159.791 0.109976 -0.494051
  10 161.190 0.196390 -0.874630
  11 163.200 0.449466 -1.76546
  12 167.800 0.173758 -2.35767
  13 173.648 0.300665 -3.81491
  14 180.404 -1.55069 -3.67881
  15 186.446 -1.89541 -0.302071
  16 183.003 -1.32411 3.33917
  17 175.386 1.30790 5.74750
  18 171.261 3.30076 -0.221493
  19 174.298 1.59427 -5.37690
  20 182.778 -1.96030 -4.07410
  21 184.698 -2.29853 1.09431
  22 181.352 -1.02814 3.15816
  23 172.388 0.0906238 3.82340
  24 167.381 0.650641 2.97942
  25 163.311 0.515592 1.69845
  26 161.211 0.157731 0.802053
  27 159.876 0.129626 0.476094
  28 159.694 0.579096 0.297813
  29 159.387 1.19299 0.344410
  30 158.634 2.08036 0.305354
  31 158.332 2.42139 -0.0296409
  32 158.723 1.97244 -0.367122
  33 159.266 1.30051 -0.315594
  34 159.505 0.655338 -0.331294
  35 159.791 0.109976 -0.494051
  36 161.190 0.196390 -0.874630
  37 163.200 0.449466 -1.76546
  38 167.800 0.173758 -2.35767
  39 173.648 0.300665 -3.81491
  40 180.404 -1.55069 -3.67881
  41 186.446 -1.89541 -0.302071
  42 183.003 -1.32411 3.33917
  43 175.386 1.30790 5.74750
  44 171.261 3.30076 -0.221493
  45 174.298 1.59427 -5.37690
  46 182.778 -1.96030 -4.07410
  47 184.698 -2.29853 1.09431
  48 181.352 -1.02814 3.15816
  49 172.388 0.0906238 3.82340
  50 167.381 0.650641 2.97942
  51 163.311 0.515592 1.69845
  52 161.211 0.157731 0.802053
  53 159.876 0.129626 0.476094
  54 159.694 0.579096 0.297813
  55 159.387 1.19299 0.344410
  56 158.634 2.08036 0.305354
  57 158.332 2.42139 -0.0296409
  58 158.723 1.97244 -0.367122
  59 159.266 1.30051 -0.315594
  60 159.505 0.655338 -0.331294
  61 348.461 17.5355 35.8496
  62 317.278 5.24853 12.9245
  63 298.702 2.28207 4.85267
  64 294.762 1.63415 0.991816
  65 298.579 2.14263 -4.15716
  66 312.635 4.52774 -11.2865
  67 351.696 15.2874 -30.8473
  68 45.6573 -53.2962 -54.1956
  69 9.02357 -114.940 -13.1747
  70 2.79305 -129.286 -5.78098
  71 2.66126 -126.820 -3.13865
  72 4.31231 -123.744 6.16841
  73 9.72475 -111.436 13.9125
  74 49.7547 -49.8880 60.1832
  75 348.461 17.5355 35.8496
  76 317.278 5.24853 12.9245
  77 298.702 2.28207 4.85267
  78 294.762 1.63415 0.991816
  79 298.579 2.14263 -4.15716
  80 312.635 4.52774 -11.2865
  81 351.696 15.2874 -30.8473
  82 45.6573 -53.2962 -54.1956
  83 9.02357 -114.940 -13.1747
  84 2.79305 -129.286 -5.78098
  85 2.66126 -126.820 -3.13865
  86 4.31231 -123.744 6.16841
  87 9.72475 -111.436 13.9125
  88 49.7547 -49.8880 60.1832
  89 145.948 8.44590 -2.21196
  90 145.948 8.44590 -2.21196
  91 133.188 1.82238 19.7532
  92 127.926 -0.830661 -23.4909
  93 133.188 1.82238 19.7532
  94 127.926 -0.830661 -23.4909
  95 74.6092 1.62980 9.36318
  96 74.6092 1.62980 9.36318
  97 196.642 12.5677 -3.38354
  98 200.839 7.00426 6.94988
  99 196.642 12.5677 -3.38354
  100 200.839 7.00426 6.94988
  101 156.982 3.86183 2.25356
  102 156.982 3.86183 2.25356
  103 188.645 -10.7204 -0.359768
  104 188.645 -10.7204 -0.359768
  105 157.191 4.03312 -2.77756
  106 157.191 4.03312 -2.77756
  107 185.749 -22.7573 -20.3004
  108 185.749 -22.7573 -20.3004
  109 129.280 -26.7457 51.2566
  110 129.280 -26.7457 51.2566
  111 86.7386 -15.8545 -41.1809
  112 86.7386 -15.8545 -41.1809
  113 157.885 2.70428 9.48088
  114 157.885 2.70428 9.48088
  115 163.857 1.16623 -9.03680
  116 163.857 1.16623 -9.03680
  117 223.403 14.6103 1.14246
  118 239.755 15.6970 1.20025
  119 223.403 14.6103 1.14246
  120 239.755 15.6970 1.20025
  121 234.537 19.5500 -5.27311
  122 234.537 19.5500 -5.27311
  123 25.2397 -42.3303 -13.1456
  124 25.2397 -42.3303 -13.1456
  125 202.216 -25.2406 21.5256
  126 202.216 -25.2406 21.5256
  127 169.581 -4.04361 10.4698
  128 169.581 -4.04361 10.4698
  129 38.4289 -36.6415 30.3968
  130 38.4289 -36.6415 30.3968
  131 157.219 3.23165 -0.143973
  132 157.219 3.23165 -0.143973
  133 169.358 -7.83249 -13.2820
  134 169.358 -7.83249 -13.2820
  135 159.855 1.32097 1.64347
  136 159.855 1.32097 1.64347
  137 160.014 1.15998 -1.53520
  138 160.014 1.15998 -1.53520
  139 161.826 2.27225 -4.83372
  140 161.826 2.27225 -4.83372
  141 161.050 2.20913 4.36323
  142 161.050 2.20913 4.36323
  143 153.907 5.36363 -0.174544
  144 153.907 5.36363 -0.174544
  145 127.994 8.54890 -1.00436
  146 127.994 8.54890 -1.00436
  147 187.555 -6.71731 3.38734
  148 187.555 -6.71731 3.38734
  149 215.345 -8.09426 -7.13767
  150 215.345 -8.09426 -7.13767
  151 165.577 -18.3258 25.6248
  152 165.577 -18.3258 25.6248
  153 125.076 -33.9582 -56.9665
  154 125.076 -33.9582 -56.9665
  155 146.365 6.05147 9.01137
  156 146.365 6.05147 9.01137
  157 190.738 -1.26474 -7.60937
  158 190.738 -1.26474 -7.60937
  159 262.540 20.5308 14.2071
  160 262.540 20.5308 14.2071
  161 130.335 -36.1649 66.1954
  162 130.335 -36.1649 66.1954
  163 268.816 9.08652 -3.01446
  164 268.816 9.08652 -3.01446
  165 153.281 5.34165 4.24321
  166 153.281 5.34165 4.24321
  167 145.497 4.99401 -13.1257
  168 145.497 4.99401 -13.1257
  169 180.362 5.34735 4.43076
  170 180.362 5.34735 4.43076
  171 151.794 6.36170 -4.80431
  172 151.794 6.36170 -4.80431
  173 158.228 2.60008 0.718342
  174 158.228 2.60008 0.718342
  175 160.998 1.26175 -2.60001
  176 160.998 1.26175 -2.60001
  177 251.556 18.9283 -13.5297
  178 251.556 18.9283 -13.5297
  179 158.366 2.52857 -0.868451
  180 158.366 2.52857 -0.868451
  181 115.855 8.45872 -6.78429
  182 115.855 8.45872 -6.78429
  183 211.581 15.5279 1.93483
  184 211.581 15.5279 1.93483
  185 42.3269 -36.0055 -39.2980
  186 42.3269 -36.0055 -39.2980
  187 114.523 -1.31881 28.5250
  188 114.523 -1.31881 28.5250
  189 154.482 -24.7219 -39.7415
  190 154.482 -24.7219 -39.7415
  191 182.403 -4.95791 1.95334
  192 182.403 -4.95791 1.95334
  193 170.543 -0.528451 6.56315
  194 170.543 -0.528451 6.56315
  195 233.525 5.93913 12.4468
  196 233.525 5.93913 12.4468
  197 95.0144 2.85420 -17.5540
  198 95.0144 2.85420 -17.5540
  199 266.216 12.0718 6.83056
  200 266.216 12.0718 6.83056
  201 173.776 -2.07232 -6.79540
  202 173.776 -2.07232 -6.79540
  203 161.258 0.903061 2.39967
  204 161.258 0.903061 2.39967
  205 180.995 -7.00583 -3.21340
  206 180.995 -7.00583 -3.21340
  207 198.359 -10.1243 -0.428919
  208 198.359 -10.1243 -0.428919
  209 12.2623 -72.5614 5.70063
  210 12.2623 -72.5614 5.70063
  211 166.490 0.927871 -5.86026
  212 166.490 0.927871 -5.86026
  213 165.046 1.33493 5.14182
  214 165.046 1.33493 5.14182
  215 158.830 -14.4995 -25.4393
  216 158.830 -14.4995 -25.4393
  217 185.628 -3.93076 -4.73742
  218 185.628 -3.93076 -4.73742
  219 151.297 5.52381 -9.01670
  220 151.297 5.52381 -9.01670
  221 41.6915 -52.8934 42.8252
  222 41.6915 -52.8934 42.8252
  223 187.934 0.698621 7.13040
  224 187.934 0.698621 7.13040
  225 182.143 4.52990 -5.91454
  226 182.143 4.52990 -5.91454
  227 262.990 15.7525 -11.5018
  228 262.990 15.7525 -11.5018
  229 198.998 -7.55075 -4.16699
  230 198.998 -7.55075 -4.16699
  231 218.680 -11.1384 -36.6622
  232 218.680 -11.1384 -36.6622
  233 159.237 -7.15267 19.7355
  234 159.237 -7.15267 19.7355
  235 155.679 4.48808 0.723582
  236 155.679 4.48808 0.723582
  237 82.0163 -12.3456 36.5079
  238 82.0163 -12.3456 36.5079
  239 209.295 -19.0101 43.2524
  240 209.295 -19.0101 43.2524
  241 55.2287 -7.77766 -17.9621
  242 55.2287 -7.77766 -17.9621
  243 185.018 -13.8022 -8.42253
  244 185.018 -13.8022 -8.42253
  245 149.702 6.84122 5.24512
  246 149.702 6.84122 5.24512
  247 5.52915 -93.8948 -4.57518
  248 5.52915 -93.8948 -4.57518
  249 10.3729 -83.0684 15.2243
  250 10.3729 -83.0684 15.2243
  251 152.671 1.08229 14.3271
  252 152.671 1.08229 14.3271
  253 159.670 0.617159 0.598476
  254 159.670 0.617159 0.598476
  255 158.211 2.62283 0.112775
  256 158.211 2.62283 0.112775
  257 148.318 -1.82070 -18.9372
  258 148.318 -1.82070 -18.9372
  259 159.781 0.560376 -0.633748
  260 159.781 0.560376 -0.633748
  261 177.423 -12.4084 11.5358
  262 177.423 -12.4084 11.5358
  263 164.268 0.598949 -2.90266
  264 164.268 0.598949 -2.90266
  265 126.697 -10.7265 -34.8559
  266 126.697 -10.7265 -34.8559
  267 217.316 16.5857 -1.32756
  268 217.316 16.5857 -1.32756
  269 157.999 3.57601 -7.40539
  270 157.999 3.57601 -7.40539
  271 157.342 3.34869 -1.51017
  272 157.342 3.34869 -1.51017
  273 133.069 6.48580 -13.0794
  274 133.069 6.48580 -13.0794
  275 39.9016 -16.4202 10.2535
  276 39.9016 -16.4202 10.2535
  277 169.818 -27.9029 35.3785
  278 169.818 -27.9029 35.3785
  279 159.137 2.41674 2.94499
  280 159.137 2.41674 2.94499
  281 237.944 16.9502 -3.37079
  282 237.944 16.9502 -3.37079
  283 287.279 23.1375 32.3121
  284 287.279 23.1375 32.3121
  285 190.797 -20.1971 11.0542
  286 190.797 -20.1971 11.0542
  287 135.734 6.82810 9.63689
  288 135.734 6.82810 9.63689
  289 175.034 -34.4873 46.5833
  290 175.034 -34.4873 46.5833
  291 179.574 -2.06229 4.34262
  292 179.574 -2.06229 4.34262
  293 159.041 1.59368 0.815639
  294 159.041 1.59368 0.815639
  295 156.645 4.37843 -4.76438
  296 156.645 4.37843 -4.76438
  297 158.255 2.58025 -0.223921
  298 158.255 2.58025 -0.223921
  299 160.698 0.451474 -1.13918
  300 160.698 0.451474 -1.13918
  301 164.099 0.835649 2.91416
  302 164.099 0.835649 2.91416
  303 155.729 4.46333 -1.23059
  304 155.729 4.46333 -1.23059
  305 35.8518 -61.7736 -40.5662
  306 35.8518 -61.7736 -40.5662
  307 105.873 6.82484 8.87742
  308 105.873 6.82484 8.87742
  309 159.239 1.32779 -0.784776
  310 159.239 1.32779 -0.784776
  311 139.586 8.11971 -6.46245
  312 139.586 8.11971 -6.46245
  313 139.930 8.85620 2.47708
  314 139.930 8.85620 2.47708
  315 158.874 2.32393 -2.09300
  316 158.874 2.32393 -2.09300
  317 214.330 10.7426 0.476972
  318 214.330 10.7426 0.476972
  319 157.611 3.88022 6.51358
  320 157.611 3.88022 6.51358
  321 201.977 6.07041 -6.27272
  322 201.977 6.07041 -6.27272
  323 302.655 8.68051 20.0241
  324 302.655 8.68051 20.0241
  325 156.977 4.01933 4.12423
  326 156.977 4.01933 4.12423
  327 154.351 5.31380 2.15732
  328 154.351 5.31380 2.15732
  329 122.258 -28.8146 -64.9453
  330 122.258 -28.8146 -64.9453
  331 160.790 0.408453 1.11473
  332 160.790 0.408453 1.11473
  333 157.175 3.37594 1.12777
  334 157.175 3.37594 1.12777
  335 151.103 6.86582 0.246688
  336 151.103 6.86582 0.246688
  337 77.9412 -27.8076 52.6509
  338 77.9412 -27.8076 52.6509
  339 195.329 12.7102 1.10118
  340 195.329 12.7102 1.10118
  341 11.3178 -81.4037 -17.7956
  342 11.3178 -81.4037 -17.7956
  343 120.789 7.63290 7.95023
  344 120.789 7.63290 7.95023
  345 286.144 4.03256 2.86912
  346 286.144 4.03256 2.86912
  347 298.506 14.8886 -20.5086
  348 298.506 14.8886 -20.5086
  349 137.492 -15.7988 38.9875
  350 143.216 -8.15376 29.0333
  351 137.492 -15.7988 38.9875
  352 143.216 -8.15376 29.0333
  353 290.201 7.39690 10.6015
  354 290.201 7.39690 10.6015
  355 162.875 -0.190426 11.1828
  356 162.875 -0.190426 11.1828
  357 194.425 -26.1756 -26.9865
  358 194.425 -26.1756 -26.9865
  359 183.333 -1.62332 5.73991
  360 183.333 -1.62332 5.73991
  361 125.436 -28.6595 71.3341
  362 125.436 -28.6595 71.3341
  363 214.695 17.2587 -0.604019
  364 214.695 17.2587 -0.604019
  365 290.400 2.74588 -2.23371
  366 290.400 2.74588 -2.23371
  367 173.827 0.134296 -5.50151
  368 173.827 0.134296 -5.50151
  369 154.362 5.64610 -2.57839
  370 154.362 5.64610 -2.57839
  371 240.934 18.6624 5.48662
  372 240.934 18.6624 5.48662
  373 182.975 7.57220 -1.24923
  374 182.975 7.57220 -1.24923
  375 167.348 0.665073 -3.57688
  376 167.348 0.665073 -3.57688
  377 44.5702 -22.9585 -30.0515
  378 44.5702 -22.9585 -30.0515
  379 185.184 -3.30805 1.75266
  380 185.184 -3.30805 1.75266
  381 157.956 -0.212021 -13.1585
  382 157.956 -0.212021 -13.1585
  383 181.837 -0.410682 -6.82101
  384 181.837 -0.410682 -6.82101
  385 291.414 5.23781 -8.81419
  386 291.414 5.23781 -8.81419
  387 158.443 2.49000 1.65646
  388 158.443 2.49000 1.65646
  389 193.549 9.28489 5.87925
  390 193.549 9.28489 5.87925
  391 210.004 -4.94389 0.857796
  392 210.004 -4.94389 0.857796
  393 159.069 2.92292 -3.67371
  394 159.069 2.92292 -3.67371
  395 308.487 26.9978 -37.6660
  396 308.487 26.9978 -37.6660
  397 182.926 -2.60550 -1.76809
  398 182.926 -2.60550 -1.76809
</Section>

newXOutput 47

<Section columns = "stress_xx | stress_yy | stress_xy">
  1 162.847 0.157258 -0.192664
  2 162.915 0.196611 0.260025
  3 162.847 0.157258 -0.192664
  4 162.915 0.196611 0.260025
  5 255.627 13.3429 68.9316
  6 265.909 12.7308 -67.7767
  7 255.627 13.3429 68.9316
  8 265.909 12.7308 -67.7767
  9 163.275 0.112368 -0.504385
  10 164.703 0.200630 -0.892983
  11 166.755 0.459095 -1.80267
  12 171.451 0.177384 -2.40762
  13 177.422 0.306721 -3.89657
  14 184.323 -1.58532 -3.75894
  15 190.496 -1.93725 -0.310906
  16 186.989 -1.35293 3.40714
  17 179.219 1.33756 5.86679
  18 175.010 3.37405 -0.226140
  19 178.108 1.62946 -5.48882
  20 186.759 -2.00313 -4.15696
  21 188.712 -2.34931 1.12081
  22 185.291 -1.05103 3.22716
  23 176.136 0.0919763 3.90547
  24 171.024 0.664446 3.04265
  25 166.868 0.526641 1.73422
  26 164.724 0.161138 0.818871
  27 163.363 0.132452 0.486069
  28 163.176 0.591583 0.304021
  29 162.863 1.21863 0.351620
  30 162.094 2.12495 0.311764
  31 161.786 2.47325 -0.0302628
  32 162.185 2.01474 -0.374814
  33 162.739 1.32846 -0.322160
  34 162.983 0.669491 -0.338234
  35 163.275 0.112368 -0.504385
  36 164.703 0.200630 -0.892983
  37 166.755 0.459095 -1.80267
  38 171.451 0.177384 -2.40762
  39 177.422 0.306721 -3.89657
  40 184.323 -1.58532 -3.75894
  41 190.496 -1.93725 -0.310906
  42 186.989 -1.35293 3.40714
  43 179.219 1.33756 5.86679
  44 175.010 3.37405 -0.226140
  45 178.108 1.62946 -5.48882
  46 186.759 -2.00313 -4.15696
  47 188.712 -2.34931 1.12081
  48 185.291 -1.05103 3.22716
  49 176.136 0.0919763 3.90547
  50 171.024 0.664446 3.04265
  51 166.868 0.526641 1.73422
  52 164.724 0.161138 0.818871
  53 163.363 0.132452 0.486069
  54 163.176 0.591583 0.304021
  55 162.863 1.21863 0.351620
  56 162.094 2.12495 0.311764
  57 161.786 2.47325 -0.0302628
  58 162.185 2.01474 -0.374814
  59 162.739 1.32846 -0.322160
  60 162.983 0.669491 -0.338234
  61 355.898 17.9213 36.6272
  62 324.057 5.35958 13.2004
  63 305.095 2.32869 4.95483
  64 301.072 1.66782 1.01195
  65 304.968 2.18717 -4.24441
  66 319.318 4.62305 -11.5262
  67 359.203 15.6233 -31.5170
  68 46.6489 -54.4011 -55.4187
  69 9.21958 -117.462 -13.4853
  70 2.84922 -132.151 -5.91669
  71 2.71490 -129.633 -3.20823
  72 4.40303 -126.482 6.31354
  73 9.93724 -113.880 14.2412
  74 50.8307 -50.9180 61.5391
  75 355.898 17.9213 36.6272
  76 324.057 5.35958 13.2004
  77 305.095 2.32869 4.95483
  78 301.072 1.66782 1.01195
  79 304.968 2.18717 -4.24441
  80 319.318 4.62305 -11.5262
  81 359.203 15.6233 -31.5170
  82 46.6489 -54.4011 -55.4187
  83 9.21958 -117.462 -13.4853
  84 2.84922 -132.151 -5.91669
  85 2.71490 -129.633 -3.20823
  86 4.40303 -126.482 6.31354
  87 9.93724 -113.880 14.2412
  88 50.8307 -50.9180 61.5391
  89 149.141 8.62888 -2.25960
  90 149.141 8.62888 -2.25960
  91 136.104 1.86280 20.1829
  92 130.727 -0.848088 -24.0035
  93 136.104 1.86280 20.1829
  94 130.727 -0.848088 -24.0035
  95 76.2588 1.67147 9.56905
  96 76.2588 1.67147 9.56905
  97 200.928 12.8432 -3.45053
  98 205.207 7.16147 7.08468
  99 200.928 12.8432 -3.45053
  100 205.207 7.16147 7.08468
  101 160.408 3.94486 2.30132
  102 160.408 3.94486 2.30132
  103 192.745 -10.9536 -0.355814
  104 192.745 -10.9536 -0.355814
  105 160.621 4.11989 -2.83648
  106 160.621 4.11989 -2.83648
  107 189.778 -23.2539 -20.7527
  108 189.778 -23.2539 -20.7527
  109 132.099 -27.3316 52.3868
  110 132.099 -27.3316 52.3868
  111 88.6418 -16.1984 -42.0920
  112 88.6418 -16.1984 -42.0920
  113 161.329 2.76227 9.68517
  114 161.329 2.76227 9.68517
  115 167.428 1.19059 -9.23207
  116 167.428 1.19059 -9.23207
  117 228.250 14.9350 1.18869
  118 244.948 16.0339 1.22980
  119 228.250 14.9350 1.18869
  120 244.948 16.0339 1.22980
  121 239.622 19.9785 -5.40466
  122 239.622 19.9785 -5.40466
  123 25.7961 -43.2460 -13.4431
  124 25.7961 -43.2460 -13.4431
  125 206.594 -25.7845 22.0138
  126 206.594 -25.7845 22.0138
  127 173.272 -4.13251 10.6994
  128 173.272 -4.13251 10.6994
  129 39.2765 -37.4324 31.0812
  130 39.2765 -37.4324 31.0812
  131 160.650 3.30103 -0.146997
  132 160.650 3.30103 -0.146997
  133 173.045 -8.00407 -13.5745
  134 173.045 -8.00407 -13.5745
  135 163.341 1.34937 1.67808
  136 163.341 1.34937 1.67808
  137 163.503 1.18495 -1.56750
  138 163.503 1.18495 -1.56750
  139 165.353 2.32093 -4.93667
  140 165.353 2.32093 -4.93667
  141 164.561 2.25653 4.45600
  142 164.561 2.25653 4.45600
  143 157.269 5.47916 -0.178311
  144 157.269 5.47916 -0.178311
  145 130.803 8.73549 -1.02633
  146 130.803 8.73549 -1.02633
  147 191.634 -6.86289 3.45071
  148 191.634 -6.86289 3.45071
  149 220.008 -8.25850 -7.31786
  150 220.008 -8.25850 -7.31786
  151 169.177 -18.7268 26.1883
  152 169.177 -18.7268 26.1883
  153 127.797 -34.6938 -58.2339
  154 127.797 -34.6938 -58.2339
  155 149.565 6.18283 9.20592
  156 149.565 6.18283 9.20592
  157 194.888 -1.29033 -7.76221
  158 194.888 -1.29033 -7.76221
  159 268.209 20.9804 14.5294
  160 268.209 20.9804 14.5294
  161 133.169 -36.9522 67.6631
  162 133.169 -36.9522 67.6631
  163 274.607 9.27841 -3.08063
  164 274.607 9.27841 -3.08063
  165 156.629 5.45681 4.33386
  166 156.629 5.45681 4.33386
  167 148.678 5.10257 -13.4101
  168 148.678 5.10257 -13.4101
  169 184.302 5.46593 4.52230
  170 184.302 5.46593 4.52230
  171 155.111 6.49906 -4.90720
  172 155.111 6.49906 -4.90720
  173 161.680 2.65585 0.733475
  174 161.680 2.65585 0.733475
  175 164.507 1.28881 -2.65496
  176 164.507 1.28881 -2.65496
  177 256.992 19.3536 -13.8484
  178 256.992 19.3536 -13.8484
  179 161.821 2.58285 -0.886730
  180 161.821 2.58285 -0.886730
  181 118.401 8.64492 -6.93217
  182 118.401 8.64492 -6.93217
  183 216.181 15.8677 1.96489
  184 216.181 15.8677 1.96489
  185 43.2577 -36.7824 -40.1814
  186 43.2577 -36.7824 -40.1814
  187 117.034 -1.34601 29.1489
  188 117.034 -1.34601 29.1489
  189 157.841 -25.2630 -40.6176
  190 157.841 -25.2630 -40.6176
  191 186.370 -5.06669 2.00134
  192 186.370 -5.06669 2.00134
  193 174.254 -0.540799 6.70531
  194 174.254 -0.540799 6.70531
  195 238.576 6.08467 12.7451
  196 238.576 6.08467 12.7451
  197 97.1066 2.92024 -17.9391
  198 97.1066 2.92024 -17.9391
  199 271.957 12.3289 6.98191
  200 271.957 12.3289 6.98191
  201 177.557 -2.11842 -6.94437
  202 177.557 -2.11842 -6.94437
  203 164.773 0.922400 2.45035
  204 164.773 0.922400 2.45035
  205 184.931 -7.15958 -3.28935
  206 184.931 -7.15958 -3.28935
  207 202.664 -10.3414 -0.454667
  208 202.664 -10.3414 -0.454667
  209 12.5304 -74.1495 5.83131
  210 12.5304 -74.1495 5.83131
  211 170.115 0.947173 -5.98596
  212 170.115 0.947173 -5.98596
  213 168.641 1.36338 5.25176
  214 168.641 1.36338 5.25176
  215 162.288 -14.8166 -25.9979
  216 162.288 -14.8166 -25.9979
  217 189.669 -4.01645 -4.83153
  218 189.669 -4.01645 -4.83153
  219 154.603 5.64334 -9.21124
  220 154.603 5.64334 -9.21124
  221 42.6030 -54.0347 43.7925
  222 42.6030 -54.0347 43.7925
  223 192.028 0.716405 7.27467
  224 192.028 0.716405 7.27467
  225 186.119 4.63051 -6.03606
  226 186.119 4.63051 -6.03606
  227 268.665 16.0915 -11.7601
  228 268.665 16.0915 -11.7601
  229 203.318 -7.71162 -4.24097
  230 203.318 -7.71162 -4.24097
  231 223.405 -11.3558 -37.4914
  232 223.405 -11.3558 -37.4914
  233 162.707 -7.30895 20.1666
  234 162.707 -7.30895 20.1666
  235 159.078 4.58463 0.738941
  236 159.078 4.58463 0.738941
  237 83.8188 -12.6121 37.3148
  238 83.8188 -12.6121 37.3148
  239 213.816 -19.4043 44.2234
  240 213.816 -19.4043 44.2234
  241 56.4509 -7.93913 -18.3607
  242 56.4509 -7.93913 -18.3607
  243 189.037 -14.1035 -8.61503
  244 189.037 -14.1035 -8.61503
  245 152.975 6.98924 5.35777
  246 152.975 6.98924 5.35777
  247 5.64719 -95.9594 -4.68114
  248 5.64719 -95.9594 -4.68114
  249 10.5987 -84.8860 15.5760
  250 10.5987 -84.8860 15.5760
  251 156.004 1.10559 14.6380
  252 156.004 1.10559 14.6380
  253 163.152 0.630467 0.611020
  254 163.152 0.630467 0.611020
  255 161.663 2.67904 0.115156
  256 161.663 2.67904 0.115156
  257 151.556 -1.86064 -19.3498
  258 151.556 -1.86064 -19.3498
  259 163.265 0.572487 -0.647034
  260 163.265 0.572487 -0.647034
  261 181.280 -12.6796 11.7932
  262 181.280 -12.6796 11.7932
  263 167.846 0.611683 -2.96413
  264 167.846 0.611683 -2.96413
  265 129.466 -10.9609 -35.6203
  266 129.466 -10.9609 -35.6203
  267 222.038 16.9477 -1.34450
  268 222.038 16.9477 -1.34450
  269 161.446 3.65286 -7.56424
  270 161.446 3.65286 -7.56424
  271 160.775 3.42064 -1.54208
  272 160.775 3.42064 -1.54208
  273 135.985 6.62760 -13.3635
  274 135.985 6.62760 -13.3635
  275 40.7857 -16.7676 10.4827
  276 40.7857 -16.7676 10.4827
  277 173.505 -28.5132 36.1598
  278 173.505 -28.5132 36.1598
  279 162.608 2.46866 3.00732
  280 162.608 2.46866 3.00732
  281 243.100 17.3154 -3.45033
  282 243.100 17.3154 -3.45033
  283 293.457 23.6606 33.0334
  284 293.457 23.6606 33.0334
  285 194.936 -20.6364 11.3083
  286 194.936 -20.6364 11.3083
  287 138.708 6.97704 9.84548
  288 138.708 6.97704 9.84548
  289 178.827 -35.2402 47.6135
  290 178.827 -35.2402 47.6135
  291 183.478 -2.10796 4.43866
  292 183.478 -2.10796 4.43866
  293 162.509 1.62790 0.832782
  294 162.509 1.62790 0.832782
  295 160.064 4.47269 -4.86591
  296 160.064 4.47269 -4.86591
  297 161.708 2.63556 -0.228629
  298 161.708 2.63556 -0.228629
  299 164.201 0.461194 -1.16312
  300 164.201 0.461194 -1.16312
  301 167.673 0.853488 2.97587
  302 167.673 0.853488 2.97587
  303 159.129 4.55936 -1.25671
  304 159.129 4.55936 -1.25671
  305 36.6347 -63.1057 -41.4853
  306 36.6347 -63.1057 -41.4853
  307 108.203 6.97638 9.07098
  308 108.203 6.97638 9.07098
  309 162.712 1.35633 -0.801252
  310 162.712 1.35633 -0.801252
  311 142.643 8.29619 -6.60223
  312 142.643 8.29619 -6.60223
  313 142.995 9.04865 2.53044
  314 142.995 9.04865 2.53044
  315 162.339 2.37386 -2.13720
  316 162.339 2.37386 -2.13720
  317 218.983 10.9848 0.465775
  318 218.983 10.9848 0.465775
  319 161.050 3.96375 6.65289
  320 161.050 3.96375 6.65289
  321 206.369 6.20700 -6.39309
  322 206.369 6.20700 -6.39309
  323 309.146 8.86488 20.4602
  324 309.146 8.86488 20.4602
  325 160.403 4.10583 4.21198
  326 160.403 4.10583 4.21198
  327 157.723 5.42826 2.20322
  328 157.723 5.42826 2.20322
  329 124.907 -29.3967 -66.4012
  330 124.907 -29.3967 -66.4012
  331 164.295 0.417242 1.13816
  332 164.295 0.417242 1.13816
  333 160.606 3.44845 1.15161
  334 160.606 3.44845 1.15161
  335 154.405 7.01408 0.251942
  336 154.405 7.01408 0.251942
  337 79.6501 -28.4129 53.8229
  338 79.6501 -28.4129 53.8229
  339 199.587 12.9887 1.12237
  340 199.587 12.9887 1.12237
  341 11.5629 -83.1839 -18.2035
  342 11.5629 -83.1839 -18.2035
  343 123.443 7.80041 8.12278
  344 123.443 7.80041 8.12278
  345 292.285 4.11679 2.92977
  346 292.285 4.11679 2.92977
  347 304.917 15.2127 -20.9577
  348 304.917 15.2127 -20.9577
  349 140.491 -16.1447 39.8427
  350 146.342 -8.33183 29.6672
  351 140.491 -16.1447 39.8427
  352 146.342 -8.33183 29.6672
  353 296.431 7.55274 10.8300
  354 296.431 7.55274 10.8300
  355 166.425 -0.195252 11.4253
  356 166.425 -0.195252 11.4253
  357 198.635 -26.7435 -27.5907
  358 198.635 -26.7435 -27.5907
  359 187.327 -1.65798 5.85757
  360 187.327 -1.65798 5.85757
  361 128.147 -29.2409 72.9284
  362 128.147 -29.2409 72.9284
  363 219.364 17.6333 -0.616696
  364 219.364 17.6333 -0.616696
  365 296.626 2.80297 -2.28150
  366 296.626 2.80297 -2.28150
  367 177.607 0.136362 -5.62023
  368 177.607 0.136362 -5.62023
  369 157.733 5.76779 -2.63332
  370 157.733 5.76779 -2.63332
  371 246.152 19.0673 5.61803
  372 246.152 19.0673 5.61803
  373 186.971 7.73880 -1.27494
  374 186.971 7.73880 -1.27494
  375 170.990 0.679039 -3.65302
  376 170.990 0.679039 -3.65302
  377 45.5575 -23.4517 -30.7237
  378 45.5575 -23.4517 -30.7237
  379 189.212 -3.38042 1.78532
  380 189.212 -3.38042 1.78532
  381 161.401 -0.217337 -13.4445
  382 161.401 -0.217337 -13.4445
  383 185.803 -0.419047 -6.96142
  384 185.803 -0.419047 -6.96142
  385 297.667 5.34847 -9.00351
  386 297.667 5.34847 -9.00351
  387 161.899 2.54346 1.69141
  388 161.899 2.54346 1.69141
  389 197.765 9.49004 5.99674
  390 197.765 9.49004 5.99674
  391 214.557 -5.04372 0.898030
  392 214.557 -5.04372 0.898030
  393 162.538 2.98575 -3.75161
  394 162.538 2.98575 -3.75161
  395 315.107 27.6120 -38.5037
  396 315.107 27.6120 -38.5037
  397 186.901 -2.66314 -1.80912
  398 186.901 -2.66314 -1.80912
</Section>

newXOutput 48

<Section columns = "stress_xx | stress_yy | stress_xy">
  1 166.319 0.160639 -0.196593
  2 166.389 0.200811 0.265324
  3 166.319 0.160639 -0.196593
  4 166.389 0.200811 0.265324
  5 260.987 13.6890 70.4315
  6 271.480 13.0668 -69.2524
  7 260.987 13.6890 70.4315
  8 271.480 13.0668 -69.2524
  9 166.757 0.114757 -0.514693
  10 168.213 0.204864 -0.911291
  11 170.307 0.468710 -1.83980
  12 175.099 0.180999 -2.45747
  13 181.193 0.312752 -3.97810
  14 188.237 -1.61995 -3.83900
  15 194.542 -1.97907 -0.319827
  16 190.971 -1.38173 3.47485
  17 183.049 1.36724 5.98573
  18 178.757 3.44734 -0.230775
  19 181.916 1.66464 -5.60041
  20 190.738 -2.04592 -4.23950
  21 192.721 -2.40008 1.14740
  22 189.227 -1.07392 3.29612
  23 179.882 0.0933012 3.98741
  24 174.663 0.678224 3.10575
  25 170.423 0.537673 1.76991
  26 168.235 0.164541 0.835647
  27 166.846 0.135275 0.496018
  28 166.655 0.604055 0.310211
  29 166.336 1.24423 0.358811
  30 165.552 2.16947 0.318158
  31 165.238 2.52503 -0.0308830
  32 165.644 2.05697 -0.382486
  33 166.209 1.35637 -0.328707
  34 166.459 0.683627 -0.345155
  35 166.757 0.114757 -0.514693
  36 168.213 0.204864 -0.911291
  37 170.307 0.468710 -1.83980
  38 175.099 0.180999 -2.45747
  39 181.193 0.312752 -3.97810
  40 188.237 -1.61995 -3.83900
  41 194.542 -1.97907 -0.319827
  42 190.971 -1.38173 3.47485
  43 183.049 1.36724 5.98573
  44 178.757 3.44734 -0.230775
  45 181.916 1.66464 -5.60041
  46 190.738 -2.04592 -4.23950
  47 192.721 -2.40008 1.14740
  48 189.227 -1.07392 3.29612
  49 179.882 0.0933012 3.98741
  50 174.663 0.678224 3.10575
  51 170.423 0.537673 1.76991
  52 168.235 0.164541 0.835647
  53 166.846 0.135275 0.496018
  54 166.655 0.604055 0.310211
  55 166.336 1.24423 0.358811
  56 165.552 2.16947 0.318158
  57 165.238 2.52503 -0.0308830
  58 165.644 2.05697 -0.382486
  59 166.209 1.35637 -0.328707
  60 166.459 0.683627 -0.345155
  61 363.322 18.3068 37.4040
  62 330.825 5.47039 13.4759
  63 311.476 2.37515 5.05676
  64 307.371 1.70138 1.03200
  65 311.346 2.23158 -4.33146
  66 325.991 4.71815 -11.7654
  67 366.696 15.9589 -32.1859
  68 47.6395 -55.5025 -56.6426
  69 9.41540 -119.982 -13.7966
  70 2.90514 -135.016 -6.05271
  71 2.76831 -132.446 -3.27780
  72 4.49352 -129.219 6.45901
  73 10.1496 -116.322 14.5708
  74 51.9055 -51.9446 62.8958
  75 363.322 18.3068 37.4040
  76 330.825 5.47039 13.4759
  77 311.476 2.37515 5.05676
  78 307.371 1.70138 1.03200
  79 311.346 2.23158 -4.33146
  80 325.991 4.71815 -11.7654
  81 366.696 15.9589 -32.1859
  82 47.6395 -55.5025 -56.6426
  83 9.41540 -119.982 -13.7966
  84 2.90514 -135.016 -6.05271
  85 2.76831 -132.446 -3.27780
  86 4.49352 -129.219 6.45901
  87 10.1496 -116.322 14.5708
  88 51.9055 -51.9446 62.8958
  89 152.332 8.81166 -2.30719
  90 152.332 8.81166 -2.30719
  91 139.018 1.90321 20.6123
  92 133.527 -0.865472 -24.5158
  93 139.018 1.90321 20.6123
  94 133.527 -0.865472 -24.5158
  95 77.9079 1.71337 9.77482
  96 77.9079 1.71337 9.77482
  97 205.209 13.1185 -3.51719
  98 209.571 7.31875 7.21865
  99 205.209 13.1185 -3.51719
  100 209.571 7.31875 7.21865
  101 163.832 4.02777 2.34898
  102 163.832 4.02777 2.34898
  103 196.841 -11.1865 -0.351363
  104 196.841 -11.1865 -0.351363
  105 164.049 4.20655 -2.89527
  106 164.049 4.20655 -2.89527
  107 193.804 -23.7502 -21.2050
  108 193.804 -23.7502 -21.2050
  109 134.914 -27.9172 53.5167
  110 134.914 -27.9172 53.5167
  111 90.5439 -16.5420 -43.0029
  112 90.5439 -16.5420 -43.0029
  113 164.771 2.82017 9.88918
  114 164.771 2.82017 9.88918
  115 170.995 1.21489 -9.42711
  116 170.995 1.21489 -9.42711
  117 233.092 15.2596 1.23577
  118 250.136 16.3702 1.25947
  119 233.092 15.2596 1.23577
  120 250.136 16.3702 1.25947
  121 244.701 20.4067 -5.53679
  122 244.701 20.4067 -5.53679
  123 26.3524 -44.1608 -13.7408
  124 26.3524 -44.1608 -13.7408
  125 210.966 -26.3276 22.5024
  126 210.966 -26.3276 22.5024
  127 176.961 -4.22136 10.9289
  128 176.961 -4.22136 10.9289
  129 40.1237 -38.2224 31.7660
  130 40.1237 -38.2224 31.7660
  131 164.078 3.37030 -0.150013
  132 164.078 3.37030 -0.150013
  133 176.727 -8.17555 -13.8670
  134 176.727 -8.17555 -13.8670
  135 166.824 1.37772 1.71261
  136 166.824 1.37772 1.71261
  137 166.988 1.20988 -1.59973
  138 166.988 1.20988 -1.59973
  139 168.878 2.36952 -5.03944
  140 168.878 2.36952 -5.03944
  141 168.069 2.30386 4.54859
  142 168.069 2.30386 4.54859
  143 160.628 5.59454 -0.182073
  144 160.628 5.59454 -0.182073
  145 133.611 8.92193 -1.04829
  146 133.611 8.92193 -1.04829
  147 195.710 -7.00830 3.51358
  148 195.710 -7.00830 3.51358
  149 224.667 -8.42206 -7.49895
  150 224.667 -8.42206 -7.49895
  151 172.775 -19.1274 26.7516
  152 172.775 -19.1274 26.7516
  153 130.514 -35.4287 -59.5013
  154 130.514 -35.4287 -59.5013
  155 152.764 6.31406 9.40023
  156 152.764 6.31406 9.40023
  157 199.034 -1.31581 -7.91437
  158 199.034 -1.31581 -7.91437
  159 273.870 21.4297 14.8520
  160 273.870 21.4297 14.8520
  161 135.999 -37.7388 69.1306
  162 135.999 -37.7388 69.1306
  163 280.391 9.46988 -3.14676
  164 280.391 9.46988 -3.14676
  165 159.975 5.57182 4.42435
  166 159.975 5.57182 4.42435
  167 151.857 5.21102 -13.6942
  168 151.857 5.21102 -13.6942
  169 188.238 5.58450 4.61355
  170 188.238 5.58450 4.61355
  171 158.425 6.63625 -5.00992
  172 158.425 6.63625 -5.00992
  173 165.129 2.71155 0.748574
  174 165.129 2.71155 0.748574
  175 168.014 1.31584 -2.70978
  176 168.014 1.31584 -2.70978
  177 262.421 19.7790 -14.1679
  178 262.421 19.7790 -14.1679
  179 165.273 2.63705 -0.904967
  180 165.273 2.63705 -0.904967
  181 120.947 8.83104 -7.07993
  182 120.947 8.83104 -7.07993
  183 220.778 16.2072 1.99440
  184 220.778 16.2072 1.99440
  185 44.1880 -37.5583 -41.0652
  186 44.1880 -37.5583 -41.0652
  187 119.544 -1.37312 29.7723
  188 119.544 -1.37312 29.7723
  189 161.198 -25.8038 -41.4934
  190 161.198 -25.8038 -41.4934
  191 190.333 -5.17540 2.04952
  192 190.333 -5.17540 2.04952
  193 177.963 -0.553171 6.84730
  194 177.963 -0.553171 6.84730
  195 243.621 6.23079 13.0442
  196 243.621 6.23079 13.0442
  197 99.1980 2.98638 -18.3240
  198 99.1980 2.98638 -18.3240
  199 277.690 12.5854 7.13323
  200 277.690 12.5854 7.13323
  201 181.334 -2.16453 -7.09325
  202 181.334 -2.16453 -7.09325
  203 168.285 0.941707 2.50091
  204 168.285 0.941707 2.50091
  205 188.863 -7.31325 -3.36549
  206 188.863 -7.31325 -3.36549
  207 206.966 -10.5581 -0.481091
  208 206.966 -10.5581 -0.481091
  209 12.7982 -75.7366 5.96216
  210 12.7982 -75.7366 5.96216
  211 173.738 0.966421 -6.11146
  212 173.738 0.966421 -6.11146
  213 172.233 1.39178 5.36152
  214 172.233 1.39178 5.36152
  215 165.744 -15.1336 -26.5563
  216 165.744 -15.1336 -26.5563
  217 193.705 -4.10206 -4.92517
  218 193.705 -4.10206 -4.92517
  219 157.905 5.76274 -9.40554
  220 157.905 5.76274 -9.40554
  221 43.5139 -55.1746 44.7604
  222 43.5139 -55.1746 44.7604
  223 196.118 0.734286 7.41835
  224 196.118 0.734286 7.41835
  225 190.091 4.73113 -6.15717
  226 190.091 4.73113 -6.15717
  227 274.334 16.4301 -12.0184
  228 274.334 16.4301 -12.0184
  229 207.635 -7.87220 -4.31416
  230 207.635 -7.87220 -4.31416
  231 228.123 -11.5719 -38.3211
  232 228.123 -11.5719 -38.3211
  233 166.173 -7.46513 20.5973
  234 166.173 -7.46513 20.5973
  235 162.474 4.68103 0.754269
  236 162.474 4.68103 0.754269
  237 85.6205 -12.8782 38.1214
  238 85.6205 -12.8782 38.1214
  239 218.332 -19.7973 45.1948
  240 218.332 -19.7973 45.1948
  241 57.6728 -8.10012 -18.7592
  242 57.6728 -8.10012 -18.7592
  243 193.052 -14.4046 -8.80775
  244 193.052 -14.4046 -8.80775
  245 156.245 7.13709 5.47027
  246 156.245 7.13709 5.47027
  247 5.76503 -98.0231 -4.78729
  248 5.76503 -98.0231 -4.78729
  249 10.8243 -86.7024 15.9282
  250 10.8243 -86.7024 15.9282
  251 159.334 1.12886 14.9485
  252 159.334 1.12886 14.9485
  253 166.631 0.643757 0.623532
  254 166.631 0.643757 0.623532
  255 165.111 2.73516 0.117531
  256 165.111 2.73516 0.117531
  257 154.793 -1.90056 -19.7620
  258 154.793 -1.90056 -19.7620
  259 166.746 0.584583 -0.660288
  260 166.746 0.584583 -0.660288
  261 185.134 -12.9506 12.0507
  262 185.134 -12.9506 12.0507
  263 171.420 0.624393 -3.02547
  264 171.420 0.624393 -3.02547
  265 132.234 -11.1952 -36.3844
  266 132.234 -11.1952 -36.3844
  267 226.756 17.3094 -1.36092
  268 226.756 17.3094 -1.36092
  269 164.890 3.72960 -7.72284
  270 164.890 3.72960 -7.72284
  271 164.206 3.49248 -1.57391
  272 164.206 3.49248 -1.57391
  273 138.899 6.76929 -13.6472
  274 138.899 6.76929 -13.6472
  275 41.6696 -17.1141 10.7119
  276 41.6696 -17.1141 10.7119
  277 177.187 -29.1231 36.9409
  278 177.187 -29.1231 36.9409
  279 166.076 2.52051 3.06951
  280 166.076 2.52051 3.06951
  281 248.251 17.6801 -3.53006
  282 248.251 17.6801 -3.53006
  283 299.625 24.1840 33.7548
  284 299.625 24.1840 33.7548
  285 199.071 -21.0753 11.5627
  286 199.071 -21.0753 11.5627
  287 141.679 7.12586 10.0538
  288 141.679 7.12586 10.0538
  289 182.615 -35.9924 48.6435
  290 182.615 -35.9924 48.6435
  291 187.378 -2.15363 4.53467
  292 187.378 -2.15363 4.53467
  293 165.975 1.66207 0.849883
  294 165.975 1.66207 0.849883
  295 163.480 4.56683 -4.96726
  296 163.480 4.56683 -4.96726
  297 165.158 2.69077 -0.233326
  298 165.158 2.69077 -0.233326
  299 167.701 0.470901 -1.18701
  300 167.701 0.470901 -1.18701
  301 171.245 0.871298 3.03745
  302 171.245 0.871298 3.03745
  303 162.526 4.65525 -1.28277
  304 162.526 4.65525 -1.28277
  305 37.4169 -64.4361 -42.4052
  306 37.4169 -64.4361 -42.4052
  307 110.532 7.12790 9.26438
  308 110.532 7.12790 9.26438
  309 166.181 1.38483 -0.817689
  310 166.181 1.38483 -0.817689
  311 145.698 8.47250 -6.74184
  312 145.698 8.47250 -6.74184
  313 146.058 9.24092 2.58372
  314 146.058 9.24092 2.58372
  315 165.801 2.42372 -2.18130
  316 165.801 2.42372 -2.18130
  317 223.630 11.2272 0.453677
  318 223.630 11.2272 0.453677
  319 164.486 4.04717 6.79198
  320 164.486 4.04717 6.79198
  321 210.756 6.34367 -6.51268
  322 210.756 6.34367 -6.51268
  323 315.628 9.04888 20.8960
  324 315.628 9.04888 20.8960
  325 163.827 4.19222 4.29956
  326 163.827 4.19222 4.29956
  327 161.091 5.54256 2.24903
  328 161.091 5.54256 2.24903
  329 127.554 -29.9764 -67.8575
  330 127.554 -29.9764 -67.8575
  331 167.797 0.426018 1.16152
  332 167.797 0.426018 1.16152
  333 164.033 3.52085 1.17539
  334 164.033 3.52085 1.17539
  335 157.705 7.16217 0.257187
  336 157.705 7.16217 0.257187
  337 81.3580 -29.0177 54.9949
  338 81.3580 -29.0177 54.9949
  339 203.842 13.2670 1.14341
  340 203.842 13.2670 1.14341
  341 11.8078 -84.9628 -18.6120
  342 11.8078 -84.9628 -18.6120
  343 126.094 7.96782 8.29516
  344 126.094 7.96782 8.29516
  345 298.416 4.20080 2.99030
  346 298.416 4.20080 2.99030
  347 311.319 15.5366 -21.4064
  348 311.319 15.5366 -21.4064
  349 143.487 -16.4905 40.6975
  350 149.465 -8.50977 30.3006
  351 143.487 -16.4905 40.6975
  352 149.465 -8.50977 30.3006
  353 302.651 7.70823 11.0582
  354 302.651 7.70823 11.0582
  355 169.971 -0.200102 11.6676
  356 169.971 -0.200102 11.6676
  357 202.840 -27.3108 -28.1951
  358 202.840 -27.3108 -28.1951
  359 191.318 -1.69258 5.97482
  360 191.318 -1.69258 5.97482
  361 130.855 -29.8200 74.5230
  362 130.855 -29.8200 74.5230
  363 224.028 18.0074 -0.629340
  364 224.028 18.0074 -0.629340
  365 302.842 2.85989 -2.32921
  366 302.842 2.85989 -2.32921
  367 181.383 0.138390 -5.73880
  368 181.383 0.138390 -5.73880
  369 161.101 5.88933 -2.68816
  370 161.101 5.88933 -2.68816
  371 251.365 19.4718 5.74981
  372 251.365 19.4718 5.74981
  373 190.963 7.90533 -1.30055
  374 190.963 7.90533 -1.30055
  375 174.629 0.692971 -3.72903
  376 174.629 0.692971 -3.72903
  377 46.5447 -23.9441 -31.3961
  378 46.5447 -23.9441 -31.3961
  379 193.235 -3.45275 1.81772
  380 193.235 -3.45275 1.81772
  381 164.843 -0.222678 -13.7302
  382 164.843 -0.222678 -13.7302
  383 189.765 -0.427379 -7.10136
  384 189.765 -0.427379 -7.10136
  385 303.911 5.45889 -9.19255
  386 303.911 5.45889 -9.19255
  387 165.353 2.59684 1.72628
  388 165.353 2.59684 1.72628
  389 201.978 9.69514 6.11368
  390 201.978 9.69514 6.11368
  391 219.104 -5.14311 0.939146
  392 219.104 -5.14311 0.939146
  393 166.005 3.04849 -3.82936
  394 166.005 3.04849 -3.82936
  395 321.716 28.2268 -39.3413
  396 321.716 28.2268 -39.3413
  397 190.873 -2.72077 -1.85023
  398 190.873 -2.72077 -1.85023
</Section>

newXOutput 49

<Section columns = "stress_xx | stress_yy | stress_xy">
  1 169.789 0.164018 -0.200511
  2 169.861 0.205008 0.270608
  3 169.789 0.164018 -0.200511
  4 169.861 0.205008 0.270608
  5 266.340 14.0375 71.9315
  6 277.041 13.4051 -70.7281
  7 266.340 14.0375 71.9315
  8 277.041 13.4051 -70.7281
  9 170.235 0.117144 -0.524973
  10 171.720 0.209093 -0.929553
  11 173.856 0.478309 -1.87684
  12 178.744 0.184605 -2.50721
  13 184.961 0.318756 -4.05950
  14 192.148 -1.65459 -3.91899
  15 198.585 -2.02087 -0.328835
  16 194.950 -1.41050 3.54230
  17 186.876 1.39695 6.10432
  18 182.501 3.52063 -0.235399
  19 185.720 1.69982 -5.71170
  20 194.713 -2.08868 -4.32173
  21 196.727 -2.45084 1.17407
  22 193.158 -1.09681 3.36503
  23 183.623 0.0945985 4.06924
  24 178.300 0.691975 3.16873
  25 173.974 0.548688 1.80551
  26 171.743 0.167940 0.852380
  27 170.326 0.138096 0.505942
  28 170.132 0.616510 0.316384
  29 169.806 1.26980 0.365983
  30 169.007 2.21392 0.324537
  31 168.687 2.57673 -0.0315018
  32 169.101 2.09914 -0.390138
  33 169.677 1.38425 -0.335236
  34 169.931 0.697745 -0.352059
  35 170.235 0.117144 -0.524973
  36 171.720 0.209093 -0.929553
  37 173.856 0.478309 -1.87684
  38 178.744 0.184605 -2.50721
  39 184.961 0.318756 -4.05950
  40 192.148 -1.65459 -3.91899
  41 198.585 -2.02087 -0.328835
  42 194.950 -1.41050 3.54230
  43 186.876 1.39695 6.10432
  44 182.501 3.52063 -0.235399
  45 185.720 1.69982 -5.71170
  46 194.713 -2.08868 -4.32173
  47 196.727 -2.45084 1.17407
  48 193.158 -1.09681 3.36503
  49 183.623 0.0945985 4.06924
  50 178.300 0.691975 3.16873
  51 173.974 0.548688 1.80551
  52 171.743 0.167940 0.852380
  53 170.326 0.138096 0.505942
  54 170.132 0.616510 0.316384
  55 169.806 1.26980 0.365983
  56 169.007 2.21392 0.324537
  57 168.687 2.57673 -0.0315018
  58 169.101 2.09914 -0.390138
  59 169.677 1.38425 -0.335236
  60 169.931 0.697745 -0.352059
  61 370.733 18.6922 38.1799
  62 337.581 5.58097 13.7509
  63 317.848 2.42144 5.15846
  64 313.661 1.73483 1.05198
  65 317.715 2.27587 -4.41829
  66 332.652 4.81303 -12.0042
  67 374.177 16.2944 -32.8542
  68 48.6292 -56.6006 -57.8672
  69 9.61102 -122.500 -14.1088
  70 2.96082 -137.880 -6.18905
  71 2.82149 -135.258 -3.34737
  72 4.58380 -131.955 6.60484
  73 10.3617 -118.763 14.9013
  74 52.9790 -52.9679 64.2532
  75 370.733 18.6922 38.1799
  76 337.581 5.58097 13.7509
  77 317.848 2.42144 5.15846
  78 313.661 1.73483 1.05198
  79 317.715 2.27587 -4.41829
  80 332.652 4.81303 -12.0042
  81 374.177 16.2944 -32.8542
  82 48.6292 -56.6006 -57.8672
  83 9.61102 -122.500 -14.1088
  84 2.96082 -137.880 -6.18905
  85 2.82149 -135.258 -3.34737
  86 4.58380 -131.955 6.60484
  87 10.3617 -118.763 14.9013
  88 52.9790 -52.9679 64.2532
  89 155.521 8.99425 -2.35471
  90 155.521 8.99425 -2.35471
  91 141.930 1.94363 21.0413
  92 136.325 -0.882813 -25.0276
  93 141.930 1.94363 21.0413
  94 136.325 -0.882813 -25.0276
  95 79.5567 1.75549 9.98049
  96 79.5567 1.75549 9.98049
  97 209.487 13.3937 -3.58350
  98 213.931 7.47609 7.35180
  99 209.487 13.3937 -3.58350
  100 213.931 7.47609 7.35180
  101 167.252 4.11057 2.39654
  102 167.252 4.11057 2.39654
  103 200.933 -11.4193 -0.346415
  104 200.933 -11.4193 -0.346415
  105 167.473 4.29309 -2.95395
  106 167.473 4.29309 -2.95395
  107 197.825 -24.2460 -21.6573
  108 197.825 -24.2460 -21.6573
  109 137.728 -28.5024 54.6462
  110 137.728 -28.5024 54.6462
  111 92.4450 -16.8852 -43.9136
  112 92.4450 -16.8852 -43.9136
  113 168.210 2.87799 10.0929
  114 168.210 2.87799 10.0929
  115 174.559 1.23912 -9.62191
  116 174.559 1.23912 -9.62191
  117 237.929 15.5843 1.28371
  118 255.318 16.7061 1.28924
  119 237.929 15.5843 1.28371
  120 255.318 16.7061 1.28924
  121 249.775 20.8346 -5.66950
  122 249.775 20.8346 -5.66950
  123 26.9085 -45.0744 -14.0388
  124 26.9085 -45.0744 -14.0388
  125 215.334 -26.8700 22.9914
  126 215.334 -26.8700 22.9914
  127 180.646 -4.31017 11.1583
  128 180.646 -4.31017 11.1583
  129 40.9707 -39.0113 32.4511
  130 40.9707 -39.0113 32.4511
  131 167.504 3.43947 -0.153023
  132 167.504 3.43947 -0.153023
  133 180.407 -8.34692 -14.1594
  134 180.407 -8.34692 -14.1594
  135 170.304 1.40604 1.74706
  136 170.304 1.40604 1.74706
  137 170.472 1.23478 -1.63188
  138 170.472 1.23478 -1.63188
  139 172.399 2.41804 -5.14202
  140 172.399 2.41804 -5.14202
  141 171.574 2.35112 4.64100
  142 171.574 2.35112 4.64100
  143 163.985 5.70976 -0.185830
  144 163.985 5.70976 -0.185830
  145 136.417 9.10822 -1.07023
  146 136.417 9.10822 -1.07023
  147 199.781 -7.15356 3.57596
  148 199.781 -7.15356 3.57596
  149 229.320 -8.58497 -7.68093
  150 229.320 -8.58497 -7.68093
  151 176.369 -19.5278 27.3146
  152 176.369 -19.5278 27.3146
  153 133.229 -36.1627 -60.7688
  154 133.229 -36.1627 -60.7688
  155 155.960 6.44515 9.59429
  156 155.960 6.44515 9.59429
  157 203.176 -1.34118 -8.06586
  158 203.176 -1.34118 -8.06586
  159 279.524 21.8787 15.1748
  160 279.524 21.8787 15.1748
  161 138.827 -38.5247 70.5979
  162 138.827 -38.5247 70.5979
  163 286.166 9.66094 -3.21285
  164 286.166 9.66094 -3.21285
  165 163.318 5.68669 4.51469
  166 163.318 5.68669 4.51469
  167 155.034 5.31936 -13.9781
  168 155.034 5.31936 -13.9781
  169 192.172 5.70306 4.70452
  170 192.172 5.70306 4.70452
  171 161.737 6.77327 -5.11247
  172 161.737 6.77327 -5.11247
  173 168.575 2.76716 0.763638
  174 168.575 2.76716 0.763638
  175 171.517 1.34282 -2.76449
  176 171.517 1.34282 -2.76449
  177 267.843 20.2047 -14.4880
  178 267.843 20.2047 -14.4880
  179 168.722 2.69116 -0.923160
  180 168.722 2.69116 -0.923160
  181 123.491 9.01707 -7.22756
  182 123.491 9.01707 -7.22756
  183 225.370 16.5465 2.02339
  184 225.370 16.5465 2.02339
  185 45.1180 -38.3332 -41.9495
  186 45.1180 -38.3332 -41.9495
  187 122.052 -1.40014 30.3953
  188 122.052 -1.40014 30.3953
  189 164.551 -26.3442 -42.3689
  190 164.551 -26.3442 -42.3689
  191 194.293 -5.28406 2.09789
  192 194.293 -5.28406 2.09789
  193 181.667 -0.565569 6.98914
  194 181.667 -0.565569 6.98914
  195 248.661 6.37747 13.3443
  196 248.661 6.37747 13.3443
  197 101.289 3.05263 -18.7086
  198 101.289 3.05263 -18.7086
  199 283.416 12.8416 7.28452
  200 283.416 12.8416 7.28452
  201 185.108 -2.21064 -7.24204
  202 185.108 -2.21064 -7.24204
  203 171.794 0.960984 2.55137
  204 171.794 0.960984 2.55137
  205 192.792 -7.46684 -3.44181
  206 192.792 -7.46684 -3.44181
  207 211.263 -10.7746 -0.508189
  208 211.263 -10.7746 -0.508189
  209 13.0659 -77.3226 6.09318
  210 13.0659 -77.3226 6.09318
  211 177.356 0.985613 -6.23677
  212 177.356 0.985613 -6.23677
  213 175.821 1.42013 5.47110
  214 175.821 1.42013 5.47110
  215 169.196 -15.4503 -27.1144
  216 169.196 -15.4503 -27.1144
  217 197.738 -4.18760 -5.01835
  218 197.738 -4.18760 -5.01835
  219 161.206 5.88200 -9.59959
  220 161.206 5.88200 -9.59959
  221 44.4241 -56.3130 45.7290
  222 44.4241 -56.3130 45.7290
  223 200.205 0.752263 7.56144
  224 200.205 0.752263 7.56144
  225 194.061 4.83174 -6.27786
  226 194.061 4.83174 -6.27786
  227 279.996 16.7681 -12.2769
  228 279.996 16.7681 -12.2769
  229 211.947 -8.03248 -4.38658
  230 211.947 -8.03248 -4.38658
  231 232.836 -11.7868 -39.1513
  232 232.836 -11.7868 -39.1513
  233 169.637 -7.62119 21.0278
  234 169.637 -7.62119 21.0278
  235 165.868 4.77731 0.769568
  236 165.868 4.77731 0.769568
  237 87.4213 -13.1439 38.9279
  238 87.4213 -13.1439 38.9279
  239 222.842 -20.1891 46.1665
  240 222.842 -20.1891 46.1665
  241 58.8944 -8.26063 -19.1577
  242 58.8944 -8.26063 -19.1577
  243 197.063 -14.7055 -9.00069
  244 197.063 -14.7055 -9.00069
  245 159.512 7.28478 5.58259
  246 159.512 7.28478 5.58259
  247 5.88267 -100.086 -4.89363
  248 5.88267 -100.086 -4.89363
  249 11.0497 -88.5176 16.2811
  250 11.0497 -88.5176 16.2811
  251 162.662 1.15210 15.2588
  252 162.662 1.15210 15.2588
  253 170.107 0.657030 0.636013
  254 170.107 0.657030 0.636013
  255 168.558 2.79119 0.119901
  256 168.558 2.79119 0.119901
  257 158.026 -1.94045 -20.1738
  258 158.026 -1.94045 -20.1738
  259 170.224 0.596665 -0.673508
  260 170.224 0.596665 -0.673508
  261 188.983 -13.2214 12.3083
  262 188.983 -13.2214 12.3083
  263 174.992 0.637078 -3.08668
  264 174.992 0.637078 -3.08668
  265 134.999 -11.4293 -37.1480
  266 134.999 -11.4293 -37.1480
  267 231.469 17.6708 -1.37682
  268 231.469 17.6708 -1.37682
  269 168.332 3.80624 -7.88120
  270 168.332 3.80624 -7.88120
  271 167.634 3.56422 -1.60568
  272 167.634 3.56422 -1.60568
  273 141.811 6.91089 -13.9307
  274 141.811 6.91089 -13.9307
  275 42.5534 -17.4600 10.9412
  276 42.5534 -17.4600 10.9412
  277 180.866 -29.7326 37.7217
  278 180.866 -29.7326 37.7217
  279 169.541 2.57229 3.13157
  280 169.541 2.57229 3.13157
  281 253.396 18.0443 -3.60997
  282 253.396 18.0443 -3.60997
  283 305.786 24.7079 34.4763
  284 305.786 24.7079 34.4763
  285 203.202 -21.5138 11.8175
  286 203.202 -21.5138 11.8175
  287 144.650 7.27457 10.2620
  288 144.650 7.27457 10.2620
  289 186.400 -36.7441 49.6733
  290 186.400 -36.7441 49.6733
  291 191.274 -2.19928 4.63066
  292 191.274 -2.19928 4.63066
  293 169.439 1.69619 0.866943
  294 169.439 1.69619 0.866943
  295 166.893 4.66084 -5.06842
  296 166.893 4.66084 -5.06842
  297 168.605 2.74590 -0.238012
  298 168.605 2.74590 -0.238012
  299 171.199 0.480595 -1.21084
  300 171.199 0.480595 -1.21084
  301 174.813 0.889076 3.09891
  302 174.813 0.889076 3.09891
  303 165.921 4.75100 -1.30879
  304 165.921 4.75100 -1.30879
  305 38.1984 -65.7647 -43.3258
  306 38.1984 -65.7647 -43.3258
  307 112.860 7.27942 9.45762
  308 112.860 7.27942 9.45762
  309 169.649 1.41329 -0.834085
  310 169.649 1.41329 -0.834085
  311 148.751 8.64864 -6.88130
  312 148.751 8.64864 -6.88130
  313 149.118 9.43300 2.63693
  314 149.118 9.43300 2.63693
  315 169.261 2.47351 -2.22530
  316 169.261 2.47351 -2.22530
  317 228.273 11.4697 0.440681
  318 228.273 11.4697 0.440681
  319 167.920 4.13048 6.93083
  320 167.920 4.13048 6.93083
  321 215.139 6.48041 -6.63147
  322 215.139 6.48041 -6.63147
  323 322.100 9.23253 21.3313
  324 322.100 9.23253 21.3313
  325 167.247 4.27849 4.38699
  326 167.247 4.27849 4.38699
  327 164.457 5.65672 2.29476
  328 164.457 5.65672 2.29476
  329 130.197 -30.5535 -69.3144
  330 130.197 -30.5535 -69.3144
  331 171.296 0.434782 1.18484
  332 171.296 0.434782 1.18484
  333 167.458 3.59314 1.19912
  334 167.458 3.59314 1.19912
  335 161.003 7.31006 0.262422
  336 161.003 7.31006 0.262422
  337 83.0649 -29.6220 56.1669
  338 83.0649 -29.6220 56.1669
  339 208.093 13.5452 1.16432
  340 208.093 13.5452 1.16432
  341 12.0524 -86.7404 -19.0211
  342 12.0524 -86.7404 -19.0211
  343 128.745 8.13515 8.46736
  344 128.745 8.13515 8.46736
  345 304.538 4.28459 3.05069
  346 304.538 4.28459 3.05069
  347 317.712 15.8601 -21.8548
  348 317.712 15.8601 -21.8548
  349 146.480 -16.8360 41.5517
  350 152.586 -8.68757 30.9335
  351 146.480 -16.8360 41.5517
  352 152.586 -8.68757 30.9335
  353 308.861 7.86337 11.2861
  354 308.861 7.86337 11.2861
  355 173.515 -0.204978 11.9096
  356 173.515 -0.204978 11.9096
  357 207.041 -27.8775 -28.7996
  358 207.041 -27.8775 -28.7996
  359 195.306 -1.72712 6.09166
  360 195.306 -1.72712 6.09166
  361 133.560 -30.3967 76.1179
  362 133.560 -30.3967 76.1179
  363 228.689 18.3811 -0.641952
  364 228.689 18.3811 -0.641952
  365 309.048 2.91664 -2.37685
  366 309.048 2.91664 -2.37685
  367 185.156 0.140380 -5.85723
  368 185.156 0.140380 -5.85723
  369 164.467 6.01070 -2.74289
  370 164.467 6.01070 -2.74289
  371 256.572 19.8759 5.88198
  372 256.572 19.8759 5.88198
  373 194.953 8.07179 -1.32608
  374 194.953 8.07179 -1.32608
  375 178.265 0.706869 -3.80490
  376 178.265 0.706869 -3.80490
  377 47.5317 -24.4358 -32.0687
  378 47.5317 -24.4358 -32.0687
  379 197.255 -3.52502 1.84986
  380 197.255 -3.52502 1.84986
  381 168.282 -0.228044 -14.0156
  382 168.282 -0.228044 -14.0156
  383 193.724 -0.435678 -7.24083
  384 193.724 -0.435678 -7.24083
  385 310.146 5.56908 -9.38131
  386 310.146 5.56908 -9.38131
  387 168.804 2.65015 1.76108
  388 168.804 2.65015 1.76108
  389 206.188 9.90019 6.23007
  390 206.188 9.90019 6.23007
  391 223.647 -5.24208 0.981139
  392 223.647 -5.24208 0.981139
  393 169.469 3.11114 -3.90696
  394 169.469 3.11114 -3.90696
  395 328.315 28.8421 -40.1788
  396 328.315 28.8421 -40.1788
  397 194.840 -2.77839 -1.89140
  398 194.840 -2.77839 -1.89140
</Section>

newXOutput 50

<Section columns = "stress_xx | stress_yy | stress_xy">
  1 173.256 0.167395 -0.204419
  2 173.329 0.209202 0.275878
  3 173.256 0.167395 -0.204419
  4 173.329 0.209202 0.275878
  5 271.684 14.3883 73.4314
  6 282.594 13.7459 -72.2039
  7 271.684 14.3883 73.4314
  8 282.594 13.7459 -72.2039
  9 173.711 0.119529 -0.535227
  10 175.225 0.213316 -0.947771
  11 177.401 0.487893 -1.91380
  12 182.385 0.188200 -2.55685
  13 188.725 0.324734 -4.14076
  14 196.055 -1.68924 -3.99891
  15 202.623 -2.06267 -0.337930
  16 198.926 -1.43925 3.60949
  17 190.700 1.42668 6.22255
  18 186.243 3.59392 -0.240010
  19 189.523 1.73498 -5.82266
  20 198.684 -2.13141 -4.40363
  21 200.728 -2.50158 1.20084
  22 197.085 -1.11970 3.43388
  23 187.362 0.0958683 4.15094
  24 181.933 0.705698 3.23158
  25 177.522 0.559686 1.84103
  26 175.248 0.171335 0.869072
  27 173.804 0.140915 0.515841
  28 173.606 0.628949 0.322540
  29 173.274 1.29533 0.373137
  30 172.459 2.25831 0.330900
  31 172.133 2.62834 -0.0321190
  32 172.555 2.14124 -0.397772
  33 173.142 1.41208 -0.341746
  34 173.401 0.711847 -0.358945
  35 173.711 0.119529 -0.535227
  36 175.225 0.213316 -0.947771
  37 177.401 0.487893 -1.91380
  38 182.385 0.188200 -2.55685
  39 188.725 0.324734 -4.14076
  40 196.055 -1.68924 -3.99891
  41 202.623 -2.06267 -0.337930
  42 198.926 -1.43925 3.60949
  43 190.700 1.42668 6.22255
  44 186.243 3.59392 -0.240010
  45 189.523 1.73498 -5.82266
  46 198.684 -2.13141 -4.40363
  47 200.728 -2.50158 1.20084
  48 197.085 -1.11970 3.43388
  49 187.362 0.0958683 4.15094
  50 181.933 0.705698 3.23158
  51 177.522 0.559686 1.84103
  52 175.248 0.171335 0.869072
  53 173.804 0.140915 0.515841
  54 173.606 0.628949 0.322540
  55 173.274 1.29533 0.373137
  56 172.459 2.25831 0.330900
  57 172.133 2.62834 -0.0321190
  58 172.555 2.14124 -0.397772
  59 173.142 1.41208 -0.341746
  60 173.401 0.711847 -0.358945
  61 378.131 19.0774 38.9550
  62 344.326 5.69132 14.0255
  63 324.210 2.46756 5.25992
  64 319.940 1.76818 1.07188
  65 324.073 2.32003 -4.50492
  66 339.303 4.90768 -12.2425
  67 381.645 16.6298 -33.5217
  68 49.6178 -57.6953 -59.0925
  69 9.80645 -125.017 -14.4216
  70 3.01624 -140.744 -6.32571
  71 2.87444 -138.071 -3.41692
  72 4.67386 -134.691 6.75102
  73 10.5738 -121.202 15.2325
  74 54.0512 -53.9877 65.6113
  75 378.131 19.0774 38.9550
  76 344.326 5.69132 14.0255
  77 324.210 2.46756 5.25992
  78 319.940 1.76818 1.07188
  79 324.073 2.32003 -4.50492
  80 339.303 4.90768 -12.2425
  81 381.645 16.6298 -33.5217
  82 49.6178 -57.6953 -59.0925
  83 9.80645 -125.017 -14.4216
  84 3.01624 -140.744 -6.32571
  85 2.87444 -138.071 -3.41692
  86 4.67386 -134.691 6.75102
  87 10.5738 -121.202 15.2325
  88 54.0512 -53.9877 65.6113
  89 158.708 9.17663 -2.40217
  90 158.708 9.17663 -2.40217
  91 144.839 1.98403 21.4699
  92 139.121 -0.900113 -25.5390
  93 144.839 1.98403 21.4699
  94 139.121 -0.900113 -25.5390
  95 81.2052 1.79784 10.1861
  96 81.2052 1.79784 10.1861
  97 213.761 13.6687 -3.64947
  98 218.287 7.63349 7.48414
  99 213.761 13.6687 -3.64947
  100 218.287 7.63349 7.48414
  101 170.671 4.19324 2.44400
  102 170.671 4.19324 2.44400
  103 205.021 -11.6519 -0.340972
  104 205.021 -11.6519 -0.340972
  105 170.896 4.37950 -3.01252
  106 170.896 4.37950 -3.01252
  107 201.842 -24.7415 -22.1097
  108 201.842 -24.7415 -22.1097
  109 140.539 -29.0872 55.7753
  110 140.539 -29.0872 55.7753
  111 94.3450 -17.2281 -44.8241
  112 94.3450 -17.2281 -44.8241
  113 171.646 2.93571 10.2964
  114 171.646 2.93571 10.2964
  115 178.121 1.26328 -9.81648
  116 178.121 1.26328 -9.81648
  117 242.760 15.9089 1.33250
  118 260.495 17.0414 1.31914
  119 242.760 15.9089 1.33250
  120 260.495 17.0414 1.31914
  121 254.844 21.2623 -5.80278
  122 254.844 21.2623 -5.80278
  123 27.4644 -45.9870 -14.3369
  124 27.4644 -45.9870 -14.3369
  125 219.696 -27.4117 23.4808
  126 219.696 -27.4117 23.4808
  127 184.328 -4.39895 11.3876
  128 184.328 -4.39895 11.3876
  129 41.8174 -39.7992 33.1367
  130 41.8174 -39.7992 33.1367
  131 170.927 3.50853 -0.156025
  132 170.927 3.50853 -0.156025
  133 184.083 -8.51819 -14.4516
  134 184.083 -8.51819 -14.4516
  135 173.781 1.43432 1.78143
  136 173.781 1.43432 1.78143
  137 173.952 1.25965 -1.66395
  138 173.952 1.25965 -1.66395
  139 175.917 2.46648 -5.24441
  140 175.917 2.46648 -5.24441
  141 175.076 2.39831 4.73324
  142 175.076 2.39831 4.73324
  143 167.339 5.82483 -0.189582
  144 167.339 5.82483 -0.189582
  145 139.221 9.29437 -1.09216
  146 139.221 9.29437 -1.09216
  147 203.849 -7.29866 3.63784
  148 203.849 -7.29866 3.63784
  149 233.968 -8.74721 -7.86380
  150 233.968 -8.74721 -7.86380
  151 179.959 -19.9279 27.8774
  152 179.959 -19.9279 27.8774
  153 135.942 -36.8959 -62.0363
  154 135.942 -36.8959 -62.0363
  155 159.154 6.57612 9.78812
  156 159.154 6.57612 9.78812
  157 207.315 -1.36645 -8.21666
  158 207.315 -1.36645 -8.21666
  159 285.171 22.3274 15.4979
  160 285.171 22.3274 15.4979
  161 141.652 -39.3099 72.0651
  162 141.652 -39.3099 72.0651
  163 291.934 9.85159 -3.27890
  164 291.934 9.85159 -3.27890
  165 166.659 5.80140 4.60488
  166 166.659 5.80140 4.60488
  167 158.208 5.42761 -14.2616
  168 158.208 5.42761 -14.2616
  169 196.103 5.82160 4.79519
  170 196.103 5.82160 4.79519
  171 165.047 6.91012 -5.21486
  172 165.047 6.91012 -5.21486
  173 172.019 2.82268 0.778668
  174 172.019 2.82268 0.778668
  175 175.018 1.36976 -2.81908
  176 175.018 1.36976 -2.81908
  177 273.259 20.6305 -14.8089
  178 273.259 20.6305 -14.8089
  179 172.169 2.74520 -0.941312
  180 172.169 2.74520 -0.941312
  181 126.034 9.20304 -7.37507
  182 126.034 9.20304 -7.37507
  183 229.958 16.8855 2.05185
  184 229.958 16.8855 2.05185
  185 46.0475 -39.1071 -42.8342
  186 46.0475 -39.1071 -42.8342
  187 124.559 -1.42708 31.0179
  188 124.559 -1.42708 31.0179
  189 167.901 -26.8843 -43.2441
  190 167.901 -26.8843 -43.2441
  191 198.248 -5.39266 2.14644
  192 198.248 -5.39266 2.14644
  193 185.369 -0.577992 7.13082
  194 185.369 -0.577992 7.13082
  195 253.694 6.52473 13.6452
  196 253.694 6.52473 13.6452
  197 103.378 3.11899 -19.0931
  198 103.378 3.11899 -19.0931
  199 289.134 13.0972 7.43577
  200 289.134 13.0972 7.43577
  201 188.878 -2.25675 -7.39073
  202 188.878 -2.25675 -7.39073
  203 175.300 0.980231 2.60171
  204 175.300 0.980231 2.60171
  205 196.716 -7.62035 -3.51832
  206 196.716 -7.62035 -3.51832
  207 215.556 -10.9906 -0.535958
  208 215.556 -10.9906 -0.535958
  209 13.3334 -78.9075 6.22437
  210 13.3334 -78.9075 6.22437
  211 180.972 1.00475 -6.36189
  212 180.972 1.00475 -6.36189
  213 179.407 1.44843 5.58049
  214 179.407 1.44843 5.58049
  215 172.646 -15.7668 -27.6722
  216 172.646 -15.7668 -27.6722
  217 201.767 -4.27307 -5.11106
  218 201.767 -4.27307 -5.11106
  219 164.504 6.00112 -9.79340
  220 164.504 6.00112 -9.79340
  221 45.3337 -57.4499 46.6983
  222 45.3337 -57.4499 46.6983
  223 204.288 0.770336 7.70393
  224 204.288 0.770336 7.70393
  225 198.028 4.93235 -6.39814
  226 198.028 4.93235 -6.39814
  227 285.650 17.1058 -12.5354
  228 285.650 17.1058 -12.5354
  229 216.254 -8.19246 -4.45823
  230 216.254 -8.19246 -4.45823
  231 237.543 -12.0003 -39.9822
  232 237.543 -12.0003 -39.9822
  233 173.097 -7.77713 21.4579
  234 173.097 -7.77713 21.4579
  235 169.259 4.87345 0.784836
  236 169.259 4.87345 0.784836
  237 89.2212 -13.4094 39.7341
  238 89.2212 -13.4094 39.7341
  239 227.347 -20.5796 47.1386
  240 227.347 -20.5796 47.1386
  241 60.1159 -8.42067 -19.5562
  242 60.1159 -8.42067 -19.5562
  243 201.071 -15.0061 -9.19384
  244 201.071 -15.0061 -9.19384
  245 162.777 7.43229 5.69475
  246 162.777 7.43229 5.69475
  247 6.00010 -102.148 -5.00016
  248 6.00010 -102.148 -5.00016
  249 11.2749 -90.3315 16.6345
  250 11.2749 -90.3315 16.6345
  251 165.987 1.17531 15.5687
  252 165.987 1.17531 15.5687
  253 173.580 0.670286 0.648462
  254 173.580 0.670286 0.648462
  255 172.001 2.84713 0.122265
  256 172.001 2.84713 0.122265
  257 161.258 -1.98033 -20.5853
  258 161.258 -1.98033 -20.5853
  259 173.699 0.608732 -0.686695
  260 173.699 0.608732 -0.686695
  261 192.830 -13.4920 12.5659
  262 192.830 -13.4920 12.5659
  263 178.560 0.649740 -3.14777
  264 178.560 0.649740 -3.14777
  265 137.763 -11.6633 -37.9111
  266 137.763 -11.6633 -37.9111
  267 236.178 18.0320 -1.39221
  268 236.178 18.0320 -1.39221
  269 171.771 3.88276 -8.03933
  270 171.771 3.88276 -8.03933
  271 171.060 3.63585 -1.63737
  272 171.060 3.63585 -1.63737
  273 144.722 7.05238 -14.2139
  274 144.722 7.05238 -14.2139
  275 43.4372 -17.8051 11.1706
  276 43.4372 -17.8051 11.1706
  277 184.542 -30.3417 38.5024
  278 184.542 -30.3417 38.5024
  279 173.003 2.62399 3.19350
  280 173.003 2.62399 3.19350
  281 258.535 18.4080 -3.69006
  282 258.535 18.4080 -3.69006
  283 311.937 25.2320 35.1978
  284 311.937 25.2320 35.1978
  285 207.329 -21.9519 12.0726
  286 207.329 -21.9519 12.0726
  287 147.618 7.42315 10.4698
  288 147.618 7.42315 10.4698
  289 190.181 -37.4952 50.7028
  290 190.181 -37.4952 50.7028
  291 195.167 -2.24493 4.72663
  292 195.167 -2.24493 4.72663
  293 172.899 1.73026 0.883963
  294 172.899 1.73026 0.883963
  295 170.304 4.75472 -5.16940
  296 170.304 4.75472 -5.16940
  297 172.049 2.80095 -0.242687
  298 172.049 2.80095 -0.242687
  299 174.693 0.490276 -1.23461
  300 174.693 0.490276 -1.23461
  301 178.378 0.906824 3.16023
  302 178.378 0.906824 3.16023
  303 169.313 4.84662 -1.33475
  304 169.313 4.84662 -1.33475
  305 38.9794 -67.0916 -44.2471
  306 38.9794 -67.0916 -44.2471
  307 115.187 7.43093 9.65069
  308 115.187 7.43093 9.65069
  309 173.113 1.44171 -0.850441
  310 173.113 1.44171 -0.850441
  311 151.802 8.82461 -7.02059
  312 151.802 8.82461 -7.02059
  313 152.177 9.62489 2.69007
  314 152.177 9.62489 2.69007
  315 172.718 2.52322 -2.26921
  316 172.718 2.52322 -2.26921
  317 232.912 11.7124 0.426789
  318 232.912 11.7124 0.426789
  319 171.351 4.21367 7.06946
  320 171.351 4.21367 7.06946
  321 219.518 6.61723 -6.74947
  322 219.518 6.61723 -6.74947
  323 328.561 9.41581 21.7663
  324 328.561 9.41581 21.7663
  325 170.665 4.36463 4.47424
  326 170.665 4.36463 4.47424
  327 167.820 5.77072 2.34040
  328 167.820 5.77072 2.34040
  329 132.837 -31.1282 -70.7717
  330 132.837 -31.1282 -70.7717
  331 174.792 0.443534 1.20809
  332 174.792 0.443534 1.20809
  333 170.880 3.66533 1.22281
  334 170.880 3.66533 1.22281
  335 164.299 7.45778 0.267647
  336 164.299 7.45778 0.267647
  337 84.7708 -30.2257 57.3391
  338 84.7708 -30.2257 57.3391
  339 212.340 13.8231 1.18509
  340 212.340 13.8231 1.18509
  341 12.2967 -88.5168 -19.4306
  342 12.2967 -88.5168 -19.4306
  343 131.394 8.30238 8.63938
  344 131.394 8.30238 8.63938
  345 310.652 4.36815 3.11095
  346 310.652 4.36815 3.11095
  347 324.095 16.1834 -22.3030
  348 324.095 16.1834 -22.3030
  349 149.471 -17.1814 42.4055
  350 155.704 -8.86525 31.5659
  351 149.471 -17.1814 42.4055
  352 155.704 -8.86525 31.5659
  353 315.063 8.01815 11.5137
  354 315.063 8.01815 11.5137
  355 177.056 -0.209878 12.1513
  356 177.056 -0.209878 12.1513
  357 211.237 -28.4436 -29.4044
  358 211.237 -28.4436 -29.4044
  359 199.290 -1.76160 6.20808
  360 199.290 -1.76160 6.20808
  361 136.262 -30.9710 77.7132
  362 136.262 -30.9710 77.7132
  363 233.344 18.7545 -0.654532
  364 233.344 18.7545 -0.654532
  365 315.245 2.97324 -2.42441
  366 315.245 2.97324 -2.42441
  367 188.925 0.142332 -5.97550
  368 188.925 0.142332 -5.97550
  369 167.831 6.13192 -2.79753
  370 167.831 6.13192 -2.79753
  371 261.774 20.2796 6.01452
  372 261.774 20.2796 6.01452
  373 198.940 8.23818 -1.35153
  374 198.940 8.23818 -1.35153
  375 181.897 0.720734 -3.88063
  376 181.897 0.720734 -3.88063
  377 48.5186 -24.9267 -32.7414
  378 48.5186 -24.9267 -32.7414
  379 201.271 -3.59725 1.88174
  380 201.271 -3.59725 1.88174
  381 171.719 -0.233436 -14.3008
  382 171.719 -0.233436 -14.3008
  383 197.680 -0.443944 -7.37984
  384 197.680 -0.443944 -7.37984
  385 316.371 5.67903 -9.56979
  386 316.371 5.67903 -9.56979
  387 172.252 2.70337 1.79579
  388 172.252 2.70337 1.79579
  389 210.394 10.1052 6.34592
  390 210.394 10.1052 6.34592
  391 228.185 -5.34063 1.02401
  392 228.185 -5.34063 1.02401
  393 172.930 3.17370 -3.98439
  394 172.930 3.17370 -3.98439
  395 334.904 29.4580 -41.0163
  396 334.904 29.4580 -41.0163
  397 198.804 -2.83600 -1.93264
  398 198.804 -2.83600 -1.93264
</Section>

newXOutput 51

<Section columns = "stress_xx | stress_yy | stress_xy">
  1 176.720 0.170771 -0.208317
  2 176.795 0.213393 0.281134
  3 176.720 0.170771 -0.208317
  4 176.795 0.213393 0.281134
  5 277.020 14.7414 74.9313
  6 288.138 14.0892 -73.6796
  7 277.020 14.7414 74.9313
  8 288.138 14.0892 -73.6796
  9 177.183 0.121911 -0.545454
  10 178.726 0.217535 -0.965943
  11 180.944 0.497462 -1.95067
  12 186.023 0.191787 -2.60640
  13 192.485 0.330687 -4.22190
  14 199.959 -1.72390 -4.07876
  15 206.657 -2.10445 -0.347111
  16 202.898 -1.46797 3.67642
  17 194.522 1.45644 6.34043
  18 189.983 3.66721 -0.244610
  19 193.322 1.77014 -5.93331
  20 202.652 -2.17411 -4.48521
  21 204.726 -2.55231 1.22769
  22 201.009 -1.14260 3.50269
  23 191.096 0.0971107 4.23252
  24 185.562 0.719394 3.29430
  25 181.068 0.570667 1.87647
  26 178.750 0.174725 0.885723
  27 177.278 0.143732 0.525715
  28 177.076 0.641372 0.328679
  29 176.738 1.32083 0.380273
  30 175.908 2.30262 0.337248
  31 175.576 2.67988 -0.0327346
  32 176.006 2.18328 -0.405385
  33 176.604 1.43988 -0.348237
  34 176.867 0.725930 -0.365813
  35 177.183 0.121911 -0.545454
  36 178.726 0.217535 -0.965943
  37 180.944 0.497462 -1.95067
  38 186.023 0.191787 -2.60640
  39 192.485 0.330687 -4.22190
  40 199.959 -1.72390 -4.07876
  41 206.657 -2.10445 -0.347111
  42 202.898 -1.46797 3.67642
  43 194.522 1.45644 6.34043
  44 189.983 3.66721 -0.244610
  45 193.322 1.77014 -5.93331
  46 202.652 -2.17411 -4.48521
  47 204.726 -2.55231 1.22769
  48 201.009 -1.14260 3.50269
  49 191.096 0.0971107 4.23252
  50 185.562 0.719394 3.29430
  51 181.068 0.570667 1.87647
  52 178.750 0.174725 0.885723
  53 177.278 0.143732 0.525715
  54 177.076 0.641372 0.328679
  55 176.738 1.32083 0.380273
  56 175.908 2.30262 0.337248
  57 175.576 2.67988 -0.0327346
  58 176.006 2.18328 -0.405385
  59 176.604 1.43988 -0.348237
  60 176.867 0.725930 -0.365813
  61 385.517 19.4624 39.7293
  62 351.060 5.80144 14.2995
  63 330.561 2.51351 5.36114
  64 326.209 1.80141 1.09170
  65 330.421 2.36407 -4.59133
  66 345.942 5.00213 -12.4804
  67 389.100 16.9649 -34.1885
  68 50.6054 -58.7865 -60.3186
  69 10.0017 -127.533 -14.7353
  70 3.07141 -143.607 -6.46269
  71 2.92715 -140.883 -3.48646
  72 4.76370 -137.426 6.89755
  73 10.7856 -123.640 15.5647
  74 55.1222 -55.0043 66.9702
  75 385.517 19.4624 39.7293
  76 351.060 5.80144 14.2995
  77 330.561 2.51351 5.36114
  78 326.209 1.80141 1.09170
  79 330.421 2.36407 -4.59133
  80 345.942 5.00213 -12.4804
  81 389.100 16.9649 -34.1885
  82 50.6054 -58.7865 -60.3186
  83 10.0017 -127.533 -14.7353
  84 3.07141 -143.607 -6.46269
  85 2.92715 -140.883 -3.48646
  86 4.76370 -137.426 6.89755
  87 10.7856 -123.640 15.5647
  88 55.1222 -55.0043 66.9702
  89 161.892 9.35882 -2.44956
  90 161.892 9.35882 -2.44956
  91 147.748 2.02444 21.8981
  92 141.915 -0.917370 -26.0501
  93 147.748 2.02444 21.8981
  94 141.915 -0.917370 -26.0501
  95 82.8532 1.84042 10.3915
  96 82.8532 1.84042 10.3915
  97 218.032 13.9436 -3.71511
  98 222.639 7.79097 7.61567
  99 218.032 13.9436 -3.71511
  100 222.639 7.79097 7.61567
  101 174.086 4.27580 2.49136
  102 174.086 4.27580 2.49136
  103 209.105 -11.8842 -0.335035
  104 209.105 -11.8842 -0.335035
  105 174.315 4.46580 -3.07096
  106 174.315 4.46580 -3.07096
  107 205.854 -25.2365 -22.5621
  108 205.854 -25.2365 -22.5621
  109 143.348 -29.6717 56.9040
  110 143.348 -29.6717 56.9040
  111 96.2439 -17.5706 -45.7344
  112 96.2439 -17.5706 -45.7344
  113 175.079 2.99335 10.4996
  114 175.079 2.99335 10.4996
  115 181.679 1.28739 -10.0108
  116 181.679 1.28739 -10.0108
  117 247.587 16.2335 1.38214
  118 265.665 17.3763 1.34915
  119 247.587 16.2335 1.38214
  120 265.665 17.3763 1.34915
  121 259.907 21.6898 -5.93664
  122 259.907 21.6898 -5.93664
  123 28.0201 -46.8985 -14.6353
  124 28.0201 -46.8985 -14.6353
  125 224.054 -27.9527 23.9706
  126 224.054 -27.9527 23.9706
  127 188.007 -4.48768 11.6167
  128 188.007 -4.48768 11.6167
  129 42.6638 -40.5862 33.8225
  130 42.6638 -40.5862 33.8225
  131 174.347 3.57750 -0.159019
  132 174.347 3.57750 -0.159019
  133 187.756 -8.68936 -14.7438
  134 187.756 -8.68936 -14.7438
  135 177.255 1.46256 1.81572
  136 177.255 1.46256 1.81572
  137 177.429 1.28449 -1.69595
  138 177.429 1.28449 -1.69595
  139 179.432 2.51485 -5.34662
  140 179.432 2.51485 -5.34662
  141 178.576 2.44542 4.82530
  142 178.576 2.44542 4.82530
  143 170.691 5.93975 -0.193329
  144 170.691 5.93975 -0.193329
  145 142.024 9.48038 -1.11407
  146 142.024 9.48038 -1.11407
  147 207.913 -7.44360 3.69923
  148 207.913 -7.44360 3.69923
  149 238.611 -8.90879 -8.04755
  150 238.611 -8.90879 -8.04755
  151 183.546 -20.3278 28.4399
  152 183.546 -20.3278 28.4399
  153 138.652 -37.6283 -63.3039
  154 138.652 -37.6283 -63.3039
  155 162.346 6.70695 9.98170
  156 162.346 6.70695 9.98170
  157 211.450 -1.39160 -8.36679
  158 211.450 -1.39160 -8.36679
  159 290.811 22.7758 15.8213
  160 290.811 22.7758 15.8213
  161 144.474 -40.0944 73.5321
  162 144.474 -40.0944 73.5321
  163 297.695 10.0418 -3.34492
  164 297.695 10.0418 -3.34492
  165 169.997 5.91596 4.69491
  166 169.997 5.91596 4.69491
  167 161.380 5.53575 -14.5448
  168 161.380 5.53575 -14.5448
  169 200.031 5.94014 4.88558
  170 200.031 5.94014 4.88558
  171 168.354 7.04680 -5.31709
  172 168.354 7.04680 -5.31709
  173 175.460 2.87813 0.793663
  174 175.460 2.87813 0.793663
  175 178.516 1.39667 -2.87355
  176 178.516 1.39667 -2.87355
  177 278.668 21.0565 -15.1304
  178 278.668 21.0565 -15.1304
  179 175.613 2.79915 -0.959420
  180 175.613 2.79915 -0.959420
  181 128.575 9.38892 -7.52246
  182 128.575 9.38892 -7.52246
  183 234.541 17.2244 2.07977
  184 234.541 17.2244 2.07977
  185 46.9766 -39.8800 -43.7193
  186 46.9766 -39.8800 -43.7193
  187 127.064 -1.45393 31.6401
  188 127.064 -1.45393 31.6401
  189 171.249 -27.4240 -44.1190
  190 171.249 -27.4240 -44.1190
  191 202.200 -5.50119 2.19519
  192 202.200 -5.50119 2.19519
  193 189.067 -0.590440 7.27235
  194 189.067 -0.590440 7.27235
  195 258.722 6.67256 13.9471
  196 258.722 6.67256 13.9471
  197 105.467 3.18545 -19.4773
  198 105.467 3.18545 -19.4773
  199 294.845 13.3524 7.58700
  200 294.845 13.3524 7.58700
  201 192.645 -2.30286 -7.53934
  202 192.645 -2.30286 -7.53934
  203 178.803 0.999447 2.65195
  204 178.803 0.999447 2.65195
  205 200.638 -7.77377 -3.59501
  206 200.638 -7.77377 -3.59501
  207 219.844 -11.2064 -0.564397
  208 219.844 -11.2064 -0.564397
  209 13.6007 -80.4914 6.35573
  210 13.6007 -80.4914 6.35573
  211 184.585 1.02383 -6.48682
  212 184.585 1.02383 -6.48682
  213 182.989 1.47668 5.68970
  214 182.989 1.47668 5.68970
  215 176.092 -16.0831 -28.2297
  216 176.092 -16.0831 -28.2297
  217 205.792 -4.35847 -5.20331
  218 205.792 -4.35847 -5.20331
  219 167.800 6.12011 -9.98695
  220 167.800 6.12011 -9.98695
  221 46.2426 -58.5854 47.6682
  222 46.2426 -58.5854 47.6682
  223 208.368 0.788505 7.84584
  224 208.368 0.788505 7.84584
  225 201.991 5.03296 -6.51800
  226 201.991 5.03296 -6.51800
  227 291.298 17.4429 -12.7940
  228 291.298 17.4429 -12.7940
  229 220.558 -8.35215 -4.52910
  230 220.558 -8.35215 -4.52910
  231 242.245 -12.2126 -40.8136
  232 242.245 -12.2126 -40.8136
  233 176.555 -7.93297 21.8877
  234 176.555 -7.93297 21.8877
  235 172.647 4.96945 0.800074
  236 172.647 4.96945 0.800074
  237 91.0203 -13.6745 40.5401
  238 91.0203 -13.6745 40.5401
  239 231.846 -20.9690 48.1112
  240 231.846 -20.9690 48.1112
  241 61.3371 -8.58023 -19.9547
  242 61.3371 -8.58023 -19.9547
  243 205.074 -15.3065 -9.38721
  244 205.074 -15.3065 -9.38721
  245 166.040 7.57964 5.80675
  246 166.040 7.57964 5.80675
  247 6.11733 -104.208 -5.10687
  248 6.11733 -104.208 -5.10687
  249 11.4999 -92.1442 16.9885
  250 11.4999 -92.1442 16.9885
  251 169.309 1.19849 15.8782
  252 169.309 1.19849 15.8782
  253 177.050 0.683524 0.660880
  254 177.050 0.683524 0.660880
  255 175.442 2.90299 0.124625
  256 175.442 2.90299 0.124625
  257 164.487 -2.02018 -20.9964
  258 164.487 -2.02018 -20.9964
  259 177.172 0.620785 -0.699849
  260 177.172 0.620785 -0.699849
  261 196.672 -13.7625 12.8235
  262 196.672 -13.7625 12.8235
  263 182.125 0.662378 -3.20873
  264 182.125 0.662378 -3.20873
  265 140.524 -11.8971 -38.6738
  266 140.524 -11.8971 -38.6738
  267 240.882 18.3928 -1.40709
  268 240.882 18.3928 -1.40709
  269 175.207 3.95917 -8.19721
  270 175.207 3.95917 -8.19721
  271 174.483 3.70738 -1.66900
  272 174.483 3.70738 -1.66900
  273 147.630 7.19377 -14.4968
  274 147.630 7.19377 -14.4968
  275 44.3208 -18.1494 11.3999
  276 44.3208 -18.1494 11.3999
  277 188.213 -30.9504 39.2828
  278 188.213 -30.9504 39.2828
  279 176.463 2.67561 3.25530
  280 176.463 2.67561 3.25530
  281 263.669 18.7713 -3.77034
  282 263.669 18.7713 -3.77034
  283 318.080 25.7566 35.9194
  284 318.080 25.7566 35.9194
  285 211.451 -22.3896 12.3280
  286 211.451 -22.3896 12.3280
  287 150.584 7.57161 10.6775
  288 150.584 7.57161 10.6775
  289 193.957 -38.2457 51.7322
  290 193.957 -38.2457 51.7322
  291 199.056 -2.29057 4.82257
  292 199.056 -2.29057 4.82257
  293 176.356 1.76428 0.900941
  294 176.356 1.76428 0.900941
  295 173.712 4.84847 -5.27020
  296 173.712 4.84847 -5.27020
  297 175.491 2.85591 -0.247351
  298 175.491 2.85591 -0.247351
  299 178.184 0.499943 -1.25833
  300 178.184 0.499943 -1.25833
  301 181.940 0.924541 3.22143
  302 181.940 0.924541 3.22143
  303 172.703 4.94211 -1.36066
  304 172.703 4.94211 -1.36066
  305 39.7598 -68.4167 -45.1692
  306 39.7598 -68.4167 -45.1692
  307 117.513 7.58242 9.84361
  308 117.513 7.58242 9.84361
  309 176.574 1.47009 -0.866757
  310 176.574 1.47009 -0.866757
  311 154.851 9.00042 -7.15971
  312 154.851 9.00042 -7.15971
  313 155.234 9.81661 2.74314
  314 155.234 9.81661 2.74314
  315 176.172 2.57286 -2.31302
  316 176.172 2.57286 -2.31302
  317 237.545 11.9552 0.412004
  318 237.545 11.9552 0.412004
  319 174.779 4.29675 7.20785
  320 174.779 4.29675 7.20785
  321 223.893 6.75412 -6.86669
  322 223.893 6.75412 -6.86669
  323 335.014 9.59874 22.2009
  324 335.014 9.59874 22.2009
  325 174.080 4.45066 4.56134
  326 174.080 4.45066 4.56134
  327 171.181 5.88456 2.38596
  328 171.181 5.88456 2.38596
  329 135.475 -31.7004 -72.2295
  330 135.475 -31.7004 -72.2295
  331 178.286 0.452274 1.23129
  332 178.286 0.452274 1.23129
  333 174.299 3.73742 1.24644
  334 174.299 3.73742 1.24644
  335 167.592 7.60531 0.272863
  336 167.592 7.60531 0.272863
  337 86.4757 -30.8289 58.5113
  338 86.4757 -30.8289 58.5113
  339 216.584 14.1009 1.20573
  340 216.584 14.1009 1.20573
  341 12.5407 -90.2920 -19.8407
  342 12.5407 -90.2920 -19.8407
  343 134.042 8.46952 8.81123
  344 134.042 8.46952 8.81123
  345 316.756 4.45150 3.17108
  346 316.756 4.45150 3.17108
  347 330.468 16.5064 -22.7508
  348 330.468 16.5064 -22.7508
  349 152.460 -17.5265 43.2588
  350 158.820 -9.04279 32.1978
  351 152.460 -17.5265 43.2588
  352 158.820 -9.04279 32.1978
  353 321.255 8.17258 11.7409
  354 321.255 8.17258 11.7409
  355 180.594 -0.214803 12.3928
  356 180.594 -0.214803 12.3928
  357 215.428 -29.0091 -30.0092
  358 215.428 -29.0091 -30.0092
  359 203.270 -1.79601 6.32409
  360 203.270 -1.79601 6.32409
  361 138.960 -31.5430 79.3088
  362 138.960 -31.5430 79.3088
  363 237.996 19.1275 -0.667080
  364 237.996 19.1275 -0.667080
  365 321.433 3.02968 -2.47189
  366 321.433 3.02968 -2.47189
  367 192.691 0.144246 -6.09362
  368 192.691 0.144246 -6.09362
  369 171.192 6.25297 -2.85206
  370 171.192 6.25297 -2.85206
  371 266.969 20.6828 6.14744
  372 266.969 20.6828 6.14744
  373 202.923 8.40450 -1.37688
  374 202.923 8.40450 -1.37688
  375 185.526 0.734564 -3.95621
  376 185.526 0.734564 -3.95621
  377 49.5054 -25.4170 -33.4144
  378 49.5054 -25.4170 -33.4144
  379 205.284 -3.66942 1.91335
  380 205.284 -3.66942 1.91335
  381 175.153 -0.238852 -14.5856
  382 175.153 -0.238852 -14.5856
  383 201.633 -0.452176 -7.51838
  384 201.633 -0.452176 -7.51838
  385 322.587 5.78874 -9.75798
  386 322.587 5.78874 -9.75798
  387 175.697 2.75652 1.83043
  388 175.697 2.75652 1.83043
  389 214.596 10.3101 6.46122
  390 214.596 10.3101 6.46122
  391 232.718 -5.43874 1.06775
  392 232.718 -5.43874 1.06775
  393 176.388 3.23617 -4.06167
  394 176.388 3.23617 -4.06167
  395 341.484 30.0745 -41.8538
  396 341.484 30.0745 -41.8538
  397 202.764 -2.89360 -1.97396
  398 202.764 -2.89360 -1.97396
</Section>

newXOutput 52

<Section columns = "stress_xx | stress_yy | stress_xy">
  1 180.181 0.174146 -0.212204
  2 180.258 0.217581 0.286375
  3 180.181 0.174146 -0.212204
  4 180.258 0.217581 0.286375
  5 282.348 15.0969 76.4311
  6 293.674 14.4349 -75.1553
  7 282.348 15.0969 76.4311
  8 293.674 14.4349 -75.1553
  9 180.653 0.124292 -0.555655
  10 182.224 0.221748 -0.984071
  11 184.484 0.507016 -1.98746
  12 189.658 0.195363 -2.65583
  13 196.241 0.336614 -4.30290
  14 203.858 -1.75856 -4.15855
  15 210.688 -2.14622 -0.356377
  16 206.866 -1.49667 3.74309
  17 198.341 1.48622 6.45796
  18 193.720 3.74049 -0.249198
  19 197.118 1.80528 -6.04364
  20 206.617 -2.21677 -4.56648
  21 208.720 -2.60303 1.25463
  22 204.929 -1.16549 3.57144
  23 194.827 0.0983257 4.31398
  24 189.189 0.733063 3.35691
  25 184.610 0.581631 1.91182
  26 182.249 0.178112 0.902331
  27 180.750 0.146546 0.535564
  28 180.544 0.653779 0.334801
  29 180.200 1.34628 0.387390
  30 179.355 2.34687 0.343580
  31 179.016 2.73133 -0.0333487
  32 179.454 2.22526 -0.412980
  33 180.063 1.46763 -0.354711
  34 180.331 0.739997 -0.372664
  35 180.653 0.124292 -0.555655
  36 182.224 0.221748 -0.984071
  37 184.484 0.507016 -1.98746
  38 189.658 0.195363 -2.65583
  39 196.241 0.336614 -4.30290
  40 203.858 -1.75856 -4.15855
  41 210.688 -2.14622 -0.356377
  42 206.866 -1.49667 3.74309
  43 198.341 1.48622 6.45796
  44 193.720 3.74049 -0.249198
  45 197.118 1.80528 -6.04364
  46 206.617 -2.21677 -4.56648
  47 208.720 -2.60303 1.25463
  48 204.929 -1.16549 3.57144
  49 194.827 0.0983257 4.31398
  50 189.189 0.733063 3.35691
  51 184.610 0.581631 1.91182
  52 182.249 0.178112 0.902331
  53 180.750 0.146546 0.535564
  54 180.544 0.653779 0.334801
  55 180.200 1.34628 0.387390
  56 179.355 2.34687 0.343580
  57 179.016 2.73133 -0.0333487
  58 179.454 2.22526 -0.412980
  59 180.063 1.46763 -0.354711
  60 180.331 0.739997 -0.372664
  61 392.889 19.8472 40.5027
  62 357.782 5.91133 14.5731
  63 336.902 2.55930 5.46213
  64 332.469 1.83455 1.11145
  65 336.758 2.40799 -4.67753
  66 352.571 5.09635 -12.7177
  67 396.542 17.2999 -34.8546
  68 51.5920 -59.8743 -61.5454
  69 10.1967 -130.047 -15.0497
  70 3.12634 -146.470 -6.59998
  71 2.97963 -143.695 -3.55600
  72 4.85333 -140.160 7.04444
  73 10.9973 -126.077 15.8976
  74 56.1918 -56.0174 68.3298
  75 392.889 19.8472 40.5027
  76 357.782 5.91133 14.5731
  77 336.902 2.55930 5.46213
  78 332.469 1.83455 1.11145
  79 336.758 2.40799 -4.67753
  80 352.571 5.09635 -12.7177
  81 396.542 17.2999 -34.8546
  82 51.5920 -59.8743 -61.5454
  83 10.1967 -130.047 -15.0497
  84 3.12634 -146.470 -6.59998
  85 2.97963 -143.695 -3.55600
  86 4.85333 -140.160 7.04444
  87 10.9973 -126.077 15.8976
  88 56.1918 -56.0174 68.3298
  89 165.074 9.54080 -2.49689
  90 165.074 9.54080 -2.49689
  91 150.654 2.06484 22.3259
  92 144.708 -0.934586 -26.5607
  93 150.654 2.06484 22.3259
  94 144.708 -0.934586 -26.5607
  95 84.5009 1.88321 10.5969
  96 84.5009 1.88321 10.5969
  97 222.299 14.2183 -3.78040
  98 226.986 7.94851 7.74639
  99 222.299 14.2183 -3.78040
  100 226.986 7.94851 7.74639
  101 177.499 4.35825 2.53863
  102 177.499 4.35825 2.53863
  103 213.186 -12.1163 -0.328605
  104 213.186 -12.1163 -0.328605
  105 177.732 4.55198 -3.12929
  106 177.732 4.55198 -3.12929
  107 209.863 -25.7312 -23.0145
  108 209.863 -25.7312 -23.0145
  109 146.154 -30.2558 58.0323
  110 146.154 -30.2558 58.0323
  111 98.1418 -17.9128 -46.6445
  112 98.1418 -17.9128 -46.6445
  113 178.510 3.05090 10.7025
  114 178.510 3.05090 10.7025
  115 185.235 1.31142 -10.2049
  116 185.235 1.31142 -10.2049
  117 252.409 16.5582 1.43263
  118 270.830 17.7106 1.37927
  119 252.409 16.5582 1.43263
  120 270.830 17.7106 1.37927
  121 264.965 22.1170 -6.07107
  122 264.965 22.1170 -6.07107
  123 28.5757 -47.8090 -14.9340
  124 28.5757 -47.8090 -14.9340
  125 228.407 -28.4929 24.4608
  126 228.407 -28.4929 24.4608
  127 191.683 -4.57637 11.8456
  128 191.683 -4.57637 11.8456
  129 43.5100 -41.3722 34.5088
  130 43.5100 -41.3722 34.5088
  131 177.765 3.64636 -0.162006
  132 177.765 3.64636 -0.162006
  133 191.425 -8.86041 -15.0358
  134 191.425 -8.86041 -15.0358
  135 180.727 1.49076 1.84994
  136 180.727 1.49076 1.84994
  137 180.903 1.30928 -1.72787
  138 180.903 1.30928 -1.72787
  139 182.945 2.56313 -5.44863
  140 182.945 2.56313 -5.44863
  141 182.072 2.49247 4.91718
  142 182.072 2.49247 4.91718
  143 174.040 6.05451 -0.197072
  144 174.040 6.05451 -0.197072
  145 144.826 9.66624 -1.13596
  146 144.826 9.66624 -1.13596
  147 211.974 -7.58839 3.76012
  148 211.974 -7.58839 3.76012
  149 243.248 -9.06970 -8.23219
  150 243.248 -9.06970 -8.23219
  151 187.130 -20.7274 29.0021
  152 187.130 -20.7274 29.0021
  153 141.359 -38.3599 -64.5715
  154 141.359 -38.3599 -64.5715
  155 165.535 6.83765 10.1750
  156 165.535 6.83765 10.1750
  157 215.581 -1.41665 -8.51624
  158 215.581 -1.41665 -8.51624
  159 296.444 23.2239 16.1448
  160 296.444 23.2239 16.1448
  161 147.294 -40.8782 74.9990
  162 147.294 -40.8782 74.9990
  163 303.447 10.2316 -3.41089
  164 303.447 10.2316 -3.41089
  165 173.333 6.03037 4.78479
  166 173.333 6.03037 4.78479
  167 164.550 5.64379 -14.8277
  168 164.550 5.64379 -14.8277
  169 203.956 6.05866 4.97568
  170 203.956 6.05866 4.97568
  171 171.659 7.18332 -5.41915
  172 171.659 7.18332 -5.41915
  173 178.899 2.93348 0.808623
  174 178.899 2.93348 0.808623
  175 182.011 1.42353 -2.92790
  176 182.011 1.42353 -2.92790
  177 284.071 21.4827 -15.4527
  178 284.071 21.4827 -15.4527
  179 179.054 2.85302 -0.977487
  180 179.054 2.85302 -0.977487
  181 131.116 9.57472 -7.66972
  182 131.116 9.57472 -7.66972
  183 239.120 17.5630 2.10717
  184 239.120 17.5630 2.10717
  185 47.9052 -40.6520 -44.6049
  186 47.9052 -40.6520 -44.6049
  187 129.568 -1.48069 32.2618
  188 129.568 -1.48069 32.2618
  189 174.593 -27.9633 -44.9935
  190 174.593 -27.9633 -44.9935
  191 206.149 -5.60967 2.24412
  192 206.149 -5.60967 2.24412
  193 192.761 -0.602912 7.41371
  194 192.761 -0.602912 7.41371
  195 263.744 6.82095 14.2497
  196 263.744 6.82095 14.2497
  197 107.555 3.25201 -19.8613
  198 107.555 3.25201 -19.8613
  199 300.549 13.6072 7.73819
  200 300.549 13.6072 7.73819
  201 196.408 -2.34897 -7.68786
  202 196.408 -2.34897 -7.68786
  203 182.303 1.01863 2.70207
  204 182.303 1.01863 2.70207
  205 204.555 -7.92712 -3.67189
  206 204.555 -7.92712 -3.67189
  207 224.129 -11.4218 -0.593505
  208 224.129 -11.4218 -0.593505
  209 13.8678 -82.0743 6.48727
  210 13.8678 -82.0743 6.48727
  211 188.194 1.04286 -6.61156
  212 188.194 1.04286 -6.61156
  213 186.569 1.50488 5.79874
  214 186.569 1.50488 5.79874
  215 179.536 -16.3991 -28.7869
  216 179.536 -16.3991 -28.7869
  217 209.814 -4.44380 -5.29509
  218 209.814 -4.44380 -5.29509
  219 171.093 6.23896 -10.1803
  220 171.093 6.23896 -10.1803
  221 47.1509 -59.7194 48.6387
  222 47.1509 -59.7194 48.6387
  223 212.444 0.806770 7.98715
  224 212.444 0.806770 7.98715
  225 205.952 5.13357 -6.63745
  226 205.952 5.13357 -6.63745
  227 296.938 17.7796 -13.0527
  228 296.938 17.7796 -13.0527
  229 224.857 -8.51154 -4.59921
  230 224.857 -8.51154 -4.59921
  231 246.940 -12.4236 -41.6456
  232 246.940 -12.4236 -41.6456
  233 180.010 -8.08869 22.3172
  234 180.010 -8.08869 22.3172
  235 176.033 5.06532 0.815282
  236 176.033 5.06532 0.815282
  237 92.8185 -13.9393 41.3459
  238 92.8185 -13.9393 41.3459
  239 236.339 -21.3572 49.0840
  240 236.339 -21.3572 49.0840
  241 62.5581 -8.73932 -20.3531
  242 62.5581 -8.73932 -20.3531
  243 209.073 -15.6066 -9.58079
  244 209.073 -15.6066 -9.58079
  245 169.301 7.72681 5.91858
  246 169.301 7.72681 5.91858
  247 6.23436 -106.268 -5.21376
  248 6.23436 -106.268 -5.21376
  249 11.7247 -93.9557 17.3431
  250 11.7247 -93.9557 17.3431
  251 172.629 1.22163 16.1875
  252 172.629 1.22163 16.1875
  253 180.518 0.696746 0.673267
  254 180.518 0.696746 0.673267
  255 178.880 2.95876 0.126979
  256 178.880 2.95876 0.126979
  257 167.713 -2.06002 -21.4072
  258 167.713 -2.06002 -21.4072
  259 180.641 0.632823 -0.712969
  260 180.641 0.632823 -0.712969
  261 200.511 -14.0327 13.0812
  262 200.511 -14.0327 13.0812
  263 185.688 0.674991 -3.26956
  264 185.688 0.674991 -3.26956
  265 143.284 -12.1307 -39.4361
  266 143.284 -12.1307 -39.4361
  267 245.581 18.7534 -1.42145
  268 245.581 18.7534 -1.42145
  269 178.640 4.03547 -8.35485
  270 178.640 4.03547 -8.35485
  271 177.903 3.77881 -1.70056
  272 177.903 3.77881 -1.70056
  273 150.537 7.33507 -14.7795
  274 150.537 7.33507 -14.7795
  275 45.2043 -18.4930 11.6294
  276 45.2043 -18.4930 11.6294
  277 191.881 -31.5587 40.0630
  278 191.881 -31.5587 40.0630
  279 179.920 2.72716 3.31697
  280 179.920 2.72716 3.31697
  281 268.797 19.1341 -3.85079
  282 268.797 19.1341 -3.85079
  283 324.214 26.2815 36.6412
  284 324.214 26.2815 36.6412
  285 215.569 -22.8269 12.5838
  286 215.569 -22.8269 12.5838
  287 153.549 7.71995 10.8849
  288 153.549 7.71995 10.8849
  289 197.730 -38.9956 52.7613
  290 197.730 -38.9956 52.7613
  291 202.941 -2.33621 4.91849
  292 202.941 -2.33621 4.91849
  293 179.811 1.79825 0.917879
  294 179.811 1.79825 0.917879
  295 177.118 4.94210 -5.37082
  296 177.118 4.94210 -5.37082
  297 178.930 2.91078 -0.252004
  298 178.930 2.91078 -0.252004
  299 181.673 0.509598 -1.28199
  300 181.673 0.509598 -1.28199
  301 185.499 0.942228 3.28251
  302 185.499 0.942228 3.28251
  303 176.090 5.03747 -1.38652
  304 176.090 5.03747 -1.38652
  305 40.5396 -69.7401 -46.0920
  306 40.5396 -69.7401 -46.0920
  307 119.838 7.73391 10.0364
  308 119.838 7.73391 10.0364
  309 180.033 1.49844 -0.883033
  310 180.033 1.49844 -0.883033
  311 157.898 9.17605 -7.29867
  312 157.898 9.17605 -7.29867
  313 158.289 10.0081 2.79614
  314 158.289 10.0081 2.79614
  315 179.623 2.62243 -2.35673
  316 179.623 2.62243 -2.35673
  317 242.174 12.1981 0.396329
  318 242.174 12.1981 0.396329
  319 178.204 4.37972 7.34602
  320 178.204 4.37972 7.34602
  321 228.264 6.89108 -6.98312
  322 228.264 6.89108 -6.98312
  323 341.456 9.78131 22.6350
  324 341.456 9.78131 22.6350
  325 177.493 4.53657 4.64827
  326 177.493 4.53657 4.64827
  327 174.540 5.99826 2.43143
  328 174.540 5.99826 2.43143
  329 138.109 -32.2701 -73.6877
  330 138.109 -32.2701 -73.6877
  331 181.776 0.461001 1.25444
  332 181.776 0.461001 1.25444
  333 177.716 3.80939 1.27001
  334 177.716 3.80939 1.27001
  335 170.882 7.75266 0.278070
  336 170.882 7.75266 0.278070
  337 88.1795 -31.4316 59.6835
  338 88.1795 -31.4316 59.6835
  339 220.825 14.3786 1.22623
  340 220.825 14.3786 1.22623
  341 12.7845 -92.0659 -20.2514
  342 12.7845 -92.0659 -20.2514
  343 136.689 8.63657 8.98290
  344 136.689 8.63657 8.98290
  345 322.851 4.53463 3.23109
  346 322.851 4.53463 3.23109
  347 336.833 16.8291 -23.1982
  348 336.833 16.8291 -23.1982
  349 155.446 -17.8714 44.1117
  350 161.934 -9.22020 32.8293
  351 155.446 -17.8714 44.1117
  352 161.934 -9.22020 32.8293
  353 327.439 8.32666 11.9679
  354 327.439 8.32666 11.9679
  355 184.129 -0.219752 12.6341
  356 184.129 -0.219752 12.6341
  357 219.614 -29.5741 -30.6143
  358 219.614 -29.5741 -30.6143
  359 207.248 -1.83037 6.43970
  360 207.248 -1.83037 6.43970
  361 141.655 -32.1126 80.9047
  362 141.655 -32.1126 80.9047
  363 242.643 19.5001 -0.679595
  364 242.643 19.5001 -0.679595
  365 327.611 3.08596 -2.51929
  366 327.611 3.08596 -2.51929
  367 196.453 0.146122 -6.21159
  368 196.453 0.146122 -6.21159
  369 174.550 6.37387 -2.90650
  370 174.550 6.37387 -2.90650
  371 272.159 21.0857 6.28073
  372 272.159 21.0857 6.28073
  373 206.904 8.57075 -1.40216
  374 206.904 8.57075 -1.40216
  375 189.152 0.748361 -4.03166
  376 189.152 0.748361 -4.03166
  377 50.4920 -25.9065 -34.0875
  378 50.4920 -25.9065 -34.0875
  379 209.293 -3.74155 1.94471
  380 209.293 -3.74155 1.94471
  381 178.584 -0.244294 -14.8703
  382 178.584 -0.244294 -14.8703
  383 205.582 -0.460376 -7.65645
  384 205.582 -0.460376 -7.65645
  385 328.793 5.89823 -9.94590
  386 328.793 5.89823 -9.94590
  387 179.140 2.80958 1.86500
  388 179.140 2.80958 1.86500
  389 218.794 10.5150 6.57598
  390 218.794 10.5150 6.57598
  391 237.246 -5.53644 1.11236
  392 237.246 -5.53644 1.11236
  393 179.843 3.29855 -4.13880
  394 179.843 3.29855 -4.13880
  395 348.053 30.6916 -42.6912
  396 348.053 30.6916 -42.6912
  397 206.720 -2.95119 -2.01534
  398 206.720 -2.95119 -2.01534
</Section>

newXOutput 53

<Section columns = "stress_xx | stress_yy | stress_xy">
  1 183.640 0.177518 -0.216081
  2 183.718 0.221766 0.291602
  3 183.640 0.177518 -0.216081
  4 183.718 0.221766 0.291602
  5 287.667 15.4546 77.9310
  6 299.201 14.7829 -76.6311
  7 287.667 15.4546 77.9310
  8 299.201 14.7829 -76.6311
  9 184.120 0.126670 -0.565828
  10 185.720 0.225955 -1.00215
  11 188.021 0.516555 -2.02417
  12 193.289 0.198929 -2.70517
  13 199.995 0.342515 -4.38377
  14 207.754 -1.79323 -4.23826
  15 214.715 -2.18798 -0.365730
  16 210.831 -1.52534 3.80951
  17 202.156 1.51603 6.57513
  18 197.454 3.81377 -0.253774
  19 200.912 1.84042 -6.15366
  20 210.578 -2.25940 -4.64742
  21 212.710 -2.65374 1.28166
  22 208.845 -1.18839 3.64014
  23 198.555 0.0995134 4.39531
  24 192.812 0.746705 3.41938
  25 188.149 0.592577 1.94710
  26 185.746 0.181495 0.918899
  27 184.219 0.149358 0.545387
  28 184.010 0.666169 0.340906
  29 183.659 1.37171 0.394489
  30 182.798 2.39105 0.349896
  31 182.454 2.78270 -0.0339612
  32 182.900 2.26717 -0.420555
  33 183.519 1.49535 -0.361165
  34 183.793 0.754046 -0.379497
  35 184.120 0.126670 -0.565828
  36 185.720 0.225955 -1.00215
  37 188.021 0.516555 -2.02417
  38 193.289 0.198929 -2.70517
  39 199.995 0.342515 -4.38377
  40 207.754 -1.79323 -4.23826
  41 214.715 -2.18798 -0.365730
  42 210.831 -1.52534 3.80951
  43 202.156 1.51603 6.57513
  44 197.454 3.81377 -0.253774
  45 200.912 1.84042 -6.15366
  46 210.578 -2.25940 -4.64742
  47 212.710 -2.65374 1.28166
  48 208.845 -1.18839 3.64014
  49 198.555 0.0995134 4.39531
  50 192.812 0.746705 3.41938
  51 188.149 0.592577 1.94710
  52 185.746 0.181495 0.918899
  53 184.219 0.149358 0.545387
  54 184.010 0.666169 0.340906
  55 183.659 1.37171 0.394489
  56 182.798 2.39105 0.349896
  57 182.454 2.78270 -0.0339612
  58 182.900 2.26717 -0.420555
  59 183.519 1.49535 -0.361165
  60 183.793 0.754046 -0.379497
  61 400.249 20.2319 41.2753
  62 364.493 6.02099 14.8462
  63 343.232 2.60493 5.56289
  64 338.718 1.86757 1.13112
  65 343.085 2.45179 -4.76353
  66 359.188 5.19036 -12.9547
  67 403.971 17.6347 -35.5200
  68 52.5775 -60.9587 -62.7729
  69 10.3916 -132.560 -15.3649
  70 3.18101 -149.333 -6.73759
  71 3.03188 -146.506 -3.62553
  72 4.94274 -142.895 7.19167
  73 11.2089 -128.512 16.2314
  74 57.2601 -57.0272 69.6902
  75 400.249 20.2319 41.2753
  76 364.493 6.02099 14.8462
  77 343.232 2.60493 5.56289
  78 338.718 1.86757 1.13112
  79 343.085 2.45179 -4.76353
  80 359.188 5.19036 -12.9547
  81 403.971 17.6347 -35.5200
  82 52.5775 -60.9587 -62.7729
  83 10.3916 -132.560 -15.3649
  84 3.18101 -149.333 -6.73759
  85 3.03188 -146.506 -3.62553
  86 4.94274 -142.895 7.19167
  87 11.2089 -128.512 16.2314
  88 57.2601 -57.0272 69.6902
  89 168.255 9.72259 -2.54415
  90 168.255 9.72259 -2.54415
  91 153.558 2.10523 22.7534
  92 147.499 -0.951760 -27.0709
  93 153.558 2.10523 22.7534
  94 147.499 -0.951760 -27.0709
  95 86.1482 1.92623 10.8022
  96 86.1482 1.92623 10.8022
  97 226.563 14.4929 -3.84535
  98 231.330 8.10611 7.87629
  99 226.563 14.4929 -3.84535
  100 231.330 8.10611 7.87629
  101 180.909 4.44057 2.58581
  102 180.909 4.44057 2.58581
  103 217.262 -12.3483 -0.321684
  104 217.262 -12.3483 -0.321684
  105 181.147 4.63804 -3.18750
  106 181.147 4.63804 -3.18750
  107 213.868 -26.2255 -23.4670
  108 213.868 -26.2255 -23.4670
  109 148.958 -30.8396 59.1602
  110 148.958 -30.8396 59.1602
  111 100.039 -18.2546 -47.5545
  112 100.039 -18.2546 -47.5545
  113 181.937 3.10836 10.9052
  114 181.937 3.10836 10.9052
  115 188.787 1.33540 -10.3988
  116 188.787 1.33540 -10.3988
  117 257.226 16.8828 1.48396
  118 275.989 18.0445 1.40950
  119 257.226 16.8828 1.48396
  120 275.989 18.0445 1.40950
  121 270.018 22.5439 -6.20606
  122 270.018 22.5439 -6.20606
  123 29.1311 -48.7184 -15.2328
  124 29.1311 -48.7184 -15.2328
  125 232.755 -29.0325 24.9514
  126 232.755 -29.0325 24.9514
  127 195.355 -4.66502 12.0745
  128 195.355 -4.66502 12.0745
  129 44.3559 -42.1572 35.1954
  130 44.3559 -42.1572 35.1954
  131 181.180 3.71512 -0.164986
  132 181.180 3.71512 -0.164986
  133 195.091 -9.03137 -15.3277
  134 195.091 -9.03137 -15.3277
  135 184.195 1.51891 1.88407
  136 184.195 1.51891 1.88407
  137 184.375 1.33405 -1.75971
  138 184.375 1.33405 -1.75971
  139 186.454 2.61135 -5.55047
  140 186.454 2.61135 -5.55047
  141 185.566 2.53944 5.00889
  142 185.566 2.53944 5.00889
  143 177.387 6.16912 -0.200809
  144 177.387 6.16912 -0.200809
  145 147.626 9.85196 -1.15785
  146 147.626 9.85196 -1.15785
  147 216.030 -7.73302 3.82053
  148 216.030 -7.73302 3.82053
  149 247.881 -9.22995 -8.41771
  150 247.881 -9.22995 -8.41771
  151 190.711 -21.1267 29.5641
  152 190.711 -21.1267 29.5641
  153 144.064 -39.0908 -65.8391
  154 144.064 -39.0908 -65.8391
  155 168.722 6.96822 10.3681
  156 168.722 6.96822 10.3681
  157 219.709 -1.44159 -8.66502
  158 219.709 -1.44159 -8.66502
  159 302.070 23.6718 16.4686
  160 302.070 23.6718 16.4686
  161 150.111 -41.6614 76.4656
  162 150.111 -41.6614 76.4656
  163 309.192 10.4211 -3.47682
  164 309.192 10.4211 -3.47682
  165 176.666 6.14464 4.87452
  166 176.666 6.14464 4.87452
  167 167.718 5.75172 -15.1102
  168 167.718 5.75172 -15.1102
  169 207.878 6.17718 5.06549
  170 207.878 6.17718 5.06549
  171 174.961 7.31966 -5.52105
  172 174.961 7.31966 -5.52105
  173 182.334 2.98876 0.823549
  174 182.334 2.98876 0.823549
  175 185.502 1.45035 -2.98213
  176 185.502 1.45035 -2.98213
  177 289.467 21.9090 -15.7757
  178 289.467 21.9090 -15.7757
  179 182.492 2.90682 -0.995511
  180 182.492 2.90682 -0.995511
  181 133.655 9.76045 -7.81686
  182 133.655 9.76045 -7.81686
  183 243.695 17.9014 2.13405
  184 243.695 17.9014 2.13405
  185 48.8335 -41.4230 -45.4908
  186 48.8335 -41.4230 -45.4908
  187 132.070 -1.50737 32.8831
  188 132.070 -1.50737 32.8831
  189 177.934 -28.5023 -45.8678
  190 177.934 -28.5023 -45.8678
  191 210.093 -5.71809 2.29324
  192 210.093 -5.71809 2.29324
  193 196.453 -0.615410 7.55492
  194 196.453 -0.615410 7.55492
  195 268.760 6.96991 14.5533
  196 268.760 6.96991 14.5533
  197 109.643 3.31868 -20.2450
  198 109.643 3.31868 -20.2450
  199 306.245 13.8614 7.88935
  200 306.245 13.8614 7.88935
  201 200.168 -2.39509 -7.83629
  202 200.168 -2.39509 -7.83629
  203 185.801 1.03779 2.75208
  204 185.801 1.03779 2.75208
  205 208.469 -8.08038 -3.74895
  206 208.469 -8.08038 -3.74895
  207 228.408 -11.6368 -0.623279
  208 228.408 -11.6368 -0.623279
  209 14.1348 -83.6561 6.61897
  210 14.1348 -83.6561 6.61897
  211 191.800 1.06184 -6.73611
  212 191.800 1.06184 -6.73611
  213 190.145 1.53303 5.90759
  214 190.145 1.53303 5.90759
  215 182.976 -16.7150 -29.3438
  216 182.976 -16.7150 -29.3438
  217 213.833 -4.52906 -5.38641
  218 213.833 -4.52906 -5.38641
  219 174.383 6.35768 -10.3733
  220 174.383 6.35768 -10.3733
  221 48.0585 -60.8519 49.6099
  222 48.0585 -60.8519 49.6099
  223 216.517 0.825131 8.12788
  224 216.517 0.825131 8.12788
  225 209.909 5.23418 -6.75649
  226 209.909 5.23418 -6.75649
  227 302.571 18.1158 -13.3115
  228 302.571 18.1158 -13.3115
  229 229.151 -8.67064 -4.66854
  230 229.151 -8.67064 -4.66854
  231 251.630 -12.6333 -42.4781
  232 251.630 -12.6333 -42.4781
  233 183.462 -8.24430 22.7464
  234 183.462 -8.24430 22.7464
  235 179.417 5.16106 0.830460
  236 179.417 5.16106 0.830460
  237 94.6158 -14.2037 42.1516
  238 94.6158 -14.2037 42.1516
  239 240.828 -21.7441 50.0573
  240 240.828 -21.7441 50.0573
  241 63.7789 -8.89794 -20.7515
  242 63.7789 -8.89794 -20.7515
  243 213.068 -15.9066 -9.77459
  244 213.068 -15.9066 -9.77459
  245 172.559 7.87382 6.03025
  246 172.559 7.87382 6.03025
  247 6.35118 -108.327 -5.32085
  248 6.35118 -108.327 -5.32085
  249 11.9493 -95.7659 17.6982
  250 11.9493 -95.7659 17.6982
  251 175.947 1.24474 16.4964
  252 175.947 1.24474 16.4964
  253 183.983 0.709950 0.685623
  254 183.983 0.709950 0.685623
  255 182.315 3.01444 0.129328
  256 182.315 3.01444 0.129328
  257 170.937 -2.09983 -21.8176
  258 170.937 -2.09983 -21.8176
  259 184.108 0.644847 -0.726057
  260 184.108 0.644847 -0.726057
  261 204.346 -14.3027 13.3389
  262 204.346 -14.3027 13.3389
  263 189.247 0.687581 -3.33027
  264 189.247 0.687581 -3.33027
  265 146.041 -12.3641 -40.1979
  266 146.041 -12.3641 -40.1979
  267 250.276 19.1137 -1.43531
  268 250.276 19.1137 -1.43531
  269 182.071 4.11167 -8.51225
  270 182.071 4.11167 -8.51225
  271 181.320 3.85013 -1.73205
  272 181.320 3.85013 -1.73205
  273 153.443 7.47626 -15.0618
  274 153.443 7.47626 -15.0618
  275 46.0876 -18.8359 11.8589
  276 46.0876 -18.8359 11.8589
  277 195.545 -32.1665 40.8430
  278 195.545 -32.1665 40.8430
  279 183.374 2.77864 3.37852
  280 183.374 2.77864 3.37852
  281 273.920 19.4964 -3.93142
  282 273.920 19.4964 -3.93142
  283 330.339 26.8067 37.3629
  284 330.339 26.8067 37.3629
  285 219.683 -23.2638 12.8400
  286 219.683 -23.2638 12.8400
  287 156.511 7.86818 11.0921
  288 156.511 7.86818 11.0921
  289 201.498 -39.7449 53.7901
  290 201.498 -39.7449 53.7901
  291 206.823 -2.38183 5.01439
  292 206.823 -2.38183 5.01439
  293 183.263 1.83216 0.934776
  294 183.263 1.83216 0.934776
  295 180.521 5.03560 -5.47126
  296 180.521 5.03560 -5.47126
  297 182.366 2.96557 -0.256645
  298 182.366 2.96557 -0.256645
  299 185.158 0.519239 -1.30559
  300 185.158 0.519239 -1.30559
  301 189.055 0.959885 3.34345
  302 189.055 0.959885 3.34345
  303 179.474 5.13270 -1.41233
  304 179.474 5.13270 -1.41233
  305 41.3187 -71.0617 -47.0155
  306 41.3187 -71.0617 -47.0155
  307 122.162 7.88539 10.2290
  308 122.162 7.88539 10.2290
  309 183.489 1.52673 -0.899269
  310 183.489 1.52673 -0.899269
  311 160.944 9.35152 -7.43747
  312 160.944 9.35152 -7.43747
  313 161.342 10.1995 2.84907
  314 161.342 10.1995 2.84907
  315 183.072 2.67193 -2.40035
  316 183.072 2.67193 -2.40035
  317 246.798 12.4412 0.379767
  318 246.798 12.4412 0.379767
  319 181.627 4.46257 7.48396
  320 181.627 4.46257 7.48396
  321 232.630 7.02812 -7.09876
  322 232.630 7.02812 -7.09876
  323 347.888 9.96353 23.0688
  324 347.888 9.96353 23.0688
  325 180.903 4.62237 4.73504
  326 180.903 4.62237 4.73504
  327 177.896 6.11180 2.47682
  328 177.896 6.11180 2.47682
  329 140.741 -32.8373 -75.1464
  330 140.741 -32.8373 -75.1464
  331 185.264 0.469717 1.27753
  332 185.264 0.469717 1.27753
  333 181.130 3.88126 1.29354
  334 181.130 3.88126 1.29354
  335 174.171 7.89983 0.283267
  336 174.171 7.89983 0.283267
  337 89.8824 -32.0337 60.8558
  338 89.8824 -32.0337 60.8558
  339 225.062 14.6560 1.24659
  340 225.062 14.6560 1.24659
  341 13.0280 -93.8385 -20.6626
  342 13.0280 -93.8385 -20.6626
  343 139.334 8.80352 9.15440
  344 139.334 8.80352 9.15440
  345 328.936 4.61754 3.29096
  346 328.936 4.61754 3.29096
  347 343.188 17.1515 -23.6454
  348 343.188 17.1515 -23.6454
  349 158.430 -18.2160 44.9640
  350 165.045 -9.39748 33.4603
  351 158.430 -18.2160 44.9640
  352 165.045 -9.39748 33.4603
  353 333.613 8.48039 12.1946
  354 333.613 8.48039 12.1946
  355 187.661 -0.224726 12.8750
  356 187.661 -0.224726 12.8750
  357 223.796 -30.1385 -31.2195
  358 223.796 -30.1385 -31.2195
  359 211.222 -1.86467 6.55489
  360 211.222 -1.86467 6.55489
  361 144.347 -32.6799 82.5009
  362 144.347 -32.6799 82.5009
  363 247.286 19.8724 -0.692079
  364 247.286 19.8724 -0.692079
  365 333.780 3.14209 -2.56661
  366 333.780 3.14209 -2.56661
  367 200.212 0.147961 -6.32942
  368 200.212 0.147961 -6.32942
  369 177.906 6.49460 -2.96084
  370 177.906 6.49460 -2.96084
  371 277.343 21.4881 6.41438
  372 277.343 21.4881 6.41438
  373 210.881 8.73692 -1.42734
  374 210.881 8.73692 -1.42734
  375 192.775 0.762124 -4.10697
  376 192.775 0.762124 -4.10697
  377 51.4785 -26.3953 -34.7608
  378 51.4785 -26.3953 -34.7608
  379 213.298 -3.81364 1.97582
  380 213.298 -3.81364 1.97582
  381 182.013 -0.249760 -15.1546
  382 182.013 -0.249760 -15.1546
  383 209.528 -0.468543 -7.79407
  384 209.528 -0.468543 -7.79407
  385 334.990 6.00748 -10.1335
  386 334.990 6.00748 -10.1335
  387 182.580 2.86257 1.89948
  388 182.580 2.86257 1.89948
  389 222.989 10.7199 6.69020
  390 222.989 10.7199 6.69020
  391 241.769 -5.63370 1.15784
  392 241.769 -5.63370 1.15784
  393 183.296 3.36085 -4.21577
  394 183.296 3.36085 -4.21577
  395 354.612 31.3092 -43.5286
  396 354.612 31.3092 -43.5286
  397 210.673 -3.00876 -2.05679
  398 210.673 -3.00876 -2.05679
</Section>

newXOutput 54

<Section columns = "stress_xx | stress_yy | stress_xy">
  1 187.095 0.180890 -0.219947
  2 187.175 0.225948 0.296815
  3 187.095 0.180890 -0.219947
  4 187.175 0.225948 0.296815
  5 292.979 15.8146 79.4307
  6 304.719 15.1335 -78.1068
  7 292.979 15.8146 79.4307
  8 304.719 15.1335 -78.1068
  9 187.584 0.129046 -0.575976
  10 189.213 0.230158 -1.02019
  11 191.554 0.526079 -2.06079
  12 196.917 0.202486 -2.75441
  13 203.744 0.348391 -4.46452
  14 211.646 -1.82791 -4.31790
  15 218.737 -2.22972 -0.375167
  16 214.793 -1.55398 3.87567
  17 205.970 1.54586 6.69196
  18 201.187 3.88705 -0.258338
  19 204.704 1.87555 -6.26336
  20 214.536 -2.30201 -4.72806
  21 216.696 -2.70443 1.30877
  22 212.757 -1.21129 3.70879
  23 202.279 0.100674 4.47653
  24 196.432 0.760319 3.48174
  25 191.685 0.603507 1.98229
  26 189.239 0.184873 0.935424
  27 187.685 0.152168 0.555186
  28 187.472 0.678544 0.346995
  29 187.115 1.39709 0.401570
  30 186.240 2.43516 0.356197
  31 185.889 2.83399 -0.0345722
  32 186.342 2.30901 -0.428111
  33 186.973 1.52302 -0.367601
  34 187.251 0.768078 -0.386313
  35 187.584 0.129046 -0.575976
  36 189.213 0.230158 -1.02019
  37 191.554 0.526079 -2.06079
  38 196.917 0.202486 -2.75441
  39 203.744 0.348391 -4.46452
  40 211.646 -1.82791 -4.31790
  41 218.737 -2.22972 -0.375167
  42 214.793 -1.55398 3.87567
  43 205.970 1.54586 6.69196
  44 201.187 3.88705 -0.258338
  45 204.704 1.87555 -6.26336
  46 214.536 -2.30201 -4.72806
  47 216.696 -2.70443 1.30877
  48 212.757 -1.21129 3.70879
  49 202.279 0.100674 4.47653
  50 196.432 0.760319 3.48174
  51 191.685 0.603507 1.98229
  52 189.239 0.184873 0.935424
  53 187.685 0.152168 0.555186
  54 187.472 0.678544 0.346995
  55 187.115 1.39709 0.401570
  56 186.240 2.43516 0.356197
  57 185.889 2.83399 -0.0345722
  58 186.342 2.30901 -0.428111
  59 186.973 1.52302 -0.367601
  60 187.251 0.768078 -0.386313
  61 407.596 20.6164 42.0470
  62 371.193 6.13042 15.1189
  63 349.553 2.65039 5.66342
  64 344.958 1.90049 1.15071
  65 349.403 2.49546 -4.84932
  66 365.795 5.28416 -13.1911
  67 411.388 17.9693 -36.1846
  68 53.5621 -62.0397 -64.0012
  69 10.5862 -135.071 -15.6809
  70 3.23543 -152.195 -6.87552
  71 3.08390 -149.318 -3.69505
  72 5.03194 -145.628 7.33926
  73 11.4203 -130.946 16.5661
  74 58.3272 -58.0336 71.0512
  75 407.596 20.6164 42.0470
  76 371.193 6.13042 15.1189
  77 349.553 2.65039 5.66342
  78 344.958 1.90049 1.15071
  79 349.403 2.49546 -4.84932
  80 365.795 5.28416 -13.1911
  81 411.388 17.9693 -36.1846
  82 53.5621 -62.0397 -64.0012
  83 10.5862 -135.071 -15.6809
  84 3.23543 -152.195 -6.87552
  85 3.08390 -149.318 -3.69505
  86 5.03194 -145.628 7.33926
  87 11.4203 -130.946 16.5661
  88 58.3272 -58.0336 71.0512
  89 171.433 9.90418 -2.59135
  90 171.433 9.90418 -2.59135
  91 156.460 2.14562 23.1804
  92 150.288 -0.968892 -27.5807
  93 156.460 2.14562 23.1804
  94 150.288 -0.968892 -27.5807
  95 87.7952 1.96947 11.0074
  96 87.7952 1.96947 11.0074
  97 230.823 14.7673 -3.90997
  98 235.670 8.26378 8.00539
  99 230.823 14.7673 -3.90997
  100 235.670 8.26378 8.00539
  101 184.316 4.52278 2.63288
  102 184.316 4.52278 2.63288
  103 221.334 -12.5800 -0.314273
  104 221.334 -12.5800 -0.314273
  105 184.558 4.72397 -3.24560
  106 184.558 4.72397 -3.24560
  107 217.868 -26.7195 -23.9195
  108 217.868 -26.7195 -23.9195
  109 151.760 -31.4230 60.2878
  110 151.760 -31.4230 60.2878
  111 101.934 -18.5960 -48.4643
  112 101.934 -18.5960 -48.4643
  113 185.363 3.16574 11.1076
  114 185.363 3.16574 11.1076
  115 192.336 1.35931 -10.5924
  116 192.336 1.35931 -10.5924
  117 262.038 17.2074 1.53613
  118 281.143 18.3778 1.43985
  119 262.038 17.2074 1.53613
  120 281.143 18.3778 1.43985
  121 275.065 22.9706 -6.34161
  122 275.065 22.9706 -6.34161
  123 29.6862 -49.6267 -15.5319
  124 29.6862 -49.6267 -15.5319
  125 237.098 -29.5712 25.4424
  126 237.098 -29.5712 25.4424
  127 199.024 -4.75363 12.3032
  128 199.024 -4.75363 12.3032
  129 45.2015 -42.9411 35.8824
  130 45.2015 -42.9411 35.8824
  131 184.592 3.78377 -0.167959
  132 184.592 3.78377 -0.167959
  133 198.754 -9.20222 -15.6195
  134 198.754 -9.20222 -15.6195
  135 187.661 1.54703 1.91813
  136 187.661 1.54703 1.91813
  137 187.844 1.35878 -1.79149
  138 187.844 1.35878 -1.79149
  139 189.961 2.65949 -5.65211
  140 189.961 2.65949 -5.65211
  141 189.056 2.58635 5.10043
  142 189.056 2.58635 5.10043
  143 180.731 6.28357 -0.204542
  144 180.731 6.28357 -0.204542
  145 150.424 10.0375 -1.17971
  146 150.424 10.0375 -1.17971
  147 220.083 -7.87750 3.88044
  148 220.083 -7.87750 3.88044
  149 252.508 -9.38955 -8.60410
  150 252.508 -9.38955 -8.60410
  151 194.288 -21.5257 30.1259
  152 194.288 -21.5257 30.1259
  153 146.766 -39.8208 -67.1067
  154 146.766 -39.8208 -67.1067
  155 171.907 7.09866 10.5610
  156 171.907 7.09866 10.5610
  157 223.832 -1.46643 -8.81313
  158 223.832 -1.46643 -8.81313
  159 307.689 24.1193 16.7927
  160 307.689 24.1193 16.7927
  161 152.925 -42.4438 77.9321
  162 152.925 -42.4438 77.9321
  163 314.929 10.6101 -3.54272
  164 314.929 10.6101 -3.54272
  165 179.997 6.25876 4.96410
  166 179.997 6.25876 4.96410
  167 170.883 5.85956 -15.3925
  168 170.883 5.85956 -15.3925
  169 211.797 6.29568 5.15501
  170 211.797 6.29568 5.15501
  171 178.261 7.45584 -5.62279
  172 178.261 7.45584 -5.62279
  173 185.767 3.04395 0.838441
  174 185.767 3.04395 0.838441
  175 188.991 1.47713 -3.03625
  176 188.991 1.47713 -3.03625
  177 294.857 22.3356 -16.0994
  178 294.857 22.3356 -16.0994
  179 185.928 2.96053 -1.01349
  180 185.928 2.96053 -1.01349
  181 136.193 9.94610 -7.96387
  182 136.193 9.94610 -7.96387
  183 248.266 18.2396 2.16040
  184 248.266 18.2396 2.16040
  185 49.7613 -42.1930 -46.3772
  186 49.7613 -42.1930 -46.3772
  187 134.571 -1.53397 33.5040
  188 134.571 -1.53397 33.5040
  189 181.271 -29.0410 -46.7417
  190 181.271 -29.0410 -46.7417
  191 214.035 -5.82645 2.34254
  192 214.035 -5.82645 2.34254
  193 200.141 -0.627932 7.69598
  194 200.141 -0.627932 7.69598
  195 273.770 7.11943 14.8577
  196 273.770 7.11943 14.8577
  197 111.729 3.38545 -20.6286
  198 111.729 3.38545 -20.6286
  199 311.934 14.1152 8.04048
  200 311.934 14.1152 8.04048
  201 203.924 -2.44120 -7.98463
  202 203.924 -2.44120 -7.98463
  203 189.295 1.05691 2.80199
  204 189.295 1.05691 2.80199
  205 212.379 -8.23356 -3.82619
  206 212.379 -8.23356 -3.82619
  207 232.684 -11.8516 -0.653718
  208 232.684 -11.8516 -0.653718
  209 14.4015 -85.2368 6.75085
  210 14.4015 -85.2368 6.75085
  211 195.403 1.08076 -6.86047
  212 195.403 1.08076 -6.86047
  213 193.718 1.56113 6.01626
  214 193.718 1.56113 6.01626
  215 186.413 -17.0306 -29.9004
  216 186.413 -17.0306 -29.9004
  217 217.847 -4.61425 -5.47728
  218 217.847 -4.61425 -5.47728
  219 177.672 6.47626 -10.5661
  220 177.672 6.47626 -10.5661
  221 48.9655 -61.9830 50.5817
  222 48.9655 -61.9830 50.5817
  223 220.586 0.843587 8.26803
  224 220.586 0.843587 8.26803
  225 213.863 5.33478 -6.87512
  226 213.863 5.33478 -6.87512
  227 308.197 18.4516 -13.5704
  228 308.197 18.4516 -13.5704
  229 233.442 -8.82945 -4.73711
  230 233.442 -8.82945 -4.73711
  231 256.314 -12.8418 -43.3112
  232 256.314 -12.8418 -43.3112
  233 186.910 -8.39980 23.1752
  234 186.910 -8.39980 23.1752
  235 182.797 5.25666 0.845608
  236 182.797 5.25666 0.845608
  237 96.4123 -14.4678 42.9570
  238 96.4123 -14.4678 42.9570
  239 245.310 -22.1299 51.0309
  240 245.310 -22.1299 51.0309
  241 64.9995 -9.05609 -21.1498
  242 64.9995 -9.05609 -21.1498
  243 217.060 -16.2063 -9.96860
  244 217.060 -16.2063 -9.96860
  245 175.815 8.02066 6.14176
  246 175.815 8.02066 6.14176
  247 6.46780 -110.385 -5.42811
  248 6.46780 -110.385 -5.42811
  249 12.1736 -97.5750 18.0540
  250 12.1736 -97.5750 18.0540
  251 179.262 1.26782 16.8050
  252 179.262 1.26782 16.8050
  253 187.445 0.723137 0.697947
  254 187.445 0.723137 0.697947
  255 185.748 3.07004 0.131672
  256 185.748 3.07004 0.131672
  257 174.159 -2.13962 -22.2277
  258 174.159 -2.13962 -22.2277
  259 187.572 0.656857 -0.739112
  260 187.572 0.656857 -0.739112
  261 208.178 -14.5725 13.5966
  262 208.178 -14.5725 13.5966
  263 192.803 0.700147 -3.39085
  264 192.803 0.700147 -3.39085
  265 148.797 -12.5974 -40.9593
  266 148.797 -12.5974 -40.9593
  267 254.966 19.4738 -1.44866
  268 254.966 19.4738 -1.44866
  269 185.499 4.18775 -8.66940
  270 185.499 4.18775 -8.66940
  271 184.735 3.92135 -1.76347
  272 184.735 3.92135 -1.76347
  273 156.346 7.61736 -15.3439
  274 156.346 7.61736 -15.3439
  275 46.9709 -19.1781 12.0884
  276 46.9709 -19.1781 12.0884
  277 199.205 -32.7740 41.6227
  278 199.205 -32.7740 41.6227
  279 186.825 2.83004 3.43993
  280 186.825 2.83004 3.43993
  281 279.037 19.8582 -4.01223
  282 279.037 19.8582 -4.01223
  283 336.455 27.3323 38.0848
  284 336.455 27.3323 38.0848
  285 223.793 -23.7003 13.0965
  286 223.793 -23.7003 13.0965
  287 159.472 8.01628 11.2990
  288 159.472 8.01628 11.2990
  289 205.262 -40.4937 54.8188
  290 205.262 -40.4937 54.8188
  291 210.701 -2.42745 5.11026
  292 210.701 -2.42745 5.11026
  293 186.713 1.86603 0.951632
  294 186.713 1.86603 0.951632
  295 183.921 5.12897 -5.57151
  296 183.921 5.12897 -5.57151
  297 185.799 3.02027 -0.261275
  298 185.799 3.02027 -0.261275
  299 188.641 0.528867 -1.32914
  300 188.641 0.528867 -1.32914
  301 192.607 0.977511 3.40427
  302 192.607 0.977511 3.40427
  303 182.856 5.22779 -1.43809
  304 182.856 5.22779 -1.43809
  305 42.0972 -72.3815 -47.9398
  306 42.0972 -72.3815 -47.9398
  307 124.485 8.03686 10.4214
  308 124.485 8.03686 10.4214
  309 186.942 1.55499 -0.915465
  310 186.942 1.55499 -0.915465
  311 163.987 9.52682 -7.57611
  312 163.987 9.52682 -7.57611
  313 164.393 10.3906 2.90192
  314 164.393 10.3906 2.90192
  315 186.517 2.72136 -2.44387
  316 186.517 2.72136 -2.44387
  317 251.418 12.6844 0.362321
  318 251.418 12.6844 0.362321
  319 185.047 4.54531 7.62167
  320 185.047 4.54531 7.62167
  321 236.993 7.16523 -7.21363
  322 236.993 7.16523 -7.21363
  323 354.311 10.1454 23.5022
  324 354.311 10.1454 23.5022
  325 184.310 4.70804 4.82164
  326 184.310 4.70804 4.82164
  327 181.249 6.22519 2.52212
  328 181.249 6.22519 2.52212
  329 143.369 -33.4021 -76.6056
  330 143.369 -33.4021 -76.6056
  331 188.748 0.478420 1.30056
  332 188.748 0.478420 1.30056
  333 184.542 3.95303 1.31702
  334 184.542 3.95303 1.31702
  335 177.457 8.04682 0.288455
  336 177.457 8.04682 0.288455
  337 91.5843 -32.6353 62.0282
  338 91.5843 -32.6353 62.0282
  339 229.295 14.9333 1.26683
  340 229.295 14.9333 1.26683
  341 13.2712 -95.6099 -21.0743
  342 13.2712 -95.6099 -21.0743
  343 141.978 8.97039 9.32572
  344 141.978 8.97039 9.32572
  345 335.013 4.70024 3.35071
  346 335.013 4.70024 3.35071
  347 349.534 17.4736 -24.0923
  348 349.534 17.4736 -24.0923
  349 161.412 -18.5605 45.8159
  350 168.154 -9.57463 34.0907
  351 161.412 -18.5605 45.8159
  352 168.154 -9.57463 34.0907
  353 339.777 8.63376 12.4209
  354 339.777 8.63376 12.4209
  355 191.190 -0.229725 13.1158
  356 191.190 -0.229725 13.1158
  357 227.973 -30.7022 -31.8249
  358 227.973 -30.7022 -31.8249
  359 215.192 -1.89891 6.66967
  360 215.192 -1.89891 6.66967
  361 147.035 -33.2448 84.0974
  362 147.035 -33.2448 84.0974
  363 251.924 20.2442 -0.704531
  364 251.924 20.2442 -0.704531
  365 339.939 3.19805 -2.61386
  366 339.939 3.19805 -2.61386
  367 203.967 0.149762 -6.44709
  368 203.967 0.149762 -6.44709
  369 181.260 6.61518 -3.01507
  370 181.260 6.61518 -3.01507
  371 282.522 21.8902 6.54841
  372 282.522 21.8902 6.54841
  373 214.856 8.90303 -1.45244
  374 214.856 8.90303 -1.45244
  375 196.395 0.775854 -4.18214
  376 196.395 0.775854 -4.18214
  377 52.4649 -26.8834 -35.4342
  378 52.4649 -26.8834 -35.4342
  379 217.299 -3.88567 2.00666
  380 217.299 -3.88567 2.00666
  381 185.438 -0.255252 -15.4387
  382 185.438 -0.255252 -15.4387
  383 213.471 -0.476676 -7.93121
  384 213.471 -0.476676 -7.93121
  385 341.178 6.11650 -10.3209
  386 341.178 6.11650 -10.3209
  387 186.017 2.91548 1.93389
  388 186.017 2.91548 1.93389
  389 227.181 10.9247 6.80387
  390 227.181 10.9247 6.80387
  391 246.288 -5.73054 1.20419
  392 246.288 -5.73054 1.20419
  393 186.746 3.42305 -4.29258
  394 186.746 3.42305 -4.29258
  395 361.162 31.9274 -44.3659
  396 361.162 31.9274 -44.3659
  397 214.621 -3.06633 -2.09831
  398 214.621 -3.06633 -2.09831
</Section>

newXOutput 55

<Section columns = "stress_xx | stress_yy | stress_xy">
  1 190.548 0.184259 -0.223802
  2 190.630 0.230126 0.302013
  3 190.548 0.184259 -0.223802
  4 190.630 0.230126 0.302013
  5 298.283 16.1769 80.9304
  6 310.228 15.4864 -79.5825
  7 298.283 16.1769 80.9304
  8 310.228 15.4864 -79.5825
  9 191.046 0.131419 -0.586096
  10 192.702 0.234355 -1.03819
  11 195.085 0.535589 -2.09733
  12 200.542 0.206034 -2.80354
  13 207.490 0.354241 -4.54513
  14 215.534 -1.86259 -4.39747
  15 222.756 -2.27146 -0.384690
  16 218.751 -1.58260 3.94157
  17 209.780 1.57572 6.80844
  18 204.916 3.96032 -0.262891
  19 208.492 1.91066 -6.37275
  20 218.490 -2.34458 -4.80837
  21 220.678 -2.75511 1.33597
  22 216.665 -1.23419 3.77739
  23 206.000 0.101807 4.55762
  24 200.048 0.773907 3.54397
  25 195.219 0.614420 2.01740
  26 192.729 0.188247 0.951909
  27 191.149 0.154975 0.564960
  28 190.931 0.690903 0.353066
  29 190.569 1.42244 0.408632
  30 189.678 2.47920 0.362482
  31 189.321 2.88519 -0.0351816
  32 189.782 2.35079 -0.435648
  33 190.424 1.55066 -0.374019
  34 190.706 0.782093 -0.393112
  35 191.046 0.131419 -0.586096
  36 192.702 0.234355 -1.03819
  37 195.085 0.535589 -2.09733
  38 200.542 0.206034 -2.80354
  39 207.490 0.354241 -4.54513
  40 215.534 -1.86259 -4.39747
  41 222.756 -2.27146 -0.384690
  42 218.751 -1.58260 3.94157
  43 209.780 1.57572 6.80844
  44 204.916 3.96032 -0.262891
  45 208.492 1.91066 -6.37275
  46 218.490 -2.34458 -4.80837
  47 220.678 -2.75511 1.33597
  48 216.665 -1.23419 3.77739
  49 206.000 0.101807 4.55762
  50 200.048 0.773907 3.54397
  51 195.219 0.614420 2.01740
  52 192.729 0.188247 0.951909
  53 191.149 0.154975 0.564960
  54 190.931 0.690903 0.353066
  55 190.569 1.42244 0.408632
  56 189.678 2.47920 0.362482
  57 189.321 2.88519 -0.0351816
  58 189.782 2.35079 -0.435648
  59 190.424 1.55066 -0.374019
  60 190.706 0.782093 -0.393112
  61 414.931 21.0007 42.8179
  62 377.882 6.23962 15.3910
  63 355.864 2.69568 5.76371
  64 351.187 1.93331 1.17023
  65 355.710 2.53901 -4.93489
  66 372.391 5.37774 -13.4271
  67 418.791 18.3038 -36.8486
  68 54.5456 -63.1173 -65.2302
  69 10.7807 -137.581 -15.9976
  70 3.28961 -155.057 -7.01376
  71 3.13568 -152.129 -3.76456
  72 5.12091 -148.361 7.48721
  73 11.6315 -133.378 16.9016
  74 59.3929 -59.0367 72.4129
  75 414.931 21.0007 42.8179
  76 377.882 6.23962 15.3910
  77 355.864 2.69568 5.76371
  78 351.187 1.93331 1.17023
  79 355.710 2.53901 -4.93489
  80 372.391 5.37774 -13.4271
  81 418.791 18.3038 -36.8486
  82 54.5456 -63.1173 -65.2302
  83 10.7807 -137.581 -15.9976
  84 3.28961 -155.057 -7.01376
  85 3.13568 -152.129 -3.76456
  86 5.12091 -148.361 7.48721
  87 11.6315 -133.378 16.9016
  88 59.3929 -59.0367 72.4129
  89 174.609 10.0856 -2.63849
  90 174.609 10.0856 -2.63849
  91 159.361 2.18600 23.6070
  92 153.075 -0.985983 -28.0902
  93 159.361 2.18600 23.6070
  94 153.075 -0.985983 -28.0902
  95 89.4418 2.01293 11.2125
  96 89.4418 2.01293 11.2125
  97 235.079 15.0415 -3.97425
  98 240.006 8.42152 8.13369
  99 235.079 15.0415 -3.97425
  100 240.006 8.42152 8.13369
  101 187.721 4.60487 2.67986
  102 187.721 4.60487 2.67986
  103 225.403 -12.8114 -0.306373
  104 225.403 -12.8114 -0.306373
  105 187.967 4.80979 -3.30358
  106 187.967 4.80979 -3.30358
  107 221.864 -27.2130 -24.3720
  108 221.864 -27.2130 -24.3720
  109 154.559 -32.0060 61.4149
  110 154.559 -32.0060 61.4149
  111 103.829 -18.9372 -49.3738
  112 103.829 -18.9372 -49.3738
  113 188.785 3.22302 11.3097
  114 188.785 3.22302 11.3097
  115 195.883 1.38315 -10.7858
  116 195.883 1.38315 -10.7858
  117 266.845 17.5321 1.58913
  118 286.291 18.7107 1.47031
  119 266.845 17.5321 1.58913
  120 286.291 18.7107 1.47031
  121 280.107 23.3970 -6.47773
  122 280.107 23.3970 -6.47773
  123 30.2412 -50.5340 -15.8312
  124 30.2412 -50.5340 -15.8312
  125 241.436 -30.1093 25.9338
  126 241.436 -30.1093 25.9338
  127 202.690 -4.84220 12.5317
  128 202.690 -4.84220 12.5317
  129 46.0468 -43.7242 36.5698
  130 46.0468 -43.7242 36.5698
  131 188.002 3.85233 -0.170924
  132 188.002 3.85233 -0.170924
  133 202.414 -9.37297 -15.9111
  134 202.414 -9.37297 -15.9111
  135 191.124 1.57511 1.95210
  136 191.124 1.57511 1.95210
  137 191.310 1.38348 -1.82318
  138 191.310 1.38348 -1.82318
  139 193.465 2.70755 -5.75357
  140 193.465 2.70755 -5.75357
  141 192.544 2.63318 5.19179
  142 192.544 2.63318 5.19179
  143 184.072 6.39787 -0.208270
  144 184.072 6.39787 -0.208270
  145 153.221 10.2230 -1.20156
  146 153.221 10.2230 -1.20156
  147 224.132 -8.02181 3.93987
  148 224.132 -8.02181 3.93987
  149 257.130 -9.54848 -8.79137
  150 257.130 -9.54848 -8.79137
  151 197.862 -21.9245 30.6874
  152 197.862 -21.9245 30.6874
  153 149.466 -40.5500 -68.3744
  154 149.466 -40.5500 -68.3744
  155 175.090 7.22896 10.7536
  156 175.090 7.22896 10.7536
  157 227.952 -1.49115 -8.96057
  158 227.952 -1.49115 -8.96057
  159 313.301 24.5666 17.1169
  160 313.301 24.5666 17.1169
  161 155.737 -43.2256 79.3984
  162 155.737 -43.2256 79.3984
  163 320.659 10.7987 -3.60857
  164 320.659 10.7987 -3.60857
  165 183.325 6.37272 5.05352
  166 183.325 6.37272 5.05352
  167 174.046 5.96729 -15.6745
  168 174.046 5.96729 -15.6745
  169 215.713 6.41417 5.24425
  170 215.713 6.41417 5.24425
  171 181.559 7.59185 -5.72437
  172 181.559 7.59185 -5.72437
  173 189.197 3.09905 0.853298
  174 189.197 3.09905 0.853298
  175 192.478 1.50387 -3.09025
  176 192.478 1.50387 -3.09025
  177 300.240 22.7623 -16.4237
  178 300.240 22.7623 -16.4237
  179 189.360 3.01416 -1.03143
  180 189.360 3.01416 -1.03143
  181 138.729 10.1317 -8.11076
  182 138.729 10.1317 -8.11076
  183 252.832 18.5776 2.18622
  184 252.832 18.5776 2.18622
  185 50.6887 -42.9620 -47.2639
  186 50.6887 -42.9620 -47.2639
  187 137.071 -1.56048 34.1244
  188 137.071 -1.56048 34.1244
  189 184.606 -29.5793 -47.6153
  190 184.606 -29.5793 -47.6153
  191 217.972 -5.93475 2.39202
  192 217.972 -5.93475 2.39202
  193 203.826 -0.640479 7.83687
  194 203.826 -0.640479 7.83687
  195 278.774 7.26952 15.1630
  196 278.774 7.26952 15.1630
  197 113.815 3.45232 -21.0120
  198 113.815 3.45232 -21.0120
  199 317.615 14.3686 8.19157
  200 317.615 14.3686 8.19157
  201 207.678 -2.48732 -8.13288
  202 207.678 -2.48732 -8.13288
  203 192.787 1.07601 2.85178
  204 192.787 1.07601 2.85178
  205 216.285 -8.38666 -3.90361
  206 216.285 -8.38666 -3.90361
  207 236.955 -12.0660 -0.684819
  208 236.955 -12.0660 -0.684819
  209 14.6681 -86.8165 6.88290
  210 14.6681 -86.8165 6.88290
  211 199.003 1.09962 -6.98464
  212 199.003 1.09962 -6.98464
  213 197.288 1.58918 6.12475
  214 197.288 1.58918 6.12475
  215 189.848 -17.3461 -30.4568
  216 189.848 -17.3461 -30.4568
  217 221.858 -4.69936 -5.56768
  218 221.858 -4.69936 -5.56768
  219 180.958 6.59470 -10.7587
  220 180.958 6.59470 -10.7587
  221 49.8718 -63.1127 51.5542
  222 49.8718 -63.1127 51.5542
  223 224.652 0.862140 8.40759
  224 224.652 0.862140 8.40759
  225 217.815 5.43539 -6.99334
  226 217.815 5.43539 -6.99334
  227 313.816 18.7869 -13.8293
  228 313.816 18.7869 -13.8293
  229 237.728 -8.98796 -4.80491
  230 237.728 -8.98796 -4.80491
  231 260.993 -13.0490 -44.1448
  232 260.993 -13.0490 -44.1448
  233 190.356 -8.55519 23.6038
  234 190.356 -8.55519 23.6038
  235 186.176 5.35213 0.860726
  236 186.176 5.35213 0.860726
  237 98.2079 -14.7316 43.7622
  238 98.2079 -14.7316 43.7622
  239 249.787 -22.5145 52.0049
  240 249.787 -22.5145 52.0049
  241 66.2198 -9.21377 -21.5482
  242 66.2198 -9.21377 -21.5482
  243 221.048 -16.5058 -10.1628
  244 221.048 -16.5058 -10.1628
  245 179.069 8.16733 6.25310
  246 179.069 8.16733 6.25310
  247 6.58422 -112.442 -5.53557
  248 6.58422 -112.442 -5.53557
  249 12.3978 -99.3828 18.4103
  250 12.3978 -99.3828 18.4103
  251 182.574 1.29087 17.1133
  252 182.574 1.29087 17.1133
  253 190.904 0.736307 0.710241
  254 190.904 0.736307 0.710241
  255 189.178 3.12554 0.134010
  256 189.178 3.12554 0.134010
  257 177.378 -2.17939 -22.6374
  258 177.378 -2.17939 -22.6374
  259 191.033 0.668852 -0.752134
  260 191.033 0.668852 -0.752134
  261 212.006 -14.8422 13.8544
  262 212.006 -14.8422 13.8544
  263 196.355 0.712689 -3.45131
  264 196.355 0.712689 -3.45131
  265 151.551 -12.8305 -41.7203
  266 151.551 -12.8305 -41.7203
  267 259.652 19.8336 -1.46150
  268 259.652 19.8336 -1.46150
  269 188.924 4.26373 -8.82632
  270 188.924 4.26373 -8.82632
  271 188.147 3.99247 -1.79482
  272 188.147 3.99247 -1.79482
  273 159.248 7.75835 -15.6257
  274 159.248 7.75835 -15.6257
  275 47.8541 -19.5195 12.3180
  276 47.8541 -19.5195 12.3180
  277 202.862 -33.3810 42.4023
  278 202.862 -33.3810 42.4023
  279 190.274 2.88136 3.50121
  280 190.274 2.88136 3.50121
  281 284.148 20.2196 -4.09321
  282 284.148 20.2196 -4.09321
  283 342.563 27.8582 38.8067
  284 342.563 27.8582 38.8067
  285 227.898 -24.1364 13.3533
  286 227.898 -24.1364 13.3533
  287 162.431 8.16427 11.5057
  288 162.431 8.16427 11.5057
  289 209.022 -41.2419 55.8472
  290 209.022 -41.2419 55.8472
  291 214.575 -2.47307 5.20611
  292 214.575 -2.47307 5.20611
  293 190.159 1.89985 0.968448
  294 190.159 1.89985 0.968448
  295 187.319 5.22221 -5.67158
  296 187.319 5.22221 -5.67158
  297 189.230 3.07489 -0.265895
  298 189.230 3.07489 -0.265895
  299 192.121 0.538483 -1.35263
  300 192.121 0.538483 -1.35263
  301 196.157 0.995107 3.46496
  302 196.157 0.995107 3.46496
  303 186.235 5.32275 -1.46380
  304 186.235 5.32275 -1.46380
  305 42.8752 -73.6996 -48.8648
  306 42.8752 -73.6996 -48.8648
  307 126.807 8.18831 10.6137
  308 126.807 8.18831 10.6137
  309 190.392 1.58321 -0.931622
  310 190.392 1.58321 -0.931622
  311 167.028 9.70195 -7.71458
  312 167.028 9.70195 -7.71458
  313 167.442 10.5816 2.95470
  314 167.442 10.5816 2.95470
  315 189.960 2.77072 -2.48730
  316 189.960 2.77072 -2.48730
  317 256.032 12.9278 0.343993
  318 256.032 12.9278 0.343993
  319 188.464 4.62794 7.75916
  320 188.464 4.62794 7.75916
  321 241.351 7.30241 -7.32771
  322 241.351 7.30241 -7.32771
  323 360.724 10.3269 23.9352
  324 360.724 10.3269 23.9352
  325 187.715 4.79360 4.90809
  326 187.715 4.79360 4.90809
  327 184.600 6.33843 2.56734
  328 184.600 6.33843 2.56734
  329 145.995 -33.9644 -78.0652
  330 145.995 -33.9644 -78.0652
  331 192.230 0.487112 1.32354
  332 192.230 0.487112 1.32354
  333 187.951 4.02469 1.34045
  334 187.951 4.02469 1.34045
  335 180.740 8.19363 0.293634
  336 180.740 8.19363 0.293634
  337 93.2852 -33.2364 63.2006
  338 93.2852 -33.2364 63.2006
  339 233.525 15.2105 1.28693
  340 233.525 15.2105 1.28693
  341 13.5142 -97.3801 -21.4865
  342 13.5142 -97.3801 -21.4865
  343 144.620 9.13716 9.49687
  344 144.620 9.13716 9.49687
  345 341.081 4.78272 3.41033
  346 341.081 4.78272 3.41033
  347 355.870 17.7954 -24.5388
  348 355.870 17.7954 -24.5388
  349 164.391 -18.9048 46.6672
  350 171.260 -9.75165 34.7208
  351 164.391 -18.9048 46.6672
  352 171.260 -9.75165 34.7208
  353 345.933 8.78680 12.6470
  354 345.933 8.78680 12.6470
  355 194.716 -0.234749 13.3562
  356 194.716 -0.234749 13.3562
  357 232.146 -31.2654 -32.4305
  358 232.146 -31.2654 -32.4305
  359 219.160 -1.93309 6.78405
  360 219.160 -1.93309 6.78405
  361 149.721 -33.8074 85.6942
  362 149.721 -33.8074 85.6942
  363 256.558 20.6157 -0.716951
  364 256.558 20.6157 -0.716951
  365 346.089 3.25386 -2.66103
  366 346.089 3.25386 -2.66103
  367 207.719 0.151525 -6.56462
  368 207.719 0.151525 -6.56462
  369 184.610 6.73560 -3.06921
  370 184.610 6.73560 -3.06921
  371 287.694 22.2918 6.68280
  372 287.694 22.2918 6.68280
  373 218.827 9.06906 -1.47745
  374 218.827 9.06906 -1.47745
  375 200.011 0.789550 -4.25717
  376 200.011 0.789550 -4.25717
  377 53.4511 -27.3708 -36.1078
  378 53.4511 -27.3708 -36.1078
  379 221.297 -3.95765 2.03725
  380 221.297 -3.95765 2.03725
  381 188.861 -0.260768 -15.7224
  382 188.861 -0.260768 -15.7224
  383 217.411 -0.484777 -8.06790
  384 217.411 -0.484777 -8.06790
  385 347.357 6.22529 -10.5080
  386 347.357 6.22529 -10.5080
  387 189.451 2.96831 1.96822
  388 189.451 2.96831 1.96822
  389 231.369 11.1294 6.91700
  390 231.369 11.1294 6.91700
  391 250.802 -5.82696 1.25140
  392 250.802 -5.82696 1.25140
  393 190.193 3.48517 -4.36924
  394 190.193 3.48517 -4.36924
  395 367.702 32.5462 -45.2032
  396 367.702 32.5462 -45.2032
  397 218.566 -3.12388 -2.13990
  398 218.566 -3.12388 -2.13990
</Section>

newXOutput 56

<Section columns = "stress_xx | stress_yy | stress_xy">
  1 193.998 0.187627 -0.227648
  2 194.081 0.234301 0.307198
  3 193.998 0.187627 -0.227648
  4 194.081 0.234301 0.307198
  5 303.578 16.5416 82.4301
  6 315.729 15.8417 -81.0581
  7 303.578 16.5416 82.4301
  8 315.729 15.8417 -81.0581
  9 194.504 0.133791 -0.596191
  10 196.189 0.238547 -1.05613
  11 198.613 0.545083 -2.13379
  12 204.164 0.209571 -2.85258
  13 211.233 0.360065 -4.62562
  14 219.418 -1.89727 -4.47698
  15 226.771 -2.31318 -0.394297
  16 222.706 -1.61119 4.00722
  17 213.588 1.60561 6.92457
  18 208.644 4.03360 -0.267432
  19 212.278 1.94577 -6.48182
  20 222.441 -2.38712 -4.88837
  21 224.657 -2.80578 1.36326
  22 220.570 -1.25709 3.84594
  23 209.717 0.102914 4.63859
  24 203.662 0.787467 3.60607
  25 198.749 0.625316 2.05244
  26 196.217 0.191618 0.968352
  27 194.609 0.157780 0.574710
  28 194.388 0.703245 0.359121
  29 194.019 1.44775 0.415676
  30 193.113 2.52317 0.368752
  31 192.751 2.93632 -0.0357896
  32 193.220 2.39251 -0.443165
  33 193.871 1.57826 -0.380419
  34 194.159 0.796091 -0.399893
  35 194.504 0.133791 -0.596191
  36 196.189 0.238547 -1.05613
  37 198.613 0.545083 -2.13379
  38 204.164 0.209571 -2.85258
  39 211.233 0.360065 -4.62562
  40 219.418 -1.89727 -4.47698
  41 226.771 -2.31318 -0.394297
  42 222.706 -1.61119 4.00722
  43 213.588 1.60561 6.92457
  44 208.644 4.03360 -0.267432
  45 212.278 1.94577 -6.48182
  46 222.441 -2.38712 -4.88837
  47 224.657 -2.80578 1.36326
  48 220.570 -1.25709 3.84594
  49 209.717 0.102914 4.63859
  50 203.662 0.787467 3.60607
  51 198.749 0.625316 2.05244
  52 196.217 0.191618 0.968352
  53 194.609 0.157780 0.574710
  54 194.388 0.703245 0.359121
  55 194.019 1.44775 0.415676
  56 193.113 2.52317 0.368752
  57 192.751 2.93632 -0.0357896
  58 193.220 2.39251 -0.443165
  59 193.871 1.57826 -0.380419
  60 194.159 0.796091 -0.399893
  61 422.252 21.3848 43.5879
  62 384.560 6.34860 15.6627
  63 362.164 2.74082 5.86377
  64 357.407 1.96602 1.18967
  65 362.007 2.58244 -5.02027
  66 378.976 5.47110 -13.6626
  67 426.182 18.6381 -37.5118
  68 55.5282 -64.1915 -66.4599
  69 10.9750 -140.089 -16.3151
  70 3.34354 -157.919 -7.15233
  71 3.18724 -154.940 -3.83406
  72 5.20968 -151.093 7.63550
  73 11.8426 -135.809 17.2380
  74 60.4574 -60.0364 73.7754
  75 422.252 21.3848 43.5879
  76 384.560 6.34860 15.6627
  77 362.164 2.74082 5.86377
  78 357.407 1.96602 1.18967
  79 362.007 2.58244 -5.02027
  80 378.976 5.47110 -13.6626
  81 426.182 18.6381 -37.5118
  82 55.5282 -64.1915 -66.4599
  83 10.9750 -140.089 -16.3151
  84 3.34354 -157.919 -7.15233
  85 3.18724 -154.940 -3.83406
  86 5.20968 -151.093 7.63550
  87 11.8426 -135.809 17.2380
  88 60.4574 -60.0364 73.7754
  89 177.782 10.2668 -2.68556
  90 177.782 10.2668 -2.68556
  91 162.260 2.22637 24.0333
  92 155.860 -1.00303 -28.5992
  93 162.260 2.22637 24.0333
  94 155.860 -1.00303 -28.5992
  95 91.0880 2.05662 11.4175
  96 91.0880 2.05662 11.4175
  97 239.331 15.3156 -4.03819
  98 244.338 8.57933 8.26118
  99 239.331 15.3156 -4.03819
  100 244.338 8.57933 8.26118
  101 191.123 4.68685 2.72674
  102 191.123 4.68685 2.72674
  103 229.468 -13.0427 -0.297986
  104 229.468 -13.0427 -0.297986
  105 191.373 4.89549 -3.36144
  106 191.373 4.89549 -3.36144
  107 225.856 -27.7062 -24.8246
  108 225.856 -27.7062 -24.8246
  109 157.357 -32.5887 62.5417
  110 157.357 -32.5887 62.5417
  111 105.723 -19.2779 -50.2832
  112 105.723 -19.2779 -50.2832
  113 192.205 3.28022 11.5115
  114 192.205 3.28022 11.5115
  115 199.426 1.40693 -10.9789
  116 199.426 1.40693 -10.9789
  117 271.647 17.8567 1.64298
  118 291.433 19.0431 1.50088
  119 271.647 17.8567 1.64298
  120 291.433 19.0431 1.50088
  121 285.143 23.8232 -6.61441
  122 285.143 23.8232 -6.61441
  123 30.7961 -51.4403 -16.1308
  124 30.7961 -51.4403 -16.1308
  125 245.769 -30.6467 26.4256
  126 245.769 -30.6467 26.4256
  127 206.352 -4.93073 12.7602
  128 206.352 -4.93073 12.7602
  129 46.8918 -44.5062 37.2575
  130 46.8918 -44.5062 37.2575
  131 191.409 3.92078 -0.173883
  132 191.409 3.92078 -0.173883
  133 206.070 -9.54361 -16.2027
  134 206.070 -9.54361 -16.2027
  135 194.584 1.60315 1.98600
  136 194.584 1.60315 1.98600
  137 194.773 1.40814 -1.85480
  138 194.773 1.40814 -1.85480
  139 196.965 2.75553 -5.85485
  140 196.965 2.75553 -5.85485
  141 196.029 2.67994 5.28297
  142 196.029 2.67994 5.28297
  143 187.412 6.51202 -0.211993
  144 187.412 6.51202 -0.211993
  145 156.016 10.4082 -1.22339
  146 156.016 10.4082 -1.22339
  147 228.177 -8.16598 3.99881
  148 228.177 -8.16598 3.99881
  149 261.748 -9.70675 -8.97951
  150 261.748 -9.70675 -8.97951
  151 201.433 -22.3231 31.2486
  152 201.433 -22.3231 31.2486
  153 152.163 -41.2784 -69.6421
  154 152.163 -41.2784 -69.6421
  155 178.271 7.35913 10.9460
  156 178.271 7.35913 10.9460
  157 232.068 -1.51577 -9.10734
  158 232.068 -1.51577 -9.10734
  159 318.907 25.0136 17.4414
  160 318.907 25.0136 17.4414
  161 158.545 -44.0066 80.8646
  162 158.545 -44.0066 80.8646
  163 326.381 10.9869 -3.67438
  164 326.381 10.9869 -3.67438
  165 186.651 6.48655 5.14279
  166 186.651 6.48655 5.14279
  167 177.207 6.07492 -15.9562
  168 177.207 6.07492 -15.9562
  169 219.626 6.53265 5.33321
  170 219.626 6.53265 5.33321
  171 184.854 7.72769 -5.82578
  172 184.854 7.72769 -5.82578
  173 192.625 3.15408 0.868122
  174 192.625 3.15408 0.868122
  175 195.961 1.53056 -3.14413
  176 195.961 1.53056 -3.14413
  177 305.617 23.1892 -16.7488
  178 305.617 23.1892 -16.7488
  179 192.791 3.06772 -1.04933
  180 192.791 3.06772 -1.04933
  181 141.265 10.3172 -8.25752
  182 141.265 10.3172 -8.25752
  183 257.394 18.9153 2.21153
  184 257.394 18.9153 2.21153
  185 51.6157 -43.7301 -48.1511
  186 51.6157 -43.7301 -48.1511
  187 139.569 -1.58690 34.7444
  188 139.569 -1.58690 34.7444
  189 187.938 -30.1173 -48.4886
  190 187.938 -30.1173 -48.4886
  191 221.906 -6.04299 2.44169
  192 221.906 -6.04299 2.44169
  193 207.507 -0.653051 7.97761
  194 207.507 -0.653051 7.97761
  195 283.773 7.42018 15.4692
  196 283.773 7.42018 15.4692
  197 115.899 3.51930 -21.3951
  198 115.899 3.51930 -21.3951
  199 323.290 14.6215 8.34263
  200 323.290 14.6215 8.34263
  201 211.427 -2.53344 -8.28104
  202 211.427 -2.53344 -8.28104
  203 196.275 1.09507 2.90147
  204 196.275 1.09507 2.90147
  205 220.188 -8.53967 -3.98121
  206 220.188 -8.53967 -3.98121
  207 241.222 -12.2801 -0.716582
  208 241.222 -12.2801 -0.716582
  209 14.9345 -88.3951 7.01513
  210 14.9345 -88.3951 7.01513
  211 202.600 1.11843 -7.10862
  212 202.600 1.11843 -7.10862
  213 200.855 1.61717 6.23306
  214 200.855 1.61717 6.23306
  215 193.279 -17.6613 -31.0128
  216 193.279 -17.6613 -31.0128
  217 225.866 -4.78441 -5.65763
  218 225.866 -4.78441 -5.65763
  219 184.241 6.71301 -10.9510
  220 184.241 6.71301 -10.9510
  221 50.7774 -64.2408 52.5273
  222 50.7774 -64.2408 52.5273
  223 228.714 0.880787 8.54657
  224 228.714 0.880787 8.54657
  225 221.763 5.53599 -7.11114
  226 221.763 5.53599 -7.11114
  227 319.428 19.1218 -14.0883
  228 319.428 19.1218 -14.0883
  229 242.010 -9.14618 -4.87195
  230 242.010 -9.14618 -4.87195
  231 265.666 -13.2550 -44.9790
  232 265.666 -13.2550 -44.9790
  233 193.799 -8.71046 24.0320
  234 193.799 -8.71046 24.0320
  235 189.551 5.44747 0.875814
  236 189.551 5.44747 0.875814
  237 100.003 -14.9951 44.5672
  238 100.003 -14.9951 44.5672
  239 254.259 -22.8979 52.9793
  240 254.259 -22.8979 52.9793
  241 67.4399 -9.37097 -21.9464
  242 67.4399 -9.37097 -21.9464
  243 225.031 -16.8050 -10.3573
  244 225.031 -16.8050 -10.3573
  245 182.320 8.31383 6.36428
  246 182.320 8.31383 6.36428
  247 6.70043 -114.498 -5.64321
  248 6.70043 -114.498 -5.64321
  249 12.6218 -101.189 18.7671
  250 12.6218 -101.189 18.7671
  251 185.884 1.31389 17.4213
  252 185.884 1.31389 17.4213
  253 194.360 0.749460 0.722503
  254 194.360 0.749460 0.722503
  255 192.605 3.18097 0.136344
  256 192.605 3.18097 0.136344
  257 180.595 -2.21913 -23.0468
  258 180.595 -2.21913 -23.0468
  259 194.491 0.680832 -0.765124
  260 194.491 0.680832 -0.765124
  261 215.831 -15.1117 14.1122
  262 215.831 -15.1117 14.1122
  263 199.905 0.725208 -3.51164
  264 199.905 0.725208 -3.51164
  265 154.302 -13.0635 -42.4808
  266 154.302 -13.0635 -42.4808
  267 264.333 20.1931 -1.47383
  268 264.333 20.1931 -1.47383
  269 192.347 4.33959 -8.98300
  270 192.347 4.33959 -8.98300
  271 191.556 4.06348 -1.82611
  272 191.556 4.06348 -1.82611
  273 162.148 7.89925 -15.9072
  274 162.148 7.89925 -15.9072
  275 48.7371 -19.8602 12.5477
  276 48.7371 -19.8602 12.5477
  277 206.515 -33.9877 43.1816
  278 206.515 -33.9877 43.1816
  279 193.720 2.93262 3.56236
  280 193.720 2.93262 3.56236
  281 289.254 20.5805 -4.17437
  282 289.254 20.5805 -4.17437
  283 348.663 28.3845 39.5287
  284 348.663 28.3845 39.5287
  285 231.999 -24.5721 13.6104
  286 231.999 -24.5721 13.6104
  287 165.388 8.31214 11.7122
  288 165.388 8.31214 11.7122
  289 212.779 -41.9895 56.8754
  290 212.779 -41.9895 56.8754
  291 218.446 -2.51867 5.30194
  292 218.446 -2.51867 5.30194
  293 193.603 1.93362 0.985224
  294 193.603 1.93362 0.985224
  295 190.714 5.31533 -5.77148
  296 190.714 5.31533 -5.77148
  297 192.658 3.12942 -0.270503
  298 192.658 3.12942 -0.270503
  299 195.597 0.548085 -1.37606
  300 195.597 0.548085 -1.37606
  301 199.704 1.01267 3.52553
  302 199.704 1.01267 3.52553
  303 189.612 5.41758 -1.48945
  304 189.612 5.41758 -1.48945
  305 43.6525 -75.0160 -49.7905
  306 43.6525 -75.0160 -49.7905
  307 129.128 8.33976 10.8058
  308 129.128 8.33976 10.8058
  309 193.839 1.61139 -0.947739
  310 193.839 1.61139 -0.947739
  311 170.068 9.87692 -7.85289
  312 170.068 9.87692 -7.85289
  313 170.489 10.7724 3.00742
  314 170.489 10.7724 3.00742
  315 193.401 2.82000 -2.53063
  316 193.401 2.82000 -2.53063
  317 260.642 13.1713 0.324786
  318 260.642 13.1713 0.324786
  319 191.879 4.71046 7.89642
  320 191.879 4.71046 7.89642
  321 245.706 7.43966 -7.44101
  322 245.706 7.43966 -7.44101
  323 367.127 10.5080 24.3677
  324 367.127 10.5080 24.3677
  325 191.117 4.87904 4.99437
  326 191.117 4.87904 4.99437
  327 187.948 6.45152 2.61247
  328 187.948 6.45152 2.61247
  329 148.618 -34.5243 -79.5253
  330 148.618 -34.5243 -79.5253
  331 195.709 0.495792 1.34646
  332 195.709 0.495792 1.34646
  333 191.357 4.09625 1.36382
  334 191.357 4.09625 1.36382
  335 184.021 8.34026 0.298803
  336 184.021 8.34026 0.298803
  337 94.9851 -33.8370 64.3731
  338 94.9851 -33.8370 64.3731
  339 237.752 15.4874 1.30689
  340 237.752 15.4874 1.30689
  341 13.7569 -99.1490 -21.8993
  342 13.7569 -99.1490 -21.8993
  343 147.262 9.30384 9.66785
  344 147.262 9.30384 9.66785
  345 347.139 4.86499 3.46983
  346 347.139 4.86499 3.46983
  347 362.198 18.1170 -24.9850
  348 362.198 18.1170 -24.9850
  349 167.367 -19.2488 47.5181
  350 174.364 -9.92854 35.3503
  351 167.367 -19.2488 47.5181
  352 174.364 -9.92854 35.3503
  353 352.080 8.93948 12.8728
  354 352.080 8.93948 12.8728
  355 198.239 -0.239797 13.5965
  356 198.239 -0.239797 13.5965
  357 236.313 -31.8281 -33.0363
  358 236.313 -31.8281 -33.0363
  359 223.123 -1.96721 6.89802
  360 223.123 -1.96721 6.89802
  361 152.403 -34.3676 87.2913
  362 152.403 -34.3676 87.2913
  363 261.188 20.9868 -0.729339
  364 261.188 20.9868 -0.729339
  365 352.229 3.30951 -2.70812
  366 352.229 3.30951 -2.70812
  367 211.467 0.153251 -6.68199
  368 211.467 0.153251 -6.68199
  369 187.959 6.85587 -3.12325
  370 187.959 6.85587 -3.12325
  371 292.861 22.6930 6.81755
  372 292.861 22.6930 6.81755
  373 222.796 9.23503 -1.50238
  374 222.796 9.23503 -1.50238
  375 203.624 0.803213 -4.33206
  376 203.624 0.803213 -4.33206
  377 54.4372 -27.8575 -36.7816
  378 54.4372 -27.8575 -36.7816
  379 225.291 -4.02959 2.06758
  380 225.291 -4.02959 2.06758
  381 192.281 -0.266309 -16.0060
  382 192.281 -0.266309 -16.0060
  383 221.347 -0.492844 -8.20413
  384 221.347 -0.492844 -8.20413
  385 353.526 6.33384 -10.6948
  386 353.526 6.33384 -10.6948
  387 192.883 3.02107 2.00248
  388 192.883 3.02107 2.00248
  389 235.553 11.3341 7.02960
  390 235.553 11.3341 7.02960
  391 255.311 -5.92295 1.29947
  392 255.311 -5.92295 1.29947
  393 193.637 3.54720 -4.44575
  394 193.637 3.54720 -4.44575
  395 374.231 33.1655 -46.0403
  396 374.231 33.1655 -46.0403
  397 222.507 -3.18142 -2.18156
  398 222.507 -3.18142 -2.18156
</Section>

newXOutput 57

<Section columns = "stress_xx | stress_yy | stress_xy">
  1 197.445 0.190993 -0.231482
  2 197.530 0.238474 0.312368
  3 197.445 0.190993 -0.231482
  4 197.530 0.238474 0.312368
  5 308.866 16.9084 83.9297
  6 321.221 16.1995 -82.5338
  7 308.866 16.9084 83.9297
  8 321.221 16.1995 -82.5338
  9 197.960 0.136160 -0.606259
  10 199.673 0.242734 -1.07404
  11 202.137 0.554563 -2.17017
  12 207.782 0.213099 -2.90151
  13 214.971 0.365864 -4.70597
  14 223.298 -1.93197 -4.55641
  15 230.782 -2.35489 -0.403988
  16 226.658 -1.63976 4.07262
  17 217.393 1.63552 7.04036
  18 212.368 4.10687 -0.271960
  19 216.061 1.98087 -6.59059
  20 226.389 -2.42962 -4.96806
  21 228.631 -2.85643 1.39063
  22 224.470 -1.27999 3.91444
  23 213.431 0.103993 4.71945
  24 207.272 0.801001 3.66806
  25 202.276 0.636195 2.08738
  26 199.701 0.194984 0.984754
  27 198.067 0.160582 0.584434
  28 197.842 0.715572 0.365159
  29 197.467 1.47303 0.422702
  30 196.546 2.56708 0.375007
  31 196.178 2.98737 -0.0363959
  32 196.654 2.43417 -0.450664
  33 197.317 1.60581 -0.386800
  34 197.609 0.810071 -0.406657
  35 197.960 0.136160 -0.606259
  36 199.673 0.242734 -1.07404
  37 202.137 0.554563 -2.17017
  38 207.782 0.213099 -2.90151
  39 214.971 0.365864 -4.70597
  40 223.298 -1.93197 -4.55641
  41 230.782 -2.35489 -0.403988
  42 226.658 -1.63976 4.07262
  43 217.393 1.63552 7.04036
  44 212.368 4.10687 -0.271960
  45 216.061 1.98087 -6.59059
  46 226.389 -2.42962 -4.96806
  47 228.631 -2.85643 1.39063
  48 224.470 -1.27999 3.91444
  49 213.431 0.103993 4.71945
  50 207.272 0.801001 3.66806
  51 202.276 0.636195 2.08738
  52 199.701 0.194984 0.984754
  53 198.067 0.160582 0.584434
  54 197.842 0.715572 0.365159
  55 197.467 1.47303 0.422702
  56 196.546 2.56708 0.375007
  57 196.178 2.98737 -0.0363959
  58 196.654 2.43417 -0.450664
  59 197.317 1.60581 -0.386800
  60 197.609 0.810071 -0.406657
  61 429.561 21.7687 44.3571
  62 391.226 6.45735 15.9339
  63 368.454 2.78579 5.96360
  64 363.616 1.99863 1.20904
  65 368.293 2.62575 -5.10543
  66 385.550 5.56426 -13.8977
  67 433.560 18.9722 -38.1744
  68 56.5097 -65.2623 -67.6904
  69 11.1690 -142.596 -16.6334
  70 3.39721 -160.780 -7.29121
  71 3.23857 -157.750 -3.90355
  72 5.29823 -153.825 7.78415
  73 12.0535 -138.238 17.5751
  74 61.5206 -61.0327 75.1386
  75 429.561 21.7687 44.3571
  76 391.226 6.45735 15.9339
  77 368.454 2.78579 5.96360
  78 363.616 1.99863 1.20904
  79 368.293 2.62575 -5.10543
  80 385.550 5.56426 -13.8977
  81 433.560 18.9722 -38.1744
  82 56.5097 -65.2623 -67.6904
  83 11.1690 -142.596 -16.6334
  84 3.39721 -160.780 -7.29121
  85 3.23857 -157.750 -3.90355
  86 5.29823 -153.825 7.78415
  87 12.0535 -138.238 17.5751
  88 61.5206 -61.0327 75.1386
  89 180.954 10.4478 -2.73257
  90 180.954 10.4478 -2.73257
  91 165.156 2.26675 24.4591
  92 158.644 -1.02004 -29.1078
  93 165.156 2.26675 24.4591
  94 158.644 -1.02004 -29.1078
  95 92.7339 2.10052 11.6224
  96 92.7339 2.10052 11.6224
  97 243.580 15.5895 -4.10180
  98 248.665 8.73720 8.38788
  99 243.580 15.5895 -4.10180
  100 248.665 8.73720 8.38788
  101 194.523 4.76871 2.77353
  102 194.523 4.76871 2.77353
  103 233.528 -13.2738 -0.289113
  104 233.528 -13.2738 -0.289113
  105 194.777 4.98108 -3.41918
  106 194.777 4.98108 -3.41918
  107 229.844 -28.1989 -25.2772
  108 229.844 -28.1989 -25.2772
  109 160.151 -33.1711 63.6681
  110 160.151 -33.1711 63.6681
  111 107.616 -19.6184 -51.1924
  112 107.616 -19.6184 -51.1924
  113 195.622 3.33733 11.7131
  114 195.622 3.33733 11.7131
  115 202.966 1.43065 -11.1719
  116 202.966 1.43065 -11.1719
  117 276.445 18.1813 1.69765
  118 296.569 19.3750 1.53156
  119 276.445 18.1813 1.69765
  120 296.569 19.3750 1.53156
  121 290.174 24.2491 -6.75164
  122 290.174 24.2491 -6.75164
  123 31.3507 -52.3454 -16.4305
  124 31.3507 -52.3454 -16.4305
  125 250.097 -31.1833 26.9178
  126 250.097 -31.1833 26.9178
  127 210.012 -5.01922 12.9885
  128 210.012 -5.01922 12.9885
  129 47.7366 -45.2872 37.9456
  130 47.7366 -45.2872 37.9456
  131 194.813 3.98913 -0.176833
  132 194.813 3.98913 -0.176833
  133 209.724 -9.71415 -16.4941
  134 209.724 -9.71415 -16.4941
  135 198.042 1.63115 2.01982
  136 198.042 1.63115 2.01982
  137 198.233 1.43277 -1.88635
  138 198.233 1.43277 -1.88635
  139 200.463 2.80344 -5.95594
  140 200.463 2.80344 -5.95594
  141 199.511 2.72663 5.37399
  142 199.511 2.72663 5.37399
  143 190.748 6.62602 -0.215711
  144 190.748 6.62602 -0.215711
  145 158.810 10.5934 -1.24521
  146 158.810 10.5934 -1.24521
  147 232.219 -8.30998 4.05727
  148 232.219 -8.30998 4.05727
  149 266.360 -9.86436 -9.16852
  150 266.360 -9.86436 -9.16852
  151 205.000 -22.7213 31.8095
  152 205.000 -22.7213 31.8095
  153 154.858 -42.0060 -70.9098
  154 154.858 -42.0060 -70.9098
  155 181.449 7.48918 11.1381
  156 181.449 7.48918 11.1381
  157 236.181 -1.54028 -9.25344
  158 236.181 -1.54028 -9.25344
  159 324.505 25.4603 17.7662
  160 324.505 25.4603 17.7662
  161 161.352 -44.7870 82.3305
  162 161.352 -44.7870 82.3305
  163 332.095 11.1747 -3.74015
  164 332.095 11.1747 -3.74015
  165 189.975 6.60022 5.23191
  166 189.975 6.60022 5.23191
  167 180.366 6.18244 -16.2375
  168 180.366 6.18244 -16.2375
  169 223.536 6.65112 5.42188
  170 223.536 6.65112 5.42188
  171 188.147 7.86337 -5.92703
  172 188.147 7.86337 -5.92703
  173 196.049 3.20902 0.882911
  174 196.049 3.20902 0.882911
  175 199.441 1.55722 -3.19790
  176 199.441 1.55722 -3.19790
  177 310.987 23.6163 -17.0746
  178 310.987 23.6163 -17.0746
  179 196.218 3.12119 -1.06719
  180 196.218 3.12119 -1.06719
  181 143.799 10.5026 -8.40416
  182 143.799 10.5026 -8.40416
  183 261.952 19.2528 2.23632
  184 261.952 19.2528 2.23632
  185 52.5422 -44.4971 -49.0387
  186 52.5422 -44.4971 -49.0387
  187 142.066 -1.61324 35.3640
  188 142.066 -1.61324 35.3640
  189 191.266 -30.6549 -49.3616
  190 191.266 -30.6549 -49.3616
  191 225.836 -6.15118 2.49154
  192 225.836 -6.15118 2.49154
  193 211.185 -0.665648 8.11820
  194 211.185 -0.665648 8.11820
  195 288.766 7.57139 15.7762
  196 288.766 7.57139 15.7762
  197 117.983 3.58638 -21.7780
  198 117.983 3.58638 -21.7780
  199 328.956 14.8740 8.49366
  200 328.956 14.8740 8.49366
  201 215.174 -2.57956 -8.42911
  202 215.174 -2.57956 -8.42911
  203 199.761 1.11410 2.95104
  204 199.761 1.11410 2.95104
  205 224.088 -8.69261 -4.05900
  206 224.088 -8.69261 -4.05900
  207 245.485 -12.4938 -0.749003
  208 245.485 -12.4938 -0.749003
  209 15.2007 -89.9727 7.14752
  210 15.2007 -89.9727 7.14752
  211 206.194 1.13719 -7.23241
  212 206.194 1.13719 -7.23241
  213 204.419 1.64512 6.34119
  214 204.419 1.64512 6.34119
  215 196.707 -17.9763 -31.5686
  216 196.707 -17.9763 -31.5686
  217 229.870 -4.86938 -5.74712
  218 229.870 -4.86938 -5.74712
  219 187.522 6.83119 -11.1431
  220 187.522 6.83119 -11.1431
  221 51.6824 -65.3676 53.5011
  222 51.6824 -65.3676 53.5011
  223 232.773 0.899530 8.68496
  224 232.773 0.899530 8.68496
  225 225.708 5.63659 -7.22854
  226 225.708 5.63659 -7.22854
  227 325.033 19.4562 -14.3474
  228 325.033 19.4562 -14.3474
  229 246.287 -9.30411 -4.93823
  230 246.287 -9.30411 -4.93823
  231 270.333 -13.4597 -45.8137
  232 270.333 -13.4597 -45.8137
  233 197.239 -8.86563 24.4598
  234 197.239 -8.86563 24.4598
  235 192.924 5.54267 0.890873
  236 192.924 5.54267 0.890873
  237 101.797 -15.2583 45.3721
  238 101.797 -15.2583 45.3721
  239 258.726 -23.2801 53.9540
  240 258.726 -23.2801 53.9540
  241 68.6598 -9.52771 -22.3447
  242 68.6598 -9.52771 -22.3447
  243 229.011 -17.1041 -10.5519
  244 229.011 -17.1041 -10.5519
  245 185.569 8.46016 6.47529
  246 185.569 8.46016 6.47529
  247 6.81645 -116.553 -5.75104
  248 6.81645 -116.553 -5.75104
  249 12.8456 -102.995 19.1246
  250 12.8456 -102.995 19.1246
  251 189.191 1.33687 17.7290
  252 189.191 1.33687 17.7290
  253 197.813 0.762596 0.734734
  254 197.813 0.762596 0.734734
  255 196.029 3.23630 0.138672
  256 196.029 3.23630 0.138672
  257 183.809 -2.25886 -23.4558
  258 183.809 -2.25886 -23.4558
  259 197.947 0.692799 -0.778081
  260 197.947 0.692799 -0.778081
  261 219.651 -15.3809 14.3700
  262 219.651 -15.3809 14.3700
  263 203.452 0.737703 -3.57184
  264 203.452 0.737703 -3.57184
  265 157.052 -13.2963 -43.2409
  266 157.052 -13.2963 -43.2409
  267 269.010 20.5523 -1.48567
  268 269.010 20.5523 -1.48567
  269 195.767 4.41535 -9.13945
  270 195.767 4.41535 -9.13945
  271 194.963 4.13440 -1.85732
  272 194.963 4.13440 -1.85732
  273 165.046 8.04004 -16.1884
  274 165.046 8.04004 -16.1884
  275 49.6201 -20.2001 12.7774
  276 49.6201 -20.2001 12.7774
  277 210.164 -34.5939 43.9607
  278 210.164 -34.5939 43.9607
  279 197.163 2.98380 3.62339
  280 197.163 2.98380 3.62339
  281 294.354 20.9409 -4.25570
  282 294.354 20.9409 -4.25570
  283 354.753 28.9112 40.2507
  284 354.753 28.9112 40.2507
  285 236.096 -25.0074 13.8679
  286 236.096 -25.0074 13.8679
  287 168.344 8.45989 11.9184
  288 168.344 8.45989 11.9184
  289 216.531 -42.7366 57.9034
  290 216.531 -42.7366 57.9034
  291 222.313 -2.56427 5.39774
  292 222.313 -2.56427 5.39774
  293 197.044 1.96733 1.00196
  294 197.044 1.96733 1.00196
  295 194.106 5.40832 -5.87119
  296 194.106 5.40832 -5.87119
  297 196.083 3.18387 -0.275100
  298 196.083 3.18387 -0.275100
  299 199.071 0.557674 -1.39944
  300 199.071 0.557674 -1.39944
  301 203.247 1.03021 3.58597
  302 203.247 1.03021 3.58597
  303 192.986 5.51227 -1.51506
  304 192.986 5.51227 -1.51506
  305 44.4292 -76.3306 -50.7169
  306 44.4292 -76.3306 -50.7169
  307 131.448 8.49119 10.9978
  308 131.448 8.49119 10.9978
  309 197.284 1.63953 -0.963817
  310 197.284 1.63953 -0.963817
  311 173.105 10.0517 -7.99104
  312 173.105 10.0517 -7.99104
  313 173.534 10.9630 3.06006
  314 173.534 10.9630 3.06006
  315 196.838 2.86921 -2.57387
  316 196.838 2.86921 -2.57387
  317 265.248 13.4150 0.304704
  318 265.248 13.4150 0.304704
  319 195.291 4.79286 8.03345
  320 195.291 4.79286 8.03345
  321 250.056 7.57699 -7.55354
  322 250.056 7.57699 -7.55354
  323 373.521 10.6888 24.7999
  324 373.521 10.6888 24.7999
  325 194.516 4.96437 5.08049
  326 194.516 4.96437 5.08049
  327 191.294 6.56445 2.65752
  328 191.294 6.56445 2.65752
  329 151.238 -35.0816 -80.9859
  330 151.238 -35.0816 -80.9859
  331 199.185 0.504459 1.36933
  332 199.185 0.504459 1.36933
  333 194.760 4.16770 1.38715
  334 194.760 4.16770 1.38715
  335 187.300 8.48671 0.303963
  336 187.300 8.48671 0.303963
  337 96.6840 -34.4370 65.5457
  338 96.6840 -34.4370 65.5457
  339 241.974 15.7642 1.32672
  340 241.974 15.7642 1.32672
  341 13.9993 -100.917 -22.3126
  342 13.9993 -100.917 -22.3126
  343 149.902 9.47043 9.83865
  344 149.902 9.47043 9.83865
  345 353.189 4.94704 3.52919
  346 353.189 4.94704 3.52919
  347 368.516 18.4382 -25.4309
  348 368.516 18.4382 -25.4309
  349 170.342 -19.5926 48.3685
  350 177.465 -10.1053 35.9793
  351 170.342 -19.5926 48.3685
  352 177.465 -10.1053 35.9793
  353 358.217 9.09182 13.0982
  354 358.217 9.09182 13.0982
  355 201.759 -0.244869 13.8364
  356 201.759 -0.244869 13.8364
  357 240.477 -32.3901 -33.6422
  358 240.477 -32.3901 -33.6422
  359 227.084 -2.00126 7.01159
  360 227.084 -2.00126 7.01159
  361 155.081 -34.9254 88.8888
  362 155.081 -34.9254 88.8888
  363 265.813 21.3576 -0.741696
  364 265.813 21.3576 -0.741696
  365 358.360 3.36501 -2.75513
  366 358.360 3.36501 -2.75513
  367 215.212 0.154940 -6.79922
  368 215.212 0.154940 -6.79922
  369 191.305 6.97597 -3.17720
  370 191.305 6.97597 -3.17720
  371 298.022 23.0938 6.95266
  372 298.022 23.0938 6.95266
  373 226.762 9.40092 -1.52722
  374 226.762 9.40092 -1.52722
  375 207.234 0.816842 -4.40682
  376 207.234 0.816842 -4.40682
  377 55.4232 -28.3435 -37.4556
  378 55.4232 -28.3435 -37.4556
  379 229.281 -4.10148 2.09766
  380 229.281 -4.10148 2.09766
  381 195.699 -0.271875 -16.2892
  382 195.699 -0.271875 -16.2892
  383 225.281 -0.500878 -8.33990
  384 225.281 -0.500878 -8.33990
  385 359.686 6.44217 -10.8813
  386 359.686 6.44217 -10.8813
  387 196.312 3.07375 2.03666
  388 196.312 3.07375 2.03666
  389 239.733 11.5388 7.14165
  390 239.733 11.5388 7.14165
  391 259.815 -6.01853 1.34840
  392 259.815 -6.01853 1.34840
  393 197.079 3.60914 -4.52210
  394 197.079 3.60914 -4.52210
  395 380.751 33.7853 -46.8775
  396 380.751 33.7853 -46.8775
  397 226.444 -3.23895 -2.22328
  398 226.444 -3.23895 -2.22328
</Section>

newXOutput 58

<Section columns = "stress_xx | stress_yy | stress_xy">
  1 200.890 0.194358 -0.235307
  2 200.976 0.242643 0.317524
  3 200.890 0.194358 -0.235307
  4 200.976 0.242643 0.317524
  5 314.145 17.2776 85.4293
  6 326.705 16.5596 -84.0094
  7 314.145 17.2776 85.4293
  8 326.705 16.5596 -84.0094
  9 201.413 0.138527 -0.616301
  10 203.154 0.246916 -1.09190
  11 205.659 0.564028 -2.20646
  12 211.397 0.216618 -2.95035
  13 218.707 0.371638 -4.78620
  14 227.175 -1.96667 -4.63578
  15 234.789 -2.39658 -0.413764
  16 230.606 -1.66831 4.13776
  17 221.195 1.66545 7.15579
  18 216.091 4.18014 -0.276477
  19 219.841 2.01596 -6.69904
  20 230.333 -2.47210 -5.04744
  21 232.602 -2.90708 1.41809
  22 228.367 -1.30289 3.98289
  23 217.142 0.105045 4.80018
  24 210.879 0.814508 3.72992
  25 205.800 0.647057 2.12225
  26 203.183 0.198346 1.00112
  27 201.522 0.163383 0.594134
  28 201.293 0.727883 0.371180
  29 200.912 1.49827 0.429710
  30 199.976 2.61091 0.381246
  31 199.602 3.03833 -0.0370008
  32 200.086 2.47576 -0.458143
  33 200.759 1.63333 -0.393163
  34 201.056 0.824035 -0.413403
  35 201.413 0.138527 -0.616301
  36 203.154 0.246916 -1.09190
  37 205.659 0.564028 -2.20646
  38 211.397 0.216618 -2.95035
  39 218.707 0.371638 -4.78620
  40 227.175 -1.96667 -4.63578
  41 234.789 -2.39658 -0.413764
  42 230.606 -1.66831 4.13776
  43 221.195 1.66545 7.15579
  44 216.091 4.18014 -0.276477
  45 219.841 2.01596 -6.69904
  46 230.333 -2.47210 -5.04744
  47 232.602 -2.90708 1.41809
  48 228.367 -1.30289 3.98289
  49 217.142 0.105045 4.80018
  50 210.879 0.814508 3.72992
  51 205.800 0.647057 2.12225
  52 203.183 0.198346 1.00112
  53 201.522 0.163383 0.594134
  54 201.293 0.727883 0.371180
  55 200.912 1.49827 0.429710
  56 199.976 2.61091 0.381246
  57 199.602 3.03833 -0.0370008
  58 200.086 2.47576 -0.458143
  59 200.759 1.63333 -0.393163
  60 201.056 0.824035 -0.413403
  61 436.858 22.1525 45.1254
  62 397.881 6.56587 16.2047
  63 374.734 2.83060 6.06320
  64 369.816 2.03113 1.22833
  65 374.570 2.66893 -5.19039
  66 392.113 5.65720 -14.1323
  67 440.925 19.3061 -38.8362
  68 57.4902 -66.3297 -68.9215
  69 11.3629 -145.102 -16.9524
  70 3.45064 -163.641 -7.43042
  71 3.28966 -160.561 -3.97303
  72 5.38656 -156.556 7.93316
  73 12.2643 -140.666 17.9132
  74 62.5825 -62.0257 76.5024
  75 436.858 22.1525 45.1254
  76 397.881 6.56587 16.2047
  77 374.734 2.83060 6.06320
  78 369.816 2.03113 1.22833
  79 374.570 2.66893 -5.19039
  80 392.113 5.65720 -14.1323
  81 440.925 19.3061 -38.8362
  82 57.4902 -66.3297 -68.9215
  83 11.3629 -145.102 -16.9524
  84 3.45064 -163.641 -7.43042
  85 3.28966 -160.561 -3.97303
  86 5.38656 -156.556 7.93316
  87 12.2643 -140.666 17.9132
  88 62.5825 -62.0257 76.5024
  89 184.123 10.6286 -2.77952
  90 184.123 10.6286 -2.77952
  91 168.051 2.30711 24.8846
  92 161.426 -1.03701 -29.6160
  93 168.051 2.30711 24.8846
  94 161.426 -1.03701 -29.6160
  95 94.3794 2.14464 11.8272
  96 94.3794 2.14464 11.8272
  97 247.826 15.8633 -4.16508
  98 252.989 8.89513 8.51377
  99 247.826 15.8633 -4.16508
  100 252.989 8.89513 8.51377
  101 197.920 4.85045 2.82022
  102 197.920 4.85045 2.82022
  103 237.585 -13.5046 -0.279754
  104 237.585 -13.5046 -0.279754
  105 198.178 5.06654 -3.47681
  106 198.178 5.06654 -3.47681
  107 233.828 -28.6913 -25.7298
  108 233.828 -28.6913 -25.7298
  109 162.944 -33.7531 64.7941
  110 162.944 -33.7531 64.7941
  111 109.507 -19.9585 -52.1014
  112 109.507 -19.9585 -52.1014
  113 199.036 3.39435 11.9144
  114 199.036 3.39435 11.9144
  115 206.504 1.45430 -11.3646
  116 206.504 1.45430 -11.3646
  117 281.237 18.5059 1.75315
  118 301.700 19.7064 1.56235
  119 281.237 18.5059 1.75315
  120 301.700 19.7064 1.56235
  121 295.200 24.6748 -6.88942
  122 295.200 24.6748 -6.88942
  123 31.9051 -53.2495 -16.7305
  124 31.9051 -53.2495 -16.7305
  125 254.421 -31.7192 27.4103
  126 254.421 -31.7192 27.4103
  127 213.668 -5.10767 13.2166
  128 213.668 -5.10767 13.2166
  129 48.5811 -46.0673 38.6340
  130 48.5811 -46.0673 38.6340
  131 198.215 4.05739 -0.179777
  132 198.215 4.05739 -0.179777
  133 213.373 -9.88458 -16.7855
  134 213.373 -9.88458 -16.7855
  135 201.496 1.65911 2.05356
  136 201.496 1.65911 2.05356
  137 201.691 1.45737 -1.91783
  138 201.691 1.45737 -1.91783
  139 203.958 2.85128 -6.05684
  140 203.958 2.85128 -6.05684
  141 202.990 2.77326 5.46483
  142 202.990 2.77326 5.46483
  143 194.083 6.73986 -0.219425
  144 194.083 6.73986 -0.219425
  145 161.603 10.7784 -1.26701
  146 161.603 10.7784 -1.26701
  147 236.256 -8.45384 4.11524
  148 236.256 -8.45384 4.11524
  149 270.966 -10.0213 -9.35840
  150 270.966 -10.0213 -9.35840
  151 208.564 -23.1193 32.3702
  152 208.564 -23.1193 32.3702
  153 157.550 -42.7329 -72.1776
  154 157.550 -42.7329 -72.1776
  155 184.626 7.61909 11.3300
  156 184.626 7.61909 11.3300
  157 240.289 -1.56468 -9.39888
  158 240.289 -1.56468 -9.39888
  159 330.096 25.9067 18.0911
  160 330.096 25.9067 18.0911
  161 164.155 -45.5667 83.7963
  162 164.155 -45.5667 83.7963
  163 337.802 11.3621 -3.80588
  164 337.802 11.3621 -3.80588
  165 193.296 6.71374 5.32088
  166 193.296 6.71374 5.32088
  167 183.523 6.28987 -16.5186
  168 183.523 6.28987 -16.5186
  169 227.443 6.76958 5.51026
  170 227.443 6.76958 5.51026
  171 191.437 7.99887 -6.02812
  172 191.437 7.99887 -6.02812
  173 199.471 3.26387 0.897666
  174 199.471 3.26387 0.897666
  175 202.919 1.58384 -3.25155
  176 202.919 1.58384 -3.25155
  177 316.351 24.0436 -17.4010
  178 316.351 24.0436 -17.4010
  179 199.643 3.17459 -1.08500
  180 199.643 3.17459 -1.08500
  181 146.333 10.6879 -8.55068
  182 146.333 10.6879 -8.55068
  183 266.505 19.5901 2.26059
  184 266.505 19.5901 2.26059
  185 53.4683 -45.2632 -49.9267
  186 53.4683 -45.2632 -49.9267
  187 144.561 -1.63950 35.9831
  188 144.561 -1.63950 35.9831
  189 194.591 -31.1922 -50.2343
  190 194.591 -31.1922 -50.2343
  191 229.762 -6.25930 2.54158
  192 229.762 -6.25930 2.54158
  193 214.860 -0.678268 8.25862
  194 214.860 -0.678268 8.25862
  195 293.753 7.72317 16.0840
  196 293.753 7.72317 16.0840
  197 120.067 3.65356 -22.1607
  198 120.067 3.65356 -22.1607
  199 334.616 15.1259 8.64464
  200 334.616 15.1259 8.64464
  201 218.916 -2.62568 -8.57709
  202 218.916 -2.62568 -8.57709
  203 203.244 1.13311 3.00051
  204 203.244 1.13311 3.00051
  205 227.983 -8.84546 -4.13696
  206 227.983 -8.84546 -4.13696
  207 249.743 -12.7072 -0.782083
  208 249.743 -12.7072 -0.782083
  209 15.4667 -91.5493 7.28008
  210 15.4667 -91.5493 7.28008
  211 209.784 1.15589 -7.35601
  212 209.784 1.15589 -7.35601
  213 207.980 1.67302 6.44914
  214 207.980 1.67302 6.44914
  215 200.133 -18.2911 -32.1240
  216 200.133 -18.2911 -32.1240
  217 233.870 -4.95428 -5.83615
  218 233.870 -4.95428 -5.83615
  219 190.801 6.94923 -11.3349
  220 190.801 6.94923 -11.3349
  221 52.5868 -66.4928 54.4755
  222 52.5868 -66.4928 54.4755
  223 236.828 0.918368 8.82278
  224 236.828 0.918368 8.82278
  225 229.650 5.73719 -7.34553
  226 229.650 5.73719 -7.34553
  227 330.631 19.7902 -14.6065
  228 330.631 19.7902 -14.6065
  229 250.561 -9.46174 -5.00374
  230 250.561 -9.46174 -5.00374
  231 274.994 -13.6631 -46.6490
  232 274.994 -13.6631 -46.6490
  233 200.676 -9.02068 24.8874
  234 200.676 -9.02068 24.8874
  235 196.295 5.63774 0.905901
  236 196.295 5.63774 0.905901
  237 103.590 -15.5211 46.1767
  238 103.590 -15.5211 46.1767
  239 263.186 -23.6611 54.9290
  240 263.186 -23.6611 54.9290
  241 69.8795 -9.68399 -22.7429
  242 69.8795 -9.68399 -22.7429
  243 232.987 -17.4029 -10.7468
  244 232.987 -17.4029 -10.7468
  245 188.816 8.60633 6.58614
  246 188.816 8.60633 6.58614
  247 6.93226 -118.608 -5.85905
  248 6.93226 -118.608 -5.85905
  249 13.0692 -104.799 19.4826
  250 13.0692 -104.799 19.4826
  251 192.496 1.35983 18.0363
  252 192.496 1.35983 18.0363
  253 201.264 0.775715 0.746935
  254 201.264 0.775715 0.746935
  255 199.451 3.29155 0.140995
  256 199.451 3.29155 0.140995
  257 187.021 -2.29856 -23.8644
  258 187.021 -2.29856 -23.8644
  259 201.399 0.704751 -0.791005
  260 201.399 0.704751 -0.791005
  261 223.469 -15.6500 14.6279
  262 223.469 -15.6500 14.6279
  263 206.996 0.750174 -3.63193
  264 206.996 0.750174 -3.63193
  265 159.800 -13.5289 -44.0006
  266 159.800 -13.5289 -44.0006
  267 273.682 20.9113 -1.49700
  268 273.682 20.9113 -1.49700
  269 199.184 4.49100 -9.29565
  270 199.184 4.49100 -9.29565
  271 198.367 4.20520 -1.88847
  272 198.367 4.20520 -1.88847
  273 167.942 8.18073 -16.4694
  274 167.942 8.18073 -16.4694
  275 50.5029 -20.5393 13.0071
  276 50.5029 -20.5393 13.0071
  277 213.810 -35.1997 44.7396
  278 213.810 -35.1997 44.7396
  279 200.603 3.03490 3.68428
  280 200.603 3.03490 3.68428
  281 299.449 21.3009 -4.33720
  282 299.449 21.3009 -4.33720
  283 360.836 29.4381 40.9728
  284 360.836 29.4381 40.9728
  285 240.188 -25.4423 14.1257
  286 240.188 -25.4423 14.1257
  287 171.297 8.60752 12.1244
  288 171.297 8.60752 12.1244
  289 220.279 -43.4831 58.9311
  290 220.279 -43.4831 58.9311
  291 226.176 -2.60986 5.49352
  292 226.176 -2.60986 5.49352
  293 200.482 2.00100 1.01865
  294 200.482 2.00100 1.01865
  295 197.496 5.50119 -5.97072
  296 197.496 5.50119 -5.97072
  297 199.506 3.23823 -0.279687
  298 199.506 3.23823 -0.279687
  299 202.542 0.567250 -1.42276
  300 202.542 0.567250 -1.42276
  301 206.788 1.04771 3.64629
  302 206.788 1.04771 3.64629
  303 196.357 5.60684 -1.54061
  304 196.357 5.60684 -1.54061
  305 45.2053 -77.6435 -51.6441
  306 45.2053 -77.6435 -51.6441
  307 133.767 8.64262 11.1896
  308 133.767 8.64262 11.1896
  309 200.726 1.66763 -0.979855
  310 200.726 1.66763 -0.979855
  311 176.141 10.2264 -8.12903
  312 176.141 10.2264 -8.12903
  313 176.578 11.1534 3.11263
  314 176.578 11.1534 3.11263
  315 200.273 2.91836 -2.61701
  316 200.273 2.91836 -2.61701
  317 269.849 13.6588 0.283748
  318 269.849 13.6588 0.283748
  319 198.700 4.87515 8.17026
  320 198.700 4.87515 8.17026
  321 254.402 7.71440 -7.66530
  322 254.402 7.71440 -7.66530
  323 379.905 10.8693 25.2317
  324 379.905 10.8693 25.2317
  325 197.913 5.04957 5.16644
  326 197.913 5.04957 5.16644
  327 194.637 6.67724 2.70248
  328 194.637 6.67724 2.70248
  329 153.854 -35.6366 -82.4468
  330 153.854 -35.6366 -82.4468
  331 202.658 0.513115 1.39214
  332 202.658 0.513115 1.39214
  333 198.161 4.23905 1.41043
  334 198.161 4.23905 1.41043
  335 190.577 8.63297 0.309114
  336 190.577 8.63297 0.309114
  337 98.3819 -35.0366 66.7182
  338 98.3819 -35.0366 66.7182
  339 246.194 16.0409 1.34642
  340 246.194 16.0409 1.34642
  341 14.2414 -102.683 -22.7265
  342 14.2414 -102.683 -22.7265
  343 152.540 9.63692 10.0093
  344 152.540 9.63692 10.0093
  345 359.230 5.02887 3.58843
  346 359.230 5.02887 3.58843
  347 374.824 18.7592 -25.8764
  348 374.824 18.7592 -25.8764
  349 173.313 -19.9362 49.2185
  350 180.564 -10.2819 36.6079
  351 173.313 -19.9362 49.2185
  352 180.564 -10.2819 36.6079
  353 364.346 9.24381 13.3233
  354 364.346 9.24381 13.3233
  355 205.277 -0.249966 14.0761
  356 205.277 -0.249966 14.0761
  357 244.635 -32.9515 -34.2482
  358 244.635 -32.9515 -34.2482
  359 231.041 -2.03526 7.12475
  360 231.041 -2.03526 7.12475
  361 157.757 -35.4810 90.4865
  362 157.757 -35.4810 90.4865
  363 270.435 21.7279 -0.754020
  364 270.435 21.7279 -0.754020
  365 364.481 3.42035 -2.80206
  366 364.481 3.42035 -2.80206
  367 218.953 0.156592 -6.91630
  368 218.953 0.156592 -6.91630
  369 194.648 7.09592 -3.23104
  370 194.648 7.09592 -3.23104
  371 303.178 23.4942 7.08814
  372 303.178 23.4942 7.08814
  373 230.724 9.56674 -1.55198
  374 230.724 9.56674 -1.55198
  375 210.840 0.830439 -4.48144
  376 210.840 0.830439 -4.48144
  377 56.4090 -28.8287 -38.1297
  378 56.4090 -28.8287 -38.1297
  379 233.267 -4.17332 2.12748
  380 233.267 -4.17332 2.12748
  381 199.113 -0.277465 -16.5722
  382 199.113 -0.277465 -16.5722
  383 229.211 -0.508880 -8.47521
  384 229.211 -0.508880 -8.47521
  385 365.837 6.55027 -11.0675
  386 365.837 6.55027 -11.0675
  387 199.738 3.12634 2.07076
  388 199.738 3.12634 2.07076
  389 243.910 11.7434 7.25317
  390 243.910 11.7434 7.25317
  391 264.314 -6.11367 1.39819
  392 264.314 -6.11367 1.39819
  393 200.518 3.67099 -4.59830
  394 200.518 3.67099 -4.59830
  395 387.262 34.4057 -47.7145
  396 387.262 34.4057 -47.7145
  397 230.378 -3.29647 -2.26508
  398 230.378 -3.29647 -2.26508
</Section>

newXOutput 59

<Section columns = "stress_xx | stress_yy | stress_xy">
  1 204.331 0.197721 -0.239121
  2 204.419 0.246809 0.322666
  3 204.331 0.197721 -0.239121
  4 204.419 0.246809 0.322666
  5 319.416 17.6491 86.9287
  6 332.180 16.9222 -85.4850
  7 319.416 17.6491 86.9287
  8 332.180 16.9222 -85.4850
  9 204.863 0.140892 -0.626317
  10 206.632 0.251092 -1.10972
  11 209.177 0.573478 -2.24267
  12 215.009 0.220126 -2.99908
  13 222.439 0.377387 -4.86629
  14 231.047 -2.00137 -4.71507
  15 238.792 -2.43827 -0.423623
  16 234.550 -1.69682 4.20265
  17 224.994 1.69541 7.27088
  18 219.811 4.25340 -0.280983
  19 223.619 2.05104 -6.80718
  20 234.274 -2.51454 -5.12650
  21 236.569 -2.95770 1.44563
  22 232.260 -1.32580 4.05128
  23 220.849 0.106070 4.88079
  24 214.483 0.827988 3.79166
  25 209.321 0.657902 2.15704
  26 206.662 0.201704 1.01744
  27 204.974 0.166181 0.603809
  28 204.741 0.740177 0.377184
  29 204.354 1.52347 0.436700
  30 203.404 2.65468 0.387470
  31 203.023 3.08921 -0.0376041
  32 203.515 2.51729 -0.465603
  33 204.199 1.66081 -0.399508
  34 204.500 0.837981 -0.420133
  35 204.863 0.140892 -0.626317
  36 206.632 0.251092 -1.10972
  37 209.177 0.573478 -2.24267
  38 215.009 0.220126 -2.99908
  39 222.439 0.377387 -4.86629
  40 231.047 -2.00137 -4.71507
  41 238.792 -2.43827 -0.423623
  42 234.550 -1.69682 4.20265
  43 224.994 1.69541 7.27088
  44 219.811 4.25340 -0.280983
  45 223.619 2.05104 -6.80718
  46 234.274 -2.51454 -5.12650
  47 236.569 -2.95770 1.44563
  48 232.260 -1.32580 4.05128
  49 220.849 0.106070 4.88079
  50 214.483 0.827988 3.79166
  51 209.321 0.657902 2.15704
  52 206.662 0.201704 1.01744
  53 204.974 0.166181 0.603809
  54 204.741 0.740177 0.377184
  55 204.354 1.52347 0.436700
  56 203.404 2.65468 0.387470
  57 203.023 3.08921 -0.0376041
  58 203.515 2.51729 -0.465603
  59 204.199 1.66081 -0.399508
  60 204.500 0.837981 -0.420133
  61 444.141 22.5361 45.8929
  62 404.525 6.67416 16.4750
  63 381.004 2.87525 6.16257
  64 376.006 2.06354 1.24755
  65 380.837 2.71200 -5.27515
  66 398.666 5.74993 -14.3665
  67 448.278 19.6399 -39.4972
  68 58.4697 -67.3937 -70.1534
  69 11.5566 -147.606 -17.2722
  70 3.50382 -166.502 -7.56994
  71 3.34053 -163.371 -4.04251
  72 5.47468 -159.287 8.08251
  73 12.4749 -143.093 18.2521
  74 63.6431 -63.0154 77.8670
  75 444.141 22.5361 45.8929
  76 404.525 6.67416 16.4750
  77 381.004 2.87525 6.16257
  78 376.006 2.06354 1.24755
  79 380.837 2.71200 -5.27515
  80 398.666 5.74993 -14.3665
  81 448.278 19.6399 -39.4972
  82 58.4697 -67.3937 -70.1534
  83 11.5566 -147.606 -17.2722
  84 3.50382 -166.502 -7.56994
  85 3.34053 -163.371 -4.04251
  86 5.47468 -159.287 8.08251
  87 12.4749 -143.093 18.2521
  88 63.6431 -63.0154 77.8670
  89 187.291 10.8092 -2.82640
  90 187.291 10.8092 -2.82640
  91 170.944 2.34747 25.3097
  92 164.206 -1.05394 -30.1238
  93 170.944 2.34747 25.3097
  94 164.206 -1.05394 -30.1238
  95 96.0245 2.18899 12.0319
  96 96.0245 2.18899 12.0319
  97 252.068 16.1369 -4.22802
  98 257.309 9.05313 8.63887
  99 252.068 16.1369 -4.22802
  100 257.309 9.05313 8.63887
  101 201.314 4.93208 2.86682
  102 201.314 4.93208 2.86682
  103 241.638 -13.7353 -0.269913
  104 241.638 -13.7353 -0.269913
  105 201.576 5.15188 -3.53433
  106 201.576 5.15188 -3.53433
  107 237.808 -29.1833 -26.1825
  108 237.808 -29.1833 -26.1825
  109 165.734 -34.3347 65.9197
  110 165.734 -34.3347 65.9197
  111 111.398 -20.2982 -53.0102
  112 111.398 -20.2982 -53.0102
  113 202.447 3.45129 12.1155
  114 202.447 3.45129 12.1155
  115 210.038 1.47789 -11.5570
  116 210.038 1.47789 -11.5570
  117 286.024 18.8306 1.80948
  118 306.825 20.0373 1.59325
  119 286.024 18.8306 1.80948
  120 306.825 20.0373 1.59325
  121 300.220 25.1002 -7.02776
  122 300.220 25.1002 -7.02776
  123 32.4594 -54.1526 -17.0307
  124 32.4594 -54.1526 -17.0307
  125 258.739 -32.2544 27.9033
  126 258.739 -32.2544 27.9033
  127 217.321 -5.19607 13.4447
  128 217.321 -5.19607 13.4447
  129 49.4253 -46.8464 39.3229
  130 49.4253 -46.8464 39.3229
  131 201.614 4.12553 -0.182713
  132 201.614 4.12553 -0.182713
  133 217.020 -10.0549 -17.0767
  134 217.020 -10.0549 -17.0767
  135 204.948 1.68702 2.08722
  136 204.948 1.68702 2.08722
  137 205.145 1.48193 -1.94922
  138 205.145 1.48193 -1.94922
  139 207.450 2.89904 -6.15757
  140 207.450 2.89904 -6.15757
  141 206.467 2.81981 5.55549
  142 206.467 2.81981 5.55549
  143 197.414 6.85355 -0.223133
  144 197.414 6.85355 -0.223133
  145 164.393 10.9632 -1.28880
  146 164.393 10.9632 -1.28880
  147 240.290 -8.59753 4.17273
  148 240.290 -8.59753 4.17273
  149 275.568 -10.1776 -9.54914
  150 275.568 -10.1776 -9.54914
  151 212.125 -23.5170 32.9307
  152 212.125 -23.5170 32.9307
  153 160.240 -43.4589 -73.4454
  154 160.240 -43.4589 -73.4454
  155 187.800 7.74887 11.5217
  156 187.800 7.74887 11.5217
  157 244.394 -1.58898 -9.54365
  158 244.394 -1.58898 -9.54365
  159 335.680 26.3529 18.4163
  160 335.680 26.3529 18.4163
  161 166.956 -46.3457 85.2619
  162 166.956 -46.3457 85.2619
  163 343.501 11.5491 -3.87157
  164 343.501 11.5491 -3.87157
  165 196.614 6.82712 5.40970
  166 196.614 6.82712 5.40970
  167 186.677 6.39719 -16.7993
  168 186.677 6.39719 -16.7993
  169 231.348 6.88803 5.59836
  170 231.348 6.88803 5.59836
  171 194.725 8.13421 -6.12904
  172 194.725 8.13421 -6.12904
  173 202.890 3.31865 0.912387
  174 202.890 3.31865 0.912387
  175 206.393 1.61042 -3.30508
  176 206.393 1.61042 -3.30508
  177 321.708 24.4710 -17.7281
  178 321.708 24.4710 -17.7281
  179 203.064 3.22790 -1.10277
  180 203.064 3.22790 -1.10277
  181 148.864 10.8732 -8.69707
  182 148.864 10.8732 -8.69707
  183 271.054 19.9272 2.28435
  184 271.054 19.9272 2.28435
  185 54.3940 -46.0284 -50.8151
  186 54.3940 -46.0284 -50.8151
  187 147.055 -1.66567 36.6018
  188 147.055 -1.66567 36.6018
  189 197.914 -31.7291 -51.1067
  190 197.914 -31.7291 -51.1067
  191 233.685 -6.36736 2.59179
  192 233.685 -6.36736 2.59179
  193 218.531 -0.690914 8.39890
  194 218.531 -0.690914 8.39890
  195 298.734 7.87550 16.3927
  196 298.734 7.87550 16.3927
  197 122.149 3.72085 -22.5431
  198 122.149 3.72085 -22.5431
  199 340.268 15.3775 8.79559
  200 340.268 15.3775 8.79559
  201 222.656 -2.67180 -8.72498
  202 222.656 -2.67180 -8.72498
  203 206.724 1.15208 3.04987
  204 206.724 1.15208 3.04987
  205 231.875 -8.99823 -4.21510
  206 231.875 -8.99823 -4.21510
  207 253.997 -12.9203 -0.815817
  208 253.997 -12.9203 -0.815817
  209 15.7325 -93.1248 7.41282
  210 15.7325 -93.1248 7.41282
  211 213.372 1.17454 -7.47942
  212 213.372 1.17454 -7.47942
  213 211.537 1.70087 6.55691
  214 211.537 1.70087 6.55691
  215 203.555 -18.6057 -32.6792
  216 203.555 -18.6057 -32.6792
  217 237.866 -5.03912 -5.92473
  218 237.866 -5.03912 -5.92473
  219 194.077 7.06714 -11.5265
  220 194.077 7.06714 -11.5265
  221 53.4904 -67.6166 55.4505
  222 53.4904 -67.6166 55.4505
  223 240.880 0.937302 8.96001
  224 240.880 0.937302 8.96001
  225 233.589 5.83779 -7.46212
  226 233.589 5.83779 -7.46212
  227 336.221 20.1237 -14.8658
  228 336.221 20.1237 -14.8658
  229 254.830 -9.61908 -5.06851
  230 254.830 -9.61908 -5.06851
  231 279.650 -13.8653 -47.4848
  232 279.650 -13.8653 -47.4848
  233 204.111 -9.17563 25.3147
  234 204.111 -9.17563 25.3147
  235 199.663 5.73268 0.920901
  236 199.663 5.73268 0.920901
  237 105.382 -15.7836 46.9811
  238 105.382 -15.7836 46.9811
  239 267.642 -24.0409 55.9045
  240 267.642 -24.0409 55.9045
  241 71.0990 -9.83979 -23.1411
  242 71.0990 -9.83979 -23.1411
  243 236.959 -17.7015 -10.9418
  244 236.959 -17.7015 -10.9418
  245 192.060 8.75233 6.69683
  246 192.060 8.75233 6.69683
  247 7.04788 -120.661 -5.96725
  248 7.04788 -120.661 -5.96725
  249 13.2926 -106.602 19.8412
  250 13.2926 -106.602 19.8412
  251 195.798 1.38275 18.3433
  252 195.798 1.38275 18.3433
  253 204.712 0.788817 0.759105
  254 204.712 0.788817 0.759105
  255 202.870 3.34671 0.143313
  256 202.870 3.34671 0.143313
  257 190.230 -2.33825 -24.2727
  258 190.230 -2.33825 -24.2727
  259 204.849 0.716689 -0.803897
  260 204.849 0.716689 -0.803897
  261 227.282 -15.9189 14.8858
  262 227.282 -15.9189 14.8858
  263 210.536 0.762622 -3.69188
  264 210.536 0.762622 -3.69188
  265 162.546 -13.7614 -44.7598
  266 162.546 -13.7614 -44.7598
  267 278.350 21.2699 -1.50783
  268 278.350 21.2699 -1.50783
  269 202.598 4.56655 -9.45161
  270 202.598 4.56655 -9.45161
  271 201.769 4.27591 -1.91955
  272 201.769 4.27591 -1.91955
  273 170.837 8.32133 -16.7500
  274 170.837 8.32133 -16.7500
  275 51.3857 -20.8778 13.2369
  276 51.3857 -20.8778 13.2369
  277 217.452 -35.8051 45.5182
  278 217.452 -35.8051 45.5182
  279 204.040 3.08593 3.74505
  280 204.040 3.08593 3.74505
  281 304.538 21.6603 -4.41888
  282 304.538 21.6603 -4.41888
  283 366.909 29.9655 41.6949
  284 366.909 29.9655 41.6949
  285 244.277 -25.8767 14.3839
  286 244.277 -25.8767 14.3839
  287 174.249 8.75503 12.3302
  288 174.249 8.75503 12.3302
  289 224.022 -44.2290 59.9586
  290 224.022 -44.2290 59.9586
  291 230.035 -2.65545 5.58927
  292 230.035 -2.65545 5.58927
  293 203.917 2.03462 1.03531
  294 203.917 2.03462 1.03531
  295 200.883 5.59393 -6.07007
  296 200.883 5.59393 -6.07007
  297 202.925 3.29251 -0.284262
  298 202.925 3.29251 -0.284262
  299 206.011 0.576813 -1.44602
  300 206.011 0.576813 -1.44602
  301 210.326 1.06519 3.70648
  302 210.326 1.06519 3.70648
  303 199.726 5.70127 -1.56612
  304 199.726 5.70127 -1.56612
  305 45.9808 -78.9546 -52.5720
  306 45.9808 -78.9546 -52.5720
  307 136.085 8.79403 11.3812
  308 136.085 8.79403 11.3812
  309 204.165 1.69569 -0.995854
  310 204.165 1.69569 -0.995854
  311 179.175 10.4008 -8.26686
  312 179.175 10.4008 -8.26686
  313 179.619 11.3437 3.16513
  314 179.619 11.3437 3.16513
  315 203.705 2.96743 -2.66006
  316 203.705 2.96743 -2.66006
  317 274.445 13.9027 0.261922
  318 274.445 13.9027 0.261922
  319 202.107 4.95733 8.30684
  320 202.107 4.95733 8.30684
  321 258.744 7.85187 -7.77629
  322 258.744 7.85187 -7.77629
  323 386.279 11.0494 25.6631
  324 386.279 11.0494 25.6631
  325 201.307 5.13466 5.25224
  326 201.307 5.13466 5.25224
  327 197.978 6.78987 2.74736
  328 197.978 6.78987 2.74736
  329 156.469 -36.1890 -83.9082
  330 156.469 -36.1890 -83.9082
  331 206.129 0.521759 1.41490
  332 206.129 0.521759 1.41490
  333 201.559 4.31029 1.43365
  334 201.559 4.31029 1.43365
  335 193.851 8.77906 0.314256
  336 193.851 8.77906 0.314256
  337 100.079 -35.6356 67.8909
  338 100.079 -35.6356 67.8909
  339 250.410 16.3173 1.36599
  340 250.410 16.3173 1.36599
  341 14.4833 -104.448 -23.1409
  342 14.4833 -104.448 -23.1409
  343 155.177 9.80333 10.1797
  344 155.177 9.80333 10.1797
  345 365.261 5.11050 3.64755
  346 365.261 5.11050 3.64755
  347 381.124 19.0799 -26.3217
  348 381.124 19.0799 -26.3217
  349 176.283 -20.2796 50.0679
  350 183.661 -10.4584 37.2359
  351 176.283 -20.2796 50.0679
  352 183.661 -10.4584 37.2359
  353 370.465 9.39546 13.5482
  354 370.465 9.39546 13.5482
  355 208.791 -0.255087 14.3156
  356 208.791 -0.255087 14.3156
  357 248.789 -33.5124 -34.8545
  358 248.789 -33.5124 -34.8545
  359 234.994 -2.06920 7.23750
  360 234.994 -2.06920 7.23750
  361 160.429 -36.0342 92.0844
  362 160.429 -36.0342 92.0844
  363 275.051 22.0979 -0.766313
  364 275.051 22.0979 -0.766313
  365 370.593 3.47554 -2.84892
  366 370.593 3.47554 -2.84892
  367 222.690 0.158207 -7.03323
  368 222.690 0.158207 -7.03323
  369 197.989 7.21571 -3.28479
  370 197.989 7.21571 -3.28479
  371 308.328 23.8942 7.22397
  372 308.328 23.8942 7.22397
  373 234.684 9.73249 -1.57665
  374 234.684 9.73249 -1.57665
  375 214.444 0.844002 -4.55591
  376 214.444 0.844002 -4.55591
  377 57.3947 -29.3133 -38.8040
  378 57.3947 -29.3133 -38.8040
  379 237.250 -4.24511 2.15705
  380 237.250 -4.24511 2.15705
  381 202.525 -0.283081 -16.8549
  382 202.525 -0.283081 -16.8549
  383 233.138 -0.516848 -8.61006
  384 233.138 -0.516848 -8.61006
  385 371.979 6.65814 -11.2535
  386 371.979 6.65814 -11.2535
  387 203.162 3.17887 2.10478
  388 203.162 3.17887 2.10478
  389 248.084 11.9479 7.36416
  390 248.084 11.9479 7.36416
  391 268.808 -6.20840 1.44883
  392 268.808 -6.20840 1.44883
  393 203.954 3.73275 -4.67434
  394 203.954 3.73275 -4.67434
  395 393.762 35.0267 -48.5515
  396 393.762 35.0267 -48.5515
  397 234.307 -3.35397 -2.30694
  398 234.307 -3.35397 -2.30694
</Section>

newXOutput 60

<Section columns = "stress_xx | stress_yy | stress_xy">
  1 207.770 0.201082 -0.242925
  2 207.860 0.250971 0.327794
  3 207.770 0.201082 -0.242925
  4 207.860 0.250971 0.327794
  5 324.679 18.0228 88.4281
  6 337.647 17.2871 -86.9605
  7 324.679 18.0228 88.4281
  8 337.647 17.2871 -86.9605
  9 208.310 0.143254 -0.636306
  10 210.107 0.255263 -1.12749
  11 212.693 0.582913 -2.27879
  12 218.617 0.223626 -3.04771
  13 226.167 0.383110 -4.94626
  14 234.916 -2.03609 -4.79430
  15 242.791 -2.47994 -0.433566
  16 238.492 -1.72532 4.26728
  17 228.790 1.72539 7.38563
  18 223.528 4.32666 -0.285476
  19 227.394 2.08612 -6.91501
  20 238.211 -2.55695 -5.20525
  21 240.532 -3.00832 1.47326
  22 236.149 -1.34870 4.11963
  23 224.552 0.107069 4.96128
  24 218.083 0.841442 3.85327
  25 212.839 0.668731 2.19175
  26 210.138 0.205058 1.03372
  27 208.423 0.168977 0.613460
  28 208.187 0.752456 0.383172
  29 207.794 1.54864 0.443672
  30 206.828 2.69838 0.393679
  31 206.442 3.14002 -0.0382059
  32 206.941 2.55875 -0.473045
  33 207.635 1.68825 -0.405835
  34 207.942 0.851910 -0.426845
  35 208.310 0.143254 -0.636306
  36 210.107 0.255263 -1.12749
  37 212.693 0.582913 -2.27879
  38 218.617 0.223626 -3.04771
  39 226.167 0.383110 -4.94626
  40 234.916 -2.03609 -4.79430
  41 242.791 -2.47994 -0.433566
  42 238.492 -1.72532 4.26728
  43 228.790 1.72539 7.38563
  44 223.528 4.32666 -0.285476
  45 227.394 2.08612 -6.91501
  46 238.211 -2.55695 -5.20525
  47 240.532 -3.00832 1.47326
  48 236.149 -1.34870 4.11963
  49 224.552 0.107069 4.96128
  50 218.083 0.841442 3.85327
  51 212.839 0.668731 2.19175
  52 210.138 0.205058 1.03372
  53 208.423 0.168977 0.613460
  54 208.187 0.752456 0.383172
  55 207.794 1.54864 0.443672
  56 206.828 2.69838 0.393679
  57 206.442 3.14002 -0.0382059
  58 206.941 2.55875 -0.473045
  59 207.635 1.68825 -0.405835
  60 207.942 0.851910 -0.426845
  61 451.413 22.9195 46.6595
  62 411.158 6.78224 16.7448
  63 387.265 2.91974 6.26171
  64 382.186 2.09583 1.26669
  65 387.093 2.75495 -5.35970
  66 405.207 5.84244 -14.6002
  67 455.618 19.9735 -40.1576
  68 59.4481 -68.4544 -71.3860
  69 11.7501 -150.108 -17.5928
  70 3.55676 -169.362 -7.70978
  71 3.39116 -166.181 -4.11197
  72 5.56259 -162.017 8.23222
  73 12.6854 -145.518 18.5918
  74 64.7024 -64.0017 79.2322
  75 451.413 22.9195 46.6595
  76 411.158 6.78224 16.7448
  77 387.265 2.91974 6.26171
  78 382.186 2.09583 1.26669
  79 387.093 2.75495 -5.35970
  80 405.207 5.84244 -14.6002
  81 455.618 19.9735 -40.1576
  82 59.4481 -68.4544 -71.3860
  83 11.7501 -150.108 -17.5928
  84 3.55676 -169.362 -7.70978
  85 3.39116 -166.181 -4.11197
  86 5.56259 -162.017 8.23222
  87 12.6854 -145.518 18.5918
  88 64.7024 -64.0017 79.2322
  89 190.456 10.9896 -2.87322
  90 190.456 10.9896 -2.87322
  91 173.835 2.38783 25.7344
  92 166.984 -1.07082 -30.6312
  93 173.835 2.38783 25.7344
  94 166.984 -1.07082 -30.6312
  95 97.6692 2.23355 12.2366
  96 97.6692 2.23355 12.2366
  97 256.306 16.4103 -4.29062
  98 261.624 9.21120 8.76317
  99 256.306 16.4103 -4.29062
  100 261.624 9.21120 8.76317
  101 204.705 5.01359 2.91332
  102 204.705 5.01359 2.91332
  103 245.688 -13.9657 -0.259589
  104 245.688 -13.9657 -0.259589
  105 204.971 5.23711 -3.59172
  106 204.971 5.23711 -3.59172
  107 241.783 -29.6750 -26.6352
  108 241.783 -29.6750 -26.6352
  109 168.522 -34.9160 67.0449
  110 168.522 -34.9160 67.0449
  111 113.287 -20.6376 -53.9188
  112 113.287 -20.6376 -53.9188
  113 205.856 3.50814 12.3163
  114 205.856 3.50814 12.3163
  115 213.570 1.50142 -11.7492
  116 213.570 1.50142 -11.7492
  117 290.806 19.1552 1.86663
  118 311.944 20.3677 1.62426
  119 290.806 19.1552 1.86663
  120 311.944 20.3677 1.62426
  121 305.235 25.5253 -7.16664
  122 305.235 25.5253 -7.16664
  123 33.0135 -55.0546 -17.3311
  124 33.0135 -55.0546 -17.3311
  125 263.053 -32.7888 28.3966
  126 263.053 -32.7888 28.3966
  127 220.970 -5.28444 13.6726
  128 220.970 -5.28444 13.6726
  129 50.2692 -47.6245 40.0120
  130 50.2692 -47.6245 40.0120
  131 205.010 4.19358 -0.185643
  132 205.010 4.19358 -0.185643
  133 220.663 -10.2251 -17.3678
  134 220.663 -10.2251 -17.3678
  135 208.397 1.71490 2.12081
  136 208.397 1.71490 2.12081
  137 208.597 1.50646 -1.98055
  138 208.597 1.50646 -1.98055
  139 210.939 2.94673 -6.25810
  140 210.939 2.94673 -6.25810
  141 209.940 2.86629 5.64599
  142 209.940 2.86629 5.64599
  143 200.744 6.96709 -0.226837
  144 200.744 6.96709 -0.226837
  145 167.183 11.1479 -1.31057
  146 167.183 11.1479 -1.31057
  147 244.321 -8.74107 4.22973
  148 244.321 -8.74107 4.22973
  149 280.165 -10.3333 -9.74075
  150 280.165 -10.3333 -9.74075
  151 215.682 -23.9145 33.4909
  152 215.682 -23.9145 33.4909
  153 162.927 -44.1841 -74.7132
  154 162.927 -44.1841 -74.7132
  155 190.971 7.87852 11.7131
  156 190.971 7.87852 11.7131
  157 248.496 -1.61317 -9.68776
  158 248.496 -1.61317 -9.68776
  159 341.258 26.7987 18.7417
  160 341.258 26.7987 18.7417
  161 169.754 -47.1240 86.7273
  162 169.754 -47.1240 86.7273
  163 349.193 11.7356 -3.93722
  164 349.193 11.7356 -3.93722
  165 199.930 6.94035 5.49836
  166 199.930 6.94035 5.49836
  167 189.829 6.50441 -17.0797
  168 189.829 6.50441 -17.0797
  169 235.249 7.00646 5.68618
  170 235.249 7.00646 5.68618
  171 198.011 8.26938 -6.22981
  172 198.011 8.26938 -6.22981
  173 206.307 3.37334 0.927075
  174 206.307 3.37334 0.927075
  175 209.865 1.63696 -3.35850
  176 209.865 1.63696 -3.35850
  177 327.059 24.8987 -18.0559
  178 327.059 24.8987 -18.0559
  179 206.484 3.28114 -1.12050
  180 206.484 3.28114 -1.12050
  181 151.395 11.0583 -8.84334
  182 151.395 11.0583 -8.84334
  183 275.599 20.2641 2.30760
  184 275.599 20.2641 2.30760
  185 55.3193 -46.7925 -51.7040
  186 55.3193 -46.7925 -51.7040
  187 149.547 -1.69176 37.2201
  188 149.547 -1.69176 37.2201
  189 201.233 -32.2657 -51.9788
  190 201.233 -32.2657 -51.9788
  191 237.604 -6.47537 2.64219
  192 237.604 -6.47537 2.64219
  193 222.200 -0.703584 8.53901
  194 222.200 -0.703584 8.53901
  195 303.709 8.02840 16.7023
  196 303.709 8.02840 16.7023
  197 124.230 3.78823 -22.9254
  198 124.230 3.78823 -22.9254
  199 345.913 15.6286 8.94650
  200 345.913 15.6286 8.94650
  201 226.392 -2.71792 -8.87278
  202 226.392 -2.71792 -8.87278
  203 210.201 1.17102 3.09912
  204 210.201 1.17102 3.09912
  205 235.763 -9.15092 -4.29342
  206 235.763 -9.15092 -4.29342
  207 258.247 -13.1330 -0.850206
  208 258.247 -13.1330 -0.850206
  209 15.9982 -94.6992 7.54572
  210 15.9982 -94.6992 7.54572
  211 216.956 1.19314 -7.60265
  212 216.956 1.19314 -7.60265
  213 215.092 1.72866 6.66450
  214 215.092 1.72866 6.66450
  215 206.974 -18.9201 -33.2341
  216 206.974 -18.9201 -33.2341
  217 241.859 -5.12388 -6.01286
  218 241.859 -5.12388 -6.01286
  219 197.351 7.18491 -11.7179
  220 197.351 7.18491 -11.7179
  221 54.3935 -68.7390 56.4262
  222 54.3935 -68.7390 56.4262
  223 244.928 0.956330 9.09667
  224 244.928 0.956330 9.09667
  225 237.525 5.93838 -7.57829
  226 237.525 5.93838 -7.57829
  227 341.805 20.4567 -15.1250
  228 341.805 20.4567 -15.1250
  229 259.095 -9.77613 -5.13251
  230 259.095 -9.77613 -5.13251
  231 284.300 -14.0662 -48.3211
  232 284.300 -14.0662 -48.3211
  233 207.542 -9.33046 25.7416
  234 207.542 -9.33046 25.7416
  235 203.028 5.82748 0.935870
  236 203.028 5.82748 0.935870
  237 107.173 -16.0458 47.7853
  238 107.173 -16.0458 47.7853
  239 272.092 -24.4195 56.8802
  240 272.092 -24.4195 56.8802
  241 72.3182 -9.99514 -23.5393
  242 72.3182 -9.99514 -23.5393
  243 240.927 -17.9998 -11.1371
  244 240.927 -17.9998 -11.1371
  245 195.302 8.89816 6.80736
  246 195.302 8.89816 6.80736
  247 7.16329 -122.713 -6.07563
  248 7.16329 -122.713 -6.07563
  249 13.5158 -108.403 20.2003
  250 13.5158 -108.403 20.2003
  251 199.097 1.40564 18.6501
  252 199.097 1.40564 18.6501
  253 208.157 0.801903 0.771244
  254 208.157 0.801903 0.771244
  255 206.286 3.40179 0.145626
  256 206.286 3.40179 0.145626
  257 193.438 -2.37791 -24.6807
  258 193.438 -2.37791 -24.6807
  259 208.296 0.728612 -0.816757
  260 208.296 0.728612 -0.816757
  261 231.092 -16.1876 15.1438
  262 231.092 -16.1876 15.1438
  263 214.074 0.775046 -3.75171
  264 214.074 0.775046 -3.75171
  265 165.289 -13.9937 -45.5186
  266 165.289 -13.9937 -45.5186
  267 283.013 21.6283 -1.51816
  268 283.013 21.6283 -1.51816
  269 206.010 4.64198 -9.60734
  270 206.010 4.64198 -9.60734
  271 205.167 4.34651 -1.95056
  272 205.167 4.34651 -1.95056
  273 173.730 8.46183 -17.0304
  274 173.730 8.46183 -17.0304
  275 52.2683 -21.2155 13.4668
  276 52.2683 -21.2155 13.4668
  277 221.091 -36.4101 46.2967
  278 221.091 -36.4101 46.2967
  279 207.475 3.13689 3.80569
  280 207.475 3.13689 3.80569
  281 309.622 22.0193 -4.50073
  282 309.622 22.0193 -4.50073
  283 372.974 30.4931 42.4171
  284 372.974 30.4931 42.4171
  285 248.361 -26.3108 14.6424
  286 248.361 -26.3108 14.6424
  287 177.199 8.90242 12.5357
  288 177.199 8.90242 12.5357
  289 227.762 -44.9743 60.9859
  290 227.762 -44.9743 60.9859
  291 233.891 -2.70103 5.68500
  292 233.891 -2.70103 5.68500
  293 207.350 2.06819 1.05192
  294 207.350 2.06819 1.05192
  295 204.268 5.68655 -6.16925
  296 204.268 5.68655 -6.16925
  297 206.342 3.34671 -0.288827
  298 206.342 3.34671 -0.288827
  299 209.476 0.586364 -1.46923
  300 209.476 0.586364 -1.46923
  301 213.860 1.08264 3.76655
  302 213.860 1.08264 3.76655
  303 203.092 5.79557 -1.59157
  304 203.092 5.79557 -1.59157
  305 46.7557 -80.2640 -53.5007
  306 46.7557 -80.2640 -53.5007
  307 138.402 8.94543 11.5727
  308 138.402 8.94543 11.5727
  309 207.601 1.72371 -1.01181
  310 207.601 1.72371 -1.01181
  311 182.206 10.5751 -8.40452
  312 182.206 10.5751 -8.40452
  313 182.659 11.5337 3.21757
  314 182.659 11.5337 3.21757
  315 207.134 3.01643 -2.70301
  316 207.134 3.01643 -2.70301
  317 279.036 14.1468 0.239228
  318 279.036 14.1468 0.239228
  319 205.511 5.03940 8.44320
  320 205.511 5.03940 8.44320
  321 263.082 7.98942 -7.88650
  322 263.082 7.98942 -7.88650
  323 392.644 11.2291 26.0941
  324 392.644 11.2291 26.0941
  325 204.698 5.21963 5.33788
  326 204.698 5.21963 5.33788
  327 201.317 6.90236 2.79216
  328 201.317 6.90236 2.79216
  329 159.080 -36.7391 -85.3701
  330 159.080 -36.7391 -85.3701
  331 209.596 0.530390 1.43760
  332 209.596 0.530390 1.43760
  333 204.955 4.38143 1.45683
  334 204.955 4.38143 1.45683
  335 197.123 8.92497 0.319388
  336 197.123 8.92497 0.319388
  337 101.775 -36.2340 69.0636
  338 101.775 -36.2340 69.0636
  339 254.622 16.5936 1.38542
  340 254.622 16.5936 1.38542
  341 14.7249 -106.212 -23.5558
  342 14.7249 -106.212 -23.5558
  343 157.813 9.96964 10.3500
  344 157.813 9.96964 10.3500
  345 371.284 5.19191 3.70653
  346 371.284 5.19191 3.70653
  347 387.414 19.4003 -26.7666
  348 387.414 19.4003 -26.7666
  349 179.250 -20.6228 50.9169
  350 186.755 -10.6348 37.8635
  351 179.250 -20.6228 50.9169
  352 186.755 -10.6348 37.8635
  353 376.575 9.54676 13.7727
  354 376.575 9.54676 13.7727
  355 212.302 -0.260232 14.5548
  356 212.302 -0.260232 14.5548
  357 252.938 -34.0727 -35.4609
  358 252.938 -34.0727 -35.4609
  359 238.945 -2.10309 7.34986
  360 238.945 -2.10309 7.34986
  361 163.098 -36.5850 93.6827
  362 163.098 -36.5850 93.6827
  363 279.664 22.4676 -0.778573
  364 279.664 22.4676 -0.778573
  365 376.696 3.53057 -2.89571
  366 376.696 3.53057 -2.89571
  367 226.425 0.159785 -7.15001
  368 226.425 0.159785 -7.15001
  369 201.327 7.33535 -3.33844
  370 201.327 7.33535 -3.33844
  371 313.472 24.2938 7.36016
  372 313.472 24.2938 7.36016
  373 238.640 9.89817 -1.60124
  374 238.640 9.89817 -1.60124
  375 218.044 0.857532 -4.63026
  376 218.044 0.857532 -4.63026
  377 58.3803 -29.7971 -39.4785
  378 58.3803 -29.7971 -39.4785
  379 241.229 -4.31686 2.18637
  380 241.229 -4.31686 2.18637
  381 205.934 -0.288720 -17.1373
  382 205.934 -0.288720 -17.1373
  383 237.061 -0.524783 -8.74446
  384 237.061 -0.524783 -8.74446
  385 378.111 6.76578 -11.4392
  386 378.111 6.76578 -11.4392
  387 206.583 3.23131 2.13873
  388 206.583 3.23131 2.13873
  389 252.254 12.1524 7.47461
  390 252.254 12.1524 7.47461
  391 273.298 -6.30271 1.50032
  392 273.298 -6.30271 1.50032
  393 207.387 3.79443 -4.75023
  394 207.387 3.79443 -4.75023
  395 400.252 35.6482 -49.3884
  396 400.252 35.6482 -49.3884
  397 238.233 -3.41147 -2.34886
  398 238.233 -3.41147 -2.34886
</Section>

newXOutput 61

<Section columns = "stress_xx | stress_yy | stress_xy">
  1 211.206 0.204442 -0.246719
  2 211.297 0.255131 0.332908
  3 211.206 0.204442 -0.246719
  4 211.297 0.255131 0.332908
  5 329.935 18.3988 89.9274
  6 343.104 17.6544 -88.4359
  7 329.935 18.3988 89.9274
  8 343.104 17.6544 -88.4359
  9 211.755 0.145615 -0.646270
  10 213.579 0.259429 -1.14522
  11 216.205 0.592334 -2.31484
  12 222.223 0.227116 -3.09625
  13 229.892 0.388808 -5.02610
  14 238.782 -2.07080 -4.87345
  15 246.786 -2.52160 -0.443592
  16 242.429 -1.75378 4.33167
  17 232.584 1.75540 7.50003
  18 227.243 4.39992 -0.289958
  19 231.166 2.12118 -7.02253
  20 242.145 -2.59933 -5.28369
  21 244.492 -3.05892 1.50098
  22 240.034 -1.37161 4.18792
  23 228.252 0.108041 5.04165
  24 221.680 0.854869 3.91477
  25 216.354 0.679543 2.22638
  26 213.611 0.208409 1.04995
  27 211.870 0.171770 0.623086
  28 211.629 0.764719 0.389144
  29 211.230 1.57377 0.450626
  30 210.250 2.74202 0.399873
  31 209.858 3.19074 -0.0388062
  32 210.364 2.60015 -0.480467
  33 211.069 1.71565 -0.412144
  34 211.380 0.865822 -0.433539
  35 211.755 0.145615 -0.646270
  36 213.579 0.259429 -1.14522
  37 216.205 0.592334 -2.31484
  38 222.223 0.227116 -3.09625
  39 229.892 0.388808 -5.02610
  40 238.782 -2.07080 -4.87345
  41 246.786 -2.52160 -0.443592
  42 242.429 -1.75378 4.33167
  43 232.584 1.75540 7.50003
  44 227.243 4.39992 -0.289958
  45 231.166 2.12118 -7.02253
  46 242.145 -2.59933 -5.28369
  47 244.492 -3.05892 1.50098
  48 240.034 -1.37161 4.18792
  49 228.252 0.108041 5.04165
  50 221.680 0.854869 3.91477
  51 216.354 0.679543 2.22638
  52 213.611 0.208409 1.04995
  53 211.870 0.171770 0.623086
  54 211.629 0.764719 0.389144
  55 211.230 1.57377 0.450626
  56 210.250 2.74202 0.399873
  57 209.858 3.19074 -0.0388062
  58 210.364 2.60015 -0.480467
  59 211.069 1.71565 -0.412144
  60 211.380 0.865822 -0.433539
  61 458.671 23.3027 47.4253
  62 417.780 6.89008 17.0141
  63 393.515 2.96406 6.36063
  64 388.357 2.12803 1.28576
  65 393.340 2.79778 -5.44404
  66 411.738 5.93475 -14.8334
  67 462.945 20.3069 -40.8172
  68 60.4256 -69.5116 -72.6193
  69 11.9434 -152.609 -17.9142
  70 3.60945 -172.221 -7.84994
  71 3.44157 -168.990 -4.18143
  72 5.65028 -164.747 8.38228
  73 12.8957 -147.941 18.9323
  74 65.7604 -64.9846 80.5982
  75 458.671 23.3027 47.4253
  76 417.780 6.89008 17.0141
  77 393.515 2.96406 6.36063
  78 388.357 2.12803 1.28576
  79 393.340 2.79778 -5.44404
  80 411.738 5.93475 -14.8334
  81 462.945 20.3069 -40.8172
  82 60.4256 -69.5116 -72.6193
  83 11.9434 -152.609 -17.9142
  84 3.60945 -172.221 -7.84994
  85 3.44157 -168.990 -4.18143
  86 5.65028 -164.747 8.38228
  87 12.8957 -147.941 18.9323
  88 65.7604 -64.9846 80.5982
  89 193.619 11.1698 -2.91998
  90 193.619 11.1698 -2.91998
  91 176.724 2.42818 26.1587
  92 169.761 -1.08767 -31.1383
  93 176.724 2.42818 26.1587
  94 169.761 -1.08767 -31.1383
  95 99.3136 2.27833 12.4411
  96 99.3136 2.27833 12.4411
  97 260.541 16.6836 -4.35290
  98 265.936 9.36933 8.88669
  99 260.541 16.6836 -4.35290
  100 265.936 9.36933 8.88669
  101 208.094 5.09499 2.95972
  102 208.094 5.09499 2.95972
  103 249.733 -14.1959 -0.248785
  104 249.733 -14.1959 -0.248785
  105 208.364 5.32222 -3.64901
  106 208.364 5.32222 -3.64901
  107 245.755 -30.1662 -27.0879
  108 245.755 -30.1662 -27.0879
  109 171.307 -35.4970 68.1697
  110 171.307 -35.4970 68.1697
  111 115.176 -20.9767 -54.8272
  112 115.176 -20.9767 -54.8272
  113 209.262 3.56490 12.5168
  114 209.262 3.56490 12.5168
  115 217.098 1.52488 -11.9412
  116 217.098 1.52488 -11.9412
  117 295.583 19.4798 1.92460
  118 317.058 20.6977 1.65538
  119 295.583 19.4798 1.92460
  120 317.058 20.6977 1.65538
  121 310.244 25.9503 -7.30607
  122 310.244 25.9503 -7.30607
  123 33.5674 -55.9556 -17.6318
  124 33.5674 -55.9556 -17.6318
  125 267.362 -33.3226 28.8903
  126 267.362 -33.3226 28.8903
  127 224.617 -5.37277 13.9004
  128 224.617 -5.37277 13.9004
  129 51.1128 -48.4016 40.7016
  130 51.1128 -48.4016 40.7016
  131 208.404 4.26153 -0.188565
  132 208.404 4.26153 -0.188565
  133 224.303 -10.3953 -17.6587
  134 224.303 -10.3953 -17.6587
  135 211.843 1.74274 2.15431
  136 211.843 1.74274 2.15431
  137 212.046 1.53096 -2.01180
  138 212.046 1.53096 -2.01180
  139 214.425 2.99434 -6.35846
  140 214.425 2.99434 -6.35846
  141 213.411 2.91271 5.73631
  142 213.411 2.91271 5.73631
  143 204.070 7.08048 -0.230536
  144 204.070 7.08048 -0.230536
  145 169.971 11.3325 -1.33233
  146 169.971 11.3325 -1.33233
  147 248.347 -8.88446 4.28626
  148 248.347 -8.88446 4.28626
  149 284.757 -10.4883 -9.93321
  150 284.757 -10.4883 -9.93321
  151 219.236 -24.3117 34.0508
  152 219.236 -24.3117 34.0508
  153 165.612 -44.9086 -75.9810
  154 165.612 -44.9086 -75.9810
  155 194.141 8.00804 11.9043
  156 194.141 8.00804 11.9043
  157 252.593 -1.63725 -9.83121
  158 252.593 -1.63725 -9.83121
  159 346.828 27.2443 19.0673
  160 346.828 27.2443 19.0673
  161 172.549 -47.9016 88.1926
  162 172.549 -47.9016 88.1926
  163 354.877 11.9218 -4.00283
  164 354.877 11.9218 -4.00283
  165 203.244 7.05343 5.58688
  166 203.244 7.05343 5.58688
  167 192.979 6.61153 -17.3599
  168 192.979 6.61153 -17.3599
  169 239.148 7.12489 5.77372
  170 239.148 7.12489 5.77372
  171 201.294 8.40439 -6.33042
  172 201.294 8.40439 -6.33042
  173 209.721 3.42795 0.941728
  174 209.721 3.42795 0.941728
  175 213.334 1.66345 -3.41180
  176 213.334 1.66345 -3.41180
  177 332.404 25.3265 -18.3844
  178 332.404 25.3265 -18.3844
  179 209.900 3.33430 -1.13819
  180 209.900 3.33430 -1.13819
  181 153.925 11.2434 -8.98949
  182 153.925 11.2434 -8.98949
  183 280.140 20.6007 2.33033
  184 280.140 20.6007 2.33033
  185 56.2441 -47.5557 -52.5932
  186 56.2441 -47.5557 -52.5932
  187 152.038 -1.71777 37.8380
  188 152.038 -1.71777 37.8380
  189 204.549 -32.8019 -52.8505
  190 204.549 -32.8019 -52.8505
  191 241.519 -6.58332 2.69277
  192 241.519 -6.58332 2.69277
  193 225.865 -0.716278 8.67897
  194 225.865 -0.716278 8.67897
  195 308.679 8.18185 17.0127
  196 308.679 8.18185 17.0127
  197 126.311 3.85572 -23.3074
  198 126.311 3.85572 -23.3074
  199 351.550 15.8792 9.09738
  200 351.550 15.8792 9.09738
  201 230.124 -2.76405 -9.02049
  202 230.124 -2.76405 -9.02049
  203 213.675 1.18994 3.14827
  204 213.675 1.18994 3.14827
  205 239.648 -9.30353 -4.37192
  206 239.648 -9.30353 -4.37192
  207 262.492 -13.3454 -0.885247
  208 262.492 -13.3454 -0.885247
  209 16.2637 -96.2727 7.67880
  210 16.2637 -96.2727 7.67880
  211 220.537 1.21168 -7.72569
  212 220.537 1.21168 -7.72569
  213 218.644 1.75641 6.77192
  214 218.644 1.75641 6.77192
  215 210.391 -19.2342 -33.7887
  216 210.391 -19.2342 -33.7887
  217 245.849 -5.20857 -6.10054
  218 245.849 -5.20857 -6.10054
  219 200.622 7.30255 -11.9090
  220 200.622 7.30255 -11.9090
  221 55.2958 -69.8599 57.4025
  222 55.2958 -69.8599 57.4025
  223 248.973 0.975453 9.23276
  224 248.973 0.975453 9.23276
  225 241.458 6.03898 -7.69407
  226 241.458 6.03898 -7.69407
  227 347.382 20.7893 -15.3844
  228 347.382 20.7893 -15.3844
  229 263.355 -9.93288 -5.19576
  230 263.355 -9.93288 -5.19576
  231 288.944 -14.2658 -49.1580
  232 288.944 -14.2658 -49.1580
  233 210.970 -9.48518 26.1682
  234 210.970 -9.48518 26.1682
  235 206.391 5.92216 0.950811
  236 206.391 5.92216 0.950811
  237 108.964 -16.3076 48.5893
  238 108.964 -16.3076 48.5893
  239 276.536 -24.7970 57.8564
  240 276.536 -24.7970 57.8564
  241 73.5372 -10.1500 -23.9374
  242 73.5372 -10.1500 -23.9374
  243 244.891 -18.2979 -11.3326
  244 244.891 -18.2979 -11.3326
  245 198.542 9.04383 6.91772
  246 198.542 9.04383 6.91772
  247 7.27850 -124.764 -6.18420
  248 7.27850 -124.764 -6.18420
  249 13.7388 -110.204 20.5601
  250 13.7388 -110.204 20.5601
  251 202.395 1.42849 18.9564
  252 202.395 1.42849 18.9564
  253 211.599 0.814971 0.783353
  254 211.599 0.814971 0.783353
  255 209.699 3.45678 0.147934
  256 209.699 3.45678 0.147934
  257 196.642 -2.41755 -25.0883
  258 196.642 -2.41755 -25.0883
  259 211.740 0.740522 -0.829584
  260 211.740 0.740522 -0.829584
  261 234.899 -16.4561 15.4018
  262 234.899 -16.4561 15.4018
  263 217.608 0.787447 -3.81142
  264 217.608 0.787447 -3.81142
  265 168.031 -14.2259 -46.2769
  266 168.031 -14.2259 -46.2769
  267 287.672 21.9865 -1.52800
  268 287.672 21.9865 -1.52800
  269 209.419 4.71731 -9.76283
  270 209.419 4.71731 -9.76283
  271 208.563 4.41702 -1.98151
  272 208.563 4.41702 -1.98151
  273 176.621 8.60222 -17.3105
  274 176.621 8.60222 -17.3105
  275 53.1508 -21.5525 13.6967
  276 53.1508 -21.5525 13.6967
  277 224.725 -37.0147 47.0749
  278 224.725 -37.0147 47.0749
  279 210.907 3.18777 3.86620
  280 210.907 3.18777 3.86620
  281 314.700 22.3779 -4.58274
  282 314.700 22.3779 -4.58274
  283 379.030 31.0211 43.1394
  284 379.030 31.0211 43.1394
  285 252.441 -26.7445 14.9012
  286 252.441 -26.7445 14.9012
  287 180.147 9.04969 12.7410
  288 180.147 9.04969 12.7410
  289 231.498 -45.7190 62.0130
  290 231.498 -45.7190 62.0130
  291 237.744 -2.74660 5.78070
  292 237.744 -2.74660 5.78070
  293 210.779 2.10171 1.06850
  294 210.779 2.10171 1.06850
  295 207.650 5.77904 -6.26824
  296 207.650 5.77904 -6.26824
  297 209.757 3.40082 -0.293380
  298 209.757 3.40082 -0.293380
  299 212.939 0.595901 -1.49239
  300 212.939 0.595901 -1.49239
  301 217.391 1.10005 3.82649
  302 217.391 1.10005 3.82649
  303 206.456 5.88974 -1.61697
  304 206.456 5.88974 -1.61697
  305 47.5299 -81.5717 -54.4300
  306 47.5299 -81.5717 -54.4300
  307 140.719 9.09682 11.7641
  308 140.719 9.09682 11.7641
  309 211.035 1.75169 -1.02773
  310 211.035 1.75169 -1.02773
  311 185.236 10.7493 -8.54202
  312 185.236 10.7493 -8.54202
  313 185.696 11.7236 3.26993
  314 185.696 11.7236 3.26993
  315 210.560 3.06536 -2.74586
  316 210.560 3.06536 -2.74586
  317 283.623 14.3911 0.215669
  318 283.623 14.3911 0.215669
  319 208.912 5.12136 8.57933
  320 208.912 5.12136 8.57933
  321 267.416 8.12704 -7.99595
  322 267.416 8.12704 -7.99595
  323 398.999 11.4085 26.5246
  324 398.999 11.4085 26.5246
  325 208.087 5.30449 5.42335
  326 208.087 5.30449 5.42335
  327 204.652 7.01469 2.83687
  328 204.652 7.01469 2.83687
  329 161.688 -37.2866 -86.8324
  330 161.688 -37.2866 -86.8324
  331 213.061 0.539010 1.46025
  332 213.061 0.539010 1.46025
  333 208.348 4.45247 1.47995
  334 208.348 4.45247 1.47995
  335 200.392 9.07070 0.324512
  336 200.392 9.07070 0.324512
  337 103.469 -36.8320 70.2363
  338 103.469 -36.8320 70.2363
  339 258.831 16.8698 1.40473
  340 258.831 16.8698 1.40473
  341 14.9662 -107.975 -23.9712
  342 14.9662 -107.975 -23.9712
  343 160.448 10.1359 10.5201
  344 160.448 10.1359 10.5201
  345 377.298 5.27311 3.76540
  346 377.298 5.27311 3.76540
  347 393.696 19.7204 -27.2112
  348 393.696 19.7204 -27.2112
  349 182.214 -20.9658 51.7654
  350 189.847 -10.8110 38.4906
  351 182.214 -20.9658 51.7654
  352 189.847 -10.8110 38.4906
  353 382.676 9.69772 13.9970
  354 382.676 9.69772 13.9970
  355 215.811 -0.265401 14.7938
  356 215.811 -0.265401 14.7938
  357 257.083 -34.6324 -36.0675
  358 257.083 -34.6324 -36.0675
  359 242.892 -2.13691 7.46181
  360 242.892 -2.13691 7.46181
  361 165.764 -37.1335 95.2813
  362 165.764 -37.1335 95.2813
  363 284.272 22.8368 -0.790802
  364 284.272 22.8368 -0.790802
  365 382.790 3.58545 -2.94241
  366 382.790 3.58545 -2.94241
  367 230.155 0.161326 -7.26665
  368 230.155 0.161326 -7.26665
  369 204.663 7.45482 -3.39199
  370 204.663 7.45482 -3.39199
  371 318.610 24.6930 7.49670
  372 318.610 24.6930 7.49670
  373 242.593 10.0638 -1.62574
  374 242.593 10.0638 -1.62574
  375 221.641 0.871029 -4.70446
  376 221.641 0.871029 -4.70446
  377 59.3657 -30.2802 -40.1532
  378 59.3657 -30.2802 -40.1532
  379 245.204 -4.38856 2.21544
  380 245.204 -4.38856 2.21544
  381 209.340 -0.294384 -17.4194
  382 209.340 -0.294384 -17.4194
  383 240.982 -0.532685 -8.87840
  384 240.982 -0.532685 -8.87840
  385 384.235 6.87320 -11.6246
  386 384.235 6.87320 -11.6246
  387 210.001 3.28368 2.17261
  388 210.001 3.28368 2.17261
  389 256.420 12.3569 7.58453
  390 256.420 12.3569 7.58453
  391 277.783 -6.39659 1.55266
  392 277.783 -6.39659 1.55266
  393 210.817 3.85602 -4.82597
  394 210.817 3.85602 -4.82597
  395 406.733 36.2703 -50.2252
  396 406.733 36.2703 -50.2252
  397 242.156 -3.46895 -2.39086
  398 242.156 -3.46895 -2.39086
</Section>

newXOutput 62

<Section columns = "stress_xx | stress_yy | stress_xy">
  1 214.639 0.207800 -0.250502
  2 214.732 0.259288 0.338008
  3 214.639 0.207800 -0.250502
  4 214.732 0.259288 0.338008
  5 335.182 18.7771 91.4267
  6 348.554 18.0241 -89.9114
  7 335.182 18.7771 91.4267
  8 348.554 18.0241 -89.9114
  9 215.196 0.147973 -0.656207
  10 217.049 0.263590 -1.16290
  11 219.715 0.601739 -2.35080
  12 225.825 0.230596 -3.14468
  13 233.613 0.394481 -5.10581
  14 242.643 -2.10553 -4.95254
  15 250.777 -2.56325 -0.453700
  16 246.364 -1.78223 4.39580
  17 236.375 1.78544 7.61409
  18 230.956 4.47318 -0.294428
  19 234.936 2.15623 -7.12974
  20 246.076 -2.64168 -5.36182
  21 248.447 -3.10951 1.52877
  22 243.916 -1.39452 4.25617
  23 231.949 0.108986 5.12190
  24 225.274 0.868269 3.97614
  25 219.866 0.690338 2.26092
  26 217.081 0.211755 1.06615
  27 215.313 0.174561 0.632688
  28 215.069 0.776966 0.395099
  29 214.664 1.59886 0.457561
  30 213.669 2.78558 0.406051
  31 213.271 3.24138 -0.0394049
  32 213.785 2.64149 -0.487871
  33 214.501 1.74301 -0.418435
  34 214.816 0.879717 -0.440217
  35 215.196 0.147973 -0.656207
  36 217.049 0.263590 -1.16290
  37 219.715 0.601739 -2.35080
  38 225.825 0.230596 -3.14468
  39 233.613 0.394481 -5.10581
  40 242.643 -2.10553 -4.95254
  41 250.777 -2.56325 -0.453700
  42 246.364 -1.78223 4.39580
  43 236.375 1.78544 7.61409
  44 230.956 4.47318 -0.294428
  45 234.936 2.15623 -7.12974
  46 246.076 -2.64168 -5.36182
  47 248.447 -3.10951 1.52877
  48 243.916 -1.39452 4.25617
  49 231.949 0.108986 5.12190
  50 225.274 0.868269 3.97614
  51 219.866 0.690338 2.26092
  52 217.081 0.211755 1.06615
  53 215.313 0.174561 0.632688
  54 215.069 0.776966 0.395099
  55 214.664 1.59886 0.457561
  56 213.669 2.78558 0.406051
  57 213.271 3.24138 -0.0394049
  58 213.785 2.64149 -0.487871
  59 214.501 1.74301 -0.418435
  60 214.816 0.879717 -0.440217
  61 465.917 23.6857 48.1902
  62 424.391 6.99771 17.2830
  63 399.755 3.00823 6.45931
  64 394.517 2.16013 1.30475
  65 399.576 2.84049 -5.52818
  66 418.258 6.02685 -15.0662
  67 470.260 20.6401 -41.4761
  68 61.4020 -70.5654 -73.8533
  69 12.1365 -155.109 -18.2363
  70 3.66189 -175.081 -7.99041
  71 3.49175 -171.800 -4.25087
  72 5.73776 -167.476 8.53270
  73 13.1058 -150.363 19.2737
  74 66.8172 -65.9643 81.9648
  75 465.917 23.6857 48.1902
  76 424.391 6.99771 17.2830
  77 399.755 3.00823 6.45931
  78 394.517 2.16013 1.30475
  79 399.576 2.84049 -5.52818
  80 418.258 6.02685 -15.0662
  81 470.260 20.6401 -41.4761
  82 61.4020 -70.5654 -73.8533
  83 12.1365 -155.109 -18.2363
  84 3.66189 -175.081 -7.99041
  85 3.49175 -171.800 -4.25087
  86 5.73776 -167.476 8.53270
  87 13.1058 -150.363 19.2737
  88 66.8172 -65.9643 81.9648
  89 196.780 11.3498 -2.96667
  90 196.780 11.3498 -2.96667
  91 179.612 2.46852 26.5826
  92 172.536 -1.10447 -31.6449
  93 179.612 2.46852 26.5826
  94 172.536 -1.10447 -31.6449
  95 100.958 2.32332 12.6455
  96 100.958 2.32332 12.6455
  97 264.772 16.9567 -4.41485
  98 270.244 9.52753 9.00941
  99 264.772 16.9567 -4.41485
  100 270.244 9.52753 9.00941
  101 211.481 5.17627 3.00603
  102 211.481 5.17627 3.00603
  103 253.774 -14.4259 -0.237500
  104 253.774 -14.4259 -0.237500
  105 211.755 5.40721 -3.70618
  106 211.755 5.40721 -3.70618
  107 249.722 -30.6571 -27.5407
  108 249.722 -30.6571 -27.5407
  109 174.090 -36.0776 69.2941
  110 174.090 -36.0776 69.2941
  111 117.063 -21.3154 -55.7355
  112 117.063 -21.3154 -55.7355
  113 212.666 3.62157 12.7170
  114 212.666 3.62157 12.7170
  115 220.624 1.54828 -12.1330
  116 220.624 1.54828 -12.1330
  117 300.356 19.8044 1.98338
  118 322.166 21.0271 1.68660
  119 300.356 19.8044 1.98338
  120 322.166 21.0271 1.68660
  121 315.249 26.3749 -7.44604
  122 315.249 26.3749 -7.44604
  123 34.1212 -56.8555 -17.9327
  124 34.1212 -56.8555 -17.9327
  125 271.666 -33.8556 29.3844
  126 271.666 -33.8556 29.3844
  127 228.260 -5.46105 14.1280
  128 228.260 -5.46105 14.1280
  129 51.9562 -49.1778 41.3915
  130 51.9562 -49.1778 41.3915
  131 211.795 4.32938 -0.191479
  132 211.795 4.32938 -0.191479
  133 227.940 -10.5653 -17.9496
  134 227.940 -10.5653 -17.9496
  135 215.286 1.77054 2.18774
  136 215.286 1.77054 2.18774
  137 215.492 1.55542 -2.04298
  138 215.492 1.55542 -2.04298
  139 217.908 3.04187 -6.45863
  140 217.908 3.04187 -6.45863
  141 216.878 2.95905 5.82646
  142 216.878 2.95905 5.82646
  143 207.395 7.19372 -0.234230
  144 207.395 7.19372 -0.234230
  145 172.757 11.5169 -1.35407
  146 172.757 11.5169 -1.35407
  147 252.370 -9.02769 4.34230
  148 252.370 -9.02769 4.34230
  149 289.343 -10.6426 -10.1265
  150 289.343 -10.6426 -10.1265
  151 222.787 -24.7086 34.6105
  152 222.787 -24.7086 34.6105
  153 168.294 -45.6322 -77.2489
  154 168.294 -45.6322 -77.2489
  155 197.308 8.13743 12.0953
  156 197.308 8.13743 12.0953
  157 256.687 -1.66122 -9.97400
  158 256.687 -1.66122 -9.97400
  159 352.391 27.6896 19.3932
  160 352.391 27.6896 19.3932
  161 175.342 -48.6785 89.6576
  162 175.342 -48.6785 89.6576
  163 360.553 12.1076 -4.06839
  164 360.553 12.1076 -4.06839
  165 206.555 7.16637 5.67524
  166 206.555 7.16637 5.67524
  167 196.127 6.71854 -17.6397
  168 196.127 6.71854 -17.6397
  169 243.043 7.24330 5.86097
  170 243.043 7.24330 5.86097
  171 204.574 8.53923 -6.43086
  172 204.574 8.53923 -6.43086
  173 213.132 3.48247 0.956348
  174 213.132 3.48247 0.956348
  175 216.800 1.68991 -3.46499
  176 216.800 1.68991 -3.46499
  177 337.741 25.7544 -18.7136
  178 337.741 25.7544 -18.7136
  179 213.314 3.38737 -1.15584
  180 213.314 3.38737 -1.15584
  181 156.453 11.4284 -9.13551
  182 156.453 11.4284 -9.13551
  183 284.676 20.9371 2.35255
  184 284.676 20.9371 2.35255
  185 57.1685 -48.3179 -53.4828
  186 57.1685 -48.3179 -53.4828
  187 154.527 -1.74369 38.4554
  188 154.527 -1.74369 38.4554
  189 207.862 -33.3378 -53.7220
  190 207.862 -33.3378 -53.7220
  191 245.431 -6.69121 2.74353
  192 245.431 -6.69121 2.74353
  193 229.526 -0.728996 8.81878
  194 229.526 -0.728996 8.81878
  195 313.643 8.33586 17.3239
  196 313.643 8.33586 17.3239
  197 128.391 3.92331 -23.6892
  198 128.391 3.92331 -23.6892
  199 357.181 16.1294 9.24822
  200 357.181 16.1294 9.24822
  201 233.854 -2.81017 -9.16811
  202 233.854 -2.81017 -9.16811
  203 217.147 1.20882 3.19730
  204 217.147 1.20882 3.19730
  205 243.529 -9.45606 -4.45060
  206 243.529 -9.45606 -4.45060
  207 266.734 -13.5575 -0.920938
  208 266.734 -13.5575 -0.920938
  209 16.5290 -97.8450 7.81205
  210 16.5290 -97.8450 7.81205
  211 224.115 1.23017 -7.84854
  212 224.115 1.23017 -7.84854
  213 222.192 1.78411 6.87915
  214 222.192 1.78411 6.87915
  215 213.804 -19.5482 -34.3430
  216 213.804 -19.5482 -34.3430
  217 249.835 -5.29319 -6.18776
  218 249.835 -5.29319 -6.18776
  219 203.891 7.42006 -12.0998
  220 203.891 7.42006 -12.0998
  221 56.1975 -70.9793 58.3795
  222 56.1975 -70.9793 58.3795
  223 253.014 0.994671 9.36827
  224 253.014 0.994671 9.36827
  225 245.388 6.13957 -7.80944
  226 245.388 6.13957 -7.80944
  227 352.952 21.1215 -15.6438
  228 352.952 21.1215 -15.6438
  229 267.612 -10.0893 -5.25826
  230 267.612 -10.0893 -5.25826
  231 293.583 -14.4642 -49.9954
  232 293.583 -14.4642 -49.9954
  233 214.396 -9.63979 26.5945
  234 214.396 -9.63979 26.5945
  235 209.751 6.01670 0.965721
  236 209.751 6.01670 0.965721
  237 110.753 -16.5691 49.3931
  238 110.753 -16.5691 49.3931
  239 280.975 -25.1732 58.8328
  240 280.975 -25.1732 58.8328
  241 74.7560 -10.3044 -24.3355
  242 74.7560 -10.3044 -24.3355
  243 248.851 -18.5958 -11.5282
  244 248.851 -18.5958 -11.5282
  245 201.779 9.18933 7.02793
  246 201.779 9.18933 7.02793
  247 7.39352 -126.815 -6.29295
  248 7.39352 -126.815 -6.29295
  249 13.9616 -112.003 20.9204
  250 13.9616 -112.003 20.9204
  251 205.689 1.45132 19.2625
  252 205.689 1.45132 19.2625
  253 215.039 0.828022 0.795431
  254 215.039 0.828022 0.795431
  255 213.110 3.51169 0.150236
  256 213.110 3.51169 0.150236
  257 199.844 -2.45717 -25.4955
  258 199.844 -2.45717 -25.4955
  259 215.182 0.752417 -0.842379
  260 215.182 0.752417 -0.842379
  261 238.702 -16.7244 15.6598
  262 238.702 -16.7244 15.6598
  263 221.140 0.799825 -3.87101
  264 221.140 0.799825 -3.87101
  265 170.771 -14.4579 -47.0348
  266 170.771 -14.4579 -47.0348
  267 292.326 22.3444 -1.53734
  268 292.326 22.3444 -1.53734
  269 212.825 4.79253 -9.91808
  270 212.825 4.79253 -9.91808
  271 211.957 4.48742 -2.01238
  272 211.957 4.48742 -2.01238
  273 179.510 8.74252 -17.5904
  274 179.510 8.74252 -17.5904
  275 54.0332 -21.8888 13.9267
  276 54.0332 -21.8888 13.9267
  277 228.356 -37.6188 47.8529
  278 228.356 -37.6188 47.8529
  279 214.336 3.23858 3.92659
  280 214.336 3.23858 3.92659
  281 319.773 22.7360 -4.66493
  282 319.773 22.7360 -4.66493
  283 385.078 31.5495 43.8617
  284 385.078 31.5495 43.8617
  285 256.517 -27.1778 15.1604
  286 256.517 -27.1778 15.1604
  287 183.094 9.19685 12.9461
  288 183.094 9.19685 12.9461
  289 235.230 -46.4632 63.0398
  290 235.230 -46.4632 63.0398
  291 241.593 -2.79216 5.87638
  292 241.593 -2.79216 5.87638
  293 214.206 2.13518 1.08503
  294 214.206 2.13518 1.08503
  295 211.029 5.87140 -6.36706
  296 211.029 5.87140 -6.36706
  297 213.168 3.45485 -0.297923
  298 213.168 3.45485 -0.297923
  299 216.398 0.605425 -1.51548
  300 216.398 0.605425 -1.51548
  301 220.920 1.11744 3.88630
  302 220.920 1.11744 3.88630
  303 209.817 5.98378 -1.64232
  304 209.817 5.98378 -1.64232
  305 48.3036 -82.8776 -55.3601
  306 48.3036 -82.8776 -55.3601
  307 143.034 9.24820 11.9553
  308 143.034 9.24820 11.9553
  309 214.465 1.77963 -1.04362
  310 214.465 1.77963 -1.04362
  311 188.264 10.9232 -8.67936
  312 188.264 10.9232 -8.67936
  313 188.732 11.9133 3.32222
  314 188.732 11.9133 3.32222
  315 213.984 3.11422 -2.78863
  316 213.984 3.11422 -2.78863
  317 288.206 14.6354 0.191249
  318 288.206 14.6354 0.191249
  319 212.311 5.20321 8.71524
  320 212.311 5.20321 8.71524
  321 271.746 8.26474 -8.10463
  322 271.746 8.26474 -8.10463
  323 405.344 11.5875 26.9548
  324 405.344 11.5875 26.9548
  325 211.473 5.38923 5.50867
  326 211.473 5.38923 5.50867
  327 207.986 7.12687 2.88150
  328 207.986 7.12687 2.88150
  329 164.293 -37.8317 -88.2951
  330 164.293 -37.8317 -88.2951
  331 216.522 0.547618 1.48284
  332 216.522 0.547618 1.48284
  333 211.738 4.52340 1.50303
  334 211.738 4.52340 1.50303
  335 203.659 9.21625 0.329626
  336 203.659 9.21625 0.329626
  337 105.163 -37.4295 71.4091
  338 105.163 -37.4295 71.4091
  339 263.036 17.1457 1.42390
  340 263.036 17.1457 1.42390
  341 15.2073 -109.736 -24.3872
  342 15.2073 -109.736 -24.3872
  343 163.081 10.3020 10.6900
  344 163.081 10.3020 10.6900
  345 383.303 5.35410 3.82413
  346 383.303 5.35410 3.82413
  347 399.968 20.0402 -27.6554
  348 399.968 20.0402 -27.6554
  349 185.176 -21.3086 52.6134
  350 192.936 -10.9871 39.1173
  351 185.176 -21.3086 52.6134
  352 192.936 -10.9871 39.1173
  353 388.769 9.84834 14.2209
  354 388.769 9.84834 14.2209
  355 219.316 -0.270595 15.0325
  356 219.316 -0.270595 15.0325
  357 261.223 -35.1915 -36.6742
  358 261.223 -35.1915 -36.6742
  359 246.835 -2.17067 7.57336
  360 246.835 -2.17067 7.57336
  361 168.427 -37.6797 96.8801
  362 168.427 -37.6797 96.8801
  363 288.876 23.2057 -0.803000
  364 288.876 23.2057 -0.803000
  365 388.874 3.64018 -2.98904
  366 388.874 3.64018 -2.98904
  367 233.883 0.162830 -7.38314
  368 233.883 0.162830 -7.38314
  369 207.996 7.57415 -3.44544
  370 207.996 7.57415 -3.44544
  371 323.743 25.0918 7.63359
  372 323.743 25.0918 7.63359
  373 246.544 10.2293 -1.65016
  374 246.544 10.2293 -1.65016
  375 225.235 0.884493 -4.77853
  376 225.235 0.884493 -4.77853
  377 60.3510 -30.7627 -40.8280
  378 60.3510 -30.7627 -40.8280
  379 249.176 -4.46021 2.24425
  380 249.176 -4.46021 2.24425
  381 212.744 -0.300073 -17.7013
  382 212.744 -0.300073 -17.7013
  383 244.899 -0.540555 -9.01188
  384 244.899 -0.540555 -9.01188
  385 390.349 6.98039 -11.8097
  386 390.349 6.98039 -11.8097
  387 213.416 3.33596 2.20641
  388 213.416 3.33596 2.20641
  389 260.583 12.5613 7.69392
  390 260.583 12.5613 7.69392
  391 282.263 -6.49005 1.60585
  392 282.263 -6.49005 1.60585
  393 214.245 3.91752 -4.90156
  394 214.245 3.91752 -4.90156
  395 413.204 36.8929 -51.0619
  396 413.204 36.8929 -51.0619
  397 246.074 -3.52642 -2.43292
  398 246.074 -3.52642 -2.43292
</Section>

newXOutput 63

<Section columns = "stress_xx | stress_yy | stress_xy">
  1 218.070 0.211157 -0.254275
  2 218.164 0.263441 0.343094
  3 218.070 0.211157 -0.254275
  4 218.164 0.263441 0.343094
  5 340.421 19.1576 92.9258
  6 353.995 18.3962 -91.3867
  7 340.421 19.1576 92.9258
  8 353.995 18.3962 -91.3867
  9 218.635 0.150329 -0.666119
  10 220.515 0.267746 -1.18054
  11 223.222 0.611131 -2.38668
  12 229.423 0.234067 -3.19302
  13 237.331 0.400129 -5.18539
  14 246.501 -2.14026 -5.03156
  15 254.765 -2.60488 -0.463892
  16 250.295 -1.81064 4.45968
  17 240.163 1.81549 7.72780
  18 234.666 4.54644 -0.298886
  19 238.703 2.19128 -7.23664
  20 250.003 -2.68400 -5.43964
  21 252.399 -3.16009 1.55666
  22 247.794 -1.41742 4.32436
  23 235.642 0.109905 5.20203
  24 228.865 0.881642 4.03739
  25 223.375 0.701116 2.29539
  26 220.548 0.215097 1.08231
  27 218.754 0.177350 0.642266
  28 218.506 0.789198 0.401037
  29 218.095 1.62392 0.464480
  30 217.085 2.82908 0.412214
  31 216.681 3.29195 -0.0400021
  32 217.203 2.68276 -0.495255
  33 217.929 1.77033 -0.424707
  34 218.249 0.893595 -0.446878
  35 218.635 0.150329 -0.666119
  36 220.515 0.267746 -1.18054
  37 223.222 0.611131 -2.38668
  38 229.423 0.234067 -3.19302
  39 237.331 0.400129 -5.18539
  40 246.501 -2.14026 -5.03156
  41 254.765 -2.60488 -0.463892
  42 250.295 -1.81064 4.45968
  43 240.163 1.81549 7.72780
  44 234.666 4.54644 -0.298886
  45 238.703 2.19128 -7.23664
  46 250.003 -2.68400 -5.43964
  47 252.399 -3.16009 1.55666
  48 247.794 -1.41742 4.32436
  49 235.642 0.109905 5.20203
  50 228.865 0.881642 4.03739
  51 223.375 0.701116 2.29539
  52 220.548 0.215097 1.08231
  53 218.754 0.177350 0.642266
  54 218.506 0.789198 0.401037
  55 218.095 1.62392 0.464480
  56 217.085 2.82908 0.412214
  57 216.681 3.29195 -0.0400021
  58 217.203 2.68276 -0.495255
  59 217.929 1.77033 -0.424707
  60 218.249 0.893595 -0.446878
  61 473.151 24.0685 48.9543
  62 430.991 7.10511 17.5513
  63 405.985 3.05224 6.55777
  64 400.668 2.19212 1.32367
  65 405.803 2.88308 -5.61212
  66 424.768 6.11874 -15.2985
  67 477.562 20.9732 -42.1343
  68 62.3774 -71.6159 -75.0879
  69 12.3295 -157.607 -18.5591
  70 3.71408 -177.940 -8.13121
  71 3.54169 -174.609 -4.32031
  72 5.82502 -170.204 8.68347
  73 13.3158 -152.784 19.6160
  74 67.8726 -66.9405 83.3321
  75 473.151 24.0685 48.9543
  76 430.991 7.10511 17.5513
  77 405.985 3.05224 6.55777
  78 400.668 2.19212 1.32367
  79 405.803 2.88308 -5.61212
  80 424.768 6.11874 -15.2985
  81 477.562 20.9732 -42.1343
  82 62.3774 -71.6159 -75.0879
  83 12.3295 -157.607 -18.5591
  84 3.71408 -177.940 -8.13121
  85 3.54169 -174.609 -4.32031
  86 5.82502 -170.204 8.68347
  87 13.3158 -152.784 19.6160
  88 67.8726 -66.9405 83.3321
  89 199.938 11.5296 -3.01330
  90 199.938 11.5296 -3.01330
  91 182.497 2.50886 27.0061
  92 175.309 -1.12124 -32.1511
  93 182.497 2.50886 27.0061
  94 175.309 -1.12124 -32.1511
  95 102.601 2.36853 12.8498
  96 102.601 2.36853 12.8498
  97 268.999 17.2297 -4.47646
  98 274.547 9.68579 9.13134
  99 268.999 17.2297 -4.47646
  100 274.547 9.68579 9.13134
  101 214.864 5.25744 3.05225
  102 214.864 5.25744 3.05225
  103 257.812 -14.6557 -0.225738
  104 257.812 -14.6557 -0.225738
  105 215.142 5.49209 -3.76323
  106 215.142 5.49209 -3.76323
  107 253.685 -31.1476 -27.9935
  108 253.685 -31.1476 -27.9935
  109 176.871 -36.6578 70.4181
  110 176.871 -36.6578 70.4181
  111 118.950 -21.6538 -56.6435
  112 118.950 -21.6538 -56.6435
  113 216.066 3.67816 12.9170
  114 216.066 3.67816 12.9170
  115 224.146 1.57161 -12.3245
  116 224.146 1.57161 -12.3245
  117 305.123 20.1290 2.04298
  118 327.269 21.3561 1.71793
  119 305.123 20.1290 2.04298
  120 327.269 21.3561 1.71793
  121 320.247 26.7993 -7.58655
  122 320.247 26.7993 -7.58655
  123 34.6747 -57.7544 -18.2337
  124 34.6747 -57.7544 -18.2337
  125 275.965 -34.3879 29.8789
  126 275.965 -34.3879 29.8789
  127 231.900 -5.54930 14.3555
  128 231.900 -5.54930 14.3555
  129 52.7993 -49.9529 42.0818
  130 52.7993 -49.9529 42.0818
  131 215.183 4.39712 -0.194387
  132 215.183 4.39712 -0.194387
  133 231.574 -10.7352 -18.2403
  134 231.574 -10.7352 -18.2403
  135 218.726 1.79830 2.22109
  136 218.726 1.79830 2.22109
  137 218.935 1.57985 -2.07408
  138 218.935 1.57985 -2.07408
  139 221.389 3.08933 -6.55862
  140 221.389 3.08933 -6.55862
  141 220.343 3.00532 5.91644
  142 220.343 3.00532 5.91644
  143 210.716 7.30680 -0.237919
  144 210.716 7.30680 -0.237919
  145 175.542 11.7012 -1.37579
  146 175.542 11.7012 -1.37579
  147 256.389 -9.17077 4.39787
  148 256.389 -9.17077 4.39787
  149 293.925 -10.7963 -10.3207
  150 293.925 -10.7963 -10.3207
  151 226.334 -25.1053 35.1699
  152 226.334 -25.1053 35.1699
  153 170.973 -46.3551 -78.5167
  154 170.973 -46.3551 -78.5167
  155 200.473 8.26669 12.2860
  156 200.473 8.26669 12.2860
  157 260.777 -1.68509 -10.1161
  158 260.777 -1.68509 -10.1161
  159 357.948 28.1346 19.7192
  160 357.948 28.1346 19.7192
  161 178.132 -49.4548 91.1225
  162 178.132 -49.4548 91.1225
  163 366.222 12.2930 -4.13392
  164 366.222 12.2930 -4.13392
  165 209.864 7.27916 5.76346
  166 209.864 7.27916 5.76346
  167 199.272 6.82546 -17.9192
  168 199.272 6.82546 -17.9192
  169 246.936 7.36171 5.94795
  170 246.936 7.36171 5.94795
  171 207.853 8.67391 -6.53114
  172 207.853 8.67391 -6.53114
  173 216.540 3.53692 0.970934
  174 216.540 3.53692 0.970934
  175 220.263 1.71633 -3.51806
  176 220.263 1.71633 -3.51806
  177 343.073 26.1826 -19.0434
  178 343.073 26.1826 -19.0434
  179 216.725 3.44037 -1.17345
  180 216.725 3.44037 -1.17345
  181 158.980 11.6134 -9.28141
  182 158.980 11.6134 -9.28141
  183 289.208 21.2733 2.37426
  184 289.208 21.2733 2.37426
  185 58.0925 -49.0792 -54.3729
  186 58.0925 -49.0792 -54.3729
  187 157.015 -1.76953 39.0724
  188 157.015 -1.76953 39.0724
  189 211.172 -33.8734 -54.5931
  190 211.172 -33.8734 -54.5931
  191 249.339 -6.79904 2.79446
  192 249.339 -6.79904 2.79446
  193 233.185 -0.741739 8.95843
  194 233.185 -0.741739 8.95843
  195 318.601 8.49043 17.6360
  196 318.601 8.49043 17.6360
  197 130.470 3.99099 -24.0708
  198 130.470 3.99099 -24.0708
  199 362.804 16.3792 9.39902
  200 362.804 16.3792 9.39902
  201 237.579 -2.85630 -9.31564
  202 237.579 -2.85630 -9.31564
  203 220.615 1.22768 3.24623
  204 220.615 1.22768 3.24623
  205 247.407 -9.60851 -4.52945
  206 247.407 -9.60851 -4.52945
  207 270.971 -13.7692 -0.957278
  208 270.971 -13.7692 -0.957278
  209 16.7941 -99.4163 7.94547
  210 16.7941 -99.4163 7.94547
  211 227.690 1.24861 -7.97120
  212 227.690 1.24861 -7.97120
  213 225.738 1.81176 6.98621
  214 225.738 1.81176 6.98621
  215 217.214 -19.8619 -34.8970
  216 217.214 -19.8619 -34.8970
  217 253.817 -5.37774 -6.27454
  218 253.817 -5.37774 -6.27454
  219 207.158 7.53743 -12.2904
  220 207.158 7.53743 -12.2904
  221 57.0986 -72.0973 59.3571
  222 57.0986 -72.0973 59.3571
  223 257.052 1.01398 9.50320
  224 257.052 1.01398 9.50320
  225 249.314 6.24017 -7.92440
  226 249.314 6.24017 -7.92440
  227 358.515 21.4532 -15.9033
  228 358.515 21.4532 -15.9033
  229 271.864 -10.2455 -5.32002
  230 271.864 -10.2455 -5.32002
  231 298.216 -14.6614 -50.8334
  232 298.216 -14.6614 -50.8334
  233 217.818 -9.79429 27.0205
  234 217.818 -9.79429 27.0205
  235 213.109 6.11111 0.980603
  236 213.109 6.11111 0.980603
  237 112.542 -16.8304 50.1967
  238 112.542 -16.8304 50.1967
  239 285.409 -25.5483 59.8097
  240 285.409 -25.5483 59.8097
  241 75.9745 -10.4584 -24.7335
  242 75.9745 -10.4584 -24.7335
  243 252.808 -18.8935 -11.7241
  244 252.808 -18.8935 -11.7241
  245 205.014 9.33466 7.13797
  246 205.014 9.33466 7.13797
  247 7.50833 -128.864 -6.40189
  248 7.50833 -128.864 -6.40189
  249 14.1842 -113.801 21.2813
  250 14.1842 -113.801 21.2813
  251 208.981 1.47412 19.5683
  252 208.981 1.47412 19.5683
  253 218.475 0.841056 0.807478
  254 218.475 0.841056 0.807478
  255 216.518 3.56651 0.152534
  256 216.518 3.56651 0.152534
  257 203.044 -2.49677 -25.9024
  258 203.044 -2.49677 -25.9024
  259 218.620 0.764298 -0.855142
  260 218.620 0.764298 -0.855142
  261 242.501 -16.9925 15.9179
  262 242.501 -16.9925 15.9179
  263 224.668 0.812179 -3.93047
  264 224.668 0.812179 -3.93047
  265 173.509 -14.6897 -47.7923
  266 173.509 -14.6897 -47.7923
  267 296.976 22.7020 -1.54619
  268 296.976 22.7020 -1.54619
  269 216.229 4.86764 -10.0731
  270 216.229 4.86764 -10.0731
  271 215.348 4.55771 -2.04319
  272 215.348 4.55771 -2.04319
  273 182.398 8.88271 -17.8699
  274 182.398 8.88271 -17.8699
  275 54.9155 -22.2244 14.1567
  276 54.9155 -22.2244 14.1567
  277 231.984 -38.2226 48.6307
  278 231.984 -38.2226 48.6307
  279 217.763 3.28932 3.98684
  280 217.763 3.28932 3.98684
  281 324.840 23.0936 -4.74728
  282 324.840 23.0936 -4.74728
  283 391.117 32.0781 44.5840
  284 391.117 32.0781 44.5840
  285 260.589 -27.6107 15.4199
  286 260.589 -27.6107 15.4199
  287 186.038 9.34389 13.1509
  288 186.038 9.34389 13.1509
  289 238.957 -47.2068 64.0664
  290 238.957 -47.2068 64.0664
  291 245.438 -2.83772 5.97204
  292 245.438 -2.83772 5.97204
  293 217.631 2.16860 1.10153
  294 217.631 2.16860 1.10153
  295 214.405 5.96364 -6.46569
  296 214.405 5.96364 -6.46569
  297 216.577 3.50879 -0.302455
  298 216.577 3.50879 -0.302455
  299 219.855 0.614937 -1.53853
  300 219.855 0.614937 -1.53853
  301 224.445 1.13479 3.94600
  302 224.445 1.13479 3.94600
  303 213.175 6.07769 -1.66762
  304 213.175 6.07769 -1.66762
  305 49.0766 -84.1818 -56.2908
  306 49.0766 -84.1818 -56.2908
  307 145.348 9.39956 12.1463
  308 145.348 9.39956 12.1463
  309 217.893 1.80753 -1.05946
  310 217.893 1.80753 -1.05946
  311 191.290 11.0970 -8.81654
  312 191.290 11.0970 -8.81654
  313 191.766 12.1028 3.37444
  314 191.766 12.1028 3.37444
  315 217.405 3.16301 -2.83130
  316 217.405 3.16301 -2.83130
  317 292.783 14.8800 0.165968
  318 292.783 14.8800 0.165968
  319 215.706 5.28494 8.85092
  320 215.706 5.28494 8.85092
  321 276.071 8.40250 -8.21255
  322 276.071 8.40250 -8.21255
  323 411.680 11.7662 27.3846
  324 411.680 11.7662 27.3846
  325 214.856 5.47386 5.59383
  326 214.856 5.47386 5.59383
  327 211.316 7.23891 2.92604
  328 211.316 7.23891 2.92604
  329 166.896 -38.3744 -89.7582
  330 166.896 -38.3744 -89.7582
  331 219.981 0.556215 1.50538
  332 219.981 0.556215 1.50538
  333 215.125 4.59423 1.52605
  334 215.125 4.59423 1.52605
  335 206.924 9.36162 0.334731
  336 206.924 9.36162 0.334731
  337 106.856 -38.0264 72.5820
  338 106.856 -38.0264 72.5820
  339 267.238 17.4215 1.44294
  340 267.238 17.4215 1.44294
  341 15.4481 -111.497 -24.8037
  342 15.4481 -111.497 -24.8037
  343 165.713 10.4680 10.8598
  344 165.713 10.4680 10.8598
  345 389.299 5.43488 3.88274
  346 389.299 5.43488 3.88274
  347 406.231 20.3598 -28.0994
  348 406.231 20.3598 -28.0994
  349 188.136 -21.6511 53.4609
  350 196.023 -11.1631 39.7434
  351 188.136 -21.6511 53.4609
  352 196.023 -11.1631 39.7434
  353 394.852 9.99862 14.4445
  354 394.852 9.99862 14.4445
  355 222.819 -0.275813 15.2709
  356 222.819 -0.275813 15.2709
  357 265.358 -35.7501 -37.2811
  358 265.358 -35.7501 -37.2811
  359 250.775 -2.20437 7.68451
  360 250.775 -2.20437 7.68451
  361 171.086 -38.2236 98.4792
  362 171.086 -38.2236 98.4792
  363 293.475 23.5742 -0.815165
  364 293.475 23.5742 -0.815165
  365 394.949 3.69475 -3.03559
  366 394.949 3.69475 -3.03559
  367 237.606 0.164298 -7.49948
  368 237.606 0.164298 -7.49948
  369 211.327 7.69331 -3.49880
  370 211.327 7.69331 -3.49880
  371 328.870 25.4902 7.77083
  372 328.870 25.4902 7.77083
  373 250.491 10.3948 -1.67449
  374 250.491 10.3948 -1.67449
  375 228.825 0.897924 -4.85246
  376 228.825 0.897924 -4.85246
  377 61.3361 -31.2444 -41.5029
  378 61.3361 -31.2444 -41.5029
  379 253.144 -4.53181 2.27281
  380 253.144 -4.53181 2.27281
  381 216.145 -0.305786 -17.9829
  382 216.145 -0.305786 -17.9829
  383 248.813 -0.548391 -9.14492
  384 248.813 -0.548391 -9.14492
  385 396.454 7.08736 -11.9946
  386 396.454 7.08736 -11.9946
  387 216.829 3.38818 2.24013
  388 216.829 3.38818 2.24013
  389 264.742 12.7656 7.80278
  390 264.742 12.7656 7.80278
  391 286.739 -6.58310 1.65988
  392 286.739 -6.58310 1.65988
  393 217.670 3.97893 -4.97699
  394 217.670 3.97893 -4.97699
  395 419.665 37.5160 -51.8985
  396 419.665 37.5160 -51.8985
  397 249.989 -3.58388 -2.47504
  398 249.989 -3.58388 -2.47504
</Section>

newXOutput 64

<Section columns = "stress_xx | stress_yy | stress_xy">
  1 221.498 0.214512 -0.258038
  2 221.594 0.267591 0.348166
  3 221.498 0.214512 -0.258038
  4 221.594 0.267591 0.348166
  5 345.652 19.5404 94.4248
  6 359.427 18.7707 -92.8620
  7 345.652 19.5404 94.4248
  8 359.427 18.7707 -92.8620
  9 222.071 0.152682 -0.676005
  10 223.979 0.271896 -1.19814
  11 226.725 0.620507 -2.42248
  12 233.019 0.237528 -3.24125
  13 241.045 0.405753 -5.26485
  14 250.355 -2.17499 -5.11051
  15 258.749 -2.64650 -0.474165
  16 254.222 -1.83903 4.52331
  17 243.949 1.84558 7.84117
  18 238.374 4.61969 -0.303333
  19 242.467 2.22631 -7.34324
  20 253.927 -2.72628 -5.51715
  21 256.347 -3.21066 1.58462
  22 251.667 -1.44033 4.39250
  23 239.332 0.110797 5.28205
  24 232.453 0.894990 4.09852
  25 226.881 0.711878 2.32978
  26 224.012 0.218435 1.09843
  27 222.192 0.180136 0.651819
  28 221.940 0.801413 0.406959
  29 221.523 1.64895 0.471380
  30 220.499 2.87251 0.418362
  31 220.089 3.34243 -0.0405979
  32 220.618 2.72397 -0.502621
  33 221.355 1.79761 -0.430962
  34 221.679 0.907456 -0.453522
  35 222.071 0.152682 -0.676005
  36 223.979 0.271896 -1.19814
  37 226.725 0.620507 -2.42248
  38 233.019 0.237528 -3.24125
  39 241.045 0.405753 -5.26485
  40 250.355 -2.17499 -5.11051
  41 258.749 -2.64650 -0.474165
  42 254.222 -1.83903 4.52331
  43 243.949 1.84558 7.84117
  44 238.374 4.61969 -0.303333
  45 242.467 2.22631 -7.34324
  46 253.927 -2.72628 -5.51715
  47 256.347 -3.21066 1.58462
  48 251.667 -1.44033 4.39250
  49 239.332 0.110797 5.28205
  50 232.453 0.894990 4.09852
  51 226.881 0.711878 2.32978
  52 224.012 0.218435 1.09843
  53 222.192 0.180136 0.651819
  54 221.940 0.801413 0.406959
  55 221.523 1.64895 0.471380
  56 220.499 2.87251 0.418362
  57 220.089 3.34243 -0.0405979
  58 220.618 2.72397 -0.502621
  59 221.355 1.79761 -0.430962
  60 221.679 0.907456 -0.453522
  61 480.372 24.4512 49.7175
  62 437.580 7.21228 17.8193
  63 412.205 3.09609 6.65600
  64 406.809 2.22401 1.34252
  65 412.020 2.92556 -5.69586
  66 431.267 6.21042 -15.5304
  67 484.851 21.3061 -42.7918
  68 63.3518 -72.6629 -76.3233
  69 12.5222 -160.104 -18.8828
  70 3.76603 -180.798 -8.27233
  71 3.59142 -177.418 -4.38974
  72 5.91207 -172.932 8.83459
  73 13.5257 -155.203 19.9591
  74 68.9268 -67.9135 84.7001
  75 480.372 24.4512 49.7175
  76 437.580 7.21228 17.8193
  77 412.205 3.09609 6.65600
  78 406.809 2.22401 1.34252
  79 412.020 2.92556 -5.69586
  80 431.267 6.21042 -15.5304
  81 484.851 21.3061 -42.7918
  82 63.3518 -72.6629 -76.3233
  83 12.5222 -160.104 -18.8828
  84 3.76603 -180.798 -8.27233
  85 3.59142 -177.418 -4.38974
  86 5.91207 -172.932 8.83459
  87 13.5257 -155.203 19.9591
  88 68.9268 -67.9135 84.7001
  89 203.095 11.7093 -3.05987
  90 203.095 11.7093 -3.05987
  91 185.381 2.54919 27.4293
  92 178.080 -1.13796 -32.6569
  93 185.381 2.54919 27.4293
  94 178.080 -1.13796 -32.6569
  95 104.245 2.41396 13.0541
  96 104.245 2.41396 13.0541
  97 273.223 17.5025 -4.53775
  98 278.847 9.84412 9.25249
  99 273.223 17.5025 -4.53775
  100 278.847 9.84412 9.25249
  101 218.245 5.33849 3.09837
  102 218.245 5.33849 3.09837
  103 261.845 -14.8853 -0.213498
  104 261.845 -14.8853 -0.213498
  105 218.527 5.57685 -3.82017
  106 218.527 5.57685 -3.82017
  107 257.644 -31.6377 -28.4463
  108 257.644 -31.6377 -28.4463
  109 179.650 -37.2377 71.5418
  110 179.650 -37.2377 71.5418
  111 120.835 -21.9918 -57.5514
  112 120.835 -21.9918 -57.5514
  113 219.464 3.73466 13.1167
  114 219.464 3.73466 13.1167
  115 227.665 1.59489 -12.5158
  116 227.665 1.59489 -12.5158
  117 309.886 20.4536 2.10340
  118 332.366 21.6846 1.74937
  119 309.886 20.4536 2.10340
  120 332.366 21.6846 1.74937
  121 325.241 27.2235 -7.72760
  122 325.241 27.2235 -7.72760
  123 35.2281 -58.6522 -18.5351
  124 35.2281 -58.6522 -18.5351
  125 280.260 -34.9195 30.3738
  126 280.260 -34.9195 30.3738
  127 235.536 -5.63751 14.5829
  128 235.536 -5.63751 14.5829
  129 53.6421 -50.7272 42.7724
  130 53.6421 -50.7272 42.7724
  131 218.569 4.46477 -0.197287
  132 218.569 4.46477 -0.197287
  133 235.204 -10.9050 -18.5309
  134 235.204 -10.9050 -18.5309
  135 222.164 1.82603 2.25437
  136 222.164 1.82603 2.25437
  137 222.376 1.60425 -2.10511
  138 222.376 1.60425 -2.10511
  139 224.866 3.13672 -6.65842
  140 224.866 3.13672 -6.65842
  141 223.805 3.05153 6.00624
  142 223.805 3.05153 6.00624
  143 214.036 7.41974 -0.241603
  144 214.036 7.41974 -0.241603
  145 178.325 11.8853 -1.39750
  146 178.325 11.8853 -1.39750
  147 260.405 -9.31369 4.45296
  148 260.405 -9.31369 4.45296
  149 298.501 -10.9493 -10.5157
  150 298.501 -10.9493 -10.5157
  151 229.878 -25.5017 35.7291
  152 229.878 -25.5017 35.7291
  153 173.650 -47.0772 -79.7846
  154 173.650 -47.0772 -79.7846
  155 203.636 8.39582 12.4764
  156 203.636 8.39582 12.4764
  157 264.863 -1.70885 -10.2576
  158 264.863 -1.70885 -10.2576
  159 363.498 28.5793 20.0455
  160 363.498 28.5793 20.0455
  161 180.919 -50.2304 92.5872
  162 180.919 -50.2304 92.5872
  163 371.884 12.4780 -4.19940
  164 371.884 12.4780 -4.19940
  165 213.170 7.39180 5.85153
  166 213.170 7.39180 5.85153
  167 202.415 6.93228 -18.1984
  168 202.415 6.93228 -18.1984
  169 250.826 7.48010 6.03464
  170 250.826 7.48010 6.03464
  171 211.129 8.80842 -6.63127
  172 211.129 8.80842 -6.63127
  173 219.946 3.59128 0.985487
  174 219.946 3.59128 0.985487
  175 223.723 1.74271 -3.57102
  176 223.723 1.74271 -3.57102
  177 348.398 26.6109 -19.3739
  178 348.398 26.6109 -19.3739
  179 220.133 3.49329 -1.19101
  180 220.133 3.49329 -1.19101
  181 161.506 11.7982 -9.42718
  182 161.506 11.7982 -9.42718
  183 293.736 21.6093 2.39547
  184 293.736 21.6093 2.39547
  185 59.0161 -49.8395 -55.2633
  186 59.0161 -49.8395 -55.2633
  187 159.502 -1.79529 39.6889
  188 159.502 -1.79529 39.6889
  189 214.479 -34.4086 -55.4639
  190 214.479 -34.4086 -55.4639
  191 253.244 -6.90681 2.84558
  192 253.244 -6.90681 2.84558
  193 236.840 -0.754506 9.09793
  194 236.840 -0.754506 9.09793
  195 323.553 8.64554 17.9489
  196 323.553 8.64554 17.9489
  197 132.548 4.05878 -24.4522
  198 132.548 4.05878 -24.4522
  199 368.420 16.6284 9.54977
  200 368.420 16.6284 9.54977
  201 241.302 -2.90243 -9.46308
  202 241.302 -2.90243 -9.46308
  203 224.080 1.24650 3.29505
  204 224.080 1.24650 3.29505
  205 251.280 -9.76088 -4.60848
  206 251.280 -9.76088 -4.60848
  207 275.203 -13.9806 -0.994264
  208 275.203 -13.9806 -0.994264
  209 17.0590 -100.987 8.07906
  210 17.0590 -100.987 8.07906
  211 231.261 1.26700 -8.09367
  212 231.261 1.26700 -8.09367
  213 229.280 1.83936 7.09309
  214 229.280 1.83936 7.09309
  215 220.622 -20.1755 -35.4507
  216 220.622 -20.1755 -35.4507
  217 257.796 -5.46222 -6.36086
  218 257.796 -5.46222 -6.36086
  219 210.422 7.65467 -12.4808
  220 210.422 7.65467 -12.4808
  221 57.9990 -73.2138 60.3353
  222 57.9990 -73.2138 60.3353
  223 261.086 1.03339 9.63756
  224 261.086 1.03339 9.63756
  225 253.238 6.34076 -8.03896
  226 253.238 6.34076 -8.03896
  227 364.070 21.7844 -16.1629
  228 364.070 21.7844 -16.1629
  229 276.111 -10.4014 -5.38102
  230 276.111 -10.4014 -5.38102
  231 302.844 -14.8573 -51.6718
  232 302.844 -14.8573 -51.6718
  233 221.238 -9.94869 27.4461
  234 221.238 -9.94869 27.4461
  235 216.464 6.20538 0.995455
  236 216.464 6.20538 0.995455
  237 114.330 -17.0913 51.0001
  238 114.330 -17.0913 51.0001
  239 289.837 -25.9222 60.7868
  240 289.837 -25.9222 60.7868
  241 77.1929 -10.6119 -25.1315
  242 77.1929 -10.6119 -25.1315
  243 256.761 -19.1910 -11.9202
  244 256.761 -19.1910 -11.9202
  245 208.247 9.47983 7.24785
  246 208.247 9.47983 7.24785
  247 7.62295 -130.913 -6.51102
  248 7.62295 -130.913 -6.51102
  249 14.4066 -115.598 21.6427
  250 14.4066 -115.598 21.6427
  251 212.271 1.49688 19.8737
  252 212.271 1.49688 19.8737
  253 221.909 0.854074 0.819496
  254 221.909 0.854074 0.819496
  255 219.924 3.62124 0.154827
  256 219.924 3.62124 0.154827
  257 206.241 -2.53635 -26.3089
  258 206.241 -2.53635 -26.3089
  259 222.056 0.776164 -0.867872
  260 222.056 0.776164 -0.867872
  261 246.297 -17.2605 16.1760
  262 246.297 -17.2605 16.1760
  263 228.193 0.824510 -3.98981
  264 228.193 0.824510 -3.98981
  265 176.245 -14.9214 -48.5493
  266 176.245 -14.9214 -48.5493
  267 301.621 23.0593 -1.55454
  268 301.621 23.0593 -1.55454
  269 219.630 4.94264 -10.2279
  270 219.630 4.94264 -10.2279
  271 218.736 4.62791 -2.07393
  272 218.736 4.62791 -2.07393
  273 185.283 9.02281 -18.1492
  274 185.283 9.02281 -18.1492
  275 55.7977 -22.5592 14.3867
  276 55.7977 -22.5592 14.3867
  277 235.607 -38.8260 49.4082
  278 235.607 -38.8260 49.4082
  279 221.186 3.33998 4.04698
  280 221.186 3.33998 4.04698
  281 329.902 23.4507 -4.82980
  282 329.902 23.4507 -4.82980
  283 397.148 32.6072 45.3064
  284 397.148 32.6072 45.3064
  285 264.656 -28.0432 15.6797
  286 264.656 -28.0432 15.6797
  287 188.981 9.49081 13.3555
  288 188.981 9.49081 13.3555
  289 242.681 -47.9499 65.0928
  290 242.681 -47.9499 65.0928
  291 249.279 -2.88327 6.06767
  292 249.279 -2.88327 6.06767
  293 221.052 2.20197 1.11799
  294 221.052 2.20197 1.11799
  295 217.779 6.05575 -6.56415
  296 217.779 6.05575 -6.56415
  297 219.984 3.56265 -0.306976
  298 219.984 3.56265 -0.306976
  299 223.309 0.624435 -1.56151
  300 223.309 0.624435 -1.56151
  301 227.968 1.15212 4.00557
  302 227.968 1.15212 4.00557
  303 216.531 6.17147 -1.69288
  304 216.531 6.17147 -1.69288
  305 49.8490 -85.4842 -57.2223
  306 49.8490 -85.4842 -57.2223
  307 147.661 9.55092 12.3371
  308 147.661 9.55092 12.3371
  309 221.318 1.83539 -1.07526
  310 221.318 1.83539 -1.07526
  311 194.314 11.2707 -8.95356
  312 194.314 11.2707 -8.95356
  313 194.798 12.2921 3.42659
  314 194.798 12.2921 3.42659
  315 220.823 3.21172 -2.87387
  316 220.823 3.21172 -2.87387
  317 297.356 15.1246 0.139831
  318 297.356 15.1246 0.139831
  319 219.100 5.36657 8.98638
  320 219.100 5.36657 8.98638
  321 280.393 8.54034 -8.31970
  322 280.393 8.54034 -8.31970
  323 418.006 11.9445 27.8140
  324 418.006 11.9445 27.8140
  325 218.237 5.55836 5.67882
  326 218.237 5.55836 5.67882
  327 214.645 7.35079 2.97050
  328 214.645 7.35079 2.97050
  329 169.495 -38.9146 -91.2218
  330 169.495 -38.9146 -91.2218
  331 223.437 0.564799 1.52787
  332 223.437 0.564799 1.52787
  333 218.510 4.66495 1.54903
  334 218.510 4.66495 1.54903
  335 210.187 9.50682 0.339827
  336 210.187 9.50682 0.339827
  337 108.548 -38.6228 73.7549
  338 108.548 -38.6228 73.7549
  339 271.436 17.6972 1.46185
  340 271.436 17.6972 1.46185
  341 15.6886 -113.256 -25.2208
  342 15.6886 -113.256 -25.2208
  343 168.343 10.6340 11.0294
  344 168.343 10.6340 11.0294
  345 395.286 5.51545 3.94123
  346 395.286 5.51545 3.94123
  347 412.484 20.6790 -28.5430
  348 412.484 20.6790 -28.5430
  349 191.094 -21.9935 54.3080
  350 199.108 -11.3390 40.3691
  351 191.094 -21.9935 54.3080
  352 199.108 -11.3390 40.3691
  353 400.926 10.1486 14.6678
  354 400.926 10.1486 14.6678
  355 226.318 -0.281055 15.5091
  356 226.318 -0.281055 15.5091
  357 269.489 -36.3081 -37.8881
  358 269.489 -36.3081 -37.8881
  359 254.712 -2.23802 7.79527
  360 254.712 -2.23802 7.79527
  361 173.742 -38.7651 100.079
  362 173.742 -38.7651 100.079
  363 298.070 23.9424 -0.827299
  364 298.070 23.9424 -0.827299
  365 401.015 3.74917 -3.08206
  366 401.015 3.74917 -3.08206
  367 241.327 0.165729 -7.61567
  368 241.327 0.165729 -7.61567
  369 214.655 7.81232 -3.55206
  370 214.655 7.81232 -3.55206
  371 333.991 25.8882 7.90843
  372 333.991 25.8882 7.90843
  373 254.436 10.5602 -1.69874
  374 254.436 10.5602 -1.69874
  375 232.412 0.911322 -4.92626
  376 232.412 0.911322 -4.92626
  377 62.3211 -31.7254 -42.1781
  378 62.3211 -31.7254 -42.1781
  379 257.109 -4.60336 2.30113
  380 257.109 -4.60336 2.30113
  381 219.543 -0.311523 -18.2642
  382 219.543 -0.311523 -18.2642
  383 252.724 -0.556194 -9.27750
  384 252.724 -0.556194 -9.27750
  385 402.551 7.19410 -12.1791
  386 402.551 7.19410 -12.1791
  387 220.238 3.44031 2.27378
  388 220.238 3.44031 2.27378
  389 268.898 12.9699 7.91112
  390 268.898 12.9699 7.91112
  391 291.209 -6.67572 1.71476
  392 291.209 -6.67572 1.71476
  393 221.092 4.04026 -5.05227
  394 221.092 4.04026 -5.05227
  395 426.117 38.1397 -52.7351
  396 426.117 38.1397 -52.7351
  397 253.899 -3.64133 -2.51723
  398 253.899 -3.64133 -2.51723
</Section>

newXOutput 65

<Section columns = "stress_xx | stress_yy | stress_xy">
  1 224.922 0.217865 -0.261791
  2 225.020 0.271739 0.353224
  3 224.922 0.217865 -0.261791
  4 225.020 0.271739 0.353224
  5 350.875 19.9254 95.9238
  6 364.851 19.1475 -94.3372
  7 350.875 19.9254 95.9238
  8 364.851 19.1475 -94.3372
  9 225.504 0.155034 -0.685865
  10 227.439 0.276041 -1.21570
  11 230.226 0.629869 -2.45819
  12 236.611 0.240980 -3.28939
  13 244.756 0.411351 -5.34418
  14 254.205 -2.20974 -5.18939
  15 262.728 -2.68811 -0.484520
  16 258.146 -1.86740 4.58669
  17 247.732 1.87569 7.95420
  18 242.079 4.69294 -0.307767
  19 246.228 2.26134 -7.44953
  20 257.848 -2.76854 -5.59435
  21 260.291 -3.26121 1.61267
  22 255.538 -1.46324 4.46059
  23 243.018 0.111662 5.36194
  24 236.037 0.908310 4.15953
  25 230.384 0.722623 2.36409
  26 227.474 0.221769 1.11450
  27 225.627 0.182921 0.661348
  28 225.372 0.813613 0.412864
  29 224.949 1.67394 0.478262
  30 223.910 2.91588 0.424495
  31 223.494 3.39283 -0.0411921
  32 224.031 2.76512 -0.509968
  33 224.778 1.82485 -0.437199
  34 225.107 0.921300 -0.460148
  35 225.504 0.155034 -0.685865
  36 227.439 0.276041 -1.21570
  37 230.226 0.629869 -2.45819
  38 236.611 0.240980 -3.28939
  39 244.756 0.411351 -5.34418
  40 254.205 -2.20974 -5.18939
  41 262.728 -2.68811 -0.484520
  42 258.146 -1.86740 4.58669
  43 247.732 1.87569 7.95420
  44 242.079 4.69294 -0.307767
  45 246.228 2.26134 -7.44953
  46 257.848 -2.76854 -5.59435
  47 260.291 -3.26121 1.61267
  48 255.538 -1.46324 4.46059
  49 243.018 0.111662 5.36194
  50 236.037 0.908310 4.15953
  51 230.384 0.722623 2.36409
  52 227.474 0.221769 1.11450
  53 225.627 0.182921 0.661348
  54 225.372 0.813613 0.412864
  55 224.949 1.67394 0.478262
  56 223.910 2.91588 0.424495
  57 223.494 3.39283 -0.0411921
  58 224.031 2.76512 -0.509968
  59 224.778 1.82485 -0.437199
  60 225.107 0.921300 -0.460148
  61 487.580 24.8337 50.4799
  62 444.158 7.31924 18.0867
  63 418.416 3.13978 6.75401
  64 412.941 2.25580 1.36130
  65 418.226 2.96792 -5.77940
  66 437.755 6.30189 -15.7618
  67 492.128 21.6388 -43.4486
  68 64.3252 -73.7066 -77.5594
  69 12.7147 -162.599 -19.2072
  70 3.81773 -183.656 -8.41376
  71 3.64091 -180.226 -4.45915
  72 5.99891 -175.660 8.98607
  73 13.7354 -157.621 20.3030
  74 69.9796 -68.8831 86.0687
  75 487.580 24.8337 50.4799
  76 444.158 7.31924 18.0867
  77 418.416 3.13978 6.75401
  78 412.941 2.25580 1.36130
  79 418.226 2.96792 -5.77940
  80 437.755 6.30189 -15.7618
  81 492.128 21.6388 -43.4486
  82 64.3252 -73.7066 -77.5594
  83 12.7147 -162.599 -19.2072
  84 3.81773 -183.656 -8.41376
  85 3.64091 -180.226 -4.45915
  86 5.99891 -175.660 8.98607
  87 13.7354 -157.621 20.3030
  88 69.9796 -68.8831 86.0687
  89 206.249 11.8887 -3.10637
  90 206.249 11.8887 -3.10637
  91 188.263 2.58952 27.8520
  92 180.850 -1.15465 -33.1623
  93 188.263 2.58952 27.8520
  94 180.850 -1.15465 -33.1623
  95 105.887 2.45960 13.2582
  96 105.887 2.45960 13.2582
  97 277.443 17.7752 -4.59870
  98 283.143 10.0025 9.37286
  99 277.443 17.7752 -4.59870
  100 283.143 10.0025 9.37286
  101 221.624 5.41943 3.14439
  102 221.624 5.41943 3.14439
  103 265.875 -15.1147 -0.200783
  104 265.875 -15.1147 -0.200783
  105 221.910 5.66149 -3.87699
  106 221.910 5.66149 -3.87699
  107 261.600 -32.1274 -28.8992
  108 261.600 -32.1274 -28.8992
  109 182.426 -37.8173 72.6650
  110 182.426 -37.8173 72.6650
  111 122.719 -22.3295 -58.4590
  112 122.719 -22.3295 -58.4590
  113 222.859 3.79108 13.3161
  114 222.859 3.79108 13.3161
  115 231.182 1.61810 -12.7069
  116 231.182 1.61810 -12.7069
  117 314.643 20.7782 2.16462
  118 337.457 22.0126 1.78092
  119 314.643 20.7782 2.16462
  120 337.457 22.0126 1.78092
  121 330.229 27.6474 -7.86918
  122 330.229 27.6474 -7.86918
  123 35.7813 -59.5489 -18.8366
  124 35.7813 -59.5489 -18.8366
  125 284.549 -35.4504 30.8690
  126 284.549 -35.4504 30.8690
  127 239.170 -5.72567 14.8101
  128 239.170 -5.72567 14.8101
  129 54.4847 -51.5004 43.4634
  130 54.4847 -51.5004 43.4634
  131 221.952 4.53232 -0.200181
  132 221.952 4.53232 -0.200181
  133 238.831 -11.0747 -18.8214
  134 238.831 -11.0747 -18.8214
  135 225.599 1.85371 2.28757
  136 225.599 1.85371 2.28757
  137 225.813 1.62861 -2.13607
  138 225.813 1.62861 -2.13607
  139 228.341 3.18403 -6.75805
  140 228.341 3.18403 -6.75805
  141 227.264 3.09766 6.09588
  142 227.264 3.09766 6.09588
  143 217.353 7.53252 -0.245283
  144 217.353 7.53252 -0.245283
  145 181.107 12.0693 -1.41919
  146 181.107 12.0693 -1.41919
  147 264.416 -9.45646 4.50757
  148 264.416 -9.45646 4.50757
  149 303.072 -11.1017 -10.7116
  150 303.072 -11.1017 -10.7116
  151 233.419 -25.8979 36.2880
  152 233.419 -25.8979 36.2880
  153 176.325 -47.7984 -81.0525
  154 176.325 -47.7984 -81.0525
  155 206.797 8.52482 12.6667
  156 206.797 8.52482 12.6667
  157 268.946 -1.73250 -10.3984
  158 268.946 -1.73250 -10.3984
  159 369.041 29.0238 20.3720
  160 369.041 29.0238 20.3720
  161 183.704 -51.0053 94.0517
  162 183.704 -51.0053 94.0517
  163 377.538 12.6626 -4.26484
  164 377.538 12.6626 -4.26484
  165 216.474 7.50430 5.93944
  166 216.474 7.50430 5.93944
  167 205.556 7.03899 -18.4773
  168 205.556 7.03899 -18.4773
  169 254.713 7.59848 6.12106
  170 254.713 7.59848 6.12106
  171 214.402 8.94276 -6.73123
  172 214.402 8.94276 -6.73123
  173 223.349 3.64556 1.00001
  174 223.349 3.64556 1.00001
  175 227.180 1.76905 -3.62386
  176 227.180 1.76905 -3.62386
  177 353.717 27.0394 -19.7050
  178 353.717 27.0394 -19.7050
  179 223.539 3.54614 -1.20854
  180 223.539 3.54614 -1.20854
  181 164.031 11.9830 -9.57283
  182 164.031 11.9830 -9.57283
  183 298.259 21.9451 2.41617
  184 298.259 21.9451 2.41617
  185 59.9393 -50.5988 -56.1542
  186 59.9393 -50.5988 -56.1542
  187 161.987 -1.82097 40.3051
  188 161.987 -1.82097 40.3051
  189 217.783 -34.9435 -56.3344
  190 217.783 -34.9435 -56.3344
  191 257.145 -7.01452 2.89687
  192 257.145 -7.01452 2.89687
  193 240.491 -0.767297 9.23727
  194 240.491 -0.767297 9.23727
  195 328.500 8.80122 18.2626
  196 328.500 8.80122 18.2626
  197 134.625 4.12666 -24.8333
  198 134.625 4.12666 -24.8333
  199 374.028 16.8773 9.70049
  200 374.028 16.8773 9.70049
  201 245.021 -2.94855 -9.61043
  202 245.021 -2.94855 -9.61043
  203 227.543 1.26529 3.34376
  204 227.543 1.26529 3.34376
  205 255.151 -9.91316 -4.68768
  206 255.151 -9.91316 -4.68768
  207 279.432 -14.1917 -1.03190
  208 279.432 -14.1917 -1.03190
  209 17.3238 -102.556 8.21281
  210 17.3238 -102.556 8.21281
  211 234.830 1.28533 -8.21596
  212 234.830 1.28533 -8.21596
  213 232.820 1.86691 7.19980
  214 232.820 1.86691 7.19980
  215 224.026 -20.4888 -36.0041
  216 224.026 -20.4888 -36.0041
  217 261.771 -5.54663 -6.44674
  218 261.771 -5.54663 -6.44674
  219 213.684 7.77178 -12.6709
  220 213.684 7.77178 -12.6709
  221 58.8988 -74.3289 61.3141
  222 58.8988 -74.3289 61.3141
  223 265.117 1.05289 9.77136
  224 265.117 1.05289 9.77136
  225 257.159 6.44135 -8.15312
  226 257.159 6.44135 -8.15312
  227 369.619 22.1152 -16.4225
  228 369.619 22.1152 -16.4225
  229 280.355 -10.5570 -5.44127
  230 280.355 -10.5570 -5.44127
  231 307.466 -15.0520 -52.5108
  232 307.466 -15.0520 -52.5108
  233 224.655 -10.1030 27.8714
  234 224.655 -10.1030 27.8714
  235 219.816 6.29953 1.01028
  236 219.816 6.29953 1.01028
  237 116.117 -17.3518 51.8033
  238 116.117 -17.3518 51.8033
  239 294.260 -26.2949 61.7643
  240 294.260 -26.2949 61.7643
  241 78.4110 -10.7649 -25.5295
  242 78.4110 -10.7649 -25.5295
  243 260.709 -19.4882 -12.1165
  244 260.709 -19.4882 -12.1165
  245 211.478 9.62483 7.35757
  246 211.478 9.62483 7.35757
  247 7.73737 -132.960 -6.62033
  248 7.73737 -132.960 -6.62033
  249 14.6288 -117.393 22.0047
  250 14.6288 -117.393 22.0047
  251 215.558 1.51961 20.1788
  252 215.558 1.51961 20.1788
  253 225.340 0.867075 0.831483
  254 225.340 0.867075 0.831483
  255 223.326 3.67589 0.157114
  256 223.326 3.67589 0.157114
  257 209.436 -2.57590 -26.7151
  258 209.436 -2.57590 -26.7151
  259 225.489 0.788017 -0.880571
  260 225.489 0.788017 -0.880571
  261 250.089 -17.5282 16.4341
  262 250.089 -17.5282 16.4341
  263 231.715 0.836817 -4.04902
  264 231.715 0.836817 -4.04902
  265 178.979 -15.1529 -49.3059
  266 178.979 -15.1529 -49.3059
  267 306.261 23.4164 -1.56241
  268 306.261 23.4164 -1.56241
  269 223.028 5.01754 -10.3824
  270 223.028 5.01754 -10.3824
  271 222.121 4.69801 -2.10461
  272 222.121 4.69801 -2.10461
  273 188.167 9.16281 -18.4282
  274 188.167 9.16281 -18.4282
  275 56.6798 -22.8934 14.6168
  276 56.6798 -22.8934 14.6168
  277 239.227 -39.4289 50.1856
  278 239.227 -39.4289 50.1856
  279 224.607 3.39057 4.10698
  280 224.607 3.39057 4.10698
  281 334.958 23.8074 -4.91249
  282 334.958 23.8074 -4.91249
  283 403.170 33.1365 46.0288
  284 403.170 33.1365 46.0288
  285 268.719 -28.4753 15.9398
  286 268.719 -28.4753 15.9398
  287 191.922 9.63761 13.5599
  288 191.922 9.63761 13.5599
  289 246.401 -48.6923 66.1189
  290 246.401 -48.6923 66.1189
  291 253.117 -2.92881 6.16327
  292 253.117 -2.92881 6.16327
  293 224.471 2.23529 1.13440
  294 224.471 2.23529 1.13440
  295 221.151 6.14774 -6.66243
  296 221.151 6.14774 -6.66243
  297 223.387 3.61643 -0.311486
  298 223.387 3.61643 -0.311486
  299 226.760 0.633921 -1.58445
  300 226.760 0.633921 -1.58445
  301 231.487 1.16942 4.06501
  302 231.487 1.16942 4.06501
  303 219.885 6.26512 -1.71808
  304 219.885 6.26512 -1.71808
  305 50.6209 -86.7849 -58.1545
  306 50.6209 -86.7849 -58.1545
  307 149.973 9.70226 12.5278
  308 149.973 9.70226 12.5278
  309 224.741 1.86321 -1.09103
  310 224.741 1.86321 -1.09103
  311 197.336 11.4441 -9.09041
  312 197.336 11.4441 -9.09041
  313 197.828 12.4813 3.47867
  314 197.828 12.4813 3.47867
  315 224.239 3.26037 -2.91635
  316 224.239 3.26037 -2.91635
  317 301.925 15.3694 0.112840
  318 301.925 15.3694 0.112840
  319 222.490 5.44808 9.12162
  320 222.490 5.44808 9.12162
  321 284.711 8.67826 -8.42610
  322 284.711 8.67826 -8.42610
  323 424.323 12.1225 28.2429
  324 424.323 12.1225 28.2429
  325 221.615 5.64276 5.76366
  326 221.615 5.64276 5.76366
  327 217.971 7.46252 3.01488
  328 217.971 7.46252 3.01488
  329 172.092 -39.4524 -92.6857
  330 172.092 -39.4524 -92.6857
  331 226.890 0.573372 1.55030
  332 226.890 0.573372 1.55030
  333 221.893 4.73557 1.57195
  334 221.893 4.73557 1.57195
  335 213.447 9.65183 0.344913
  336 213.447 9.65183 0.344913
  337 110.239 -39.2187 74.9278
  338 110.239 -39.2187 74.9278
  339 275.631 17.9726 1.48063
  340 275.631 17.9726 1.48063
  341 15.9289 -115.013 -25.6383
  342 15.9289 -115.013 -25.6383
  343 170.973 10.7998 11.1988
  344 170.973 10.7998 11.1988
  345 401.264 5.59581 3.99959
  346 401.264 5.59581 3.99959
  347 418.729 20.9980 -28.9863
  348 418.729 20.9980 -28.9863
  349 194.049 -22.3356 55.1545
  350 202.190 -11.5147 40.9943
  351 194.049 -22.3356 55.1545
  352 202.190 -11.5147 40.9943
  353 406.992 10.2982 14.8909
  354 406.992 10.2982 14.8909
  355 229.815 -0.286320 15.7470
  356 229.815 -0.286320 15.7470
  357 273.615 -36.8655 -38.4953
  358 273.615 -36.8655 -38.4953
  359 258.645 -2.27160 7.90562
  360 258.645 -2.27160 7.90562
  361 176.395 -39.3043 101.678
  362 176.395 -39.3043 101.678
  363 302.661 24.3102 -0.839401
  364 302.661 24.3102 -0.839401
  365 407.071 3.80345 -3.12846
  366 407.071 3.80345 -3.12846
  367 245.044 0.167123 -7.73172
  368 245.044 0.167123 -7.73172
  369 217.981 7.93118 -3.60522
  370 217.981 7.93118 -3.60522
  371 339.107 26.2857 8.04636
  372 339.107 26.2857 8.04636
  373 258.377 10.7255 -1.72290
  374 258.377 10.7255 -1.72290
  375 235.997 0.924688 -4.99991
  376 235.997 0.924688 -4.99991
  377 63.3060 -32.2057 -42.8534
  378 63.3060 -32.2057 -42.8534
  379 261.069 -4.67487 2.32919
  380 261.069 -4.67487 2.32919
  381 222.938 -0.317285 -18.5453
  382 222.938 -0.317285 -18.5453
  383 256.632 -0.563964 -9.40963
  384 256.632 -0.563964 -9.40963
  385 408.638 7.30062 -12.3634
  386 408.638 7.30062 -12.3634
  387 223.646 3.49237 2.30735
  388 223.646 3.49237 2.30735
  389 273.050 13.1742 8.01892
  390 273.050 13.1742 8.01892
  391 295.675 -6.76793 1.77047
  392 295.675 -6.76793 1.77047
  393 224.512 4.10150 -5.12740
  394 224.512 4.10150 -5.12740
  395 432.558 38.7639 -53.5715
  396 432.558 38.7639 -53.5715
  397 257.807 -3.69877 -2.55949
  398 257.807 -3.69877 -2.55949
</Section>

newXOutput 66

<Section columns = "stress_xx | stress_yy | stress_xy">
  1 228.345 0.221217 -0.265533
  2 228.444 0.275883 0.358269
  3 228.345 0.221217 -0.265533
  4 228.444 0.275883 0.358269
  5 356.091 20.3127 97.4226
  6 370.266 19.5267 -95.8124
  7 356.091 20.3127 97.4226
  8 370.266 19.5267 -95.8124
  9 228.935 0.157383 -0.695699
  10 230.897 0.280181 -1.23321
  11 233.723 0.639217 -2.49383
  12 240.200 0.244423 -3.33743
  13 248.463 0.416924 -5.42338
  14 258.051 -2.24448 -5.26820
  15 266.704 -2.72971 -0.494957
  16 262.067 -1.89574 4.64982
  17 251.512 1.90582 8.06689
  18 245.782 4.76619 -0.312191
  19 249.987 2.29636 -7.55551
  20 261.765 -2.81076 -5.67125
  21 264.231 -3.31175 1.64080
  22 259.404 -1.48616 4.52863
  23 246.701 0.112501 5.44171
  24 239.618 0.921605 4.22042
  25 233.884 0.733352 2.39832
  26 230.932 0.225099 1.13054
  27 229.060 0.185703 0.670853
  28 228.800 0.825797 0.418753
  29 228.372 1.69889 0.485127
  30 227.318 2.95917 0.430613
  31 226.897 3.44316 -0.0417848
  32 227.441 2.80621 -0.517297
  33 228.198 1.85206 -0.443418
  34 228.532 0.935127 -0.466758
  35 228.935 0.157383 -0.695699
  36 230.897 0.280181 -1.23321
  37 233.723 0.639217 -2.49383
  38 240.200 0.244423 -3.33743
  39 248.463 0.416924 -5.42338
  40 258.051 -2.24448 -5.26820
  41 266.704 -2.72971 -0.494957
  42 262.067 -1.89574 4.64982
  43 251.512 1.90582 8.06689
  44 245.782 4.76619 -0.312191
  45 249.987 2.29636 -7.55551
  46 261.765 -2.81076 -5.67125
  47 264.231 -3.31175 1.64080
  48 259.404 -1.48616 4.52863
  49 246.701 0.112501 5.44171
  50 239.618 0.921605 4.22042
  51 233.884 0.733352 2.39832
  52 230.932 0.225099 1.13054
  53 229.060 0.185703 0.670853
  54 228.800 0.825797 0.418753
  55 228.372 1.69889 0.485127
  56 227.318 2.95917 0.430613
  57 226.897 3.44316 -0.0417848
  58 227.441 2.80621 -0.517297
  59 228.198 1.85206 -0.443418
  60 228.532 0.935127 -0.466758
  61 494.777 25.2160 51.2414
  62 450.725 7.42597 18.3537
  63 424.616 3.18332 6.85179
  64 419.062 2.28749 1.38000
  65 424.423 3.01016 -5.86273
  66 444.232 6.39315 -15.9928
  67 499.392 21.9713 -44.1046
  68 65.2976 -74.7469 -78.7961
  69 12.9071 -165.092 -19.5324
  70 3.86919 -186.514 -8.55552
  71 3.69017 -183.035 -4.52856
  72 6.08554 -178.386 9.13790
  73 13.9449 -160.037 20.6477
  74 71.0312 -69.8494 87.4381
  75 494.777 25.2160 51.2414
  76 450.725 7.42597 18.3537
  77 424.616 3.18332 6.85179
  78 419.062 2.28749 1.38000
  79 424.423 3.01016 -5.86273
  80 444.232 6.39315 -15.9928
  81 499.392 21.9713 -44.1046
  82 65.2976 -74.7469 -78.7961
  83 12.9071 -165.092 -19.5324
  84 3.86919 -186.514 -8.55552
  85 3.69017 -183.035 -4.52856
  86 6.08554 -178.386 9.13790
  87 13.9449 -160.037 20.6477
  88 71.0312 -69.8494 87.4381
  89 209.402 12.0679 -3.15281
  90 209.402 12.0679 -3.15281
  91 191.143 2.62984 28.2744
  92 183.618 -1.17129 -33.6673
  93 191.143 2.62984 28.2744
  94 183.618 -1.17129 -33.6673
  95 107.530 2.50546 13.4623
  96 107.530 2.50546 13.4623
  97 281.660 18.0477 -4.65933
  98 287.434 10.1610 9.49244
  99 281.660 18.0477 -4.65933
  100 287.434 10.1610 9.49244
  101 225.000 5.50026 3.19032
  102 225.000 5.50026 3.19032
  103 269.901 -15.3438 -0.187593
  104 269.901 -15.3438 -0.187593
  105 225.289 5.74601 -3.93370
  106 225.289 5.74601 -3.93370
  107 265.550 -32.6168 -29.3520
  108 265.550 -32.6168 -29.3520
  109 185.200 -38.3965 73.7879
  110 185.200 -38.3965 73.7879
  111 124.603 -22.6669 -59.3665
  112 124.603 -22.6669 -59.3665
  113 226.252 3.84741 13.5153
  114 226.252 3.84741 13.5153
  115 234.696 1.64125 -12.8977
  116 234.696 1.64125 -12.8977
  117 319.396 21.1029 2.22664
  118 342.543 22.3401 1.81257
  119 319.396 21.1029 2.22664
  120 342.543 22.3401 1.81257
  121 335.212 28.0711 -8.01130
  122 335.212 28.0711 -8.01130
  123 36.3343 -60.4447 -19.1383
  124 36.3343 -60.4447 -19.1383
  125 288.834 -35.9806 31.3646
  126 288.834 -35.9806 31.3646
  127 242.800 -5.81380 15.0372
  128 242.800 -5.81380 15.0372
  129 55.3269 -52.2727 44.1547
  130 55.3269 -52.2727 44.1547
  131 225.333 4.59976 -0.203067
  132 225.333 4.59976 -0.203067
  133 242.455 -11.2443 -19.1118
  134 242.455 -11.2443 -19.1118
  135 229.031 1.88135 2.32069
  136 229.031 1.88135 2.32069
  137 229.248 1.65294 -2.16695
  138 229.248 1.65294 -2.16695
  139 231.812 3.23127 -6.85749
  140 231.812 3.23127 -6.85749
  141 230.721 3.14373 6.18535
  142 230.721 3.14373 6.18535
  143 220.667 7.64515 -0.248957
  144 220.667 7.64515 -0.248957
  145 183.887 12.2531 -1.44087
  146 183.887 12.2531 -1.44087
  147 268.424 -9.59907 4.56171
  148 268.424 -9.59907 4.56171
  149 307.639 -11.2534 -10.9083
  150 307.639 -11.2534 -10.9083
  151 236.956 -26.2938 36.8466
  152 236.956 -26.2938 36.8466
  153 178.997 -48.5189 -82.3204
  154 178.997 -48.5189 -82.3204
  155 209.956 8.65369 12.8567
  156 209.956 8.65369 12.8567
  157 273.024 -1.75604 -10.5386
  158 273.024 -1.75604 -10.5386
  159 374.577 29.4679 20.6987
  160 374.577 29.4679 20.6987
  161 186.486 -51.7795 95.5160
  162 186.486 -51.7795 95.5160
  163 383.184 12.8469 -4.33023
  164 383.184 12.8469 -4.33023
  165 219.775 7.61665 6.02721
  166 219.775 7.61665 6.02721
  167 208.695 7.14560 -18.7560
  168 208.695 7.14560 -18.7560
  169 258.597 7.71685 6.20719
  170 258.597 7.71685 6.20719
  171 217.674 9.07694 -6.83103
  172 217.674 9.07694 -6.83103
  173 226.749 3.69975 1.01449
  174 226.749 3.69975 1.01449
  175 230.635 1.79535 -3.67659
  176 230.635 1.79535 -3.67659
  177 359.029 27.4681 -20.0368
  178 359.029 27.4681 -20.0368
  179 226.942 3.59890 -1.22602
  180 226.942 3.59890 -1.22602
  181 166.554 12.1677 -9.71836
  182 166.554 12.1677 -9.71836
  183 302.779 22.2806 2.43637
  184 302.779 22.2806 2.43637
  185 60.8620 -51.3572 -57.0454
  186 60.8620 -51.3572 -57.0454
  187 164.471 -1.84657 40.9208
  188 164.471 -1.84657 40.9208
  189 221.084 -35.4780 -57.2046
  190 221.084 -35.4780 -57.2046
  191 261.042 -7.12218 2.94835
  192 261.042 -7.12218 2.94835
  193 244.140 -0.780111 9.37645
  194 244.140 -0.780111 9.37645
  195 333.441 8.95744 18.5772
  196 333.441 8.95744 18.5772
  197 136.702 4.19464 -25.2143
  198 136.702 4.19464 -25.2143
  199 379.630 17.1257 9.85117
  200 379.630 17.1257 9.85117
  201 248.736 -2.99468 -9.75769
  202 248.736 -2.99468 -9.75769
  203 231.003 1.28406 3.39237
  204 231.003 1.28406 3.39237
  205 259.017 -10.0654 -4.76706
  206 259.017 -10.0654 -4.76706
  207 283.656 -14.4025 -1.07017
  208 283.656 -14.4025 -1.07017
  209 17.5883 -104.124 8.34674
  210 17.5883 -104.124 8.34674
  211 238.395 1.30361 -8.33807
  212 238.395 1.30361 -8.33807
  213 236.356 1.89441 7.30632
  214 236.356 1.89441 7.30632
  215 227.428 -20.8019 -36.5573
  216 227.428 -20.8019 -36.5573
  217 265.743 -5.63096 -6.53217
  218 265.743 -5.63096 -6.53217
  219 216.943 7.88875 -12.8608
  220 216.943 7.88875 -12.8608
  221 59.7978 -75.4426 62.2936
  222 59.7978 -75.4426 62.2936
  223 269.145 1.07249 9.90458
  224 269.145 1.07249 9.90458
  225 261.077 6.54193 -8.26688
  226 261.077 6.54193 -8.26688
  227 375.161 22.4456 -16.6821
  228 375.161 22.4456 -16.6821
  229 284.594 -10.7123 -5.50079
  230 284.594 -10.7123 -5.50079
  231 312.082 -15.2454 -53.3503
  232 312.082 -15.2454 -53.3503
  233 228.069 -10.2571 28.2965
  234 228.069 -10.2571 28.2965
  235 223.166 6.39355 1.02507
  236 223.166 6.39355 1.02507
  237 117.903 -17.6121 52.6062
  238 117.903 -17.6121 52.6062
  239 298.678 -26.6664 62.7422
  240 298.678 -26.6664 62.7422
  241 79.6289 -10.9175 -25.9274
  242 79.6289 -10.9175 -25.9274
  243 264.654 -19.7852 -12.3130
  244 264.654 -19.7852 -12.3130
  245 214.706 9.76966 7.46713
  246 214.706 9.76966 7.46713
  247 7.85158 -135.007 -6.72983
  248 7.85158 -135.007 -6.72983
  249 14.8508 -119.188 22.3673
  250 14.8508 -119.188 22.3673
  251 218.842 1.54231 20.4836
  252 218.842 1.54231 20.4836
  253 228.768 0.880059 0.843439
  254 228.768 0.880059 0.843439
  255 226.726 3.73046 0.159396
  256 226.726 3.73046 0.159396
  257 212.629 -2.61544 -27.1209
  258 212.629 -2.61544 -27.1209
  259 228.919 0.799855 -0.893238
  260 228.919 0.799855 -0.893238
  261 253.877 -17.7958 16.6922
  262 253.877 -17.7958 16.6922
  263 235.235 0.849102 -4.10811
  264 235.235 0.849102 -4.10811
  265 181.711 -15.3843 -50.0620
  266 181.711 -15.3843 -50.0620
  267 310.898 23.7731 -1.56979
  268 310.898 23.7731 -1.56979
  269 226.423 5.09233 -10.5367
  270 226.423 5.09233 -10.5367
  271 225.504 4.76800 -2.13522
  272 225.504 4.76800 -2.13522
  273 191.050 9.30271 -18.7069
  274 191.050 9.30271 -18.7069
  275 57.5618 -23.2268 14.8470
  276 57.5618 -23.2268 14.8470
  277 242.844 -40.0315 50.9627
  278 242.844 -40.0315 50.9627
  279 228.025 3.44109 4.16686
  280 228.025 3.44109 4.16686
  281 340.009 24.1636 -4.99534
  282 340.009 24.1636 -4.99534
  283 409.184 33.6662 46.7512
  284 409.184 33.6662 46.7512
  285 272.778 -28.9070 16.2003
  286 272.778 -28.9070 16.2003
  287 194.861 9.78429 13.7641
  288 194.861 9.78429 13.7641
  289 250.116 -49.4342 67.1448
  290 250.116 -49.4342 67.1448
  291 256.951 -2.97434 6.25885
  292 256.951 -2.97434 6.25885
  293 227.887 2.26857 1.15078
  294 227.887 2.26857 1.15078
  295 224.519 6.23961 -6.76054
  296 224.519 6.23961 -6.76054
  297 226.788 3.67012 -0.315985
  298 226.788 3.67012 -0.315985
  299 230.208 0.643394 -1.60732
  300 230.208 0.643394 -1.60732
  301 235.003 1.18669 4.12434
  302 235.003 1.18669 4.12434
  303 223.236 6.35864 -1.74323
  304 223.236 6.35864 -1.74323
  305 51.3921 -88.0838 -59.0875
  306 51.3921 -88.0838 -59.0875
  307 152.285 9.85359 12.7184
  308 152.285 9.85359 12.7184
  309 228.160 1.89099 -1.10675
  310 228.160 1.89099 -1.10675
  311 200.357 11.6174 -9.22711
  312 200.357 11.6174 -9.22711
  313 200.856 12.6702 3.53068
  314 200.856 12.6702 3.53068
  315 227.651 3.30895 -2.95874
  316 227.651 3.30895 -2.95874
  317 306.488 15.6143 0.0849983
  318 306.488 15.6143 0.0849983
  319 225.878 5.52948 9.25663
  320 225.878 5.52948 9.25663
  321 289.024 8.81624 -8.53173
  322 289.024 8.81624 -8.53173
  323 430.630 12.3001 28.6715
  324 430.630 12.3001 28.6715
  325 224.991 5.72703 5.84834
  326 224.991 5.72703 5.84834
  327 221.294 7.57411 3.05918
  328 221.294 7.57411 3.05918
  329 174.685 -39.9878 -94.1501
  330 174.685 -39.9878 -94.1501
  331 230.341 0.581932 1.57267
  332 230.341 0.581932 1.57267
  333 225.272 4.80609 1.59483
  334 225.272 4.80609 1.59483
  335 216.704 9.79667 0.349991
  336 216.704 9.79667 0.349991
  337 111.929 -39.8141 76.1008
  338 111.929 -39.8141 76.1008
  339 279.823 18.2479 1.49928
  340 279.823 18.2479 1.49928
  341 16.1689 -116.770 -26.0565
  342 16.1689 -116.770 -26.0565
  343 173.601 10.9656 11.3680
  344 173.601 10.9656 11.3680
  345 407.233 5.67596 4.05783
  346 407.233 5.67596 4.05783
  347 424.965 21.3167 -29.4292
  348 424.965 21.3167 -29.4292
  349 197.001 -22.6775 56.0006
  350 205.270 -11.6903 41.6190
  351 197.001 -22.6775 56.0006
  352 205.270 -11.6903 41.6190
  353 413.048 10.4474 15.1136
  354 413.048 10.4474 15.1136
  355 233.309 -0.291610 15.9847
  356 233.309 -0.291610 15.9847
  357 277.737 -37.4223 -39.1027
  358 277.737 -37.4223 -39.1027
  359 262.576 -2.30513 8.01558
  360 262.576 -2.30513 8.01558
  361 179.045 -39.8412 103.278
  362 179.045 -39.8412 103.278
  363 307.248 24.6776 -0.851472
  364 307.248 24.6776 -0.851472
  365 413.118 3.85757 -3.17478
  366 413.118 3.85757 -3.17478
  367 248.757 0.168482 -7.84762
  368 248.757 0.168482 -7.84762
  369 221.305 8.04988 -3.65829
  370 221.305 8.04988 -3.65829
  371 344.217 26.6829 8.18465
  372 344.217 26.6829 8.18465
  373 262.316 10.8908 -1.74698
  374 262.316 10.8908 -1.74698
  375 239.578 0.938021 -5.07344
  376 239.578 0.938021 -5.07344
  377 64.2908 -32.6854 -43.5288
  378 64.2908 -32.6854 -43.5288
  379 265.026 -4.74633 2.35701
  380 265.026 -4.74633 2.35701
  381 226.331 -0.323070 -18.8261
  382 226.331 -0.323070 -18.8261
  383 260.536 -0.571701 -9.54130
  384 260.536 -0.571701 -9.54130
  385 414.715 7.40691 -12.5475
  386 414.715 7.40691 -12.5475
  387 227.050 3.54435 2.34085
  388 227.050 3.54435 2.34085
  389 277.198 13.3784 8.12620
  390 277.198 13.3784 8.12620
  391 300.136 -6.85972 1.82702
  392 300.136 -6.85972 1.82702
  393 227.928 4.16265 -5.20238
  394 227.928 4.16265 -5.20238
  395 438.990 39.3886 -54.4079
  396 438.990 39.3886 -54.4079
  397 261.710 -3.75619 -2.60181
  398 261.710 -3.75619 -2.60181
</Section>

newXOutput 67

<Section columns = "stress_xx | stress_yy | stress_xy">
  1 231.764 0.224567 -0.269266
  2 231.865 0.280024 0.363299
  3 231.764 0.224567 -0.269266
  4 231.865 0.280024 0.363299
  5 361.298 20.7022 98.9214
  6 375.673 19.9082 -97.2874
  7 361.298 20.7022 98.9214
  8 375.673 19.9082 -97.2874
  9 232.362 0.159731 -0.705508
  10 234.352 0.284316 -1.25067
  11 237.218 0.648550 -2.52939
  12 243.786 0.247856 -3.38537
  13 252.166 0.422473 -5.50245
  14 261.894 -2.27924 -5.34694
  15 270.676 -2.77130 -0.505476
  16 265.984 -1.92406 4.71271
  17 255.289 1.93598 8.17924
  18 249.483 4.83943 -0.316602
  19 253.743 2.33137 -7.66118
  20 265.679 -2.85295 -5.74784
  21 268.168 -3.36228 1.66902
  22 263.267 -1.50907 4.59662
  23 250.380 0.113314 5.52137
  24 243.196 0.934873 4.28118
  25 237.381 0.744064 2.43247
  26 234.388 0.228425 1.14654
  27 232.489 0.188482 0.680333
  28 232.226 0.837965 0.424626
  29 231.791 1.72381 0.491974
  30 230.724 3.00240 0.436716
  31 230.296 3.49340 -0.0423760
  32 230.848 2.84723 -0.524606
  33 231.615 1.87922 -0.449620
  34 231.953 0.948938 -0.473351
  35 232.362 0.159731 -0.705508
  36 234.352 0.284316 -1.25067
  37 237.218 0.648550 -2.52939
  38 243.786 0.247856 -3.38537
  39 252.166 0.422473 -5.50245
  40 261.894 -2.27924 -5.34694
  41 270.676 -2.77130 -0.505476
  42 265.984 -1.92406 4.71271
  43 255.289 1.93598 8.17924
  44 249.483 4.83943 -0.316602
  45 253.743 2.33137 -7.66118
  46 265.679 -2.85295 -5.74784
  47 268.168 -3.36228 1.66902
  48 263.267 -1.50907 4.59662
  49 250.380 0.113314 5.52137
  50 243.196 0.934873 4.28118
  51 237.381 0.744064 2.43247
  52 234.388 0.228425 1.14654
  53 232.489 0.188482 0.680333
  54 232.226 0.837965 0.424626
  55 231.791 1.72381 0.491974
  56 230.724 3.00240 0.436716
  57 230.296 3.49340 -0.0423760
  58 230.848 2.84723 -0.524606
  59 231.615 1.87922 -0.449620
  60 231.953 0.948938 -0.473351
  61 501.960 25.5981 52.0020
  62 457.282 7.53249 18.6203
  63 430.806 3.22670 6.94935
  64 425.174 2.31909 1.39863
  65 430.610 3.05228 -5.94587
  66 450.699 6.48421 -16.2233
  67 506.644 22.3037 -44.7599
  68 66.2689 -75.7839 -80.0336
  69 13.0993 -167.585 -19.8583
  70 3.92040 -189.372 -8.69759
  71 3.73921 -185.843 -4.59796
  72 6.17195 -181.112 9.29009
  73 14.1543 -162.452 20.9933
  74 72.0815 -70.8123 88.8080
  75 501.960 25.5981 52.0020
  76 457.282 7.53249 18.6203
  77 430.806 3.22670 6.94935
  78 425.174 2.31909 1.39863
  79 430.610 3.05228 -5.94587
  80 450.699 6.48421 -16.2233
  81 506.644 22.3037 -44.7599
  82 66.2689 -75.7839 -80.0336
  83 13.0993 -167.585 -19.8583
  84 3.92040 -189.372 -8.69759
  85 3.73921 -185.843 -4.59796
  86 6.17195 -181.112 9.29009
  87 14.1543 -162.452 20.9933
  88 72.0815 -70.8123 88.8080
  89 212.552 12.2470 -3.19919
  90 212.552 12.2470 -3.19919
  91 194.021 2.67015 28.6963
  92 186.384 -1.18790 -34.1719
  93 194.021 2.67015 28.6963
  94 186.384 -1.18790 -34.1719
  95 109.172 2.55153 13.6662
  96 109.172 2.55153 13.6662
  97 285.873 18.3201 -4.71964
  98 291.722 10.3195 9.61124
  99 285.873 18.3201 -4.71964
  100 291.722 10.3195 9.61124
  101 228.373 5.58096 3.23616
  102 228.373 5.58096 3.23616
  103 273.923 -15.5728 -0.173930
  104 273.923 -15.5728 -0.173930
  105 228.666 5.83042 -3.99030
  106 228.666 5.83042 -3.99030
  107 269.497 -33.1058 -29.8049
  108 269.497 -33.1058 -29.8049
  109 187.971 -38.9753 74.9103
  110 187.971 -38.9753 74.9103
  111 126.485 -23.0039 -60.2737
  112 126.485 -23.0039 -60.2737
  113 229.642 3.90365 13.7142
  114 229.642 3.90365 13.7142
  115 238.206 1.66433 -13.0883
  116 238.206 1.66433 -13.0883
  117 324.144 21.4275 2.28947
  118 347.623 22.6672 1.84433
  119 324.144 21.4275 2.28947
  120 347.623 22.6672 1.84433
  121 340.190 28.4945 -8.15395
  122 340.190 28.4945 -8.15395
  123 36.8872 -61.3393 -19.4403
  124 36.8872 -61.3393 -19.4403
  125 293.114 -36.5100 31.8606
  126 293.114 -36.5100 31.8606
  127 246.427 -5.90189 15.2642
  128 246.427 -5.90189 15.2642
  129 56.1689 -53.0439 44.8464
  130 56.1689 -53.0439 44.8464
  131 228.710 4.66711 -0.205946
  132 228.710 4.66711 -0.205946
  133 246.076 -11.4138 -19.4021
  134 246.076 -11.4138 -19.4021
  135 232.460 1.90896 2.35373
  136 232.460 1.90896 2.35373
  137 232.680 1.67724 -2.19777
  138 232.680 1.67724 -2.19777
  139 235.281 3.27844 -6.95675
  140 235.281 3.27844 -6.95675
  141 234.174 3.18973 6.27464
  142 234.174 3.18973 6.27464
  143 223.979 7.75764 -0.252627
  144 223.979 7.75764 -0.252627
  145 186.666 12.4369 -1.46253
  146 186.666 12.4369 -1.46253
  147 272.428 -9.74153 4.61538
  148 272.428 -9.74153 4.61538
  149 312.200 -11.4045 -11.1059
  150 312.200 -11.4045 -11.1059
  151 240.491 -26.6894 37.4050
  152 240.491 -26.6894 37.4050
  153 181.667 -49.2387 -83.5883
  154 181.667 -49.2387 -83.5883
  155 213.112 8.78243 13.0464
  156 213.112 8.78243 13.0464
  157 277.100 -1.77948 -10.6781
  158 277.100 -1.77948 -10.6781
  159 380.106 29.9118 21.0255
  160 380.106 29.9118 21.0255
  161 189.265 -52.5530 96.9801
  162 189.265 -52.5530 96.9801
  163 388.823 13.0307 -4.39559
  164 388.823 13.0307 -4.39559
  165 223.074 7.72886 6.11483
  166 223.074 7.72886 6.11483
  167 211.832 7.25211 -19.0343
  168 211.832 7.25211 -19.0343
  169 262.478 7.83521 6.29305
  170 262.478 7.83521 6.29305
  171 220.942 9.21095 -6.93068
  172 220.942 9.21095 -6.93068
  173 230.147 3.75387 1.02894
  174 230.147 3.75387 1.02894
  175 234.086 1.82160 -3.72920
  176 234.086 1.82160 -3.72920
  177 364.335 27.8969 -20.3693
  178 364.335 27.8969 -20.3693
  179 230.342 3.65158 -1.24346
  180 230.342 3.65158 -1.24346
  181 169.076 12.3523 -9.86376
  182 169.076 12.3523 -9.86376
  183 307.294 22.6160 2.45607
  184 307.294 22.6160 2.45607
  185 61.7843 -52.1146 -57.9371
  186 61.7843 -52.1146 -57.9371
  187 166.953 -1.87208 41.5361
  188 166.953 -1.87208 41.5361
  189 224.381 -36.0122 -58.0744
  190 224.381 -36.0122 -58.0744
  191 264.936 -7.22977 2.99999
  192 264.936 -7.22977 2.99999
  193 247.785 -0.792950 9.51548
  194 247.785 -0.792950 9.51548
  195 338.376 9.11422 18.8925
  196 338.376 9.11422 18.8925
  197 138.777 4.26273 -25.5950
  198 138.777 4.26273 -25.5950
  199 385.224 17.3737 10.0018
  200 385.224 17.3737 10.0018
  201 252.449 -3.04081 -9.90485
  202 252.449 -3.04081 -9.90485
  203 234.460 1.30279 3.44087
  204 234.460 1.30279 3.44087
  205 262.880 -10.2175 -4.84661
  206 262.880 -10.2175 -4.84661
  207 287.876 -14.6129 -1.10909
  208 287.876 -14.6129 -1.10909
  209 17.8527 -105.691 8.48084
  210 17.8527 -105.691 8.48084
  211 241.958 1.32183 -8.45998
  212 241.958 1.32183 -8.45998
  213 239.889 1.92187 7.41267
  214 239.889 1.92187 7.41267
  215 230.826 -21.1148 -37.1101
  216 230.826 -21.1148 -37.1101
  217 269.711 -5.71523 -6.61716
  218 269.711 -5.71523 -6.61716
  219 220.200 8.00559 -13.0505
  220 220.200 8.00559 -13.0505
  221 60.6963 -76.5548 63.2737
  222 60.6963 -76.5548 63.2737
  223 273.169 1.09218 10.0372
  224 273.169 1.09218 10.0372
  225 264.991 6.64252 -8.38024
  226 264.991 6.64252 -8.38024
  227 380.696 22.7755 -16.9419
  228 380.696 22.7755 -16.9419
  229 288.829 -10.8673 -5.55956
  230 288.829 -10.8673 -5.55956
  231 316.692 -15.4376 -54.1903
  232 316.692 -15.4376 -54.1903
  233 231.480 -10.4112 28.7212
  234 231.480 -10.4112 28.7212
  235 226.514 6.48743 1.03984
  236 226.514 6.48743 1.03984
  237 119.688 -17.8720 53.4090
  238 119.688 -17.8720 53.4090
  239 303.090 -27.0368 63.7203
  240 303.090 -27.0368 63.7203
  241 80.8466 -11.0696 -26.3253
  242 80.8466 -11.0696 -26.3253
  243 268.595 -20.0820 -12.5097
  244 268.595 -20.0820 -12.5097
  245 217.932 9.91433 7.57653
  246 217.932 9.91433 7.57653
  247 7.96560 -137.052 -6.83951
  248 7.96560 -137.052 -6.83951
  249 15.0726 -120.981 22.7305
  250 15.0726 -120.981 22.7305
  251 222.124 1.56498 20.7881
  252 222.124 1.56498 20.7881
  253 232.194 0.893026 0.855366
  254 232.194 0.893026 0.855366
  255 230.124 3.78493 0.161674
  256 230.124 3.78493 0.161674
  257 215.819 -2.65495 -27.5264
  258 215.819 -2.65495 -27.5264
  259 232.346 0.811679 -0.905873
  260 232.346 0.811679 -0.905873
  261 257.662 -18.0631 16.9504
  262 257.662 -18.0631 16.9504
  263 238.751 0.861363 -4.16708
  264 238.751 0.861363 -4.16708
  265 184.442 -15.6155 -50.8177
  266 184.442 -15.6155 -50.8177
  267 315.529 24.1297 -1.57668
  268 315.529 24.1297 -1.57668
  269 229.816 5.16702 -10.6908
  270 229.816 5.16702 -10.6908
  271 228.884 4.83789 -2.16576
  272 228.884 4.83789 -2.16576
  273 193.930 9.44251 -18.9853
  274 193.930 9.44251 -18.9853
  275 58.4436 -23.5594 15.0772
  276 58.4436 -23.5594 15.0772
  277 246.457 -40.6336 51.7396
  278 246.457 -40.6336 51.7396
  279 231.441 3.49154 4.22661
  280 231.441 3.49154 4.22661
  281 345.054 24.5194 -5.07835
  282 345.054 24.5194 -5.07835
  283 415.189 34.1962 47.4737
  284 415.189 34.1962 47.4737
  285 276.833 -29.3383 16.4611
  286 276.833 -29.3383 16.4611
  287 197.798 9.93086 13.9680
  288 197.798 9.93086 13.9680
  289 253.828 -50.1756 68.1705
  290 253.828 -50.1756 68.1705
  291 260.782 -3.01987 6.35440
  292 260.782 -3.01987 6.35440
  293 231.300 2.30179 1.16712
  294 231.300 2.30179 1.16712
  295 227.886 6.33135 -6.85846
  296 227.886 6.33135 -6.85846
  297 230.186 3.72373 -0.320474
  298 230.186 3.72373 -0.320474
  299 233.653 0.652855 -1.63015
  300 233.653 0.652855 -1.63015
  301 238.516 1.20392 4.18353
  302 238.516 1.20392 4.18353
  303 226.584 6.45203 -1.76833
  304 226.584 6.45203 -1.76833
  305 52.1627 -89.3810 -60.0211
  306 52.1627 -89.3810 -60.0211
  307 154.595 10.0049 12.9088
  308 154.595 10.0049 12.9088
  309 231.577 1.91873 -1.12244
  310 231.577 1.91873 -1.12244
  311 203.375 11.7906 -9.36365
  312 203.375 11.7906 -9.36365
  313 203.882 12.8590 3.58262
  314 203.882 12.8590 3.58262
  315 231.061 3.35746 -3.00103
  316 231.061 3.35746 -3.00103
  317 311.048 15.8594 0.0563076
  318 311.048 15.8594 0.0563076
  319 229.263 5.61078 9.39142
  320 229.263 5.61078 9.39142
  321 293.334 8.95430 -8.63661
  322 293.334 8.95430 -8.63661
  323 436.927 12.4774 29.0997
  324 436.927 12.4774 29.0997
  325 228.364 5.81120 5.93286
  326 228.364 5.81120 5.93286
  327 224.615 7.68555 3.10339
  328 224.615 7.68555 3.10339
  329 177.276 -40.5207 -95.6149
  330 177.276 -40.5207 -95.6149
  331 233.788 0.590482 1.59500
  332 233.788 0.590482 1.59500
  333 228.649 4.87651 1.61765
  334 228.649 4.87651 1.61765
  335 219.960 9.94133 0.355060
  336 219.960 9.94133 0.355060
  337 113.618 -40.4090 77.2738
  338 113.618 -40.4090 77.2738
  339 284.010 18.5231 1.51780
  340 284.010 18.5231 1.51780
  341 16.4086 -118.525 -26.4751
  342 16.4086 -118.525 -26.4751
  343 176.227 11.1313 11.5371
  344 176.227 11.1313 11.5371
  345 413.193 5.75591 4.11594
  346 413.193 5.75591 4.11594
  347 431.191 21.6351 -29.8718
  348 431.191 21.6351 -29.8718
  349 199.951 -23.0193 56.8462
  350 208.347 -11.8658 42.2432
  351 199.951 -23.0193 56.8462
  352 208.347 -11.8658 42.2432
  353 419.095 10.5964 15.3360
  354 419.095 10.5964 15.3360
  355 236.800 -0.296924 16.2222
  356 236.800 -0.296924 16.2222
  357 281.854 -37.9785 -39.7102
  358 281.854 -37.9785 -39.7102
  359 266.502 -2.33860 8.12514
  360 266.502 -2.33860 8.12514
  361 181.691 -40.3758 104.878
  362 181.691 -40.3758 104.878
  363 311.830 25.0446 -0.863511
  364 311.830 25.0446 -0.863511
  365 419.156 3.91154 -3.22103
  366 419.156 3.91154 -3.22103
  367 252.467 0.169804 -7.96338
  368 252.467 0.169804 -7.96338
  369 224.625 8.16842 -3.71126
  370 224.625 8.16842 -3.71126
  371 349.321 27.0797 8.32327
  372 349.321 27.0797 8.32327
  373 266.251 11.0560 -1.77098
  374 266.251 11.0560 -1.77098
  375 243.155 0.951322 -5.14683
  376 243.155 0.951322 -5.14683
  377 65.2754 -33.1643 -44.2045
  378 65.2754 -33.1643 -44.2045
  379 268.980 -4.81775 2.38458
  380 268.980 -4.81775 2.38458
  381 229.721 -0.328880 -19.1066
  382 229.721 -0.328880 -19.1066
  383 264.438 -0.579405 -9.67253
  384 264.438 -0.579405 -9.67253
  385 420.784 7.51299 -12.7312
  386 420.784 7.51299 -12.7312
  387 230.452 3.59626 2.37427
  388 230.452 3.59626 2.37427
  389 281.343 13.5826 8.23296
  390 281.343 13.5826 8.23296
  391 304.593 -6.95109 1.88440
  392 304.593 -6.95109 1.88440
  393 231.342 4.22372 -5.27720
  394 231.342 4.22372 -5.27720
  395 445.413 40.0139 -55.2441
  396 445.413 40.0139 -55.2441
  397 265.610 -3.81361 -2.64420
  398 265.610 -3.81361 -2.64420
</Section>

newXOutput 68

<Section columns = "stress_xx | stress_yy | stress_xy">
  1 235.180 0.227915 -0.272988
  2 235.283 0.284161 0.368316
  3 235.180 0.227915 -0.272988
  4 235.283 0.284161 0.368316
  5 366.497 21.0940 100.420
  6 381.071 20.2921 -98.7624
  7 366.497 21.0940 100.420
  8 381.071 20.2921 -98.7624
  9 235.787 0.162075 -0.715291
  10 237.804 0.288446 -1.26810
  11 240.709 0.657868 -2.56486
  12 247.369 0.251280 -3.43321
  13 255.867 0.427997 -5.58140
  14 265.733 -2.31400 -5.42561
  15 274.644 -2.81287 -0.516075
  16 269.898 -1.95235 4.77535
  17 259.063 1.96616 8.29125
  18 253.181 4.91268 -0.321002
  19 257.496 2.36637 -7.76655
  20 269.589 -2.89511 -5.82413
  21 272.100 -3.41279 1.69731
  22 267.125 -1.53198 4.66455
  23 254.057 0.114100 5.60090
  24 246.771 0.948115 4.34183
  25 240.875 0.754760 2.46654
  26 237.841 0.231747 1.16249
  27 235.916 0.191260 0.689790
  28 235.649 0.850117 0.430483
  29 235.209 1.74869 0.498803
  30 234.126 3.04557 0.442804
  31 233.693 3.54356 -0.0429656
  32 234.252 2.88819 -0.531897
  33 235.030 1.90635 -0.455804
  34 235.373 0.962731 -0.479926
  35 235.787 0.162075 -0.715291
  36 237.804 0.288446 -1.26810
  37 240.709 0.657868 -2.56486
  38 247.369 0.251280 -3.43321
  39 255.867 0.427997 -5.58140
  40 265.733 -2.31400 -5.42561
  41 274.644 -2.81287 -0.516075
  42 269.898 -1.95235 4.77535
  43 259.063 1.96616 8.29125
  44 253.181 4.91268 -0.321002
  45 257.496 2.36637 -7.76655
  46 269.589 -2.89511 -5.82413
  47 272.100 -3.41279 1.69731
  48 267.125 -1.53198 4.66455
  49 254.057 0.114100 5.60090
  50 246.771 0.948115 4.34183
  51 240.875 0.754760 2.46654
  52 237.841 0.231747 1.16249
  53 235.916 0.191260 0.689790
  54 235.649 0.850117 0.430483
  55 235.209 1.74869 0.498803
  56 234.126 3.04557 0.442804
  57 233.693 3.54356 -0.0429656
  58 234.252 2.88819 -0.531897
  59 235.030 1.90635 -0.455804
  60 235.373 0.962731 -0.479926
  61 509.132 25.9800 52.7618
  62 463.827 7.63878 18.8863
  63 436.987 3.26992 7.04668
  64 431.277 2.35058 1.41719
  65 436.787 3.09429 -6.02881
  66 457.156 6.57506 -16.4534
  67 513.883 22.6359 -45.4144
  68 67.2392 -76.8174 -81.2717
  69 13.2912 -170.075 -20.1850
  70 3.97137 -192.229 -8.83999
  71 3.78803 -188.651 -4.66735
  72 6.25816 -183.838 9.44263
  73 14.3635 -164.866 21.3398
  74 73.1305 -71.7720 90.1787
  75 509.132 25.9800 52.7618
  76 463.827 7.63878 18.8863
  77 436.987 3.26992 7.04668
  78 431.277 2.35058 1.41719
  79 436.787 3.09429 -6.02881
  80 457.156 6.57506 -16.4534
  81 513.883 22.6359 -45.4144
  82 67.2392 -76.8174 -81.2717
  83 13.2912 -170.075 -20.1850
  84 3.97137 -192.229 -8.83999
  85 3.78803 -188.651 -4.66735
  86 6.25816 -183.838 9.44263
  87 14.3635 -164.866 21.3398
  88 73.1305 -71.7720 90.1787
  89 215.700 12.4258 -3.24551
  90 215.700 12.4258 -3.24551
  91 196.897 2.71046 29.1179
  92 189.148 -1.20446 -34.6761
  93 196.897 2.71046 29.1179
  94 189.148 -1.20446 -34.6761
  95 110.814 2.59781 13.8700
  96 110.814 2.59781 13.8700
  97 290.083 18.5923 -4.77961
  98 296.006 10.4781 9.72927
  99 290.083 18.5923 -4.77961
  100 296.006 10.4781 9.72927
  101 231.743 5.66156 3.28191
  102 231.743 5.66156 3.28191
  103 277.942 -15.8015 -0.159795
  104 277.942 -15.8015 -0.159795
  105 232.041 5.91471 -4.04678
  106 232.041 5.91471 -4.04678
  107 273.440 -33.5944 -30.2579
  108 273.440 -33.5944 -30.2579
  109 190.740 -39.5538 76.0324
  110 190.740 -39.5538 76.0324
  111 128.366 -23.3406 -61.1808
  112 128.366 -23.3406 -61.1808
  113 233.029 3.95981 13.9129
  114 233.029 3.95981 13.9129
  115 241.714 1.68736 -13.2787
  116 241.714 1.68736 -13.2787
  117 328.887 21.7521 2.35310
  118 352.697 22.9938 1.87619
  119 328.887 21.7521 2.35310
  120 352.697 22.9938 1.87619
  121 345.162 28.9177 -8.29712
  122 345.162 28.9177 -8.29712
  123 37.4399 -62.2330 -19.7425
  124 37.4399 -62.2330 -19.7425
  125 297.389 -37.0388 32.3570
  126 297.389 -37.0388 32.3570
  127 250.051 -5.98993 15.4910
  128 250.051 -5.98993 15.4910
  129 57.0107 -53.8143 45.5385
  130 57.0107 -53.8143 45.5385
  131 232.086 4.73436 -0.208818
  132 232.086 4.73436 -0.208818
  133 249.693 -11.5832 -19.6923
  134 249.693 -11.5832 -19.6923
  135 235.886 1.93652 2.38670
  136 235.886 1.93652 2.38670
  137 236.109 1.70150 -2.22850
  138 236.109 1.70150 -2.22850
  139 238.747 3.32553 -7.05583
  140 238.747 3.32553 -7.05583
  141 237.625 3.23566 6.36377
  142 237.625 3.23566 6.36377
  143 227.288 7.86997 -0.256292
  144 227.288 7.86997 -0.256292
  145 189.443 12.6204 -1.48417
  146 189.443 12.6204 -1.48417
  147 276.429 -9.88384 4.66858
  148 276.429 -9.88384 4.66858
  149 316.756 -11.5549 -11.3043
  150 316.756 -11.5549 -11.3043
  151 244.022 -27.0848 37.9631
  152 244.022 -27.0848 37.9631
  153 184.334 -49.9576 -84.8563
  154 184.334 -49.9576 -84.8563
  155 216.266 8.91104 13.2359
  156 216.266 8.91104 13.2359
  157 281.171 -1.80281 -10.8170
  158 281.171 -1.80281 -10.8170
  159 385.628 30.3554 21.3526
  160 385.628 30.3554 21.3526
  161 192.042 -53.3258 98.4441
  162 192.042 -53.3258 98.4441
  163 394.454 13.2141 -4.46090
  164 394.454 13.2141 -4.46090
  165 226.370 7.84092 6.20230
  166 226.370 7.84092 6.20230
  167 214.966 7.35852 -19.3123
  168 214.966 7.35852 -19.3123
  169 266.356 7.95356 6.37863
  170 266.356 7.95356 6.37863
  171 224.209 9.34480 -7.03016
  172 224.209 9.34480 -7.03016
  173 233.542 3.80790 1.04336
  174 233.542 3.80790 1.04336
  175 237.535 1.84782 -3.78170
  176 237.535 1.84782 -3.78170
  177 369.634 28.3260 -20.7024
  178 369.634 28.3260 -20.7024
  179 233.739 3.70419 -1.26086
  180 233.739 3.70419 -1.26086
  181 171.597 12.5369 -10.0090
  182 171.597 12.5369 -10.0090
  183 311.804 22.9511 2.47526
  184 311.804 22.9511 2.47526
  185 62.7062 -52.8710 -58.8291
  186 62.7062 -52.8710 -58.8291
  187 169.434 -1.89751 42.1509
  188 169.434 -1.89751 42.1509
  189 227.676 -36.5460 -58.9440
  190 227.676 -36.5460 -58.9440
  191 268.826 -7.33731 3.05182
  192 268.826 -7.33731 3.05182
  193 251.427 -0.805813 9.65436
  194 251.427 -0.805813 9.65436
  195 343.306 9.27154 19.2088
  196 343.306 9.27154 19.2088
  197 140.852 4.33090 -25.9755
  198 140.852 4.33090 -25.9755
  199 390.811 17.6212 10.1524
  200 390.811 17.6212 10.1524
  201 256.158 -3.08694 -10.0519
  202 256.158 -3.08694 -10.0519
  203 237.914 1.32150 3.48926
  204 237.914 1.32150 3.48926
  205 266.740 -10.3695 -4.92634
  206 266.740 -10.3695 -4.92634
  207 292.092 -14.8230 -1.14864
  208 292.092 -14.8230 -1.14864
  209 18.1170 -107.257 8.61511
  210 18.1170 -107.257 8.61511
  211 245.517 1.34001 -8.58171
  212 245.517 1.34001 -8.58171
  213 243.419 1.94927 7.51885
  214 243.419 1.94927 7.51885
  215 234.222 -21.4275 -37.6627
  216 234.222 -21.4275 -37.6627
  217 273.675 -5.79943 -6.70170
  218 273.675 -5.79943 -6.70170
  219 223.455 8.12230 -13.2399
  220 223.455 8.12230 -13.2399
  221 61.5941 -77.6655 64.2544
  222 61.5941 -77.6655 64.2544
  223 277.189 1.11196 10.1693
  224 277.189 1.11196 10.1693
  225 268.903 6.74311 -8.49320
  226 268.903 6.74311 -8.49320
  227 386.224 23.1050 -17.2017
  228 386.224 23.1050 -17.2017
  229 293.060 -11.0220 -5.61759
  230 293.060 -11.0220 -5.61759
  231 321.297 -15.6285 -55.0309
  232 321.297 -15.6285 -55.0309
  233 234.888 -10.5652 29.1455
  234 234.888 -10.5652 29.1455
  235 229.859 6.58119 1.05457
  236 229.859 6.58119 1.05457
  237 121.473 -18.1316 54.2116
  238 121.473 -18.1316 54.2116
  239 307.497 -27.4059 64.6988
  240 307.497 -27.4059 64.6988
  241 82.0640 -11.2213 -26.7232
  242 82.0640 -11.2213 -26.7232
  243 272.532 -20.3785 -12.7066
  244 272.532 -20.3785 -12.7066
  245 221.155 10.0588 7.68576
  246 221.155 10.0588 7.68576
  247 8.07943 -139.097 -6.94938
  248 8.07943 -139.097 -6.94938
  249 15.2942 -122.773 23.0942
  250 15.2942 -122.773 23.0942
  251 225.403 1.58762 21.0923
  252 225.403 1.58762 21.0923
  253 235.616 0.905976 0.867262
  254 235.616 0.905976 0.867262
  255 233.518 3.83933 0.163946
  256 233.518 3.83933 0.163946
  257 219.007 -2.69445 -27.9316
  258 219.007 -2.69445 -27.9316
  259 235.771 0.823489 -0.918476
  260 235.771 0.823489 -0.918476
  261 261.444 -18.3303 17.2086
  262 261.444 -18.3303 17.2086
  263 242.264 0.873601 -4.22593
  264 242.264 0.873601 -4.22593
  265 187.170 -15.8465 -51.5730
  266 187.170 -15.8465 -51.5730
  267 320.156 24.4859 -1.58308
  268 320.156 24.4859 -1.58308
  269 233.206 5.24160 -10.8446
  270 233.206 5.24160 -10.8446
  271 232.261 4.90769 -2.19623
  272 232.261 4.90769 -2.19623
  273 196.809 9.58221 -19.2634
  274 196.809 9.58221 -19.2634
  275 59.3254 -23.8914 15.3075
  276 59.3254 -23.8914 15.3075
  277 250.066 -41.2354 52.5162
  278 250.066 -41.2354 52.5162
  279 234.853 3.54191 4.28624
  280 234.853 3.54191 4.28624
  281 350.093 24.8747 -5.16153
  282 350.093 24.8747 -5.16153
  283 421.186 34.7265 48.1962
  284 421.186 34.7265 48.1962
  285 280.884 -29.7692 16.7222
  286 280.884 -29.7692 16.7222
  287 200.733 10.0773 14.1716
  288 200.733 10.0773 14.1716
  289 257.535 -50.9163 69.1959
  290 257.535 -50.9163 69.1959
  291 264.609 -3.06539 6.44993
  292 264.609 -3.06539 6.44993
  293 234.711 2.33497 1.18341
  294 234.711 2.33497 1.18341
  295 231.249 6.42297 -6.95621
  296 231.249 6.42297 -6.95621
  297 233.581 3.77726 -0.324952
  298 233.581 3.77726 -0.324952
  299 237.096 0.662302 -1.65291
  300 237.096 0.662302 -1.65291
  301 242.027 1.22113 4.24261
  302 242.027 1.22113 4.24261
  303 229.930 6.54529 -1.79338
  304 229.930 6.54529 -1.79338
  305 52.9326 -90.6765 -60.9554
  306 52.9326 -90.6765 -60.9554
  307 156.904 10.1562 13.0990
  308 156.904 10.1562 13.0990
  309 234.991 1.94643 -1.13809
  310 234.991 1.94643 -1.13809
  311 206.391 11.9636 -9.50002
  312 206.391 11.9636 -9.50002
  313 206.906 13.0476 3.63450
  314 206.906 13.0476 3.63450
  315 234.468 3.40590 -3.04324
  316 234.468 3.40590 -3.04324
  317 315.602 16.1046 0.0267711
  318 315.602 16.1046 0.0267711
  319 232.646 5.69196 9.52599
  320 232.646 5.69196 9.52599
  321 297.639 9.09243 -8.74074
  322 297.639 9.09243 -8.74074
  323 443.215 12.6544 29.5274
  324 443.215 12.6544 29.5274
  325 231.734 5.89524 6.01722
  326 231.734 5.89524 6.01722
  327 227.933 7.79684 3.14752
  328 227.933 7.79684 3.14752
  329 179.864 -41.0512 -97.0801
  330 179.864 -41.0512 -97.0801
  331 237.233 0.599019 1.61726
  332 237.233 0.599019 1.61726
  333 232.024 4.94682 1.64043
  334 232.024 4.94682 1.64043
  335 223.213 10.0858 0.360120
  336 223.213 10.0858 0.360120
  337 115.306 -41.0034 78.4469
  338 115.306 -41.0034 78.4469
  339 288.195 18.7981 1.53619
  340 288.195 18.7981 1.53619
  341 16.6481 -120.279 -26.8943
  342 16.6481 -120.279 -26.8943
  343 178.852 11.2968 11.7060
  344 178.852 11.2968 11.7060
  345 419.145 5.83565 4.17393
  346 419.145 5.83565 4.17393
  347 437.409 21.9532 -30.3141
  348 437.409 21.9532 -30.3141
  349 202.899 -23.3608 57.6914
  350 211.422 -12.0411 42.8670
  351 202.899 -23.3608 57.6914
  352 211.422 -12.0411 42.8670
  353 425.134 10.7449 15.5581
  354 425.134 10.7449 15.5581
  355 240.288 -0.302261 16.4594
  356 240.288 -0.302261 16.4594
  357 285.966 -38.5342 -40.3179
  358 285.966 -38.5342 -40.3179
  359 270.426 -2.37200 8.23431
  360 270.426 -2.37200 8.23431
  361 184.335 -40.9080 106.479
  362 184.335 -40.9080 106.479
  363 316.408 25.4113 -0.875519
  364 316.408 25.4113 -0.875519
  365 425.185 3.96536 -3.26720
  366 425.185 3.96536 -3.26720
  367 256.173 0.171090 -8.07898
  368 256.173 0.171090 -8.07898
  369 227.944 8.28681 -3.76413
  370 227.944 8.28681 -3.76413
  371 354.420 27.4761 8.46224
  372 354.420 27.4761 8.46224
  373 270.184 11.2211 -1.79489
  374 270.184 11.2211 -1.79489
  375 246.730 0.964590 -5.22008
  376 246.730 0.964590 -5.22008
  377 66.2599 -33.6425 -44.8803
  378 66.2599 -33.6425 -44.8803
  379 272.929 -4.88911 2.41190
  380 272.929 -4.88911 2.41190
  381 233.108 -0.334714 -19.3869
  382 233.108 -0.334714 -19.3869
  383 268.336 -0.587076 -9.80332
  384 268.336 -0.587076 -9.80332
  385 426.844 7.61884 -12.9147
  386 426.844 7.61884 -12.9147
  387 233.851 3.64808 2.40762
  388 233.851 3.64808 2.40762
  389 285.484 13.7867 8.33919
  390 285.484 13.7867 8.33919
  391 309.044 -7.04204 1.94262
  392 309.044 -7.04204 1.94262
  393 234.754 4.28470 -5.35188
  394 234.754 4.28470 -5.35188
  395 451.826 40.6397 -56.0803
  396 451.826 40.6397 -56.0803
  397 269.506 -3.87101 -2.68665
  398 269.506 -3.87101 -2.68665
</Section>

newXOutput 69

<Section columns = "stress_xx | stress_yy | stress_xy">
  1 238.594 0.231262 -0.276701
  2 238.699 0.288296 0.373320
  3 238.594 0.231262 -0.276701
  4 238.699 0.288296 0.373320
  5 371.689 21.4880 101.919
  6 386.461 20.6784 -100.237
  7 371.689 21.4880 101.919
  8 386.461 20.6784 -100.237
  9 239.209 0.164418 -0.725048
  10 241.253 0.292571 -1.28548
  11 244.198 0.667172 -2.60025
  12 250.948 0.254695 -3.48095
  13 259.563 0.433497 -5.66022
  14 269.568 -2.34876 -5.50422
  15 278.609 -2.85443 -0.526755
  16 273.809 -1.98062 4.83774
  17 262.835 1.99636 8.40292
  18 256.877 4.98592 -0.325390
  19 261.247 2.40136 -7.87162
  20 273.496 -2.93723 -5.90010
  21 276.029 -3.46329 1.72569
  22 270.980 -1.55490 4.73244
  23 257.729 0.114861 5.68032
  24 250.343 0.961330 4.40236
  25 244.366 0.765439 2.50053
  26 241.291 0.235066 1.17841
  27 239.340 0.194035 0.699222
  28 239.069 0.862254 0.436323
  29 238.623 1.77353 0.505615
  30 237.526 3.08866 0.448877
  31 237.088 3.59365 -0.0435538
  32 237.653 2.92909 -0.539170
  33 238.442 1.93344 -0.461969
  34 238.789 0.976507 -0.486485
  35 239.209 0.164418 -0.725048
  36 241.253 0.292571 -1.28548
  37 244.198 0.667172 -2.60025
  38 250.948 0.254695 -3.48095
  39 259.563 0.433497 -5.66022
  40 269.568 -2.34876 -5.50422
  41 278.609 -2.85443 -0.526755
  42 273.809 -1.98062 4.83774
  43 262.835 1.99636 8.40292
  44 256.877 4.98592 -0.325390
  45 261.247 2.40136 -7.87162
  46 273.496 -2.93723 -5.90010
  47 276.029 -3.46329 1.72569
  48 270.980 -1.55490 4.73244
  49 257.729 0.114861 5.68032
  50 250.343 0.961330 4.40236
  51 244.366 0.765439 2.50053
  52 241.291 0.235066 1.17841
  53 239.340 0.194035 0.699222
  54 239.069 0.862254 0.436323
  55 238.623 1.77353 0.505615
  56 237.526 3.08866 0.448877
  57 237.088 3.59365 -0.0435538
  58 237.653 2.92909 -0.539170
  59 238.442 1.93344 -0.461969
  60 238.789 0.976507 -0.486485
  61 516.291 26.3617 53.5207
  62 470.361 7.74485 19.1519
  63 443.158 3.31299 7.14379
  64 437.369 2.38197 1.43567
  65 442.954 3.13619 -6.11154
  66 463.601 6.66571 -16.6830
  67 521.110 22.9679 -46.0683
  68 68.2085 -77.8476 -82.5104
  69 13.4830 -172.565 -20.5125
  70 4.02209 -195.085 -8.98271
  71 3.83661 -191.459 -4.73673
  72 6.34415 -186.563 9.59553
  73 14.5726 -167.278 21.6870
  74 74.1782 -72.7283 91.5500
  75 516.291 26.3617 53.5207
  76 470.361 7.74485 19.1519
  77 443.158 3.31299 7.14379
  78 437.369 2.38197 1.43567
  79 442.954 3.13619 -6.11154
  80 463.601 6.66571 -16.6830
  81 521.110 22.9679 -46.0683
  82 68.2085 -77.8476 -82.5104
  83 13.4830 -172.565 -20.5125
  84 4.02209 -195.085 -8.98271
  85 3.83661 -191.459 -4.73673
  86 6.34415 -186.563 9.59553
  87 14.5726 -167.278 21.6870
  88 74.1782 -72.7283 91.5500
  89 218.846 12.6045 -3.29176
  90 218.846 12.6045 -3.29176
  91 199.771 2.75076 29.5391
  92 191.911 -1.22099 -35.1800
  93 199.771 2.75076 29.5391
  94 191.911 -1.22099 -35.1800
  95 112.455 2.64430 14.0738
  96 112.455 2.64430 14.0738
  97 294.289 18.8643 -4.83926
  98 300.286 10.6367 9.84652
  99 294.289 18.8643 -4.83926
  100 300.286 10.6367 9.84652
  101 235.111 5.74204 3.32756
  102 235.111 5.74204 3.32756
  103 281.956 -16.0301 -0.145190
  104 281.956 -16.0301 -0.145190
  105 235.412 5.99888 -4.10315
  106 235.412 5.99888 -4.10315
  107 277.379 -34.0826 -30.7108
  108 277.379 -34.0826 -30.7108
  109 193.507 -40.1320 77.1541
  110 193.507 -40.1320 77.1541
  111 130.246 -23.6770 -62.0876
  112 130.246 -23.6770 -62.0876
  113 236.413 4.01588 14.1113
  114 236.413 4.01588 14.1113
  115 245.218 1.71032 -13.4688
  116 245.218 1.71032 -13.4688
  117 333.625 22.0767 2.41753
  118 357.766 23.3199 1.90816
  119 333.625 22.0767 2.41753
  120 357.766 23.3199 1.90816
  121 350.130 29.3406 -8.44082
  122 350.130 29.3406 -8.44082
  123 37.9924 -63.1255 -20.0449
  124 37.9924 -63.1255 -20.0449
  125 301.659 -37.5668 32.8537
  126 301.659 -37.5668 32.8537
  127 253.672 -6.07794 15.7177
  128 253.672 -6.07794 15.7177
  129 57.8521 -54.5836 46.2309
  130 57.8521 -54.5836 46.2309
  131 235.458 4.80150 -0.211683
  132 235.458 4.80150 -0.211683
  133 253.307 -11.7525 -19.9823
  134 253.307 -11.7525 -19.9823
  135 239.310 1.96405 2.41959
  136 239.310 1.96405 2.41959
  137 239.536 1.72574 -2.25917
  138 239.536 1.72574 -2.25917
  139 242.210 3.37255 -7.15473
  140 242.210 3.37255 -7.15473
  141 241.072 3.28152 6.45272
  142 241.072 3.28152 6.45272
  143 230.595 7.98215 -0.259952
  144 230.595 7.98215 -0.259952
  145 192.219 12.8038 -1.50580
  146 192.219 12.8038 -1.50580
  147 280.426 -10.0260 4.72130
  148 280.426 -10.0260 4.72130
  149 321.307 -11.7047 -11.5035
  150 321.307 -11.7047 -11.5035
  151 247.549 -27.4799 38.5210
  152 247.549 -27.4799 38.5210
  153 186.998 -50.6757 -86.1242
  154 186.998 -50.6757 -86.1242
  155 219.418 9.03953 13.4252
  156 219.418 9.03953 13.4252
  157 285.239 -1.82604 -10.9552
  158 285.239 -1.82604 -10.9552
  159 391.143 30.7987 21.6799
  160 391.143 30.7987 21.6799
  161 194.815 -54.0980 99.9078
  162 194.815 -54.0980 99.9078
  163 400.078 13.3972 -4.52617
  164 400.078 13.3972 -4.52617
  165 229.664 7.95284 6.28962
  166 229.664 7.95284 6.28962
  167 218.098 7.46483 -19.5900
  168 218.098 7.46483 -19.5900
  169 270.231 8.07190 6.46393
  170 270.231 8.07190 6.46393
  171 227.473 9.47849 -7.12949
  172 227.473 9.47849 -7.12949
  173 236.934 3.86186 1.05775
  174 236.934 3.86186 1.05775
  175 240.981 1.87400 -3.83409
  176 240.981 1.87400 -3.83409
  177 374.927 28.7552 -21.0361
  178 374.927 28.7552 -21.0361
  179 237.134 3.75672 -1.27822
  180 237.134 3.75672 -1.27822
  181 174.117 12.7213 -10.1542
  182 174.117 12.7213 -10.1542
  183 316.311 23.2860 2.49396
  184 316.311 23.2860 2.49396
  185 63.6276 -53.6265 -59.7216
  186 63.6276 -53.6265 -59.7216
  187 171.913 -1.92287 42.7654
  188 171.913 -1.92287 42.7654
  189 230.967 -37.0795 -59.8132
  190 230.967 -37.0795 -59.8132
  191 272.712 -7.44479 3.10382
  192 272.712 -7.44479 3.10382
  193 255.066 -0.818700 9.79309
  194 255.066 -0.818700 9.79309
  195 348.230 9.42942 19.5258
  196 348.230 9.42942 19.5258
  197 142.926 4.39918 -26.3557
  198 142.926 4.39918 -26.3557
  199 396.390 17.8683 10.3030
  200 396.390 17.8683 10.3030
  201 259.863 -3.13307 -10.1989
  202 259.863 -3.13307 -10.1989
  203 241.365 1.34017 3.53755
  204 241.365 1.34017 3.53755
  205 270.596 -10.5215 -5.00623
  206 270.596 -10.5215 -5.00623
  207 296.303 -15.0328 -1.18884
  208 296.303 -15.0328 -1.18884
  209 18.3810 -108.822 8.74955
  210 18.3810 -108.822 8.74955
  211 249.073 1.35813 -8.70326
  212 249.073 1.35813 -8.70326
  213 246.947 1.97662 7.62484
  214 246.947 1.97662 7.62484
  215 237.614 -21.7400 -38.2150
  216 237.614 -21.7400 -38.2150
  217 277.636 -5.88356 -6.78579
  218 277.636 -5.88356 -6.78579
  219 226.707 8.23888 -13.4290
  220 226.707 8.23888 -13.4290
  221 62.4912 -78.7748 65.2357
  222 62.4912 -78.7748 65.2357
  223 281.206 1.13184 10.3008
  224 281.206 1.13184 10.3008
  225 272.811 6.84369 -8.60577
  226 272.811 6.84369 -8.60577
  227 391.745 23.4341 -17.4615
  228 391.745 23.4341 -17.4615
  229 297.287 -11.1765 -5.67488
  230 297.287 -11.1765 -5.67488
  231 325.897 -15.8182 -55.8719
  232 325.897 -15.8182 -55.8719
  233 238.293 -10.7190 29.5696
  234 238.293 -10.7190 29.5696
  235 233.201 6.67481 1.06928
  236 233.201 6.67481 1.06928
  237 123.256 -18.3909 55.0139
  238 123.256 -18.3909 55.0139
  239 311.898 -27.7739 65.6777
  240 311.898 -27.7739 65.6777
  241 83.2813 -11.3725 -27.1210
  242 83.2813 -11.3725 -27.1210
  243 276.466 -20.6749 -12.9037
  244 276.466 -20.6749 -12.9037
  245 224.377 10.2032 7.79484
  246 224.377 10.2032 7.79484
  247 8.19305 -141.141 -7.05944
  248 8.19305 -141.141 -7.05944
  249 15.5157 -124.563 23.4585
  250 15.5157 -124.563 23.4585
  251 228.680 1.61022 21.3962
  252 228.680 1.61022 21.3962
  253 239.036 0.918910 0.879129
  254 239.036 0.918910 0.879129
  255 236.910 3.89364 0.166213
  256 236.910 3.89364 0.166213
  257 222.192 -2.73392 -28.3363
  258 222.192 -2.73392 -28.3363
  259 239.193 0.835285 -0.931048
  260 239.193 0.835285 -0.931048
  261 265.221 -18.5973 17.4669
  262 265.221 -18.5973 17.4669
  263 245.774 0.885816 -4.28466
  264 245.774 0.885816 -4.28466
  265 189.896 -16.0774 -52.3279
  266 189.896 -16.0774 -52.3279
  267 324.779 24.8419 -1.58901
  268 324.779 24.8419 -1.58901
  269 236.594 5.31607 -10.9982
  270 236.594 5.31607 -10.9982
  271 235.636 4.97738 -2.22664
  272 235.636 4.97738 -2.22664
  273 199.686 9.72181 -19.5413
  274 199.686 9.72181 -19.5413
  275 60.2071 -24.2226 15.5378
  276 60.2071 -24.2226 15.5378
  277 253.671 -41.8367 53.2927
  278 253.671 -41.8367 53.2927
  279 238.263 3.59221 4.34574
  280 238.263 3.59221 4.34574
  281 355.128 25.2295 -5.24487
  282 355.128 25.2295 -5.24487
  283 427.174 35.2572 48.9188
  284 427.174 35.2572 48.9188
  285 284.931 -30.1997 16.9836
  286 284.931 -30.1997 16.9836
  287 203.667 10.2236 14.3751
  288 203.667 10.2236 14.3751
  289 261.239 -51.6565 70.2211
  290 261.239 -51.6565 70.2211
  291 268.432 -3.11090 6.54543
  292 268.432 -3.11090 6.54543
  293 238.119 2.36810 1.19967
  294 238.119 2.36810 1.19967
  295 234.610 6.51446 -7.05379
  296 234.610 6.51446 -7.05379
  297 236.974 3.83070 -0.329419
  298 236.974 3.83070 -0.329419
  299 240.536 0.671737 -1.67563
  300 240.536 0.671737 -1.67563
  301 245.534 1.23831 4.30157
  302 245.534 1.23831 4.30157
  303 233.273 6.63843 -1.81838
  304 233.273 6.63843 -1.81838
  305 53.7020 -91.9702 -61.8905
  306 53.7020 -91.9702 -61.8905
  307 159.212 10.3075 13.2891
  308 159.212 10.3075 13.2891
  309 238.403 1.97409 -1.15370
  310 238.403 1.97409 -1.15370
  311 209.406 12.1364 -9.63624
  312 209.406 12.1364 -9.63624
  313 209.928 13.2360 3.68630
  314 209.928 13.2360 3.68630
  315 237.873 3.45427 -3.08535
  316 237.873 3.45427 -3.08535
  317 320.152 16.3500 -0.00360866
  318 320.152 16.3500 -0.00360866
  319 236.025 5.77303 9.66034
  320 236.025 5.77303 9.66034
  321 301.940 9.23064 -8.84412
  322 301.940 9.23064 -8.84412
  323 449.494 12.8310 29.9548
  324 449.494 12.8310 29.9548
  325 235.102 5.97918 6.10143
  326 235.102 5.97918 6.10143
  327 231.249 7.90798 3.19156
  328 231.249 7.90798 3.19156
  329 182.449 -41.5793 -98.5457
  330 182.449 -41.5793 -98.5457
  331 240.674 0.607545 1.63948
  332 240.674 0.607545 1.63948
  333 235.395 5.01703 1.66316
  334 235.395 5.01703 1.66316
  335 226.464 10.2301 0.365170
  336 226.464 10.2301 0.365170
  337 116.993 -41.5972 79.6200
  338 116.993 -41.5972 79.6200
  339 292.376 19.0729 1.55446
  340 292.376 19.0729 1.55446
  341 16.8873 -122.032 -27.3140
  342 16.8873 -122.032 -27.3140
  343 181.476 11.4623 11.8747
  344 181.476 11.4623 11.8747
  345 425.088 5.91518 4.23180
  346 425.088 5.91518 4.23180
  347 443.617 22.2710 -30.7560
  348 443.617 22.2710 -30.7560
  349 205.845 -23.7021 58.5360
  350 214.495 -12.2163 43.4902
  351 205.845 -23.7021 58.5360
  352 214.495 -12.2163 43.4902
  353 431.163 10.8932 15.7799
  354 431.163 10.8932 15.7799
  355 243.773 -0.307622 16.6963
  356 243.773 -0.307622 16.6963
  357 290.074 -39.0893 -40.9257
  358 290.074 -39.0893 -40.9257
  359 274.346 -2.40535 8.34308
  360 274.346 -2.40535 8.34308
  361 186.975 -41.4380 108.079
  362 186.975 -41.4380 108.079
  363 320.981 25.7776 -0.887495
  364 320.981 25.7776 -0.887495
  365 431.205 4.01903 -3.31329
  366 431.205 4.01903 -3.31329
  367 259.876 0.172340 -8.19444
  368 259.876 0.172340 -8.19444
  369 231.260 8.40504 -3.81691
  370 231.260 8.40504 -3.81691
  371 359.513 27.8721 8.60154
  372 359.513 27.8721 8.60154
  373 274.113 11.3861 -1.81872
  374 274.113 11.3861 -1.81872
  375 250.301 0.977826 -5.29320
  376 250.301 0.977826 -5.29320
  377 67.2442 -34.1200 -45.5562
  378 67.2442 -34.1200 -45.5562
  379 276.875 -4.96043 2.43897
  380 276.875 -4.96043 2.43897
  381 236.493 -0.340572 -19.6668
  382 236.493 -0.340572 -19.6668
  383 272.231 -0.594714 -9.93365
  384 272.231 -0.594714 -9.93365
  385 432.895 7.72447 -13.0979
  386 432.895 7.72447 -13.0979
  387 237.247 3.69984 2.44089
  388 237.247 3.69984 2.44089
  389 289.622 13.9907 8.44491
  390 289.622 13.9907 8.44491
  391 313.491 -7.13258 2.00167
  392 313.491 -7.13258 2.00167
  393 238.162 4.34559 -5.42640
  394 238.162 4.34559 -5.42640
  395 458.229 41.2660 -56.9163
  396 458.229 41.2660 -56.9163
  397 273.398 -3.92840 -2.72917
  398 273.398 -3.92840 -2.72917
</Section>

newXOutput 70

<Section columns = "stress_xx | stress_yy | stress_xy">
  1 242.005 0.234607 -0.280403
  2 242.111 0.292428 0.378309
  3 242.005 0.234607 -0.280403
  4 242.111 0.292428 0.378309
  5 376.872 21.8843 103.417
  6 391.842 21.0670 -101.712
  7 376.872 21.8843 103.417
  8 391.842 21.0670 -101.712
  9 242.628 0.166759 -0.734780
  10 244.699 0.296690 -1.30282
  11 247.683 0.676462 -2.63557
  12 254.524 0.258100 -3.52860
  13 263.257 0.438972 -5.73891
  14 273.400 -2.38353 -5.58275
  15 282.569 -2.89598 -0.537516
  16 277.716 -2.00886 4.89988
  17 266.604 2.02660 8.51426
  18 260.570 5.05915 -0.329766
  19 264.995 2.43635 -7.97638
  20 277.400 -2.97933 -5.97578
  21 279.954 -3.51378 1.75415
  22 274.832 -1.57781 4.80028
  23 261.398 0.115595 5.75962
  24 253.911 0.974520 4.46276
  25 247.854 0.776101 2.53444
  26 244.738 0.238380 1.19429
  27 242.761 0.196808 0.708631
  28 242.487 0.874375 0.442147
  29 242.035 1.79834 0.512409
  30 240.924 3.13169 0.454935
  31 240.479 3.64366 -0.0441405
  32 241.052 2.96992 -0.546424
  33 241.851 1.96049 -0.468118
  34 242.202 0.990267 -0.493028
  35 242.628 0.166759 -0.734780
  36 244.699 0.296690 -1.30282
  37 247.683 0.676462 -2.63557
  38 254.524 0.258100 -3.52860
  39 263.257 0.438972 -5.73891
  40 273.400 -2.38353 -5.58275
  41 282.569 -2.89598 -0.537516
  42 277.716 -2.00886 4.89988
  43 266.604 2.02660 8.51426
  44 260.570 5.05915 -0.329766
  45 264.995 2.43635 -7.97638
  46 277.400 -2.97933 -5.97578
  47 279.954 -3.51378 1.75415
  48 274.832 -1.57781 4.80028
  49 261.398 0.115595 5.75962
  50 253.911 0.974520 4.46276
  51 247.854 0.776101 2.53444
  52 244.738 0.238380 1.19429
  53 242.761 0.196808 0.708631
  54 242.487 0.874375 0.442147
  55 242.035 1.79834 0.512409
  56 240.924 3.13169 0.454935
  57 240.479 3.64366 -0.0441405
  58 241.052 2.96992 -0.546424
  59 241.851 1.96049 -0.468118
  60 242.202 0.990267 -0.493028
  61 523.437 26.7433 54.2788
  62 476.885 7.85071 19.4171
  63 449.319 3.35590 7.24067
  64 443.452 2.41327 1.45409
  65 449.111 3.17797 -6.19408
  66 470.037 6.75615 -16.9122
  67 528.325 23.2997 -46.7214
  68 69.1768 -78.8744 -83.7499
  69 13.6746 -175.052 -20.8407
  70 4.07257 -197.942 -9.12574
  71 3.88497 -194.266 -4.80610
  72 6.42993 -189.287 9.74878
  73 14.7815 -169.688 22.0352
  74 75.2246 -73.6813 92.9219
  75 523.437 26.7433 54.2788
  76 476.885 7.85071 19.4171
  77 449.319 3.35590 7.24067
  78 443.452 2.41327 1.45409
  79 449.111 3.17797 -6.19408
  80 470.037 6.75615 -16.9122
  81 528.325 23.2997 -46.7214
  82 69.1768 -78.8744 -83.7499
  83 13.6746 -175.052 -20.8407
  84 4.07257 -197.942 -9.12574
  85 3.88497 -194.266 -4.80610
  86 6.42993 -189.287 9.74878
  87 14.7815 -169.688 22.0352
  88 75.2246 -73.6813 92.9219
  89 221.990 12.7829 -3.33795
  90 221.990 12.7829 -3.33795
  91 202.643 2.79105 29.9600
  92 194.672 -1.23748 -35.6834
  93 202.643 2.79105 29.9600
  94 194.672 -1.23748 -35.6834
  95 114.096 2.69101 14.2775
  96 114.096 2.69101 14.2775
  97 298.491 19.1362 -4.89859
  98 304.561 10.7955 9.96300
  99 298.491 19.1362 -4.89859
  100 304.561 10.7955 9.96300
  101 238.476 5.82241 3.37311
  102 238.476 5.82241 3.37311
  103 285.967 -16.2584 -0.130115
  104 285.967 -16.2584 -0.130115
  105 238.782 6.08294 -4.15941
  106 238.782 6.08294 -4.15941
  107 281.314 -34.5705 -31.1638
  108 281.314 -34.5705 -31.1638
  109 196.272 -40.7098 78.2753
  110 196.272 -40.7098 78.2753
  111 132.125 -24.0130 -62.9943
  112 132.125 -24.0130 -62.9943
  113 239.795 4.07187 14.3094
  114 239.795 4.07187 14.3094
  115 248.720 1.73322 -13.6587
  116 248.720 1.73322 -13.6587
  117 338.358 22.4013 2.48275
  118 362.830 23.6455 1.94023
  119 338.358 22.4013 2.48275
  120 362.830 23.6455 1.94023
  121 355.091 29.7633 -8.58504
  122 355.091 29.7633 -8.58504
  123 38.5447 -64.0171 -20.3476
  124 38.5447 -64.0171 -20.3476
  125 305.925 -38.0941 33.3508
  126 305.925 -38.0941 33.3508
  127 257.290 -6.16591 15.9443
  128 257.290 -6.16591 15.9443
  129 58.6932 -55.3520 46.9236
  130 58.6932 -55.3520 46.9236
  131 238.828 4.86855 -0.214541
  132 238.828 4.86855 -0.214541
  133 256.918 -11.9217 -20.2722
  134 256.918 -11.9217 -20.2722
  135 242.731 1.99154 2.45241
  136 242.731 1.99154 2.45241
  137 242.959 1.74993 -2.28977
  138 242.959 1.74993 -2.28977
  139 245.670 3.41949 -7.25345
  140 245.670 3.41949 -7.25345
  141 244.517 3.32731 6.54151
  142 244.517 3.32731 6.54151
  143 233.900 8.09419 -0.263607
  144 233.900 8.09419 -0.263607
  145 194.993 12.9871 -1.52741
  146 194.993 12.9871 -1.52741
  147 284.419 -10.1680 4.77355
  148 284.419 -10.1680 4.77355
  149 325.854 -11.8538 -11.7036
  150 325.854 -11.8538 -11.7036
  151 251.074 -27.8747 39.0786
  152 251.074 -27.8747 39.0786
  153 189.660 -51.3931 -87.3921
  154 189.660 -51.3931 -87.3921
  155 222.568 9.16788 13.6143
  156 222.568 9.16788 13.6143
  157 289.303 -1.84916 -11.0928
  158 289.303 -1.84916 -11.0928
  159 396.652 31.2417 22.0074
  160 396.652 31.2417 22.0074
  161 197.587 -54.8695 101.371
  162 197.587 -54.8695 101.371
  163 405.695 13.5798 -4.59140
  164 405.695 13.5798 -4.59140
  165 232.956 8.06461 6.37679
  166 232.956 8.06461 6.37679
  167 221.228 7.57104 -19.8674
  168 221.228 7.57104 -19.8674
  169 274.104 8.19023 6.54895
  170 274.104 8.19023 6.54895
  171 230.735 9.61201 -7.22866
  172 230.735 9.61201 -7.22866
  173 240.324 3.91573 1.07210
  174 240.324 3.91573 1.07210
  175 244.424 1.90014 -3.88636
  176 244.424 1.90014 -3.88636
  177 380.214 29.1845 -21.3705
  178 380.214 29.1845 -21.3705
  179 240.526 3.80917 -1.29554
  180 240.526 3.80917 -1.29554
  181 176.636 12.9057 -10.2992
  182 176.636 12.9057 -10.2992
  183 320.813 23.6207 2.51216
  184 320.813 23.6207 2.51216
  185 64.5486 -54.3810 -60.6144
  186 64.5486 -54.3810 -60.6144
  187 174.391 -1.94814 43.3794
  188 174.391 -1.94814 43.3794
  189 234.256 -37.6126 -60.6821
  190 234.256 -37.6126 -60.6821
  191 276.595 -7.55222 3.15599
  192 276.595 -7.55222 3.15599
  193 258.701 -0.831610 9.93165
  194 258.701 -0.831610 9.93165
  195 353.148 9.58784 19.8436
  196 353.148 9.58784 19.8436
  197 145.000 4.46755 -26.7358
  198 145.000 4.46755 -26.7358
  199 401.963 18.1149 10.4535
  200 401.963 18.1149 10.4535
  201 263.565 -3.17920 -10.3458
  202 263.565 -3.17920 -10.3458
  203 244.813 1.35882 3.58573
  204 244.813 1.35882 3.58573
  205 274.448 -10.6734 -5.08630
  206 274.448 -10.6734 -5.08630
  207 300.510 -15.2422 -1.22967
  208 300.510 -15.2422 -1.22967
  209 18.6449 -110.386 8.88416
  210 18.6449 -110.386 8.88416
  211 252.626 1.37620 -8.82462
  212 252.626 1.37620 -8.82462
  213 250.471 2.00393 7.73067
  214 250.471 2.00393 7.73067
  215 241.004 -22.0523 -38.7670
  216 241.004 -22.0523 -38.7670
  217 281.594 -5.96762 -6.86945
  218 281.594 -5.96762 -6.86945
  219 229.957 8.35532 -13.6179
  220 229.957 8.35532 -13.6179
  221 63.3876 -79.8827 66.2177
  222 63.3876 -79.8827 66.2177
  223 285.220 1.15181 10.4318
  224 285.220 1.15181 10.4318
  225 276.717 6.94427 -8.71793
  226 276.717 6.94427 -8.71793
  227 397.259 23.7626 -17.7214
  228 397.259 23.7626 -17.7214
  229 301.510 -11.3306 -5.73143
  230 301.510 -11.3306 -5.73143
  231 330.491 -16.0067 -56.7135
  232 330.491 -16.0067 -56.7135
  233 241.695 -10.8727 29.9933
  234 241.695 -10.8727 29.9933
  235 236.541 6.76830 1.08395
  236 236.541 6.76830 1.08395
  237 125.039 -18.6499 55.8161
  238 125.039 -18.6499 55.8161
  239 316.294 -28.1408 66.6568
  240 316.294 -28.1408 66.6568
  241 84.4983 -11.5232 -27.5188
  242 84.4983 -11.5232 -27.5188
  243 280.395 -20.9710 -13.1010
  244 280.395 -20.9710 -13.1010
  245 227.596 10.3474 7.90376
  246 227.596 10.3474 7.90376
  247 8.30648 -143.183 -7.16968
  248 8.30648 -143.183 -7.16968
  249 15.7369 -126.353 23.8234
  250 15.7369 -126.353 23.8234
  251 231.955 1.63280 21.6997
  252 231.955 1.63280 21.6997
  253 242.453 0.931827 0.890965
  254 242.453 0.931827 0.890965
  255 240.299 3.94787 0.168476
  256 240.299 3.94787 0.168476
  257 225.375 -2.77338 -28.7408
  258 225.375 -2.77338 -28.7408
  259 242.612 0.847067 -0.943588
  260 242.612 0.847067 -0.943588
  261 268.996 -18.8641 17.7252
  262 268.996 -18.8641 17.7252
  263 249.281 0.898009 -4.34326
  264 249.281 0.898009 -4.34326
  265 192.621 -16.3081 -53.0823
  266 192.621 -16.3081 -53.0823
  267 329.397 25.1976 -1.59445
  268 329.397 25.1976 -1.59445
  269 239.978 5.39043 -11.1516
  270 239.978 5.39043 -11.1516
  271 239.009 5.04697 -2.25698
  272 239.009 5.04697 -2.25698
  273 202.561 9.86132 -19.8189
  274 202.561 9.86132 -19.8189
  275 61.0886 -24.5531 15.7681
  276 61.0886 -24.5531 15.7681
  277 257.273 -42.4376 54.0689
  278 257.273 -42.4376 54.0689
  279 241.670 3.64244 4.40511
  280 241.670 3.64244 4.40511
  281 360.156 25.5839 -5.32836
  282 360.156 25.5839 -5.32836
  283 433.154 35.7882 49.6413
  284 433.154 35.7882 49.6413
  285 288.973 -30.6298 17.2454
  286 288.973 -30.6298 17.2454
  287 206.599 10.3699 14.5783
  288 206.599 10.3699 14.5783
  289 264.938 -52.3961 71.2461
  290 264.938 -52.3961 71.2461
  291 272.252 -3.15641 6.64091
  292 272.252 -3.15641 6.64091
  293 241.524 2.40117 1.21589
  294 241.524 2.40117 1.21589
  295 237.968 6.60584 -7.15118
  296 237.968 6.60584 -7.15118
  297 240.364 3.88407 -0.333876
  298 240.364 3.88407 -0.333876
  299 243.972 0.681159 -1.69829
  300 243.972 0.681159 -1.69829
  301 249.038 1.25546 4.36040
  302 249.038 1.25546 4.36040
  303 236.614 6.73143 -1.84333
  304 236.614 6.73143 -1.84333
  305 54.4707 -93.2622 -62.8262
  306 54.4707 -93.2622 -62.8262
  307 161.520 10.4588 13.4790
  308 161.520 10.4588 13.4790
  309 241.811 2.00172 -1.16927
  310 241.811 2.00172 -1.16927
  311 212.418 12.3090 -9.77229
  312 212.418 12.3090 -9.77229
  313 212.948 13.4243 3.73803
  314 212.948 13.4243 3.73803
  315 241.275 3.50257 -3.12736
  316 241.275 3.50257 -3.12736
  317 324.698 16.5955 -0.0348289
  318 324.698 16.5955 -0.0348289
  319 239.403 5.85400 9.79447
  320 239.403 5.85400 9.79447
  321 306.238 9.36892 -8.94674
  322 306.238 9.36892 -8.94674
  323 455.763 13.0072 30.3817
  324 455.763 13.0072 30.3817
  325 238.467 6.06299 6.18547
  326 238.467 6.06299 6.18547
  327 234.562 8.01897 3.23553
  328 234.562 8.01897 3.23553
  329 185.031 -42.1049 -100.012
  330 185.031 -42.1049 -100.012
  331 244.113 0.616058 1.66164
  332 244.113 0.616058 1.66164
  333 238.765 5.08714 1.68584
  334 238.765 5.08714 1.68584
  335 229.712 10.3743 0.370212
  336 229.712 10.3743 0.370212
  337 118.678 -42.1906 80.7932
  338 118.678 -42.1906 80.7932
  339 296.553 19.3475 1.57259
  340 296.553 19.3475 1.57259
  341 17.1262 -123.783 -27.7342
  342 17.1262 -123.783 -27.7342
  343 184.099 11.6277 12.0433
  344 184.099 11.6277 12.0433
  345 431.022 5.99451 4.28954
  346 431.022 5.99451 4.28954
  347 449.816 22.5886 -31.1977
  348 449.816 22.5886 -31.1977
  349 208.788 -24.0432 59.3802
  350 217.565 -12.3914 44.1130
  351 208.788 -24.0432 59.3802
  352 217.565 -12.3914 44.1130
  353 437.184 11.0411 16.0014
  354 437.184 11.0411 16.0014
  355 247.255 -0.313007 16.9330
  356 247.255 -0.313007 16.9330
  357 294.178 -39.6438 -41.5337
  358 294.178 -39.6438 -41.5337
  359 278.262 -2.43865 8.45146
  360 278.262 -2.43865 8.45146
  361 189.611 -41.9656 109.680
  362 189.611 -41.9656 109.680
  363 325.551 26.1436 -0.899440
  364 325.551 26.1436 -0.899440
  365 437.215 4.07256 -3.35931
  366 437.215 4.07256 -3.35931
  367 263.576 0.173554 -8.30976
  368 263.576 0.173554 -8.30976
  369 234.573 8.52313 -3.86959
  370 234.573 8.52313 -3.86959
  371 364.601 28.2677 8.74118
  372 364.601 28.2677 8.74118
  373 278.040 11.5511 -1.84247
  374 278.040 11.5511 -1.84247
  375 253.869 0.991030 -5.36618
  376 253.869 0.991030 -5.36618
  377 68.2284 -34.5969 -46.2323
  378 68.2284 -34.5969 -46.2323
  379 280.818 -5.03170 2.46580
  380 280.818 -5.03170 2.46580
  381 239.874 -0.346454 -19.9466
  382 239.874 -0.346454 -19.9466
  383 276.123 -0.602319 -10.0635
  384 276.123 -0.602319 -10.0635
  385 438.937 7.82988 -13.2808
  386 438.937 7.82988 -13.2808
  387 240.641 3.75151 2.47409
  388 240.641 3.75151 2.47409
  389 293.757 14.1947 8.55010
  390 293.757 14.1947 8.55010
  391 317.934 -7.22270 2.06154
  392 317.934 -7.22270 2.06154
  393 241.568 4.40640 -5.50078
  394 241.568 4.40640 -5.50078
  395 464.622 41.8929 -57.7522
  396 464.622 41.8929 -57.7522
  397 277.286 -3.98578 -2.77175
  398 277.286 -3.98578 -2.77175
</Section>

newXOutput 71

<Section columns = "stress_xx | stress_yy | stress_xy">
  1 245.414 0.237951 -0.284095
  2 245.521 0.296556 0.383285
  3 245.414 0.237951 -0.284095
  4 245.521 0.296556 0.383285
  5 382.048 22.2827 104.915
  6 397.215 21.4579 -103.187
  7 382.048 22.2827 104.915
  8 397.215 21.4579 -103.187
  9 246.045 0.169097 -0.744487
  10 248.143 0.300805 -1.32011
  11 251.166 0.685737 -2.67080
  12 258.097 0.261496 -3.57614
  13 266.946 0.444423 -5.81748
  14 277.227 -2.41831 -5.66122
  15 286.526 -2.93752 -0.548356
  16 281.620 -2.03707 4.96178
  17 270.370 2.05685 8.62525
  18 264.261 5.13239 -0.334130
  19 268.740 2.47132 -8.08083
  20 281.300 -3.02139 -6.05115
  21 283.876 -3.56425 1.78269
  22 278.679 -1.60073 4.86806
  23 265.064 0.116303 5.83881
  24 257.477 0.987683 4.52305
  25 251.340 0.786748 2.56828
  26 248.182 0.241690 1.21013
  27 246.179 0.199578 0.718016
  28 245.901 0.886480 0.447955
  29 245.444 1.82312 0.519185
  30 244.318 3.17466 0.460978
  31 243.868 3.69358 -0.0447257
  32 244.448 3.01070 -0.553659
  33 245.257 1.98750 -0.474249
  34 245.613 1.00401 -0.499553
  35 246.045 0.169097 -0.744487
  36 248.143 0.300805 -1.32011
  37 251.166 0.685737 -2.67080
  38 258.097 0.261496 -3.57614
  39 266.946 0.444423 -5.81748
  40 277.227 -2.41831 -5.66122
  41 286.526 -2.93752 -0.548356
  42 281.620 -2.03707 4.96178
  43 270.370 2.05685 8.62525
  44 264.261 5.13239 -0.334130
  45 268.740 2.47132 -8.08083
  46 281.300 -3.02139 -6.05115
  47 283.876 -3.56425 1.78269
  48 278.679 -1.60073 4.86806
  49 265.064 0.116303 5.83881
  50 257.477 0.987683 4.52305
  51 251.340 0.786748 2.56828
  52 248.182 0.241690 1.21013
  53 246.179 0.199578 0.718016
  54 245.901 0.886480 0.447955
  55 245.444 1.82312 0.519185
  56 244.318 3.17466 0.460978
  57 243.868 3.69358 -0.0447257
  58 244.448 3.01070 -0.553659
  59 245.257 1.98750 -0.474249
  60 245.613 1.00401 -0.499553
  61 530.572 27.1247 55.0360
  62 483.397 7.95635 19.6817
  63 455.470 3.39866 7.33733
  64 449.526 2.44446 1.47243
  65 455.259 3.21963 -6.27642
  66 476.461 6.84639 -17.1409
  67 535.527 23.6313 -47.3738
  68 70.1441 -79.8979 -84.9900
  69 13.8660 -177.539 -21.1697
  70 4.12280 -200.797 -9.26910
  71 3.93310 -197.073 -4.87545
  72 6.51549 -192.011 9.90238
  73 14.9903 -172.097 22.3841
  74 76.2697 -74.6309 94.2945
  75 530.572 27.1247 55.0360
  76 483.397 7.95635 19.6817
  77 455.470 3.39866 7.33733
  78 449.526 2.44446 1.47243
  79 455.259 3.21963 -6.27642
  80 476.461 6.84639 -17.1409
  81 535.527 23.6313 -47.3738
  82 70.1441 -79.8979 -84.9900
  83 13.8660 -177.539 -21.1697
  84 4.12280 -200.797 -9.26910
  85 3.93310 -197.073 -4.87545
  86 6.51549 -192.011 9.90238
  87 14.9903 -172.097 22.3841
  88 76.2697 -74.6309 94.2945
  89 225.132 12.9612 -3.38408
  90 225.132 12.9612 -3.38408
  91 205.514 2.83134 30.3804
  92 197.431 -1.25393 -36.1864
  93 205.514 2.83134 30.3804
  94 197.431 -1.25393 -36.1864
  95 115.737 2.73793 14.4810
  96 115.737 2.73793 14.4810
  97 302.690 19.4079 -4.95759
  98 308.833 10.9542 10.0787
  99 302.690 19.4079 -4.95759
  100 308.833 10.9542 10.0787
  101 241.839 5.90266 3.41858
  102 241.839 5.90266 3.41858
  103 289.974 -16.4865 -0.114571
  104 289.974 -16.4865 -0.114571
  105 242.148 6.16688 -4.21556
  106 242.148 6.16688 -4.21556
  107 285.244 -35.0579 -31.6168
  108 285.244 -35.0579 -31.6168
  109 199.034 -41.2873 79.3962
  110 199.034 -41.2873 79.3962
  111 134.003 -24.3487 -63.9008
  112 134.003 -24.3487 -63.9008
  113 243.174 4.12777 14.5073
  114 243.174 4.12777 14.5073
  115 252.219 1.75606 -13.8484
  116 252.219 1.75606 -13.8484
  117 343.086 22.7259 2.54877
  118 367.887 23.9707 1.97240
  119 343.086 22.7259 2.54877
  120 367.887 23.9707 1.97240
  121 360.048 30.1857 -8.72978
  122 360.048 30.1857 -8.72978
  123 39.0968 -64.9076 -20.6504
  124 39.0968 -64.9076 -20.6504
  125 310.186 -38.6207 33.8483
  126 310.186 -38.6207 33.8483
  127 260.904 -6.25383 16.1708
  128 260.904 -6.25383 16.1708
  129 59.5341 -56.1194 47.6167
  130 59.5341 -56.1194 47.6167
  131 242.195 4.93550 -0.217392
  132 242.195 4.93550 -0.217392
  133 260.526 -12.0908 -20.5620
  134 260.526 -12.0908 -20.5620
  135 246.149 2.01898 2.48514
  136 246.149 2.01898 2.48514
  137 246.380 1.77410 -2.32029
  138 246.380 1.77410 -2.32029
  139 249.127 3.46636 -7.35198
  140 249.127 3.46636 -7.35198
  141 247.959 3.37304 6.63013
  142 247.959 3.37304 6.63013
  143 237.202 8.20607 -0.267258
  144 237.202 8.20607 -0.267258
  145 197.765 13.1702 -1.54901
  146 197.765 13.1702 -1.54901
  147 288.408 -10.3098 4.82534
  148 288.408 -10.3098 4.82534
  149 330.395 -12.0023 -11.9045
  150 330.395 -12.0023 -11.9045
  151 254.595 -28.2693 39.6359
  152 254.595 -28.2693 39.6359
  153 192.320 -52.1097 -88.6601
  154 192.320 -52.1097 -88.6601
  155 225.716 9.29611 13.8031
  156 225.716 9.29611 13.8031
  157 293.363 -1.87217 -11.2297
  158 293.363 -1.87217 -11.2297
  159 402.153 31.6845 22.3351
  160 402.153 31.6845 22.3351
  161 200.355 -55.6403 102.835
  162 200.355 -55.6403 102.835
  163 411.304 13.7621 -4.65658
  164 411.304 13.7621 -4.65658
  165 236.245 8.17624 6.46381
  166 236.245 8.17624 6.46381
  167 224.356 7.67715 -20.1444
  168 224.356 7.67715 -20.1444
  169 277.973 8.30854 6.63370
  170 277.973 8.30854 6.63370
  171 233.994 9.74537 -7.32767
  172 233.994 9.74537 -7.32767
  173 243.710 3.96952 1.08642
  174 243.710 3.96952 1.08642
  175 247.864 1.92625 -3.93852
  176 247.864 1.92625 -3.93852
  177 385.494 29.6140 -21.7055
  178 385.494 29.6140 -21.7055
  179 243.915 3.86155 -1.31282
  180 243.915 3.86155 -1.31282
  181 179.153 13.0900 -10.4441
  182 179.153 13.0900 -10.4441
  183 325.311 23.9551 2.52987
  184 325.311 23.9551 2.52987
  185 65.4692 -55.1346 -61.5076
  186 65.4692 -55.1346 -61.5076
  187 176.868 -1.97333 43.9929
  188 176.868 -1.97333 43.9929
  189 237.541 -38.1455 -61.5507
  190 237.541 -38.1455 -61.5507
  191 280.474 -7.65958 3.20834
  192 280.474 -7.65958 3.20834
  193 262.333 -0.844544 10.0701
  194 262.333 -0.844544 10.0701
  195 358.060 9.74681 20.1623
  196 358.060 9.74681 20.1623
  197 147.072 4.53602 -27.1156
  198 147.072 4.53602 -27.1156
  199 407.528 18.3611 10.6039
  200 407.528 18.3611 10.6039
  201 267.264 -3.22533 -10.4926
  202 267.264 -3.22533 -10.4926
  203 248.259 1.37744 3.63381
  204 248.259 1.37744 3.63381
  205 278.296 -10.8252 -5.16654
  206 278.296 -10.8252 -5.16654
  207 304.713 -15.4513 -1.27113
  208 304.713 -15.4513 -1.27113
  209 18.9085 -111.949 9.01894
  210 18.9085 -111.949 9.01894
  211 256.176 1.39421 -8.94580
  212 256.176 1.39421 -8.94580
  213 253.992 2.03119 7.83631
  214 253.992 2.03119 7.83631
  215 244.390 -22.3643 -39.3186
  216 244.390 -22.3643 -39.3186
  217 285.547 -6.05161 -6.95267
  218 285.547 -6.05161 -6.95267
  219 233.204 8.47163 -13.8066
  220 233.204 8.47163 -13.8066
  221 64.2834 -80.9891 67.2002
  222 64.2834 -80.9891 67.2002
  223 289.230 1.17188 10.5622
  224 289.230 1.17188 10.5622
  225 280.619 7.04485 -8.82970
  226 280.619 7.04485 -8.82970
  227 402.766 24.0908 -17.9813
  228 402.766 24.0908 -17.9813
  229 305.728 -11.4845 -5.78725
  230 305.728 -11.4845 -5.78725
  231 335.079 -16.1939 -57.5555
  232 335.079 -16.1939 -57.5555
  233 245.095 -11.0264 30.4168
  234 245.095 -11.0264 30.4168
  235 239.878 6.86167 1.09860
  236 239.878 6.86167 1.09860
  237 126.821 -18.9086 56.6180
  238 126.821 -18.9086 56.6180
  239 320.685 -28.5064 67.6363
  240 320.685 -28.5064 67.6363
  241 85.7151 -11.6735 -27.9165
  242 85.7151 -11.6735 -27.9165
  243 284.321 -21.2669 -13.2985
  244 284.321 -21.2669 -13.2985
  245 230.812 10.4914 8.01252
  246 230.812 10.4914 8.01252
  247 8.41971 -145.225 -7.28010
  248 8.41971 -145.225 -7.28010
  249 15.9579 -128.141 24.1888
  250 15.9579 -128.141 24.1888
  251 235.227 1.65534 22.0030
  252 235.227 1.65534 22.0030
  253 245.868 0.944727 0.902772
  254 245.868 0.944727 0.902772
  255 243.686 4.00201 0.170733
  256 243.686 4.00201 0.170733
  257 228.556 -2.81281 -29.1449
  258 228.556 -2.81281 -29.1449
  259 246.028 0.858835 -0.956096
  260 246.028 0.858835 -0.956096
  261 272.766 -19.1307 17.9835
  262 272.766 -19.1307 17.9835
  263 252.785 0.910178 -4.40174
  264 252.785 0.910178 -4.40174
  265 195.343 -16.5387 -53.8363
  266 195.343 -16.5387 -53.8363
  267 334.011 25.5531 -1.59941
  268 334.011 25.5531 -1.59941
  269 243.361 5.46470 -11.3048
  270 243.361 5.46470 -11.3048
  271 242.378 5.11646 -2.28726
  272 242.378 5.11646 -2.28726
  273 205.435 10.0007 -20.0962
  274 205.435 10.0007 -20.0962
  275 61.9701 -24.8829 15.9985
  276 61.9701 -24.8829 15.9985
  277 260.872 -43.0382 54.8449
  278 260.872 -43.0382 54.8449
  279 245.075 3.69259 4.46436
  280 245.075 3.69259 4.46436
  281 365.180 25.9378 -5.41202
  282 365.180 25.9378 -5.41202
  283 439.125 36.3195 50.3639
  284 439.125 36.3195 50.3639
  285 293.011 -31.0595 17.5075
  286 293.011 -31.0595 17.5075
  287 209.529 10.5159 14.7813
  288 209.529 10.5159 14.7813
  289 268.634 -53.1352 72.2708
  290 268.634 -53.1352 72.2708
  291 276.068 -3.20191 6.73636
  292 276.068 -3.20191 6.73636
  293 244.926 2.43420 1.23207
  294 244.926 2.43420 1.23207
  295 241.324 6.69708 -7.24841
  296 241.324 6.69708 -7.24841
  297 243.752 3.93734 -0.338321
  298 243.752 3.93734 -0.338321
  299 247.406 0.690568 -1.72089
  300 247.406 0.690568 -1.72089
  301 252.539 1.27258 4.41911
  302 252.539 1.27258 4.41911
  303 239.952 6.82430 -1.86824
  304 239.952 6.82430 -1.86824
  305 55.2389 -94.5525 -63.7627
  306 55.2389 -94.5525 -63.7627
  307 163.826 10.6100 13.6688
  308 163.826 10.6100 13.6688
  309 245.217 2.02930 -1.18481
  310 245.217 2.02930 -1.18481
  311 215.429 12.4815 -9.90819
  312 215.429 12.4815 -9.90819
  313 215.967 13.6123 3.78970
  314 215.967 13.6123 3.78970
  315 244.674 3.55079 -3.16929
  316 244.674 3.55079 -3.16929
  317 329.238 16.8411 -0.0668869
  318 329.238 16.8411 -0.0668869
  319 242.777 5.93485 9.92837
  320 242.777 5.93485 9.92837
  321 310.531 9.50727 -9.04862
  322 310.531 9.50727 -9.04862
  323 462.022 13.1831 30.8083
  324 462.022 13.1831 30.8083
  325 241.829 6.14670 6.26936
  326 241.829 6.14670 6.26936
  327 237.873 8.12981 3.27941
  328 237.873 8.12981 3.27941
  329 187.610 -42.6281 -101.478
  330 187.610 -42.6281 -101.478
  331 247.549 0.624561 1.68375
  332 247.549 0.624561 1.68375
  333 242.131 5.15714 1.70847
  334 242.131 5.15714 1.70847
  335 232.958 10.5182 0.375245
  336 232.958 10.5182 0.375245
  337 120.363 -42.7834 81.9664
  338 120.363 -42.7834 81.9664
  339 300.727 19.6220 1.59060
  340 300.727 19.6220 1.59060
  341 17.3648 -125.534 -28.1550
  342 17.3648 -125.534 -28.1550
  343 186.720 11.7930 12.2117
  344 186.720 11.7930 12.2117
  345 436.947 6.07364 4.34716
  346 436.947 6.07364 4.34716
  347 456.007 22.9059 -31.6389
  348 456.007 22.9059 -31.6389
  349 211.728 -24.3840 60.2239
  350 220.633 -12.5664 44.7353
  351 211.728 -24.3840 60.2239
  352 220.633 -12.5664 44.7353
  353 443.196 11.1887 16.2226
  354 443.196 11.1887 16.2226
  355 250.734 -0.318416 17.1694
  356 250.734 -0.318416 17.1694
  357 298.276 -40.1978 -42.1419
  358 298.276 -40.1978 -42.1419
  359 282.176 -2.47188 8.55944
  360 282.176 -2.47188 8.55944
  361 192.245 -42.4909 111.281
  362 192.245 -42.4909 111.281
  363 330.116 26.5091 -0.911353
  364 330.116 26.5091 -0.911353
  365 443.217 4.12593 -3.40525
  366 443.217 4.12593 -3.40525
  367 267.272 0.174732 -8.42493
  368 267.272 0.174732 -8.42493
  369 237.884 8.64105 -3.92218
  370 237.884 8.64105 -3.92218
  371 369.683 28.6629 8.88116
  372 369.683 28.6629 8.88116
  373 281.963 11.7160 -1.86613
  374 281.963 11.7160 -1.86613
  375 257.435 1.00420 -5.43903
  376 257.435 1.00420 -5.43903
  377 69.2125 -35.0730 -46.9086
  378 69.2125 -35.0730 -46.9086
  379 284.756 -5.10292 2.49239
  380 284.756 -5.10292 2.49239
  381 243.253 -0.352359 -20.2260
  382 243.253 -0.352359 -20.2260
  383 280.012 -0.609891 -10.1930
  384 280.012 -0.609891 -10.1930
  385 444.970 7.93507 -13.4634
  386 444.970 7.93507 -13.4634
  387 244.032 3.80311 2.50721
  388 244.032 3.80311 2.50721
  389 297.887 14.3987 8.65477
  390 297.887 14.3987 8.65477
  391 322.371 -7.31240 2.12224
  392 322.371 -7.31240 2.12224
  393 244.971 4.46712 -5.57501
  394 244.971 4.46712 -5.57501
  395 471.006 42.5202 -58.5880
  396 471.006 42.5202 -58.5880
  397 281.171 -4.04315 -2.81439
  398 281.171 -4.04315 -2.81439
</Section>

newXOutput 72

<Section columns = "stress_xx | stress_yy | stress_xy">
  1 248.819 0.241293 -0.287778
  2 248.928 0.300681 0.388247
  3 248.819 0.241293 -0.287778
  4 248.928 0.300681 0.388247
  5 387.216 22.6834 106.413
  6 402.579 21.8512 -104.661
  7 387.216 22.6834 106.413
  8 402.579 21.8512 -104.661
  9 249.458 0.171433 -0.754168
  10 251.583 0.304914 -1.33737
  11 254.646 0.694997 -2.70595
  12 261.667 0.264883 -3.62359
  13 270.633 0.449849 -5.89592
  14 281.051 -2.45309 -5.73961
  15 290.478 -2.97904 -0.559277
  16 285.520 -2.06527 5.02343
  17 274.133 2.08713 8.73591
  18 267.949 5.20562 -0.338483
  19 272.483 2.50629 -8.18499
  20 285.197 -3.06343 -6.12622
  21 287.793 -3.61472 1.81132
  22 282.523 -1.62365 4.93580
  23 268.727 0.116985 5.91787
  24 261.039 1.00082 4.58322
  25 254.822 0.797378 2.60204
  26 251.623 0.244997 1.22592
  27 249.595 0.202347 0.727377
  28 249.313 0.898570 0.453747
  29 248.850 1.84786 0.525944
  30 247.710 3.21755 0.467007
  31 247.254 3.74343 -0.0453094
  32 247.842 3.05141 -0.560876
  33 248.661 2.01448 -0.480362
  34 249.021 1.01774 -0.506062
  35 249.458 0.171433 -0.754168
  36 251.583 0.304914 -1.33737
  37 254.646 0.694997 -2.70595
  38 261.667 0.264883 -3.62359
  39 270.633 0.449849 -5.89592
  40 281.051 -2.45309 -5.73961
  41 290.478 -2.97904 -0.559277
  42 285.520 -2.06527 5.02343
  43 274.133 2.08713 8.73591
  44 267.949 5.20562 -0.338483
  45 272.483 2.50629 -8.18499
  46 285.197 -3.06343 -6.12622
  47 287.793 -3.61472 1.81132
  48 282.523 -1.62365 4.93580
  49 268.727 0.116985 5.91787
  50 261.039 1.00082 4.58322
  51 254.822 0.797378 2.60204
  52 251.623 0.244997 1.22592
  53 249.595 0.202347 0.727377
  54 249.313 0.898570 0.453747
  55 248.850 1.84786 0.525944
  56 247.710 3.21755 0.467007
  57 247.254 3.74343 -0.0453094
  58 247.842 3.05141 -0.560876
  59 248.661 2.01448 -0.480362
  60 249.021 1.01774 -0.506062
  61 537.694 27.5059 55.7924
  62 489.899 8.06177 19.9459
  63 461.612 3.44126 7.43377
  64 455.590 2.47556 1.49070
  65 461.397 3.26118 -6.35857
  66 482.876 6.93642 -17.3692
  67 542.717 23.9628 -48.0254
  68 71.1103 -80.9180 -86.2308
  69 14.0572 -180.024 -21.4994
  70 4.17279 -203.653 -9.41277
  71 3.98101 -199.880 -4.94480
  72 6.60085 -194.735 10.0563
  73 15.1989 -174.505 22.7339
  74 77.3135 -75.5773 95.6678
  75 537.694 27.5059 55.7924
  76 489.899 8.06177 19.9459
  77 461.612 3.44126 7.43377
  78 455.590 2.47556 1.49070
  79 461.397 3.26118 -6.35857
  80 482.876 6.93642 -17.3692
  81 542.717 23.9628 -48.0254
  82 71.1103 -80.9180 -86.2308
  83 14.0572 -180.024 -21.4994
  84 4.17279 -203.653 -9.41277
  85 3.98101 -199.880 -4.94480
  86 6.60085 -194.735 10.0563
  87 15.1989 -174.505 22.7339
  88 77.3135 -75.5773 95.6678
  89 228.271 13.1392 -3.43014
  90 228.271 13.1392 -3.43014
  91 208.383 2.87162 30.8004
  92 200.188 -1.27033 -36.6890
  93 208.383 2.87162 30.8004
  94 200.188 -1.27033 -36.6890
  95 117.377 2.78506 14.6845
  96 117.377 2.78506 14.6845
  97 306.886 19.6795 -5.01627
  98 313.101 11.1131 10.1936
  99 306.886 19.6795 -5.01627
  100 313.101 11.1131 10.1936
  101 245.199 5.98280 3.46395
  102 245.199 5.98280 3.46395
  103 293.977 -16.7144 -0.0985614
  104 293.977 -16.7144 -0.0985614
  105 245.512 6.25071 -4.27159
  106 245.512 6.25071 -4.27159
  107 289.171 -35.5451 -32.0699
  108 289.171 -35.5451 -32.0699
  109 201.794 -41.8644 80.5167
  110 201.794 -41.8644 80.5167
  111 135.880 -24.6841 -64.8071
  112 135.880 -24.6841 -64.8071
  113 246.551 4.18358 14.7049
  114 246.551 4.18358 14.7049
  115 255.715 1.77883 -14.0379
  116 255.715 1.77883 -14.0379
  117 347.810 23.0504 2.61557
  118 372.940 24.2953 2.00468
  119 347.810 23.0504 2.61557
  120 372.940 24.2953 2.00468
  121 364.999 30.6079 -8.87504
  122 364.999 30.6079 -8.87504
  123 39.6488 -65.7970 -20.9535
  124 39.6488 -65.7970 -20.9535
  125 314.442 -39.1466 34.3461
  126 314.442 -39.1466 34.3461
  127 264.515 -6.34172 16.3971
  128 264.515 -6.34172 16.3971
  129 60.3747 -56.8859 48.3102
  130 60.3747 -56.8859 48.3102
  131 245.560 5.00235 -0.220236
  132 245.560 5.00235 -0.220236
  133 264.130 -12.2598 -20.8517
  134 264.130 -12.2598 -20.8517
  135 249.564 2.04639 2.51781
  136 249.564 2.04639 2.51781
  137 249.798 1.79823 -2.35074
  138 249.798 1.79823 -2.35074
  139 252.582 3.51316 -7.45034
  140 252.582 3.51316 -7.45034
  141 251.399 3.41869 6.71857
  142 251.399 3.41869 6.71857
  143 240.502 8.31781 -0.270904
  144 240.502 8.31781 -0.270904
  145 200.537 13.3532 -1.57059
  146 200.537 13.3532 -1.57059
  147 292.394 -10.4515 4.87666
  148 292.394 -10.4515 4.87666
  149 334.931 -12.1502 -12.1062
  150 334.931 -12.1502 -12.1062
  151 258.113 -28.6636 40.1930
  152 258.113 -28.6636 40.1930
  153 194.976 -52.8255 -89.9281
  154 194.976 -52.8255 -89.9281
  155 228.861 9.42420 13.9917
  156 228.861 9.42420 13.9917
  157 297.420 -1.89508 -11.3660
  158 297.420 -1.89508 -11.3660
  159 407.648 32.1270 22.6630
  160 407.648 32.1270 22.6630
  161 203.121 -56.4105 104.298
  162 203.121 -56.4105 104.298
  163 416.905 13.9440 -4.72172
  164 416.905 13.9440 -4.72172
  165 239.532 8.28772 6.55069
  166 239.532 8.28772 6.55069
  167 227.482 7.78316 -20.4212
  168 227.482 7.78316 -20.4212
  169 281.840 8.42685 6.71817
  170 281.840 8.42685 6.71817
  171 237.251 9.87856 -7.42652
  172 237.251 9.87856 -7.42652
  173 247.095 4.02323 1.10071
  174 247.095 4.02323 1.10071
  175 251.301 1.95231 -3.99057
  176 251.301 1.95231 -3.99057
  177 390.768 30.0437 -22.0412
  178 390.768 30.0437 -22.0412
  179 247.302 3.91384 -1.33006
  180 247.302 3.91384 -1.33006
  181 181.670 13.2743 -10.5889
  182 181.670 13.2743 -10.5889
  183 329.805 24.2894 2.54708
  184 329.805 24.2894 2.54708
  185 66.3894 -55.8873 -62.4013
  186 66.3894 -55.8873 -62.4013
  187 179.343 -1.99844 44.6061
  188 179.343 -1.99844 44.6061
  189 240.824 -38.6779 -62.4190
  190 240.824 -38.6779 -62.4190
  191 284.350 -7.76689 3.26086
  192 284.350 -7.76689 3.26086
  193 265.962 -0.857502 10.2083
  194 265.962 -0.857502 10.2083
  195 362.967 9.90633 20.4817
  196 362.967 9.90633 20.4817
  197 149.143 4.60459 -27.4953
  198 149.143 4.60459 -27.4953
  199 413.086 18.6069 10.7544
  200 413.086 18.6069 10.7544
  201 270.959 -3.27146 -10.6393
  202 270.959 -3.27146 -10.6393
  203 251.701 1.39603 3.68178
  204 251.701 1.39603 3.68178
  205 282.142 -10.9769 -5.24695
  206 282.142 -10.9769 -5.24695
  207 308.912 -15.6601 -1.31323
  208 308.912 -15.6601 -1.31323
  209 19.1721 -113.511 9.15389
  210 19.1721 -113.511 9.15389
  211 259.723 1.41218 -9.06679
  212 259.723 1.41218 -9.06679
  213 257.510 2.05840 7.94179
  214 257.510 2.05840 7.94179
  215 247.774 -22.6762 -39.8700
  216 247.774 -22.6762 -39.8700
  217 289.498 -6.13552 -7.03544
  218 289.498 -6.13552 -7.03544
  219 236.449 8.58782 -13.9951
  220 236.449 8.58782 -13.9951
  221 65.1786 -82.0941 68.1834
  222 65.1786 -82.0941 68.1834
  223 293.237 1.19204 10.6920
  224 293.237 1.19204 10.6920
  225 284.519 7.14543 -8.94107
  226 284.519 7.14543 -8.94107
  227 408.266 24.4185 -18.2413
  228 408.266 24.4185 -18.2413
  229 309.942 -11.6380 -5.84234
  230 309.942 -11.6380 -5.84234
  231 339.661 -16.3800 -58.3980
  232 339.661 -16.3800 -58.3980
  233 248.491 -11.1799 30.8399
  234 248.491 -11.1799 30.8399
  235 243.213 6.95490 1.11322
  236 243.213 6.95490 1.11322
  237 128.602 -19.1670 57.4197
  238 128.602 -19.1670 57.4197
  239 325.070 -28.8709 68.6161
  240 325.070 -28.8709 68.6161
  241 86.9317 -11.8234 -28.3143
  242 86.9317 -11.8234 -28.3143
  243 288.243 -21.5625 -13.4962
  244 288.243 -21.5625 -13.4962
  245 234.027 10.6352 8.12112
  246 234.027 10.6352 8.12112
  247 8.53275 -147.266 -7.39071
  248 8.53275 -147.266 -7.39071
  249 16.1787 -129.928 24.5548
  250 16.1787 -129.928 24.5548
  251 238.496 1.67786 22.3059
  252 238.496 1.67786 22.3059
  253 249.279 0.957611 0.914548
  254 249.279 0.957611 0.914548
  255 247.070 4.05606 0.172985
  256 247.070 4.05606 0.172985
  257 231.734 -2.85222 -29.5486
  258 231.734 -2.85222 -29.5486
  259 249.441 0.870589 -0.968573
  260 249.441 0.870589 -0.968573
  261 276.534 -19.3972 18.2418
  262 276.534 -19.3972 18.2418
  263 256.286 0.922325 -4.46011
  264 256.286 0.922325 -4.46011
  265 198.064 -16.7691 -54.5898
  266 198.064 -16.7691 -54.5898
  267 338.620 25.9083 -1.60389
  268 338.620 25.9083 -1.60389
  269 246.740 5.53885 -11.4577
  270 246.740 5.53885 -11.4577
  271 245.745 5.18585 -2.31747
  272 245.745 5.18585 -2.31747
  273 208.307 10.1400 -20.3733
  274 208.307 10.1400 -20.3733
  275 62.8514 -25.2120 16.2290
  276 62.8514 -25.2120 16.2290
  277 264.466 -43.6383 55.6207
  278 264.466 -43.6383 55.6207
  279 248.476 3.74268 4.52349
  280 248.476 3.74268 4.52349
  281 370.197 26.2913 -5.49584
  282 370.197 26.2913 -5.49584
  283 445.088 36.8511 51.0865
  284 445.088 36.8511 51.0865
  285 297.045 -31.4889 17.7699
  286 297.045 -31.4889 17.7699
  287 212.457 10.6619 14.9840
  288 212.457 10.6619 14.9840
  289 272.325 -53.8737 73.2953
  290 272.325 -53.8737 73.2953
  291 279.881 -3.24740 6.83178
  292 279.881 -3.24740 6.83178
  293 248.326 2.46718 1.24821
  294 248.326 2.46718 1.24821
  295 244.677 6.78821 -7.34545
  296 244.677 6.78821 -7.34545
  297 247.136 3.99054 -0.342757
  298 247.136 3.99054 -0.342757
  299 250.837 0.699965 -1.74344
  300 250.837 0.699965 -1.74344
  301 256.037 1.28967 4.47770
  302 256.037 1.28967 4.47770
  303 243.287 6.91705 -1.89309
  304 243.287 6.91705 -1.89309
  305 56.0064 -95.8410 -64.6998
  306 56.0064 -95.8410 -64.6998
  307 166.131 10.7613 13.8584
  308 166.131 10.7613 13.8584
  309 248.620 2.05684 -1.20030
  310 248.620 2.05684 -1.20030
  311 218.438 12.6538 -10.0439
  312 218.438 12.6538 -10.0439
  313 218.983 13.8002 3.84129
  314 218.983 13.8002 3.84129
  315 248.070 3.59896 -3.21112
  316 248.070 3.59896 -3.21112
  317 333.775 17.0869 -0.0997800
  318 333.775 17.0869 -0.0997800
  319 246.149 6.01559 10.0621
  320 246.149 6.01559 10.0621
  321 314.820 9.64569 -9.14975
  322 314.820 9.64569 -9.14975
  323 468.273 13.3587 31.2344
  324 468.273 13.3587 31.2344
  325 245.189 6.23029 6.35309
  326 245.189 6.23029 6.35309
  327 241.182 8.24051 3.32321
  328 241.182 8.24051 3.32321
  329 190.187 -43.1489 -102.945
  330 190.187 -43.1489 -102.945
  331 250.982 0.633051 1.70581
  332 250.982 0.633051 1.70581
  333 245.495 5.22705 1.73105
  334 245.495 5.22705 1.73105
  335 236.202 10.6620 0.380269
  336 236.202 10.6620 0.380269
  337 122.047 -43.3758 83.1396
  338 122.047 -43.3758 83.1396
  339 304.898 19.8963 1.60848
  340 304.898 19.8963 1.60848
  341 17.6032 -127.283 -28.5762
  342 17.6032 -127.283 -28.5762
  343 189.340 11.9582 12.3799
  344 189.340 11.9582 12.3799
  345 442.863 6.15256 4.40466
  346 442.863 6.15256 4.40466
  347 462.188 23.2229 -32.0799
  348 462.188 23.2229 -32.0799
  349 214.667 -24.7247 61.0671
  350 223.699 -12.7412 45.3572
  351 214.667 -24.7247 61.0671
  352 223.699 -12.7412 45.3572
  353 449.199 11.3360 16.4436
  354 449.199 11.3360 16.4436
  355 254.210 -0.323848 17.4056
  356 254.210 -0.323848 17.4056
  357 302.371 -40.7512 -42.7502
  358 302.371 -40.7512 -42.7502
  359 286.086 -2.50505 8.66704
  360 286.086 -2.50505 8.66704
  361 194.875 -43.0139 112.883
  362 194.875 -43.0139 112.883
  363 334.677 26.8744 -0.923235
  364 334.677 26.8744 -0.923235
  365 449.209 4.17916 -3.45112
  366 449.209 4.17916 -3.45112
  367 270.965 0.175875 -8.53995
  368 270.965 0.175875 -8.53995
  369 241.192 8.75883 -3.97467
  370 241.192 8.75883 -3.97467
  371 374.759 29.0577 9.02147
  372 374.759 29.0577 9.02147
  373 285.884 11.8808 -1.88971
  374 285.884 11.8808 -1.88971
  375 260.996 1.01734 -5.51174
  376 260.996 1.01734 -5.51174
  377 70.1964 -35.5485 -47.5850
  378 70.1964 -35.5485 -47.5850
  379 288.692 -5.17410 2.51873
  380 288.692 -5.17410 2.51873
  381 246.630 -0.358289 -20.5052
  382 246.630 -0.358289 -20.5052
  383 283.897 -0.617430 -10.3220
  384 283.897 -0.617430 -10.3220
  385 450.994 8.04004 -13.6458
  386 450.994 8.04004 -13.6458
  387 247.420 3.85464 2.54027
  388 247.420 3.85464 2.54027
  389 302.014 14.6026 8.75893
  390 302.014 14.6026 8.75893
  391 326.804 -7.40169 2.18376
  392 326.804 -7.40169 2.18376
  393 248.371 4.52775 -5.64908
  394 248.371 4.52775 -5.64908
  395 477.380 43.1481 -59.4237
  396 477.380 43.1481 -59.4237
  397 285.052 -4.10050 -2.85710
  398 285.052 -4.10050 -2.85710
</Section>

newXOutput 73

<Section columns = "stress_xx | stress_yy | stress_xy">
  1 252.222 0.244633 -0.291450
  2 252.333 0.304804 0.393196
  3 252.222 0.244633 -0.291450
  4 252.333 0.304804 0.393196
  5 392.375 23.0863 107.911
  6 407.935 22.2468 -106.136
  7 392.375 23.0863 107.911
  8 407.935 22.2468 -106.136
  9 252.869 0.173768 -0.763824
  10 255.021 0.309018 -1.35458
  11 258.122 0.704244 -2.74102
  12 265.233 0.268261 -3.67095
  13 274.315 0.455251 -5.97423
  14 284.872 -2.48788 -5.81794
  15 294.427 -3.02056 -0.570277
  16 289.417 -2.09343 5.08484
  17 277.894 2.11744 8.84624
  18 271.635 5.27885 -0.342825
  19 276.223 2.54125 -8.28884
  20 289.091 -3.10543 -6.20099
  21 291.707 -3.66517 1.84002
  22 286.363 -1.64656 5.00348
  23 272.386 0.117641 5.99682
  24 264.597 1.01393 4.64327
  25 258.301 0.807991 2.63572
  26 255.062 0.248299 1.24168
  27 253.008 0.205113 0.736714
  28 252.722 0.910644 0.459523
  29 252.253 1.87256 0.532686
  30 251.099 3.26038 0.473020
  31 250.638 3.79320 -0.0458916
  32 251.233 3.09205 -0.568075
  33 252.062 2.04141 -0.486457
  34 252.426 1.03145 -0.512554
  35 252.869 0.173768 -0.763824
  36 255.021 0.309018 -1.35458
  37 258.122 0.704244 -2.74102
  38 265.233 0.268261 -3.67095
  39 274.315 0.455251 -5.97423
  40 284.872 -2.48788 -5.81794
  41 294.427 -3.02056 -0.570277
  42 289.417 -2.09343 5.08484
  43 277.894 2.11744 8.84624
  44 271.635 5.27885 -0.342825
  45 276.223 2.54125 -8.28884
  46 289.091 -3.10543 -6.20099
  47 291.707 -3.66517 1.84002
  48 286.363 -1.64656 5.00348
  49 272.386 0.117641 5.99682
  50 264.597 1.01393 4.64327
  51 258.301 0.807991 2.63572
  52 255.062 0.248299 1.24168
  53 253.008 0.205113 0.736714
  54 252.722 0.910644 0.459523
  55 252.253 1.87256 0.532686
  56 251.099 3.26038 0.473020
  57 250.638 3.79320 -0.0458916
  58 251.233 3.09205 -0.568075
  59 252.062 2.04141 -0.486457
  60 252.426 1.03145 -0.512554
  61 544.804 27.8868 56.5479
  62 496.391 8.16697 20.2097
  63 467.744 3.48371 7.52999
  64 461.644 2.50656 1.50891
  65 467.525 3.30262 -6.44051
  66 489.279 7.02625 -17.5971
  67 549.894 24.2941 -48.6763
  68 72.0755 -81.9347 -87.4722
  69 14.2482 -182.507 -21.8300
  70 4.22253 -206.508 -9.55677
  71 4.02869 -202.687 -5.01414
  72 6.68600 -197.457 10.2107
  73 15.4073 -176.911 23.0845
  74 78.3561 -76.5203 97.0417
  75 544.804 27.8868 56.5479
  76 496.391 8.16697 20.2097
  77 467.744 3.48371 7.52999
  78 461.644 2.50656 1.50891
  79 467.525 3.30262 -6.44051
  80 489.279 7.02625 -17.5971
  81 549.894 24.2941 -48.6763
  82 72.0755 -81.9347 -87.4722
  83 14.2482 -182.507 -21.8300
  84 4.22253 -206.508 -9.55677
  85 4.02869 -202.687 -5.01414
  86 6.68600 -197.457 10.2107
  87 15.4073 -176.911 23.0845
  88 78.3561 -76.5203 97.0417
  89 231.409 13.3171 -3.47615
  90 231.409 13.3171 -3.47615
  91 211.249 2.91190 31.2201
  92 202.944 -1.28670 -37.1912
  93 211.249 2.91190 31.2201
  94 202.944 -1.28670 -37.1912
  95 119.017 2.83240 14.8878
  96 119.017 2.83240 14.8878
  97 311.077 19.9509 -5.07463
  98 317.365 11.2720 10.3078
  99 311.077 19.9509 -5.07463
  100 317.365 11.2720 10.3078
  101 248.557 6.06283 3.50923
  102 248.557 6.06283 3.50923
  103 297.976 -16.9421 -0.0820857
  104 297.976 -16.9421 -0.0820857
  105 248.873 6.33442 -4.32751
  106 248.873 6.33442 -4.32751
  107 293.094 -36.0318 -32.5229
  108 293.094 -36.0318 -32.5229
  109 204.552 -42.4412 81.6368
  110 204.552 -42.4412 81.6368
  111 137.756 -25.0191 -65.7131
  112 137.756 -25.0191 -65.7131
  113 249.924 4.23931 14.9022
  114 249.924 4.23931 14.9022
  115 259.208 1.80155 -14.2271
  116 259.208 1.80155 -14.2271
  117 352.528 23.3750 2.68316
  118 377.986 24.6196 2.03705
  119 352.528 23.3750 2.68316
  120 377.986 24.6196 2.03705
  121 369.945 31.0298 -9.02081
  122 369.945 31.0298 -9.02081
  123 40.2006 -66.6855 -21.2568
  124 40.2006 -66.6855 -21.2568
  125 318.693 -39.6718 34.8443
  126 318.693 -39.6718 34.8443
  127 268.123 -6.42957 16.6232
  128 268.123 -6.42957 16.6232
  129 61.2151 -57.6514 49.0040
  130 61.2151 -57.6514 49.0040
  131 248.922 5.06910 -0.223073
  132 248.922 5.06910 -0.223073
  133 267.732 -12.4287 -21.1412
  134 267.732 -12.4287 -21.1412
  135 252.977 2.07376 2.55040
  136 252.977 2.07376 2.55040
  137 253.213 1.82233 -2.38112
  138 253.213 1.82233 -2.38112
  139 256.033 3.55989 -7.54852
  140 256.033 3.55989 -7.54852
  141 254.835 3.46428 6.80685
  142 254.835 3.46428 6.80685
  143 243.799 8.42940 -0.274545
  144 243.799 8.42940 -0.274545
  145 203.306 13.5361 -1.59216
  146 203.306 13.5361 -1.59216
  147 296.376 -10.5931 4.92751
  148 296.376 -10.5931 4.92751
  149 339.462 -12.2974 -12.3088
  150 339.462 -12.2974 -12.3088
  151 261.628 -29.0577 40.7499
  152 261.628 -29.0577 40.7499
  153 197.631 -53.5405 -91.1960
  154 197.631 -53.5405 -91.1960
  155 232.004 9.55217 14.1800
  156 232.004 9.55217 14.1800
  157 301.473 -1.91788 -11.5016
  158 301.473 -1.91788 -11.5016
  159 413.137 32.5692 22.9911
  160 413.137 32.5692 22.9911
  161 205.884 -57.1799 105.761
  162 205.884 -57.1799 105.761
  163 422.500 14.1255 -4.78682
  164 422.500 14.1255 -4.78682
  165 242.816 8.39906 6.63742
  166 242.816 8.39906 6.63742
  167 230.605 7.88907 -20.6977
  168 230.605 7.88907 -20.6977
  169 285.703 8.54514 6.80237
  170 285.703 8.54514 6.80237
  171 240.506 10.0116 -7.52521
  172 240.506 10.0116 -7.52521
  173 250.476 4.07685 1.11496
  174 250.476 4.07685 1.11496
  175 254.736 1.97833 -4.04250
  176 254.736 1.97833 -4.04250
  177 396.036 30.4736 -22.3775
  178 396.036 30.4736 -22.3775
  179 250.686 3.96606 -1.34726
  180 250.686 3.96606 -1.34726
  181 184.185 13.4584 -10.7336
  182 184.185 13.4584 -10.7336
  183 334.295 24.6234 2.56380
  184 334.295 24.6234 2.56380
  185 67.3092 -56.6389 -63.2953
  186 67.3092 -56.6389 -63.2953
  187 181.816 -2.02347 45.2188
  188 181.816 -2.02347 45.2188
  189 244.103 -39.2101 -63.2870
  190 244.103 -39.2101 -63.2870
  191 288.222 -7.87414 3.31356
  192 288.222 -7.87414 3.31356
  193 269.588 -0.870483 10.3464
  194 269.588 -0.870483 10.3464
  195 367.868 10.0664 20.8020
  196 367.868 10.0664 20.8020
  197 151.214 4.67325 -27.8747
  198 151.214 4.67325 -27.8747
  199 418.637 18.8523 10.9047
  200 418.637 18.8523 10.9047
  201 274.652 -3.31760 -10.7860
  202 274.652 -3.31760 -10.7860
  203 255.141 1.41459 3.72964
  204 255.141 1.41459 3.72964
  205 285.983 -11.1286 -5.32754
  206 285.983 -11.1286 -5.32754
  207 313.107 -15.8685 -1.35596
  208 313.107 -15.8685 -1.35596
  209 19.4354 -115.072 9.28901
  210 19.4354 -115.072 9.28901
  211 263.267 1.43009 -9.18760
  212 263.267 1.43009 -9.18760
  213 261.025 2.08556 8.04708
  214 261.025 2.08556 8.04708
  215 251.155 -22.9879 -40.4212
  216 251.155 -22.9879 -40.4212
  217 293.444 -6.21937 -7.11778
  218 293.444 -6.21937 -7.11778
  219 239.692 8.70387 -14.1833
  220 239.692 8.70387 -14.1833
  221 66.0731 -83.1976 69.1672
  222 66.0731 -83.1976 69.1672
  223 297.240 1.21229 10.8213
  224 297.240 1.21229 10.8213
  225 288.415 7.24601 -9.05205
  226 288.415 7.24601 -9.05205
  227 413.760 24.7458 -18.5014
  228 413.760 24.7458 -18.5014
  229 314.152 -11.7913 -5.89670
  230 314.152 -11.7913 -5.89670
  231 344.239 -16.5647 -59.2411
  232 344.239 -16.5647 -59.2411
  233 251.885 -11.3333 31.2627
  234 251.885 -11.3333 31.2627
  235 246.545 7.04801 1.12781
  236 246.545 7.04801 1.12781
  237 130.382 -19.4250 58.2212
  238 130.382 -19.4250 58.2212
  239 329.450 -29.2342 69.5962
  240 329.450 -29.2342 69.5962
  241 88.1480 -11.9727 -28.7119
  242 88.1480 -11.9727 -28.7119
  243 292.161 -21.8580 -13.6941
  244 292.161 -21.8580 -13.6941
  245 237.239 10.7789 8.22956
  246 237.239 10.7789 8.22956
  247 8.64559 -149.306 -7.50151
  248 8.64559 -149.306 -7.50151
  249 16.3993 -131.714 24.9214
  250 16.3993 -131.714 24.9214
  251 241.763 1.70034 22.6085
  252 241.763 1.70034 22.6085
  253 252.688 0.970478 0.926296
  254 252.688 0.970478 0.926296
  255 250.451 4.11004 0.175232
  256 250.451 4.11004 0.175232
  257 234.909 -2.89161 -29.9520
  258 234.909 -2.89161 -29.9520
  259 252.852 0.882329 -0.981018
  260 252.852 0.882329 -0.981018
  261 280.297 -19.6634 18.5002
  262 280.297 -19.6634 18.5002
  263 259.784 0.934448 -4.51835
  264 259.784 0.934448 -4.51835
  265 200.782 -16.9993 -55.3429
  266 200.782 -16.9993 -55.3429
  267 343.225 26.2632 -1.60789
  268 343.225 26.2632 -1.60789
  269 250.117 5.61290 -11.6103
  270 250.117 5.61290 -11.6103
  271 249.109 5.25514 -2.34761
  272 249.109 5.25514 -2.34761
  273 211.177 10.2792 -20.6500
  274 211.177 10.2792 -20.6500
  275 63.7327 -25.5404 16.4595
  276 63.7327 -25.5404 16.4595
  277 268.058 -44.2380 56.3962
  278 268.058 -44.2380 56.3962
  279 251.875 3.79269 4.58249
  280 251.875 3.79269 4.58249
  281 375.210 26.6443 -5.57981
  282 375.210 26.6443 -5.57981
  283 451.043 37.3830 51.8091
  284 451.043 37.3830 51.8091
  285 301.075 -31.9178 18.0326
  286 301.075 -31.9178 18.0326
  287 215.383 10.8078 15.1865
  288 215.383 10.8078 15.1865
  289 276.013 -54.6116 74.3195
  290 276.013 -54.6116 74.3195
  291 283.690 -3.29288 6.92718
  292 283.690 -3.29288 6.92718
  293 251.723 2.50012 1.26432
  294 251.723 2.50012 1.26432
  295 248.028 6.87921 -7.44232
  296 248.028 6.87921 -7.44232
  297 250.518 4.04366 -0.347181
  298 250.518 4.04366 -0.347181
  299 254.266 0.709348 -1.76594
  300 254.266 0.709348 -1.76594
  301 259.533 1.30673 4.53616
  302 259.533 1.30673 4.53616
  303 246.620 7.00967 -1.91789
  304 246.620 7.00967 -1.91789
  305 56.7733 -97.1278 -65.6377
  306 56.7733 -97.1278 -65.6377
  307 168.436 10.9125 14.0478
  308 168.436 10.9125 14.0478
  309 252.021 2.08435 -1.21576
  310 252.021 2.08435 -1.21576
  311 221.445 12.8260 -10.1795
  312 221.445 12.8260 -10.1795
  313 221.998 13.9879 3.89282
  314 221.998 13.9879 3.89282
  315 251.463 3.64705 -3.25286
  316 251.463 3.64705 -3.25286
  317 338.306 17.3328 -0.133506
  318 338.306 17.3328 -0.133506
  319 249.518 6.09623 10.1955
  320 249.518 6.09623 10.1955
  321 319.106 9.78418 -9.25014
  322 319.106 9.78418 -9.25014
  323 474.513 13.5339 31.6601
  324 474.513 13.5339 31.6601
  325 248.546 6.31376 6.43667
  326 248.546 6.31376 6.43667
  327 244.488 8.35106 3.36693
  328 244.488 8.35106 3.36693
  329 192.760 -43.6673 -104.412
  330 192.760 -43.6673 -104.412
  331 254.413 0.641530 1.72781
  332 254.413 0.641530 1.72781
  333 248.856 5.29685 1.75358
  334 248.856 5.29685 1.75358
  335 239.443 10.8056 0.385284
  336 239.443 10.8056 0.385284
  337 123.730 -43.9676 84.3129
  338 123.730 -43.9676 84.3129
  339 309.065 20.1705 1.62623
  340 309.065 20.1705 1.62623
  341 17.8413 -129.030 -28.9981
  342 17.8413 -129.030 -28.9981
  343 191.959 12.1234 12.5479
  344 191.959 12.1234 12.5479
  345 448.771 6.23128 4.46204
  346 448.771 6.23128 4.46204
  347 468.360 23.5396 -32.5205
  348 468.360 23.5396 -32.5205
  349 217.602 -25.0652 61.9098
  350 226.762 -12.9159 45.9785
  351 217.602 -25.0652 61.9098
  352 226.762 -12.9159 45.9785
  353 455.193 11.4829 16.6642
  354 455.193 11.4829 16.6642
  355 257.684 -0.329304 17.6415
  356 257.684 -0.329304 17.6415
  357 306.460 -41.3040 -43.3586
  358 306.460 -41.3040 -43.3586
  359 289.993 -2.53817 8.77424
  360 289.993 -2.53817 8.77424
  361 197.503 -43.5347 114.484
  362 197.503 -43.5347 114.484
  363 339.233 27.2392 -0.935085
  364 339.233 27.2392 -0.935085
  365 455.192 4.23225 -3.49691
  366 455.192 4.23225 -3.49691
  367 274.654 0.176982 -8.65483
  368 274.654 0.176982 -8.65483
  369 244.498 8.87645 -4.02706
  370 244.498 8.87645 -4.02706
  371 379.830 29.4521 9.16211
  372 379.830 29.4521 9.16211
  373 289.802 12.0456 -1.91321
  374 289.802 12.0456 -1.91321
  375 264.555 1.03045 -5.58432
  376 264.555 1.03045 -5.58432
  377 71.1802 -36.0232 -48.2616
  378 71.1802 -36.0232 -48.2616
  379 292.623 -5.24523 2.54482
  380 292.623 -5.24523 2.54482
  381 250.003 -0.364242 -20.7841
  382 250.003 -0.364242 -20.7841
  383 287.779 -0.624936 -10.4505
  384 287.779 -0.624936 -10.4505
  385 457.009 8.14480 -13.8279
  386 457.009 8.14480 -13.8279
  387 250.806 3.90608 2.57324
  388 250.806 3.90608 2.57324
  389 306.138 14.8065 8.86257
  390 306.138 14.8065 8.86257
  391 331.232 -7.49057 2.24611
  392 331.232 -7.49057 2.24611
  393 251.768 4.58830 -5.72301
  394 251.768 4.58830 -5.72301
  395 483.744 43.7765 -60.2593
  396 483.744 43.7765 -60.2593
  397 288.930 -4.15785 -2.89987
  398 288.930 -4.15785 -2.89987
</Section>

newXOutput 74

<Section columns = "stress_xx | stress_yy | stress_xy">
  1 255.622 0.247971 -0.295112
  2 255.734 0.308923 0.398131
  3 255.622 0.247971 -0.295112
  4 255.734 0.308923 0.398131
  5 397.527 23.4915 109.409
  6 413.283 22.6447 -107.610
  7 397.527 23.4915 109.409
  8 413.283 22.6447 -107.610
  9 256.277 0.176099 -0.773455
  10 258.456 0.313117 -1.37174
  11 261.596 0.713476 -2.77602
  12 268.796 0.271629 -3.71820
  13 277.995 0.460628 -6.05242
  14 288.688 -2.52267 -5.89620
  15 298.373 -3.06206 -0.581357
  16 293.311 -2.12157 5.14601
  17 281.652 2.14777 8.95623
  18 275.318 5.35208 -0.347154
  19 279.960 2.57620 -8.39239
  20 292.981 -3.14740 -6.27546
  21 295.617 -3.71561 1.86880
  22 290.199 -1.66948 5.07111
  23 276.041 0.118271 6.07565
  24 268.153 1.02702 4.70320
  25 261.777 0.818588 2.66932
  26 258.497 0.251598 1.25740
  27 256.418 0.207876 0.746027
  28 256.129 0.922703 0.465282
  29 255.654 1.89723 0.539410
  30 254.486 3.30315 0.479019
  31 254.019 3.84289 -0.0464724
  32 254.621 3.13264 -0.575255
  33 255.460 2.06831 -0.492535
  34 255.829 1.04514 -0.519029
  35 256.277 0.176099 -0.773455
  36 258.456 0.313117 -1.37174
  37 261.596 0.713476 -2.77602
  38 268.796 0.271629 -3.71820
  39 277.995 0.460628 -6.05242
  40 288.688 -2.52267 -5.89620
  41 298.373 -3.06206 -0.581357
  42 293.311 -2.12157 5.14601
  43 281.652 2.14777 8.95623
  44 275.318 5.35208 -0.347154
  45 279.960 2.57620 -8.39239
  46 292.981 -3.14740 -6.27546
  47 295.617 -3.71561 1.86880
  48 290.199 -1.66948 5.07111
  49 276.041 0.118271 6.07565
  50 268.153 1.02702 4.70320
  51 261.777 0.818588 2.66932
  52 258.497 0.251598 1.25740
  53 256.418 0.207876 0.746027
  54 256.129 0.922703 0.465282
  55 255.654 1.89723 0.539410
  56 254.486 3.30315 0.479019
  57 254.019 3.84289 -0.0464724
  58 254.621 3.13264 -0.575255
  59 255.460 2.06831 -0.492535
  60 255.829 1.04514 -0.519029
  61 551.901 28.2677 57.3026
  62 502.871 8.27195 20.4730
  63 473.866 3.52601 7.62599
  64 467.689 2.53747 1.52704
  65 473.643 3.34395 -6.52227
  66 495.673 7.11588 -17.8245
  67 557.059 24.6252 -49.3265
  68 73.0397 -82.9480 -88.7143
  69 14.4390 -184.989 -22.1613
  70 4.27204 -209.363 -9.70109
  71 4.07615 -205.493 -5.08347
  72 6.77094 -200.179 10.3653
  73 15.6156 -179.316 23.4360
  74 79.3973 -77.4601 98.4162
  75 551.901 28.2677 57.3026
  76 502.871 8.27195 20.4730
  77 473.866 3.52601 7.62599
  78 467.689 2.53747 1.52704
  79 473.643 3.34395 -6.52227
  80 495.673 7.11588 -17.8245
  81 557.059 24.6252 -49.3265
  82 73.0397 -82.9480 -88.7143
  83 14.4390 -184.989 -22.1613
  84 4.27204 -209.363 -9.70109
  85 4.07615 -205.493 -5.08347
  86 6.77094 -200.179 10.3653
  87 15.6156 -179.316 23.4360
  88 79.3973 -77.4601 98.4162
  89 234.544 13.4948 -3.52209
  90 234.544 13.4948 -3.52209
  91 214.114 2.95217 31.6394
  92 205.698 -1.30304 -37.6931
  93 214.114 2.95217 31.6394
  94 205.698 -1.30304 -37.6931
  95 120.657 2.87995 15.0911
  96 120.657 2.87995 15.0911
  97 315.266 20.2222 -5.13266
  98 321.625 11.4310 10.4212
  99 315.266 20.2222 -5.13266
  100 321.625 11.4310 10.4212
  101 251.911 6.14275 3.55441
  102 251.911 6.14275 3.55441
  103 301.971 -17.1696 -0.0651457
  104 301.971 -17.1696 -0.0651457
  105 252.232 6.41802 -4.38331
  106 252.232 6.41802 -4.38331
  107 297.012 -36.5181 -32.9760
  108 297.012 -36.5181 -32.9760
  109 207.308 -43.0177 82.7565
  110 207.308 -43.0177 82.7565
  111 139.631 -25.3538 -66.6190
  112 139.631 -25.3538 -66.6190
  113 253.295 4.29496 15.0993
  114 253.295 4.29496 15.0993
  115 262.698 1.82420 -14.4161
  116 262.698 1.82420 -14.4161
  117 357.242 23.6996 2.75153
  118 383.027 24.9433 2.06953
  119 357.242 23.6996 2.75153
  120 383.027 24.9433 2.06953
  121 374.886 31.4515 -9.16709
  122 374.886 31.4515 -9.16709
  123 40.7522 -67.5729 -21.5603
  124 40.7522 -67.5729 -21.5603
  125 322.939 -40.1963 35.3429
  126 322.939 -40.1963 35.3429
  127 271.728 -6.51737 16.8493
  128 271.728 -6.51737 16.8493
  129 62.0551 -58.4160 49.6982
  130 62.0551 -58.4160 49.6982
  131 252.282 5.13576 -0.225902
  132 252.282 5.13576 -0.225902
  133 271.330 -12.5975 -21.4307
  134 271.330 -12.5975 -21.4307
  135 256.386 2.10110 2.58291
  136 256.386 2.10110 2.58291
  137 256.626 1.84640 -2.41142
  138 256.626 1.84640 -2.41142
  139 259.482 3.60654 -7.64652
  140 259.482 3.60654 -7.64652
  141 258.269 3.50980 6.89497
  142 258.269 3.50980 6.89497
  143 247.094 8.54084 -0.278181
  144 247.094 8.54084 -0.278181
  145 206.074 13.7188 -1.61371
  146 206.074 13.7188 -1.61371
  147 300.355 -10.7345 4.97789
  148 300.355 -10.7345 4.97789
  149 343.988 -12.4439 -12.5122
  150 343.988 -12.4439 -12.5122
  151 265.139 -29.4515 41.3064
  152 265.139 -29.4515 41.3064
  153 200.283 -54.2548 -92.4640
  154 200.283 -54.2548 -92.4640
  155 235.145 9.68001 14.3681
  156 235.145 9.68001 14.3681
  157 305.522 -1.94057 -11.6366
  158 305.522 -1.94057 -11.6366
  159 418.618 33.0111 23.3194
  160 418.618 33.0111 23.3194
  161 208.645 -57.9487 107.224
  162 208.645 -57.9487 107.224
  163 428.086 14.3066 -4.85187
  164 428.086 14.3066 -4.85187
  165 246.098 8.51026 6.72400
  166 246.098 8.51026 6.72400
  167 233.727 7.99488 -20.9739
  168 233.727 7.99488 -20.9739
  169 289.564 8.66342 6.88630
  170 289.564 8.66342 6.88630
  171 243.758 10.1445 -7.62374
  172 243.758 10.1445 -7.62374
  173 253.855 4.13040 1.12918
  174 253.855 4.13040 1.12918
  175 258.167 2.00432 -4.09432
  176 258.167 2.00432 -4.09432
  177 401.297 30.9036 -22.7144
  178 401.297 30.9036 -22.7144
  179 254.067 4.01820 -1.36441
  180 254.067 4.01820 -1.36441
  181 186.698 13.6425 -10.8781
  182 186.698 13.6425 -10.8781
  183 338.780 24.9572 2.58003
  184 338.780 24.9572 2.58003
  185 68.2285 -57.3896 -64.1897
  186 68.2285 -57.3896 -64.1897
  187 184.289 -2.04843 45.8311
  188 184.289 -2.04843 45.8311
  189 247.379 -39.7419 -64.1547
  190 247.379 -39.7419 -64.1547
  191 292.090 -7.98133 3.36643
  192 292.090 -7.98133 3.36643
  193 273.210 -0.883488 10.4844
  194 273.210 -0.883488 10.4844
  195 372.763 10.2270 21.1230
  196 372.763 10.2270 21.1230
  197 153.284 4.74201 -28.2538
  198 153.284 4.74201 -28.2538
  199 424.181 19.0972 11.0551
  200 424.181 19.0972 11.0551
  201 278.340 -3.36373 -10.9325
  202 278.340 -3.36373 -10.9325
  203 258.578 1.43311 3.77740
  204 258.578 1.43311 3.77740
  205 289.821 -11.2801 -5.40829
  206 289.821 -11.2801 -5.40829
  207 317.297 -16.0767 -1.39932
  208 317.297 -16.0767 -1.39932
  209 19.6985 -116.632 9.42429
  210 19.6985 -116.632 9.42429
  211 266.807 1.44795 -9.30822
  212 266.807 1.44795 -9.30822
  213 264.537 2.11267 8.15221
  214 264.537 2.11267 8.15221
  215 254.533 -23.2993 -40.9720
  216 254.533 -23.2993 -40.9720
  217 297.388 -6.30315 -7.19967
  218 297.388 -6.30315 -7.19967
  219 242.932 8.81978 -14.3712
  220 242.932 8.81978 -14.3712
  221 66.9669 -84.2997 70.1517
  222 66.9669 -84.2997 70.1517
  223 301.240 1.23264 10.9500
  224 301.240 1.23264 10.9500
  225 292.308 7.34659 -9.16263
  226 292.308 7.34659 -9.16263
  227 419.246 25.0726 -18.7615
  228 419.246 25.0726 -18.7615
  229 318.358 -11.9443 -5.95032
  230 318.358 -11.9443 -5.95032
  231 348.810 -16.7483 -60.0846
  232 348.810 -16.7483 -60.0846
  233 255.276 -11.4866 31.6852
  234 255.276 -11.4866 31.6852
  235 249.875 7.14098 1.14238
  236 249.875 7.14098 1.14238
  237 132.162 -19.6828 59.0225
  238 132.162 -19.6828 59.0225
  239 333.825 -29.5964 70.5767
  240 333.825 -29.5964 70.5767
  241 89.3641 -12.1217 -29.1096
  242 89.3641 -12.1217 -29.1096
  243 296.075 -22.1532 -13.8922
  244 296.075 -22.1532 -13.8922
  245 240.449 10.9224 8.33784
  246 240.449 10.9224 8.33784
  247 8.75823 -151.345 -7.61249
  248 8.75823 -151.345 -7.61249
  249 16.6198 -133.498 25.2885
  250 16.6198 -133.498 25.2885
  251 245.027 1.72279 22.9108
  252 245.027 1.72279 22.9108
  253 256.094 0.983329 0.938013
  254 256.094 0.983329 0.938013
  255 253.830 4.16393 0.177475
  256 253.830 4.16393 0.177475
  257 238.083 -2.93098 -30.3550
  258 238.083 -2.93098 -30.3550
  259 256.259 0.894055 -0.993433
  260 256.259 0.894055 -0.993433
  261 284.057 -19.9295 18.7585
  262 284.057 -19.9295 18.7585
  263 263.279 0.946549 -4.57647
  264 263.279 0.946549 -4.57647
  265 203.499 -17.2294 -56.0956
  266 203.499 -17.2294 -56.0956
  267 347.826 26.6179 -1.61142
  268 347.826 26.6179 -1.61142
  269 253.491 5.68685 -11.7628
  270 253.491 5.68685 -11.7628
  271 252.471 5.32434 -2.37769
  272 252.471 5.32434 -2.37769
  273 214.045 10.4183 -20.9265
  274 214.045 10.4183 -20.9265
  275 64.6138 -25.8680 16.6900
  276 64.6138 -25.8680 16.6900
  277 271.645 -44.8373 57.1716
  278 271.645 -44.8373 57.1716
  279 255.272 3.84263 4.64137
  280 255.272 3.84263 4.64137
  281 380.217 26.9968 -5.66394
  282 380.217 26.9968 -5.66394
  283 456.989 37.9153 52.5317
  284 456.989 37.9153 52.5317
  285 305.101 -32.3463 18.2956
  286 305.101 -32.3463 18.2956
  287 218.308 10.9535 15.3888
  288 218.308 10.9535 15.3888
  289 279.696 -55.3490 75.3436
  290 279.696 -55.3490 75.3436
  291 287.495 -3.33836 7.02255
  292 287.495 -3.33836 7.02255
  293 255.117 2.53300 1.28038
  294 255.117 2.53300 1.28038
  295 251.375 6.97009 -7.53902
  296 251.375 6.97009 -7.53902
  297 253.898 4.09669 -0.351595
  298 253.898 4.09669 -0.351595
  299 257.691 0.718720 -1.78838
  300 257.691 0.718720 -1.78838
  301 263.025 1.32377 4.59451
  302 263.025 1.32377 4.59451
  303 249.951 7.10216 -1.94265
  304 249.951 7.10216 -1.94265
  305 57.5396 -98.4129 -66.5763
  306 57.5396 -98.4129 -66.5763
  307 170.739 11.0637 14.2371
  308 170.739 11.0637 14.2371
  309 255.418 2.11182 -1.23118
  310 255.418 2.11182 -1.23118
  311 224.450 12.9980 -10.3149
  312 224.450 12.9980 -10.3149
  313 225.011 14.1754 3.94428
  314 225.011 14.1754 3.94428
  315 254.854 3.69507 -3.29450
  316 254.854 3.69507 -3.29450
  317 342.833 17.5788 -0.168061
  318 342.833 17.5788 -0.168061
  319 252.885 6.17676 10.3288
  320 252.885 6.17676 10.3288
  321 323.387 9.92275 -9.34978
  322 323.387 9.92275 -9.34978
  323 480.745 13.7088 32.0855
  324 480.745 13.7088 32.0855
  325 251.901 6.39712 6.52009
  326 251.901 6.39712 6.52009
  327 247.791 8.46146 3.41057
  328 247.791 8.46146 3.41057
  329 195.331 -44.1832 -105.880
  330 195.331 -44.1832 -105.880
  331 257.840 0.649998 1.74976
  332 257.840 0.649998 1.74976
  333 252.215 5.36655 1.77607
  334 252.215 5.36655 1.77607
  335 242.682 10.9490 0.390290
  336 242.682 10.9490 0.390290
  337 125.412 -44.5590 85.4862
  338 125.412 -44.5590 85.4862
  339 313.228 20.4445 1.64386
  340 313.228 20.4445 1.64386
  341 18.0792 -130.777 -29.4204
  342 18.0792 -130.777 -29.4204
  343 194.576 12.2884 12.7158
  344 194.576 12.2884 12.7158
  345 454.670 6.30979 4.51930
  346 454.670 6.30979 4.51930
  347 474.524 23.8560 -32.9607
  348 474.524 23.8560 -32.9607
  349 220.536 -25.4054 62.7521
  350 229.822 -13.0905 46.5994
  351 220.536 -25.4054 62.7521
  352 229.822 -13.0905 46.5994
  353 461.179 11.6295 16.8845
  354 461.179 11.6295 16.8845
  355 261.154 -0.334783 17.8772
  356 261.154 -0.334783 17.8772
  357 310.545 -41.8562 -43.9672
  358 310.545 -41.8562 -43.9672
  359 293.896 -2.57123 8.88106
  360 293.896 -2.57123 8.88106
  361 200.127 -44.0531 116.086
  362 200.127 -44.0531 116.086
  363 343.786 27.6037 -0.946904
  364 343.786 27.6037 -0.946904
  365 461.167 4.28518 -3.54263
  366 461.167 4.28518 -3.54263
  367 278.340 0.178053 -8.76956
  368 278.340 0.178053 -8.76956
  369 247.801 8.99391 -4.07936
  370 247.801 8.99391 -4.07936
  371 384.895 29.8461 9.30308
  372 384.895 29.8461 9.30308
  373 293.716 12.2103 -1.93662
  374 293.716 12.2103 -1.93662
  375 268.111 1.04352 -5.65677
  376 268.111 1.04352 -5.65677
  377 72.1639 -36.4973 -48.9383
  378 72.1639 -36.4973 -48.9383
  379 296.551 -5.31632 2.57068
  380 296.551 -5.31632 2.57068
  381 253.374 -0.370219 -21.0627
  382 253.374 -0.370219 -21.0627
  383 291.659 -0.632409 -10.5786
  384 291.659 -0.632409 -10.5786
  385 463.015 8.24934 -14.0097
  386 463.015 8.24934 -14.0097
  387 254.188 3.95746 2.60615
  388 254.188 3.95746 2.60615
  389 310.258 15.0103 8.96569
  390 310.258 15.0103 8.96569
  391 335.656 -7.57903 2.30927
  392 335.656 -7.57903 2.30927
  393 255.163 4.64876 -5.79679
  394 255.163 4.64876 -5.79679
  395 490.099 44.4054 -61.0947
  396 490.099 44.4054 -61.0947
  397 292.803 -4.21518 -2.94270
  398 292.803 -4.21518 -2.94270
</Section>

newXOutput 75

<Section columns = "stress_xx | stress_yy | stress_xy">
  1 259.019 0.251309 -0.298765
  2 259.133 0.313039 0.403053
  3 259.019 0.251309 -0.298765
  4 259.133 0.313039 0.403053
  5 402.671 23.8988 110.907
  6 418.622 23.0450 -109.085
  7 402.671 23.8988 110.907
  8 418.622 23.0450 -109.085
  9 259.683 0.178429 -0.783061
  10 261.888 0.317211 -1.38887
  11 265.067 0.722693 -2.81093
  12 272.357 0.274989 -3.76536
  13 281.671 0.465982 -6.13049
  14 292.501 -2.55747 -5.97439
  15 302.314 -3.10354 -0.592515
  16 297.201 -2.14969 5.20693
  17 285.407 2.17812 9.06588
  18 278.999 5.42530 -0.351473
  19 283.695 2.61114 -8.49564
  20 296.868 -3.18934 -6.34962
  21 299.523 -3.76603 1.89767
  22 294.032 -1.69240 5.13869
  23 279.694 0.118876 6.15436
  24 271.706 1.04008 4.76301
  25 265.250 0.829169 2.70284
  26 261.930 0.254892 1.27308
  27 259.825 0.210638 0.755317
  28 259.532 0.934746 0.471026
  29 259.052 1.92186 0.546117
  30 257.870 3.34585 0.485003
  31 257.397 3.89251 -0.0470516
  32 258.006 3.17317 -0.582417
  33 258.855 2.09516 -0.498596
  34 259.229 1.05881 -0.525488
  35 259.683 0.178429 -0.783061
  36 261.888 0.317211 -1.38887
  37 265.067 0.722693 -2.81093
  38 272.357 0.274989 -3.76536
  39 281.671 0.465982 -6.13049
  40 292.501 -2.55747 -5.97439
  41 302.314 -3.10354 -0.592515
  42 297.201 -2.14969 5.20693
  43 285.407 2.17812 9.06588
  44 278.999 5.42530 -0.351473
  45 283.695 2.61114 -8.49564
  46 296.868 -3.18934 -6.34962
  47 299.523 -3.76603 1.89767
  48 294.032 -1.69240 5.13869
  49 279.694 0.118876 6.15436
  50 271.706 1.04008 4.76301
  51 265.250 0.829169 2.70284
  52 261.930 0.254892 1.27308
  53 259.825 0.210638 0.755317
  54 259.532 0.934746 0.471026
  55 259.052 1.92186 0.546117
  56 257.870 3.34585 0.485003
  57 257.397 3.89251 -0.0470516
  58 258.006 3.17317 -0.582417
  59 258.855 2.09516 -0.498596
  60 259.229 1.05881 -0.525488
  61 558.987 28.6483 58.0564
  62 509.341 8.37672 20.7358
  63 479.978 3.56816 7.72177
  64 473.725 2.56828 1.54510
  65 479.752 3.38516 -6.60382
  66 502.055 7.20531 -18.0514
  67 564.212 24.9561 -49.9759
  68 74.0028 -83.9580 -89.9571
  69 14.6297 -187.469 -22.4933
  70 4.32130 -212.217 -9.84573
  71 4.12338 -208.299 -5.15279
  72 6.85567 -202.901 10.5203
  73 15.8238 -181.719 23.7883
  74 80.4373 -78.3965 99.7913
  75 558.987 28.6483 58.0564
  76 509.341 8.37672 20.7358
  77 479.978 3.56816 7.72177
  78 473.725 2.56828 1.54510
  79 479.752 3.38516 -6.60382
  80 502.055 7.20531 -18.0514
  81 564.212 24.9561 -49.9759
  82 74.0028 -83.9580 -89.9571
  83 14.6297 -187.469 -22.4933
  84 4.32130 -212.217 -9.84573
  85 4.12338 -208.299 -5.15279
  86 6.85567 -202.901 10.5203
  87 15.8238 -181.719 23.7883
  88 80.4373 -78.3965 99.7913
  89 237.677 13.6723 -3.56797
  90 237.677 13.6723 -3.56797
  91 216.978 2.99243 32.0583
  92 208.450 -1.31933 -38.1945
  93 216.978 2.99243 32.0583
  94 208.450 -1.31933 -38.1945
  95 122.296 2.92770 15.2943
  96 122.296 2.92770 15.2943
  97 319.450 20.4933 -5.19038
  98 325.881 11.5900 10.5338
  99 319.450 20.4933 -5.19038
  100 325.881 11.5900 10.5338
  101 255.264 6.22255 3.59951
  102 255.264 6.22255 3.59951
  103 305.963 -17.3969 -0.0477425
  104 305.963 -17.3969 -0.0477425
  105 255.588 6.50150 -4.43901
  106 255.588 6.50150 -4.43901
  107 300.927 -37.0041 -33.4291
  108 300.927 -37.0041 -33.4291
  109 210.061 -43.5938 83.8758
  110 210.061 -43.5938 83.8758
  111 141.505 -25.6882 -67.5247
  112 141.505 -25.6882 -67.5247
  113 256.664 4.35052 15.2961
  114 256.664 4.35052 15.2961
  115 266.185 1.84679 -14.6049
  116 266.185 1.84679 -14.6049
  117 361.951 24.0242 2.82068
  118 388.063 25.2666 2.10211
  119 361.951 24.0242 2.82068
  120 388.063 25.2666 2.10211
  121 379.821 31.8729 -9.31389
  122 379.821 31.8729 -9.31389
  123 41.3037 -68.4592 -21.8640
  124 41.3037 -68.4592 -21.8640
  125 327.181 -40.7201 35.8419
  126 327.181 -40.7201 35.8419
  127 275.329 -6.60514 17.0752
  128 275.329 -6.60514 17.0752
  129 62.8949 -59.1795 50.3927
  130 62.8949 -59.1795 50.3927
  131 255.638 5.20231 -0.228725
  132 255.638 5.20231 -0.228725
  133 274.924 -12.7662 -21.7200
  134 274.924 -12.7662 -21.7200
  135 259.793 2.12839 2.61535
  136 259.793 2.12839 2.61535
  137 260.035 1.87043 -2.44166
  138 260.035 1.87043 -2.44166
  139 262.928 3.65312 -7.74435
  140 262.928 3.65312 -7.74435
  141 261.699 3.55525 6.98291
  142 261.699 3.55525 6.98291
  143 250.386 8.65213 -0.281812
  144 250.386 8.65213 -0.281812
  145 208.841 13.9013 -1.63524
  146 208.841 13.9013 -1.63524
  147 304.329 -10.8757 5.02782
  148 304.329 -10.8757 5.02782
  149 348.509 -12.5898 -12.7164
  150 348.509 -12.5898 -12.7164
  151 268.647 -29.8451 41.8627
  152 268.647 -29.8451 41.8627
  153 202.932 -54.9682 -93.7320
  154 202.932 -54.9682 -93.7320
  155 238.284 9.80772 14.5560
  156 238.284 9.80772 14.5560
  157 309.568 -1.96316 -11.7710
  158 309.568 -1.96316 -11.7710
  159 424.092 33.4527 23.6478
  160 424.092 33.4527 23.6478
  161 211.403 -58.7168 108.686
  162 211.403 -58.7168 108.686
  163 433.666 14.4873 -4.91688
  164 433.666 14.4873 -4.91688
  165 249.377 8.62131 6.81044
  166 249.377 8.62131 6.81044
  167 236.846 8.10059 -21.2498
  168 236.846 8.10059 -21.2498
  169 293.422 8.78169 6.96995
  170 293.422 8.78169 6.96995
  171 247.008 10.2772 -7.72212
  172 247.008 10.2772 -7.72212
  173 257.231 4.18387 1.14337
  174 257.231 4.18387 1.14337
  175 261.596 2.03026 -4.14603
  176 261.596 2.03026 -4.14603
  177 406.552 31.3338 -23.0520
  178 406.552 31.3338 -23.0520
  179 257.446 4.07027 -1.38153
  180 257.446 4.07027 -1.38153
  181 189.211 13.8265 -11.0225
  182 189.211 13.8265 -11.0225
  183 343.262 25.2908 2.59577
  184 343.262 25.2908 2.59577
  185 69.1474 -58.1394 -65.0845
  186 69.1474 -58.1394 -65.0845
  187 186.759 -2.07330 46.4429
  188 186.759 -2.07330 46.4429
  189 250.653 -40.2733 -65.0220
  190 250.653 -40.2733 -65.0220
  191 295.955 -8.08847 3.41947
  192 295.955 -8.08847 3.41947
  193 276.829 -0.896516 10.6222
  194 276.829 -0.896516 10.6222
  195 377.653 10.3881 21.4449
  196 377.653 10.3881 21.4449
  197 155.353 4.81086 -28.6328
  198 155.353 4.81086 -28.6328
  199 429.718 19.3416 11.2054
  200 429.718 19.3416 11.2054
  201 282.026 -3.40986 -11.0789
  202 282.026 -3.40986 -11.0789
  203 262.012 1.45161 3.82506
  204 262.012 1.45161 3.82506
  205 293.655 -11.4316 -5.48921
  206 293.655 -11.4316 -5.48921
  207 321.483 -16.2845 -1.44331
  208 321.483 -16.2845 -1.44331
  209 19.9615 -118.191 9.55975
  210 19.9615 -118.191 9.55975
  211 270.345 1.46576 -9.42866
  212 270.345 1.46576 -9.42866
  213 268.046 2.13973 8.25715
  214 268.046 2.13973 8.25715
  215 257.907 -23.6105 -41.5225
  216 257.907 -23.6105 -41.5225
  217 301.327 -6.38686 -7.28114
  218 301.327 -6.38686 -7.28114
  219 246.170 8.93557 -14.5589
  220 246.170 8.93557 -14.5589
  221 67.8601 -85.4004 71.1367
  222 67.8601 -85.4004 71.1367
  223 305.236 1.25308 11.0782
  224 305.236 1.25308 11.0782
  225 296.199 7.44717 -9.27282
  226 296.199 7.44717 -9.27282
  227 424.726 25.3990 -19.0216
  228 424.726 25.3990 -19.0216
  229 322.559 -12.0970 -6.00322
  230 322.559 -12.0970 -6.00322
  231 353.376 -16.9306 -60.9287
  232 353.376 -16.9306 -60.9287
  233 258.664 -11.6398 32.1073
  234 258.664 -11.6398 32.1073
  235 253.202 7.23383 1.15691
  236 253.202 7.23383 1.15691
  237 133.940 -19.9402 59.8236
  238 133.940 -19.9402 59.8236
  239 338.194 -29.9573 71.5574
  240 338.194 -29.9573 71.5574
  241 90.5800 -12.2702 -29.5071
  242 90.5800 -12.2702 -29.5071
  243 299.986 -22.4482 -14.0905
  244 299.986 -22.4482 -14.0905
  245 243.656 11.0658 8.44596
  246 243.656 11.0658 8.44596
  247 8.87068 -153.383 -7.72366
  248 8.87068 -153.383 -7.72366
  249 16.8400 -135.281 25.6562
  250 16.8400 -135.281 25.6562
  251 248.289 1.74520 23.2128
  252 248.289 1.74520 23.2128
  253 259.497 0.996163 0.949701
  254 259.497 0.996163 0.949701
  255 257.206 4.21773 0.179712
  256 257.206 4.21773 0.179712
  257 241.254 -2.97033 -30.7577
  258 241.254 -2.97033 -30.7577
  259 259.665 0.905767 -1.00582
  260 259.665 0.905767 -1.00582
  261 287.814 -20.1954 19.0170
  262 287.814 -20.1954 19.0170
  263 266.771 0.958628 -4.63447
  264 266.771 0.958628 -4.63447
  265 206.214 -17.4593 -56.8478
  266 206.214 -17.4593 -56.8478
  267 352.422 26.9723 -1.61448
  268 352.422 26.9723 -1.61448
  269 256.862 5.76069 -11.9150
  270 256.862 5.76069 -11.9150
  271 255.830 5.39343 -2.40770
  272 255.830 5.39343 -2.40770
  273 216.912 10.5574 -21.2027
  274 216.912 10.5574 -21.2027
  275 65.4948 -26.1950 16.9206
  276 65.4948 -26.1950 16.9206
  277 275.229 -45.4363 57.9467
  278 275.229 -45.4363 57.9467
  279 258.665 3.89250 4.70012
  280 258.665 3.89250 4.70012
  281 385.218 27.3489 -5.74823
  282 385.218 27.3489 -5.74823
  283 462.927 38.4479 53.2543
  284 462.927 38.4479 53.2543
  285 309.123 -32.7745 18.5590
  286 309.123 -32.7745 18.5590
  287 221.231 11.0992 15.5909
  288 221.231 11.0992 15.5909
  289 283.376 -56.0858 76.3674
  290 283.376 -56.0858 76.3674
  291 291.297 -3.38383 7.11790
  292 291.297 -3.38383 7.11790
  293 258.508 2.56584 1.29641
  294 258.508 2.56584 1.29641
  295 254.721 7.06085 -7.63554
  296 254.721 7.06085 -7.63554
  297 257.274 4.14964 -0.355999
  298 257.274 4.14964 -0.355999
  299 261.114 0.728078 -1.81077
  300 261.114 0.728078 -1.81077
  301 266.514 1.34077 4.65273
  302 266.514 1.34077 4.65273
  303 253.279 7.19452 -1.96735
  304 253.279 7.19452 -1.96735
  305 58.3053 -99.6962 -67.5155
  306 58.3053 -99.6962 -67.5155
  307 173.041 11.2149 14.4262
  308 173.041 11.2149 14.4262
  309 258.813 2.13925 -1.24657
  310 258.813 2.13925 -1.24657
  311 227.453 13.1698 -10.4502
  312 227.453 13.1698 -10.4502
  313 228.022 14.3628 3.99566
  314 228.022 14.3628 3.99566
  315 258.242 3.74302 -3.33606
  316 258.242 3.74302 -3.33606
  317 347.356 17.8250 -0.203444
  318 347.356 17.8250 -0.203444
  319 256.249 6.25717 10.4618
  320 256.249 6.25717 10.4618
  321 327.664 10.0614 -9.44868
  322 327.664 10.0614 -9.44868
  323 486.967 13.8833 32.5104
  324 486.967 13.8833 32.5104
  325 255.253 6.48037 6.60335
  326 255.253 6.48037 6.60335
  327 251.092 8.57172 3.45412
  328 251.092 8.57172 3.45412
  329 197.898 -44.6968 -107.348
  330 197.898 -44.6968 -107.348
  331 261.265 0.658454 1.77165
  332 261.265 0.658454 1.77165
  333 255.571 5.43615 1.79850
  334 255.571 5.43615 1.79850
  335 245.919 11.0923 0.395287
  336 245.919 11.0923 0.395287
  337 127.093 -45.1498 86.6595
  338 127.093 -45.1498 86.6595
  339 317.388 20.7183 1.66135
  340 317.388 20.7183 1.66135
  341 18.3168 -132.522 -29.8433
  342 18.3168 -132.522 -29.8433
  343 197.192 12.4533 12.8835
  344 197.192 12.4533 12.8835
  345 460.560 6.38811 4.57643
  346 460.560 6.38811 4.57643
  347 480.678 24.1721 -33.4006
  348 480.678 24.1721 -33.4006
  349 223.467 -25.7455 63.5938
  350 232.881 -13.2650 47.2198
  351 223.467 -25.7455 63.5938
  352 232.881 -13.2650 47.2198
  353 467.156 11.7757 17.1045
  354 467.156 11.7757 17.1045
  355 264.622 -0.340286 18.1127
  356 264.622 -0.340286 18.1127
  357 314.626 -42.4079 -44.5759
  358 314.626 -42.4079 -44.5759
  359 297.796 -2.60423 8.98748
  360 297.796 -2.60423 8.98748
  361 202.747 -44.5692 117.688
  362 202.747 -44.5692 117.688
  363 348.334 27.9679 -0.958692
  364 348.334 27.9679 -0.958692
  365 467.132 4.33797 -3.58827
  366 467.132 4.33797 -3.58827
  367 282.023 0.179089 -8.88415
  368 282.023 0.179089 -8.88415
  369 251.102 9.11123 -4.13157
  370 251.102 9.11123 -4.13157
  371 389.954 30.2397 9.44438
  372 389.954 30.2397 9.44438
  373 297.628 12.3749 -1.95995
  374 297.628 12.3749 -1.95995
  375 271.663 1.05657 -5.72908
  376 271.663 1.05657 -5.72908
  377 73.1475 -36.9706 -49.6152
  378 73.1475 -36.9706 -49.6152
  379 300.475 -5.38735 2.59629
  380 300.475 -5.38735 2.59629
  381 256.742 -0.376220 -21.3410
  382 256.742 -0.376220 -21.3410
  383 295.535 -0.639850 -10.7063
  384 295.535 -0.639850 -10.7063
  385 469.012 8.35366 -14.1913
  386 469.012 8.35366 -14.1913
  387 257.569 4.00875 2.63898
  388 257.569 4.00875 2.63898
  389 314.375 15.2141 9.06830
  390 314.375 15.2141 9.06830
  391 340.074 -7.66708 2.37325
  392 340.074 -7.66708 2.37325
  393 258.555 4.70914 -5.87042
  394 258.555 4.70914 -5.87042
  395 496.445 45.0349 -61.9300
  396 496.445 45.0349 -61.9300
  397 296.673 -4.27250 -2.98560
  398 296.673 -4.27250 -2.98560
</Section>

newXOutput 76

<Section columns = "stress_xx | stress_yy | stress_xy">
  1 262.414 0.254644 -0.302407
  2 262.529 0.317151 0.407961
  3 262.414 0.254644 -0.302407
  4 262.529 0.317151 0.407961
  5 407.807 24.3083 112.404
  6 423.953 23.4475 -110.559
  7 407.807 24.3083 112.404
  8 423.953 23.4475 -110.559
  9 263.085 0.180757 -0.792641
  10 265.317 0.321300 -1.40595
  11 268.534 0.731897 -2.84576
  12 275.913 0.278339 -3.81243
  13 285.343 0.471311 -6.20843
  14 296.310 -2.59227 -6.05251
  15 306.251 -3.14502 -0.603753
  16 301.088 -2.17778 5.26761
  17 289.159 2.20850 9.17520
  18 282.678 5.49853 -0.355779
  19 287.427 2.64607 -8.59859
  20 300.752 -3.23125 -6.42349
  21 303.426 -3.81644 1.92661
  22 297.861 -1.71532 5.20622
  23 283.343 0.119454 6.23295
  24 275.255 1.05311 4.82270
  25 268.721 0.839734 2.73629
  26 265.360 0.258183 1.28872
  27 263.230 0.213397 0.764583
  28 262.933 0.946773 0.476754
  29 262.447 1.94646 0.552806
  30 261.251 3.38848 0.490972
  31 260.772 3.94204 -0.0476294
  32 261.389 3.21363 -0.589561
  33 262.248 2.12198 -0.504640
  34 262.626 1.07247 -0.531930
  35 263.085 0.180757 -0.792641
  36 265.317 0.321300 -1.40595
  37 268.534 0.731897 -2.84576
  38 275.913 0.278339 -3.81243
  39 285.343 0.471311 -6.20843
  40 296.310 -2.59227 -6.05251
  41 306.251 -3.14502 -0.603753
  42 301.088 -2.17778 5.26761
  43 289.159 2.20850 9.17520
  44 282.678 5.49853 -0.355779
  45 287.427 2.64607 -8.59859
  46 300.752 -3.23125 -6.42349
  47 303.426 -3.81644 1.92661
  48 297.861 -1.71532 5.20622
  49 283.343 0.119454 6.23295
  50 275.255 1.05311 4.82270
  51 268.721 0.839734 2.73629
  52 265.360 0.258183 1.28872
  53 263.230 0.213397 0.764583
  54 262.933 0.946773 0.476754
  55 262.447 1.94646 0.552806
  56 261.251 3.38848 0.490972
  57 260.772 3.94204 -0.0476294
  58 261.389 3.21363 -0.589561
  59 262.248 2.12198 -0.504640
  60 262.626 1.07247 -0.531930
  61 566.060 29.0287 58.8093
  62 515.800 8.48128 20.9982
  63 486.081 3.61015 7.81733
  64 479.751 2.59899 1.56309
  65 485.851 3.42626 -6.68518
  66 508.428 7.29454 -18.2779
  67 571.352 25.2869 -50.6247
  68 74.9650 -84.9647 -91.2005
  69 14.8201 -189.948 -22.8261
  70 4.37031 -215.071 -9.99069
  71 4.17039 -211.105 -5.22210
  72 6.94018 -205.622 10.6757
  73 16.0318 -184.120 24.1414
  74 81.4759 -79.3296 101.167
  75 566.060 29.0287 58.8093
  76 515.800 8.48128 20.9982
  77 486.081 3.61015 7.81733
  78 479.751 2.59899 1.56309
  79 485.851 3.42626 -6.68518
  80 508.428 7.29454 -18.2779
  81 571.352 25.2869 -50.6247
  82 74.9650 -84.9647 -91.2005
  83 14.8201 -189.948 -22.8261
  84 4.37031 -215.071 -9.99069
  85 4.17039 -211.105 -5.22210
  86 6.94018 -205.622 10.6757
  87 16.0318 -184.120 24.1414
  88 81.4759 -79.3296 101.167
  89 240.808 13.8496 -3.61378
  90 240.808 13.8496 -3.61378
  91 219.839 3.03268 32.4768
  92 211.200 -1.33558 -38.6955
  93 219.839 3.03268 32.4768
  94 211.200 -1.33558 -38.6955
  95 123.935 2.97567 15.4974
  96 123.935 2.97567 15.4974
  97 323.631 20.7643 -5.24777
  98 330.134 11.7491 10.6457
  99 323.631 20.7643 -5.24777
  100 330.134 11.7491 10.6457
  101 258.613 6.30224 3.64451
  102 258.613 6.30224 3.64451
  103 309.950 -17.6240 -0.0298775
  104 309.950 -17.6240 -0.0298775
  105 258.941 6.58487 -4.49459
  106 258.941 6.58487 -4.49459
  107 304.837 -37.4898 -33.8822
  108 304.837 -37.4898 -33.8822
  109 212.812 -44.1695 84.9947
  110 212.812 -44.1695 84.9947
  111 143.378 -26.0222 -68.4302
  112 143.378 -26.0222 -68.4302
  113 260.030 4.40599 15.4926
  114 260.030 4.40599 15.4926
  115 269.669 1.86932 -14.7934
  116 269.669 1.86932 -14.7934
  117 366.655 24.3488 2.89062
  118 393.093 25.5894 2.13479
  119 366.655 24.3488 2.89062
  120 393.093 25.5894 2.13479
  121 384.752 32.2941 -9.46119
  122 384.752 32.2941 -9.46119
  123 41.8550 -69.3445 -22.1679
  124 41.8550 -69.3445 -22.1679
  125 331.418 -41.2431 36.3412
  126 331.418 -41.2431 36.3412
  127 278.928 -6.69287 17.3009
  128 278.928 -6.69287 17.3009
  129 63.7344 -59.9422 51.0876
  130 63.7344 -59.9422 51.0876
  131 258.993 5.26877 -0.231541
  132 258.993 5.26877 -0.231541
  133 278.516 -12.9348 -22.0092
  134 278.516 -12.9348 -22.0092
  135 263.198 2.15565 2.64771
  136 263.198 2.15565 2.64771
  137 263.442 1.89443 -2.47182
  138 263.442 1.89443 -2.47182
  139 266.371 3.69962 -7.84199
  140 266.371 3.69962 -7.84199
  141 265.127 3.60064 7.07069
  142 265.127 3.60064 7.07069
  143 253.676 8.76327 -0.285439
  144 253.676 8.76327 -0.285439
  145 211.606 14.0838 -1.65676
  146 211.606 14.0838 -1.65676
  147 308.300 -11.0168 5.07728
  148 308.300 -11.0168 5.07728
  149 353.025 -12.7351 -12.9214
  150 353.025 -12.7351 -12.9214
  151 272.152 -30.2384 42.4188
  152 272.152 -30.2384 42.4188
  153 205.579 -55.6809 -94.9999
  154 205.579 -55.6809 -94.9999
  155 241.421 9.93531 14.7436
  156 241.421 9.93531 14.7436
  157 313.610 -1.98564 -11.9047
  158 313.610 -1.98564 -11.9047
  159 429.560 33.8941 23.9765
  160 429.560 33.8941 23.9765
  161 214.158 -59.4843 110.148
  162 214.158 -59.4843 110.148
  163 439.238 14.6677 -4.98185
  164 439.238 14.6677 -4.98185
  165 252.654 8.73222 6.89673
  166 252.654 8.73222 6.89673
  167 239.962 8.20620 -21.5254
  168 239.962 8.20620 -21.5254
  169 297.277 8.89995 7.05333
  170 297.277 8.89995 7.05333
  171 250.255 10.4097 -7.82034
  172 250.255 10.4097 -7.82034
  173 260.604 4.23725 1.15753
  174 260.604 4.23725 1.15753
  175 265.022 2.05617 -4.19763
  176 265.022 2.05617 -4.19763
  177 411.801 31.7642 -23.3902
  178 411.801 31.7642 -23.3902
  179 260.822 4.12225 -1.39861
  180 260.822 4.12225 -1.39861
  181 191.722 14.0104 -11.1668
  182 191.722 14.0104 -11.1668
  183 347.739 25.6242 2.61102
  184 347.739 25.6242 2.61102
  185 70.0659 -58.8882 -65.9797
  186 70.0659 -58.8882 -65.9797
  187 189.229 -2.09809 47.0544
  188 189.229 -2.09809 47.0544
  189 253.923 -40.8045 -65.8890
  190 253.923 -40.8045 -65.8890
  191 299.816 -8.19554 3.47268
  192 299.816 -8.19554 3.47268
  193 280.445 -0.909568 10.7598
  194 280.445 -0.909568 10.7598
  195 382.537 10.5498 21.7675
  196 382.537 10.5498 21.7675
  197 157.421 4.87981 -29.0115
  198 157.421 4.87981 -29.0115
  199 435.247 19.5857 11.3556
  200 435.247 19.5857 11.3556
  201 285.708 -3.45600 -11.2253
  202 285.708 -3.45600 -11.2253
  203 265.443 1.47009 3.87261
  204 265.443 1.47009 3.87261
  205 297.486 -11.5830 -5.57029
  206 297.486 -11.5830 -5.57029
  207 325.665 -16.4920 -1.48792
  208 325.665 -16.4920 -1.48792
  209 20.2243 -119.748 9.69538
  210 20.2243 -119.748 9.69538
  211 273.879 1.48352 -9.54892
  212 273.879 1.48352 -9.54892
  213 271.552 2.16675 8.36193
  214 271.552 2.16675 8.36193
  215 261.279 -23.9216 -42.0727
  216 261.279 -23.9216 -42.0727
  217 305.263 -6.47050 -7.36216
  218 305.263 -6.47050 -7.36216
  219 249.406 9.05123 -14.7464
  220 249.406 9.05123 -14.7464
  221 68.7526 -86.4996 72.1223
  222 68.7526 -86.4996 72.1223
  223 309.229 1.27361 11.2058
  224 309.229 1.27361 11.2058
  225 300.086 7.54774 -9.38262
  226 300.086 7.54774 -9.38262
  227 430.199 25.7250 -19.2818
  228 430.199 25.7250 -19.2818
  229 326.757 -12.2494 -6.05539
  230 326.757 -12.2494 -6.05539
  231 357.937 -17.1117 -61.7732
  232 357.937 -17.1117 -61.7732
  233 262.049 -11.7929 32.5292
  234 262.049 -11.7929 32.5292
  235 256.526 7.32655 1.17141
  236 256.526 7.32655 1.17141
  237 135.718 -20.1973 60.6245
  238 135.718 -20.1973 60.6245
  239 342.558 -30.3172 72.5385
  240 342.558 -30.3172 72.5385
  241 91.7957 -12.4182 -29.9047
  242 91.7957 -12.4182 -29.9047
  243 303.892 -22.7430 -14.2889
  244 303.892 -22.7430 -14.2889
  245 246.861 11.2090 8.55392
  246 246.861 11.2090 8.55392
  247 8.98293 -155.420 -7.83501
  248 8.98293 -155.420 -7.83501
  249 17.0601 -137.063 26.0245
  250 17.0601 -137.063 26.0245
  251 251.549 1.76759 23.5145
  252 251.549 1.76759 23.5145
  253 262.898 1.00898 0.961359
  254 262.898 1.00898 0.961359
  255 260.579 4.27146 0.181945
  256 260.579 4.27146 0.181945
  257 244.422 -3.00966 -31.1600
  258 244.422 -3.00966 -31.1600
  259 263.067 0.917465 -1.01817
  260 263.067 0.917465 -1.01817
  261 291.567 -20.4610 19.2754
  262 291.567 -20.4610 19.2754
  263 270.260 0.970683 -4.69235
  264 270.260 0.970683 -4.69235
  265 208.926 -17.6891 -57.5996
  266 208.926 -17.6891 -57.5996
  267 357.013 27.3264 -1.61706
  268 357.013 27.3264 -1.61706
  269 260.231 5.83442 -12.0669
  270 260.231 5.83442 -12.0669
  271 259.187 5.46242 -2.43765
  272 259.187 5.46242 -2.43765
  273 219.776 10.6963 -21.4787
  274 219.776 10.6963 -21.4787
  275 66.3758 -26.5212 17.1513
  276 66.3758 -26.5212 17.1513
  277 278.809 -46.0348 58.7215
  278 278.809 -46.0348 58.7215
  279 262.056 3.94229 4.75875
  280 262.056 3.94229 4.75875
  281 390.214 27.7006 -5.83267
  282 390.214 27.7006 -5.83267
  283 468.856 38.9808 53.9769
  284 468.856 38.9808 53.9769
  285 313.141 -33.2023 18.8227
  286 313.141 -33.2023 18.8227
  287 224.151 11.2447 15.7927
  288 224.151 11.2447 15.7927
  289 287.051 -56.8220 77.3909
  290 287.051 -56.8220 77.3909
  291 295.095 -3.42929 7.21322
  292 295.095 -3.42929 7.21322
  293 261.897 2.59863 1.31239
  294 261.897 2.59863 1.31239
  295 258.063 7.15148 -7.73189
  296 258.063 7.15148 -7.73189
  297 260.648 4.20251 -0.360391
  298 260.648 4.20251 -0.360391
  299 264.534 0.737424 -1.83310
  300 264.534 0.737424 -1.83310
  301 270.000 1.35775 4.71084
  302 270.000 1.35775 4.71084
  303 256.604 7.28675 -1.99201
  304 256.604 7.28675 -1.99201
  305 59.0703 -100.978 -68.4555
  306 59.0703 -100.978 -68.4555
  307 175.343 11.3661 14.6152
  308 175.343 11.3661 14.6152
  309 262.205 2.16663 -1.26191
  310 262.205 2.16663 -1.26191
  311 230.454 13.3415 -10.5853
  312 230.454 13.3415 -10.5853
  313 231.030 14.5499 4.04698
  314 231.030 14.5499 4.04698
  315 261.628 3.79091 -3.37753
  316 261.628 3.79091 -3.37753
  317 351.874 18.0713 -0.239651
  318 351.874 18.0713 -0.239651
  319 259.610 6.33748 10.5946
  320 259.610 6.33748 10.5946
  321 331.937 10.2001 -9.54685
  322 331.937 10.2001 -9.54685
  323 493.179 14.0575 32.9349
  324 493.179 14.0575 32.9349
  325 258.602 6.56350 6.68646
  326 258.602 6.56350 6.68646
  327 254.391 8.68183 3.49760
  328 254.391 8.68183 3.49760
  329 200.463 -45.2080 -108.816
  330 200.463 -45.2080 -108.816
  331 264.687 0.666898 1.79350
  332 264.687 0.666898 1.79350
  333 258.924 5.50564 1.82089
  334 258.924 5.50564 1.82089
  335 249.154 11.2353 0.400276
  336 249.154 11.2353 0.400276
  337 128.773 -45.7401 87.8329
  338 128.773 -45.7401 87.8329
  339 321.545 20.9920 1.67873
  340 321.545 20.9920 1.67873
  341 18.5541 -134.266 -30.2667
  342 18.5541 -134.266 -30.2667
  343 199.807 12.6182 13.0510
  344 199.807 12.6182 13.0510
  345 466.442 6.46623 4.63344
  346 466.442 6.46623 4.63344
  347 486.824 24.4880 -33.8402
  348 486.824 24.4880 -33.8402
  349 226.396 -26.0853 64.4351
  350 235.937 -13.4393 47.8398
  351 226.396 -26.0853 64.4351
  352 235.937 -13.4393 47.8398
  353 473.123 11.9217 17.3242
  354 473.123 11.9217 17.3242
  355 268.087 -0.345812 18.3479
  356 268.087 -0.345812 18.3479
  357 318.702 -42.9590 -45.1848
  358 318.702 -42.9590 -45.1848
  359 301.693 -2.63717 9.09352
  360 301.693 -2.63717 9.09352
  361 205.365 -45.0830 119.290
  362 205.365 -45.0830 119.290
  363 352.877 28.3316 -0.970448
  364 352.877 28.3316 -0.970448
  365 473.088 4.39062 -3.63383
  366 473.088 4.39062 -3.63383
  367 285.702 0.180090 -8.99860
  368 285.702 0.180090 -8.99860
  369 254.401 9.22839 -4.18368
  370 254.401 9.22839 -4.18368
  371 395.008 30.6329 9.58600
  372 395.008 30.6329 9.58600
  373 301.537 12.5395 -1.98320
  374 301.537 12.5395 -1.98320
  375 275.212 1.06958 -5.80126
  376 275.212 1.06958 -5.80126
  377 74.1309 -37.4433 -50.2923
  378 74.1309 -37.4433 -50.2923
  379 304.396 -5.45834 2.62166
  380 304.396 -5.45834 2.62166
  381 260.108 -0.382244 -21.6191
  382 260.108 -0.382244 -21.6191
  383 299.407 -0.647257 -10.8335
  384 299.407 -0.647257 -10.8335
  385 475.001 8.45776 -14.3725
  386 475.001 8.45776 -14.3725
  387 260.946 4.05998 2.67173
  388 260.946 4.05998 2.67173
  389 318.488 15.4178 9.17040
  390 318.488 15.4178 9.17040
  391 344.488 -7.75471 2.43804
  392 344.488 -7.75471 2.43804
  393 261.945 4.76944 -5.94390
  394 261.945 4.76944 -5.94390
  395 502.781 45.6648 -62.7652
  396 502.781 45.6648 -62.7652
  397 300.540 -4.32981 -3.02855
  398 300.540 -4.32981 -3.02855
</Section>

newXOutput 77

<Section columns = "stress_xx | stress_yy | stress_xy">
  1 265.805 0.257978 -0.306040
  2 265.923 0.321261 0.412856
  3 265.805 0.257978 -0.306040
  4 265.923 0.321261 0.412856
  5 412.936 24.7201 113.902
  6 429.276 23.8524 -112.033
  7 412.936 24.7201 113.902
  8 429.276 23.8524 -112.033
  9 266.485 0.183082 -0.802197
  10 268.743 0.325384 -1.42299
  11 271.999 0.741086 -2.88052
  12 279.467 0.281680 -3.85939
  13 289.012 0.476616 -6.28624
  14 300.116 -2.62708 -6.13057
  15 310.185 -3.18648 -0.615068
  16 304.972 -2.20585 5.32805
  17 292.909 2.23890 9.28419
  18 286.354 5.57175 -0.360074
  19 291.156 2.68099 -8.70124
  20 304.632 -3.27312 -6.49706
  21 307.325 -3.86684 1.95563
  22 301.686 -1.73825 5.27370
  23 286.988 0.120007 6.31143
  24 278.801 1.06612 4.88228
  25 272.188 0.850283 2.76966
  26 268.787 0.261470 1.30432
  27 266.632 0.216154 0.773826
  28 266.331 0.958785 0.482466
  29 265.839 1.97102 0.559479
  30 264.629 3.43105 0.496927
  31 264.145 3.99150 -0.0482057
  32 264.768 3.25403 -0.596686
  33 265.637 2.14877 -0.510666
  34 266.020 1.08612 -0.538356
  35 266.485 0.183082 -0.802197
  36 268.743 0.325384 -1.42299
  37 271.999 0.741086 -2.88052
  38 279.467 0.281680 -3.85939
  39 289.012 0.476616 -6.28624
  40 300.116 -2.62708 -6.13057
  41 310.185 -3.18648 -0.615068
  42 304.972 -2.20585 5.32805
  43 292.909 2.23890 9.28419
  44 286.354 5.57175 -0.360074
  45 291.156 2.68099 -8.70124
  46 304.632 -3.27312 -6.49706
  47 307.325 -3.86684 1.95563
  48 301.686 -1.73825 5.27370
  49 286.988 0.120007 6.31143
  50 278.801 1.06612 4.88228
  51 272.188 0.850283 2.76966
  52 268.787 0.261470 1.30432
  53 266.632 0.216154 0.773826
  54 266.331 0.958785 0.482466
  55 265.839 1.97102 0.559479
  56 264.629 3.43105 0.496927
  57 264.145 3.99150 -0.0482057
  58 264.768 3.25403 -0.596686
  59 265.637 2.14877 -0.510666
  60 266.020 1.08612 -0.538356
  61 573.121 29.4090 59.5613
  62 522.248 8.58562 21.2601
  63 492.174 3.65199 7.91267
  64 485.767 2.62960 1.58101
  65 491.940 3.46725 -6.76635
  66 514.790 7.38356 -18.5040
  67 578.480 25.6175 -51.2726
  68 75.9261 -85.9680 -92.4445
  69 15.0104 -192.426 -23.1597
  70 4.41909 -217.925 -10.1360
  71 4.21718 -213.911 -5.29140
  72 7.02449 -208.342 10.8315
  73 16.2396 -186.521 24.4954
  74 82.5133 -80.2595 102.544
  75 573.121 29.4090 59.5613
  76 522.248 8.58562 21.2601
  77 492.174 3.65199 7.91267
  78 485.767 2.62960 1.58101
  79 491.940 3.46725 -6.76635
  80 514.790 7.38356 -18.5040
  81 578.480 25.6175 -51.2726
  82 75.9261 -85.9680 -92.4445
  83 15.0104 -192.426 -23.1597
  84 4.41909 -217.925 -10.1360
  85 4.21718 -213.911 -5.29140
  86 7.02449 -208.342 10.8315
  87 16.2396 -186.521 24.4954
  88 82.5133 -80.2595 102.544
  89 243.937 14.0267 -3.65954
  90 243.937 14.0267 -3.65954
  91 222.698 3.07293 32.8949
  92 213.949 -1.35180 -39.1961
  93 222.698 3.07293 32.8949
  94 213.949 -1.35180 -39.1961
  95 125.574 3.02384 15.7004
  96 125.574 3.02384 15.7004
  97 327.809 21.0351 -5.30485
  98 334.382 11.9083 10.7568
  99 327.809 21.0351 -5.30485
  100 334.382 11.9083 10.7568
  101 261.960 6.38182 3.68942
  102 261.960 6.38182 3.68942
  103 313.934 -17.8508 -0.0115518
  104 313.934 -17.8508 -0.0115518
  105 262.292 6.66812 -4.55006
  106 262.292 6.66812 -4.55006
  107 308.744 -37.9750 -34.3354
  108 308.744 -37.9750 -34.3354
  109 215.560 -44.7450 86.1132
  110 215.560 -44.7450 86.1132
  111 145.250 -26.3559 -69.3354
  112 145.250 -26.3559 -69.3354
  113 263.393 4.46138 15.6889
  114 263.393 4.46138 15.6889
  115 273.150 1.89179 -14.9817
  116 273.150 1.89179 -14.9817
  117 371.354 24.6734 2.96132
  118 398.117 25.9117 2.16757
  119 371.354 24.6734 2.96132
  120 398.117 25.9117 2.16757
  121 389.677 32.7150 -9.60900
  122 389.677 32.7150 -9.60900
  123 42.4061 -70.2288 -22.4721
  124 42.4061 -70.2288 -22.4721
  125 335.650 -41.7655 36.8408
  126 335.650 -41.7655 36.8408
  127 282.523 -6.78056 17.5266
  128 282.523 -6.78056 17.5266
  129 64.5736 -60.7038 51.7828
  130 64.5736 -60.7038 51.7828
  131 262.344 5.33512 -0.234350
  132 262.344 5.33512 -0.234350
  133 282.105 -13.1033 -22.2983
  134 282.105 -13.1033 -22.2983
  135 266.599 2.18286 2.67999
  136 266.599 2.18286 2.67999
  137 266.846 1.91840 -2.50191
  138 266.846 1.91840 -2.50191
  139 269.811 3.74606 -7.93946
  140 269.811 3.74606 -7.93946
  141 268.552 3.64595 7.15830
  142 268.552 3.64595 7.15830
  143 256.963 8.87427 -0.289060
  144 256.963 8.87427 -0.289060
  145 214.370 14.2660 -1.67826
  146 214.370 14.2660 -1.67826
  147 312.268 -11.1577 5.12628
  148 312.268 -11.1577 5.12628
  149 357.537 -12.8797 -13.1273
  150 357.537 -12.8797 -13.1273
  151 275.654 -30.6314 42.9746
  152 275.654 -30.6314 42.9746
  153 208.224 -56.3928 -96.2679
  154 208.224 -56.3928 -96.2679
  155 244.555 10.0628 14.9311
  156 244.555 10.0628 14.9311
  157 317.648 -2.00802 -12.0378
  158 317.648 -2.00802 -12.0378
  159 435.021 34.3351 24.3053
  160 435.021 34.3351 24.3053
  161 216.911 -60.2511 111.611
  162 216.911 -60.2511 111.611
  163 444.802 14.8477 -5.04677
  164 444.802 14.8477 -5.04677
  165 255.928 8.84298 6.98287
  166 255.928 8.84298 6.98287
  167 243.077 8.31171 -21.8007
  168 243.077 8.31171 -21.8007
  169 301.129 9.01820 7.13643
  170 301.129 9.01820 7.13643
  171 253.500 10.5421 -7.91841
  172 253.500 10.5421 -7.91841
  173 263.975 4.29056 1.17165
  174 263.975 4.29056 1.17165
  175 268.445 2.08203 -4.24911
  176 268.445 2.08203 -4.24911
  177 417.043 32.1947 -23.7290
  178 417.043 32.1947 -23.7290
  179 264.195 4.17416 -1.41564
  180 264.195 4.17416 -1.41564
  181 194.233 14.1942 -11.3110
  182 194.233 14.1942 -11.3110
  183 352.212 25.9574 2.62579
  184 352.212 25.9574 2.62579
  185 70.9840 -59.6361 -66.8753
  186 70.9840 -59.6361 -66.8753
  187 191.697 -2.12281 47.6654
  188 191.697 -2.12281 47.6654
  189 257.190 -41.3352 -66.7557
  190 257.190 -41.3352 -66.7557
  191 303.674 -8.30256 3.52606
  192 303.674 -8.30256 3.52606
  193 284.058 -0.922643 10.8973
  194 284.058 -0.922643 10.8973
  195 387.416 10.7121 22.0910
  196 387.416 10.7121 22.0910
  197 159.489 4.94885 -29.3901
  198 159.489 4.94885 -29.3901
  199 440.770 19.8293 11.5058
  200 440.770 19.8293 11.5058
  201 289.386 -3.50213 -11.3716
  202 289.386 -3.50213 -11.3716
  203 268.872 1.48853 3.92006
  204 268.872 1.48853 3.92006
  205 301.314 -11.7343 -5.65155
  206 301.314 -11.7343 -5.65155
  207 329.843 -16.6991 -1.53316
  208 329.843 -16.6991 -1.53316
  209 20.4870 -121.305 9.83117
  210 20.4870 -121.305 9.83117
  211 277.411 1.50123 -9.66900
  212 277.411 1.50123 -9.66900
  213 275.055 2.19372 8.46653
  214 275.055 2.19372 8.46653
  215 264.648 -24.2324 -42.6227
  216 264.648 -24.2324 -42.6227
  217 309.196 -6.55407 -7.44275
  218 309.196 -6.55407 -7.44275
  219 252.639 9.16676 -14.9336
  220 252.639 9.16676 -14.9336
  221 69.6444 -87.5974 73.1086
  222 69.6444 -87.5974 73.1086
  223 313.218 1.29423 11.3328
  224 313.218 1.29423 11.3328
  225 303.970 7.64832 -9.49203
  226 303.970 7.64832 -9.49203
  227 435.665 26.0505 -19.5420
  228 435.665 26.0505 -19.5420
  229 330.950 -12.4015 -6.10684
  230 330.950 -12.4015 -6.10684
  231 362.491 -17.2916 -62.6182
  232 362.491 -17.2916 -62.6182
  233 265.431 -11.9459 32.9507
  234 265.431 -11.9459 32.9507
  235 259.848 7.41913 1.18589
  236 259.848 7.41913 1.18589
  237 137.494 -20.4541 61.4252
  238 137.494 -20.4541 61.4252
  239 346.917 -30.6758 73.5199
  240 346.917 -30.6758 73.5199
  241 93.0112 -12.5658 -30.3022
  242 93.0112 -12.5658 -30.3022
  243 307.795 -23.0376 -14.4876
  244 307.795 -23.0376 -14.4876
  245 250.064 11.3520 8.66173
  246 250.064 11.3520 8.66173
  247 9.09499 -157.456 -7.94654
  248 9.09499 -157.456 -7.94654
  249 17.2799 -138.844 26.3933
  250 17.2799 -138.844 26.3933
  251 254.805 1.78995 23.8158
  252 254.805 1.78995 23.8158
  253 266.295 1.02178 0.972988
  254 266.295 1.02178 0.972988
  255 263.949 4.32510 0.184172
  256 263.949 4.32510 0.184172
  257 247.588 -3.04897 -31.5620
  258 247.588 -3.04897 -31.5620
  259 266.466 0.929149 -1.03049
  260 266.466 0.929149 -1.03049
  261 295.317 -20.7266 19.5339
  262 295.317 -20.7266 19.5339
  263 273.746 0.982716 -4.75011
  264 273.746 0.982716 -4.75011
  265 211.637 -17.9187 -58.3509
  266 211.637 -17.9187 -58.3509
  267 361.600 27.6803 -1.61917
  268 361.600 27.6803 -1.61917
  269 263.597 5.90805 -12.2187
  270 263.597 5.90805 -12.2187
  271 262.540 5.53131 -2.46753
  272 262.540 5.53131 -2.46753
  273 222.639 10.8351 -21.7543
  274 222.639 10.8351 -21.7543
  275 67.2566 -26.8468 17.3820
  276 67.2566 -26.8468 17.3820
  277 282.386 -46.6329 59.4962
  278 282.386 -46.6329 59.4962
  279 265.444 3.99202 4.81726
  280 265.444 3.99202 4.81726
  281 395.205 28.0518 -5.91726
  282 395.205 28.0518 -5.91726
  283 474.777 39.5140 54.6995
  284 474.777 39.5140 54.6995
  285 317.154 -33.6296 19.0867
  286 317.154 -33.6296 19.0867
  287 227.071 11.3901 15.9943
  288 227.071 11.3901 15.9943
  289 290.723 -57.5577 78.4142
  290 290.723 -57.5577 78.4142
  291 298.890 -3.47475 7.30851
  292 298.890 -3.47475 7.30851
  293 265.283 2.63137 1.32834
  294 265.283 2.63137 1.32834
  295 261.404 7.24200 -7.82806
  296 261.404 7.24200 -7.82806
  297 264.020 4.25529 -0.364774
  298 264.020 4.25529 -0.364774
  299 267.951 0.746758 -1.85538
  300 267.951 0.746758 -1.85538
  301 273.484 1.37469 4.76882
  302 273.484 1.37469 4.76882
  303 259.927 7.37886 -2.01661
  304 259.927 7.37886 -2.01661
  305 59.8348 -102.258 -69.3961
  306 59.8348 -102.258 -69.3961
  307 177.643 11.5173 14.8041
  308 177.643 11.5173 14.8041
  309 265.594 2.19399 -1.27722
  310 265.594 2.19399 -1.27722
  311 233.453 13.5130 -10.7202
  312 233.453 13.5130 -10.7202
  313 234.037 14.7369 4.09824
  314 234.037 14.7369 4.09824
  315 265.011 3.83872 -3.41890
  316 265.011 3.83872 -3.41890
  317 356.387 18.3178 -0.276680
  318 356.387 18.3178 -0.276680
  319 262.969 6.41769 10.7272
  320 262.969 6.41769 10.7272
  321 336.206 10.3389 -9.64427
  322 336.206 10.3389 -9.64427
  323 499.383 14.2313 33.3590
  324 499.383 14.2313 33.3590
  325 261.949 6.64652 6.76941
  326 261.949 6.64652 6.76941
  327 257.687 8.79179 3.54099
  328 257.687 8.79179 3.54099
  329 203.025 -45.7167 -110.284
  330 203.025 -45.7167 -110.284
  331 268.106 0.675330 1.81529
  332 268.106 0.675330 1.81529
  333 262.275 5.57504 1.84323
  334 262.275 5.57504 1.84323
  335 252.386 11.3782 0.405255
  336 252.386 11.3782 0.405255
  337 130.452 -46.3299 89.0063
  338 130.452 -46.3299 89.0063
  339 325.698 21.2655 1.69597
  340 325.698 21.2655 1.69597
  341 18.7911 -136.009 -30.6906
  342 18.7911 -136.009 -30.6906
  343 202.420 12.7829 13.2184
  344 202.420 12.7829 13.2184
  345 472.315 6.54414 4.69033
  346 472.315 6.54414 4.69033
  347 492.960 24.8036 -34.2795
  348 492.960 24.8036 -34.2795
  349 229.322 -26.4250 65.2759
  350 238.991 -13.6135 48.4592
  351 229.322 -26.4250 65.2759
  352 238.991 -13.6135 48.4592
  353 479.082 12.0673 17.5436
  354 479.082 12.0673 17.5436
  355 271.548 -0.351361 18.5828
  356 271.548 -0.351361 18.5828
  357 322.774 -43.5095 -45.7939
  358 322.774 -43.5095 -45.7939
  359 305.586 -2.67005 9.19917
  360 305.586 -2.67005 9.19917
  361 207.979 -45.5946 120.893
  362 207.979 -45.5946 120.893
  363 357.417 28.6951 -0.982174
  364 357.417 28.6951 -0.982174
  365 479.035 4.44312 -3.67932
  366 479.035 4.44312 -3.67932
  367 289.377 0.181056 -9.11290
  368 289.377 0.181056 -9.11290
  369 257.697 9.34539 -4.23569
  370 257.697 9.34539 -4.23569
  371 400.056 31.0258 9.72795
  372 400.056 31.0258 9.72795
  373 305.442 12.7040 -2.00637
  374 305.442 12.7040 -2.00637
  375 278.758 1.08256 -5.87331
  376 278.758 1.08256 -5.87331
  377 75.1141 -37.9153 -50.9695
  378 75.1141 -37.9153 -50.9695
  379 308.313 -5.52928 2.64678
  380 308.313 -5.52928 2.64678
  381 263.471 -0.388292 -21.8970
  382 263.471 -0.388292 -21.8970
  383 303.277 -0.654631 -10.9603
  384 303.277 -0.654631 -10.9603
  385 480.980 8.56165 -14.5535
  386 480.980 8.56165 -14.5535
  387 264.321 4.11112 2.70442
  388 264.321 4.11112 2.70442
  389 322.598 15.6215 9.27199
  390 322.598 15.6215 9.27199
  391 348.898 -7.84194 2.50365
  392 348.898 -7.84194 2.50365
  393 265.331 4.82964 -6.01723
  394 265.331 4.82964 -6.01723
  395 509.107 46.2952 -63.6002
  396 509.107 46.2952 -63.6002
  397 304.402 -4.38711 -3.07157
  398 304.402 -4.38711 -3.07157
</Section>

newXOutput 78

<Section columns = "stress_xx | stress_yy | stress_xy">
  1 269.194 0.261310 -0.309663
  2 269.313 0.325368 0.417737
  3 269.194 0.261310 -0.309663
  4 269.313 0.325368 0.417737
  5 418.056 25.1340 115.399
  6 434.590 24.2596 -113.507
  7 418.056 25.1340 115.399
  8 434.590 24.2596 -113.507
  9 269.882 0.185405 -0.811727
  10 272.167 0.329463 -1.43999
  11 275.461 0.750261 -2.91519
  12 283.018 0.285012 -3.90626
  13 292.678 0.481897 -6.36393
  14 303.917 -2.66189 -6.20855
  15 314.115 -3.22794 -0.626462
  16 308.852 -2.23389 5.38824
  17 296.656 2.26933 9.39284
  18 290.028 5.64496 -0.364357
  19 294.882 2.71591 -8.80360
  20 308.509 -3.31497 -6.57033
  21 311.220 -3.91723 1.98473
  22 305.507 -1.76117 5.34113
  23 290.630 0.120534 6.38980
  24 282.344 1.07910 4.94174
  25 275.652 0.860815 2.80295
  26 272.211 0.264753 1.31988
  27 270.031 0.218909 0.783045
  28 269.727 0.970782 0.488162
  29 269.229 1.99555 0.566134
  30 268.005 3.47355 0.502867
  31 267.515 4.04088 -0.0487805
  32 268.146 3.29437 -0.603794
  33 269.025 2.17551 -0.516674
  34 269.411 1.09974 -0.544765
  35 269.882 0.185405 -0.811727
  36 272.167 0.329463 -1.43999
  37 275.461 0.750261 -2.91519
  38 283.018 0.285012 -3.90626
  39 292.678 0.481897 -6.36393
  40 303.917 -2.66189 -6.20855
  41 314.115 -3.22794 -0.626462
  42 308.852 -2.23389 5.38824
  43 296.656 2.26933 9.39284
  44 290.028 5.64496 -0.364357
  45 294.882 2.71591 -8.80360
  46 308.509 -3.31497 -6.57033
  47 311.220 -3.91723 1.98473
  48 305.507 -1.76117 5.34113
  49 290.630 0.120534 6.38980
  50 282.344 1.07910 4.94174
  51 275.652 0.860815 2.80295
  52 272.211 0.264753 1.31988
  53 270.031 0.218909 0.783045
  54 269.727 0.970782 0.488162
  55 269.229 1.99555 0.566134
  56 268.005 3.47355 0.502867
  57 267.515 4.04088 -0.0487805
  58 268.146 3.29437 -0.603794
  59 269.025 2.17551 -0.516674
  60 269.411 1.09974 -0.544765
  61 580.170 29.7890 60.3125
  62 528.686 8.68974 21.5215
  63 498.257 3.69368 8.00780
  64 491.774 2.66012 1.59886
  65 498.019 3.50813 -6.84732
  66 521.142 7.47239 -18.7296
  67 585.596 25.9479 -51.9199
  68 76.8862 -86.9679 -93.6892
  69 15.2005 -194.902 -23.4940
  70 4.46762 -220.778 -10.2816
  71 4.26374 -216.716 -5.36068
  72 7.10859 -211.062 10.9876
  73 16.4473 -188.920 24.8502
  74 83.5494 -81.1860 103.921
  75 580.170 29.7890 60.3125
  76 528.686 8.68974 21.5215
  77 498.257 3.69368 8.00780
  78 491.774 2.66012 1.59886
  79 498.019 3.50813 -6.84732
  80 521.142 7.47239 -18.7296
  81 585.596 25.9479 -51.9199
  82 76.8862 -86.9679 -93.6892
  83 15.2005 -194.902 -23.4940
  84 4.46762 -220.778 -10.2816
  85 4.26374 -216.716 -5.36068
  86 7.10859 -211.062 10.9876
  87 16.4473 -188.920 24.8502
  88 83.5494 -81.1860 103.921
  89 247.064 14.2036 -3.70523
  90 247.064 14.2036 -3.70523
  91 225.556 3.11317 33.3127
  92 216.696 -1.36798 -39.6964
  93 225.556 3.11317 33.3127
  94 216.696 -1.36798 -39.6964
  95 127.212 3.07222 15.9032
  96 127.212 3.07222 15.9032
  97 331.983 21.3058 -5.36161
  98 338.626 12.0675 10.8672
  99 331.983 21.3058 -5.36161
  100 338.626 12.0675 10.8672
  101 265.305 6.46129 3.73423
  102 265.305 6.46129 3.73423
  103 317.914 -18.0775 0.00723324
  104 317.914 -18.0775 0.00723324
  105 265.640 6.75126 -4.60542
  106 265.640 6.75126 -4.60542
  107 312.646 -38.4599 -34.7886
  108 312.646 -38.4599 -34.7886
  109 218.307 -45.3200 87.2314
  110 218.307 -45.3200 87.2314
  111 147.121 -26.6893 -70.2405
  112 147.121 -26.6893 -70.2405
  113 266.753 4.51669 15.8849
  114 266.753 4.51669 15.8849
  115 276.628 1.91420 -15.1698
  116 276.628 1.91420 -15.1698
  117 376.048 24.9979 3.03280
  118 403.136 26.2336 2.20045
  119 376.048 24.9979 3.03280
  120 403.136 26.2336 2.20045
  121 394.596 33.1357 -9.75731
  122 394.596 33.1357 -9.75731
  123 42.9570 -71.1120 -22.7765
  124 42.9570 -71.1120 -22.7765
  125 339.878 -42.2871 37.3409
  126 339.878 -42.2871 37.3409
  127 286.115 -6.86821 17.7521
  128 286.115 -6.86821 17.7521
  129 65.4126 -61.4645 52.4783
  130 65.4126 -61.4645 52.4783
  131 265.693 5.40138 -0.237152
  132 265.693 5.40138 -0.237152
  133 285.690 -13.2717 -22.5872
  134 285.690 -13.2717 -22.5872
  135 269.998 2.21004 2.71221
  136 269.998 2.21004 2.71221
  137 270.247 1.94234 -2.53194
  138 270.247 1.94234 -2.53194
  139 273.248 3.79242 -8.03674
  140 273.248 3.79242 -8.03674
  141 271.975 3.69120 7.24574
  142 271.975 3.69120 7.24574
  143 260.248 8.98511 -0.292677
  144 260.248 8.98511 -0.292677
  145 217.132 14.4482 -1.69974
  146 217.132 14.4482 -1.69974
  147 316.232 -11.2985 5.17482
  148 316.232 -11.2985 5.17482
  149 362.043 -13.0237 -13.3339
  150 362.043 -13.0237 -13.3339
  151 279.152 -31.0242 43.5301
  152 279.152 -31.0242 43.5301
  153 210.866 -57.1040 -97.5358
  154 210.866 -57.1040 -97.5358
  155 247.688 10.1901 15.1182
  156 247.688 10.1901 15.1182
  157 321.683 -2.03029 -12.1702
  158 321.683 -2.03029 -12.1702
  159 440.475 34.7759 24.6343
  160 440.475 34.7759 24.6343
  161 219.661 -61.0172 113.073
  162 219.661 -61.0172 113.073
  163 450.360 15.0273 -5.11165
  164 450.360 15.0273 -5.11165
  165 259.201 8.95361 7.06887
  166 259.201 8.95361 7.06887
  167 246.190 8.41712 -22.0757
  168 246.190 8.41712 -22.0757
  169 304.978 9.13644 7.21926
  170 304.978 9.13644 7.21926
  171 256.743 10.6743 -8.01631
  172 256.743 10.6743 -8.01631
  173 267.343 4.34379 1.18574
  174 267.343 4.34379 1.18574
  175 271.866 2.10786 -4.30049
  176 271.866 2.10786 -4.30049
  177 422.279 32.6254 -24.0684
  178 422.279 32.6254 -24.0684
  179 267.566 4.22600 -1.43264
  180 267.566 4.22600 -1.43264
  181 196.742 14.3779 -11.4551
  182 196.742 14.3779 -11.4551
  183 356.680 26.2904 2.64008
  184 356.680 26.2904 2.64008
  185 71.9016 -60.3831 -67.7713
  186 71.9016 -60.3831 -67.7713
  187 194.163 -2.14745 48.2760
  188 194.163 -2.14745 48.2760
  189 260.454 -41.8657 -67.6221
  190 260.454 -41.8657 -67.6221
  191 307.528 -8.40952 3.57962
  192 307.528 -8.40952 3.57962
  193 287.667 -0.935741 11.0347
  194 287.667 -0.935741 11.0347
  195 392.289 10.8748 22.4152
  196 392.289 10.8748 22.4152
  197 161.555 5.01799 -29.7684
  198 161.555 5.01799 -29.7684
  199 446.285 20.0725 11.6559
  200 446.285 20.0725 11.6559
  201 293.062 -3.54826 -11.5177
  202 293.062 -3.54826 -11.5177
  203 272.297 1.50694 3.96740
  204 272.297 1.50694 3.96740
  205 305.137 -11.8856 -5.73297
  206 305.137 -11.8856 -5.73297
  207 334.017 -16.9059 -1.57902
  208 334.017 -16.9059 -1.57902
  209 20.7494 -122.861 9.96714
  210 20.7494 -122.861 9.96714
  211 280.939 1.51889 -9.78889
  212 280.939 1.51889 -9.78889
  213 278.555 2.22063 8.57096
  214 278.555 2.22063 8.57096
  215 268.014 -24.5430 -43.1724
  216 268.014 -24.5430 -43.1724
  217 313.125 -6.63757 -7.52291
  218 313.125 -6.63757 -7.52291
  219 255.870 9.28215 -15.1206
  220 255.870 9.28215 -15.1206
  221 70.5356 -88.6937 74.0955
  222 70.5356 -88.6937 74.0955
  223 317.204 1.31495 11.4593
  224 317.204 1.31495 11.4593
  225 307.852 7.74889 -9.60104
  226 307.852 7.74889 -9.60104
  227 441.124 26.3756 -19.8023
  228 441.124 26.3756 -19.8023
  229 335.139 -12.5534 -6.15757
  230 335.139 -12.5534 -6.15757
  231 367.041 -17.4702 -63.4637
  232 367.041 -17.4702 -63.4637
  233 268.810 -12.0987 33.3719
  234 268.810 -12.0987 33.3719
  235 263.168 7.51159 1.20034
  236 263.168 7.51159 1.20034
  237 139.270 -20.7106 62.2257
  238 139.270 -20.7106 62.2257
  239 351.270 -31.0333 74.5016
  240 351.270 -31.0333 74.5016
  241 94.2265 -12.7130 -30.6997
  242 94.2265 -12.7130 -30.6997
  243 311.694 -23.3319 -14.6865
  244 311.694 -23.3319 -14.6865
  245 253.265 11.4949 8.76938
  246 253.265 11.4949 8.76938
  247 9.20685 -159.491 -8.05827
  248 9.20685 -159.491 -8.05827
  249 17.4995 -140.624 26.7627
  250 17.4995 -140.624 26.7627
  251 258.060 1.81227 24.1169
  252 258.060 1.81227 24.1169
  253 269.690 1.03457 0.984588
  254 269.690 1.03457 0.984588
  255 267.317 4.37865 0.186395
  256 267.317 4.37865 0.186395
  257 250.752 -3.08826 -31.9637
  258 250.752 -3.08826 -31.9637
  259 269.863 0.940819 -1.04278
  260 269.863 0.940819 -1.04278
  261 299.063 -20.9919 19.7924
  262 299.063 -20.9919 19.7924
  263 277.229 0.994727 -4.80775
  264 277.229 0.994727 -4.80775
  265 214.346 -18.1482 -59.1018
  266 214.346 -18.1482 -59.1018
  267 366.183 28.0339 -1.62081
  268 366.183 28.0339 -1.62081
  269 266.960 5.98158 -12.3702
  270 266.960 5.98158 -12.3702
  271 265.892 5.60011 -2.49734
  272 265.892 5.60011 -2.49734
  273 225.501 10.9738 -22.0297
  274 225.501 10.9738 -22.0297
  275 68.1373 -27.1716 17.6127
  276 68.1373 -27.1716 17.6127
  277 285.959 -47.2307 60.2706
  278 285.959 -47.2307 60.2706
  279 268.829 4.04167 4.87564
  280 268.829 4.04167 4.87564
  281 400.190 28.4025 -6.00201
  282 400.190 28.4025 -6.00201
  283 480.690 40.0475 55.4222
  284 480.690 40.0475 55.4222
  285 321.163 -34.0566 19.3510
  286 321.163 -34.0566 19.3510
  287 229.988 11.5353 16.1957
  288 229.988 11.5353 16.1957
  289 294.391 -58.2928 79.4373
  290 294.391 -58.2928 79.4373
  291 302.681 -3.52019 7.40377
  292 302.681 -3.52019 7.40377
  293 268.666 2.66406 1.34425
  294 268.666 2.66406 1.34425
  295 264.741 7.33239 -7.92406
  296 264.741 7.33239 -7.92406
  297 267.388 4.30800 -0.369146
  298 267.388 4.30800 -0.369146
  299 271.365 0.756079 -1.87761
  300 271.365 0.756079 -1.87761
  301 276.964 1.39161 4.82668
  302 276.964 1.39161 4.82668
  303 263.247 7.47084 -2.04117
  304 263.247 7.47084 -2.04117
  305 60.5986 -103.536 -70.3375
  306 60.5986 -103.536 -70.3375
  307 179.943 11.6685 14.9927
  308 179.943 11.6685 14.9927
  309 268.981 2.22130 -1.29249
  310 268.981 2.22130 -1.29249
  311 236.450 13.6843 -10.8550
  312 236.450 13.6843 -10.8550
  313 237.043 14.9237 4.14942
  314 237.043 14.9237 4.14942
  315 268.391 3.88647 -3.46018
  316 268.391 3.88647 -3.46018
  317 360.896 18.5644 -0.314529
  318 360.896 18.5644 -0.314529
  319 266.325 6.49778 10.8596
  320 266.325 6.49778 10.8596
  321 340.472 10.4777 -9.74097
  322 340.472 10.4777 -9.74097
  323 505.577 14.4049 33.7827
  324 505.577 14.4049 33.7827
  325 265.293 6.72943 6.85221
  326 265.293 6.72943 6.85221
  327 260.980 8.90161 3.58430
  328 260.980 8.90161 3.58430
  329 205.584 -46.2230 -111.753
  330 205.584 -46.2230 -111.753
  331 271.522 0.683752 1.83703
  332 271.522 0.683752 1.83703
  333 265.623 5.64433 1.86552
  334 265.623 5.64433 1.86552
  335 255.615 11.5210 0.410226
  336 255.615 11.5210 0.410226
  337 132.129 -46.9193 90.1797
  338 132.129 -46.9193 90.1797
  339 329.848 21.5389 1.71309
  340 329.848 21.5389 1.71309
  341 19.0279 -137.751 -31.1151
  342 19.0279 -137.751 -31.1151
  343 205.032 12.9476 13.3855
  344 205.032 12.9476 13.3855
  345 478.179 6.62186 4.74711
  346 478.179 6.62186 4.74711
  347 499.088 25.1189 -34.7184
  348 499.088 25.1189 -34.7184
  349 232.247 -26.7644 66.1163
  350 242.042 -13.7876 49.0782
  351 232.247 -26.7644 66.1163
  352 242.042 -13.7876 49.0782
  353 485.033 12.2126 17.7627
  354 485.033 12.2126 17.7627
  355 275.007 -0.356934 18.8175
  356 275.007 -0.356934 18.8175
  357 326.841 -44.0595 -46.4030
  358 326.841 -44.0595 -46.4030
  359 309.476 -2.70288 9.30444
  360 309.476 -2.70288 9.30444
  361 210.590 -46.1038 122.496
  362 210.590 -46.1038 122.496
  363 361.952 29.0581 -0.993868
  364 361.952 29.0581 -0.993868
  365 484.973 4.49548 -3.72474
  366 484.973 4.49548 -3.72474
  367 293.050 0.181986 -9.22705
  368 293.050 0.181986 -9.22705
  369 260.990 9.46225 -4.28761
  370 260.990 9.46225 -4.28761
  371 405.099 31.4182 9.87022
  372 405.099 31.4182 9.87022
  373 309.345 12.8684 -2.02945
  374 309.345 12.8684 -2.02945
  375 282.301 1.09550 -5.94523
  376 282.301 1.09550 -5.94523
  377 76.0973 -38.3866 -51.6469
  378 76.0973 -38.3866 -51.6469
  379 312.226 -5.60018 2.67167
  380 312.226 -5.60018 2.67167
  381 266.831 -0.394364 -22.1745
  382 266.831 -0.394364 -22.1745
  383 307.144 -0.661973 -11.0867
  384 307.144 -0.661973 -11.0867
  385 486.951 8.66533 -14.7343
  386 486.951 8.66533 -14.7343
  387 267.693 4.16219 2.73703
  388 267.693 4.16219 2.73703
  389 326.704 15.8251 9.37307
  390 326.704 15.8251 9.37307
  391 353.303 -7.92875 2.57006
  392 353.303 -7.92875 2.57006
  393 268.715 4.88977 -6.09042
  394 268.715 4.88977 -6.09042
  395 515.424 46.9262 -64.4351
  396 515.424 46.9262 -64.4351
  397 308.261 -4.44439 -3.11465
  398 308.261 -4.44439 -3.11465
</Section>

newXOutput 79

<Section columns = "stress_xx | stress_yy | stress_xy">
  1 272.581 0.264640 -0.313276
  2 272.701 0.329471 0.422605
  3 272.581 0.264640 -0.313276
  4 272.701 0.329471 0.422605
  5 423.169 25.5502 116.896
  6 439.896 24.6691 -114.980
  7 423.169 25.5502 116.896
  8 439.896 24.6691 -114.980
  9 273.276 0.187726 -0.821233
  10 275.587 0.333536 -1.45695
  11 278.920 0.759421 -2.94979
  12 286.565 0.288335 -3.95304
  13 296.340 0.487155 -6.44150
  14 307.715 -2.69671 -6.28647
  15 318.041 -3.26938 -0.637934
  16 312.729 -2.26191 5.44820
  17 300.400 2.29978 9.50117
  18 293.699 5.71818 -0.368629
  19 298.606 2.75081 -8.90565
  20 312.383 -3.35678 -6.64330
  21 315.111 -3.96760 2.01391
  22 309.325 -1.78409 5.40851
  23 294.269 0.121036 6.46804
  24 285.884 1.09206 5.00108
  25 279.114 0.871331 2.83616
  26 275.633 0.268032 1.33541
  27 273.427 0.221661 0.792241
  28 273.119 0.982763 0.493842
  29 272.616 2.02005 0.572772
  30 271.378 3.51599 0.508792
  31 270.883 4.09018 -0.0493538
  32 271.520 3.33465 -0.610883
  33 272.409 2.20221 -0.522666
  34 272.800 1.11335 -0.551157
  35 273.276 0.187726 -0.821233
  36 275.587 0.333536 -1.45695
  37 278.920 0.759421 -2.94979
  38 286.565 0.288335 -3.95304
  39 296.340 0.487155 -6.44150
  40 307.715 -2.69671 -6.28647
  41 318.041 -3.26938 -0.637934
  42 312.729 -2.26191 5.44820
  43 300.400 2.29978 9.50117
  44 293.699 5.71818 -0.368629
  45 298.606 2.75081 -8.90565
  46 312.383 -3.35678 -6.64330
  47 315.111 -3.96760 2.01391
  48 309.325 -1.78409 5.40851
  49 294.269 0.121036 6.46804
  50 285.884 1.09206 5.00108
  51 279.114 0.871331 2.83616
  52 275.633 0.268032 1.33541
  53 273.427 0.221661 0.792241
  54 273.119 0.982763 0.493842
  55 272.616 2.02005 0.572772
  56 271.378 3.51599 0.508792
  57 270.883 4.09018 -0.0493538
  58 271.520 3.33465 -0.610883
  59 272.409 2.20221 -0.522666
  60 272.800 1.11335 -0.551157
  61 587.207 30.1689 61.0629
  62 535.113 8.79365 21.7825
  63 504.331 3.73523 8.10270
  64 497.772 2.69055 1.61665
  65 504.089 3.54890 -6.92811
  66 527.483 7.56102 -18.9548
  67 592.700 26.2781 -52.5664
  68 77.8452 -87.9645 -94.9345
  69 15.3903 -197.376 -23.8291
  70 4.51592 -223.631 -10.4275
  71 4.31008 -219.522 -5.42996
  72 7.19248 -213.781 11.1440
  73 16.6549 -191.317 25.2058
  74 84.5842 -82.1093 105.298
  75 587.207 30.1689 61.0629
  76 535.113 8.79365 21.7825
  77 504.331 3.73523 8.10270
  78 497.772 2.69055 1.61665
  79 504.089 3.54890 -6.92811
  80 527.483 7.56102 -18.9548
  81 592.700 26.2781 -52.5664
  82 77.8452 -87.9645 -94.9345
  83 15.3903 -197.376 -23.8291
  84 4.51592 -223.631 -10.4275
  85 4.31008 -219.522 -5.42996
  86 7.19248 -213.781 11.1440
  87 16.6549 -191.317 25.2058
  88 84.5842 -82.1093 105.298
  89 250.189 14.3804 -3.75086
  90 250.189 14.3804 -3.75086
  91 228.412 3.15341 33.7300
  92 219.441 -1.38412 -40.1962
  93 228.412 3.15341 33.7300
  94 219.441 -1.38412 -40.1962
  95 128.849 3.12080 16.1060
  96 128.849 3.12080 16.1060
  97 336.153 21.5763 -5.41805
  98 342.866 12.2268 10.9768
  99 336.153 21.5763 -5.41805
  100 342.866 12.2268 10.9768
  101 268.647 6.54064 3.77896
  102 268.647 6.54064 3.77896
  103 321.891 -18.3039 0.0264765
  104 321.891 -18.3039 0.0264765
  105 268.986 6.83428 -4.66067
  106 268.986 6.83428 -4.66067
  107 316.544 -38.9444 -35.2417
  108 316.544 -38.9444 -35.2417
  109 221.051 -45.8948 88.3491
  110 221.051 -45.8948 88.3491
  111 148.991 -27.0224 -71.1454
  112 148.991 -27.0224 -71.1454
  113 270.111 4.57191 16.0807
  114 270.111 4.57191 16.0807
  115 280.103 1.93655 -15.3577
  116 280.103 1.93655 -15.3577
  117 380.738 25.3225 3.10505
  118 408.149 26.5550 2.23343
  119 380.738 25.3225 3.10505
  120 408.149 26.5550 2.23343
  121 399.511 33.5562 -9.90611
  122 399.511 33.5562 -9.90611
  123 43.5078 -71.9942 -23.0810
  124 43.5078 -71.9942 -23.0810
  125 344.100 -42.8081 37.8412
  126 344.100 -42.8081 37.8412
  127 289.704 -6.95582 17.9774
  128 289.704 -6.95582 17.9774
  129 66.2513 -62.2243 53.1742
  130 66.2513 -62.2243 53.1742
  131 269.040 5.46755 -0.239947
  132 269.040 5.46755 -0.239947
  133 289.272 -13.4400 -22.8761
  134 289.272 -13.4400 -22.8761
  135 273.394 2.23718 2.74434
  136 273.394 2.23718 2.74434
  137 273.646 1.96624 -2.56189
  138 273.646 1.96624 -2.56189
  139 276.682 3.83871 -8.13385
  140 276.682 3.83871 -8.13385
  141 275.394 3.73638 7.33302
  142 275.394 3.73638 7.33302
  143 263.530 9.09581 -0.296289
  144 263.530 9.09581 -0.296289
  145 219.893 14.6302 -1.72121
  146 219.893 14.6302 -1.72121
  147 320.192 -11.4391 5.22290
  148 320.192 -11.4391 5.22290
  149 366.544 -13.1671 -13.5414
  150 366.544 -13.1671 -13.5414
  151 282.647 -31.4167 44.0854
  152 282.647 -31.4167 44.0854
  153 213.506 -57.8143 -98.8038
  154 213.506 -57.8143 -98.8038
  155 250.818 10.3173 15.3052
  156 250.818 10.3173 15.3052
  157 325.714 -2.05245 -12.3021
  158 325.714 -2.05245 -12.3021
  159 445.923 35.2165 24.9635
  160 445.923 35.2165 24.9635
  161 222.408 -61.7826 114.534
  162 222.408 -61.7826 114.534
  163 455.910 15.2065 -5.17648
  164 455.910 15.2065 -5.17648
  165 262.470 9.06409 7.15472
  166 262.470 9.06409 7.15472
  167 249.300 8.52243 -22.3503
  168 249.300 8.52243 -22.3503
  169 308.824 9.25466 7.30183
  170 308.824 9.25466 7.30183
  171 259.984 10.8064 -8.11406
  172 259.984 10.8064 -8.11406
  173 270.709 4.39693 1.19980
  174 270.709 4.39693 1.19980
  175 275.283 2.13365 -4.35175
  176 275.283 2.13365 -4.35175
  177 427.509 33.0562 -24.4084
  178 427.509 33.0562 -24.4084
  179 270.934 4.27775 -1.44960
  180 270.934 4.27775 -1.44960
  181 199.249 14.5616 -11.5990
  182 199.249 14.5616 -11.5990
  183 361.145 26.6231 2.65388
  184 361.145 26.6231 2.65388
  185 72.8188 -61.1290 -68.6676
  186 72.8188 -61.1290 -68.6676
  187 196.629 -2.17200 48.8861
  188 196.629 -2.17200 48.8861
  189 263.716 -42.3958 -68.4882
  190 263.716 -42.3958 -68.4882
  191 311.379 -8.51643 3.63334
  192 311.379 -8.51643 3.63334
  193 291.274 -0.948862 11.1719
  194 291.274 -0.948862 11.1719
  195 397.156 11.0381 22.7402
  196 397.156 11.0381 22.7402
  197 163.621 5.08721 -30.1464
  198 163.621 5.08721 -30.1464
  199 451.794 20.3152 11.8060
  200 451.794 20.3152 11.8060
  201 296.734 -3.59440 -11.6638
  202 296.734 -3.59440 -11.6638
  203 275.720 1.52533 4.01464
  204 275.720 1.52533 4.01464
  205 308.957 -12.0368 -5.81456
  206 308.957 -12.0368 -5.81456
  207 338.186 -17.1124 -1.62550
  208 338.186 -17.1124 -1.62550
  209 21.0117 -124.416 10.1033
  210 21.0117 -124.416 10.1033
  211 284.464 1.53649 -9.90860
  212 284.464 1.53649 -9.90860
  213 282.052 2.24751 8.67521
  214 282.052 2.24751 8.67521
  215 271.377 -24.8535 -43.7217
  216 271.377 -24.8535 -43.7217
  217 317.051 -6.72100 -7.60264
  218 317.051 -6.72100 -7.60264
  219 259.098 9.39742 -15.3074
  220 259.098 9.39742 -15.3074
  221 71.4262 -89.7887 75.0829
  222 71.4262 -89.7887 75.0829
  223 321.187 1.33576 11.5853
  224 321.187 1.33576 11.5853
  225 311.730 7.84946 -9.70967
  226 311.730 7.84946 -9.70967
  227 446.576 26.7003 -20.0626
  228 446.576 26.7003 -20.0626
  229 339.324 -12.7049 -6.20757
  230 339.324 -12.7049 -6.20757
  231 371.585 -17.6477 -64.3096
  232 371.585 -17.6477 -64.3096
  233 272.187 -12.2515 33.7928
  234 272.187 -12.2515 33.7928
  235 266.485 7.60393 1.21476
  236 266.485 7.60393 1.21476
  237 141.045 -20.9668 63.0259
  238 141.045 -20.9668 63.0259
  239 355.618 -31.3896 75.4836
  240 355.618 -31.3896 75.4836
  241 95.4415 -12.8597 -31.0971
  242 95.4415 -12.8597 -31.0971
  243 315.589 -23.6260 -14.8855
  244 315.589 -23.6260 -14.8855
  245 256.463 11.6376 8.87687
  246 256.463 11.6376 8.87687
  247 9.31852 -161.525 -8.17017
  248 9.31852 -161.525 -8.17017
  249 17.7190 -142.402 27.1327
  250 17.7190 -142.402 27.1327
  251 261.312 1.83457 24.4176
  252 261.312 1.83457 24.4176
  253 273.083 1.04733 0.996158
  254 273.083 1.04733 0.996158
  255 270.682 4.43213 0.188613
  256 270.682 4.43213 0.188613
  257 253.914 -3.12753 -32.3650
  258 253.914 -3.12753 -32.3650
  259 273.257 0.952475 -1.05504
  260 273.257 0.952475 -1.05504
  261 302.805 -21.2570 20.0509
  262 302.805 -21.2570 20.0509
  263 280.710 1.00671 -4.86527
  264 280.710 1.00671 -4.86527
  265 217.053 -18.3775 -59.8523
  266 217.053 -18.3775 -59.8523
  267 370.761 28.3873 -1.62199
  268 370.761 28.3873 -1.62199
  269 270.321 6.05500 -12.5215
  270 270.321 6.05500 -12.5215
  271 269.240 5.66880 -2.52709
  272 269.240 5.66880 -2.52709
  273 228.360 11.1124 -22.3048
  274 228.360 11.1124 -22.3048
  275 69.0179 -27.4957 17.8435
  276 69.0179 -27.4957 17.8435
  277 289.529 -47.8280 61.0448
  278 289.529 -47.8280 61.0448
  279 272.212 4.09125 4.93390
  280 272.212 4.09125 4.93390
  281 405.170 28.7528 -6.08691
  282 405.170 28.7528 -6.08691
  283 486.595 40.5814 56.1448
  284 486.595 40.5814 56.1448
  285 325.169 -34.4832 19.6156
  286 325.169 -34.4832 19.6156
  287 232.904 11.6805 16.3969
  288 232.904 11.6805 16.3969
  289 298.054 -59.0274 80.4602
  290 298.054 -59.0274 80.4602
  291 306.468 -3.56563 7.49901
  292 306.468 -3.56563 7.49901
  293 272.047 2.69670 1.36013
  294 272.047 2.69670 1.36013
  295 268.076 7.42266 -8.01989
  296 268.076 7.42266 -8.01989
  297 270.754 4.36062 -0.373507
  298 270.754 4.36062 -0.373507
  299 274.776 0.765387 -1.89979
  300 274.776 0.765387 -1.89979
  301 280.441 1.40850 4.88443
  302 280.441 1.40850 4.88443
  303 266.565 7.56269 -2.06568
  304 266.565 7.56269 -2.06568
  305 61.3618 -104.812 -71.2795
  306 61.3618 -104.812 -71.2795
  307 182.241 11.8196 15.1812
  308 182.241 11.8196 15.1812
  309 272.365 2.24857 -1.30772
  310 272.365 2.24857 -1.30772
  311 239.446 13.8555 -10.9896
  312 239.446 13.8555 -10.9896
  313 240.046 15.1103 4.20053
  314 240.046 15.1103 4.20053
  315 271.768 3.93415 -3.50137
  316 271.768 3.93415 -3.50137
  317 365.400 18.8111 -0.353194
  318 365.400 18.8111 -0.353194
  319 269.678 6.57776 10.9917
  320 269.678 6.57776 10.9917
  321 344.733 10.6167 -9.83692
  322 344.733 10.6167 -9.83692
  323 511.761 14.5780 34.2060
  324 511.761 14.5780 34.2060
  325 268.635 6.81223 6.93485
  326 268.635 6.81223 6.93485
  327 264.271 9.01128 3.62753
  328 264.271 9.01128 3.62753
  329 208.140 -46.7270 -113.223
  330 208.140 -46.7270 -113.223
  331 274.936 0.692161 1.85871
  332 274.936 0.692161 1.85871
  333 268.969 5.71353 1.88776
  334 268.969 5.71353 1.88776
  335 258.843 11.6635 0.415188
  336 258.843 11.6635 0.415188
  337 133.806 -47.5081 91.3532
  338 133.806 -47.5081 91.3532
  339 333.994 21.8121 1.73009
  340 333.994 21.8121 1.73009
  341 19.2645 -139.491 -31.5400
  342 19.2645 -139.491 -31.5400
  343 207.643 13.1121 13.5526
  344 207.643 13.1121 13.5526
  345 484.035 6.69937 4.80376
  346 484.035 6.69937 4.80376
  347 505.206 25.4339 -35.1569
  348 505.206 25.4339 -35.1569
  349 235.168 -27.1036 66.9561
  350 245.091 -13.9615 49.6967
  351 235.168 -27.1036 66.9561
  352 245.091 -13.9615 49.6967
  353 490.974 12.3575 17.9815
  354 490.974 12.3575 17.9815
  355 278.463 -0.362530 19.0519
  356 278.463 -0.362530 19.0519
  357 330.903 -44.6089 -47.0124
  358 330.903 -44.6089 -47.0124
  359 313.363 -2.73565 9.40932
  360 313.363 -2.73565 9.40932
  361 213.198 -46.6108 124.098
  362 213.198 -46.6108 124.098
  363 366.483 29.4208 -1.00553
  364 366.483 29.4208 -1.00553
  365 490.902 4.54769 -3.77008
  366 490.902 4.54769 -3.77008
  367 296.718 0.182881 -9.34106
  368 296.718 0.182881 -9.34106
  369 264.281 9.57895 -4.33943
  370 264.281 9.57895 -4.33943
  371 410.136 31.8103 10.0128
  372 410.136 31.8103 10.0128
  373 313.245 13.0328 -2.05245
  374 313.245 13.0328 -2.05245
  375 285.841 1.10842 -6.01701
  376 285.841 1.10842 -6.01701
  377 77.0803 -38.8573 -52.3244
  378 77.0803 -38.8573 -52.3244
  379 316.136 -5.67103 2.69632
  380 316.136 -5.67103 2.69632
  381 270.188 -0.400458 -22.4518
  382 270.188 -0.400458 -22.4518
  383 311.007 -0.669281 -11.2126
  384 311.007 -0.669281 -11.2126
  385 492.913 8.76879 -14.9147
  386 492.913 8.76879 -14.9147
  387 271.062 4.21319 2.76956
  388 271.062 4.21319 2.76956
  389 330.806 16.0287 9.47364
  390 330.806 16.0287 9.47364
  391 357.703 -8.01515 2.63728
  392 357.703 -8.01515 2.63728
  393 272.096 4.94980 -6.16345
  394 272.096 4.94980 -6.16345
  395 521.731 47.5576 -65.2699
  396 521.731 47.5576 -65.2699
  397 312.116 -4.50167 -3.15780
  398 312.116 -4.50167 -3.15780
</Section>

newXOutput 80

<Section columns = "stress_xx | stress_yy | stress_xy">
  1 275.964 0.267969 -0.316879
  2 276.087 0.333572 0.427459
  3 275.964 0.267969 -0.316879
  4 276.087 0.333572 0.427459
  5 428.274 25.9685 118.393
  6 445.193 25.0809 -116.454
  7 428.274 25.9685 118.393
  8 445.193 25.0809 -116.454
  9 276.668 0.190045 -0.830714
  10 279.005 0.337605 -1.47386
  11 282.376 0.768568 -2.98431
  12 290.109 0.291649 -3.99972
  13 299.998 0.492388 -6.51894
  14 311.510 -2.73154 -6.36432
  15 321.963 -3.31080 -0.649483
  16 316.602 -2.28991 5.50791
  17 304.142 2.33026 9.60916
  18 297.368 5.79139 -0.372889
  19 302.327 2.78571 -9.00741
  20 316.253 -3.39856 -6.71597
  21 318.999 -4.01796 2.04317
  22 313.139 -1.80701 5.47584
  23 297.905 0.121512 6.54617
  24 289.421 1.10499 5.06030
  25 282.572 0.881831 2.86930
  26 279.051 0.271307 1.35089
  27 276.820 0.224411 0.801414
  28 276.509 0.994729 0.499506
  29 276.000 2.04451 0.579392
  30 274.748 3.55836 0.514703
  31 274.248 4.13941 -0.0499257
  32 274.892 3.37487 -0.617954
  33 275.791 2.22888 -0.528640
  34 276.186 1.12694 -0.557534
  35 276.668 0.190045 -0.830714
  36 279.005 0.337605 -1.47386
  37 282.376 0.768568 -2.98431
  38 290.109 0.291649 -3.99972
  39 299.998 0.492388 -6.51894
  40 311.510 -2.73154 -6.36432
  41 321.963 -3.31080 -0.649483
  42 316.602 -2.28991 5.50791
  43 304.142 2.33026 9.60916
  44 297.368 5.79139 -0.372889
  45 302.327 2.78571 -9.00741
  46 316.253 -3.39856 -6.71597
  47 318.999 -4.01796 2.04317
  48 313.139 -1.80701 5.47584
  49 297.905 0.121512 6.54617
  50 289.421 1.10499 5.06030
  51 282.572 0.881831 2.86930
  52 279.051 0.271307 1.35089
  53 276.820 0.224411 0.801414
  54 276.509 0.994729 0.499506
  55 276.000 2.04451 0.579392
  56 274.748 3.55836 0.514703
  57 274.248 4.13941 -0.0499257
  58 274.892 3.37487 -0.617954
  59 275.791 2.22888 -0.528640
  60 276.186 1.12694 -0.557534
  61 594.231 30.5486 61.8124
  62 541.529 8.89735 22.0431
  63 510.395 3.77662 8.19739
  64 503.760 2.72088 1.63436
  65 510.150 3.58955 -7.00869
  66 533.814 7.64945 -19.1795
  67 599.792 26.6081 -53.2122
  68 78.8033 -88.9578 -96.1804
  69 15.5800 -199.849 -24.1650
  70 4.56397 -226.483 -10.5737
  71 4.35619 -222.327 -5.49923
  72 7.27617 -216.500 11.3008
  73 16.8622 -193.713 25.5623
  74 85.6177 -83.0292 106.676
  75 594.231 30.5486 61.8124
  76 541.529 8.89735 22.0431
  77 510.395 3.77662 8.19739
  78 503.760 2.72088 1.63436
  79 510.150 3.58955 -7.00869
  80 533.814 7.64945 -19.1795
  81 599.792 26.6081 -53.2122
  82 78.8033 -88.9578 -96.1804
  83 15.5800 -199.849 -24.1650
  84 4.56397 -226.483 -10.5737
  85 4.35619 -222.327 -5.49923
  86 7.27617 -216.500 11.3008
  87 16.8622 -193.713 25.5623
  88 85.6177 -83.0292 106.676
  89 253.312 14.5569 -3.79643
  90 253.312 14.5569 -3.79643
  91 231.265 3.19363 34.1470
  92 222.184 -1.40022 -40.6957
  93 231.265 3.19363 34.1470
  94 222.184 -1.40022 -40.6957
  95 130.487 3.16960 16.3087
  96 130.487 3.16960 16.3087
  97 340.320 21.8466 -5.47417
  98 347.103 12.3862 11.0857
  99 340.320 21.8466 -5.47417
  100 347.103 12.3862 11.0857
  101 271.986 6.61988 3.82359
  102 271.986 6.61988 3.82359
  103 325.863 -18.5302 0.0461767
  104 325.863 -18.5302 0.0461767
  105 272.329 6.91719 -4.71581
  106 272.329 6.91719 -4.71581
  107 320.439 -39.4285 -35.6949
  108 320.439 -39.4285 -35.6949
  109 223.792 -46.4692 89.4664
  110 223.792 -46.4692 89.4664
  111 150.859 -27.3551 -72.0500
  112 150.859 -27.3551 -72.0500
  113 273.466 4.62705 16.2762
  114 273.466 4.62705 16.2762
  115 283.576 1.95884 -15.5453
  116 283.576 1.95884 -15.5453
  117 385.423 25.6471 3.17807
  118 413.157 26.8759 2.26651
  119 385.423 25.6471 3.17807
  120 413.157 26.8759 2.26651
  121 404.420 33.9764 -10.0554
  122 404.420 33.9764 -10.0554
  123 44.0584 -72.8754 -23.3858
  124 44.0584 -72.8754 -23.3858
  125 348.318 -43.3283 38.3420
  126 348.318 -43.3283 38.3420
  127 293.290 -7.04339 18.2027
  128 293.290 -7.04339 18.2027
  129 67.0897 -62.9831 53.8705
  130 67.0897 -62.9831 53.8705
  131 272.383 5.53361 -0.242735
  132 272.383 5.53361 -0.242735
  133 292.851 -13.6082 -23.1648
  134 292.851 -13.6082 -23.1648
  135 276.787 2.26428 2.77641
  136 276.787 2.26428 2.77641
  137 277.042 1.99012 -2.59177
  138 277.042 1.99012 -2.59177
  139 280.114 3.88493 -8.23079
  140 280.114 3.88493 -8.23079
  141 278.811 3.78150 7.42013
  142 278.811 3.78150 7.42013
  143 266.810 9.20637 -0.299897
  144 266.810 9.20637 -0.299897
  145 222.652 14.8120 -1.74267
  146 222.652 14.8120 -1.74267
  147 324.148 -11.5796 5.27052
  148 324.148 -11.5796 5.27052
  149 371.041 -13.3098 -13.7497
  150 371.041 -13.3098 -13.7497
  151 286.139 -31.8090 44.6405
  152 286.139 -31.8090 44.6405
  153 216.143 -58.5239 -100.072
  154 216.143 -58.5239 -100.072
  155 253.946 10.4444 15.4919
  156 253.946 10.4444 15.4919
  157 329.741 -2.07451 -12.4332
  158 329.741 -2.07451 -12.4332
  159 451.364 35.6567 25.2929
  160 451.364 35.6567 25.2929
  161 225.153 -62.5474 115.996
  162 225.153 -62.5474 115.996
  163 461.452 15.3853 -5.24127
  164 461.452 15.3853 -5.24127
  165 265.737 9.17442 7.24042
  166 265.737 9.17442 7.24042
  167 252.408 8.62764 -22.6247
  168 252.408 8.62764 -22.6247
  169 312.668 9.37288 7.38412
  170 312.668 9.37288 7.38412
  171 263.222 10.9383 -8.21166
  172 263.222 10.9383 -8.21166
  173 274.072 4.45000 1.21383
  174 274.072 4.45000 1.21383
  175 278.698 2.15940 -4.40290
  176 278.698 2.15940 -4.40290
  177 432.733 33.4872 -24.7490
  178 432.733 33.4872 -24.7490
  179 274.299 4.32944 -1.46652
  180 274.299 4.32944 -1.46652
  181 201.756 14.7452 -11.7428
  182 201.756 14.7452 -11.7428
  183 365.605 26.9557 2.66720
  184 365.605 26.9557 2.66720
  185 73.7356 -61.8741 -69.5644
  186 73.7356 -61.8741 -69.5644
  187 199.092 -2.19649 49.4959
  188 199.092 -2.19649 49.4959
  189 266.974 -42.9256 -69.3540
  190 266.974 -42.9256 -69.3540
  191 315.226 -8.62327 3.68723
  192 315.226 -8.62327 3.68723
  193 294.877 -0.962007 11.3089
  194 294.877 -0.962007 11.3089
  195 402.018 11.2020 23.0660
  196 402.018 11.2020 23.0660
  197 165.686 5.15653 -30.5243
  198 165.686 5.15653 -30.5243
  199 457.295 20.5575 11.9561
  200 457.295 20.5575 11.9561
  201 300.402 -3.64053 -11.8098
  202 300.402 -3.64053 -11.8098
  203 279.140 1.54368 4.06177
  204 279.140 1.54368 4.06177
  205 312.774 -12.1878 -5.89631
  206 312.774 -12.1878 -5.89631
  207 342.352 -17.3186 -1.67260
  208 342.352 -17.3186 -1.67260
  209 21.2738 -125.969 10.2396
  210 21.2738 -125.969 10.2396
  211 287.987 1.55404 -10.0281
  212 287.987 1.55404 -10.0281
  213 285.546 2.27433 8.77930
  214 285.546 2.27433 8.77930
  215 274.738 -25.1637 -44.2708
  216 274.738 -25.1637 -44.2708
  217 320.973 -6.80436 -7.68193
  218 320.973 -6.80436 -7.68193
  219 262.324 9.51255 -15.4939
  220 262.324 9.51255 -15.4939
  221 72.3161 -90.8821 76.0710
  222 72.3161 -90.8821 76.0710
  223 325.166 1.35667 11.7107
  224 325.166 1.35667 11.7107
  225 315.605 7.95003 -9.81791
  226 315.605 7.95003 -9.81791
  227 452.021 27.0245 -20.3229
  228 452.021 27.0245 -20.3229
  229 343.504 -12.8562 -6.25686
  230 343.504 -12.8562 -6.25686
  231 376.123 -17.8239 -65.1561
  232 376.123 -17.8239 -65.1561
  233 275.561 -12.4041 34.2134
  234 275.561 -12.4041 34.2134
  235 269.799 7.69613 1.22915
  236 269.799 7.69613 1.22915
  237 142.820 -21.2226 63.8260
  238 142.820 -21.2226 63.8260
  239 359.961 -31.7448 76.4659
  240 359.961 -31.7448 76.4659
  241 96.6563 -13.0059 -31.4945
  242 96.6563 -13.0059 -31.4945
  243 319.481 -23.9199 -15.0848
  244 319.481 -23.9199 -15.0848
  245 259.659 11.7801 8.98420
  246 259.659 11.7801 8.98420
  247 9.43000 -163.558 -8.28226
  248 9.43000 -163.558 -8.28226
  249 17.9383 -144.180 27.5032
  250 17.9383 -144.180 27.5032
  251 264.561 1.85683 24.7180
  252 264.561 1.85683 24.7180
  253 276.472 1.06009 1.00770
  254 276.472 1.06009 1.00770
  255 274.045 4.48552 0.190825
  256 274.045 4.48552 0.190825
  257 257.073 -3.16678 -32.7659
  258 257.073 -3.16678 -32.7659
  259 276.648 0.964117 -1.06726
  260 276.648 0.964117 -1.06726
  261 306.544 -21.5220 20.3095
  262 306.544 -21.5220 20.3095
  263 284.187 1.01868 -4.92267
  264 284.187 1.01868 -4.92267
  265 219.758 -18.6066 -60.6024
  266 219.758 -18.6066 -60.6024
  267 375.335 28.7403 -1.62270
  268 375.335 28.7403 -1.62270
  269 273.679 6.12832 -12.6725
  270 273.679 6.12832 -12.6725
  271 272.586 5.73740 -2.55678
  272 272.586 5.73740 -2.55678
  273 231.218 11.2509 -22.5797
  274 231.218 11.2509 -22.5797
  275 69.8984 -27.8191 18.0743
  276 69.8984 -27.8191 18.0743
  277 293.095 -48.4249 61.8188
  278 293.095 -48.4249 61.8188
  279 275.592 4.14076 4.99204
  280 275.592 4.14076 4.99204
  281 410.144 29.1027 -6.17196
  282 410.144 29.1027 -6.17196
  283 492.491 41.1155 56.8674
  284 492.491 41.1155 56.8674
  285 329.170 -34.9094 19.8805
  286 329.170 -34.9094 19.8805
  287 235.817 11.8255 16.5978
  288 235.817 11.8255 16.5978
  289 301.714 -59.7613 81.4828
  290 301.714 -59.7613 81.4828
  291 310.252 -3.61107 7.59422
  292 310.252 -3.61107 7.59422
  293 275.424 2.72930 1.37596
  294 275.424 2.72930 1.37596
  295 271.408 7.51281 -8.11554
  296 271.408 7.51281 -8.11554
  297 274.117 4.41316 -0.377858
  298 274.117 4.41316 -0.377858
  299 278.185 0.774683 -1.92191
  300 278.185 0.774683 -1.92191
  301 283.915 1.42536 4.94205
  302 283.915 1.42536 4.94205
  303 269.880 7.65442 -2.09014
  304 269.880 7.65442 -2.09014
  305 62.1244 -106.087 -72.2222
  306 62.1244 -106.087 -72.2222
  307 184.539 11.9707 15.3696
  308 184.539 11.9707 15.3696
  309 275.746 2.27580 -1.32291
  310 275.746 2.27580 -1.32291
  311 242.439 14.0265 -11.1241
  312 242.439 14.0265 -11.1241
  313 243.047 15.2968 4.25158
  314 243.047 15.2968 4.25158
  315 275.142 3.98176 -3.54248
  316 275.142 3.98176 -3.54248
  317 369.900 19.0580 -0.392673
  318 369.900 19.0580 -0.392673
  319 273.029 6.65764 11.1236
  320 273.029 6.65764 11.1236
  321 348.990 10.7557 -9.93215
  322 348.990 10.7557 -9.93215
  323 517.937 14.7509 34.6288
  324 517.937 14.7509 34.6288
  325 271.974 6.89491 7.01733
  326 271.974 6.89491 7.01733
  327 267.560 9.12080 3.67068
  328 267.560 9.12080 3.67068
  329 210.693 -47.2285 -114.693
  330 210.693 -47.2285 -114.693
  331 278.346 0.700560 1.88035
  332 278.346 0.700560 1.88035
  333 272.312 5.78262 1.90996
  334 272.312 5.78262 1.90996
  335 262.068 11.8059 0.420141
  336 262.068 11.8059 0.420141
  337 135.482 -48.0964 92.5267
  338 135.482 -48.0964 92.5267
  339 338.137 22.0851 1.74696
  340 338.137 22.0851 1.74696
  341 19.5007 -141.230 -31.9655
  342 19.5007 -141.230 -31.9655
  343 210.252 13.2766 13.7194
  344 210.252 13.2766 13.7194
  345 489.882 6.77669 4.86029
  346 489.882 6.77669 4.86029
  347 511.316 25.7487 -35.5951
  348 511.316 25.7487 -35.5951
  349 238.088 -27.4427 67.7955
  350 248.137 -14.1354 50.3147
  351 238.088 -27.4427 67.7955
  352 248.137 -14.1354 50.3147
  353 496.907 12.5021 18.2000
  354 496.907 12.5021 18.2000
  355 281.917 -0.368149 19.2861
  356 281.917 -0.368149 19.2861
  357 334.961 -45.1577 -47.6218
  358 334.961 -45.1577 -47.6218
  359 317.246 -2.76836 9.51381
  360 317.246 -2.76836 9.51381
  361 215.803 -47.1155 125.702
  362 215.803 -47.1155 125.702
  363 371.010 29.7832 -1.01716
  364 371.010 29.7832 -1.01716
  365 496.822 4.59977 -3.81534
  366 496.822 4.59977 -3.81534
  367 300.384 0.183741 -9.45493
  368 300.384 0.183741 -9.45493
  369 267.570 9.69551 -4.39117
  370 267.570 9.69551 -4.39117
  371 415.168 32.2019 10.1557
  372 415.168 32.2019 10.1557
  373 317.141 13.1970 -2.07537
  374 317.141 13.1970 -2.07537
  375 289.378 1.12131 -6.08866
  376 289.378 1.12131 -6.08866
  377 78.0631 -39.3272 -53.0020
  378 78.0631 -39.3272 -53.0020
  379 320.042 -5.74183 2.72073
  380 320.042 -5.74183 2.72073
  381 273.543 -0.406577 -22.7288
  382 273.543 -0.406577 -22.7288
  383 314.867 -0.676556 -11.3381
  384 314.867 -0.676556 -11.3381
  385 498.865 8.87204 -15.0949
  386 498.865 8.87204 -15.0949
  387 274.429 4.26411 2.80203
  388 274.429 4.26411 2.80203
  389 334.905 16.2322 9.57370
  390 334.905 16.2322 9.57370
  391 362.098 -8.10114 2.70530
  392 362.098 -8.10114 2.70530
  393 275.475 5.00976 -6.23634
  394 275.475 5.00976 -6.23634
  395 528.029 48.1896 -66.1045
  396 528.029 48.1896 -66.1045
  397 315.968 -4.55893 -3.20100
  398 315.968 -4.55893 -3.20100
</Section>

newXOutput 81

<Section columns = "stress_xx | stress_yy | stress_xy">
  1 279.345 0.271297 -0.320473
  2 279.469 0.337669 0.432301
  3 279.345 0.271297 -0.320473
  4 279.469 0.337669 0.432301
  5 433.371 26.3890 119.890
  6 450.483 25.4950 -117.927
  7 433.371 26.3890 119.890
  8 450.483 25.4950 -117.927
  9 280.056 0.192362 -0.840170
  10 282.420 0.341668 -1.49073
  11 285.829 0.777700 -3.01875
  12 293.650 0.294954 -4.04630
  13 303.654 0.497598 -6.59626
  14 315.300 -2.76637 -6.44209
  15 325.881 -3.35222 -0.661110
  16 320.473 -2.31787 5.56739
  17 307.880 2.36076 9.71682
  18 301.035 5.86460 -0.377137
  19 306.046 2.82060 -9.10886
  20 320.120 -3.44031 -6.78835
  21 322.882 -4.06831 2.07251
  22 316.949 -1.82994 5.54311
  23 301.537 0.121963 6.62418
  24 292.954 1.11790 5.11940
  25 286.028 0.892316 2.90236
  26 282.467 0.274578 1.36634
  27 280.211 0.227159 0.810563
  28 279.896 1.00668 0.505155
  29 279.381 2.06893 0.585996
  30 278.116 3.60066 0.520600
  31 277.610 4.18855 -0.0504961
  32 278.261 3.41503 -0.625007
  33 279.170 2.25551 -0.534597
  34 279.569 1.14052 -0.563894
  35 280.056 0.192362 -0.840170
  36 282.420 0.341668 -1.49073
  37 285.829 0.777700 -3.01875
  38 293.650 0.294954 -4.04630
  39 303.654 0.497598 -6.59626
  40 315.300 -2.76637 -6.44209
  41 325.881 -3.35222 -0.661110
  42 320.473 -2.31787 5.56739
  43 307.880 2.36076 9.71682
  44 301.035 5.86460 -0.377137
  45 306.046 2.82060 -9.10886
  46 320.120 -3.44031 -6.78835
  47 322.882 -4.06831 2.07251
  48 316.949 -1.82994 5.54311
  49 301.537 0.121963 6.62418
  50 292.954 1.11790 5.11940
  51 286.028 0.892316 2.90236
  52 282.467 0.274578 1.36634
  53 280.211 0.227159 0.810563
  54 279.896 1.00668 0.505155
  55 279.381 2.06893 0.585996
  56 278.116 3.60066 0.520600
  57 277.610 4.18855 -0.0504961
  58 278.261 3.41503 -0.625007
  59 279.170 2.25551 -0.534597
  60 279.569 1.14052 -0.563894
  61 601.244 30.9281 62.5610
  62 547.935 9.00084 22.3032
  63 516.449 3.81786 8.29186
  64 509.739 2.75112 1.65201
  65 516.201 3.63010 -7.08909
  66 540.135 7.73768 -19.4039
  67 606.871 26.9380 -53.8572
  68 79.7603 -89.9477 -97.4270
  69 15.7695 -202.321 -24.5016
  70 4.61177 -229.335 -10.7203
  71 4.40209 -225.131 -5.56849
  72 7.35964 -219.218 11.4580
  73 17.0695 -196.107 25.9196
  74 86.6499 -83.9459 108.055
  75 601.244 30.9281 62.5610
  76 547.935 9.00084 22.3032
  77 516.449 3.81786 8.29186
  78 509.739 2.75112 1.65201
  79 516.201 3.63010 -7.08909
  80 540.135 7.73768 -19.4039
  81 606.871 26.9380 -53.8572
  82 79.7603 -89.9477 -97.4270
  83 15.7695 -202.321 -24.5016
  84 4.61177 -229.335 -10.7203
  85 4.40209 -225.131 -5.56849
  86 7.35964 -219.218 11.4580
  87 17.0695 -196.107 25.9196
  88 86.6499 -83.9459 108.055
  89 256.432 14.7332 -3.84194
  90 256.432 14.7332 -3.84194
  91 234.117 3.23385 34.5636
  92 224.926 -1.41628 -41.1947
  93 234.117 3.23385 34.5636
  94 224.926 -1.41628 -41.1947
  95 132.124 3.21859 16.5113
  96 132.124 3.21859 16.5113
  97 344.484 22.1168 -5.52998
  98 351.335 12.5456 11.1938
  99 344.484 22.1168 -5.52998
  100 351.335 12.5456 11.1938
  101 275.322 6.69901 3.86813
  102 275.322 6.69901 3.86813
  103 329.832 -18.7562 0.0663325
  104 329.832 -18.7562 0.0663325
  105 275.669 6.99999 -4.77084
  106 275.669 6.99999 -4.77084
  107 324.329 -39.9123 -36.1482
  108 324.329 -39.9123 -36.1482
  109 226.532 -47.0432 90.5833
  110 226.532 -47.0432 90.5833
  111 152.727 -27.6875 -72.9545
  112 152.727 -27.6875 -72.9545
  113 276.818 4.68210 16.4715
  114 276.818 4.68210 16.4715
  115 287.045 1.98107 -15.7327
  116 287.045 1.98107 -15.7327
  117 390.102 25.9716 3.25185
  118 418.159 27.1964 2.29968
  119 390.102 25.9716 3.25185
  120 418.159 27.1964 2.29968
  121 409.324 34.3964 -10.2052
  122 409.324 34.3964 -10.2052
  123 44.6088 -73.7556 -23.6909
  124 44.6088 -73.7556 -23.6909
  125 352.532 -43.8478 38.8431
  126 352.532 -43.8478 38.8431
  127 296.873 -7.13092 18.4278
  128 296.873 -7.13092 18.4278
  129 67.9278 -63.7410 54.5671
  130 67.9278 -63.7410 54.5671
  131 275.725 5.59958 -0.245516
  132 275.725 5.59958 -0.245516
  133 296.426 -13.7762 -23.4534
  134 296.426 -13.7762 -23.4534
  135 280.177 2.29135 2.80840
  136 280.177 2.29135 2.80840
  137 280.435 2.01395 -2.62158
  138 280.435 2.01395 -2.62158
  139 283.543 3.93107 -8.32755
  140 283.543 3.93107 -8.32755
  141 282.225 3.82655 7.50708
  142 282.225 3.82655 7.50708
  143 270.088 9.31678 -0.303499
  144 270.088 9.31678 -0.303499
  145 225.409 14.9937 -1.76410
  146 225.409 14.9937 -1.76410
  147 328.101 -11.7200 5.31768
  148 328.101 -11.7200 5.31768
  149 375.532 -13.4518 -13.9588
  150 375.532 -13.4518 -13.9588
  151 289.628 -32.2010 45.1952
  152 289.628 -32.2010 45.1952
  153 218.777 -59.2328 -101.340
  154 218.777 -59.2328 -101.340
  155 257.071 10.5713 15.6784
  156 257.071 10.5713 15.6784
  157 333.765 -2.09647 -12.5638
  158 333.765 -2.09647 -12.5638
  159 456.798 36.0966 25.6224
  160 456.798 36.0966 25.6224
  161 227.895 -63.3115 117.457
  162 227.895 -63.3115 117.457
  163 466.987 15.5638 -5.30602
  164 466.987 15.5638 -5.30602
  165 269.002 9.28462 7.32598
  166 269.002 9.28462 7.32598
  167 255.514 8.73276 -22.8988
  168 255.514 8.73276 -22.8988
  169 316.508 9.49108 7.46614
  170 316.508 9.49108 7.46614
  171 266.457 11.0700 -8.30910
  172 266.457 11.0700 -8.30910
  173 277.432 4.50298 1.22782
  174 277.432 4.50298 1.22782
  175 282.110 2.18512 -4.45394
  176 282.110 2.18512 -4.45394
  177 437.950 33.9184 -25.0903
  178 437.950 33.9184 -25.0903
  179 277.661 4.38104 -1.48339
  180 277.661 4.38104 -1.48339
  181 204.261 14.9287 -11.8865
  182 204.261 14.9287 -11.8865
  183 370.061 27.2880 2.68004
  184 370.061 27.2880 2.68004
  185 74.6520 -62.6182 -70.4615
  186 74.6520 -62.6182 -70.4615
  187 201.554 -2.22089 50.1052
  188 201.554 -2.22089 50.1052
  189 270.229 -43.4550 -70.2194
  190 270.229 -43.4550 -70.2194
  191 319.069 -8.73006 3.74129
  192 319.069 -8.73006 3.74129
  193 298.477 -0.975174 11.4458
  194 298.477 -0.975174 11.4458
  195 406.874 11.3663 23.3926
  196 406.874 11.3663 23.3926
  197 167.750 5.22595 -30.9019
  198 167.750 5.22595 -30.9019
  199 462.789 20.7994 12.1061
  200 462.789 20.7994 12.1061
  201 304.068 -3.68667 -11.9557
  202 304.068 -3.68667 -11.9557
  203 282.557 1.56201 4.10880
  204 282.557 1.56201 4.10880
  205 316.587 -12.3389 -5.97823
  206 316.587 -12.3389 -5.97823
  207 346.513 -17.5245 -1.72032
  208 346.513 -17.5245 -1.72032
  209 21.5358 -127.522 10.3760
  210 21.5358 -127.522 10.3760
  211 291.506 1.57155 -10.1475
  212 291.506 1.57155 -10.1475
  213 289.037 2.30111 8.88321
  214 289.037 2.30111 8.88321
  215 278.095 -25.4737 -44.8196
  216 278.095 -25.4737 -44.8196
  217 324.891 -6.88765 -7.76079
  218 324.891 -6.88765 -7.76079
  219 265.548 9.62756 -15.6802
  220 265.548 9.62756 -15.6802
  221 73.2053 -91.9742 77.0597
  222 73.2053 -91.9742 77.0597
  223 329.142 1.37766 11.8355
  224 329.142 1.37766 11.8355
  225 319.477 8.05060 -9.92576
  226 319.477 8.05060 -9.92576
  227 457.460 27.3483 -20.5833
  228 457.460 27.3483 -20.5833
  229 347.681 -13.0072 -6.30543
  230 347.681 -13.0072 -6.30543
  231 380.656 -17.9989 -66.0030
  232 380.656 -17.9989 -66.0030
  233 278.931 -12.5567 34.6336
  234 278.931 -12.5567 34.6336
  235 273.111 7.78821 1.24351
  236 273.111 7.78821 1.24351
  237 144.593 -21.4782 64.6258
  238 144.593 -21.4782 64.6258
  239 364.299 -32.0988 77.4484
  240 364.299 -32.0988 77.4484
  241 97.8709 -13.1517 -31.8918
  242 97.8709 -13.1517 -31.8918
  243 323.368 -24.2136 -15.2842
  244 323.368 -24.2136 -15.2842
  245 262.853 11.9225 9.09138
  246 262.853 11.9225 9.09138
  247 9.54128 -165.591 -8.39454
  248 9.54128 -165.591 -8.39454
  249 18.1573 -145.955 27.8743
  250 18.1573 -145.955 27.8743
  251 267.808 1.87906 25.0181
  252 267.808 1.87906 25.0181
  253 279.859 1.07282 1.01921
  254 279.859 1.07282 1.01921
  255 277.405 4.53882 0.193033
  256 277.405 4.53882 0.193033
  257 260.229 -3.20601 -33.1665
  258 260.229 -3.20601 -33.1665
  259 280.037 0.975746 -1.07946
  260 280.037 0.975746 -1.07946
  261 310.280 -21.7867 20.5680
  262 310.280 -21.7867 20.5680
  263 287.661 1.03062 -4.97995
  264 287.661 1.03062 -4.97995
  265 222.461 -18.8356 -61.3520
  266 222.461 -18.8356 -61.3520
  267 379.904 29.0932 -1.62294
  268 379.904 29.0932 -1.62294
  269 277.035 6.20153 -12.8234
  270 277.035 6.20153 -12.8234
  271 275.929 5.80590 -2.58640
  272 275.929 5.80590 -2.58640
  273 234.074 11.3893 -22.8542
  274 234.074 11.3893 -22.8542
  275 70.7789 -28.1418 18.3052
  276 70.7789 -28.1418 18.3052
  277 296.657 -49.0214 62.5926
  278 296.657 -49.0214 62.5926
  279 278.969 4.19021 5.05006
  280 278.969 4.19021 5.05006
  281 415.113 29.4520 -6.25716
  282 415.113 29.4520 -6.25716
  283 498.378 41.6500 57.5900
  284 498.378 41.6500 57.5900
  285 333.167 -35.3352 20.1457
  286 333.167 -35.3352 20.1457
  287 238.729 11.9705 16.7985
  288 238.729 11.9705 16.7985
  289 305.370 -60.4948 82.5051
  290 305.370 -60.4948 82.5051
  291 314.033 -3.65649 7.68940
  292 314.033 -3.65649 7.68940
  293 278.800 2.76185 1.39175
  294 278.800 2.76185 1.39175
  295 274.738 7.60283 -8.21103
  296 274.738 7.60283 -8.21103
  297 277.478 4.46563 -0.382199
  298 277.478 4.46563 -0.382199
  299 281.590 0.783967 -1.94398
  300 281.590 0.783967 -1.94398
  301 287.387 1.44219 4.99955
  302 287.387 1.44219 4.99955
  303 273.193 7.74602 -2.11456
  304 273.193 7.74602 -2.11456
  305 62.8864 -107.360 -73.1656
  306 62.8864 -107.360 -73.1656
  307 186.835 12.1219 15.5578
  308 186.835 12.1219 15.5578
  309 279.125 2.30300 -1.33807
  310 279.125 2.30300 -1.33807
  311 245.431 14.1974 -11.2584
  312 245.431 14.1974 -11.2584
  313 246.046 15.4831 4.30256
  314 246.046 15.4831 4.30256
  315 278.514 4.02930 -3.58349
  316 278.514 4.02930 -3.58349
  317 374.395 19.3050 -0.432964
  318 374.395 19.3050 -0.432964
  319 276.377 6.73741 11.2554
  320 276.377 6.73741 11.2554
  321 353.243 10.8948 -10.0267
  322 353.243 10.8948 -10.0267
  323 524.103 14.9234 35.0513
  324 524.103 14.9234 35.0513
  325 275.310 6.97748 7.09967
  326 275.310 6.97748 7.09967
  327 270.846 9.23018 3.71375
  328 270.846 9.23018 3.71375
  329 213.244 -47.7277 -116.163
  330 213.244 -47.7277 -116.163
  331 281.754 0.708946 1.90193
  332 281.754 0.708946 1.90193
  333 275.652 5.85162 1.93210
  334 275.652 5.85162 1.93210
  335 265.291 11.9481 0.425086
  336 265.291 11.9481 0.425086
  337 137.157 -48.6842 93.7003
  338 137.157 -48.6842 93.7003
  339 342.276 22.3579 1.76371
  340 342.276 22.3579 1.76371
  341 19.7367 -142.968 -32.3916
  342 19.7367 -142.968 -32.3916
  343 212.860 13.4410 13.8861
  344 212.860 13.4410 13.8861
  345 495.720 6.85381 4.91670
  346 495.720 6.85381 4.91670
  347 517.417 26.0631 -36.0330
  348 517.417 26.0631 -36.0330
  349 241.005 -27.7815 68.6344
  350 251.182 -14.3091 50.9323
  351 241.005 -27.7815 68.6344
  352 251.182 -14.3091 50.9323
  353 502.832 12.6464 18.4182
  354 502.832 12.6464 18.4182
  355 285.367 -0.373791 19.5201
  356 285.367 -0.373791 19.5201
  357 339.015 -45.7060 -48.2314
  358 339.015 -45.7060 -48.2314
  359 321.127 -2.80101 9.61793
  360 321.127 -2.80101 9.61793
  361 218.405 -47.6179 127.305
  362 218.405 -47.6179 127.305
  363 375.532 30.1451 -1.02876
  364 375.532 30.1451 -1.02876
  365 502.733 4.65170 -3.86054
  366 502.733 4.65170 -3.86054
  367 304.046 0.184567 -9.56865
  368 304.046 0.184567 -9.56865
  369 270.856 9.81191 -4.44280
  370 270.856 9.81191 -4.44280
  371 420.194 32.5932 10.2989
  372 420.194 32.5932 10.2989
  373 321.035 13.3612 -2.09821
  374 321.035 13.3612 -2.09821
  375 292.911 1.13416 -6.16018
  376 292.911 1.13416 -6.16018
  377 79.0459 -39.7965 -53.6798
  378 79.0459 -39.7965 -53.6798
  379 323.944 -5.81259 2.74490
  380 323.944 -5.81259 2.74490
  381 276.895 -0.412718 -23.0056
  382 276.895 -0.412718 -23.0056
  383 318.724 -0.683799 -11.4631
  384 318.724 -0.683799 -11.4631
  385 504.810 8.97508 -15.2748
  386 504.810 8.97508 -15.2748
  387 277.793 4.31496 2.83442
  388 277.793 4.31496 2.83442
  389 339.001 16.4357 9.67326
  390 339.001 16.4357 9.67326
  391 366.489 -8.18672 2.77413
  392 366.489 -8.18672 2.77413
  393 278.851 5.06963 -6.30909
  394 278.851 5.06963 -6.30909
  395 534.318 48.8220 -66.9390
  396 534.318 48.8220 -66.9390
  397 319.816 -4.61618 -3.24427
  398 319.816 -4.61618 -3.24427
</Section>

newXOutput 82

<Section columns = "stress_xx | stress_yy | stress_xy">
  1 282.723 0.274622 -0.324056
  2 282.849 0.341763 0.437129
  3 282.723 0.274622 -0.324056
  4 282.849 0.341763 0.437129
  5 438.460 26.8117 121.386
  6 455.763 25.9114 -119.401
  7 438.460 26.8117 121.386
  8 455.763 25.9114 -119.401
  9 283.442 0.194676 -0.849602
  10 285.832 0.345727 -1.50756
  11 289.279 0.786819 -3.05311
  12 297.188 0.298249 -4.09279
  13 307.305 0.502783 -6.67346
  14 319.087 -2.80120 -6.51980
  15 329.796 -3.39362 -0.672813
  16 324.339 -2.34582 5.62663
  17 311.616 2.39128 9.82416
  18 304.699 5.93780 -0.381374
  19 309.762 2.85549 -9.21003
  20 323.984 -3.48203 -6.86044
  21 326.763 -4.11865 2.10193
  22 320.755 -1.85286 5.61034
  23 305.165 0.122388 6.70208
  24 296.485 1.13078 5.17839
  25 289.480 0.902784 2.93535
  26 285.880 0.277846 1.38174
  27 283.599 0.229905 0.819689
  28 283.280 1.01861 0.510788
  29 282.760 2.09332 0.592582
  30 281.481 3.64290 0.526482
  31 280.969 4.23762 -0.0510651
  32 281.628 3.45512 -0.632042
  33 282.546 2.28210 -0.540537
  34 282.950 1.15408 -0.570237
  35 283.442 0.194676 -0.849602
  36 285.832 0.345727 -1.50756
  37 289.279 0.786819 -3.05311
  38 297.188 0.298249 -4.09279
  39 307.305 0.502783 -6.67346
  40 319.087 -2.80120 -6.51980
  41 329.796 -3.39362 -0.672813
  42 324.339 -2.34582 5.62663
  43 311.616 2.39128 9.82416
  44 304.699 5.93780 -0.381374
  45 309.762 2.85549 -9.21003
  46 323.984 -3.48203 -6.86044
  47 326.763 -4.11865 2.10193
  48 320.755 -1.85286 5.61034
  49 305.165 0.122388 6.70208
  50 296.485 1.13078 5.17839
  51 289.480 0.902784 2.93535
  52 285.880 0.277846 1.38174
  53 283.599 0.229905 0.819689
  54 283.280 1.01861 0.510788
  55 282.760 2.09332 0.592582
  56 281.481 3.64290 0.526482
  57 280.969 4.23762 -0.0510651
  58 281.628 3.45512 -0.632042
  59 282.546 2.28210 -0.540537
  60 282.950 1.15408 -0.570237
  61 608.245 31.3074 63.3087
  62 554.330 9.10411 22.5628
  63 522.494 3.85896 8.38612
  64 515.708 2.78126 1.66959
  65 522.242 3.67054 -7.16930
  66 546.446 7.82572 -19.6277
  67 613.938 27.2677 -54.5015
  68 80.7162 -90.9343 -98.6742
  69 15.9588 -204.791 -24.8390
  70 4.65934 -232.186 -10.8672
  71 4.44776 -227.936 -5.63773
  72 7.44291 -221.936 11.6155
  73 17.2765 -198.500 26.2778
  74 87.6809 -84.8592 109.435
  75 608.245 31.3074 63.3087
  76 554.330 9.10411 22.5628
  77 522.494 3.85896 8.38612
  78 515.708 2.78126 1.66959
  79 522.242 3.67054 -7.16930
  80 546.446 7.82572 -19.6277
  81 613.938 27.2677 -54.5015
  82 80.7162 -90.9343 -98.6742
  83 15.9588 -204.791 -24.8390
  84 4.65934 -232.186 -10.8672
  85 4.44776 -227.936 -5.63773
  86 7.44291 -221.936 11.6155
  87 17.2765 -198.500 26.2778
  88 87.6809 -84.8592 109.435
  89 259.551 14.9094 -3.88738
  90 259.551 14.9094 -3.88738
  91 236.968 3.27407 34.9798
  92 227.666 -1.43231 -41.6934
  93 236.968 3.27407 34.9798
  94 227.666 -1.43231 -41.6934
  95 133.760 3.26779 16.7138
  96 133.760 3.26779 16.7138
  97 348.644 22.3869 -5.58548
  98 355.564 12.7051 11.3011
  99 348.644 22.3869 -5.58548
  100 355.564 12.7051 11.3011
  101 278.657 6.77803 3.91258
  102 278.657 6.77803 3.91258
  103 333.797 -18.9821 0.0869429
  104 333.797 -18.9821 0.0869429
  105 279.007 7.08267 -4.82575
  106 279.007 7.08267 -4.82575
  107 328.216 -40.3957 -36.6014
  108 328.216 -40.3957 -36.6014
  109 229.269 -47.6170 91.6999
  110 229.269 -47.6170 91.6999
  111 154.594 -28.0196 -73.8588
  112 154.594 -28.0196 -73.8588
  113 280.168 4.73707 16.6665
  114 280.168 4.73707 16.6665
  115 290.512 2.00323 -15.9199
  116 290.512 2.00323 -15.9199
  117 394.777 26.2962 3.32639
  118 423.156 27.5164 2.33296
  119 394.777 26.2962 3.32639
  120 423.156 27.5164 2.33296
  121 414.223 34.8161 -10.3555
  122 414.223 34.8161 -10.3555
  123 45.1590 -74.6347 -23.9961
  124 45.1590 -74.6347 -23.9961
  125 356.740 -44.3667 39.3445
  126 356.740 -44.3667 39.3445
  127 300.452 -7.21841 18.6527
  128 300.452 -7.21841 18.6527
  129 68.7656 -64.4979 55.2640
  130 68.7656 -64.4979 55.2640
  131 279.063 5.66545 -0.248291
  132 279.063 5.66545 -0.248291
  133 299.999 -13.9442 -23.7419
  134 299.999 -13.9442 -23.7419
  135 283.565 2.31837 2.84031
  136 283.565 2.31837 2.84031
  137 283.825 2.03776 -2.65131
  138 283.825 2.03776 -2.65131
  139 286.968 3.97715 -8.42413
  140 286.968 3.97715 -8.42413
  141 285.636 3.87153 7.59386
  142 285.636 3.87153 7.59386
  143 273.363 9.42704 -0.307097
  144 273.363 9.42704 -0.307097
  145 228.166 15.1753 -1.78552
  146 228.166 15.1753 -1.78552
  147 332.050 -11.8601 5.36439
  148 332.050 -11.8601 5.36439
  149 380.018 -13.5933 -14.1687
  150 380.018 -13.5933 -14.1687
  151 293.114 -32.5927 45.7497
  152 293.114 -32.5927 45.7497
  153 221.409 -59.9408 -102.608
  154 221.409 -59.9408 -102.608
  155 260.195 10.6981 15.8646
  156 260.195 10.6981 15.8646
  157 337.785 -2.11831 -12.6937
  158 337.785 -2.11831 -12.6937
  159 462.225 36.5363 25.9522
  160 462.225 36.5363 25.9522
  161 230.634 -64.0749 118.918
  162 230.634 -64.0749 118.918
  163 472.515 15.7419 -5.37072
  164 472.515 15.7419 -5.37072
  165 272.265 9.39467 7.41140
  166 272.265 9.39467 7.41140
  167 258.618 8.83777 -23.1726
  168 258.618 8.83777 -23.1726
  169 320.346 9.60928 7.54789
  170 320.346 9.60928 7.54789
  171 269.691 11.2016 -8.40638
  172 269.691 11.2016 -8.40638
  173 280.789 4.55589 1.24178
  174 280.789 4.55589 1.24178
  175 285.519 2.21079 -4.50487
  176 285.519 2.21079 -4.50487
  177 443.161 34.3497 -25.4321
  178 443.161 34.3497 -25.4321
  179 281.021 4.43257 -1.50023
  180 281.021 4.43257 -1.50023
  181 206.766 15.1121 -12.0300
  182 206.766 15.1121 -12.0300
  183 374.513 27.6201 2.69241
  184 374.513 27.6201 2.69241
  185 75.5679 -63.3614 -71.3590
  186 75.5679 -63.3614 -71.3590
  187 204.015 -2.24522 50.7141
  188 204.015 -2.24522 50.7141
  189 273.481 -43.9841 -71.0845
  190 273.481 -43.9841 -71.0845
  191 322.909 -8.83680 3.79552
  192 322.909 -8.83680 3.79552
  193 302.073 -0.988365 11.5825
  194 302.073 -0.988365 11.5825
  195 411.724 11.5313 23.7199
  196 411.724 11.5313 23.7199
  197 169.814 5.29545 -31.2794
  198 169.814 5.29545 -31.2794
  199 468.276 21.0409 12.2560
  200 468.276 21.0409 12.2560
  201 307.730 -3.73280 -12.1015
  202 307.730 -3.73280 -12.1015
  203 285.971 1.58031 4.15573
  204 285.971 1.58031 4.15573
  205 320.397 -12.4898 -6.06031
  206 320.397 -12.4898 -6.06031
  207 350.670 -17.7300 -1.76865
  208 350.670 -17.7300 -1.76865
  209 21.7975 -129.073 10.5127
  210 21.7975 -129.073 10.5127
  211 295.022 1.58900 -10.2666
  212 295.022 1.58900 -10.2666
  213 292.525 2.32784 8.98695
  214 292.525 2.32784 8.98695
  215 281.449 -25.7835 -45.3681
  216 281.449 -25.7835 -45.3681
  217 328.806 -6.97087 -7.83923
  218 328.806 -6.97087 -7.83923
  219 268.769 9.74244 -15.8663
  220 268.769 9.74244 -15.8663
  221 74.0938 -93.0648 78.0490
  222 74.0938 -93.0648 78.0490
  223 333.114 1.39875 11.9598
  224 333.114 1.39875 11.9598
  225 323.347 8.15117 -10.0332
  226 323.347 8.15117 -10.0332
  227 462.892 27.6717 -20.8437
  228 462.892 27.6717 -20.8437
  229 351.853 -13.1579 -6.35329
  230 351.853 -13.1579 -6.35329
  231 385.183 -18.1727 -66.8504
  232 385.183 -18.1727 -66.8504
  233 282.299 -12.7091 35.0536
  234 282.299 -12.7091 35.0536
  235 276.420 7.88016 1.25785
  236 276.420 7.88016 1.25785
  237 146.366 -21.7335 65.4255
  238 146.366 -21.7335 65.4255
  239 368.631 -32.4517 78.4313
  240 368.631 -32.4517 78.4313
  241 99.0852 -13.2971 -32.2891
  242 99.0852 -13.2971 -32.2891
  243 327.252 -24.5071 -15.4839
  244 327.252 -24.5071 -15.4839
  245 266.045 12.0647 9.19840
  246 266.045 12.0647 9.19840
  247 9.65237 -167.622 -8.50700
  248 9.65237 -167.622 -8.50700
  249 18.3762 -147.730 28.2460
  250 18.3762 -147.730 28.2460
  251 271.053 1.90127 25.3179
  252 271.053 1.90127 25.3179
  253 283.243 1.08554 1.03069
  254 283.243 1.08554 1.03069
  255 280.762 4.59205 0.195237
  256 280.762 4.59205 0.195237
  257 263.384 -3.24522 -33.5668
  258 263.384 -3.24522 -33.5668
  259 283.422 0.987361 -1.09163
  260 283.422 0.987361 -1.09163
  261 314.012 -22.0513 20.8266
  262 314.012 -22.0513 20.8266
  263 291.132 1.04254 -5.03712
  264 291.132 1.04254 -5.03712
  265 225.163 -19.0645 -62.1012
  266 225.163 -19.0645 -62.1012
  267 384.469 29.4457 -1.62272
  268 384.469 29.4457 -1.62272
  269 280.388 6.27464 -12.9740
  270 280.388 6.27464 -12.9740
  271 279.270 5.87430 -2.61596
  272 279.270 5.87430 -2.61596
  273 236.929 11.5277 -23.1285
  274 236.929 11.5277 -23.1285
  275 71.6592 -28.4638 18.5362
  276 71.6592 -28.4638 18.5362
  277 300.216 -49.6176 63.3661
  278 300.216 -49.6176 63.3661
  279 282.343 4.23957 5.10795
  280 282.343 4.23957 5.10795
  281 420.077 29.8010 -6.34250
  282 420.077 29.8010 -6.34250
  283 504.258 42.1847 58.3126
  284 504.258 42.1847 58.3126
  285 337.160 -35.7606 20.4113
  286 337.160 -35.7606 20.4113
  287 241.639 12.1153 16.9989
  288 241.639 12.1153 16.9989
  289 309.022 -61.2276 83.5273
  290 309.022 -61.2276 83.5273
  291 317.810 -3.70191 7.78456
  292 317.810 -3.70191 7.78456
  293 282.172 2.79435 1.40751
  294 282.172 2.79435 1.40751
  295 278.066 7.69274 -8.30633
  296 278.066 7.69274 -8.30633
  297 280.836 4.51801 -0.386529
  298 280.836 4.51801 -0.386529
  299 284.993 0.793238 -1.96599
  300 284.993 0.793238 -1.96599
  301 290.855 1.45899 5.05694
  302 290.855 1.45899 5.05694
  303 276.503 7.83749 -2.13892
  304 276.503 7.83749 -2.13892
  305 63.6478 -108.631 -74.1097
  306 63.6478 -108.631 -74.1097
  307 189.131 12.2730 15.7459
  308 189.131 12.2730 15.7459
  309 282.500 2.33016 -1.35319
  310 282.500 2.33016 -1.35319
  311 248.421 14.3680 -11.3925
  312 248.421 14.3680 -11.3925
  313 249.044 15.6692 4.35347
  314 249.044 15.6692 4.35347
  315 281.884 4.07677 -3.62441
  316 281.884 4.07677 -3.62441
  317 378.886 19.5521 -0.474064
  318 378.886 19.5521 -0.474064
  319 279.722 6.81707 11.3869
  320 279.722 6.81707 11.3869
  321 357.492 11.0339 -10.1204
  322 357.492 11.0339 -10.1204
  323 530.259 15.0955 35.4733
  324 530.259 15.0955 35.4733
  325 278.644 7.05993 7.18184
  326 278.644 7.05993 7.18184
  327 274.130 9.33942 3.75674
  328 274.130 9.33942 3.75674
  329 215.791 -48.2244 -117.633
  330 215.791 -48.2244 -117.633
  331 285.159 0.717322 1.92346
  332 285.159 0.717322 1.92346
  333 278.990 5.92051 1.95420
  334 278.990 5.92051 1.95420
  335 268.511 12.0901 0.430022
  336 268.511 12.0901 0.430022
  337 138.831 -49.2716 94.8738
  338 138.831 -49.2716 94.8738
  339 346.412 22.6306 1.78033
  340 346.412 22.6306 1.78033
  341 19.9724 -144.705 -32.8181
  342 19.9724 -144.705 -32.8181
  343 215.467 13.6053 14.0526
  344 215.467 13.6053 14.0526
  345 501.550 6.93074 4.97299
  346 501.550 6.93074 4.97299
  347 523.510 26.3773 -36.4705
  348 523.510 26.3773 -36.4705
  349 243.919 -28.1201 69.4728
  350 254.224 -14.4827 51.5494
  351 243.919 -28.1201 69.4728
  352 254.224 -14.4827 51.5494
  353 508.747 12.7904 18.6361
  354 508.747 12.7904 18.6361
  355 288.814 -0.379456 19.7538
  356 288.814 -0.379456 19.7538
  357 343.064 -46.2537 -48.8412
  358 343.064 -46.2537 -48.8412
  359 325.003 -2.83360 9.72166
  360 325.003 -2.83360 9.72166
  361 221.003 -48.1180 128.908
  362 221.003 -48.1180 128.908
  363 380.051 30.5068 -1.04033
  364 380.051 30.5068 -1.04033
  365 508.636 4.70348 -3.90565
  366 508.636 4.70348 -3.90565
  367 307.705 0.185358 -9.68223
  368 307.705 0.185358 -9.68223
  369 274.140 9.92816 -4.49434
  370 274.140 9.92816 -4.49434
  371 425.215 32.9841 10.4425
  372 425.215 32.9841 10.4425
  373 324.926 13.5254 -2.12097
  374 324.926 13.5254 -2.12097
  375 296.442 1.14698 -6.23157
  376 296.442 1.14698 -6.23157
  377 80.0285 -40.2651 -54.3578
  378 80.0285 -40.2651 -54.3578
  379 327.843 -5.88330 2.76884
  380 327.843 -5.88330 2.76884
  381 280.244 -0.418883 -23.2820
  382 280.244 -0.418883 -23.2820
  383 322.578 -0.691009 -11.5877
  384 322.578 -0.691009 -11.5877
  385 510.745 9.07791 -15.4545
  386 510.745 9.07791 -15.4545
  387 281.155 4.36573 2.86674
  388 281.155 4.36573 2.86674
  389 343.093 16.6391 9.77231
  390 343.093 16.6391 9.77231
  391 370.875 -8.27189 2.84376
  392 370.875 -8.27189 2.84376
  393 282.224 5.12941 -6.38169
  394 282.224 5.12941 -6.38169
  395 540.597 49.4549 -67.7733
  396 540.597 49.4549 -67.7733
  397 323.660 -4.67342 -3.28759
  398 323.660 -4.67342 -3.28759
</Section>

newXOutput 83

<Section columns = "stress_xx | stress_yy | stress_xy">
  1 286.099 0.277946 -0.327630
  2 286.226 0.345854 0.441944
  3 286.099 0.277946 -0.327630
  4 286.226 0.345854 0.441944
  5 443.542 27.2366 122.883
  6 461.036 26.3301 -120.874
  7 443.542 27.2366 122.883
  8 461.036 26.3301 -120.874
  9 286.826 0.196989 -0.859008
  10 289.241 0.349781 -1.52435
  11 292.726 0.795923 -3.08739
  12 300.723 0.301536 -4.13918
  13 310.954 0.507946 -6.75053
  14 322.871 -2.83604 -6.59745
  15 333.707 -3.43501 -0.684594
  16 328.203 -2.37374 5.68562
  17 315.350 2.42183 9.93116
  18 308.361 6.01101 -0.385600
  19 313.475 2.89036 -9.31089
  20 327.844 -3.52372 -6.93223
  21 330.639 -4.16897 2.13142
  22 324.558 -1.87579 5.67751
  23 308.791 0.122789 6.77986
  24 300.012 1.14363 5.23726
  25 292.930 0.913235 2.96825
  26 289.290 0.281109 1.39711
  27 286.984 0.232648 0.828791
  28 286.662 1.03053 0.516405
  29 286.136 2.11767 0.599152
  30 284.843 3.68508 0.532349
  31 284.326 4.28661 -0.0516325
  32 284.991 3.49516 -0.639059
  33 285.919 2.30866 -0.546460
  34 286.328 1.16762 -0.576565
  35 286.826 0.196989 -0.859008
  36 289.241 0.349781 -1.52435
  37 292.726 0.795923 -3.08739
  38 300.723 0.301536 -4.13918
  39 310.954 0.507946 -6.75053
  40 322.871 -2.83604 -6.59745
  41 333.707 -3.43501 -0.684594
  42 328.203 -2.37374 5.68562
  43 315.350 2.42183 9.93116
  44 308.361 6.01101 -0.385600
  45 313.475 2.89036 -9.31089
  46 327.844 -3.52372 -6.93223
  47 330.639 -4.16897 2.13142
  48 324.558 -1.87579 5.67751
  49 308.791 0.122789 6.77986
  50 300.012 1.14363 5.23726
  51 292.930 0.913235 2.96825
  52 289.290 0.281109 1.39711
  53 286.984 0.232648 0.828791
  54 286.662 1.03053 0.516405
  55 286.136 2.11767 0.599152
  56 284.843 3.68508 0.532349
  57 284.326 4.28661 -0.0516325
  58 284.991 3.49516 -0.639059
  59 285.919 2.30866 -0.546460
  60 286.328 1.16762 -0.576565
  61 615.233 31.6865 64.0556
  62 560.715 9.20718 22.8220
  63 528.530 3.89991 8.48016
  64 521.668 2.81131 1.68710
  65 528.273 3.71087 -7.24931
  66 552.746 7.91355 -19.8512
  67 620.994 27.5972 -55.1451
  68 81.6712 -91.9175 -99.9221
  69 16.1479 -207.259 -25.1771
  70 4.70667 -235.038 -11.0144
  71 4.49320 -230.740 -5.70697
  72 7.52596 -224.653 11.7733
  73 17.4835 -200.891 26.6367
  74 88.7105 -85.7693 110.815
  75 615.233 31.6865 64.0556
  76 560.715 9.20718 22.8220
  77 528.530 3.89991 8.48016
  78 521.668 2.81131 1.68710
  79 528.273 3.71087 -7.24931
  80 552.746 7.91355 -19.8512
  81 620.994 27.5972 -55.1451
  82 81.6712 -91.9175 -99.9221
  83 16.1479 -207.259 -25.1771
  84 4.70667 -235.038 -11.0144
  85 4.49320 -230.740 -5.70697
  86 7.52596 -224.653 11.7733
  87 17.4835 -200.891 26.6367
  88 88.7105 -85.7693 110.815
  89 262.667 15.0854 -3.93277
  90 262.667 15.0854 -3.93277
  91 239.816 3.31427 35.3956
  92 230.404 -1.44830 -42.1916
  93 239.816 3.31427 35.3956
  94 230.404 -1.44830 -42.1916
  95 135.397 3.31719 16.9162
  96 135.397 3.31719 16.9162
  97 352.800 22.6568 -5.64066
  98 359.789 12.8646 11.4077
  99 352.800 22.6568 -5.64066
  100 359.789 12.8646 11.4077
  101 281.988 6.85694 3.95694
  102 281.988 6.85694 3.95694
  103 337.758 -19.2077 0.108006
  104 337.758 -19.2077 0.108006
  105 282.342 7.16524 -4.88056
  106 282.342 7.16524 -4.88056
  107 332.098 -40.8787 -37.0547
  108 332.098 -40.8787 -37.0547
  109 232.004 -48.1903 92.8160
  110 232.004 -48.1903 92.8160
  111 156.459 -28.3514 -74.7628
  112 156.459 -28.3514 -74.7628
  113 283.515 4.79196 16.8612
  114 283.515 4.79196 16.8612
  115 293.975 2.02534 -16.1068
  116 293.975 2.02534 -16.1068
  117 399.448 26.6208 3.40169
  118 428.147 27.8359 2.36633
  119 399.448 26.6208 3.40169
  120 428.147 27.8359 2.36633
  121 419.117 35.2356 -10.5063
  122 419.117 35.2356 -10.5063
  123 45.7091 -75.5128 -24.3015
  124 45.7091 -75.5128 -24.3015
  125 360.944 -44.8848 39.8463
  126 360.944 -44.8848 39.8463
  127 304.029 -7.30587 18.8776
  128 304.029 -7.30587 18.8776
  129 69.6032 -65.2538 55.9613
  130 69.6032 -65.2538 55.9613
  131 282.399 5.73122 -0.251058
  132 282.399 5.73122 -0.251058
  133 303.568 -14.1121 -24.0303
  134 303.568 -14.1121 -24.0303
  135 286.950 2.34536 2.87215
  136 286.950 2.34536 2.87215
  137 287.212 2.06154 -2.68098
  138 287.212 2.06154 -2.68098
  139 290.391 4.02315 -8.52053
  140 290.391 4.02315 -8.52053
  141 289.044 3.91644 7.68048
  142 289.044 3.91644 7.68048
  143 276.636 9.53715 -0.310690
  144 276.636 9.53715 -0.310690
  145 230.920 15.3567 -1.80693
  146 230.920 15.3567 -1.80693
  147 335.996 -12.0002 5.41065
  148 335.996 -12.0002 5.41065
  149 384.500 -13.7341 -14.3794
  150 384.500 -13.7341 -14.3794
  151 296.596 -32.9842 46.3040
  152 296.596 -32.9842 46.3040
  153 224.039 -60.6481 -103.876
  154 224.039 -60.6481 -103.876
  155 263.317 10.8248 16.0506
  156 263.317 10.8248 16.0506
  157 341.801 -2.14006 -12.8230
  158 341.801 -2.14006 -12.8230
  159 467.645 36.9757 26.2821
  160 467.645 36.9757 26.2821
  161 233.371 -64.8376 120.379
  162 233.371 -64.8376 120.379
  163 478.036 15.9196 -5.43538
  164 478.036 15.9196 -5.43538
  165 275.525 9.50458 7.49667
  166 275.525 9.50458 7.49667
  167 261.719 8.94269 -23.4461
  168 261.719 8.94269 -23.4461
  169 324.181 9.72746 7.62938
  170 324.181 9.72746 7.62938
  171 272.922 11.3330 -8.50351
  172 272.922 11.3330 -8.50351
  173 284.144 4.60872 1.25571
  174 284.144 4.60872 1.25571
  175 288.925 2.23643 -4.55569
  176 288.925 2.23643 -4.55569
  177 448.366 34.7812 -25.7745
  178 448.366 34.7812 -25.7745
  179 284.378 4.48402 -1.51703
  180 284.378 4.48402 -1.51703
  181 209.269 15.2955 -12.1735
  182 209.269 15.2955 -12.1735
  183 378.961 27.9520 2.70430
  184 378.961 27.9520 2.70430
  185 76.4835 -64.1036 -72.2569
  186 76.4835 -64.1036 -72.2569
  187 206.475 -2.26947 51.3225
  188 206.475 -2.26947 51.3225
  189 276.730 -44.5129 -71.9493
  190 276.730 -44.5129 -71.9493
  191 326.746 -8.94347 3.84991
  192 326.746 -8.94347 3.84991
  193 305.666 -1.00158 11.7191
  194 305.666 -1.00158 11.7191
  195 416.569 11.6967 24.0480
  196 416.569 11.6967 24.0480
  197 171.876 5.36505 -31.6566
  198 171.876 5.36505 -31.6566
  199 473.756 21.2819 12.4059
  200 473.756 21.2819 12.4059
  201 311.388 -3.77894 -12.2472
  202 311.388 -3.77894 -12.2472
  203 289.382 1.59857 4.20256
  204 289.382 1.59857 4.20256
  205 324.203 -12.6406 -6.14256
  206 324.203 -12.6406 -6.14256
  207 354.823 -17.9352 -1.81760
  208 354.823 -17.9352 -1.81760
  209 22.0591 -130.624 10.6495
  210 22.0591 -130.624 10.6495
  211 298.535 1.60640 -10.3856
  212 298.535 1.60640 -10.3856
  213 296.010 2.35452 9.09051
  214 296.010 2.35452 9.09051
  215 284.801 -26.0931 -45.9163
  216 284.801 -26.0931 -45.9163
  217 332.718 -7.05403 -7.91724
  218 332.718 -7.05403 -7.91724
  219 271.988 9.85718 -16.0521
  220 271.988 9.85718 -16.0521
  221 74.9818 -94.1540 79.0389
  222 74.9818 -94.1540 79.0389
  223 337.083 1.41993 12.0835
  224 337.083 1.41993 12.0835
  225 327.213 8.25174 -10.1403
  226 327.213 8.25174 -10.1403
  227 468.317 27.9947 -21.1042
  228 468.317 27.9947 -21.1042
  229 356.022 -13.3083 -6.40043
  230 356.022 -13.3083 -6.40043
  231 389.705 -18.3453 -67.6982
  232 389.705 -18.3453 -67.6982
  233 285.664 -12.8615 35.4732
  234 285.664 -12.8615 35.4732
  235 279.727 7.97198 1.27215
  236 279.727 7.97198 1.27215
  237 148.137 -21.9884 66.2249
  238 148.137 -21.9884 66.2249
  239 372.958 -32.8034 79.4145
  240 372.958 -32.8034 79.4145
  241 100.299 -13.4420 -32.6864
  242 100.299 -13.4420 -32.6864
  243 331.132 -24.8003 -15.6837
  244 331.132 -24.8003 -15.6837
  245 269.234 12.2068 9.30526
  246 269.234 12.2068 9.30526
  247 9.76327 -169.652 -8.61965
  248 9.76327 -169.652 -8.61965
  249 18.5949 -149.504 28.6182
  250 18.5949 -149.504 28.6182
  251 274.294 1.92344 25.6174
  252 274.294 1.92344 25.6174
  253 286.624 1.09824 1.04215
  254 286.624 1.09824 1.04215
  255 284.117 4.64519 0.197435
  256 284.117 4.64519 0.197435
  257 266.536 -3.28441 -33.9667
  258 266.536 -3.28441 -33.9667
  259 286.805 0.998962 -1.10376
  260 286.805 0.998962 -1.10376
  261 317.740 -22.3157 21.0853
  262 317.740 -22.3157 21.0853
  263 294.600 1.05444 -5.09416
  264 294.600 1.05444 -5.09416
  265 227.862 -19.2932 -62.8499
  266 227.862 -19.2932 -62.8499
  267 389.029 29.7980 -1.62204
  268 389.029 29.7980 -1.62204
  269 283.738 6.34765 -13.1243
  270 283.738 6.34765 -13.1243
  271 282.608 5.94260 -2.64545
  272 282.608 5.94260 -2.64545
  273 239.781 11.6659 -23.4025
  274 239.781 11.6659 -23.4025
  275 72.5394 -28.7851 18.7671
  276 72.5394 -28.7851 18.7671
  277 303.771 -50.2133 64.1394
  278 303.771 -50.2133 64.1394
  279 285.715 4.28887 5.16572
  280 285.715 4.28887 5.16572
  281 425.035 30.1495 -6.42800
  282 425.035 30.1495 -6.42800
  283 510.129 42.7198 59.0352
  284 510.129 42.7198 59.0352
  285 341.149 -36.1856 20.6771
  286 341.149 -36.1856 20.6771
  287 244.548 12.2600 17.1992
  288 244.548 12.2600 17.1992
  289 312.669 -61.9599 84.5491
  290 312.669 -61.9599 84.5491
  291 321.583 -3.74732 7.87969
  292 321.583 -3.74732 7.87969
  293 285.542 2.82680 1.42323
  294 285.542 2.82680 1.42323
  295 281.390 7.78253 -8.40147
  296 281.390 7.78253 -8.40147
  297 284.191 4.57031 -0.390848
  298 284.191 4.57031 -0.390848
  299 288.394 0.802496 -1.98795
  300 288.394 0.802496 -1.98795
  301 294.320 1.47577 5.11421
  302 294.320 1.47577 5.11421
  303 279.811 7.92884 -2.16323
  304 279.811 7.92884 -2.16323
  305 64.4085 -109.901 -75.0545
  306 64.4085 -109.901 -75.0545
  307 191.425 12.4240 15.9337
  308 191.425 12.4240 15.9337
  309 285.873 2.35728 -1.36827
  310 285.873 2.35728 -1.36827
  311 251.408 14.5386 -11.5265
  312 251.408 14.5386 -11.5265
  313 252.040 15.8551 4.40431
  314 252.040 15.8551 4.40431
  315 285.250 4.12418 -3.66524
  316 285.250 4.12418 -3.66524
  317 383.372 19.7994 -0.515970
  318 383.372 19.7994 -0.515970
  319 283.065 6.89663 11.5181
  320 283.065 6.89663 11.5181
  321 361.738 11.1731 -10.2135
  322 361.738 11.1731 -10.2135
  323 536.407 15.2673 35.8950
  324 536.407 15.2673 35.8950
  325 281.975 7.14228 7.26387
  326 281.975 7.14228 7.26387
  327 277.411 9.44851 3.79965
  328 277.411 9.44851 3.79965
  329 218.336 -48.7188 -119.104
  330 218.336 -48.7188 -119.104
  331 288.561 0.725685 1.94494
  332 288.561 0.725685 1.94494
  333 282.325 5.98930 1.97625
  334 282.325 5.98930 1.97625
  335 271.730 12.2320 0.434949
  336 271.730 12.2320 0.434949
  337 140.504 -49.8584 96.0474
  338 140.504 -49.8584 96.0474
  339 350.544 22.9032 1.79683
  340 350.544 22.9032 1.79683
  341 20.2079 -146.440 -33.2452
  342 20.2079 -146.440 -33.2452
  343 218.072 13.7695 14.2189
  344 218.072 13.7695 14.2189
  345 507.372 7.00747 5.02917
  346 507.372 7.00747 5.02917
  347 529.593 26.6912 -36.9077
  348 529.593 26.6912 -36.9077
  349 246.832 -28.4585 70.3108
  350 257.263 -14.6561 52.1660
  351 246.832 -28.4585 70.3108
  352 257.263 -14.6561 52.1660
  353 514.654 12.9341 18.8538
  354 514.654 12.9341 18.8538
  355 292.259 -0.385145 19.9872
  356 292.259 -0.385145 19.9872
  357 347.108 -46.8008 -49.4511
  358 347.108 -46.8008 -49.4511
  359 328.877 -2.86614 9.82501
  360 328.877 -2.86614 9.82501
  361 223.599 -48.6159 130.512
  362 223.599 -48.6159 130.512
  363 384.565 30.8680 -1.05187
  364 384.565 30.8680 -1.05187
  365 514.529 4.75513 -3.95070
  366 514.529 4.75513 -3.95070
  367 311.360 0.186114 -9.79567
  368 311.360 0.186114 -9.79567
  369 277.421 10.0443 -4.54579
  370 277.421 10.0443 -4.54579
  371 430.230 33.3746 10.5863
  372 430.230 33.3746 10.5863
  373 328.814 13.6895 -2.14364
  374 328.814 13.6895 -2.14364
  375 299.969 1.15977 -6.30282
  376 299.969 1.15977 -6.30282
  377 81.0109 -40.7330 -55.0359
  378 81.0109 -40.7330 -55.0359
  379 331.738 -5.95396 2.79254
  380 331.738 -5.95396 2.79254
  381 283.590 -0.425071 -23.5583
  382 283.590 -0.425071 -23.5583
  383 326.429 -0.698186 -11.7119
  384 326.429 -0.698186 -11.7119
  385 516.672 9.18052 -15.6338
  386 516.672 9.18052 -15.6338
  387 284.513 4.41643 2.89899
  388 284.513 4.41643 2.89899
  389 347.181 16.8425 9.87085
  390 347.181 16.8425 9.87085
  391 375.256 -8.35665 2.91418
  392 375.256 -8.35665 2.91418
  393 285.594 5.18911 -6.45414
  394 285.594 5.18911 -6.45414
  395 546.866 50.0884 -68.6075
  396 546.866 50.0884 -68.6075
  397 327.501 -4.73065 -3.33098
  398 327.501 -4.73065 -3.33098
</Section>

newXOutput 84

<Section columns = "stress_xx | stress_yy | stress_xy">
  1 289.471 0.281269 -0.331195
  2 289.600 0.349942 0.446745
  3 289.471 0.281269 -0.331195
  4 289.600 0.349942 0.446745
  5 448.616 27.6636 124.379
  6 466.300 26.7510 -122.347
  7 448.616 27.6636 124.379
  8 466.300 26.7510 -122.347
  9 290.206 0.199299 -0.868391
  10 292.648 0.353829 -1.54110
  11 296.170 0.805013 -3.12159
  12 304.254 0.304814 -4.18548
  13 314.599 0.513084 -6.82748
  14 326.651 -2.87088 -6.67502
  15 337.614 -3.47639 -0.696451
  16 332.063 -2.40163 5.74438
  17 319.080 2.45240 10.0378
  18 312.020 6.08421 -0.389814
  19 317.185 2.92523 -9.41146
  20 331.701 -3.56537 -7.00372
  21 334.512 -4.21928 2.16099
  22 328.357 -1.89872 5.74464
  23 312.413 0.123163 6.85753
  24 303.536 1.15646 5.29602
  25 296.376 0.923671 3.00109
  26 292.697 0.284369 1.41244
  27 290.367 0.235390 0.837871
  28 290.041 1.04244 0.522007
  29 289.509 2.14199 0.605704
  30 288.203 3.72719 0.538202
  31 287.680 4.33553 -0.0521986
  32 288.352 3.53513 -0.646058
  33 289.290 2.33517 -0.552366
  34 289.703 1.18115 -0.582876
  35 290.206 0.199299 -0.868391
  36 292.648 0.353829 -1.54110
  37 296.170 0.805013 -3.12159
  38 304.254 0.304814 -4.18548
  39 314.599 0.513084 -6.82748
  40 326.651 -2.87088 -6.67502
  41 337.614 -3.47639 -0.696451
  42 332.063 -2.40163 5.74438
  43 319.080 2.45240 10.0378
  44 312.020 6.08421 -0.389814
  45 317.185 2.92523 -9.41146
  46 331.701 -3.56537 -7.00372
  47 334.512 -4.21928 2.16099
  48 328.357 -1.89872 5.74464
  49 312.413 0.123163 6.85753
  50 303.536 1.15646 5.29602
  51 296.376 0.923671 3.00109
  52 292.697 0.284369 1.41244
  53 290.367 0.235390 0.837871
  54 290.041 1.04244 0.522007
  55 289.509 2.14199 0.605704
  56 288.203 3.72719 0.538202
  57 287.680 4.33553 -0.0521986
  58 288.352 3.53513 -0.646058
  59 289.290 2.33517 -0.552366
  60 289.703 1.18115 -0.582876
  61 622.210 32.0654 64.8017
  62 567.090 9.31003 23.0807
  63 534.556 3.94071 8.57398
  64 527.619 2.84126 1.70454
  65 534.296 3.75109 -7.32914
  66 559.036 8.00120 -20.0742
  67 628.037 27.9265 -55.7879
  68 82.6251 -92.8974 -101.170
  69 16.3369 -209.726 -25.5160
  70 4.75376 -237.888 -11.1619
  71 4.53843 -233.544 -5.77619
  72 7.60882 -227.369 11.9316
  73 17.6902 -203.281 26.9965
  74 89.7389 -86.6761 112.195
  75 622.210 32.0654 64.8017
  76 567.090 9.31003 23.0807
  77 534.556 3.94071 8.57398
  78 527.619 2.84126 1.70454
  79 534.296 3.75109 -7.32914
  80 559.036 8.00120 -20.0742
  81 628.037 27.9265 -55.7879
  82 82.6251 -92.8974 -101.170
  83 16.3369 -209.726 -25.5160
  84 4.75376 -237.888 -11.1619
  85 4.53843 -233.544 -5.77619
  86 7.60882 -227.369 11.9316
  87 17.6902 -203.281 26.9965
  88 89.7389 -86.6761 112.195
  89 265.781 15.2611 -3.97809
  90 265.781 15.2611 -3.97809
  91 242.662 3.35447 35.8111
  92 233.140 -1.46425 -42.6895
  93 242.662 3.35447 35.8111
  94 233.140 -1.46425 -42.6895
  95 137.033 3.36680 17.1185
  96 137.033 3.36680 17.1185
  97 356.953 22.9265 -5.69552
  98 364.009 13.0243 11.5136
  99 356.953 22.9265 -5.69552
  100 364.009 13.0243 11.5136
  101 285.317 6.93574 4.00121
  102 285.317 6.93574 4.00121
  103 341.716 -19.4331 0.129522
  104 341.716 -19.4331 0.129522
  105 285.674 7.24769 -4.93526
  106 285.674 7.24769 -4.93526
  107 335.977 -41.3613 -37.5080
  108 335.977 -41.3613 -37.5080
  109 234.736 -48.7634 93.9317
  110 234.736 -48.7634 93.9317
  111 158.324 -28.6828 -75.6667
  112 158.324 -28.6828 -75.6667
  113 286.859 4.84676 17.0556
  114 286.859 4.84676 17.0556
  115 297.436 2.04738 -16.2935
  116 297.436 2.04738 -16.2935
  117 404.113 26.9453 3.47775
  118 433.133 28.1550 2.39979
  119 404.113 26.9453 3.47775
  120 433.133 28.1550 2.39979
  121 424.005 35.6548 -10.6576
  122 424.005 35.6548 -10.6576
  123 46.2590 -76.3898 -24.6072
  124 46.2590 -76.3898 -24.6072
  125 365.143 -45.4022 40.3485
  126 365.143 -45.4022 40.3485
  127 307.602 -7.39328 19.1023
  128 307.602 -7.39328 19.1023
  129 70.4405 -66.0088 56.6589
  130 70.4405 -66.0088 56.6589
  131 285.733 5.79690 -0.253819
  132 285.733 5.79690 -0.253819
  133 307.134 -14.2799 -24.3185
  134 307.134 -14.2799 -24.3185
  135 290.332 2.37231 2.90392
  136 290.332 2.37231 2.90392
  137 290.597 2.08528 -2.71058
  138 290.597 2.08528 -2.71058
  139 293.812 4.06908 -8.61676
  140 293.812 4.06908 -8.61676
  141 292.450 3.96129 7.76693
  142 292.450 3.96129 7.76693
  143 279.906 9.64712 -0.314278
  144 279.906 9.64712 -0.314278
  145 233.673 15.5380 -1.82832
  146 233.673 15.5380 -1.82832
  147 339.938 -12.1400 5.45645
  148 339.938 -12.1400 5.45645
  149 388.977 -13.8742 -14.5909
  150 388.977 -13.8742 -14.5909
  151 300.075 -33.3755 46.8580
  152 300.075 -33.3755 46.8580
  153 226.666 -61.3546 -105.143
  154 226.666 -61.3546 -105.143
  155 266.436 10.9514 16.2364
  156 266.436 10.9514 16.2364
  157 345.814 -2.16169 -12.9517
  158 345.814 -2.16169 -12.9517
  159 473.059 37.4149 26.6121
  160 473.059 37.4149 26.6121
  161 236.105 -65.5997 121.840
  162 236.105 -65.5997 121.840
  163 483.549 16.0970 -5.49999
  164 483.549 16.0970 -5.49999
  165 278.782 9.61435 7.58179
  166 278.782 9.61435 7.58179
  167 264.819 9.04750 -23.7193
  168 264.819 9.04750 -23.7193
  169 328.012 9.84563 7.71059
  170 328.012 9.84563 7.71059
  171 276.150 11.4642 -8.60048
  172 276.150 11.4642 -8.60048
  173 287.496 4.66146 1.26961
  174 287.496 4.66146 1.26961
  175 292.329 2.26202 -4.60640
  176 292.329 2.26202 -4.60640
  177 453.564 35.2128 -26.1176
  178 453.564 35.2128 -26.1176
  179 287.733 4.53539 -1.53379
  180 287.733 4.53539 -1.53379
  181 211.770 15.4787 -12.3168
  182 211.770 15.4787 -12.3168
  183 383.404 28.2837 2.71571
  184 383.404 28.2837 2.71571
  185 77.3986 -64.8449 -73.1551
  186 77.3986 -64.8449 -73.1551
  187 208.933 -2.29364 51.9306
  188 208.933 -2.29364 51.9306
  189 279.976 -45.0413 -72.8138
  190 279.976 -45.0413 -72.8138
  191 330.578 -9.05009 3.90447
  192 330.578 -9.05009 3.90447
  193 309.257 -1.01481 11.8556
  194 309.257 -1.01481 11.8556
  195 421.408 11.8627 24.3769
  196 421.408 11.8627 24.3769
  197 173.938 5.43474 -32.0336
  198 173.938 5.43474 -32.0336
  199 479.229 21.5226 12.5558
  200 479.229 21.5226 12.5558
  201 315.044 -3.82507 -12.3929
  202 315.044 -3.82507 -12.3929
  203 292.791 1.61682 4.24928
  204 292.791 1.61682 4.24928
  205 328.005 -12.7914 -6.22497
  206 328.005 -12.7914 -6.22497
  207 358.971 -18.1401 -1.86716
  208 358.971 -18.1401 -1.86716
  209 22.3205 -132.173 10.7865
  210 22.3205 -132.173 10.7865
  211 302.045 1.62375 -10.5044
  212 302.045 1.62375 -10.5044
  213 299.492 2.38115 9.19391
  214 299.492 2.38115 9.19391
  215 288.149 -26.4025 -46.4642
  216 288.149 -26.4025 -46.4642
  217 336.626 -7.13711 -7.99482
  218 336.626 -7.13711 -7.99482
  219 275.204 9.97180 -16.2376
  220 275.204 9.97180 -16.2376
  221 75.8690 -95.2417 80.0294
  222 75.8690 -95.2417 80.0294
  223 341.049 1.44121 12.2067
  224 341.049 1.44121 12.2067
  225 331.076 8.35231 -10.2470
  226 331.076 8.35231 -10.2470
  227 473.735 28.3172 -21.3646
  228 473.735 28.3172 -21.3646
  229 360.186 -13.4584 -6.44686
  230 360.186 -13.4584 -6.44686
  231 394.221 -18.5166 -68.5465
  232 394.221 -18.5166 -68.5465
  233 289.027 -13.0137 35.8925
  234 289.027 -13.0137 35.8925
  235 283.032 8.06367 1.28643
  236 283.032 8.06367 1.28643
  237 149.908 -22.2431 67.0241
  238 149.908 -22.2431 67.0241
  239 377.279 -33.1540 80.3980
  240 377.279 -33.1540 80.3980
  241 101.513 -13.5865 -33.0836
  242 101.513 -13.5865 -33.0836
  243 335.009 -25.0934 -15.8837
  244 335.009 -25.0934 -15.8837
  245 272.421 12.3487 9.41197
  246 272.421 12.3487 9.41197
  247 9.87397 -171.682 -8.73248
  248 9.87397 -171.682 -8.73248
  249 18.8134 -151.276 28.9910
  250 18.8134 -151.276 28.9910
  251 277.534 1.94558 25.9166
  252 277.534 1.94558 25.9166
  253 290.003 1.11093 1.05357
  254 290.003 1.11093 1.05357
  255 287.468 4.69825 0.199628
  256 287.468 4.69825 0.199628
  257 269.685 -3.32358 -34.3662
  258 269.685 -3.32358 -34.3662
  259 290.185 1.01055 -1.11587
  260 290.185 1.01055 -1.11587
  261 321.465 -22.5799 21.3439
  262 321.465 -22.5799 21.3439
  263 298.065 1.06632 -5.15109
  264 298.065 1.06632 -5.15109
  265 230.559 -19.5217 -63.5982
  266 230.559 -19.5217 -63.5982
  267 393.585 30.1501 -1.62090
  268 393.585 30.1501 -1.62090
  269 287.085 6.42056 -13.2745
  270 287.085 6.42056 -13.2745
  271 285.944 6.01080 -2.67487
  272 285.944 6.01080 -2.67487
  273 242.632 11.8040 -23.6762
  274 242.632 11.8040 -23.6762
  275 73.4195 -29.1057 18.9981
  276 73.4195 -29.1057 18.9981
  277 307.323 -50.8087 64.9125
  278 307.323 -50.8087 64.9125
  279 289.084 4.33810 5.22337
  280 289.084 4.33810 5.22337
  281 429.988 30.4976 -6.51364
  282 429.988 30.4976 -6.51364
  283 515.992 43.2552 59.7577
  284 515.992 43.2552 59.7577
  285 345.134 -36.6103 20.9433
  286 345.134 -36.6103 20.9433
  287 247.454 12.4046 17.3992
  288 247.454 12.4046 17.3992
  289 316.313 -62.6917 85.5708
  290 316.313 -62.6917 85.5708
  291 325.353 -3.79273 7.97479
  292 325.353 -3.79273 7.97479
  293 288.909 2.85921 1.43891
  294 288.909 2.85921 1.43891
  295 284.712 7.87219 -8.49644
  296 284.712 7.87219 -8.49644
  297 287.544 4.62252 -0.395158
  298 287.544 4.62252 -0.395158
  299 291.791 0.811742 -2.00986
  300 291.791 0.811742 -2.00986
  301 297.783 1.49251 5.17135
  302 297.783 1.49251 5.17135
  303 283.116 8.02006 -2.18750
  304 283.116 8.02006 -2.18750
  305 65.1687 -111.168 -76.0000
  306 65.1687 -111.168 -76.0000
  307 193.719 12.5751 16.1215
  308 193.719 12.5751 16.1215
  309 289.244 2.38436 -1.38332
  310 289.244 2.38436 -1.38332
  311 254.394 14.7089 -11.6603
  312 254.394 14.7089 -11.6603
  313 255.033 16.0408 4.45509
  314 255.033 16.0408 4.45509
  315 288.614 4.17151 -3.70598
  316 288.614 4.17151 -3.70598
  317 387.854 20.0468 -0.558679
  318 387.854 20.0468 -0.558679
  319 286.405 6.97608 11.6492
  320 286.405 6.97608 11.6492
  321 365.979 11.3124 -10.3058
  322 365.979 11.3124 -10.3058
  323 542.545 15.4388 36.3162
  324 542.545 15.4388 36.3162
  325 285.304 7.22451 7.34574
  326 285.304 7.22451 7.34574
  327 280.690 9.55745 3.84247
  328 280.690 9.55745 3.84247
  329 220.878 -49.2108 -120.575
  330 220.878 -49.2108 -120.575
  331 291.961 0.734038 1.96636
  332 291.961 0.734038 1.96636
  333 285.658 6.05800 1.99825
  334 285.658 6.05800 1.99825
  335 274.946 12.3737 0.439867
  336 274.946 12.3737 0.439867
  337 142.176 -50.4447 97.2210
  338 142.176 -50.4447 97.2210
  339 354.673 23.1756 1.81321
  340 354.673 23.1756 1.81321
  341 20.4431 -148.174 -33.6728
  342 20.4431 -148.174 -33.6728
  343 220.676 13.9336 14.3851
  344 220.676 13.9336 14.3851
  345 513.184 7.08400 5.08522
  346 513.184 7.08400 5.08522
  347 535.667 27.0048 -37.3445
  348 535.667 27.0048 -37.3445
  349 249.742 -28.7967 71.1483
  350 260.300 -14.8295 52.7821
  351 249.742 -28.7967 71.1483
  352 260.300 -14.8295 52.7821
  353 520.552 13.0774 19.0711
  354 520.552 13.0774 19.0711
  355 295.701 -0.390856 20.2204
  356 295.701 -0.390856 20.2204
  357 351.148 -47.3474 -50.0611
  358 351.148 -47.3474 -50.0611
  359 332.747 -2.89862 9.92797
  360 332.747 -2.89862 9.92797
  361 226.191 -49.1115 132.116
  362 226.191 -49.1115 132.116
  363 389.074 31.2290 -1.06338
  364 389.074 31.2290 -1.06338
  365 520.414 4.80663 -3.99566
  366 520.414 4.80663 -3.99566
  367 315.012 0.186836 -9.90896
  368 315.012 0.186836 -9.90896
  369 280.700 10.1602 -4.59715
  370 280.700 10.1602 -4.59715
  371 435.239 33.7647 10.7305
  372 435.239 33.7647 10.7305
  373 332.699 13.8535 -2.16624
  374 332.699 13.8535 -2.16624
  375 303.493 1.17253 -6.37395
  376 303.493 1.17253 -6.37395
  377 81.9932 -41.2002 -55.7142
  378 81.9932 -41.2002 -55.7142
  379 335.630 -6.02458 2.81600
  380 335.630 -6.02458 2.81600
  381 286.934 -0.431282 -23.8342
  382 286.934 -0.431282 -23.8342
  383 330.277 -0.705329 -11.8357
  384 330.277 -0.705329 -11.8357
  385 522.589 9.28293 -15.8129
  386 522.589 9.28293 -15.8129
  387 287.870 4.46705 2.93117
  388 287.870 4.46705 2.93117
  389 351.266 17.0459 9.96890
  390 351.266 17.0459 9.96890
  391 379.633 -8.44100 2.98540
  392 379.633 -8.44100 2.98540
  393 288.962 5.24873 -6.52644
  394 288.962 5.24873 -6.52644
  395 553.126 50.7223 -69.4415
  396 553.126 50.7223 -69.4415
  397 331.338 -4.78786 -3.37442
  398 331.338 -4.78786 -3.37442
</Section>

newXOutput 85

<Section columns = "stress_xx | stress_yy | stress_xy">
  1 292.841 0.284589 -0.334749
  2 292.972 0.354027 0.451534
  3 292.841 0.284589 -0.334749
  4 292.972 0.354027 0.451534
  5 453.682 28.0928 125.875
  6 471.557 27.1743 -123.820
  7 453.682 28.0928 125.875
  8 471.557 27.1743 -123.820
  9 293.584 0.201607 -0.877748
  10 296.051 0.357873 -1.55781
  11 299.612 0.814089 -3.15572
  12 307.782 0.308083 -4.23168
  13 318.240 0.518199 -6.90430
  14 330.427 -2.90573 -6.75253
  15 341.517 -3.51776 -0.708384
  16 335.920 -2.42950 5.80291
  17 322.808 2.48300 10.1442
  18 315.677 6.15741 -0.394016
  19 320.893 2.96008 -9.51174
  20 335.555 -3.60700 -7.07492
  21 338.381 -4.26958 2.19064
  22 332.153 -1.92164 5.81171
  23 316.031 0.123513 6.93508
  24 307.057 1.16926 5.35466
  25 299.820 0.934092 3.03384
  26 296.102 0.287625 1.42773
  27 293.746 0.238129 0.846928
  28 293.417 1.05433 0.527593
  29 292.880 2.16628 0.612240
  30 291.560 3.76923 0.544041
  31 291.032 4.38437 -0.0527631
  32 291.711 3.57504 -0.653039
  33 292.658 2.36165 -0.558255
  34 293.075 1.19466 -0.589171
  35 293.584 0.201607 -0.877748
  36 296.051 0.357873 -1.55781
  37 299.612 0.814089 -3.15572
  38 307.782 0.308083 -4.23168
  39 318.240 0.518199 -6.90430
  40 330.427 -2.90573 -6.75253
  41 341.517 -3.51776 -0.708384
  42 335.920 -2.42950 5.80291
  43 322.808 2.48300 10.1442
  44 315.677 6.15741 -0.394016
  45 320.893 2.96008 -9.51174
  46 335.555 -3.60700 -7.07492
  47 338.381 -4.26958 2.19064
  48 332.153 -1.92164 5.81171
  49 316.031 0.123513 6.93508
  50 307.057 1.16926 5.35466
  51 299.820 0.934092 3.03384
  52 296.102 0.287625 1.42773
  53 293.746 0.238129 0.846928
  54 293.417 1.05433 0.527593
  55 292.880 2.16628 0.612240
  56 291.560 3.76923 0.544041
  57 291.032 4.38437 -0.0527631
  58 291.711 3.57504 -0.653039
  59 292.658 2.36165 -0.558255
  60 293.075 1.19466 -0.589171
  61 629.175 32.4442 65.5468
  62 573.453 9.41267 23.3389
  63 540.572 3.98136 8.66759
  64 533.561 2.87113 1.72191
  65 540.308 3.79120 -7.40877
  66 565.316 8.08864 -20.2967
  67 635.068 28.2557 -56.4300
  68 83.5780 -93.8740 -102.420
  69 16.5256 -212.192 -25.8557
  70 4.80061 -240.739 -11.3098
  71 4.58344 -236.347 -5.84541
  72 7.69146 -230.085 12.0901
  73 17.8969 -205.670 27.3572
  74 90.7659 -87.5797 113.577
  75 629.175 32.4442 65.5468
  76 573.453 9.41267 23.3389
  77 540.572 3.98136 8.66759
  78 533.561 2.87113 1.72191
  79 540.308 3.79120 -7.40877
  80 565.316 8.08864 -20.2967
  81 635.068 28.2557 -56.4300
  82 83.5780 -93.8740 -102.420
  83 16.5256 -212.192 -25.8557
  84 4.80061 -240.739 -11.3098
  85 4.58344 -236.347 -5.84541
  86 7.69146 -230.085 12.0901
  87 17.8969 -205.670 27.3572
  88 90.7659 -87.5797 113.577
  89 268.893 15.4367 -4.02335
  90 268.893 15.4367 -4.02335
  91 245.507 3.39466 36.2262
  92 235.875 -1.48016 -43.1870
  93 245.507 3.39466 36.2262
  94 235.875 -1.48016 -43.1870
  95 138.668 3.41661 17.3208
  96 138.668 3.41661 17.3208
  97 361.102 23.1961 -5.75007
  98 368.226 13.1839 11.6187
  99 361.102 23.1961 -5.75007
  100 368.226 13.1839 11.6187
  101 288.643 7.01443 4.04539
  102 288.643 7.01443 4.04539
  103 345.670 -19.6583 0.151489
  104 345.670 -19.6583 0.151489
  105 289.004 7.33003 -4.98984
  106 289.004 7.33003 -4.98984
  107 339.851 -41.8436 -37.9613
  108 339.851 -41.8436 -37.9613
  109 237.467 -49.3361 95.0471
  110 237.467 -49.3361 95.0471
  111 160.187 -29.0139 -76.5703
  112 160.187 -29.0139 -76.5703
  113 290.201 4.90148 17.2499
  114 290.201 4.90148 17.2499
  115 300.894 2.06937 -16.4800
  116 300.894 2.06937 -16.4800
  117 408.774 27.2699 3.55456
  118 438.114 28.4737 2.43335
  119 408.774 27.2699 3.55456
  120 438.114 28.4737 2.43335
  121 428.889 36.0738 -10.8093
  122 428.889 36.0738 -10.8093
  123 46.8087 -77.2659 -24.9131
  124 46.8087 -77.2659 -24.9131
  125 369.338 -45.9190 40.8510
  126 369.338 -45.9190 40.8510
  127 311.172 -7.48066 19.3268
  128 311.172 -7.48066 19.3268
  129 71.2775 -66.7629 57.3569
  130 71.2775 -66.7629 57.3569
  131 289.063 5.86248 -0.256573
  132 289.063 5.86248 -0.256573
  133 310.697 -14.4476 -24.6066
  134 310.697 -14.4476 -24.6066
  135 293.711 2.39922 2.93561
  136 293.711 2.39922 2.93561
  137 293.979 2.10899 -2.74011
  138 293.979 2.10899 -2.74011
  139 297.229 4.11494 -8.71282
  140 297.229 4.11494 -8.71282
  141 295.852 4.00607 7.85321
  142 295.852 4.00607 7.85321
  143 283.174 9.75694 -0.317861
  144 283.174 9.75694 -0.317861
  145 236.425 15.7192 -1.84969
  146 236.425 15.7192 -1.84969
  147 343.876 -12.2798 5.50180
  148 343.876 -12.2798 5.50180
  149 393.448 -14.0138 -14.8032
  150 393.448 -14.0138 -14.8032
  151 303.551 -33.7665 47.4117
  152 303.551 -33.7665 47.4117
  153 229.291 -62.0604 -106.411
  154 229.291 -62.0604 -106.411
  155 269.553 11.0778 16.4219
  156 269.553 11.0778 16.4219
  157 349.823 -2.18322 -13.0797
  158 349.823 -2.18322 -13.0797
  159 478.467 37.8537 26.9424
  160 478.467 37.8537 26.9424
  161 238.836 -66.3612 123.301
  162 238.836 -66.3612 123.301
  163 489.056 16.2739 -5.56455
  164 489.056 16.2739 -5.56455
  165 282.037 9.72398 7.66677
  166 282.037 9.72398 7.66677
  167 267.916 9.15222 -23.9922
  168 267.916 9.15222 -23.9922
  169 331.842 9.96379 7.79154
  170 331.842 9.96379 7.79154
  171 279.377 11.5953 -8.69730
  172 279.377 11.5953 -8.69730
  173 290.846 4.71413 1.28347
  174 290.846 4.71413 1.28347
  175 295.729 2.28758 -4.65700
  176 295.729 2.28758 -4.65700
  177 458.756 35.6446 -26.4612
  178 458.756 35.6446 -26.4612
  179 291.085 4.58669 -1.55051
  180 291.085 4.58669 -1.55051
  181 214.271 15.6619 -12.4600
  182 214.271 15.6619 -12.4600
  183 387.844 28.6152 2.72665
  184 387.844 28.6152 2.72665
  185 78.3132 -65.5852 -74.0538
  186 78.3132 -65.5852 -74.0538
  187 211.389 -2.31773 52.5382
  188 211.389 -2.31773 52.5382
  189 283.219 -45.5695 -73.6780
  190 283.219 -45.5695 -73.6780
  191 334.408 -9.15665 3.95920
  192 334.408 -9.15665 3.95920
  193 312.844 -1.02807 11.9918
  194 312.844 -1.02807 11.9918
  195 426.242 12.0292 24.7066
  196 426.242 12.0292 24.7066
  197 175.999 5.50452 -32.4103
  198 175.999 5.50452 -32.4103
  199 484.696 21.7628 12.7056
  200 484.696 21.7628 12.7056
  201 318.696 -3.87121 -12.5384
  202 318.696 -3.87121 -12.5384
  203 296.196 1.63503 4.29590
  204 296.196 1.63503 4.29590
  205 331.804 -12.9421 -6.30755
  206 331.804 -12.9421 -6.30755
  207 363.116 -18.3447 -1.91733
  208 363.116 -18.3447 -1.91733
  209 22.5818 -133.722 10.9236
  210 22.5818 -133.722 10.9236
  211 305.552 1.64106 -10.6230
  212 305.552 1.64106 -10.6230
  213 302.971 2.40774 9.29713
  214 302.971 2.40774 9.29713
  215 291.495 -26.7117 -47.0118
  216 291.495 -26.7117 -47.0118
  217 340.530 -7.22012 -8.07197
  218 340.530 -7.22012 -8.07197
  219 278.419 10.0863 -16.4230
  220 278.419 10.0863 -16.4230
  221 76.7556 -96.3280 81.0205
  222 76.7556 -96.3280 81.0205
  223 345.011 1.46257 12.3294
  224 345.011 1.46257 12.3294
  225 334.936 8.45287 -10.3533
  226 334.936 8.45287 -10.3533
  227 479.147 28.6393 -21.6252
  228 479.147 28.6393 -21.6252
  229 364.346 -13.6083 -6.49258
  230 364.346 -13.6083 -6.49258
  231 398.732 -18.6868 -69.3953
  232 398.732 -18.6868 -69.3953
  233 292.386 -13.1658 36.3115
  234 292.386 -13.1658 36.3115
  235 286.334 8.15524 1.30068
  236 286.334 8.15524 1.30068
  237 151.678 -22.4974 67.8230
  238 151.678 -22.4974 67.8230
  239 381.596 -33.5034 81.3818
  240 381.596 -33.5034 81.3818
  241 102.727 -13.7306 -33.4808
  242 102.727 -13.7306 -33.4808
  243 338.881 -25.3862 -16.0839
  244 338.881 -25.3862 -16.0839
  245 275.606 12.4904 9.51852
  246 275.606 12.4904 9.51852
  247 9.98449 -173.710 -8.84550
  248 9.98449 -173.710 -8.84550
  249 19.0316 -153.047 29.3643
  250 19.0316 -153.047 29.3643
  251 280.771 1.96768 26.2155
  252 280.771 1.96768 26.2155
  253 293.378 1.12360 1.06497
  254 293.378 1.12360 1.06497
  255 290.818 4.75123 0.201817
  256 290.818 4.75123 0.201817
  257 272.832 -3.36273 -34.7654
  258 272.832 -3.36273 -34.7654
  259 293.563 1.02212 -1.12794
  260 293.563 1.02212 -1.12794
  261 325.187 -22.8439 21.6026
  262 325.187 -22.8439 21.6026
  263 301.527 1.07817 -5.20790
  264 301.527 1.07817 -5.20790
  265 233.255 -19.7501 -64.3461
  266 233.255 -19.7501 -64.3461
  267 398.137 30.5019 -1.61930
  268 398.137 30.5019 -1.61930
  269 290.430 6.49336 -13.4244
  270 290.430 6.49336 -13.4244
  271 289.277 6.07891 -2.70424
  272 289.277 6.07891 -2.70424
  273 245.481 11.9420 -23.9497
  274 245.481 11.9420 -23.9497
  275 74.2995 -29.4256 19.2292
  276 74.2995 -29.4256 19.2292
  277 310.871 -51.4036 65.6853
  278 310.871 -51.4036 65.6853
  279 292.451 4.38726 5.28090
  280 292.451 4.38726 5.28090
  281 434.935 30.8452 -6.59943
  282 434.935 30.8452 -6.59943
  283 521.847 43.7908 60.4803
  284 521.847 43.7908 60.4803
  285 349.114 -37.0345 21.2097
  286 349.114 -37.0345 21.2097
  287 250.359 12.5490 17.5989
  288 250.359 12.5490 17.5989
  289 319.953 -63.4229 86.5922
  290 319.953 -63.4229 86.5922
  291 329.119 -3.83812 8.06986
  292 329.119 -3.83812 8.06986
  293 292.273 2.89156 1.45456
  294 292.273 2.89156 1.45456
  295 288.032 7.96174 -8.59123
  296 288.032 7.96174 -8.59123
  297 290.894 4.67466 -0.399457
  298 290.894 4.67466 -0.399457
  299 295.185 0.820976 -2.03172
  300 295.185 0.820976 -2.03172
  301 301.242 1.50923 5.22838
  302 301.242 1.50923 5.22838
  303 286.419 8.11116 -2.21172
  304 286.419 8.11116 -2.21172
  305 65.9282 -112.435 -76.9461
  306 65.9282 -112.435 -76.9461
  307 196.012 12.7262 16.3091
  308 196.012 12.7262 16.3091
  309 292.611 2.41140 -1.39833
  310 292.611 2.41140 -1.39833
  311 257.378 14.8792 -11.7940
  312 257.378 14.8792 -11.7940
  313 258.025 16.2264 4.50579
  314 258.025 16.2264 4.50579
  315 291.975 4.21878 -3.74663
  316 291.975 4.21878 -3.74663
  317 392.331 20.2943 -0.602190
  318 392.331 20.2943 -0.602190
  319 289.743 7.05542 11.7801
  320 289.743 7.05542 11.7801
  321 370.216 11.4518 -10.3974
  322 370.216 11.4518 -10.3974
  323 548.675 15.6100 36.7370
  324 548.675 15.6100 36.7370
  325 288.630 7.30663 7.42746
  326 288.630 7.30663 7.42746
  327 283.967 9.66625 3.88522
  328 283.967 9.66625 3.88522
  329 223.416 -49.7004 -122.047
  330 223.416 -49.7004 -122.047
  331 295.357 0.742379 1.98774
  332 295.357 0.742379 1.98774
  333 288.988 6.12659 2.02021
  334 288.988 6.12659 2.02021
  335 278.159 12.5152 0.444777
  336 278.159 12.5152 0.444777
  337 143.847 -51.0306 98.3946
  338 143.847 -51.0306 98.3946
  339 358.799 23.4478 1.82946
  340 358.799 23.4478 1.82946
  341 20.6780 -149.907 -34.1009
  342 20.6780 -149.907 -34.1009
  343 223.279 14.0976 14.5511
  344 223.279 14.0976 14.5511
  345 518.988 7.16034 5.14116
  346 518.988 7.16034 5.14116
  347 541.733 27.3182 -37.7810
  348 541.733 27.3182 -37.7810
  349 252.649 -29.1347 71.9852
  350 263.335 -15.0027 53.3978
  351 252.649 -29.1347 71.9852
  352 263.335 -15.0027 53.3978
  353 526.442 13.2204 19.2881
  354 526.442 13.2204 19.2881
  355 299.139 -0.396590 20.4534
  356 299.139 -0.396590 20.4534
  357 355.184 -47.8934 -50.6713
  358 355.184 -47.8934 -50.6713
  359 336.614 -2.93104 10.0306
  360 336.614 -2.93104 10.0306
  361 228.779 -49.6048 133.720
  362 228.779 -49.6048 133.720
  363 393.580 31.5895 -1.07486
  364 393.580 31.5895 -1.07486
  365 526.289 4.85800 -4.04056
  366 526.289 4.85800 -4.04056
  367 318.660 0.187523 -10.0221
  368 318.660 0.187523 -10.0221
  369 283.976 10.2760 -4.64841
  370 283.976 10.2760 -4.64841
  371 440.243 34.1545 10.8750
  372 440.243 34.1545 10.8750
  373 336.581 14.0174 -2.18875
  374 336.581 14.0174 -2.18875
  375 307.014 1.18526 -6.44494
  376 307.014 1.18526 -6.44494
  377 82.9754 -41.6667 -56.3926
  378 82.9754 -41.6667 -56.3926
  379 339.518 -6.09515 2.83922
  380 339.518 -6.09515 2.83922
  381 290.276 -0.437516 -24.1099
  382 290.276 -0.437516 -24.1099
  383 334.121 -0.712440 -11.9590
  384 334.121 -0.712440 -11.9590
  385 528.499 9.38512 -15.9917
  386 528.499 9.38512 -15.9917
  387 291.223 4.51760 2.96327
  388 291.223 4.51760 2.96327
  389 355.348 17.2492 10.0664
  390 355.348 17.2492 10.0664
  391 384.006 -8.52495 3.05741
  392 384.006 -8.52495 3.05741
  393 292.327 5.30826 -6.59860
  394 292.327 5.30826 -6.59860
  395 559.377 51.3567 -70.2753
  396 559.377 51.3567 -70.2753
  397 335.171 -4.84507 -3.41793
  398 335.171 -4.84507 -3.41793
</Section>

newXOutput 86

<Section columns = "stress_xx | stress_yy | stress_xy">
  1 296.208 0.287909 -0.338294
  2 296.340 0.358109 0.456309
  3 296.208 0.287909 -0.338294
  4 296.340 0.358109 0.456309
  5 458.740 28.5242 127.371
  6 476.804 27.5998 -125.292
  7 458.740 28.5242 127.371
  8 476.804 27.5998 -125.292
  9 296.959 0.203913 -0.887082
  10 299.452 0.361911 -1.57447
  11 303.050 0.823151 -3.18977
  12 311.308 0.311343 -4.27779
  13 321.878 0.523291 -6.98100
  14 334.199 -2.94059 -6.82996
  15 345.417 -3.55911 -0.720392
  16 339.773 -2.45735 5.86120
  17 326.533 2.51362 10.2502
  18 319.331 6.23060 -0.398207
  19 324.598 2.99493 -9.61172
  20 339.405 -3.64859 -7.14583
  21 342.246 -4.31986 2.22036
  22 335.945 -1.94457 5.87873
  23 319.647 0.123838 7.01252
  24 310.575 1.18204 5.41318
  25 303.261 0.944496 3.06652
  26 299.504 0.290877 1.44299
  27 297.123 0.240865 0.855961
  28 296.790 1.06620 0.533163
  29 296.248 2.19053 0.618758
  30 294.914 3.81122 0.549865
  31 294.381 4.43313 -0.0533263
  32 295.066 3.61489 -0.660002
  33 296.023 2.38809 -0.564127
  34 296.444 1.20815 -0.595449
  35 296.959 0.203913 -0.887082
  36 299.452 0.361911 -1.57447
  37 303.050 0.823151 -3.18977
  38 311.308 0.311343 -4.27779
  39 321.878 0.523291 -6.98100
  40 334.199 -2.94059 -6.82996
  41 345.417 -3.55911 -0.720392
  42 339.773 -2.45735 5.86120
  43 326.533 2.51362 10.2502
  44 319.331 6.23060 -0.398207
  45 324.598 2.99493 -9.61172
  46 339.405 -3.64859 -7.14583
  47 342.246 -4.31986 2.22036
  48 335.945 -1.94457 5.87873
  49 319.647 0.123838 7.01252
  50 310.575 1.18204 5.41318
  51 303.261 0.944496 3.06652
  52 299.504 0.290877 1.44299
  53 297.123 0.240865 0.855961
  54 296.790 1.06620 0.533163
  55 296.248 2.19053 0.618758
  56 294.914 3.81122 0.549865
  57 294.381 4.43313 -0.0533263
  58 295.066 3.61489 -0.660002
  59 296.023 2.38809 -0.564127
  60 296.444 1.20815 -0.595449
  61 636.128 32.8227 66.2911
  62 579.807 9.51511 23.5967
  63 546.579 4.02187 8.76099
  64 539.493 2.90090 1.73922
  65 546.311 3.83121 -7.48822
  66 571.586 8.17590 -20.5189
  67 642.087 28.5846 -57.0713
  68 84.5299 -94.8472 -103.669
  69 16.7142 -214.656 -26.1961
  70 4.84722 -243.589 -11.4580
  71 4.62822 -239.151 -5.91461
  72 7.77390 -232.800 12.2491
  73 18.1033 -208.057 27.7186
  74 91.7917 -88.4799 114.959
  75 636.128 32.8227 66.2911
  76 579.807 9.51511 23.5967
  77 546.579 4.02187 8.76099
  78 539.493 2.90090 1.73922
  79 546.311 3.83121 -7.48822
  80 571.586 8.17590 -20.5189
  81 642.087 28.5846 -57.0713
  82 84.5299 -94.8472 -103.669
  83 16.7142 -214.656 -26.1961
  84 4.84722 -243.589 -11.4580
  85 4.62822 -239.151 -5.91461
  86 7.77390 -232.800 12.2491
  87 18.1033 -208.057 27.7186
  88 91.7917 -88.4799 114.959
  89 272.003 15.6121 -4.06855
  90 272.003 15.6121 -4.06855
  91 248.350 3.43484 36.6409
  92 238.608 -1.49604 -43.6840
  93 248.350 3.43484 36.6409
  94 238.608 -1.49604 -43.6840
  95 140.303 3.46662 17.5229
  96 140.303 3.46662 17.5229
  97 365.248 23.4656 -5.80432
  98 372.439 13.3437 11.7231
  99 365.248 23.4656 -5.80432
  100 372.439 13.3437 11.7231
  101 291.967 7.09300 4.08948
  102 291.967 7.09300 4.08948
  103 349.619 -19.8833 0.173905
  104 349.619 -19.8833 0.173905
  105 292.332 7.41226 -5.04432
  106 292.332 7.41226 -5.04432
  107 343.721 -42.3256 -38.4146
  108 343.721 -42.3256 -38.4146
  109 240.195 -49.9085 96.1620
  110 240.195 -49.9085 96.1620
  111 162.050 -29.3447 -77.4738
  112 162.050 -29.3447 -77.4738
  113 293.540 4.95612 17.4438
  114 293.540 4.95612 17.4438
  115 304.349 2.09130 -16.6663
  116 304.349 2.09130 -16.6663
  117 413.430 27.5944 3.63212
  118 443.088 28.7919 2.46701
  119 413.430 27.5944 3.63212
  120 443.088 28.7919 2.46701
  121 433.767 36.4925 -10.9616
  122 433.767 36.4925 -10.9616
  123 47.3583 -78.1409 -25.2191
  124 47.3583 -78.1409 -25.2191
  125 373.528 -46.4350 41.3539
  126 373.528 -46.4350 41.3539
  127 314.739 -7.56799 19.5513
  128 314.739 -7.56799 19.5513
  129 72.1143 -67.5160 58.0552
  130 72.1143 -67.5160 58.0552
  131 292.392 5.92796 -0.259320
  132 292.392 5.92796 -0.259320
  133 314.257 -14.6152 -24.8946
  134 314.257 -14.6152 -24.8946
  135 297.088 2.42610 2.96723
  136 297.088 2.42610 2.96723
  137 297.358 2.13267 -2.76957
  138 297.358 2.13267 -2.76957
  139 300.643 4.16073 -8.80870
  140 300.643 4.16073 -8.80870
  141 299.252 4.05078 7.93934
  142 299.252 4.05078 7.93934
  143 286.439 9.86662 -0.321440
  144 286.439 9.86662 -0.321440
  145 239.175 15.9002 -1.87105
  146 239.175 15.9002 -1.87105
  147 347.810 -12.4193 5.54670
  148 347.810 -12.4193 5.54670
  149 397.915 -14.1527 -15.0163
  150 397.915 -14.1527 -15.0163
  151 307.023 -34.1572 47.9652
  152 307.023 -34.1572 47.9652
  153 231.913 -62.7654 -107.679
  154 231.913 -62.7654 -107.679
  155 272.668 11.2041 16.6073
  156 272.668 11.2041 16.6073
  157 353.829 -2.20465 -13.2071
  158 353.829 -2.20465 -13.2071
  159 483.867 38.2923 27.2728
  160 483.867 38.2923 27.2728
  161 241.565 -67.1219 124.761
  162 241.565 -67.1219 124.761
  163 494.554 16.4506 -5.62907
  164 494.554 16.4506 -5.62907
  165 285.290 9.83347 7.75161
  166 285.290 9.83347 7.75161
  167 271.011 9.25684 -24.2648
  168 271.011 9.25684 -24.2648
  169 335.668 10.0819 7.87222
  170 335.668 10.0819 7.87222
  171 282.601 11.7263 -8.79396
  172 282.601 11.7263 -8.79396
  173 294.193 4.76672 1.29731
  174 294.193 4.76672 1.29731
  175 299.127 2.31310 -4.70749
  176 299.127 2.31310 -4.70749
  177 463.942 36.0766 -26.8054
  178 463.942 36.0766 -26.8054
  179 294.434 4.63792 -1.56719
  180 294.434 4.63792 -1.56719
  181 216.770 15.8450 -12.6030
  182 216.770 15.8450 -12.6030
  183 392.279 28.9465 2.73712
  184 392.279 28.9465 2.73712
  185 79.2275 -66.3246 -74.9528
  186 79.2275 -66.3246 -74.9528
  187 213.845 -2.34175 53.1454
  188 213.845 -2.34175 53.1454
  189 286.460 -46.0972 -74.5418
  190 286.460 -46.0972 -74.5418
  191 338.233 -9.26316 4.01409
  192 338.233 -9.26316 4.01409
  193 316.427 -1.04136 12.1280
  194 316.427 -1.04136 12.1280
  195 431.070 12.1962 25.0370
  196 431.070 12.1962 25.0370
  197 178.059 5.57439 -32.7869
  198 178.059 5.57439 -32.7869
  199 490.155 22.0026 12.8554
  200 490.155 22.0026 12.8554
  201 322.345 -3.91734 -12.6838
  202 322.345 -3.91734 -12.6838
  203 299.599 1.65321 4.34242
  204 299.599 1.65321 4.34242
  205 335.600 -13.0927 -6.39028
  206 335.600 -13.0927 -6.39028
  207 367.256 -18.5489 -1.96811
  208 367.256 -18.5489 -1.96811
  209 22.8429 -135.269 11.0609
  210 22.8429 -135.269 11.0609
  211 309.056 1.65831 -10.7415
  212 309.056 1.65831 -10.7415
  213 306.447 2.43428 9.40019
  214 306.447 2.43428 9.40019
  215 294.837 -27.0207 -47.5592
  216 294.837 -27.0207 -47.5592
  217 344.431 -7.30307 -8.14870
  218 344.431 -7.30307 -8.14870
  219 281.630 10.2007 -16.6081
  220 281.630 10.2007 -16.6081
  221 77.6415 -97.4129 82.0122
  222 77.6415 -97.4129 82.0122
  223 348.970 1.48403 12.4515
  224 348.970 1.48403 12.4515
  225 338.793 8.55344 -10.4592
  226 338.793 8.55344 -10.4592
  227 484.552 28.9609 -21.8857
  228 484.552 28.9609 -21.8857
  229 368.502 -13.7579 -6.53759
  230 368.502 -13.7579 -6.53759
  231 403.237 -18.8558 -70.2445
  232 403.237 -18.8558 -70.2445
  233 295.743 -13.3178 36.7302
  234 295.743 -13.3178 36.7302
  235 289.633 8.24668 1.31490
  236 289.633 8.24668 1.31490
  237 153.447 -22.7515 68.6218
  238 153.447 -22.7515 68.6218
  239 385.907 -33.8516 82.3658
  240 385.907 -33.8516 82.3658
  241 103.941 -13.8742 -33.8779
  242 103.941 -13.8742 -33.8779
  243 342.750 -25.6788 -16.2843
  244 342.750 -25.6788 -16.2843
  245 278.788 12.6320 9.62491
  246 278.788 12.6320 9.62491
  247 10.0948 -175.738 -8.95870
  248 10.0948 -175.738 -8.95870
  249 19.2497 -154.817 29.7382
  250 19.2497 -154.817 29.7382
  251 284.005 1.98976 26.5141
  252 284.005 1.98976 26.5141
  253 296.751 1.13625 1.07634
  254 296.751 1.13625 1.07634
  255 294.164 4.80412 0.204000
  256 294.164 4.80412 0.204000
  257 275.977 -3.40186 -35.1643
  258 275.977 -3.40186 -35.1643
  259 296.938 1.03368 -1.13999
  260 296.938 1.03368 -1.13999
  261 328.905 -23.1078 21.8613
  262 328.905 -23.1078 21.8613
  263 304.986 1.09001 -5.26460
  264 304.986 1.09001 -5.26460
  265 235.948 -19.9783 -65.0936
  266 235.948 -19.9783 -65.0936
  267 402.684 30.8534 -1.61725
  268 402.684 30.8534 -1.61725
  269 293.772 6.56606 -13.5740
  270 293.772 6.56606 -13.5740
  271 292.607 6.14692 -2.73354
  272 292.607 6.14692 -2.73354
  273 248.329 12.0800 -24.2229
  274 248.329 12.0800 -24.2229
  275 75.1794 -29.7448 19.4603
  276 75.1794 -29.7448 19.4603
  277 314.416 -51.9982 66.4580
  278 314.416 -51.9982 66.4580
  279 295.814 4.43635 5.33831
  280 295.814 4.43635 5.33831
  281 439.877 31.1924 -6.68537
  282 439.877 31.1924 -6.68537
  283 527.693 44.3268 61.2028
  284 527.693 44.3268 61.2028
  285 353.091 -37.4584 21.4765
  286 353.091 -37.4584 21.4765
  287 253.262 12.6934 17.7985
  288 253.262 12.6934 17.7985
  289 323.589 -64.1535 87.6134
  290 323.589 -64.1535 87.6134
  291 332.882 -3.88351 8.16490
  292 332.882 -3.88351 8.16490
  293 295.635 2.92387 1.47016
  294 295.635 2.92387 1.47016
  295 291.349 8.05116 -8.68586
  296 291.349 8.05116 -8.68586
  297 294.241 4.72672 -0.403746
  298 294.241 4.72672 -0.403746
  299 298.577 0.830197 -2.05352
  300 298.577 0.830197 -2.05352
  301 304.699 1.52592 5.28529
  302 304.699 1.52592 5.28529
  303 289.719 8.20213 -2.23589
  304 289.719 8.20213 -2.23589
  305 66.6871 -113.699 -77.8929
  306 66.6871 -113.699 -77.8929
  307 198.303 12.8772 16.4965
  308 198.303 12.8772 16.4965
  309 295.976 2.43840 -1.41330
  310 295.976 2.43840 -1.41330
  311 260.361 15.0492 -11.9275
  312 260.361 15.0492 -11.9275
  313 261.015 16.4117 4.55643
  314 261.015 16.4117 4.55643
  315 295.333 4.26599 -3.78719
  316 295.333 4.26599 -3.78719
  317 396.804 20.5420 -0.646500
  318 396.804 20.5420 -0.646500
  319 293.078 7.13465 11.9107
  320 293.078 7.13465 11.9107
  321 374.450 11.5912 -10.4883
  322 374.450 11.5912 -10.4883
  323 554.795 15.7808 37.1574
  324 554.795 15.7808 37.1574
  325 291.953 7.38864 7.50902
  326 291.953 7.38864 7.50902
  327 287.241 9.77491 3.92789
  328 287.241 9.77491 3.92789
  329 225.952 -50.1876 -123.518
  330 225.952 -50.1876 -123.518
  331 298.751 0.750709 2.00906
  332 298.751 0.750709 2.00906
  333 292.316 6.19508 2.04212
  334 292.316 6.19508 2.04212
  335 281.371 12.6565 0.449678
  336 281.371 12.6565 0.449678
  337 145.517 -51.6159 99.5683
  338 145.517 -51.6159 99.5683
  339 362.921 23.7199 1.84559
  340 362.921 23.7199 1.84559
  341 20.9127 -151.639 -34.5296
  342 20.9127 -151.639 -34.5296
  343 225.881 14.2616 14.7169
  344 225.881 14.2616 14.7169
  345 524.784 7.23649 5.19697
  346 524.784 7.23649 5.19697
  347 547.790 27.6312 -38.2171
  348 547.790 27.6312 -38.2171
  349 255.554 -29.4725 72.8218
  350 266.368 -15.1757 54.0130
  351 255.554 -29.4725 72.8218
  352 266.368 -15.1757 54.0130
  353 532.323 13.3631 19.5048
  354 532.323 13.3631 19.5048
  355 302.575 -0.402347 20.6861
  356 302.575 -0.402347 20.6861
  357 359.215 -48.4388 -51.2816
  358 359.215 -48.4388 -51.2816
  359 340.478 -2.96341 10.1328
  360 340.478 -2.96341 10.1328
  361 231.365 -50.0959 135.324
  362 231.365 -50.0959 135.324
  363 398.081 31.9497 -1.08630
  364 398.081 31.9497 -1.08630
  365 532.156 4.90923 -4.08538
  366 532.156 4.90923 -4.08538
  367 322.305 0.188176 -10.1351
  368 322.305 0.188176 -10.1351
  369 287.250 10.3916 -4.69958
  370 287.250 10.3916 -4.69958
  371 445.242 34.5438 11.0198
  372 445.242 34.5438 11.0198
  373 340.460 14.1813 -2.21118
  374 340.460 14.1813 -2.21118
  375 310.532 1.19796 -6.51581
  376 310.532 1.19796 -6.51581
  377 83.9575 -42.1326 -57.0712
  378 83.9575 -42.1326 -57.0712
  379 343.403 -6.16568 2.86221
  380 343.403 -6.16568 2.86221
  381 293.614 -0.443774 -24.3853
  382 293.614 -0.443774 -24.3853
  383 337.963 -0.719519 -12.0818
  384 337.963 -0.719519 -12.0818
  385 534.399 9.48711 -16.1703
  386 534.399 9.48711 -16.1703
  387 294.574 4.56808 2.99530
  388 294.574 4.56808 2.99530
  389 359.426 17.4524 10.1635
  390 359.426 17.4524 10.1635
  391 388.373 -8.60848 3.13022
  392 388.373 -8.60848 3.13022
  393 295.689 5.36771 -6.67062
  394 295.689 5.36771 -6.67062
  395 565.618 51.9916 -71.1090
  396 565.618 51.9916 -71.1090
  397 339.000 -4.90226 -3.46149
  398 339.000 -4.90226 -3.46149
</Section>

newXOutput 87

<Section columns = "stress_xx | stress_yy | stress_xy">
  1 299.573 0.291226 -0.341830
  2 299.706 0.362187 0.461071
  3 299.573 0.291226 -0.341830
  4 299.706 0.362187 0.461071
  5 463.791 28.9578 128.866
  6 482.044 28.0275 -126.765
  7 463.791 28.9578 128.866
  8 482.044 28.0275 -126.765
  9 300.331 0.206217 -0.896390
  10 302.850 0.365945 -1.59109
  11 306.485 0.832200 -3.22374
  12 314.830 0.314595 -4.32380
  13 325.513 0.528359 -7.05758
  14 337.968 -2.97545 -6.90733
  15 349.312 -3.60046 -0.732477
  16 343.623 -2.48517 5.91925
  17 330.255 2.54427 10.3559
  18 322.983 6.30379 -0.402386
  19 328.301 3.02977 -9.71141
  20 343.252 -3.69016 -7.21645
  21 346.107 -4.37014 2.25016
  22 339.733 -1.96750 5.94570
  23 323.259 0.124137 7.08984
  24 314.090 1.19480 5.47159
  25 306.699 0.954884 3.09913
  26 302.902 0.294125 1.45820
  27 300.498 0.243600 0.864972
  28 300.161 1.07806 0.538718
  29 299.613 2.21475 0.625260
  30 298.266 3.85313 0.555675
  31 297.727 4.48181 -0.0538879
  32 298.420 3.65469 -0.666948
  33 299.386 2.41450 -0.569982
  34 299.811 1.22163 -0.601712
  35 300.331 0.206217 -0.896390
  36 302.850 0.365945 -1.59109
  37 306.485 0.832200 -3.22374
  38 314.830 0.314595 -4.32380
  39 325.513 0.528359 -7.05758
  40 337.968 -2.97545 -6.90733
  41 349.312 -3.60046 -0.732477
  42 343.623 -2.48517 5.91925
  43 330.255 2.54427 10.3559
  44 322.983 6.30379 -0.402386
  45 328.301 3.02977 -9.71141
  46 343.252 -3.69016 -7.21645
  47 346.107 -4.37014 2.25016
  48 339.733 -1.96750 5.94570
  49 323.259 0.124137 7.08984
  50 314.090 1.19480 5.47159
  51 306.699 0.954884 3.09913
  52 302.902 0.294125 1.45820
  53 300.498 0.243600 0.864972
  54 300.161 1.07806 0.538718
  55 299.613 2.21475 0.625260
  56 298.266 3.85313 0.555675
  57 297.727 4.48181 -0.0538879
  58 298.420 3.65469 -0.666948
  59 299.386 2.41450 -0.569982
  60 299.811 1.22163 -0.601712
  61 643.068 33.2011 67.0346
  62 586.150 9.61733 23.8541
  63 552.577 4.06223 8.85417
  64 545.416 2.93058 1.75646
  65 552.305 3.87110 -7.56747
  66 577.845 8.26296 -20.7406
  67 649.094 28.9134 -57.7120
  68 85.4807 -95.8172 -104.920
  69 16.9025 -217.118 -26.5373
  70 4.89359 -246.438 -11.6065
  71 4.67279 -241.954 -5.98380
  72 7.85613 -235.514 12.4084
  73 18.3096 -210.442 28.0809
  74 92.8162 -89.3769 116.341
  75 643.068 33.2011 67.0346
  76 586.150 9.61733 23.8541
  77 552.577 4.06223 8.85417
  78 545.416 2.93058 1.75646
  79 552.305 3.87110 -7.56747
  80 577.845 8.26296 -20.7406
  81 649.094 28.9134 -57.7120
  82 85.4807 -95.8172 -104.920
  83 16.9025 -217.118 -26.5373
  84 4.89359 -246.438 -11.6065
  85 4.67279 -241.954 -5.98380
  86 7.85613 -235.514 12.4084
  87 18.3096 -210.442 28.0809
  88 92.8162 -89.3769 116.341
  89 275.111 15.7873 -4.11369
  90 275.111 15.7873 -4.11369
  91 251.191 3.47502 37.0552
  92 241.340 -1.51188 -44.1807
  93 251.191 3.47502 37.0552
  94 241.340 -1.51188 -44.1807
  95 141.938 3.51683 17.7249
  96 141.938 3.51683 17.7249
  97 369.390 23.7349 -5.85825
  98 376.648 13.5035 11.8267
  99 369.390 23.7349 -5.85825
  100 376.648 13.5035 11.8267
  101 295.288 7.17147 4.13348
  102 295.288 7.17147 4.13348
  103 353.566 -20.1081 0.196769
  104 353.566 -20.1081 0.196769
  105 295.656 7.49438 -5.09869
  106 295.656 7.49438 -5.09869
  107 347.588 -42.8071 -38.8679
  108 347.588 -42.8071 -38.8679
  109 242.921 -50.4805 97.2766
  110 242.921 -50.4805 97.2766
  111 163.911 -29.6752 -78.3770
  112 163.911 -29.6752 -78.3770
  113 296.876 5.01067 17.6375
  114 296.876 5.01067 17.6375
  115 307.801 2.11317 -16.8523
  116 307.801 2.11317 -16.8523
  117 418.081 27.9190 3.71043
  118 448.058 29.1096 2.50076
  119 418.081 27.9190 3.71043
  120 448.058 29.1096 2.50076
  121 438.640 36.9110 -11.1143
  122 438.640 36.9110 -11.1143
  123 47.9077 -79.0149 -25.5254
  124 47.9077 -79.0149 -25.5254
  125 377.713 -46.9503 41.8571
  126 377.713 -46.9503 41.8571
  127 318.303 -7.65529 19.7756
  128 318.303 -7.65529 19.7756
  129 72.9507 -68.2682 58.7539
  130 72.9507 -68.2682 58.7539
  131 295.717 5.99335 -0.262060
  132 295.717 5.99335 -0.262060
  133 317.814 -14.7826 -25.1825
  134 317.814 -14.7826 -25.1825
  135 300.462 2.45293 2.99878
  136 300.462 2.45293 2.99878
  137 300.735 2.15632 -2.79896
  138 300.735 2.15632 -2.79896
  139 304.055 4.20645 -8.90440
  140 304.055 4.20645 -8.90440
  141 302.649 4.09543 8.02530
  142 302.649 4.09543 8.02530
  143 289.702 9.97615 -0.325014
  144 289.702 9.97615 -0.325014
  145 241.924 16.0810 -1.89239
  146 241.924 16.0810 -1.89239
  147 351.741 -12.5588 5.59115
  148 351.741 -12.5588 5.59115
  149 402.377 -14.2909 -15.2301
  150 402.377 -14.2909 -15.2301
  151 310.493 -34.5477 48.5184
  152 310.493 -34.5477 48.5184
  153 234.532 -63.4696 -108.947
  154 234.532 -63.4696 -108.947
  155 275.781 11.3303 16.7924
  156 275.781 11.3303 16.7924
  157 357.831 -2.22597 -13.3339
  158 357.831 -2.22597 -13.3339
  159 489.261 38.7306 27.6033
  160 489.261 38.7306 27.6033
  161 244.291 -67.8820 126.221
  162 244.291 -67.8820 126.221
  163 500.046 16.6268 -5.69355
  164 500.046 16.6268 -5.69355
  165 288.541 9.94282 7.83630
  166 288.541 9.94282 7.83630
  167 274.104 9.36136 -24.5371
  168 274.104 9.36136 -24.5371
  169 339.491 10.2001 7.95263
  170 339.491 10.2001 7.95263
  171 285.822 11.8570 -8.89047
  172 285.822 11.8570 -8.89047
  173 297.537 4.81923 1.31111
  174 297.537 4.81923 1.31111
  175 302.522 2.33859 -4.75788
  176 302.522 2.33859 -4.75788
  177 469.122 36.5087 -27.1502
  178 469.122 36.5087 -27.1502
  179 297.781 4.68907 -1.58383
  180 297.781 4.68907 -1.58383
  181 219.269 16.0281 -12.7460
  182 219.269 16.0281 -12.7460
  183 396.710 29.2775 2.74712
  184 396.710 29.2775 2.74712
  185 80.1413 -67.0631 -75.8522
  186 80.1413 -67.0631 -75.8522
  187 216.298 -2.36570 53.7521
  188 216.298 -2.36570 53.7521
  189 289.697 -46.6247 -75.4053
  190 289.697 -46.6247 -75.4053
  191 342.056 -9.36961 4.06915
  192 342.056 -9.36961 4.06915
  193 320.008 -1.05466 12.2639
  194 320.008 -1.05466 12.2639
  195 435.893 12.3638 25.3681
  196 435.893 12.3638 25.3681
  197 180.118 5.64435 -33.1632
  198 180.118 5.64435 -33.1632
  199 495.607 22.2419 13.0051
  200 495.607 22.2419 13.0051
  201 325.990 -3.96348 -12.8292
  202 325.990 -3.96348 -12.8292
  203 302.999 1.67137 4.38884
  204 302.999 1.67137 4.38884
  205 339.391 -13.2433 -6.47318
  206 339.391 -13.2433 -6.47318
  207 371.392 -18.7528 -2.01950
  208 371.392 -18.7528 -2.01950
  209 23.1038 -136.815 11.1984
  210 23.1038 -136.815 11.1984
  211 312.557 1.67551 -10.8597
  212 312.557 1.67551 -10.8597
  213 309.920 2.46077 9.50307
  214 309.920 2.46077 9.50307
  215 298.177 -27.3295 -48.1062
  216 298.177 -27.3295 -48.1062
  217 348.329 -7.38595 -8.22500
  218 348.329 -7.38595 -8.22500
  219 284.840 10.3149 -16.7929
  220 284.840 10.3149 -16.7929
  221 78.5268 -98.4964 83.0044
  222 78.5268 -98.4964 83.0044
  223 352.925 1.50558 12.5731
  224 352.925 1.50558 12.5731
  225 342.648 8.65400 -10.5647
  226 342.648 8.65400 -10.5647
  227 489.949 29.2822 -22.1463
  228 489.949 29.2822 -22.1463
  229 372.654 -13.9071 -6.58190
  230 372.654 -13.9071 -6.58190
  231 407.737 -19.0235 -71.0942
  232 407.737 -19.0235 -71.0942
  233 299.097 -13.4697 37.1486
  234 299.097 -13.4697 37.1486
  235 292.930 8.33799 1.32910
  236 292.930 8.33799 1.32910
  237 155.215 -23.0052 69.4204
  238 155.215 -23.0052 69.4204
  239 390.213 -34.1987 83.3501
  240 390.213 -34.1987 83.3501
  241 105.154 -14.0174 -34.2750
  242 105.154 -14.0174 -34.2750
  243 346.615 -25.9711 -16.4848
  244 346.615 -25.9711 -16.4848
  245 281.968 12.7734 9.73115
  246 281.968 12.7734 9.73115
  247 10.2049 -177.764 -9.07209
  248 10.2049 -177.764 -9.07209
  249 19.4676 -156.586 30.1127
  250 19.4676 -156.586 30.1127
  251 287.238 2.01181 26.8123
  252 287.238 2.01181 26.8123
  253 300.122 1.14889 1.08767
  254 300.122 1.14889 1.08767
  255 297.508 4.85694 0.206179
  256 297.508 4.85694 0.206179
  257 279.120 -3.44097 -35.5628
  258 279.120 -3.44097 -35.5628
  259 300.310 1.04523 -1.15200
  260 300.310 1.04523 -1.15200
  261 332.619 -23.3714 22.1200
  262 332.619 -23.3714 22.1200
  263 308.442 1.10182 -5.32117
  264 308.442 1.10182 -5.32117
  265 238.640 -20.2064 -65.8406
  266 238.640 -20.2064 -65.8406
  267 407.227 31.2047 -1.61474
  268 407.227 31.2047 -1.61474
  269 297.112 6.63865 -13.7235
  270 297.112 6.63865 -13.7235
  271 295.935 6.21483 -2.76277
  272 295.935 6.21483 -2.76277
  273 251.174 12.2178 -24.4958
  274 251.174 12.2178 -24.4958
  275 76.0592 -30.0633 19.6915
  276 76.0592 -30.0633 19.6915
  277 317.957 -52.5923 67.2304
  278 317.957 -52.5923 67.2304
  279 299.175 4.48536 5.39560
  280 299.175 4.48536 5.39560
  281 444.814 31.5391 -6.77145
  282 444.814 31.5391 -6.77145
  283 533.532 44.8631 61.9253
  284 533.532 44.8631 61.9253
  285 357.064 -37.8818 21.7436
  286 357.064 -37.8818 21.7436
  287 256.163 12.8376 17.9978
  288 256.163 12.8376 17.9978
  289 327.222 -64.8836 88.6343
  290 327.222 -64.8836 88.6343
  291 336.641 -3.92889 8.25992
  292 336.641 -3.92889 8.25992
  293 298.994 2.95614 1.48573
  294 298.994 2.95614 1.48573
  295 294.663 8.14047 -8.78031
  296 294.663 8.14047 -8.78031
  297 297.586 4.77870 -0.408024
  298 297.586 4.77870 -0.408024
  299 301.966 0.839406 -2.07528
  300 301.966 0.839406 -2.07528
  301 308.152 1.54258 5.34209
  302 308.152 1.54258 5.34209
  303 293.017 8.29297 -2.26001
  304 293.017 8.29297 -2.26001
  305 67.4454 -114.962 -78.8404
  306 67.4454 -114.962 -78.8404
  307 200.594 13.0282 16.6838
  308 200.594 13.0282 16.6838
  309 299.338 2.46537 -1.42823
  310 299.338 2.46537 -1.42823
  311 263.341 15.2191 -12.0609
  312 263.341 15.2191 -12.0609
  313 264.003 16.5969 4.60700
  314 264.003 16.5969 4.60700
  315 298.689 4.31312 -3.82766
  316 298.689 4.31312 -3.82766
  317 401.272 20.7898 -0.691606
  318 401.272 20.7898 -0.691606
  319 296.410 7.21378 12.0411
  320 296.410 7.21378 12.0411
  321 378.679 11.7307 -10.5784
  322 378.679 11.7307 -10.5784
  323 560.905 15.9512 37.5774
  324 560.905 15.9512 37.5774
  325 295.274 7.47054 7.59043
  326 295.274 7.47054 7.59043
  327 290.512 9.88342 3.97048
  328 290.512 9.88342 3.97048
  329 228.486 -50.6725 -124.991
  330 228.486 -50.6725 -124.991
  331 302.142 0.759027 2.03033
  332 302.142 0.759027 2.03033
  333 295.640 6.26348 2.06398
  334 295.640 6.26348 2.06398
  335 284.580 12.7977 0.454571
  336 284.580 12.7977 0.454571
  337 147.186 -52.2008 100.742
  338 147.186 -52.2008 100.742
  339 367.039 23.9917 1.86160
  340 367.039 23.9917 1.86160
  341 21.1471 -153.369 -34.9587
  342 21.1471 -153.369 -34.9587
  343 228.481 14.4254 14.8826
  344 228.481 14.4254 14.8826
  345 530.571 7.31244 5.25267
  346 530.571 7.31244 5.25267
  347 553.838 27.9440 -38.6529
  348 553.838 27.9440 -38.6529
  349 258.457 -29.8101 73.6578
  350 269.398 -15.3487 54.6277
  351 258.457 -29.8101 73.6578
  352 269.398 -15.3487 54.6277
  353 538.196 13.5055 19.7212
  354 538.196 13.5055 19.7212
  355 306.009 -0.408127 20.9186
  356 306.009 -0.408127 20.9186
  357 363.242 -48.9837 -51.8920
  358 363.242 -48.9837 -51.8920
  359 344.338 -2.99571 10.2346
  360 344.338 -2.99571 10.2346
  361 233.948 -50.5846 136.929
  362 233.948 -50.5846 136.929
  363 402.578 32.3096 -1.09772
  364 402.578 32.3096 -1.09772
  365 538.014 4.96031 -4.13013
  366 538.014 4.96031 -4.13013
  367 325.947 0.188794 -10.2480
  368 325.947 0.188794 -10.2480
  369 290.521 10.5071 -4.75066
  370 290.521 10.5071 -4.75066
  371 450.234 34.9328 11.1649
  372 450.234 34.9328 11.1649
  373 344.336 14.3451 -2.23353
  374 344.336 14.3451 -2.23353
  375 314.047 1.21062 -6.58654
  376 314.047 1.21062 -6.58654
  377 84.9394 -42.5978 -57.7499
  378 84.9394 -42.5978 -57.7499
  379 347.284 -6.23616 2.88497
  380 347.284 -6.23616 2.88497
  381 296.950 -0.450054 -24.6605
  382 296.950 -0.450054 -24.6605
  383 341.801 -0.726564 -12.2043
  384 341.801 -0.726564 -12.2043
  385 540.291 9.58889 -16.3486
  386 540.291 9.58889 -16.3486
  387 297.922 4.61848 3.02726
  388 297.922 4.61848 3.02726
  389 363.500 17.6556 10.2600
  390 363.500 17.6556 10.2600
  391 392.736 -8.69161 3.20381
  392 392.736 -8.69161 3.20381
  393 299.049 5.42707 -6.74249
  394 299.049 5.42707 -6.74249
  395 571.850 52.6270 -71.9425
  396 571.850 52.6270 -71.9425
  397 342.826 -4.95944 -3.50512
  398 342.826 -4.95944 -3.50512
</Section>

newXOutput 88

<Section columns = "stress_xx | stress_yy | stress_xy">
  1 302.935 0.294542 -0.345356
  2 303.070 0.366263 0.465820
  3 302.935 0.294542 -0.345356
  4 303.070 0.366263 0.465820
  5 468.834 29.3935 130.362
  6 487.276 28.4576 -128.237
  7 468.834 29.3935 130.362
  8 487.276 28.4576 -128.237
  9 303.701 0.208518 -0.905675
  10 306.245 0.369973 -1.60768
  11 309.918 0.841234 -3.25764
  12 318.348 0.317837 -4.36972
  13 329.144 0.533403 -7.13404
  14 341.733 -3.01031 -6.98463
  15 353.204 -3.64179 -0.744637
  16 347.470 -2.51297 5.97706
  17 333.975 2.57493 10.4613
  18 326.633 6.37698 -0.406554
  19 332.001 3.06461 -9.81081
  20 347.096 -3.73169 -7.28678
  21 349.965 -4.42039 2.28003
  22 343.517 -1.99043 6.01262
  23 326.867 0.124412 7.16705
  24 317.602 1.20753 5.52989
  25 310.134 0.965256 3.13166
  26 306.298 0.297369 1.47338
  27 303.869 0.246332 0.873960
  28 303.528 1.08990 0.544258
  29 302.975 2.23893 0.631745
  30 301.615 3.89498 0.561470
  31 301.070 4.53042 -0.0544482
  32 301.770 3.69442 -0.673876
  33 302.746 2.44086 -0.575821
  34 303.175 1.23509 -0.607958
  35 303.701 0.208518 -0.905675
  36 306.245 0.369973 -1.60768
  37 309.918 0.841234 -3.25764
  38 318.348 0.317837 -4.36972
  39 329.144 0.533403 -7.13404
  40 341.733 -3.01031 -6.98463
  41 353.204 -3.64179 -0.744637
  42 347.470 -2.51297 5.97706
  43 333.975 2.57493 10.4613
  44 326.633 6.37698 -0.406554
  45 332.001 3.06461 -9.81081
  46 347.096 -3.73169 -7.28678
  47 349.965 -4.42039 2.28003
  48 343.517 -1.99043 6.01262
  49 326.867 0.124412 7.16705
  50 317.602 1.20753 5.52989
  51 310.134 0.965256 3.13166
  52 306.298 0.297369 1.47338
  53 303.869 0.246332 0.873960
  54 303.528 1.08990 0.544258
  55 302.975 2.23893 0.631745
  56 301.615 3.89498 0.561470
  57 301.070 4.53042 -0.0544482
  58 301.770 3.69442 -0.673876
  59 302.746 2.44086 -0.575821
  60 303.175 1.23509 -0.607958
  61 649.997 33.5793 67.7771
  62 592.482 9.71935 24.1110
  63 558.565 4.10244 8.94714
  64 551.330 2.96016 1.77363
  65 558.289 3.91089 -7.64654
  66 584.095 8.34982 -20.9619
  67 656.089 29.2420 -58.3518
  68 86.4305 -96.7837 -106.170
  69 17.0907 -219.579 -26.8792
  70 4.93972 -249.288 -11.7553
  71 4.71713 -244.757 -6.05298
  72 7.93815 -238.228 12.5680
  73 18.5158 -212.827 28.4441
  74 93.8394 -90.2707 117.724
  75 649.997 33.5793 67.7771
  76 592.482 9.71935 24.1110
  77 558.565 4.10244 8.94714
  78 551.330 2.96016 1.77363
  79 558.289 3.91089 -7.64654
  80 584.095 8.34982 -20.9619
  81 656.089 29.2420 -58.3518
  82 86.4305 -96.7837 -106.170
  83 17.0907 -219.579 -26.8792
  84 4.93972 -249.288 -11.7553
  85 4.71713 -244.757 -6.05298
  86 7.93815 -238.228 12.5680
  87 18.5158 -212.827 28.4441
  88 93.8394 -90.2707 117.724
  89 278.217 15.9623 -4.15877
  90 278.217 15.9623 -4.15877
  91 254.030 3.51518 37.4691
  92 244.069 -1.52769 -44.6770
  93 254.030 3.51518 37.4691
  94 244.069 -1.52769 -44.6770
  95 143.572 3.56725 17.9268
  96 143.572 3.56725 17.9268
  97 373.529 24.0040 -5.91186
  98 380.854 13.6634 11.9296
  99 373.529 24.0040 -5.91186
  100 380.854 13.6634 11.9296
  101 298.607 7.24982 4.17739
  102 298.607 7.24982 4.17739
  103 357.508 -20.3327 0.220081
  104 357.508 -20.3327 0.220081
  105 298.979 7.57638 -5.15295
  106 298.979 7.57638 -5.15295
  107 351.451 -43.2883 -39.3213
  108 351.451 -43.2883 -39.3213
  109 245.644 -51.0522 98.3907
  110 245.644 -51.0522 98.3907
  111 165.772 -30.0053 -79.2801
  112 165.772 -30.0053 -79.2801
  113 300.210 5.06514 17.8309
  114 300.210 5.06514 17.8309
  115 311.250 2.13497 -17.0382
  116 311.250 2.13497 -17.0382
  117 422.727 28.2435 3.78949
  118 453.022 29.4268 2.53461
  119 422.727 28.2435 3.78949
  120 453.022 29.4268 2.53461
  121 443.508 37.3293 -11.2675
  122 443.508 37.3293 -11.2675
  123 48.4569 -79.8878 -25.8319
  124 48.4569 -79.8878 -25.8319
  125 381.893 -47.4650 42.3606
  126 381.893 -47.4650 42.3606
  127 321.863 -7.74255 19.9997
  128 321.863 -7.74255 19.9997
  129 73.7869 -69.0194 59.4528
  130 73.7869 -69.0194 59.4528
  131 299.040 6.05864 -0.264793
  132 299.040 6.05864 -0.264793
  133 321.367 -14.9500 -25.4703
  134 321.367 -14.9500 -25.4703
  135 303.833 2.47973 3.03025
  136 303.833 2.47973 3.03025
  137 304.108 2.17993 -2.82828
  138 304.108 2.17993 -2.82828
  139 307.464 4.25210 -8.99993
  140 307.464 4.25210 -8.99993
  141 306.044 4.14001 8.11109
  142 306.044 4.14001 8.11109
  143 292.963 10.0855 -0.328583
  144 292.963 10.0855 -0.328583
  145 244.671 16.2618 -1.91371
  146 244.671 16.2618 -1.91371
  147 355.669 -12.6981 5.63515
  148 355.669 -12.6981 5.63515
  149 406.834 -14.4285 -15.4448
  150 406.834 -14.4285 -15.4448
  151 313.959 -34.9379 49.0713
  152 313.959 -34.9379 49.0713
  153 237.150 -64.1731 -110.215
  154 237.150 -64.1731 -110.215
  155 278.891 11.4564 16.9772
  156 278.891 11.4564 16.9772
  157 361.829 -2.24719 -13.4601
  158 361.829 -2.24719 -13.4601
  159 494.648 39.1686 27.9341
  160 494.648 39.1686 27.9341
  161 247.014 -68.6415 127.681
  162 247.014 -68.6415 127.681
  163 505.530 16.8027 -5.75798
  164 505.530 16.8027 -5.75798
  165 291.789 10.0520 7.92085
  166 291.789 10.0520 7.92085
  167 277.195 9.46578 -24.8091
  168 277.195 9.46578 -24.8091
  169 343.311 10.3182 8.03278
  170 343.311 10.3182 8.03278
  171 289.042 11.9876 -8.98682
  172 289.042 11.9876 -8.98682
  173 300.878 4.87166 1.32488
  174 300.878 4.87166 1.32488
  175 305.914 2.36403 -4.80815
  176 305.914 2.36403 -4.80815
  177 474.296 36.9410 -27.4956
  178 474.296 36.9410 -27.4956
  179 301.125 4.74014 -1.60043
  180 301.125 4.74014 -1.60043
  181 221.766 16.2110 -12.8888
  182 221.766 16.2110 -12.8888
  183 401.137 29.6084 2.75666
  184 401.137 29.6084 2.75666
  185 81.0548 -67.8007 -76.7520
  186 81.0548 -67.8007 -76.7520
  187 218.751 -2.38957 54.3585
  188 218.751 -2.38957 54.3585
  189 292.931 -47.1518 -76.2685
  190 292.931 -47.1518 -76.2685
  191 345.874 -9.47600 4.12437
  192 345.874 -9.47600 4.12437
  193 323.585 -1.06799 12.3998
  194 323.585 -1.06799 12.3998
  195 440.710 12.5319 25.7001
  196 440.710 12.5319 25.7001
  197 182.176 5.71440 -33.5393
  198 182.176 5.71440 -33.5393
  199 501.052 22.4809 13.1547
  200 501.052 22.4809 13.1547
  201 329.632 -4.00961 -12.9745
  202 329.632 -4.00961 -12.9745
  203 306.397 1.68949 4.43515
  204 306.397 1.68949 4.43515
  205 343.180 -13.3937 -6.55623
  206 343.180 -13.3937 -6.55623
  207 375.524 -18.9565 -2.07149
  208 375.524 -18.9565 -2.07149
  209 23.3645 -138.361 11.3360
  210 23.3645 -138.361 11.3360
  211 316.055 1.69266 -10.9778
  212 316.055 1.69266 -10.9778
  213 313.391 2.48721 9.60578
  214 313.391 2.48721 9.60578
  215 301.514 -27.6381 -48.6530
  216 301.514 -27.6381 -48.6530
  217 352.223 -7.46875 -8.30088
  218 352.223 -7.46875 -8.30088
  219 288.047 10.4290 -16.9776
  220 288.047 10.4290 -16.9776
  221 79.4114 -99.5785 83.9973
  222 79.4114 -99.5785 83.9973
  223 356.877 1.52722 12.6941
  224 356.877 1.52722 12.6941
  225 346.499 8.75456 -10.6699
  226 346.499 8.75456 -10.6699
  227 495.341 29.6030 -22.4069
  228 495.341 29.6030 -22.4069
  229 376.801 -14.0561 -6.62550
  230 376.801 -14.0561 -6.62550
  231 412.232 -19.1901 -71.9444
  232 412.232 -19.1901 -71.9444
  233 302.448 -13.6216 37.5667
  234 302.448 -13.6216 37.5667
  235 296.224 8.42918 1.34326
  236 296.224 8.42918 1.34326
  237 156.983 -23.2586 70.2187
  238 156.983 -23.2586 70.2187
  239 394.514 -34.5447 84.3348
  240 394.514 -34.5447 84.3348
  241 106.367 -14.1601 -34.6721
  242 106.367 -14.1601 -34.6721
  243 350.476 -26.2633 -16.6856
  244 350.476 -26.2633 -16.6856
  245 285.146 12.9147 9.83724
  246 285.146 12.9147 9.83724
  247 10.3149 -179.790 -9.18566
  248 10.3149 -179.790 -9.18566
  249 19.6853 -158.353 30.4877
  250 19.6853 -158.353 30.4877
  251 290.467 2.03382 27.1103
  252 290.467 2.03382 27.1103
  253 303.489 1.16151 1.09898
  254 303.489 1.16151 1.09898
  255 300.850 4.90967 0.208353
  256 300.850 4.90967 0.208353
  257 282.260 -3.48005 -35.9610
  258 282.260 -3.48005 -35.9610
  259 303.679 1.05676 -1.16399
  260 303.679 1.05676 -1.16399
  261 336.330 -23.6349 22.3787
  262 336.330 -23.6349 22.3787
  263 311.895 1.11360 -5.37763
  264 311.895 1.11360 -5.37763
  265 241.330 -20.4343 -66.5871
  266 241.330 -20.4343 -66.5871
  267 411.766 31.5557 -1.61177
  268 411.766 31.5557 -1.61177
  269 300.449 6.71115 -13.8727
  270 300.449 6.71115 -13.8727
  271 299.260 6.28264 -2.79194
  272 299.260 6.28264 -2.79194
  273 254.018 12.3555 -24.7684
  274 254.018 12.3555 -24.7684
  275 76.9389 -30.3811 19.9227
  276 76.9389 -30.3811 19.9227
  277 321.495 -53.1861 68.0025
  278 321.495 -53.1861 68.0025
  279 302.534 4.53431 5.45277
  280 302.534 4.53431 5.45277
  281 449.745 31.8854 -6.85767
  282 449.745 31.8854 -6.85767
  283 539.362 45.3996 62.6478
  284 539.362 45.3996 62.6478
  285 361.032 -38.3049 22.0110
  286 361.032 -38.3049 22.0110
  287 259.063 12.9817 18.1969
  288 259.063 12.9817 18.1969
  289 330.850 -65.6131 89.6550
  290 330.850 -65.6131 89.6550
  291 340.397 -3.97427 8.35491
  292 340.397 -3.97427 8.35491
  293 302.350 2.98835 1.50126
  294 302.350 2.98835 1.50126
  295 297.975 8.22965 -8.87459
  296 297.975 8.22965 -8.87459
  297 300.928 4.83060 -0.412292
  298 300.928 4.83060 -0.412292
  299 305.352 0.848602 -2.09698
  300 305.352 0.848602 -2.09698
  301 311.603 1.55921 5.39876
  302 311.603 1.55921 5.39876
  303 296.312 8.38369 -2.28409
  304 296.312 8.38369 -2.28409
  305 68.2031 -116.222 -79.7886
  306 68.2031 -116.222 -79.7886
  307 202.884 13.1792 16.8709
  308 202.884 13.1792 16.8709
  309 302.698 2.49230 -1.44313
  310 302.698 2.49230 -1.44313
  311 266.319 15.3888 -12.1941
  312 266.319 15.3888 -12.1941
  313 266.989 16.7820 4.65751
  314 266.989 16.7820 4.65751
  315 302.042 4.36019 -3.86805
  316 302.042 4.36019 -3.86805
  317 405.736 21.0377 -0.737505
  318 405.736 21.0377 -0.737505
  319 299.740 7.29280 12.1713
  320 299.740 7.29280 12.1713
  321 382.904 11.8703 -10.6679
  322 382.904 11.8703 -10.6679
  323 567.007 16.1214 37.9970
  324 567.007 16.1214 37.9970
  325 298.592 7.55233 7.67169
  326 298.592 7.55233 7.67169
  327 293.781 9.99179 4.01299
  328 293.781 9.99179 4.01299
  329 231.016 -51.1549 -126.463
  330 231.016 -51.1549 -126.463
  331 305.530 0.767334 2.05155
  332 305.530 0.767334 2.05155
  333 298.963 6.33177 2.08579
  334 298.963 6.33177 2.08579
  335 287.786 12.9387 0.459455
  336 287.786 12.9387 0.459455
  337 148.854 -52.7852 101.916
  338 148.854 -52.7852 101.916
  339 371.155 24.2635 1.87749
  340 371.155 24.2635 1.87749
  341 21.3813 -155.099 -35.3884
  342 21.3813 -155.099 -35.3884
  343 231.079 14.5891 15.0481
  344 231.079 14.5891 15.0481
  345 536.350 7.38820 5.30826
  346 536.350 7.38820 5.30826
  347 559.878 28.2565 -39.0883
  348 559.878 28.2565 -39.0883
  349 261.358 -30.1475 74.4934
  350 272.426 -15.5215 55.2419
  351 261.358 -30.1475 74.4934
  352 272.426 -15.5215 55.2419
  353 544.059 13.6476 19.9373
  354 544.059 13.6476 19.9373
  355 309.439 -0.413930 21.1508
  356 309.439 -0.413930 21.1508
  357 367.264 -49.5280 -52.5026
  358 367.264 -49.5280 -52.5026
  359 348.195 -3.02796 10.3361
  360 348.195 -3.02796 10.3361
  361 236.527 -51.0712 138.534
  362 236.527 -51.0712 138.534
  363 407.071 32.6691 -1.10910
  364 407.071 32.6691 -1.10910
  365 543.863 5.01126 -4.17480
  366 543.863 5.01126 -4.17480
  367 329.586 0.189378 -10.3607
  368 329.586 0.189378 -10.3607
  369 293.790 10.6225 -4.80164
  370 293.790 10.6225 -4.80164
  371 455.222 35.3213 11.3103
  372 455.222 35.3213 11.3103
  373 348.209 14.5088 -2.25581
  374 348.209 14.5088 -2.25581
  375 317.558 1.22326 -6.65714
  376 317.558 1.22326 -6.65714
  377 85.9212 -43.0623 -58.4287
  378 85.9212 -43.0623 -58.4287
  379 351.161 -6.30659 2.90749
  380 351.161 -6.30659 2.90749
  381 300.283 -0.456357 -24.9353
  382 300.283 -0.456357 -24.9353
  383 345.636 -0.733576 -12.3263
  384 345.636 -0.733576 -12.3263
  385 546.174 9.69046 -16.5266
  386 546.174 9.69046 -16.5266
  387 301.267 4.66881 3.05915
  388 301.267 4.66881 3.05915
  389 367.571 17.8588 10.3561
  390 367.571 17.8588 10.3561
  391 397.095 -8.77434 3.27819
  392 397.095 -8.77434 3.27819
  393 302.406 5.48635 -6.81421
  394 302.406 5.48635 -6.81421
  395 578.073 53.2628 -72.7759
  396 578.073 53.2628 -72.7759
  397 346.649 -5.01661 -3.54880
  398 346.649 -5.01661 -3.54880
</Section>

newXOutput 89

<Section columns = "stress_xx | stress_yy | stress_xy">
  1 306.294 0.297856 -0.348872
  2 306.431 0.370335 0.470557
  3 306.294 0.297856 -0.348872
  4 306.431 0.370335 0.470557
  5 473.869 29.8313 131.857
  6 492.499 28.8899 -129.709
  7 473.869 29.8313 131.857
  8 492.499 28.8899 -129.709
  9 307.067 0.210818 -0.914935
  10 309.638 0.373997 -1.62422
  11 313.348 0.850254 -3.29146
  12 321.864 0.321071 -4.41555
  13 332.772 0.538425 -7.21038
  14 345.494 -3.04518 -7.06187
  15 357.093 -3.68311 -0.756872
  16 351.314 -2.54074 6.03464
  17 337.692 2.60563 10.5663
  18 330.280 6.45017 -0.410711
  19 335.698 3.09943 -9.90991
  20 350.937 -3.77319 -7.35681
  21 353.819 -4.47064 2.30999
  22 347.298 -2.01336 6.07949
  23 330.473 0.124661 7.24414
  24 321.110 1.22023 5.58806
  25 313.566 0.975613 3.16412
  26 309.692 0.300610 1.48852
  27 307.238 0.249062 0.882925
  28 306.894 1.10173 0.549782
  29 306.335 2.26307 0.638213
  30 304.961 3.93677 0.567252
  31 304.411 4.57895 -0.0550070
  32 305.118 3.73409 -0.680786
  33 306.103 2.46719 -0.581642
  34 306.537 1.24853 -0.614189
  35 307.067 0.210818 -0.914935
  36 309.638 0.373997 -1.62422
  37 313.348 0.850254 -3.29146
  38 321.864 0.321071 -4.41555
  39 332.772 0.538425 -7.21038
  40 345.494 -3.04518 -7.06187
  41 357.093 -3.68311 -0.756872
  42 351.314 -2.54074 6.03464
  43 337.692 2.60563 10.5663
  44 330.280 6.45017 -0.410711
  45 335.698 3.09943 -9.90991
  46 350.937 -3.77319 -7.35681
  47 353.819 -4.47064 2.30999
  48 347.298 -2.01336 6.07949
  49 330.473 0.124661 7.24414
  50 321.110 1.22023 5.58806
  51 313.566 0.975613 3.16412
  52 309.692 0.300610 1.48852
  53 307.238 0.249062 0.882925
  54 306.894 1.10173 0.549782
  55 306.335 2.26307 0.638213
  56 304.961 3.93677 0.567252
  57 304.411 4.57895 -0.0550070
  58 305.118 3.73409 -0.680786
  59 306.103 2.46719 -0.581642
  60 306.537 1.24853 -0.614189
  61 656.915 33.9573 68.5188
  62 598.804 9.82116 24.3675
  63 564.544 4.14251 9.03990
  64 557.234 2.98966 1.79074
  65 564.264 3.95058 -7.72543
  66 590.334 8.43649 -21.1827
  67 663.072 29.5705 -58.9909
  68 87.3793 -97.7470 -107.422
  69 17.2787 -222.039 -27.2219
  70 4.98561 -252.136 -11.9044
  71 4.76125 -247.559 -6.12215
  72 8.01997 -240.942 12.7280
  73 18.7218 -215.209 28.8080
  74 94.8613 -91.1611 119.108
  75 656.915 33.9573 68.5188
  76 598.804 9.82116 24.3675
  77 564.544 4.14251 9.03990
  78 557.234 2.98966 1.79074
  79 564.264 3.95058 -7.72543
  80 590.334 8.43649 -21.1827
  81 663.072 29.5705 -58.9909
  82 87.3793 -97.7470 -107.422
  83 17.2787 -222.039 -27.2219
  84 4.98561 -252.136 -11.9044
  85 4.76125 -247.559 -6.12215
  86 8.01997 -240.942 12.7280
  87 18.7218 -215.209 28.8080
  88 94.8613 -91.1611 119.108
  89 281.321 16.1372 -4.20379
  90 281.321 16.1372 -4.20379
  91 256.867 3.55534 37.8827
  92 246.797 -1.54345 -45.1729
  93 256.867 3.55534 37.8827
  94 246.797 -1.54345 -45.1729
  95 145.206 3.61786 18.1287
  96 145.206 3.61786 18.1287
  97 377.665 24.2730 -5.96518
  98 385.055 13.8233 12.0317
  99 377.665 24.2730 -5.96518
  100 385.055 13.8233 12.0317
  101 301.923 7.32807 4.22120
  102 301.923 7.32807 4.22120
  103 361.447 -20.5571 0.243838
  104 361.447 -20.5571 0.243838
  105 302.298 7.65827 -5.20710
  106 302.298 7.65827 -5.20710
  107 355.309 -43.7691 -39.7746
  108 355.309 -43.7691 -39.7746
  109 248.365 -51.6236 99.5045
  110 248.365 -51.6236 99.5045
  111 167.631 -30.3351 -80.1829
  112 167.631 -30.3351 -80.1829
  113 303.541 5.11952 18.0241
  114 303.541 5.11952 18.0241
  115 314.696 2.15672 -17.2238
  116 314.696 2.15672 -17.2238
  117 427.368 28.5680 3.86929
  118 457.980 29.7437 2.56855
  119 427.368 28.5680 3.86929
  120 457.980 29.7437 2.56855
  121 448.370 37.7473 -11.4212
  122 448.370 37.7473 -11.4212
  123 49.0060 -80.7598 -26.1387
  124 49.0060 -80.7598 -26.1387
  125 386.069 -47.9789 42.8645
  126 386.069 -47.9789 42.8645
  127 325.421 -7.82976 20.2237
  128 325.421 -7.82976 20.2237
  129 74.6229 -69.7697 60.1522
  130 74.6229 -69.7697 60.1522
  131 302.361 6.12384 -0.267520
  132 302.361 6.12384 -0.267520
  133 324.918 -15.1173 -25.7579
  134 324.918 -15.1173 -25.7579
  135 307.201 2.50649 3.06166
  136 307.201 2.50649 3.06166
  137 307.479 2.20351 -2.85753
  138 307.479 2.20351 -2.85753
  139 310.870 4.29767 -9.09529
  140 310.870 4.29767 -9.09529
  141 309.435 4.18453 8.19672
  142 309.435 4.18453 8.19672
  143 296.221 10.1948 -0.332147
  144 296.221 10.1948 -0.332147
  145 247.417 16.4424 -1.93502
  146 247.417 16.4424 -1.93502
  147 359.593 -12.8372 5.67871
  148 359.593 -12.8372 5.67871
  149 411.286 -14.5655 -15.6603
  150 411.286 -14.5655 -15.6603
  151 317.422 -35.3279 49.6240
  152 317.422 -35.3279 49.6240
  153 239.764 -64.8758 -111.483
  154 239.764 -64.8758 -111.483
  155 282.000 11.5823 17.1618
  156 282.000 11.5823 17.1618
  157 365.823 -2.26830 -13.5857
  158 365.823 -2.26830 -13.5857
  159 500.029 39.6063 28.2650
  160 500.029 39.6063 28.2650
  161 249.735 -69.4003 129.140
  162 249.735 -69.4003 129.140
  163 511.008 16.9782 -5.82236
  164 511.008 16.9782 -5.82236
  165 295.034 10.1611 8.00525
  166 295.034 10.1611 8.00525
  167 280.283 9.57011 -25.0808
  168 280.283 9.57011 -25.0808
  169 347.129 10.4363 8.11266
  170 347.129 10.4363 8.11266
  171 292.258 12.1181 -9.08302
  172 292.258 12.1181 -9.08302
  173 304.217 4.92401 1.33861
  174 304.217 4.92401 1.33861
  175 309.304 2.38944 -4.85831
  176 309.304 2.38944 -4.85831
  177 479.463 37.3734 -27.8416
  178 479.463 37.3734 -27.8416
  179 304.466 4.79114 -1.61700
  180 304.466 4.79114 -1.61700
  181 224.261 16.3939 -13.0315
  182 224.261 16.3939 -13.0315
  183 405.559 29.9390 2.76572
  184 405.559 29.9390 2.76572
  185 81.9677 -68.5373 -77.6522
  186 81.9677 -68.5373 -77.6522
  187 221.202 -2.41336 54.9644
  188 221.202 -2.41336 54.9644
  189 296.162 -47.6785 -77.1314
  190 296.162 -47.6785 -77.1314
  191 349.689 -9.58234 4.17975
  192 349.689 -9.58234 4.17975
  193 327.159 -1.08134 12.5354
  194 327.159 -1.08134 12.5354
  195 445.521 12.7006 26.0328
  196 445.521 12.7006 26.0328
  197 184.234 5.78454 -33.9152
  198 184.234 5.78454 -33.9152
  199 506.490 22.7194 13.3043
  200 506.490 22.7194 13.3043
  201 333.271 -4.05575 -13.1196
  202 333.271 -4.05575 -13.1196
  203 309.791 1.70759 4.48137
  204 309.791 1.70759 4.48137
  205 346.965 -13.5441 -6.63945
  206 346.965 -13.5441 -6.63945
  207 379.652 -19.1597 -2.12409
  208 379.652 -19.1597 -2.12409
  209 23.6251 -139.905 11.4739
  210 23.6251 -139.905 11.4739
  211 319.550 1.70976 -11.0957
  212 319.550 1.70976 -11.0957
  213 316.858 2.51361 9.70833
  214 316.858 2.51361 9.70833
  215 304.848 -27.9465 -49.1994
  216 304.848 -27.9465 -49.1994
  217 356.114 -7.55149 -8.37634
  218 356.114 -7.55149 -8.37634
  219 291.252 10.5430 -17.1620
  220 291.252 10.5430 -17.1620
  221 80.2953 -100.659 84.9908
  222 80.2953 -100.659 84.9908
  223 360.826 1.54896 12.8146
  224 360.826 1.54896 12.8146
  225 350.347 8.85512 -10.7747
  226 350.347 8.85512 -10.7747
  227 500.725 29.9234 -22.6675
  228 500.725 29.9234 -22.6675
  229 380.945 -14.2048 -6.66841
  230 380.945 -14.2048 -6.66841
  231 416.721 -19.3554 -72.7950
  232 416.721 -19.3554 -72.7950
  233 305.796 -13.7733 37.9844
  234 305.796 -13.7733 37.9844
  235 299.516 8.52024 1.35740
  236 299.516 8.52024 1.35740
  237 158.749 -23.5118 71.0168
  238 158.749 -23.5118 71.0168
  239 398.809 -34.8895 85.3197
  240 398.809 -34.8895 85.3197
  241 107.580 -14.3024 -35.0691
  242 107.580 -14.3024 -35.0691
  243 354.334 -26.5552 -16.8865
  244 354.334 -26.5552 -16.8865
  245 288.322 13.0557 9.94317
  246 288.322 13.0557 9.94317
  247 10.4246 -181.814 -9.29941
  248 10.4246 -181.814 -9.29941
  249 19.9029 -160.119 30.8633
  250 19.9029 -160.119 30.8633
  251 293.694 2.05581 27.4079
  252 293.694 2.05581 27.4079
  253 306.854 1.17411 1.11026
  254 306.854 1.17411 1.11026
  255 304.188 4.96232 0.210523
  256 304.188 4.96232 0.210523
  257 285.397 -3.51912 -36.3588
  258 285.397 -3.51912 -36.3588
  259 307.045 1.06828 -1.17594
  260 307.045 1.06828 -1.17594
  261 340.038 -23.8982 22.6375
  262 340.038 -23.8982 22.6375
  263 315.346 1.12537 -5.43397
  264 315.346 1.12537 -5.43397
  265 244.018 -20.6621 -67.3333
  266 244.018 -20.6621 -67.3333
  267 416.300 31.9064 -1.60835
  268 416.300 31.9064 -1.60835
  269 303.783 6.78354 -14.0217
  270 303.783 6.78354 -14.0217
  271 302.583 6.35036 -2.82105
  272 302.583 6.35036 -2.82105
  273 256.861 12.4932 -25.0408
  274 256.861 12.4932 -25.0408
  275 77.8185 -30.6982 20.1539
  276 77.8185 -30.6982 20.1539
  277 325.029 -53.7795 68.7745
  278 325.029 -53.7795 68.7745
  279 305.889 4.58319 5.50981
  280 305.889 4.58319 5.50981
  281 454.672 32.2312 -6.94403
  282 454.672 32.2312 -6.94403
  283 545.184 45.9365 63.3702
  284 545.184 45.9365 63.3702
  285 364.997 -38.7276 22.2786
  286 364.997 -38.7276 22.2786
  287 261.960 13.1257 18.3958
  288 261.960 13.1257 18.3958
  289 334.474 -66.3420 90.6754
  290 334.474 -66.3420 90.6754
  291 344.149 -4.01963 8.44987
  292 344.149 -4.01963 8.44987
  293 305.703 3.02052 1.51676
  294 305.703 3.02052 1.51676
  295 301.284 8.31872 -8.96870
  296 301.284 8.31872 -8.96870
  297 304.268 4.88241 -0.416550
  298 304.268 4.88241 -0.416550
  299 308.736 0.857787 -2.11862
  300 308.736 0.857787 -2.11862
  301 315.051 1.57582 5.45532
  302 315.051 1.57582 5.45532
  303 299.604 8.47429 -2.30811
  304 299.604 8.47429 -2.30811
  305 68.9601 -117.482 -80.7375
  306 68.9601 -117.482 -80.7375
  307 205.172 13.3302 17.0579
  308 205.172 13.3302 17.0579
  309 306.054 2.51919 -1.45799
  310 306.054 2.51919 -1.45799
  311 269.296 15.5584 -12.3271
  312 269.296 15.5584 -12.3271
  313 269.974 16.9668 4.70794
  314 269.974 16.9668 4.70794
  315 305.393 4.40719 -3.90834
  316 305.393 4.40719 -3.90834
  317 410.195 21.2858 -0.784195
  318 410.195 21.2858 -0.784195
  319 303.067 7.37172 12.3013
  320 303.067 7.37172 12.3013
  321 387.126 12.0099 -10.7566
  322 387.126 12.0099 -10.7566
  323 573.100 16.2912 38.4162
  324 573.100 16.2912 38.4162
  325 301.908 7.63400 7.75280
  326 301.908 7.63400 7.75280
  327 297.048 10.1000 4.05542
  328 297.048 10.1000 4.05542
  329 233.543 -51.6350 -127.936
  330 233.543 -51.6350 -127.936
  331 308.916 0.775630 2.07272
  332 308.916 0.775630 2.07272
  333 302.282 6.39997 2.10756
  334 302.282 6.39997 2.10756
  335 290.991 13.0795 0.464331
  336 290.991 13.0795 0.464331
  337 150.521 -53.3691 103.089
  338 150.521 -53.3691 103.089
  339 375.267 24.5351 1.89325
  340 375.267 24.5351 1.89325
  341 21.6151 -156.827 -35.8187
  342 21.6151 -156.827 -35.8187
  343 233.677 14.7528 15.2134
  344 233.677 14.7528 15.2134
  345 542.120 7.46377 5.36372
  346 542.120 7.46377 5.36372
  347 565.909 28.5687 -39.5234
  348 565.909 28.5687 -39.5234
  349 264.256 -30.4847 75.3285
  350 275.451 -15.6943 55.8557
  351 264.256 -30.4847 75.3285
  352 275.451 -15.6943 55.8557
  353 549.915 13.7893 20.1532
  354 549.915 13.7893 20.1532
  355 312.866 -0.419755 21.3827
  356 312.866 -0.419755 21.3827
  357 371.282 -50.0718 -53.1133
  358 371.282 -50.0718 -53.1133
  359 352.049 -3.06016 10.4371
  360 352.049 -3.06016 10.4371
  361 239.103 -51.5554 140.138
  362 239.103 -51.5554 140.138
  363 411.560 33.0282 -1.12045
  364 411.560 33.0282 -1.12045
  365 549.703 5.06207 -4.21940
  366 549.703 5.06207 -4.21940
  367 333.221 0.189929 -10.4733
  368 333.221 0.189929 -10.4733
  369 297.057 10.7377 -4.85253
  370 297.057 10.7377 -4.85253
  371 460.204 35.7095 11.4560
  372 460.204 35.7095 11.4560
  373 352.079 14.6724 -2.27800
  374 352.079 14.6724 -2.27800
  375 321.067 1.23586 -6.72762
  376 321.067 1.23586 -6.72762
  377 86.9029 -43.5262 -59.1077
  378 86.9029 -43.5262 -59.1077
  379 355.035 -6.37698 2.92979
  380 355.035 -6.37698 2.92979
  381 303.614 -0.462683 -25.2100
  382 303.614 -0.462683 -25.2100
  383 349.468 -0.740556 -12.4479
  384 349.468 -0.740556 -12.4479
  385 552.048 9.79182 -16.7043
  386 552.048 9.79182 -16.7043
  387 304.610 4.71906 3.09097
  388 304.610 4.71906 3.09097
  389 371.639 18.0619 10.4516
  390 371.639 18.0619 10.4516
  391 401.448 -8.85666 3.35335
  392 401.448 -8.85666 3.35335
  393 305.760 5.54555 -6.88579
  394 305.760 5.54555 -6.88579
  395 584.286 53.8991 -73.6091
  396 584.286 53.8991 -73.6091
  397 350.468 -5.07377 -3.59254
  398 350.468 -5.07377 -3.59254
</Section>

newXOutput 90

<Section columns = "stress_xx | stress_yy | stress_xy">
  1 309.650 0.301169 -0.352378
  2 309.789 0.374405 0.475280
  3 309.650 0.301169 -0.352378
  4 309.789 0.374405 0.475280
  5 478.896 30.2713 133.352
  6 497.714 29.3244 -131.181
  7 478.896 30.2713 133.352
  8 497.714 29.3244 -131.181
  9 310.432 0.213115 -0.924171
  10 313.027 0.378015 -1.64072
  11 316.774 0.859261 -3.32520
  12 325.377 0.324295 -4.46128
  13 336.397 0.543423 -7.28659
  14 349.252 -3.08006 -7.13903
  15 360.977 -3.72441 -0.769182
  16 355.154 -2.56849 6.09199
  17 341.406 2.63634 10.6711
  18 333.925 6.52336 -0.414856
  19 339.392 3.13425 -10.0087
  20 354.774 -3.81466 -7.42656
  21 357.670 -4.52088 2.34001
  22 351.075 -2.03629 6.14631
  23 334.075 0.124886 7.32111
  24 324.616 1.23291 5.64613
  25 316.995 0.985954 3.19650
  26 313.082 0.303847 1.50362
  27 310.604 0.251790 0.891867
  28 310.256 1.11354 0.555290
  29 309.692 2.28719 0.644665
  30 308.305 3.97849 0.573019
  31 307.750 4.62741 -0.0555643
  32 308.463 3.77370 -0.687678
  33 309.458 2.49348 -0.587447
  34 309.895 1.26196 -0.620403
  35 310.432 0.213115 -0.924171
  36 313.027 0.378015 -1.64072
  37 316.774 0.859261 -3.32520
  38 325.377 0.324295 -4.46128
  39 336.397 0.543423 -7.28659
  40 349.252 -3.08006 -7.13903
  41 360.977 -3.72441 -0.769182
  42 355.154 -2.56849 6.09199
  43 341.406 2.63634 10.6711
  44 333.925 6.52336 -0.414856
  45 339.392 3.13425 -10.0087
  46 354.774 -3.81466 -7.42656
  47 357.670 -4.52088 2.34001
  48 351.075 -2.03629 6.14631
  49 334.075 0.124886 7.32111
  50 324.616 1.23291 5.64613
  51 316.995 0.985954 3.19650
  52 313.082 0.303847 1.50362
  53 310.604 0.251790 0.891867
  54 310.256 1.11354 0.555290
  55 309.692 2.28719 0.644665
  56 308.305 3.97849 0.573019
  57 307.750 4.62741 -0.0555643
  58 308.463 3.77370 -0.687678
  59 309.458 2.49348 -0.587447
  60 309.895 1.26196 -0.620403
  61 663.820 34.3350 69.2597
  62 605.116 9.92276 24.6235
  63 570.513 4.18244 9.13245
  64 563.130 3.01906 1.80778
  65 570.230 3.99016 -7.80412
  66 596.564 8.52297 -21.4031
  67 670.043 29.8987 -59.6293
  68 88.3271 -98.7070 -108.674
  69 17.4665 -224.497 -27.5654
  70 5.03126 -254.985 -12.0539
  71 4.80516 -250.362 -6.19131
  72 8.10159 -243.655 12.8884
  73 18.9276 -217.590 29.1728
  74 95.8819 -92.0483 120.492
  75 663.820 34.3350 69.2597
  76 605.116 9.92276 24.6235
  77 570.513 4.18244 9.13245
  78 563.130 3.01906 1.80778
  79 570.230 3.99016 -7.80412
  80 596.564 8.52297 -21.4031
  81 670.043 29.8987 -59.6293
  82 88.3271 -98.7070 -108.674
  83 17.4665 -224.497 -27.5654
  84 5.03126 -254.985 -12.0539
  85 4.80516 -250.362 -6.19131
  86 8.10159 -243.655 12.8884
  87 18.9276 -217.590 29.1728
  88 95.8819 -92.0483 120.492
  89 284.422 16.3118 -4.24875
  90 284.422 16.3118 -4.24875
  91 259.703 3.59550 38.2959
  92 249.523 -1.55918 -45.6684
  93 259.703 3.59550 38.2959
  94 249.523 -1.55918 -45.6684
  95 146.840 3.66867 18.3304
  96 146.840 3.66867 18.3304
  97 381.796 24.5419 -6.01818
  98 389.253 13.9833 12.1332
  99 381.796 24.5419 -6.01818
  100 389.253 13.9833 12.1332
  101 305.236 7.40621 4.26493
  102 305.236 7.40621 4.26493
  103 365.382 -20.7813 0.268041
  104 365.382 -20.7813 0.268041
  105 305.615 7.74005 -5.26114
  106 305.615 7.74005 -5.26114
  107 359.164 -44.2496 -40.2280
  108 359.164 -44.2496 -40.2280
  109 251.084 -52.1946 100.618
  110 251.084 -52.1946 100.618
  111 169.490 -30.6647 -81.0855
  112 169.490 -30.6647 -81.0855
  113 306.870 5.17383 18.2171
  114 306.870 5.17383 18.2171
  115 318.139 2.17841 -17.4091
  116 318.139 2.17841 -17.4091
  117 432.005 28.8926 3.94983
  118 462.933 30.0600 2.60259
  119 432.005 28.8926 3.94983
  120 462.933 30.0600 2.60259
  121 453.228 38.1651 -11.5753
  122 453.228 38.1651 -11.5753
  123 49.5549 -81.6307 -26.4456
  124 49.5549 -81.6307 -26.4456
  125 390.240 -48.4921 43.3687
  126 390.240 -48.4921 43.3687
  127 328.975 -7.91694 20.4476
  128 328.975 -7.91694 20.4476
  129 75.4585 -70.5190 60.8518
  130 75.4585 -70.5190 60.8518
  131 305.678 6.18894 -0.270239
  132 305.678 6.18894 -0.270239
  133 328.465 -15.2845 -26.0454
  134 328.465 -15.2845 -26.0454
  135 310.567 2.53322 3.09298
  136 310.567 2.53322 3.09298
  137 310.848 2.22707 -2.88671
  138 310.848 2.22707 -2.88671
  139 314.273 4.34318 -9.19047
  140 314.273 4.34318 -9.19047
  141 312.824 4.22898 8.28219
  142 312.824 4.22898 8.28219
  143 299.477 10.3039 -0.335707
  144 299.477 10.3039 -0.335707
  145 250.161 16.6228 -1.95631
  146 250.161 16.6228 -1.95631
  147 363.513 -12.9762 5.72181
  148 363.513 -12.9762 5.72181
  149 415.733 -14.7019 -15.8765
  150 415.733 -14.7019 -15.8765
  151 320.882 -35.7176 50.1765
  152 320.882 -35.7176 50.1765
  153 242.377 -65.5777 -112.751
  154 242.377 -65.5777 -112.751
  155 285.106 11.7081 17.3462
  156 285.106 11.7081 17.3462
  157 369.814 -2.28931 -13.7106
  158 369.814 -2.28931 -13.7106
  159 505.403 40.0438 28.5960
  160 505.403 40.0438 28.5960
  161 252.453 -70.1584 130.600
  162 252.453 -70.1584 130.600
  163 516.477 17.1533 -5.88670
  164 516.477 17.1533 -5.88670
  165 298.277 10.2700 8.08952
  166 298.277 10.2700 8.08952
  167 283.370 9.67433 -25.3522
  168 283.370 9.67433 -25.3522
  169 350.943 10.5544 8.19228
  170 350.943 10.5544 8.19228
  171 295.473 12.2484 -9.17907
  172 295.473 12.2484 -9.17907
  173 307.554 4.97629 1.35232
  174 307.554 4.97629 1.35232
  175 312.690 2.41481 -4.90837
  176 312.690 2.41481 -4.90837
  177 484.624 37.8060 -28.1881
  178 484.624 37.8060 -28.1881
  179 307.805 4.84206 -1.63352
  180 307.805 4.84206 -1.63352
  181 226.756 16.5767 -13.1741
  182 226.756 16.5767 -13.1741
  183 409.978 30.2695 2.77432
  184 409.978 30.2695 2.77432
  185 82.8803 -69.2730 -78.5527
  186 82.8803 -69.2730 -78.5527
  187 223.651 -2.43708 55.5699
  188 223.651 -2.43708 55.5699
  189 299.390 -48.2050 -77.9940
  190 299.390 -48.2050 -77.9940
  191 353.501 -9.68861 4.23530
  192 353.501 -9.68861 4.23530
  193 330.730 -1.09471 12.6710
  194 330.730 -1.09471 12.6710
  195 450.327 12.8697 26.3662
  196 450.327 12.8697 26.3662
  197 186.291 5.85477 -34.2909
  198 186.291 5.85477 -34.2909
  199 511.921 22.9575 13.4538
  200 511.921 22.9575 13.4538
  201 336.907 -4.10188 -13.2647
  202 336.907 -4.10188 -13.2647
  203 313.183 1.72566 4.52748
  204 313.183 1.72566 4.52748
  205 350.746 -13.6944 -6.72283
  206 350.746 -13.6944 -6.72283
  207 383.776 -19.3627 -2.17729
  208 383.776 -19.3627 -2.17729
  209 23.8855 -141.448 11.6118
  210 23.8855 -141.448 11.6118
  211 323.041 1.72681 -11.2135
  212 323.041 1.72681 -11.2135
  213 320.322 2.53996 9.81070
  214 320.322 2.53996 9.81070
  215 308.179 -28.2546 -49.7456
  216 308.179 -28.2546 -49.7456
  217 360.001 -7.63416 -8.45138
  218 360.001 -7.63416 -8.45138
  219 294.454 10.6568 -17.3461
  220 294.454 10.6568 -17.3461
  221 81.1786 -101.738 85.9848
  222 81.1786 -101.738 85.9848
  223 364.771 1.57078 12.9345
  224 364.771 1.57078 12.9345
  225 354.192 8.95568 -10.8791
  226 354.192 8.95568 -10.8791
  227 506.103 30.2434 -22.9282
  228 506.103 30.2434 -22.9282
  229 385.084 -14.3533 -6.71061
  230 385.084 -14.3533 -6.71061
  231 421.204 -19.5196 -73.6460
  232 421.204 -19.5196 -73.6460
  233 309.141 -13.9248 38.4019
  234 309.141 -13.9248 38.4019
  235 302.805 8.61118 1.37151
  236 302.805 8.61118 1.37151
  237 160.515 -23.7646 71.8148
  238 160.515 -23.7646 71.8148
  239 403.100 -35.2331 86.3048
  240 403.100 -35.2331 86.3048
  241 108.792 -14.4443 -35.4660
  242 108.792 -14.4443 -35.4660
  243 358.188 -26.8470 -17.0876
  244 358.188 -26.8470 -17.0876
  245 291.496 13.1967 10.0489
  246 291.496 13.1967 10.0489
  247 10.5342 -183.838 -9.41335
  248 10.5342 -183.838 -9.41335
  249 20.1202 -161.884 31.2395
  250 20.1202 -161.884 31.2395
  251 296.919 2.07777 27.7052
  252 296.919 2.07777 27.7052
  253 310.216 1.18670 1.12152
  254 310.216 1.18670 1.12152
  255 307.524 5.01489 0.212687
  256 307.524 5.01489 0.212687
  257 288.533 -3.55817 -36.7563
  258 288.533 -3.55817 -36.7563
  259 310.409 1.07978 -1.18786
  260 310.409 1.07978 -1.18786
  261 343.742 -24.1613 22.8963
  262 343.742 -24.1613 22.8963
  263 318.793 1.13711 -5.49020
  264 318.793 1.13711 -5.49020
  265 246.704 -20.8897 -68.0790
  266 246.704 -20.8897 -68.0790
  267 420.829 32.2569 -1.60449
  268 420.829 32.2569 -1.60449
  269 307.115 6.85583 -14.1705
  270 307.115 6.85583 -14.1705
  271 305.903 6.41797 -2.85009
  272 305.903 6.41797 -2.85009
  273 259.701 12.6307 -25.3129
  274 259.701 12.6307 -25.3129
  275 78.6980 -31.0146 20.3852
  276 78.6980 -31.0146 20.3852
  277 328.559 -54.3724 69.5462
  278 328.559 -54.3724 69.5462
  279 309.242 4.63200 5.56674
  280 309.242 4.63200 5.56674
  281 459.592 32.5767 -7.03054
  282 459.592 32.5767 -7.03054
  283 550.997 46.4736 64.0926
  284 550.997 46.4736 64.0926
  285 368.957 -39.1499 22.5466
  286 368.957 -39.1499 22.5466
  287 264.856 13.2696 18.5945
  288 264.856 13.2696 18.5945
  289 338.095 -67.0704 91.6956
  290 338.095 -67.0704 91.6956
  291 347.897 -4.06499 8.54480
  292 347.897 -4.06499 8.54480
  293 309.054 3.05265 1.53221
  294 309.054 3.05265 1.53221
  295 304.591 8.40767 -9.06265
  296 304.591 8.40767 -9.06265
  297 307.605 4.93415 -0.420798
  298 307.605 4.93415 -0.420798
  299 312.116 0.866959 -2.14022
  300 312.116 0.866959 -2.14022
  301 318.495 1.59239 5.51176
  302 318.495 1.59239 5.51176
  303 302.894 8.56476 -2.33209
  304 302.894 8.56476 -2.33209
  305 69.7165 -118.739 -81.6870
  306 69.7165 -118.739 -81.6870
  307 207.460 13.4812 17.2447
  308 207.460 13.4812 17.2447
  309 309.409 2.54604 -1.47282
  310 309.409 2.54604 -1.47282
  311 272.270 15.7278 -12.4600
  312 272.270 15.7278 -12.4600
  313 272.956 17.1515 4.75831
  314 272.956 17.1515 4.75831
  315 308.740 4.45412 -3.94855
  316 308.740 4.45412 -3.94855
  317 414.650 21.5340 -0.831674
  318 414.650 21.5340 -0.831674
  319 306.392 7.45052 12.4311
  320 306.392 7.45052 12.4311
  321 391.343 12.1497 -10.8446
  322 391.343 12.1497 -10.8446
  323 579.183 16.4607 38.8350
  324 579.183 16.4607 38.8350
  325 305.221 7.71557 7.83375
  326 305.221 7.71557 7.83375
  327 300.312 10.2081 4.09777
  328 300.312 10.2081 4.09777
  329 236.068 -52.1128 -129.409
  330 236.068 -52.1128 -129.409
  331 312.298 0.783915 2.09384
  332 312.298 0.783915 2.09384
  333 305.599 6.46807 2.12928
  334 305.599 6.46807 2.12928
  335 294.193 13.2202 0.469197
  336 294.193 13.2202 0.469197
  337 152.186 -53.9525 104.263
  338 152.186 -53.9525 104.263
  339 379.375 24.8065 1.90889
  340 379.375 24.8065 1.90889
  341 21.8488 -158.553 -36.2494
  342 21.8488 -158.553 -36.2494
  343 236.273 14.9164 15.3786
  344 236.273 14.9164 15.3786
  345 547.882 7.53914 5.41907
  346 547.882 7.53914 5.41907
  347 571.931 28.8807 -39.9581
  348 571.931 28.8807 -39.9581
  349 267.152 -30.8217 76.1631
  350 278.474 -15.8669 56.4690
  351 267.152 -30.8217 76.1631
  352 278.474 -15.8669 56.4690
  353 555.761 13.9307 20.3687
  354 555.761 13.9307 20.3687
  355 316.291 -0.425603 21.6145
  356 316.291 -0.425603 21.6145
  357 375.295 -50.6150 -53.7242
  358 375.295 -50.6150 -53.7242
  359 355.900 -3.09229 10.5378
  360 355.900 -3.09229 10.5378
  361 241.676 -52.0375 141.743
  362 241.676 -52.0375 141.743
  363 416.045 33.3870 -1.13178
  364 416.045 33.3870 -1.13178
  365 555.535 5.11274 -4.26392
  366 555.535 5.11274 -4.26392
  367 336.853 0.190445 -10.5857
  368 336.853 0.190445 -10.5857
  369 300.321 10.8527 -4.90333
  370 300.321 10.8527 -4.90333
  371 465.180 36.0973 11.6020
  372 465.180 36.0973 11.6020
  373 355.946 14.8360 -2.30011
  374 355.946 14.8360 -2.30011
  375 324.572 1.24843 -6.79796
  376 324.572 1.24843 -6.79796
  377 87.8844 -43.9893 -59.7869
  378 87.8844 -43.9893 -59.7869
  379 358.905 -6.44732 2.95184
  380 358.905 -6.44732 2.95184
  381 306.942 -0.469032 -25.4843
  382 306.942 -0.469032 -25.4843
  383 353.297 -0.747503 -12.5691
  384 353.297 -0.747503 -12.5691
  385 557.914 9.89298 -16.8818
  386 557.914 9.89298 -16.8818
  387 307.950 4.76924 3.12271
  388 307.950 4.76924 3.12271
  389 375.703 18.2649 10.5467
  390 375.703 18.2649 10.5467
  391 405.798 -8.93857 3.42930
  392 405.798 -8.93857 3.42930
  393 309.112 5.60466 -6.95723
  394 309.112 5.60466 -6.95723
  395 590.490 54.5359 -74.4421
  396 590.490 54.5359 -74.4421
  397 354.283 -5.13091 -3.63634
  398 354.283 -5.13091 -3.63634
</Section>

newXOutput 91

<Section columns = "stress_xx | stress_yy | stress_xy">
  1 313.004 0.304480 -0.355875
  2 313.144 0.378471 0.479990
  3 313.004 0.304480 -0.355875
  4 313.144 0.378471 0.479990
  5 483.916 30.7135 134.847
  6 502.921 29.7612 -132.653
  7 483.916 30.7135 134.847
  8 502.921 29.7612 -132.653
  9 313.793 0.215410 -0.933383
  10 316.414 0.382029 -1.65718
  11 320.198 0.868253 -3.35886
  12 328.886 0.327511 -4.50692
  13 340.018 0.548398 -7.36268
  14 353.006 -3.11494 -7.21613
  15 364.858 -3.76571 -0.781566
  16 358.991 -2.59621 6.14910
  17 345.117 2.66709 10.7755
  18 337.567 6.59654 -0.418989
  19 343.084 3.16906 -10.1072
  20 358.608 -3.85610 -7.49602
  21 361.517 -4.57110 2.37011
  22 354.848 -2.05922 6.21308
  23 337.673 0.125086 7.39798
  24 328.118 1.24556 5.70407
  25 320.421 0.996279 3.22880
  26 316.470 0.307079 1.51869
  27 313.967 0.254516 0.900786
  28 313.616 1.12534 0.560784
  29 313.046 2.31127 0.651099
  30 311.646 4.02015 0.578772
  31 311.085 4.67579 -0.0561202
  32 311.805 3.81325 -0.694553
  33 312.810 2.51974 -0.593235
  34 313.251 1.27537 -0.626601
  35 313.793 0.215410 -0.933383
  36 316.414 0.382029 -1.65718
  37 320.198 0.868253 -3.35886
  38 328.886 0.327511 -4.50692
  39 340.018 0.548398 -7.36268
  40 353.006 -3.11494 -7.21613
  41 364.858 -3.76571 -0.781566
  42 358.991 -2.59621 6.14910
  43 345.117 2.66709 10.7755
  44 337.567 6.59654 -0.418989
  45 343.084 3.16906 -10.1072
  46 358.608 -3.85610 -7.49602
  47 361.517 -4.57110 2.37011
  48 354.848 -2.05922 6.21308
  49 337.673 0.125086 7.39798
  50 328.118 1.24556 5.70407
  51 320.421 0.996279 3.22880
  52 316.470 0.307079 1.51869
  53 313.967 0.254516 0.900786
  54 313.616 1.12534 0.560784
  55 313.046 2.31127 0.651099
  56 311.646 4.02015 0.578772
  57 311.085 4.67579 -0.0561202
  58 311.805 3.81325 -0.694553
  59 312.810 2.51974 -0.593235
  60 313.251 1.27537 -0.626601
  61 670.713 34.7126 69.9996
  62 611.417 10.0242 24.8790
  63 576.473 4.22222 9.22479
  64 569.016 3.04838 1.82476
  65 576.186 4.02963 -7.88264
  66 602.783 8.60926 -21.6231
  67 677.002 30.2268 -60.2670
  68 89.2738 -99.6636 -109.927
  69 17.6541 -226.953 -27.9096
  70 5.07668 -257.833 -12.2037
  71 4.84884 -253.164 -6.26046
  72 8.18299 -246.367 13.0491
  73 19.1333 -219.970 29.5384
  74 96.9013 -92.9322 121.877
  75 670.713 34.7126 69.9996
  76 611.417 10.0242 24.8790
  77 576.473 4.22222 9.22479
  78 569.016 3.04838 1.82476
  79 576.186 4.02963 -7.88264
  80 602.783 8.60926 -21.6231
  81 677.002 30.2268 -60.2670
  82 89.2738 -99.6636 -109.927
  83 17.6541 -226.953 -27.9096
  84 5.07668 -257.833 -12.2037
  85 4.84884 -253.164 -6.26046
  86 8.18299 -246.367 13.0491
  87 19.1333 -219.970 29.5384
  88 96.9013 -92.9322 121.877
  89 287.522 16.4863 -4.29364
  90 287.522 16.4863 -4.29364
  91 262.536 3.63564 38.7087
  92 252.247 -1.57488 -46.1635
  93 262.536 3.63564 38.7087
  94 252.247 -1.57488 -46.1635
  95 148.473 3.71968 18.5320
  96 148.473 3.71968 18.5320
  97 385.925 24.8106 -6.07087
  98 393.446 14.1434 12.2339
  99 385.925 24.8106 -6.07087
  100 393.446 14.1434 12.2339
  101 308.547 7.48423 4.30857
  102 308.547 7.48423 4.30857
  103 369.313 -21.0053 0.292687
  104 369.313 -21.0053 0.292687
  105 308.930 7.82172 -5.31507
  106 308.930 7.82172 -5.31507
  107 363.014 -44.7297 -40.6814
  108 363.014 -44.7297 -40.6814
  109 253.801 -52.7653 101.731
  110 253.801 -52.7653 101.731
  111 171.347 -30.9939 -81.9879
  112 171.347 -30.9939 -81.9879
  113 310.196 5.22805 18.4097
  114 310.196 5.22805 18.4097
  115 321.580 2.20004 -17.5943
  116 321.580 2.20004 -17.5943
  117 436.637 29.2171 4.03111
  118 467.881 30.3759 2.63671
  119 436.637 29.2171 4.03111
  120 467.881 30.3759 2.63671
  121 458.080 38.5826 -11.7300
  122 458.080 38.5826 -11.7300
  123 50.1036 -82.5006 -26.7527
  124 50.1036 -82.5006 -26.7527
  125 394.407 -49.0047 43.8733
  126 394.407 -49.0047 43.8733
  127 332.527 -8.00408 20.6714
  128 332.527 -8.00408 20.6714
  129 76.2939 -71.2674 61.5518
  130 76.2939 -71.2674 61.5518
  131 308.994 6.25394 -0.272952
  132 308.994 6.25394 -0.272952
  133 332.009 -15.4516 -26.3328
  134 332.009 -15.4516 -26.3328
  135 313.930 2.55990 3.12424
  136 313.930 2.55990 3.12424
  137 314.213 2.25058 -2.91583
  138 314.213 2.25058 -2.91583
  139 317.673 4.38861 -9.28548
  140 317.673 4.38861 -9.28548
  141 316.210 4.27336 8.36750
  142 316.210 4.27336 8.36750
  143 302.730 10.4128 -0.339262
  144 302.730 10.4128 -0.339262
  145 252.903 16.8031 -1.97759
  146 252.903 16.8031 -1.97759
  147 367.429 -13.1150 5.76448
  148 367.429 -13.1150 5.76448
  149 420.175 -14.8376 -16.0935
  150 420.175 -14.8376 -16.0935
  151 324.339 -36.1071 50.7287
  152 324.339 -36.1071 50.7287
  153 244.986 -66.2789 -114.018
  154 244.986 -66.2789 -114.018
  155 288.210 11.8338 17.5304
  156 288.210 11.8338 17.5304
  157 373.802 -2.31021 -13.8349
  158 373.802 -2.31021 -13.8349
  159 510.770 40.4810 28.9272
  160 510.770 40.4810 28.9272
  161 255.169 -70.9158 132.059
  162 255.169 -70.9158 132.059
  163 521.940 17.3281 -5.95099
  164 521.940 17.3281 -5.95099
  165 301.518 10.3788 8.17364
  166 301.518 10.3788 8.17364
  167 286.454 9.77846 -25.6233
  168 286.454 9.77846 -25.6233
  169 354.755 10.6725 8.27163
  170 354.755 10.6725 8.27163
  171 298.685 12.3785 -9.27496
  172 298.685 12.3785 -9.27496
  173 310.887 5.02848 1.36599
  174 310.887 5.02848 1.36599
  175 316.074 2.44014 -4.95831
  176 316.074 2.44014 -4.95831
  177 489.779 38.2387 -28.5352
  178 489.779 38.2387 -28.5352
  179 311.141 4.89291 -1.65001
  180 311.141 4.89291 -1.65001
  181 229.249 16.7594 -13.3165
  182 229.249 16.7594 -13.3165
  183 414.393 30.5997 2.78246
  184 414.393 30.5997 2.78246
  185 83.7925 -70.0078 -79.4536
  186 83.7925 -70.0078 -79.4536
  187 226.099 -2.46072 56.1750
  188 226.099 -2.46072 56.1750
  189 302.615 -48.7311 -78.8563
  190 302.615 -48.7311 -78.8563
  191 357.309 -9.79484 4.29101
  192 357.309 -9.79484 4.29101
  193 334.298 -1.10811 12.8064
  194 334.298 -1.10811 12.8064
  195 455.128 13.0394 26.7004
  196 455.128 13.0394 26.7004
  197 188.347 5.92509 -34.6663
  198 188.347 5.92509 -34.6663
  199 517.345 23.1952 13.6033
  200 517.345 23.1952 13.6033
  201 340.539 -4.14801 -13.4097
  202 340.539 -4.14801 -13.4097
  203 316.572 1.74370 4.57349
  204 316.572 1.74370 4.57349
  205 354.524 -13.8446 -6.80636
  206 354.524 -13.8446 -6.80636
  207 387.896 -19.5653 -2.23110
  208 387.896 -19.5653 -2.23110
  209 24.1457 -142.991 11.7500
  210 24.1457 -142.991 11.7500
  211 326.530 1.74381 -11.3310
  212 326.530 1.74381 -11.3310
  213 323.783 2.56627 9.91291
  214 323.783 2.56627 9.91291
  215 311.507 -28.5626 -50.2915
  216 311.507 -28.5626 -50.2915
  217 363.884 -7.71676 -8.52600
  218 363.884 -7.71676 -8.52600
  219 297.654 10.7705 -17.5300
  220 297.654 10.7705 -17.5300
  221 82.0612 -102.816 86.9795
  222 82.0612 -102.816 86.9795
  223 368.713 1.59270 13.0539
  224 368.713 1.59270 13.0539
  225 358.035 9.05624 -10.9831
  226 358.035 9.05624 -10.9831
  227 511.474 30.5629 -23.1889
  228 511.474 30.5629 -23.1889
  229 389.220 -14.5014 -6.75211
  230 389.220 -14.5014 -6.75211
  231 425.682 -19.6826 -74.4975
  232 425.682 -19.6826 -74.4975
  233 312.483 -14.0763 38.8190
  234 312.483 -14.0763 38.8190
  235 306.092 8.70199 1.38559
  236 306.092 8.70199 1.38559
  237 162.280 -24.0171 72.6125
  238 162.280 -24.0171 72.6125
  239 407.385 -35.5757 87.2903
  240 407.385 -35.5757 87.2903
  241 110.005 -14.5857 -35.8629
  242 110.005 -14.5857 -35.8629
  243 362.038 -27.1385 -17.2889
  244 362.038 -27.1385 -17.2889
  245 294.667 13.3375 10.1546
  246 294.667 13.3375 10.1546
  247 10.6435 -185.861 -9.52748
  248 10.6435 -185.861 -9.52748
  249 20.3373 -163.648 31.6162
  250 20.3373 -163.648 31.6162
  251 300.141 2.09969 28.0023
  252 300.141 2.09969 28.0023
  253 313.576 1.19928 1.13274
  254 313.576 1.19928 1.13274
  255 310.858 5.06738 0.214847
  256 310.858 5.06738 0.214847
  257 291.666 -3.59720 -37.1535
  258 291.666 -3.59720 -37.1535
  259 313.770 1.09127 -1.19976
  260 313.770 1.09127 -1.19976
  261 347.443 -24.4243 23.1551
  262 347.443 -24.4243 23.1551
  263 322.237 1.14883 -5.54631
  264 322.237 1.14883 -5.54631
  265 249.388 -21.1172 -68.8243
  266 249.388 -21.1172 -68.8243
  267 425.355 32.6072 -1.60017
  268 425.355 32.6072 -1.60017
  269 310.444 6.92801 -14.3190
  270 310.444 6.92801 -14.3190
  271 309.220 6.48550 -2.87907
  272 309.220 6.48550 -2.87907
  273 262.540 12.7682 -25.5847
  274 262.540 12.7682 -25.5847
  275 79.5774 -31.3303 20.6165
  276 79.5774 -31.3303 20.6165
  277 332.086 -54.9650 70.3177
  278 332.086 -54.9650 70.3177
  279 312.592 4.68073 5.62354
  280 312.592 4.68073 5.62354
  281 464.508 32.9216 -7.11718
  282 464.508 32.9216 -7.11718
  283 556.803 47.0111 64.8150
  284 556.803 47.0111 64.8150
  285 372.914 -39.5719 22.8149
  286 372.914 -39.5719 22.8149
  287 267.750 13.4134 18.7929
  288 267.750 13.4134 18.7929
  289 341.711 -67.7983 92.7156
  290 341.711 -67.7983 92.7156
  291 351.643 -4.11034 8.63971
  292 351.643 -4.11034 8.63971
  293 312.402 3.08472 1.54763
  294 312.402 3.08472 1.54763
  295 307.895 8.49650 -9.15642
  296 307.895 8.49650 -9.15642
  297 310.939 4.98581 -0.425036
  298 310.939 4.98581 -0.425036
  299 315.494 0.876118 -2.16176
  300 315.494 0.876118 -2.16176
  301 321.937 1.60894 5.56808
  302 321.937 1.60894 5.56808
  303 306.182 8.65510 -2.35602
  304 306.182 8.65510 -2.35602
  305 70.4724 -119.995 -82.6372
  306 70.4724 -119.995 -82.6372
  307 209.747 13.6321 17.4313
  308 209.747 13.6321 17.4313
  309 312.760 2.57285 -1.48761
  310 312.760 2.57285 -1.48761
  311 275.243 15.8970 -12.5928
  312 275.243 15.8970 -12.5928
  313 275.937 17.3360 4.80862
  314 275.937 17.3360 4.80862
  315 312.085 4.50099 -3.98866
  316 312.085 4.50099 -3.98866
  317 419.100 21.7823 -0.879938
  318 419.100 21.7823 -0.879938
  319 309.713 7.52923 12.5607
  320 309.713 7.52923 12.5607
  321 395.557 12.2895 -10.9319
  322 395.557 12.2895 -10.9319
  323 585.257 16.6298 39.2533
  324 585.257 16.6298 39.2533
  325 308.532 7.79702 7.91456
  326 308.532 7.79702 7.91456
  327 303.574 10.3160 4.14004
  328 303.574 10.3160 4.14004
  329 238.589 -52.5881 -130.882
  330 238.589 -52.5881 -130.882
  331 315.678 0.792188 2.11491
  332 315.678 0.792188 2.11491
  333 308.914 6.53607 2.15095
  334 308.914 6.53607 2.15095
  335 297.393 13.3607 0.474056
  336 297.393 13.3607 0.474056
  337 153.851 -54.5354 105.437
  338 153.851 -54.5354 105.437
  339 383.480 25.0777 1.92442
  340 383.480 25.0777 1.92442
  341 22.0821 -160.279 -36.6807
  342 22.0821 -160.279 -36.6807
  343 238.868 15.0798 15.5436
  344 238.868 15.0798 15.5436
  345 553.635 7.61433 5.47430
  346 553.635 7.61433 5.47430
  347 577.944 29.1923 -40.3925
  348 577.944 29.1923 -40.3925
  349 270.046 -31.1585 76.9972
  350 281.495 -16.0393 57.0818
  351 270.046 -31.1585 76.9972
  352 281.495 -16.0393 57.0818
  353 561.600 14.0718 20.5839
  354 561.600 14.0718 20.5839
  355 319.713 -0.431473 21.8460
  356 319.713 -0.431473 21.8460
  357 379.304 -51.1576 -54.3351
  358 379.304 -51.1576 -54.3351
  359 359.747 -3.12437 10.6382
  360 359.747 -3.12437 10.6382
  361 244.246 -52.5172 143.348
  362 244.246 -52.5172 143.348
  363 420.525 33.7455 -1.14307
  364 420.525 33.7455 -1.14307
  365 561.358 5.16328 -4.30838
  366 561.358 5.16328 -4.30838
  367 340.481 0.190928 -10.6980
  368 340.481 0.190928 -10.6980
  369 303.582 10.9676 -4.95403
  370 303.582 10.9676 -4.95403
  371 470.151 36.4848 11.7483
  372 470.151 36.4848 11.7483
  373 359.811 14.9996 -2.32214
  374 359.811 14.9996 -2.32214
  375 328.075 1.26098 -6.86818
  376 328.075 1.26098 -6.86818
  377 88.8658 -44.4518 -60.4661
  378 88.8658 -44.4518 -60.4661
  379 362.772 -6.51762 2.97367
  380 362.772 -6.51762 2.97367
  381 310.267 -0.475403 -25.7584
  382 310.267 -0.475403 -25.7584
  383 357.123 -0.754416 -12.6898
  384 357.123 -0.754416 -12.6898
  385 563.771 9.99394 -17.0590
  386 563.771 9.99394 -17.0590
  387 311.288 4.81935 3.15439
  388 311.288 4.81935 3.15439
  389 379.764 18.4679 10.6413
  390 379.764 18.4679 10.6413
  391 410.142 -9.02008 3.50603
  392 410.142 -9.02008 3.50603
  393 312.460 5.66370 -7.02852
  394 312.460 5.66370 -7.02852
  395 596.685 55.1732 -75.2749
  396 596.685 55.1732 -75.2749
  397 358.094 -5.18804 -3.68020
  398 358.094 -5.18804 -3.68020
</Section>

newXOutput 92

<Section columns = "stress_xx | stress_yy | stress_xy">
  1 316.354 0.307789 -0.359363
  2 316.496 0.382534 0.484687
  3 316.354 0.307789 -0.359363
  4 316.496 0.382534 0.484687
  5 488.928 31.1577 136.341
  6 508.119 30.2003 -134.125
  7 488.928 31.1577 136.341
  8 508.119 30.2003 -134.125
  9 317.151 0.217704 -0.942571
  10 319.798 0.386037 -1.67360
  11 323.619 0.877232 -3.39245
  12 332.393 0.330719 -4.55247
  13 343.636 0.553350 -7.43865
  14 356.757 -3.14982 -7.29316
  15 368.735 -3.80699 -0.794024
  16 362.824 -2.62391 6.20598
  17 348.826 2.69785 10.8795
  18 341.207 6.66972 -0.423111
  19 346.773 3.20386 -10.2055
  20 362.439 -3.89750 -7.56519
  21 365.360 -4.62131 2.40029
  22 358.618 -2.08215 6.27980
  23 341.269 0.125261 7.47473
  24 331.617 1.25819 5.76191
  25 323.845 1.00659 3.26103
  26 319.854 0.310309 1.53371
  27 317.328 0.257239 0.909683
  28 316.973 1.13712 0.566262
  29 316.398 2.33531 0.657517
  30 314.984 4.06175 0.584511
  31 314.418 4.72409 -0.0566747
  32 315.145 3.85274 -0.701410
  33 316.159 2.54595 -0.599006
  34 316.605 1.28877 -0.632784
  35 317.151 0.217704 -0.942571
  36 319.798 0.386037 -1.67360
  37 323.619 0.877232 -3.39245
  38 332.393 0.330719 -4.55247
  39 343.636 0.553350 -7.43865
  40 356.757 -3.14982 -7.29316
  41 368.735 -3.80699 -0.794024
  42 362.824 -2.62391 6.20598
  43 348.826 2.69785 10.8795
  44 341.207 6.66972 -0.423111
  45 346.773 3.20386 -10.2055
  46 362.439 -3.89750 -7.56519
  47 365.360 -4.62131 2.40029
  48 358.618 -2.08215 6.27980
  49 341.269 0.125261 7.47473
  50 331.617 1.25819 5.76191
  51 323.845 1.00659 3.26103
  52 319.854 0.310309 1.53371
  53 317.328 0.257239 0.909683
  54 316.973 1.13712 0.566262
  55 316.398 2.33531 0.657517
  56 314.984 4.06175 0.584511
  57 314.418 4.72409 -0.0566747
  58 315.145 3.85274 -0.701410
  59 316.159 2.54595 -0.599006
  60 316.605 1.28877 -0.632784
  61 677.595 35.0900 70.7387
  62 617.708 10.1253 25.1341
  63 582.424 4.26186 9.31692
  64 574.893 3.07760 1.84167
  65 582.132 4.06900 -7.96096
  66 608.992 8.69536 -21.8426
  67 683.950 30.5547 -60.9039
  68 90.2195 -100.617 -111.180
  69 17.8415 -229.408 -28.2546
  70 5.12186 -260.680 -12.3538
  71 4.89231 -255.966 -6.32960
  72 8.26420 -249.078 13.2102
  73 19.3389 -222.348 29.9049
  74 97.9193 -93.8129 123.262
  75 677.595 35.0900 70.7387
  76 617.708 10.1253 25.1341
  77 582.424 4.26186 9.31692
  78 574.893 3.07760 1.84167
  79 582.132 4.06900 -7.96096
  80 608.992 8.69536 -21.8426
  81 683.950 30.5547 -60.9039
  82 90.2195 -100.617 -111.180
  83 17.8415 -229.408 -28.2546
  84 5.12186 -260.680 -12.3538
  85 4.89231 -255.966 -6.32960
  86 8.26420 -249.078 13.2102
  87 19.3389 -222.348 29.9049
  88 97.9193 -93.8129 123.262
  89 290.619 16.6605 -4.33847
  90 290.619 16.6605 -4.33847
  91 265.368 3.67578 39.1211
  92 254.970 -1.59053 -46.6582
  93 265.368 3.67578 39.1211
  94 254.970 -1.59053 -46.6582
  95 150.106 3.77089 18.7336
  96 150.106 3.77089 18.7336
  97 390.049 25.0791 -6.12326
  98 397.636 14.3035 12.3338
  99 390.049 25.0791 -6.12326
  100 397.636 14.3035 12.3338
  101 311.855 7.56215 4.35212
  102 311.855 7.56215 4.35212
  103 373.241 -21.2291 0.317775
  104 373.241 -21.2291 0.317775
  105 312.241 7.90328 -5.36890
  106 312.241 7.90328 -5.36890
  107 366.861 -45.2094 -41.1348
  108 366.861 -45.2094 -41.1348
  109 256.516 -53.3357 102.843
  110 256.516 -53.3357 102.843
  111 173.204 -31.3227 -82.8902
  112 173.204 -31.3227 -82.8902
  113 313.519 5.28219 18.6021
  114 313.519 5.28219 18.6021
  115 325.017 2.22161 -17.7792
  116 325.017 2.22161 -17.7792
  117 441.264 29.5416 4.11312
  118 472.823 30.6914 2.67093
  119 441.264 29.5416 4.11312
  120 472.823 30.6914 2.67093
  121 462.927 38.9999 -11.8850
  122 462.927 38.9999 -11.8850
  123 50.6522 -83.3695 -27.0601
  124 50.6522 -83.3695 -27.0601
  125 398.569 -49.5165 44.3782
  126 398.569 -49.5165 44.3782
  127 336.075 -8.09119 20.8950
  128 336.075 -8.09119 20.8950
  129 77.1290 -72.0149 62.2521
  130 77.1290 -72.0149 62.2521
  131 312.306 6.31885 -0.275659
  132 312.306 6.31885 -0.275659
  133 335.550 -15.6186 -26.6201
  134 335.550 -15.6186 -26.6201
  135 317.290 2.58655 3.15542
  136 317.290 2.58655 3.15542
  137 317.576 2.27407 -2.94487
  138 317.576 2.27407 -2.94487
  139 321.071 4.43398 -9.38032
  140 321.071 4.43398 -9.38032
  141 319.593 4.31768 8.45264
  142 319.593 4.31768 8.45264
  143 305.981 10.5216 -0.342812
  144 305.981 10.5216 -0.342812
  145 255.645 16.9833 -1.99885
  146 255.645 16.9833 -1.99885
  147 371.342 -13.2537 5.80670
  148 371.342 -13.2537 5.80670
  149 424.613 -14.9727 -16.3113
  150 424.613 -14.9727 -16.3113
  151 327.792 -36.4963 51.2806
  152 327.792 -36.4963 51.2806
  153 247.594 -66.9793 -115.286
  154 247.594 -66.9793 -115.286
  155 291.312 11.9594 17.7144
  156 291.312 11.9594 17.7144
  157 377.786 -2.33100 -13.9587
  158 377.786 -2.33100 -13.9587
  159 516.131 40.9179 29.2586
  160 516.131 40.9179 29.2586
  161 257.882 -71.6726 133.518
  162 257.882 -71.6726 133.518
  163 527.396 17.5025 -6.01524
  164 527.396 17.5025 -6.01524
  165 304.756 10.4874 8.25761
  166 304.756 10.4874 8.25761
  167 289.536 9.88249 -25.8941
  168 289.536 9.88249 -25.8941
  169 358.564 10.7906 8.35072
  170 358.564 10.7906 8.35072
  171 301.895 12.5085 -9.37070
  172 301.895 12.5085 -9.37070
  173 314.218 5.08060 1.37964
  174 314.218 5.08060 1.37964
  175 319.455 2.46543 -5.00815
  176 319.455 2.46543 -5.00815
  177 494.928 38.6716 -28.8829
  178 494.928 38.6716 -28.8829
  179 314.474 4.94368 -1.66645
  180 314.474 4.94368 -1.66645
  181 231.742 16.9420 -13.4589
  182 231.742 16.9420 -13.4589
  183 418.803 30.9297 2.79014
  184 418.803 30.9297 2.79014
  185 84.7042 -70.7416 -80.3549
  186 84.7042 -70.7416 -80.3549
  187 228.546 -2.48429 56.7796
  188 228.546 -2.48429 56.7796
  189 305.837 -49.2569 -79.7182
  190 305.837 -49.2569 -79.7182
  191 361.114 -9.90100 4.34688
  192 361.114 -9.90100 4.34688
  193 337.863 -1.12152 12.9416
  194 337.863 -1.12152 12.9416
  195 459.922 13.2096 27.0353
  196 459.922 13.2096 27.0353
  197 190.402 5.99550 -35.0415
  198 190.402 5.99550 -35.0415
  199 522.762 23.4325 13.7528
  200 522.762 23.4325 13.7528
  201 344.168 -4.19415 -13.5546
  202 344.168 -4.19415 -13.5546
  203 319.958 1.76172 4.61940
  204 319.958 1.76172 4.61940
  205 358.298 -13.9948 -6.89006
  206 358.298 -13.9948 -6.89006
  207 392.011 -19.7677 -2.28550
  208 392.011 -19.7677 -2.28550
  209 24.4057 -144.532 11.8883
  210 24.4057 -144.532 11.8883
  211 330.016 1.76077 -11.4484
  212 330.016 1.76077 -11.4484
  213 327.241 2.59253 10.0149
  214 327.241 2.59253 10.0149
  215 314.832 -28.8704 -50.8371
  216 314.832 -28.8704 -50.8371
  217 367.765 -7.79930 -8.60020
  218 367.765 -7.79930 -8.60020
  219 300.852 10.8841 -17.7137
  220 300.852 10.8841 -17.7137
  221 82.9432 -103.892 87.9747
  222 82.9432 -103.892 87.9747
  223 372.651 1.61470 13.1728
  224 372.651 1.61470 13.1728
  225 361.874 9.15680 -11.0867
  226 361.874 9.15680 -11.0867
  227 516.839 30.8820 -23.4496
  228 516.839 30.8820 -23.4496
  229 393.351 -14.6493 -6.79291
  230 393.351 -14.6493 -6.79291
  231 430.155 -19.8443 -75.3494
  232 430.155 -19.8443 -75.3494
  233 315.823 -14.2277 39.2358
  234 315.823 -14.2277 39.2358
  235 309.376 8.79267 1.39965
  236 309.376 8.79267 1.39965
  237 164.044 -24.2693 73.4099
  238 164.044 -24.2693 73.4099
  239 411.665 -35.9170 88.2760
  240 411.665 -35.9170 88.2760
  241 111.217 -14.7267 -36.2598
  242 111.217 -14.7267 -36.2598
  243 365.884 -27.4298 -17.4904
  244 365.884 -27.4298 -17.4904
  245 297.836 13.4781 10.2600
  246 297.836 13.4781 10.2600
  247 10.7527 -187.883 -9.64179
  248 10.7527 -187.883 -9.64179
  249 20.5542 -165.411 31.9935
  250 20.5542 -165.411 31.9935
  251 303.361 2.12158 28.2990
  252 303.361 2.12158 28.2990
  253 316.932 1.21183 1.14394
  254 316.932 1.21183 1.14394
  255 314.189 5.11978 0.217002
  256 314.189 5.11978 0.217002
  257 294.796 -3.63621 -37.5502
  258 294.796 -3.63621 -37.5502
  259 317.128 1.10275 -1.21162
  260 317.128 1.10275 -1.21162
  261 351.140 -24.6870 23.4139
  262 351.140 -24.6870 23.4139
  263 325.679 1.16053 -5.60230
  264 325.679 1.16053 -5.60230
  265 252.070 -21.3445 -69.5691
  266 252.070 -21.3445 -69.5691
  267 429.876 32.9571 -1.59541
  268 429.876 32.9571 -1.59541
  269 313.771 7.00010 -14.4673
  270 313.771 7.00010 -14.4673
  271 312.535 6.55292 -2.90799
  272 312.535 6.55292 -2.90799
  273 265.377 12.9055 -25.8562
  274 265.377 12.9055 -25.8562
  275 80.4567 -31.6453 20.8479
  276 80.4567 -31.6453 20.8479
  277 335.610 -55.5572 71.0889
  278 335.610 -55.5572 71.0889
  279 315.940 4.72940 5.68023
  280 315.940 4.72940 5.68023
  281 469.418 33.2662 -7.20397
  282 469.418 33.2662 -7.20397
  283 562.600 47.5488 65.5373
  284 562.600 47.5488 65.5373
  285 376.866 -39.9934 23.0835
  286 376.866 -39.9934 23.0835
  287 270.643 13.5570 18.9911
  288 270.643 13.5570 18.9911
  289 345.324 -68.5256 93.7353
  290 345.324 -68.5256 93.7353
  291 355.384 -4.15569 8.73458
  292 355.384 -4.15569 8.73458
  293 315.748 3.11675 1.56302
  294 315.748 3.11675 1.56302
  295 311.197 8.58521 -9.25002
  296 311.197 8.58521 -9.25002
  297 314.270 5.03739 -0.429263
  298 314.270 5.03739 -0.429263
  299 318.869 0.885266 -2.18326
  300 318.869 0.885266 -2.18326
  301 325.376 1.62546 5.62429
  302 325.376 1.62546 5.62429
  303 309.467 8.74532 -2.37991
  304 309.467 8.74532 -2.37991
  305 71.2276 -121.249 -83.5881
  306 71.2276 -121.249 -83.5881
  307 212.032 13.7830 17.6178
  308 212.032 13.7830 17.6178
  309 316.109 2.59963 -1.50236
  310 316.109 2.59963 -1.50236
  311 278.214 16.0661 -12.7253
  312 278.214 16.0661 -12.7253
  313 278.915 17.5203 4.85885
  314 278.915 17.5203 4.85885
  315 315.428 4.54778 -4.02869
  316 315.428 4.54778 -4.02869
  317 423.546 22.0308 -0.928986
  318 423.546 22.0308 -0.928986
  319 313.033 7.60783 12.6900
  320 313.033 7.60783 12.6900
  321 399.766 12.4293 -11.0185
  322 399.766 12.4293 -11.0185
  323 591.323 16.7986 39.6712
  324 591.323 16.7986 39.6712
  325 311.840 7.87837 7.99521
  326 311.840 7.87837 7.99521
  327 306.833 10.4238 4.18223
  328 306.833 10.4238 4.18223
  329 241.108 -53.0611 -132.356
  330 241.108 -53.0611 -132.356
  331 319.055 0.800450 2.13593
  332 319.055 0.800450 2.13593
  333 312.226 6.60397 2.17258
  334 312.226 6.60397 2.17258
  335 300.590 13.5010 0.478906
  336 300.590 13.5010 0.478906
  337 155.515 -55.1178 106.611
  338 155.515 -55.1178 106.611
  339 387.581 25.3489 1.93982
  340 387.581 25.3489 1.93982
  341 22.3152 -162.003 -37.1124
  342 22.3152 -162.003 -37.1124
  343 241.462 15.2432 15.7084
  344 241.462 15.2432 15.7084
  345 559.380 7.68933 5.52942
  346 559.380 7.68933 5.52942
  347 583.948 29.5037 -40.8265
  348 583.948 29.5037 -40.8265
  349 272.937 -31.4951 77.8309
  350 284.513 -16.2117 57.6942
  351 272.937 -31.4951 77.8309
  352 284.513 -16.2117 57.6942
  353 567.429 14.2126 20.7989
  354 567.429 14.2126 20.7989
  355 323.131 -0.437366 22.0772
  356 323.131 -0.437366 22.0772
  357 383.308 -51.6997 -54.9462
  358 383.308 -51.6997 -54.9462
  359 363.591 -3.15639 10.7381
  360 363.591 -3.15639 10.7381
  361 246.813 -52.9947 144.954
  362 246.813 -52.9947 144.954
  363 425.001 34.1036 -1.15433
  364 425.001 34.1036 -1.15433
  365 567.172 5.21368 -4.35275
  366 567.172 5.21368 -4.35275
  367 344.106 0.191376 -10.8102
  368 344.106 0.191376 -10.8102
  369 306.842 11.0824 -5.00465
  370 306.842 11.0824 -5.00465
  371 475.117 36.8718 11.8949
  372 475.117 36.8718 11.8949
  373 363.672 15.1630 -2.34409
  374 363.672 15.1630 -2.34409
  375 331.574 1.27349 -6.93826
  376 331.574 1.27349 -6.93826
  377 89.8470 -44.9137 -61.1456
  378 89.8470 -44.9137 -61.1456
  379 366.635 -6.58787 2.99527
  380 366.635 -6.58787 2.99527
  381 313.589 -0.481798 -26.0322
  382 313.589 -0.481798 -26.0322
  383 360.946 -0.761297 -12.8101
  384 360.946 -0.761297 -12.8101
  385 569.619 10.0947 -17.2359
  386 569.619 10.0947 -17.2359
  387 314.623 4.86938 3.18599
  388 314.623 4.86938 3.18599
  389 383.821 18.6709 10.7353
  390 383.821 18.6709 10.7353
  391 414.482 -9.10118 3.58353
  392 414.482 -9.10118 3.58353
  393 315.807 5.72265 -7.09967
  394 315.807 5.72265 -7.09967
  395 602.870 55.8110 -76.1075
  396 602.870 55.8110 -76.1075
  397 361.902 -5.24517 -3.72411
  398 361.902 -5.24517 -3.72411
</Section>

newXOutput 93

<Section columns = "stress_xx | stress_yy | stress_xy">
  1 319.703 0.311097 -0.362841
  2 319.846 0.386594 0.489371
  3 319.703 0.311097 -0.362841
  4 319.846 0.386594 0.489371
  5 493.933 31.6042 137.836
  6 513.310 30.6415 -135.596
  7 493.933 31.6042 137.836
  8 513.310 30.6415 -135.596
  9 320.507 0.219995 -0.951734
  10 323.179 0.390041 -1.68998
  11 327.037 0.886197 -3.42596
  12 335.896 0.333917 -4.59792
  13 347.250 0.558278 -7.51450
  14 360.504 -3.18471 -7.37012
  15 372.608 -3.84826 -0.806557
  16 366.654 -2.65159 6.26263
  17 352.532 2.72864 10.9833
  18 344.845 6.74289 -0.427222
  19 350.460 3.23865 -10.3034
  20 366.266 -3.93888 -7.63407
  21 369.199 -4.67150 2.43054
  22 362.384 -2.10508 6.34646
  23 344.861 0.125412 7.55136
  24 335.113 1.27079 5.81963
  25 327.265 1.01688 3.29319
  26 323.236 0.313534 1.54870
  27 320.685 0.259960 0.918557
  28 320.327 1.14889 0.571724
  29 319.747 2.35932 0.663919
  30 318.319 4.10328 0.590235
  31 317.749 4.77232 -0.0572278
  32 318.482 3.89217 -0.708249
  33 319.505 2.57213 -0.604761
  34 319.955 1.30215 -0.638950
  35 320.507 0.219995 -0.951734
  36 323.179 0.390041 -1.68998
  37 327.037 0.886197 -3.42596
  38 335.896 0.333917 -4.59792
  39 347.250 0.558278 -7.51450
  40 360.504 -3.18471 -7.37012
  41 372.608 -3.84826 -0.806557
  42 366.654 -2.65159 6.26263
  43 352.532 2.72864 10.9833
  44 344.845 6.74289 -0.427222
  45 350.460 3.23865 -10.3034
  46 366.266 -3.93888 -7.63407
  47 369.199 -4.67150 2.43054
  48 362.384 -2.10508 6.34646
  49 344.861 0.125412 7.55136
  50 335.113 1.27079 5.81963
  51 327.265 1.01688 3.29319
  52 323.236 0.313534 1.54870
  53 320.685 0.259960 0.918557
  54 320.327 1.14889 0.571724
  55 319.747 2.35932 0.663919
  56 318.319 4.10328 0.590235
  57 317.749 4.77232 -0.0572278
  58 318.482 3.89217 -0.708249
  59 319.505 2.57213 -0.604761
  60 319.955 1.30215 -0.638950
  61 684.465 35.4673 71.4770
  62 623.989 10.2263 25.3888
  63 588.365 4.30136 9.40883
  64 580.761 3.10674 1.85851
  65 588.070 4.10826 -8.03910
  66 615.191 8.78127 -22.0618
  67 690.885 30.8824 -61.5400
  68 91.1641 -101.567 -112.434
  69 18.0288 -231.862 -28.6003
  70 5.16680 -263.527 -12.5042
  71 4.93555 -258.767 -6.39872
  72 8.34520 -251.790 13.3716
  73 19.5443 -224.725 30.2722
  74 98.9361 -94.6903 124.648
  75 684.465 35.4673 71.4770
  76 623.989 10.2263 25.3888
  77 588.365 4.30136 9.40883
  78 580.761 3.10674 1.85851
  79 588.070 4.10826 -8.03910
  80 615.191 8.78127 -22.0618
  81 690.885 30.8824 -61.5400
  82 91.1641 -101.567 -112.434
  83 18.0288 -231.862 -28.6003
  84 5.16680 -263.527 -12.5042
  85 4.93555 -258.767 -6.39872
  86 8.34520 -251.790 13.3716
  87 19.5443 -224.725 30.2722
  88 98.9361 -94.6903 124.648
  89 293.715 16.8346 -4.38325
  90 293.715 16.8346 -4.38325
  91 268.198 3.71591 39.5331
  92 257.691 -1.60616 -47.1525
  93 268.198 3.71591 39.5331
  94 257.691 -1.60616 -47.1525
  95 151.739 3.82230 18.9350
  96 151.739 3.82230 18.9350
  97 394.171 25.3475 -6.17533
  98 401.822 14.4637 12.4331
  99 394.171 25.3475 -6.17533
  100 401.822 14.4637 12.4331
  101 315.161 7.63996 4.39558
  102 315.161 7.63996 4.39558
  103 377.164 -21.4527 0.343304
  104 377.164 -21.4527 0.343304
  105 315.551 7.98472 -5.42261
  106 315.551 7.98472 -5.42261
  107 370.704 -45.6888 -41.5882
  108 370.704 -45.6888 -41.5882
  109 259.228 -53.9057 103.955
  110 259.228 -53.9057 103.955
  111 175.059 -31.6513 -83.7922
  112 175.059 -31.6513 -83.7922
  113 316.840 5.33625 18.7943
  114 316.840 5.33625 18.7943
  115 328.452 2.24312 -17.9639
  116 328.452 2.24312 -17.9639
  117 445.887 29.8662 4.19587
  118 477.759 31.0064 2.70524
  119 445.887 29.8662 4.19587
  120 477.759 31.0064 2.70524
  121 467.769 39.4170 -12.0406
  122 467.769 39.4170 -12.0406
  123 51.2006 -84.2373 -27.3676
  124 51.2006 -84.2373 -27.3676
  125 402.726 -50.0277 44.8835
  126 402.726 -50.0277 44.8835
  127 339.620 -8.17825 21.1185
  128 339.620 -8.17825 21.1185
  129 77.9638 -72.7614 62.9528
  130 77.9638 -72.7614 62.9528
  131 315.617 6.38366 -0.278358
  132 315.617 6.38366 -0.278358
  133 339.088 -15.7855 -26.9073
  134 339.088 -15.7855 -26.9073
  135 320.648 2.61316 3.18653
  136 320.648 2.61316 3.18653
  137 320.936 2.29753 -2.97385
  138 320.936 2.29753 -2.97385
  139 324.466 4.47927 -9.47498
  140 324.466 4.47927 -9.47498
  141 322.974 4.36193 8.53763
  142 322.974 4.36193 8.53763
  143 309.230 10.6303 -0.346357
  144 309.230 10.6303 -0.346357
  145 258.384 17.1633 -2.02009
  146 258.384 17.1633 -2.02009
  147 375.252 -13.3922 5.84847
  148 375.252 -13.3922 5.84847
  149 429.045 -15.1072 -16.5299
  150 429.045 -15.1072 -16.5299
  151 331.242 -36.8852 51.8322
  152 331.242 -36.8852 51.8322
  153 250.199 -67.6790 -116.554
  154 250.199 -67.6790 -116.554
  155 294.412 12.0848 17.8981
  156 294.412 12.0848 17.8981
  157 381.766 -2.35170 -14.0818
  158 381.766 -2.35170 -14.0818
  159 521.485 41.3545 29.5901
  160 521.485 41.3545 29.5901
  161 260.592 -72.4288 134.977
  162 260.592 -72.4288 134.977
  163 532.844 17.6766 -6.07944
  164 532.844 17.6766 -6.07944
  165 307.992 10.5960 8.34145
  166 307.992 10.5960 8.34145
  167 292.616 9.98642 -26.1646
  168 292.616 9.98642 -26.1646
  169 362.370 10.9087 8.42955
  170 362.370 10.9087 8.42955
  171 305.103 12.6383 -9.46629
  172 305.103 12.6383 -9.46629
  173 317.547 5.13264 1.39325
  174 317.547 5.13264 1.39325
  175 322.834 2.49069 -5.05788
  176 322.834 2.49069 -5.05788
  177 500.071 39.1046 -29.2312
  178 500.071 39.1046 -29.2312
  179 317.805 4.99438 -1.68286
  180 317.805 4.99438 -1.68286
  181 234.233 17.1245 -13.6011
  182 234.233 17.1245 -13.6011
  183 423.209 31.2595 2.79735
  184 423.209 31.2595 2.79735
  185 85.6155 -71.4746 -81.2565
  186 85.6155 -71.4746 -81.2565
  187 230.991 -2.50778 57.3838
  188 230.991 -2.50778 57.3838
  189 309.057 -49.7823 -80.5798
  190 309.057 -49.7823 -80.5798
  191 364.915 -10.0071 4.40292
  192 364.915 -10.0071 4.40292
  193 341.424 -1.13496 13.0767
  194 341.424 -1.13496 13.0767
  195 464.712 13.3803 27.3710
  196 464.712 13.3803 27.3710
  197 192.456 6.06599 -35.4165
  198 192.456 6.06599 -35.4165
  199 528.172 23.6694 13.9021
  200 528.172 23.6694 13.9021
  201 347.794 -4.24028 -13.6994
  202 347.794 -4.24028 -13.6994
  203 323.341 1.77970 4.66521
  204 323.341 1.77970 4.66521
  205 362.069 -14.1448 -6.97391
  206 362.069 -14.1448 -6.97391
  207 396.123 -19.9697 -2.34050
  208 396.123 -19.9697 -2.34050
  209 24.6656 -146.072 12.0268
  210 24.6656 -146.072 12.0268
  211 333.499 1.77767 -11.5656
  212 333.499 1.77767 -11.5656
  213 330.697 2.61874 10.1168
  214 330.697 2.61874 10.1168
  215 318.155 -29.1780 -51.3824
  216 318.155 -29.1780 -51.3824
  217 371.641 -7.88176 -8.67398
  218 371.641 -7.88176 -8.67398
  219 304.048 10.9976 -17.8972
  220 304.048 10.9976 -17.8972
  221 83.8245 -104.967 88.9705
  222 83.8245 -104.967 88.9705
  223 376.586 1.63680 13.2912
  224 376.586 1.63680 13.2912
  225 365.710 9.25736 -11.1900
  226 365.710 9.25736 -11.1900
  227 522.196 31.2008 -23.7103
  228 522.196 31.2008 -23.7103
  229 397.478 -14.7969 -6.83302
  230 397.478 -14.7969 -6.83302
  231 434.622 -20.0049 -76.2018
  232 434.622 -20.0049 -76.2018
  233 319.160 -14.3790 39.6523
  234 319.160 -14.3790 39.6523
  235 312.658 8.88323 1.41368
  236 312.658 8.88323 1.41368
  237 165.807 -24.5213 74.2072
  238 165.807 -24.5213 74.2072
  239 415.939 -36.2573 89.2620
  240 415.939 -36.2573 89.2620
  241 112.429 -14.8673 -36.6566
  242 112.429 -14.8673 -36.6566
  243 369.727 -27.7208 -17.6921
  244 369.727 -27.7208 -17.6921
  245 301.002 13.6185 10.3653
  246 301.002 13.6185 10.3653
  247 10.8617 -189.904 -9.75628
  248 10.8617 -189.904 -9.75628
  249 20.7710 -167.172 32.3713
  250 20.7710 -167.172 32.3713
  251 306.578 2.14345 28.5954
  252 306.578 2.14345 28.5954
  253 320.286 1.22437 1.15510
  254 320.286 1.22437 1.15510
  255 317.517 5.17211 0.219152
  256 317.517 5.17211 0.219152
  257 297.925 -3.67520 -37.9467
  258 297.925 -3.67520 -37.9467
  259 320.484 1.11422 -1.22345
  260 320.484 1.11422 -1.22345
  261 354.834 -24.9496 23.6728
  262 354.834 -24.9496 23.6728
  263 329.117 1.17221 -5.65818
  264 329.117 1.17221 -5.65818
  265 254.750 -21.5716 -70.3135
  266 254.750 -21.5716 -70.3135
  267 434.392 33.3069 -1.59019
  268 434.392 33.3069 -1.59019
  269 317.094 7.07208 -14.6154
  270 317.094 7.07208 -14.6154
  271 315.847 6.62025 -2.93684
  272 315.847 6.62025 -2.93684
  273 268.212 13.0428 -26.1275
  274 268.212 13.0428 -26.1275
  275 81.3359 -31.9597 21.0793
  276 81.3359 -31.9597 21.0793
  277 339.130 -56.1490 71.8600
  278 339.130 -56.1490 71.8600
  279 319.285 4.77800 5.73680
  280 319.285 4.77800 5.73680
  281 474.322 33.6103 -7.29089
  282 474.322 33.6103 -7.29089
  283 568.390 48.0868 66.2596
  284 568.390 48.0868 66.2596
  285 380.815 -40.4146 23.3523
  286 380.815 -40.4146 23.3523
  287 273.533 13.7006 19.1891
  288 273.533 13.7006 19.1891
  289 348.932 -69.2523 94.7548
  290 348.932 -69.2523 94.7548
  291 359.122 -4.20103 8.82943
  292 359.122 -4.20103 8.82943
  293 319.091 3.14873 1.57836
  294 319.091 3.14873 1.57836
  295 314.496 8.67380 -9.34346
  296 314.496 8.67380 -9.34346
  297 317.599 5.08889 -0.433480
  298 317.599 5.08889 -0.433480
  299 322.242 0.894401 -2.20470
  300 322.242 0.894401 -2.20470
  301 328.812 1.64195 5.68038
  302 328.812 1.64195 5.68038
  303 312.750 8.83542 -2.40374
  304 312.750 8.83542 -2.40374
  305 71.9821 -122.501 -84.5396
  306 71.9821 -122.501 -84.5396
  307 214.317 13.9340 17.8042
  308 214.317 13.9340 17.8042
  309 319.455 2.62637 -1.51708
  310 319.455 2.62637 -1.51708
  311 281.183 16.2350 -12.8578
  312 281.183 16.2350 -12.8578
  313 281.892 17.7045 4.90902
  314 281.892 17.7045 4.90902
  315 318.767 4.59452 -4.06863
  316 318.767 4.59452 -4.06863
  317 427.988 22.2794 -0.978816
  318 427.988 22.2794 -0.978816
  319 316.350 7.68632 12.8192
  320 316.350 7.68632 12.8192
  321 403.972 12.5693 -11.1044
  322 403.972 12.5693 -11.1044
  323 597.379 16.9671 40.0888
  324 597.379 16.9671 40.0888
  325 315.145 7.95960 8.07571
  326 315.145 7.95960 8.07571
  327 310.090 10.5315 4.22434
  328 310.090 10.5315 4.22434
  329 243.624 -53.5318 -133.830
  330 243.624 -53.5318 -133.830
  331 322.430 0.808701 2.15689
  332 322.430 0.808701 2.15689
  333 315.535 6.67177 2.19416
  334 315.535 6.67177 2.19416
  335 303.785 13.6411 0.483747
  336 303.785 13.6411 0.483747
  337 157.178 -55.6998 107.785
  338 157.178 -55.6998 107.785
  339 391.680 25.6198 1.95510
  340 391.680 25.6198 1.95510
  341 22.5480 -163.726 -37.5447
  342 22.5480 -163.726 -37.5447
  343 244.054 15.4065 15.8730
  344 244.054 15.4065 15.8730
  345 565.117 7.76413 5.58442
  346 565.117 7.76413 5.58442
  347 589.944 29.8149 -41.2602
  348 589.944 29.8149 -41.2602
  349 275.826 -31.8315 78.6640
  350 287.530 -16.3839 58.3061
  351 275.826 -31.8315 78.6640
  352 287.530 -16.3839 58.3061
  353 573.251 14.3531 21.0135
  354 573.251 14.3531 21.0135
  355 326.548 -0.443282 22.3082
  356 326.548 -0.443282 22.3082
  357 387.308 -52.2412 -55.5575
  358 387.308 -52.2412 -55.5575
  359 367.432 -3.18836 10.8377
  360 367.432 -3.18836 10.8377
  361 249.377 -53.4700 146.559
  362 249.377 -53.4700 146.559
  363 429.473 34.4614 -1.16556
  364 429.473 34.4614 -1.16556
  365 572.977 5.26394 -4.39706
  366 572.977 5.26394 -4.39706
  367 347.728 0.191791 -10.9222
  368 347.728 0.191791 -10.9222
  369 310.098 11.1970 -5.05517
  370 310.098 11.1970 -5.05517
  371 480.077 37.2585 12.0417
  372 480.077 37.2585 12.0417
  373 367.530 15.3264 -2.36596
  374 367.530 15.3264 -2.36596
  375 335.070 1.28597 -7.00822
  376 335.070 1.28597 -7.00822
  377 90.8282 -45.3748 -61.8251
  378 90.8282 -45.3748 -61.8251
  379 370.494 -6.65807 3.01663
  380 370.494 -6.65807 3.01663
  381 316.909 -0.488215 -26.3058
  382 316.909 -0.488215 -26.3058
  383 364.765 -0.768146 -12.9300
  384 364.765 -0.768146 -12.9300
  385 575.459 10.1952 -17.4126
  386 575.459 10.1952 -17.4126
  387 317.955 4.91935 3.21753
  388 317.955 4.91935 3.21753
  389 387.874 18.8738 10.8289
  390 387.874 18.8738 10.8289
  391 418.818 -9.18188 3.66181
  392 418.818 -9.18188 3.66181
  393 319.150 5.78151 -7.17068
  394 319.150 5.78151 -7.17068
  395 609.046 56.4492 -76.9400
  396 609.046 56.4492 -76.9400
  397 365.706 -5.30228 -3.76808
  398 365.706 -5.30228 -3.76808
</Section>

newXOutput 94

<Section columns = "stress_xx | stress_yy | stress_xy">
  1 323.048 0.314403 -0.366310
  2 323.193 0.390651 0.494043
  3 323.048 0.314403 -0.366310
  4 323.193 0.390651 0.494043
  5 498.930 32.0527 139.330
  6 518.492 31.0851 -137.067
  7 498.930 32.0527 139.330
  8 518.492 31.0851 -137.067
  9 323.860 0.222283 -0.960874
  10 326.557 0.394040 -1.70631
  11 330.452 0.895148 -3.45939
  12 339.396 0.337107 -4.64328
  13 350.861 0.563184 -7.59023
  14 364.247 -3.21960 -7.44701
  15 376.478 -3.88952 -0.819163
  16 370.481 -2.67924 6.31905
  17 356.235 2.75945 11.0867
  18 348.480 6.81607 -0.431321
  19 354.144 3.27344 -10.4011
  20 370.090 -3.98022 -7.70267
  21 373.035 -4.72168 2.46087
  22 366.146 -2.12801 6.41308
  23 348.450 0.125538 7.62789
  24 338.606 1.28337 5.87723
  25 330.683 1.02716 3.32527
  26 326.616 0.316756 1.56365
  27 324.041 0.262679 0.927408
  28 323.678 1.16064 0.577172
  29 323.093 2.38330 0.670304
  30 321.653 4.14475 0.595946
  31 321.076 4.82047 -0.0577794
  32 321.816 3.93154 -0.715072
  33 322.849 2.59827 -0.610499
  34 323.303 1.31551 -0.645101
  35 323.860 0.222283 -0.960874
  36 326.557 0.394040 -1.70631
  37 330.452 0.895148 -3.45939
  38 339.396 0.337107 -4.64328
  39 350.861 0.563184 -7.59023
  40 364.247 -3.21960 -7.44701
  41 376.478 -3.88952 -0.819163
  42 370.481 -2.67924 6.31905
  43 356.235 2.75945 11.0867
  44 348.480 6.81607 -0.431321
  45 354.144 3.27344 -10.4011
  46 370.090 -3.98022 -7.70267
  47 373.035 -4.72168 2.46087
  48 366.146 -2.12801 6.41308
  49 348.450 0.125538 7.62789
  50 338.606 1.28337 5.87723
  51 330.683 1.02716 3.32527
  52 326.616 0.316756 1.56365
  53 324.041 0.262679 0.927408
  54 323.678 1.16064 0.577172
  55 323.093 2.38330 0.670304
  56 321.653 4.14475 0.595946
  57 321.076 4.82047 -0.0577794
  58 321.816 3.93154 -0.715072
  59 322.849 2.59827 -0.610499
  60 323.303 1.31551 -0.645101
  61 691.323 35.8443 72.2143
  62 630.259 10.3271 25.6430
  63 594.297 4.34072 9.50054
  64 586.620 3.13578 1.87529
  65 593.998 4.14742 -8.11706
  66 621.380 8.86698 -22.2805
  67 697.809 31.2099 -62.1754
  68 92.1077 -102.514 -113.688
  69 18.2158 -234.314 -28.9468
  70 5.21150 -266.374 -12.6550
  71 4.97858 -261.568 -6.46784
  72 8.42599 -254.500 13.5334
  73 19.7495 -227.100 30.6403
  74 99.9515 -95.5645 126.034
  75 691.323 35.8443 72.2143
  76 630.259 10.3271 25.6430
  77 594.297 4.34072 9.50054
  78 586.620 3.13578 1.87529
  79 593.998 4.14742 -8.11706
  80 621.380 8.86698 -22.2805
  81 697.809 31.2099 -62.1754
  82 92.1077 -102.514 -113.688
  83 18.2158 -234.314 -28.9468
  84 5.21150 -266.374 -12.6550
  85 4.97858 -261.568 -6.46784
  86 8.42599 -254.500 13.5334
  87 19.7495 -227.100 30.6403
  88 99.9515 -95.5645 126.034
  89 296.808 17.0085 -4.42796
  90 296.808 17.0085 -4.42796
  91 271.026 3.75603 39.9448
  92 260.410 -1.62174 -47.6465
  93 271.026 3.75603 39.9448
  94 260.410 -1.62174 -47.6465
  95 153.371 3.87390 19.1363
  96 153.371 3.87390 19.1363
  97 398.288 25.6157 -6.22711
  98 406.004 14.6239 12.5316
  99 398.288 25.6157 -6.22711
  100 406.004 14.6239 12.5316
  101 318.464 7.71765 4.43895
  102 318.464 7.71765 4.43895
  103 381.084 -21.6761 0.369274
  104 381.084 -21.6761 0.369274
  105 318.857 8.06606 -5.47622
  106 318.857 8.06606 -5.47622
  107 374.543 -46.1678 -42.0416
  108 374.543 -46.1678 -42.0416
  109 261.938 -54.4754 105.067
  110 261.938 -54.4754 105.067
  111 176.913 -31.9795 -84.6940
  112 176.913 -31.9795 -84.6940
  113 320.158 5.39022 18.9862
  114 320.158 5.39022 18.9862
  115 331.884 2.26458 -18.1484
  116 331.884 2.26458 -18.1484
  117 450.505 30.1907 4.27935
  118 482.691 31.3210 2.73965
  119 450.505 30.1907 4.27935
  120 482.691 31.3210 2.73965
  121 472.606 39.8338 -12.1966
  122 472.606 39.8338 -12.1966
  123 51.7488 -85.1042 -27.6754
  124 51.7488 -85.1042 -27.6754
  125 406.878 -50.5381 45.3891
  126 406.878 -50.5381 45.3891
  127 343.162 -8.26528 21.3419
  128 343.162 -8.26528 21.3419
  129 78.7983 -73.5070 63.6538
  130 78.7983 -73.5070 63.6538
  131 318.924 6.44838 -0.281051
  132 318.924 6.44838 -0.281051
  133 342.622 -15.9522 -27.1943
  134 342.622 -15.9522 -27.1943
  135 324.003 2.63973 3.21757
  136 324.003 2.63973 3.21757
  137 324.293 2.32095 -3.00276
  138 324.293 2.32095 -3.00276
  139 327.858 4.52450 -9.56948
  140 327.858 4.52450 -9.56948
  141 326.351 4.40612 8.62245
  142 326.351 4.40612 8.62245
  143 312.476 10.7388 -0.349898
  144 312.476 10.7388 -0.349898
  145 261.122 17.3432 -2.04132
  146 261.122 17.3432 -2.04132
  147 379.157 -13.5306 5.88981
  148 379.157 -13.5306 5.88981
  149 433.473 -15.2411 -16.7493
  150 433.473 -15.2411 -16.7493
  151 334.690 -37.2740 52.3836
  152 334.690 -37.2740 52.3836
  153 252.801 -68.3779 -117.822
  154 252.801 -68.3779 -117.822
  155 297.510 12.2101 18.0816
  156 297.510 12.2101 18.0816
  157 385.742 -2.37228 -14.2042
  158 385.742 -2.37228 -14.2042
  159 526.832 41.7909 29.9218
  160 526.832 41.7909 29.9218
  161 263.300 -73.1843 136.435
  162 263.300 -73.1843 136.435
  163 538.285 17.8503 -6.14359
  164 538.285 17.8503 -6.14359
  165 311.226 10.7043 8.42514
  166 311.226 10.7043 8.42514
  167 295.694 10.0903 -26.4348
  168 295.694 10.0903 -26.4348
  169 366.173 11.0267 8.50812
  170 366.173 11.0267 8.50812
  171 308.308 12.7680 -9.56172
  172 308.308 12.7680 -9.56172
  173 320.873 5.18460 1.40683
  174 320.873 5.18460 1.40683
  175 326.209 2.51590 -5.10751
  176 326.209 2.51590 -5.10751
  177 505.207 39.5378 -29.5800
  178 505.207 39.5378 -29.5800
  179 321.133 5.04500 -1.69923
  180 321.133 5.04500 -1.69923
  181 236.722 17.3070 -13.7432
  182 236.722 17.3070 -13.7432
  183 427.611 31.5891 2.80411
  184 427.611 31.5891 2.80411
  185 86.5264 -72.2065 -82.1585
  186 86.5264 -72.2065 -82.1585
  187 233.435 -2.53120 57.9876
  188 233.435 -2.53120 57.9876
  189 312.273 -50.3075 -81.4411
  190 312.273 -50.3075 -81.4411
  191 368.712 -10.1132 4.45911
  192 368.712 -10.1132 4.45911
  193 344.982 -1.14842 13.2116
  194 344.982 -1.14842 13.2116
  195 469.496 13.5516 27.7074
  196 469.496 13.5516 27.7074
  197 194.509 6.13657 -35.7913
  198 194.509 6.13657 -35.7913
  199 533.576 23.9059 14.0515
  200 533.576 23.9059 14.0515
  201 351.417 -4.28641 -13.8441
  202 351.417 -4.28641 -13.8441
  203 326.722 1.79766 4.71092
  204 326.722 1.79766 4.71092
  205 365.837 -14.2948 -7.05792
  206 365.837 -14.2948 -7.05792
  207 400.230 -20.1713 -2.39609
  208 400.230 -20.1713 -2.39609
  209 24.9254 -147.611 12.1655
  210 24.9254 -147.611 12.1655
  211 336.978 1.79452 -11.6826
  212 336.978 1.79452 -11.6826
  213 334.149 2.64490 10.2185
  214 334.149 2.64490 10.2185
  215 321.474 -29.4854 -51.9274
  216 321.474 -29.4854 -51.9274
  217 375.514 -7.96416 -8.74735
  218 375.514 -7.96416 -8.74735
  219 307.241 11.1109 -18.0804
  220 307.241 11.1109 -18.0804
  221 84.7051 -106.041 89.9669
  222 84.7051 -106.041 89.9669
  223 380.518 1.65899 13.4090
  224 380.518 1.65899 13.4090
  225 369.543 9.35791 -11.2928
  226 369.543 9.35791 -11.2928
  227 527.547 31.5190 -23.9710
  228 527.547 31.5190 -23.9710
  229 401.601 -14.9442 -6.87243
  230 401.601 -14.9442 -6.87243
  231 439.084 -20.1643 -77.0546
  232 439.084 -20.1643 -77.0546
  233 322.494 -14.5302 40.0685
  234 322.494 -14.5302 40.0685
  235 315.938 8.97367 1.42768
  236 315.938 8.97367 1.42768
  237 167.570 -24.7729 75.0043
  238 167.570 -24.7729 75.0043
  239 420.209 -36.5964 90.2483
  240 420.209 -36.5964 90.2483
  241 113.641 -15.0074 -37.0534
  242 113.641 -15.0074 -37.0534
  243 373.566 -28.0117 -17.8939
  244 373.566 -28.0117 -17.8939
  245 304.167 13.7588 10.4705
  246 304.167 13.7588 10.4705
  247 10.9705 -191.923 -9.87096
  248 10.9705 -191.923 -9.87096
  249 20.9875 -168.932 32.7497
  250 20.9875 -168.932 32.7497
  251 309.793 2.16528 28.8915
  252 309.793 2.16528 28.8915
  253 323.638 1.23690 1.16624
  254 323.638 1.23690 1.16624
  255 320.843 5.22435 0.221297
  256 320.843 5.22435 0.221297
  257 301.051 -3.71418 -38.3428
  258 301.051 -3.71418 -38.3428
  259 323.837 1.12567 -1.23526
  260 323.837 1.12567 -1.23526
  261 358.524 -25.2120 23.9316
  262 358.524 -25.2120 23.9316
  263 332.553 1.18387 -5.71394
  264 332.553 1.18387 -5.71394
  265 257.428 -21.7986 -71.0575
  266 257.428 -21.7986 -71.0575
  267 438.904 33.6563 -1.58454
  268 438.904 33.6563 -1.58454
  269 320.416 7.14397 -14.7633
  270 320.416 7.14397 -14.7633
  271 319.157 6.68748 -2.96563
  272 319.157 6.68748 -2.96563
  273 271.046 13.1799 -26.3985
  274 271.046 13.1799 -26.3985
  275 82.2149 -32.2733 21.3108
  276 82.2149 -32.2733 21.3108
  277 342.646 -56.7404 72.6308
  278 342.646 -56.7404 72.6308
  279 322.627 4.82653 5.79325
  280 322.627 4.82653 5.79325
  281 479.222 33.9540 -7.37796
  282 479.222 33.9540 -7.37796
  283 574.171 48.6251 66.9819
  284 574.171 48.6251 66.9819
  285 384.759 -40.8354 23.6215
  286 384.759 -40.8354 23.6215
  287 276.422 13.8440 19.3868
  288 276.422 13.8440 19.3868
  289 352.537 -69.9785 95.7740
  290 352.537 -69.9785 95.7740
  291 362.857 -4.24636 8.92424
  292 362.857 -4.24636 8.92424
  293 322.431 3.18067 1.59367
  294 322.431 3.18067 1.59367
  295 317.792 8.76227 -9.43673
  296 317.792 8.76227 -9.43673
  297 320.925 5.14031 -0.437687
  298 320.925 5.14031 -0.437687
  299 325.611 0.903524 -2.22609
  300 325.611 0.903524 -2.22609
  301 332.245 1.65842 5.73635
  302 332.245 1.65842 5.73635
  303 316.030 8.92539 -2.42753
  304 316.030 8.92539 -2.42753
  305 72.7361 -123.752 -85.4918
  306 72.7361 -123.752 -85.4918
  307 216.601 14.0849 17.9904
  308 216.601 14.0849 17.9904
  309 322.798 2.65307 -1.53176
  310 322.798 2.65307 -1.53176
  311 284.150 16.4038 -12.9900
  312 284.150 16.4038 -12.9900
  313 284.867 17.8884 4.95912
  314 284.867 17.8884 4.95912
  315 322.104 4.64118 -4.10849
  316 322.104 4.64118 -4.10849
  317 432.424 22.5281 -1.02942
  318 432.424 22.5281 -1.02942
  319 319.664 7.76471 12.9481
  320 319.664 7.76471 12.9481
  321 408.174 12.7093 -11.1896
  322 408.174 12.7093 -11.1896
  323 603.426 17.1353 40.5059
  324 603.426 17.1353 40.5059
  325 318.448 8.04072 8.15607
  326 318.448 8.04072 8.15607
  327 313.344 10.6390 4.26638
  328 313.344 10.6390 4.26638
  329 246.137 -54.0001 -135.305
  330 246.137 -54.0001 -135.305
  331 325.801 0.816941 2.17781
  332 325.801 0.816941 2.17781
  333 318.842 6.73947 2.21569
  334 318.842 6.73947 2.21569
  335 306.978 13.7811 0.488580
  336 306.978 13.7811 0.488580
  337 158.840 -56.2812 108.958
  338 158.840 -56.2812 108.958
  339 395.774 25.8906 1.97026
  340 395.774 25.8906 1.97026
  341 22.7806 -165.448 -37.9776
  342 22.7806 -165.448 -37.9776
  343 246.645 15.5697 16.0375
  344 246.645 15.5697 16.0375
  345 570.845 7.83875 5.63930
  346 570.845 7.83875 5.63930
  347 595.932 30.1257 -41.6935
  348 595.932 30.1257 -41.6935
  349 278.713 -32.1677 79.4967
  350 290.543 -16.5560 58.9175
  351 278.713 -32.1677 79.4967
  352 290.543 -16.5560 58.9175
  353 579.063 14.4933 21.2278
  354 579.063 14.4933 21.2278
  355 329.961 -0.449220 22.5389
  356 329.961 -0.449220 22.5389
  357 391.304 -52.7822 -56.1688
  358 391.304 -52.7822 -56.1688
  359 371.269 -3.22027 10.9369
  360 371.269 -3.22027 10.9369
  361 251.937 -53.9430 148.165
  362 251.937 -53.9430 148.165
  363 433.941 34.8188 -1.17676
  364 433.941 34.8188 -1.17676
  365 578.774 5.31407 -4.44129
  366 578.774 5.31407 -4.44129
  367 351.346 0.192173 -11.0341
  368 351.346 0.192173 -11.0341
  369 313.353 11.3114 -5.10560
  370 313.353 11.3114 -5.10560
  371 485.031 37.6448 12.1889
  372 485.031 37.6448 12.1889
  373 371.386 15.4897 -2.38775
  374 371.386 15.4897 -2.38775
  375 338.563 1.29842 -7.07805
  376 338.563 1.29842 -7.07805
  377 91.8091 -45.8353 -62.5048
  378 91.8091 -45.8353 -62.5048
  379 374.350 -6.72823 3.03777
  380 374.350 -6.72823 3.03777
  381 320.227 -0.494654 -26.5791
  382 320.227 -0.494654 -26.5791
  383 368.582 -0.774961 -13.0495
  384 368.582 -0.774961 -13.0495
  385 581.290 10.2956 -17.5890
  386 581.290 10.2956 -17.5890
  387 321.285 4.96923 3.24899
  388 321.285 4.96923 3.24899
  389 391.925 19.0767 10.9220
  390 391.925 19.0767 10.9220
  391 423.149 -9.26217 3.74086
  392 423.149 -9.26217 3.74086
  393 322.491 5.84029 -7.24154
  394 322.491 5.84029 -7.24154
  395 615.213 57.0879 -77.7723
  396 615.213 57.0879 -77.7723
  397 369.507 -5.35937 -3.81211
  398 369.507 -5.35937 -3.81211
</Section>

newXOutput 95

<Section columns = "stress_xx | stress_yy | stress_xy">
  1 326.391 0.317707 -0.369769
  2 326.538 0.394705 0.498702
  3 326.391 0.317707 -0.369769
  4 326.538 0.394705 0.498702
  5 503.919 32.5034 140.824
  6 523.667 31.5308 -138.538
  7 503.919 32.5034 140.824
  8 523.667 31.5308 -138.538
  9 327.211 0.224570 -0.969990
  10 329.933 0.398033 -1.72261
  11 333.864 0.904085 -3.49275
  12 342.893 0.340288 -4.68854
  13 354.469 0.568067 -7.66584
  14 367.987 -3.25450 -7.52383
  15 380.343 -3.93077 -0.831843
  16 374.305 -2.70686 6.37523
  17 359.936 2.79029 11.1898
  18 352.113 6.88924 -0.435409
  19 357.825 3.30822 -10.4984
  20 373.911 -4.02154 -7.77098
  21 376.867 -4.77186 2.49126
  22 369.905 -2.15094 6.47964
  23 352.035 0.125639 7.70430
  24 342.096 1.29593 5.93473
  25 334.097 1.03742 3.35728
  26 329.992 0.319973 1.57856
  27 327.393 0.265396 0.936237
  28 327.027 1.17237 0.582604
  29 326.436 2.40724 0.676672
  30 324.983 4.18615 0.601643
  31 324.402 4.86855 -0.0583296
  32 325.148 3.97085 -0.721876
  33 326.190 2.62438 -0.616220
  34 326.648 1.32886 -0.651236
  35 327.211 0.224570 -0.969990
  36 329.933 0.398033 -1.72261
  37 333.864 0.904085 -3.49275
  38 342.893 0.340288 -4.68854
  39 354.469 0.568067 -7.66584
  40 367.987 -3.25450 -7.52383
  41 380.343 -3.93077 -0.831843
  42 374.305 -2.70686 6.37523
  43 359.936 2.79029 11.1898
  44 352.113 6.88924 -0.435409
  45 357.825 3.30822 -10.4984
  46 373.911 -4.02154 -7.77098
  47 376.867 -4.77186 2.49126
  48 369.905 -2.15094 6.47964
  49 352.035 0.125639 7.70430
  50 342.096 1.29593 5.93473
  51 334.097 1.03742 3.35728
  52 329.992 0.319973 1.57856
  53 327.393 0.265396 0.936237
  54 327.027 1.17237 0.582604
  55 326.436 2.40724 0.676672
  56 324.983 4.18615 0.601643
  57 324.402 4.86855 -0.0583296
  58 325.148 3.97085 -0.721876
  59 326.190 2.62438 -0.616220
  60 326.648 1.32886 -0.651236
  61 698.170 36.2211 72.9508
  62 636.519 10.4277 25.8968
  63 600.220 4.37993 9.59204
  64 592.469 3.16474 1.89200
  65 599.917 4.18647 -8.19483
  66 627.559 8.95251 -22.4987
  67 704.721 31.5372 -62.8101
  68 93.0503 -103.457 -114.943
  69 18.4027 -236.764 -29.2940
  70 5.25596 -269.220 -12.8061
  71 5.02139 -264.369 -6.53694
  72 8.50658 -257.210 13.6956
  73 19.9546 -229.474 31.0092
  74 100.966 -96.4354 127.421
  75 698.170 36.2211 72.9508
  76 636.519 10.4277 25.8968
  77 600.220 4.37993 9.59204
  78 592.469 3.16474 1.89200
  79 599.917 4.18647 -8.19483
  80 627.559 8.95251 -22.4987
  81 704.721 31.5372 -62.8101
  82 93.0503 -103.457 -114.943
  83 18.4027 -236.764 -29.2940
  84 5.25596 -269.220 -12.8061
  85 5.02139 -264.369 -6.53694
  86 8.50658 -257.210 13.6956
  87 19.9546 -229.474 31.0092
  88 100.966 -96.4354 127.421
  89 299.899 17.1822 -4.47261
  90 299.899 17.1822 -4.47261
  91 273.853 3.79614 40.3561
  92 263.128 -1.63729 -48.1400
  93 273.853 3.79614 40.3561
  94 263.128 -1.63729 -48.1400
  95 155.003 3.92570 19.3376
  96 155.003 3.92570 19.3376
  97 402.403 25.8838 -6.27858
  98 410.182 14.7842 12.6293
  99 402.403 25.8838 -6.27858
  100 410.182 14.7842 12.6293
  101 321.765 7.79524 4.48224
  102 321.765 7.79524 4.48224
  103 385.001 -21.8992 0.395682
  104 385.001 -21.8992 0.395682
  105 322.161 8.14728 -5.52972
  106 322.161 8.14728 -5.52972
  107 378.378 -46.6464 -42.4951
  108 378.378 -46.6464 -42.4951
  109 264.645 -55.0448 106.179
  110 264.645 -55.0448 106.179
  111 178.766 -32.3075 -85.5955
  112 178.766 -32.3075 -85.5955
  113 323.473 5.44411 19.1778
  114 323.473 5.44411 19.1778
  115 335.313 2.28597 -18.3327
  116 335.313 2.28597 -18.3327
  117 455.118 30.5152 4.36355
  118 487.616 31.6351 2.77414
  119 455.118 30.5152 4.36355
  120 487.616 31.6351 2.77414
  121 477.438 40.2503 -12.3531
  122 477.438 40.2503 -12.3531
  123 52.2969 -85.9700 -27.9834
  124 52.2969 -85.9700 -27.9834
  125 411.026 -51.0479 45.8950
  126 411.026 -51.0479 45.8950
  127 346.701 -8.35226 21.5651
  128 346.701 -8.35226 21.5651
  129 79.6326 -74.2517 64.3551
  130 79.6326 -74.2517 64.3551
  131 322.229 6.51300 -0.283737
  132 322.229 6.51300 -0.283737
  133 346.154 -16.1189 -27.4812
  134 346.154 -16.1189 -27.4812
  135 327.355 2.66627 3.24854
  136 327.355 2.66627 3.24854
  137 327.647 2.34434 -3.03159
  138 327.647 2.34434 -3.03159
  139 331.247 4.56965 -9.66380
  140 331.247 4.56965 -9.66380
  141 329.726 4.45024 8.70711
  142 329.726 4.45024 8.70711
  143 315.719 10.8472 -0.353434
  144 315.719 10.8472 -0.353434
  145 263.859 17.5229 -2.06253
  146 263.859 17.5229 -2.06253
  147 383.059 -13.6688 5.93070
  148 383.059 -13.6688 5.93070
  149 437.896 -15.3743 -16.9694
  150 437.896 -15.3743 -16.9694
  151 338.134 -37.6624 52.9348
  152 338.134 -37.6624 52.9348
  153 255.401 -69.0761 -119.089
  154 255.401 -69.0761 -119.089
  155 300.605 12.3353 18.2648
  156 300.605 12.3353 18.2648
  157 389.715 -2.39277 -14.3261
  158 389.715 -2.39277 -14.3261
  159 532.173 42.2269 30.2536
  160 532.173 42.2269 30.2536
  161 266.005 -73.9391 137.894
  162 266.005 -73.9391 137.894
  163 543.719 18.0236 -6.20770
  164 543.719 18.0236 -6.20770
  165 314.457 10.8125 8.50869
  166 314.457 10.8125 8.50869
  167 298.769 10.1940 -26.7048
  168 298.769 10.1940 -26.7048
  169 369.974 11.1448 8.58642
  170 369.974 11.1448 8.58642
  171 311.511 12.8975 -9.65700
  172 311.511 12.8975 -9.65700
  173 324.196 5.23648 1.42038
  174 324.196 5.23648 1.42038
  175 329.582 2.54109 -5.15702
  176 329.582 2.54109 -5.15702
  177 510.338 39.9711 -29.9293
  178 510.338 39.9711 -29.9293
  179 324.458 5.09555 -1.71556
  180 324.458 5.09555 -1.71556
  181 239.211 17.4894 -13.8851
  182 239.211 17.4894 -13.8851
  183 432.009 31.9185 2.81040
  184 432.009 31.9185 2.81040
  185 87.4368 -72.9376 -83.0609
  186 87.4368 -72.9376 -83.0609
  187 235.878 -2.55455 58.5910
  188 235.878 -2.55455 58.5910
  189 315.486 -50.8323 -82.3021
  190 315.486 -50.8323 -82.3021
  191 372.506 -10.2192 4.51547
  192 372.506 -10.2192 4.51547
  193 348.538 -1.16191 13.3464
  194 348.538 -1.16191 13.3464
  195 474.274 13.7233 28.0445
  196 474.274 13.7233 28.0445
  197 196.562 6.20724 -36.1659
  198 196.562 6.20724 -36.1659
  199 538.972 24.1419 14.2007
  200 538.972 24.1419 14.2007
  201 355.036 -4.33255 -13.9888
  202 355.036 -4.33255 -13.9888
  203 330.099 1.81559 4.75653
  204 330.099 1.81559 4.75653
  205 369.601 -14.4447 -7.14209
  206 369.601 -14.4447 -7.14209
  207 404.334 -20.3727 -2.45228
  208 404.334 -20.3727 -2.45228
  209 25.1849 -149.149 12.3043
  210 25.1849 -149.149 12.3043
  211 340.455 1.81133 -11.7994
  212 340.455 1.81133 -11.7994
  213 337.598 2.67102 10.3200
  214 337.598 2.67102 10.3200
  215 324.791 -29.7925 -52.4722
  216 324.791 -29.7925 -52.4722
  217 379.384 -8.04648 -8.82030
  218 379.384 -8.04648 -8.82030
  219 310.431 11.2241 -18.2634
  220 310.431 11.2241 -18.2634
  221 85.5851 -107.113 90.9639
  222 85.5851 -107.113 90.9639
  223 384.446 1.68127 13.5263
  224 384.446 1.68127 13.5263
  225 373.374 9.45847 -11.3953
  226 373.374 9.45847 -11.3953
  227 532.892 31.8369 -24.2318
  228 532.892 31.8369 -24.2318
  229 405.720 -15.0912 -6.91115
  230 405.720 -15.0912 -6.91115
  231 443.541 -20.3225 -77.9078
  232 443.541 -20.3225 -77.9078
  233 325.825 -14.6812 40.4843
  234 325.825 -14.6812 40.4843
  235 319.214 9.06398 1.44165
  236 319.214 9.06398 1.44165
  237 169.331 -25.0242 75.8011
  238 169.331 -25.0242 75.8011
  239 424.473 -36.9344 91.2348
  240 424.473 -36.9344 91.2348
  241 114.852 -15.1471 -37.4501
  242 114.852 -15.1471 -37.4501
  243 377.401 -28.3024 -18.0959
  244 377.401 -28.3024 -18.0959
  245 307.329 13.8990 10.5755
  246 307.329 13.8990 10.5755
  247 11.0791 -193.942 -9.98582
  248 11.0791 -193.942 -9.98582
  249 21.2039 -170.691 33.1287
  250 21.2039 -170.691 33.1287
  251 313.005 2.18708 29.1873
  252 313.005 2.18708 29.1873
  253 326.986 1.24940 1.17736
  254 326.986 1.24940 1.17736
  255 324.165 5.27652 0.223438
  256 324.165 5.27652 0.223438
  257 304.174 -3.75313 -38.7386
  258 304.174 -3.75313 -38.7386
  259 327.187 1.13710 -1.24703
  260 327.187 1.13710 -1.24703
  261 362.211 -25.4742 24.1905
  262 362.211 -25.4742 24.1905
  263 335.985 1.19550 -5.76958
  264 335.985 1.19550 -5.76958
  265 260.105 -22.0255 -71.8010
  266 260.105 -22.0255 -71.8010
  267 443.412 34.0056 -1.57844
  268 443.412 34.0056 -1.57844
  269 323.734 7.21575 -14.9109
  270 323.734 7.21575 -14.9109
  271 322.464 6.75462 -2.99436
  272 322.464 6.75462 -2.99436
  273 273.878 13.3170 -26.6693
  274 273.878 13.3170 -26.6693
  275 83.0939 -32.5863 21.5423
  276 83.0939 -32.5863 21.5423
  277 346.159 -57.3314 73.4013
  278 346.159 -57.3314 73.4013
  279 325.967 4.87499 5.84958
  280 325.967 4.87499 5.84958
  281 484.116 34.2972 -7.46516
  282 484.116 34.2972 -7.46516
  283 579.944 49.1637 67.7041
  284 579.944 49.1637 67.7041
  285 388.699 -41.2558 23.8910
  286 388.699 -41.2558 23.8910
  287 279.309 13.9873 19.5843
  288 279.309 13.9873 19.5843
  289 356.138 -70.7041 96.7930
  290 356.138 -70.7041 96.7930
  291 366.588 -4.29168 9.01903
  292 366.588 -4.29168 9.01903
  293 325.768 3.21255 1.60894
  294 325.768 3.21255 1.60894
  295 321.086 8.85062 -9.52982
  296 321.086 8.85062 -9.52982
  297 324.249 5.19165 -0.441884
  298 324.249 5.19165 -0.441884
  299 328.978 0.912634 -2.24742
  300 328.978 0.912634 -2.24742
  301 335.675 1.67485 5.79221
  302 335.675 1.67485 5.79221
  303 319.307 9.01524 -2.45128
  304 319.307 9.01524 -2.45128
  305 73.4895 -125.001 -86.4447
  306 73.4895 -125.001 -86.4447
  307 218.884 14.2357 18.1764
  308 218.884 14.2357 18.1764
  309 326.138 2.67973 -1.54640
  310 326.138 2.67973 -1.54640
  311 287.115 16.5724 -13.1221
  312 287.115 16.5724 -13.1221
  313 287.840 18.0722 5.00916
  314 287.840 18.0722 5.00916
  315 325.439 4.68778 -4.14825
  316 325.439 4.68778 -4.14825
  317 436.857 22.7769 -1.08081
  318 436.857 22.7769 -1.08081
  319 322.975 7.84299 13.0768
  320 322.975 7.84299 13.0768
  321 412.372 12.8493 -11.2741
  322 412.372 12.8493 -11.2741
  323 609.464 17.3031 40.9226
  324 609.464 17.3031 40.9226
  325 321.748 8.12174 8.23627
  326 321.748 8.12174 8.23627
  327 316.596 10.7464 4.30833
  328 316.596 10.7464 4.30833
  329 248.647 -54.4660 -136.779
  330 248.647 -54.4660 -136.779
  331 329.170 0.825169 2.19867
  332 329.170 0.825169 2.19867
  333 322.146 6.80708 2.23717
  334 322.146 6.80708 2.23717
  335 310.169 13.9209 0.493405
  336 310.169 13.9209 0.493405
  337 160.501 -56.8622 110.132
  338 160.501 -56.8622 110.132
  339 399.866 26.1612 1.98530
  340 399.866 26.1612 1.98530
  341 23.0129 -167.169 -38.4109
  342 23.0129 -167.169 -38.4109
  343 249.234 15.7328 16.2019
  344 249.234 15.7328 16.2019
  345 576.565 7.91318 5.69407
  346 576.565 7.91318 5.69407
  347 601.910 30.4363 -42.1264
  348 601.910 30.4363 -42.1264
  349 281.597 -32.5037 80.3290
  350 293.555 -16.7280 59.5285
  351 281.597 -32.5037 80.3290
  352 293.555 -16.7280 59.5285
  353 584.868 14.6331 21.4419
  354 584.868 14.6331 21.4419
  355 333.371 -0.455180 22.7694
  356 333.371 -0.455180 22.7694
  357 395.295 -53.3226 -56.7803
  358 395.295 -53.3226 -56.7803
  359 375.103 -3.25212 11.0358
  360 375.103 -3.25212 11.0358
  361 254.494 -54.4138 149.771
  362 254.494 -54.4138 149.771
  363 438.404 35.1758 -1.18793
  364 438.404 35.1758 -1.18793
  365 584.562 5.36406 -4.48545
  366 584.562 5.36406 -4.48545
  367 354.961 0.192521 -11.1458
  368 354.961 0.192521 -11.1458
  369 316.605 11.4258 -5.15593
  370 316.605 11.4258 -5.15593
  371 489.980 38.0307 12.3364
  372 489.980 38.0307 12.3364
  373 375.238 15.6530 -2.40946
  374 375.238 15.6530 -2.40946
  375 342.053 1.31084 -7.14775
  376 342.053 1.31084 -7.14775
  377 92.7900 -46.2952 -63.1847
  378 92.7900 -46.2952 -63.1847
  379 378.203 -6.79834 3.05868
  380 378.203 -6.79834 3.05868
  381 323.541 -0.501116 -26.8521
  382 323.541 -0.501116 -26.8521
  383 372.395 -0.781744 -13.1685
  384 372.395 -0.781744 -13.1685
  385 587.113 10.3957 -17.7651
  386 587.113 10.3957 -17.7651
  387 324.612 5.01905 3.28039
  388 324.612 5.01905 3.28039
  389 395.971 19.2795 11.0146
  390 395.971 19.2795 11.0146
  391 427.475 -9.34207 3.82069
  392 427.475 -9.34207 3.82069
  393 325.829 5.89900 -7.31226
  394 325.829 5.89900 -7.31226
  395 621.370 57.7270 -78.6044
  396 621.370 57.7270 -78.6044
  397 373.304 -5.41646 -3.85620
  398 373.304 -5.41646 -3.85620
</Section>

newXOutput 96

<Section columns = "stress_xx | stress_yy | stress_xy">
  1 329.731 0.321010 -0.373219
  2 329.880 0.398755 0.503347
  3 329.731 0.321010 -0.373219
  4 329.880 0.398755 0.503347
  5 508.900 32.9562 142.317
  6 528.833 31.9788 -140.009
  7 508.900 32.9562 142.317
  8 528.833 31.9788 -140.009
  9 330.559 0.226855 -0.979082
  10 333.306 0.402022 -1.73887
  11 337.273 0.913009 -3.52603
  12 346.387 0.343460 -4.73372
  13 358.073 0.572927 -7.74132
  14 371.723 -3.28940 -7.60059
  15 384.205 -3.97200 -0.844595
  16 378.125 -2.73447 6.43119
  17 363.634 2.82115 11.2926
  18 355.743 6.96241 -0.439486
  19 361.503 3.34299 -10.5955
  20 377.728 -4.06282 -7.83900
  21 380.696 -4.82201 2.52174
  22 373.660 -2.17387 6.54616
  23 355.617 0.125716 7.78059
  24 345.583 1.30846 5.99210
  25 337.509 1.04767 3.38921
  26 333.366 0.323187 1.59344
  27 330.743 0.268110 0.945044
  28 330.373 1.18410 0.588022
  29 329.777 2.43115 0.683024
  30 328.311 4.22749 0.607325
  31 327.724 4.91655 -0.0588784
  32 328.477 4.01011 -0.728663
  33 329.528 2.65045 -0.621925
  34 329.991 1.34219 -0.657355
  35 330.559 0.226855 -0.979082
  36 333.306 0.402022 -1.73887
  37 337.273 0.913009 -3.52603
  38 346.387 0.343460 -4.73372
  39 358.073 0.572927 -7.74132
  40 371.723 -3.28940 -7.60059
  41 384.205 -3.97200 -0.844595
  42 378.125 -2.73447 6.43119
  43 363.634 2.82115 11.2926
  44 355.743 6.96241 -0.439486
  45 361.503 3.34299 -10.5955
  46 377.728 -4.06282 -7.83900
  47 380.696 -4.82201 2.52174
  48 373.660 -2.17387 6.54616
  49 355.617 0.125716 7.78059
  50 345.583 1.30846 5.99210
  51 337.509 1.04767 3.38921
  52 333.366 0.323187 1.59344
  53 330.743 0.268110 0.945044
  54 330.373 1.18410 0.588022
  55 329.777 2.43115 0.683024
  56 328.311 4.22749 0.607325
  57 327.724 4.91655 -0.0588784
  58 328.477 4.01011 -0.728663
  59 329.528 2.65045 -0.621925
  60 329.991 1.34219 -0.657355
  61 705.004 36.5978 73.6865
  62 642.769 10.5280 26.1501
  63 606.134 4.41900 9.68333
  64 598.310 3.19361 1.90865
  65 605.826 4.22543 -8.27242
  66 633.729 9.03785 -22.7166
  67 711.621 31.8644 -63.4440
  68 93.9919 -104.397 -116.199
  69 18.5893 -239.213 -29.6420
  70 5.30019 -272.066 -12.9575
  71 5.06399 -267.170 -6.60603
  72 8.58696 -259.919 13.8581
  73 20.1595 -231.846 31.3790
  74 101.979 -97.3031 128.809
  75 705.004 36.5978 73.6865
  76 642.769 10.5280 26.1501
  77 606.134 4.41900 9.68333
  78 598.310 3.19361 1.90865
  79 605.826 4.22543 -8.27242
  80 633.729 9.03785 -22.7166
  81 711.621 31.8644 -63.4440
  82 93.9919 -104.397 -116.199
  83 18.5893 -239.213 -29.6420
  84 5.30019 -272.066 -12.9575
  85 5.06399 -267.170 -6.60603
  86 8.58696 -259.919 13.8581
  87 20.1595 -231.846 31.3790
  88 101.979 -97.3031 128.809
  89 302.988 17.3557 -4.51720
  90 302.988 17.3557 -4.51720
  91 276.677 3.83624 40.7670
  92 265.844 -1.65280 -48.6331
  93 276.677 3.83624 40.7670
  94 265.844 -1.65280 -48.6331
  95 156.634 3.97770 19.5387
  96 156.634 3.97770 19.5387
  97 406.514 26.1518 -6.32974
  98 414.356 14.9446 12.7264
  99 406.514 26.1518 -6.32974
  100 414.356 14.9446 12.7264
  101 325.063 7.87273 4.52543
  102 325.063 7.87273 4.52543
  103 388.913 -22.1222 0.422528
  104 388.913 -22.1222 0.422528
  105 325.463 8.22839 -5.58312
  106 325.463 8.22839 -5.58312
  107 382.209 -47.1247 -42.9485
  108 382.209 -47.1247 -42.9485
  109 267.351 -55.6139 107.289
  110 267.351 -55.6139 107.289
  111 180.619 -32.6351 -86.4969
  112 180.619 -32.6351 -86.4969
  113 326.786 5.49792 19.3692
  114 326.786 5.49792 19.3692
  115 338.739 2.30731 -18.5167
  116 338.739 2.30731 -18.5167
  117 459.726 30.8397 4.44848
  118 492.537 31.9487 2.80872
  119 459.726 30.8397 4.44848
  120 492.537 31.9487 2.80872
  121 482.264 40.6667 -12.5101
  122 482.264 40.6667 -12.5101
  123 52.8448 -86.8348 -28.2916
  124 52.8448 -86.8348 -28.2916
  125 415.170 -51.5570 46.4013
  126 415.170 -51.5570 46.4013
  127 350.237 -8.43921 21.7882
  128 350.237 -8.43921 21.7882
  129 80.4666 -74.9954 65.0568
  130 80.4666 -74.9954 65.0568
  131 325.532 6.57753 -0.286417
  132 325.532 6.57753 -0.286417
  133 349.682 -16.2855 -27.7680
  134 349.682 -16.2855 -27.7680
  135 330.704 2.69277 3.27943
  136 330.704 2.69277 3.27943
  137 330.999 2.36771 -3.06037
  138 330.999 2.36771 -3.06037
  139 334.633 4.61473 -9.75794
  140 334.633 4.61473 -9.75794
  141 333.098 4.49430 8.79161
  142 333.098 4.49430 8.79161
  143 318.961 10.9554 -0.356965
  144 318.961 10.9554 -0.356965
  145 266.594 17.7025 -2.08373
  146 266.594 17.7025 -2.08373
  147 386.958 -13.8069 5.97115
  148 386.958 -13.8069 5.97115
  149 442.314 -15.5069 -17.1903
  150 442.314 -15.5069 -17.1903
  151 341.574 -38.0506 53.4857
  152 341.574 -38.0506 53.4857
  153 257.999 -69.7735 -120.357
  154 257.999 -69.7735 -120.357
  155 303.699 12.4604 18.4478
  156 303.699 12.4604 18.4478
  157 393.685 -2.41315 -14.4474
  158 393.685 -2.41315 -14.4474
  159 537.507 42.6627 30.5855
  160 537.507 42.6627 30.5855
  161 268.708 -74.6933 139.352
  162 268.708 -74.6933 139.352
  163 549.146 18.1966 -6.27176
  164 549.146 18.1966 -6.27176
  165 317.686 10.9206 8.59210
  166 317.686 10.9206 8.59210
  167 301.843 10.2976 -26.9744
  168 301.843 10.2976 -26.9744
  169 373.771 11.2628 8.66446
  170 373.771 11.2628 8.66446
  171 314.712 13.0268 -9.75213
  172 314.712 13.0268 -9.75213
  173 327.516 5.28829 1.43389
  174 327.516 5.28829 1.43389
  175 332.952 2.56623 -5.20643
  176 332.952 2.56623 -5.20643
  177 515.462 40.4046 -30.2793
  178 515.462 40.4046 -30.2793
  179 327.781 5.14603 -1.73185
  180 327.781 5.14603 -1.73185
  181 241.698 17.6717 -14.0270
  182 241.698 17.6717 -14.0270
  183 436.403 32.2477 2.81625
  184 436.403 32.2477 2.81625
  185 88.3468 -73.6678 -83.9637
  186 88.3468 -73.6678 -83.9637
  187 238.319 -2.57782 59.1940
  188 238.319 -2.57782 59.1940
  189 318.696 -51.3567 -83.1627
  190 318.696 -51.3567 -83.1627
  191 376.297 -10.3251 4.57198
  192 376.297 -10.3251 4.57198
  193 352.090 -1.17541 13.4810
  194 352.090 -1.17541 13.4810
  195 479.047 13.8956 28.3824
  196 479.047 13.8956 28.3824
  197 198.614 6.27799 -36.5402
  198 198.614 6.27799 -36.5402
  199 544.362 24.3776 14.3499
  200 544.362 24.3776 14.3499
  201 358.652 -4.37868 -14.1333
  202 358.652 -4.37868 -14.1333
  203 333.474 1.83349 4.80204
  204 333.474 1.83349 4.80204
  205 373.361 -14.5946 -7.22641
  206 373.361 -14.5946 -7.22641
  207 408.433 -20.5738 -2.50907
  208 408.433 -20.5738 -2.50907
  209 25.4443 -150.686 12.4433
  210 25.4443 -150.686 12.4433
  211 343.929 1.82808 -11.9161
  212 343.929 1.82808 -11.9161
  213 341.045 2.69710 10.4214
  214 341.045 2.69710 10.4214
  215 328.105 -30.0995 -53.0166
  216 328.105 -30.0995 -53.0166
  217 383.251 -8.12874 -8.89284
  218 383.251 -8.12874 -8.89284
  219 313.620 11.3372 -18.4461
  220 313.620 11.3372 -18.4461
  221 86.4644 -108.184 91.9615
  222 86.4644 -108.184 91.9615
  223 388.371 1.70365 13.6430
  224 388.371 1.70365 13.6430
  225 377.201 9.55902 -11.4975
  226 377.201 9.55902 -11.4975
  227 538.229 32.1544 -24.4925
  228 538.229 32.1544 -24.4925
  229 409.835 -15.2379 -6.94919
  230 409.835 -15.2379 -6.94919
  231 447.992 -20.4795 -78.7615
  232 447.992 -20.4795 -78.7615
  233 329.154 -14.8322 40.8999
  234 329.154 -14.8322 40.8999
  235 322.489 9.15416 1.45559
  236 322.489 9.15416 1.45559
  237 171.092 -25.2753 76.5977
  238 171.092 -25.2753 76.5977
  239 428.732 -37.2712 92.2216
  240 428.732 -37.2712 92.2216
  241 116.063 -15.2864 -37.8468
  242 116.063 -15.2864 -37.8468
  243 381.232 -28.5928 -18.2982
  244 381.232 -28.5928 -18.2982
  245 310.489 14.0389 10.6803
  246 310.489 14.0389 10.6803
  247 11.1875 -195.960 -10.1009
  248 11.1875 -195.960 -10.1009
  249 21.4201 -172.449 33.5082
  250 21.4201 -172.449 33.5082
  251 316.215 2.20885 29.4828
  252 316.215 2.20885 29.4828
  253 330.332 1.26190 1.18844
  254 330.332 1.26190 1.18844
  255 327.486 5.32860 0.225574
  256 327.486 5.32860 0.225574
  257 307.296 -3.79206 -39.1340
  258 307.296 -3.79206 -39.1340
  259 330.534 1.14853 -1.25877
  260 330.534 1.14853 -1.25877
  261 365.894 -25.7362 24.4494
  262 365.894 -25.7362 24.4494
  263 339.415 1.20712 -5.82512
  264 339.415 1.20712 -5.82512
  265 262.779 -22.2522 -72.5441
  266 262.779 -22.2522 -72.5441
  267 447.916 34.3545 -1.57190
  268 447.916 34.3545 -1.57190
  269 327.050 7.28743 -15.0584
  270 327.050 7.28743 -15.0584
  271 325.768 6.82166 -3.02302
  272 325.768 6.82166 -3.02302
  273 276.708 13.4539 -26.9397
  274 276.708 13.4539 -26.9397
  275 83.9728 -32.8985 21.7739
  276 83.9728 -32.8985 21.7739
  277 349.668 -57.9221 74.1717
  278 349.668 -57.9221 74.1717
  279 329.303 4.92338 5.90579
  280 329.303 4.92338 5.90579
  281 489.004 34.6400 -7.55249
  282 489.004 34.6400 -7.55249
  283 585.709 49.7026 68.4263
  284 585.709 49.7026 68.4263
  285 392.636 -41.6758 24.1607
  286 392.636 -41.6758 24.1607
  287 282.194 14.1305 19.7816
  288 282.194 14.1305 19.7816
  289 359.735 -71.4292 97.8117
  290 359.735 -71.4292 97.8117
  291 370.316 -4.33699 9.11379
  292 370.316 -4.33699 9.11379
  293 329.103 3.24440 1.62418
  294 329.103 3.24440 1.62418
  295 324.377 8.93886 -9.62276
  296 324.377 8.93886 -9.62276
  297 327.570 5.24291 -0.446071
  298 327.570 5.24291 -0.446071
  299 332.342 0.921733 -2.26871
  300 332.342 0.921733 -2.26871
  301 339.102 1.69126 5.84796
  302 339.102 1.69126 5.84796
  303 322.582 9.10497 -2.47497
  304 322.582 9.10497 -2.47497
  305 74.2422 -126.248 -87.3983
  306 74.2422 -126.248 -87.3983
  307 221.166 14.3866 18.3623
  308 221.166 14.3866 18.3623
  309 329.476 2.70636 -1.56101
  310 329.476 2.70636 -1.56101
  311 290.078 16.7409 -13.2541
  312 290.078 16.7409 -13.2541
  313 290.811 18.2559 5.05913
  314 290.811 18.2559 5.05913
  315 328.771 4.73431 -4.18793
  316 328.771 4.73431 -4.18793
  317 441.285 23.0259 -1.13296
  318 441.285 23.0259 -1.13296
  319 326.284 7.92117 13.2053
  320 326.284 7.92117 13.2053
  321 416.565 12.9895 -11.3579
  322 416.565 12.9895 -11.3579
  323 615.493 17.4706 41.3388
  324 615.493 17.4706 41.3388
  325 325.046 8.20264 8.31632
  326 325.046 8.20264 8.31632
  327 319.846 10.8536 4.35021
  328 319.846 10.8536 4.35021
  329 251.155 -54.9296 -138.254
  330 251.155 -54.9296 -138.254
  331 332.536 0.833386 2.21949
  332 332.536 0.833386 2.21949
  333 325.448 6.87458 2.25861
  334 325.448 6.87458 2.25861
  335 313.357 14.0605 0.498221
  336 313.357 14.0605 0.498221
  337 162.161 -57.4427 111.306
  338 162.161 -57.4427 111.306
  339 403.954 26.4317 2.00023
  340 403.954 26.4317 2.00023
  341 23.2450 -168.888 -38.8448
  342 23.2450 -168.888 -38.8448
  343 251.823 15.8958 16.3660
  344 251.823 15.8958 16.3660
  345 582.276 7.98743 5.74872
  346 582.276 7.98743 5.74872
  347 607.880 30.7465 -42.5590
  348 607.880 30.7465 -42.5590
  349 284.479 -32.8395 81.1607
  350 296.564 -16.8998 60.1389
  351 284.479 -32.8395 81.1607
  352 296.564 -16.8998 60.1389
  353 590.664 14.7727 21.6556
  354 590.664 14.7727 21.6556
  355 336.779 -0.461163 22.9997
  356 336.779 -0.461163 22.9997
  357 399.282 -53.8625 -57.3920
  358 399.282 -53.8625 -57.3920
  359 378.934 -3.28391 11.1342
  360 378.934 -3.28391 11.1342
  361 257.048 -54.8824 151.377
  362 257.048 -54.8824 151.377
  363 442.863 35.5325 -1.19907
  364 442.863 35.5325 -1.19907
  365 590.341 5.41392 -4.52954
  366 590.341 5.41392 -4.52954
  367 358.573 0.192835 -11.2574
  368 358.573 0.192835 -11.2574
  369 319.854 11.5399 -5.20618
  370 319.854 11.5399 -5.20618
  371 494.924 38.4162 12.4842
  372 494.924 38.4162 12.4842
  373 379.088 15.8161 -2.43109
  374 379.088 15.8161 -2.43109
  375 345.540 1.32323 -7.21732
  376 345.540 1.32323 -7.21732
  377 93.7707 -46.7543 -63.8647
  378 93.7707 -46.7543 -63.8647
  379 382.052 -6.86841 3.07936
  380 382.052 -6.86841 3.07936
  381 326.853 -0.507601 -27.1248
  382 326.853 -0.507601 -27.1248
  383 376.205 -0.788494 -13.2872
  384 376.205 -0.788494 -13.2872
  385 592.927 10.4956 -17.9410
  386 592.927 10.4956 -17.9410
  387 327.936 5.06879 3.31171
  388 327.936 5.06879 3.31171
  389 400.015 19.4823 11.1067
  390 400.015 19.4823 11.1067
  391 431.797 -9.42156 3.90128
  392 431.797 -9.42156 3.90128
  393 329.165 5.95761 -7.38284
  394 329.165 5.95761 -7.38284
  395 627.519 58.3666 -79.4363
  396 627.519 58.3666 -79.4363
  397 377.097 -5.47353 -3.90035
  398 377.097 -5.47353 -3.90035
</Section>

newXOutput 97

<Section columns = "stress_xx | stress_yy | stress_xy">
  1 333.069 0.324311 -0.376659
  2 333.219 0.402803 0.507980
  3 333.069 0.324311 -0.376659
  4 333.219 0.402803 0.507980
  5 513.874 33.4111 143.811
  6 533.991 32.4290 -141.479
  7 513.874 33.4111 143.811
  8 533.991 32.4290 -141.479
  9 333.904 0.229137 -0.988150
  10 336.675 0.406006 -1.75509
  11 340.680 0.921919 -3.55924
  12 349.877 0.346624 -4.77880
  13 361.674 0.577764 -7.81669
  14 375.455 -3.32431 -7.67728
  15 388.064 -4.01323 -0.857421
  16 381.942 -2.76205 6.48691
  17 367.329 2.85203 11.3951
  18 359.371 7.03557 -0.443551
  19 365.179 3.37775 -10.6923
  20 381.543 -4.10407 -7.90674
  21 384.520 -4.87216 2.55228
  22 377.412 -2.19681 6.61262
  23 359.196 0.125769 7.85677
  24 349.067 1.32096 6.04937
  25 340.918 1.05790 3.42107
  26 336.736 0.326398 1.60828
  27 334.090 0.270823 0.953828
  28 333.717 1.19580 0.593424
  29 333.115 2.45502 0.689359
  30 331.636 4.26877 0.612994
  31 331.044 4.96447 -0.0594257
  32 331.803 4.04930 -0.735433
  33 332.864 2.67648 -0.627614
  34 333.330 1.35550 -0.663458
  35 333.904 0.229137 -0.988150
  36 336.675 0.406006 -1.75509
  37 340.680 0.921919 -3.55924
  38 349.877 0.346624 -4.77880
  39 361.674 0.577764 -7.81669
  40 375.455 -3.32431 -7.67728
  41 388.064 -4.01323 -0.857421
  42 381.942 -2.76205 6.48691
  43 367.329 2.85203 11.3951
  44 359.371 7.03557 -0.443551
  45 365.179 3.37775 -10.6923
  46 381.543 -4.10407 -7.90674
  47 384.520 -4.87216 2.55228
  48 377.412 -2.19681 6.61262
  49 359.196 0.125769 7.85677
  50 349.067 1.32096 6.04937
  51 340.918 1.05790 3.42107
  52 336.736 0.326398 1.60828
  53 334.090 0.270823 0.953828
  54 333.717 1.19580 0.593424
  55 333.115 2.45502 0.689359
  56 331.636 4.26877 0.612994
  57 331.044 4.96447 -0.0594257
  58 331.803 4.04930 -0.735433
  59 332.864 2.67648 -0.627614
  60 333.330 1.35550 -0.663458
  61 711.827 36.9742 74.4212
  62 649.009 10.6282 26.4030
  63 612.038 4.45793 9.77441
  64 604.142 3.22239 1.92524
  65 611.726 4.26427 -8.34982
  66 639.888 9.12300 -22.9340
  67 718.509 32.1914 -64.0772
  68 94.9324 -105.334 -117.455
  69 18.7758 -241.661 -29.9908
  70 5.34419 -274.912 -13.1092
  71 5.10636 -269.971 -6.67511
  72 8.66714 -262.628 14.0209
  73 20.3643 -234.217 31.7496
  74 102.990 -98.1675 130.197
  75 711.827 36.9742 74.4212
  76 649.009 10.6282 26.4030
  77 612.038 4.45793 9.77441
  78 604.142 3.22239 1.92524
  79 611.726 4.26427 -8.34982
  80 639.888 9.12300 -22.9340
  81 718.509 32.1914 -64.0772
  82 94.9324 -105.334 -117.455
  83 18.7758 -241.661 -29.9908
  84 5.34419 -274.912 -13.1092
  85 5.10636 -269.971 -6.67511
  86 8.66714 -262.628 14.0209
  87 20.3643 -234.217 31.7496
  88 102.990 -98.1675 130.197
  89 306.075 17.5291 -4.56174
  90 306.075 17.5291 -4.56174
  91 279.500 3.87634 41.1775
  92 268.558 -1.66828 -49.1259
  93 279.500 3.87634 41.1775
  94 268.558 -1.66828 -49.1259
  95 158.266 4.02989 19.7398
  96 158.266 4.02989 19.7398
  97 410.621 26.4196 -6.38060
  98 418.527 15.1050 12.8227
  99 410.621 26.4196 -6.38060
  100 418.527 15.1050 12.8227
  101 328.359 7.95010 4.56854
  102 328.359 7.95010 4.56854
  103 392.822 -22.3450 0.449811
  104 392.822 -22.3450 0.449811
  105 328.762 8.30939 -5.63640
  106 328.762 8.30939 -5.63640
  107 386.036 -47.6026 -43.4020
  108 386.036 -47.6026 -43.4020
  109 270.054 -56.1826 108.400
  110 270.054 -56.1826 108.400
  111 182.470 -32.9624 -87.3981
  112 182.470 -32.9624 -87.3981
  113 330.096 5.55165 19.5604
  114 330.096 5.55165 19.5604
  115 342.162 2.32859 -18.7005
  116 342.162 2.32859 -18.7005
  117 464.329 31.1642 4.53413
  118 497.452 32.2620 2.84340
  119 464.329 31.1642 4.53413
  120 497.452 32.2620 2.84340
  121 487.086 41.0828 -12.6675
  122 487.086 41.0828 -12.6675
  123 53.3925 -87.6986 -28.6000
  124 53.3925 -87.6986 -28.6000
  125 419.309 -52.0653 46.9079
  126 419.309 -52.0653 46.9079
  127 353.770 -8.52612 22.0111
  128 353.770 -8.52612 22.0111
  129 81.3003 -75.7382 65.7588
  130 81.3003 -75.7382 65.7588
  131 328.831 6.64196 -0.289090
  132 328.831 6.64196 -0.289090
  133 353.207 -16.4520 -28.0546
  134 353.207 -16.4520 -28.0546
  135 334.051 2.71923 3.31026
  136 334.051 2.71923 3.31026
  137 334.348 2.39104 -3.08907
  138 334.348 2.39104 -3.08907
  139 338.017 4.65975 -9.85192
  140 338.017 4.65975 -9.85192
  141 336.468 4.53829 8.87595
  142 336.468 4.53829 8.87595
  143 322.200 11.0635 -0.360491
  144 322.200 11.0635 -0.360491
  145 269.328 17.8820 -2.10491
  146 269.328 17.8820 -2.10491
  147 390.853 -13.9449 6.01117
  148 390.853 -13.9449 6.01117
  149 446.727 -15.6389 -17.4120
  150 446.727 -15.6389 -17.4120
  151 345.012 -38.4386 54.0363
  152 345.012 -38.4386 54.0363
  153 260.594 -70.4701 -121.625
  154 260.594 -70.4701 -121.625
  155 306.790 12.5853 18.6306
  156 306.790 12.5853 18.6306
  157 397.651 -2.43342 -14.5680
  158 397.651 -2.43342 -14.5680
  159 542.835 43.0983 30.9176
  160 542.835 43.0983 30.9176
  161 271.407 -75.4468 140.810
  162 271.407 -75.4468 140.810
  163 554.566 18.3692 -6.33578
  164 554.566 18.3692 -6.33578
  165 320.912 11.0286 8.67537
  166 320.912 11.0286 8.67537
  167 304.914 10.4012 -27.2437
  168 304.914 10.4012 -27.2437
  169 377.566 11.3808 8.74224
  170 377.566 11.3808 8.74224
  171 317.910 13.1560 -9.84711
  172 317.910 13.1560 -9.84711
  173 330.834 5.34002 1.44738
  174 330.834 5.34002 1.44738
  175 336.319 2.59133 -5.25573
  176 336.319 2.59133 -5.25573
  177 520.580 40.8382 -30.6298
  178 520.580 40.8382 -30.6298
  179 331.101 5.19643 -1.74811
  180 331.101 5.19643 -1.74811
  181 244.185 17.8539 -14.1687
  182 244.185 17.8539 -14.1687
  183 440.792 32.5767 2.82163
  184 440.792 32.5767 2.82163
  185 89.2565 -74.3970 -84.8668
  186 89.2565 -74.3970 -84.8668
  187 240.758 -2.60102 59.7965
  188 240.758 -2.60102 59.7965
  189 321.904 -51.8809 -84.0230
  190 321.904 -51.8809 -84.0230
  191 380.084 -10.4310 4.62866
  192 380.084 -10.4310 4.62866
  193 355.638 -1.18894 13.6155
  194 355.638 -1.18894 13.6155
  195 483.814 14.0685 28.7210
  196 483.814 14.0685 28.7210
  197 200.665 6.34884 -36.9144
  198 200.665 6.34884 -36.9144
  199 549.744 24.6128 14.4991
  200 549.744 24.6128 14.4991
  201 362.264 -4.42481 -14.2777
  202 362.264 -4.42481 -14.2777
  203 336.847 1.85136 4.84744
  204 336.847 1.85136 4.84744
  205 377.118 -14.7443 -7.31088
  206 377.118 -14.7443 -7.31088
  207 412.528 -20.7745 -2.56644
  208 412.528 -20.7745 -2.56644
  209 25.7035 -152.222 12.5824
  210 25.7035 -152.222 12.5824
  211 347.399 1.84479 -12.0325
  212 347.399 1.84479 -12.0325
  213 344.488 2.72312 10.5226
  214 344.488 2.72312 10.5226
  215 331.416 -30.4063 -53.5607
  216 331.416 -30.4063 -53.5607
  217 387.113 -8.21093 -8.96496
  218 387.113 -8.21093 -8.96496
  219 316.806 11.4502 -18.6286
  220 316.806 11.4502 -18.6286
  221 87.3431 -109.253 92.9596
  222 87.3431 -109.253 92.9596
  223 392.293 1.72611 13.7592
  224 392.293 1.72611 13.7592
  225 381.025 9.65958 -11.5992
  226 381.025 9.65958 -11.5992
  227 543.560 32.4714 -24.7533
  228 543.560 32.4714 -24.7533
  229 413.946 -15.3844 -6.98653
  230 413.946 -15.3844 -6.98653
  231 452.437 -20.6354 -79.6156
  232 452.437 -20.6354 -79.6156
  233 332.479 -14.9831 41.3151
  234 332.479 -14.9831 41.3151
  235 325.761 9.24422 1.46951
  236 325.761 9.24422 1.46951
  237 172.852 -25.5260 77.3941
  238 172.852 -25.5260 77.3941
  239 432.986 -37.6069 93.2087
  240 432.986 -37.6069 93.2087
  241 117.274 -15.4252 -38.2435
  242 117.274 -15.4252 -38.2435
  243 385.060 -28.8830 -18.5005
  244 385.060 -28.8830 -18.5005
  245 313.646 14.1788 10.7850
  246 313.646 14.1788 10.7850
  247 11.2958 -197.977 -10.2161
  248 11.2958 -197.977 -10.2161
  249 21.6360 -174.205 33.8883
  250 21.6360 -174.205 33.8883
  251 319.423 2.23059 29.7780
  252 319.423 2.23059 29.7780
  253 333.675 1.27437 1.19949
  254 333.675 1.27437 1.19949
  255 330.804 5.38060 0.227705
  256 330.804 5.38060 0.227705
  257 310.415 -3.83097 -39.5291
  258 310.415 -3.83097 -39.5291
  259 333.879 1.15994 -1.27049
  260 333.879 1.15994 -1.27049
  261 369.574 -25.9981 24.7083
  262 369.574 -25.9981 24.7083
  263 342.842 1.21871 -5.88053
  264 342.842 1.21871 -5.88053
  265 265.452 -22.4788 -73.2868
  266 265.452 -22.4788 -73.2868
  267 452.415 34.7032 -1.56492
  268 452.415 34.7032 -1.56492
  269 330.364 7.35901 -15.2055
  270 330.364 7.35901 -15.2055
  271 329.070 6.88860 -3.05163
  272 329.070 6.88860 -3.05163
  273 279.536 13.5908 -27.2099
  274 279.536 13.5908 -27.2099
  275 84.8516 -33.2101 22.0055
  276 84.8516 -33.2101 22.0055
  277 353.174 -58.5123 74.9418
  278 353.174 -58.5123 74.9418
  279 332.638 4.97170 5.96188
  280 332.638 4.97170 5.96188
  281 493.888 34.9824 -7.63996
  282 493.888 34.9824 -7.63996
  283 591.465 50.2418 69.1484
  284 591.465 50.2418 69.1484
  285 396.568 -42.0954 24.4308
  286 396.568 -42.0954 24.4308
  287 285.077 14.2736 19.9787
  288 285.077 14.2736 19.9787
  289 363.328 -72.1537 98.8302
  290 363.328 -72.1537 98.8302
  291 374.040 -4.38230 9.20852
  292 374.040 -4.38230 9.20852
  293 332.435 3.27619 1.63937
  294 332.435 3.27619 1.63937
  295 327.666 9.02698 -9.71552
  296 327.666 9.02698 -9.71552
  297 330.889 5.29409 -0.450248
  298 330.889 5.29409 -0.450248
  299 335.703 0.930819 -2.28995
  300 335.703 0.930819 -2.28995
  301 342.526 1.70764 5.90358
  302 342.526 1.70764 5.90358
  303 325.855 9.19457 -2.49862
  304 325.855 9.19457 -2.49862
  305 74.9943 -127.493 -88.3525
  306 74.9943 -127.493 -88.3525
  307 223.447 14.5374 18.5480
  308 223.447 14.5374 18.5480
  309 332.812 2.73294 -1.57558
  310 332.812 2.73294 -1.57558
  311 293.040 16.9091 -13.3859
  312 293.040 16.9091 -13.3859
  313 293.780 18.4393 5.10903
  314 293.780 18.4393 5.10903
  315 332.100 4.78078 -4.22752
  316 332.100 4.78078 -4.22752
  317 445.708 23.2750 -1.18589
  318 445.708 23.2750 -1.18589
  319 329.590 7.99924 13.3336
  320 329.590 7.99924 13.3336
  321 420.755 13.1297 -11.4410
  322 420.755 13.1297 -11.4410
  323 621.513 17.6377 41.7547
  324 621.513 17.6377 41.7547
  325 328.341 8.28344 8.39622
  326 328.341 8.28344 8.39622
  327 323.093 10.9607 4.39201
  328 323.093 10.9607 4.39201
  329 253.659 -55.3908 -139.730
  330 253.659 -55.3908 -139.730
  331 335.899 0.841593 2.24025
  332 335.899 0.841593 2.24025
  333 328.747 6.94199 2.28001
  334 328.747 6.94199 2.28001
  335 316.543 14.2000 0.503028
  336 316.543 14.2000 0.503028
  337 163.820 -58.0227 112.480
  338 163.820 -58.0227 112.480
  339 408.038 26.7020 2.01503
  340 408.038 26.7020 2.01503
  341 23.4768 -170.606 -39.2792
  342 23.4768 -170.606 -39.2792
  343 254.409 16.0587 16.5300
  344 254.409 16.0587 16.5300
  345 587.979 8.06148 5.80326
  346 587.979 8.06148 5.80326
  347 613.842 31.0565 -42.9913
  348 613.842 31.0565 -42.9913
  349 287.359 -33.1751 81.9920
  350 299.571 -17.0716 60.7490
  351 287.359 -33.1751 81.9920
  352 299.571 -17.0716 60.7490
  353 596.451 14.9119 21.8691
  354 596.451 14.9119 21.8691
  355 340.183 -0.467168 23.2297
  356 340.183 -0.467168 23.2297
  357 403.264 -54.4018 -58.0037
  358 403.264 -54.4018 -58.0037
  359 382.762 -3.31565 11.2323
  360 382.762 -3.31565 11.2323
  361 259.599 -55.3487 152.983
  362 259.599 -55.3487 152.983
  363 447.319 35.8889 -1.21018
  364 447.319 35.8889 -1.21018
  365 596.112 5.46364 -4.57356
  366 596.112 5.46364 -4.57356
  367 362.181 0.193116 -11.3688
  368 362.181 0.193116 -11.3688
  369 323.101 11.6539 -5.25633
  370 323.101 11.6539 -5.25633
  371 499.862 38.8013 12.6322
  372 499.862 38.8013 12.6322
  373 382.935 15.9792 -2.45264
  374 382.935 15.9792 -2.45264
  375 349.024 1.33559 -7.28677
  376 349.024 1.33559 -7.28677
  377 94.7513 -47.2128 -64.5448
  378 94.7513 -47.2128 -64.5448
  379 385.897 -6.93843 3.09981
  380 385.897 -6.93843 3.09981
  381 330.162 -0.514108 -27.3973
  382 330.162 -0.514108 -27.3973
  383 380.012 -0.795211 -13.4054
  384 380.012 -0.795211 -13.4054
  385 598.733 10.5954 -18.1166
  386 598.733 10.5954 -18.1166
  387 331.258 5.11846 3.34296
  388 331.258 5.11846 3.34296
  389 404.054 19.6850 11.1984
  390 404.054 19.6850 11.1984
  391 436.114 -9.50065 3.98264
  392 436.114 -9.50065 3.98264
  393 332.497 6.01615 -7.45327
  394 332.497 6.01615 -7.45327
  395 633.658 59.0067 -80.2680
  396 633.658 59.0067 -80.2680
  397 380.887 -5.53060 -3.94455
  398 380.887 -5.53060 -3.94455
</Section>

newXOutput 98

<Section columns = "stress_xx | stress_yy | stress_xy">
  1 336.404 0.327610 -0.380091
  2 336.555 0.406848 0.512601
  3 336.404 0.327610 -0.380091
  4 336.555 0.406848 0.512601
  5 518.841 33.8682 145.304
  6 539.141 32.8814 -142.949
  7 518.841 33.8682 145.304
  8 539.141 32.8814 -142.949
  9 337.246 0.231417 -0.997195
  10 340.043 0.409985 -1.77126
  11 344.083 0.930816 -3.59237
  12 353.365 0.349779 -4.82379
  13 365.271 0.582579 -7.89194
  14 379.184 -3.35922 -7.75390
  15 391.918 -4.05444 -0.870319
  16 385.756 -2.78960 6.54241
  17 371.021 2.88294 11.4973
  18 362.997 7.10874 -0.447604
  19 368.852 3.41251 -10.7888
  20 385.354 -4.14529 -7.97420
  21 388.342 -4.92229 2.58290
  22 381.160 -2.21974 6.67904
  23 362.772 0.125797 7.93284
  24 352.548 1.33344 6.10652
  25 344.324 1.06812 3.45285
  26 340.104 0.329604 1.62308
  27 337.434 0.273533 0.962590
  28 337.057 1.20749 0.598811
  29 336.451 2.47886 0.695678
  30 334.958 4.30998 0.618648
  31 334.361 5.01232 -0.0599716
  32 335.127 4.08843 -0.742186
  33 336.197 2.70247 -0.633286
  34 336.667 1.36880 -0.669546
  35 337.246 0.231417 -0.997195
  36 340.043 0.409985 -1.77126
  37 344.083 0.930816 -3.59237
  38 353.365 0.349779 -4.82379
  39 365.271 0.582579 -7.89194
  40 379.184 -3.35922 -7.75390
  41 391.918 -4.05444 -0.870319
  42 385.756 -2.78960 6.54241
  43 371.021 2.88294 11.4973
  44 362.997 7.10874 -0.447604
  45 368.852 3.41251 -10.7888
  46 385.354 -4.14529 -7.97420
  47 388.342 -4.92229 2.58290
  48 381.160 -2.21974 6.67904
  49 362.772 0.125797 7.93284
  50 352.548 1.33344 6.10652
  51 344.324 1.06812 3.45285
  52 340.104 0.329604 1.62308
  53 337.434 0.273533 0.962590
  54 337.057 1.20749 0.598811
  55 336.451 2.47886 0.695678
  56 334.958 4.30998 0.618648
  57 334.361 5.01232 -0.0599716
  58 335.127 4.08843 -0.742186
  59 336.197 2.70247 -0.633286
  60 336.667 1.36880 -0.669546
  61 718.639 37.3505 75.1551
  62 655.239 10.7282 26.6554
  63 617.933 4.49672 9.86529
  64 609.964 3.25108 1.94176
  65 617.618 4.30302 -8.42705
  66 646.037 9.20797 -23.1510
  67 725.385 32.5182 -64.7096
  68 95.8719 -106.267 -118.712
  69 18.9621 -244.107 -30.3403
  70 5.38794 -277.757 -13.2613
  71 5.14852 -272.771 -6.74418
  72 8.74712 -265.336 14.1842
  73 20.5689 -236.586 32.1210
  74 104.001 -99.0287 131.585
  75 718.639 37.3505 75.1551
  76 655.239 10.7282 26.6554
  77 617.933 4.49672 9.86529
  78 609.964 3.25108 1.94176
  79 617.618 4.30302 -8.42705
  80 646.037 9.20797 -23.1510
  81 725.385 32.5182 -64.7096
  82 95.8719 -106.267 -118.712
  83 18.9621 -244.107 -30.3403
  84 5.38794 -277.757 -13.2613
  85 5.14852 -272.771 -6.74418
  86 8.74712 -265.336 14.1842
  87 20.5689 -236.586 32.1210
  88 104.001 -99.0287 131.585
  89 309.160 17.7022 -4.60621
  90 309.160 17.7022 -4.60621
  91 282.320 3.91643 41.5877
  92 271.270 -1.68372 -49.6182
  93 282.320 3.91643 41.5877
  94 271.270 -1.68372 -49.6182
  95 159.896 4.08228 19.9408
  96 159.896 4.08228 19.9408
  97 414.725 26.6872 -6.43116
  98 422.693 15.2655 12.9184
  99 414.725 26.6872 -6.43116
  100 422.693 15.2655 12.9184
  101 331.652 8.02736 4.61155
  102 331.652 8.02736 4.61155
  103 396.727 -22.5675 0.477528
  104 396.727 -22.5675 0.477528
  105 332.058 8.39028 -5.68958
  106 332.058 8.39028 -5.68958
  107 389.859 -48.0802 -43.8555
  108 389.859 -48.0802 -43.8555
  109 272.755 -56.7510 109.510
  110 272.755 -56.7510 109.510
  111 184.320 -33.2894 -88.2990
  112 184.320 -33.2894 -88.2990
  113 333.403 5.60530 19.7513
  114 333.403 5.60530 19.7513
  115 345.582 2.34981 -18.8841
  116 345.582 2.34981 -18.8841
  117 468.928 31.4887 4.62050
  118 502.361 32.5747 2.87816
  119 468.928 31.4887 4.62050
  120 502.361 32.5747 2.87816
  121 491.902 41.4986 -12.8253
  122 491.902 41.4986 -12.8253
  123 53.9401 -88.5614 -28.9086
  124 53.9401 -88.5614 -28.9086
  125 423.443 -52.5730 47.4148
  126 423.443 -52.5730 47.4148
  127 357.299 -8.61299 22.2339
  128 357.299 -8.61299 22.2339
  129 82.1338 -76.4801 66.4611
  130 82.1338 -76.4801 66.4611
  131 332.129 6.70630 -0.291756
  132 332.129 6.70630 -0.291756
  133 356.730 -16.6184 -28.3412
  134 356.730 -16.6184 -28.3412
  135 337.395 2.74566 3.34101
  136 337.395 2.74566 3.34101
  137 337.695 2.41433 -3.11770
  138 337.695 2.41433 -3.11770
  139 341.398 4.70470 -9.94573
  140 341.398 4.70470 -9.94573
  141 339.834 4.58221 8.96013
  142 339.834 4.58221 8.96013
  143 325.436 11.1715 -0.364013
  144 325.436 11.1715 -0.364013
  145 272.060 18.0613 -2.12607
  146 272.060 18.0613 -2.12607
  147 394.744 -14.0827 6.05075
  148 394.744 -14.0827 6.05075
  149 451.136 -15.7702 -17.6344
  150 451.136 -15.7702 -17.6344
  151 348.447 -38.8263 54.5867
  152 348.447 -38.8263 54.5867
  153 263.186 -71.1660 -122.892
  154 263.186 -71.1660 -122.892
  155 309.879 12.7101 18.8132
  156 309.879 12.7101 18.8132
  157 401.613 -2.45359 -14.6881
  158 401.613 -2.45359 -14.6881
  159 548.156 43.5335 31.2499
  160 548.156 43.5335 31.2499
  161 274.105 -76.1996 142.267
  162 274.105 -76.1996 142.267
  163 559.979 18.5415 -6.39974
  164 559.979 18.5415 -6.39974
  165 324.136 11.1364 8.75850
  166 324.136 11.1364 8.75850
  167 307.983 10.5046 -27.5128
  168 307.983 10.5046 -27.5128
  169 381.358 11.4988 8.81976
  170 381.358 11.4988 8.81976
  171 321.106 13.2851 -9.94194
  172 321.106 13.2851 -9.94194
  173 334.150 5.39167 1.46084
  174 334.150 5.39167 1.46084
  175 339.684 2.61640 -5.30493
  176 339.684 2.61640 -5.30493
  177 525.692 41.2720 -30.9808
  178 525.692 41.2720 -30.9808
  179 334.419 5.24675 -1.76432
  180 334.419 5.24675 -1.76432
  181 246.670 18.0361 -14.3103
  182 246.670 18.0361 -14.3103
  183 445.178 32.9055 2.82657
  184 445.178 32.9055 2.82657
  185 90.1656 -75.1253 -85.7703
  186 90.1656 -75.1253 -85.7703
  187 243.197 -2.62414 60.3986
  188 243.197 -2.62414 60.3986
  189 325.108 -52.4047 -84.8831
  190 325.108 -52.4047 -84.8831
  191 383.868 -10.5368 4.68549
  192 383.868 -10.5368 4.68549
  193 359.184 -1.20249 13.7498
  194 359.184 -1.20249 13.7498
  195 488.576 14.2418 29.0604
  196 488.576 14.2418 29.0604
  197 202.715 6.41976 -37.2883
  198 202.715 6.41976 -37.2883
  199 555.120 24.8476 14.6482
  200 555.120 24.8476 14.6482
  201 365.874 -4.47094 -14.4221
  202 365.874 -4.47094 -14.4221
  203 340.216 1.86921 4.89275
  204 340.216 1.86921 4.89275
  205 380.872 -14.8940 -7.39552
  206 380.872 -14.8940 -7.39552
  207 416.619 -20.9749 -2.62441
  208 416.619 -20.9749 -2.62441
  209 25.9626 -153.757 12.7217
  210 25.9626 -153.757 12.7217
  211 350.867 1.86145 -12.1488
  212 350.867 1.86145 -12.1488
  213 347.929 2.74910 10.6236
  214 347.929 2.74910 10.6236
  215 334.724 -30.7129 -54.1046
  216 334.724 -30.7129 -54.1046
  217 390.973 -8.29305 -9.03667
  218 390.973 -8.29305 -9.03667
  219 319.989 11.5630 -18.8109
  220 319.989 11.5630 -18.8109
  221 88.2211 -110.321 93.9584
  222 88.2211 -110.321 93.9584
  223 396.211 1.74866 13.8749
  224 396.211 1.74866 13.8749
  225 384.847 9.76013 -11.7006
  226 384.847 9.76013 -11.7006
  227 548.885 32.7880 -25.0141
  228 548.885 32.7880 -25.0141
  229 418.053 -15.5306 -7.02319
  230 418.053 -15.5306 -7.02319
  231 456.878 -20.7900 -80.4701
  232 456.878 -20.7900 -80.4701
  233 335.802 -15.1338 41.7301
  234 335.802 -15.1338 41.7301
  235 329.030 9.33416 1.48340
  236 329.030 9.33416 1.48340
  237 174.611 -25.7765 78.1903
  238 174.611 -25.7765 78.1903
  239 437.235 -37.9414 94.1960
  240 437.235 -37.9414 94.1960
  241 118.485 -15.5636 -38.6400
  242 118.485 -15.5636 -38.6400
  243 388.884 -29.1730 -18.7031
  244 388.884 -29.1730 -18.7031
  245 316.802 14.3184 10.8896
  246 316.802 14.3184 10.8896
  247 11.4038 -199.994 -10.3315
  248 11.4038 -199.994 -10.3315
  249 21.8518 -175.960 34.2689
  250 21.8518 -175.960 34.2689
  251 322.628 2.25230 30.0729
  252 322.628 2.25230 30.0729
  253 337.015 1.28683 1.21052
  254 337.015 1.28683 1.21052
  255 334.119 5.43252 0.229832
  256 334.119 5.43252 0.229832
  257 313.531 -3.86987 -39.9238
  258 313.531 -3.86987 -39.9238
  259 337.221 1.17133 -1.28217
  260 337.221 1.17133 -1.28217
  261 373.251 -26.2597 24.9673
  262 373.251 -26.2597 24.9673
  263 346.265 1.23028 -5.93583
  264 346.265 1.23028 -5.93583
  265 268.123 -22.7052 -74.0290
  266 268.123 -22.7052 -74.0290
  267 456.910 35.0517 -1.55750
  268 456.910 35.0517 -1.55750
  269 333.674 7.43049 -15.3525
  270 333.674 7.43049 -15.3525
  271 332.369 6.95545 -3.08016
  272 332.369 6.95545 -3.08016
  273 282.363 13.7275 -27.4798
  274 282.363 13.7275 -27.4798
  275 85.7303 -33.5210 22.2371
  276 85.7303 -33.5210 22.2371
  277 356.677 -59.1021 75.7117
  278 356.677 -59.1021 75.7117
  279 335.969 5.01996 6.01786
  280 335.969 5.01996 6.01786
  281 498.766 35.3243 -7.72757
  282 498.766 35.3243 -7.72757
  283 597.214 50.7812 69.8704
  284 597.214 50.7812 69.8704
  285 400.496 -42.5147 24.7011
  286 400.496 -42.5147 24.7011
  287 287.959 14.4166 20.1756
  288 287.959 14.4166 20.1756
  289 366.918 -72.8777 99.8484
  290 366.918 -72.8777 99.8484
  291 377.760 -4.42760 9.30322
  292 377.760 -4.42760 9.30322
  293 335.765 3.30794 1.65453
  294 335.765 3.30794 1.65453
  295 330.953 9.11498 -9.80811
  296 330.953 9.11498 -9.80811
  297 334.204 5.34520 -0.454415
  298 334.204 5.34520 -0.454415
  299 339.062 0.939894 -2.31113
  300 339.062 0.939894 -2.31113
  301 345.947 1.72400 5.95909
  302 345.947 1.72400 5.95909
  303 329.125 9.28406 -2.52222
  304 329.125 9.28406 -2.52222
  305 75.7458 -128.737 -89.3073
  306 75.7458 -128.737 -89.3073
  307 225.727 14.6883 18.7336
  308 225.727 14.6883 18.7336
  309 336.144 2.75949 -1.59011
  310 336.144 2.75949 -1.59011
  311 295.999 17.0773 -13.5175
  312 295.999 17.0773 -13.5175
  313 296.747 18.6226 5.15886
  314 296.747 18.6226 5.15886
  315 335.426 4.82718 -4.26702
  316 335.426 4.82718 -4.26702
  317 450.128 23.5243 -1.23959
  318 450.128 23.5243 -1.23959
  319 332.894 8.07721 13.4617
  320 332.894 8.07721 13.4617
  321 424.941 13.2700 -11.5234
  322 424.941 13.2700 -11.5234
  323 627.524 17.8046 42.1701
  324 627.524 17.8046 42.1701
  325 331.634 8.36412 8.47597
  326 331.634 8.36412 8.47597
  327 326.338 11.0676 4.43373
  328 326.338 11.0676 4.43373
  329 256.161 -55.8497 -141.205
  330 256.161 -55.8497 -141.205
  331 339.260 0.849788 2.26097
  332 339.260 0.849788 2.26097
  333 332.044 7.00931 2.30135
  334 332.044 7.00931 2.30135
  335 319.727 14.3393 0.507828
  336 319.727 14.3393 0.507828
  337 165.478 -58.6022 113.654
  338 165.478 -58.6022 113.654
  339 412.119 26.9721 2.02972
  340 412.119 26.9721 2.02972
  341 23.7083 -172.323 -39.7141
  342 23.7083 -172.323 -39.7141
  343 256.995 16.2215 16.6938
  344 256.995 16.2215 16.6938
  345 593.674 8.13535 5.85768
  346 593.674 8.13535 5.85768
  347 619.795 31.3663 -43.4231
  348 619.795 31.3663 -43.4231
  349 290.236 -33.5105 82.8228
  350 302.576 -17.2432 61.3585
  351 290.236 -33.5105 82.8228
  352 302.576 -17.2432 61.3585
  353 602.230 15.0508 22.0823
  354 602.230 15.0508 22.0823
  355 343.585 -0.473195 23.4595
  356 343.585 -0.473195 23.4595
  357 407.242 -54.9405 -58.6156
  358 407.242 -54.9405 -58.6156
  359 386.586 -3.34733 11.3301
  360 386.586 -3.34733 11.3301
  361 262.147 -55.8127 154.589
  362 262.147 -55.8127 154.589
  363 451.770 36.2449 -1.22125
  364 451.770 36.2449 -1.22125
  365 601.874 5.51323 -4.61750
  366 601.874 5.51323 -4.61750
  367 365.786 0.193364 -11.4801
  368 365.786 0.193364 -11.4801
  369 326.346 11.7678 -5.30640
  370 326.346 11.7678 -5.30640
  371 504.795 39.1861 12.7806
  372 504.795 39.1861 12.7806
  373 386.778 16.1423 -2.47412
  374 386.778 16.1423 -2.47412
  375 352.505 1.34792 -7.35609
  376 352.505 1.34792 -7.35609
  377 95.7318 -47.6707 -65.2251
  378 95.7318 -47.6707 -65.2251
  379 389.739 -7.00841 3.12003
  380 389.739 -7.00841 3.12003
  381 333.469 -0.520637 -27.6696
  382 333.469 -0.520637 -27.6696
  383 383.816 -0.801895 -13.5232
  384 383.816 -0.801895 -13.5232
  385 604.530 10.6949 -18.2919
  386 604.530 10.6949 -18.2919
  387 334.577 5.16806 3.37415
  388 334.577 5.16806 3.37415
  389 408.091 19.8877 11.2895
  390 408.091 19.8877 11.2895
  391 440.427 -9.57934 4.06476
  392 440.427 -9.57934 4.06476
  393 335.828 6.07460 -7.52357
  394 335.828 6.07460 -7.52357
  395 639.788 59.6472 -81.0995
  396 639.788 59.6472 -81.0995
  397 384.673 -5.58765 -3.98880
  398 384.673 -5.58765 -3.98880
</Section>

newXOutput 99

<Section columns = "stress_xx | stress_yy | stress_xy">
  1 339.736 0.330908 -0.383512
  2 339.889 0.410889 0.517208
  3 339.736 0.330908 -0.383512
  4 339.889 0.410889 0.517208
  5 523.799 34.3273 146.797
  6 544.283 33.3360 -144.420
  7 523.799 34.3273 146.797
  8 544.283 33.3360 -144.420
  9 340.586 0.233696 -1.00622
  10 343.407 0.413959 -1.78740
  11 347.484 0.939698 -3.62543
  12 356.849 0.352926 -4.86869
  13 368.865 0.587371 -7.96706
  14 382.910 -3.39413 -7.83045
  15 395.769 -4.09564 -0.883290
  16 389.566 -2.81713 6.59767
  17 374.711 2.91387 11.5991
  18 366.620 7.18190 -0.451647
  19 372.523 3.44725 -10.8850
  20 389.161 -4.18648 -8.04137
  21 392.159 -4.97241 2.61359
  22 384.904 -2.24267 6.74540
  23 366.344 0.125801 8.00880
  24 356.025 1.34590 6.16356
  25 347.727 1.07832 3.48457
  26 343.470 0.332807 1.63784
  27 340.775 0.276240 0.971330
  28 340.395 1.21917 0.604182
  29 339.783 2.50267 0.701981
  30 338.278 4.35113 0.624289
  31 337.676 5.06010 -0.0605162
  32 338.448 4.12750 -0.748921
  33 339.527 2.72843 -0.638942
  34 340.002 1.38208 -0.675617
  35 340.586 0.233696 -1.00622
  36 343.407 0.413959 -1.78740
  37 347.484 0.939698 -3.62543
  38 356.849 0.352926 -4.86869
  39 368.865 0.587371 -7.96706
  40 382.910 -3.39413 -7.83045
  41 395.769 -4.09564 -0.883290
  42 389.566 -2.81713 6.59767
  43 374.711 2.91387 11.5991
  44 366.620 7.18190 -0.451647
  45 372.523 3.44725 -10.8850
  46 389.161 -4.18648 -8.04137
  47 392.159 -4.97241 2.61359
  48 384.904 -2.24267 6.74540
  49 366.344 0.125801 8.00880
  50 356.025 1.34590 6.16356
  51 347.727 1.07832 3.48457
  52 343.470 0.332807 1.63784
  53 340.775 0.276240 0.971330
  54 340.395 1.21917 0.604182
  55 339.783 2.50267 0.701981
  56 338.278 4.35113 0.624289
  57 337.676 5.06010 -0.0605162
  58 338.448 4.12750 -0.748921
  59 339.527 2.72843 -0.638942
  60 340.002 1.38208 -0.675617
  61 725.439 37.7265 75.8881
  62 661.458 10.8279 26.9074
  63 623.819 4.53538 9.95596
  64 615.778 3.27968 1.95821
  65 623.499 4.34166 -8.50409
  66 652.177 9.29274 -23.3676
  67 732.250 32.8448 -65.3413
  68 96.8104 -107.198 -119.969
  69 19.1482 -246.551 -30.6906
  70 5.43147 -280.602 -13.4137
  71 5.19046 -275.571 -6.81324
  72 8.82690 -268.043 14.3477
  73 20.7734 -238.954 32.4932
  74 105.010 -99.8867 132.974
  75 725.439 37.7265 75.8881
  76 661.458 10.8279 26.9074
  77 623.819 4.53538 9.95596
  78 615.778 3.27968 1.95821
  79 623.499 4.34166 -8.50409
  80 652.177 9.29274 -23.3676
  81 732.250 32.8448 -65.3413
  82 96.8104 -107.198 -119.969
  83 19.1482 -246.551 -30.6906
  84 5.43147 -280.602 -13.4137
  85 5.19046 -275.571 -6.81324
  86 8.82690 -268.043 14.3477
  87 20.7734 -238.954 32.4932
  88 105.010 -99.8867 132.974
  89 312.243 17.8752 -4.65062
  90 312.243 17.8752 -4.65062
  91 285.139 3.95651 41.9975
  92 273.981 -1.69913 -50.1102
  93 285.139 3.95651 41.9975
  94 273.981 -1.69913 -50.1102
  95 161.527 4.13486 20.1416
  96 161.527 4.13486 20.1416
  97 418.825 26.9547 -6.48142
  98 426.856 15.4261 13.0133
  99 418.825 26.9547 -6.48142
  100 426.856 15.4261 13.0133
  101 334.942 8.10452 4.65448
  102 334.942 8.10452 4.65448
  103 400.629 -22.7899 0.505680
  104 400.629 -22.7899 0.505680
  105 335.352 8.47106 -5.74266
  106 335.352 8.47106 -5.74266
  107 393.678 -48.5574 -44.3089
  108 393.678 -48.5574 -44.3089
  109 275.454 -57.3190 110.620
  110 275.454 -57.3190 110.620
  111 186.169 -33.6161 -89.1998
  112 186.169 -33.6161 -89.1998
  113 336.708 5.65887 19.9419
  114 336.708 5.65887 19.9419
  115 349.000 2.37097 -19.0675
  116 349.000 2.37097 -19.0675
  117 473.522 31.8132 4.70759
  118 507.266 32.8871 2.91302
  119 473.522 31.8132 4.70759
  120 507.266 32.8871 2.91302
  121 496.713 41.9142 -12.9836
  122 496.713 41.9142 -12.9836
  123 54.4875 -89.4231 -29.2174
  124 54.4875 -89.4231 -29.2174
  125 427.572 -53.0800 47.9221
  126 427.572 -53.0800 47.9221
  127 360.826 -8.69982 22.4566
  128 360.826 -8.69982 22.4566
  129 82.9669 -77.2210 67.1638
  130 82.9669 -77.2210 67.1638
  131 335.423 6.77054 -0.294416
  132 335.423 6.77054 -0.294416
  133 360.249 -16.7847 -28.6276
  134 360.249 -16.7847 -28.6276
  135 340.736 2.77204 3.37169
  136 340.736 2.77204 3.37169
  137 341.038 2.43760 -3.14627
  138 341.038 2.43760 -3.14627
  139 344.776 4.74957 -10.0394
  140 344.776 4.74957 -10.0394
  141 343.198 4.62607 9.04415
  142 343.198 4.62607 9.04415
  143 328.670 11.2793 -0.367530
  144 328.670 11.2793 -0.367530
  145 274.791 18.2405 -2.14722
  146 274.791 18.2405 -2.14722
  147 398.632 -14.2203 6.08989
  148 398.632 -14.2203 6.08989
  149 455.539 -15.9010 -17.8576
  150 455.539 -15.9010 -17.8576
  151 351.878 -39.2138 55.1368
  152 351.878 -39.2138 55.1368
  153 265.777 -71.8611 -124.160
  154 265.777 -71.8611 -124.160
  155 312.966 12.8348 18.9956
  156 312.966 12.8348 18.9956
  157 405.572 -2.47366 -14.8075
  158 405.572 -2.47366 -14.8075
  159 553.471 43.9685 31.5823
  160 553.471 43.9685 31.5823
  161 276.799 -76.9519 143.725
  162 276.799 -76.9519 143.725
  163 565.384 18.7134 -6.46366
  164 565.384 18.7134 -6.46366
  165 327.358 11.2441 8.84148
  166 327.358 11.2441 8.84148
  167 311.050 10.6080 -27.7815
  168 311.050 10.6080 -27.7815
  169 385.147 11.6168 8.89702
  170 385.147 11.6168 8.89702
  171 324.300 13.4139 -10.0366
  172 324.300 13.4139 -10.0366
  173 337.462 5.44324 1.47426
  174 337.462 5.44324 1.47426
  175 343.045 2.64143 -5.35401
  176 343.045 2.64143 -5.35401
  177 530.798 41.7059 -31.3324
  178 530.798 41.7059 -31.3324
  179 337.734 5.29700 -1.78050
  180 337.734 5.29700 -1.78050
  181 249.153 18.2181 -14.4518
  182 249.153 18.2181 -14.4518
  183 449.559 33.2341 2.83105
  184 449.559 33.2341 2.83105
  185 91.0744 -75.8527 -86.6741
  186 91.0744 -75.8527 -86.6741
  187 245.634 -2.64719 61.0003
  188 245.634 -2.64719 61.0003
  189 328.310 -52.9282 -85.7427
  190 328.310 -52.9282 -85.7427
  191 387.648 -10.6426 4.74248
  192 387.648 -10.6426 4.74248
  193 362.726 -1.21607 13.8840
  194 362.726 -1.21607 13.8840
  195 493.333 14.4156 29.4004
  196 493.333 14.4156 29.4004
  197 204.764 6.49078 -37.6620
  198 204.764 6.49078 -37.6620
  199 560.489 25.0821 14.7972
  200 560.489 25.0821 14.7972
  201 369.480 -4.51707 -14.5663
  202 369.480 -4.51707 -14.5663
  203 343.583 1.88702 4.93796
  204 343.583 1.88702 4.93796
  205 384.622 -15.0436 -7.48030
  206 384.622 -15.0436 -7.48030
  207 420.706 -21.1750 -2.68296
  208 420.706 -21.1750 -2.68296
  209 26.2215 -155.291 12.8612
  210 26.2215 -155.291 12.8612
  211 354.332 1.87806 -12.2650
  212 354.332 1.87806 -12.2650
  213 351.366 2.77504 10.7245
  214 351.366 2.77504 10.7245
  215 338.029 -31.0192 -54.6482
  216 338.029 -31.0192 -54.6482
  217 394.829 -8.37511 -9.10797
  218 394.829 -8.37511 -9.10797
  219 323.171 11.6757 -18.9930
  220 323.171 11.6757 -18.9930
  221 89.0984 -111.387 94.9577
  222 89.0984 -111.387 94.9577
  223 400.126 1.77130 13.9901
  224 400.126 1.77130 13.9901
  225 388.665 9.86068 -11.8016
  226 388.665 9.86068 -11.8016
  227 554.203 33.1043 -25.2750
  228 554.203 33.1043 -25.2750
  229 422.156 -15.6765 -7.05916
  230 422.156 -15.6765 -7.05916
  231 461.313 -20.9435 -81.3250
  232 461.313 -20.9435 -81.3250
  233 339.122 -15.2845 42.1447
  234 339.122 -15.2845 42.1447
  235 332.297 9.42397 1.49726
  236 332.297 9.42397 1.49726
  237 176.369 -26.0266 78.9863
  238 176.369 -26.0266 78.9863
  239 441.479 -38.2749 95.1836
  240 441.479 -38.2749 95.1836
  241 119.696 -15.7016 -39.0366
  242 119.696 -15.7016 -39.0366
  243 392.704 -29.4628 -18.9058
  244 392.704 -29.4628 -18.9058
  245 319.955 14.4579 10.9940
  246 319.955 14.4579 10.9940
  247 11.5117 -202.009 -10.4471
  248 11.5117 -202.009 -10.4471
  249 22.0674 -177.715 34.6501
  250 22.0674 -177.715 34.6501
  251 325.830 2.27398 30.3675
  252 325.830 2.27398 30.3675
  253 340.353 1.29928 1.22152
  254 340.353 1.29928 1.22152
  255 337.431 5.48437 0.231954
  256 337.431 5.48437 0.231954
  257 316.645 -3.90874 -40.3182
  258 316.645 -3.90874 -40.3182
  259 340.561 1.18271 -1.29383
  260 340.561 1.18271 -1.29383
  261 376.924 -26.5212 25.2262
  262 376.924 -26.5212 25.2262
  263 349.686 1.24183 -5.99102
  264 349.686 1.24183 -5.99102
  265 270.792 -22.9314 -74.7708
  266 270.792 -22.9314 -74.7708
  267 461.400 35.3999 -1.54965
  268 461.400 35.3999 -1.54965
  269 336.983 7.50187 -15.4993
  270 336.983 7.50187 -15.4993
  271 335.666 7.02220 -3.10864
  272 335.666 7.02220 -3.10864
  273 285.188 13.8642 -27.7495
  274 285.188 13.8642 -27.7495
  275 86.6089 -33.8312 22.4688
  276 86.6089 -33.8312 22.4688
  277 360.176 -59.6916 76.4813
  278 360.176 -59.6916 76.4813
  279 339.298 5.06814 6.07371
  280 339.298 5.06814 6.07371
  281 503.639 35.6658 -7.81531
  282 503.639 35.6658 -7.81531
  283 602.955 51.3209 70.5924
  284 602.955 51.3209 70.5924
  285 404.421 -42.9335 24.9717
  286 404.421 -42.9335 24.9717
  287 290.839 14.5594 20.3722
  288 290.839 14.5594 20.3722
  289 370.503 -73.6011 100.866
  290 370.503 -73.6011 100.866
  291 381.478 -4.47289 9.39789
  292 381.478 -4.47289 9.39789
  293 339.092 3.33964 1.66966
  294 339.092 3.33964 1.66966
  295 334.236 9.20286 -9.90054
  296 334.236 9.20286 -9.90054
  297 337.518 5.39622 -0.458572
  298 337.518 5.39622 -0.458572
  299 342.417 0.948956 -2.33226
  300 342.417 0.948956 -2.33226
  301 349.366 1.74032 6.01449
  302 349.366 1.74032 6.01449
  303 332.393 9.37341 -2.54577
  304 332.393 9.37341 -2.54577
  305 76.4966 -129.979 -90.2628
  306 76.4966 -129.979 -90.2628
  307 228.006 14.8391 18.9191
  308 228.006 14.8391 18.9191
  309 339.474 2.78601 -1.60461
  310 339.474 2.78601 -1.60461
  311 298.957 17.2453 -13.6490
  312 298.957 17.2453 -13.6490
  313 299.713 18.8057 5.20863
  314 299.713 18.8057 5.20863
  315 338.750 4.87351 -4.30644
  316 338.750 4.87351 -4.30644
  317 454.542 23.7736 -1.29405
  318 454.542 23.7736 -1.29405
  319 336.195 8.15507 13.5896
  320 336.195 8.15507 13.5896
  321 429.124 13.4104 -11.6051
  322 429.124 13.4104 -11.6051
  323 633.526 17.9711 42.5852
  324 633.526 17.9711 42.5852
  325 334.924 8.44470 8.55557
  326 334.924 8.44470 8.55557
  327 329.580 11.1744 4.47538
  328 329.580 11.1744 4.47538
  329 258.660 -56.3062 -142.681
  330 258.660 -56.3062 -142.681
  331 342.618 0.857972 2.28163
  332 342.618 0.857972 2.28163
  333 335.338 7.07652 2.32265
  334 335.338 7.07652 2.32265
  335 322.909 14.4784 0.512618
  336 322.909 14.4784 0.512618
  337 167.135 -59.1813 114.828
  338 167.135 -59.1813 114.828
  339 416.197 27.2421 2.04428
  340 416.197 27.2421 2.04428
  341 23.9395 -174.039 -40.1495
  342 23.9395 -174.039 -40.1495
  343 259.579 16.3843 16.8575
  344 259.579 16.3843 16.8575
  345 599.361 8.20904 5.91199
  346 599.361 8.20904 5.91199
  347 625.739 31.6757 -43.8546
  348 625.739 31.6757 -43.8546
  349 293.111 -33.8457 83.6531
  350 305.578 -17.4147 61.9676
  351 293.111 -33.8457 83.6531
  352 305.578 -17.4147 61.9676
  353 608.001 15.1895 22.2951
  354 608.001 15.1895 22.2951
  355 346.984 -0.479244 23.6890
  356 346.984 -0.479244 23.6890
  357 411.216 -55.4787 -59.2276
  358 411.216 -55.4787 -59.2276
  359 390.408 -3.37896 11.4274
  360 390.408 -3.37896 11.4274
  361 264.692 -56.2746 156.195
  362 264.692 -56.2746 156.195
  363 456.216 36.6006 -1.23230
  364 456.216 36.6006 -1.23230
  365 607.627 5.56269 -4.66137
  366 607.627 5.56269 -4.66137
  367 369.388 0.193579 -11.5913
  368 369.388 0.193579 -11.5913
  369 329.588 11.8815 -5.35637
  370 329.588 11.8815 -5.35637
  371 509.722 39.5705 12.9292
  372 509.722 39.5705 12.9292
  373 390.619 16.3053 -2.49551
  374 390.619 16.3053 -2.49551
  375 355.983 1.36022 -7.42528
  376 355.983 1.36022 -7.42528
  377 96.7121 -48.1278 -65.9055
  378 96.7121 -48.1278 -65.9055
  379 393.577 -7.07834 3.14003
  380 393.577 -7.07834 3.14003
  381 336.773 -0.527189 -27.9415
  382 336.773 -0.527189 -27.9415
  383 387.617 -0.808547 -13.6405
  384 387.617 -0.808547 -13.6405
  385 610.318 10.7942 -18.4670
  386 610.318 10.7942 -18.4670
  387 337.893 5.21758 3.40526
  388 337.893 5.21758 3.40526
  389 412.124 20.0903 11.3802
  390 412.124 20.0903 11.3802
  391 444.735 -9.65763 4.14765
  392 444.735 -9.65763 4.14765
  393 339.155 6.13298 -7.59372
  394 339.155 6.13298 -7.59372
  395 645.908 60.2882 -81.9308
  396 645.908 60.2882 -81.9308
  397 388.456 -5.64469 -4.03312
  398 388.456 -5.64469 -4.03312
</Section>

newXOutput 100

<Section columns = "stress_xx | stress_yy | stress_xy">
  1 343.065 0.334205 -0.386925
  2 343.220 0.414927 0.521803
  3 343.065 0.334205 -0.386925
  4 343.220 0.414927 0.521803
  5 528.751 34.7886 148.289
  6 549.416 33.7929 -145.889
  7 528.751 34.7886 148.289
  8 549.416 33.7929 -145.889
  9 343.923 0.235972 -1.01521
  10 346.769 0.417928 -1.80350
  11 350.882 0.948567 -3.65841
  12 360.331 0.356064 -4.91349
  13 372.456 0.592140 -8.04207
  14 386.631 -3.42905 -7.90694
  15 399.616 -4.13682 -0.896333
  16 393.374 -2.84464 6.65271
  17 378.398 2.94483 11.7006
  18 370.240 7.25505 -0.455678
  19 376.191 3.48199 -10.9810
  20 392.966 -4.22764 -8.10826
  21 395.973 -5.02252 2.64435
  22 388.645 -2.26561 6.81171
  23 369.913 0.125780 8.08465
  24 359.500 1.35833 6.22049
  25 351.127 1.08850 3.51621
  26 346.832 0.336006 1.65257
  27 344.114 0.278946 0.980047
  28 343.731 1.23083 0.609539
  29 343.114 2.52644 0.708267
  30 341.595 4.39222 0.629916
  31 340.988 5.10780 -0.0610593
  32 341.767 4.16652 -0.755639
  33 342.855 2.75435 -0.644581
  34 343.333 1.39535 -0.681674
  35 343.923 0.235972 -1.01521
  36 346.769 0.417928 -1.80350
  37 350.882 0.948567 -3.65841
  38 360.331 0.356064 -4.91349
  39 372.456 0.592140 -8.04207
  40 386.631 -3.42905 -7.90694
  41 399.616 -4.13682 -0.896333
  42 393.374 -2.84464 6.65271
  43 378.398 2.94483 11.7006
  44 370.240 7.25505 -0.455678
  45 376.191 3.48199 -10.9810
  46 392.966 -4.22764 -8.10826
  47 395.973 -5.02252 2.64435
  48 388.645 -2.26561 6.81171
  49 369.913 0.125780 8.08465
  50 359.500 1.35833 6.22049
  51 351.127 1.08850 3.51621
  52 346.832 0.336006 1.65257
  53 344.114 0.278946 0.980047
  54 343.731 1.23083 0.609539
  55 343.114 2.52644 0.708267
  56 341.595 4.39222 0.629916
  57 340.988 5.10780 -0.0610593
  58 341.767 4.16652 -0.755639
  59 342.855 2.75435 -0.644581
  60 343.333 1.39535 -0.681674
  61 732.227 38.1024 76.6203
  62 667.667 10.9275 27.1590
  63 629.695 4.57389 10.0464
  64 621.582 3.30820 1.97461
  65 629.372 4.38021 -8.58095
  66 658.306 9.37733 -23.5838
  67 739.103 33.1713 -65.9722
  68 97.7478 -108.124 -121.227
  69 19.3342 -248.994 -31.0416
  70 5.47475 -283.446 -13.5664
  71 5.23219 -278.371 -6.88228
  72 8.90647 -270.750 14.5117
  73 20.9777 -241.320 32.8663
  74 106.017 -100.741 134.364
  75 732.227 38.1024 76.6203
  76 667.667 10.9275 27.1590
  77 629.695 4.57389 10.0464
  78 621.582 3.30820 1.97461
  79 629.372 4.38021 -8.58095
  80 658.306 9.37733 -23.5838
  81 739.103 33.1713 -65.9722
  82 97.7478 -108.124 -121.227
  83 19.3342 -248.994 -31.0416
  84 5.47475 -283.446 -13.5664
  85 5.23219 -278.371 -6.88228
  86 8.90647 -270.750 14.5117
  87 20.9777 -241.320 32.8663
  88 106.017 -100.741 134.364
  89 315.324 18.0479 -4.69497
  90 315.324 18.0479 -4.69497
  91 287.957 3.99658 42.4069
  92 276.690 -1.71450 -50.6018
  93 287.957 3.99658 42.4069
  94 276.690 -1.71450 -50.6018
  95 163.157 4.18763 20.3424
  96 163.157 4.18763 20.3424
  97 422.922 27.2221 -6.53137
  98 431.015 15.5867 13.1075
  99 422.922 27.2221 -6.53137
  100 431.015 15.5867 13.1075
  101 338.230 8.18157 4.69733
  102 338.230 8.18157 4.69733
  103 404.527 -23.0121 0.534265
  104 404.527 -23.0121 0.534265
  105 338.644 8.55173 -5.79562
  106 338.644 8.55173 -5.79562
  107 397.494 -49.0342 -44.7624
  108 397.494 -49.0342 -44.7624
  109 278.150 -57.8867 111.729
  110 278.150 -57.8867 111.729
  111 188.017 -33.9424 -90.1003
  112 188.017 -33.9424 -90.1003
  113 340.011 5.71235 20.1323
  114 340.011 5.71235 20.1323
  115 352.414 2.39207 -19.2506
  116 352.414 2.39207 -19.2506
  117 478.112 32.1377 4.79539
  118 512.164 33.1990 2.94796
  119 478.112 32.1377 4.79539
  120 512.164 33.1990 2.94796
  121 501.519 42.3296 -13.1424
  122 501.519 42.3296 -13.1424
  123 55.0348 -90.2839 -29.5264
  124 55.0348 -90.2839 -29.5264
  125 431.697 -53.5863 48.4296
  126 431.697 -53.5863 48.4296
  127 364.349 -8.78661 22.6792
  128 364.349 -8.78661 22.6792
  129 83.7998 -77.9610 67.8667
  130 83.7998 -77.9610 67.8667
  131 338.716 6.83469 -0.297068
  132 338.716 6.83469 -0.297068
  133 363.764 -16.9509 -28.9139
  134 363.764 -16.9509 -28.9139
  135 344.075 2.79839 3.40230
  136 344.075 2.79839 3.40230
  137 344.379 2.46084 -3.17477
  138 344.379 2.46084 -3.17477
  139 348.151 4.79438 -10.1328
  140 348.151 4.79438 -10.1328
  141 346.559 4.66987 9.12800
  142 346.559 4.66987 9.12800
  143 331.902 11.3869 -0.371042
  144 331.902 11.3869 -0.371042
  145 277.520 18.4196 -2.16835
  146 277.520 18.4196 -2.16835
  147 402.517 -14.3578 6.12860
  148 402.517 -14.3578 6.12860
  149 459.938 -16.0311 -18.0816
  150 459.938 -16.0311 -18.0816
  151 355.306 -39.6010 55.6866
  152 355.306 -39.6010 55.6866
  153 268.364 -72.5555 -125.427
  154 268.364 -72.5555 -125.427
  155 316.051 12.9594 19.1777
  156 316.051 12.9594 19.1777
  157 409.527 -2.49362 -14.9264
  158 409.527 -2.49362 -14.9264
  159 558.779 44.4032 31.9148
  160 558.779 44.4032 31.9148
  161 279.491 -77.7034 145.182
  162 279.491 -77.7034 145.182
  163 570.782 18.8850 -6.52754
  164 570.782 18.8850 -6.52754
  165 330.577 11.3516 8.92433
  166 330.577 11.3516 8.92433
  167 314.115 10.7112 -28.0500
  168 314.115 10.7112 -28.0500
  169 388.933 11.7348 8.97402
  170 388.933 11.7348 8.97402
  171 327.491 13.5427 -10.1311
  172 327.491 13.5427 -10.1311
  173 340.772 5.49474 1.48765
  174 340.772 5.49474 1.48765
  175 346.404 2.66643 -5.40300
  176 346.404 2.66643 -5.40300
  177 535.897 42.1400 -31.6845
  178 535.897 42.1400 -31.6845
  179 341.046 5.34718 -1.79664
  180 341.046 5.34718 -1.79664
  181 251.636 18.4001 -14.5931
  182 251.636 18.4001 -14.5931
  183 453.937 33.5624 2.83509
  184 453.937 33.5624 2.83509
  185 91.9828 -76.5792 -87.5783
  186 91.9828 -76.5792 -87.5783
  187 248.069 -2.67017 61.6016
  188 248.069 -2.67017 61.6016
  189 331.508 -53.4513 -86.6021
  190 331.508 -53.4513 -86.6021
  191 391.424 -10.7483 4.79963
  192 391.424 -10.7483 4.79963
  193 366.266 -1.22966 14.0180
  194 366.266 -1.22966 14.0180
  195 498.084 14.5900 29.7412
  196 498.084 14.5900 29.7412
  197 206.813 6.56188 -38.0354
  198 206.813 6.56188 -38.0354
  199 565.851 25.3161 14.9462
  200 565.851 25.3161 14.9462
  201 373.083 -4.56320 -14.7105
  202 373.083 -4.56320 -14.7105
  203 346.946 1.90481 4.98307
  204 346.946 1.90481 4.98307
  205 388.368 -15.1931 -7.56524
  206 388.368 -15.1931 -7.56524
  207 424.789 -21.3748 -2.74210
  208 424.789 -21.3748 -2.74210
  209 26.4802 -156.824 13.0009
  210 26.4802 -156.824 13.0009
  211 357.793 1.89462 -12.3809
  212 357.793 1.89462 -12.3809
  213 354.801 2.80093 10.8252
  214 354.801 2.80093 10.8252
  215 341.331 -31.3254 -55.1914
  216 341.331 -31.3254 -55.1914
  217 398.681 -8.45709 -9.17885
  218 398.681 -8.45709 -9.17885
  219 326.350 11.7883 -19.1748
  220 326.350 11.7883 -19.1748
  221 89.9751 -112.452 95.9576
  222 89.9751 -112.452 95.9576
  223 404.037 1.79404 14.1047
  224 404.037 1.79404 14.1047
  225 392.481 9.96123 -11.9022
  226 392.481 9.96123 -11.9022
  227 559.514 33.4201 -25.5358
  228 559.514 33.4201 -25.5358
  229 426.255 -15.8221 -7.09444
  230 426.255 -15.8221 -7.09444
  231 465.742 -21.0958 -82.1804
  232 465.742 -21.0958 -82.1804
  233 342.440 -15.4350 42.5590
  234 342.440 -15.4350 42.5590
  235 335.562 9.51366 1.51110
  236 335.562 9.51366 1.51110
  237 178.126 -26.2765 79.7820
  238 178.126 -26.2765 79.7820
  239 445.717 -38.6072 96.1714
  240 445.717 -38.6072 96.1714
  241 120.906 -15.8392 -39.4331
  242 120.906 -15.8392 -39.4331
  243 396.521 -29.7524 -19.1087
  244 396.521 -29.7524 -19.1087
  245 323.106 14.5973 11.0982
  246 323.106 14.5973 11.0982
  247 11.6193 -204.023 -10.5629
  248 11.6193 -204.023 -10.5629
  249 22.2828 -179.467 35.0319
  250 22.2828 -179.467 35.0319
  251 329.030 2.29563 30.6617
  252 329.030 2.29563 30.6617
  253 343.688 1.31171 1.23249
  254 343.688 1.31171 1.23249
  255 340.741 5.53613 0.234071
  256 340.741 5.53613 0.234071
  257 319.757 -3.94759 -40.7123
  258 319.757 -3.94759 -40.7123
  259 343.897 1.19408 -1.30545
  260 343.897 1.19408 -1.30545
  261 380.594 -26.7825 25.4852
  262 380.594 -26.7825 25.4852
  263 353.104 1.25336 -6.04609
  264 353.104 1.25336 -6.04609
  265 273.459 -23.1575 -75.5122
  266 273.459 -23.1575 -75.5122
  267 465.886 35.7478 -1.54135
  268 465.886 35.7478 -1.54135
  269 340.288 7.57315 -15.6458
  270 340.288 7.57315 -15.6458
  271 338.960 7.08886 -3.13706
  272 338.960 7.08886 -3.13706
  273 288.011 14.0008 -28.0188
  274 288.011 14.0008 -28.0188
  275 87.4874 -34.1407 22.7005
  276 87.4874 -34.1407 22.7005
  277 363.671 -60.2807 77.2508
  278 363.671 -60.2807 77.2508
  279 342.624 5.11626 6.12945
  280 342.624 5.11626 6.12945
  281 508.506 36.0069 -7.90318
  282 508.506 36.0069 -7.90318
  283 608.687 51.8610 71.3144
  284 608.687 51.8610 71.3144
  285 408.341 -43.3520 25.2427
  286 408.341 -43.3520 25.2427
  287 293.717 14.7022 20.5686
  288 293.717 14.7022 20.5686
  289 374.085 -74.3240 101.884
  290 374.085 -74.3240 101.884
  291 385.191 -4.51818 9.49253
  292 385.191 -4.51818 9.49253
  293 342.416 3.37130 1.68475
  294 342.416 3.37130 1.68475
  295 337.518 9.29063 -9.99281
  296 337.518 9.29063 -9.99281
  297 340.828 5.44717 -0.462719
  298 340.828 5.44717 -0.462719
  299 345.770 0.958006 -2.35335
  300 345.770 0.958006 -2.35335
  301 352.781 1.75662 6.06977
  302 352.781 1.75662 6.06977
  303 335.658 9.46265 -2.56928
  304 335.658 9.46265 -2.56928
  305 77.2469 -131.220 -91.2190
  306 77.2469 -131.220 -91.2190
  307 230.284 14.9899 19.1043
  308 230.284 14.9899 19.1043
  309 342.801 2.81248 -1.61908
  310 342.801 2.81248 -1.61908
  311 301.913 17.4131 -13.7804
  312 301.913 17.4131 -13.7804
  313 302.677 18.9886 5.25833
  314 302.677 18.9886 5.25833
  315 342.071 4.91978 -4.34577
  316 342.071 4.91978 -4.34577
  317 458.953 24.0231 -1.34928
  318 458.953 24.0231 -1.34928
  319 339.494 8.23283 13.7172
  320 339.494 8.23283 13.7172
  321 433.302 13.5508 -11.6861
  322 433.302 13.5508 -11.6861
  323 639.519 18.1373 42.9998
  324 639.519 18.1373 42.9998
  325 338.212 8.52517 8.63503
  326 338.212 8.52517 8.63503
  327 332.820 11.2811 4.51694
  328 332.820 11.2811 4.51694
  329 261.156 -56.7604 -144.157
  330 261.156 -56.7604 -144.157
  331 345.973 0.866145 2.30225
  332 345.973 0.866145 2.30225
  333 338.629 7.14364 2.34391
  334 338.629 7.14364 2.34391
  335 326.088 14.6173 0.517401
  336 326.088 14.6173 0.517401
  337 168.791 -59.7598 116.001
  338 168.791 -59.7598 116.001
  339 420.271 27.5120 2.05873
  340 420.271 27.5120 2.05873
  341 24.1705 -175.753 -40.5854
  342 24.1705 -175.753 -40.5854
  343 262.163 16.5469 17.0210
  344 262.163 16.5469 17.0210
  345 605.039 8.28254 5.96618
  346 605.039 8.28254 5.96618
  347 631.674 31.9849 -44.2858
  348 631.674 31.9849 -44.2858
  349 295.984 -34.1807 84.4830
  350 308.578 -17.5861 62.5762
  351 295.984 -34.1807 84.4830
  352 308.578 -17.5861 62.5762
  353 613.763 15.3278 22.5077
  354 613.763 15.3278 22.5077
  355 350.381 -0.485316 23.9183
  356 350.381 -0.485316 23.9183
  357 415.185 -56.0163 -59.8397
  358 415.185 -56.0163 -59.8397
  359 394.226 -3.41053 11.5244
  360 394.226 -3.41053 11.5244
  361 267.233 -56.7342 157.802
  362 267.233 -56.7342 157.802
  363 460.659 36.9559 -1.24332
  364 460.659 36.9559 -1.24332
  365 613.372 5.61202 -4.70517
  366 613.372 5.61202 -4.70517
  367 372.986 0.193761 -11.7023
  368 372.986 0.193761 -11.7023
  369 332.827 11.9951 -5.40625
  370 332.827 11.9951 -5.40625
  371 514.644 39.9545 13.0782
  372 514.644 39.9545 13.0782
  373 394.457 16.4682 -2.51683
  374 394.457 16.4682 -2.51683
  375 359.457 1.37249 -7.49434
  376 359.457 1.37249 -7.49434
  377 97.6923 -48.5844 -66.5860
  378 97.6923 -48.5844 -66.5860
  379 397.412 -7.14822 3.15980
  380 397.412 -7.14822 3.15980
  381 340.074 -0.533763 -28.2133
  382 340.074 -0.533763 -28.2133
  383 391.415 -0.815165 -13.7575
  384 391.415 -0.815165 -13.7575
  385 616.099 10.8934 -18.6418
  386 616.099 10.8934 -18.6418
  387 341.207 5.26703 3.43630
  388 341.207 5.26703 3.43630
  389 416.153 20.2929 11.4704
  390 416.153 20.2929 11.4704
  391 449.039 -9.73552 4.23129
  392 449.039 -9.73552 4.23129
  393 342.480 6.19127 -7.66373
  394 342.480 6.19127 -7.66373
  395 652.020 60.9297 -82.7619
  396 652.020 60.9297 -82.7619
  397 392.235 -5.70171 -4.07748
  398 392.235 -5.70171 -4.07748
</Section>

newXOutput 101

<Section columns = "stress_xx | stress_yy | stress_xy">
  1 346.392 0.337499 -0.390328
  2 346.548 0.418963 0.526386
  3 346.392 0.337499 -0.390328
  4 346.548 0.418963 0.526386
  5 533.694 35.2520 149.782
  6 554.542 34.2519 -147.359
  7 533.694 35.2520 149.782
  8 554.542 34.2519 -147.359
  9 347.257 0.238246 -1.02419
  10 350.128 0.421892 -1.81955
  11 354.277 0.957423 -3.69131
  12 363.809 0.359193 -4.95821
  13 376.044 0.596887 -8.11696
  14 390.349 -3.46398 -7.98336
  15 403.460 -4.17800 -0.909448
  16 397.177 -2.87212 6.70752
  17 382.082 2.97581 11.8018
  18 373.859 7.32821 -0.459698
  19 379.856 3.51672 -11.0766
  20 396.767 -4.26877 -8.17487
  21 399.783 -5.07261 2.67519
  22 392.382 -2.28854 6.87797
  23 373.479 0.125735 8.16038
  24 362.971 1.37074 6.27730
  25 354.524 1.09867 3.54777
  26 350.192 0.339201 1.66726
  27 347.450 0.281650 0.988742
  28 347.063 1.24248 0.614881
  29 346.441 2.55018 0.714537
  30 344.910 4.43324 0.635529
  31 344.297 5.15542 -0.0616010
  32 345.083 4.20547 -0.762340
  33 346.180 2.78024 -0.650204
  34 346.662 1.40860 -0.687714
  35 347.257 0.238246 -1.02419
  36 350.128 0.421892 -1.81955
  37 354.277 0.957423 -3.69131
  38 363.809 0.359193 -4.95821
  39 376.044 0.596887 -8.11696
  40 390.349 -3.46398 -7.98336
  41 403.460 -4.17800 -0.909448
  42 397.177 -2.87212 6.70752
  43 382.082 2.97581 11.8018
  44 373.859 7.32821 -0.459698
  45 379.856 3.51672 -11.0766
  46 396.767 -4.26877 -8.17487
  47 399.783 -5.07261 2.67519
  48 392.382 -2.28854 6.87797
  49 373.479 0.125735 8.16038
  50 362.971 1.37074 6.27730
  51 354.524 1.09867 3.54777
  52 350.192 0.339201 1.66726
  53 347.450 0.281650 0.988742
  54 347.063 1.24248 0.614881
  55 346.441 2.55018 0.714537
  56 344.910 4.43324 0.635529
  57 344.297 5.15542 -0.0616010
  58 345.083 4.20547 -0.762340
  59 346.180 2.78024 -0.650204
  60 346.662 1.40860 -0.687714
  61 739.004 38.4781 77.3516
  62 673.866 11.0269 27.4101
  63 635.563 4.61226 10.1367
  64 627.378 3.33663 1.99093
  65 635.235 4.41865 -8.65763
  66 664.426 9.46174 -23.7995
  67 745.945 33.4975 -66.6024
  68 98.6842 -109.048 -122.485
  69 19.5199 -251.436 -31.3934
  70 5.51780 -286.290 -13.7194
  71 5.27370 -281.170 -6.95132
  72 8.98584 -273.456 14.6760
  73 21.1819 -243.685 33.2402
  74 107.024 -101.593 135.754
  75 739.004 38.4781 77.3516
  76 673.866 11.0269 27.4101
  77 635.563 4.61226 10.1367
  78 627.378 3.33663 1.99093
  79 635.235 4.41865 -8.65763
  80 664.426 9.46174 -23.7995
  81 745.945 33.4975 -66.6024
  82 98.6842 -109.048 -122.485
  83 19.5199 -251.436 -31.3934
  84 5.51780 -286.290 -13.7194
  85 5.27370 -281.170 -6.95132
  86 8.98584 -273.456 14.6760
  87 21.1819 -243.685 33.2402
  88 107.024 -101.593 135.754
  89 318.403 18.2205 -4.73926
  90 318.403 18.2205 -4.73926
  91 290.772 4.03664 42.8159
  92 279.397 -1.72984 -51.0930
  93 290.772 4.03664 42.8159
  94 279.397 -1.72984 -51.0930
  95 164.786 4.24060 20.5431
  96 164.786 4.24060 20.5431
  97 427.015 27.4893 -6.58103
  98 435.170 15.7474 13.2009
  99 427.015 27.4893 -6.58103
  100 435.170 15.7474 13.2009
  101 341.515 8.25851 4.74008
  102 341.515 8.25851 4.74008
  103 408.421 -23.2340 0.563281
  104 408.421 -23.2340 0.563281
  105 341.932 8.63229 -5.84848
  106 341.932 8.63229 -5.84848
  107 401.305 -49.5107 -45.2159
  108 401.305 -49.5107 -45.2159
  109 280.844 -58.4541 112.838
  110 280.844 -58.4541 112.838
  111 189.865 -34.2685 -91.0006
  112 189.865 -34.2685 -91.0006
  113 343.310 5.76576 20.3224
  114 343.310 5.76576 20.3224
  115 355.826 2.41312 -19.4335
  116 355.826 2.41312 -19.4335
  117 482.696 32.4622 4.88391
  118 517.058 33.5104 2.98299
  119 482.696 32.4622 4.88391
  120 517.058 33.5104 2.98299
  121 506.320 42.7447 -13.3016
  122 506.320 42.7447 -13.3016
  123 55.5818 -91.1436 -29.8357
  124 55.5818 -91.1436 -29.8357
  125 435.818 -54.0920 48.9376
  126 435.818 -54.0920 48.9376
  127 367.869 -8.87337 22.9016
  128 367.869 -8.87337 22.9016
  129 84.6325 -78.7001 68.5700
  130 84.6325 -78.7001 68.5700
  131 342.005 6.89875 -0.299715
  132 342.005 6.89875 -0.299715
  133 367.277 -17.1170 -29.2001
  134 367.277 -17.1170 -29.2001
  135 347.411 2.82471 3.43284
  136 347.411 2.82471 3.43284
  137 347.718 2.48404 -3.20320
  138 347.718 2.48404 -3.20320
  139 351.523 4.83912 -10.2261
  140 351.523 4.83912 -10.2261
  141 349.918 4.71360 9.21170
  142 349.918 4.71360 9.21170
  143 335.131 11.4945 -0.374550
  144 335.131 11.4945 -0.374550
  145 280.248 18.5985 -2.18946
  146 280.248 18.5985 -2.18946
  147 406.397 -14.4952 6.16687
  148 406.397 -14.4952 6.16687
  149 464.332 -16.1606 -18.3063
  150 464.332 -16.1606 -18.3063
  151 358.731 -39.9879 56.2362
  152 358.731 -39.9879 56.2362
  153 270.950 -73.2492 -126.695
  154 270.950 -73.2492 -126.695
  155 319.134 13.0838 19.3596
  156 319.134 13.0838 19.3596
  157 413.478 -2.51348 -15.0446
  158 413.478 -2.51348 -15.0446
  159 564.080 44.8377 32.2475
  160 564.080 44.8377 32.2475
  161 282.181 -78.4543 146.639
  162 282.181 -78.4543 146.639
  163 576.174 19.0562 -6.59136
  164 576.174 19.0562 -6.59136
  165 333.794 11.4590 9.00703
  166 333.794 11.4590 9.00703
  167 317.178 10.8144 -28.3182
  168 317.178 10.8144 -28.3182
  169 392.716 11.8528 9.05076
  170 392.716 11.8528 9.05076
  171 330.680 13.6712 -10.2255
  172 330.680 13.6712 -10.2255
  173 344.080 5.54615 1.50102
  174 344.080 5.54615 1.50102
  175 349.760 2.69138 -5.45187
  176 349.760 2.69138 -5.45187
  177 540.991 42.5742 -32.0372
  178 540.991 42.5742 -32.0372
  179 344.356 5.39729 -1.81274
  180 344.356 5.39729 -1.81274
  181 254.118 18.5820 -14.7344
  182 254.118 18.5820 -14.7344
  183 458.310 33.8906 2.83867
  184 458.310 33.8906 2.83867
  185 92.8907 -77.3048 -88.4829
  186 92.8907 -77.3048 -88.4829
  187 250.503 -2.69308 62.2024
  188 250.503 -2.69308 62.2024
  189 334.704 -53.9741 -87.4612
  190 334.704 -53.9741 -87.4612
  191 395.198 -10.8540 4.85693
  192 395.198 -10.8540 4.85693
  193 369.802 -1.24328 14.1519
  194 369.802 -1.24328 14.1519
  195 502.830 14.7649 30.0827
  196 502.830 14.7649 30.0827
  197 208.861 6.63306 -38.4087
  198 208.861 6.63306 -38.4087
  199 571.206 25.5497 15.0952
  200 571.206 25.5497 15.0952
  201 376.683 -4.60933 -14.8546
  202 376.683 -4.60933 -14.8546
  203 350.307 1.92258 5.02809
  204 350.307 1.92258 5.02809
  205 392.112 -15.3426 -7.65034
  206 392.112 -15.3426 -7.65034
  207 428.868 -21.5742 -2.80182
  208 428.868 -21.5742 -2.80182
  209 26.7387 -158.356 13.1407
  210 26.7387 -158.356 13.1407
  211 361.252 1.91113 -12.4967
  212 361.252 1.91113 -12.4967
  213 358.233 2.82677 10.9257
  214 358.233 2.82677 10.9257
  215 344.631 -31.6314 -55.7344
  216 344.631 -31.6314 -55.7344
  217 402.530 -8.53901 -9.24933
  218 402.530 -8.53901 -9.24933
  219 329.527 11.9007 -19.3564
  220 329.527 11.9007 -19.3564
  221 90.8511 -113.516 96.9580
  222 90.8511 -113.516 96.9580
  223 407.945 1.81686 14.2188
  224 407.945 1.81686 14.2188
  225 396.293 10.0618 -12.0025
  226 396.293 10.0618 -12.0025
  227 564.818 33.7354 -25.7966
  228 564.818 33.7354 -25.7966
  229 430.349 -15.9674 -7.12905
  230 430.349 -15.9674 -7.12905
  231 470.166 -21.2469 -83.0361
  232 470.166 -21.2469 -83.0361
  233 345.754 -15.5855 42.9730
  234 345.754 -15.5855 42.9730
  235 338.823 9.60322 1.52491
  236 338.823 9.60322 1.52491
  237 179.883 -26.5260 80.5776
  238 179.883 -26.5260 80.5776
  239 449.950 -38.9383 97.1595
  240 449.950 -38.9383 97.1595
  241 122.117 -15.9763 -39.8295
  242 122.117 -15.9763 -39.8295
  243 400.334 -30.0417 -19.3118
  244 400.334 -30.0417 -19.3118
  245 326.255 14.7365 11.2023
  246 326.255 14.7365 11.2023
  247 11.7268 -206.036 -10.6789
  248 11.7268 -206.036 -10.6789
  249 22.4980 -181.219 35.4142
  250 22.4980 -181.219 35.4142
  251 332.228 2.31725 30.9557
  252 332.228 2.31725 30.9557
  253 347.021 1.32412 1.24343
  254 347.021 1.32412 1.24343
  255 344.048 5.58781 0.236183
  256 344.048 5.58781 0.236183
  257 322.867 -3.98643 -41.1060
  258 322.867 -3.98643 -41.1060
  259 347.231 1.20544 -1.31705
  260 347.231 1.20544 -1.31705
  261 384.260 -27.0437 25.7442
  262 384.260 -27.0437 25.7442
  263 356.519 1.26486 -6.10105
  264 356.519 1.26486 -6.10105
  265 276.124 -23.3835 -76.2531
  266 276.124 -23.3835 -76.2531
  267 470.368 36.0955 -1.53263
  268 470.368 36.0955 -1.53263
  269 343.591 7.64432 -15.7921
  270 343.591 7.64432 -15.7921
  271 342.252 7.15542 -3.16541
  272 342.252 7.15542 -3.16541
  273 290.833 14.1372 -28.2879
  274 290.833 14.1372 -28.2879
  275 88.3658 -34.4496 22.9323
  276 88.3658 -34.4496 22.9323
  277 367.163 -60.8693 78.0200
  278 367.163 -60.8693 78.0200
  279 345.948 5.16430 6.18507
  280 345.948 5.16430 6.18507
  281 513.369 36.3475 -7.99118
  282 513.369 36.3475 -7.99118
  283 614.412 52.4012 72.0362
  284 614.412 52.4012 72.0362
  285 412.257 -43.7701 25.5139
  286 412.257 -43.7701 25.5139
  287 296.593 14.8448 20.7648
  288 296.593 14.8448 20.7648
  289 377.662 -75.0463 102.902
  290 377.662 -75.0463 102.902
  291 388.902 -4.56345 9.58714
  292 388.902 -4.56345 9.58714
  293 345.737 3.40291 1.69980
  294 345.737 3.40291 1.69980
  295 340.796 9.37828 -10.0849
  296 340.796 9.37828 -10.0849
  297 344.136 5.49804 -0.466856
  298 344.136 5.49804 -0.466856
  299 349.121 0.967044 -2.37438
  300 349.121 0.967044 -2.37438
  301 356.194 1.77289 6.12494
  302 356.194 1.77289 6.12494
  303 338.921 9.55176 -2.59274
  304 338.921 9.55176 -2.59274
  305 77.9965 -132.458 -92.1759
  306 77.9965 -132.458 -92.1759
  307 232.561 15.1406 19.2895
  308 232.561 15.1406 19.2895
  309 346.126 2.83892 -1.63351
  310 346.126 2.83892 -1.63351
  311 304.866 17.5807 -13.9115
  312 304.866 17.5807 -13.9115
  313 305.638 19.1713 5.30797
  314 305.638 19.1713 5.30797
  315 345.389 4.96598 -4.38501
  316 345.389 4.96598 -4.38501
  317 463.358 24.2728 -1.40526
  318 463.358 24.2728 -1.40526
  319 342.790 8.31049 13.8447
  320 342.790 8.31049 13.8447
  321 437.476 13.6913 -11.7664
  322 437.476 13.6913 -11.7664
  323 645.504 18.3031 43.4140
  324 645.504 18.3031 43.4140
  325 341.497 8.60552 8.71433
  326 341.497 8.60552 8.71433
  327 336.058 11.3876 4.55843
  328 336.058 11.3876 4.55843
  329 263.649 -57.2123 -145.634
  330 263.649 -57.2123 -145.634
  331 349.325 0.874306 2.32281
  332 349.325 0.874306 2.32281
  333 341.918 7.21066 2.36512
  334 341.918 7.21066 2.36512
  335 329.265 14.7561 0.522175
  336 329.265 14.7561 0.522175
  337 170.446 -60.3379 117.175
  338 170.446 -60.3379 117.175
  339 424.342 27.7816 2.07306
  340 424.342 27.7816 2.07306
  341 24.4013 -177.466 -41.0219
  342 24.4013 -177.466 -41.0219
  343 264.744 16.7095 17.1843
  344 264.744 16.7095 17.1843
  345 610.709 8.35586 6.02026
  346 610.709 8.35586 6.02026
  347 637.601 32.2938 -44.7166
  348 637.601 32.2938 -44.7166
  349 298.854 -34.5155 85.3124
  350 311.575 -17.7573 63.1843
  351 298.854 -34.5155 85.3124
  352 311.575 -17.7573 63.1843
  353 619.517 15.4658 22.7200
  354 619.517 15.4658 22.7200
  355 353.774 -0.491409 24.1474
  356 353.774 -0.491409 24.1474
  357 419.150 -56.5534 -60.4520
  358 419.150 -56.5534 -60.4520
  359 398.040 -3.44204 11.6211
  360 398.040 -3.44204 11.6211
  361 269.772 -57.1916 159.408
  362 269.772 -57.1916 159.408
  363 465.097 37.3109 -1.25431
  364 465.097 37.3109 -1.25431
  365 619.108 5.66121 -4.74889
  366 619.108 5.66121 -4.74889
  367 376.581 0.193910 -11.8132
  368 376.581 0.193910 -11.8132
  369 336.065 12.1085 -5.45604
  370 336.065 12.1085 -5.45604
  371 519.560 40.3382 13.2274
  372 519.560 40.3382 13.2274
  373 398.292 16.6310 -2.53806
  374 398.292 16.6310 -2.53806
  375 362.929 1.38473 -7.56328
  376 362.929 1.38473 -7.56328
  377 98.6723 -49.0402 -67.2667
  378 98.6723 -49.0402 -67.2667
  379 401.243 -7.21806 3.17935
  380 401.243 -7.21806 3.17935
  381 343.373 -0.540359 -28.4847
  382 343.373 -0.540359 -28.4847
  383 395.210 -0.821752 -13.8740
  384 395.210 -0.821752 -13.8740
  385 621.870 10.9923 -18.8163
  386 621.870 10.9923 -18.8163
  387 344.518 5.31641 3.46728
  388 344.518 5.31641 3.46728
  389 420.179 20.4955 11.5600
  390 420.179 20.4955 11.5600
  391 453.338 -9.81300 4.31570
  392 453.338 -9.81300 4.31570
  393 345.802 6.24948 -7.73360
  394 345.802 6.24948 -7.73360
  395 658.122 61.5715 -83.5927
  396 658.122 61.5715 -83.5927
  397 396.010 -5.75873 -4.12191
  398 396.010 -5.75873 -4.12191
</Section>

newXOutput 102

<Section columns = "stress_xx | stress_yy | stress_xy">
  1 349.716 0.340792 -0.393722
  2 349.874 0.422995 0.530955
  3 349.716 0.340792 -0.393722
  4 349.874 0.422995 0.530955
  5 538.630 35.7174 151.274
  6 559.660 34.7132 -148.828
  7 538.630 35.7174 151.274
  8 559.660 34.7132 -148.828
  9 350.588 0.240518 -1.03314
  10 353.484 0.425852 -1.83557
  11 357.669 0.966265 -3.72415
  12 367.284 0.362314 -5.00283
  13 379.628 0.601611 -8.19172
  14 394.064 -3.49891 -8.05971
  15 407.300 -4.21916 -0.922634
  16 400.978 -2.89958 6.76210
  17 385.764 3.00681 11.9027
  18 377.475 7.40136 -0.463706
  19 383.519 3.55145 -11.1720
  20 400.565 -4.30987 -8.24119
  21 403.590 -5.12270 2.70610
  22 396.115 -2.31147 6.94418
  23 377.042 0.125667 8.23600
  24 366.439 1.38312 6.33401
  25 357.919 1.10882 3.57927
  26 353.549 0.342393 1.68192
  27 350.784 0.284351 0.997415
  28 350.393 1.25411 0.620208
  29 349.766 2.57389 0.720791
  30 348.222 4.47420 0.641128
  31 347.604 5.20298 -0.0621413
  32 348.396 4.24437 -0.769023
  33 349.503 2.80609 -0.655811
  34 349.989 1.42183 -0.693739
  35 350.588 0.240518 -1.03314
  36 353.484 0.425852 -1.83557
  37 357.669 0.966265 -3.72415
  38 367.284 0.362314 -5.00283
  39 379.628 0.601611 -8.19172
  40 394.064 -3.49891 -8.05971
  41 407.300 -4.21916 -0.922634
  42 400.978 -2.89958 6.76210
  43 385.764 3.00681 11.9027
  44 377.475 7.40136 -0.463706
  45 383.519 3.55145 -11.1720
  46 400.565 -4.30987 -8.24119
  47 403.590 -5.12270 2.70610
  48 396.115 -2.31147 6.94418
  49 377.042 0.125667 8.23600
  50 366.439 1.38312 6.33401
  51 357.919 1.10882 3.57927
  52 353.549 0.342393 1.68192
  53 350.784 0.284351 0.997415
  54 350.393 1.25411 0.620208
  55 349.766 2.57389 0.720791
  56 348.222 4.47420 0.641128
  57 347.604 5.20298 -0.0621413
  58 348.396 4.24437 -0.769023
  59 349.503 2.80609 -0.655811
  60 349.989 1.42183 -0.693739
  61 745.769 38.8535 78.0820
  62 680.055 11.1260 27.6607
  63 641.421 4.65050 10.2267
  64 633.164 3.36497 2.00720
  65 641.090 4.45699 -8.73413
  66 670.536 9.54596 -24.0148
  67 752.775 33.8236 -67.2318
  68 99.6196 -109.968 -123.744
  69 19.7054 -253.876 -31.7459
  70 5.56062 -289.133 -13.8727
  71 5.31499 -283.969 -7.02034
  72 9.06500 -276.162 14.8406
  73 21.3859 -246.048 33.6149
  74 108.029 -102.441 137.145
  75 745.769 38.8535 78.0820
  76 680.055 11.1260 27.6607
  77 641.421 4.65050 10.2267
  78 633.164 3.36497 2.00720
  79 641.090 4.45699 -8.73413
  80 670.536 9.54596 -24.0148
  81 752.775 33.8236 -67.2318
  82 99.6196 -109.968 -123.744
  83 19.7054 -253.876 -31.7459
  84 5.56062 -289.133 -13.8727
  85 5.31499 -283.969 -7.02034
  86 9.06500 -276.162 14.8406
  87 21.3859 -246.048 33.6149
  88 108.029 -102.441 137.145
  89 321.479 18.3929 -4.78349
  90 321.479 18.3929 -4.78349
  91 293.586 4.07669 43.2246
  92 282.103 -1.74514 -51.5838
  93 293.586 4.07669 43.2246
  94 282.103 -1.74514 -51.5838
  95 166.415 4.29376 20.7436
  96 166.415 4.29376 20.7436
  97 431.105 27.7564 -6.63038
  98 439.321 15.9081 13.2937
  99 431.105 27.7564 -6.63038
  100 439.321 15.9081 13.2937
  101 344.798 8.33534 4.78275
  102 344.798 8.33534 4.78275
  103 412.311 -23.4558 0.592728
  104 412.311 -23.4558 0.592728
  105 345.219 8.71274 -5.90124
  106 345.219 8.71274 -5.90124
  107 405.113 -49.9868 -45.6694
  108 405.113 -49.9868 -45.6694
  109 283.536 -59.0212 113.947
  110 283.536 -59.0212 113.947
  111 191.711 -34.5942 -91.9007
  112 191.711 -34.5942 -91.9007
  113 346.607 5.81908 20.5123
  114 346.607 5.81908 20.5123
  115 359.235 2.43411 -19.6162
  116 359.235 2.43411 -19.6162
  117 487.276 32.7867 4.97313
  118 521.946 33.8214 3.01810
  119 487.276 32.7867 4.97313
  120 521.946 33.8214 3.01810
  121 511.116 43.1596 -13.4613
  122 511.116 43.1596 -13.4613
  123 56.1288 -92.0024 -30.1451
  124 56.1288 -92.0024 -30.1451
  125 439.933 -54.5969 49.4458
  126 439.933 -54.5969 49.4458
  127 371.387 -8.96008 23.1239
  128 371.387 -8.96008 23.1239
  129 85.4648 -79.4382 69.2737
  130 85.4648 -79.4382 69.2737
  131 345.292 6.96271 -0.302355
  132 345.292 6.96271 -0.302355
  133 370.787 -17.2830 -29.4861
  134 370.787 -17.2830 -29.4861
  135 350.744 2.85099 3.46331
  136 350.744 2.85099 3.46331
  137 351.053 2.50721 -3.23157
  138 351.053 2.50721 -3.23157
  139 354.893 4.88378 -10.3192
  140 354.893 4.88378 -10.3192
  141 353.273 4.75727 9.29524
  142 353.273 4.75727 9.29524
  143 338.358 11.6018 -0.378052
  144 338.358 11.6018 -0.378052
  145 282.974 18.7773 -2.21056
  146 282.974 18.7773 -2.21056
  147 410.274 -14.6324 6.20471
  148 410.274 -14.6324 6.20471
  149 468.721 -16.2894 -18.5318
  150 468.721 -16.2894 -18.5318
  151 362.153 -40.3746 56.7856
  152 362.153 -40.3746 56.7856
  153 273.532 -73.9420 -127.962
  154 273.532 -73.9420 -127.962
  155 322.214 13.2081 19.5412
  156 322.214 13.2081 19.5412
  157 417.426 -2.53324 -15.1623
  158 417.426 -2.53324 -15.1623
  159 569.375 45.2718 32.5803
  160 569.375 45.2718 32.5803
  161 284.867 -79.2046 148.096
  162 284.867 -79.2046 148.096
  163 581.558 19.2270 -6.65514
  164 581.558 19.2270 -6.65514
  165 337.009 11.5663 9.08960
  166 337.009 11.5663 9.08960
  167 320.238 10.9174 -28.5860
  168 320.238 10.9174 -28.5860
  169 396.496 11.9708 9.12725
  170 396.496 11.9708 9.12725
  171 333.867 13.7996 -10.3197
  172 333.867 13.7996 -10.3197
  173 347.385 5.59750 1.51435
  174 347.385 5.59750 1.51435
  175 353.114 2.71630 -5.50064
  176 353.114 2.71630 -5.50064
  177 546.079 43.0086 -32.3904
  178 546.079 43.0086 -32.3904
  179 347.663 5.44732 -1.82881
  180 347.663 5.44732 -1.82881
  181 256.598 18.7638 -14.8755
  182 256.598 18.7638 -14.8755
  183 462.679 34.2186 2.84181
  184 462.679 34.2186 2.84181
  185 93.7982 -78.0294 -89.3878
  186 93.7982 -78.0294 -89.3878
  187 252.936 -2.71592 62.8029
  188 252.936 -2.71592 62.8029
  189 337.896 -54.4966 -88.3199
  190 337.896 -54.4966 -88.3199
  191 398.967 -10.9596 4.91439
  192 398.967 -10.9596 4.91439
  193 373.335 -1.25691 14.2856
  194 373.335 -1.25691 14.2856
  195 507.570 14.9403 30.4249
  196 507.570 14.9403 30.4249
  197 210.908 6.70433 -38.7817
  198 210.908 6.70433 -38.7817
  199 576.554 25.7829 15.2440
  200 576.554 25.7829 15.2440
  201 380.279 -4.65546 -14.9986
  202 380.279 -4.65546 -14.9986
  203 353.666 1.94031 5.07300
  204 353.666 1.94031 5.07300
  205 395.851 -15.4919 -7.73558
  206 395.851 -15.4919 -7.73558
  207 432.943 -21.7734 -2.86213
  208 432.943 -21.7734 -2.86213
  209 26.9971 -159.887 13.2807
  210 26.9971 -159.887 13.2807
  211 364.708 1.92759 -12.6123
  212 364.708 1.92759 -12.6123
  213 361.662 2.85257 11.0261
  214 361.662 2.85257 11.0261
  215 347.927 -31.9372 -56.2771
  216 347.927 -31.9372 -56.2771
  217 406.376 -8.62086 -9.31940
  218 406.376 -8.62086 -9.31940
  219 332.701 12.0131 -19.5378
  220 332.701 12.0131 -19.5378
  221 91.7264 -114.578 97.9591
  222 91.7264 -114.578 97.9591
  223 411.850 1.83978 14.3324
  224 411.850 1.83978 14.3324
  225 400.102 10.1623 -12.1024
  226 400.102 10.1623 -12.1024
  227 570.116 34.0504 -26.0575
  228 570.116 34.0504 -26.0575
  229 434.440 -16.1125 -7.16298
  230 434.440 -16.1125 -7.16298
  231 474.585 -21.3968 -83.8923
  232 474.585 -21.3968 -83.8923
  233 349.066 -15.7358 43.3867
  234 349.066 -15.7358 43.3867
  235 342.083 9.69266 1.53869
  236 342.083 9.69266 1.53869
  237 181.638 -26.7753 81.3729
  238 181.638 -26.7753 81.3729
  239 454.179 -39.2684 98.1478
  240 454.179 -39.2684 98.1478
  241 123.327 -16.1130 -40.2259
  242 123.327 -16.1130 -40.2259
  243 404.143 -30.3309 -19.5151
  244 404.143 -30.3309 -19.5151
  245 329.401 14.8755 11.3062
  246 329.401 14.8755 11.3062
  247 11.8341 -208.048 -10.7950
  248 11.8341 -208.048 -10.7950
  249 22.7130 -182.969 35.7970
  250 22.7130 -182.969 35.7970
  251 335.423 2.33884 31.2494
  252 335.423 2.33884 31.2494
  253 350.350 1.33651 1.25435
  254 350.350 1.33651 1.25435
  255 347.353 5.63941 0.238291
  256 347.353 5.63941 0.238291
  257 325.974 -4.02525 -41.4993
  258 325.974 -4.02525 -41.4993
  259 350.562 1.21678 -1.32862
  260 350.562 1.21678 -1.32862
  261 387.923 -27.3046 26.0032
  262 387.923 -27.3046 26.0032
  263 359.931 1.27635 -6.15590
  264 359.931 1.27635 -6.15590
  265 278.787 -23.6093 -76.9936
  266 278.787 -23.6093 -76.9936
  267 474.846 36.4430 -1.52347
  268 474.846 36.4430 -1.52347
  269 346.892 7.71540 -15.9382
  270 346.892 7.71540 -15.9382
  271 345.541 7.22189 -3.19370
  272 345.541 7.22189 -3.19370
  273 293.652 14.2736 -28.5568
  274 293.652 14.2736 -28.5568
  275 89.2441 -34.7578 23.1641
  276 89.2441 -34.7578 23.1641
  277 370.652 -61.4576 78.7889
  278 370.652 -61.4576 78.7889
  279 349.269 5.21228 6.24058
  280 349.269 5.21228 6.24058
  281 518.226 36.6878 -8.07931
  282 518.226 36.6878 -8.07931
  283 620.128 52.9418 72.7581
  284 620.128 52.9418 72.7581
  285 416.170 -44.1878 25.7854
  286 416.170 -44.1878 25.7854
  287 299.468 14.9873 20.9608
  288 299.468 14.9873 20.9608
  289 381.236 -75.7681 103.919
  290 381.236 -75.7681 103.919
  291 392.608 -4.60872 9.68172
  292 392.608 -4.60872 9.68172
  293 349.056 3.43447 1.71481
  294 349.056 3.43447 1.71481
  295 344.073 9.46581 -10.1768
  296 344.073 9.46581 -10.1768
  297 347.442 5.54883 -0.470983
  298 347.442 5.54883 -0.470983
  299 352.468 0.976070 -2.39536
  300 352.468 0.976070 -2.39536
  301 359.603 1.78913 6.17999
  302 359.603 1.78913 6.17999
  303 342.181 9.64075 -2.61615
  304 342.181 9.64075 -2.61615
  305 78.7455 -133.695 -93.1334
  306 78.7455 -133.695 -93.1334
  307 234.837 15.2914 19.4744
  308 234.837 15.2914 19.4744
  309 349.448 2.86532 -1.64790
  310 349.448 2.86532 -1.64790
  311 307.818 17.7482 -14.0426
  312 307.818 17.7482 -14.0426
  313 308.598 19.3539 5.35754
  314 308.598 19.3539 5.35754
  315 348.705 5.01211 -4.42417
  316 348.705 5.01211 -4.42417
  317 467.760 24.5225 -1.46201
  318 467.760 24.5225 -1.46201
  319 346.083 8.38804 13.9719
  320 346.083 8.38804 13.9719
  321 441.647 13.8319 -11.8460
  322 441.647 13.8319 -11.8460
  323 651.479 18.4687 43.8278
  324 651.479 18.4687 43.8278
  325 344.779 8.68577 8.79349
  326 344.779 8.68577 8.79349
  327 339.293 11.4940 4.59984
  328 339.293 11.4940 4.59984
  329 266.139 -57.6618 -147.110
  330 266.139 -57.6618 -147.110
  331 352.674 0.882457 2.34333
  332 352.674 0.882457 2.34333
  333 345.205 7.27758 2.38628
  334 345.205 7.27758 2.38628
  335 332.440 14.8947 0.526941
  336 332.440 14.8947 0.526941
  337 172.100 -60.9155 118.349
  338 172.100 -60.9155 118.349
  339 428.409 28.0512 2.08728
  340 428.409 28.0512 2.08728
  341 24.6318 -179.178 -41.4588
  342 24.6318 -179.178 -41.4588
  343 267.325 16.8719 17.3474
  344 267.325 16.8719 17.3474
  345 616.370 8.42899 6.07423
  346 616.370 8.42899 6.07423
  347 643.520 32.6025 -45.1470
  348 643.520 32.6025 -45.1470
  349 301.722 -34.8501 86.1413
  350 314.571 -17.9285 63.7920
  351 301.722 -34.8501 86.1413
  352 314.571 -17.9285 63.7920
  353 625.262 15.6035 22.9320
  354 625.262 15.6035 22.9320
  355 357.165 -0.497525 24.3762
  356 357.165 -0.497525 24.3762
  357 423.111 -57.0899 -61.0643
  358 423.111 -57.0899 -61.0643
  359 401.852 -3.47350 11.7173
  360 401.852 -3.47350 11.7173
  361 272.307 -57.6468 161.015
  362 272.307 -57.6468 161.015
  363 469.532 37.6655 -1.26526
  364 469.532 37.6655 -1.26526
  365 624.836 5.71027 -4.79254
  366 624.836 5.71027 -4.79254
  367 380.173 0.194026 -11.9240
  368 380.173 0.194026 -11.9240
  369 339.300 12.2218 -5.50574
  370 339.300 12.2218 -5.50574
  371 524.471 40.7214 13.3768
  372 524.471 40.7214 13.3768
  373 402.124 16.7938 -2.55922
  374 402.124 16.7938 -2.55922
  375 366.397 1.39694 -7.63209
  376 366.397 1.39694 -7.63209
  377 99.6522 -49.4954 -67.9475
  378 99.6522 -49.4954 -67.9475
  379 405.071 -7.28786 3.19867
  380 405.071 -7.28786 3.19867
  381 346.669 -0.546977 -28.7559
  382 346.669 -0.546977 -28.7559
  383 399.002 -0.828305 -13.9901
  384 399.002 -0.828305 -13.9901
  385 627.633 11.0911 -18.9906
  386 627.633 11.0911 -18.9906
  387 347.827 5.36572 3.49818
  388 347.827 5.36572 3.49818
  389 424.202 20.6980 11.6493
  390 424.202 20.6980 11.6493
  391 457.633 -9.89009 4.40086
  392 457.633 -9.89009 4.40086
  393 349.122 6.30760 -7.80333
  394 349.122 6.30760 -7.80333
  395 664.216 62.2139 -84.4234
  396 664.216 62.2139 -84.4234
  397 399.782 -5.81573 -4.16639
  398 399.782 -5.81573 -4.16639
</Section>

newXOutput 103

<Section columns = "stress_xx | stress_yy | stress_xy">
  1 353.037 0.344083 -0.397106
  2 353.197 0.427024 0.535513
  3 353.037 0.344083 -0.397106
  4 353.197 0.427024 0.535513
  5 543.559 36.1850 152.766
  6 564.770 35.1766 -150.297
  7 543.559 36.1850 152.766
  8 564.770 35.1766 -150.297
  9 353.917 0.242787 -1.04206
  10 356.837 0.429806 -1.85155
  11 361.058 0.975093 -3.75690
  12 370.756 0.365426 -5.04736
  13 383.208 0.606312 -8.26637
  14 397.775 -3.53384 -8.13599
  15 411.136 -4.26031 -0.935891
  16 404.775 -2.92701 6.81646
  17 389.443 3.03783 12.0033
  18 381.088 7.47451 -0.467703
  19 387.179 3.58616 -11.2670
  20 404.360 -4.35093 -8.30724
  21 407.393 -5.17277 2.73708
  22 399.845 -2.33441 7.01034
  23 380.601 0.125574 8.31151
  24 369.905 1.39548 6.39060
  25 361.310 1.11896 3.61069
  26 356.903 0.345581 1.69653
  27 354.115 0.287050 1.00607
  28 353.721 1.26573 0.625521
  29 353.088 2.59756 0.727028
  30 351.531 4.51510 0.646713
  31 350.908 5.25045 -0.0626802
  32 351.707 4.28321 -0.775690
  33 352.822 2.83190 -0.661401
  34 353.312 1.43505 -0.699749
  35 353.917 0.242787 -1.04206
  36 356.837 0.429806 -1.85155
  37 361.058 0.975093 -3.75690
  38 370.756 0.365426 -5.04736
  39 383.208 0.606312 -8.26637
  40 397.775 -3.53384 -8.13599
  41 411.136 -4.26031 -0.935891
  42 404.775 -2.92701 6.81646
  43 389.443 3.03783 12.0033
  44 381.088 7.47451 -0.467703
  45 387.179 3.58616 -11.2670
  46 404.360 -4.35093 -8.30724
  47 407.393 -5.17277 2.73708
  48 399.845 -2.33441 7.01034
  49 380.601 0.125574 8.31151
  50 369.905 1.39548 6.39060
  51 361.310 1.11896 3.61069
  52 356.903 0.345581 1.69653
  53 354.115 0.287050 1.00607
  54 353.721 1.26573 0.625521
  55 353.088 2.59756 0.727028
  56 351.531 4.51510 0.646713
  57 350.908 5.25045 -0.0626802
  58 351.707 4.28321 -0.775690
  59 352.822 2.83190 -0.661401
  60 353.312 1.43505 -0.699749
  61 752.522 39.2288 78.8116
  62 686.234 11.2250 27.9109
  63 647.270 4.68860 10.3166
  64 638.942 3.39322 2.02340
  65 646.935 4.49523 -8.81045
  66 676.636 9.62999 -24.2297
  67 759.593 34.1495 -67.8605
  68 100.554 -110.885 -125.004
  69 19.8908 -256.314 -32.0992
  70 5.60320 -291.976 -14.0264
  71 5.35607 -286.768 -7.08935
  72 9.14397 -278.867 15.0056
  73 21.5898 -248.410 33.9904
  74 109.033 -103.286 138.536
  75 752.522 39.2288 78.8116
  76 686.234 11.2250 27.9109
  77 647.270 4.68860 10.3166
  78 638.942 3.39322 2.02340
  79 646.935 4.49523 -8.81045
  80 676.636 9.62999 -24.2297
  81 759.593 34.1495 -67.8605
  82 100.554 -110.885 -125.004
  83 19.8908 -256.314 -32.0992
  84 5.60320 -291.976 -14.0264
  85 5.35607 -286.768 -7.08935
  86 9.14397 -278.867 15.0056
  87 21.5898 -248.410 33.9904
  88 109.033 -103.286 138.536
  89 324.554 18.5651 -4.82766
  90 324.554 18.5651 -4.82766
  91 296.397 4.11674 43.6328
  92 284.806 -1.76040 -52.0742
  93 296.397 4.11674 43.6328
  94 284.806 -1.76040 -52.0742
  95 168.044 4.34711 20.9441
  96 168.044 4.34711 20.9441
  97 435.192 28.0233 -6.67944
  98 443.469 16.0689 13.3857
  99 435.192 28.0233 -6.67944
  100 443.469 16.0689 13.3857
  101 348.078 8.41206 4.82533
  102 348.078 8.41206 4.82533
  103 416.198 -23.6773 0.622605
  104 416.198 -23.6773 0.622605
  105 348.502 8.79307 -5.95388
  106 348.502 8.79307 -5.95388
  107 408.917 -50.4626 -46.1229
  108 408.917 -50.4626 -46.1229
  109 286.226 -59.5879 115.055
  110 286.226 -59.5879 115.055
  111 193.556 -34.9197 -92.8006
  112 193.556 -34.9197 -92.8006
  113 349.902 5.87232 20.7019
  114 349.902 5.87232 20.7019
  115 362.641 2.45504 -19.7987
  116 362.641 2.45504 -19.7987
  117 491.852 33.1112 5.06307
  118 526.829 34.1320 3.05331
  119 491.852 33.1112 5.06307
  120 526.829 34.1320 3.05331
  121 515.907 43.5743 -13.6214
  122 515.907 43.5743 -13.6214
  123 56.6755 -92.8601 -30.4547
  124 56.6755 -92.8601 -30.4547
  125 444.045 -55.1011 49.9544
  126 444.045 -55.1011 49.9544
  127 374.901 -9.04676 23.3460
  128 374.901 -9.04676 23.3460
  129 86.2969 -80.1755 69.9776
  130 86.2969 -80.1755 69.9776
  131 348.577 7.02658 -0.304988
  132 348.577 7.02658 -0.304988
  133 374.293 -17.4489 -29.7721
  134 374.293 -17.4489 -29.7721
  135 354.074 2.87723 3.49371
  136 354.074 2.87723 3.49371
  137 354.386 2.53036 -3.25987
  138 354.386 2.53036 -3.25987
  139 358.260 4.92839 -10.4122
  140 358.260 4.92839 -10.4122
  141 356.626 4.80087 9.37863
  142 356.626 4.80087 9.37863
  143 341.582 11.7091 -0.381550
  144 341.582 11.7091 -0.381550
  145 285.699 18.9559 -2.23164
  146 285.699 18.9559 -2.23164
  147 414.148 -14.7694 6.24212
  148 414.148 -14.7694 6.24212
  149 473.106 -16.4177 -18.7580
  150 473.106 -16.4177 -18.7580
  151 365.572 -40.7611 57.3346
  152 365.572 -40.7611 57.3346
  153 276.113 -74.6342 -129.230
  154 276.113 -74.6342 -129.230
  155 325.293 13.3323 19.7227
  156 325.293 13.3323 19.7227
  157 421.371 -2.55289 -15.2793
  158 421.371 -2.55289 -15.2793
  159 574.664 45.7057 32.9132
  160 574.664 45.7057 32.9132
  161 287.552 -79.9542 149.552
  162 287.552 -79.9542 149.552
  163 586.935 19.3975 -6.71888
  164 586.935 19.3975 -6.71888
  165 340.221 11.6734 9.17202
  166 340.221 11.6734 9.17202
  167 323.297 11.0204 -28.8536
  168 323.297 11.0204 -28.8536
  169 400.274 12.0887 9.20348
  170 400.274 12.0887 9.20348
  171 337.051 13.9279 -10.4138
  172 337.051 13.9279 -10.4138
  173 350.687 5.64876 1.52765
  174 350.687 5.64876 1.52765
  175 356.464 2.74118 -5.54931
  176 356.464 2.74118 -5.54931
  177 551.160 43.4431 -32.7441
  178 551.160 43.4431 -32.7441
  179 350.968 5.49728 -1.84483
  180 350.968 5.49728 -1.84483
  181 259.077 18.9456 -15.0165
  182 259.077 18.9456 -15.0165
  183 467.044 34.5463 2.84450
  184 467.044 34.5463 2.84450
  185 94.7053 -78.7532 -90.2931
  186 94.7053 -78.7532 -90.2931
  187 255.367 -2.73868 63.4029
  188 255.367 -2.73868 63.4029
  189 341.086 -55.0188 -89.1783
  190 341.086 -55.0188 -89.1783
  191 402.733 -11.0651 4.97201
  192 402.733 -11.0651 4.97201
  193 376.865 -1.27057 14.4192
  194 376.865 -1.27057 14.4192
  195 512.304 15.1162 30.7678
  196 512.304 15.1162 30.7678
  197 212.954 6.77568 -39.1545
  198 212.954 6.77568 -39.1545
  199 581.896 26.0157 15.3928
  200 581.896 26.0157 15.3928
  201 383.872 -4.70159 -15.1425
  202 383.872 -4.70159 -15.1425
  203 357.021 1.95802 5.11781
  204 357.021 1.95802 5.11781
  205 399.588 -15.6412 -7.82098
  206 399.588 -15.6412 -7.82098
  207 437.013 -21.9722 -2.92302
  208 437.013 -21.9722 -2.92302
  209 27.2554 -161.417 13.4208
  210 27.2554 -161.417 13.4208
  211 368.160 1.94401 -12.7277
  212 368.160 1.94401 -12.7277
  213 365.088 2.87832 11.1263
  214 365.088 2.87832 11.1263
  215 351.221 -32.2428 -56.8195
  216 351.221 -32.2428 -56.8195
  217 410.218 -8.70264 -9.38906
  218 410.218 -8.70264 -9.38906
  219 335.873 12.1253 -19.7189
  220 335.873 12.1253 -19.7189
  221 92.6011 -115.639 98.9607
  222 92.6011 -115.639 98.9607
  223 415.752 1.86278 14.4455
  224 415.752 1.86278 14.4455
  225 403.909 10.2629 -12.2019
  226 403.909 10.2629 -12.2019
  227 575.408 34.3650 -26.3184
  228 575.408 34.3650 -26.3184
  229 438.527 -16.2573 -7.19623
  230 438.527 -16.2573 -7.19623
  231 478.998 -21.5456 -84.7489
  232 478.998 -21.5456 -84.7489
  233 352.375 -15.8860 43.8001
  234 352.375 -15.8860 43.8001
  235 345.340 9.78198 1.55244
  236 345.340 9.78198 1.55244
  237 183.393 -27.0243 82.1680
  238 183.393 -27.0243 82.1680
  239 458.402 -39.5973 99.1364
  240 458.402 -39.5973 99.1364
  241 124.536 -16.2493 -40.6223
  242 124.536 -16.2493 -40.6223
  243 407.949 -30.6198 -19.7185
  244 407.949 -30.6198 -19.7185
  245 332.545 15.0144 11.4100
  246 332.545 15.0144 11.4100
  247 11.9412 -210.060 -10.9114
  248 11.9412 -210.060 -10.9114
  249 22.9279 -184.719 36.1805
  250 22.9279 -184.719 36.1805
  251 338.616 2.36040 31.5427
  252 338.616 2.36040 31.5427
  253 353.677 1.34890 1.26524
  254 353.677 1.34890 1.26524
  255 350.655 5.69094 0.240394
  256 350.655 5.69094 0.240394
  257 329.079 -4.06404 -41.8924
  258 329.079 -4.06404 -41.8924
  259 353.891 1.22811 -1.34016
  260 353.891 1.22811 -1.34016
  261 391.582 -27.5654 26.2622
  262 391.582 -27.5654 26.2622
  263 363.340 1.28781 -6.21063
  264 363.340 1.28781 -6.21063
  265 281.448 -23.8350 -77.7337
  266 281.448 -23.8350 -77.7337
  267 479.319 36.7902 -1.51388
  268 479.319 36.7902 -1.51388
  269 350.189 7.78638 -16.0840
  270 350.189 7.78638 -16.0840
  271 348.828 7.28826 -3.22193
  272 348.828 7.28826 -3.22193
  273 296.471 14.4099 -28.8253
  274 296.471 14.4099 -28.8253
  275 90.1223 -35.0652 23.3959
  276 90.1223 -35.0652 23.3959
  277 374.137 -62.0455 79.5577
  278 374.137 -62.0455 79.5577
  279 352.587 5.26019 6.29597
  280 352.587 5.26019 6.29597
  281 523.078 37.0276 -8.16758
  282 523.078 37.0276 -8.16758
  283 625.837 53.4826 73.4798
  284 625.837 53.4826 73.4798
  285 420.078 -44.6052 26.0572
  286 420.078 -44.6052 26.0572
  287 302.340 15.1297 21.1565
  288 302.340 15.1297 21.1565
  289 384.806 -76.4893 104.936
  290 384.806 -76.4893 104.936
  291 396.312 -4.65399 9.77627
  292 396.312 -4.65399 9.77627
  293 352.372 3.46599 1.72979
  294 352.372 3.46599 1.72979
  295 347.346 9.55323 -10.2686
  296 347.346 9.55323 -10.2686
  297 350.744 5.59954 -0.475100
  298 350.744 5.59954 -0.475100
  299 355.813 0.985084 -2.41629
  300 355.813 0.985084 -2.41629
  301 363.010 1.80535 6.23493
  302 363.010 1.80535 6.23493
  303 345.439 9.72962 -2.63952
  304 345.439 9.72962 -2.63952
  305 79.4939 -134.930 -94.0915
  306 79.4939 -134.930 -94.0915
  307 237.112 15.4421 19.6592
  308 237.112 15.4421 19.6592
  309 352.767 2.89169 -1.66226
  310 352.767 2.89169 -1.66226
  311 310.769 17.9156 -14.1734
  312 310.769 17.9156 -14.1734
  313 311.556 19.5363 5.40705
  314 311.556 19.5363 5.40705
  315 352.018 5.05818 -4.46324
  316 352.018 5.05818 -4.46324
  317 472.157 24.7724 -1.51951
  318 472.157 24.7724 -1.51951
  319 349.374 8.46549 14.0990
  320 349.374 8.46549 14.0990
  321 445.813 13.9726 -11.9249
  322 445.813 13.9726 -11.9249
  323 657.445 18.6339 44.2411
  324 657.445 18.6339 44.2411
  325 348.059 8.76592 8.87250
  326 348.059 8.76592 8.87250
  327 342.525 11.6002 4.64117
  328 342.525 11.6002 4.64117
  329 268.627 -58.1091 -148.587
  330 268.627 -58.1091 -148.587
  331 356.021 0.890597 2.36380
  332 356.021 0.890597 2.36380
  333 348.488 7.34441 2.40740
  334 348.488 7.34441 2.40740
  335 335.612 15.0332 0.531699
  336 335.612 15.0332 0.531699
  337 173.753 -61.4927 119.523
  338 173.753 -61.4927 119.523
  339 432.474 28.3205 2.10138
  340 432.474 28.3205 2.10138
  341 24.8620 -180.889 -41.8963
  342 24.8620 -180.889 -41.8963
  343 269.904 17.0343 17.5104
  344 269.904 17.0343 17.5104
  345 622.024 8.50194 6.12809
  346 622.024 8.50194 6.12809
  347 649.430 32.9108 -45.5771
  348 649.430 32.9108 -45.5771
  349 304.588 -35.1845 86.9697
  350 317.564 -18.0995 64.3992
  351 304.588 -35.1845 86.9697
  352 317.564 -18.0995 64.3992
  353 630.999 15.7408 23.1437
  354 630.999 15.7408 23.1437
  355 360.552 -0.503662 24.6047
  356 360.552 -0.503662 24.6047
  357 427.067 -57.6259 -61.6768
  358 427.067 -57.6259 -61.6768
  359 405.660 -3.50490 11.8132
  360 405.660 -3.50490 11.8132
  361 274.839 -58.0997 162.622
  362 274.839 -58.0997 162.622
  363 473.962 38.0198 -1.27619
  364 473.962 38.0198 -1.27619
  365 630.555 5.75920 -4.83613
  366 630.555 5.75920 -4.83613
  367 383.762 0.194109 -12.0346
  368 383.762 0.194109 -12.0346
  369 342.532 12.3349 -5.55535
  370 342.532 12.3349 -5.55535
  371 529.377 41.1043 13.5266
  372 529.377 41.1043 13.5266
  373 405.953 16.9565 -2.58030
  374 405.953 16.9565 -2.58030
  375 369.863 1.40912 -7.70077
  376 369.863 1.40912 -7.70077
  377 100.632 -49.9500 -68.6284
  378 100.632 -49.9500 -68.6284
  379 408.895 -7.35761 3.21777
  380 408.895 -7.35761 3.21777
  381 349.963 -0.553618 -29.0268
  382 349.963 -0.553618 -29.0268
  383 402.790 -0.834826 -14.1058
  384 402.790 -0.834826 -14.1058
  385 633.388 11.1896 -19.1646
  386 633.388 11.1896 -19.1646
  387 351.133 5.41496 3.52902
  388 351.133 5.41496 3.52902
  389 428.221 20.9004 11.7380
  390 428.221 20.9004 11.7380
  391 461.923 -9.96679 4.48677
  392 461.923 -9.96679 4.48677
  393 352.439 6.36565 -7.87292
  394 352.439 6.36565 -7.87292
  395 670.300 62.8567 -85.2539
  396 670.300 62.8567 -85.2539
  397 403.551 -5.87272 -4.21092
  398 403.551 -5.87272 -4.21092
</Section>

newXOutput 104

<Section columns = "stress_xx | stress_yy | stress_xy">
  1 356.356 0.347373 -0.400482
  2 356.517 0.431050 0.540057
  3 356.356 0.347373 -0.400482
  4 356.517 0.431050 0.540057
  5 548.480 36.6546 154.258
  6 569.871 35.6422 -151.766
  7 548.480 36.6546 154.258
  8 569.871 35.6422 -151.766
  9 357.243 0.245055 -1.05097
  10 360.188 0.433756 -1.86749
  11 364.444 0.983908 -3.78958
  12 374.225 0.368530 -5.09180
  13 386.786 0.610992 -8.34090
  14 401.482 -3.56877 -8.21221
  15 414.968 -4.30145 -0.949220
  16 408.569 -2.95442 6.87059
  17 393.119 3.06888 12.1036
  18 384.699 7.54765 -0.471689
  19 390.836 3.62087 -11.3618
  20 408.151 -4.39197 -8.37300
  21 411.192 -5.22282 2.76813
  22 403.571 -2.35734 7.07645
  23 384.157 0.125457 8.38691
  24 373.367 1.40781 6.44707
  25 364.699 1.12908 3.64203
  26 360.255 0.348765 1.71112
  27 357.443 0.289747 1.01470
  28 357.045 1.27733 0.630818
  29 356.407 2.62120 0.733250
  30 354.837 4.55594 0.652285
  31 354.210 5.29786 -0.0632177
  32 355.014 4.32199 -0.782339
  33 356.139 2.85767 -0.666976
  34 356.633 1.44825 -0.705743
  35 357.243 0.245055 -1.05097
  36 360.188 0.433756 -1.86749
  37 364.444 0.983908 -3.78958
  38 374.225 0.368530 -5.09180
  39 386.786 0.610992 -8.34090
  40 401.482 -3.56877 -8.21221
  41 414.968 -4.30145 -0.949220
  42 408.569 -2.95442 6.87059
  43 393.119 3.06888 12.1036
  44 384.699 7.54765 -0.471689
  45 390.836 3.62087 -11.3618
  46 408.151 -4.39197 -8.37300
  47 411.192 -5.22282 2.76813
  48 403.571 -2.35734 7.07645
  49 384.157 0.125457 8.38691
  50 373.367 1.40781 6.44707
  51 364.699 1.12908 3.64203
  52 360.255 0.348765 1.71112
  53 357.443 0.289747 1.01470
  54 357.045 1.27733 0.630818
  55 356.407 2.62120 0.733250
  56 354.837 4.55594 0.652285
  57 354.210 5.29786 -0.0632177
  58 355.014 4.32199 -0.782339
  59 356.139 2.85767 -0.666976
  60 356.633 1.44825 -0.705743
  61 759.264 39.6039 79.5402
  62 692.403 11.3237 28.1607
  63 653.110 4.72656 10.4062
  64 644.711 3.42139 2.03955
  65 652.771 4.53336 -8.88660
  66 682.726 9.71384 -24.4442
  67 766.399 34.4752 -68.4884
  68 101.487 -111.799 -126.264
  69 20.0760 -258.751 -32.4532
  70 5.64555 -294.819 -14.1804
  71 5.39693 -289.567 -7.15835
  72 9.22273 -281.572 15.1710
  73 21.7935 -250.770 34.3668
  74 110.035 -104.128 139.928
  75 759.264 39.6039 79.5402
  76 692.403 11.3237 28.1607
  77 653.110 4.72656 10.4062
  78 644.711 3.42139 2.03955
  79 652.771 4.53336 -8.88660
  80 682.726 9.71384 -24.4442
  81 766.399 34.4752 -68.4884
  82 101.487 -111.799 -126.264
  83 20.0760 -258.751 -32.4532
  84 5.64555 -294.819 -14.1804
  85 5.39693 -289.567 -7.15835
  86 9.22273 -281.572 15.1710
  87 21.7935 -250.770 34.3668
  88 110.035 -104.128 139.928
  89 327.626 18.7372 -4.87177
  90 327.626 18.7372 -4.87177
  91 299.207 4.15678 44.0408
  92 287.509 -1.77564 -52.5642
  93 299.207 4.15678 44.0408
  94 287.509 -1.77564 -52.5642
  95 169.673 4.40065 21.1445
  96 169.673 4.40065 21.1445
  97 439.275 28.2900 -6.72819
  98 447.612 16.2298 13.4771
  99 439.275 28.2900 -6.72819
  100 447.612 16.2298 13.4771
  101 351.356 8.48868 4.86782
  102 351.356 8.48868 4.86782
  103 420.081 -23.8987 0.652909
  104 420.081 -23.8987 0.652909
  105 351.783 8.87330 -6.00643
  106 351.783 8.87330 -6.00643
  107 412.716 -50.9380 -46.5765
  108 412.716 -50.9380 -46.5765
  109 288.914 -60.1543 116.163
  110 288.914 -60.1543 116.163
  111 195.400 -35.2448 -93.7003
  112 195.400 -35.2448 -93.7003
  113 353.194 5.92548 20.8913
  114 353.194 5.92548 20.8913
  115 366.044 2.47591 -19.9810
  116 366.044 2.47591 -19.9810
  117 496.422 33.4356 5.15370
  118 531.706 34.4421 3.08860
  119 496.422 33.4356 5.15370
  120 531.706 34.4421 3.08860
  121 520.693 43.9887 -13.7819
  122 520.693 43.9887 -13.7819
  123 57.2221 -93.7168 -30.7646
  124 57.2221 -93.7168 -30.7646
  125 448.151 -55.6047 50.4633
  126 448.151 -55.6047 50.4633
  127 378.412 -9.13340 23.5680
  128 378.412 -9.13340 23.5680
  129 87.1287 -80.9118 70.6819
  130 87.1287 -80.9118 70.6819
  131 351.859 7.09035 -0.307614
  132 351.859 7.09035 -0.307614
  133 377.797 -17.6147 -30.0579
  134 377.797 -17.6147 -30.0579
  135 357.402 2.90343 3.52403
  136 357.402 2.90343 3.52403
  137 357.716 2.55347 -3.28810
  138 357.716 2.55347 -3.28810
  139 361.624 4.97292 -10.5050
  140 361.624 4.97292 -10.5050
  141 359.977 4.84441 9.46185
  142 359.977 4.84441 9.46185
  143 344.804 11.8162 -0.385044
  144 344.804 11.8162 -0.385044
  145 288.422 19.1344 -2.25270
  146 288.422 19.1344 -2.25270
  147 418.018 -14.9063 6.27910
  148 418.018 -14.9063 6.27910
  149 477.485 -16.5453 -18.9849
  150 477.485 -16.5453 -18.9849
  151 368.987 -41.1473 57.8834
  152 368.987 -41.1473 57.8834
  153 278.691 -75.3256 -130.497
  154 278.691 -75.3256 -130.497
  155 328.369 13.4564 19.9039
  156 328.369 13.4564 19.9039
  157 425.311 -2.57244 -15.3958
  158 425.311 -2.57244 -15.3958
  159 579.946 46.1393 33.2463
  160 579.946 46.1393 33.2463
  161 290.233 -80.7031 151.009
  162 290.233 -80.7031 151.009
  163 592.305 19.5677 -6.78256
  164 592.305 19.5677 -6.78256
  165 343.430 11.7804 9.25431
  166 343.430 11.7804 9.25431
  167 326.353 11.1233 -29.1209
  168 326.353 11.1233 -29.1209
  169 404.049 12.2067 9.27945
  170 404.049 12.2067 9.27945
  171 340.233 14.0560 -10.5077
  172 340.233 14.0560 -10.5077
  173 353.987 5.69995 1.54092
  174 353.987 5.69995 1.54092
  175 359.812 2.76603 -5.59787
  176 359.812 2.76603 -5.59787
  177 556.236 43.8777 -33.0984
  178 556.236 43.8777 -33.0984
  179 354.269 5.54716 -1.86082
  180 354.269 5.54716 -1.86082
  181 261.555 19.1272 -15.1574
  182 261.555 19.1272 -15.1574
  183 471.405 34.8739 2.84675
  184 471.405 34.8739 2.84675
  185 95.6119 -79.4760 -91.1988
  186 95.6119 -79.4760 -91.1988
  187 257.797 -2.76137 64.0025
  188 257.797 -2.76137 64.0025
  189 344.273 -55.5407 -90.0364
  190 344.273 -55.5407 -90.0364
  191 406.496 -11.1706 5.02978
  192 406.496 -11.1706 5.02978
  193 380.392 -1.28425 14.5526
  194 380.392 -1.28425 14.5526
  195 517.034 15.2926 31.1115
  196 517.034 15.2926 31.1115
  197 214.999 6.84712 -39.5271
  198 214.999 6.84712 -39.5271
  199 587.231 26.2481 15.5416
  200 587.231 26.2481 15.5416
  201 387.462 -4.74772 -15.2863
  202 387.462 -4.74772 -15.2863
  203 360.374 1.97570 5.16253
  204 360.374 1.97570 5.16253
  205 403.320 -15.7904 -7.90653
  206 403.320 -15.7904 -7.90653
  207 441.080 -22.1707 -2.98449
  208 441.080 -22.1707 -2.98449
  209 27.5134 -162.946 13.5612
  210 27.5134 -162.946 13.5612
  211 371.610 1.96038 -12.8430
  212 371.610 1.96038 -12.8430
  213 368.511 2.90403 11.2263
  214 368.511 2.90403 11.2263
  215 354.512 -32.5481 -57.3616
  216 354.512 -32.5481 -57.3616
  217 414.057 -8.78435 -9.45832
  218 414.057 -8.78435 -9.45832
  219 339.043 12.2373 -19.8998
  220 339.043 12.2373 -19.8998
  221 93.4751 -116.698 99.9628
  222 93.4751 -116.698 99.9628
  223 419.650 1.88588 14.5580
  224 419.650 1.88588 14.5580
  225 407.713 10.3634 -12.3010
  226 407.713 10.3634 -12.3010
  227 580.692 34.6791 -26.5792
  228 580.692 34.6791 -26.5792
  229 442.609 -16.4018 -7.22880
  230 442.609 -16.4018 -7.22880
  231 483.407 -21.6932 -85.6059
  232 483.407 -21.6932 -85.6059
  233 355.681 -16.0362 44.2131
  234 355.681 -16.0362 44.2131
  235 348.595 9.87118 1.56617
  236 348.595 9.87118 1.56617
  237 185.147 -27.2729 82.9629
  238 185.147 -27.2729 82.9629
  239 462.620 -39.9251 100.125
  240 462.620 -39.9251 100.125
  241 125.746 -16.3852 -41.0186
  242 125.746 -16.3852 -41.0186
  243 411.751 -30.9086 -19.9221
  244 411.751 -30.9086 -19.9221
  245 335.687 15.1531 11.5136
  246 335.687 15.1531 11.5136
  247 12.0481 -212.070 -11.0279
  248 12.0481 -212.070 -11.0279
  249 23.1425 -186.467 36.5644
  250 23.1425 -186.467 36.5644
  251 341.807 2.38193 31.8358
  252 341.807 2.38193 31.8358
  253 357.002 1.36126 1.27610
  254 357.002 1.36126 1.27610
  255 353.954 5.74238 0.242493
  256 353.954 5.74238 0.242493
  257 332.182 -4.10282 -42.2850
  258 332.182 -4.10282 -42.2850
  259 357.217 1.23943 -1.35167
  260 357.217 1.23943 -1.35167
  261 395.238 -27.8260 26.5213
  262 395.238 -27.8260 26.5213
  263 366.747 1.29925 -6.26525
  264 366.747 1.29925 -6.26525
  265 284.108 -24.0605 -78.4734
  266 284.108 -24.0605 -78.4734
  267 483.788 37.1371 -1.50386
  268 483.788 37.1371 -1.50386
  269 353.485 7.85726 -16.2297
  270 353.485 7.85726 -16.2297
  271 352.112 7.35454 -3.25009
  272 352.112 7.35454 -3.25009
  273 299.287 14.5461 -29.0936
  274 299.287 14.5461 -29.0936
  275 91.0004 -35.3721 23.6278
  276 91.0004 -35.3721 23.6278
  277 377.618 -62.6331 80.3262
  278 377.618 -62.6331 80.3262
  279 355.903 5.30803 6.35124
  280 355.903 5.30803 6.35124
  281 527.924 37.3669 -8.25597
  282 527.924 37.3669 -8.25597
  283 631.537 54.0237 74.2015
  284 631.537 54.0237 74.2015
  285 423.983 -45.0222 26.3292
  286 423.983 -45.0222 26.3292
  287 305.211 15.2720 21.3520
  288 305.211 15.2720 21.3520
  289 388.372 -77.2100 105.953
  290 388.372 -77.2100 105.953
  291 400.012 -4.69924 9.87080
  292 400.012 -4.69924 9.87080
  293 355.686 3.49746 1.74474
  294 355.686 3.49746 1.74474
  295 350.617 9.64053 -10.3602
  296 350.617 9.64053 -10.3602
  297 354.044 5.65018 -0.479207
  298 354.044 5.65018 -0.479207
  299 359.155 0.994085 -2.43717
  300 359.155 0.994085 -2.43717
  301 366.414 1.82154 6.28976
  302 366.414 1.82154 6.28976
  303 348.694 9.81837 -2.66284
  304 348.694 9.81837 -2.66284
  305 80.2417 -136.164 -95.0503
  306 80.2417 -136.164 -95.0503
  307 239.386 15.5928 19.8439
  308 239.386 15.5928 19.8439
  309 356.083 2.91801 -1.67658
  310 356.083 2.91801 -1.67658
  311 313.717 18.0827 -14.3041
  312 313.717 18.0827 -14.3041
  313 314.512 19.7186 5.45649
  314 314.512 19.7186 5.45649
  315 355.329 5.10419 -4.50222
  316 355.329 5.10419 -4.50222
  317 476.550 25.0224 -1.57777
  318 476.550 25.0224 -1.57777
  319 352.662 8.54283 14.2258
  320 352.662 8.54283 14.2258
  321 449.976 14.1133 -12.0031
  322 449.976 14.1133 -12.0031
  323 663.403 18.7988 44.6541
  324 663.403 18.7988 44.6541
  325 351.337 8.84595 8.95136
  326 351.337 8.84595 8.95136
  327 345.756 11.7063 4.68243
  328 345.756 11.7063 4.68243
  329 271.111 -58.5539 -150.064
  330 271.111 -58.5539 -150.064
  331 359.365 0.898726 2.38421
  332 359.365 0.898726 2.38421
  333 351.770 7.41114 2.42847
  334 351.770 7.41114 2.42847
  335 338.782 15.1715 0.536448
  336 338.782 15.1715 0.536448
  337 175.405 -62.0693 120.697
  338 175.405 -62.0693 120.697
  339 436.534 28.5897 2.11536
  340 436.534 28.5897 2.11536
  341 25.0920 -182.599 -42.3343
  342 25.0920 -182.599 -42.3343
  343 272.482 17.1966 17.6733
  344 272.482 17.1966 17.6733
  345 627.669 8.57471 6.18183
  346 627.669 8.57471 6.18183
  347 655.332 33.2189 -46.0068
  348 655.332 33.2189 -46.0068
  349 307.452 -35.5187 87.7977
  350 320.554 -18.2704 65.0059
  351 307.452 -35.5187 87.7977
  352 320.554 -18.2704 65.0059
  353 636.728 15.8779 23.3551
  354 636.728 15.8779 23.3551
  355 363.937 -0.509821 24.8330
  356 363.937 -0.509821 24.8330
  357 431.019 -58.1613 -62.2894
  358 431.019 -58.1613 -62.2894
  359 409.465 -3.53624 11.9088
  360 409.465 -3.53624 11.9088
  361 277.368 -58.5505 164.229
  362 277.368 -58.5505 164.229
  363 478.388 38.3738 -1.28708
  364 478.388 38.3738 -1.28708
  365 636.265 5.80800 -4.87964
  366 636.265 5.80800 -4.87964
  367 387.347 0.194160 -12.1450
  368 387.347 0.194160 -12.1450
  369 345.762 12.4479 -5.60487
  370 345.762 12.4479 -5.60487
  371 534.277 41.4869 13.6766
  372 534.277 41.4869 13.6766
  373 409.779 17.1191 -2.60130
  374 409.779 17.1191 -2.60130
  375 373.325 1.42127 -7.76933
  376 373.325 1.42127 -7.76933
  377 101.612 -50.4039 -69.3095
  378 101.612 -50.4039 -69.3095
  379 412.716 -7.42732 3.23665
  380 412.716 -7.42732 3.23665
  381 353.253 -0.560280 -29.2975
  382 353.253 -0.560280 -29.2975
  383 406.576 -0.841313 -14.2211
  384 406.576 -0.841313 -14.2211
  385 639.134 11.2879 -19.3383
  386 639.134 11.2879 -19.3383
  387 354.436 5.46412 3.55978
  388 354.436 5.46412 3.55978
  389 432.237 21.1028 11.8263
  390 432.237 21.1028 11.8263
  391 466.208 -10.0431 4.57343
  392 466.208 -10.0431 4.57343
  393 355.753 6.42362 -7.94237
  394 355.753 6.42362 -7.94237
  395 676.375 63.4999 -86.0841
  396 676.375 63.4999 -86.0841
  397 407.315 -5.92970 -4.25551
  398 407.315 -5.92970 -4.25551
</Section>

newXOutput 105

<Section columns = "stress_xx | stress_yy | stress_xy">
  1 359.672 0.350661 -0.403848
  2 359.835 0.435073 0.544589
  3 359.672 0.350661 -0.403848
  4 359.835 0.435073 0.544589
  5 553.393 37.1264 155.749
  6 574.965 36.1101 -153.235
  7 553.393 37.1264 155.749
  8 574.965 36.1101 -153.235
  9 360.567 0.247321 -1.05985
  10 363.535 0.437701 -1.88338
  11 367.827 0.992709 -3.82219
  12 377.691 0.371625 -5.13615
  13 390.360 0.615649 -8.41531
  14 405.186 -3.60372 -8.28836
  15 418.797 -4.34258 -0.962619
  16 412.360 -2.98181 6.92450
  17 396.792 3.09996 12.2035
  18 388.308 7.62080 -0.475664
  19 394.491 3.65557 -11.4563
  20 411.939 -4.43297 -8.43849
  21 414.988 -5.27287 2.79925
  22 407.294 -2.38028 7.14251
  23 387.709 0.125316 8.46219
  24 376.826 1.42012 6.50344
  25 368.085 1.13919 3.67331
  26 363.603 0.351946 1.72566
  27 360.768 0.292441 1.02330
  28 360.367 1.28892 0.636100
  29 359.724 2.64481 0.739455
  30 358.142 4.59671 0.657843
  31 357.509 5.34518 -0.0637538
  32 358.320 4.36071 -0.788971
  33 359.454 2.88341 -0.672534
  34 359.951 1.46144 -0.711721
  35 360.567 0.247321 -1.05985
  36 363.535 0.437701 -1.88338
  37 367.827 0.992709 -3.82219
  38 377.691 0.371625 -5.13615
  39 390.360 0.615649 -8.41531
  40 405.186 -3.60372 -8.28836
  41 418.797 -4.34258 -0.962619
  42 412.360 -2.98181 6.92450
  43 396.792 3.09996 12.2035
  44 388.308 7.62080 -0.475664
  45 394.491 3.65557 -11.4563
  46 411.939 -4.43297 -8.43849
  47 414.988 -5.27287 2.79925
  48 407.294 -2.38028 7.14251
  49 387.709 0.125316 8.46219
  50 376.826 1.42012 6.50344
  51 368.085 1.13919 3.67331
  52 363.603 0.351946 1.72566
  53 360.768 0.292441 1.02330
  54 360.367 1.28892 0.636100
  55 359.724 2.64481 0.739455
  56 358.142 4.59671 0.657843
  57 357.509 5.34518 -0.0637538
  58 358.320 4.36071 -0.788971
  59 359.454 2.88341 -0.672534
  60 359.951 1.46144 -0.711721
  61 765.995 39.9788 80.2680
  62 698.562 11.4223 28.4101
  63 658.941 4.76438 10.4957
  64 650.471 3.44948 2.05562
  65 658.598 4.57140 -8.96256
  66 688.807 9.79751 -24.6583
  67 773.194 34.8007 -69.1156
  68 102.419 -112.709 -127.524
  69 20.2610 -261.187 -32.8080
  70 5.68766 -297.661 -14.3347
  71 5.43758 -292.365 -7.22733
  72 9.30129 -284.275 15.3367
  73 21.9971 -253.129 34.7440
  74 111.037 -104.967 141.321
  75 765.995 39.9788 80.2680
  76 698.562 11.4223 28.4101
  77 658.941 4.76438 10.4957
  78 650.471 3.44948 2.05562
  79 658.598 4.57140 -8.96256
  80 688.807 9.79751 -24.6583
  81 773.194 34.8007 -69.1156
  82 102.419 -112.709 -127.524
  83 20.2610 -261.187 -32.8080
  84 5.68766 -297.661 -14.3347
  85 5.43758 -292.365 -7.22733
  86 9.30129 -284.275 15.3367
  87 21.9971 -253.129 34.7440
  88 111.037 -104.967 141.321
  89 330.697 18.9090 -4.91582
  90 330.697 18.9090 -4.91582
  91 302.015 4.19680 44.4483
  92 290.209 -1.79083 -53.0538
  93 302.015 4.19680 44.4483
  94 290.209 -1.79083 -53.0538
  95 171.301 4.45438 21.3448
  96 171.301 4.45438 21.3448
  97 443.354 28.5567 -6.77665
  98 451.752 16.3907 13.5677
  99 443.354 28.5567 -6.77665
  100 451.752 16.3907 13.5677
  101 354.631 8.56519 4.91022
  102 354.631 8.56519 4.91022
  103 423.960 -24.1198 0.683641
  104 423.960 -24.1198 0.683641
  105 355.062 8.95343 -6.05886
  106 355.062 8.95343 -6.05886
  107 416.512 -51.4130 -47.0300
  108 416.512 -51.4130 -47.0300
  109 291.599 -60.7204 117.270
  110 291.599 -60.7204 117.270
  111 197.243 -35.5696 -94.5998
  112 197.243 -35.5696 -94.5998
  113 356.483 5.97856 21.0804
  114 356.483 5.97856 21.0804
  115 369.444 2.49673 -20.1630
  116 369.444 2.49673 -20.1630
  117 500.988 33.7601 5.24504
  118 536.578 34.7518 3.12398
  119 500.988 33.7601 5.24504
  120 536.578 34.7518 3.12398
  121 525.474 44.4028 -13.9429
  122 525.474 44.4028 -13.9429
  123 57.7685 -94.5726 -31.0746
  124 57.7685 -94.5726 -31.0746
  125 452.253 -56.1076 50.9725
  126 452.253 -56.1076 50.9725
  127 381.920 -9.22001 23.7899
  128 381.920 -9.22001 23.7899
  129 87.9602 -81.6472 71.3865
  130 87.9602 -81.6472 71.3865
  131 355.138 7.15403 -0.310234
  132 355.138 7.15403 -0.310234
  133 381.297 -17.7804 -30.3435
  134 381.297 -17.7804 -30.3435
  135 360.727 2.92960 3.55429
  136 360.727 2.92960 3.55429
  137 361.043 2.57655 -3.31626
  138 361.043 2.57655 -3.31626
  139 364.985 5.01738 -10.5976
  140 364.985 5.01738 -10.5976
  141 363.324 4.88789 9.54492
  142 363.324 4.88789 9.54492
  143 348.024 11.9231 -0.388533
  144 348.024 11.9231 -0.388533
  145 291.144 19.3127 -2.27375
  146 291.144 19.3127 -2.27375
  147 421.885 -15.0431 6.31565
  148 421.885 -15.0431 6.31565
  149 481.860 -16.6723 -19.2127
  150 481.860 -16.6723 -19.2127
  151 372.400 -41.5333 58.4320
  152 372.400 -41.5333 58.4320
  153 281.266 -76.0162 -131.765
  154 281.266 -76.0162 -131.765
  155 331.443 13.5803 20.0849
  156 331.443 13.5803 20.0849
  157 429.249 -2.59188 -15.5116
  158 429.249 -2.59188 -15.5116
  159 585.221 46.5726 33.5795
  160 585.221 46.5726 33.5795
  161 292.912 -81.4514 152.465
  162 292.912 -81.4514 152.465
  163 597.669 19.7375 -6.84620
  164 597.669 19.7375 -6.84620
  165 346.638 11.8872 9.33645
  166 346.638 11.8872 9.33645
  167 329.407 11.2260 -29.3879
  168 329.407 11.2260 -29.3879
  169 407.821 12.3246 9.35516
  170 407.821 12.3246 9.35516
  171 343.413 14.1839 -10.6015
  172 343.413 14.1839 -10.6015
  173 357.284 5.75106 1.55416
  174 357.284 5.75106 1.55416
  175 363.157 2.79084 -5.64632
  176 363.157 2.79084 -5.64632
  177 561.305 44.3125 -33.4532
  178 561.305 44.3125 -33.4532
  179 357.569 5.59697 -1.87677
  180 357.569 5.59697 -1.87677
  181 264.031 19.3088 -15.2981
  182 264.031 19.3088 -15.2981
  183 475.762 35.2012 2.84856
  184 475.762 35.2012 2.84856
  185 96.5182 -80.1980 -92.1048
  186 96.5182 -80.1980 -92.1048
  187 260.225 -2.78399 64.6016
  188 260.225 -2.78399 64.6016
  189 347.456 -56.0622 -90.8941
  190 347.456 -56.0622 -90.8941
  191 410.255 -11.2761 5.08770
  192 410.255 -11.2761 5.08770
  193 383.915 -1.29796 14.6859
  194 383.915 -1.29796 14.6859
  195 521.758 15.4695 31.4558
  196 521.758 15.4695 31.4558
  197 217.043 6.91864 -39.8995
  198 217.043 6.91864 -39.8995
  199 592.558 26.4802 15.6903
  200 592.558 26.4802 15.6903
  201 391.049 -4.79384 -15.4300
  202 391.049 -4.79384 -15.4300
  203 363.724 1.99335 5.20715
  204 363.724 1.99335 5.20715
  205 407.050 -15.9396 -7.99223
  206 407.050 -15.9396 -7.99223
  207 445.143 -22.3689 -3.04653
  208 445.143 -22.3689 -3.04653
  209 27.7713 -164.474 13.7016
  210 27.7713 -164.474 13.7016
  211 375.057 1.97670 -12.9581
  212 375.057 1.97670 -12.9581
  213 371.931 2.92969 11.3262
  214 371.931 2.92969 11.3262
  215 357.800 -32.8533 -57.9035
  216 357.800 -32.8533 -57.9035
  217 417.892 -8.86600 -9.52717
  218 417.892 -8.86600 -9.52717
  219 342.210 12.3493 -20.0805
  220 342.210 12.3493 -20.0805
  221 94.3485 -117.756 100.966
  222 94.3485 -117.756 100.966
  223 423.545 1.90906 14.6700
  224 423.545 1.90906 14.6700
  225 411.513 10.4640 -12.3998
  226 411.513 10.4640 -12.3998
  227 585.970 34.9929 -26.8401
  228 585.970 34.9929 -26.8401
  229 446.688 -16.5460 -7.26069
  230 446.688 -16.5460 -7.26069
  231 487.809 -21.8396 -86.4633
  232 487.809 -21.8396 -86.4633
  233 358.984 -16.1862 44.6259
  234 358.984 -16.1862 44.6259
  235 351.847 9.96025 1.57987
  236 351.847 9.96025 1.57987
  237 186.900 -27.5213 83.7575
  238 186.900 -27.5213 83.7575
  239 466.832 -40.2518 101.114
  240 466.832 -40.2518 101.114
  241 126.955 -16.5207 -41.4149
  242 126.955 -16.5207 -41.4149
  243 415.549 -31.1971 -20.1259
  244 415.549 -31.1971 -20.1259
  245 338.827 15.2917 11.6171
  246 338.827 15.2917 11.6171
  247 12.1549 -214.080 -11.1446
  248 12.1549 -214.080 -11.1446
  249 23.3569 -188.213 36.9490
  250 23.3569 -188.213 36.9490
  251 344.994 2.40343 32.1285
  252 344.994 2.40343 32.1285
  253 360.323 1.37361 1.28693
  254 360.323 1.37361 1.28693
  255 357.251 5.79375 0.244587
  256 357.251 5.79375 0.244587
  257 335.282 -4.14158 -42.6774
  258 335.282 -4.14158 -42.6774
  259 360.540 1.25073 -1.36315
  260 360.540 1.25073 -1.36315
  261 398.891 -28.0864 26.7803
  262 398.891 -28.0864 26.7803
  263 370.150 1.31067 -6.31976
  264 370.150 1.31067 -6.31976
  265 286.765 -24.2858 -79.2126
  266 286.765 -24.2858 -79.2126
  267 488.252 37.4838 -1.49341
  268 488.252 37.4838 -1.49341
  269 356.777 7.92804 -16.3751
  270 356.777 7.92804 -16.3751
  271 355.393 7.42072 -3.27820
  272 355.393 7.42072 -3.27820
  273 302.102 14.6822 -29.3617
  274 302.102 14.6822 -29.3617
  275 91.8785 -35.6782 23.8598
  276 91.8785 -35.6782 23.8598
  277 381.096 -63.2202 81.0944
  278 381.096 -63.2202 81.0944
  279 359.216 5.35581 6.40639
  280 359.216 5.35581 6.40639
  281 532.765 37.7059 -8.34449
  282 532.765 37.7059 -8.34449
  283 637.230 54.5651 74.9231
  284 637.230 54.5651 74.9231
  285 427.883 -45.4387 26.6016
  286 427.883 -45.4387 26.6016
  287 308.080 15.4141 21.5473
  288 308.080 15.4141 21.5473
  289 391.935 -77.9301 106.969
  290 391.935 -77.9301 106.969
  291 403.708 -4.74449 9.96529
  292 403.708 -4.74449 9.96529
  293 358.997 3.52889 1.75964
  294 358.997 3.52889 1.75964
  295 353.886 9.72771 -10.4516
  296 353.886 9.72771 -10.4516
  297 357.342 5.70074 -0.483304
  298 357.342 5.70074 -0.483304
  299 362.494 1.00308 -2.45800
  300 362.494 1.00308 -2.45800
  301 369.815 1.83770 6.34447
  302 369.815 1.83770 6.34447
  303 351.947 9.90699 -2.68611
  304 351.947 9.90699 -2.68611
  305 80.9889 -137.396 -96.0098
  306 80.9889 -137.396 -96.0098
  307 241.659 15.7435 20.0284
  308 241.659 15.7435 20.0284
  309 359.397 2.94430 -1.69087
  310 359.397 2.94430 -1.69087
  311 316.663 18.2498 -14.4347
  312 316.663 18.2498 -14.4347
  313 317.466 19.9006 5.50586
  314 317.466 19.9006 5.50586
  315 358.637 5.15013 -4.54112
  316 358.637 5.15013 -4.54112
  317 480.938 25.2726 -1.63677
  318 480.938 25.2726 -1.63677
  319 355.948 8.62007 14.3524
  320 355.948 8.62007 14.3524
  321 454.135 14.2541 -12.0807
  322 454.135 14.2541 -12.0807
  323 669.352 18.9633 45.0666
  324 669.352 18.9633 45.0666
  325 354.611 8.92587 9.03007
  326 354.611 8.92587 9.03007
  327 348.983 11.8123 4.72361
  328 348.983 11.8123 4.72361
  329 273.593 -58.9965 -151.542
  330 273.593 -58.9965 -151.542
  331 362.706 0.906844 2.40458
  332 362.706 0.906844 2.40458
  333 355.048 7.47778 2.44949
  334 355.048 7.47778 2.44949
  335 341.950 15.3096 0.541189
  336 341.950 15.3096 0.541189
  337 177.056 -62.6455 121.871
  338 177.056 -62.6455 121.871
  339 440.592 28.8588 2.12922
  340 440.592 28.8588 2.12922
  341 25.3217 -184.307 -42.7728
  342 25.3217 -184.307 -42.7728
  343 275.058 17.3588 17.8359
  344 275.058 17.3588 17.8359
  345 633.306 8.64729 6.23545
  346 633.306 8.64729 6.23545
  347 661.225 33.5267 -46.4362
  348 661.225 33.5267 -46.4362
  349 310.313 -35.8527 88.6251
  350 323.543 -18.4411 65.6122
  351 310.313 -35.8527 88.6251
  352 323.543 -18.4411 65.6122
  353 642.449 16.0147 23.5662
  354 642.449 16.0147 23.5662
  355 367.320 -0.516003 25.0611
  356 367.320 -0.516003 25.0611
  357 434.966 -58.6962 -62.9021
  358 434.966 -58.6962 -62.9021
  359 413.267 -3.56753 12.0039
  360 413.267 -3.56753 12.0039
  361 279.894 -58.9990 165.836
  362 279.894 -58.9990 165.836
  363 482.810 38.7274 -1.29795
  364 482.810 38.7274 -1.29795
  365 641.967 5.85667 -4.92307
  366 641.967 5.85667 -4.92307
  367 390.929 0.194178 -12.2554
  368 390.929 0.194178 -12.2554
  369 348.990 12.5607 -5.65429
  370 348.990 12.5607 -5.65429
  371 539.172 41.8690 13.8270
  372 539.172 41.8690 13.8270
  373 413.602 17.2817 -2.62223
  374 413.602 17.2817 -2.62223
  375 376.785 1.43339 -7.83776
  376 376.785 1.43339 -7.83776
  377 102.591 -50.8571 -69.9907
  378 102.591 -50.8571 -69.9907
  379 416.533 -7.49698 3.25530
  380 416.533 -7.49698 3.25530
  381 356.541 -0.566965 -29.5678
  382 356.541 -0.566965 -29.5678
  383 410.358 -0.847769 -14.3360
  384 410.358 -0.847769 -14.3360
  385 644.872 11.3861 -19.5118
  386 644.872 11.3861 -19.5118
  387 357.737 5.51321 3.59048
  388 357.737 5.51321 3.59048
  389 436.249 21.3052 11.9141
  390 436.249 21.3052 11.9141
  391 470.489 -10.1190 4.66085
  392 470.489 -10.1190 4.66085
  393 359.065 6.48150 -8.01168
  394 359.065 6.48150 -8.01168
  395 682.441 64.1436 -86.9142
  396 682.441 64.1436 -86.9142
  397 411.076 -5.98667 -4.30015
  398 411.076 -5.98667 -4.30015
</Section>

newXOutput 106

<Section columns = "stress_xx | stress_yy | stress_xy">
  1 362.985 0.353947 -0.407205
  2 363.150 0.439093 0.549109
  3 362.985 0.353947 -0.407205
  4 363.150 0.439093 0.549109
  5 558.299 37.6002 157.240
  6 580.051 36.5801 -154.703
  7 558.299 37.6002 157.240
  8 580.051 36.5801 -154.703
  9 363.887 0.249584 -1.06870
  10 366.880 0.441641 -1.89924
  11 371.208 1.00150 -3.85472
  12 381.154 0.374712 -5.18041
  13 393.931 0.620283 -8.48961
  14 408.886 -3.63866 -8.36444
  15 422.622 -4.38369 -0.976089
  16 416.148 -3.00917 6.97818
  17 400.463 3.13105 12.3032
  18 391.914 7.69394 -0.479627
  19 398.143 3.69027 -11.5506
  20 415.724 -4.47394 -8.50370
  21 418.780 -5.32290 2.83044
  22 411.013 -2.40321 7.20852
  23 391.259 0.125152 8.53737
  24 380.282 1.43241 6.55970
  25 371.468 1.14928 3.70451
  26 366.949 0.355122 1.74017
  27 364.091 0.295134 1.03189
  28 363.686 1.30049 0.641368
  29 363.038 2.66838 0.745644
  30 361.443 4.63742 0.663387
  31 360.805 5.39244 -0.0642885
  32 361.623 4.39937 -0.795587
  33 362.765 2.90911 -0.678076
  34 363.267 1.47461 -0.717685
  35 363.887 0.249584 -1.06870
  36 366.880 0.441641 -1.89924
  37 371.208 1.00150 -3.85472
  38 381.154 0.374712 -5.18041
  39 393.931 0.620283 -8.48961
  40 408.886 -3.63866 -8.36444
  41 422.622 -4.38369 -0.976089
  42 416.148 -3.00917 6.97818
  43 400.463 3.13105 12.3032
  44 391.914 7.69394 -0.479627
  45 398.143 3.69027 -11.5506
  46 415.724 -4.47394 -8.50370
  47 418.780 -5.32290 2.83044
  48 411.013 -2.40321 7.20852
  49 391.259 0.125152 8.53737
  50 380.282 1.43241 6.55970
  51 371.468 1.14928 3.70451
  52 366.949 0.355122 1.74017
  53 364.091 0.295134 1.03189
  54 363.686 1.30049 0.641368
  55 363.038 2.66838 0.745644
  56 361.443 4.63742 0.663387
  57 360.805 5.39244 -0.0642885
  58 361.623 4.39937 -0.795587
  59 362.765 2.90911 -0.678076
  60 363.267 1.47461 -0.717685
  61 772.714 40.3535 80.9950
  62 704.710 11.5207 28.6590
  63 664.763 4.80207 10.5849
  64 656.222 3.47748 2.07164
  65 664.416 4.60934 -9.03835
  66 694.878 9.88099 -24.8720
  67 779.978 35.1261 -69.7421
  68 103.351 -113.617 -128.785
  69 20.4458 -263.621 -33.1635
  70 5.72954 -300.503 -14.4894
  71 5.47801 -295.163 -7.29631
  72 9.37965 -286.979 15.5028
  73 22.2005 -255.486 35.1220
  74 112.037 -105.802 142.713
  75 772.714 40.3535 80.9950
  76 704.710 11.5207 28.6590
  77 664.763 4.80207 10.5849
  78 656.222 3.47748 2.07164
  79 664.416 4.60934 -9.03835
  80 694.878 9.88099 -24.8720
  81 779.978 35.1261 -69.7421
  82 103.351 -113.617 -128.785
  83 20.4458 -263.621 -33.1635
  84 5.72954 -300.503 -14.4894
  85 5.47801 -295.163 -7.29631
  86 9.37965 -286.979 15.5028
  87 22.2005 -255.486 35.1220
  88 112.037 -105.802 142.713
  89 333.765 19.0807 -4.95981
  90 333.765 19.0807 -4.95981
  91 304.822 4.23682 44.8555
  92 292.908 -1.80599 -53.5431
  93 304.822 4.23682 44.8555
  94 292.908 -1.80599 -53.5431
  95 172.929 4.50831 21.5450
  96 172.929 4.50831 21.5450
  97 447.431 28.8231 -6.82482
  98 455.888 16.5517 13.6577
  99 447.431 28.8231 -6.82482
  100 455.888 16.5517 13.6577
  101 357.904 8.64160 4.95254
  102 357.904 8.64160 4.95254
  103 427.836 -24.3408 0.714799
  104 427.836 -24.3408 0.714799
  105 358.338 9.03344 -6.11119
  106 358.338 9.03344 -6.11119
  107 420.305 -51.8877 -47.4835
  108 420.305 -51.8877 -47.4835
  109 294.282 -61.2862 118.377
  110 294.282 -61.2862 118.377
  111 199.085 -35.8941 -95.4990
  112 199.085 -35.8941 -95.4990
  113 359.770 6.03156 21.2693
  114 359.770 6.03156 21.2693
  115 372.842 2.51749 -20.3448
  116 372.842 2.51749 -20.3448
  117 505.549 34.0846 5.33708
  118 541.445 35.0611 3.15944
  119 505.549 34.0846 5.33708
  120 541.445 35.0611 3.15944
  121 530.249 44.8168 -14.1043
  122 530.249 44.8168 -14.1043
  123 58.3148 -95.4273 -31.3849
  124 58.3148 -95.4273 -31.3849
  125 456.351 -56.6097 51.4820
  126 456.351 -56.6097 51.4820
  127 385.425 -9.30657 24.0116
  128 385.425 -9.30657 24.0116
  129 88.7915 -82.3816 72.0914
  130 88.7915 -82.3816 72.0914
  131 358.415 7.21762 -0.312848
  132 358.415 7.21762 -0.312848
  133 384.795 -17.9460 -30.6291
  134 384.795 -17.9460 -30.6291
  135 364.050 2.95573 3.58447
  136 364.050 2.95573 3.58447
  137 364.368 2.59960 -3.34436
  138 364.368 2.59960 -3.34436
  139 368.344 5.06177 -10.6901
  140 368.344 5.06177 -10.6901
  141 366.669 4.93130 9.62782
  142 366.669 4.93130 9.62782
  143 351.242 12.0299 -0.392017
  144 351.242 12.0299 -0.392017
  145 293.864 19.4910 -2.29479
  146 293.864 19.4910 -2.29479
  147 425.748 -15.1797 6.35177
  148 425.748 -15.1797 6.35177
  149 486.230 -16.7987 -19.4411
  150 486.230 -16.7987 -19.4411
  151 375.809 -41.9190 58.9803
  152 375.809 -41.9190 58.9803
  153 283.839 -76.7061 -133.032
  154 283.839 -76.7061 -133.032
  155 334.515 13.7042 20.2657
  156 334.515 13.7042 20.2657
  157 433.182 -2.61122 -15.6269
  158 433.182 -2.61122 -15.6269
  159 590.490 47.0057 33.9128
  160 590.490 47.0057 33.9128
  161 295.589 -82.1991 153.920
  162 295.589 -82.1991 153.920
  163 603.025 19.9069 -6.90979
  164 603.025 19.9069 -6.90979
  165 349.843 11.9939 9.41846
  166 349.843 11.9939 9.41846
  167 332.459 11.3287 -29.6546
  168 332.459 11.3287 -29.6546
  169 411.590 12.4425 9.43062
  170 411.590 12.4425 9.43062
  171 346.591 14.3117 -10.6951
  172 346.591 14.3117 -10.6951
  173 360.578 5.80210 1.56737
  174 360.578 5.80210 1.56737
  175 366.500 2.81561 -5.69467
  176 366.500 2.81561 -5.69467
  177 566.368 44.7474 -33.8085
  178 566.368 44.7474 -33.8085
  179 360.865 5.64671 -1.89269
  180 360.865 5.64671 -1.89269
  181 266.507 19.4903 -15.4387
  182 266.507 19.4903 -15.4387
  183 480.115 35.5284 2.84992
  184 480.115 35.5284 2.84992
  185 97.4240 -80.9190 -93.0111
  186 97.4240 -80.9190 -93.0111
  187 262.653 -2.80654 65.2004
  188 262.653 -2.80654 65.2004
  189 350.637 -56.5834 -91.7516
  190 350.637 -56.5834 -91.7516
  191 414.011 -11.3814 5.14579
  192 414.011 -11.3814 5.14579
  193 387.436 -1.31168 14.8191
  194 387.436 -1.31168 14.8191
  195 526.476 15.6469 31.8008
  196 526.476 15.6469 31.8008
  197 219.087 6.99024 -40.2716
  198 219.087 6.99024 -40.2716
  199 597.879 26.7118 15.8389
  200 597.879 26.7118 15.8389
  201 394.632 -4.83997 -15.5736
  202 394.632 -4.83997 -15.5736
  203 367.071 2.01097 5.25167
  204 367.071 2.01097 5.25167
  205 410.776 -16.0886 -8.07808
  206 410.776 -16.0886 -8.07808
  207 449.201 -22.5668 -3.10916
  208 449.201 -22.5668 -3.10916
  209 28.0290 -166.000 13.8423
  210 28.0290 -166.000 13.8423
  211 378.501 1.99297 -13.0730
  212 378.501 1.99297 -13.0730
  213 375.348 2.95530 11.4259
  214 375.348 2.95530 11.4259
  215 361.085 -33.1583 -58.4450
  216 361.085 -33.1583 -58.4450
  217 421.724 -8.94758 -9.59561
  218 421.724 -8.94758 -9.59561
  219 345.375 12.4611 -20.2609
  220 345.375 12.4611 -20.2609
  221 95.2212 -118.812 101.969
  222 95.2212 -118.812 101.969
  223 427.436 1.93233 14.7816
  224 427.436 1.93233 14.7816
  225 415.311 10.5645 -12.4982
  226 415.311 10.5645 -12.4982
  227 591.242 35.3062 -27.1010
  228 591.242 35.3062 -27.1010
  229 450.762 -16.6899 -7.29192
  230 450.762 -16.6899 -7.29192
  231 492.207 -21.9849 -87.3212
  232 492.207 -21.9849 -87.3212
  233 362.285 -16.3361 45.0383
  234 362.285 -16.3361 45.0383
  235 355.096 10.0492 1.59354
  236 355.096 10.0492 1.59354
  237 188.652 -27.7694 84.5519
  238 188.652 -27.7694 84.5519
  239 471.040 -40.5773 102.104
  240 471.040 -40.5773 102.104
  241 128.164 -16.6557 -41.8111
  242 128.164 -16.6557 -41.8111
  243 419.344 -31.4854 -20.3299
  244 419.344 -31.4854 -20.3299
  245 341.964 15.4301 11.7204
  246 341.964 15.4301 11.7204
  247 12.2614 -216.088 -11.2615
  248 12.2614 -216.088 -11.2615
  249 23.5712 -189.959 37.3341
  250 23.5712 -189.959 37.3341
  251 348.180 2.42490 32.4210
  252 348.180 2.42490 32.4210
  253 363.642 1.38594 1.29774
  254 363.642 1.38594 1.29774
  255 360.546 5.84503 0.246676
  256 360.546 5.84503 0.246676
  257 338.380 -4.18032 -43.0694
  258 338.380 -4.18032 -43.0694
  259 363.860 1.26202 -1.37460
  260 363.860 1.26202 -1.37460
  261 402.540 -28.3466 27.0394
  262 402.540 -28.3466 27.0394
  263 373.550 1.32207 -6.37415
  264 373.550 1.32207 -6.37415
  265 289.421 -24.5111 -79.9513
  266 289.421 -24.5111 -79.9513
  267 492.712 37.8303 -1.48253
  268 492.712 37.8303 -1.48253
  269 360.067 7.99872 -16.5203
  270 360.067 7.99872 -16.5203
  271 358.672 7.48681 -3.30624
  272 358.672 7.48681 -3.30624
  273 304.915 14.8181 -29.6294
  274 304.915 14.8181 -29.6294
  275 92.7564 -35.9836 24.0917
  276 92.7564 -35.9836 24.0917
  277 384.571 -63.8070 81.8625
  278 384.571 -63.8070 81.8625
  279 362.526 5.40351 6.46143
  280 362.526 5.40351 6.46143
  281 537.601 38.0444 -8.43314
  282 537.601 38.0444 -8.43314
  283 642.915 55.1067 75.6446
  284 642.915 55.1067 75.6446
  285 431.780 -45.8550 26.8742
  286 431.780 -45.8550 26.8742
  287 310.948 15.5562 21.7424
  288 310.948 15.5562 21.7424
  289 395.493 -78.6497 107.985
  290 395.493 -78.6497 107.985
  291 407.401 -4.78973 10.0597
  292 407.401 -4.78973 10.0597
  293 362.305 3.56027 1.77451
  294 362.305 3.56027 1.77451
  295 357.152 9.81478 -10.5429
  296 357.152 9.81478 -10.5429
  297 360.637 5.75122 -0.487392
  298 360.637 5.75122 -0.487392
  299 365.831 1.01205 -2.47878
  300 365.831 1.01205 -2.47878
  301 373.213 1.85383 6.39907
  302 373.213 1.85383 6.39907
  303 355.197 9.99550 -2.70934
  304 355.197 9.99550 -2.70934
  305 81.7354 -138.626 -96.9699
  306 81.7354 -138.626 -96.9699
  307 243.931 15.8942 20.2128
  308 243.931 15.8942 20.2128
  309 362.709 2.97056 -1.70512
  310 362.709 2.97056 -1.70512
  311 319.608 18.4166 -14.5651
  312 319.608 18.4166 -14.5651
  313 320.419 20.0825 5.55517
  314 320.419 20.0825 5.55517
  315 361.942 5.19600 -4.57993
  316 361.942 5.19600 -4.57993
  317 485.322 25.5228 -1.69653
  318 485.322 25.5228 -1.69653
  319 359.231 8.69721 14.4788
  320 359.231 8.69721 14.4788
  321 458.289 14.3949 -12.1575
  322 458.289 14.3949 -12.1575
  323 675.291 19.1276 45.4787
  324 675.291 19.1276 45.4787
  325 357.884 9.00569 9.10864
  326 357.884 9.00569 9.10864
  327 352.209 11.9181 4.76471
  328 352.209 11.9181 4.76471
  329 276.072 -59.4367 -153.020
  330 276.072 -59.4367 -153.020
  331 366.045 0.914951 2.42490
  332 366.045 0.914951 2.42490
  333 358.325 7.54431 2.47048
  334 358.325 7.54431 2.47048
  335 345.116 15.4475 0.545922
  336 345.116 15.4475 0.545922
  337 178.706 -63.2213 123.045
  338 178.706 -63.2213 123.045
  339 444.646 29.1277 2.14297
  340 444.646 29.1277 2.14297
  341 25.5511 -186.014 -43.2119
  342 25.5511 -186.014 -43.2119
  343 277.633 17.5209 17.9984
  344 277.633 17.5209 17.9984
  345 638.935 8.71970 6.28897
  346 638.935 8.71970 6.28897
  347 667.109 33.8342 -46.8651
  348 667.109 33.8342 -46.8651
  349 313.172 -36.1865 89.4521
  350 326.529 -18.6118 66.2180
  351 313.172 -36.1865 89.4521
  352 326.529 -18.6118 66.2180
  353 648.161 16.1512 23.7770
  354 648.161 16.1512 23.7770
  355 370.699 -0.522206 25.2889
  356 370.699 -0.522206 25.2889
  357 438.909 -59.2305 -63.5150
  358 438.909 -59.2305 -63.5150
  359 417.065 -3.59876 12.0988
  360 417.065 -3.59876 12.0988
  361 282.417 -59.4453 167.443
  362 282.417 -59.4453 167.443
  363 487.228 39.0807 -1.30879
  364 487.228 39.0807 -1.30879
  365 647.661 5.90521 -4.96644
  366 647.661 5.90521 -4.96644
  367 394.507 0.194163 -12.3656
  368 394.507 0.194163 -12.3656
  369 352.215 12.6734 -5.70363
  370 352.215 12.6734 -5.70363
  371 544.061 42.2508 13.9776
  372 544.061 42.2508 13.9776
  373 417.423 17.4442 -2.64307
  374 417.423 17.4442 -2.64307
  375 380.241 1.44548 -7.90607
  376 380.241 1.44548 -7.90607
  377 103.571 -51.3097 -70.6720
  378 103.571 -51.3097 -70.6720
  379 420.346 -7.56659 3.27373
  380 420.346 -7.56659 3.27373
  381 359.827 -0.573671 -29.8380
  382 359.827 -0.573671 -29.8380
  383 414.137 -0.854191 -14.4505
  384 414.137 -0.854191 -14.4505
  385 650.602 11.4840 -19.6850
  386 650.602 11.4840 -19.6850
  387 361.035 5.56223 3.62111
  388 361.035 5.56223 3.62111
  389 440.258 21.5075 12.0014
  390 440.258 21.5075 12.0014
  391 474.766 -10.1945 4.74901
  392 474.766 -10.1945 4.74901
  393 362.374 6.53930 -8.08085
  394 362.374 6.53930 -8.08085
  395 688.498 64.7877 -87.7440
  396 688.498 64.7877 -87.7440
  397 414.834 -6.04362 -4.34485
  398 414.834 -6.04362 -4.34485
</Section>

newXOutput 107

<Section columns = "stress_xx | stress_yy | stress_xy">
  1 366.296 0.357232 -0.410553
  2 366.462 0.443109 0.553616
  3 366.296 0.357232 -0.410553
  4 366.462 0.443109 0.553616
  5 563.198 38.0761 158.731
  6 585.128 37.0522 -156.171
  7 563.198 38.0761 158.731
  8 585.128 37.0522 -156.171
  9 367.205 0.251845 -1.07754
  10 370.223 0.445576 -1.91506
  11 374.586 1.01027 -3.88718
  12 384.614 0.377791 -5.22458
  13 397.498 0.624896 -8.56378
  14 412.583 -3.67361 -8.44045
  15 426.443 -4.42480 -0.989629
  16 419.932 -3.03651 7.03163
  17 404.131 3.16217 12.4025
  18 395.518 7.76708 -0.483579
  19 401.793 3.72495 -11.6445
  20 419.506 -4.51489 -8.56863
  21 422.568 -5.37292 2.86170
  22 414.728 -2.42615 7.27447
  23 394.805 0.124964 8.61243
  24 383.735 1.44467 6.61584
  25 374.848 1.15936 3.73564
  26 370.292 0.358295 1.75464
  27 367.411 0.297824 1.04045
  28 367.003 1.31205 0.646621
  29 366.349 2.69192 0.751817
  30 364.742 4.67807 0.668917
  31 364.099 5.43962 -0.0648219
  32 364.923 4.43797 -0.802185
  33 366.074 2.93478 -0.683602
  34 366.580 1.48776 -0.723632
  35 367.205 0.251845 -1.07754
  36 370.223 0.445576 -1.91506
  37 374.586 1.01027 -3.88718
  38 384.614 0.377791 -5.22458
  39 397.498 0.624896 -8.56378
  40 412.583 -3.67361 -8.44045
  41 426.443 -4.42480 -0.989629
  42 419.932 -3.03651 7.03163
  43 404.131 3.16217 12.4025
  44 395.518 7.76708 -0.483579
  45 401.793 3.72495 -11.6445
  46 419.506 -4.51489 -8.56863
  47 422.568 -5.37292 2.86170
  48 414.728 -2.42615 7.27447
  49 394.805 0.124964 8.61243
  50 383.735 1.44467 6.61584
  51 374.848 1.15936 3.73564
  52 370.292 0.358295 1.75464
  53 367.411 0.297824 1.04045
  54 367.003 1.31205 0.646621
  55 366.349 2.69192 0.751817
  56 364.742 4.67807 0.668917
  57 364.099 5.43962 -0.0648219
  58 364.923 4.43797 -0.802185
  59 366.074 2.93478 -0.683602
  60 366.580 1.48776 -0.723632
  61 779.422 40.7280 81.7210
  62 710.849 11.6188 28.9074
  63 670.576 4.83962 10.6740
  64 661.964 3.50539 2.08759
  65 670.225 4.64718 -9.11396
  66 700.939 9.96430 -25.0852
  67 786.750 35.4512 -70.3678
  68 104.281 -114.521 -130.047
  69 20.6304 -266.053 -33.5198
  70 5.77119 -303.345 -14.6444
  71 5.51823 -297.961 -7.36527
  72 9.45781 -289.681 15.6692
  73 22.4037 -257.842 35.5008
  74 113.035 -106.634 144.107
  75 779.422 40.7280 81.7210
  76 710.849 11.6188 28.9074
  77 670.576 4.83962 10.6740
  78 661.964 3.50539 2.08759
  79 670.225 4.64718 -9.11396
  80 700.939 9.96430 -25.0852
  81 786.750 35.4512 -70.3678
  82 104.281 -114.521 -130.047
  83 20.6304 -266.053 -33.5198
  84 5.77119 -303.345 -14.6444
  85 5.51823 -297.961 -7.36527
  86 9.45781 -289.681 15.6692
  87 22.4037 -257.842 35.5008
  88 113.035 -106.634 144.107
  89 336.831 19.2522 -5.00374
  90 336.831 19.2522 -5.00374
  91 307.626 4.27683 45.2622
  92 295.605 -1.82112 -54.0319
  93 307.626 4.27683 45.2622
  94 295.605 -1.82112 -54.0319
  95 174.556 4.56242 21.7451
  96 174.556 4.56242 21.7451
  97 451.503 29.0895 -6.87268
  98 460.020 16.7128 13.7469
  99 451.503 29.0895 -6.87268
  100 460.020 16.7128 13.7469
  101 361.174 8.71789 4.99477
  102 361.174 8.71789 4.99477
  103 431.708 -24.5616 0.746381
  104 431.708 -24.5616 0.746381
  105 361.611 9.11334 -6.16342
  106 361.611 9.11334 -6.16342
  107 424.093 -52.3620 -47.9371
  108 424.093 -52.3620 -47.9371
  109 296.963 -61.8516 119.483
  110 296.963 -61.8516 119.483
  111 200.926 -36.2183 -96.3981
  112 200.926 -36.2183 -96.3981
  113 363.054 6.08448 21.4579
  114 363.054 6.08448 21.4579
  115 376.236 2.53819 -20.5264
  116 376.236 2.53819 -20.5264
  117 510.106 34.4090 5.42981
  118 546.306 35.3699 3.19499
  119 510.106 34.4090 5.42981
  120 546.306 35.3699 3.19499
  121 535.020 45.2305 -14.2662
  122 535.020 45.2305 -14.2662
  123 58.8609 -96.2810 -31.6954
  124 58.8609 -96.2810 -31.6954
  125 460.444 -57.1112 51.9919
  126 460.444 -57.1112 51.9919
  127 388.927 -9.39309 24.2332
  128 388.927 -9.39309 24.2332
  129 89.6225 -83.1152 72.7967
  130 89.6225 -83.1152 72.7967
  131 361.689 7.28111 -0.315455
  132 361.689 7.28111 -0.315455
  133 388.289 -18.1115 -30.9145
  134 388.289 -18.1115 -30.9145
  135 367.370 2.98182 3.61459
  136 367.370 2.98182 3.61459
  137 367.690 2.62261 -3.37239
  138 367.690 2.62261 -3.37239
  139 371.699 5.10610 -10.7823
  140 371.699 5.10610 -10.7823
  141 370.011 4.97464 9.71057
  142 370.011 4.97464 9.71057
  143 354.456 12.1366 -0.395496
  144 354.456 12.1366 -0.395496
  145 296.583 19.6690 -2.31580
  146 296.583 19.6690 -2.31580
  147 429.607 -15.3162 6.38747
  148 429.607 -15.3162 6.38747
  149 490.595 -16.9245 -19.6704
  150 490.595 -16.9245 -19.6704
  151 379.215 -42.3045 59.5283
  152 379.215 -42.3045 59.5283
  153 286.410 -77.3953 -134.299
  154 286.410 -77.3953 -134.299
  155 337.585 13.8279 20.4462
  156 337.585 13.8279 20.4462
  157 437.112 -2.63046 -15.7415
  158 437.112 -2.63046 -15.7415
  159 595.752 47.4385 34.2462
  160 595.752 47.4385 34.2462
  161 298.262 -82.9461 155.376
  162 298.262 -82.9461 155.376
  163 608.374 20.0760 -6.97333
  164 608.374 20.0760 -6.97333
  165 353.046 12.1005 9.50033
  166 353.046 12.1005 9.50033
  167 335.509 11.4313 -29.9210
  168 335.509 11.4313 -29.9210
  169 415.356 12.5605 9.50583
  170 415.356 12.5605 9.50583
  171 349.766 14.4393 -10.7886
  172 349.766 14.4393 -10.7886
  173 363.870 5.85306 1.58054
  174 363.870 5.85306 1.58054
  175 369.840 2.84035 -5.74291
  176 369.840 2.84035 -5.74291
  177 571.425 45.1825 -34.1644
  178 571.425 45.1825 -34.1644
  179 364.160 5.69637 -1.90856
  180 364.160 5.69637 -1.90856
  181 268.981 19.6717 -15.5793
  182 268.981 19.6717 -15.5793
  183 484.464 35.8553 2.85085
  184 484.464 35.8553 2.85085
  185 98.3294 -81.6391 -93.9178
  186 98.3294 -81.6391 -93.9178
  187 265.078 -2.82902 65.7987
  188 265.078 -2.82902 65.7987
  189 353.815 -57.1043 -92.6087
  190 353.815 -57.1043 -92.6087
  191 417.764 -11.4868 5.20402
  192 417.764 -11.4868 5.20402
  193 390.953 -1.32543 14.9520
  194 390.953 -1.32543 14.9520
  195 531.189 15.8249 32.1466
  196 531.189 15.8249 32.1466
  197 221.130 7.06192 -40.6435
  198 221.130 7.06192 -40.6435
  199 603.194 26.9430 15.9875
  200 603.194 26.9430 15.9875
  201 398.213 -4.88609 -15.7171
  202 398.213 -4.88609 -15.7171
  203 370.416 2.02857 5.29609
  204 370.416 2.02857 5.29609
  205 414.498 -16.2376 -8.16408
  206 414.498 -16.2376 -8.16408
  207 453.256 -22.7644 -3.17236
  208 453.256 -22.7644 -3.17236
  209 28.2866 -167.526 13.9831
  210 28.2866 -167.526 13.9831
  211 381.942 2.00919 -13.1877
  212 381.942 2.00919 -13.1877
  213 378.762 2.98087 11.5254
  214 378.762 2.98087 11.5254
  215 364.367 -33.4631 -58.9862
  216 364.367 -33.4631 -58.9862
  217 425.553 -9.02909 -9.66366
  218 425.553 -9.02909 -9.66366
  219 348.538 12.5728 -20.4411
  220 348.538 12.5728 -20.4411
  221 96.0932 -119.868 102.973
  222 96.0932 -119.868 102.973
  223 431.324 1.95570 14.8925
  224 431.324 1.95570 14.8925
  225 419.106 10.6651 -12.5963
  226 419.106 10.6651 -12.5963
  227 596.507 35.6192 -27.3619
  228 596.507 35.6192 -27.3619
  229 454.833 -16.8336 -7.32247
  230 454.833 -16.8336 -7.32247
  231 496.599 -22.1290 -88.1794
  232 496.599 -22.1290 -88.1794
  233 365.583 -16.4859 45.4505
  234 365.583 -16.4859 45.4505
  235 358.343 10.1380 1.60719
  236 358.343 10.1380 1.60719
  237 190.404 -28.0173 85.3462
  238 190.404 -28.0173 85.3462
  239 475.243 -40.9017 103.093
  240 475.243 -40.9017 103.093
  241 129.373 -16.7903 -42.2072
  242 129.373 -16.7903 -42.2072
  243 423.135 -31.7735 -20.5340
  244 423.135 -31.7735 -20.5340
  245 345.100 15.5683 11.8236
  246 345.100 15.5683 11.8236
  247 12.3678 -218.096 -11.3786
  248 12.3678 -218.096 -11.3786
  249 23.7853 -191.703 37.7197
  250 23.7853 -191.703 37.7197
  251 351.363 2.44633 32.7131
  252 351.363 2.44633 32.7131
  253 366.958 1.39826 1.30851
  254 366.958 1.39826 1.30851
  255 363.837 5.89624 0.248761
  256 363.837 5.89624 0.248761
  257 341.476 -4.21904 -43.4610
  258 341.476 -4.21904 -43.4610
  259 367.178 1.27329 -1.38602
  260 367.178 1.27329 -1.38602
  261 406.186 -28.6067 27.2984
  262 406.186 -28.6067 27.2984
  263 376.948 1.33345 -6.42843
  264 376.948 1.33345 -6.42843
  265 292.075 -24.7361 -80.6897
  266 292.075 -24.7361 -80.6897
  267 497.168 38.1765 -1.47123
  268 497.168 38.1765 -1.47123
  269 363.355 8.06931 -16.6652
  270 363.355 8.06931 -16.6652
  271 361.948 7.55280 -3.33422
  272 361.948 7.55280 -3.33422
  273 307.726 14.9540 -29.8969
  274 307.726 14.9540 -29.8969
  275 93.6342 -36.2884 24.3237
  276 93.6342 -36.2884 24.3237
  277 388.042 -64.3933 82.6303
  278 388.042 -64.3933 82.6303
  279 365.834 5.45115 6.51636
  280 365.834 5.45115 6.51636
  281 542.432 38.3825 -8.52191
  282 542.432 38.3825 -8.52191
  283 648.591 55.6486 76.3661
  284 648.591 55.6486 76.3661
  285 435.672 -46.2708 27.1472
  286 435.672 -46.2708 27.1472
  287 313.813 15.6981 21.9372
  288 313.813 15.6981 21.9372
  289 399.048 -79.3687 109.002
  290 399.048 -79.3687 109.002
  291 411.090 -4.83496 10.1542
  292 411.090 -4.83496 10.1542
  293 365.611 3.59160 1.78935
  294 365.611 3.59160 1.78935
  295 360.416 9.90173 -10.6340
  296 360.416 9.90173 -10.6340
  297 363.929 5.80162 -0.491469
  298 363.929 5.80162 -0.491469
  299 369.164 1.02102 -2.49952
  300 369.164 1.02102 -2.49952
  301 376.608 1.86994 6.45356
  302 376.608 1.86994 6.45356
  303 358.445 10.0839 -2.73252
  304 358.445 10.0839 -2.73252
  305 82.4813 -139.854 -97.9306
  306 82.4813 -139.854 -97.9306
  307 246.202 16.0448 20.3970
  308 246.202 16.0448 20.3970
  309 366.017 2.99677 -1.71934
  310 366.017 2.99677 -1.71934
  311 322.551 18.5833 -14.6954
  312 322.551 18.5833 -14.6954
  313 323.369 20.2642 5.60441
  314 323.369 20.2642 5.60441
  315 365.245 5.24181 -4.61866
  316 365.245 5.24181 -4.61866
  317 489.701 25.7732 -1.75703
  318 489.701 25.7732 -1.75703
  319 362.512 8.77425 14.6050
  320 362.512 8.77425 14.6050
  321 462.440 14.5359 -12.2337
  322 462.440 14.5359 -12.2337
  323 681.222 19.2915 45.8904
  324 681.222 19.2915 45.8904
  325 361.154 9.08540 9.18706
  326 361.154 9.08540 9.18706
  327 355.432 12.0238 4.80574
  328 355.432 12.0238 4.80574
  329 278.548 -59.8746 -154.498
  330 278.548 -59.8746 -154.498
  331 369.381 0.923047 2.44517
  332 369.381 0.923047 2.44517
  333 361.598 7.61076 2.49141
  334 361.598 7.61076 2.49141
  335 348.279 15.5853 0.550647
  336 348.279 15.5853 0.550647
  337 180.355 -63.7965 124.219
  338 180.355 -63.7965 124.219
  339 448.696 29.3964 2.15660
  340 448.696 29.3964 2.15660
  341 25.7803 -187.720 -43.6514
  342 25.7803 -187.720 -43.6514
  343 280.207 17.6829 18.1607
  344 280.207 17.6829 18.1607
  345 644.555 8.79192 6.34237
  346 644.555 8.79192 6.34237
  347 672.985 34.1415 -47.2938
  348 672.985 34.1415 -47.2938
  349 316.029 -36.5201 90.2787
  350 329.513 -18.7823 66.8234
  351 316.029 -36.5201 90.2787
  352 329.513 -18.7823 66.8234
  353 653.865 16.2874 23.9875
  354 653.865 16.2874 23.9875
  355 374.076 -0.528430 25.5165
  356 374.076 -0.528430 25.5165
  357 442.848 -59.7643 -64.1280
  358 442.848 -59.7643 -64.1280
  359 420.860 -3.62994 12.1932
  360 420.860 -3.62994 12.1932
  361 284.937 -59.8894 169.050
  362 284.937 -59.8894 169.050
  363 491.641 39.4336 -1.31959
  364 491.641 39.4336 -1.31959
  365 653.346 5.95362 -5.00973
  366 653.346 5.95362 -5.00973
  367 398.083 0.194117 -12.4756
  368 398.083 0.194117 -12.4756
  369 355.438 12.7860 -5.75288
  370 355.438 12.7860 -5.75288
  371 548.946 42.6322 14.1284
  372 548.946 42.6322 14.1284
  373 421.240 17.6066 -2.66384
  374 421.240 17.6066 -2.66384
  375 383.695 1.45754 -7.97425
  376 383.695 1.45754 -7.97425
  377 104.550 -51.7616 -71.3535
  378 104.550 -51.7616 -71.3535
  379 424.157 -7.63616 3.29194
  380 424.157 -7.63616 3.29194
  381 363.110 -0.580400 -30.1079
  382 363.110 -0.580400 -30.1079
  383 417.914 -0.860581 -14.5645
  384 417.914 -0.860581 -14.5645
  385 656.323 11.5818 -19.8579
  386 656.323 11.5818 -19.8579
  387 364.330 5.61118 3.65167
  388 364.330 5.61118 3.65167
  389 444.263 21.7098 12.0882
  390 444.263 21.7098 12.0882
  391 479.038 -10.2696 4.83792
  392 479.038 -10.2696 4.83792
  393 365.680 6.59703 -8.14988
  394 365.680 6.59703 -8.14988
  395 694.545 65.4322 -88.5736
  396 694.545 65.4322 -88.5736
  397 418.588 -6.10056 -4.38960
  398 418.588 -6.10056 -4.38960
</Section>

newXOutput 108

<Section columns = "stress_xx | stress_yy | stress_xy">
  1 369.604 0.360515 -0.413892
  2 369.772 0.447123 0.558111
  3 369.604 0.360515 -0.413892
  4 369.772 0.447123 0.558111
  5 568.089 38.5540 160.221
  6 590.198 37.5266 -157.639
  7 568.089 38.5540 160.221
  8 590.198 37.5266 -157.639
  9 370.521 0.254105 -1.08635
  10 373.562 0.449506 -1.93084
  11 377.961 1.01903 -3.91957
  12 388.071 0.380861 -5.26866
  13 401.062 0.629486 -8.63784
  14 416.276 -3.70856 -8.51640
  15 430.261 -4.46589 -1.00324
  16 423.713 -3.06382 7.08486
  17 407.797 3.19332 12.5015
  18 399.120 7.84021 -0.487520
  19 405.440 3.75963 -11.7382
  20 423.285 -4.55580 -8.63328
  21 426.353 -5.42292 2.89303
  22 418.440 -2.44908 7.34038
  23 398.348 0.124751 8.68738
  24 387.185 1.45691 6.67188
  25 378.225 1.16942 3.76670
  26 373.633 0.361465 1.76907
  27 370.728 0.300512 1.04899
  28 370.316 1.32359 0.651859
  29 369.658 2.71542 0.757974
  30 368.038 4.71865 0.674434
  31 367.390 5.48672 -0.0653538
  32 368.220 4.47652 -0.808766
  33 369.381 2.96041 -0.689113
  34 369.890 1.50090 -0.729565
  35 370.521 0.254105 -1.08635
  36 373.562 0.449506 -1.93084
  37 377.961 1.01903 -3.91957
  38 388.071 0.380861 -5.26866
  39 401.062 0.629486 -8.63784
  40 416.276 -3.70856 -8.51640
  41 430.261 -4.46589 -1.00324
  42 423.713 -3.06382 7.08486
  43 407.797 3.19332 12.5015
  44 399.120 7.84021 -0.487520
  45 405.440 3.75963 -11.7382
  46 423.285 -4.55580 -8.63328
  47 426.353 -5.42292 2.89303
  48 418.440 -2.44908 7.34038
  49 398.348 0.124751 8.68738
  50 387.185 1.45691 6.67188
  51 378.225 1.16942 3.76670
  52 373.633 0.361465 1.76907
  53 370.728 0.300512 1.04899
  54 370.316 1.32359 0.651859
  55 369.658 2.71542 0.757974
  56 368.038 4.71865 0.674434
  57 367.390 5.48672 -0.0653538
  58 368.220 4.47652 -0.808766
  59 369.381 2.96041 -0.689113
  60 369.890 1.50090 -0.729565
  61 786.118 41.1023 82.4462
  62 716.978 11.7168 29.1554
  63 676.380 4.87704 10.7628
  64 667.697 3.53322 2.10349
  65 676.025 4.68493 -9.18939
  66 706.990 10.0474 -25.2980
  67 793.510 35.7762 -70.9927
  68 105.210 -115.421 -131.309
  69 20.8148 -268.484 -33.8769
  70 5.81260 -306.186 -14.7997
  71 5.55823 -300.759 -7.43422
  72 9.53577 -292.384 15.8360
  73 22.6068 -260.196 35.8804
  74 114.033 -107.463 145.501
  75 786.118 41.1023 82.4462
  76 716.978 11.7168 29.1554
  77 676.380 4.87704 10.7628
  78 667.697 3.53322 2.10349
  79 676.025 4.68493 -9.18939
  80 706.990 10.0474 -25.2980
  81 793.510 35.7762 -70.9927
  82 105.210 -115.421 -131.309
  83 20.8148 -268.484 -33.8769
  84 5.81260 -306.186 -14.7997
  85 5.55823 -300.759 -7.43422
  86 9.53577 -292.384 15.8360
  87 22.6068 -260.196 35.8804
  88 114.033 -107.463 145.501
  89 339.895 19.4235 -5.04761
  90 339.895 19.4235 -5.04761
  91 310.429 4.31683 45.6687
  92 298.300 -1.83622 -54.5204
  93 310.429 4.31683 45.6687
  94 298.300 -1.83622 -54.5204
  95 176.183 4.61672 21.9451
  96 176.183 4.61672 21.9451
  97 455.572 29.3556 -6.92026
  98 464.148 16.8739 13.8354
  99 455.572 29.3556 -6.92026
  100 464.148 16.8739 13.8354
  101 364.442 8.79408 5.03692
  102 364.442 8.79408 5.03692
  103 435.577 -24.7821 0.778387
  104 435.577 -24.7821 0.778387
  105 364.882 9.19313 -6.21554
  106 364.882 9.19313 -6.21554
  107 427.877 -52.8360 -48.3906
  108 427.877 -52.8360 -48.3906
  109 299.641 -62.4167 120.590
  110 299.641 -62.4167 120.590
  111 202.766 -36.5422 -97.2969
  112 202.766 -36.5422 -97.2969
  113 366.335 6.13732 21.6463
  114 366.335 6.13732 21.6463
  115 379.628 2.55883 -20.7078
  116 379.628 2.55883 -20.7078
  117 514.658 34.7335 5.52324
  118 551.162 35.6783 3.23062
  119 514.658 34.7335 5.52324
  120 551.162 35.6783 3.23062
  121 539.786 45.6440 -14.4284
  122 539.786 45.6440 -14.4284
  123 59.4069 -97.1337 -32.0060
  124 59.4069 -97.1337 -32.0060
  125 464.532 -57.6121 52.5021
  126 464.532 -57.6121 52.5021
  127 392.426 -9.47958 24.4547
  128 392.426 -9.47958 24.4547
  129 90.4532 -83.8478 73.5023
  130 90.4532 -83.8478 73.5023
  131 364.961 7.34451 -0.318055
  132 364.961 7.34451 -0.318055
  133 391.780 -18.2770 -31.1998
  134 391.780 -18.2770 -31.1998
  135 370.687 3.00788 3.64464
  136 370.687 3.00788 3.64464
  137 371.010 2.64560 -3.40036
  138 371.010 2.64560 -3.40036
  139 375.052 5.15036 -10.8745
  140 375.052 5.15036 -10.8745
  141 373.350 5.01793 9.79317
  142 373.350 5.01793 9.79317
  143 357.669 12.2432 -0.398971
  144 357.669 12.2432 -0.398971
  145 299.300 19.8470 -2.33680
  146 299.300 19.8470 -2.33680
  147 433.463 -15.4525 6.42273
  148 433.463 -15.4525 6.42273
  149 494.956 -17.0496 -19.9003
  150 494.956 -17.0496 -19.9003
  151 382.618 -42.6897 60.0761
  152 382.618 -42.6897 60.0761
  153 288.978 -78.0837 -135.567
  154 288.978 -78.0837 -135.567
  155 340.653 13.9515 20.6265
  156 340.653 13.9515 20.6265
  157 441.039 -2.64959 -15.8556
  158 441.039 -2.64959 -15.8556
  159 601.008 47.8710 34.5798
  160 601.008 47.8710 34.5798
  161 300.934 -83.6925 156.831
  162 300.934 -83.6925 156.831
  163 613.716 20.2448 -7.03682
  164 613.716 20.2448 -7.03682
  165 356.246 12.2070 9.58206
  166 356.246 12.2070 9.58206
  167 338.557 11.5338 -30.1872
  168 338.557 11.5338 -30.1872
  169 419.119 12.6784 9.58077
  170 419.119 12.6784 9.58077
  171 352.939 14.5668 -10.8819
  172 352.939 14.5668 -10.8819
  173 367.160 5.90394 1.59369
  174 367.160 5.90394 1.59369
  175 373.177 2.86504 -5.79105
  176 373.177 2.86504 -5.79105
  177 576.477 45.6177 -34.5208
  178 576.477 45.6177 -34.5208
  179 367.451 5.74596 -1.92440
  180 367.451 5.74596 -1.92440
  181 271.454 19.8531 -15.7196
  182 271.454 19.8531 -15.7196
  183 488.808 36.1820 2.85134
  184 488.808 36.1820 2.85134
  185 99.2344 -82.3583 -94.8249
  186 99.2344 -82.3583 -94.8249
  187 267.503 -2.85143 66.3966
  188 267.503 -2.85143 66.3966
  189 356.990 -57.6249 -93.4655
  190 356.990 -57.6249 -93.4655
  191 421.512 -11.5920 5.26241
  192 421.512 -11.5920 5.26241
  193 394.467 -1.33920 15.0849
  194 394.467 -1.33920 15.0849
  195 535.897 16.0033 32.4930
  196 535.897 16.0033 32.4930
  197 223.172 7.13369 -41.0153
  198 223.172 7.13369 -41.0153
  199 608.501 27.1738 16.1360
  200 608.501 27.1738 16.1360
  201 401.790 -4.93221 -15.8606
  202 401.790 -4.93221 -15.8606
  203 373.758 2.04614 5.34042
  204 373.758 2.04614 5.34042
  205 418.217 -16.3865 -8.25022
  206 418.217 -16.3865 -8.25022
  207 457.307 -22.9617 -3.23613
  208 457.307 -22.9617 -3.23613
  209 28.5440 -169.051 14.1241
  210 28.5440 -169.051 14.1241
  211 385.379 2.02537 -13.3022
  212 385.379 2.02537 -13.3022
  213 382.173 3.00640 11.6248
  214 382.173 3.00640 11.6248
  215 367.647 -33.7677 -59.5272
  216 367.647 -33.7677 -59.5272
  217 429.378 -9.11053 -9.73130
  218 429.378 -9.11053 -9.73130
  219 351.699 12.6844 -20.6211
  220 351.699 12.6844 -20.6211
  221 96.9646 -120.921 103.977
  222 96.9646 -120.921 103.977
  223 435.209 1.97915 15.0030
  224 435.209 1.97915 15.0030
  225 422.897 10.7656 -12.6939
  226 422.897 10.7656 -12.6939
  227 601.766 35.9317 -27.6227
  228 601.766 35.9317 -27.6227
  229 458.899 -16.9770 -7.35235
  230 458.899 -16.9770 -7.35235
  231 500.986 -22.2719 -89.0380
  232 500.986 -22.2719 -89.0380
  233 368.878 -16.6357 45.8623
  234 368.878 -16.6357 45.8623
  235 361.588 10.2267 1.62081
  236 361.588 10.2267 1.62081
  237 192.154 -28.2648 86.1402
  238 192.154 -28.2648 86.1402
  239 479.440 -41.2251 104.083
  240 479.440 -41.2251 104.083
  241 130.582 -16.9245 -42.6033
  242 130.582 -16.9245 -42.6033
  243 426.922 -32.0613 -20.7383
  244 426.922 -32.0613 -20.7383
  245 348.233 15.7064 11.9266
  246 348.233 15.7064 11.9266
  247 12.4740 -220.102 -11.4958
  248 12.4740 -220.102 -11.4958
  249 23.9991 -193.446 38.1059
  250 23.9991 -193.446 38.1059
  251 354.544 2.46774 33.0050
  252 354.544 2.46774 33.0050
  253 370.272 1.41056 1.31927
  254 370.272 1.41056 1.31927
  255 367.126 5.94736 0.250841
  256 367.126 5.94736 0.250841
  257 344.569 -4.25774 -43.8524
  258 344.569 -4.25774 -43.8524
  259 370.493 1.28456 -1.39741
  260 370.493 1.28456 -1.39741
  261 409.828 -28.8666 27.5575
  262 409.828 -28.8666 27.5575
  263 380.343 1.34481 -6.48260
  264 380.343 1.34481 -6.48260
  265 294.727 -24.9610 -81.4276
  266 294.727 -24.9610 -81.4276
  267 501.620 38.5224 -1.45950
  268 501.620 38.5224 -1.45950
  269 366.639 8.13979 -16.8100
  270 366.639 8.13979 -16.8100
  271 365.222 7.61871 -3.36215
  272 365.222 7.61871 -3.36215
  273 310.535 15.0898 -30.1641
  274 310.535 15.0898 -30.1641
  275 94.5119 -36.5925 24.5558
  276 94.5119 -36.5925 24.5558
  277 391.510 -64.9793 83.3979
  278 391.510 -64.9793 83.3979
  279 369.139 5.49872 6.57117
  280 369.139 5.49872 6.57117
  281 547.258 38.7202 -8.61081
  282 547.258 38.7202 -8.61081
  283 654.260 56.1908 77.0875
  284 654.260 56.1908 77.0875
  285 439.561 -46.6862 27.4204
  286 439.561 -46.6862 27.4204
  287 316.677 15.8400 22.1319
  288 316.677 15.8400 22.1319
  289 402.599 -80.0872 110.017
  290 402.599 -80.0872 110.017
  291 414.777 -4.88018 10.2486
  292 414.777 -4.88018 10.2486
  293 368.914 3.62289 1.80415
  294 368.914 3.62289 1.80415
  295 363.677 9.98856 -10.7249
  296 363.677 9.98856 -10.7249
  297 367.219 5.85194 -0.495537
  298 367.219 5.85194 -0.495537
  299 372.495 1.02997 -2.52020
  300 372.495 1.02997 -2.52020
  301 380.001 1.88602 6.50793
  302 380.001 1.88602 6.50793
  303 361.690 10.1721 -2.75565
  304 361.690 10.1721 -2.75565
  305 83.2266 -141.081 -98.8920
  306 83.2266 -141.081 -98.8920
  307 248.472 16.1954 20.5810
  308 248.472 16.1954 20.5810
  309 369.323 3.02295 -1.73352
  310 369.323 3.02295 -1.73352
  311 325.491 18.7499 -14.8255
  312 325.491 18.7499 -14.8255
  313 326.318 20.4457 5.65358
  314 326.318 20.4457 5.65358
  315 368.545 5.28755 -4.65730
  316 368.545 5.28755 -4.65730
  317 494.076 26.0237 -1.81828
  318 494.076 26.0237 -1.81828
  319 365.790 8.85118 14.7310
  320 365.790 8.85118 14.7310
  321 466.588 14.6769 -12.3092
  322 466.588 14.6769 -12.3092
  323 687.145 19.4551 46.3017
  324 687.145 19.4551 46.3017
  325 364.421 9.16500 9.26533
  326 364.421 9.16500 9.26533
  327 358.653 12.1293 4.84669
  328 358.653 12.1293 4.84669
  329 281.021 -60.3102 -155.976
  330 281.021 -60.3102 -155.976
  331 372.714 0.931132 2.46539
  332 372.714 0.931132 2.46539
  333 364.869 7.67710 2.51230
  334 364.869 7.67710 2.51230
  335 351.440 15.7229 0.555363
  336 351.440 15.7229 0.555363
  337 182.003 -64.3713 125.393
  338 182.003 -64.3713 125.393
  339 452.743 29.6650 2.17012
  340 452.743 29.6650 2.17012
  341 26.0092 -189.425 -44.0915
  342 26.0092 -189.425 -44.0915
  343 282.780 17.8448 18.3229
  344 282.780 17.8448 18.3229
  345 650.168 8.86397 6.39567
  346 650.168 8.86397 6.39567
  347 678.853 34.4485 -47.7220
  348 678.853 34.4485 -47.7220
  349 318.883 -36.8536 91.1047
  350 332.494 -18.9527 67.4282
  351 318.883 -36.8536 91.1047
  352 332.494 -18.9527 67.4282
  353 659.561 16.4232 24.1977
  354 659.561 16.4232 24.1977
  355 377.450 -0.534677 25.7439
  356 377.450 -0.534677 25.7439
  357 446.782 -60.2975 -64.7410
  358 446.782 -60.2975 -64.7410
  359 424.652 -3.66106 12.2873
  360 424.652 -3.66106 12.2873
  361 287.453 -60.3313 170.658
  362 287.453 -60.3313 170.658
  363 496.051 39.7862 -1.33037
  364 496.051 39.7862 -1.33037
  365 659.022 6.00190 -5.05296
  366 659.022 6.00190 -5.05296
  367 401.655 0.194037 -12.5855
  368 401.655 0.194037 -12.5855
  369 358.658 12.8984 -5.80204
  370 358.658 12.8984 -5.80204
  371 553.824 43.0133 14.2796
  372 553.824 43.0133 14.2796
  373 425.054 17.7690 -2.68453
  374 425.054 17.7690 -2.68453
  375 387.145 1.46957 -8.04230
  376 387.145 1.46957 -8.04230
  377 105.529 -52.2129 -72.0351
  378 105.529 -52.2129 -72.0351
  379 427.963 -7.70569 3.30993
  380 427.963 -7.70569 3.30993
  381 366.390 -0.587150 -30.3775
  382 366.390 -0.587150 -30.3775
  383 421.687 -0.866938 -14.6782
  384 421.687 -0.866938 -14.6782
  385 662.036 11.6794 -20.0306
  386 662.036 11.6794 -20.0306
  387 367.623 5.66006 3.68217
  388 367.623 5.66006 3.68217
  389 448.265 21.9120 12.1746
  390 448.265 21.9120 12.1746
  391 483.306 -10.3443 4.92757
  392 483.306 -10.3443 4.92757
  393 368.984 6.65467 -8.21877
  394 368.984 6.65467 -8.21877
  395 700.584 66.0772 -89.4029
  396 700.584 66.0772 -89.4029
  397 422.339 -6.15750 -4.43440
  398 422.339 -6.15750 -4.43440
</Section>

newXOutput 109

<Section columns = "stress_xx | stress_yy | stress_xy">
  1 372.910 0.363796 -0.417222
  2 373.079 0.451134 0.562593
  3 372.910 0.363796 -0.417222
  4 373.079 0.451134 0.562593
  5 572.973 39.0341 161.711
  6 595.260 38.0031 -159.107
  7 572.973 39.0341 161.711
  8 595.260 38.0031 -159.107
  9 373.834 0.256362 -1.09514
  10 376.899 0.453431 -1.94658
  11 381.333 1.02778 -3.95188
  12 391.524 0.383923 -5.31265
  13 404.623 0.634055 -8.71178
  14 419.966 -3.74352 -8.59228
  15 434.075 -4.50697 -1.01692
  16 427.491 -3.09111 7.13787
  17 411.460 3.22448 12.6002
  18 402.719 7.91334 -0.491450
  19 409.084 3.79431 -11.8316
  20 427.060 -4.59668 -8.69766
  21 430.135 -5.47292 2.92443
  22 422.149 -2.47202 7.40624
  23 401.888 0.124516 8.76222
  24 390.632 1.46912 6.72780
  25 381.600 1.17947 3.79769
  26 376.970 0.364631 1.78347
  27 374.043 0.303198 1.05751
  28 373.628 1.33512 0.657083
  29 372.964 2.73889 0.764115
  30 371.332 4.75918 0.679937
  31 370.679 5.53376 -0.0658844
  32 371.515 4.51500 -0.815331
  33 372.684 2.98600 -0.694607
  34 373.198 1.51402 -0.735482
  35 373.834 0.256362 -1.09514
  36 376.899 0.453431 -1.94658
  37 381.333 1.02778 -3.95188
  38 391.524 0.383923 -5.31265
  39 404.623 0.634055 -8.71178
  40 419.966 -3.74352 -8.59228
  41 434.075 -4.50697 -1.01692
  42 427.491 -3.09111 7.13787
  43 411.460 3.22448 12.6002
  44 402.719 7.91334 -0.491450
  45 409.084 3.79431 -11.8316
  46 427.060 -4.59668 -8.69766
  47 430.135 -5.47292 2.92443
  48 422.149 -2.47202 7.40624
  49 401.888 0.124516 8.76222
  50 390.632 1.46912 6.72780
  51 381.600 1.17947 3.79769
  52 376.970 0.364631 1.78347
  53 374.043 0.303198 1.05751
  54 373.628 1.33512 0.657083
  55 372.964 2.73889 0.764115
  56 371.332 4.75918 0.679937
  57 370.679 5.53376 -0.0658844
  58 371.515 4.51500 -0.815331
  59 372.684 2.98600 -0.694607
  60 373.198 1.51402 -0.735482
  61 792.803 41.4765 83.1706
  62 723.097 11.8146 29.4030
  63 682.175 4.91432 10.8514
  64 673.422 3.56097 2.11932
  65 681.815 4.72257 -9.26465
  66 713.032 10.1304 -25.5104
  67 800.259 36.1010 -71.6169
  68 106.138 -116.319 -132.572
  69 20.9990 -270.913 -34.2347
  70 5.85378 -309.026 -14.9553
  71 5.59802 -303.556 -7.50316
  72 9.61353 -295.085 16.0032
  73 22.8098 -262.549 36.2609
  74 115.029 -108.289 146.895
  75 792.803 41.4765 83.1706
  76 723.097 11.8146 29.4030
  77 682.175 4.91432 10.8514
  78 673.422 3.56097 2.11932
  79 681.815 4.72257 -9.26465
  80 713.032 10.1304 -25.5104
  81 800.259 36.1010 -71.6169
  82 106.138 -116.319 -132.572
  83 20.9990 -270.913 -34.2347
  84 5.85378 -309.026 -14.9553
  85 5.59802 -303.556 -7.50316
  86 9.61353 -295.085 16.0032
  87 22.8098 -262.549 36.2609
  88 115.029 -108.289 146.895
  89 342.958 19.5946 -5.09143
  90 342.958 19.5946 -5.09143
  91 313.230 4.35683 46.0747
  92 300.994 -1.85127 -55.0084
  93 313.230 4.35683 46.0747
  94 300.994 -1.85127 -55.0084
  95 177.810 4.67121 22.1450
  96 177.810 4.67121 22.1450
  97 459.638 29.6217 -6.96753
  98 468.273 17.0351 13.9233
  99 459.638 29.6217 -6.96753
  100 468.273 17.0351 13.9233
  101 367.707 8.87017 5.07898
  102 367.707 8.87017 5.07898
  103 439.441 -25.0025 0.810816
  104 439.441 -25.0025 0.810816
  105 368.151 9.27282 -6.26756
  106 368.151 9.27282 -6.26756
  107 431.658 -53.3096 -48.8441
  108 431.658 -53.3096 -48.8441
  109 302.318 -62.9815 121.695
  110 302.318 -62.9815 121.695
  111 204.605 -36.8658 -98.1955
  112 204.605 -36.8658 -98.1955
  113 369.614 6.19008 21.8344
  114 369.614 6.19008 21.8344
  115 383.017 2.57942 -20.8890
  116 383.017 2.57942 -20.8890
  117 519.205 35.0579 5.61737
  118 556.013 35.9862 3.26634
  119 519.205 35.0579 5.61737
  120 556.013 35.9862 3.26634
  121 544.546 46.0572 -14.5912
  122 544.546 46.0572 -14.5912
  123 59.9527 -97.9854 -32.3169
  124 59.9527 -97.9854 -32.3169
  125 468.616 -58.1122 53.0126
  126 468.616 -58.1122 53.0126
  127 395.922 -9.56603 24.6761
  128 395.922 -9.56603 24.6761
  129 91.2836 -84.5795 74.2082
  130 91.2836 -84.5795 74.2082
  131 368.231 7.40782 -0.320649
  132 368.231 7.40782 -0.320649
  133 395.268 -18.4423 -31.4850
  134 395.268 -18.4423 -31.4850
  135 374.001 3.03390 3.67461
  136 374.001 3.03390 3.67461
  137 374.326 2.66856 -3.42826
  138 374.326 2.66856 -3.42826
  139 378.403 5.19455 -10.9664
  140 378.403 5.19455 -10.9664
  141 376.686 5.06115 9.87560
  142 376.686 5.06115 9.87560
  143 360.879 12.3495 -0.402441
  144 360.879 12.3495 -0.402441
  145 302.016 20.0248 -2.35778
  146 302.016 20.0248 -2.35778
  147 437.315 -15.5887 6.45758
  148 437.315 -15.5887 6.45758
  149 499.311 -17.1742 -20.1310
  150 499.311 -17.1742 -20.1310
  151 386.018 -43.0747 60.6236
  152 386.018 -43.0747 60.6236
  153 291.544 -78.7714 -136.834
  154 291.544 -78.7714 -136.834
  155 343.718 14.0749 20.8066
  156 343.718 14.0749 20.8066
  157 444.962 -2.66862 -15.9691
  158 444.962 -2.66862 -15.9691
  159 606.258 48.3033 34.9135
  160 606.258 48.3033 34.9135
  161 303.602 -84.4382 158.286
  162 303.602 -84.4382 158.286
  163 619.051 20.4132 -7.10027
  164 619.051 20.4132 -7.10027
  165 359.444 12.3133 9.66365
  166 359.444 12.3133 9.66365
  167 341.602 11.6362 -30.4530
  168 341.602 11.6362 -30.4530
  169 422.880 12.7962 9.65547
  170 422.880 12.7962 9.65547
  171 356.109 14.6941 -10.9751
  172 356.109 14.6941 -10.9751
  173 370.446 5.95475 1.60681
  174 370.446 5.95475 1.60681
  175 376.511 2.88971 -5.83909
  176 376.511 2.88971 -5.83909
  177 581.522 46.0530 -34.8777
  178 581.522 46.0530 -34.8777
  179 370.740 5.79548 -1.94020
  180 370.740 5.79548 -1.94020
  181 273.926 20.0343 -15.8599
  182 273.926 20.0343 -15.8599
  183 493.149 36.5086 2.85139
  184 493.149 36.5086 2.85139
  185 100.139 -83.0766 -95.7323
  186 100.139 -83.0766 -95.7323
  187 269.925 -2.87377 66.9941
  188 269.925 -2.87377 66.9941
  189 360.162 -58.1451 -94.3219
  190 360.162 -58.1451 -94.3219
  191 425.258 -11.6973 5.32095
  192 425.258 -11.6973 5.32095
  193 397.978 -1.35298 15.2176
  194 397.978 -1.35298 15.2176
  195 540.599 16.1823 32.8401
  196 540.599 16.1823 32.8401
  197 225.213 7.20554 -41.3867
  198 225.213 7.20554 -41.3867
  199 613.802 27.4042 16.2844
  200 613.802 27.4042 16.2844
  201 405.364 -4.97834 -16.0039
  202 405.364 -4.97834 -16.0039
  203 377.097 2.06368 5.38465
  204 377.097 2.06368 5.38465
  205 421.933 -16.5353 -8.33652
  206 421.933 -16.5353 -8.33652
  207 461.353 -23.1586 -3.30047
  208 461.353 -23.1586 -3.30047
  209 28.8013 -170.575 14.2652
  210 28.8013 -170.575 14.2652
  211 388.814 2.04150 -13.4166
  212 388.814 2.04150 -13.4166
  213 385.582 3.03188 11.7240
  214 385.582 3.03188 11.7240
  215 370.924 -34.0721 -60.0679
  216 370.924 -34.0721 -60.0679
  217 433.200 -9.19190 -9.79854
  218 433.200 -9.19190 -9.79854
  219 354.857 12.7959 -20.8008
  220 354.857 12.7959 -20.8008
  221 97.8353 -121.974 104.982
  222 97.8353 -121.974 104.982
  223 439.090 2.00269 15.1130
  224 439.090 2.00269 15.1130
  225 426.686 10.8661 -12.7913
  226 426.686 10.8661 -12.7913
  227 607.018 36.2438 -27.8836
  228 607.018 36.2438 -27.8836
  229 462.962 -17.1201 -7.38156
  230 462.962 -17.1201 -7.38156
  231 505.367 -22.4137 -89.8970
  232 505.367 -22.4137 -89.8970
  233 372.170 -16.7853 46.2738
  234 372.170 -16.7853 46.2738
  235 364.830 10.3153 1.63440
  236 364.830 10.3153 1.63440
  237 193.904 -28.5120 86.9339
  238 193.904 -28.5120 86.9339
  239 483.633 -41.5473 105.073
  240 483.633 -41.5473 105.073
  241 131.790 -17.0583 -42.9994
  242 131.790 -17.0583 -42.9994
  243 430.706 -32.3490 -20.9428
  244 430.706 -32.3490 -20.9428
  245 351.364 15.8444 12.0295
  246 351.364 15.8444 12.0295
  247 12.5800 -222.108 -11.6132
  248 12.5800 -222.108 -11.6132
  249 24.2128 -195.188 38.4927
  250 24.2128 -195.188 38.4927
  251 357.722 2.48912 33.2965
  252 357.722 2.48912 33.2965
  253 373.583 1.42285 1.32999
  254 373.583 1.42285 1.32999
  255 370.413 5.99841 0.252917
  256 370.413 5.99841 0.252917
  257 347.660 -4.29642 -44.2433
  258 347.660 -4.29642 -44.2433
  259 373.805 1.29580 -1.40878
  260 373.805 1.29580 -1.40878
  261 413.467 -29.1263 27.8166
  262 413.467 -29.1263 27.8166
  263 383.734 1.35614 -6.53666
  264 383.734 1.35614 -6.53666
  265 297.377 -25.1858 -82.1651
  266 297.377 -25.1858 -82.1651
  267 506.067 38.8681 -1.44736
  268 506.067 38.8681 -1.44736
  269 369.922 8.21018 -16.9545
  270 369.922 8.21018 -16.9545
  271 368.493 7.68451 -3.39001
  272 368.493 7.68451 -3.39001
  273 313.343 15.2255 -30.4311
  274 313.343 15.2255 -30.4311
  275 95.3895 -36.8960 24.7879
  276 95.3895 -36.8960 24.7879
  277 394.974 -65.5649 84.1652
  278 394.974 -65.5649 84.1652
  279 372.441 5.54623 6.62586
  280 372.441 5.54623 6.62586
  281 552.078 39.0574 -8.69983
  282 552.078 39.0574 -8.69983
  283 659.921 56.7332 77.8088
  284 659.921 56.7332 77.8088
  285 443.445 -47.1013 27.6938
  286 443.445 -47.1013 27.6938
  287 319.539 15.9817 22.3263
  288 319.539 15.9817 22.3263
  289 406.146 -80.8051 111.033
  290 406.146 -80.8051 111.033
  291 418.459 -4.92540 10.3429
  292 418.459 -4.92540 10.3429
  293 372.214 3.65414 1.81891
  294 372.214 3.65414 1.81891
  295 366.935 10.0753 -10.8157
  296 366.935 10.0753 -10.8157
  297 370.506 5.90219 -0.499595
  298 370.506 5.90219 -0.499595
  299 375.824 1.03892 -2.54083
  300 375.824 1.03892 -2.54083
  301 383.390 1.90207 6.56219
  302 383.390 1.90207 6.56219
  303 364.933 10.2603 -2.77874
  304 364.933 10.2603 -2.77874
  305 83.9713 -142.306 -99.8540
  306 83.9713 -142.306 -99.8540
  307 250.742 16.3461 20.7649
  308 250.742 16.3461 20.7649
  309 372.626 3.04909 -1.74766
  310 372.626 3.04909 -1.74766
  311 328.430 18.9163 -14.9554
  312 328.430 18.9163 -14.9554
  313 329.265 20.6271 5.70270
  314 329.265 20.6271 5.70270
  315 371.842 5.33323 -4.69586
  316 371.842 5.33323 -4.69586
  317 498.447 26.2744 -1.88027
  318 498.447 26.2744 -1.88027
  319 369.065 8.92801 14.8568
  320 369.065 8.92801 14.8568
  321 470.731 14.8180 -12.3841
  322 470.731 14.8180 -12.3841
  323 693.058 19.6184 46.7126
  324 693.058 19.6184 46.7126
  325 367.686 9.24450 9.34346
  326 367.686 9.24450 9.34346
  327 361.871 12.2347 4.88756
  328 361.871 12.2347 4.88756
  329 283.492 -60.7435 -157.455
  330 283.492 -60.7435 -157.455
  331 376.044 0.939206 2.48556
  332 376.044 0.939206 2.48556
  333 368.138 7.74335 2.53315
  334 368.138 7.74335 2.53315
  335 354.599 15.8604 0.560071
  336 354.599 15.8604 0.560071
  337 183.651 -64.9456 126.567
  338 183.651 -64.9456 126.567
  339 456.787 29.9334 2.18353
  340 456.787 29.9334 2.18353
  341 26.2379 -191.128 -44.5321
  342 26.2379 -191.128 -44.5321
  343 285.351 18.0066 18.4849
  344 285.351 18.0066 18.4849
  345 655.772 8.93583 6.44885
  346 655.772 8.93583 6.44885
  347 684.712 34.7552 -48.1499
  348 684.712 34.7552 -48.1499
  349 321.735 -37.1868 91.9303
  350 335.474 -19.1230 68.0327
  351 321.735 -37.1868 91.9303
  352 335.474 -19.1230 68.0327
  353 665.248 16.5588 24.4077
  354 665.248 16.5588 24.4077
  355 380.821 -0.540945 25.9710
  356 380.821 -0.540945 25.9710
  357 450.712 -60.8302 -65.3542
  358 450.712 -60.8302 -65.3542
  359 428.441 -3.69213 12.3810
  360 428.441 -3.69213 12.3810
  361 289.967 -60.7710 172.265
  362 289.967 -60.7710 172.265
  363 500.456 40.1384 -1.34111
  364 500.456 40.1384 -1.34111
  365 664.691 6.05006 -5.09611
  366 664.691 6.05006 -5.09611
  367 405.224 0.193926 -12.6953
  368 405.224 0.193926 -12.6953
  369 361.876 13.0106 -5.85111
  370 361.876 13.0106 -5.85111
  371 558.698 43.3939 14.4310
  372 558.698 43.3939 14.4310
  373 428.866 17.9313 -2.70515
  374 428.866 17.9313 -2.70515
  375 390.592 1.48157 -8.11024
  376 390.592 1.48157 -8.11024
  377 106.508 -52.6635 -72.7168
  378 106.508 -52.6635 -72.7168
  379 431.766 -7.77517 3.32770
  380 431.766 -7.77517 3.32770
  381 369.668 -0.593922 -30.6468
  382 369.668 -0.593922 -30.6468
  383 425.457 -0.873263 -14.7914
  384 425.457 -0.873263 -14.7914
  385 667.740 11.7767 -20.2030
  386 667.740 11.7767 -20.2030
  387 370.914 5.70887 3.71259
  388 370.914 5.70887 3.71259
  389 452.264 22.1142 12.2605
  390 452.264 22.1142 12.2605
  391 487.569 -10.4186 5.01796
  392 487.569 -10.4186 5.01796
  393 372.285 6.71223 -8.28752
  394 372.285 6.71223 -8.28752
  395 706.614 66.7226 -90.2321
  396 706.614 66.7226 -90.2321
  397 426.086 -6.21441 -4.47926
  398 426.086 -6.21441 -4.47926
</Section>

newXOutput 110

<Section columns = "stress_xx | stress_yy | stress_xy">
  1 376.212 0.367076 -0.420542
  2 376.383 0.455141 0.567064
  3 376.212 0.367076 -0.420542
  4 376.383 0.455141 0.567064
  5 577.849 39.5162 163.201
  6 600.314 38.4818 -160.574
  7 577.849 39.5162 163.201
  8 600.314 38.4818 -160.574
  9 377.144 0.258617 -1.10390
  10 380.233 0.457352 -1.96229
  11 384.702 1.03652 -3.98412
  12 394.975 0.386976 -5.35655
  13 408.181 0.638601 -8.78560
  14 423.652 -3.77848 -8.66809
  15 437.886 -4.54804 -1.03067
  16 431.265 -3.11838 7.19066
  17 415.120 3.25567 12.6986
  18 406.316 7.98647 -0.495368
  19 412.725 3.82897 -11.9247
  20 430.832 -4.63753 -8.76176
  21 433.912 -5.52290 2.95590
  22 425.853 -2.49495 7.47204
  23 405.424 0.124256 8.83695
  24 394.076 1.48131 6.78362
  25 384.971 1.18950 3.82861
  26 380.305 0.367793 1.79784
  27 377.355 0.305882 1.06601
  28 376.936 1.34663 0.662292
  29 376.268 2.76233 0.770240
  30 374.623 4.79964 0.685427
  31 373.965 5.58072 -0.0664135
  32 374.807 4.55343 -0.821878
  33 375.985 3.01156 -0.700085
  34 376.503 1.52712 -0.741384
  35 377.144 0.258617 -1.10390
  36 380.233 0.457352 -1.96229
  37 384.702 1.03652 -3.98412
  38 394.975 0.386976 -5.35655
  39 408.181 0.638601 -8.78560
  40 423.652 -3.77848 -8.66809
  41 437.886 -4.54804 -1.03067
  42 431.265 -3.11838 7.19066
  43 415.120 3.25567 12.6986
  44 406.316 7.98647 -0.495368
  45 412.725 3.82897 -11.9247
  46 430.832 -4.63753 -8.76176
  47 433.912 -5.52290 2.95590
  48 425.853 -2.49495 7.47204
  49 405.424 0.124256 8.83695
  50 394.076 1.48131 6.78362
  51 384.971 1.18950 3.82861
  52 380.305 0.367793 1.79784
  53 377.355 0.305882 1.06601
  54 376.936 1.34663 0.662292
  55 376.268 2.76233 0.770240
  56 374.623 4.79964 0.685427
  57 373.965 5.58072 -0.0664135
  58 374.807 4.55343 -0.821878
  59 375.985 3.01156 -0.700085
  60 376.503 1.52712 -0.741384
  61 799.477 41.8504 83.8940
  62 729.206 11.9121 29.6502
  63 687.961 4.95147 10.9399
  64 679.137 3.58863 2.13509
  65 687.597 4.76012 -9.33973
  66 719.064 10.2131 -25.7224
  67 806.997 36.4257 -72.2403
  68 107.065 -117.213 -133.835
  69 21.1831 -273.341 -34.5932
  70 5.89473 -311.866 -15.1112
  71 5.63760 -306.353 -7.57209
  72 9.69108 -297.786 16.1707
  73 23.0126 -264.900 36.6422
  74 116.024 -109.111 148.290
  75 799.477 41.8504 83.8940
  76 729.206 11.9121 29.6502
  77 687.961 4.95147 10.9399
  78 679.137 3.58863 2.13509
  79 687.597 4.76012 -9.33973
  80 719.064 10.2131 -25.7224
  81 806.997 36.4257 -72.2403
  82 107.065 -117.213 -133.835
  83 21.1831 -273.341 -34.5932
  84 5.89473 -311.866 -15.1112
  85 5.63760 -306.353 -7.57209
  86 9.69108 -297.786 16.1707
  87 23.0126 -264.900 36.6422
  88 116.024 -109.111 148.290
  89 346.018 19.7655 -5.13518
  90 346.018 19.7655 -5.13518
  91 316.029 4.39681 46.4804
  92 303.686 -1.86630 -55.4961
  93 316.029 4.39681 46.4804
  94 303.686 -1.86630 -55.4961
  95 179.436 4.72589 22.3448
  96 179.436 4.72589 22.3448
  97 463.700 29.8876 -7.01452
  98 472.394 17.1963 14.0104
  99 463.700 29.8876 -7.01452
  100 472.394 17.1963 14.0104
  101 370.969 8.94615 5.12095
  102 370.969 8.94615 5.12095
  103 443.302 -25.2226 0.843666
  104 443.302 -25.2226 0.843666
  105 371.416 9.35239 -6.31947
  106 371.416 9.35239 -6.31947
  107 435.434 -53.7829 -49.2977
  108 435.434 -53.7829 -49.2977
  109 304.992 -63.5460 122.801
  110 304.992 -63.5460 122.801
  111 206.443 -37.1891 -99.0939
  112 206.443 -37.1891 -99.0939
  113 372.890 6.24276 22.0223
  114 372.890 6.24276 22.0223
  115 386.403 2.59995 -21.0699
  116 386.403 2.59995 -21.0699
  117 523.748 35.3824 5.71218
  118 560.858 36.2938 3.30214
  119 523.748 35.3824 5.71218
  120 560.858 36.2938 3.30214
  121 549.302 46.4702 -14.7543
  122 549.302 46.4702 -14.7543
  123 60.4983 -98.8361 -32.6280
  124 60.4983 -98.8361 -32.6280
  125 472.696 -58.6116 53.5234
  126 472.696 -58.6116 53.5234
  127 399.414 -9.65244 24.8973
  128 399.414 -9.65244 24.8973
  129 92.1138 -85.3103 74.9144
  130 92.1138 -85.3103 74.9144
  131 371.497 7.47104 -0.323237
  132 371.497 7.47104 -0.323237
  133 398.753 -18.6075 -31.7701
  134 398.753 -18.6075 -31.7701
  135 377.313 3.05989 3.70452
  136 377.313 3.05989 3.70452
  137 377.640 2.69148 -3.45609
  138 377.640 2.69148 -3.45609
  139 381.750 5.23867 -11.0582
  140 381.750 5.23867 -11.0582
  141 380.020 5.10430 9.95788
  142 380.020 5.10430 9.95788
  143 364.087 12.4558 -0.405906
  144 364.087 12.4558 -0.405906
  145 304.731 20.2024 -2.37875
  146 304.731 20.2024 -2.37875
  147 441.164 -15.7248 6.49200
  148 441.164 -15.7248 6.49200
  149 503.662 -17.2981 -20.3624
  150 503.662 -17.2981 -20.3624
  151 389.415 -43.4594 61.1709
  152 389.415 -43.4594 61.1709
  153 294.107 -79.4583 -138.101
  154 294.107 -79.4583 -138.101
  155 346.782 14.1982 20.9865
  156 346.782 14.1982 20.9865
  157 448.882 -2.68755 -16.0820
  158 448.882 -2.68755 -16.0820
  159 611.501 48.7352 35.2473
  160 611.501 48.7352 35.2473
  161 306.268 -85.1832 159.741
  162 306.268 -85.1832 159.741
  163 624.379 20.5813 -7.16367
  164 624.379 20.5813 -7.16367
  165 362.639 12.4194 9.74510
  166 362.639 12.4194 9.74510
  167 344.646 11.7385 -30.7185
  168 344.646 11.7385 -30.7185
  169 426.638 12.9141 9.72991
  170 426.638 12.9141 9.72991
  171 359.278 14.8213 -11.0681
  172 359.278 14.8213 -11.0681
  173 373.730 6.00548 1.61990
  174 373.730 6.00548 1.61990
  175 379.842 2.91433 -5.88702
  176 379.842 2.91433 -5.88702
  177 586.561 46.4885 -35.2351
  178 586.561 46.4885 -35.2351
  179 374.026 5.84493 -1.95597
  180 374.026 5.84493 -1.95597
  181 276.397 20.2155 -16.0001
  182 276.397 20.2155 -16.0001
  183 497.485 36.8349 2.85100
  184 497.485 36.8349 2.85100
  185 101.043 -83.7940 -96.6401
  186 101.043 -83.7940 -96.6401
  187 272.347 -2.89603 67.5912
  188 272.347 -2.89603 67.5912
  189 363.331 -58.6650 -95.1781
  190 363.331 -58.6650 -95.1781
  191 429.000 -11.8024 5.37964
  192 429.000 -11.8024 5.37964
  193 401.486 -1.36679 15.3501
  194 401.486 -1.36679 15.3501
  195 545.296 16.3618 33.1880
  196 545.296 16.3618 33.1880
  197 227.254 7.27747 -41.7580
  198 227.254 7.27747 -41.7580
  199 619.096 27.6343 16.4328
  200 619.096 27.6343 16.4328
  201 408.934 -5.02446 -16.1472
  202 408.934 -5.02446 -16.1472
  203 380.433 2.08120 5.42878
  204 380.433 2.08120 5.42878
  205 425.645 -16.6841 -8.42297
  206 425.645 -16.6841 -8.42297
  207 465.396 -23.3553 -3.36539
  208 465.396 -23.3553 -3.36539
  209 29.0584 -172.097 14.4065
  210 29.0584 -172.097 14.4065
  211 392.246 2.05758 -13.5308
  212 392.246 2.05758 -13.5308
  213 388.987 3.05732 11.8230
  214 388.987 3.05732 11.8230
  215 374.198 -34.3763 -60.6082
  216 374.198 -34.3763 -60.6082
  217 437.018 -9.27321 -9.86537
  218 437.018 -9.27321 -9.86537
  219 358.013 12.9072 -20.9803
  220 358.013 12.9072 -20.9803
  221 98.7054 -123.025 105.988
  222 98.7054 -123.025 105.988
  223 442.968 2.02633 15.2224
  224 442.968 2.02633 15.2224
  225 430.472 10.9667 -12.8882
  226 430.472 10.9667 -12.8882
  227 612.263 36.5555 -28.1445
  228 612.263 36.5555 -28.1445
  229 467.020 -17.2629 -7.41011
  230 467.020 -17.2629 -7.41011
  231 509.743 -22.5543 -90.7564
  232 509.743 -22.5543 -90.7564
  233 375.460 -16.9348 46.6850
  234 375.460 -16.9348 46.6850
  235 368.070 10.4038 1.64797
  236 368.070 10.4038 1.64797
  237 195.653 -28.7590 87.7275
  238 195.653 -28.7590 87.7275
  239 487.820 -41.8683 106.063
  240 487.820 -41.8683 106.063
  241 132.999 -17.1917 -43.3954
  242 132.999 -17.1917 -43.3954
  243 434.486 -32.6365 -21.1474
  244 434.486 -32.6365 -21.1474
  245 354.492 15.9822 12.1323
  246 354.492 15.9822 12.1323
  247 12.6858 -224.113 -11.7309
  248 12.6858 -224.113 -11.7309
  249 24.4263 -196.929 38.8800
  250 24.4263 -196.929 38.8800
  251 360.898 2.51047 33.5878
  252 360.898 2.51047 33.5878
  253 376.891 1.43512 1.34069
  254 376.891 1.43512 1.34069
  255 373.697 6.04938 0.254988
  256 373.697 6.04938 0.254988
  257 350.749 -4.33509 -44.6340
  258 350.749 -4.33509 -44.6340
  259 377.115 1.30704 -1.42011
  260 377.115 1.30704 -1.42011
  261 417.103 -29.3858 28.0758
  262 417.103 -29.3858 28.0758
  263 387.123 1.36746 -6.59061
  264 387.123 1.36746 -6.59061
  265 300.025 -25.4105 -82.9021
  266 300.025 -25.4105 -82.9021
  267 510.510 39.2136 -1.43479
  268 510.510 39.2136 -1.43479
  269 373.201 8.28046 -17.0988
  270 373.201 8.28046 -17.0988
  271 371.762 7.75022 -3.41780
  272 371.762 7.75022 -3.41780
  273 316.149 15.3611 -30.6978
  274 316.149 15.3611 -30.6978
  275 96.2671 -37.1987 25.0200
  276 96.2671 -37.1987 25.0200
  277 398.435 -66.1501 84.9324
  278 398.435 -66.1501 84.9324
  279 375.741 5.59366 6.68044
  280 375.741 5.59366 6.68044
  281 556.893 39.3943 -8.78898
  282 556.893 39.3943 -8.78898
  283 665.573 57.2759 78.5300
  284 665.573 57.2759 78.5300
  285 447.326 -47.5160 27.9676
  286 447.326 -47.5160 27.9676
  287 322.400 16.1233 22.5205
  288 322.400 16.1233 22.5205
  289 409.689 -81.5225 112.048
  290 409.689 -81.5225 112.048
  291 422.138 -4.97061 10.4373
  292 422.138 -4.97061 10.4373
  293 375.512 3.68534 1.83364
  294 375.512 3.68534 1.83364
  295 370.191 10.1619 -10.9063
  296 370.191 10.1619 -10.9063
  297 373.791 5.95236 -0.503643
  298 373.791 5.95236 -0.503643
  299 379.149 1.04785 -2.56141
  300 379.149 1.04785 -2.56141
  301 386.776 1.91810 6.61634
  302 386.776 1.91810 6.61634
  303 368.174 10.3483 -2.80179
  304 368.174 10.3483 -2.80179
  305 84.7153 -143.529 -100.817
  306 84.7153 -143.529 -100.817
  307 253.010 16.4966 20.9487
  308 253.010 16.4966 20.9487
  309 375.927 3.07520 -1.76178
  310 375.927 3.07520 -1.76178
  311 331.367 19.0825 -15.0852
  312 331.367 19.0825 -15.0852
  313 332.210 20.8083 5.75174
  314 332.210 20.8083 5.75174
  315 375.137 5.37884 -4.73433
  316 375.137 5.37884 -4.73433
  317 502.813 26.5251 -1.94300
  318 502.813 26.5251 -1.94300
  319 372.338 9.00474 14.9824
  320 372.338 9.00474 14.9824
  321 474.870 14.9591 -12.4582
  322 474.870 14.9591 -12.4582
  323 698.963 19.7813 47.1230
  324 698.963 19.7813 47.1230
  325 370.948 9.32388 9.42144
  326 370.948 9.32388 9.42144
  327 365.087 12.3400 4.92836
  328 365.087 12.3400 4.92836
  329 285.959 -61.1744 -158.933
  330 285.959 -61.1744 -158.933
  331 379.372 0.947269 2.50569
  332 379.372 0.947269 2.50569
  333 371.404 7.80951 2.55395
  334 371.404 7.80951 2.55395
  335 357.756 15.9977 0.564771
  336 357.756 15.9977 0.564771
  337 185.297 -65.5194 127.741
  338 185.297 -65.5194 127.741
  339 460.828 30.2017 2.19681
  340 460.828 30.2017 2.19681
  341 26.4663 -192.830 -44.9732
  342 26.4663 -192.830 -44.9732
  343 287.921 18.1684 18.6467
  344 287.921 18.1684 18.6467
  345 661.368 9.00752 6.50191
  346 661.368 9.00752 6.50191
  347 690.563 35.0616 -48.5774
  348 690.563 35.0616 -48.5774
  349 324.585 -37.5198 92.7554
  350 338.450 -19.2932 68.6366
  351 324.585 -37.5198 92.7554
  352 338.450 -19.2932 68.6366
  353 670.927 16.6941 24.6173
  354 670.927 16.6941 24.6173
  355 384.189 -0.547235 26.1979
  356 384.189 -0.547235 26.1979
  357 454.638 -61.3623 -65.9675
  358 454.638 -61.3623 -65.9675
  359 432.227 -3.72314 12.4744
  360 432.227 -3.72314 12.4744
  361 292.477 -61.2085 173.873
  362 292.477 -61.2085 173.873
  363 504.857 40.4903 -1.35183
  364 504.857 40.4903 -1.35183
  365 670.350 6.09808 -5.13919
  366 670.350 6.09808 -5.13919
  367 408.789 0.193782 -12.8049
  368 408.789 0.193782 -12.8049
  369 365.092 13.1227 -5.90009
  370 365.092 13.1227 -5.90009
  371 563.566 43.7742 14.5826
  372 563.566 43.7742 14.5826
  373 432.675 18.0935 -2.72568
  374 432.675 18.0935 -2.72568
  375 394.036 1.49354 -8.17804
  376 394.036 1.49354 -8.17804
  377 107.487 -53.1135 -73.3987
  378 107.487 -53.1135 -73.3987
  379 435.566 -7.84460 3.34525
  380 435.566 -7.84460 3.34525
  381 372.943 -0.600715 -30.9159
  382 372.943 -0.600715 -30.9159
  383 429.224 -0.879555 -14.9042
  384 429.224 -0.879555 -14.9042
  385 673.437 11.8739 -20.3751
  386 673.437 11.8739 -20.3751
  387 374.201 5.75760 3.74295
  388 374.201 5.75760 3.74295
  389 456.259 22.3163 12.3459
  390 456.259 22.3163 12.3459
  391 491.828 -10.4925 5.10909
  392 491.828 -10.4925 5.10909
  393 375.583 6.76971 -8.35614
  394 375.583 6.76971 -8.35614
  395 712.634 67.3685 -91.0610
  396 712.634 67.3685 -91.0610
  397 429.829 -6.27132 -4.52417
  398 429.829 -6.27132 -4.52417
</Section>

newXOutput 111

<Section columns = "stress_xx | stress_yy | stress_xy">
  1 379.513 0.370354 -0.423854
  2 379.685 0.459145 0.571521
  3 379.513 0.370354 -0.423854
  4 379.685 0.459145 0.571521
  5 582.717 40.0004 164.691
  6 605.360 38.9627 -162.041
  7 582.717 40.0004 164.691
  8 605.360 38.9627 -162.041
  9 380.451 0.260870 -1.11264
  10 383.564 0.461267 -1.97795
  11 388.068 1.04524 -4.01628
  12 398.423 0.390021 -5.40036
  13 411.735 0.643125 -8.85930
  14 427.335 -3.81345 -8.74383
  15 441.692 -4.58909 -1.04449
  16 435.036 -3.14562 7.24322
  17 418.777 3.28689 12.7967
  18 409.910 8.05960 -0.499275
  19 416.364 3.86363 -12.0175
  20 434.601 -4.67835 -8.82559
  21 437.686 -5.57287 2.98744
  22 429.555 -2.51789 7.53780
  23 408.958 0.123973 8.91157
  24 397.517 1.49348 6.83932
  25 388.340 1.19952 3.85945
  26 383.637 0.370951 1.81216
  27 380.664 0.308564 1.07449
  28 380.242 1.35813 0.667486
  29 379.568 2.78574 0.776350
  30 377.911 4.84004 0.690903
  31 377.248 5.62760 -0.0669413
  32 378.097 4.59180 -0.828409
  33 379.284 3.03708 -0.705547
  34 379.805 1.54021 -0.747270
  35 380.451 0.260870 -1.11264
  36 383.564 0.461267 -1.97795
  37 388.068 1.04524 -4.01628
  38 398.423 0.390021 -5.40036
  39 411.735 0.643125 -8.85930
  40 427.335 -3.81345 -8.74383
  41 441.692 -4.58909 -1.04449
  42 435.036 -3.14562 7.24322
  43 418.777 3.28689 12.7967
  44 409.910 8.05960 -0.499275
  45 416.364 3.86363 -12.0175
  46 434.601 -4.67835 -8.82559
  47 437.686 -5.57287 2.98744
  48 429.555 -2.51789 7.53780
  49 408.958 0.123973 8.91157
  50 397.517 1.49348 6.83932
  51 388.340 1.19952 3.85945
  52 383.637 0.370951 1.81216
  53 380.664 0.308564 1.07449
  54 380.242 1.35813 0.667486
  55 379.568 2.78574 0.776350
  56 377.911 4.84004 0.690903
  57 377.248 5.62760 -0.0669413
  58 378.097 4.59180 -0.828409
  59 379.284 3.03708 -0.705547
  60 379.805 1.54021 -0.747270
  61 806.139 42.2241 84.6166
  62 735.305 12.0095 29.8969
  63 693.738 4.98848 11.0281
  64 684.844 3.61621 2.15080
  65 693.370 4.79757 -9.41463
  66 725.087 10.2957 -25.9340
  67 813.723 36.7501 -72.8630
  68 107.991 -118.103 -135.099
  69 21.3670 -275.767 -34.9525
  70 5.93545 -314.706 -15.2675
  71 5.67696 -309.150 -7.64100
  72 9.76844 -300.486 16.3386
  73 23.2152 -267.250 37.0243
  74 117.018 -109.931 149.685
  75 806.139 42.2241 84.6166
  76 735.305 12.0095 29.8969
  77 693.738 4.98848 11.0281
  78 684.844 3.61621 2.15080
  79 693.370 4.79757 -9.41463
  80 725.087 10.2957 -25.9340
  81 813.723 36.7501 -72.8630
  82 107.991 -118.103 -135.099
  83 21.3670 -275.767 -34.9525
  84 5.93545 -314.706 -15.2675
  85 5.67696 -309.150 -7.64100
  86 9.76844 -300.486 16.3386
  87 23.2152 -267.250 37.0243
  88 117.018 -109.931 149.685
  89 349.076 19.9363 -5.17887
  90 349.076 19.9363 -5.17887
  91 318.826 4.43678 46.8857
  92 306.376 -1.88129 -55.9834
  93 318.826 4.43678 46.8857
  94 306.376 -1.88129 -55.9834
  95 181.062 4.78075 22.5445
  96 181.062 4.78075 22.5445
  97 467.759 30.1533 -7.06121
  98 476.511 17.3576 14.0969
  99 467.759 30.1533 -7.06121
  100 476.511 17.3576 14.0969
  101 374.229 9.02202 5.16284
  102 374.229 9.02202 5.16284
  103 447.160 -25.4426 0.876936
  104 447.160 -25.4426 0.876936
  105 374.680 9.43186 -6.37128
  106 374.680 9.43186 -6.37128
  107 439.207 -54.2558 -49.7512
  108 439.207 -54.2558 -49.7512
  109 307.664 -64.1101 123.905
  110 307.664 -64.1101 123.905
  111 208.280 -37.5121 -99.9921
  112 208.280 -37.5121 -99.9921
  113 376.164 6.29536 22.2099
  114 376.164 6.29536 22.2099
  115 389.787 2.62043 -21.2507
  116 389.787 2.62043 -21.2507
  117 528.286 35.7068 5.80768
  118 565.698 36.6009 3.33803
  119 528.286 35.7068 5.80768
  120 565.698 36.6009 3.33803
  121 554.052 46.8829 -14.9179
  122 554.052 46.8829 -14.9179
  123 61.0438 -99.6858 -32.9393
  124 61.0438 -99.6858 -32.9393
  125 476.771 -59.1104 54.0345
  126 476.771 -59.1104 54.0345
  127 402.904 -9.73882 25.1183
  128 402.904 -9.73882 25.1183
  129 92.9437 -86.0402 75.6209
  130 92.9437 -86.0402 75.6209
  131 374.762 7.53416 -0.325818
  132 374.762 7.53416 -0.325818
  133 402.235 -18.7726 -32.0550
  134 402.235 -18.7726 -32.0550
  135 380.622 3.08584 3.73436
  136 380.622 3.08584 3.73436
  137 380.951 2.71438 -3.48386
  138 380.951 2.71438 -3.48386
  139 385.095 5.28272 -11.1498
  140 385.095 5.28272 -11.1498
  141 383.351 5.14739 10.0400
  142 383.351 5.14739 10.0400
  143 367.292 12.5619 -0.409366
  144 367.292 12.5619 -0.409366
  145 307.444 20.3800 -2.39970
  146 307.444 20.3800 -2.39970
  147 445.009 -15.8607 6.52599
  148 445.009 -15.8607 6.52599
  149 508.009 -17.4214 -20.5946
  150 508.009 -17.4214 -20.5946
  151 392.809 -43.8439 61.7179
  152 392.809 -43.8439 61.7179
  153 296.668 -80.1445 -139.368
  154 296.668 -80.1445 -139.368
  155 349.843 14.3215 21.1661
  156 349.843 14.3215 21.1661
  157 452.798 -2.70637 -16.1943
  158 452.798 -2.70637 -16.1943
  159 616.738 49.1669 35.5813
  160 616.738 49.1669 35.5813
  161 308.932 -85.9277 161.196
  162 308.932 -85.9277 161.196
  163 629.700 20.7490 -7.22701
  164 629.700 20.7490 -7.22701
  165 365.833 12.5255 9.82641
  166 365.833 12.5255 9.82641
  167 347.687 11.8407 -30.9838
  168 347.687 11.8407 -30.9838
  169 430.393 13.0320 9.80410
  170 430.393 13.0320 9.80410
  171 362.444 14.9483 -11.1610
  172 362.444 14.9483 -11.1610
  173 377.012 6.05614 1.63295
  174 377.012 6.05614 1.63295
  175 383.171 2.93892 -5.93485
  176 383.171 2.93892 -5.93485
  177 591.594 46.9242 -35.5930
  178 591.594 46.9242 -35.5930
  179 377.310 5.89430 -1.97170
  180 377.310 5.89430 -1.97170
  181 278.867 20.3966 -16.1401
  182 278.867 20.3966 -16.1401
  183 501.818 37.1610 2.85018
  184 501.818 37.1610 2.85018
  185 101.947 -84.5106 -97.5482
  186 101.947 -84.5106 -97.5482
  187 274.767 -2.91823 68.1878
  188 274.767 -2.91823 68.1878
  189 366.498 -59.1846 -96.0339
  190 366.498 -59.1846 -96.0339
  191 432.739 -11.9075 5.43848
  192 432.739 -11.9075 5.43848
  193 404.991 -1.38063 15.4825
  194 404.991 -1.38063 15.4825
  195 549.988 16.5417 33.5365
  196 549.988 16.5417 33.5365
  197 229.293 7.34948 -42.1291
  198 229.293 7.34948 -42.1291
  199 624.383 27.8639 16.5811
  200 624.383 27.8639 16.5811
  201 412.502 -5.07058 -16.2903
  202 412.502 -5.07058 -16.2903
  203 383.766 2.09869 5.47281
  204 383.766 2.09869 5.47281
  205 429.354 -16.8328 -8.50956
  206 429.354 -16.8328 -8.50956
  207 469.434 -23.5516 -3.43088
  208 469.434 -23.5516 -3.43088
  209 29.3153 -173.619 14.5480
  210 29.3153 -173.619 14.5480
  211 395.675 2.07362 -13.6448
  212 395.675 2.07362 -13.6448
  213 392.390 3.08271 11.9219
  214 392.390 3.08271 11.9219
  215 377.469 -34.6803 -61.1483
  216 377.469 -34.6803 -61.1483
  217 440.833 -9.35445 -9.93181
  218 440.833 -9.35445 -9.93181
  219 361.166 13.0184 -21.1596
  220 361.166 13.0184 -21.1596
  221 99.5748 -124.074 106.994
  222 99.5748 -124.074 106.994
  223 446.843 2.05005 15.3314
  224 446.843 2.05005 15.3314
  225 434.255 11.0672 -12.9848
  226 434.255 11.0672 -12.9848
  227 617.502 36.8668 -28.4054
  228 617.502 36.8668 -28.4054
  229 471.075 -17.4055 -7.43799
  230 471.075 -17.4055 -7.43799
  231 514.114 -22.6937 -91.6162
  232 514.114 -22.6937 -91.6162
  233 378.747 -17.0842 47.0959
  234 378.747 -17.0842 47.0959
  235 371.307 10.4921 1.66151
  236 371.307 10.4921 1.66151
  237 197.401 -29.0056 88.5208
  238 197.401 -29.0056 88.5208
  239 492.002 -42.1883 107.054
  240 492.002 -42.1883 107.054
  241 134.207 -17.3246 -43.7914
  242 134.207 -17.3246 -43.7914
  243 438.262 -32.9237 -21.3522
  244 438.262 -32.9237 -21.3522
  245 357.619 16.1198 12.2348
  246 357.619 16.1198 12.2348
  247 12.7914 -226.116 -11.8487
  248 12.7914 -226.116 -11.8487
  249 24.6396 -198.668 39.2678
  250 24.6396 -198.668 39.2678
  251 364.071 2.53178 33.8787
  252 364.071 2.53178 33.8787
  253 380.197 1.44737 1.35135
  254 380.197 1.44737 1.35135
  255 376.978 6.10027 0.257054
  256 376.978 6.10027 0.257054
  257 353.835 -4.37373 -45.0243
  258 353.835 -4.37373 -45.0243
  259 380.422 1.31826 -1.43142
  260 380.422 1.31826 -1.43142
  261 420.735 -29.6452 28.3349
  262 420.735 -29.6452 28.3349
  263 390.509 1.37875 -6.64444
  264 390.509 1.37875 -6.64444
  265 302.671 -25.6349 -83.6388
  266 302.671 -25.6349 -83.6388
  267 514.949 39.5588 -1.42180
  268 514.949 39.5588 -1.42180
  269 376.479 8.35065 -17.2429
  270 376.479 8.35065 -17.2429
  271 375.028 7.81584 -3.44554
  272 375.028 7.81584 -3.44554
  273 318.954 15.4966 -30.9642
  274 318.954 15.4966 -30.9642
  275 97.1445 -37.5008 25.2522
  276 97.1445 -37.5008 25.2522
  277 401.893 -66.7349 85.6992
  278 401.893 -66.7349 85.6992
  279 379.038 5.64103 6.73490
  280 379.038 5.64103 6.73490
  281 561.703 39.7307 -8.87825
  282 561.703 39.7307 -8.87825
  283 671.218 57.8189 79.2512
  284 671.218 57.8189 79.2512
  285 451.203 -47.9304 28.2417
  286 451.203 -47.9304 28.2417
  287 325.258 16.2648 22.7145
  288 325.258 16.2648 22.7145
  289 413.229 -82.2394 113.063
  290 413.229 -82.2394 113.063
  291 425.814 -5.01581 10.5316
  292 425.814 -5.01581 10.5316
  293 378.807 3.71649 1.84833
  294 378.807 3.71649 1.84833
  295 373.445 10.2484 -10.9968
  296 373.445 10.2484 -10.9968
  297 377.073 6.00246 -0.507682
  298 377.073 6.00246 -0.507682
  299 382.472 1.05676 -2.58194
  300 382.472 1.05676 -2.58194
  301 390.160 1.93410 6.67037
  302 390.160 1.93410 6.67037
  303 371.412 10.4362 -2.82478
  304 371.412 10.4362 -2.82478
  305 85.4588 -144.751 -101.780
  306 85.4588 -144.751 -101.780
  307 255.277 16.6472 21.1323
  308 255.277 16.6472 21.1323
  309 379.225 3.10127 -1.77585
  310 379.225 3.10127 -1.77585
  311 334.303 19.2486 -15.2148
  312 334.303 19.2486 -15.2148
  313 335.153 20.9893 5.80072
  314 335.153 20.9893 5.80072
  315 378.429 5.42439 -4.77272
  316 378.429 5.42439 -4.77272
  317 507.175 26.7760 -2.00646
  318 507.175 26.7760 -2.00646
  319 375.608 9.08136 15.1077
  320 375.608 9.08136 15.1077
  321 479.006 15.1003 -12.5317
  322 479.006 15.1003 -12.5317
  323 704.858 19.9439 47.5331
  324 704.858 19.9439 47.5331
  325 374.208 9.40317 9.49927
  326 374.208 9.40317 9.49927
  327 368.300 12.4451 4.96908
  328 368.300 12.4451 4.96908
  329 288.424 -61.6031 -160.412
  330 288.424 -61.6031 -160.412
  331 382.697 0.955321 2.52576
  332 382.697 0.955321 2.52576
  333 374.668 7.87557 2.57470
  334 374.668 7.87557 2.57470
  335 360.910 16.1348 0.569463
  336 360.910 16.1348 0.569463
  337 186.942 -66.0928 128.915
  338 186.942 -66.0928 128.915
  339 464.865 30.4698 2.20999
  340 464.865 30.4698 2.20999
  341 26.6945 -194.531 -45.4148
  342 26.6945 -194.531 -45.4148
  343 290.489 18.3300 18.8084
  344 290.489 18.3300 18.8084
  345 666.956 9.07903 6.55487
  346 666.956 9.07903 6.55487
  347 696.405 35.3678 -49.0046
  348 696.405 35.3678 -49.0046
  349 327.432 -37.8527 93.5801
  350 341.425 -19.4633 69.2401
  351 327.432 -37.8527 93.5801
  352 341.425 -19.4633 69.2401
  353 676.598 16.8290 24.8267
  354 676.598 16.8290 24.8267
  355 387.554 -0.553546 26.4245
  356 387.554 -0.553546 26.4245
  357 458.560 -61.8939 -66.5810
  358 458.560 -61.8939 -66.5810
  359 436.009 -3.75409 12.5674
  360 436.009 -3.75409 12.5674
  361 294.984 -61.6438 175.481
  362 294.984 -61.6438 175.481
  363 509.254 40.8419 -1.36251
  364 509.254 40.8419 -1.36251
  365 676.002 6.14598 -5.18220
  366 676.002 6.14598 -5.18220
  367 412.351 0.193607 -12.9144
  368 412.351 0.193607 -12.9144
  369 368.305 13.2347 -5.94898
  370 368.305 13.2347 -5.94898
  371 568.428 44.1542 14.7346
  372 568.428 44.1542 14.7346
  373 436.481 18.2556 -2.74614
  374 436.481 18.2556 -2.74614
  375 397.478 1.50548 -8.24573
  376 397.478 1.50548 -8.24573
  377 108.465 -53.5628 -74.0807
  378 108.465 -53.5628 -74.0807
  379 439.362 -7.91399 3.36258
  380 439.362 -7.91399 3.36258
  381 376.216 -0.607530 -31.1847
  382 376.216 -0.607530 -31.1847
  383 432.988 -0.885814 -15.0166
  384 432.988 -0.885814 -15.0166
  385 679.124 11.9709 -20.5470
  386 679.124 11.9709 -20.5470
  387 377.486 5.80627 3.77323
  388 377.486 5.80627 3.77323
  389 460.251 22.5184 12.4308
  390 460.251 22.5184 12.4308
  391 496.082 -10.5660 5.20095
  392 496.082 -10.5660 5.20095
  393 378.879 6.82711 -8.42462
  394 378.879 6.82711 -8.42462
  395 718.646 68.0147 -91.8897
  396 718.646 68.0147 -91.8897
  397 433.569 -6.32822 -4.56913
  398 433.569 -6.32822 -4.56913
</Section>

newXOutput 112

<Section columns = "stress_xx | stress_yy | stress_xy">
  1 382.810 0.373631 -0.427156
  2 382.984 0.463147 0.575967
  3 382.810 0.373631 -0.427156
  4 382.984 0.463147 0.575967
  5 587.578 40.4866 166.180
  6 610.398 39.4457 -163.508
  7 587.578 40.4866 166.180
  8 610.398 39.4457 -163.508
  9 383.756 0.263121 -1.12136
  10 386.893 0.465178 -1.99357
  11 391.431 1.05394 -4.04838
  12 401.867 0.393058 -5.44408
  13 415.286 0.647628 -8.93289
  14 431.014 -3.84842 -8.81951
  15 445.495 -4.63014 -1.05838
  16 438.804 -3.17284 7.29556
  17 422.432 3.31812 12.8944
  18 413.502 8.13272 -0.503171
  19 420.000 3.89828 -12.1101
  20 438.366 -4.71914 -8.88914
  21 441.457 -5.62282 3.01905
  22 433.252 -2.54083 7.60350
  23 412.488 0.123666 8.98608
  24 400.955 1.50562 6.89492
  25 391.706 1.20952 3.89022
  26 386.967 0.374106 1.82645
  27 383.971 0.311243 1.08294
  28 383.545 1.36961 0.672666
  29 382.867 2.80911 0.782443
  30 381.197 4.88038 0.696366
  31 380.529 5.67442 -0.0674678
  32 381.384 4.63012 -0.834923
  33 382.580 3.06256 -0.710994
  34 383.105 1.55329 -0.753141
  35 383.756 0.263121 -1.12136
  36 386.893 0.465178 -1.99357
  37 391.431 1.05394 -4.04838
  38 401.867 0.393058 -5.44408
  39 415.286 0.647628 -8.93289
  40 431.014 -3.84842 -8.81951
  41 445.495 -4.63014 -1.05838
  42 438.804 -3.17284 7.29556
  43 422.432 3.31812 12.8944
  44 413.502 8.13272 -0.503171
  45 420.000 3.89828 -12.1101
  46 438.366 -4.71914 -8.88914
  47 441.457 -5.62282 3.01905
  48 433.252 -2.54083 7.60350
  49 412.488 0.123666 8.98608
  50 400.955 1.50562 6.89492
  51 391.706 1.20952 3.89022
  52 386.967 0.374106 1.82645
  53 383.971 0.311243 1.08294
  54 383.545 1.36961 0.672666
  55 382.867 2.80911 0.782443
  56 381.197 4.88038 0.696366
  57 380.529 5.67442 -0.0674678
  58 381.384 4.63012 -0.834923
  59 382.580 3.06256 -0.710994
  60 383.105 1.55329 -0.753141
  61 812.790 42.5976 85.3383
  62 741.394 12.1067 30.1432
  63 699.505 5.02536 11.1161
  64 690.542 3.64371 2.16644
  65 699.134 4.83492 -9.48936
  66 731.100 10.3781 -26.1452
  67 820.437 37.0743 -73.4849
  68 108.916 -118.991 -136.363
  69 21.5507 -278.192 -35.3126
  70 5.97593 -317.545 -15.4241
  71 5.71612 -311.947 -7.70990
  72 9.84560 -303.186 16.5068
  73 23.4177 -269.599 37.4072
  74 118.010 -110.747 151.081
  75 812.790 42.5976 85.3383
  76 741.394 12.1067 30.1432
  77 699.505 5.02536 11.1161
  78 690.542 3.64371 2.16644
  79 699.134 4.83492 -9.48936
  80 731.100 10.3781 -26.1452
  81 820.437 37.0743 -73.4849
  82 108.916 -118.991 -136.363
  83 21.5507 -278.192 -35.3126
  84 5.97593 -317.545 -15.4241
  85 5.71612 -311.947 -7.70990
  86 9.84560 -303.186 16.5068
  87 23.4177 -269.599 37.4072
  88 118.010 -110.747 151.081
  89 352.132 20.1068 -5.22251
  90 352.132 20.1068 -5.22251
  91 321.621 4.47675 47.2906
  92 309.064 -1.89625 -56.4703
  93 321.621 4.47675 47.2906
  94 309.064 -1.89625 -56.4703
  95 182.688 4.83580 22.7441
  96 182.688 4.83580 22.7441
  97 471.815 30.4189 -7.10761
  98 480.624 17.5190 14.1826
  99 471.815 30.4189 -7.10761
  100 480.624 17.5190 14.1826
  101 377.487 9.09778 5.20464
  102 377.487 9.09778 5.20464
  103 451.014 -25.6623 0.910625
  104 451.014 -25.6623 0.910625
  105 377.941 9.51122 -6.42298
  106 377.941 9.51122 -6.42298
  107 442.976 -54.7284 -50.2048
  108 442.976 -54.7284 -50.2048
  109 310.333 -64.6740 125.010
  110 310.333 -64.6740 125.010
  111 210.116 -37.8348 -100.890
  112 210.116 -37.8348 -100.890
  113 379.435 6.34788 22.3972
  114 379.435 6.34788 22.3972
  115 393.167 2.64085 -21.4312
  116 393.167 2.64085 -21.4312
  117 532.819 36.0313 5.90386
  118 570.532 36.9075 3.37400
  119 532.819 36.0313 5.90386
  120 570.532 36.9075 3.37400
  121 558.797 47.2954 -15.0819
  122 558.797 47.2954 -15.0819
  123 61.5891 -100.535 -33.2508
  124 61.5891 -100.535 -33.2508
  125 480.841 -59.6085 54.5459
  126 480.841 -59.6085 54.5459
  127 406.391 -9.82515 25.3393
  128 406.391 -9.82515 25.3393
  129 93.7733 -86.7691 76.3277
  130 93.7733 -86.7691 76.3277
  131 378.023 7.59719 -0.328392
  132 378.023 7.59719 -0.328392
  133 405.713 -18.9377 -32.3399
  134 405.713 -18.9377 -32.3399
  135 383.928 3.11175 3.76413
  136 383.928 3.11175 3.76413
  137 384.260 2.73724 -3.51156
  138 384.260 2.73724 -3.51156
  139 388.437 5.32671 -11.2412
  140 388.437 5.32671 -11.2412
  141 386.680 5.19042 10.1220
  142 386.680 5.19042 10.1220
  143 370.495 12.6679 -0.412822
  144 370.495 12.6679 -0.412822
  145 310.155 20.5574 -2.42064
  146 310.155 20.5574 -2.42064
  147 448.851 -15.9964 6.55957
  148 448.851 -15.9964 6.55957
  149 512.350 -17.5441 -20.8275
  150 512.350 -17.5441 -20.8275
  151 396.199 -44.2281 62.2646
  152 396.199 -44.2281 62.2646
  153 299.227 -80.8300 -140.635
  154 299.227 -80.8300 -140.635
  155 352.902 14.4445 21.3455
  156 352.902 14.4445 21.3455
  157 456.710 -2.72510 -16.3060
  158 456.710 -2.72510 -16.3060
  159 621.968 49.5984 35.9153
  160 621.968 49.5984 35.9153
  161 311.592 -86.6715 162.650
  162 311.592 -86.6715 162.650
  163 635.014 20.9164 -7.29032
  164 635.014 20.9164 -7.29032
  165 369.023 12.6314 9.90759
  166 369.023 12.6314 9.90759
  167 350.726 11.9428 -31.2488
  168 350.726 11.9428 -31.2488
  169 434.145 13.1498 9.87804
  170 434.145 13.1498 9.87804
  171 365.607 15.0752 -11.2537
  172 365.607 15.0752 -11.2537
  173 380.291 6.10672 1.64598
  174 380.291 6.10672 1.64598
  175 386.497 2.96347 -5.98257
  176 386.497 2.96347 -5.98257
  177 596.621 47.3599 -35.9514
  178 596.621 47.3599 -35.9514
  179 380.591 5.94360 -1.98739
  180 380.591 5.94360 -1.98739
  181 281.335 20.5776 -16.2800
  182 281.335 20.5776 -16.2800
  183 506.146 37.4870 2.84893
  184 506.146 37.4870 2.84893
  185 102.850 -85.2262 -98.4567
  186 102.850 -85.2262 -98.4567
  187 277.186 -2.94036 68.7841
  188 277.186 -2.94036 68.7841
  189 369.661 -59.7039 -96.8894
  190 369.661 -59.7039 -96.8894
  191 436.474 -12.0126 5.49747
  192 436.474 -12.0126 5.49747
  193 408.493 -1.39448 15.6148
  194 408.493 -1.39448 15.6148
  195 554.674 16.7222 33.8857
  196 554.674 16.7222 33.8857
  197 231.332 7.42158 -42.4999
  198 231.332 7.42158 -42.4999
  199 629.664 28.0932 16.7294
  200 629.664 28.0932 16.7294
  201 416.066 -5.11670 -16.4334
  202 416.066 -5.11670 -16.4334
  203 387.097 2.11615 5.51675
  204 387.097 2.11615 5.51675
  205 433.059 -16.9814 -8.59630
  206 433.059 -16.9814 -8.59630
  207 473.469 -23.7476 -3.49693
  208 473.469 -23.7476 -3.49693
  209 29.5720 -175.140 14.6897
  210 29.5720 -175.140 14.6897
  211 399.101 2.08960 -13.7587
  212 399.101 2.08960 -13.7587
  213 395.790 3.10805 12.0206
  214 395.790 3.10805 12.0206
  215 380.737 -34.9841 -61.6881
  216 380.737 -34.9841 -61.6881
  217 444.645 -9.43562 -9.99785
  218 444.645 -9.43562 -9.99785
  219 364.317 13.1295 -21.3387
  220 364.317 13.1295 -21.3387
  221 100.443 -125.122 108.001
  222 100.443 -125.122 108.001
  223 450.715 2.07386 15.4398
  224 450.715 2.07386 15.4398
  225 438.035 11.1678 -13.0810
  226 438.035 11.1678 -13.0810
  227 622.735 37.1778 -28.6663
  228 622.735 37.1778 -28.6663
  229 475.126 -17.5478 -7.46521
  230 475.126 -17.5478 -7.46521
  231 518.480 -22.8320 -92.4763
  232 518.480 -22.8320 -92.4763
  233 382.031 -17.2335 47.5065
  234 382.031 -17.2335 47.5065
  235 374.542 10.5803 1.67502
  236 374.542 10.5803 1.67502
  237 199.148 -29.2520 89.3139
  238 199.148 -29.2520 89.3139
  239 496.180 -42.5071 108.044
  240 496.180 -42.5071 108.044
  241 135.415 -17.4571 -44.1873
  242 135.415 -17.4571 -44.1873
  243 442.035 -33.2108 -21.5572
  244 442.035 -33.2108 -21.5572
  245 360.743 16.2573 12.3373
  246 360.743 16.2573 12.3373
  247 12.8969 -228.119 -11.9667
  248 12.8969 -228.119 -11.9667
  249 24.8527 -200.407 39.6562
  250 24.8527 -200.407 39.6562
  251 367.242 2.55307 34.1694
  252 367.242 2.55307 34.1694
  253 383.500 1.45961 1.36200
  254 383.500 1.45961 1.36200
  255 380.257 6.15109 0.259116
  256 380.257 6.15109 0.259116
  257 356.919 -4.41236 -45.4143
  258 356.919 -4.41236 -45.4143
  259 383.727 1.32947 -1.44270
  260 383.727 1.32947 -1.44270
  261 424.364 -29.9043 28.5940
  262 424.364 -29.9043 28.5940
  263 393.892 1.39002 -6.69816
  264 393.892 1.39002 -6.69816
  265 305.316 -25.8593 -84.3749
  266 305.316 -25.8593 -84.3749
  267 519.383 39.9037 -1.40839
  268 519.383 39.9037 -1.40839
  269 379.753 8.42074 -17.3868
  270 379.753 8.42074 -17.3868
  271 378.292 7.88137 -3.47322
  272 378.292 7.88137 -3.47322
  273 321.757 15.6320 -31.2303
  274 321.757 15.6320 -31.2303
  275 98.0218 -37.8022 25.4844
  276 98.0218 -37.8022 25.4844
  277 405.347 -67.3194 86.4659
  278 405.347 -67.3194 86.4659
  279 382.332 5.68833 6.78925
  280 382.332 5.68833 6.78925
  281 566.508 40.0667 -8.96765
  282 566.508 40.0667 -8.96765
  283 676.855 58.3621 79.9722
  284 676.855 58.3621 79.9722
  285 455.076 -48.3443 28.5160
  286 455.076 -48.3443 28.5160
  287 328.115 16.4062 22.9082
  288 328.115 16.4062 22.9082
  289 416.764 -82.9557 114.078
  290 416.764 -82.9557 114.078
  291 429.487 -5.06101 10.6259
  292 429.487 -5.06101 10.6259
  293 382.099 3.74760 1.86299
  294 382.099 3.74760 1.86299
  295 376.696 10.3348 -11.0871
  296 376.696 10.3348 -11.0871
  297 380.352 6.05247 -0.511711
  298 380.352 6.05247 -0.511711
  299 385.793 1.06567 -2.60242
  300 385.793 1.06567 -2.60242
  301 393.541 1.95007 6.72430
  302 393.541 1.95007 6.72430
  303 374.647 10.5240 -2.84773
  304 374.647 10.5240 -2.84773
  305 86.2016 -145.971 -102.744
  306 86.2016 -145.971 -102.744
  307 257.544 16.7978 21.3158
  308 257.544 16.7978 21.3158
  309 382.520 3.12730 -1.78989
  310 382.520 3.12730 -1.78989
  311 337.236 19.4146 -15.3443
  312 337.236 19.4146 -15.3443
  313 338.094 21.1702 5.84964
  314 338.094 21.1702 5.84964
  315 381.719 5.46987 -4.81102
  316 381.719 5.46987 -4.81102
  317 511.533 27.0271 -2.07066
  318 511.533 27.0271 -2.07066
  319 378.876 9.15789 15.2329
  320 378.876 9.15789 15.2329
  321 483.137 15.2416 -12.6045
  322 483.137 15.2416 -12.6045
  323 710.746 20.1063 47.9427
  324 710.746 20.1063 47.9427
  325 377.465 9.48234 9.57696
  326 377.465 9.48234 9.57696
  327 371.511 12.5501 5.00972
  328 371.511 12.5501 5.00972
  329 290.886 -62.0294 -161.892
  330 290.886 -62.0294 -161.892
  331 386.019 0.963363 2.54579
  332 386.019 0.963363 2.54579
  333 377.929 7.94153 2.59541
  334 377.929 7.94153 2.59541
  335 364.062 16.2717 0.574147
  336 364.062 16.2717 0.574147
  337 188.586 -66.6657 130.089
  338 188.586 -66.6657 130.089
  339 468.899 30.7378 2.22305
  340 468.899 30.7378 2.22305
  341 26.9224 -196.231 -45.8569
  342 26.9224 -196.231 -45.8569
  343 293.057 18.4915 18.9699
  344 293.057 18.4915 18.9699
  345 672.536 9.15036 6.60772
  346 672.536 9.15036 6.60772
  347 702.239 35.6737 -49.4313
  348 702.239 35.6737 -49.4313
  349 330.277 -38.1853 94.4043
  350 344.398 -19.6332 69.8431
  351 330.277 -38.1853 94.4043
  352 344.398 -19.6332 69.8431
  353 682.261 16.9637 25.0357
  354 682.261 16.9637 25.0357
  355 390.917 -0.559879 26.6509
  356 390.917 -0.559879 26.6509
  357 462.477 -62.4250 -67.1945
  358 462.477 -62.4250 -67.1945
  359 439.788 -3.78499 12.6601
  360 439.788 -3.78499 12.6601
  361 297.488 -62.0769 177.089
  362 297.488 -62.0769 177.089
  363 513.647 41.1932 -1.37317
  364 513.647 41.1932 -1.37317
  365 681.644 6.19375 -5.22514
  366 681.644 6.19375 -5.22514
  367 415.910 0.193399 -13.0238
  368 415.910 0.193399 -13.0238
  369 371.516 13.3465 -5.99779
  370 371.516 13.3465 -5.99779
  371 573.285 44.5337 14.8868
  372 573.285 44.5337 14.8868
  373 440.283 18.4177 -2.76653
  374 440.283 18.4177 -2.76653
  375 400.916 1.51740 -8.31328
  376 400.916 1.51740 -8.31328
  377 109.444 -54.0115 -74.7628
  378 109.444 -54.0115 -74.7628
  379 443.155 -7.98334 3.37969
  380 443.155 -7.98334 3.37969
  381 379.485 -0.614367 -31.4533
  382 379.485 -0.614367 -31.4533
  383 436.749 -0.892041 -15.1287
  384 436.749 -0.892041 -15.1287
  385 684.804 12.0677 -20.7186
  386 684.804 12.0677 -20.7186
  387 380.769 5.85486 3.80346
  388 380.769 5.85486 3.80346
  389 464.239 22.7204 12.5153
  390 464.239 22.7204 12.5153
  391 500.332 -10.6392 5.29355
  392 500.332 -10.6392 5.29355
  393 382.172 6.88443 -8.49295
  394 382.172 6.88443 -8.49295
  395 724.649 68.6614 -92.7181
  396 724.649 68.6614 -92.7181
  397 437.305 -6.38510 -4.61415
  398 437.305 -6.38510 -4.61415
</Section>

newXOutput 113

<Section columns = "stress_xx | stress_yy | stress_xy">
  1 386.105 0.376905 -0.430450
  2 386.281 0.467145 0.580400
  3 386.105 0.376905 -0.430450
  4 386.281 0.467145 0.580400
  5 592.432 40.9749 167.669
  6 615.428 39.9308 -164.974
  7 592.432 40.9749 167.669
  8 615.428 39.9308 -164.974
  9 387.058 0.265369 -1.13005
  10 390.219 0.469084 -2.00916
  11 394.792 1.06264 -4.08039
  12 405.308 0.396086 -5.48771
  13 418.834 0.652108 -9.00636
  14 434.689 -3.88339 -8.89512
  15 449.295 -4.67117 -1.07233
  16 442.569 -3.20004 7.34768
  17 426.084 3.34938 12.9919
  18 417.091 8.20584 -0.507056
  19 423.634 3.93292 -12.2023
  20 442.128 -4.75989 -8.95242
  21 445.224 -5.67276 3.05073
  22 436.946 -2.56376 7.66915
  23 416.014 0.123336 9.06048
  24 404.390 1.51774 6.95040
  25 395.069 1.21950 3.92092
  26 390.294 0.377257 1.84071
  27 387.275 0.313920 1.09138
  28 386.846 1.38108 0.677831
  29 386.162 2.83245 0.788521
  30 384.480 4.92065 0.701815
  31 383.807 5.72115 -0.0679928
  32 384.668 4.66837 -0.841420
  33 385.873 3.08801 -0.716424
  34 386.402 1.56635 -0.758998
  35 387.058 0.265369 -1.13005
  36 390.219 0.469084 -2.00916
  37 394.792 1.06264 -4.08039
  38 405.308 0.396086 -5.48771
  39 418.834 0.652108 -9.00636
  40 434.689 -3.88339 -8.89512
  41 449.295 -4.67117 -1.07233
  42 442.569 -3.20004 7.34768
  43 426.084 3.34938 12.9919
  44 417.091 8.20584 -0.507056
  45 423.634 3.93292 -12.2023
  46 442.128 -4.75989 -8.95242
  47 445.224 -5.67276 3.05073
  48 436.946 -2.56376 7.66915
  49 416.014 0.123336 9.06048
  50 404.390 1.51774 6.95040
  51 395.069 1.21950 3.92092
  52 390.294 0.377257 1.84071
  53 387.275 0.313920 1.09138
  54 386.846 1.38108 0.677831
  55 386.162 2.83245 0.788521
  56 384.480 4.92065 0.701815
  57 383.807 5.72115 -0.0679928
  58 384.668 4.66837 -0.841420
  59 385.873 3.08801 -0.716424
  60 386.402 1.56635 -0.758998
  61 819.430 42.9710 86.0591
  62 747.473 12.2037 30.3890
  63 705.264 5.06211 11.2040
  64 696.232 3.67112 2.18203
  65 704.889 4.87217 -9.56392
  66 737.103 10.4603 -26.3560
  67 827.140 37.3984 -74.1061
  68 109.840 -119.875 -137.628
  69 21.7341 -280.615 -35.6734
  70 6.01618 -320.384 -15.5810
  71 5.75506 -314.743 -7.77879
  72 9.92256 -305.885 16.6754
  73 23.6201 -271.945 37.7910
  74 119.001 -111.560 152.477
  75 819.430 42.9710 86.0591
  76 747.473 12.2037 30.3890
  77 705.264 5.06211 11.2040
  78 696.232 3.67112 2.18203
  79 704.889 4.87217 -9.56392
  80 737.103 10.4603 -26.3560
  81 827.140 37.3984 -74.1061
  82 109.840 -119.875 -137.628
  83 21.7341 -280.615 -35.6734
  84 6.01618 -320.384 -15.5810
  85 5.75506 -314.743 -7.77879
  86 9.92256 -305.885 16.6754
  87 23.6201 -271.945 37.7910
  88 119.001 -111.560 152.477
  89 355.185 20.2772 -5.26608
  90 355.185 20.2772 -5.26608
  91 324.415 4.51670 47.6952
  92 311.751 -1.91117 -56.9568
  93 324.415 4.51670 47.6952
  94 311.751 -1.91117 -56.9568
  95 184.313 4.89104 22.9436
  96 184.313 4.89104 22.9436
  97 475.867 30.6843 -7.15371
  98 484.733 17.6804 14.2677
  99 475.867 30.6843 -7.15371
  100 484.733 17.6804 14.2677
  101 380.742 9.17344 5.24635
  102 380.742 9.17344 5.24635
  103 454.864 -25.8819 0.944733
  104 454.864 -25.8819 0.944733
  105 381.199 9.59048 -6.47458
  106 381.199 9.59048 -6.47458
  107 446.741 -55.2006 -50.6584
  108 446.741 -55.2006 -50.6584
  109 313.001 -65.2375 126.114
  110 313.001 -65.2375 126.114
  111 211.950 -38.1572 -101.788
  112 211.950 -38.1572 -101.788
  113 382.704 6.40032 22.5844
  114 382.704 6.40032 22.5844
  115 396.545 2.66121 -21.6115
  116 396.545 2.66121 -21.6115
  117 537.348 36.3557 6.00073
  118 575.362 37.2137 3.41005
  119 537.348 36.3557 6.00073
  120 575.362 37.2137 3.41005
  121 563.538 47.7077 -15.2463
  122 563.538 47.7077 -15.2463
  123 62.1342 -101.382 -33.5624
  124 62.1342 -101.382 -33.5624
  125 484.907 -60.1059 55.0577
  126 484.907 -60.1059 55.0577
  127 409.875 -9.91145 25.5601
  128 409.875 -9.91145 25.5601
  129 94.6026 -87.4972 77.0349
  130 94.6026 -87.4972 77.0349
  131 381.282 7.66013 -0.330961
  132 381.282 7.66013 -0.330961
  133 409.189 -19.1026 -32.6245
  134 409.189 -19.1026 -32.6245
  135 387.232 3.13762 3.79383
  136 387.232 3.13762 3.79383
  137 387.566 2.76007 -3.53920
  138 387.566 2.76007 -3.53920
  139 391.776 5.37063 -11.3325
  140 391.776 5.37063 -11.3325
  141 390.005 5.23339 10.2038
  142 390.005 5.23339 10.2038
  143 373.696 12.7737 -0.416274
  144 373.696 12.7737 -0.416274
  145 312.865 20.7346 -2.44155
  146 312.865 20.7346 -2.44155
  147 452.689 -16.1320 6.59272
  148 452.689 -16.1320 6.59272
  149 516.687 -17.6662 -21.0611
  150 516.687 -17.6662 -21.0611
  151 399.587 -44.6121 62.8111
  152 399.587 -44.6121 62.8111
  153 301.783 -81.5147 -141.902
  154 301.783 -81.5147 -141.902
  155 355.960 14.5675 21.5247
  156 355.960 14.5675 21.5247
  157 460.619 -2.74371 -16.4171
  158 460.619 -2.74371 -16.4171
  159 627.192 50.0295 36.2495
  160 627.192 50.0295 36.2495
  161 314.251 -87.4146 164.104
  162 314.251 -87.4146 164.104
  163 640.321 21.0835 -7.35357
  164 640.321 21.0835 -7.35357
  165 372.212 12.7371 9.98863
  166 372.212 12.7371 9.98863
  167 353.764 12.0448 -31.5134
  168 353.764 12.0448 -31.5134
  169 437.894 13.2677 9.95172
  170 437.894 13.2677 9.95172
  171 368.769 15.2019 -11.3463
  172 368.769 15.2019 -11.3463
  173 383.567 6.15722 1.65898
  174 383.567 6.15722 1.65898
  175 389.820 2.98799 -6.03019
  176 389.820 2.98799 -6.03019
  177 601.642 47.7958 -36.3103
  178 601.642 47.7958 -36.3103
  179 383.870 5.99283 -2.00304
  180 383.870 5.99283 -2.00304
  181 283.802 20.7585 -16.4198
  182 283.802 20.7585 -16.4198
  183 510.470 37.8127 2.84725
  184 510.470 37.8127 2.84725
  185 103.753 -85.9409 -99.3655
  186 103.753 -85.9409 -99.3655
  187 279.603 -2.96241 69.3799
  188 279.603 -2.96241 69.3799
  189 372.821 -60.2228 -97.7446
  190 372.821 -60.2228 -97.7446
  191 440.205 -12.1176 5.55662
  192 440.205 -12.1176 5.55662
  193 411.992 -1.40835 15.7469
  194 411.992 -1.40835 15.7469
  195 559.355 16.9032 34.2356
  196 559.355 16.9032 34.2356
  197 233.370 7.49375 -42.8705
  198 233.370 7.49375 -42.8705
  199 634.938 28.3220 16.8775
  200 634.938 28.3220 16.8775
  201 419.627 -5.16282 -16.5764
  202 419.627 -5.16282 -16.5764
  203 390.425 2.13358 5.56059
  204 390.425 2.13358 5.56059
  205 436.761 -17.1299 -8.68318
  206 436.761 -17.1299 -8.68318
  207 477.499 -23.9433 -3.56355
  208 477.499 -23.9433 -3.56355
  209 29.8286 -176.659 14.8315
  210 29.8286 -176.659 14.8315
  211 402.524 2.10554 -13.8724
  212 402.524 2.10554 -13.8724
  213 399.187 3.13335 12.1192
  214 399.187 3.13335 12.1192
  215 384.002 -35.2877 -62.2276
  216 384.002 -35.2877 -62.2276
  217 448.453 -9.51673 -10.0635
  218 448.453 -9.51673 -10.0635
  219 367.466 13.2404 -21.5175
  220 367.466 13.2404 -21.5175
  221 101.312 -126.169 109.008
  222 101.312 -126.169 109.008
  223 454.583 2.09776 15.5477
  224 454.583 2.09776 15.5477
  225 441.812 11.2683 -13.1769
  226 441.812 11.2683 -13.1769
  227 627.960 37.4883 -28.9271
  228 627.960 37.4883 -28.9271
  229 479.172 -17.6898 -7.49177
  230 479.172 -17.6898 -7.49177
  231 522.840 -22.9691 -93.3369
  232 522.840 -22.9691 -93.3369
  233 385.312 -17.3827 47.9168
  234 385.312 -17.3827 47.9168
  235 377.775 10.6684 1.68851
  236 377.775 10.6684 1.68851
  237 200.895 -29.4981 90.1068
  238 200.895 -29.4981 90.1068
  239 500.352 -42.8249 109.035
  240 500.352 -42.8249 109.035
  241 136.622 -17.5893 -44.5831
  242 136.622 -17.5893 -44.5831
  243 445.804 -33.4976 -21.7623
  244 445.804 -33.4976 -21.7623
  245 363.865 16.3946 12.4395
  246 363.865 16.3946 12.4395
  247 13.0021 -230.121 -12.0848
  248 13.0021 -230.121 -12.0848
  249 25.0657 -202.144 40.0452
  250 25.0657 -202.144 40.0452
  251 370.411 2.57433 34.4597
  252 370.411 2.57433 34.4597
  253 386.800 1.47184 1.37261
  254 386.800 1.47184 1.37261
  255 383.533 6.20182 0.261173
  256 383.533 6.20182 0.261173
  257 360.001 -4.45096 -45.8039
  258 360.001 -4.45096 -45.8039
  259 387.028 1.34067 -1.45395
  260 387.028 1.34067 -1.45395
  261 427.990 -30.1633 28.8532
  262 427.990 -30.1633 28.8532
  263 397.273 1.40128 -6.75177
  264 397.273 1.40128 -6.75177
  265 307.958 -26.0835 -85.1107
  266 307.958 -26.0835 -85.1107
  267 523.813 40.2484 -1.39456
  268 523.813 40.2484 -1.39456
  269 383.025 8.49073 -17.5305
  270 383.025 8.49073 -17.5305
  271 381.553 7.94680 -3.50084
  272 381.553 7.94680 -3.50084
  273 324.558 15.7674 -31.4962
  274 324.558 15.7674 -31.4962
  275 98.8990 -38.1030 25.7167
  276 98.8990 -38.1030 25.7167
  277 408.797 -67.9034 87.2323
  278 408.797 -67.9034 87.2323
  279 385.624 5.73557 6.84348
  280 385.624 5.73557 6.84348
  281 571.307 40.4023 -9.05716
  282 571.307 40.4023 -9.05716
  283 682.484 58.9056 80.6932
  284 682.484 58.9056 80.6932
  285 458.945 -48.7579 28.7906
  286 458.945 -48.7579 28.7906
  287 330.970 16.5474 23.1017
  288 330.970 16.5474 23.1017
  289 420.296 -83.6715 115.092
  290 420.296 -83.6715 115.092
  291 433.155 -5.10619 10.7201
  292 433.155 -5.10619 10.7201
  293 385.389 3.77866 1.87761
  294 385.389 3.77866 1.87761
  295 379.945 10.4210 -11.1772
  296 379.945 10.4210 -11.1772
  297 383.629 6.10241 -0.515730
  298 383.629 6.10241 -0.515730
  299 389.110 1.07456 -2.62286
  300 389.110 1.07456 -2.62286
  301 396.919 1.96601 6.77811
  302 396.919 1.96601 6.77811
  303 377.880 10.6116 -2.87064
  304 377.880 10.6116 -2.87064
  305 86.9438 -147.189 -103.709
  306 86.9438 -147.189 -103.709
  307 259.809 16.9483 21.4991
  308 259.809 16.9483 21.4991
  309 385.813 3.15330 -1.80390
  310 385.813 3.15330 -1.80390
  311 340.167 19.5803 -15.4737
  312 340.167 19.5803 -15.4737
  313 341.033 21.3509 5.89849
  314 341.033 21.3509 5.89849
  315 385.005 5.51529 -4.84924
  316 385.005 5.51529 -4.84924
  317 515.886 27.2782 -2.13559
  318 515.886 27.2782 -2.13559
  319 382.141 9.23431 15.3579
  320 382.141 9.23431 15.3579
  321 487.265 15.3830 -12.6766
  322 487.265 15.3830 -12.6766
  323 716.624 20.2683 48.3519
  324 716.624 20.2683 48.3519
  325 380.719 9.56141 9.65451
  326 380.719 9.56141 9.65451
  327 374.720 12.6550 5.05029
  328 374.720 12.6550 5.05029
  329 293.345 -62.4535 -163.371
  330 293.345 -62.4535 -163.371
  331 389.338 0.971394 2.56576
  332 389.338 0.971394 2.56576
  333 381.187 8.00740 2.61607
  334 381.187 8.00740 2.61607
  335 367.212 16.4085 0.578823
  336 367.212 16.4085 0.578823
  337 190.229 -67.2381 131.262
  338 190.229 -67.2381 131.262
  339 472.929 31.0056 2.23599
  340 472.929 31.0056 2.23599
  341 27.1500 -197.929 -46.2995
  342 27.1500 -197.929 -46.2995
  343 295.623 18.6530 19.1313
  344 295.623 18.6530 19.1313
  345 678.108 9.22152 6.66046
  346 678.108 9.22152 6.66046
  347 708.065 35.9793 -49.8578
  348 708.065 35.9793 -49.8578
  349 333.120 -38.5177 95.2279
  350 347.368 -19.8030 70.4457
  351 333.120 -38.5177 95.2279
  352 347.368 -19.8030 70.4457
  353 687.916 17.0981 25.2445
  354 687.916 17.0981 25.2445
  355 394.277 -0.566233 26.8770
  356 394.277 -0.566233 26.8770
  357 466.390 -62.9555 -67.8081
  358 466.390 -62.9555 -67.8081
  359 443.564 -3.81584 12.7524
  360 443.564 -3.81584 12.7524
  361 299.989 -62.5078 178.696
  362 299.989 -62.5078 178.696
  363 518.036 41.5441 -1.38380
  364 518.036 41.5441 -1.38380
  365 687.279 6.24140 -5.26801
  366 687.279 6.24140 -5.26801
  367 419.466 0.193160 -13.1330
  368 419.466 0.193160 -13.1330
  369 374.724 13.4582 -6.04650
  370 374.724 13.4582 -6.04650
  371 578.137 44.9129 15.0393
  372 578.137 44.9129 15.0393
  373 444.083 18.5798 -2.78683
  374 444.083 18.5798 -2.78683
  375 404.351 1.52928 -8.38072
  376 404.351 1.52928 -8.38072
  377 110.422 -54.4595 -75.4450
  378 110.422 -54.4595 -75.4450
  379 446.944 -8.05264 3.39659
  380 446.944 -8.05264 3.39659
  381 382.753 -0.621226 -31.7216
  382 382.753 -0.621226 -31.7216
  383 440.507 -0.898235 -15.2403
  384 440.507 -0.898235 -15.2403
  385 690.475 12.1643 -20.8900
  386 690.475 12.1643 -20.8900
  387 384.049 5.90339 3.83361
  388 384.049 5.90339 3.83361
  389 468.224 22.9224 12.5993
  390 468.224 22.9224 12.5993
  391 504.577 -10.7119 5.38689
  392 504.577 -10.7119 5.38689
  393 385.463 6.94167 -8.56116
  394 385.463 6.94167 -8.56116
  395 730.643 69.3086 -93.5463
  396 730.643 69.3086 -93.5463
  397 441.038 -6.44197 -4.65922
  398 441.038 -6.44197 -4.65922
</Section>

newXOutput 114

<Section columns = "stress_xx | stress_yy | stress_xy">
  1 389.397 0.380179 -0.433734
  2 389.574 0.471140 0.584821
  3 389.397 0.380179 -0.433734
  4 389.574 0.471140 0.584821
  5 597.279 41.4652 169.158
  6 620.450 40.4181 -166.440
  7 597.279 41.4652 169.158
  8 620.450 40.4181 -166.440
  9 390.357 0.267616 -1.13873
  10 393.542 0.472986 -2.02471
  11 398.150 1.07132 -4.11234
  12 408.747 0.399106 -5.53126
  13 422.378 0.656567 -9.07971
  14 438.361 -3.91837 -8.97066
  15 453.091 -4.71219 -1.08636
  16 446.330 -3.22721 7.39959
  17 429.733 3.38067 13.0890
  18 420.678 8.27896 -0.510930
  19 427.265 3.96755 -12.2943
  20 445.888 -4.80062 -9.01542
  21 448.987 -5.72269 3.08248
  22 440.637 -2.58670 7.73476
  23 419.538 0.122983 9.13477
  24 407.822 1.52983 7.00578
  25 398.429 1.22948 3.95156
  26 393.617 0.380404 1.85493
  27 390.576 0.316595 1.09979
  28 390.143 1.39253 0.682982
  29 389.455 2.85576 0.794582
  30 387.760 4.96087 0.707250
  31 387.083 5.76782 -0.0685165
  32 387.950 4.70657 -0.847901
  33 389.163 3.11343 -0.721839
  34 389.696 1.57939 -0.764839
  35 390.357 0.267616 -1.13873
  36 393.542 0.472986 -2.02471
  37 398.150 1.07132 -4.11234
  38 408.747 0.399106 -5.53126
  39 422.378 0.656567 -9.07971
  40 438.361 -3.91837 -8.97066
  41 453.091 -4.71219 -1.08636
  42 446.330 -3.22721 7.39959
  43 429.733 3.38067 13.0890
  44 420.678 8.27896 -0.510930
  45 427.265 3.96755 -12.2943
  46 445.888 -4.80062 -9.01542
  47 448.987 -5.72269 3.08248
  48 440.637 -2.58670 7.73476
  49 419.538 0.122983 9.13477
  50 407.822 1.52983 7.00578
  51 398.429 1.22948 3.95156
  52 393.617 0.380404 1.85493
  53 390.576 0.316595 1.09979
  54 390.143 1.39253 0.682982
  55 389.455 2.85576 0.794582
  56 387.760 4.96087 0.707250
  57 387.083 5.76782 -0.0685165
  58 387.950 4.70657 -0.847901
  59 389.163 3.11343 -0.721839
  60 389.696 1.57939 -0.764839
  61 826.058 43.3441 86.7791
  62 753.543 12.3005 30.6344
  63 711.015 5.09873 11.2916
  64 701.912 3.69845 2.19756
  65 710.635 4.90933 -9.63831
  66 743.097 10.5424 -26.5664
  67 833.832 37.7223 -74.7266
  68 110.763 -120.756 -138.893
  69 21.9175 -283.037 -36.0349
  70 6.05620 -323.223 -15.7383
  71 5.79378 -317.539 -7.84767
  72 9.99931 -308.583 16.8443
  73 23.8223 -274.291 38.1756
  74 119.991 -112.370 153.874
  75 826.058 43.3441 86.7791
  76 753.543 12.3005 30.6344
  77 711.015 5.09873 11.2916
  78 701.912 3.69845 2.19756
  79 710.635 4.90933 -9.63831
  80 743.097 10.5424 -26.5664
  81 833.832 37.7223 -74.7266
  82 110.763 -120.756 -138.893
  83 21.9175 -283.037 -36.0349
  84 6.05620 -323.223 -15.7383
  85 5.79378 -317.539 -7.84767
  86 9.99931 -308.583 16.8443
  87 23.8223 -274.291 38.1756
  88 119.991 -112.370 153.874
  89 358.237 20.4474 -5.30960
  90 358.237 20.4474 -5.30960
  91 327.207 4.55665 48.0994
  92 314.436 -1.92606 -57.4430
  93 327.207 4.55665 48.0994
  94 314.436 -1.92606 -57.4430
  95 185.937 4.94646 23.1430
  96 185.937 4.94646 23.1430
  97 479.915 30.9497 -7.19953
  98 488.839 17.8419 14.3521
  99 479.915 30.9497 -7.19953
  100 488.839 17.8419 14.3521
  101 383.994 9.24900 5.28798
  102 383.994 9.24900 5.28798
  103 458.710 -26.1012 0.979257
  104 458.710 -26.1012 0.979257
  105 384.455 9.66962 -6.52608
  106 384.455 9.66962 -6.52608
  107 450.503 -55.6724 -51.1119
  108 450.503 -55.6724 -51.1119
  109 315.666 -65.8006 127.218
  110 315.666 -65.8006 127.218
  111 213.784 -38.4793 -102.685
  112 213.784 -38.4793 -102.685
  113 385.970 6.45268 22.7712
  114 385.970 6.45268 22.7712
  115 399.920 2.68152 -21.7915
  116 399.920 2.68152 -21.7915
  117 541.872 36.6801 6.09827
  118 580.186 37.5196 3.44618
  119 541.872 36.6801 6.09827
  120 580.186 37.5196 3.44618
  121 568.273 48.1198 -15.4111
  122 568.273 48.1198 -15.4111
  123 62.6792 -102.229 -33.8743
  124 62.6792 -102.229 -33.8743
  125 488.968 -60.6026 55.5697
  126 488.968 -60.6026 55.5697
  127 413.355 -9.99771 25.7807
  128 413.355 -9.99771 25.7807
  129 95.4317 -88.2243 77.7424
  130 95.4317 -88.2243 77.7424
  131 384.539 7.72298 -0.333522
  132 384.539 7.72298 -0.333522
  133 412.662 -19.2674 -32.9091
  134 412.662 -19.2674 -32.9091
  135 390.533 3.16347 3.82346
  136 390.533 3.16347 3.82346
  137 390.869 2.78288 -3.56677
  138 390.869 2.78288 -3.56677
  139 395.113 5.41448 -11.4236
  140 395.113 5.41448 -11.4236
  141 393.328 5.27629 10.2854
  142 393.328 5.27629 10.2854
  143 376.894 12.8794 -0.419720
  144 376.894 12.8794 -0.419720
  145 315.573 20.9117 -2.46246
  146 315.573 20.9117 -2.46246
  147 456.524 -16.2675 6.62545
  148 456.524 -16.2675 6.62545
  149 521.019 -17.7877 -21.2955
  150 521.019 -17.7877 -21.2955
  151 402.971 -44.9959 63.3573
  152 402.971 -44.9959 63.3573
  153 304.337 -82.1987 -143.169
  154 304.337 -82.1987 -143.169
  155 359.015 14.6904 21.7037
  156 359.015 14.6904 21.7037
  157 464.525 -2.76223 -16.5276
  158 464.525 -2.76223 -16.5276
  159 632.409 50.4604 36.5838
  160 632.409 50.4604 36.5838
  161 316.906 -88.1571 165.558
  162 316.906 -88.1571 165.558
  163 645.622 21.2502 -7.41677
  164 645.622 21.2502 -7.41677
  165 375.398 12.8428 10.0695
  166 375.398 12.8428 10.0695
  167 356.799 12.1467 -31.7778
  168 356.799 12.1467 -31.7778
  169 441.640 13.3855 10.0252
  170 441.640 13.3855 10.0252
  171 371.928 15.3284 -11.4387
  172 371.928 15.3284 -11.4387
  173 386.841 6.20765 1.67194
  174 386.841 6.20765 1.67194
  175 393.141 3.01247 -6.07771
  176 393.141 3.01247 -6.07771
  177 606.658 48.2319 -36.6698
  178 606.658 48.2319 -36.6698
  179 387.145 6.04199 -2.01865
  180 387.145 6.04199 -2.01865
  181 286.268 20.9394 -16.5594
  182 286.268 20.9394 -16.5594
  183 514.791 38.1382 2.84514
  184 514.791 38.1382 2.84514
  185 104.655 -86.6547 -100.275
  186 104.655 -86.6547 -100.275
  187 282.019 -2.98440 69.9753
  188 282.019 -2.98440 69.9753
  189 375.979 -60.7414 -98.5994
  190 375.979 -60.7414 -98.5994
  191 443.934 -12.2225 5.61591
  192 443.934 -12.2225 5.61591
  193 415.488 -1.42225 15.8789
  194 415.488 -1.42225 15.8789
  195 564.030 17.0847 34.5861
  196 564.030 17.0847 34.5861
  197 235.407 7.56601 -43.2409
  198 235.407 7.56601 -43.2409
  199 640.205 28.5505 17.0257
  200 640.205 28.5505 17.0257
  201 423.185 -5.20893 -16.7193
  202 423.185 -5.20893 -16.7193
  203 393.751 2.15099 5.60434
  204 393.751 2.15099 5.60434
  205 440.460 -17.2784 -8.77021
  206 440.460 -17.2784 -8.77021
  207 481.526 -24.1387 -3.63073
  208 481.526 -24.1387 -3.63073
  209 30.0851 -178.178 14.9735
  210 30.0851 -178.178 14.9735
  211 405.944 2.12144 -13.9859
  212 405.944 2.12144 -13.9859
  213 402.580 3.15861 12.2176
  214 402.580 3.15861 12.2176
  215 387.265 -35.5912 -62.7669
  216 387.265 -35.5912 -62.7669
  217 452.257 -9.59777 -10.1287
  218 452.257 -9.59777 -10.1287
  219 370.613 13.3513 -21.6961
  220 370.613 13.3513 -21.6961
  221 102.179 -127.214 110.016
  222 102.179 -127.214 110.016
  223 458.448 2.12174 15.6551
  224 458.448 2.12174 15.6551
  225 445.586 11.3688 -13.2724
  226 445.586 11.3688 -13.2724
  227 633.180 37.7984 -29.1880
  228 633.180 37.7984 -29.1880
  229 483.215 -17.8315 -7.51767
  230 483.215 -17.8315 -7.51767
  231 527.195 -23.1051 -94.1978
  232 527.195 -23.1051 -94.1978
  233 388.590 -17.5319 48.3267
  234 388.590 -17.5319 48.3267
  235 381.005 10.7564 1.70197
  236 381.005 10.7564 1.70197
  237 202.640 -29.7439 90.8995
  238 202.640 -29.7439 90.8995
  239 504.519 -43.1415 110.026
  240 504.519 -43.1415 110.026
  241 137.830 -17.7210 -44.9789
  242 137.830 -17.7210 -44.9789
  243 449.569 -33.7842 -21.9676
  244 449.569 -33.7842 -21.9676
  245 366.984 16.5318 12.5417
  246 366.984 16.5318 12.5417
  247 13.1072 -232.122 -12.2032
  248 13.1072 -232.122 -12.2032
  249 25.2784 -203.879 40.4347
  250 25.2784 -203.879 40.4347
  251 373.577 2.59556 34.7498
  252 373.577 2.59556 34.7498
  253 390.098 1.48404 1.38320
  254 390.098 1.48404 1.38320
  255 386.807 6.25248 0.263226
  256 386.807 6.25248 0.263226
  257 363.080 -4.48955 -46.1932
  258 363.080 -4.48955 -46.1932
  259 390.327 1.35185 -1.46517
  260 390.327 1.35185 -1.46517
  261 431.612 -30.4221 29.1124
  262 431.612 -30.4221 29.1124
  263 400.650 1.41251 -6.80528
  264 400.650 1.41251 -6.80528
  265 310.599 -26.3075 -85.8460
  266 310.599 -26.3075 -85.8460
  267 528.239 40.5929 -1.38032
  268 528.239 40.5929 -1.38032
  269 386.294 8.56063 -17.6739
  270 386.294 8.56063 -17.6739
  271 384.812 8.01214 -3.52839
  272 384.812 8.01214 -3.52839
  273 327.357 15.9026 -31.7618
  274 327.357 15.9026 -31.7618
  275 99.7762 -38.4031 25.9490
  276 99.7762 -38.4031 25.9490
  277 412.244 -68.4871 87.9985
  278 412.244 -68.4871 87.9985
  279 388.914 5.78274 6.89760
  280 388.914 5.78274 6.89760
  281 576.102 40.7374 -9.14680
  282 576.102 40.7374 -9.14680
  283 688.105 59.4493 81.4141
  284 688.105 59.4493 81.4141
  285 462.810 -49.1711 29.0655
  286 462.810 -49.1711 29.0655
  287 333.824 16.6886 23.2951
  288 333.824 16.6886 23.2951
  289 423.824 -84.3867 116.107
  290 423.824 -84.3867 116.107
  291 436.821 -5.15137 10.8143
  292 436.821 -5.15137 10.8143
  293 388.676 3.80967 1.89220
  294 388.676 3.80967 1.89220
  295 383.191 10.5072 -11.2672
  296 383.191 10.5072 -11.2672
  297 386.904 6.15228 -0.519739
  298 386.904 6.15228 -0.519739
  299 392.425 1.08345 -2.64324
  300 392.425 1.08345 -2.64324
  301 400.294 1.98193 6.83181
  302 400.294 1.98193 6.83181
  303 381.111 10.6992 -2.89350
  304 381.111 10.6992 -2.89350
  305 87.6853 -148.405 -104.674
  306 87.6853 -148.405 -104.674
  307 262.073 17.0988 21.6822
  308 262.073 17.0988 21.6822
  309 389.103 3.17926 -1.81787
  310 389.103 3.17926 -1.81787
  311 343.097 19.7459 -15.6028
  312 343.097 19.7459 -15.6028
  313 343.971 21.5314 5.94727
  314 343.971 21.5314 5.94727
  315 388.290 5.56065 -4.88737
  316 388.290 5.56065 -4.88737
  317 520.235 27.5295 -2.20126
  318 520.235 27.5295 -2.20126
  319 385.404 9.31063 15.4826
  320 385.404 9.31063 15.4826
  321 491.389 15.5244 -12.7481
  322 491.389 15.5244 -12.7481
  323 722.494 20.4299 48.7606
  324 722.494 20.4299 48.7606
  325 383.972 9.64037 9.73190
  326 383.972 9.64037 9.73190
  327 377.926 12.7597 5.09078
  328 377.926 12.7597 5.09078
  329 295.802 -62.8752 -164.851
  330 295.802 -62.8752 -164.851
  331 392.655 0.979414 2.58569
  332 392.655 0.979414 2.58569
  333 384.443 8.07317 2.63670
  334 384.443 8.07317 2.63670
  335 370.359 16.5452 0.583491
  336 370.359 16.5452 0.583491
  337 191.871 -67.8101 132.436
  338 191.871 -67.8101 132.436
  339 476.956 31.2732 2.24883
  340 476.956 31.2732 2.24883
  341 27.3774 -199.627 -46.7427
  342 27.3774 -199.627 -46.7427
  343 298.188 18.8144 19.2924
  344 298.188 18.8144 19.2924
  345 683.672 9.29250 6.71308
  346 683.672 9.29250 6.71308
  347 713.882 36.2847 -50.2838
  348 713.882 36.2847 -50.2838
  349 335.961 -38.8500 96.0512
  350 350.335 -19.9727 71.0478
  351 335.961 -38.8500 96.0512
  352 350.335 -19.9727 71.0478
  353 693.562 17.2322 25.4530
  354 693.562 17.2322 25.4530
  355 397.634 -0.572608 27.1029
  356 397.634 -0.572608 27.1029
  357 470.298 -63.4854 -68.4219
  358 470.298 -63.4854 -68.4219
  359 447.337 -3.84662 12.8444
  360 447.337 -3.84662 12.8444
  361 302.487 -62.9365 180.304
  362 302.487 -62.9365 180.304
  363 522.421 41.8946 -1.39439
  364 522.421 41.8946 -1.39439
  365 692.905 6.28892 -5.31081
  366 692.905 6.28892 -5.31081
  367 423.019 0.192889 -13.2421
  368 423.019 0.192889 -13.2421
  369 377.930 13.5697 -6.09513
  370 377.930 13.5697 -6.09513
  371 582.984 45.2918 15.1920
  372 582.984 45.2918 15.1920
  373 447.880 18.7417 -2.80706
  374 447.880 18.7417 -2.80706
  375 407.783 1.54114 -8.44803
  376 407.783 1.54114 -8.44803
  377 111.401 -54.9069 -76.1274
  378 111.401 -54.9069 -76.1274
  379 450.730 -8.12190 3.41327
  380 450.730 -8.12190 3.41327
  381 386.017 -0.628106 -31.9896
  382 386.017 -0.628106 -31.9896
  383 444.261 -0.904396 -15.3515
  384 444.261 -0.904396 -15.3515
  385 696.138 12.2607 -21.0611
  386 696.138 12.2607 -21.0611
  387 387.326 5.95184 3.86369
  388 387.326 5.95184 3.86369
  389 472.206 23.1244 12.6829
  390 472.206 23.1244 12.6829
  391 508.818 -10.7842 5.48095
  392 508.818 -10.7842 5.48095
  393 388.751 6.99884 -8.62922
  394 388.751 6.99884 -8.62922
  395 736.627 69.9561 -94.3743
  396 736.627 69.9561 -94.3743
  397 444.768 -6.49883 -4.70434
  398 444.768 -6.49883 -4.70434
</Section>

newXOutput 115

<Section columns = "stress_xx | stress_yy | stress_xy">
  1 392.687 0.383450 -0.437010
  2 392.865 0.475132 0.589230
  3 392.687 0.383450 -0.437010
  4 392.865 0.475132 0.589230
  5 602.118 41.9576 170.646
  6 625.464 40.9075 -167.906
  7 602.118 41.9576 170.646
  8 625.464 40.9075 -167.906
  9 393.654 0.269861 -1.14738
  10 396.862 0.476882 -2.04022
  11 401.505 1.07999 -4.14421
  12 412.182 0.402118 -5.57471
  13 425.919 0.661004 -9.15295
  14 442.030 -3.95335 -9.04614
  15 456.883 -4.75320 -1.10045
  16 450.089 -3.25436 7.45127
  17 433.380 3.41197 13.1859
  18 424.263 8.35207 -0.514793
  19 430.894 4.00218 -12.3861
  20 449.643 -4.84131 -9.07816
  21 452.747 -5.77261 3.11429
  22 444.324 -2.60963 7.80031
  23 423.058 0.122606 9.20895
  24 411.251 1.54190 7.06104
  25 401.786 1.23943 3.98212
  26 396.939 0.383548 1.86911
  27 393.874 0.319268 1.10818
  28 393.439 1.40397 0.688119
  29 392.745 2.87903 0.800628
  30 391.038 5.00102 0.712673
  31 390.356 5.81441 -0.0690388
  32 391.229 4.74471 -0.854365
  33 392.451 3.13880 -0.727239
  34 392.988 1.59242 -0.770665
  35 393.654 0.269861 -1.14738
  36 396.862 0.476882 -2.04022
  37 401.505 1.07999 -4.14421
  38 412.182 0.402118 -5.57471
  39 425.919 0.661004 -9.15295
  40 442.030 -3.95335 -9.04614
  41 456.883 -4.75320 -1.10045
  42 450.089 -3.25436 7.45127
  43 433.380 3.41197 13.1859
  44 424.263 8.35207 -0.514793
  45 430.894 4.00218 -12.3861
  46 449.643 -4.84131 -9.07816
  47 452.747 -5.77261 3.11429
  48 444.324 -2.60963 7.80031
  49 423.058 0.122606 9.20895
  50 411.251 1.54190 7.06104
  51 401.786 1.23943 3.98212
  52 396.939 0.383548 1.86911
  53 393.874 0.319268 1.10818
  54 393.439 1.40397 0.688119
  55 392.745 2.87903 0.800628
  56 391.038 5.00102 0.712673
  57 390.356 5.81441 -0.0690388
  58 391.229 4.74471 -0.854365
  59 392.451 3.13880 -0.727239
  60 392.988 1.59242 -0.770665
  61 832.675 43.7171 87.4982
  62 759.602 12.3971 30.8794
  63 716.756 5.13521 11.3791
  64 707.584 3.72570 2.21302
  65 716.372 4.94639 -9.71252
  66 749.081 10.6242 -26.7763
  67 840.513 38.0460 -75.3462
  68 111.685 -121.634 -140.159
  69 22.1006 -285.457 -36.3972
  70 6.09599 -326.061 -15.8959
  71 5.83230 -320.334 -7.91653
  72 10.0759 -311.281 17.0137
  73 24.0243 -276.635 38.5609
  74 120.979 -113.176 155.271
  75 832.675 43.7171 87.4982
  76 759.602 12.3971 30.8794
  77 716.756 5.13521 11.3791
  78 707.584 3.72570 2.21302
  79 716.372 4.94639 -9.71252
  80 749.081 10.6242 -26.7763
  81 840.513 38.0460 -75.3462
  82 111.685 -121.634 -140.159
  83 22.1006 -285.457 -36.3972
  84 6.09599 -326.061 -15.8959
  85 5.83230 -320.334 -7.91653
  86 10.0759 -311.281 17.0137
  87 24.0243 -276.635 38.5609
  88 120.979 -113.176 155.271
  89 361.287 20.6174 -5.35305
  90 361.287 20.6174 -5.35305
  91 329.997 4.59659 48.5032
  92 317.120 -1.94092 -57.9287
  93 329.997 4.59659 48.5032
  94 317.120 -1.94092 -57.9287
  95 187.562 5.00207 23.3424
  96 187.562 5.00207 23.3424
  97 483.960 31.2148 -7.24505
  98 492.941 18.0034 14.4357
  99 483.960 31.2148 -7.24505
  100 492.941 18.0034 14.4357
  101 387.244 9.32445 5.32953
  102 387.244 9.32445 5.32953
  103 462.553 -26.3204 1.01420
  104 462.553 -26.3204 1.01420
  105 387.708 9.74866 -6.57747
  106 387.708 9.74866 -6.57747
  107 454.260 -56.1439 -51.5655
  108 454.260 -56.1439 -51.5655
  109 318.329 -66.3635 128.321
  110 318.329 -66.3635 128.321
  111 215.617 -38.8011 -103.583
  112 215.617 -38.8011 -103.583
  113 389.233 6.50496 22.9579
  114 389.233 6.50496 22.9579
  115 403.292 2.70177 -21.9714
  116 403.292 2.70177 -21.9714
  117 546.391 37.0045 6.19649
  118 585.005 37.8249 3.48239
  119 546.391 37.0045 6.19649
  120 585.005 37.8249 3.48239
  121 573.003 48.5316 -15.5764
  122 573.003 48.5316 -15.5764
  123 63.2241 -103.075 -34.1864
  124 63.2241 -103.075 -34.1864
  125 493.025 -61.0987 56.0821
  126 493.025 -61.0987 56.0821
  127 416.833 -10.0839 26.0012
  128 416.833 -10.0839 26.0012
  129 96.2605 -88.9506 78.4502
  130 96.2605 -88.9506 78.4502
  131 387.793 7.78574 -0.336078
  132 387.793 7.78574 -0.336078
  133 416.131 -19.4322 -33.1936
  134 416.131 -19.4322 -33.1936
  135 393.831 3.18927 3.85302
  136 393.831 3.18927 3.85302
  137 394.170 2.80565 -3.59428
  138 394.170 2.80565 -3.59428
  139 398.446 5.45827 -11.5146
  140 398.446 5.45827 -11.5146
  141 396.648 5.31913 10.3669
  142 396.648 5.31913 10.3669
  143 380.090 12.9850 -0.423162
  144 380.090 12.9850 -0.423162
  145 318.280 21.0887 -2.48334
  146 318.280 21.0887 -2.48334
  147 460.355 -16.4028 6.65777
  148 460.355 -16.4028 6.65777
  149 525.346 -17.9085 -21.5306
  150 525.346 -17.9085 -21.5306
  151 406.353 -45.3794 63.9033
  152 406.353 -45.3794 63.9033
  153 306.888 -82.8819 -144.436
  154 306.888 -82.8819 -144.436
  155 362.068 14.8131 21.8825
  156 362.068 14.8131 21.8825
  157 468.426 -2.78064 -16.6376
  158 468.426 -2.78064 -16.6376
  159 637.620 50.8910 36.9182
  160 637.620 50.8910 36.9182
  161 319.559 -88.8990 167.012
  162 319.559 -88.8990 167.012
  163 650.915 21.4166 -7.47993
  164 650.915 21.4166 -7.47993
  165 378.582 12.9483 10.1503
  166 378.582 12.9483 10.1503
  167 359.831 12.2485 -32.0419
  168 359.831 12.2485 -32.0419
  169 445.384 13.5033 10.0983
  170 445.384 13.5033 10.0983
  171 375.085 15.4549 -11.5310
  172 375.085 15.4549 -11.5310
  173 390.112 6.25800 1.68488
  174 390.112 6.25800 1.68488
  175 396.459 3.03691 -6.12513
  176 396.459 3.03691 -6.12513
  177 611.667 48.6680 -37.0297
  178 611.667 48.6680 -37.0297
  179 390.419 6.09107 -2.03423
  180 390.419 6.09107 -2.03423
  181 288.733 21.1202 -16.6990
  182 288.733 21.1202 -16.6990
  183 519.107 38.4635 2.84260
  184 519.107 38.4635 2.84260
  185 105.557 -87.3676 -101.184
  186 105.557 -87.3676 -101.184
  187 284.434 -3.00632 70.5703
  188 284.434 -3.00632 70.5703
  189 379.133 -61.2598 -99.4540
  190 379.133 -61.2598 -99.4540
  191 447.658 -12.3274 5.67535
  192 447.658 -12.3274 5.67535
  193 418.980 -1.43616 16.0107
  194 418.980 -1.43616 16.0107
  195 568.700 17.2667 34.9374
  196 568.700 17.2667 34.9374
  197 237.443 7.63834 -43.6111
  198 237.443 7.63834 -43.6111
  199 645.465 28.7786 17.1737
  200 645.465 28.7786 17.1737
  201 426.739 -5.25505 -16.8621
  202 426.739 -5.25505 -16.8621
  203 397.073 2.16837 5.64799
  204 397.073 2.16837 5.64799
  205 444.155 -17.4267 -8.85739
  206 444.155 -17.4267 -8.85739
  207 485.548 -24.3338 -3.69848
  208 485.548 -24.3338 -3.69848
  209 30.3414 -179.695 15.1156
  210 30.3414 -179.695 15.1156
  211 409.362 2.13729 -14.0993
  212 409.362 2.13729 -14.0993
  213 405.972 3.18382 12.3158
  214 405.972 3.18382 12.3158
  215 390.525 -35.8944 -63.3058
  216 390.525 -35.8944 -63.3058
  217 456.059 -9.67874 -10.1936
  218 456.059 -9.67874 -10.1936
  219 373.757 13.4620 -21.8745
  220 373.757 13.4620 -21.8745
  221 103.046 -128.258 111.024
  222 103.046 -128.258 111.024
  223 462.309 2.14582 15.7620
  224 462.309 2.14582 15.7620
  225 449.357 11.4694 -13.3675
  226 449.357 11.4694 -13.3675
  227 638.393 38.1081 -29.4489
  228 638.393 38.1081 -29.4489
  229 487.253 -17.9730 -7.54291
  230 487.253 -17.9730 -7.54291
  231 531.545 -23.2399 -95.0591
  232 531.545 -23.2399 -95.0591
  233 391.866 -17.6809 48.7364
  234 391.866 -17.6809 48.7364
  235 384.232 10.8443 1.71540
  236 384.232 10.8443 1.71540
  237 204.385 -29.9894 91.6919
  238 204.385 -29.9894 91.6919
  239 508.681 -43.4570 111.018
  240 508.681 -43.4570 111.018
  241 139.037 -17.8523 -45.3747
  242 139.037 -17.8523 -45.3747
  243 453.331 -34.0706 -22.1731
  244 453.331 -34.0706 -22.1731
  245 370.102 16.6688 12.6436
  246 370.102 16.6688 12.6436
  247 13.2121 -234.122 -12.3218
  248 13.2121 -234.122 -12.3218
  249 25.4910 -205.614 40.8248
  250 25.4910 -205.614 40.8248
  251 376.741 2.61676 35.0395
  252 376.741 2.61676 35.0395
  253 393.393 1.49624 1.39376
  254 393.393 1.49624 1.39376
  255 390.078 6.30306 0.265274
  256 390.078 6.30306 0.265274
  257 366.158 -4.52812 -46.5821
  258 366.158 -4.52812 -46.5821
  259 393.624 1.36302 -1.47636
  260 393.624 1.36302 -1.47636
  261 435.231 -30.6808 29.3715
  262 435.231 -30.6808 29.3715
  263 404.024 1.42372 -6.85867
  264 404.024 1.42372 -6.85867
  265 313.238 -26.5314 -86.5809
  266 313.238 -26.5314 -86.5809
  267 532.661 40.9371 -1.36567
  268 532.661 40.9371 -1.36567
  269 389.561 8.63042 -17.8171
  270 389.561 8.63042 -17.8171
  271 388.068 8.07739 -3.55589
  272 388.068 8.07739 -3.55589
  273 330.155 16.0377 -32.0272
  274 330.155 16.0377 -32.0272
  275 100.653 -38.7025 26.1813
  276 100.653 -38.7025 26.1813
  277 415.688 -69.0704 88.7645
  278 415.688 -69.0704 88.7645
  279 392.200 5.82984 6.95160
  280 392.200 5.82984 6.95160
  281 580.891 41.0722 -9.23656
  282 580.891 41.0722 -9.23656
  283 693.719 59.9933 82.1348
  284 693.719 59.9933 82.1348
  285 466.671 -49.5839 29.3406
  286 466.671 -49.5839 29.3406
  287 336.675 16.8296 23.4882
  288 336.675 16.8296 23.4882
  289 427.348 -85.1014 117.121
  290 427.348 -85.1014 117.121
  291 440.483 -5.19655 10.9085
  292 440.483 -5.19655 10.9085
  293 391.961 3.84065 1.90675
  294 391.961 3.84065 1.90675
  295 386.434 10.5932 -11.3570
  296 386.434 10.5932 -11.3570
  297 390.175 6.20207 -0.523739
  298 390.175 6.20207 -0.523739
  299 395.737 1.09232 -2.66358
  300 395.737 1.09232 -2.66358
  301 403.666 1.99782 6.88540
  302 403.666 1.99782 6.88540
  303 384.339 10.7866 -2.91631
  304 384.339 10.7866 -2.91631
  305 88.4263 -149.620 -105.640
  306 88.4263 -149.620 -105.640
  307 264.337 17.2493 21.8652
  308 264.337 17.2493 21.8652
  309 392.391 3.20518 -1.83181
  310 392.391 3.20518 -1.83181
  311 346.025 19.9114 -15.7319
  312 346.025 19.9114 -15.7319
  313 346.906 21.7117 5.99599
  314 346.906 21.7117 5.99599
  315 391.571 5.60594 -4.92542
  316 391.571 5.60594 -4.92542
  317 524.579 27.7808 -2.26765
  318 524.579 27.7808 -2.26765
  319 388.664 9.38685 15.6072
  320 388.664 9.38685 15.6072
  321 495.509 15.6659 -12.8189
  322 495.509 15.6659 -12.8189
  323 728.355 20.5913 49.1690
  324 728.355 20.5913 49.1690
  325 387.221 9.71922 9.80916
  326 387.221 9.71922 9.80916
  327 381.130 12.8642 5.13120
  328 381.130 12.8642 5.13120
  329 298.255 -63.2947 -166.331
  330 298.255 -63.2947 -166.331
  331 395.969 0.987423 2.60558
  332 395.969 0.987423 2.60558
  333 387.697 8.13885 2.65727
  334 387.697 8.13885 2.65727
  335 373.505 16.6816 0.588150
  336 373.505 16.6816 0.588150
  337 193.512 -68.3816 133.610
  338 193.512 -68.3816 133.610
  339 480.980 31.5407 2.26155
  340 480.980 31.5407 2.26155
  341 27.6045 -201.323 -47.1863
  342 27.6045 -201.323 -47.1863
  343 300.751 18.9757 19.4535
  344 300.751 18.9757 19.4535
  345 689.228 9.36330 6.76560
  346 689.228 9.36330 6.76560
  347 719.691 36.5898 -50.7095
  348 719.691 36.5898 -50.7095
  349 338.800 -39.1821 96.8739
  350 353.301 -20.1423 71.6494
  351 338.800 -39.1821 96.8739
  352 353.301 -20.1423 71.6494
  353 699.201 17.3660 25.6611
  354 699.201 17.3660 25.6611
  355 400.988 -0.579005 27.3286
  356 400.988 -0.579005 27.3286
  357 474.203 -64.0148 -69.0358
  358 474.203 -64.0148 -69.0358
  359 451.107 -3.87736 12.9360
  360 451.107 -3.87736 12.9360
  361 304.982 -63.3631 181.912
  362 304.982 -63.3631 181.912
  363 526.801 42.2449 -1.40496
  364 526.801 42.2449 -1.40496
  365 698.523 6.33631 -5.35354
  366 698.523 6.33631 -5.35354
  367 426.568 0.192586 -13.3511
  368 426.568 0.192586 -13.3511
  369 381.134 13.6811 -6.14366
  370 381.134 13.6811 -6.14366
  371 587.825 45.6702 15.3450
  372 587.825 45.6702 15.3450
  373 451.675 18.9036 -2.82721
  374 451.675 18.9036 -2.82721
  375 411.212 1.55296 -8.51522
  376 411.212 1.55296 -8.51522
  377 112.379 -55.3536 -76.8099
  378 112.379 -55.3536 -76.8099
  379 454.512 -8.19112 3.42973
  380 454.512 -8.19112 3.42973
  381 389.279 -0.635007 -32.2574
  382 389.279 -0.635007 -32.2574
  383 448.013 -0.910525 -15.4623
  384 448.013 -0.910525 -15.4623
  385 701.793 12.3569 -21.2319
  386 701.793 12.3569 -21.2319
  387 390.601 6.00022 3.89371
  388 390.601 6.00022 3.89371
  389 476.184 23.3263 12.7660
  390 476.184 23.3263 12.7660
  391 513.054 -10.8562 5.57574
  392 513.054 -10.8562 5.57574
  393 392.036 7.05592 -8.69715
  394 392.036 7.05592 -8.69715
  395 742.603 70.6041 -95.2020
  396 742.603 70.6041 -95.2020
  397 448.494 -6.55568 -4.74951
  398 448.494 -6.55568 -4.74951
</Section>

newXOutput 116

<Section columns = "stress_xx | stress_yy | stress_xy">
  1 395.974 0.386720 -0.440276
  2 396.154 0.479121 0.593626
  3 395.974 0.386720 -0.440276
  4 396.154 0.479121 0.593626
  5 606.949 42.4520 172.134
  6 630.471 41.3991 -169.372
  7 606.949 42.4520 172.134
  8 630.471 41.3991 -169.372
  9 396.948 0.272103 -1.15601
  10 400.180 0.480774 -2.05569
  11 404.857 1.08864 -4.17601
  12 415.614 0.405122 -5.61807
  13 429.457 0.665420 -9.22607
  14 445.695 -3.98833 -9.12155
  15 460.671 -4.79420 -1.11461
  16 453.843 -3.28148 7.50273
  17 437.023 3.44330 13.2824
  18 427.846 8.42518 -0.518644
  19 434.519 4.03680 -12.4775
  20 453.396 -4.88198 -9.14062
  21 456.503 -5.82252 3.14617
  22 448.007 -2.63257 7.86581
  23 426.575 0.122206 9.28303
  24 414.677 1.55395 7.11620
  25 405.141 1.24937 4.01260
  26 400.257 0.386688 1.88326
  27 397.170 0.321939 1.11655
  28 396.731 1.41540 0.693241
  29 396.033 2.90227 0.806659
  30 394.314 5.04111 0.718082
  31 393.627 5.86094 -0.0695597
  32 394.506 4.78279 -0.860812
  33 395.737 3.16415 -0.732622
  34 396.277 1.60543 -0.776475
  35 396.948 0.272103 -1.15601
  36 400.180 0.480774 -2.05569
  37 404.857 1.08864 -4.17601
  38 415.614 0.405122 -5.61807
  39 429.457 0.665420 -9.22607
  40 445.695 -3.98833 -9.12155
  41 460.671 -4.79420 -1.11461
  42 453.843 -3.28148 7.50273
  43 437.023 3.44330 13.2824
  44 427.846 8.42518 -0.518644
  45 434.519 4.03680 -12.4775
  46 453.396 -4.88198 -9.14062
  47 456.503 -5.82252 3.14617
  48 448.007 -2.63257 7.86581
  49 426.575 0.122206 9.28303
  50 414.677 1.55395 7.11620
  51 405.141 1.24937 4.01260
  52 400.257 0.386688 1.88326
  53 397.170 0.321939 1.11655
  54 396.731 1.41540 0.693241
  55 396.033 2.90227 0.806659
  56 394.314 5.04111 0.718082
  57 393.627 5.86094 -0.0695597
  58 394.506 4.78279 -0.860812
  59 395.737 3.16415 -0.732622
  60 396.277 1.60543 -0.776475
  61 839.281 44.0898 88.2164
  62 765.652 12.4935 31.1240
  63 722.488 5.17156 11.4663
  64 713.247 3.75287 2.22843
  65 722.100 4.98336 -9.78655
  66 755.055 10.7059 -26.9859
  67 847.182 38.3695 -75.9652
  68 112.606 -122.509 -141.426
  69 22.2835 -287.876 -36.7602
  70 6.13555 -328.898 -16.0538
  71 5.87060 -323.130 -7.98538
  72 10.1522 -313.978 17.1833
  73 24.2262 -278.977 38.9471
  74 121.966 -113.980 156.669
  75 839.281 44.0898 88.2164
  76 765.652 12.4935 31.1240
  77 722.488 5.17156 11.4663
  78 713.247 3.75287 2.22843
  79 722.100 4.98336 -9.78655
  80 755.055 10.7059 -26.9859
  81 847.182 38.3695 -75.9652
  82 112.606 -122.509 -141.426
  83 22.2835 -287.876 -36.7602
  84 6.13555 -328.898 -16.0538
  85 5.87060 -323.130 -7.98538
  86 10.1522 -313.978 17.1833
  87 24.2262 -278.977 38.9471
  88 121.966 -113.980 156.669
  89 364.335 20.7873 -5.39645
  90 364.335 20.7873 -5.39645
  91 332.785 4.63651 48.9066
  92 319.802 -1.95574 -58.4141
  93 332.785 4.63651 48.9066
  94 319.802 -1.95574 -58.4141
  95 189.186 5.05786 23.5416
  96 189.186 5.05786 23.5416
  97 488.002 31.4798 -7.29029
  98 497.039 18.1651 14.5187
  99 488.002 31.4798 -7.29029
  100 497.039 18.1651 14.5187
  101 390.492 9.39979 5.37099
  102 390.492 9.39979 5.37099
  103 466.393 -26.5394 1.04955
  104 466.393 -26.5394 1.04955
  105 390.958 9.82759 -6.62876
  106 390.958 9.82759 -6.62876
  107 458.014 -56.6150 -52.0190
  108 458.014 -56.6150 -52.0190
  109 320.990 -66.9260 129.424
  110 320.990 -66.9260 129.424
  111 217.449 -39.1226 -104.480
  112 217.449 -39.1226 -104.480
  113 392.494 6.55717 23.1443
  114 392.494 6.55717 23.1443
  115 406.661 2.72196 -22.1510
  116 406.661 2.72196 -22.1510
  117 550.906 37.3290 6.29539
  118 589.818 38.1299 3.51869
  119 550.906 37.3290 6.29539
  120 589.818 38.1299 3.51869
  121 577.729 48.9432 -15.7421
  122 577.729 48.9432 -15.7421
  123 63.7688 -103.919 -34.4987
  124 63.7688 -103.919 -34.4987
  125 497.077 -61.5941 56.5948
  126 497.077 -61.5941 56.5948
  127 420.307 -10.1701 26.2216
  128 420.307 -10.1701 26.2216
  129 97.0890 -89.6759 79.1583
  130 97.0890 -89.6759 79.1583
  131 391.045 7.84840 -0.338627
  132 391.045 7.84840 -0.338627
  133 419.598 -19.5968 -33.4779
  134 419.598 -19.5968 -33.4779
  135 397.127 3.21504 3.88251
  136 397.127 3.21504 3.88251
  137 397.468 2.82839 -3.62172
  138 397.468 2.82839 -3.62172
  139 401.777 5.50198 -11.6054
  140 401.777 5.50198 -11.6054
  141 399.966 5.36191 10.4483
  142 399.966 5.36191 10.4483
  143 383.284 13.0904 -0.426600
  144 383.284 13.0904 -0.426600
  145 320.986 21.2656 -2.50421
  146 320.986 21.2656 -2.50421
  147 464.183 -16.5379 6.68967
  148 464.183 -16.5379 6.68967
  149 529.669 -18.0288 -21.7664
  150 529.669 -18.0288 -21.7664
  151 409.731 -45.7626 64.4490
  152 409.731 -45.7626 64.4490
  153 309.437 -83.5645 -145.703
  154 309.437 -83.5645 -145.703
  155 365.118 14.9357 22.0610
  156 365.118 14.9357 22.0610
  157 472.325 -2.79895 -16.7470
  158 472.325 -2.79895 -16.7470
  159 642.825 51.3214 37.2527
  160 642.825 51.3214 37.2527
  161 322.210 -89.6402 168.465
  162 322.210 -89.6402 168.465
  163 656.201 21.5826 -7.54303
  164 656.201 21.5826 -7.54303
  165 381.763 13.0536 10.2309
  166 381.763 13.0536 10.2309
  167 362.862 12.3502 -32.3057
  168 362.862 12.3502 -32.3057
  169 449.125 13.6212 10.1713
  170 449.125 13.6212 10.1713
  171 378.239 15.5811 -11.6231
  172 378.239 15.5811 -11.6231
  173 393.381 6.30828 1.69779
  174 393.381 6.30828 1.69779
  175 399.774 3.06132 -6.17244
  176 399.774 3.06132 -6.17244
  177 616.670 49.1043 -37.3901
  178 616.670 49.1043 -37.3901
  179 393.690 6.14009 -2.04978
  180 393.690 6.14009 -2.04978
  181 291.196 21.3008 -16.8384
  182 291.196 21.3008 -16.8384
  183 523.419 38.7887 2.83964
  184 523.419 38.7887 2.83964
  185 106.459 -88.0796 -102.094
  186 106.459 -88.0796 -102.094
  187 286.847 -3.02817 71.1648
  188 286.847 -3.02817 71.1648
  189 382.285 -61.7777 -100.308
  190 382.285 -61.7777 -100.308
  191 451.380 -12.4323 5.73494
  192 451.380 -12.4323 5.73494
  193 422.469 -1.45010 16.1424
  194 422.469 -1.45010 16.1424
  195 573.365 17.4491 35.2893
  196 573.365 17.4491 35.2893
  197 239.479 7.71075 -43.9810
  198 239.479 7.71075 -43.9810
  199 650.719 29.0063 17.3217
  200 650.719 29.0063 17.3217
  201 430.291 -5.30116 -17.0048
  202 430.291 -5.30116 -17.0048
  203 400.393 2.18572 5.69154
  204 400.393 2.18572 5.69154
  205 447.847 -17.5750 -8.94471
  206 447.847 -17.5750 -8.94471
  207 489.567 -24.5285 -3.76678
  208 489.567 -24.5285 -3.76678
  209 30.5975 -181.212 15.2579
  210 30.5975 -181.212 15.2579
  211 412.776 2.15309 -14.2124
  212 412.776 2.15309 -14.2124
  213 409.360 3.20899 12.4139
  214 409.360 3.20899 12.4139
  215 393.781 -36.1974 -63.8444
  216 393.781 -36.1974 -63.8444
  217 459.857 -9.75964 -10.2580
  218 459.857 -9.75964 -10.2580
  219 376.899 13.5726 -22.0527
  220 376.899 13.5726 -22.0527
  221 103.912 -129.301 112.033
  222 103.912 -129.301 112.033
  223 466.168 2.16999 15.8684
  224 466.168 2.16999 15.8684
  225 453.125 11.5699 -13.4623
  226 453.125 11.5699 -13.4623
  227 643.599 38.4174 -29.7097
  228 643.599 38.4174 -29.7097
  229 491.288 -18.1142 -7.56749
  230 491.288 -18.1142 -7.56749
  231 535.890 -23.3736 -95.9208
  232 535.890 -23.3736 -95.9208
  233 395.139 -17.8298 49.1457
  234 395.139 -17.8298 49.1457
  235 387.457 10.9320 1.72881
  236 387.457 10.9320 1.72881
  237 206.129 -30.2346 92.4842
  238 206.129 -30.2346 92.4842
  239 512.838 -43.7714 112.009
  240 512.838 -43.7714 112.009
  241 140.244 -17.9832 -45.7704
  242 140.244 -17.9832 -45.7704
  243 457.089 -34.3568 -22.3787
  244 457.089 -34.3568 -22.3787
  245 373.217 16.8057 12.7455
  246 373.217 16.8057 12.7455
  247 13.3168 -236.121 -12.4405
  248 13.3168 -236.121 -12.4405
  249 25.7033 -207.348 41.2154
  250 25.7033 -207.348 41.2154
  251 379.902 2.63792 35.3290
  252 379.902 2.63792 35.3290
  253 396.685 1.50841 1.40430
  254 396.685 1.50841 1.40430
  255 393.346 6.35356 0.267318
  256 393.346 6.35356 0.267318
  257 369.232 -4.56667 -46.9707
  258 369.232 -4.56667 -46.9707
  259 396.918 1.37418 -1.48753
  260 396.918 1.37418 -1.48753
  261 438.846 -30.9393 29.6307
  262 438.846 -30.9393 29.6307
  263 407.396 1.43491 -6.91195
  264 407.396 1.43491 -6.91195
  265 315.875 -26.7552 -87.3154
  266 315.875 -26.7552 -87.3154
  267 537.078 41.2811 -1.35060
  268 537.078 41.2811 -1.35060
  269 392.826 8.70012 -17.9601
  270 392.826 8.70012 -17.9601
  271 391.321 8.14254 -3.58333
  272 391.321 8.14254 -3.58333
  273 332.950 16.1727 -32.2923
  274 332.950 16.1727 -32.2923
  275 101.530 -39.0013 26.4137
  276 101.530 -39.0013 26.4137
  277 419.128 -69.6533 89.5302
  278 419.128 -69.6533 89.5302
  279 395.484 5.87687 7.00549
  280 395.484 5.87687 7.00549
  281 585.675 41.4065 -9.32643
  282 585.675 41.4065 -9.32643
  283 699.324 60.5376 82.8555
  284 699.324 60.5376 82.8555
  285 470.528 -49.9964 29.6160
  286 470.528 -49.9964 29.6160
  287 339.525 16.9705 23.6810
  288 339.525 16.9705 23.6810
  289 430.869 -85.8155 118.134
  290 430.869 -85.8155 118.134
  291 444.142 -5.24171 11.0027
  292 444.142 -5.24171 11.0027
  293 395.243 3.87157 1.92127
  294 395.243 3.87157 1.92127
  295 389.675 10.6791 -11.4466
  296 389.675 10.6791 -11.4466
  297 393.444 6.25178 -0.527729
  298 393.444 6.25178 -0.527729
  299 399.046 1.10118 -2.68386
  300 399.046 1.10118 -2.68386
  301 407.035 2.01369 6.93888
  302 407.035 2.01369 6.93888
  303 387.565 10.8739 -2.93908
  304 387.565 10.8739 -2.93908
  305 89.1666 -150.833 -106.606
  306 89.1666 -150.833 -106.606
  307 266.599 17.3997 22.0480
  308 266.599 17.3997 22.0480
  309 395.675 3.23107 -1.84572
  310 395.675 3.23107 -1.84572
  311 348.951 20.0767 -15.8607
  312 348.951 20.0767 -15.8607
  313 349.840 21.8919 6.04465
  314 349.840 21.8919 6.04465
  315 394.851 5.65116 -4.96339
  316 394.851 5.65116 -4.96339
  317 528.919 28.0324 -2.33476
  318 528.919 28.0324 -2.33476
  319 391.922 9.46296 15.7315
  320 391.922 9.46296 15.7315
  321 499.626 15.8075 -12.8890
  322 499.626 15.8075 -12.8890
  323 734.207 20.7523 49.5769
  324 734.207 20.7523 49.5769
  325 390.468 9.79797 9.88627
  326 390.468 9.79797 9.88627
  327 384.331 12.9687 5.17154
  328 384.331 12.9687 5.17154
  329 300.706 -63.7118 -167.811
  330 300.706 -63.7118 -167.811
  331 399.280 0.995421 2.62541
  332 399.280 0.995421 2.62541
  333 390.947 8.20444 2.67780
  334 390.947 8.20444 2.67780
  335 376.648 16.8179 0.592802
  336 376.648 16.8179 0.592802
  337 195.152 -68.9527 134.784
  338 195.152 -68.9527 134.784
  339 485.000 31.8081 2.27415
  340 485.000 31.8081 2.27415
  341 27.8314 -203.017 -47.6305
  342 27.8314 -203.017 -47.6305
  343 303.313 19.1368 19.6143
  344 303.313 19.1368 19.6143
  345 694.776 9.43393 6.81801
  346 694.776 9.43393 6.81801
  347 725.492 36.8946 -51.1348
  348 725.492 36.8946 -51.1348
  349 341.636 -39.5139 97.6962
  350 356.264 -20.3118 72.2506
  351 341.636 -39.5139 97.6962
  352 356.264 -20.3118 72.2506
  353 704.831 17.4995 25.8690
  354 704.831 17.4995 25.8690
  355 404.340 -0.585424 27.5540
  356 404.340 -0.585424 27.5540
  357 478.103 -64.5437 -69.6497
  358 478.103 -64.5437 -69.6497
  359 454.873 -3.90804 13.0272
  360 454.873 -3.90804 13.0272
  361 307.474 -63.7874 183.521
  362 307.474 -63.7874 183.521
  363 531.178 42.5948 -1.41550
  364 531.178 42.5948 -1.41550
  365 704.133 6.38358 -5.39619
  366 704.133 6.38358 -5.39619
  367 430.114 0.192252 -13.4599
  368 430.114 0.192252 -13.4599
  369 384.335 13.7924 -6.19211
  370 384.335 13.7924 -6.19211
  371 592.661 46.0483 15.4982
  372 592.661 46.0483 15.4982
  373 455.466 19.0654 -2.84729
  374 455.466 19.0654 -2.84729
  375 414.638 1.56476 -8.58228
  376 414.638 1.56476 -8.58228
  377 113.357 -55.7998 -77.4925
  378 113.357 -55.7998 -77.4925
  379 458.291 -8.26028 3.44598
  380 458.291 -8.26028 3.44598
  381 392.539 -0.641930 -32.5250
  382 392.539 -0.641930 -32.5250
  383 451.762 -0.916622 -15.5727
  384 451.762 -0.916622 -15.5727
  385 707.439 12.4529 -21.4025
  386 707.439 12.4529 -21.4025
  387 393.873 6.04854 3.92366
  388 393.873 6.04854 3.92366
  389 480.158 23.5281 12.8486
  390 480.158 23.5281 12.8486
  391 517.286 -10.9278 5.67126
  392 517.286 -10.9278 5.67126
  393 395.319 7.11292 -8.76494
  394 395.319 7.11292 -8.76494
  395 748.570 71.2525 -96.0294
  396 748.570 71.2525 -96.0294
  397 452.216 -6.61251 -4.79473
  398 452.216 -6.61251 -4.79473
</Section>

newXOutput 117

<Section columns = "stress_xx | stress_yy | stress_xy">
  1 399.258 0.389988 -0.443534
  2 399.440 0.483107 0.598011
  3 399.258 0.389988 -0.443534
  4 399.440 0.483107 0.598011
  5 611.773 42.9484 173.622
  6 635.470 41.8928 -170.837
  7 611.773 42.9484 173.622
  8 635.470 41.8928 -170.837
  9 400.239 0.274344 -1.16461
  10 403.494 0.484661 -2.07112
  11 408.206 1.09728 -4.20774
  12 419.044 0.408117 -5.66135
  13 432.991 0.669813 -9.29908
  14 449.356 -4.02332 -9.19689
  15 464.456 -4.83518 -1.12884
  16 457.595 -3.30858 7.55397
  17 440.665 3.47465 13.3787
  18 431.426 8.49829 -0.522485
  19 438.143 4.07142 -12.5687
  20 457.146 -4.92261 -9.20281
  21 460.256 -5.87241 3.17812
  22 451.687 -2.65551 7.93126
  23 430.089 0.121783 9.35699
  24 418.099 1.56597 7.17125
  25 408.493 1.25930 4.04302
  26 403.573 0.389825 1.89737
  27 400.464 0.324607 1.12489
  28 400.021 1.42681 0.698348
  29 399.318 2.92548 0.812673
  30 397.587 5.08114 0.723477
  31 396.895 5.90738 -0.0700793
  32 397.780 4.82081 -0.867243
  33 399.019 3.18945 -0.737990
  34 399.563 1.61842 -0.782271
  35 400.239 0.274344 -1.16461
  36 403.494 0.484661 -2.07112
  37 408.206 1.09728 -4.20774
  38 419.044 0.408117 -5.66135
  39 432.991 0.669813 -9.29908
  40 449.356 -4.02332 -9.19689
  41 464.456 -4.83518 -1.12884
  42 457.595 -3.30858 7.55397
  43 440.665 3.47465 13.3787
  44 431.426 8.49829 -0.522485
  45 438.143 4.07142 -12.5687
  46 457.146 -4.92261 -9.20281
  47 460.256 -5.87241 3.17812
  48 451.687 -2.65551 7.93126
  49 430.089 0.121783 9.35699
  50 418.099 1.56597 7.17125
  51 408.493 1.25930 4.04302
  52 403.573 0.389825 1.89737
  53 400.464 0.324607 1.12489
  54 400.021 1.42681 0.698348
  55 399.318 2.92548 0.812673
  56 397.587 5.08114 0.723477
  57 396.895 5.90738 -0.0700793
  58 397.780 4.82081 -0.867243
  59 399.019 3.18945 -0.737990
  60 399.563 1.61842 -0.782271
  61 845.876 44.4624 88.9338
  62 771.692 12.5897 31.3681
  63 728.212 5.20778 11.5533
  64 718.902 3.77995 2.24378
  65 727.820 5.02023 -9.86042
  66 761.020 10.7874 -27.1950
  67 853.840 38.6929 -76.5833
  68 113.526 -123.380 -142.692
  69 22.4663 -290.293 -37.1240
  70 6.17488 -331.735 -16.2120
  71 5.90870 -325.925 -8.05422
  72 10.2284 -316.675 17.3533
  73 24.4279 -281.318 39.3342
  74 122.952 -114.780 158.067
  75 845.876 44.4624 88.9338
  76 771.692 12.5897 31.3681
  77 728.212 5.20778 11.5533
  78 718.902 3.77995 2.24378
  79 727.820 5.02023 -9.86042
  80 761.020 10.7874 -27.1950
  81 853.840 38.6929 -76.5833
  82 113.526 -123.380 -142.692
  83 22.4663 -290.293 -37.1240
  84 6.17488 -331.735 -16.2120
  85 5.90870 -325.925 -8.05422
  86 10.2284 -316.675 17.3533
  87 24.4279 -281.318 39.3342
  88 122.952 -114.780 158.067
  89 367.380 20.9569 -5.43979
  90 367.380 20.9569 -5.43979
  91 335.572 4.67643 49.3097
  92 322.482 -1.97053 -58.8990
  93 335.572 4.67643 49.3097
  94 322.482 -1.97053 -58.8990
  95 190.810 5.11383 23.7407
  96 190.810 5.11383 23.7407
  97 492.040 31.7447 -7.33524
  98 501.133 18.3267 14.6011
  99 492.040 31.7447 -7.33524
  100 501.133 18.3267 14.6011
  101 393.737 9.47503 5.41237
  102 393.737 9.47503 5.41237
  103 470.228 -26.7581 1.08532
  104 470.228 -26.7581 1.08532
  105 394.207 9.90641 -6.67995
  106 394.207 9.90641 -6.67995
  107 461.763 -57.0858 -52.4726
  108 461.763 -57.0858 -52.4726
  109 323.649 -67.4882 130.526
  110 323.649 -67.4882 130.526
  111 219.280 -39.4437 -105.377
  112 219.280 -39.4437 -105.377
  113 395.753 6.60929 23.3304
  114 395.753 6.60929 23.3304
  115 410.027 2.74210 -22.3305
  116 410.027 2.74210 -22.3305
  117 555.416 37.6534 6.39496
  118 594.626 38.4344 3.55507
  119 555.416 37.6534 6.39496
  120 594.626 38.4344 3.55507
  121 582.449 49.3545 -15.9082
  122 582.449 49.3545 -15.9082
  123 64.3133 -104.763 -34.8112
  124 64.3133 -104.763 -34.8112
  125 501.125 -62.0888 57.1078
  126 501.125 -62.0888 57.1078
  127 423.779 -10.2563 26.4419
  128 423.779 -10.2563 26.4419
  129 97.9173 -90.4003 79.8667
  130 97.9173 -90.4003 79.8667
  131 394.294 7.91097 -0.341169
  132 394.294 7.91097 -0.341169
  133 423.061 -19.7614 -33.7621
  134 423.061 -19.7614 -33.7621
  135 400.420 3.24077 3.91194
  136 400.420 3.24077 3.91194
  137 400.763 2.85110 -3.64909
  138 400.763 2.85110 -3.64909
  139 405.106 5.54563 -11.6960
  140 405.106 5.54563 -11.6960
  141 403.281 5.40462 10.5295
  142 403.281 5.40462 10.5295
  143 386.475 13.1957 -0.430032
  144 386.475 13.1957 -0.430032
  145 323.690 21.4423 -2.52506
  146 323.690 21.4423 -2.52506
  147 468.007 -16.6730 6.72115
  148 468.007 -16.6730 6.72115
  149 533.987 -18.1485 -22.0029
  150 533.987 -18.1485 -22.0029
  151 413.106 -46.1456 64.9945
  152 413.106 -46.1456 64.9945
  153 311.983 -84.2462 -146.970
  154 311.983 -84.2462 -146.970
  155 368.167 15.0582 22.2393
  156 368.167 15.0582 22.2393
  157 476.220 -2.81716 -16.8558
  158 476.220 -2.81716 -16.8558
  159 648.023 51.7515 37.5873
  160 648.023 51.7515 37.5873
  161 324.858 -90.3808 169.919
  162 324.858 -90.3808 169.919
  163 661.481 21.7483 -7.60609
  164 661.481 21.7483 -7.60609
  165 384.943 13.1588 10.3114
  166 384.943 13.1588 10.3114
  167 365.891 12.4518 -32.5692
  168 365.891 12.4518 -32.5692
  169 452.863 13.7390 10.2440
  170 452.863 13.7390 10.2440
  171 381.392 15.7072 -11.7151
  172 381.392 15.7072 -11.7151
  173 396.647 6.35849 1.71067
  174 396.647 6.35849 1.71067
  175 403.086 3.08569 -6.21965
  176 403.086 3.08569 -6.21965
  177 621.667 49.5408 -37.7511
  178 621.667 49.5408 -37.7511
  179 396.958 6.18903 -2.06528
  180 396.958 6.18903 -2.06528
  181 293.659 21.4815 -16.9777
  182 293.659 21.4815 -16.9777
  183 527.727 39.1136 2.83625
  184 527.727 39.1136 2.83625
  185 107.360 -88.7908 -103.004
  186 107.360 -88.7908 -103.004
  187 289.259 -3.04996 71.7590
  188 289.259 -3.04996 71.7590
  189 385.434 -62.2954 -101.162
  190 385.434 -62.2954 -101.162
  191 455.098 -12.5370 5.79468
  192 455.098 -12.5370 5.79468
  193 425.956 -1.46406 16.2739
  194 425.956 -1.46406 16.2739
  195 578.024 17.6321 35.6418
  196 578.024 17.6321 35.6418
  197 241.513 7.78325 -44.3507
  198 241.513 7.78325 -44.3507
  199 655.966 29.2336 17.4697
  200 655.966 29.2336 17.4697
  201 433.839 -5.34728 -17.1474
  202 433.839 -5.34728 -17.1474
  203 403.710 2.20305 5.73500
  204 403.710 2.20305 5.73500
  205 451.535 -17.7232 -9.03217
  206 451.535 -17.7232 -9.03217
  207 493.581 -24.7230 -3.83565
  208 493.581 -24.7230 -3.83565
  209 30.8534 -182.728 15.4004
  210 30.8534 -182.728 15.4004
  211 416.187 2.16884 -14.3254
  212 416.187 2.16884 -14.3254
  213 412.745 3.23411 12.5118
  214 412.745 3.23411 12.5118
  215 397.036 -36.5003 -64.3828
  216 397.036 -36.5003 -64.3828
  217 463.651 -9.84047 -10.3221
  218 463.651 -9.84047 -10.3221
  219 380.039 13.6830 -22.2306
  220 380.039 13.6830 -22.2306
  221 104.777 -130.342 113.042
  222 104.777 -130.342 113.042
  223 470.023 2.19424 15.9743
  224 470.023 2.19424 15.9743
  225 456.891 11.6705 -13.5567
  226 456.891 11.6705 -13.5567
  227 648.799 38.7263 -29.9706
  228 648.799 38.7263 -29.9706
  229 495.319 -18.2551 -7.59142
  230 495.319 -18.2551 -7.59142
  231 540.229 -23.5062 -96.7829
  232 540.229 -23.5062 -96.7829
  233 398.410 -17.9786 49.5548
  234 398.410 -17.9786 49.5548
  235 390.680 11.0196 1.74219
  236 390.680 11.0196 1.74219
  237 207.872 -30.4796 93.2762
  238 207.872 -30.4796 93.2762
  239 516.990 -44.0847 113.001
  240 516.990 -44.0847 113.001
  241 141.450 -18.1136 -46.1660
  242 141.450 -18.1136 -46.1660
  243 460.844 -34.6428 -22.5845
  244 460.844 -34.6428 -22.5845
  245 376.330 16.9424 12.8471
  246 376.330 16.9424 12.8471
  247 13.4213 -238.119 -12.5594
  248 13.4213 -238.119 -12.5594
  249 25.9155 -209.080 41.6066
  250 25.9155 -209.080 41.6066
  251 383.061 2.65906 35.6181
  252 383.061 2.65906 35.6181
  253 399.975 1.52057 1.41480
  254 399.975 1.52057 1.41480
  255 396.612 6.40398 0.269357
  256 396.612 6.40398 0.269357
  257 372.305 -4.60521 -47.3590
  258 372.305 -4.60521 -47.3590
  259 400.209 1.38532 -1.49866
  260 400.209 1.38532 -1.49866
  261 442.458 -31.1976 29.8899
  262 442.458 -31.1976 29.8899
  263 410.765 1.44608 -6.96512
  264 410.765 1.44608 -6.96512
  265 318.510 -26.9788 -88.0494
  266 318.510 -26.9788 -88.0494
  267 541.491 41.6248 -1.33512
  268 541.491 41.6248 -1.33512
  269 396.087 8.76973 -18.1029
  270 396.087 8.76973 -18.1029
  271 394.572 8.20760 -3.61070
  272 394.572 8.20760 -3.61070
  273 335.745 16.3077 -32.5571
  274 335.745 16.3077 -32.5571
  275 102.407 -39.2993 26.6461
  276 102.407 -39.2993 26.6461
  277 422.565 -70.2359 90.2957
  278 422.565 -70.2359 90.2957
  279 398.766 5.92384 7.05927
  280 398.766 5.92384 7.05927
  281 590.453 41.7404 -9.41642
  282 590.453 41.7404 -9.41642
  283 704.922 61.0821 83.5761
  284 704.922 61.0821 83.5761
  285 474.381 -50.4084 29.8917
  286 474.381 -50.4084 29.8917
  287 342.373 17.1113 23.8737
  288 342.373 17.1113 23.8737
  289 434.386 -86.5291 119.148
  290 434.386 -86.5291 119.148
  291 447.797 -5.28687 11.0968
  292 447.797 -5.28687 11.0968
  293 398.522 3.90246 1.93575
  294 398.522 3.90246 1.93575
  295 392.914 10.7649 -11.5361
  296 392.914 10.7649 -11.5361
  297 396.711 6.30141 -0.531709
  298 396.711 6.30141 -0.531709
  299 402.353 1.11003 -2.70410
  300 402.353 1.11003 -2.70410
  301 410.402 2.02953 6.99225
  302 410.402 2.02953 6.99225
  303 390.788 10.9611 -2.96181
  304 390.788 10.9611 -2.96181
  305 89.9063 -152.045 -107.573
  306 89.9063 -152.045 -107.573
  307 268.861 17.5502 22.2307
  308 268.861 17.5502 22.2307
  309 398.958 3.25692 -1.85959
  310 398.958 3.25692 -1.85959
  311 351.875 20.2419 -15.9895
  312 351.875 20.2419 -15.9895
  313 352.772 22.0719 6.09324
  314 352.772 22.0719 6.09324
  315 398.127 5.69632 -5.00127
  316 398.127 5.69632 -5.00127
  317 533.255 28.2840 -2.40260
  318 533.255 28.2840 -2.40260
  319 395.177 9.53898 15.8557
  320 395.177 9.53898 15.8557
  321 503.738 15.9491 -12.9585
  322 503.738 15.9491 -12.9585
  323 740.050 20.9131 49.9844
  324 740.050 20.9131 49.9844
  325 393.713 9.87661 9.96323
  326 393.713 9.87661 9.96323
  327 387.530 13.0730 5.21181
  328 387.530 13.0730 5.21181
  329 303.154 -64.1267 -169.292
  330 303.154 -64.1267 -169.292
  331 402.589 1.00341 2.64520
  332 402.589 1.00341 2.64520
  333 394.196 8.26993 2.69829
  334 394.196 8.26993 2.69829
  335 379.789 16.9540 0.597445
  336 379.789 16.9540 0.597445
  337 196.791 -69.5233 135.958
  338 196.791 -69.5233 135.958
  339 489.017 32.0753 2.28665
  340 489.017 32.0753 2.28665
  341 28.0580 -204.711 -48.0752
  342 28.0580 -204.711 -48.0752
  343 305.874 19.2979 19.7750
  344 305.874 19.2979 19.7750
  345 700.315 9.50439 6.87030
  346 700.315 9.50439 6.87030
  347 731.284 37.1991 -51.5597
  348 731.284 37.1991 -51.5597
  349 344.469 -39.8456 98.5180
  350 359.225 -20.4812 72.8513
  351 344.469 -39.8456 98.5180
  352 359.225 -20.4812 72.8513
  353 710.453 17.6327 26.0767
  354 710.453 17.6327 26.0767
  355 407.689 -0.591863 27.7792
  356 407.689 -0.591863 27.7792
  357 481.998 -65.0720 -70.2638
  358 481.998 -65.0720 -70.2638
  359 458.636 -3.93866 13.1181
  360 458.636 -3.93866 13.1181
  361 309.963 -64.2096 185.129
  362 309.963 -64.2096 185.129
  363 535.550 42.9443 -1.42600
  364 535.550 42.9443 -1.42600
  365 709.734 6.43073 -5.43878
  366 709.734 6.43073 -5.43878
  367 433.657 0.191886 -13.5685
  368 433.657 0.191886 -13.5685
  369 387.534 13.9035 -6.24047
  370 387.534 13.9035 -6.24047
  371 597.492 46.4261 15.6517
  372 597.492 46.4261 15.6517
  373 459.254 19.2272 -2.86729
  374 459.254 19.2272 -2.86729
  375 418.061 1.57653 -8.64922
  376 418.061 1.57653 -8.64922
  377 114.335 -56.2452 -78.1752
  378 114.335 -56.2452 -78.1752
  379 462.067 -8.32941 3.46201
  380 462.067 -8.32941 3.46201
  381 395.796 -0.648874 -32.7922
  382 395.796 -0.648874 -32.7922
  383 455.507 -0.922685 -15.6827
  384 455.507 -0.922685 -15.6827
  385 713.078 12.5488 -21.5728
  386 713.078 12.5488 -21.5728
  387 397.143 6.09678 3.95355
  388 397.143 6.09678 3.95355
  389 484.130 23.7299 12.9307
  390 484.130 23.7299 12.9307
  391 521.514 -10.9989 5.76750
  392 521.514 -10.9989 5.76750
  393 398.599 7.16984 -8.83259
  394 398.599 7.16984 -8.83259
  395 754.528 71.9013 -96.8567
  396 754.528 71.9013 -96.8567
  397 455.935 -6.66934 -4.84001
  398 455.935 -6.66934 -4.84001
</Section>

newXOutput 118

<Section columns = "stress_xx | stress_yy | stress_xy">
  1 402.539 0.393255 -0.446783
  2 402.723 0.487090 0.602383
  3 402.539 0.393255 -0.446783
  4 402.723 0.487090 0.602383
  5 616.590 43.4469 175.109
  6 640.460 42.3887 -172.302
  7 616.590 43.4469 175.109
  8 640.460 42.3887 -172.302
  9 403.528 0.276582 -1.17319
  10 406.807 0.488543 -2.08651
  11 411.553 1.10591 -4.23940
  12 422.470 0.411104 -5.70454
  13 436.523 0.674186 -9.37196
  14 453.014 -4.05831 -9.27217
  15 468.237 -4.87615 -1.14313
  16 461.344 -3.33566 7.60500
  17 444.303 3.50603 13.4746
  18 435.003 8.57140 -0.526314
  19 441.763 4.10602 -12.6596
  20 460.892 -4.96322 -9.26473
  21 464.005 -5.92229 3.21013
  22 455.363 -2.67844 7.99667
  23 433.600 0.121337 9.43084
  24 421.519 1.57797 7.22619
  25 411.841 1.26921 4.07337
  26 406.886 0.392958 1.91145
  27 403.754 0.327274 1.13322
  28 403.308 1.43820 0.703442
  29 402.600 2.94866 0.818672
  30 400.857 5.12111 0.728859
  31 400.160 5.95376 -0.0705976
  32 401.051 4.85878 -0.873657
  33 402.299 3.21472 -0.743342
  34 402.847 1.63140 -0.788052
  35 403.528 0.276582 -1.17319
  36 406.807 0.488543 -2.08651
  37 411.553 1.10591 -4.23940
  38 422.470 0.411104 -5.70454
  39 436.523 0.674186 -9.37196
  40 453.014 -4.05831 -9.27217
  41 468.237 -4.87615 -1.14313
  42 461.344 -3.33566 7.60500
  43 444.303 3.50603 13.4746
  44 435.003 8.57140 -0.526314
  45 441.763 4.10602 -12.6596
  46 460.892 -4.96322 -9.26473
  47 464.005 -5.92229 3.21013
  48 455.363 -2.67844 7.99667
  49 433.600 0.121337 9.43084
  50 421.519 1.57797 7.22619
  51 411.841 1.26921 4.07337
  52 406.886 0.392958 1.91145
  53 403.754 0.327274 1.13322
  54 403.308 1.43820 0.703442
  55 402.600 2.94866 0.818672
  56 400.857 5.12111 0.728859
  57 400.160 5.95376 -0.0705976
  58 401.051 4.85878 -0.873657
  59 402.299 3.21472 -0.743342
  60 402.847 1.63140 -0.788052
  61 852.459 44.8347 89.6503
  62 777.722 12.6857 31.6118
  63 733.926 5.24387 11.6402
  64 724.548 3.80695 2.25907
  65 733.530 5.05701 -9.93412
  66 766.976 10.8688 -27.4037
  67 860.486 39.0160 -77.2007
  68 114.445 -124.248 -143.960
  69 22.6488 -292.709 -37.4886
  70 6.21398 -334.572 -16.3706
  71 5.94658 -328.720 -8.12305
  72 10.3044 -319.371 17.5237
  73 24.6295 -283.657 39.7220
  74 123.937 -115.577 159.466
  75 852.459 44.8347 89.6503
  76 777.722 12.6857 31.6118
  77 733.926 5.24387 11.6402
  78 724.548 3.80695 2.25907
  79 733.530 5.05701 -9.93412
  80 766.976 10.8688 -27.4037
  81 860.486 39.0160 -77.2007
  82 114.445 -124.248 -143.960
  83 22.6488 -292.709 -37.4886
  84 6.21398 -334.572 -16.3706
  85 5.94658 -328.720 -8.12305
  86 10.3044 -319.371 17.5237
  87 24.6295 -283.657 39.7220
  88 123.937 -115.577 159.466
  89 370.424 21.1264 -5.48307
  90 370.424 21.1264 -5.48307
  91 338.356 4.71634 49.7124
  92 325.160 -1.98529 -59.3836
  93 338.356 4.71634 49.7124
  94 325.160 -1.98529 -59.3836
  95 192.433 5.16999 23.9397
  96 192.433 5.16999 23.9397
  97 496.075 32.0094 -7.37990
  98 505.224 18.4884 14.6827
  99 496.075 32.0094 -7.37990
  100 505.224 18.4884 14.6827
  101 396.979 9.55017 5.45366
  102 396.979 9.55017 5.45366
  103 474.060 -26.9767 1.12150
  104 474.060 -26.9767 1.12150
  105 397.452 9.98513 -6.73104
  106 397.452 9.98513 -6.73104
  107 465.510 -57.5563 -52.9262
  108 465.510 -57.5563 -52.9262
  109 326.305 -68.0501 131.628
  110 326.305 -68.0501 131.628
  111 221.110 -39.7646 -106.273
  112 221.110 -39.7646 -106.273
  113 399.008 6.66133 23.5163
  114 399.008 6.66133 23.5163
  115 413.391 2.76218 -22.5097
  116 413.391 2.76218 -22.5097
  117 559.922 37.9778 6.49520
  118 599.429 38.7385 3.59152
  119 559.922 37.9778 6.49520
  120 599.429 38.7385 3.59152
  121 587.164 49.7656 -16.0747
  122 587.164 49.7656 -16.0747
  123 64.8576 -105.606 -35.1239
  124 64.8576 -105.606 -35.1239
  125 505.169 -62.5828 57.6211
  126 505.169 -62.5828 57.6211
  127 427.247 -10.3424 26.6620
  128 427.247 -10.3424 26.6620
  129 98.7452 -91.1238 80.5755
  130 98.7452 -91.1238 80.5755
  131 397.540 7.97345 -0.343705
  132 397.540 7.97345 -0.343705
  133 426.522 -19.9258 -34.0461
  134 426.522 -19.9258 -34.0461
  135 403.711 3.26647 3.94129
  136 403.711 3.26647 3.94129
  137 404.056 2.87378 -3.67640
  138 404.056 2.87378 -3.67640
  139 408.431 5.58922 -11.7864
  140 408.431 5.58922 -11.7864
  141 406.593 5.44727 10.6105
  142 406.593 5.44727 10.6105
  143 389.664 13.3008 -0.433460
  144 389.664 13.3008 -0.433460
  145 326.392 21.6188 -2.54590
  146 326.392 21.6188 -2.54590
  147 471.828 -16.8079 6.75221
  148 471.828 -16.8079 6.75221
  149 538.300 -18.2675 -22.2401
  150 538.300 -18.2675 -22.2401
  151 416.478 -46.5284 65.5396
  152 416.478 -46.5284 65.5396
  153 314.527 -84.9273 -148.236
  154 314.527 -84.9273 -148.236
  155 371.214 15.1805 22.4174
  156 371.214 15.1805 22.4174
  157 480.111 -2.83527 -16.9640
  158 480.111 -2.83527 -16.9640
  159 653.215 52.1813 37.9220
  160 653.215 52.1813 37.9220
  161 327.503 -91.1207 171.372
  162 327.503 -91.1207 171.372
  163 666.754 21.9137 -7.66910
  164 666.754 21.9137 -7.66910
  165 388.119 13.2639 10.3918
  166 388.119 13.2639 10.3918
  167 368.917 12.5534 -32.8325
  168 368.917 12.5534 -32.8325
  169 456.598 13.8567 10.3164
  170 456.598 13.8567 10.3164
  171 384.542 15.8331 -11.8070
  172 384.542 15.8331 -11.8070
  173 399.911 6.40862 1.72351
  174 399.911 6.40862 1.72351
  175 406.396 3.11003 -6.26676
  176 406.396 3.11003 -6.26676
  177 626.658 49.9773 -38.1125
  178 626.658 49.9773 -38.1125
  179 400.223 6.23790 -2.08075
  180 400.223 6.23790 -2.08075
  181 296.120 21.6620 -17.1169
  182 296.120 21.6620 -17.1169
  183 532.031 39.4383 2.83243
  184 532.031 39.4383 2.83243
  185 108.261 -89.5010 -103.915
  186 108.261 -89.5010 -103.915
  187 291.669 -3.07167 72.3527
  188 291.669 -3.07167 72.3527
  189 388.580 -62.8128 -102.016
  190 388.580 -62.8128 -102.016
  191 458.813 -12.6418 5.85457
  192 458.813 -12.6418 5.85457
  193 429.439 -1.47804 16.4053
  194 429.439 -1.47804 16.4053
  195 582.679 17.8156 35.9951
  196 582.679 17.8156 35.9951
  197 243.547 7.85582 -44.7202
  198 243.547 7.85582 -44.7202
  199 661.206 29.4605 17.6175
  200 661.206 29.4605 17.6175
  201 437.384 -5.39339 -17.2899
  202 437.384 -5.39339 -17.2899
  203 407.025 2.22035 5.77836
  204 407.025 2.22035 5.77836
  205 455.220 -17.8714 -9.11978
  206 455.220 -17.8714 -9.11978
  207 497.592 -24.9171 -3.90508
  208 497.592 -24.9171 -3.90508
  209 31.1092 -184.242 15.5430
  210 31.1092 -184.242 15.5430
  211 419.596 2.18455 -14.4383
  212 419.596 2.18455 -14.4383
  213 416.127 3.25919 12.6095
  214 416.127 3.25919 12.6095
  215 400.287 -36.8029 -64.9208
  216 400.287 -36.8029 -64.9208
  217 467.443 -9.92124 -10.3858
  218 467.443 -9.92124 -10.3858
  219 383.177 13.7934 -22.4083
  220 383.177 13.7934 -22.4083
  221 105.642 -131.382 114.052
  222 105.642 -131.382 114.052
  223 473.874 2.21858 16.0796
  224 473.874 2.21858 16.0796
  225 460.653 11.7710 -13.6507
  226 460.653 11.7710 -13.6507
  227 653.993 39.0348 -30.2314
  228 653.993 39.0348 -30.2314
  229 499.345 -18.3957 -7.61470
  230 499.345 -18.3957 -7.61470
  231 544.563 -23.6375 -97.6453
  232 544.563 -23.6375 -97.6453
  233 401.677 -18.1273 49.9635
  234 401.677 -18.1273 49.9635
  235 393.900 11.1071 1.75554
  236 393.900 11.1071 1.75554
  237 209.614 -30.7242 94.0679
  238 209.614 -30.7242 94.0679
  239 521.137 -44.3969 113.993
  240 521.137 -44.3969 113.993
  241 142.657 -18.2437 -46.5616
  242 142.657 -18.2437 -46.5616
  243 464.595 -34.9286 -22.7905
  244 464.595 -34.9286 -22.7905
  245 379.441 17.0789 12.9487
  246 379.441 17.0789 12.9487
  247 13.5257 -240.116 -12.6785
  248 13.5257 -240.116 -12.6785
  249 26.1275 -210.811 41.9983
  250 26.1275 -210.811 41.9983
  251 386.218 2.68017 35.9069
  252 386.218 2.68017 35.9069
  253 403.262 1.53272 1.42529
  254 403.262 1.53272 1.42529
  255 399.876 6.45433 0.271391
  256 399.876 6.45433 0.271391
  257 375.375 -4.64372 -47.7469
  258 375.375 -4.64372 -47.7469
  259 403.497 1.39645 -1.50977
  260 403.497 1.39645 -1.50977
  261 446.067 -31.4557 30.1491
  262 446.067 -31.4557 30.1491
  263 414.131 1.45723 -7.01818
  264 414.131 1.45723 -7.01818
  265 321.143 -27.2022 -88.7830
  266 321.143 -27.2022 -88.7830
  267 545.900 41.9683 -1.31923
  268 545.900 41.9683 -1.31923
  269 399.346 8.83923 -18.2455
  270 399.346 8.83923 -18.2455
  271 397.821 8.27257 -3.63802
  272 397.821 8.27257 -3.63802
  273 338.537 16.4425 -32.8216
  274 338.537 16.4425 -32.8216
  275 103.284 -39.5968 26.8786
  276 103.284 -39.5968 26.8786
  277 425.999 -70.8180 91.0610
  278 425.999 -70.8180 91.0610
  279 402.044 5.97074 7.11294
  280 402.044 5.97074 7.11294
  281 595.227 42.0739 -9.50653
  282 595.227 42.0739 -9.50653
  283 710.512 61.6269 84.2966
  284 710.512 61.6269 84.2966
  285 478.231 -50.8201 30.1677
  286 478.231 -50.8201 30.1677
  287 345.219 17.2520 24.0661
  288 345.219 17.2520 24.0661
  289 437.899 -87.2421 120.161
  290 437.899 -87.2421 120.161
  291 451.449 -5.33201 11.1909
  292 451.449 -5.33201 11.1909
  293 401.799 3.93329 1.95019
  294 401.799 3.93329 1.95019
  295 396.150 10.8506 -11.6254
  296 396.150 10.8506 -11.6254
  297 399.975 6.35097 -0.535680
  298 399.975 6.35097 -0.535680
  299 405.657 1.11886 -2.72429
  300 405.657 1.11886 -2.72429
  301 413.766 2.04534 7.04551
  302 413.766 2.04534 7.04551
  303 394.009 11.0482 -2.98449
  304 394.009 11.0482 -2.98449
  305 90.6454 -153.254 -108.541
  306 90.6454 -153.254 -108.541
  307 271.121 17.7006 22.4133
  308 271.121 17.7006 22.4133
  309 402.237 3.28273 -1.87342
  310 402.237 3.28273 -1.87342
  311 354.797 20.4069 -16.1180
  312 354.797 20.4069 -16.1180
  313 355.702 22.2517 6.14177
  314 355.702 22.2517 6.14177
  315 401.401 5.74142 -5.03907
  316 401.401 5.74142 -5.03907
  317 537.587 28.5358 -2.47116
  318 537.587 28.5358 -2.47116
  319 398.429 9.61489 15.9796
  320 398.429 9.61489 15.9796
  321 507.847 16.0908 -13.0273
  322 507.847 16.0908 -13.0273
  323 745.885 21.0735 50.3915
  324 745.885 21.0735 50.3915
  325 396.955 9.95515 10.0401
  326 396.955 9.95515 10.0401
  327 390.727 13.1771 5.25200
  328 390.727 13.1771 5.25200
  329 305.599 -64.5392 -170.772
  330 305.599 -64.5392 -170.772
  331 405.895 1.01139 2.66493
  332 405.895 1.01139 2.66493
  333 397.442 8.33532 2.71873
  334 397.442 8.33532 2.71873
  335 382.927 17.0900 0.602080
  336 382.927 17.0900 0.602080
  337 198.430 -70.0934 137.132
  338 198.430 -70.0934 137.132
  339 493.030 32.3423 2.29903
  340 493.030 32.3423 2.29903
  341 28.2843 -206.403 -48.5204
  342 28.2843 -206.403 -48.5204
  343 308.433 19.4589 19.9355
  344 308.433 19.4589 19.9355
  345 705.847 9.57467 6.92249
  346 705.847 9.57467 6.92249
  347 737.068 37.5034 -51.9843
  348 737.068 37.5034 -51.9843
  349 347.301 -40.1771 99.3393
  350 362.184 -20.6504 73.4515
  351 347.301 -40.1771 99.3393
  352 362.184 -20.6504 73.4515
  353 716.067 17.7656 26.2840
  354 716.067 17.7656 26.2840
  355 411.035 -0.598324 28.0042
  356 411.035 -0.598324 28.0042
  357 485.890 -65.5998 -70.8780
  358 485.890 -65.5998 -70.8780
  359 462.396 -3.96923 13.2087
  360 462.396 -3.96923 13.2087
  361 312.448 -64.6296 186.737
  362 312.448 -64.6296 186.737
  363 539.918 43.2935 -1.43648
  364 539.918 43.2935 -1.43648
  365 715.327 6.47775 -5.48130
  366 715.327 6.47775 -5.48130
  367 437.196 0.191488 -13.6771
  368 437.196 0.191488 -13.6771
  369 390.731 14.0145 -6.28874
  370 390.731 14.0145 -6.28874
  371 602.317 46.8034 15.8055
  372 602.317 46.8034 15.8055
  373 463.040 19.3889 -2.88721
  374 463.040 19.3889 -2.88721
  375 421.482 1.58827 -8.71604
  376 421.482 1.58827 -8.71604
  377 115.313 -56.6900 -78.8581
  378 115.313 -56.6900 -78.8581
  379 465.839 -8.39849 3.47782
  380 465.839 -8.39849 3.47782
  381 399.050 -0.655840 -33.0592
  382 399.050 -0.655840 -33.0592
  383 459.250 -0.928717 -15.7922
  384 459.250 -0.928717 -15.7922
  385 718.708 12.6444 -21.7429
  386 718.708 12.6444 -21.7429
  387 400.410 6.14495 3.98336
  388 400.410 6.14495 3.98336
  389 488.098 23.9317 13.0124
  390 488.098 23.9317 13.0124
  391 525.737 -11.0697 5.86446
  392 525.737 -11.0697 5.86446
  393 401.877 7.22669 -8.90011
  394 401.877 7.22669 -8.90011
  395 760.477 72.5505 -97.6836
  396 760.477 72.5505 -97.6836
  397 459.650 -6.72615 -4.88533
  398 459.650 -6.72615 -4.88533
</Section>

newXOutput 119

<Section columns = "stress_xx | stress_yy | stress_xy">
  1 405.819 0.396520 -0.450023
  2 406.004 0.491070 0.606744
  3 405.819 0.396520 -0.450023
  4 406.004 0.491070 0.606744
  5 621.399 43.9474 176.596
  6 645.443 42.8866 -173.767
  7 621.399 43.9474 176.596
  8 645.443 42.8866 -173.767
  9 406.814 0.278819 -1.18175
  10 410.116 0.492420 -2.10187
  11 414.896 1.11453 -4.27098
  12 425.893 0.414084 -5.74764
  13 440.051 0.678537 -9.44474
  14 456.669 -4.09331 -9.34738
  15 472.015 -4.91711 -1.15750
  16 465.089 -3.36271 7.65580
  17 447.939 3.53743 13.5702
  18 438.578 8.64450 -0.530132
  19 445.381 4.14062 -12.7502
  20 464.635 -5.00379 -9.32637
  21 467.750 -5.97216 3.24222
  22 459.036 -2.70138 8.06202
  23 437.107 0.120867 9.50458
  24 424.936 1.58995 7.28102
  25 415.187 1.27911 4.10365
  26 410.196 0.396087 1.92549
  27 407.042 0.329938 1.14153
  28 406.593 1.44958 0.708521
  29 405.880 2.97180 0.824656
  30 404.124 5.16102 0.734228
  31 403.423 6.00006 -0.0711144
  32 404.320 4.89669 -0.880055
  33 405.577 3.23996 -0.748679
  34 406.128 1.64437 -0.793818
  35 406.814 0.278819 -1.18175
  36 410.116 0.492420 -2.10187
  37 414.896 1.11453 -4.27098
  38 425.893 0.414084 -5.74764
  39 440.051 0.678537 -9.44474
  40 456.669 -4.09331 -9.34738
  41 472.015 -4.91711 -1.15750
  42 465.089 -3.36271 7.65580
  43 447.939 3.53743 13.5702
  44 438.578 8.64450 -0.530132
  45 445.381 4.14062 -12.7502
  46 464.635 -5.00379 -9.32637
  47 467.750 -5.97216 3.24222
  48 459.036 -2.70138 8.06202
  49 437.107 0.120867 9.50458
  50 424.936 1.58995 7.28102
  51 415.187 1.27911 4.10365
  52 410.196 0.396087 1.92549
  53 407.042 0.329938 1.14153
  54 406.593 1.44958 0.708521
  55 405.880 2.97180 0.824656
  56 404.124 5.16102 0.734228
  57 403.423 6.00006 -0.0711144
  58 404.320 4.89669 -0.880055
  59 405.577 3.23996 -0.748679
  60 406.128 1.64437 -0.793818
  61 859.031 45.2069 90.3659
  62 783.743 12.7816 31.8550
  63 739.632 5.27983 11.7268
  64 730.185 3.83388 2.27429
  65 739.232 5.09369 -10.0076
  66 772.922 10.9499 -27.6121
  67 867.122 39.3390 -77.8174
  68 115.362 -125.113 -145.228
  69 22.8312 -295.123 -37.8539
  70 6.25285 -337.409 -16.5294
  71 5.98425 -331.514 -8.19186
  72 10.3801 -322.066 17.6945
  73 24.8309 -285.995 40.1107
  74 124.920 -116.371 160.865
  75 859.031 45.2069 90.3659
  76 783.743 12.7816 31.8550
  77 739.632 5.27983 11.7268
  78 730.185 3.83388 2.27429
  79 739.232 5.09369 -10.0076
  80 772.922 10.9499 -27.6121
  81 867.122 39.3390 -77.8174
  82 115.362 -125.113 -145.228
  83 22.8312 -295.123 -37.8539
  84 6.25285 -337.409 -16.5294
  85 5.98425 -331.514 -8.19186
  86 10.3801 -322.066 17.6945
  87 24.8309 -285.995 40.1107
  88 124.920 -116.371 160.865
  89 373.465 21.2957 -5.52629
  90 373.465 21.2957 -5.52629
  91 341.139 4.75624 50.1148
  92 327.837 -2.00001 -59.8678
  93 341.139 4.75624 50.1148
  94 327.837 -2.00001 -59.8678
  95 194.056 5.22633 24.1387
  96 194.056 5.22633 24.1387
  97 500.107 32.2740 -7.42427
  98 509.311 18.6502 14.7636
  99 500.107 32.2740 -7.42427
  100 509.311 18.6502 14.7636
  101 400.219 9.62520 5.49486
  102 400.219 9.62520 5.49486
  103 477.889 -27.1951 1.15809
  104 477.889 -27.1951 1.15809
  105 400.695 10.0637 -6.78202
  106 400.695 10.0637 -6.78202
  107 469.252 -58.0264 -53.3797
  108 469.252 -58.0264 -53.3797
  109 328.959 -68.6117 132.730
  110 328.959 -68.6117 132.730
  111 222.938 -40.0852 -107.170
  112 222.938 -40.0852 -107.170
  113 402.261 6.71330 23.7019
  114 402.261 6.71330 23.7019
  115 416.752 2.78221 -22.6887
  116 416.752 2.78221 -22.6887
  117 564.423 38.3022 6.59611
  118 604.227 39.0422 3.62806
  119 564.423 38.3022 6.59611
  120 604.227 39.0422 3.62806
  121 591.875 50.1765 -16.2416
  122 591.875 50.1765 -16.2416
  123 65.4019 -106.448 -35.4368
  124 65.4019 -106.448 -35.4368
  125 509.208 -63.0761 58.1347
  126 509.208 -63.0761 58.1347
  127 430.713 -10.4284 26.8820
  128 430.713 -10.4284 26.8820
  129 99.5729 -91.8464 81.2845
  130 99.5729 -91.8464 81.2845
  131 400.785 8.03584 -0.346235
  132 400.785 8.03584 -0.346235
  133 429.979 -20.0902 -34.3301
  134 429.979 -20.0902 -34.3301
  135 406.998 3.29213 3.97058
  136 406.998 3.29213 3.97058
  137 407.346 2.89643 -3.70365
  138 407.346 2.89643 -3.70365
  139 411.754 5.63273 -11.8767
  140 411.754 5.63273 -11.8767
  141 409.902 5.48986 10.6914
  142 409.902 5.48986 10.6914
  143 392.850 13.4058 -0.436884
  144 392.850 13.4058 -0.436884
  145 329.094 21.7953 -2.56672
  146 329.094 21.7953 -2.56672
  147 475.645 -16.9426 6.78287
  148 475.645 -16.9426 6.78287
  149 542.609 -18.3859 -22.4781
  150 542.609 -18.3859 -22.4781
  151 419.847 -46.9110 66.0846
  152 419.847 -46.9110 66.0846
  153 317.069 -85.6076 -149.503
  154 317.069 -85.6076 -149.503
  155 374.258 15.3028 22.5953
  156 374.258 15.3028 22.5953
  157 483.999 -2.85327 -17.0716
  158 483.999 -2.85327 -17.0716
  159 658.400 52.6108 38.2569
  160 658.400 52.6108 38.2569
  161 330.146 -91.8600 172.824
  162 330.146 -91.8600 172.824
  163 672.019 22.0787 -7.73206
  164 672.019 22.0787 -7.73206
  165 391.294 13.3689 10.4720
  166 391.294 13.3689 10.4720
  167 371.942 12.6548 -33.0954
  168 371.942 12.6548 -33.0954
  169 460.330 13.9745 10.3886
  170 460.330 13.9745 10.3886
  171 387.689 15.9589 -11.8987
  172 387.689 15.9589 -11.8987
  173 403.172 6.45867 1.73633
  174 403.172 6.45867 1.73633
  175 409.703 3.13433 -6.31376
  176 409.703 3.13433 -6.31376
  177 631.644 50.4140 -38.4744
  178 631.644 50.4140 -38.4744
  179 403.487 6.28670 -2.09619
  180 403.487 6.28670 -2.09619
  181 298.580 21.8424 -17.2560
  182 298.580 21.8424 -17.2560
  183 536.332 39.7629 2.82819
  184 536.332 39.7629 2.82819
  185 109.161 -90.2104 -104.826
  186 109.161 -90.2104 -104.826
  187 294.078 -3.09332 72.9460
  188 294.078 -3.09332 72.9460
  189 391.723 -63.3298 -102.869
  190 391.723 -63.3298 -102.869
  191 462.524 -12.7464 5.91460
  192 462.524 -12.7464 5.91460
  193 432.919 -1.49203 16.5365
  194 432.919 -1.49203 16.5365
  195 587.327 17.9996 36.3490
  196 587.327 17.9996 36.3490
  197 245.580 7.92847 -45.0895
  198 245.580 7.92847 -45.0895
  199 666.440 29.6870 17.7653
  200 666.440 29.6870 17.7653
  201 440.926 -5.43950 -17.4323
  202 440.926 -5.43950 -17.4323
  203 410.336 2.23762 5.82163
  204 410.336 2.23762 5.82163
  205 458.902 -18.0195 -9.20753
  206 458.902 -18.0195 -9.20753
  207 501.598 -25.1110 -3.97506
  208 501.598 -25.1110 -3.97506
  209 31.3649 -185.756 15.6858
  210 31.3649 -185.756 15.6858
  211 423.001 2.20021 -14.5509
  212 423.001 2.20021 -14.5509
  213 419.507 3.28423 12.7071
  214 419.507 3.28423 12.7071
  215 403.535 -37.1054 -65.4586
  216 403.535 -37.1054 -65.4586
  217 471.230 -10.0019 -10.4491
  218 471.230 -10.0019 -10.4491
  219 386.312 13.9036 -22.5857
  220 386.312 13.9036 -22.5857
  221 106.506 -132.420 115.063
  222 106.506 -132.420 115.063
  223 477.723 2.24301 16.1845
  224 477.723 2.24301 16.1845
  225 464.412 11.8715 -13.7444
  226 464.412 11.8715 -13.7444
  227 659.180 39.3429 -30.4923
  228 659.180 39.3429 -30.4923
  229 503.368 -18.5361 -7.63732
  230 503.368 -18.5361 -7.63732
  231 548.892 -23.7678 -98.5081
  232 548.892 -23.7678 -98.5081
  233 404.942 -18.2759 50.3719
  234 404.942 -18.2759 50.3719
  235 397.118 11.1945 1.76887
  236 397.118 11.1945 1.76887
  237 211.356 -30.9686 94.8595
  238 211.356 -30.9686 94.8595
  239 525.279 -44.7080 114.985
  240 525.279 -44.7080 114.985
  241 143.863 -18.3734 -46.9572
  242 143.863 -18.3734 -46.9572
  243 468.342 -35.2142 -22.9966
  244 468.342 -35.2142 -22.9966
  245 382.550 17.2153 13.0501
  246 382.550 17.2153 13.0501
  247 13.6299 -242.112 -12.7978
  248 13.6299 -242.112 -12.7978
  249 26.3393 -212.541 42.3906
  250 26.3393 -212.541 42.3906
  251 389.372 2.70125 36.1955
  252 389.372 2.70125 36.1955
  253 406.546 1.54485 1.43574
  254 406.546 1.54485 1.43574
  255 403.137 6.50460 0.273422
  256 403.137 6.50460 0.273422
  257 378.443 -4.68222 -48.1345
  258 378.443 -4.68222 -48.1345
  259 406.783 1.40757 -1.52085
  260 406.783 1.40757 -1.52085
  261 449.672 -31.7136 30.4084
  262 449.672 -31.7136 30.4084
  263 417.494 1.46836 -7.07113
  264 417.494 1.46836 -7.07113
  265 323.775 -27.4256 -89.5162
  266 323.775 -27.4256 -89.5162
  267 550.304 42.3115 -1.30294
  268 550.304 42.3115 -1.30294
  269 402.603 8.90864 -18.3878
  270 402.603 8.90864 -18.3878
  271 401.067 8.33744 -3.66527
  272 401.067 8.33744 -3.66527
  273 341.328 16.5772 -33.0859
  274 341.328 16.5772 -33.0859
  275 104.160 -39.8935 27.1110
  276 104.160 -39.8935 27.1110
  277 429.429 -71.3998 91.8260
  278 429.429 -71.3998 91.8260
  279 405.321 6.01757 7.16649
  280 405.321 6.01757 7.16649
  281 599.995 42.4070 -9.59676
  282 599.995 42.4070 -9.59676
  283 716.094 62.1719 85.0170
  284 716.094 62.1719 85.0170
  285 482.076 -51.2315 30.4439
  286 482.076 -51.2315 30.4439
  287 348.064 17.3926 24.2584
  288 348.064 17.3926 24.2584
  289 441.408 -87.9547 121.174
  290 441.408 -87.9547 121.174
  291 455.098 -5.37716 11.2849
  292 455.098 -5.37716 11.2849
  293 405.073 3.96409 1.96460
  294 405.073 3.96409 1.96460
  295 399.383 10.9362 -11.7145
  296 399.383 10.9362 -11.7145
  297 403.237 6.40045 -0.539642
  298 403.237 6.40045 -0.539642
  299 408.958 1.12769 -2.74443
  300 408.958 1.12769 -2.74443
  301 417.126 2.06112 7.09865
  302 417.126 2.06112 7.09865
  303 397.227 11.1351 -3.00712
  304 397.227 11.1351 -3.00712
  305 91.3838 -154.462 -109.509
  306 91.3838 -154.462 -109.509
  307 273.381 17.8510 22.5957
  308 273.381 17.8510 22.5957
  309 405.514 3.30851 -1.88722
  310 405.514 3.30851 -1.88722
  311 357.717 20.5717 -16.2465
  312 357.717 20.5717 -16.2465
  313 358.630 22.4314 6.19023
  314 358.630 22.4314 6.19023
  315 404.672 5.78645 -5.07679
  316 404.672 5.78645 -5.07679
  317 541.914 28.7876 -2.54043
  318 541.914 28.7876 -2.54043
  319 401.679 9.69071 16.1033
  320 401.679 9.69071 16.1033
  321 511.952 16.2326 -13.0954
  322 511.952 16.2326 -13.0954
  323 751.712 21.2336 50.7982
  324 751.712 21.2336 50.7982
  325 400.195 10.0336 10.1167
  326 400.195 10.0336 10.1167
  327 393.922 13.2812 5.29212
  328 393.922 13.2812 5.29212
  329 308.041 -64.9495 -172.253
  330 308.041 -64.9495 -172.253
  331 409.198 1.01935 2.68462
  332 409.198 1.01935 2.68462
  333 400.685 8.40062 2.73913
  334 400.685 8.40062 2.73913
  335 386.063 17.2258 0.606708
  336 386.063 17.2258 0.606708
  337 200.067 -70.6630 138.306
  338 200.067 -70.6630 138.306
  339 497.041 32.6092 2.31130
  340 497.041 32.6092 2.31130
  341 28.5104 -208.094 -48.9661
  342 28.5104 -208.094 -48.9661
  343 310.992 19.6198 20.0959
  344 310.992 19.6198 20.0959
  345 711.371 9.64478 6.97457
  346 711.371 9.64478 6.97457
  347 742.844 37.8074 -52.4085
  348 742.844 37.8074 -52.4085
  349 350.130 -40.5084 100.160
  350 365.141 -20.8195 74.0513
  351 350.130 -40.5084 100.160
  352 365.141 -20.8195 74.0513
  353 721.673 17.8982 26.4910
  354 721.673 17.8982 26.4910
  355 414.378 -0.604805 28.2289
  356 414.378 -0.604805 28.2289
  357 489.777 -66.1270 -71.4923
  358 489.777 -66.1270 -71.4923
  359 466.153 -3.99974 13.2989
  360 466.153 -3.99974 13.2989
  361 314.931 -65.0474 188.346
  362 314.931 -65.0474 188.346
  363 544.282 43.6424 -1.44693
  364 544.282 43.6424 -1.44693
  365 720.911 6.52465 -5.52374
  366 720.911 6.52465 -5.52374
  367 440.732 0.191060 -13.7855
  368 440.732 0.191060 -13.7855
  369 393.925 14.1253 -6.33693
  370 393.925 14.1253 -6.33693
  371 607.137 47.1804 15.9595
  372 607.137 47.1804 15.9595
  373 466.822 19.5505 -2.90706
  374 466.822 19.5505 -2.90706
  375 424.899 1.59998 -8.78274
  376 424.899 1.59998 -8.78274
  377 116.290 -57.1342 -79.5410
  378 116.290 -57.1342 -79.5410
  379 469.607 -8.46753 3.49343
  380 469.607 -8.46753 3.49343
  381 402.302 -0.662827 -33.3260
  382 402.302 -0.662827 -33.3260
  383 462.989 -0.934715 -15.9014
  384 462.989 -0.934715 -15.9014
  385 724.330 12.7399 -21.9127
  386 724.330 12.7399 -21.9127
  387 403.674 6.19305 4.01311
  388 403.674 6.19305 4.01311
  389 492.062 24.1334 13.0937
  390 492.062 24.1334 13.0937
  391 529.956 -11.1401 5.96215
  392 529.956 -11.1401 5.96215
  393 405.152 7.28345 -8.96749
  394 405.152 7.28345 -8.96749
  395 766.417 73.2001 -98.5103
  396 766.417 73.2001 -98.5103
  397 463.362 -6.78295 -4.93071
  398 463.362 -6.78295 -4.93071
</Section>

newXOutput 120

<Section columns = "stress_xx | stress_yy | stress_xy">
  1 409.095 0.399783 -0.453254
  2 409.282 0.495047 0.611092
  3 409.095 0.399783 -0.453254
  4 409.282 0.495047 0.611092
  5 626.202 44.4500 178.083
  6 650.419 43.3867 -175.231
  7 626.202 44.4500 178.083
  8 650.419 43.3867 -175.231
  9 410.098 0.281053 -1.19029
  10 413.423 0.496293 -2.11719
  11 418.237 1.12313 -4.30249
  12 429.313 0.417055 -5.79065
  13 443.575 0.682866 -9.51739
  14 460.320 -4.12831 -9.42252
  15 475.789 -4.95806 -1.17193
  16 468.831 -3.38974 7.70639
  17 451.572 3.56885 13.6656
  18 442.151 8.71760 -0.533939
  19 448.996 4.17521 -12.8405
  20 468.375 -5.04433 -9.38775
  21 471.492 -6.02201 3.27437
  22 462.705 -2.72431 8.12732
  23 440.612 0.120375 9.57822
  24 428.350 1.60190 7.33575
  25 418.531 1.28899 4.13386
  26 413.504 0.399213 1.93950
  27 410.328 0.332600 1.14981
  28 409.875 1.46095 0.713585
  29 409.157 2.99491 0.830624
  30 407.389 5.20087 0.739584
  31 406.683 6.04629 -0.0716300
  32 407.587 4.93454 -0.886436
  33 408.851 3.26516 -0.754000
  34 409.406 1.65731 -0.799569
  35 410.098 0.281053 -1.19029
  36 413.423 0.496293 -2.11719
  37 418.237 1.12313 -4.30249
  38 429.313 0.417055 -5.79065
  39 443.575 0.682866 -9.51739
  40 460.320 -4.12831 -9.42252
  41 475.789 -4.95806 -1.17193
  42 468.831 -3.38974 7.70639
  43 451.572 3.56885 13.6656
  44 442.151 8.71760 -0.533939
  45 448.996 4.17521 -12.8405
  46 468.375 -5.04433 -9.38775
  47 471.492 -6.02201 3.27437
  48 462.705 -2.72431 8.12732
  49 440.612 0.120375 9.57822
  50 428.350 1.60190 7.33575
  51 418.531 1.28899 4.13386
  52 413.504 0.399213 1.93950
  53 410.328 0.332600 1.14981
  54 409.875 1.46095 0.713585
  55 409.157 2.99491 0.830624
  56 407.389 5.20087 0.739584
  57 406.683 6.04629 -0.0716300
  58 407.587 4.93454 -0.886436
  59 408.851 3.26516 -0.754000
  60 409.406 1.65731 -0.799569
  61 865.593 45.5788 91.0806
  62 789.753 12.8772 32.0979
  63 745.329 5.31566 11.8133
  64 735.814 3.86072 2.28946
  65 744.925 5.13028 -10.0810
  66 778.859 11.0309 -27.8200
  67 873.746 39.6618 -78.4333
  68 116.279 -125.974 -146.496
  69 23.0134 -297.535 -38.2199
  70 6.29148 -340.244 -16.6886
  71 6.02171 -334.309 -8.26066
  72 10.4557 -324.761 17.8656
  73 25.0322 -288.331 40.5001
  74 125.902 -117.161 162.265
  75 865.593 45.5788 91.0806
  76 789.753 12.8772 32.0979
  77 745.329 5.31566 11.8133
  78 735.814 3.86072 2.28946
  79 744.925 5.13028 -10.0810
  80 778.859 11.0309 -27.8200
  81 873.746 39.6618 -78.4333
  82 116.279 -125.974 -146.496
  83 23.0134 -297.535 -38.2199
  84 6.29148 -340.244 -16.6886
  85 6.02171 -334.309 -8.26066
  86 10.4557 -324.761 17.8656
  87 25.0322 -288.331 40.5001
  88 125.902 -117.161 162.265
  89 376.505 21.4648 -5.56945
  90 376.505 21.4648 -5.56945
  91 343.920 4.79613 50.5167
  92 330.512 -2.01470 -60.3516
  93 343.920 4.79613 50.5167
  94 330.512 -2.01470 -60.3516
  95 195.678 5.28286 24.3375
  96 195.678 5.28286 24.3375
  97 504.135 32.5385 -7.46836
  98 513.394 18.8121 14.8439
  99 504.135 32.5385 -7.46836
  100 513.394 18.8121 14.8439
  101 403.457 9.70013 5.53598
  102 403.457 9.70013 5.53598
  103 481.713 -27.4132 1.19509
  104 481.713 -27.4132 1.19509
  105 403.936 10.1422 -6.83290
  106 403.936 10.1422 -6.83290
  107 472.990 -58.4961 -53.8333
  108 472.990 -58.4961 -53.8333
  109 331.611 -69.1730 133.831
  110 331.611 -69.1730 133.831
  111 224.766 -40.4055 -108.066
  112 224.766 -40.4055 -108.066
  113 405.512 6.76519 23.8873
  114 405.512 6.76519 23.8873
  115 420.110 2.80218 -22.8674
  116 420.110 2.80218 -22.8674
  117 568.919 38.6266 6.69768
  118 609.019 39.3454 3.66468
  119 568.919 38.6266 6.69768
  120 609.019 39.3454 3.66468
  121 596.580 50.5871 -16.4089
  122 596.580 50.5871 -16.4089
  123 65.9459 -107.288 -35.7499
  124 65.9459 -107.288 -35.7499
  125 513.242 -63.5688 58.6486
  126 513.242 -63.5688 58.6486
  127 434.175 -10.5145 27.1019
  128 434.175 -10.5145 27.1019
  129 100.400 -92.5681 81.9939
  130 100.400 -92.5681 81.9939
  131 404.026 8.09814 -0.348759
  132 404.026 8.09814 -0.348759
  133 433.433 -20.2544 -34.6139
  134 433.433 -20.2544 -34.6139
  135 410.283 3.31775 3.99980
  136 410.283 3.31775 3.99980
  137 410.633 2.91905 -3.73083
  138 410.633 2.91905 -3.73083
  139 415.074 5.67618 -11.9669
  140 415.074 5.67618 -11.9669
  141 413.209 5.53239 10.7721
  142 413.209 5.53239 10.7721
  143 396.034 13.5107 -0.440302
  144 396.034 13.5107 -0.440302
  145 331.793 21.9715 -2.58752
  146 331.793 21.9715 -2.58752
  147 479.459 -17.0772 6.81310
  148 479.459 -17.0772 6.81310
  149 546.912 -18.5038 -22.7168
  150 546.912 -18.5038 -22.7168
  151 423.213 -47.2932 66.6292
  152 423.213 -47.2932 66.6292
  153 319.608 -86.2872 -150.770
  154 319.608 -86.2872 -150.770
  155 377.301 15.4249 22.7729
  156 377.301 15.4249 22.7729
  157 487.883 -2.87117 -17.1787
  158 487.883 -2.87117 -17.1787
  159 663.579 53.0401 38.5918
  160 663.579 53.0401 38.5918
  161 332.786 -92.5987 174.277
  162 332.786 -92.5987 174.277
  163 677.278 22.2434 -7.79497
  164 677.278 22.2434 -7.79497
  165 394.466 13.4737 10.5521
  166 394.466 13.4737 10.5521
  167 374.964 12.7562 -33.3581
  168 374.964 12.7562 -33.3581
  169 464.060 14.0923 10.4605
  170 464.060 14.0923 10.4605
  171 390.835 16.0846 -11.9902
  172 390.835 16.0846 -11.9902
  173 406.430 6.50865 1.74912
  174 406.430 6.50865 1.74912
  175 413.008 3.15859 -6.36067
  176 413.008 3.15859 -6.36067
  177 636.623 50.8509 -38.8368
  178 636.623 50.8509 -38.8368
  179 406.747 6.33542 -2.11158
  180 406.747 6.33542 -2.11158
  181 301.039 22.0228 -17.3949
  182 301.039 22.0228 -17.3949
  183 540.628 40.0872 2.82354
  184 540.628 40.0872 2.82354
  185 110.061 -90.9188 -105.737
  186 110.061 -90.9188 -105.737
  187 296.486 -3.11490 73.5389
  188 296.486 -3.11490 73.5389
  189 394.863 -63.8465 -103.722
  190 394.863 -63.8465 -103.722
  191 466.232 -12.8510 5.97478
  192 466.232 -12.8510 5.97478
  193 436.396 -1.50605 16.6676
  194 436.396 -1.50605 16.6676
  195 591.971 18.1840 36.7036
  196 591.971 18.1840 36.7036
  197 247.613 8.00119 -45.4586
  198 247.613 8.00119 -45.4586
  199 671.667 29.9132 17.9131
  200 671.667 29.9132 17.9131
  201 444.465 -5.48561 -17.5747
  202 444.465 -5.48561 -17.5747
  203 413.646 2.25487 5.86480
  204 413.646 2.25487 5.86480
  205 462.580 -18.1675 -9.29543
  206 462.580 -18.1675 -9.29543
  207 505.601 -25.3045 -4.04560
  208 505.601 -25.3045 -4.04560
  209 31.6204 -187.268 15.8287
  210 31.6204 -187.268 15.8287
  211 426.403 2.21582 -14.6634
  212 426.403 2.21582 -14.6634
  213 422.884 3.30922 12.8045
  214 422.884 3.30922 12.8045
  215 406.781 -37.4076 -65.9961
  216 406.781 -37.4076 -65.9961
  217 475.015 -10.0826 -10.5119
  218 475.015 -10.0826 -10.5119
  219 389.445 14.0137 -22.7630
  220 389.445 14.0137 -22.7630
  221 107.369 -133.457 116.074
  222 107.369 -133.457 116.074
  223 481.568 2.26753 16.2889
  224 481.568 2.26753 16.2889
  225 468.169 11.9721 -13.8378
  226 468.169 11.9721 -13.8378
  227 664.361 39.6507 -30.7531
  228 664.361 39.6507 -30.7531
  229 507.387 -18.6762 -7.65929
  230 507.387 -18.6762 -7.65929
  231 553.215 -23.8969 -99.3712
  232 553.215 -23.8969 -99.3712
  233 408.204 -18.4244 50.7800
  234 408.204 -18.4244 50.7800
  235 400.333 11.2817 1.78217
  236 400.333 11.2817 1.78217
  237 213.096 -31.2127 95.6508
  238 213.096 -31.2127 95.6508
  239 529.416 -45.0180 115.978
  240 529.416 -45.0180 115.978
  241 145.069 -18.5026 -47.3527
  242 145.069 -18.5026 -47.3527
  243 472.086 -35.4995 -23.2029
  244 472.086 -35.4995 -23.2029
  245 385.656 17.3516 13.1513
  246 385.656 17.3516 13.1513
  247 13.7338 -244.107 -12.9172
  248 13.7338 -244.107 -12.9172
  249 26.5509 -214.269 42.7834
  250 26.5509 -214.269 42.7834
  251 392.524 2.72230 36.4837
  252 392.524 2.72230 36.4837
  253 409.828 1.55696 1.44617
  254 409.828 1.55696 1.44617
  255 406.395 6.55479 0.275447
  256 406.395 6.55479 0.275447
  257 381.509 -4.72069 -48.5218
  258 381.509 -4.72069 -48.5218
  259 410.066 1.41867 -1.53190
  260 410.066 1.41867 -1.53190
  261 453.274 -31.9714 30.6676
  262 453.274 -31.9714 30.6676
  263 420.854 1.47946 -7.12397
  264 420.854 1.47946 -7.12397
  265 326.404 -27.6487 -90.2489
  266 326.404 -27.6487 -90.2489
  267 554.705 42.6545 -1.28623
  268 554.705 42.6545 -1.28623
  269 405.857 8.97795 -18.5300
  270 405.857 8.97795 -18.5300
  271 404.310 8.40223 -3.69247
  272 404.310 8.40223 -3.69247
  273 344.117 16.7119 -33.3499
  274 344.117 16.7119 -33.3499
  275 105.037 -40.1897 27.3436
  276 105.037 -40.1897 27.3436
  277 432.856 -71.9812 92.5908
  278 432.856 -71.9812 92.5908
  279 408.594 6.06434 7.21993
  280 408.594 6.06434 7.21993
  281 604.759 42.7397 -9.68710
  282 604.759 42.7397 -9.68710
  283 721.668 62.7171 85.7373
  284 721.668 62.7171 85.7373
  285 485.918 -51.6424 30.7205
  286 485.918 -51.6424 30.7205
  287 350.907 17.5331 24.4504
  288 350.907 17.5331 24.4504
  289 444.913 -88.6666 122.187
  290 444.913 -88.6666 122.187
  291 458.743 -5.42229 11.3790
  292 458.743 -5.42229 11.3790
  293 408.345 3.99483 1.97898
  294 408.345 3.99483 1.97898
  295 402.615 11.0216 -11.8035
  296 402.615 11.0216 -11.8035
  297 406.495 6.44986 -0.543593
  298 406.495 6.44986 -0.543593
  299 412.257 1.13650 -2.76452
  300 412.257 1.13650 -2.76452
  301 420.484 2.07688 7.15169
  302 420.484 2.07688 7.15169
  303 400.443 11.2219 -3.02971
  304 400.443 11.2219 -3.02971
  305 92.1217 -155.669 -110.478
  306 92.1217 -155.669 -110.478
  307 275.639 18.0014 22.7779
  308 275.639 18.0014 22.7779
  309 408.789 3.33425 -1.90099
  310 408.789 3.33425 -1.90099
  311 360.636 20.7364 -16.3747
  312 360.636 20.7364 -16.3747
  313 361.557 22.6108 6.23863
  314 361.557 22.6108 6.23863
  315 407.941 5.83142 -5.11442
  316 407.941 5.83142 -5.11442
  317 546.237 29.0396 -2.61042
  318 546.237 29.0396 -2.61042
  319 404.926 9.76642 16.2269
  320 404.926 9.76642 16.2269
  321 516.053 16.3744 -13.1629
  322 516.053 16.3744 -13.1629
  323 757.529 21.3934 51.2045
  324 757.529 21.3934 51.2045
  325 403.432 10.1119 10.1933
  326 403.432 10.1119 10.1933
  327 397.114 13.3851 5.33216
  328 397.114 13.3851 5.33216
  329 310.480 -65.3575 -173.734
  330 310.480 -65.3575 -173.734
  331 412.499 1.02731 2.70427
  332 412.499 1.02731 2.70427
  333 403.926 8.46583 2.75949
  334 403.926 8.46583 2.75949
  335 389.197 17.3614 0.611327
  336 389.197 17.3614 0.611327
  337 201.703 -71.2322 139.480
  338 201.703 -71.2322 139.480
  339 501.048 32.8759 2.32346
  340 501.048 32.8759 2.32346
  341 28.7363 -209.784 -49.4123
  342 28.7363 -209.784 -49.4123
  343 313.549 19.7807 20.2561
  344 313.549 19.7807 20.2561
  345 716.887 9.71471 7.02654
  346 716.887 9.71471 7.02654
  347 748.611 38.1111 -52.8323
  348 748.611 38.1111 -52.8323
  349 352.957 -40.8395 100.981
  350 368.095 -20.9885 74.6506
  351 352.957 -40.8395 100.981
  352 368.095 -20.9885 74.6506
  353 727.271 18.0305 26.6977
  354 727.271 18.0305 26.6977
  355 417.718 -0.611308 28.4534
  356 417.718 -0.611308 28.4534
  357 493.660 -66.6537 -72.1067
  358 493.660 -66.6537 -72.1067
  359 469.907 -4.03020 13.3887
  360 469.907 -4.03020 13.3887
  361 317.410 -65.4630 189.954
  362 317.410 -65.4630 189.954
  363 548.643 43.9910 -1.45735
  364 548.643 43.9910 -1.45735
  365 726.488 6.57142 -5.56612
  366 726.488 6.57142 -5.56612
  367 444.265 0.190600 -13.8937
  368 444.265 0.190600 -13.8937
  369 397.117 14.2360 -6.38503
  370 397.117 14.2360 -6.38503
  371 611.952 47.5571 16.1138
  372 611.952 47.5571 16.1138
  373 470.602 19.7120 -2.92683
  374 470.602 19.7120 -2.92683
  375 428.313 1.61166 -8.84932
  376 428.313 1.61166 -8.84932
  377 117.268 -57.5778 -80.2241
  378 117.268 -57.5778 -80.2241
  379 473.372 -8.53652 3.50882
  380 473.372 -8.53652 3.50882
  381 405.551 -0.669835 -33.5925
  382 405.551 -0.669835 -33.5925
  383 466.726 -0.940682 -16.0102
  384 466.726 -0.940682 -16.0102
  385 729.944 12.8352 -22.0822
  386 729.944 12.8352 -22.0822
  387 406.936 6.24108 4.04280
  388 406.936 6.24108 4.04280
  389 496.024 24.3351 13.1745
  390 496.024 24.3351 13.1745
  391 534.170 -11.2101 6.06055
  392 534.170 -11.2101 6.06055
  393 408.424 7.34014 -9.03473
  394 408.424 7.34014 -9.03473
  395 772.349 73.8501 -99.3368
  396 772.349 73.8501 -99.3368
  397 467.070 -6.83973 -4.97614
  398 467.070 -6.83973 -4.97614
</Section>

newXOutput 121

<Section columns = "stress_xx | stress_yy | stress_xy">
  1 412.369 0.403045 -0.456476
  2 412.557 0.499021 0.615428
  3 412.369 0.403045 -0.456476
  4 412.557 0.499021 0.615428
  5 630.996 44.9545 179.570
  6 655.386 43.8889 -176.695
  7 630.996 44.9545 179.570
  8 655.386 43.8889 -176.695
  9 413.379 0.283285 -1.19880
  10 416.727 0.500161 -2.13247
  11 421.575 1.13172 -4.33394
  12 432.730 0.420017 -5.83357
  13 447.097 0.687174 -9.58994
  14 463.967 -4.16331 -9.49759
  15 479.560 -4.99900 -1.18643
  16 472.570 -3.41675 7.75677
  17 455.203 3.60029 13.7606
  18 445.722 8.79070 -0.537735
  19 452.609 4.20980 -12.9306
  20 472.111 -5.08485 -9.44887
  21 475.231 -6.07185 3.30658
  22 466.371 -2.74725 8.19257
  23 444.113 0.119859 9.65174
  24 431.760 1.61383 7.39036
  25 421.871 1.29885 4.16400
  26 416.809 0.402335 1.95347
  27 413.610 0.335260 1.15807
  28 413.154 1.47230 0.718636
  29 412.431 3.01799 0.836576
  30 410.652 5.24066 0.744926
  31 409.941 6.09245 -0.0721441
  32 410.850 4.97234 -0.892801
  33 412.124 3.29032 -0.759306
  34 412.682 1.67025 -0.805305
  35 413.379 0.283285 -1.19880
  36 416.727 0.500161 -2.13247
  37 421.575 1.13172 -4.33394
  38 432.730 0.420017 -5.83357
  39 447.097 0.687174 -9.58994
  40 463.967 -4.16331 -9.49759
  41 479.560 -4.99900 -1.18643
  42 472.570 -3.41675 7.75677
  43 455.203 3.60029 13.7606
  44 445.722 8.79070 -0.537735
  45 452.609 4.20980 -12.9306
  46 472.111 -5.08485 -9.44887
  47 475.231 -6.07185 3.30658
  48 466.371 -2.74725 8.19257
  49 444.113 0.119859 9.65174
  50 431.760 1.61383 7.39036
  51 421.871 1.29885 4.16400
  52 416.809 0.402335 1.95347
  53 413.610 0.335260 1.15807
  54 413.154 1.47230 0.718636
  55 412.431 3.01799 0.836576
  56 410.652 5.24066 0.744926
  57 409.941 6.09245 -0.0721441
  58 410.850 4.97234 -0.892801
  59 412.124 3.29032 -0.759306
  60 412.682 1.67025 -0.805305
  61 872.143 45.9506 91.7945
  62 795.755 12.9726 32.3403
  63 751.017 5.35137 11.8996
  64 741.434 3.88748 2.30458
  65 750.609 5.16678 -10.1542
  66 784.786 11.1117 -28.0275
  67 880.359 39.9844 -79.0485
  68 117.195 -126.833 -147.765
  69 23.1954 -299.946 -38.5867
  70 6.32989 -343.080 -16.8482
  71 6.05896 -337.103 -8.32945
  72 10.5311 -327.455 18.0370
  73 25.2333 -290.666 40.8904
  74 126.883 -117.949 163.665
  75 872.143 45.9506 91.7945
  76 795.755 12.9726 32.3403
  77 751.017 5.35137 11.8996
  78 741.434 3.88748 2.30458
  79 750.609 5.16678 -10.1542
  80 784.786 11.1117 -28.0275
  81 880.359 39.9844 -79.0485
  82 117.195 -126.833 -147.765
  83 23.1954 -299.946 -38.5867
  84 6.32989 -343.080 -16.8482
  85 6.05896 -337.103 -8.32945
  86 10.5311 -327.455 18.0370
  87 25.2333 -290.666 40.8904
  88 126.883 -117.949 163.665
  89 379.542 21.6338 -5.61256
  90 379.542 21.6338 -5.61256
  91 346.700 4.83601 50.9183
  92 333.185 -2.02936 -60.8351
  93 346.700 4.83601 50.9183
  94 333.185 -2.02936 -60.8351
  95 197.301 5.33956 24.5363
  96 197.301 5.33956 24.5363
  97 508.159 32.8027 -7.51216
  98 517.473 18.9740 14.9235
  99 508.159 32.8027 -7.51216
  100 517.473 18.9740 14.9235
  101 406.692 9.77495 5.57702
  102 406.692 9.77495 5.57702
  103 485.535 -27.6312 1.23250
  104 485.535 -27.6312 1.23250
  105 407.174 10.2206 -6.88367
  106 407.174 10.2206 -6.88367
  107 476.725 -58.9655 -54.2868
  108 476.725 -58.9655 -54.2868
  109 334.261 -69.7339 134.932
  110 334.261 -69.7339 134.932
  111 226.593 -40.7255 -108.962
  112 226.593 -40.7255 -108.962
  113 408.760 6.81700 24.0725
  114 408.760 6.81700 24.0725
  115 423.465 2.82210 -23.0460
  116 423.465 2.82210 -23.0460
  117 573.411 38.9509 6.79992
  118 613.807 39.6483 3.70137
  119 573.411 38.9509 6.79992
  120 613.807 39.6483 3.70137
  121 601.281 50.9975 -16.5766
  122 601.281 50.9975 -16.5766
  123 66.4898 -108.128 -36.0632
  124 66.4898 -108.128 -36.0632
  125 517.272 -64.0608 59.1628
  126 517.272 -64.0608 59.1628
  127 437.635 -10.6005 27.3216
  128 437.635 -10.6005 27.3216
  129 101.228 -93.2889 82.7036
  130 101.228 -93.2889 82.7036
  131 407.265 8.16035 -0.351276
  132 407.265 8.16035 -0.351276
  133 436.885 -20.4186 -34.8976
  134 436.885 -20.4186 -34.8976
  135 413.566 3.34334 4.02896
  136 413.566 3.34334 4.02896
  137 413.917 2.94164 -3.75795
  138 413.917 2.94164 -3.75795
  139 418.392 5.71957 -12.0568
  140 418.392 5.71957 -12.0568
  141 416.513 5.57485 10.8527
  142 416.513 5.57485 10.8527
  143 399.216 13.6154 -0.443717
  144 399.216 13.6154 -0.443717
  145 334.491 22.1477 -2.60831
  146 334.491 22.1477 -2.60831
  147 483.269 -17.2116 6.84293
  148 483.269 -17.2116 6.84293
  149 551.212 -18.6210 -22.9561
  150 551.212 -18.6210 -22.9561
  151 426.576 -47.6753 67.1736
  152 426.576 -47.6753 67.1736
  153 322.145 -86.9661 -152.036
  154 322.145 -86.9661 -152.036
  155 380.341 15.5469 22.9503
  156 380.341 15.5469 22.9503
  157 491.764 -2.88897 -17.2852
  158 491.764 -2.88897 -17.2852
  159 668.752 53.4690 38.9268
  160 668.752 53.4690 38.9268
  161 335.424 -93.3367 175.729
  162 335.424 -93.3367 175.729
  163 682.530 22.4078 -7.85783
  164 682.530 22.4078 -7.85783
  165 397.636 13.5784 10.6320
  166 397.636 13.5784 10.6320
  167 377.984 12.8574 -33.6205
  168 377.984 12.8574 -33.6205
  169 467.787 14.2100 10.5322
  170 467.787 14.2100 10.5322
  171 393.978 16.2101 -12.0816
  172 393.978 16.2101 -12.0816
  173 409.686 6.55856 1.76188
  174 409.686 6.55856 1.76188
  175 416.309 3.18282 -6.40747
  176 416.309 3.18282 -6.40747
  177 641.597 51.2878 -39.1996
  178 641.597 51.2878 -39.1996
  179 410.005 6.38408 -2.12694
  180 410.005 6.38408 -2.12694
  181 303.497 22.2031 -17.5337
  182 303.497 22.2031 -17.5337
  183 544.920 40.4113 2.81846
  184 544.920 40.4113 2.81846
  185 110.961 -91.6264 -106.649
  186 110.961 -91.6264 -106.649
  187 298.892 -3.13641 74.1314
  188 298.892 -3.13641 74.1314
  189 398.000 -64.3629 -104.574
  190 398.000 -64.3629 -104.574
  191 469.936 -12.9556 6.03511
  192 469.936 -12.9556 6.03511
  193 439.870 -1.52010 16.7985
  194 439.870 -1.52010 16.7985
  195 596.609 18.3690 37.0588
  196 596.609 18.3690 37.0588
  197 249.644 8.07400 -45.8275
  198 249.644 8.07400 -45.8275
  199 676.887 30.1390 18.0607
  200 676.887 30.1390 18.0607
  201 448.000 -5.53172 -17.7169
  202 448.000 -5.53172 -17.7169
  203 416.952 2.27208 5.90788
  204 416.952 2.27208 5.90788
  205 466.255 -18.3154 -9.38346
  206 466.255 -18.3154 -9.38346
  207 509.600 -25.4977 -4.11669
  208 509.600 -25.4977 -4.11669
  209 31.8757 -188.780 15.9719
  210 31.8757 -188.780 15.9719
  211 429.803 2.23139 -14.7757
  212 429.803 2.23139 -14.7757
  213 426.258 3.33417 12.9018
  214 426.258 3.33417 12.9018
  215 410.024 -37.7097 -66.5333
  216 410.024 -37.7097 -66.5333
  217 478.796 -10.1631 -10.5744
  218 478.796 -10.1631 -10.5744
  219 392.575 14.1237 -22.9400
  220 392.575 14.1237 -22.9400
  221 108.232 -134.492 117.086
  222 108.232 -134.492 117.086
  223 485.410 2.29214 16.3928
  224 485.410 2.29214 16.3928
  225 471.922 12.0726 -13.9308
  226 471.922 12.0726 -13.9308
  227 669.535 39.9580 -31.0139
  228 669.535 39.9580 -31.0139
  229 511.402 -18.8160 -7.68062
  230 511.402 -18.8160 -7.68062
  231 557.534 -24.0249 -100.235
  232 557.534 -24.0249 -100.235
  233 411.464 -18.5728 51.1879
  234 411.464 -18.5728 51.1879
  235 403.546 11.3689 1.79545
  236 403.546 11.3689 1.79545
  237 214.836 -31.4566 96.4419
  238 214.836 -31.4566 96.4419
  239 533.548 -45.3269 116.970
  240 533.548 -45.3269 116.970
  241 146.275 -18.6315 -47.7481
  242 146.275 -18.6315 -47.7481
  243 475.826 -35.7847 -23.4093
  244 475.826 -35.7847 -23.4093
  245 388.760 17.4877 13.2524
  246 388.760 17.4877 13.2524
  247 13.8376 -246.102 -13.0369
  248 13.8376 -246.102 -13.0369
  249 26.7623 -215.996 43.1767
  250 26.7623 -215.996 43.1767
  251 395.673 2.74332 36.7717
  252 395.673 2.74332 36.7717
  253 413.107 1.56906 1.45657
  254 413.107 1.56906 1.45657
  255 409.650 6.60490 0.277469
  256 409.650 6.60490 0.277469
  257 384.572 -4.75915 -48.9087
  258 384.572 -4.75915 -48.9087
  259 413.347 1.42976 -1.54293
  260 413.347 1.42976 -1.54293
  261 456.873 -32.2290 30.9268
  262 456.873 -32.2290 30.9268
  263 424.211 1.49055 -7.17670
  264 424.211 1.49055 -7.17670
  265 329.032 -27.8718 -90.9813
  266 329.032 -27.8718 -90.9813
  267 559.101 42.9973 -1.26912
  268 559.101 42.9973 -1.26912
  269 409.109 9.04717 -18.6719
  270 409.109 9.04717 -18.6719
  271 407.551 8.46692 -3.71961
  272 407.551 8.46692 -3.71961
  273 346.905 16.8464 -33.6137
  274 346.905 16.8464 -33.6137
  275 105.914 -40.4851 27.5761
  276 105.914 -40.4851 27.5761
  277 436.279 -72.5622 93.3553
  278 436.279 -72.5622 93.3553
  279 411.865 6.11104 7.27325
  280 411.865 6.11104 7.27325
  281 609.517 43.0720 -9.77756
  282 609.517 43.0720 -9.77756
  283 727.235 63.2626 86.4574
  284 727.235 63.2626 86.4574
  285 489.755 -52.0530 30.9972
  286 489.755 -52.0530 30.9972
  287 353.748 17.6735 24.6421
  288 353.748 17.6735 24.6421
  289 448.415 -89.3781 123.199
  290 448.415 -89.3781 123.199
  291 462.384 -5.46741 11.4729
  292 462.384 -5.46741 11.4729
  293 411.614 4.02554 1.99332
  294 411.614 4.02554 1.99332
  295 405.843 11.1070 -11.8924
  296 405.843 11.1070 -11.8924
  297 409.752 6.49919 -0.547536
  298 409.752 6.49919 -0.547536
  299 415.553 1.14530 -2.78457
  300 415.553 1.14530 -2.78457
  301 423.839 2.09262 7.20462
  302 423.839 2.09262 7.20462
  303 403.657 11.3086 -3.05225
  304 403.657 11.3086 -3.05225
  305 92.8589 -156.873 -111.448
  306 92.8589 -156.873 -111.448
  307 277.897 18.1517 22.9600
  308 277.897 18.1517 22.9600
  309 412.060 3.35996 -1.91472
  310 412.060 3.35996 -1.91472
  311 363.553 20.9009 -16.5028
  312 363.553 20.9009 -16.5028
  313 364.481 22.7902 6.28696
  314 364.481 22.7902 6.28696
  315 411.207 5.87633 -5.15197
  316 411.207 5.87633 -5.15197
  317 550.555 29.2918 -2.68113
  318 550.555 29.2918 -2.68113
  319 408.171 9.84203 16.3502
  320 408.171 9.84203 16.3502
  321 520.150 16.5164 -13.2297
  322 520.150 16.5164 -13.2297
  323 763.338 21.5529 51.6103
  324 763.338 21.5529 51.6103
  325 406.667 10.1901 10.2697
  326 406.667 10.1901 10.2697
  327 400.303 13.4888 5.37212
  328 400.303 13.4888 5.37212
  329 312.917 -65.7632 -175.215
  330 312.917 -65.7632 -175.215
  331 415.797 1.03525 2.72386
  332 415.797 1.03525 2.72386
  333 407.164 8.53095 2.77980
  334 407.164 8.53095 2.77980
  335 392.329 17.4969 0.615939
  336 392.329 17.4969 0.615939
  337 203.338 -71.8010 140.654
  338 203.338 -71.8010 140.654
  339 505.051 33.1425 2.33551
  340 505.051 33.1425 2.33551
  341 28.9619 -211.473 -49.8590
  342 28.9619 -211.473 -49.8590
  343 316.104 19.9414 20.4161
  344 316.104 19.9414 20.4161
  345 722.394 9.78447 7.07840
  346 722.394 9.78447 7.07840
  347 754.370 38.4145 -53.2557
  348 754.370 38.4145 -53.2557
  349 355.782 -41.1704 101.801
  350 371.047 -21.1574 75.2495
  351 355.782 -41.1704 101.801
  352 371.047 -21.1574 75.2495
  353 732.860 18.1625 26.9042
  354 732.860 18.1625 26.9042
  355 421.056 -0.617832 28.6776
  356 421.056 -0.617832 28.6776
  357 497.538 -67.1799 -72.7212
  358 497.538 -67.1799 -72.7212
  359 473.657 -4.06060 13.4782
  360 473.657 -4.06060 13.4782
  361 319.886 -65.8765 191.562
  362 319.886 -65.8765 191.562
  363 552.999 44.3392 -1.46774
  364 552.999 44.3392 -1.46774
  365 732.056 6.61808 -5.60843
  366 732.056 6.61808 -5.60843
  367 447.795 0.190109 -14.0019
  368 447.795 0.190109 -14.0019
  369 400.306 14.3465 -6.43304
  370 400.306 14.3465 -6.43304
  371 616.761 47.9334 16.2683
  372 616.761 47.9334 16.2683
  373 474.379 19.8735 -2.94653
  374 474.379 19.8735 -2.94653
  375 431.724 1.62331 -8.91577
  376 431.724 1.62331 -8.91577
  377 118.245 -58.0207 -80.9074
  378 118.245 -58.0207 -80.9074
  379 477.134 -8.60547 3.52399
  380 477.134 -8.60547 3.52399
  381 408.797 -0.676864 -33.8587
  382 408.797 -0.676864 -33.8587
  383 470.459 -0.946615 -16.1186
  384 470.459 -0.946615 -16.1186
  385 735.549 12.9303 -22.2515
  386 735.549 12.9303 -22.2515
  387 410.196 6.28905 4.07241
  388 410.196 6.28905 4.07241
  389 499.981 24.5367 13.2548
  390 499.981 24.5367 13.2548
  391 538.380 -11.2797 6.15967
  392 538.380 -11.2797 6.15967
  393 411.694 7.39675 -9.10184
  394 411.694 7.39675 -9.10184
  395 778.271 74.5006 -100.163
  396 778.271 74.5006 -100.163
  397 470.775 -6.89651 -5.02161
  398 470.775 -6.89651 -5.02161
</Section>

newXOutput 122

<Section columns = "stress_xx | stress_yy | stress_xy">
  1 415.640 0.406304 -0.459689
  2 415.830 0.502991 0.619752
  3 415.640 0.406304 -0.459689
  4 415.830 0.502991 0.619752
  5 635.784 45.4611 181.056
  6 660.346 44.3932 -178.159
  7 635.784 45.4611 181.056
  8 660.346 44.3932 -178.159
  9 416.657 0.285515 -1.20730
  10 420.028 0.504024 -2.14771
  11 424.911 1.14030 -4.36530
  12 436.145 0.422972 -5.87641
  13 450.615 0.691460 -9.66236
  14 467.611 -4.19832 -9.57260
  15 483.326 -5.03993 -1.20099
  16 476.306 -3.44373 7.80692
  17 458.831 3.63176 13.8553
  18 449.290 8.86379 -0.541520
  19 456.219 4.24438 -13.0204
  20 475.845 -5.12533 -9.50971
  21 478.965 -6.12168 3.33887
  22 470.033 -2.77018 8.25777
  23 447.611 0.119321 9.72516
  24 435.168 1.62573 7.44487
  25 425.209 1.30871 4.19407
  26 420.111 0.405453 1.96741
  27 416.890 0.337918 1.16632
  28 416.431 1.48364 0.723672
  29 415.703 3.04103 0.842513
  30 413.912 5.28038 0.750256
  31 413.196 6.13854 -0.0726570
  32 414.111 5.01008 -0.899150
  33 415.393 3.31545 -0.764596
  34 415.955 1.68316 -0.811027
  35 416.657 0.285515 -1.20730
  36 420.028 0.504024 -2.14771
  37 424.911 1.14030 -4.36530
  38 436.145 0.422972 -5.87641
  39 450.615 0.691460 -9.66236
  40 467.611 -4.19832 -9.57260
  41 483.326 -5.03993 -1.20099
  42 476.306 -3.44373 7.80692
  43 458.831 3.63176 13.8553
  44 449.290 8.86379 -0.541520
  45 456.219 4.24438 -13.0204
  46 475.845 -5.12533 -9.50971
  47 478.965 -6.12168 3.33887
  48 470.033 -2.77018 8.25777
  49 447.611 0.119321 9.72516
  50 435.168 1.62573 7.44487
  51 425.209 1.30871 4.19407
  52 420.111 0.405453 1.96741
  53 416.890 0.337918 1.16632
  54 416.431 1.48364 0.723672
  55 415.703 3.04103 0.842513
  56 413.912 5.28038 0.750256
  57 413.196 6.13854 -0.0726570
  58 414.111 5.01008 -0.899150
  59 415.393 3.31545 -0.764596
  60 415.955 1.68316 -0.811027
  61 878.682 46.3221 92.5074
  62 801.746 13.0679 32.5822
  63 756.697 5.38694 11.9856
  64 747.046 3.91416 2.31963
  65 756.284 5.20318 -10.2272
  66 790.704 11.1923 -28.2346
  67 886.960 40.3068 -79.6629
  68 118.109 -127.688 -149.034
  69 23.3773 -302.356 -38.9542
  70 6.36807 -345.915 -17.0080
  71 6.09601 -339.897 -8.39823
  72 10.6062 -330.149 18.2089
  73 25.4343 -292.999 41.2815
  74 127.863 -118.733 165.065
  75 878.682 46.3221 92.5074
  76 801.746 13.0679 32.5822
  77 756.697 5.38694 11.9856
  78 747.046 3.91416 2.31963
  79 756.284 5.20318 -10.2272
  80 790.704 11.1923 -28.2346
  81 886.960 40.3068 -79.6629
  82 118.109 -127.688 -149.034
  83 23.3773 -302.356 -38.9542
  84 6.36807 -345.915 -17.0080
  85 6.09601 -339.897 -8.39823
  86 10.6062 -330.149 18.2089
  87 25.4343 -292.999 41.2815
  88 127.863 -118.733 165.065
  89 382.578 21.8025 -5.65560
  90 382.578 21.8025 -5.65560
  91 349.477 4.87588 51.3196
  92 335.857 -2.04399 -61.3181
  93 349.477 4.87588 51.3196
  94 335.857 -2.04399 -61.3181
  95 198.923 5.39645 24.7349
  96 198.923 5.39645 24.7349
  97 512.180 33.0669 -7.55567
  98 521.548 19.1360 15.0024
  99 512.180 33.0669 -7.55567
  100 521.548 19.1360 15.0024
  101 409.924 9.84967 5.61797
  102 409.924 9.84967 5.61797
  103 489.352 -27.8490 1.27032
  104 489.352 -27.8490 1.27032
  105 410.410 10.2989 -6.93435
  106 410.410 10.2989 -6.93435
  107 480.456 -59.4345 -54.7404
  108 480.456 -59.4345 -54.7404
  109 336.909 -70.2945 136.033
  110 336.909 -70.2945 136.033
  111 228.419 -41.0452 -109.858
  112 228.419 -41.0452 -109.858
  113 412.006 6.86873 24.2574
  114 412.006 6.86873 24.2574
  115 426.818 2.84196 -23.2243
  116 426.818 2.84196 -23.2243
  117 577.898 39.2753 6.90282
  118 618.589 39.9507 3.73814
  119 577.898 39.2753 6.90282
  120 618.589 39.9507 3.73814
  121 605.976 51.4077 -16.7448
  122 605.976 51.4077 -16.7448
  123 67.0336 -108.967 -36.3767
  124 67.0336 -108.967 -36.3767
  125 521.298 -64.5521 59.6773
  126 521.298 -64.5521 59.6773
  127 441.091 -10.6864 27.5412
  128 441.091 -10.6864 27.5412
  129 102.054 -94.0088 83.4136
  130 102.054 -94.0088 83.4136
  131 410.502 8.22247 -0.353787
  132 410.502 8.22247 -0.353787
  133 440.333 -20.5827 -35.1811
  134 440.333 -20.5827 -35.1811
  135 416.846 3.36890 4.05804
  136 416.846 3.36890 4.05804
  137 417.199 2.96420 -3.78500
  138 417.199 2.96420 -3.78500
  139 421.706 5.76288 -12.1466
  140 421.706 5.76288 -12.1466
  141 419.814 5.61726 10.9331
  142 419.814 5.61726 10.9331
  143 402.396 13.7200 -0.447126
  144 402.396 13.7200 -0.447126
  145 337.188 22.3237 -2.62908
  146 337.188 22.3237 -2.62908
  147 487.076 -17.3460 6.87235
  148 487.076 -17.3460 6.87235
  149 555.506 -18.7376 -23.1962
  150 555.506 -18.7376 -23.1962
  151 429.936 -48.0571 67.7178
  152 429.936 -48.0571 67.7178
  153 324.679 -87.6442 -153.303
  154 324.679 -87.6442 -153.303
  155 383.379 15.6688 23.1275
  156 383.379 15.6688 23.1275
  157 495.642 -2.90667 -17.3911
  158 495.642 -2.90667 -17.3911
  159 673.918 53.8978 39.2620
  160 673.918 53.8978 39.2620
  161 338.059 -94.0741 177.181
  162 338.059 -94.0741 177.181
  163 687.775 22.5718 -7.92065
  164 687.775 22.5718 -7.92065
  165 400.803 13.6830 10.7118
  166 400.803 13.6830 10.7118
  167 381.002 12.9586 -33.8825
  168 381.002 12.9586 -33.8825
  169 471.511 14.3278 10.6036
  170 471.511 14.3278 10.6036
  171 397.119 16.3354 -12.1729
  172 397.119 16.3354 -12.1729
  173 412.939 6.60839 1.77461
  174 412.939 6.60839 1.77461
  175 419.608 3.20701 -6.45417
  176 419.608 3.20701 -6.45417
  177 646.564 51.7249 -39.5630
  178 646.564 51.7249 -39.5630
  179 413.260 6.43266 -2.14227
  180 413.260 6.43266 -2.14227
  181 305.953 22.3833 -17.6724
  182 305.953 22.3833 -17.6724
  183 549.208 40.7353 2.81296
  184 549.208 40.7353 2.81296
  185 111.860 -92.3331 -107.560
  186 111.860 -92.3331 -107.560
  187 301.297 -3.15785 74.7234
  188 301.297 -3.15785 74.7234
  189 401.134 -64.8790 -105.427
  190 401.134 -64.8790 -105.427
  191 473.637 -13.0601 6.09558
  192 473.637 -13.0601 6.09558
  193 443.341 -1.53416 16.9293
  194 443.341 -1.53416 16.9293
  195 601.242 18.5544 37.4147
  196 601.242 18.5544 37.4147
  197 251.675 8.14688 -46.1961
  198 251.675 8.14688 -46.1961
  199 682.101 30.3643 18.2083
  200 682.101 30.3643 18.2083
  201 451.532 -5.57783 -17.8591
  202 451.532 -5.57783 -17.8591
  203 420.255 2.28928 5.95086
  204 420.255 2.28928 5.95086
  205 469.926 -18.4632 -9.47164
  206 469.926 -18.4632 -9.47164
  207 513.594 -25.6907 -4.18833
  208 513.594 -25.6907 -4.18833
  209 32.1309 -190.290 16.1152
  210 32.1309 -190.290 16.1152
  211 433.200 2.24691 -14.8879
  212 433.200 2.24691 -14.8879
  213 429.628 3.35907 12.9989
  214 429.628 3.35907 12.9989
  215 413.264 -38.0116 -67.0702
  216 413.264 -38.0116 -67.0702
  217 482.574 -10.2436 -10.6366
  218 482.574 -10.2436 -10.6366
  219 395.704 14.2335 -23.1168
  220 395.704 14.2335 -23.1168
  221 109.094 -135.527 118.098
  222 109.094 -135.527 118.098
  223 489.248 2.31683 16.4961
  224 489.248 2.31683 16.4961
  225 475.673 12.1731 -14.0234
  226 475.673 12.1731 -14.0234
  227 674.703 40.2649 -31.2747
  228 674.703 40.2649 -31.2747
  229 515.413 -18.9556 -7.70130
  230 515.413 -18.9556 -7.70130
  231 561.847 -24.1517 -101.099
  232 561.847 -24.1517 -101.099
  233 414.720 -18.7211 51.5954
  234 414.720 -18.7211 51.5954
  235 406.757 11.4559 1.80870
  236 406.757 11.4559 1.80870
  237 216.575 -31.7001 97.2328
  238 216.575 -31.7001 97.2328
  239 537.675 -45.6347 117.963
  240 537.675 -45.6347 117.963
  241 147.481 -18.7599 -48.1435
  242 147.481 -18.7599 -48.1435
  243 479.562 -36.0696 -23.6159
  244 479.562 -36.0696 -23.6159
  245 391.863 17.6236 13.3533
  246 391.863 17.6236 13.3533
  247 13.9413 -248.095 -13.1567
  248 13.9413 -248.095 -13.1567
  249 26.9736 -217.723 43.5707
  250 26.9736 -217.723 43.5707
  251 398.820 2.76431 37.0593
  252 398.820 2.76431 37.0593
  253 416.383 1.58115 1.46695
  254 416.383 1.58115 1.46695
  255 412.904 6.65494 0.279485
  256 412.904 6.65494 0.279485
  257 387.634 -4.79759 -49.2953
  258 387.634 -4.79759 -49.2953
  259 416.625 1.44084 -1.55392
  260 416.625 1.44084 -1.55392
  261 460.468 -32.4864 31.1861
  262 460.468 -32.4864 31.1861
  263 427.566 1.50162 -7.22933
  264 427.566 1.50162 -7.22933
  265 331.658 -28.0947 -91.7131
  266 331.658 -28.0947 -91.7131
  267 563.493 43.3398 -1.25161
  268 563.493 43.3398 -1.25161
  269 412.358 9.11629 -18.8136
  270 412.358 9.11629 -18.8136
  271 410.789 8.53152 -3.74668
  272 410.789 8.53152 -3.74668
  273 349.690 16.9809 -33.8772
  274 349.690 16.9809 -33.8772
  275 106.790 -40.7799 27.8087
  276 106.790 -40.7799 27.8087
  277 439.699 -73.1429 94.1196
  278 439.699 -73.1429 94.1196
  279 415.134 6.15768 7.32647
  280 415.134 6.15768 7.32647
  281 614.270 43.4038 -9.86813
  282 614.270 43.4038 -9.86813
  283 732.793 63.8084 87.1775
  284 732.793 63.8084 87.1775
  285 493.589 -52.4632 31.2743
  286 493.589 -52.4632 31.2743
  287 356.587 17.8137 24.8337
  288 356.587 17.8137 24.8337
  289 451.913 -90.0890 124.212
  290 451.913 -90.0890 124.212
  291 466.023 -5.51253 11.5669
  292 466.023 -5.51253 11.5669
  293 414.880 4.05620 2.00763
  294 414.880 4.05620 2.00763
  295 409.069 11.1922 -11.9810
  296 409.069 11.1922 -11.9810
  297 413.006 6.54845 -0.551468
  298 413.006 6.54845 -0.551468
  299 418.846 1.15409 -2.80456
  300 418.846 1.15409 -2.80456
  301 427.192 2.10832 7.25744
  302 427.192 2.10832 7.25744
  303 406.868 11.3952 -3.07475
  304 406.868 11.3952 -3.07475
  305 93.5955 -158.076 -112.418
  306 93.5955 -158.076 -112.418
  307 280.154 18.3021 23.1419
  308 280.154 18.3021 23.1419
  309 415.329 3.38563 -1.92842
  310 415.329 3.38563 -1.92842
  311 366.467 21.0653 -16.6308
  312 366.467 21.0653 -16.6308
  313 367.404 22.9693 6.33524
  314 367.404 22.9693 6.33524
  315 414.471 5.92117 -5.18944
  316 414.471 5.92117 -5.18944
  317 554.870 29.5440 -2.75255
  318 554.870 29.5440 -2.75255
  319 411.414 9.91754 16.4733
  320 411.414 9.91754 16.4733
  321 524.243 16.6583 -13.2959
  322 524.243 16.6583 -13.2959
  323 769.139 21.7120 52.0157
  324 769.139 21.7120 52.0157
  325 409.899 10.2682 10.3459
  326 409.899 10.2682 10.3459
  327 403.490 13.5924 5.41202
  328 403.490 13.5924 5.41202
  329 315.351 -66.1667 -176.697
  330 315.351 -66.1667 -176.697
  331 419.092 1.04319 2.74341
  332 419.092 1.04319 2.74341
  333 410.400 8.59597 2.80006
  334 410.400 8.59597 2.80006
  335 395.459 17.6322 0.620542
  336 395.459 17.6322 0.620542
  337 204.972 -72.3693 141.827
  338 204.972 -72.3693 141.827
  339 509.051 33.4089 2.34745
  340 509.051 33.4089 2.34745
  341 29.1872 -213.161 -50.3062
  342 29.1872 -213.161 -50.3062
  343 318.659 20.1020 20.5760
  344 318.659 20.1020 20.5760
  345 727.894 9.85407 7.13016
  346 727.894 9.85407 7.13016
  347 760.121 38.7177 -53.6788
  348 760.121 38.7177 -53.6788
  349 358.605 -41.5011 102.620
  350 373.996 -21.3262 75.8479
  351 358.605 -41.5011 102.620
  352 373.996 -21.3262 75.8479
  353 738.442 18.2943 27.1104
  354 738.442 18.2943 27.1104
  355 424.391 -0.624377 28.9016
  356 424.391 -0.624377 28.9016
  357 501.413 -67.7055 -73.3358
  358 501.413 -67.7055 -73.3358
  359 477.405 -4.09095 13.5673
  360 477.405 -4.09095 13.5673
  361 322.360 -66.2878 193.171
  362 322.360 -66.2878 193.171
  363 557.351 44.6871 -1.47809
  364 557.351 44.6871 -1.47809
  365 737.616 6.66461 -5.65066
  366 737.616 6.66461 -5.65066
  367 451.322 0.189587 -14.1099
  368 451.322 0.189587 -14.1099
  369 403.493 14.4569 -6.48096
  370 403.493 14.4569 -6.48096
  371 621.565 48.3093 16.4231
  372 621.565 48.3093 16.4231
  373 478.153 20.0349 -2.96615
  374 478.153 20.0349 -2.96615
  375 435.132 1.63494 -8.98210
  376 435.132 1.63494 -8.98210
  377 119.222 -58.4629 -81.5907
  378 119.222 -58.4629 -81.5907
  379 480.892 -8.67437 3.53896
  380 480.892 -8.67437 3.53896
  381 412.041 -0.683914 -34.1247
  382 412.041 -0.683914 -34.1247
  383 474.190 -0.952516 -16.2266
  384 474.190 -0.952516 -16.2266
  385 741.147 13.0252 -22.4205
  386 741.147 13.0252 -22.4205
  387 413.452 6.33694 4.10196
  388 413.452 6.33694 4.10196
  389 503.936 24.7383 13.3346
  390 503.936 24.7383 13.3346
  391 542.586 -11.3489 6.25950
  392 542.586 -11.3489 6.25950
  393 414.961 7.45327 -9.16882
  394 414.961 7.45327 -9.16882
  395 784.185 75.1514 -100.989
  396 784.185 75.1514 -100.989
  397 474.476 -6.95327 -5.06714
  398 474.476 -6.95327 -5.06714
</Section>

newXOutput 123

<Section columns = "stress_xx | stress_yy | stress_xy">
  1 418.908 0.409563 -0.462894
  2 419.100 0.506959 0.624065
  3 418.908 0.409563 -0.462894
  4 419.100 0.506959 0.624065
  5 640.564 45.9697 182.541
  6 665.297 44.8996 -179.622
  7 640.564 45.9697 182.541
  8 665.297 44.8996 -179.622
  9 419.932 0.287743 -1.21577
  10 423.327 0.507882 -2.16291
  11 428.243 1.14886 -4.39660
  12 439.556 0.425919 -5.91916
  13 454.130 0.695726 -9.73467
  14 471.251 -4.23333 -9.64754
  15 487.090 -5.08084 -1.21562
  16 480.038 -3.47069 7.85687
  17 462.456 3.66325 13.9497
  18 452.855 8.93688 -0.545294
  19 459.827 4.27895 -13.1099
  20 479.575 -5.16578 -9.57029
  21 482.697 -6.17150 3.37121
  22 473.692 -2.79312 8.32292
  23 451.106 0.118759 9.79847
  24 438.573 1.63762 7.49927
  25 428.543 1.31854 4.22407
  26 423.411 0.408568 1.98131
  27 420.168 0.340573 1.17454
  28 419.705 1.49496 0.728694
  29 418.972 3.06405 0.848434
  30 417.169 5.32005 0.755572
  31 416.449 6.18455 -0.0731685
  32 417.370 5.04776 -0.905482
  33 418.660 3.34054 -0.769871
  34 419.226 1.69607 -0.816733
  35 419.932 0.287743 -1.21577
  36 423.327 0.507882 -2.16291
  37 428.243 1.14886 -4.39660
  38 439.556 0.425919 -5.91916
  39 454.130 0.695726 -9.73467
  40 471.251 -4.23333 -9.64754
  41 487.090 -5.08084 -1.21562
  42 480.038 -3.47069 7.85687
  43 462.456 3.66325 13.9497
  44 452.855 8.93688 -0.545294
  45 459.827 4.27895 -13.1099
  46 479.575 -5.16578 -9.57029
  47 482.697 -6.17150 3.37121
  48 473.692 -2.79312 8.32292
  49 451.106 0.118759 9.79847
  50 438.573 1.63762 7.49927
  51 428.543 1.31854 4.22407
  52 423.411 0.408568 1.98131
  53 420.168 0.340573 1.17454
  54 419.705 1.49496 0.728694
  55 418.972 3.06405 0.848434
  56 417.169 5.32005 0.755572
  57 416.449 6.18455 -0.0731685
  58 417.370 5.04776 -0.905482
  59 418.660 3.34054 -0.769871
  60 419.226 1.69607 -0.816733
  61 885.210 46.6935 93.2196
  62 807.728 13.1630 32.8238
  63 762.368 5.42239 12.0715
  64 752.649 3.94077 2.33462
  65 761.951 5.23949 -10.3000
  66 796.612 11.2728 -28.4414
  67 893.551 40.6291 -80.2765
  68 119.023 -128.540 -150.304
  69 23.5589 -304.764 -39.3225
  70 6.40602 -348.750 -17.1682
  71 6.13284 -342.690 -8.46699
  72 10.6812 -332.842 18.3810
  73 25.6351 -295.331 41.6734
  74 128.841 -119.514 166.466
  75 885.210 46.6935 93.2196
  76 807.728 13.1630 32.8238
  77 762.368 5.42239 12.0715
  78 752.649 3.94077 2.33462
  79 761.951 5.23949 -10.3000
  80 796.612 11.2728 -28.4414
  81 893.551 40.6291 -80.2765
  82 119.023 -128.540 -150.304
  83 23.5589 -304.764 -39.3225
  84 6.40602 -348.750 -17.1682
  85 6.13284 -342.690 -8.46699
  86 10.6812 -332.842 18.3810
  87 25.6351 -295.331 41.6734
  88 128.841 -119.514 166.466
  89 385.611 21.9711 -5.69859
  90 385.611 21.9711 -5.69859
  91 352.253 4.91574 51.7204
  92 338.527 -2.05858 -61.8008
  93 352.253 4.91574 51.7204
  94 338.527 -2.05858 -61.8008
  95 200.544 5.45351 24.9335
  96 200.544 5.45351 24.9335
  97 516.198 33.3309 -7.59890
  98 525.620 19.2980 15.0807
  99 516.198 33.3309 -7.59890
  100 525.620 19.2980 15.0807
  101 413.154 9.92428 5.65884
  102 413.154 9.92428 5.65884
  103 493.166 -28.0666 1.30854
  104 493.166 -28.0666 1.30854
  105 413.643 10.3771 -6.98492
  106 413.643 10.3771 -6.98492
  107 484.183 -59.9032 -55.1939
  108 484.183 -59.9032 -55.1939
  109 339.554 -70.8548 137.133
  110 339.554 -70.8548 137.133
  111 230.244 -41.3646 -110.753
  112 230.244 -41.3646 -110.753
  113 415.248 6.92038 24.4420
  114 415.248 6.92038 24.4420
  115 430.167 2.86177 -23.4025
  116 430.167 2.86177 -23.4025
  117 582.381 39.5997 7.00637
  118 623.365 40.2527 3.77500
  119 582.381 39.5997 7.00637
  120 623.365 40.2527 3.77500
  121 610.666 51.8177 -16.9133
  122 610.666 51.8177 -16.9133
  123 67.5771 -109.805 -36.6904
  124 67.5771 -109.805 -36.6904
  125 525.319 -65.0427 60.1921
  126 525.319 -65.0427 60.1921
  127 444.544 -10.7724 27.7606
  128 444.544 -10.7724 27.7606
  129 102.881 -94.7278 84.1239
  130 102.881 -94.7278 84.1239
  131 413.736 8.28449 -0.356291
  132 413.736 8.28449 -0.356291
  133 443.778 -20.7466 -35.4646
  134 443.778 -20.7466 -35.4646
  135 420.123 3.39442 4.08706
  136 420.123 3.39442 4.08706
  137 420.479 2.98673 -3.81199
  138 420.479 2.98673 -3.81199
  139 425.018 5.80614 -12.2363
  140 425.018 5.80614 -12.2363
  141 423.113 5.65960 11.0134
  142 423.113 5.65960 11.0134
  143 405.573 13.8245 -0.450531
  144 405.573 13.8245 -0.450531
  145 339.883 22.4996 -2.64983
  146 339.883 22.4996 -2.64983
  147 490.879 -17.4801 6.90135
  148 490.879 -17.4801 6.90135
  149 559.796 -18.8536 -23.4370
  150 559.796 -18.8536 -23.4370
  151 433.292 -48.4387 68.2617
  152 433.292 -48.4387 68.2617
  153 327.211 -88.3216 -154.569
  154 327.211 -88.3216 -154.569
  155 386.415 15.7905 23.3045
  156 386.415 15.7905 23.3045
  157 499.516 -2.92426 -17.4965
  158 499.516 -2.92426 -17.4965
  159 679.078 54.3262 39.5972
  160 679.078 54.3262 39.5972
  161 340.691 -94.8109 178.632
  162 340.691 -94.8109 178.632
  163 693.014 22.7355 -7.98341
  164 693.014 22.7355 -7.98341
  165 403.968 13.7874 10.7915
  166 403.968 13.7874 10.7915
  167 384.018 13.0596 -34.1443
  168 384.018 13.0596 -34.1443
  169 475.232 14.4455 10.6748
  170 475.232 14.4455 10.6748
  171 400.257 16.4606 -12.2640
  172 400.257 16.4606 -12.2640
  173 416.190 6.65815 1.78731
  174 416.190 6.65815 1.78731
  175 422.904 3.23117 -6.50077
  176 422.904 3.23117 -6.50077
  177 651.526 52.1621 -39.9268
  178 651.526 52.1621 -39.9268
  179 416.513 6.48117 -2.15755
  180 416.513 6.48117 -2.15755
  181 308.408 22.5634 -17.8110
  182 308.408 22.5634 -17.8110
  183 553.492 41.0590 2.80705
  184 553.492 41.0590 2.80705
  185 112.759 -93.0389 -108.473
  186 112.759 -93.0389 -108.473
  187 303.700 -3.17923 75.3151
  188 303.700 -3.17923 75.3151
  189 404.266 -65.3948 -106.279
  190 404.266 -65.3948 -106.279
  191 477.335 -13.1646 6.15620
  192 477.335 -13.1646 6.15620
  193 446.809 -1.54824 17.0600
  194 446.809 -1.54824 17.0600
  195 605.870 18.7404 37.7713
  196 605.870 18.7404 37.7713
  197 253.704 8.21984 -46.5645
  198 253.704 8.21984 -46.5645
  199 687.308 30.5894 18.3559
  200 687.308 30.5894 18.3559
  201 455.062 -5.62393 -18.0011
  202 455.062 -5.62393 -18.0011
  203 423.556 2.30644 5.99375
  204 423.556 2.30644 5.99375
  205 473.594 -18.6110 -9.55995
  206 473.594 -18.6110 -9.55995
  207 517.585 -25.8833 -4.26053
  208 517.585 -25.8833 -4.26053
  209 32.3859 -191.799 16.2586
  210 32.3859 -191.799 16.2586
  211 436.593 2.26239 -14.9999
  212 436.593 2.26239 -14.9999
  213 432.997 3.38393 13.0958
  214 432.997 3.38393 13.0958
  215 416.502 -38.3132 -67.6068
  216 416.502 -38.3132 -67.6068
  217 486.348 -10.3241 -10.6983
  218 486.348 -10.3241 -10.6983
  219 398.830 14.3432 -23.2934
  220 398.830 14.3432 -23.2934
  221 109.956 -136.559 119.111
  222 109.956 -136.559 119.111
  223 493.083 2.34162 16.5990
  224 493.083 2.34162 16.5990
  225 479.421 12.2737 -14.1157
  226 479.421 12.2737 -14.1157
  227 679.865 40.5715 -31.5354
  228 679.865 40.5715 -31.5354
  229 519.420 -19.0948 -7.72133
  230 519.420 -19.0948 -7.72133
  231 566.155 -24.2774 -101.963
  232 566.155 -24.2774 -101.963
  233 417.974 -18.8693 52.0026
  234 417.974 -18.8693 52.0026
  235 409.965 11.5428 1.82192
  236 409.965 11.5428 1.82192
  237 218.313 -31.9434 98.0235
  238 218.313 -31.9434 98.0235
  239 541.797 -45.9414 118.956
  240 541.797 -45.9414 118.956
  241 148.686 -18.8879 -48.5388
  242 148.686 -18.8879 -48.5388
  243 483.295 -36.3544 -23.8227
  244 483.295 -36.3544 -23.8227
  245 394.962 17.7594 13.4541
  246 394.962 17.7594 13.4541
  247 14.0447 -250.087 -13.2767
  248 14.0447 -250.087 -13.2767
  249 27.1846 -219.448 43.9651
  250 27.1846 -219.448 43.9651
  251 401.965 2.78527 37.3467
  252 401.965 2.78527 37.3467
  253 419.657 1.59322 1.47730
  254 419.657 1.59322 1.47730
  255 416.154 6.70490 0.281498
  256 416.154 6.70490 0.281498
  257 390.692 -4.83601 -49.6816
  258 390.692 -4.83601 -49.6816
  259 419.900 1.45190 -1.56489
  260 419.900 1.45190 -1.56489
  261 464.060 -32.7437 31.4453
  262 464.060 -32.7437 31.4453
  263 430.917 1.51267 -7.28184
  264 430.917 1.51267 -7.28184
  265 334.282 -28.3174 -92.4446
  266 334.282 -28.3174 -92.4446
  267 567.880 43.6820 -1.23369
  268 567.880 43.6820 -1.23369
  269 415.604 9.18531 -18.9551
  270 415.604 9.18531 -18.9551
  271 414.025 8.59602 -3.77370
  272 414.025 8.59602 -3.77370
  273 352.474 17.1153 -34.1404
  274 352.474 17.1153 -34.1404
  275 107.666 -41.0740 28.0414
  276 107.666 -41.0740 28.0414
  277 443.115 -73.7231 94.8837
  278 443.115 -73.7231 94.8837
  279 418.399 6.20425 7.37957
  280 418.399 6.20425 7.37957
  281 619.018 43.7353 -9.95882
  282 619.018 43.7353 -9.95882
  283 738.344 64.3544 87.8974
  284 738.344 64.3544 87.8974
  285 497.419 -52.8731 31.5516
  286 497.419 -52.8731 31.5516
  287 359.424 17.9539 25.0251
  288 359.424 17.9539 25.0251
  289 455.407 -90.7993 125.224
  290 455.407 -90.7993 125.224
  291 469.658 -5.55764 11.6608
  292 469.658 -5.55764 11.6608
  293 418.144 4.08681 2.02190
  294 418.144 4.08681 2.02190
  295 412.293 11.2774 -12.0695
  296 412.293 11.2774 -12.0695
  297 416.257 6.59763 -0.555392
  298 416.257 6.59763 -0.555392
  299 422.137 1.16286 -2.82451
  300 422.137 1.16286 -2.82451
  301 430.541 2.12400 7.31014
  302 430.541 2.12400 7.31014
  303 410.077 11.4817 -3.09721
  304 410.077 11.4817 -3.09721
  305 94.3315 -159.278 -113.389
  306 94.3315 -159.278 -113.389
  307 282.409 18.4524 23.3237
  308 282.409 18.4524 23.3237
  309 418.596 3.41126 -1.94209
  310 418.596 3.41126 -1.94209
  311 369.380 21.2295 -16.7586
  312 369.380 21.2295 -16.7586
  313 370.325 23.1483 6.38344
  314 370.325 23.1483 6.38344
  315 417.731 5.96595 -5.22682
  316 417.731 5.96595 -5.22682
  317 559.180 29.7964 -2.82467
  318 559.180 29.7964 -2.82467
  319 414.653 9.99296 16.5963
  320 414.653 9.99296 16.5963
  321 528.333 16.8004 -13.3614
  322 528.333 16.8004 -13.3614
  323 774.931 21.8709 52.4207
  324 774.931 21.8709 52.4207
  325 413.128 10.3463 10.4220
  326 413.128 10.3463 10.4220
  327 406.675 13.6959 5.45183
  328 406.675 13.6959 5.45183
  329 317.782 -66.5679 -178.179
  330 317.782 -66.5679 -178.179
  331 422.384 1.05111 2.76291
  332 422.384 1.05111 2.76291
  333 413.634 8.66089 2.82028
  334 413.634 8.66089 2.82028
  335 398.586 17.7674 0.625138
  336 398.586 17.7674 0.625138
  337 206.606 -72.9371 143.001
  338 206.606 -72.9371 143.001
  339 513.048 33.6752 2.35927
  340 513.048 33.6752 2.35927
  341 29.4123 -214.847 -50.7540
  342 29.4123 -214.847 -50.7540
  343 321.212 20.2626 20.7357
  344 321.212 20.2626 20.7357
  345 733.386 9.92349 7.18181
  346 733.386 9.92349 7.18181
  347 765.864 39.0206 -54.1015
  348 765.864 39.0206 -54.1015
  349 361.425 -41.8316 103.439
  350 376.944 -21.4948 76.4458
  351 361.425 -41.8316 103.439
  352 376.944 -21.4948 76.4458
  353 744.016 18.4257 27.3162
  354 744.016 18.4257 27.3162
  355 427.723 -0.630943 29.1254
  356 427.723 -0.630943 29.1254
  357 505.283 -68.2306 -73.9505
  358 505.283 -68.2306 -73.9505
  359 481.149 -4.12124 13.6561
  360 481.149 -4.12124 13.6561
  361 324.830 -66.6970 194.780
  362 324.830 -66.6970 194.780
  363 561.698 45.0347 -1.48842
  364 561.698 45.0347 -1.48842
  365 743.167 6.71101 -5.69283
  366 743.167 6.71101 -5.69283
  367 454.845 0.189034 -14.2177
  368 454.845 0.189034 -14.2177
  369 406.677 14.5672 -6.52879
  370 406.677 14.5672 -6.52879
  371 626.364 48.6849 16.5781
  372 626.364 48.6849 16.5781
  373 481.924 20.1963 -2.98570
  374 481.924 20.1963 -2.98570
  375 438.538 1.64653 -9.04831
  376 438.538 1.64653 -9.04831
  377 120.200 -58.9046 -82.2742
  378 120.200 -58.9046 -82.2742
  379 484.647 -8.74323 3.55371
  380 484.647 -8.74323 3.55371
  381 415.283 -0.690985 -34.3904
  382 415.283 -0.690985 -34.3904
  383 477.917 -0.958385 -16.3342
  384 477.917 -0.958385 -16.3342
  385 746.736 13.1199 -22.5892
  386 746.736 13.1199 -22.5892
  387 416.707 6.38476 4.13145
  388 416.707 6.38476 4.13145
  389 507.887 24.9398 13.4141
  390 507.887 24.9398 13.4141
  391 546.787 -11.4177 6.36004
  392 546.787 -11.4177 6.36004
  393 418.225 7.50972 -9.23566
  394 418.225 7.50972 -9.23566
  395 790.090 75.8027 -101.815
  396 790.090 75.8027 -101.815
  397 478.174 -7.01002 -5.11272
  398 478.174 -7.01002 -5.11272
</Section>

newXOutput 124

<Section columns = "stress_xx | stress_yy | stress_xy">
  1 422.174 0.412819 -0.466090
  2 422.367 0.510923 0.628365
  3 422.174 0.412819 -0.466090
  4 422.367 0.510923 0.628365
  5 645.337 46.4803 184.027
  6 670.242 45.4082 -181.085
  7 645.337 46.4803 184.027
  8 670.242 45.4082 -181.085
  9 423.205 0.289969 -1.22421
  10 426.623 0.511736 -2.17808
  11 431.573 1.15741 -4.42783
  12 442.964 0.428857 -5.96182
  13 457.642 0.699970 -9.80687
  14 474.888 -4.26834 -9.72242
  15 490.849 -5.12174 -1.23031
  16 483.767 -3.49763 7.90659
  17 466.079 3.69477 14.0438
  18 456.419 9.00997 -0.549057
  19 463.432 4.31351 -13.1992
  20 483.302 -5.20620 -9.63060
  21 486.424 -6.22131 3.40363
  22 477.347 -2.81605 8.38801
  23 454.597 0.118175 9.87167
  24 441.975 1.64948 7.55357
  25 431.875 1.32836 4.25400
  26 426.707 0.411679 1.99518
  27 423.443 0.343227 1.18274
  28 422.976 1.50627 0.733702
  29 422.239 3.08703 0.854340
  30 420.424 5.35965 0.760875
  31 419.699 6.23050 -0.0736786
  32 420.626 5.08538 -0.911798
  33 421.924 3.36560 -0.775130
  34 422.494 1.70895 -0.822425
  35 423.205 0.289969 -1.22421
  36 426.623 0.511736 -2.17808
  37 431.573 1.15741 -4.42783
  38 442.964 0.428857 -5.96182
  39 457.642 0.699970 -9.80687
  40 474.888 -4.26834 -9.72242
  41 490.849 -5.12174 -1.23031
  42 483.767 -3.49763 7.90659
  43 466.079 3.69477 14.0438
  44 456.419 9.00997 -0.549057
  45 463.432 4.31351 -13.1992
  46 483.302 -5.20620 -9.63060
  47 486.424 -6.22131 3.40363
  48 477.347 -2.81605 8.38801
  49 454.597 0.118175 9.87167
  50 441.975 1.64948 7.55357
  51 431.875 1.32836 4.25400
  52 426.707 0.411679 1.99518
  53 423.443 0.343227 1.18274
  54 422.976 1.50627 0.733702
  55 422.239 3.08703 0.854340
  56 420.424 5.35965 0.760875
  57 419.699 6.23050 -0.0736786
  58 420.626 5.08538 -0.911798
  59 421.924 3.36560 -0.775130
  60 422.494 1.70895 -0.822425
  61 891.727 47.0647 93.9308
  62 813.700 13.2579 33.0649
  63 768.030 5.45770 12.1572
  64 758.243 3.96729 2.34956
  65 767.609 5.27571 -10.3727
  66 802.511 11.3531 -28.6477
  67 900.130 40.9511 -80.8894
  68 119.936 -129.388 -151.574
  69 23.7404 -307.170 -39.6915
  70 6.44375 -351.584 -17.3287
  71 6.16946 -345.483 -8.53574
  72 10.7560 -335.534 18.5536
  73 25.8358 -297.662 42.0662
  74 129.818 -120.292 167.868
  75 891.727 47.0647 93.9308
  76 813.700 13.2579 33.0649
  77 768.030 5.45770 12.1572
  78 758.243 3.96729 2.34956
  79 767.609 5.27571 -10.3727
  80 802.511 11.3531 -28.6477
  81 900.130 40.9511 -80.8894
  82 119.936 -129.388 -151.574
  83 23.7404 -307.170 -39.6915
  84 6.44375 -351.584 -17.3287
  85 6.16946 -345.483 -8.53574
  86 10.7560 -335.534 18.5536
  87 25.8358 -297.662 42.0662
  88 129.818 -120.292 167.868
  89 388.642 22.1395 -5.74152
  90 388.642 22.1395 -5.74152
  91 355.027 4.95559 52.1209
  92 341.195 -2.07314 -62.2830
  93 355.027 4.95559 52.1209
  94 341.195 -2.07314 -62.2830
  95 202.165 5.51076 25.1319
  96 202.165 5.51076 25.1319
  97 520.212 33.5948 -7.64185
  98 529.688 19.4601 15.1583
  99 520.212 33.5948 -7.64185
  100 529.688 19.4601 15.1583
  101 416.382 9.99879 5.69963
  102 416.382 9.99879 5.69963
  103 496.977 -28.2839 1.34717
  104 496.977 -28.2839 1.34717
  105 416.874 10.4552 -7.03539
  106 416.874 10.4552 -7.03539
  107 487.906 -60.3716 -55.6475
  108 487.906 -60.3716 -55.6475
  109 342.197 -71.4148 138.232
  110 342.197 -71.4148 138.232
  111 232.067 -41.6838 -111.649
  112 232.067 -41.6838 -111.649
  113 418.489 6.97196 24.6264
  114 418.489 6.97196 24.6264
  115 433.514 2.88152 -23.5804
  116 433.514 2.88152 -23.5804
  117 586.859 39.9241 7.11058
  118 628.137 40.5543 3.81193
  119 586.859 39.9241 7.11058
  120 628.137 40.5543 3.81193
  121 615.352 52.2274 -17.0822
  122 615.352 52.2274 -17.0822
  123 68.1206 -110.641 -37.0043
  124 68.1206 -110.641 -37.0043
  125 529.336 -65.5327 60.7072
  126 529.336 -65.5327 60.7072
  127 447.995 -10.8582 27.9799
  128 447.995 -10.8582 27.9799
  129 103.707 -95.4459 84.8345
  130 103.707 -95.4459 84.8345
  131 416.967 8.34643 -0.358790
  132 416.967 8.34643 -0.358790
  133 447.220 -20.9105 -35.7479
  134 447.220 -20.9105 -35.7479
  135 423.398 3.41990 4.11601
  136 423.398 3.41990 4.11601
  137 423.755 3.00923 -3.83892
  138 423.755 3.00923 -3.83892
  139 428.327 5.84932 -12.3257
  140 428.327 5.84932 -12.3257
  141 426.409 5.70187 11.0935
  142 426.409 5.70187 11.0935
  143 408.747 13.9288 -0.453931
  144 408.747 13.9288 -0.453931
  145 342.577 22.6754 -2.67057
  146 342.577 22.6754 -2.67057
  147 494.679 -17.6141 6.92995
  148 494.679 -17.6141 6.92995
  149 564.081 -18.9690 -23.6785
  150 564.081 -18.9690 -23.6785
  151 436.646 -48.8200 68.8053
  152 436.646 -48.8200 68.8053
  153 329.741 -88.9983 -155.836
  154 329.741 -88.9983 -155.836
  155 389.449 15.9121 23.4813
  156 389.449 15.9121 23.4813
  157 503.386 -2.94176 -17.6012
  158 503.386 -2.94176 -17.6012
  159 684.232 54.7544 39.9325
  160 684.232 54.7544 39.9325
  161 343.321 -95.5470 180.084
  162 343.321 -95.5470 180.084
  163 698.245 22.8989 -8.04612
  164 698.245 22.8989 -8.04612
  165 407.131 13.8917 10.8711
  166 407.131 13.8917 10.8711
  167 387.032 13.1606 -34.4059
  168 387.032 13.1606 -34.4059
  169 478.950 14.5632 10.7458
  170 478.950 14.5632 10.7458
  171 403.394 16.5856 -12.3550
  172 403.394 16.5856 -12.3550
  173 419.438 6.70783 1.79998
  174 419.438 6.70783 1.79998
  175 426.198 3.25529 -6.54727
  176 426.198 3.25529 -6.54727
  177 656.482 52.5995 -40.2911
  178 656.482 52.5995 -40.2911
  179 419.763 6.52962 -2.17281
  180 419.763 6.52962 -2.17281
  181 310.863 22.7434 -17.9495
  182 310.863 22.7434 -17.9495
  183 557.772 41.3825 2.80072
  184 557.772 41.3825 2.80072
  185 113.657 -93.7438 -109.385
  186 113.657 -93.7438 -109.385
  187 306.102 -3.20054 75.9063
  188 306.102 -3.20054 75.9063
  189 407.395 -65.9102 -107.130
  190 407.395 -65.9102 -107.130
  191 481.029 -13.2690 6.21696
  192 481.029 -13.2690 6.21696
  193 450.274 -1.56234 17.1905
  194 450.274 -1.56234 17.1905
  195 610.492 18.9268 38.1285
  196 610.492 18.9268 38.1285
  197 255.733 8.29288 -46.9327
  198 255.733 8.29288 -46.9327
  199 692.508 30.8140 18.5033
  200 692.508 30.8140 18.5033
  201 458.588 -5.67003 -18.1431
  202 458.588 -5.67003 -18.1431
  203 426.854 2.32358 6.03655
  204 426.854 2.32358 6.03655
  205 477.259 -18.7587 -9.64841
  206 477.259 -18.7587 -9.64841
  207 521.572 -26.0756 -4.33327
  208 521.572 -26.0756 -4.33327
  209 32.6407 -193.308 16.4022
  210 32.6407 -193.308 16.4022
  211 439.984 2.27782 -15.1117
  212 439.984 2.27782 -15.1117
  213 436.362 3.40875 13.1926
  214 436.362 3.40875 13.1926
  215 419.736 -38.6147 -68.1431
  216 419.736 -38.6147 -68.1431
  217 490.119 -10.4045 -10.7596
  218 490.119 -10.4045 -10.7596
  219 401.953 14.4529 -23.4697
  220 401.953 14.4529 -23.4697
  221 110.816 -137.591 120.124
  222 110.816 -137.591 120.124
  223 496.915 2.36649 16.7014
  224 496.915 2.36649 16.7014
  225 483.166 12.3742 -14.2076
  226 483.166 12.3742 -14.2076
  227 685.020 40.8776 -31.7962
  228 685.020 40.8776 -31.7962
  229 523.423 -19.2338 -7.74072
  230 523.423 -19.2338 -7.74072
  231 570.458 -24.4019 -102.827
  232 570.458 -24.4019 -102.827
  233 421.225 -19.0174 52.4094
  234 421.225 -19.0174 52.4094
  235 413.170 11.6296 1.83512
  236 413.170 11.6296 1.83512
  237 220.050 -32.1863 98.8139
  238 220.050 -32.1863 98.8139
  239 545.914 -46.2470 119.950
  240 545.914 -46.2470 119.950
  241 149.891 -19.0156 -48.9341
  242 149.891 -19.0156 -48.9341
  243 487.025 -36.6389 -24.0296
  244 487.025 -36.6389 -24.0296
  245 398.060 17.8950 13.5548
  246 398.060 17.8950 13.5548
  247 14.1480 -252.079 -13.3969
  248 14.1480 -252.079 -13.3969
  249 27.3955 -221.171 44.3601
  250 27.3955 -221.171 44.3601
  251 405.107 2.80620 37.6338
  252 405.107 2.80620 37.6338
  253 422.928 1.60527 1.48762
  254 422.928 1.60527 1.48762
  255 419.402 6.75478 0.283505
  256 419.402 6.75478 0.283505
  257 393.749 -4.87442 -50.0675
  258 393.749 -4.87442 -50.0675
  259 423.172 1.46295 -1.57583
  260 423.172 1.46295 -1.57583
  261 467.649 -33.0007 31.7046
  262 467.649 -33.0007 31.7046
  263 434.266 1.52369 -7.33425
  264 434.266 1.52369 -7.33425
  265 336.904 -28.5400 -93.1756
  266 336.904 -28.5400 -93.1756
  267 572.263 44.0241 -1.21537
  268 572.263 44.0241 -1.21537
  269 418.848 9.25424 -19.0964
  270 418.848 9.25424 -19.0964
  271 417.259 8.66044 -3.80066
  272 417.259 8.66044 -3.80066
  273 355.257 17.2495 -34.4034
  274 355.257 17.2495 -34.4034
  275 108.542 -41.3675 28.2741
  276 108.542 -41.3675 28.2741
  277 446.529 -74.3030 95.6476
  278 446.529 -74.3030 95.6476
  279 421.663 6.25075 7.43256
  280 421.663 6.25075 7.43256
  281 623.760 44.0663 -10.0496
  282 623.760 44.0663 -10.0496
  283 743.887 64.9006 88.6173
  284 743.887 64.9006 88.6173
  285 501.245 -53.2826 31.8292
  286 501.245 -53.2826 31.8292
  287 362.260 18.0939 25.2162
  288 362.260 18.0939 25.2162
  289 458.897 -91.5092 126.235
  290 458.897 -91.5092 126.235
  291 473.289 -5.60275 11.7547
  292 473.289 -5.60275 11.7547
  293 421.405 4.11738 2.03614
  294 421.405 4.11738 2.03614
  295 415.514 11.3624 -12.1579
  296 415.514 11.3624 -12.1579
  297 419.505 6.64674 -0.559306
  298 419.505 6.64674 -0.559306
  299 425.424 1.17163 -2.84441
  300 425.424 1.17163 -2.84441
  301 433.888 2.13966 7.36274
  302 433.888 2.13966 7.36274
  303 413.283 11.5680 -3.11961
  304 413.283 11.5680 -3.11961
  305 95.0668 -160.477 -114.361
  306 95.0668 -160.477 -114.361
  307 284.664 18.6027 23.5054
  308 284.664 18.6027 23.5054
  309 421.860 3.43686 -1.95572
  310 421.860 3.43686 -1.95572
  311 372.292 21.3936 -16.8863
  312 372.292 21.3936 -16.8863
  313 373.244 23.3271 6.43158
  314 373.244 23.3271 6.43158
  315 420.990 6.01067 -5.26412
  316 420.990 6.01067 -5.26412
  317 563.485 30.0489 -2.89751
  318 563.485 30.0489 -2.89751
  319 417.891 10.0683 16.7190
  320 417.891 10.0683 16.7190
  321 532.418 16.9425 -13.4263
  322 532.418 16.9425 -13.4263
  323 780.714 22.0294 52.8253
  324 780.714 22.0294 52.8253
  325 416.355 10.4242 10.4980
  326 416.355 10.4242 10.4980
  327 409.858 13.7993 5.49158
  328 409.858 13.7993 5.49158
  329 320.210 -66.9667 -179.661
  330 320.210 -66.9667 -179.661
  331 425.674 1.05902 2.78237
  332 425.674 1.05902 2.78237
  333 416.865 8.72573 2.84046
  334 416.865 8.72573 2.84046
  335 401.711 17.9023 0.629726
  336 401.711 17.9023 0.629726
  337 208.238 -73.5045 144.175
  338 208.238 -73.5045 144.175
  339 517.042 33.9413 2.37099
  340 517.042 33.9413 2.37099
  341 29.6371 -216.532 -51.2022
  342 29.6371 -216.532 -51.2022
  343 323.763 20.4230 20.8953
  344 323.763 20.4230 20.8953
  345 738.870 9.99274 7.23334
  346 738.870 9.99274 7.23334
  347 771.598 39.3233 -54.5238
  348 771.598 39.3233 -54.5238
  349 364.243 -42.1620 104.257
  350 379.889 -21.6634 77.0433
  351 364.243 -42.1620 104.257
  352 379.889 -21.6634 77.0433
  353 749.581 18.5569 27.5218
  354 749.581 18.5569 27.5218
  355 431.053 -0.637529 29.3489
  356 431.053 -0.637529 29.3489
  357 509.149 -68.7551 -74.5653
  358 509.149 -68.7551 -74.5653
  359 484.890 -4.15148 13.7446
  360 484.890 -4.15148 13.7446
  361 327.297 -67.1040 196.388
  362 327.297 -67.1040 196.388
  363 566.042 45.3819 -1.49873
  364 566.042 45.3819 -1.49873
  365 748.711 6.75730 -5.73493
  366 748.711 6.75730 -5.73493
  367 458.365 0.188450 -14.3254
  368 458.365 0.188450 -14.3254
  369 409.860 14.6773 -6.57654
  370 409.860 14.6773 -6.57654
  371 631.158 49.0601 16.7334
  372 631.158 49.0601 16.7334
  373 485.692 20.3576 -3.00517
  374 485.692 20.3576 -3.00517
  375 441.940 1.65810 -9.11440
  376 441.940 1.65810 -9.11440
  377 121.177 -59.3456 -82.9577
  378 121.177 -59.3456 -82.9577
  379 488.398 -8.81205 3.56826
  380 488.398 -8.81205 3.56826
  381 418.521 -0.698078 -34.6559
  382 418.521 -0.698078 -34.6559
  383 481.641 -0.964221 -16.4414
  384 481.641 -0.964221 -16.4414
  385 752.317 13.2144 -22.7577
  386 752.317 13.2144 -22.7577
  387 419.958 6.43252 4.16087
  388 419.958 6.43252 4.16087
  389 511.835 25.1413 13.4930
  390 511.835 25.1413 13.4930
  391 550.984 -11.4862 6.46129
  392 550.984 -11.4862 6.46129
  393 421.487 7.56610 -9.30237
  394 421.487 7.56610 -9.30237
  395 795.986 76.4543 -102.640
  396 795.986 76.4543 -102.640
  397 481.868 -7.06676 -5.15835
  398 481.868 -7.06676 -5.15835
</Section>

newXOutput 125

<Section columns = "stress_xx | stress_yy | stress_xy">
  1 425.438 0.416074 -0.469277
  2 425.632 0.514885 0.632654
  3 425.438 0.416074 -0.469277
  4 425.632 0.514885 0.632654
  5 650.102 46.9929 185.512
  6 675.178 45.9188 -182.548
  7 650.102 46.9929 185.512
  8 675.178 45.9188 -182.548
  9 426.475 0.292193 -1.23264
  10 429.916 0.515585 -2.19320
  11 434.899 1.16595 -4.45898
  12 446.369 0.431788 -6.00439
  13 461.150 0.704193 -9.87896
  14 478.522 -4.30336 -9.79723
  15 494.605 -5.16264 -1.24508
  16 487.493 -3.52454 7.95611
  17 469.699 3.72630 14.1376
  18 459.979 9.08305 -0.552809
  19 467.034 4.34807 -13.2882
  20 487.026 -5.24659 -9.69064
  21 490.149 -6.27110 3.43610
  22 480.999 -2.83899 8.45306
  23 458.085 0.117568 9.94476
  24 445.374 1.66131 7.60775
  25 435.205 1.33817 4.28386
  26 430.001 0.414787 2.00901
  27 426.715 0.345878 1.19092
  28 426.245 1.51756 0.738696
  29 425.503 3.10997 0.860231
  30 423.676 5.39920 0.766165
  31 422.946 6.27637 -0.0741874
  32 423.879 5.12295 -0.918097
  33 425.186 3.39062 -0.780374
  34 425.759 1.72182 -0.828102
  35 426.475 0.292193 -1.23264
  36 429.916 0.515585 -2.19320
  37 434.899 1.16595 -4.45898
  38 446.369 0.431788 -6.00439
  39 461.150 0.704193 -9.87896
  40 478.522 -4.30336 -9.79723
  41 494.605 -5.16264 -1.24508
  42 487.493 -3.52454 7.95611
  43 469.699 3.72630 14.1376
  44 459.979 9.08305 -0.552809
  45 467.034 4.34807 -13.2882
  46 487.026 -5.24659 -9.69064
  47 490.149 -6.27110 3.43610
  48 480.999 -2.83899 8.45306
  49 458.085 0.117568 9.94476
  50 445.374 1.66131 7.60775
  51 435.205 1.33817 4.28386
  52 430.001 0.414787 2.00901
  53 426.715 0.345878 1.19092
  54 426.245 1.51756 0.738696
  55 425.503 3.10997 0.860231
  56 423.676 5.39920 0.766165
  57 422.946 6.27637 -0.0741874
  58 423.879 5.12295 -0.918097
  59 425.186 3.39062 -0.780374
  60 425.759 1.72182 -0.828102
  61 898.232 47.4356 94.6412
  62 819.662 13.3526 33.3056
  63 773.683 5.49289 12.2427
  64 763.829 3.99374 2.36444
  65 773.258 5.31183 -10.4452
  66 808.401 11.4332 -28.8536
  67 906.699 41.2730 -81.5016
  68 120.847 -130.234 -152.845
  69 23.9216 -309.575 -40.0613
  70 6.48124 -354.417 -17.4896
  71 6.20588 -348.276 -8.60448
  72 10.8306 -338.226 18.7265
  73 26.0363 -299.990 42.4597
  74 130.793 -121.067 169.270
  75 898.232 47.4356 94.6412
  76 819.662 13.3526 33.3056
  77 773.683 5.49289 12.2427
  78 763.829 3.99374 2.36444
  79 773.258 5.31183 -10.4452
  80 808.401 11.4332 -28.8536
  81 906.699 41.2730 -81.5016
  82 120.847 -130.234 -152.845
  83 23.9216 -309.575 -40.0613
  84 6.48124 -354.417 -17.4896
  85 6.20588 -348.276 -8.60448
  86 10.8306 -338.226 18.7265
  87 26.0363 -299.990 42.4597
  88 130.793 -121.067 169.270
  89 391.672 22.3077 -5.78439
  90 391.672 22.3077 -5.78439
  91 357.799 4.99543 52.5211
  92 343.862 -2.08767 -62.7649
  93 357.799 4.99543 52.5211
  94 343.862 -2.08767 -62.7649
  95 203.786 5.56818 25.3303
  96 203.786 5.56818 25.3303
  97 524.223 33.8585 -7.68452
  98 533.753 19.6222 15.2352
  99 524.223 33.8585 -7.68452
  100 533.753 19.6222 15.2352
  101 419.607 10.0732 5.74033
  102 419.607 10.0732 5.74033
  103 500.783 -28.5011 1.38621
  104 500.783 -28.5011 1.38621
  105 420.102 10.5332 -7.08576
  106 420.102 10.5332 -7.08576
  107 491.626 -60.8396 -56.1010
  108 491.626 -60.8396 -56.1010
  109 344.838 -71.9745 139.332
  110 344.838 -71.9745 139.332
  111 233.890 -42.0026 -112.544
  112 233.890 -42.0026 -112.544
  113 421.727 7.02345 24.8106
  114 421.727 7.02345 24.8106
  115 436.858 2.90122 -23.7581
  116 436.858 2.90122 -23.7581
  117 591.332 40.2484 7.21545
  118 632.903 40.8554 3.84893
  119 591.332 40.2484 7.21545
  120 632.903 40.8554 3.84893
  121 620.032 52.6368 -17.2515
  122 620.032 52.6368 -17.2515
  123 68.6639 -111.477 -37.3184
  124 68.6639 -111.477 -37.3184
  125 533.348 -66.0220 61.2226
  126 533.348 -66.0220 61.2226
  127 451.442 -10.9441 28.1991
  128 451.442 -10.9441 28.1991
  129 104.533 -96.1631 85.5454
  130 104.533 -96.1631 85.5454
  131 420.196 8.40827 -0.361282
  132 420.196 8.40827 -0.361282
  133 450.660 -21.0743 -36.0311
  134 450.660 -21.0743 -36.0311
  135 426.670 3.44535 4.14489
  136 426.670 3.44535 4.14489
  137 427.029 3.03170 -3.86578
  138 427.029 3.03170 -3.86578
  139 431.634 5.89244 -12.4150
  140 431.634 5.89244 -12.4150
  141 429.702 5.74409 11.1735
  142 429.702 5.74409 11.1735
  143 411.920 14.0330 -0.457327
  144 411.920 14.0330 -0.457327
  145 345.269 22.8510 -2.69129
  146 345.269 22.8510 -2.69129
  147 498.475 -17.7480 6.95814
  148 498.475 -17.7480 6.95814
  149 568.362 -19.0838 -23.9207
  150 568.362 -19.0838 -23.9207
  151 439.997 -49.2011 69.3487
  152 439.997 -49.2011 69.3487
  153 332.268 -89.6742 -157.102
  154 332.268 -89.6742 -157.102
  155 392.481 16.0337 23.6578
  156 392.481 16.0337 23.6578
  157 507.253 -2.95915 -17.7055
  158 507.253 -2.95915 -17.7055
  159 689.379 55.1823 40.2680
  160 689.379 55.1823 40.2680
  161 345.948 -96.2825 181.535
  162 345.948 -96.2825 181.535
  163 703.470 23.0619 -8.10879
  164 703.470 23.0619 -8.10879
  165 410.291 13.9958 10.9505
  166 410.291 13.9958 10.9505
  167 390.044 13.2615 -34.6671
  168 390.044 13.2615 -34.6671
  169 482.666 14.6809 10.8165
  170 482.666 14.6809 10.8165
  171 406.528 16.7105 -12.4458
  172 406.528 16.7105 -12.4458
  173 422.684 6.75744 1.81262
  174 422.684 6.75744 1.81262
  175 429.489 3.27937 -6.59367
  176 429.489 3.27937 -6.59367
  177 661.432 53.0370 -40.6559
  178 661.432 53.0370 -40.6559
  179 423.011 6.57799 -2.18802
  180 423.011 6.57799 -2.18802
  181 313.316 22.9234 -18.0878
  182 313.316 22.9234 -18.0878
  183 562.048 41.7059 2.79398
  184 562.048 41.7059 2.79398
  185 114.555 -94.4479 -110.298
  186 114.555 -94.4479 -110.298
  187 308.503 -3.22178 76.4971
  188 308.503 -3.22178 76.4971
  189 410.520 -66.4253 -107.981
  190 410.520 -66.4253 -107.981
  191 484.720 -13.3733 6.27786
  192 484.720 -13.3733 6.27786
  193 453.736 -1.57646 17.3208
  194 453.736 -1.57646 17.3208
  195 615.109 19.1137 38.4864
  196 615.109 19.1137 38.4864
  197 257.762 8.36599 -47.3007
  198 257.762 8.36599 -47.3007
  199 697.702 31.0382 18.6507
  200 697.702 31.0382 18.6507
  201 462.111 -5.71614 -18.2850
  202 462.111 -5.71614 -18.2850
  203 430.150 2.34070 6.07925
  204 430.150 2.34070 6.07925
  205 480.920 -18.9063 -9.73701
  206 480.920 -18.9063 -9.73701
  207 525.555 -26.2676 -4.40656
  208 525.555 -26.2676 -4.40656
  209 32.8954 -194.815 16.5460
  210 32.8954 -194.815 16.5460
  211 443.372 2.29320 -15.2233
  212 443.372 2.29320 -15.2233
  213 439.724 3.43352 13.2892
  214 439.724 3.43352 13.2892
  215 422.968 -38.9160 -68.6791
  216 422.968 -38.9160 -68.6791
  217 493.887 -10.4848 -10.8206
  218 493.887 -10.4848 -10.8206
  219 405.075 14.5623 -23.6458
  220 405.075 14.5623 -23.6458
  221 111.676 -138.621 121.138
  222 111.676 -138.621 121.138
  223 500.744 2.39144 16.8033
  224 500.744 2.39144 16.8033
  225 486.908 12.4747 -14.2992
  226 486.908 12.4747 -14.2992
  227 690.169 41.1834 -32.0569
  228 690.169 41.1834 -32.0569
  229 527.422 -19.3726 -7.75947
  230 527.422 -19.3726 -7.75947
  231 574.755 -24.5254 -103.692
  232 574.755 -24.5254 -103.692
  233 424.474 -19.1654 52.8160
  234 424.474 -19.1654 52.8160
  235 416.374 11.7162 1.84829
  236 416.374 11.7162 1.84829
  237 221.787 -32.4290 99.6041
  238 221.787 -32.4290 99.6041
  239 550.026 -46.5515 120.943
  240 550.026 -46.5515 120.943
  241 151.096 -19.1428 -49.3293
  242 151.096 -19.1428 -49.3293
  243 490.751 -36.9233 -24.2366
  244 490.751 -36.9233 -24.2366
  245 401.155 18.0305 13.6553
  246 401.155 18.0305 13.6553
  247 14.2511 -254.069 -13.5173
  248 14.2511 -254.069 -13.5173
  249 27.6062 -222.894 44.7557
  250 27.6062 -222.894 44.7557
  251 408.247 2.82710 37.9205
  252 408.247 2.82710 37.9205
  253 426.197 1.61731 1.49791
  254 426.197 1.61731 1.49791
  255 422.648 6.80459 0.285509
  256 422.648 6.80459 0.285509
  257 396.803 -4.91280 -50.4531
  258 396.803 -4.91280 -50.4531
  259 426.442 1.47399 -1.58675
  260 426.442 1.47399 -1.58675
  261 471.234 -33.2576 31.9638
  262 471.234 -33.2576 31.9638
  263 437.612 1.53470 -7.38654
  264 437.612 1.53470 -7.38654
  265 339.524 -28.7625 -93.9062
  266 339.524 -28.7625 -93.9062
  267 576.643 44.3658 -1.19665
  268 576.643 44.3658 -1.19665
  269 422.089 9.32307 -19.2374
  270 422.089 9.32307 -19.2374
  271 420.489 8.72477 -3.82756
  272 420.489 8.72477 -3.82756
  273 358.037 17.3837 -34.6660
  274 358.037 17.3837 -34.6660
  275 109.418 -41.6603 28.5068
  276 109.418 -41.6603 28.5068
  277 449.938 -74.8825 96.4112
  278 449.938 -74.8825 96.4112
  279 424.923 6.29719 7.48544
  280 424.923 6.29719 7.48544
  281 628.498 44.3970 -10.1405
  282 628.498 44.3970 -10.1405
  283 749.423 65.4471 89.3370
  284 749.423 65.4471 89.3370
  285 505.068 -53.6917 32.1070
  286 505.068 -53.6917 32.1070
  287 365.094 18.2338 25.4071
  288 365.094 18.2338 25.4071
  289 462.384 -92.2185 127.247
  290 462.384 -92.2185 127.247
  291 476.918 -5.64784 11.8486
  292 476.918 -5.64784 11.8486
  293 424.664 4.14791 2.05034
  294 424.664 4.14791 2.05034
  295 418.733 11.4473 -12.2461
  296 418.733 11.4473 -12.2461
  297 422.752 6.69577 -0.563210
  298 422.752 6.69577 -0.563210
  299 428.710 1.18038 -2.86426
  300 428.710 1.18038 -2.86426
  301 437.231 2.15528 7.41524
  302 437.231 2.15528 7.41524
  303 416.487 11.6543 -3.14198
  304 416.487 11.6543 -3.14198
  305 95.8015 -161.675 -115.333
  306 95.8015 -161.675 -115.333
  307 286.918 18.7529 23.6869
  308 286.918 18.7529 23.6869
  309 425.121 3.46242 -1.96932
  310 425.121 3.46242 -1.96932
  311 375.201 21.5575 -17.0138
  312 375.201 21.5575 -17.0138
  313 376.161 23.5057 6.47966
  314 376.161 23.5057 6.47966
  315 424.246 6.05532 -5.30134
  316 424.246 6.05532 -5.30134
  317 567.786 30.3015 -2.97104
  318 567.786 30.3015 -2.97104
  319 421.125 10.1435 16.8415
  320 421.125 10.1435 16.8415
  321 536.500 17.0847 -13.4905
  322 536.500 17.0847 -13.4905
  323 786.489 22.1876 53.2294
  324 786.489 22.1876 53.2294
  325 419.580 10.5020 10.5738
  326 419.580 10.5020 10.5738
  327 413.038 13.9025 5.53125
  328 413.038 13.9025 5.53125
  329 322.636 -67.3634 -181.143
  330 322.636 -67.3634 -181.143
  331 428.961 1.06693 2.80177
  332 428.961 1.06693 2.80177
  333 420.093 8.79047 2.86060
  334 420.093 8.79047 2.86060
  335 404.834 18.0372 0.634305
  336 404.834 18.0372 0.634305
  337 209.869 -74.0714 145.349
  338 209.869 -74.0714 145.349
  339 521.032 34.2073 2.38260
  340 521.032 34.2073 2.38260
  341 29.8616 -218.216 -51.6510
  342 29.8616 -218.216 -51.6510
  343 326.314 20.5834 21.0547
  344 326.314 20.5834 21.0547
  345 744.346 10.0618 7.28478
  346 744.346 10.0618 7.28478
  347 777.325 39.6257 -54.9458
  348 777.325 39.6257 -54.9458
  349 367.059 -42.4921 105.075
  350 382.832 -21.8318 77.6403
  351 367.059 -42.4921 105.075
  352 382.832 -21.8318 77.6403
  353 755.139 18.6877 27.7271
  354 755.139 18.6877 27.7271
  355 434.380 -0.644137 29.5722
  356 434.380 -0.644137 29.5722
  357 513.011 -69.2791 -75.1802
  358 513.011 -69.2791 -75.1802
  359 488.627 -4.18167 13.8327
  360 488.627 -4.18167 13.8327
  361 329.761 -67.5088 197.997
  362 329.761 -67.5088 197.997
  363 570.382 45.7289 -1.50900
  364 570.382 45.7289 -1.50900
  365 754.246 6.80347 -5.77696
  366 754.246 6.80347 -5.77696
  367 461.882 0.187835 -14.4330
  368 461.882 0.187835 -14.4330
  369 413.040 14.7872 -6.62420
  370 413.040 14.7872 -6.62420
  371 635.946 49.4349 16.8889
  372 635.946 49.4349 16.8889
  373 489.457 20.5188 -3.02456
  374 489.457 20.5188 -3.02456
  375 445.339 1.66964 -9.18036
  376 445.339 1.66964 -9.18036
  377 122.153 -59.7860 -83.6414
  378 122.153 -59.7860 -83.6414
  379 492.146 -8.88082 3.58259
  380 492.146 -8.88082 3.58259
  381 421.758 -0.705191 -34.9211
  382 421.758 -0.705191 -34.9211
  383 485.362 -0.970025 -16.5482
  384 485.362 -0.970025 -16.5482
  385 757.890 13.3088 -22.9260
  386 757.890 13.3088 -22.9260
  387 423.207 6.48020 4.19022
  388 423.207 6.48020 4.19022
  389 515.779 25.3427 13.5715
  390 515.779 25.3427 13.5715
  391 555.176 -11.5542 6.56325
  392 555.176 -11.5542 6.56325
  393 424.747 7.62239 -9.36894
  394 424.747 7.62239 -9.36894
  395 801.873 77.1064 -103.465
  396 801.873 77.1064 -103.465
  397 485.559 -7.12349 -5.20402
  398 485.559 -7.12349 -5.20402
</Section>

newXOutput 126

<Section columns = "stress_xx | stress_yy | stress_xy">
  1 428.698 0.419328 -0.472455
  2 428.895 0.518843 0.636931
  3 428.698 0.419328 -0.472455
  4 428.895 0.518843 0.636931
  5 654.860 47.5075 186.996
  6 680.106 46.4315 -184.010
  7 654.860 47.5075 186.996
  8 680.106 46.4315 -184.010
  9 429.743 0.294415 -1.24104
  10 433.206 0.519429 -2.20830
  11 438.224 1.17447 -4.49007
  12 449.771 0.434710 -6.04688
  13 464.655 0.708395 -9.95092
  14 482.152 -4.33838 -9.87197
  15 498.358 -5.20351 -1.25990
  16 491.216 -3.55143 8.00540
  17 473.316 3.75786 14.2312
  18 463.538 9.15614 -0.556550
  19 470.633 4.38262 -13.3769
  20 490.747 -5.28695 -9.75042
  21 493.869 -6.32088 3.46865
  22 484.647 -2.86192 8.51806
  23 461.571 0.116939 10.0177
  24 448.769 1.67313 7.66184
  25 438.531 1.34796 4.31365
  26 433.293 0.417891 2.02281
  27 429.984 0.348527 1.19907
  28 429.511 1.52884 0.743676
  29 428.764 3.13289 0.866106
  30 426.926 5.43868 0.771441
  31 426.191 6.32217 -0.0746949
  32 427.130 5.16046 -0.924381
  33 428.445 3.41561 -0.785603
  34 429.022 1.73468 -0.833764
  35 429.743 0.294415 -1.24104
  36 433.206 0.519429 -2.20830
  37 438.224 1.17447 -4.49007
  38 449.771 0.434710 -6.04688
  39 464.655 0.708395 -9.95092
  40 482.152 -4.33838 -9.87197
  41 498.358 -5.20351 -1.25990
  42 491.216 -3.55143 8.00540
  43 473.316 3.75786 14.2312
  44 463.538 9.15614 -0.556550
  45 470.633 4.38262 -13.3769
  46 490.747 -5.28695 -9.75042
  47 493.869 -6.32088 3.46865
  48 484.647 -2.86192 8.51806
  49 461.571 0.116939 10.0177
  50 448.769 1.67313 7.66184
  51 438.531 1.34796 4.31365
  52 433.293 0.417891 2.02281
  53 429.984 0.348527 1.19907
  54 429.511 1.52884 0.743676
  55 428.764 3.13289 0.866106
  56 426.926 5.43868 0.771441
  57 426.191 6.32217 -0.0746949
  58 427.130 5.16046 -0.924381
  59 428.445 3.41561 -0.785603
  60 429.022 1.73468 -0.833764
  61 904.727 47.8064 95.3507
  62 825.615 13.4471 33.5459
  63 779.328 5.52796 12.3280
  64 769.406 4.02010 2.37926
  65 778.899 5.34786 -10.5176
  66 814.281 11.5132 -29.0591
  67 913.256 41.5947 -82.1129
  68 121.758 -131.076 -154.116
  69 24.1027 -311.978 -40.4318
  70 6.51851 -357.251 -17.6507
  71 6.24208 -351.069 -8.67320
  72 10.9050 -340.917 18.8997
  73 26.2367 -302.318 42.8541
  74 131.768 -121.839 170.672
  75 904.727 47.8064 95.3507
  76 825.615 13.4471 33.5459
  77 779.328 5.52796 12.3280
  78 769.406 4.02010 2.37926
  79 778.899 5.34786 -10.5176
  80 814.281 11.5132 -29.0591
  81 913.256 41.5947 -82.1129
  82 121.758 -131.076 -154.116
  83 24.1027 -311.978 -40.4318
  84 6.51851 -357.251 -17.6507
  85 6.24208 -351.069 -8.67320
  86 10.9050 -340.917 18.8997
  87 26.2367 -302.318 42.8541
  88 131.768 -121.839 170.672
  89 394.699 22.4757 -5.82720
  90 394.699 22.4757 -5.82720
  91 360.569 5.03526 52.9208
  92 346.527 -2.10216 -63.2464
  93 360.569 5.03526 52.9208
  94 346.527 -2.10216 -63.2464
  95 205.406 5.62579 25.5285
  96 205.406 5.62579 25.5285
  97 528.231 34.1221 -7.72690
  98 537.813 19.7844 15.3114
  99 528.231 34.1221 -7.72690
  100 537.813 19.7844 15.3114
  101 422.829 10.1475 5.78095
  102 422.829 10.1475 5.78095
  103 504.587 -28.7181 1.42565
  104 504.587 -28.7181 1.42565
  105 423.327 10.6110 -7.13603
  106 423.327 10.6110 -7.13603
  107 495.341 -61.3072 -56.5546
  108 495.341 -61.3072 -56.5546
  109 347.477 -72.5338 140.430
  110 347.477 -72.5338 140.430
  111 235.712 -42.3211 -113.439
  112 235.712 -42.3211 -113.439
  113 424.962 7.07487 24.9945
  114 424.962 7.07487 24.9945
  115 440.200 2.92086 -23.9356
  116 440.200 2.92086 -23.9356
  117 595.801 40.5728 7.32096
  118 637.664 41.1562 3.88602
  119 595.801 40.5728 7.32096
  120 637.664 41.1562 3.88602
  121 624.708 53.0461 -17.4213
  122 624.708 53.0461 -17.4213
  123 69.2070 -112.312 -37.6327
  124 69.2070 -112.312 -37.6327
  125 537.356 -66.5106 61.7383
  126 537.356 -66.5106 61.7383
  127 454.887 -11.0299 28.4181
  128 454.887 -11.0299 28.4181
  129 105.359 -96.8794 86.2566
  130 105.359 -96.8794 86.2566
  131 423.423 8.47003 -0.363767
  132 423.423 8.47003 -0.363767
  133 454.096 -21.2380 -36.3142
  134 454.096 -21.2380 -36.3142
  135 429.939 3.47076 4.17371
  136 429.939 3.47076 4.17371
  137 430.301 3.05414 -3.89258
  138 430.301 3.05414 -3.89258
  139 434.938 5.93549 -12.5042
  140 434.938 5.93549 -12.5042
  141 432.993 5.78624 11.2533
  142 432.993 5.78624 11.2533
  143 415.090 14.1370 -0.460718
  144 415.090 14.1370 -0.460718
  145 347.960 23.0265 -2.71199
  146 347.960 23.0265 -2.71199
  147 502.268 -17.8818 6.98592
  148 502.268 -17.8818 6.98592
  149 572.638 -19.1981 -24.1636
  150 572.638 -19.1981 -24.1636
  151 443.344 -49.5819 69.8918
  152 443.344 -49.5819 69.8918
  153 334.793 -90.3494 -158.368
  154 334.793 -90.3494 -158.368
  155 395.511 16.1551 23.8342
  156 395.511 16.1551 23.8342
  157 511.116 -2.97644 -17.8091
  158 511.116 -2.97644 -17.8091
  159 694.520 55.6100 40.6035
  160 694.520 55.6100 40.6035
  161 348.573 -97.0174 182.986
  162 348.573 -97.0174 182.986
  163 708.688 23.2246 -8.17140
  164 708.688 23.2246 -8.17140
  165 413.449 14.0999 11.0297
  166 413.449 14.0999 11.0297
  167 393.054 13.3622 -34.9280
  168 393.054 13.3622 -34.9280
  169 486.378 14.7986 10.8870
  170 486.378 14.7986 10.8870
  171 409.660 16.8353 -12.5365
  172 409.660 16.8353 -12.5365
  173 425.927 6.80697 1.82523
  174 425.927 6.80697 1.82523
  175 432.777 3.30342 -6.63996
  176 432.777 3.30342 -6.63996
  177 666.376 53.4746 -41.0211
  178 666.376 53.4746 -41.0211
  179 426.256 6.62629 -2.20320
  180 426.256 6.62629 -2.20320
  181 315.767 23.1033 -18.2260
  182 315.767 23.1033 -18.2260
  183 566.320 42.0290 2.78682
  184 566.320 42.0290 2.78682
  185 115.452 -95.1510 -111.211
  186 115.452 -95.1510 -111.211
  187 310.902 -3.24296 77.0875
  188 310.902 -3.24296 77.0875
  189 413.643 -66.9402 -108.832
  190 413.643 -66.9402 -108.832
  191 488.407 -13.4776 6.33891
  192 488.407 -13.4776 6.33891
  193 457.195 -1.59061 17.4511
  194 457.195 -1.59061 17.4511
  195 619.721 19.3012 38.8449
  196 619.721 19.3012 38.8449
  197 259.789 8.43918 -47.6684
  198 259.789 8.43918 -47.6684
  199 702.889 31.2621 18.7981
  200 702.889 31.2621 18.7981
  201 465.630 -5.76224 -18.4268
  202 465.630 -5.76224 -18.4268
  203 433.443 2.35778 6.12186
  204 433.443 2.35778 6.12186
  205 484.578 -19.0538 -9.82574
  206 484.578 -19.0538 -9.82574
  207 529.534 -26.4592 -4.48040
  208 529.534 -26.4592 -4.48040
  209 33.1500 -196.322 16.6900
  210 33.1500 -196.322 16.6900
  211 446.757 2.30854 -15.3348
  212 446.757 2.30854 -15.3348
  213 443.084 3.45825 13.3857
  214 443.084 3.45825 13.3857
  215 426.197 -39.2171 -69.2149
  216 426.197 -39.2171 -69.2149
  217 497.651 -10.5650 -10.8811
  218 497.651 -10.5650 -10.8811
  219 408.194 14.6717 -23.8217
  220 408.194 14.6717 -23.8217
  221 112.536 -139.649 122.152
  222 112.536 -139.649 122.152
  223 504.569 2.41649 16.9047
  224 504.569 2.41649 16.9047
  225 490.647 12.5753 -14.3904
  226 490.647 12.5753 -14.3904
  227 695.311 41.4888 -32.3177
  228 695.311 41.4888 -32.3177
  229 531.417 -19.5110 -7.77758
  230 531.417 -19.5110 -7.77758
  231 579.048 -24.6476 -104.558
  232 579.048 -24.6476 -104.558
  233 427.720 -19.3133 53.2223
  234 427.720 -19.3133 53.2223
  235 419.574 11.8028 1.86143
  236 419.574 11.8028 1.86143
  237 223.522 -32.6715 100.394
  238 223.522 -32.6715 100.394
  239 554.133 -46.8550 121.937
  240 554.133 -46.8550 121.937
  241 152.301 -19.2696 -49.7245
  242 152.301 -19.2696 -49.7245
  243 494.473 -37.2074 -24.4439
  244 494.473 -37.2074 -24.4439
  245 404.249 18.1658 13.7556
  246 404.249 18.1658 13.7556
  247 14.3540 -256.059 -13.6378
  248 14.3540 -256.059 -13.6378
  249 27.8167 -224.615 45.1518
  250 27.8167 -224.615 45.1518
  251 411.384 2.84797 38.2070
  252 411.384 2.84797 38.2070
  253 429.463 1.62933 1.50819
  254 429.463 1.62933 1.50819
  255 425.891 6.85432 0.287508
  256 425.891 6.85432 0.287508
  257 399.855 -4.95117 -50.8383
  258 399.855 -4.95117 -50.8383
  259 429.710 1.48502 -1.59763
  260 429.710 1.48502 -1.59763
  261 474.816 -33.5144 32.2231
  262 474.816 -33.5144 32.2231
  263 440.955 1.54568 -7.43873
  264 440.955 1.54568 -7.43873
  265 342.143 -28.9848 -94.6364
  266 342.143 -28.9848 -94.6364
  267 581.017 44.7074 -1.17753
  268 581.017 44.7074 -1.17753
  269 425.328 9.39181 -19.3783
  270 425.328 9.39181 -19.3783
  271 423.718 8.78900 -3.85440
  272 423.718 8.78900 -3.85440
  273 360.816 17.5178 -34.9285
  274 360.816 17.5178 -34.9285
  275 110.294 -41.9525 28.7395
  276 110.294 -41.9525 28.7395
  277 453.345 -75.4617 97.1746
  278 453.345 -75.4617 97.1746
  279 428.181 6.34356 7.53821
  280 428.181 6.34356 7.53821
  281 633.230 44.7272 -10.2315
  282 633.230 44.7272 -10.2315
  283 754.951 65.9938 90.0566
  284 754.951 65.9938 90.0566
  285 508.886 -54.1004 32.3851
  286 508.886 -54.1004 32.3851
  287 367.926 18.3736 25.5978
  288 367.926 18.3736 25.5978
  289 465.867 -92.9272 128.258
  290 465.867 -92.9272 128.258
  291 480.542 -5.69293 11.9424
  292 480.542 -5.69293 11.9424
  293 427.920 4.17839 2.06451
  294 427.920 4.17839 2.06451
  295 421.949 11.5321 -12.3341
  296 421.949 11.5321 -12.3341
  297 425.995 6.74473 -0.567105
  298 425.995 6.74473 -0.567105
  299 431.992 1.18913 -2.88407
  300 431.992 1.18913 -2.88407
  301 440.572 2.17088 7.46762
  302 440.572 2.17088 7.46762
  303 419.688 11.7404 -3.16430
  304 419.688 11.7404 -3.16430
  305 96.5357 -162.871 -116.306
  306 96.5357 -162.871 -116.306
  307 289.170 18.9032 23.8682
  308 289.170 18.9032 23.8682
  309 428.380 3.48795 -1.98288
  310 428.380 3.48795 -1.98288
  311 378.108 21.7213 -17.1412
  312 378.108 21.7213 -17.1412
  313 379.076 23.6842 6.52768
  314 379.076 23.6842 6.52768
  315 427.499 6.09991 -5.33848
  316 427.499 6.09991 -5.33848
  317 572.084 30.5542 -3.04528
  318 572.084 30.5542 -3.04528
  319 424.358 10.2186 16.9638
  320 424.358 10.2186 16.9638
  321 540.578 17.2270 -13.5540
  322 540.578 17.2270 -13.5540
  323 792.255 22.3455 53.6332
  324 792.255 22.3455 53.6332
  325 422.802 10.5797 10.6495
  326 422.802 10.5797 10.6495
  327 416.216 14.0055 5.57084
  328 416.216 14.0055 5.57084
  329 325.058 -67.7577 -182.625
  330 325.058 -67.7577 -182.625
  331 432.245 1.07482 2.82113
  332 432.245 1.07482 2.82113
  333 423.319 8.85511 2.88069
  334 423.319 8.85511 2.88069
  335 407.955 18.1718 0.638877
  336 407.955 18.1718 0.638877
  337 211.499 -74.6379 146.523
  338 211.499 -74.6379 146.523
  339 525.019 34.4731 2.39409
  340 525.019 34.4731 2.39409
  341 30.0860 -219.898 -52.1002
  342 30.0860 -219.898 -52.1002
  343 328.863 20.7437 21.2139
  344 328.863 20.7437 21.2139
  345 749.815 10.1307 7.33610
  346 749.815 10.1307 7.33610
  347 783.043 39.9278 -55.3673
  348 783.043 39.9278 -55.3673
  349 369.873 -42.8221 105.893
  350 385.773 -22.0001 78.2369
  351 369.873 -42.8221 105.893
  352 385.773 -22.0001 78.2369
  353 760.689 18.8183 27.9321
  354 760.689 18.8183 27.9321
  355 437.704 -0.650765 29.7953
  356 437.704 -0.650765 29.7953
  357 516.868 -69.8026 -75.7953
  358 516.868 -69.8026 -75.7953
  359 492.362 -4.21180 13.9205
  360 492.362 -4.21180 13.9205
  361 332.222 -67.9114 199.606
  362 332.222 -67.9114 199.606
  363 574.718 46.0754 -1.51924
  364 574.718 46.0754 -1.51924
  365 759.773 6.84951 -5.81892
  366 759.773 6.84951 -5.81892
  367 465.396 0.187189 -14.5405
  368 465.396 0.187189 -14.5405
  369 416.217 14.8971 -6.67177
  370 416.217 14.8971 -6.67177
  371 640.729 49.8094 17.0446
  372 640.729 49.8094 17.0446
  373 493.220 20.6799 -3.04389
  374 493.220 20.6799 -3.04389
  375 448.735 1.68115 -9.24621
  376 448.735 1.68115 -9.24621
  377 123.130 -60.2257 -84.3253
  378 123.130 -60.2257 -84.3253
  379 495.890 -8.94955 3.59671
  380 495.890 -8.94955 3.59671
  381 424.991 -0.712325 -35.1860
  382 424.991 -0.712325 -35.1860
  383 489.081 -0.975796 -16.6547
  384 489.081 -0.975796 -16.6547
  385 763.455 13.4029 -23.0940
  386 763.455 13.4029 -23.0940
  387 426.454 6.52782 4.21951
  388 426.454 6.52782 4.21951
  389 519.720 25.5441 13.6496
  390 519.720 25.5441 13.6496
  391 559.364 -11.6219 6.66592
  392 559.364 -11.6219 6.66592
  393 428.003 7.67860 -9.43538
  394 428.003 7.67860 -9.43538
  395 807.751 77.7588 -104.290
  396 807.751 77.7588 -104.290
  397 489.247 -7.18020 -5.24975
  398 489.247 -7.18020 -5.24975
</Section>

newXOutput 127

<Section columns = "stress_xx | stress_yy | stress_xy">
  1 431.956 0.422579 -0.475625
  2 432.154 0.522799 0.641196
  3 431.956 0.422579 -0.475625
  4 432.154 0.522799 0.641196
  5 659.611 48.0241 188.481
  6 685.027 46.9463 -185.472
  7 659.611 48.0241 188.481
  8 685.027 46.9463 -185.472
  9 433.008 0.296635 -1.24943
  10 436.494 0.523269 -2.22335
  11 441.545 1.18298 -4.52108
  12 453.170 0.437625 -6.08928
  13 468.157 0.712576 -10.0228
  14 485.779 -4.37340 -9.94665
  15 502.107 -5.24438 -1.27480
  16 494.936 -3.57830 8.05449
  17 476.931 3.78944 14.3244
  18 467.094 9.22921 -0.560280
  19 474.230 4.41717 -13.4653
  20 494.464 -5.32728 -9.80994
  21 497.587 -6.37064 3.50126
  22 488.292 -2.88486 8.58301
  23 465.053 0.116287 10.0906
  24 452.162 1.68492 7.71581
  25 441.855 1.35774 4.34337
  26 436.582 0.420992 2.03657
  27 433.251 0.351174 1.20721
  28 432.775 1.54011 0.748642
  29 432.023 3.15577 0.871966
  30 430.173 5.47811 0.776705
  31 429.433 6.36790 -0.0752010
  32 430.378 5.19792 -0.930648
  33 431.702 3.44056 -0.790817
  34 432.282 1.74752 -0.839411
  35 433.008 0.296635 -1.24943
  36 436.494 0.523269 -2.22335
  37 441.545 1.18298 -4.52108
  38 453.170 0.437625 -6.08928
  39 468.157 0.712576 -10.0228
  40 485.779 -4.37340 -9.94665
  41 502.107 -5.24438 -1.27480
  42 494.936 -3.57830 8.05449
  43 476.931 3.78944 14.3244
  44 467.094 9.22921 -0.560280
  45 474.230 4.41717 -13.4653
  46 494.464 -5.32728 -9.80994
  47 497.587 -6.37064 3.50126
  48 488.292 -2.88486 8.58301
  49 465.053 0.116287 10.0906
  50 452.162 1.68492 7.71581
  51 441.855 1.35774 4.34337
  52 436.582 0.420992 2.03657
  53 433.251 0.351174 1.20721
  54 432.775 1.54011 0.748642
  55 432.023 3.15577 0.871966
  56 430.173 5.47811 0.776705
  57 429.433 6.36790 -0.0752010
  58 430.378 5.19792 -0.930648
  59 431.702 3.44056 -0.790817
  60 432.282 1.74752 -0.839411
  61 911.211 48.1770 96.0593
  62 831.559 13.5414 33.7857
  63 784.964 5.56289 12.4131
  64 774.975 4.04639 2.39402
  65 784.531 5.38381 -10.5897
  66 820.152 11.5929 -29.2643
  67 919.802 41.9162 -82.7236
  68 122.667 -131.915 -155.388
  69 24.2836 -314.380 -40.8030
  70 6.55555 -360.084 -17.8122
  71 6.27808 -353.861 -8.74191
  72 10.9792 -343.607 19.0734
  73 26.4369 -304.643 43.2492
  74 132.741 -122.607 172.075
  75 911.211 48.1770 96.0593
  76 831.559 13.5414 33.7857
  77 784.964 5.56289 12.4131
  78 774.975 4.04639 2.39402
  79 784.531 5.38381 -10.5897
  80 820.152 11.5929 -29.2643
  81 919.802 41.9162 -82.7236
  82 122.667 -131.915 -155.388
  83 24.2836 -314.380 -40.8030
  84 6.55555 -360.084 -17.8122
  85 6.27808 -353.861 -8.74191
  86 10.9792 -343.607 19.0734
  87 26.4369 -304.643 43.2492
  88 132.741 -122.607 172.075
  89 397.724 22.6436 -5.86995
  90 397.724 22.6436 -5.86995
  91 363.338 5.07508 53.3202
  92 349.190 -2.11663 -63.7275
  93 363.338 5.07508 53.3202
  94 349.190 -2.11663 -63.7275
  95 207.026 5.68357 25.7267
  96 207.026 5.68357 25.7267
  97 532.235 34.3855 -7.76900
  98 541.870 19.9467 15.3870
  99 532.235 34.3855 -7.76900
  100 541.870 19.9467 15.3870
  101 426.049 10.2217 5.82149
  102 426.049 10.2217 5.82149
  103 508.386 -28.9349 1.46549
  104 508.386 -28.9349 1.46549
  105 426.551 10.6888 -7.18620
  106 426.551 10.6888 -7.18620
  107 499.053 -61.7745 -57.0081
  108 499.053 -61.7745 -57.0081
  109 350.114 -73.0929 141.529
  110 350.114 -73.0929 141.529
  111 237.532 -42.6393 -114.333
  112 237.532 -42.6393 -114.333
  113 428.195 7.12621 25.1782
  114 428.195 7.12621 25.1782
  115 443.538 2.94045 -24.1128
  116 443.538 2.94045 -24.1128
  117 600.266 40.8971 7.42713
  118 642.420 41.4565 3.92318
  119 600.266 40.8971 7.42713
  120 642.420 41.4565 3.92318
  121 629.379 53.4551 -17.5914
  122 629.379 53.4551 -17.5914
  123 69.7500 -113.146 -37.9472
  124 69.7500 -113.146 -37.9472
  125 541.359 -66.9986 62.2543
  126 541.359 -66.9986 62.2543
  127 458.328 -11.1157 28.6371
  128 458.328 -11.1157 28.6371
  129 106.185 -97.5948 86.9681
  130 106.185 -97.5948 86.9681
  131 426.647 8.53169 -0.366247
  132 426.647 8.53169 -0.366247
  133 457.529 -21.4016 -36.5971
  134 457.529 -21.4016 -36.5971
  135 433.206 3.49614 4.20246
  136 433.206 3.49614 4.20246
  137 433.570 3.07655 -3.91931
  138 433.570 3.07655 -3.91931
  139 438.239 5.97848 -12.5932
  140 438.239 5.97848 -12.5932
  141 436.281 5.82834 11.3330
  142 436.281 5.82834 11.3330
  143 418.257 14.2409 -0.464104
  144 418.257 14.2409 -0.464104
  145 350.649 23.2018 -2.73268
  146 350.649 23.2018 -2.73268
  147 506.057 -18.0154 7.01329
  148 506.057 -18.0154 7.01329
  149 576.909 -19.3117 -24.4072
  150 576.909 -19.3117 -24.4072
  151 446.689 -49.9625 70.4347
  152 446.689 -49.9625 70.4347
  153 337.316 -91.0239 -159.635
  154 337.316 -91.0239 -159.635
  155 398.538 16.2763 24.0103
  156 398.538 16.2763 24.0103
  157 514.976 -2.99363 -17.9122
  158 514.976 -2.99363 -17.9122
  159 699.655 56.0373 40.9391
  160 699.655 56.0373 40.9391
  161 351.196 -97.7516 184.437
  162 351.196 -97.7516 184.437
  163 713.899 23.3870 -8.23397
  164 713.899 23.3870 -8.23397
  165 416.605 14.2038 11.1089
  166 416.605 14.2038 11.1089
  167 396.061 13.4629 -35.1887
  168 396.061 13.4629 -35.1887
  169 490.088 14.9163 10.9572
  170 490.088 14.9163 10.9572
  171 412.789 16.9599 -12.6270
  172 412.789 16.9599 -12.6270
  173 429.168 6.85643 1.83781
  174 429.168 6.85643 1.83781
  175 436.063 3.32744 -6.68616
  176 436.063 3.32744 -6.68616
  177 671.314 53.9123 -41.3868
  178 671.314 53.9123 -41.3868
  179 429.499 6.67452 -2.21835
  180 429.499 6.67452 -2.21835
  181 318.218 23.2830 -18.3641
  182 318.218 23.2830 -18.3641
  183 570.588 42.3520 2.77926
  184 570.588 42.3520 2.77926
  185 116.349 -95.8533 -112.125
  186 116.349 -95.8533 -112.125
  187 313.300 -3.26407 77.6775
  188 313.300 -3.26407 77.6775
  189 416.763 -67.4547 -109.683
  190 416.763 -67.4547 -109.683
  191 492.091 -13.5818 6.40010
  192 492.091 -13.5818 6.40010
  193 460.650 -1.60477 17.5811
  194 460.650 -1.60477 17.5811
  195 624.328 19.4891 39.2040
  196 624.328 19.4891 39.2040
  197 261.816 8.51245 -48.0359
  198 261.816 8.51245 -48.0359
  199 708.070 31.4856 18.9453
  200 708.070 31.4856 18.9453
  201 469.147 -5.80834 -18.5685
  202 469.147 -5.80834 -18.5685
  203 436.733 2.37484 6.16437
  204 436.733 2.37484 6.16437
  205 488.233 -19.2013 -9.91462
  206 488.233 -19.2013 -9.91462
  207 533.509 -26.6506 -4.55478
  208 533.509 -26.6506 -4.55478
  209 33.4043 -197.827 16.8341
  210 33.4043 -197.827 16.8341
  211 450.139 2.32383 -15.4461
  212 450.139 2.32383 -15.4461
  213 446.440 3.48293 13.4820
  214 446.440 3.48293 13.4820
  215 429.423 -39.5180 -69.7503
  216 429.423 -39.5180 -69.7503
  217 501.412 -10.6452 -10.9413
  218 501.412 -10.6452 -10.9413
  219 411.311 14.7810 -23.9974
  220 411.311 14.7810 -23.9974
  221 113.395 -140.676 123.167
  222 113.395 -140.676 123.167
  223 508.391 2.44162 17.0055
  224 508.391 2.44162 17.0055
  225 494.383 12.6758 -14.4812
  226 494.383 12.6758 -14.4812
  227 700.447 41.7937 -32.5784
  228 700.447 41.7937 -32.5784
  229 535.408 -19.6492 -7.79505
  230 535.408 -19.6492 -7.79505
  231 583.335 -24.7688 -105.423
  232 583.335 -24.7688 -105.423
  233 430.963 -19.4611 53.6283
  234 430.963 -19.4611 53.6283
  235 422.773 11.8892 1.87455
  236 422.773 11.8892 1.87455
  237 225.257 -32.9136 101.184
  238 225.257 -32.9136 101.184
  239 558.235 -47.1573 122.930
  240 558.235 -47.1573 122.930
  241 153.506 -19.3961 -50.1196
  242 153.506 -19.3961 -50.1196
  243 498.191 -37.4913 -24.6513
  244 498.191 -37.4913 -24.6513
  245 407.340 18.3010 13.8558
  246 407.340 18.3010 13.8558
  247 14.4567 -258.047 -13.7586
  248 14.4567 -258.047 -13.7586
  249 28.0270 -226.335 45.5485
  250 28.0270 -226.335 45.5485
  251 414.519 2.86882 38.4932
  252 414.519 2.86882 38.4932
  253 432.726 1.64134 1.51843
  254 432.726 1.64134 1.51843
  255 429.131 6.90398 0.289502
  256 429.131 6.90398 0.289502
  257 402.905 -4.98952 -51.2232
  258 402.905 -4.98952 -51.2232
  259 432.974 1.49603 -1.60849
  260 432.974 1.49603 -1.60849
  261 478.395 -33.7709 32.4824
  262 478.395 -33.7709 32.4824
  263 444.295 1.55665 -7.49082
  264 444.295 1.55665 -7.49082
  265 344.759 -29.2070 -95.3661
  266 344.759 -29.2070 -95.3661
  267 585.388 45.0487 -1.15802
  268 585.388 45.0487 -1.15802
  269 428.564 9.46045 -19.5189
  270 428.564 9.46045 -19.5189
  271 426.944 8.85314 -3.88118
  272 426.944 8.85314 -3.88118
  273 363.594 17.6517 -35.1906
  274 363.594 17.6517 -35.1906
  275 111.170 -42.2440 28.9723
  276 111.170 -42.2440 28.9723
  277 456.748 -76.0404 97.9377
  278 456.748 -76.0404 97.9377
  279 431.437 6.38987 7.59086
  280 431.437 6.38987 7.59086
  281 637.958 45.0570 -10.3227
  282 637.958 45.0570 -10.3227
  283 760.471 66.5408 90.7761
  284 760.471 66.5408 90.7761
  285 512.700 -54.5088 32.6635
  286 512.700 -54.5088 32.6635
  287 370.757 18.5133 25.7883
  288 370.757 18.5133 25.7883
  289 469.346 -93.6354 129.269
  290 469.346 -93.6354 129.269
  291 484.164 -5.73801 12.0362
  292 484.164 -5.73801 12.0362
  293 431.173 4.20882 2.07864
  294 431.173 4.20882 2.07864
  295 425.163 11.6167 -12.4220
  296 425.163 11.6167 -12.4220
  297 429.236 6.79361 -0.570991
  298 429.236 6.79361 -0.570991
  299 435.272 1.19786 -2.90382
  300 435.272 1.19786 -2.90382
  301 443.910 2.18646 7.51989
  302 443.910 2.18646 7.51989
  303 422.887 11.8264 -3.18657
  304 422.887 11.8264 -3.18657
  305 97.2691 -164.066 -117.279
  306 97.2691 -164.066 -117.279
  307 291.422 19.0534 24.0494
  308 291.422 19.0534 24.0494
  309 431.636 3.51344 -1.99641
  310 431.636 3.51344 -1.99641
  311 381.014 21.8849 -17.2684
  312 381.014 21.8849 -17.2684
  313 381.990 23.8625 6.57563
  314 381.990 23.8625 6.57563
  315 430.749 6.14444 -5.37554
  316 430.749 6.14444 -5.37554
  317 576.376 30.8071 -3.12022
  318 576.376 30.8071 -3.12022
  319 427.587 10.2936 17.0859
  320 427.587 10.2936 17.0859
  321 544.653 17.3693 -13.6169
  322 544.653 17.3693 -13.6169
  323 798.013 22.5031 54.0365
  324 798.013 22.5031 54.0365
  325 426.022 10.6573 10.7250
  326 426.022 10.6573 10.7250
  327 419.391 14.1085 5.61036
  328 419.391 14.1085 5.61036
  329 327.478 -68.1498 -184.107
  330 327.478 -68.1498 -184.107
  331 435.527 1.08270 2.84045
  332 435.527 1.08270 2.84045
  333 426.542 8.91967 2.90074
  334 426.542 8.91967 2.90074
  335 411.073 18.3063 0.643441
  336 411.073 18.3063 0.643441
  337 213.129 -75.2039 147.696
  338 213.129 -75.2039 147.696
  339 529.002 34.7387 2.40548
  340 529.002 34.7387 2.40548
  341 30.3100 -221.580 -52.5500
  342 30.3100 -221.580 -52.5500
  343 331.411 20.9039 21.3730
  344 331.411 20.9039 21.3730
  345 755.275 10.1995 7.38732
  346 755.275 10.1995 7.38732
  347 788.753 40.2296 -55.7885
  348 788.753 40.2296 -55.7885
  349 372.684 -43.1518 106.710
  350 388.711 -22.1683 78.8330
  351 372.684 -43.1518 106.710
  352 388.711 -22.1683 78.8330
  353 766.231 18.9486 28.1369
  354 766.231 18.9486 28.1369
  355 441.025 -0.657414 30.0181
  356 441.025 -0.657414 30.0181
  357 520.721 -70.3255 -76.4104
  358 520.721 -70.3255 -76.4104
  359 496.093 -4.24188 14.0079
  360 496.093 -4.24188 14.0079
  361 334.680 -68.3120 201.214
  362 334.680 -68.3120 201.214
  363 579.049 46.4217 -1.52945
  364 579.049 46.4217 -1.52945
  365 765.292 6.89544 -5.86081
  366 765.292 6.89544 -5.86081
  367 468.906 0.186513 -14.6478
  368 468.906 0.186513 -14.6478
  369 419.392 15.0068 -6.71926
  370 419.392 15.0068 -6.71926
  371 645.507 50.1835 17.2006
  372 645.507 50.1835 17.2006
  373 496.979 20.8410 -3.06313
  374 496.979 20.8410 -3.06313
  375 452.129 1.69264 -9.31194
  376 452.129 1.69264 -9.31194
  377 124.107 -60.6648 -85.0092
  378 124.107 -60.6648 -85.0092
  379 499.631 -9.01823 3.61062
  380 499.631 -9.01823 3.61062
  381 428.222 -0.719480 -35.4507
  382 428.222 -0.719480 -35.4507
  383 492.796 -0.981535 -16.7607
  384 492.796 -0.981535 -16.7607
  385 769.012 13.4969 -23.2617
  386 769.012 13.4969 -23.2617
  387 429.698 6.57536 4.24873
  388 429.698 6.57536 4.24873
  389 523.657 25.7455 13.7272
  390 523.657 25.7455 13.7272
  391 563.548 -11.6892 6.76929
  392 563.548 -11.6892 6.76929
  393 431.258 7.73474 -9.50168
  394 431.258 7.73474 -9.50168
  395 813.621 78.4117 -105.115
  396 813.621 78.4117 -105.115
  397 492.931 -7.23690 -5.29552
  398 492.931 -7.23690 -5.29552
</Section>

newXOutput 128

<Section columns = "stress_xx | stress_yy | stress_xy">
  1 435.212 0.425829 -0.478786
  2 435.411 0.526751 0.645449
  3 435.212 0.425829 -0.478786
  4 435.411 0.526751 0.645449
  5 664.355 48.5427 189.965
  6 689.940 47.4632 -186.934
  7 664.355 48.5427 189.965
  8 689.940 47.4632 -186.934
  9 436.271 0.298852 -1.25779
  10 439.779 0.527104 -2.23837
  11 444.863 1.19148 -4.55202
  12 456.566 0.440532 -6.13160
  13 471.656 0.716736 -10.0945
  14 489.402 -4.40843 -10.0213
  15 505.852 -5.28524 -1.28975
  16 498.652 -3.60514 8.10336
  17 480.542 3.82105 14.4173
  18 470.648 9.30229 -0.563999
  19 477.825 4.45170 -13.5535
  20 498.179 -5.36757 -9.86919
  21 501.300 -6.42040 3.53393
  22 491.933 -2.90779 8.64791
  23 468.532 0.115612 10.1634
  24 455.552 1.69668 7.76968
  25 445.175 1.36751 4.37303
  26 439.868 0.424089 2.05030
  27 436.515 0.353819 1.21533
  28 436.036 1.55136 0.753594
  29 435.279 3.17862 0.877811
  30 433.417 5.51747 0.781956
  31 432.673 6.41356 -0.0757058
  32 433.624 5.23532 -0.936899
  33 434.956 3.46547 -0.796015
  34 435.540 1.76034 -0.845044
  35 436.271 0.298852 -1.25779
  36 439.779 0.527104 -2.23837
  37 444.863 1.19148 -4.55202
  38 456.566 0.440532 -6.13160
  39 471.656 0.716736 -10.0945
  40 489.402 -4.40843 -10.0213
  41 505.852 -5.28524 -1.28975
  42 498.652 -3.60514 8.10336
  43 480.542 3.82105 14.4173
  44 470.648 9.30229 -0.563999
  45 477.825 4.45170 -13.5535
  46 498.179 -5.36757 -9.86919
  47 501.300 -6.42040 3.53393
  48 491.933 -2.90779 8.64791
  49 468.532 0.115612 10.1634
  50 455.552 1.69668 7.76968
  51 445.175 1.36751 4.37303
  52 439.868 0.424089 2.05030
  53 436.515 0.353819 1.21533
  54 436.036 1.55136 0.753594
  55 435.279 3.17862 0.877811
  56 433.417 5.51747 0.781956
  57 432.673 6.41356 -0.0757058
  58 433.624 5.23532 -0.936899
  59 434.956 3.46547 -0.796015
  60 435.540 1.76034 -0.845044
  61 917.684 48.5473 96.7671
  62 837.492 13.6355 34.0251
  63 790.591 5.59770 12.4980
  64 780.535 4.07260 2.40873
  65 790.154 5.41966 -10.6618
  66 826.014 11.6725 -29.4690
  67 926.337 42.2375 -83.3334
  68 123.576 -132.750 -156.660
  69 24.4643 -316.780 -41.1750
  70 6.59236 -362.916 -17.9741
  71 6.31387 -356.653 -8.81061
  72 11.0532 -346.297 19.2473
  73 26.6370 -306.968 43.6452
  74 133.713 -123.373 173.478
  75 917.684 48.5473 96.7671
  76 837.492 13.6355 34.0251
  77 790.591 5.59770 12.4980
  78 780.535 4.07260 2.40873
  79 790.154 5.41966 -10.6618
  80 826.014 11.6725 -29.4690
  81 926.337 42.2375 -83.3334
  82 123.576 -132.750 -156.660
  83 24.4643 -316.780 -41.1750
  84 6.59236 -362.916 -17.9741
  85 6.31387 -356.653 -8.81061
  86 11.0532 -346.297 19.2473
  87 26.6370 -306.968 43.6452
  88 133.713 -123.373 173.478
  89 400.747 22.8113 -5.91265
  90 400.747 22.8113 -5.91265
  91 366.105 5.11489 53.7193
  92 351.851 -2.13106 -64.2083
  93 366.105 5.11489 53.7193
  94 351.851 -2.13106 -64.2083
  95 208.646 5.74153 25.9248
  96 208.646 5.74153 25.9248
  97 536.236 34.6488 -7.81082
  98 545.923 20.1090 15.4619
  99 536.236 34.6488 -7.81082
  100 545.923 20.1090 15.4619
  101 429.267 10.2958 5.86194
  102 429.267 10.2958 5.86194
  103 512.182 -29.1515 1.50573
  104 512.182 -29.1515 1.50573
  105 429.771 10.7664 -7.23627
  106 429.771 10.7664 -7.23627
  107 502.761 -62.2414 -57.4616
  108 502.761 -62.2414 -57.4616
  109 352.748 -73.6516 142.627
  110 352.748 -73.6516 142.627
  111 239.352 -42.9573 -115.228
  112 239.352 -42.9573 -115.228
  113 431.425 7.17748 25.3617
  114 431.425 7.17748 25.3617
  115 446.874 2.95998 -24.2899
  116 446.874 2.95998 -24.2899
  117 604.725 41.2215 7.53394
  118 647.170 41.7564 3.96041
  119 604.725 41.2215 7.53394
  120 647.170 41.7564 3.96041
  121 634.044 53.8639 -17.7619
  122 634.044 53.8639 -17.7619
  123 70.2928 -113.979 -38.2618
  124 70.2928 -113.979 -38.2618
  125 545.358 -67.4859 62.7705
  126 545.358 -67.4859 62.7705
  127 461.766 -11.2014 28.8558
  128 461.766 -11.2014 28.8558
  129 107.010 -98.3094 87.6799
  130 107.010 -98.3094 87.6799
  131 429.869 8.59327 -0.368720
  132 429.869 8.59327 -0.368720
  133 460.959 -21.5651 -36.8799
  134 460.959 -21.5651 -36.8799
  135 436.470 3.52148 4.23114
  136 436.470 3.52148 4.23114
  137 436.836 3.09893 -3.94598
  138 436.836 3.09893 -3.94598
  139 441.537 6.02140 -12.6820
  140 441.537 6.02140 -12.6820
  141 439.566 5.87037 11.4125
  142 439.566 5.87037 11.4125
  143 421.423 14.3447 -0.467486
  144 421.423 14.3447 -0.467486
  145 353.337 23.3770 -2.75335
  146 353.337 23.3770 -2.75335
  147 509.843 -18.1488 7.04026
  148 509.843 -18.1488 7.04026
  149 581.176 -19.4247 -24.6515
  150 581.176 -19.4247 -24.6515
  151 450.030 -50.3428 70.9773
  152 450.030 -50.3428 70.9773
  153 339.836 -91.6977 -160.901
  154 339.836 -91.6977 -160.901
  155 401.564 16.3975 24.1862
  156 401.564 16.3975 24.1862
  157 518.833 -3.01071 -18.0147
  158 518.833 -3.01071 -18.0147
  159 704.784 56.4644 41.2748
  160 704.784 56.4644 41.2748
  161 353.815 -98.4852 185.887
  162 353.815 -98.4852 185.887
  163 719.103 23.5491 -8.29648
  164 719.103 23.5491 -8.29648
  165 419.759 14.3075 11.1879
  166 419.759 14.3075 11.1879
  167 399.067 13.5635 -35.4491
  168 399.067 13.5635 -35.4491
  169 493.795 15.0340 11.0271
  170 493.795 15.0340 11.0271
  171 415.916 17.0843 -12.7174
  172 415.916 17.0843 -12.7174
  173 432.406 6.90582 1.85037
  174 432.406 6.90582 1.85037
  175 439.345 3.35142 -6.73226
  176 439.345 3.35142 -6.73226
  177 676.246 54.3502 -41.7530
  178 676.246 54.3502 -41.7530
  179 432.739 6.72268 -2.23346
  180 432.739 6.72268 -2.23346
  181 320.667 23.4628 -18.5021
  182 320.667 23.4628 -18.5021
  183 574.852 42.6747 2.77128
  184 574.852 42.6747 2.77128
  185 117.246 -96.5547 -113.039
  186 117.246 -96.5547 -113.039
  187 315.697 -3.28511 78.2671
  188 315.697 -3.28511 78.2671
  189 419.880 -67.9688 -110.533
  190 419.880 -67.9688 -110.533
  191 495.772 -13.6860 6.46144
  192 495.772 -13.6860 6.46144
  193 464.103 -1.61895 17.7111
  194 464.103 -1.61895 17.7111
  195 628.929 19.6775 39.5638
  196 628.929 19.6775 39.5638
  197 263.841 8.58579 -48.4033
  198 263.841 8.58579 -48.4033
  199 713.244 31.7087 19.0925
  200 713.244 31.7087 19.0925
  201 472.660 -5.85443 -18.7101
  202 472.660 -5.85443 -18.7101
  203 440.020 2.39188 6.20679
  204 440.020 2.39188 6.20679
  205 491.884 -19.3487 -10.0036
  206 491.884 -19.3487 -10.0036
  207 537.480 -26.8417 -4.62971
  208 537.480 -26.8417 -4.62971
  209 33.6586 -199.331 16.9783
  210 33.6586 -199.331 16.9783
  211 453.519 2.33908 -15.5572
  212 453.519 2.33908 -15.5572
  213 449.794 3.50758 13.5781
  214 449.794 3.50758 13.5781
  215 432.647 -39.8187 -70.2855
  216 432.647 -39.8187 -70.2855
  217 505.170 -10.7253 -11.0011
  218 505.170 -10.7253 -11.0011
  219 414.425 14.8901 -24.1728
  220 414.425 14.8901 -24.1728
  221 114.253 -141.702 124.182
  222 114.253 -141.702 124.182
  223 512.210 2.46684 17.1060
  224 512.210 2.46684 17.1060
  225 498.116 12.7763 -14.5717
  226 498.116 12.7763 -14.5717
  227 705.577 42.0983 -32.8390
  228 705.577 42.0983 -32.8390
  229 539.396 -19.7871 -7.81188
  230 539.396 -19.7871 -7.81188
  231 587.617 -24.8888 -106.289
  232 587.617 -24.8888 -106.289
  233 434.203 -19.6088 54.0339
  234 434.203 -19.6088 54.0339
  235 425.969 11.9755 1.88765
  236 425.969 11.9755 1.88765
  237 226.991 -33.1555 101.973
  238 226.991 -33.1555 101.973
  239 562.332 -47.4585 123.924
  240 562.332 -47.4585 123.924
  241 154.710 -19.5221 -50.5147
  242 154.710 -19.5221 -50.5147
  243 501.906 -37.7750 -24.8588
  244 501.906 -37.7750 -24.8588
  245 410.429 18.4361 13.9559
  246 410.429 18.4361 13.9559
  247 14.5592 -260.035 -13.8795
  248 14.5592 -260.035 -13.8795
  249 28.2371 -228.054 45.9457
  250 28.2371 -228.054 45.9457
  251 417.652 2.88963 38.7790
  252 417.652 2.88963 38.7790
  253 435.987 1.65333 1.52865
  254 435.987 1.65333 1.52865
  255 432.369 6.95356 0.291493
  256 432.369 6.95356 0.291493
  257 405.952 -5.02785 -51.6078
  258 405.952 -5.02785 -51.6078
  259 436.236 1.50703 -1.61932
  260 436.236 1.50703 -1.61932
  261 481.970 -34.0273 32.7417
  262 481.970 -34.0273 32.7417
  263 447.633 1.56760 -7.54279
  264 447.633 1.56760 -7.54279
  265 347.374 -29.4290 -96.0954
  266 347.374 -29.4290 -96.0954
  267 589.755 45.3897 -1.13811
  268 589.755 45.3897 -1.13811
  269 431.798 9.52899 -19.6593
  270 431.798 9.52899 -19.6593
  271 430.167 8.91719 -3.90791
  272 430.167 8.91719 -3.90791
  273 366.369 17.7856 -35.4525
  274 366.369 17.7856 -35.4525
  275 112.046 -42.5349 29.2052
  276 112.046 -42.5349 29.2052
  277 460.147 -76.6188 98.7007
  278 460.147 -76.6188 98.7007
  279 434.689 6.43611 7.64341
  280 434.689 6.43611 7.64341
  281 642.680 45.3865 -10.4139
  282 642.680 45.3865 -10.4139
  283 765.983 67.0880 91.4954
  284 765.983 67.0880 91.4954
  285 516.511 -54.9168 32.9421
  286 516.511 -54.9168 32.9421
  287 373.586 18.6529 25.9786
  288 373.586 18.6529 25.9786
  289 472.821 -94.3431 130.280
  290 472.821 -94.3431 130.280
  291 487.782 -5.78308 12.1300
  292 487.782 -5.78308 12.1300
  293 434.424 4.23922 2.09275
  294 434.424 4.23922 2.09275
  295 428.374 11.7013 -12.5097
  296 428.374 11.7013 -12.5097
  297 432.475 6.84241 -0.574867
  298 432.475 6.84241 -0.574867
  299 438.549 1.20658 -2.92353
  300 438.549 1.20658 -2.92353
  301 447.246 2.20201 7.57206
  302 447.246 2.20201 7.57206
  303 426.084 11.9123 -3.20881
  304 426.084 11.9123 -3.20881
  305 98.0020 -165.259 -118.253
  306 98.0020 -165.259 -118.253
  307 293.673 19.2036 24.2304
  308 293.673 19.2036 24.2304
  309 434.889 3.53889 -2.00991
  310 434.889 3.53889 -2.00991
  311 383.918 22.0484 -17.3955
  312 383.918 22.0484 -17.3955
  313 384.901 24.0406 6.62351
  314 384.901 24.0406 6.62351
  315 433.997 6.18890 -5.41251
  316 433.997 6.18890 -5.41251
  317 580.665 31.0600 -3.19586
  318 580.665 31.0600 -3.19586
  319 430.815 10.3685 17.2079
  320 430.815 10.3685 17.2079
  321 548.723 17.5117 -13.6792
  322 548.723 17.5117 -13.6792
  323 803.762 22.6604 54.4394
  324 803.762 22.6604 54.4394
  325 429.239 10.7347 10.8004
  326 429.239 10.7347 10.8004
  327 422.564 14.2113 5.64981
  328 422.564 14.2113 5.64981
  329 329.895 -68.5397 -185.590
  330 329.895 -68.5397 -185.590
  331 438.806 1.09057 2.85971
  332 438.806 1.09057 2.85971
  333 429.763 8.98413 2.92074
  334 429.763 8.98413 2.92074
  335 414.190 18.4407 0.647997
  336 414.190 18.4407 0.647997
  337 214.757 -75.7694 148.870
  338 214.757 -75.7694 148.870
  339 532.983 35.0042 2.41676
  340 532.983 35.0042 2.41676
  341 30.5338 -223.260 -53.0003
  342 30.5338 -223.260 -53.0003
  343 333.957 21.0639 21.5319
  344 333.957 21.0639 21.5319
  345 760.728 10.2681 7.43843
  346 760.728 10.2681 7.43843
  347 794.455 40.5312 -56.2093
  348 794.455 40.5312 -56.2093
  349 375.493 -43.4814 107.527
  350 391.647 -22.3363 79.4286
  351 375.493 -43.4814 107.527
  352 391.647 -22.3363 79.4286
  353 771.764 19.0786 28.3413
  354 771.764 19.0786 28.3413
  355 444.343 -0.664083 30.2407
  356 444.343 -0.664083 30.2407
  357 524.570 -70.8479 -77.0256
  358 524.570 -70.8479 -77.0256
  359 499.822 -4.27190 14.0949
  360 499.822 -4.27190 14.0949
  361 337.134 -68.7103 202.823
  362 337.134 -68.7103 202.823
  363 583.377 46.7676 -1.53964
  364 583.377 46.7676 -1.53964
  365 770.803 6.94125 -5.90263
  366 770.803 6.94125 -5.90263
  367 472.414 0.185806 -14.7550
  368 472.414 0.185806 -14.7550
  369 422.565 15.1163 -6.76666
  370 422.565 15.1163 -6.76666
  371 650.280 50.5573 17.3569
  372 650.280 50.5573 17.3569
  373 500.736 21.0020 -3.08230
  374 500.736 21.0020 -3.08230
  375 455.519 1.70409 -9.37754
  376 455.519 1.70409 -9.37754
  377 125.083 -61.1033 -85.6932
  378 125.083 -61.1033 -85.6932
  379 503.369 -9.08688 3.62433
  380 503.369 -9.08688 3.62433
  381 431.451 -0.726655 -35.7151
  382 431.451 -0.726655 -35.7151
  383 496.508 -0.987242 -16.8663
  384 496.508 -0.987242 -16.8663
  385 774.561 13.5907 -23.4291
  386 774.561 13.5907 -23.4291
  387 432.939 6.62284 4.27788
  388 432.939 6.62284 4.27788
  389 527.592 25.9468 13.8043
  390 527.592 25.9468 13.8043
  391 567.727 -11.7561 6.87336
  392 567.727 -11.7561 6.87336
  393 434.509 7.79080 -9.56785
  394 434.509 7.79080 -9.56785
  395 819.482 79.0649 -105.939
  396 819.482 79.0649 -105.939
  397 496.611 -7.29359 -5.34135
  398 496.611 -7.29359 -5.34135
</Section>

newXOutput 129

<Section columns = "stress_xx | stress_yy | stress_xy">
  1 438.465 0.429078 -0.481938
  2 438.666 0.530700 0.649690
  3 438.465 0.429078 -0.481938
  4 438.666 0.530700 0.649690
  5 669.091 49.0633 191.448
  6 694.846 47.9821 -188.396
  7 669.091 49.0633 191.448
  8 694.846 47.9821 -188.396
  9 439.530 0.301068 -1.26612
  10 443.062 0.530934 -2.25334
  11 448.179 1.19997 -4.58290
  12 459.959 0.443430 -6.17383
  13 475.152 0.720875 -10.1661
  14 493.022 -4.44346 -10.0958
  15 509.594 -5.32608 -1.30477
  16 502.365 -3.63196 8.15202
  17 484.152 3.85268 14.5099
  18 474.199 9.37536 -0.567708
  19 481.417 4.48623 -13.6414
  20 501.890 -5.40784 -9.92817
  21 505.010 -6.47014 3.56667
  22 495.571 -2.93073 8.71275
  23 472.007 0.114914 10.2361
  24 458.939 1.70843 7.82344
  25 448.493 1.37725 4.40261
  26 443.151 0.427183 2.06399
  27 439.777 0.356462 1.22343
  28 439.294 1.56259 0.758532
  29 438.533 3.20144 0.883640
  30 436.659 5.55677 0.787194
  31 435.911 6.45914 -0.0762093
  32 436.867 5.27266 -0.943134
  33 438.207 3.49036 -0.801198
  34 438.794 1.77315 -0.850663
  35 439.530 0.301068 -1.26612
  36 443.062 0.530934 -2.25334
  37 448.179 1.19997 -4.58290
  38 459.959 0.443430 -6.17383
  39 475.152 0.720875 -10.1661
  40 493.022 -4.44346 -10.0958
  41 509.594 -5.32608 -1.30477
  42 502.365 -3.63196 8.15202
  43 484.152 3.85268 14.5099
  44 474.199 9.37536 -0.567708
  45 481.417 4.48623 -13.6414
  46 501.890 -5.40784 -9.92817
  47 505.010 -6.47014 3.56667
  48 495.571 -2.93073 8.71275
  49 472.007 0.114914 10.2361
  50 458.939 1.70843 7.82344
  51 448.493 1.37725 4.40261
  52 443.151 0.427183 2.06399
  53 439.777 0.356462 1.22343
  54 439.294 1.56259 0.758532
  55 438.533 3.20144 0.883640
  56 436.659 5.55677 0.787194
  57 435.911 6.45914 -0.0762093
  58 436.867 5.27266 -0.943134
  59 438.207 3.49036 -0.801198
  60 438.794 1.77315 -0.850663
  61 924.146 48.9175 97.4739
  62 843.417 13.7295 34.2641
  63 796.210 5.63239 12.5827
  64 786.087 4.09873 2.42338
  65 795.768 5.45542 -10.7336
  66 831.866 11.7520 -29.6733
  67 932.861 42.5587 -83.9426
  68 124.483 -133.583 -157.932
  69 24.6449 -319.179 -41.5478
  70 6.62894 -365.748 -18.1362
  71 6.34946 -359.445 -8.87929
  72 11.1270 -348.986 19.4217
  73 26.8369 -309.290 44.0420
  74 134.683 -124.135 174.882
  75 924.146 48.9175 97.4739
  76 843.417 13.7295 34.2641
  77 796.210 5.63239 12.5827
  78 786.087 4.09873 2.42338
  79 795.768 5.45542 -10.7336
  80 831.866 11.7520 -29.6733
  81 932.861 42.5587 -83.9426
  82 124.483 -133.583 -157.932
  83 24.6449 -319.179 -41.5478
  84 6.62894 -365.748 -18.1362
  85 6.34946 -359.445 -8.87929
  86 11.1270 -348.986 19.4217
  87 26.8369 -309.290 44.0420
  88 134.683 -124.135 174.882
  89 403.768 22.9788 -5.95529
  90 403.768 22.9788 -5.95529
  91 368.870 5.15469 54.1180
  92 354.511 -2.14546 -64.6886
  93 368.870 5.15469 54.1180
  94 354.511 -2.14546 -64.6886
  95 210.265 5.79967 26.1227
  96 210.265 5.79967 26.1227
  97 540.233 34.9120 -7.85236
  98 549.973 20.2714 15.5361
  99 540.233 34.9120 -7.85236
  100 549.973 20.2714 15.5361
  101 432.482 10.3698 5.90231
  102 432.482 10.3698 5.90231
  103 515.975 -29.3679 1.54637
  104 515.975 -29.3679 1.54637
  105 432.989 10.8440 -7.28624
  106 432.989 10.8440 -7.28624
  107 506.466 -62.7081 -57.9152
  108 506.466 -62.7081 -57.9152
  109 355.380 -74.2100 143.724
  110 355.380 -74.2100 143.724
  111 241.171 -43.2749 -116.122
  112 241.171 -43.2749 -116.122
  113 434.653 7.22866 25.5449
  114 434.653 7.22866 25.5449
  115 450.207 2.97946 -24.4667
  116 450.207 2.97946 -24.4667
  117 609.181 41.5458 7.64139
  118 651.916 42.0559 3.99772
  119 609.181 41.5458 7.64139
  120 651.916 42.0559 3.99772
  121 638.705 54.2724 -17.9328
  122 638.705 54.2724 -17.9328
  123 70.8354 -114.811 -38.5767
  124 70.8354 -114.811 -38.5767
  125 549.353 -67.9725 63.2871
  126 549.353 -67.9725 63.2871
  127 465.202 -11.2871 29.0745
  128 465.202 -11.2871 29.0745
  129 107.835 -99.0230 88.3921
  130 107.835 -99.0230 88.3921
  131 433.088 8.65476 -0.371187
  132 433.088 8.65476 -0.371187
  133 464.386 -21.7285 -37.1626
  134 464.386 -21.7285 -37.1626
  135 439.731 3.54678 4.25975
  136 439.731 3.54678 4.25975
  137 440.099 3.12128 -3.97259
  138 440.099 3.12128 -3.97259
  139 444.833 6.06426 -12.7707
  140 444.833 6.06426 -12.7707
  141 442.849 5.91234 11.4918
  142 442.849 5.91234 11.4918
  143 424.586 14.4483 -0.470864
  144 424.586 14.4483 -0.470864
  145 356.023 23.5521 -2.77401
  146 356.023 23.5521 -2.77401
  147 513.626 -18.2821 7.06683
  148 513.626 -18.2821 7.06683
  149 585.438 -19.5371 -24.8965
  150 585.438 -19.5371 -24.8965
  151 453.368 -50.7230 71.5196
  152 453.368 -50.7230 71.5196
  153 342.353 -92.3708 -162.167
  154 342.353 -92.3708 -162.167
  155 404.587 16.5185 24.3618
  156 404.587 16.5185 24.3618
  157 522.686 -3.02770 -18.1166
  158 522.686 -3.02770 -18.1166
  159 709.906 56.8913 41.6106
  160 709.906 56.8913 41.6106
  161 356.432 -99.2182 187.337
  162 356.432 -99.2182 187.337
  163 724.301 23.7108 -8.35894
  164 724.301 23.7108 -8.35894
  165 422.910 14.4112 11.2668
  166 422.910 14.4112 11.2668
  167 402.070 13.6640 -35.7091
  168 402.070 13.6640 -35.7091
  169 497.500 15.1516 11.0969
  170 497.500 15.1516 11.0969
  171 419.041 17.2086 -12.8076
  172 419.041 17.2086 -12.8076
  173 435.641 6.95514 1.86289
  174 435.641 6.95514 1.86289
  175 442.626 3.37536 -6.77826
  176 442.626 3.37536 -6.77826
  177 681.172 54.7881 -42.1196
  178 681.172 54.7881 -42.1196
  179 435.976 6.77077 -2.24853
  180 435.976 6.77077 -2.24853
  181 323.116 23.6424 -18.6400
  182 323.116 23.6424 -18.6400
  183 579.112 42.9973 2.76290
  184 579.112 42.9973 2.76290
  185 118.142 -97.2553 -113.953
  186 118.142 -97.2553 -113.953
  187 318.092 -3.30609 78.8562
  188 318.092 -3.30609 78.8562
  189 422.995 -68.4827 -111.383
  190 422.995 -68.4827 -111.383
  191 499.449 -13.7901 6.52291
  192 499.449 -13.7901 6.52291
  193 467.552 -1.63316 17.8408
  194 467.552 -1.63316 17.8408
  195 633.525 19.8663 39.9242
  196 633.525 19.8663 39.9242
  197 265.866 8.65920 -48.7703
  198 265.866 8.65920 -48.7703
  199 718.412 31.9315 19.2396
  200 718.412 31.9315 19.2396
  201 476.171 -5.90053 -18.8516
  202 476.171 -5.90053 -18.8516
  203 443.305 2.40889 6.24912
  204 443.305 2.40889 6.24912
  205 495.532 -19.4960 -10.0928
  206 495.532 -19.4960 -10.0928
  207 541.447 -27.0325 -4.70517
  208 541.447 -27.0325 -4.70517
  209 33.9127 -200.835 17.1228
  210 33.9127 -200.835 17.1228
  211 456.895 2.35429 -15.6682
  212 456.895 2.35429 -15.6682
  213 453.145 3.53217 13.6741
  214 453.145 3.53217 13.6741
  215 435.867 -40.1193 -70.8204
  216 435.867 -40.1193 -70.8204
  217 508.924 -10.8053 -11.0605
  218 508.924 -10.8053 -11.0605
  219 417.538 14.9991 -24.3480
  220 417.538 14.9991 -24.3480
  221 115.110 -142.727 125.198
  222 115.110 -142.727 125.198
  223 516.026 2.49215 17.2059
  224 516.026 2.49215 17.2059
  225 501.846 12.8768 -14.6619
  226 501.846 12.8768 -14.6619
  227 710.700 42.4025 -33.0997
  228 710.700 42.4025 -33.0997
  229 543.379 -19.9248 -7.82808
  230 543.379 -19.9248 -7.82808
  231 591.894 -25.0077 -107.156
  232 591.894 -25.0077 -107.156
  233 437.441 -19.7564 54.4393
  234 437.441 -19.7564 54.4393
  235 429.162 12.0617 1.90072
  236 429.162 12.0617 1.90072
  237 228.724 -33.3971 102.763
  238 228.724 -33.3971 102.763
  239 566.424 -47.7587 124.919
  240 566.424 -47.7587 124.919
  241 155.914 -19.6477 -50.9097
  242 155.914 -19.6477 -50.9097
  243 505.618 -38.0586 -25.0665
  244 505.618 -38.0586 -25.0665
  245 413.515 18.5709 14.0558
  246 413.515 18.5709 14.0558
  247 14.6616 -262.022 -14.0006
  248 14.6616 -262.022 -14.0006
  249 28.4470 -229.772 46.3434
  250 28.4470 -229.772 46.3434
  251 420.782 2.91041 39.0646
  252 420.782 2.91041 39.0646
  253 439.245 1.66531 1.53884
  254 439.245 1.66531 1.53884
  255 435.604 7.00306 0.293478
  256 435.604 7.00306 0.293478
  257 408.998 -5.06616 -51.9920
  258 408.998 -5.06616 -51.9920
  259 439.496 1.51802 -1.63012
  260 439.496 1.51802 -1.63012
  261 485.542 -34.2835 33.0010
  262 485.542 -34.2835 33.0010
  263 450.967 1.57852 -7.59466
  264 450.967 1.57852 -7.59466
  265 349.987 -29.6509 -96.8243
  266 349.987 -29.6509 -96.8243
  267 594.117 45.7306 -1.11780
  268 594.117 45.7306 -1.11780
  269 435.029 9.59744 -19.7995
  270 435.029 9.59744 -19.7995
  271 433.388 8.98115 -3.93457
  272 433.388 8.98115 -3.93457
  273 369.143 17.9194 -35.7142
  274 369.143 17.9194 -35.7142
  275 112.922 -42.8251 29.4380
  276 112.922 -42.8251 29.4380
  277 463.544 -77.1968 99.4633
  278 463.544 -77.1968 99.4633
  279 437.940 6.48229 7.69584
  280 437.940 6.48229 7.69584
  281 647.397 45.7155 -10.5053
  282 647.397 45.7155 -10.5053
  283 771.487 67.6354 92.2146
  284 771.487 67.6354 92.2146
  285 520.318 -55.3244 33.2210
  286 520.318 -55.3244 33.2210
  287 376.413 18.7924 26.1686
  288 376.413 18.7924 26.1686
  289 476.293 -95.0503 131.290
  290 476.293 -95.0503 131.290
  291 491.397 -5.82814 12.2237
  292 491.397 -5.82814 12.2237
  293 437.672 4.26957 2.10681
  294 437.672 4.26957 2.10681
  295 431.583 11.7858 -12.5973
  296 431.583 11.7858 -12.5973
  297 435.711 6.89115 -0.578734
  298 435.711 6.89115 -0.578734
  299 441.824 1.21529 -2.94319
  300 441.824 1.21529 -2.94319
  301 450.578 2.21753 7.62411
  302 450.578 2.21753 7.62411
  303 429.278 11.9980 -3.23099
  304 429.278 11.9980 -3.23099
  305 98.7342 -166.450 -119.228
  306 98.7342 -166.450 -119.228
  307 295.923 19.3537 24.4113
  308 295.923 19.3537 24.4113
  309 438.140 3.56431 -2.02338
  310 438.140 3.56431 -2.02338
  311 386.820 22.2117 -17.5224
  312 386.820 22.2117 -17.5224
  313 387.811 24.2186 6.67134
  314 387.811 24.2186 6.67134
  315 437.243 6.23330 -5.44940
  316 437.243 6.23330 -5.44940
  317 584.949 31.3131 -3.27219
  318 584.949 31.3131 -3.27219
  319 434.039 10.4433 17.3296
  320 434.039 10.4433 17.3296
  321 552.790 17.6542 -13.7408
  322 552.790 17.6542 -13.7408
  323 809.503 22.8174 54.8418
  324 809.503 22.8174 54.8418
  325 432.454 10.8121 10.8757
  326 432.454 10.8121 10.8757
  327 425.735 14.3140 5.68919
  328 425.735 14.3140 5.68919
  329 332.309 -68.9273 -187.073
  330 332.309 -68.9273 -187.073
  331 442.083 1.09843 2.87893
  332 442.083 1.09843 2.87893
  333 432.982 9.04850 2.94070
  334 432.982 9.04850 2.94070
  335 417.304 18.5748 0.652546
  336 417.304 18.5748 0.652546
  337 216.384 -76.3345 150.044
  338 216.384 -76.3345 150.044
  339 536.960 35.2696 2.42793
  340 536.960 35.2696 2.42793
  341 30.7574 -224.939 -53.4511
  342 30.7574 -224.939 -53.4511
  343 336.502 21.2239 21.6906
  344 336.502 21.2239 21.6906
  345 766.172 10.3365 7.48944
  346 766.172 10.3365 7.48944
  347 800.148 40.8325 -56.6298
  348 800.148 40.8325 -56.6298
  349 378.300 -43.8108 108.343
  350 394.581 -22.5043 80.0238
  351 378.300 -43.8108 108.343
  352 394.581 -22.5043 80.0238
  353 777.290 19.2084 28.5454
  354 777.290 19.2084 28.5454
  355 447.659 -0.670774 30.4630
  356 447.659 -0.670774 30.4630
  357 528.415 -71.3697 -77.6409
  358 528.415 -71.3697 -77.6409
  359 503.547 -4.30187 14.1817
  360 503.547 -4.30187 14.1817
  361 339.586 -69.1065 204.432
  362 339.586 -69.1065 204.432
  363 587.700 47.1132 -1.54979
  364 587.700 47.1132 -1.54979
  365 776.306 6.98693 -5.94438
  366 776.306 6.98693 -5.94438
  367 475.918 0.185069 -14.8620
  368 475.918 0.185069 -14.8620
  369 425.735 15.2257 -6.81398
  370 425.735 15.2257 -6.81398
  371 655.047 50.9307 17.5134
  372 655.047 50.9307 17.5134
  373 504.490 21.1630 -3.10140
  374 504.490 21.1630 -3.10140
  375 458.906 1.71552 -9.44303
  376 458.906 1.71552 -9.44303
  377 126.059 -61.5411 -86.3774
  378 126.059 -61.5411 -86.3774
  379 507.103 -9.15547 3.63783
  380 507.103 -9.15547 3.63783
  381 434.677 -0.733852 -35.9793
  382 434.677 -0.733852 -35.9793
  383 500.217 -0.992916 -16.9716
  384 500.217 -0.992916 -16.9716
  385 780.102 13.6844 -23.5963
  386 780.102 13.6844 -23.5963
  387 436.178 6.67025 4.30697
  388 436.178 6.67025 4.30697
  389 531.523 26.1481 13.8810
  390 531.523 26.1481 13.8810
  391 571.902 -11.8226 6.97813
  392 571.902 -11.8226 6.97813
  393 437.758 7.84678 -9.63389
  394 437.758 7.84678 -9.63389
  395 825.334 79.7185 -106.763
  396 825.334 79.7185 -106.763
  397 500.288 -7.35027 -5.38722
  398 500.288 -7.35027 -5.38722
</Section>

newXOutput 130

<Section columns = "stress_xx | stress_yy | stress_xy">
  1 441.715 0.432324 -0.485082
  2 441.918 0.534646 0.653920
  3 441.715 0.432324 -0.485082
  4 441.918 0.534646 0.653920
  5 673.821 49.5859 192.932
  6 699.744 48.5032 -189.857
  7 673.821 49.5859 192.932
  8 699.744 48.5032 -189.857
  9 442.788 0.303282 -1.27444
  10 446.341 0.534759 -2.26829
  11 451.492 1.20844 -4.61370
  12 463.349 0.446321 -6.21597
  13 478.644 0.724993 -10.2377
  14 496.638 -4.47849 -10.1703
  15 513.332 -5.36691 -1.31986
  16 506.075 -3.65876 8.20047
  17 487.758 3.88433 14.6022
  18 477.748 9.44843 -0.571405
  19 485.006 4.52076 -13.7291
  20 505.598 -5.44808 -9.98690
  21 508.717 -6.51987 3.59947
  22 499.205 -2.95366 8.77755
  23 475.480 0.114195 10.3086
  24 462.323 1.72015 7.87710
  25 451.809 1.38699 4.43213
  26 446.431 0.430273 2.07765
  27 443.036 0.359102 1.23150
  28 442.549 1.57381 0.763456
  29 441.784 3.22423 0.889455
  30 439.899 5.59602 0.792419
  31 439.145 6.50466 -0.0767115
  32 440.107 5.30995 -0.949353
  33 441.456 3.51520 -0.806366
  34 442.047 1.78594 -0.856266
  35 442.788 0.303282 -1.27444
  36 446.341 0.534759 -2.26829
  37 451.492 1.20844 -4.61370
  38 463.349 0.446321 -6.21597
  39 478.644 0.724993 -10.2377
  40 496.638 -4.47849 -10.1703
  41 513.332 -5.36691 -1.31986
  42 506.075 -3.65876 8.20047
  43 487.758 3.88433 14.6022
  44 477.748 9.44843 -0.571405
  45 485.006 4.52076 -13.7291
  46 505.598 -5.44808 -9.98690
  47 508.717 -6.51987 3.59947
  48 499.205 -2.95366 8.77755
  49 475.480 0.114195 10.3086
  50 462.323 1.72015 7.87710
  51 451.809 1.38699 4.43213
  52 446.431 0.430273 2.07765
  53 443.036 0.359102 1.23150
  54 442.549 1.57381 0.763456
  55 441.784 3.22423 0.889455
  56 439.899 5.59602 0.792419
  57 439.145 6.50466 -0.0767115
  58 440.107 5.30995 -0.949353
  59 441.456 3.51520 -0.806366
  60 442.047 1.78594 -0.856266
  61 930.597 49.2875 98.1799
  62 849.331 13.8232 34.5027
  63 801.820 5.66695 12.6673
  64 791.631 4.12478 2.43797
  65 801.374 5.49108 -10.8053
  66 837.710 11.8312 -29.8773
  67 939.374 42.8796 -84.5509
  68 125.389 -134.412 -159.205
  69 24.8252 -321.576 -41.9213
  70 6.66530 -368.580 -18.2987
  71 6.38483 -362.237 -8.94796
  72 11.2006 -351.675 19.5964
  73 27.0367 -311.612 44.4396
  74 135.652 -124.894 176.286
  75 930.597 49.2875 98.1799
  76 849.331 13.8232 34.5027
  77 801.820 5.66695 12.6673
  78 791.631 4.12478 2.43797
  79 801.374 5.49108 -10.8053
  80 837.710 11.8312 -29.8773
  81 939.374 42.8796 -84.5509
  82 125.389 -134.412 -159.205
  83 24.8252 -321.576 -41.9213
  84 6.66530 -368.580 -18.2987
  85 6.38483 -362.237 -8.94796
  86 11.2006 -351.675 19.5964
  87 27.0367 -311.612 44.4396
  88 135.652 -124.894 176.286
  89 406.787 23.1461 -5.99787
  90 406.787 23.1461 -5.99787
  91 371.633 5.19449 54.5163
  92 357.170 -2.15983 -65.1686
  93 371.633 5.19449 54.5163
  94 357.170 -2.15983 -65.1686
  95 211.884 5.85798 26.3206
  96 211.884 5.85798 26.3206
  97 544.227 35.1750 -7.89362
  98 554.018 20.4339 15.6097
  99 544.227 35.1750 -7.89362
  100 554.018 20.4339 15.6097
  101 435.695 10.4437 5.94259
  102 435.695 10.4437 5.94259
  103 519.764 -29.5841 1.58741
  104 519.764 -29.5841 1.58741
  105 436.205 10.9214 -7.33610
  106 436.205 10.9214 -7.33610
  107 510.167 -63.1743 -58.3687
  108 510.167 -63.1743 -58.3687
  109 358.011 -74.7681 144.822
  110 358.011 -74.7681 144.822
  111 242.989 -43.5923 -117.016
  112 242.989 -43.5923 -117.016
  113 437.878 7.27977 25.7278
  114 437.878 7.27977 25.7278
  115 453.537 2.99889 -24.6434
  116 453.537 2.99889 -24.6434
  117 613.631 41.8701 7.74949
  118 656.656 42.3550 4.03511
  119 613.631 41.8701 7.74949
  120 656.656 42.3550 4.03511
  121 643.361 54.6807 -18.1040
  122 643.361 54.6807 -18.1040
  123 71.3780 -115.642 -38.8918
  124 71.3780 -115.642 -38.8918
  125 553.343 -68.4584 63.8040
  126 553.343 -68.4584 63.8040
  127 468.634 -11.3728 29.2930
  128 468.634 -11.3728 29.2930
  129 108.660 -99.7357 89.1045
  130 108.660 -99.7357 89.1045
  131 436.304 8.71615 -0.373648
  132 436.304 8.71615 -0.373648
  133 467.810 -21.8918 -37.4451
  134 467.810 -21.8918 -37.4451
  135 442.990 3.57206 4.28830
  136 442.990 3.57206 4.28830
  137 443.360 3.14360 -3.99913
  138 443.360 3.14360 -3.99913
  139 448.126 6.10705 -12.8592
  140 448.126 6.10705 -12.8592
  141 446.129 5.95425 11.5711
  142 446.129 5.95425 11.5711
  143 427.746 14.5518 -0.474236
  144 427.746 14.5518 -0.474236
  145 358.708 23.7270 -2.79465
  146 358.708 23.7270 -2.79465
  147 517.405 -18.4153 7.09300
  148 517.405 -18.4153 7.09300
  149 589.695 -19.6489 -25.1422
  150 589.695 -19.6489 -25.1422
  151 456.704 -51.1028 72.0617
  152 456.704 -51.1028 72.0617
  153 344.868 -93.0431 -163.433
  154 344.868 -93.0431 -163.433
  155 407.609 16.6395 24.5373
  156 407.609 16.6395 24.5373
  157 526.536 -3.04458 -18.2180
  158 526.536 -3.04458 -18.2180
  159 715.022 57.3179 41.9465
  160 715.022 57.3179 41.9465
  161 359.047 -99.9505 188.787
  162 359.047 -99.9505 188.787
  163 729.492 23.8723 -8.42136
  164 729.492 23.8723 -8.42136
  165 426.059 14.5147 11.3455
  166 426.059 14.5147 11.3455
  167 405.071 13.7644 -35.9690
  168 405.071 13.7644 -35.9690
  169 501.201 15.2693 11.1664
  170 501.201 15.2693 11.1664
  171 422.164 17.3327 -12.8977
  172 422.164 17.3327 -12.8977
  173 438.874 7.00438 1.87538
  174 438.874 7.00438 1.87538
  175 445.903 3.39927 -6.82415
  176 445.903 3.39927 -6.82415
  177 686.093 55.2262 -42.4867
  178 686.093 55.2262 -42.4867
  179 439.211 6.81879 -2.26357
  180 439.211 6.81879 -2.26357
  181 325.563 23.8219 -18.7777
  182 325.563 23.8219 -18.7777
  183 583.368 43.3196 2.75411
  184 583.368 43.3196 2.75411
  185 119.037 -97.9549 -114.868
  186 119.037 -97.9549 -114.868
  187 320.486 -3.32700 79.4450
  188 320.486 -3.32700 79.4450
  189 426.106 -68.9963 -112.233
  190 426.106 -68.9963 -112.233
  191 503.123 -13.8942 6.58453
  192 503.123 -13.8942 6.58453
  193 470.999 -1.64738 17.9705
  194 470.999 -1.64738 17.9705
  195 638.116 20.0557 40.2853
  196 638.116 20.0557 40.2853
  197 267.890 8.73269 -49.1372
  198 267.890 8.73269 -49.1372
  199 723.573 32.1539 19.3867
  200 723.573 32.1539 19.3867
  201 479.678 -5.94662 -18.9930
  202 479.678 -5.94662 -18.9930
  203 446.587 2.42587 6.29136
  204 446.587 2.42587 6.29136
  205 499.177 -19.6433 -10.1821
  206 499.177 -19.6433 -10.1821
  207 545.410 -27.2229 -4.78118
  208 545.410 -27.2229 -4.78118
  209 34.1666 -202.337 17.2674
  210 34.1666 -202.337 17.2674
  211 460.268 2.36944 -15.7790
  212 460.268 2.36944 -15.7790
  213 456.493 3.55673 13.7700
  214 456.493 3.55673 13.7700
  215 439.085 -40.4196 -71.3550
  216 439.085 -40.4196 -71.3550
  217 512.675 -10.8853 -11.1195
  218 512.675 -10.8853 -11.1195
  219 420.648 15.1080 -24.5230
  220 420.648 15.1080 -24.5230
  221 115.967 -143.750 126.215
  222 115.967 -143.750 126.215
  223 519.838 2.51754 17.3053
  224 519.838 2.51754 17.3053
  225 505.573 12.9774 -14.7517
  226 505.573 12.9774 -14.7517
  227 715.817 42.7063 -33.3603
  228 715.817 42.7063 -33.3603
  229 547.359 -20.0621 -7.84364
  230 547.359 -20.0621 -7.84364
  231 596.165 -25.1255 -108.022
  232 596.165 -25.1255 -108.022
  233 440.676 -19.9039 54.8443
  234 440.676 -19.9039 54.8443
  235 432.353 12.1477 1.91376
  236 432.353 12.1477 1.91376
  237 230.456 -33.6384 103.552
  238 230.456 -33.6384 103.552
  239 570.512 -48.0577 125.913
  240 570.512 -48.0577 125.913
  241 157.118 -19.7729 -51.3046
  242 157.118 -19.7729 -51.3046
  243 509.326 -38.3419 -25.2744
  244 509.326 -38.3419 -25.2744
  245 416.600 18.7057 14.1556
  246 416.600 18.7057 14.1556
  247 14.7638 -264.007 -14.1219
  248 14.7638 -264.007 -14.1219
  249 28.6568 -231.488 46.7417
  250 28.6568 -231.488 46.7417
  251 423.910 2.93117 39.3499
  252 423.910 2.93117 39.3499
  253 442.501 1.67727 1.54901
  254 442.501 1.67727 1.54901
  255 438.837 7.05248 0.295460
  256 438.837 7.05248 0.295460
  257 412.040 -5.10445 -52.3759
  258 412.040 -5.10445 -52.3759
  259 442.753 1.52899 -1.64090
  260 442.753 1.52899 -1.64090
  261 489.111 -34.5395 33.2603
  262 489.111 -34.5395 33.2603
  263 454.299 1.58943 -7.64642
  264 454.299 1.58943 -7.64642
  265 352.598 -29.8726 -97.5527
  266 352.598 -29.8726 -97.5527
  267 598.475 46.0711 -1.09710
  268 598.475 46.0711 -1.09710
  269 438.258 9.66580 -19.9395
  270 438.258 9.66580 -19.9395
  271 436.606 9.04502 -3.96118
  272 436.606 9.04502 -3.96118
  273 371.915 18.0531 -35.9756
  274 371.915 18.0531 -35.9756
  275 113.798 -43.1146 29.6709
  276 113.798 -43.1146 29.6709
  277 466.937 -77.7745 100.226
  278 466.937 -77.7745 100.226
  279 441.187 6.52840 7.74817
  280 441.187 6.52840 7.74817
  281 652.109 46.0441 -10.5967
  282 652.109 46.0441 -10.5967
  283 776.984 68.1831 92.9337
  284 776.984 68.1831 92.9337
  285 524.121 -55.7317 33.5002
  286 524.121 -55.7317 33.5002
  287 379.238 18.9317 26.3585
  288 379.238 18.9317 26.3585
  289 479.761 -95.7569 132.300
  290 479.761 -95.7569 132.300
  291 495.008 -5.87320 12.3174
  292 495.008 -5.87320 12.3174
  293 440.918 4.29987 2.12084
  294 440.918 4.29987 2.12084
  295 434.789 11.8701 -12.6847
  296 434.789 11.8701 -12.6847
  297 438.944 6.93980 -0.582591
  298 438.944 6.93980 -0.582591
  299 445.095 1.22398 -2.96281
  300 445.095 1.22398 -2.96281
  301 453.908 2.23303 7.67606
  302 453.908 2.23303 7.67606
  303 432.470 12.0837 -3.25314
  304 432.470 12.0837 -3.25314
  305 99.4658 -167.639 -120.203
  306 99.4658 -167.639 -120.203
  307 298.172 19.5039 24.5921
  308 298.172 19.5039 24.5921
  309 441.389 3.58969 -2.03681
  310 441.389 3.58969 -2.03681
  311 389.720 22.3748 -17.6491
  312 389.720 22.3748 -17.6491
  313 390.719 24.3964 6.71910
  314 390.719 24.3964 6.71910
  315 440.486 6.27764 -5.48622
  316 440.486 6.27764 -5.48622
  317 589.229 31.5663 -3.34922
  318 589.229 31.5663 -3.34922
  319 437.262 10.5180 17.4511
  320 437.262 10.5180 17.4511
  321 556.853 17.7968 -13.8018
  322 556.853 17.7968 -13.8018
  323 815.236 22.9741 55.2439
  324 815.236 22.9741 55.2439
  325 435.666 10.8894 10.9508
  326 435.666 10.8894 10.9508
  327 428.903 14.4165 5.72849
  328 428.903 14.4165 5.72849
  329 334.721 -69.3126 -188.556
  330 334.721 -69.3126 -188.556
  331 445.356 1.10628 2.89811
  332 445.356 1.10628 2.89811
  333 436.198 9.11278 2.96062
  334 436.198 9.11278 2.96062
  335 420.415 18.7089 0.657086
  336 420.415 18.7089 0.657086
  337 218.011 -76.8992 151.218
  338 218.011 -76.8992 151.218
  339 540.933 35.5348 2.43899
  340 540.933 35.5348 2.43899
  341 30.9806 -226.616 -53.9024
  342 30.9806 -226.616 -53.9024
  343 339.046 21.3839 21.8492
  344 339.046 21.3839 21.8492
  345 771.609 10.4047 7.54034
  346 771.609 10.4047 7.54034
  347 805.834 41.1335 -57.0498
  348 805.834 41.1335 -57.0498
  349 381.104 -44.1400 109.159
  350 397.513 -22.6721 80.6186
  351 381.104 -44.1400 109.159
  352 397.513 -22.6721 80.6186
  353 782.808 19.3378 28.7493
  354 782.808 19.3378 28.7493
  355 450.972 -0.677485 30.6851
  356 450.972 -0.677485 30.6851
  357 532.256 -71.8910 -78.2563
  358 532.256 -71.8910 -78.2563
  359 507.269 -4.33178 14.2681
  360 507.269 -4.33178 14.2681
  361 342.035 -69.5006 206.041
  362 342.035 -69.5006 206.041
  363 592.020 47.4585 -1.55991
  364 592.020 47.4585 -1.55991
  365 781.801 7.03250 -5.98607
  366 781.801 7.03250 -5.98607
  367 479.419 0.184302 -14.9689
  368 479.419 0.184302 -14.9689
  369 428.903 15.3350 -6.86121
  370 428.903 15.3350 -6.86121
  371 659.809 51.3038 17.6701
  372 659.809 51.3038 17.6701
  373 508.241 21.3239 -3.12042
  374 508.241 21.3239 -3.12042
  375 462.291 1.72691 -9.50839
  376 462.291 1.72691 -9.50839
  377 127.036 -61.9784 -87.0617
  378 127.036 -61.9784 -87.0617
  379 510.834 -9.22403 3.65111
  380 510.834 -9.22403 3.65111
  381 437.900 -0.741069 -36.2432
  382 437.900 -0.741069 -36.2432
  383 503.923 -0.998557 -17.0764
  384 503.923 -0.998557 -17.0764
  385 785.635 13.7778 -23.7633
  386 785.635 13.7778 -23.7633
  387 439.415 6.71759 4.33600
  388 439.415 6.71759 4.33600
  389 535.450 26.3493 13.9573
  390 535.450 26.3493 13.9573
  391 576.073 -11.8888 7.08360
  392 576.073 -11.8888 7.08360
  393 441.005 7.90269 -9.69979
  394 441.005 7.90269 -9.69979
  395 831.178 80.3726 -107.587
  396 831.178 80.3726 -107.587
  397 503.962 -7.40694 -5.43314
  398 503.962 -7.40694 -5.43314
</Section>

newXOutput 131

<Section columns = "stress_xx | stress_yy | stress_xy">
  1 444.963 0.435569 -0.488217
  2 445.167 0.538589 0.658137
  3 444.963 0.435569 -0.488217
  4 445.167 0.538589 0.658137
  5 678.543 50.1104 194.414
  6 704.634 49.0263 -191.317
  7 678.543 50.1104 194.414
  8 704.634 49.0263 -191.317
  9 446.042 0.305493 -1.28273
  10 449.618 0.538580 -2.28319
  11 454.802 1.21690 -4.64443
  12 466.737 0.449204 -6.25803
  13 482.133 0.729090 -10.3091
  14 500.251 -4.51353 -10.2447
  15 517.067 -5.40773 -1.33501
  16 509.782 -3.68553 8.24871
  17 491.362 3.91600 14.6942
  18 481.295 9.52150 -0.575091
  19 488.593 4.55527 -13.8164
  20 509.303 -5.48828 -10.0454
  21 512.420 -6.56959 3.63233
  22 502.836 -2.97659 8.84230
  23 478.949 0.113453 10.3811
  24 465.704 1.73185 7.93065
  25 455.121 1.39671 4.46158
  26 449.709 0.433359 2.09128
  27 446.293 0.361741 1.23956
  28 445.803 1.58502 0.768366
  29 445.032 3.24698 0.895254
  30 443.135 5.63520 0.797630
  31 442.378 6.55010 -0.0772123
  32 443.345 5.34718 -0.955556
  33 444.702 3.54001 -0.811519
  34 445.296 1.79872 -0.861856
  35 446.042 0.305493 -1.28273
  36 449.618 0.538580 -2.28319
  37 454.802 1.21690 -4.64443
  38 466.737 0.449204 -6.25803
  39 482.133 0.729090 -10.3091
  40 500.251 -4.51353 -10.2447
  41 517.067 -5.40773 -1.33501
  42 509.782 -3.68553 8.24871
  43 491.362 3.91600 14.6942
  44 481.295 9.52150 -0.575091
  45 488.593 4.55527 -13.8164
  46 509.303 -5.48828 -10.0454
  47 512.420 -6.56959 3.63233
  48 502.836 -2.97659 8.84230
  49 478.949 0.113453 10.3811
  50 465.704 1.73185 7.93065
  51 455.121 1.39671 4.46158
  52 449.709 0.433359 2.09128
  53 446.293 0.361741 1.23956
  54 445.803 1.58502 0.768366
  55 445.032 3.24698 0.895254
  56 443.135 5.63520 0.797630
  57 442.378 6.55010 -0.0772123
  58 443.345 5.34718 -0.955556
  59 444.702 3.54001 -0.811519
  60 445.296 1.79872 -0.861856
  61 937.038 49.6573 98.8851
  62 855.237 13.9168 34.7408
  63 807.421 5.70138 12.7516
  64 797.166 4.15076 2.45251
  65 806.972 5.52666 -10.8768
  66 843.544 11.9103 -30.0808
  67 945.876 43.2004 -85.1585
  68 126.295 -135.238 -160.479
  69 25.0054 -323.972 -42.2955
  70 6.70143 -371.411 -18.4615
  71 6.42000 -365.028 -9.01662
  72 11.2740 -354.363 19.7714
  73 27.2363 -313.931 44.8380
  74 136.620 -125.650 177.690
  75 937.038 49.6573 98.8851
  76 855.237 13.9168 34.7408
  77 807.421 5.70138 12.7516
  78 797.166 4.15076 2.45251
  79 806.972 5.52666 -10.8768
  80 843.544 11.9103 -30.0808
  81 945.876 43.2004 -85.1585
  82 126.295 -135.238 -160.479
  83 25.0054 -323.972 -42.2955
  84 6.70143 -371.411 -18.4615
  85 6.42000 -365.028 -9.01662
  86 11.2740 -354.363 19.7714
  87 27.2363 -313.931 44.8380
  88 136.620 -125.650 177.690
  89 409.804 23.3132 -6.04039
  90 409.804 23.3132 -6.04039
  91 374.394 5.23427 54.9142
  92 359.826 -2.17416 -65.6482
  93 374.394 5.23427 54.9142
  94 359.826 -2.17416 -65.6482
  95 213.502 5.91647 26.5184
  96 213.502 5.91647 26.5184
  97 548.218 35.4379 -7.93460
  98 558.060 20.5964 15.6826
  99 548.218 35.4379 -7.93460
  100 558.060 20.5964 15.6826
  101 438.905 10.5175 5.98280
  102 438.905 10.5175 5.98280
  103 523.549 -29.8001 1.62885
  104 523.549 -29.8001 1.62885
  105 439.418 10.9988 -7.38587
  106 439.418 10.9988 -7.38587
  107 513.864 -63.6402 -58.8222
  108 513.864 -63.6402 -58.8222
  109 360.638 -75.3259 145.918
  110 360.638 -75.3259 145.918
  111 244.805 -43.9094 -117.910
  112 244.805 -43.9094 -117.910
  113 441.100 7.33081 25.9105
  114 441.100 7.33081 25.9105
  115 456.864 3.01826 -24.8198
  116 456.864 3.01826 -24.8198
  117 618.077 42.1944 7.85822
  118 661.391 42.6537 4.07257
  119 618.077 42.1944 7.85822
  120 661.391 42.6537 4.07257
  121 648.012 55.0888 -18.2757
  122 648.012 55.0888 -18.2757
  123 71.9203 -116.471 -39.2071
  124 71.9203 -116.471 -39.2071
  125 557.329 -68.9437 64.3211
  126 557.329 -68.9437 64.3211
  127 472.064 -11.4584 29.5113
  128 472.064 -11.4584 29.5113
  129 109.484 -100.448 89.8172
  130 109.484 -100.448 89.8172
  131 439.518 8.77746 -0.376103
  132 439.518 8.77746 -0.376103
  133 471.231 -22.0550 -37.7276
  134 471.231 -22.0550 -37.7276
  135 446.246 3.59729 4.31678
  136 446.246 3.59729 4.31678
  137 446.618 3.16589 -4.02562
  138 446.618 3.16589 -4.02562
  139 451.416 6.14978 -12.9475
  140 451.416 6.14978 -12.9475
  141 449.406 5.99609 11.6501
  142 449.406 5.99609 11.6501
  143 430.905 14.6552 -0.477604
  144 430.905 14.6552 -0.477604
  145 361.391 23.9018 -2.81527
  146 361.391 23.9018 -2.81527
  147 521.181 -18.5483 7.11876
  148 521.181 -18.5483 7.11876
  149 593.948 -19.7601 -25.3886
  150 593.948 -19.7601 -25.3886
  151 460.036 -51.4825 72.6035
  152 460.036 -51.4825 72.6035
  153 347.381 -93.7147 -164.699
  154 347.381 -93.7147 -164.699
  155 410.628 16.7603 24.7125
  156 410.628 16.7603 24.7125
  157 530.382 -3.06136 -18.3188
  158 530.382 -3.06136 -18.3188
  159 720.131 57.7442 42.2824
  160 720.131 57.7442 42.2824
  161 361.659 -100.682 190.237
  162 361.659 -100.682 190.237
  163 734.676 24.0334 -8.48372
  164 734.676 24.0334 -8.48372
  165 429.205 14.6180 11.4241
  166 429.205 14.6180 11.4241
  167 408.070 13.8647 -36.2285
  168 408.070 13.8647 -36.2285
  169 504.900 15.3869 11.2356
  170 504.900 15.3869 11.2356
  171 425.285 17.4567 -12.9877
  172 425.285 17.4567 -12.9877
  173 442.105 7.05355 1.88785
  174 442.105 7.05355 1.88785
  175 449.178 3.42314 -6.86995
  176 449.178 3.42314 -6.86995
  177 691.007 55.6645 -42.8542
  178 691.007 55.6645 -42.8542
  179 442.444 6.86674 -2.27857
  180 442.444 6.86674 -2.27857
  181 328.008 24.0014 -18.9153
  182 328.008 24.0014 -18.9153
  183 587.620 43.6418 2.74491
  184 587.620 43.6418 2.74491
  185 119.933 -98.6537 -115.783
  186 119.933 -98.6537 -115.783
  187 322.879 -3.34785 80.0333
  188 322.879 -3.34785 80.0333
  189 429.215 -69.5095 -113.082
  190 429.215 -69.5095 -113.082
  191 506.794 -13.9982 6.64629
  192 506.794 -13.9982 6.64629
  193 474.442 -1.66163 18.1000
  194 474.442 -1.66163 18.1000
  195 642.702 20.2455 40.6470
  196 642.702 20.2455 40.6470
  197 269.914 8.80625 -49.5039
  198 269.914 8.80625 -49.5039
  199 728.727 32.3759 19.5336
  200 728.727 32.3759 19.5336
  201 483.182 -5.99271 -19.1343
  202 483.182 -5.99271 -19.1343
  203 449.866 2.44282 6.33350
  204 449.866 2.44282 6.33350
  205 502.818 -19.7904 -10.2715
  206 502.818 -19.7904 -10.2715
  207 549.370 -27.4131 -4.85773
  208 549.370 -27.4131 -4.85773
  209 34.4203 -203.838 17.4121
  210 34.4203 -203.838 17.4121
  211 463.639 2.38456 -15.8896
  212 463.639 2.38456 -15.8896
  213 459.839 3.58124 13.8656
  214 459.839 3.58124 13.8656
  215 442.300 -40.7198 -71.8893
  216 442.300 -40.7198 -71.8893
  217 516.423 -10.9652 -11.1782
  218 516.423 -10.9652 -11.1782
  219 423.756 15.2167 -24.6978
  220 423.756 15.2167 -24.6978
  221 116.823 -144.771 127.232
  222 116.823 -144.771 127.232
  223 523.647 2.54302 17.4042
  224 523.647 2.54302 17.4042
  225 509.298 13.0779 -14.8412
  226 509.298 13.0779 -14.8412
  227 720.927 43.0098 -33.6210
  228 720.927 43.0098 -33.6210
  229 551.334 -20.1992 -7.85857
  230 551.334 -20.1992 -7.85857
  231 600.432 -25.2422 -108.889
  232 600.432 -25.2422 -108.889
  233 443.908 -20.0513 55.2491
  234 443.908 -20.0513 55.2491
  235 435.542 12.2337 1.92678
  236 435.542 12.2337 1.92678
  237 232.188 -33.8795 104.341
  238 232.188 -33.8795 104.341
  239 574.594 -48.3557 126.908
  240 574.594 -48.3557 126.908
  241 158.322 -19.8978 -51.6995
  242 158.322 -19.8978 -51.6995
  243 513.030 -38.6250 -25.4824
  244 513.030 -38.6250 -25.4824
  245 419.682 18.8403 14.2552
  246 419.682 18.8403 14.2552
  247 14.8658 -265.992 -14.2434
  248 14.8658 -265.992 -14.2434
  249 28.8663 -233.204 47.1406
  250 28.8663 -233.204 47.1406
  251 427.036 2.95189 39.6349
  252 427.036 2.95189 39.6349
  253 445.754 1.68921 1.55915
  254 445.754 1.68921 1.55915
  255 442.067 7.10184 0.297437
  256 442.067 7.10184 0.297437
  257 415.081 -5.14273 -52.7595
  258 415.081 -5.14273 -52.7595
  259 446.007 1.53995 -1.65165
  260 446.007 1.53995 -1.65165
  261 492.677 -34.7954 33.5196
  262 492.677 -34.7954 33.5196
  263 457.628 1.60031 -7.69807
  264 457.628 1.60031 -7.69807
  265 355.207 -30.0942 -98.2808
  266 355.207 -30.0942 -98.2808
  267 602.829 46.4115 -1.07601
  268 602.829 46.4115 -1.07601
  269 441.484 9.73406 -20.0793
  270 441.484 9.73406 -20.0793
  271 439.822 9.10880 -3.98773
  272 439.822 9.10880 -3.98773
  273 374.686 18.1867 -36.2367
  274 374.686 18.1867 -36.2367
  275 114.673 -43.4035 29.9039
  276 114.673 -43.4035 29.9039
  277 470.326 -78.3517 100.988
  278 470.326 -78.3517 100.988
  279 444.432 6.57445 7.80038
  280 444.432 6.57445 7.80038
  281 656.816 46.3723 -10.6883
  282 656.816 46.3723 -10.6883
  283 782.474 68.7310 93.6527
  284 782.474 68.7310 93.6527
  285 527.920 -56.1386 33.7796
  286 527.920 -56.1386 33.7796
  287 382.062 19.0710 26.5481
  288 382.062 19.0710 26.5481
  289 483.225 -96.4629 133.310
  290 483.225 -96.4629 133.310
  291 498.616 -5.91825 12.4111
  292 498.616 -5.91825 12.4111
  293 444.161 4.33013 2.13484
  294 444.161 4.33013 2.13484
  295 437.993 11.9543 -12.7719
  296 437.993 11.9543 -12.7719
  297 442.175 6.98839 -0.586439
  298 442.175 6.98839 -0.586439
  299 448.365 1.23267 -2.98237
  300 448.365 1.23267 -2.98237
  301 457.235 2.24850 7.72791
  302 457.235 2.24850 7.72791
  303 435.659 12.1692 -3.27523
  304 435.659 12.1692 -3.27523
  305 100.197 -168.827 -121.179
  306 100.197 -168.827 -121.179
  307 300.420 19.6540 24.7727
  308 300.420 19.6540 24.7727
  309 444.634 3.61504 -2.05020
  310 444.634 3.61504 -2.05020
  311 392.618 22.5378 -17.7757
  312 392.618 22.5378 -17.7757
  313 393.625 24.5740 6.76679
  314 393.625 24.5740 6.76679
  315 443.726 6.32192 -5.52295
  316 443.726 6.32192 -5.52295
  317 593.505 31.8196 -3.42693
  318 593.505 31.8196 -3.42693
  319 440.481 10.5927 17.5724
  320 440.481 10.5927 17.5724
  321 560.912 17.9394 -13.8622
  322 560.912 17.9394 -13.8622
  323 820.960 23.1305 55.6455
  324 820.960 23.1305 55.6455
  325 438.876 10.9666 11.0258
  326 438.876 10.9666 11.0258
  327 432.069 14.5189 5.76771
  328 432.069 14.5189 5.76771
  329 337.129 -69.6957 -190.039
  330 337.129 -69.6957 -190.039
  331 448.627 1.11412 2.91724
  332 448.627 1.11412 2.91724
  333 439.411 9.17696 2.98050
  334 439.411 9.17696 2.98050
  335 423.525 18.8427 0.661619
  336 423.525 18.8427 0.661619
  337 219.636 -77.4634 152.391
  338 219.636 -77.4634 152.391
  339 544.904 35.7999 2.44995
  340 544.904 35.7999 2.44995
  341 31.2037 -228.293 -54.3542
  342 31.2037 -228.293 -54.3542
  343 341.589 21.5437 22.0076
  344 341.589 21.5437 22.0076
  345 777.038 10.4728 7.59113
  346 777.038 10.4728 7.59113
  347 811.511 41.4343 -57.4695
  348 811.511 41.4343 -57.4695
  349 383.907 -44.4690 109.974
  350 400.442 -22.8399 81.2128
  351 383.907 -44.4690 109.974
  352 400.442 -22.8399 81.2128
  353 788.318 19.4670 28.9529
  354 788.318 19.4670 28.9529
  355 454.283 -0.684216 30.9070
  356 454.283 -0.684216 30.9070
  357 536.092 -72.4118 -78.8718
  358 536.092 -72.4118 -78.8718
  359 510.987 -4.36164 14.3541
  360 510.987 -4.36164 14.3541
  361 344.481 -69.8926 207.650
  362 344.481 -69.8926 207.650
  363 596.335 47.8034 -1.57001
  364 596.335 47.8034 -1.57001
  365 787.287 7.07795 -6.02768
  366 787.287 7.07795 -6.02768
  367 482.917 0.183504 -15.0757
  368 482.917 0.183504 -15.0757
  369 432.069 15.4441 -6.90835
  370 432.069 15.4441 -6.90835
  371 664.566 51.6765 17.8270
  372 664.566 51.6765 17.8270
  373 511.989 21.4847 -3.13937
  374 511.989 21.4847 -3.13937
  375 465.672 1.73828 -9.57364
  376 465.672 1.73828 -9.57364
  377 128.012 -62.4150 -87.7460
  378 128.012 -62.4150 -87.7460
  379 514.561 -9.29254 3.66420
  380 514.561 -9.29254 3.66420
  381 441.121 -0.748307 -36.5069
  382 441.121 -0.748307 -36.5069
  383 507.627 -1.00417 -17.1809
  384 507.627 -1.00417 -17.1809
  385 791.160 13.8711 -23.9300
  386 791.160 13.8711 -23.9300
  387 442.648 6.76486 4.36496
  388 442.648 6.76486 4.36496
  389 539.374 26.5505 14.0331
  390 539.374 26.5505 14.0331
  391 580.239 -11.9545 7.18976
  392 580.239 -11.9545 7.18976
  393 444.248 7.95852 -9.76557
  394 444.248 7.95852 -9.76557
  395 837.012 81.0270 -108.410
  396 837.012 81.0270 -108.410
  397 507.632 -7.46359 -5.47910
  398 507.632 -7.46359 -5.47910
</Section>

newXOutput 132

<Section columns = "stress_xx | stress_yy | stress_xy">
  1 448.208 0.438813 -0.491343
  2 448.413 0.542529 0.662344
  3 448.208 0.438813 -0.491343
  4 448.413 0.542529 0.662344
  5 683.257 50.6370 195.897
  6 709.516 49.5515 -192.777
  7 683.257 50.6370 195.897
  8 709.516 49.5515 -192.777
  9 449.294 0.307703 -1.29100
  10 452.893 0.542396 -2.29806
  11 458.109 1.22535 -4.67509
  12 470.121 0.452078 -6.30000
  13 485.619 0.733167 -10.3803
  14 503.860 -4.54857 -10.3190
  15 520.798 -5.44854 -1.35023
  16 513.486 -3.71228 8.29674
  17 494.964 3.94769 14.7860
  18 484.839 9.59456 -0.578766
  19 492.177 4.58978 -13.9035
  20 513.004 -5.52846 -10.1036
  21 516.120 -6.61929 3.66526
  22 506.463 -2.99953 8.90699
  23 482.415 0.112688 10.4534
  24 469.082 1.74352 7.98409
  25 458.431 1.40641 4.49096
  26 452.985 0.436442 2.10487
  27 449.546 0.364377 1.24759
  28 449.053 1.59622 0.773263
  29 448.278 3.26971 0.901038
  30 446.370 5.67433 0.802829
  31 445.607 6.59548 -0.0777119
  32 446.581 5.38435 -0.961742
  33 447.945 3.56479 -0.816657
  34 448.544 1.81148 -0.867430
  35 449.294 0.307703 -1.29100
  36 452.893 0.542396 -2.29806
  37 458.109 1.22535 -4.67509
  38 470.121 0.452078 -6.30000
  39 485.619 0.733167 -10.3803
  40 503.860 -4.54857 -10.3190
  41 520.798 -5.44854 -1.35023
  42 513.486 -3.71228 8.29674
  43 494.964 3.94769 14.7860
  44 484.839 9.59456 -0.578766
  45 492.177 4.58978 -13.9035
  46 513.004 -5.52846 -10.1036
  47 516.120 -6.61929 3.66526
  48 506.463 -2.99953 8.90699
  49 482.415 0.112688 10.4534
  50 469.082 1.74352 7.98409
  51 458.431 1.40641 4.49096
  52 452.985 0.436442 2.10487
  53 449.546 0.364377 1.24759
  54 449.053 1.59622 0.773263
  55 448.278 3.26971 0.901038
  56 446.370 5.67433 0.802829
  57 445.607 6.59548 -0.0777119
  58 446.581 5.38435 -0.961742
  59 447.945 3.56479 -0.816657
  60 448.544 1.81148 -0.867430
  61 943.467 50.0268 99.5893
  62 861.133 14.0102 34.9786
  63 813.014 5.73570 12.8358
  64 802.693 4.17666 2.46699
  65 812.560 5.56215 -10.9481
  66 849.368 11.9892 -30.2840
  67 952.367 43.5210 -85.7654
  68 127.199 -136.061 -161.753
  69 25.1854 -326.366 -42.6705
  70 6.73733 -374.242 -18.6246
  71 6.45497 -367.819 -9.08527
  72 11.3472 -357.050 19.9469
  73 27.4357 -316.249 45.2372
  74 137.587 -126.403 179.095
  75 943.467 50.0268 99.5893
  76 861.133 14.0102 34.9786
  77 813.014 5.73570 12.8358
  78 802.693 4.17666 2.46699
  79 812.560 5.56215 -10.9481
  80 849.368 11.9892 -30.2840
  81 952.367 43.5210 -85.7654
  82 127.199 -136.061 -161.753
  83 25.1854 -326.366 -42.6705
  84 6.73733 -374.242 -18.6246
  85 6.45497 -367.819 -9.08527
  86 11.3472 -357.050 19.9469
  87 27.4357 -316.249 45.2372
  88 137.587 -126.403 179.095
  89 412.819 23.4802 -6.08285
  90 412.819 23.4802 -6.08285
  91 377.154 5.27404 55.3118
  92 362.481 -2.18847 -66.1274
  93 377.154 5.27404 55.3118
  94 362.481 -2.18847 -66.1274
  95 215.120 5.97514 26.7161
  96 215.120 5.97514 26.7161
  97 552.205 35.7006 -7.97531
  98 562.099 20.7589 15.7549
  99 552.205 35.7006 -7.97531
  100 562.099 20.7589 15.7549
  101 442.113 10.5912 6.02292
  102 442.113 10.5912 6.02292
  103 527.331 -30.0160 1.67069
  104 527.331 -30.0160 1.67069
  105 442.629 11.0760 -7.43554
  106 442.629 11.0760 -7.43554
  107 517.557 -64.1058 -59.2757
  108 517.557 -64.1058 -59.2757
  109 363.264 -75.8834 147.015
  110 363.264 -75.8834 147.015
  111 246.621 -44.2262 -118.803
  112 246.621 -44.2262 -118.803
  113 444.320 7.38176 26.0930
  114 444.320 7.38176 26.0930
  115 460.189 3.03757 -24.9960
  116 460.189 3.03757 -24.9960
  117 622.519 42.5188 7.96759
  118 666.121 42.9519 4.11010
  119 622.519 42.5188 7.96759
  120 666.121 42.9519 4.11010
  121 652.658 55.4967 -18.4478
  122 652.658 55.4967 -18.4478
  123 72.4625 -117.300 -39.5225
  124 72.4625 -117.300 -39.5225
  125 561.310 -69.4283 64.8386
  126 561.310 -69.4283 64.8386
  127 475.490 -11.5440 29.7296
  128 475.490 -11.5440 29.7296
  129 110.308 -101.158 90.5303
  130 110.308 -101.158 90.5303
  131 442.730 8.83868 -0.378551
  132 442.730 8.83868 -0.378551
  133 474.649 -22.2181 -38.0099
  134 474.649 -22.2181 -38.0099
  135 449.500 3.62249 4.34520
  136 449.500 3.62249 4.34520
  137 449.874 3.18815 -4.05204
  138 449.874 3.18815 -4.05204
  139 454.704 6.19244 -13.0357
  140 454.704 6.19244 -13.0357
  141 452.681 6.03788 11.7290
  142 452.681 6.03788 11.7290
  143 434.061 14.7584 -0.480968
  144 434.061 14.7584 -0.480968
  145 364.073 24.0765 -2.83587
  146 364.073 24.0765 -2.83587
  147 524.953 -18.6812 7.14412
  148 524.953 -18.6812 7.14412
  149 598.196 -19.8707 -25.6357
  150 598.196 -19.8707 -25.6357
  151 463.365 -51.8619 73.1450
  152 463.365 -51.8619 73.1450
  153 349.892 -94.3856 -165.965
  154 349.892 -94.3856 -165.965
  155 413.645 16.8809 24.8876
  156 413.645 16.8809 24.8876
  157 534.224 -3.07804 -18.4191
  158 534.224 -3.07804 -18.4191
  159 725.235 58.1702 42.6185
  160 725.235 58.1702 42.6185
  161 364.269 -101.413 191.686
  162 364.269 -101.413 191.686
  163 739.853 24.1941 -8.54604
  164 739.853 24.1941 -8.54604
  165 432.349 14.7213 11.5026
  166 432.349 14.7213 11.5026
  167 411.067 13.9649 -36.4877
  168 411.067 13.9649 -36.4877
  169 508.596 15.5045 11.3046
  170 508.596 15.5045 11.3046
  171 428.403 17.5806 -13.0775
  172 428.403 17.5806 -13.0775
  173 445.333 7.10264 1.90029
  174 445.333 7.10264 1.90029
  175 452.450 3.44698 -6.91565
  176 452.450 3.44698 -6.91565
  177 695.916 56.1028 -43.2222
  178 695.916 56.1028 -43.2222
  179 445.674 6.91462 -2.29353
  180 445.674 6.91462 -2.29353
  181 330.453 24.1808 -19.0528
  182 330.453 24.1808 -19.0528
  183 591.868 43.9638 2.73531
  184 591.868 43.9638 2.73531
  185 120.828 -99.3516 -116.698
  186 120.828 -99.3516 -116.698
  187 325.270 -3.36863 80.6212
  188 325.270 -3.36863 80.6212
  189 432.320 -70.0224 -113.931
  190 432.320 -70.0224 -113.931
  191 510.461 -14.1022 6.70819
  192 510.461 -14.1022 6.70819
  193 477.883 -1.67589 18.2293
  194 477.883 -1.67589 18.2293
  195 647.282 20.4359 41.0093
  196 647.282 20.4359 41.0093
  197 271.936 8.87989 -49.8703
  198 271.936 8.87989 -49.8703
  199 733.875 32.5975 19.6806
  200 733.875 32.5975 19.6806
  201 486.683 -6.03880 -19.2756
  202 486.683 -6.03880 -19.2756
  203 453.143 2.45975 6.37555
  204 453.143 2.45975 6.37555
  205 506.456 -19.9375 -10.3610
  206 506.456 -19.9375 -10.3610
  207 553.325 -27.6030 -4.93481
  208 553.325 -27.6030 -4.93481
  209 34.6740 -205.339 17.5570
  210 34.6740 -205.339 17.5570
  211 467.007 2.39962 -16.0001
  212 467.007 2.39962 -16.0001
  213 463.181 3.60571 13.9611
  214 463.181 3.60571 13.9611
  215 445.513 -41.0197 -72.4233
  216 445.513 -41.0197 -72.4233
  217 520.167 -11.0450 -11.2365
  218 520.167 -11.0450 -11.2365
  219 426.861 15.3254 -24.8724
  220 426.861 15.3254 -24.8724
  221 117.679 -145.792 128.249
  222 117.679 -145.792 128.249
  223 527.453 2.56859 17.5027
  224 527.453 2.56859 17.5027
  225 513.019 13.1784 -14.9303
  226 513.019 13.1784 -14.9303
  227 726.032 43.3128 -33.8815
  228 726.032 43.3128 -33.8815
  229 555.306 -20.3361 -7.87288
  230 555.306 -20.3361 -7.87288
  231 604.693 -25.3577 -109.757
  232 604.693 -25.3577 -109.757
  233 447.138 -20.1986 55.6535
  234 447.138 -20.1986 55.6535
  235 438.728 12.3195 1.93977
  236 438.728 12.3195 1.93977
  237 233.918 -34.1203 105.129
  238 233.918 -34.1203 105.129
  239 578.671 -48.6526 127.902
  240 578.671 -48.6526 127.902
  241 159.525 -20.0222 -52.0943
  242 159.525 -20.0222 -52.0943
  243 516.731 -38.9079 -25.6906
  244 516.731 -38.9079 -25.6906
  245 422.762 18.9747 14.3547
  246 422.762 18.9747 14.3547
  247 14.9677 -267.976 -14.3650
  248 14.9677 -267.976 -14.3650
  249 29.0757 -234.918 47.5399
  250 29.0757 -234.918 47.5399
  251 430.159 2.97259 39.9196
  252 430.159 2.97259 39.9196
  253 449.004 1.70115 1.56926
  254 449.004 1.70115 1.56926
  255 445.295 7.15111 0.299410
  256 445.295 7.15111 0.299410
  257 418.119 -5.18099 -53.1427
  258 418.119 -5.18099 -53.1427
  259 449.259 1.55090 -1.66237
  260 449.259 1.55090 -1.66237
  261 496.239 -35.0511 33.7789
  262 496.239 -35.0511 33.7789
  263 460.954 1.61118 -7.74962
  264 460.954 1.61118 -7.74962
  265 357.815 -30.3157 -99.0084
  266 357.815 -30.3157 -99.0084
  267 607.178 46.7516 -1.05452
  268 607.178 46.7516 -1.05452
  269 444.708 9.80223 -20.2189
  270 444.708 9.80223 -20.2189
  271 443.036 9.17249 -4.01422
  272 443.036 9.17249 -4.01422
  273 377.455 18.3202 -36.4975
  274 377.455 18.3202 -36.4975
  275 115.549 -43.6918 30.1368
  276 115.549 -43.6918 30.1368
  277 473.713 -78.9286 101.750
  278 473.713 -78.9286 101.750
  279 447.675 6.62043 7.85249
  280 447.675 6.62043 7.85249
  281 661.518 46.7001 -10.7800
  282 661.518 46.7001 -10.7800
  283 787.955 69.2791 94.3715
  284 787.955 69.2791 94.3715
  285 531.716 -56.5451 34.0593
  286 531.716 -56.5451 34.0593
  287 384.884 19.2101 26.7375
  288 384.884 19.2101 26.7375
  289 486.686 -97.1685 134.320
  290 486.686 -97.1685 134.320
  291 502.221 -5.96329 12.5047
  292 502.221 -5.96329 12.5047
  293 447.401 4.36035 2.14881
  294 447.401 4.36035 2.14881
  295 441.195 12.0385 -12.8590
  296 441.195 12.0385 -12.8590
  297 445.403 7.03690 -0.590278
  298 445.403 7.03690 -0.590278
  299 451.631 1.24134 -3.00189
  300 451.631 1.24134 -3.00189
  301 460.559 2.26395 7.77964
  302 460.559 2.26395 7.77964
  303 438.846 12.2547 -3.29729
  304 438.846 12.2547 -3.29729
  305 100.927 -170.013 -122.155
  306 100.927 -170.013 -122.155
  307 302.667 19.8041 24.9531
  308 302.667 19.8041 24.9531
  309 447.877 3.64036 -2.06357
  310 447.877 3.64036 -2.06357
  311 395.514 22.7007 -17.9022
  312 395.514 22.7007 -17.9022
  313 396.529 24.7515 6.81443
  314 396.529 24.7515 6.81443
  315 446.964 6.36613 -5.55959
  316 446.964 6.36613 -5.55959
  317 597.776 32.0731 -3.50534
  318 597.776 32.0731 -3.50534
  319 443.698 10.6672 17.6935
  320 443.698 10.6672 17.6935
  321 564.968 18.0821 -13.9219
  322 564.968 18.0821 -13.9219
  323 826.675 23.2865 56.0467
  324 826.675 23.2865 56.0467
  325 442.083 11.0437 11.1006
  326 442.083 11.0437 11.1006
  327 435.232 14.6212 5.80687
  328 435.232 14.6212 5.80687
  329 339.535 -70.0765 -191.523
  330 339.535 -70.0765 -191.523
  331 451.896 1.12195 2.93632
  332 451.896 1.12195 2.93632
  333 442.622 9.24105 3.00033
  334 442.622 9.24105 3.00033
  335 426.632 18.9764 0.666144
  336 426.632 18.9764 0.666144
  337 221.260 -78.0272 153.565
  338 221.260 -78.0272 153.565
  339 548.871 36.0648 2.46079
  340 548.871 36.0648 2.46079
  341 31.4265 -229.968 -54.8065
  342 31.4265 -229.968 -54.8065
  343 344.130 21.7034 22.1659
  344 344.130 21.7034 22.1659
  345 782.459 10.5407 7.64182
  346 782.459 10.5407 7.64182
  347 817.180 41.7348 -57.8888
  348 817.180 41.7348 -57.8888
  349 386.707 -44.7978 110.789
  350 403.369 -23.0075 81.8066
  351 386.707 -44.7978 110.789
  352 403.369 -23.0075 81.8066
  353 793.820 19.5958 29.1562
  354 793.820 19.5958 29.1562
  355 457.590 -0.690968 31.1286
  356 457.590 -0.690968 31.1286
  357 539.924 -72.9321 -79.4874
  358 539.924 -72.9321 -79.4874
  359 514.703 -4.39145 14.4398
  360 514.703 -4.39145 14.4398
  361 346.923 -70.2823 209.259
  362 346.923 -70.2823 209.259
  363 600.646 48.1481 -1.58008
  364 600.646 48.1481 -1.58008
  365 792.766 7.12329 -6.06923
  366 792.766 7.12329 -6.06923
  367 486.411 0.182676 -15.1823
  368 486.411 0.182676 -15.1823
  369 435.232 15.5531 -6.95541
  370 435.232 15.5531 -6.95541
  371 669.318 52.0488 17.9842
  372 669.318 52.0488 17.9842
  373 515.734 21.6455 -3.15825
  374 515.734 21.6455 -3.15825
  375 469.051 1.74963 -9.63877
  376 469.051 1.74963 -9.63877
  377 128.988 -62.8509 -88.4305
  378 128.988 -62.8509 -88.4305
  379 518.285 -9.36101 3.67707
  380 518.285 -9.36101 3.67707
  381 444.339 -0.755565 -36.7703
  382 444.339 -0.755565 -36.7703
  383 511.327 -1.00974 -17.2849
  384 511.327 -1.00974 -17.2849
  385 796.677 13.9641 -24.0964
  386 796.677 13.9641 -24.0964
  387 445.880 6.81207 4.39386
  388 445.880 6.81207 4.39386
  389 543.295 26.7516 14.1084
  390 543.295 26.7516 14.1084
  391 584.401 -12.0199 7.29662
  392 584.401 -12.0199 7.29662
  393 447.490 8.01427 -9.83121
  394 447.490 8.01427 -9.83121
  395 842.838 81.6817 -109.233
  396 842.838 81.6817 -109.233
  397 511.299 -7.52023 -5.52512
  398 511.299 -7.52023 -5.52512
</Section>

newXOutput 133

<Section columns = "stress_xx | stress_yy | stress_xy">
  1 451.451 0.442054 -0.494461
  2 451.658 0.546467 0.666538
  3 451.451 0.442054 -0.494461
  4 451.658 0.546467 0.666538
  5 687.965 51.1655 197.379
  6 714.391 50.0787 -194.237
  7 687.965 51.1655 197.379
  8 714.391 50.0787 -194.237
  9 452.543 0.309910 -1.29925
  10 456.164 0.546208 -2.31289
  11 461.414 1.23378 -4.70569
  12 473.502 0.454945 -6.34188
  13 489.101 0.737223 -10.4515
  14 507.466 -4.58361 -10.3933
  15 524.525 -5.48934 -1.36550
  16 517.186 -3.73901 8.34455
  17 498.562 3.97941 14.8774
  18 488.381 9.66762 -0.582431
  19 495.758 4.62428 -13.9904
  20 516.703 -5.56861 -10.1615
  21 519.816 -6.66898 3.69825
  22 510.087 -3.02246 8.97164
  23 485.878 0.111901 10.5256
  24 472.457 1.75518 8.03743
  25 461.738 1.41610 4.52027
  26 456.257 0.439521 2.11843
  27 452.797 0.367011 1.25560
  28 452.301 1.60739 0.778145
  29 451.521 3.29240 0.906807
  30 449.601 5.71339 0.808016
  31 448.834 6.64078 -0.0782101
  32 449.814 5.42147 -0.967913
  33 451.186 3.58953 -0.821780
  34 451.788 1.82423 -0.872991
  35 452.543 0.309910 -1.29925
  36 456.164 0.546208 -2.31289
  37 461.414 1.23378 -4.70569
  38 473.502 0.454945 -6.34188
  39 489.101 0.737223 -10.4515
  40 507.466 -4.58361 -10.3933
  41 524.525 -5.48934 -1.36550
  42 517.186 -3.73901 8.34455
  43 498.562 3.97941 14.8774
  44 488.381 9.66762 -0.582431
  45 495.758 4.62428 -13.9904
  46 516.703 -5.56861 -10.1615
  47 519.816 -6.66898 3.69825
  48 510.087 -3.02246 8.97164
  49 485.878 0.111901 10.5256
  50 472.457 1.75518 8.03743
  51 461.738 1.41610 4.52027
  52 456.257 0.439521 2.11843
  53 452.797 0.367011 1.25560
  54 452.301 1.60739 0.778145
  55 451.521 3.29240 0.906807
  56 449.601 5.71339 0.808016
  57 448.834 6.64078 -0.0782101
  58 449.814 5.42147 -0.967913
  59 451.186 3.58953 -0.821780
  60 451.788 1.82423 -0.872991
  61 949.885 50.3962 100.293
  62 867.019 14.1034 35.2159
  63 818.598 5.76988 12.9197
  64 808.211 4.20249 2.48141
  65 818.141 5.59755 -11.0193
  66 855.184 12.0680 -30.4867
  67 958.847 43.8414 -86.3715
  68 128.102 -136.881 -163.027
  69 25.3651 -328.758 -43.0462
  70 6.77301 -377.072 -18.7881
  71 6.48972 -370.610 -9.15390
  72 11.4202 -359.737 20.1226
  73 27.6350 -318.566 45.6373
  74 138.553 -127.152 180.500
  75 949.885 50.3962 100.293
  76 867.019 14.1034 35.2159
  77 818.598 5.76988 12.9197
  78 808.211 4.20249 2.48141
  79 818.141 5.59755 -11.0193
  80 855.184 12.0680 -30.4867
  81 958.847 43.8414 -86.3715
  82 128.102 -136.881 -163.027
  83 25.3651 -328.758 -43.0462
  84 6.77301 -377.072 -18.7881
  85 6.48972 -370.610 -9.15390
  86 11.4202 -359.737 20.1226
  87 27.6350 -318.566 45.6373
  88 138.553 -127.152 180.500
  89 415.832 23.6470 -6.12526
  90 415.832 23.6470 -6.12526
  91 379.912 5.31379 55.7090
  92 365.134 -2.20274 -66.6062
  93 379.912 5.31379 55.7090
  94 365.134 -2.20274 -66.6062
  95 216.738 6.03398 26.9136
  96 216.738 6.03398 26.9136
  97 556.189 35.9632 -8.01573
  98 566.133 20.9216 15.8265
  99 556.189 35.9632 -8.01573
  100 566.133 20.9216 15.8265
  101 445.318 10.6647 6.06296
  102 445.318 10.6647 6.06296
  103 531.109 -30.2316 1.71292
  104 531.109 -30.2316 1.71292
  105 445.837 11.1532 -7.48510
  106 445.837 11.1532 -7.48510
  107 521.246 -64.5710 -59.7292
  108 521.246 -64.5710 -59.7292
  109 365.888 -76.4405 148.111
  110 365.888 -76.4405 148.111
  111 248.436 -44.5427 -119.697
  112 248.436 -44.5427 -119.697
  113 447.538 7.43264 26.2752
  114 447.538 7.43264 26.2752
  115 463.511 3.05684 -25.1720
  116 463.511 3.05684 -25.1720
  117 626.956 42.8431 8.07760
  118 670.845 43.2498 4.14771
  119 626.956 42.8431 8.07760
  120 670.845 43.2498 4.14771
  121 657.299 55.9043 -18.6202
  122 657.299 55.9043 -18.6202
  123 73.0046 -118.128 -39.8382
  124 73.0046 -118.128 -39.8382
  125 565.287 -69.9123 65.3563
  126 565.287 -69.9123 65.3563
  127 478.914 -11.6295 29.9477
  128 478.914 -11.6295 29.9477
  129 111.132 -101.869 91.2436
  130 111.132 -101.869 91.2436
  131 445.939 8.89981 -0.380994
  132 445.939 8.89981 -0.380994
  133 478.064 -22.3811 -38.2921
  134 478.064 -22.3811 -38.2921
  135 452.751 3.64766 4.37355
  136 452.751 3.64766 4.37355
  137 453.127 3.21038 -4.07839
  138 453.127 3.21038 -4.07839
  139 457.989 6.23503 -13.1237
  140 457.989 6.23503 -13.1237
  141 455.952 6.07961 11.8078
  142 455.952 6.07961 11.8078
  143 437.214 14.8615 -0.484327
  144 437.214 14.8615 -0.484327
  145 366.754 24.2510 -2.85646
  146 366.754 24.2510 -2.85646
  147 528.721 -18.8140 7.16908
  148 528.721 -18.8140 7.16908
  149 602.440 -19.9808 -25.8834
  150 602.440 -19.9808 -25.8834
  151 466.692 -52.2410 73.6863
  152 466.692 -52.2410 73.6863
  153 352.400 -95.0558 -167.230
  154 352.400 -95.0558 -167.230
  155 416.660 17.0015 25.0624
  156 416.660 17.0015 25.0624
  157 538.064 -3.09462 -18.5188
  158 538.064 -3.09462 -18.5188
  159 730.332 58.5960 42.9546
  160 730.332 58.5960 42.9546
  161 366.876 -102.144 193.135
  162 366.876 -102.144 193.135
  163 745.024 24.3546 -8.60830
  164 745.024 24.3546 -8.60830
  165 435.491 14.8244 11.5809
  166 435.491 14.8244 11.5809
  167 414.062 14.0651 -36.7467
  168 414.062 14.0651 -36.7467
  169 512.289 15.6221 11.3734
  170 512.289 15.6221 11.3734
  171 431.519 17.7043 -13.1672
  172 431.519 17.7043 -13.1672
  173 448.558 7.15167 1.91270
  174 448.558 7.15167 1.91270
  175 455.720 3.47078 -6.96125
  176 455.720 3.47078 -6.96125
  177 700.819 56.5413 -43.5907
  178 700.819 56.5413 -43.5907
  179 448.901 6.96243 -2.30847
  180 448.901 6.96243 -2.30847
  181 332.897 24.3601 -19.1902
  182 332.897 24.3601 -19.1902
  183 596.112 44.2855 2.72530
  184 596.112 44.2855 2.72530
  185 121.722 -100.049 -117.614
  186 121.722 -100.049 -117.614
  187 327.660 -3.38935 81.2087
  188 327.660 -3.38935 81.2087
  189 435.423 -70.5351 -114.780
  190 435.423 -70.5351 -114.780
  191 514.125 -14.2061 6.77022
  192 514.125 -14.2061 6.77022
  193 481.320 -1.69018 18.3585
  194 481.320 -1.69018 18.3585
  195 651.857 20.6267 41.3722
  196 651.857 20.6267 41.3722
  197 273.958 8.95360 -50.2365
  198 273.958 8.95360 -50.2365
  199 739.017 32.8187 19.8274
  200 739.017 32.8187 19.8274
  201 490.180 -6.08489 -19.4167
  202 490.180 -6.08489 -19.4167
  203 456.417 2.47666 6.41750
  204 456.417 2.47666 6.41750
  205 510.091 -20.0845 -10.4507
  206 510.091 -20.0845 -10.4507
  207 557.277 -27.7925 -5.01243
  208 557.277 -27.7925 -5.01243
  209 34.9274 -206.838 17.7021
  210 34.9274 -206.838 17.7021
  211 470.371 2.41465 -16.1104
  212 470.371 2.41465 -16.1104
  213 466.521 3.63014 14.0565
  214 466.521 3.63014 14.0565
  215 448.722 -41.3195 -72.9570
  216 448.722 -41.3195 -72.9570
  217 523.908 -11.1248 -11.2944
  218 523.908 -11.1248 -11.2944
  219 429.965 15.4339 -25.0467
  220 429.965 15.4339 -25.0467
  221 118.533 -146.811 129.267
  222 118.533 -146.811 129.267
  223 531.256 2.59424 17.6006
  224 531.256 2.59424 17.6006
  225 516.738 13.2789 -15.0191
  226 516.738 13.2789 -15.0191
  227 731.130 43.6155 -34.1421
  228 731.130 43.6155 -34.1421
  229 559.274 -20.4726 -7.88655
  230 559.274 -20.4726 -7.88655
  231 608.950 -25.4722 -110.624
  232 608.950 -25.4722 -110.624
  233 450.365 -20.3458 56.0576
  234 450.365 -20.3458 56.0576
  235 441.912 12.4052 1.95274
  236 441.912 12.4052 1.95274
  237 235.648 -34.3608 105.918
  238 235.648 -34.3608 105.918
  239 582.744 -48.9484 128.897
  240 582.744 -48.9484 128.897
  241 160.729 -20.1463 -52.4891
  242 160.729 -20.1463 -52.4891
  243 520.428 -39.1906 -25.8989
  244 520.428 -39.1906 -25.8989
  245 425.840 19.1090 14.4540
  246 425.840 19.1090 14.4540
  247 15.0693 -269.959 -14.4869
  248 15.0693 -269.959 -14.4869
  249 29.2849 -236.631 47.9399
  250 29.2849 -236.631 47.9399
  251 433.280 2.99325 40.2040
  252 433.280 2.99325 40.2040
  253 452.252 1.71306 1.57935
  254 452.252 1.71306 1.57935
  255 448.520 7.20031 0.301378
  256 448.520 7.20031 0.301378
  257 421.156 -5.21923 -53.5256
  258 421.156 -5.21923 -53.5256
  259 452.508 1.56184 -1.67306
  260 452.508 1.56184 -1.67306
  261 499.798 -35.3066 34.0382
  262 499.798 -35.3066 34.0382
  263 464.278 1.62202 -7.80106
  264 464.278 1.62202 -7.80106
  265 360.420 -30.5370 -99.7355
  266 360.420 -30.5370 -99.7355
  267 611.524 47.0914 -1.03265
  268 611.524 47.0914 -1.03265
  269 447.929 9.87030 -20.3582
  270 447.929 9.87030 -20.3582
  271 446.247 9.23609 -4.04065
  272 446.247 9.23609 -4.04065
  273 380.222 18.4536 -36.7581
  274 380.222 18.4536 -36.7581
  275 116.424 -43.9794 30.3698
  276 116.424 -43.9794 30.3698
  277 477.096 -79.5051 102.512
  278 477.096 -79.5051 102.512
  279 450.915 6.66634 7.90448
  280 450.915 6.66634 7.90448
  281 666.215 47.0275 -10.8717
  282 666.215 47.0275 -10.8717
  283 793.429 69.8275 95.0903
  284 793.429 69.8275 95.0903
  285 535.507 -56.9513 34.3392
  286 535.507 -56.9513 34.3392
  287 387.704 19.3491 26.9267
  288 387.704 19.3491 26.9267
  289 490.143 -97.8735 135.329
  290 490.143 -97.8735 135.329
  291 505.823 -6.00832 12.5983
  292 505.823 -6.00832 12.5983
  293 450.639 4.39052 2.16274
  294 450.639 4.39052 2.16274
  295 444.394 12.1225 -12.9460
  296 444.394 12.1225 -12.9460
  297 448.629 7.08533 -0.594108
  298 448.629 7.08533 -0.594108
  299 454.895 1.25000 -3.02136
  300 454.895 1.25000 -3.02136
  301 463.880 2.27937 7.83127
  302 463.880 2.27937 7.83127
  303 442.030 12.3400 -3.31930
  304 442.030 12.3400 -3.31930
  305 101.657 -171.198 -123.132
  306 101.657 -171.198 -123.132
  307 304.913 19.9542 25.1334
  308 304.913 19.9542 25.1334
  309 451.118 3.66563 -2.07690
  310 451.118 3.66563 -2.07690
  311 398.409 22.8634 -18.0285
  312 398.409 22.8634 -18.0285
  313 399.432 24.9288 6.86200
  314 399.432 24.9288 6.86200
  315 450.199 6.41028 -5.59616
  316 450.199 6.41028 -5.59616
  317 602.043 32.3267 -3.58443
  318 602.043 32.3267 -3.58443
  319 446.913 10.7416 17.8145
  320 446.913 10.7416 17.8145
  321 569.020 18.2248 -13.9809
  322 569.020 18.2248 -13.9809
  323 832.382 23.4423 56.4475
  324 832.382 23.4423 56.4475
  325 445.288 11.1206 11.1753
  326 445.288 11.1206 11.1753
  327 438.394 14.7233 5.84595
  328 438.394 14.7233 5.84595
  329 341.938 -70.4551 -193.006
  330 341.938 -70.4551 -193.006
  331 455.162 1.12977 2.95535
  332 455.162 1.12977 2.95535
  333 445.831 9.30506 3.02012
  334 445.831 9.30506 3.02012
  335 429.737 19.1099 0.670661
  336 429.737 19.1099 0.670661
  337 222.884 -78.5905 154.739
  338 222.884 -78.5905 154.739
  339 552.834 36.3295 2.47153
  340 552.834 36.3295 2.47153
  341 31.6490 -231.642 -55.2593
  342 31.6490 -231.642 -55.2593
  343 346.670 21.8630 22.3240
  344 346.670 21.8630 22.3240
  345 787.873 10.6084 7.69240
  346 787.873 10.6084 7.69240
  347 822.841 42.0350 -58.3077
  348 822.841 42.0350 -58.3077
  349 389.505 -45.1264 111.603
  350 406.294 -23.1750 82.4000
  351 389.505 -45.1264 111.603
  352 406.294 -23.1750 82.4000
  353 799.314 19.7244 29.3592
  354 799.314 19.7244 29.3592
  355 460.895 -0.697740 31.3500
  356 460.895 -0.697740 31.3500
  357 543.752 -73.4518 -80.1031
  358 543.752 -73.4518 -80.1031
  359 518.415 -4.42120 14.5252
  360 518.415 -4.42120 14.5252
  361 349.363 -70.6700 210.868
  362 349.363 -70.6700 210.868
  363 604.954 48.4924 -1.59012
  364 604.954 48.4924 -1.59012
  365 798.236 7.16850 -6.11071
  366 798.236 7.16850 -6.11071
  367 489.903 0.181817 -15.2888
  368 489.903 0.181817 -15.2888
  369 438.393 15.6620 -7.00238
  370 438.393 15.6620 -7.00238
  371 674.064 52.4208 18.1416
  372 674.064 52.4208 18.1416
  373 519.477 21.8061 -3.17705
  374 519.477 21.8061 -3.17705
  375 472.426 1.76094 -9.70378
  376 472.426 1.76094 -9.70378
  377 129.963 -63.2863 -89.1152
  378 129.963 -63.2863 -89.1152
  379 522.006 -9.42943 3.68975
  380 522.006 -9.42943 3.68975
  381 447.555 -0.762844 -37.0334
  382 447.555 -0.762844 -37.0334
  383 515.024 -1.01529 -17.3886
  384 515.024 -1.01529 -17.3886
  385 802.186 14.0570 -24.2626
  386 802.186 14.0570 -24.2626
  387 449.108 6.85920 4.42269
  388 449.108 6.85920 4.42269
  389 547.213 26.9527 14.1833
  390 547.213 26.9527 14.1833
  391 588.558 -12.0848 7.40417
  392 588.558 -12.0848 7.40417
  393 450.728 8.06994 -9.89671
  394 450.728 8.06994 -9.89671
  395 848.656 82.3369 -110.056
  396 848.656 82.3369 -110.056
  397 514.962 -7.57686 -5.57118
  398 514.962 -7.57686 -5.57118
</Section>

newXOutput 134

<Section columns = "stress_xx | stress_yy | stress_xy">
  1 454.690 0.445294 -0.497570
  2 454.899 0.550401 0.670721
  3 454.690 0.445294 -0.497570
  4 454.899 0.550401 0.670721
  5 692.665 51.6959 198.861
  6 719.258 50.6080 -195.697
  7 692.665 51.6959 198.861
  8 719.258 50.6080 -195.697
  9 455.790 0.312116 -1.30748
  10 459.433 0.550014 -2.32768
  11 464.716 1.24220 -4.73621
  12 476.880 0.457805 -6.38368
  13 492.581 0.741258 -10.5226
  14 511.068 -4.61866 -10.4675
  15 528.249 -5.53013 -1.38085
  16 520.884 -3.76572 8.39216
  17 502.158 4.01115 14.9685
  18 491.921 9.74068 -0.586085
  19 499.337 4.65878 -14.0770
  20 520.398 -5.60872 -10.2192
  21 523.509 -6.71866 3.73130
  22 513.707 -3.04539 9.03623
  23 489.338 0.111092 10.5978
  24 475.829 1.76681 8.09067
  25 465.042 1.42578 4.54952
  26 459.527 0.442597 2.13195
  27 456.046 0.369643 1.26360
  28 455.546 1.61856 0.783014
  29 454.762 3.31506 0.912561
  30 452.830 5.75240 0.813189
  31 452.059 6.68601 -0.0787070
  32 453.044 5.45854 -0.974068
  33 454.425 3.61424 -0.826888
  34 455.030 1.83696 -0.878537
  35 455.790 0.312116 -1.30748
  36 459.433 0.550014 -2.32768
  37 464.716 1.24220 -4.73621
  38 476.880 0.457805 -6.38368
  39 492.581 0.741258 -10.5226
  40 511.068 -4.61866 -10.4675
  41 528.249 -5.53013 -1.38085
  42 520.884 -3.76572 8.39216
  43 502.158 4.01115 14.9685
  44 491.921 9.74068 -0.586085
  45 499.337 4.65878 -14.0770
  46 520.398 -5.60872 -10.2192
  47 523.509 -6.71866 3.73130
  48 513.707 -3.04539 9.03623
  49 489.338 0.111092 10.5978
  50 475.829 1.76681 8.09067
  51 465.042 1.42578 4.54952
  52 459.527 0.442597 2.13195
  53 456.046 0.369643 1.26360
  54 455.546 1.61856 0.783014
  55 454.762 3.31506 0.912561
  56 452.830 5.75240 0.813189
  57 452.059 6.68601 -0.0787070
  58 453.044 5.45854 -0.974068
  59 454.425 3.61424 -0.826888
  60 455.030 1.83696 -0.878537
  61 956.293 50.7654 100.995
  62 872.896 14.1964 35.4528
  63 824.174 5.80395 13.0035
  64 813.721 4.22824 2.49578
  65 823.712 5.63287 -11.0903
  66 860.990 12.1466 -30.6891
  67 965.316 44.1616 -86.9768
  68 129.004 -137.697 -164.302
  69 25.5448 -331.149 -43.4226
  70 6.80846 -379.902 -18.9519
  71 6.52428 -373.400 -9.22252
  72 11.4931 -362.423 20.2988
  73 27.8342 -320.881 46.0381
  74 139.517 -127.899 181.906
  75 956.293 50.7654 100.995
  76 872.896 14.1964 35.4528
  77 824.174 5.80395 13.0035
  78 813.721 4.22824 2.49578
  79 823.712 5.63287 -11.0903
  80 860.990 12.1466 -30.6891
  81 965.316 44.1616 -86.9768
  82 129.004 -137.697 -164.302
  83 25.5448 -331.149 -43.4226
  84 6.80846 -379.902 -18.9519
  85 6.52428 -373.400 -9.22252
  86 11.4931 -362.423 20.2988
  87 27.8342 -320.881 46.0381
  88 139.517 -127.899 181.906
  89 418.843 23.8136 -6.16761
  90 418.843 23.8136 -6.16761
  91 382.668 5.35354 56.1058
  92 367.786 -2.21698 -67.0846
  93 382.668 5.35354 56.1058
  94 367.786 -2.21698 -67.0846
  95 218.356 6.09299 27.1111
  96 218.356 6.09299 27.1111
  97 560.169 36.2256 -8.05588
  98 570.164 21.0843 15.8975
  99 560.169 36.2256 -8.05588
  100 570.164 21.0843 15.8975
  101 448.521 10.7382 6.10292
  102 448.521 10.7382 6.10292
  103 534.884 -30.4470 1.75555
  104 534.884 -30.4470 1.75555
  105 449.043 11.2302 -7.53457
  106 449.043 11.2302 -7.53457
  107 524.932 -65.0359 -60.1827
  108 524.932 -65.0359 -60.1827
  109 368.509 -76.9974 149.206
  110 368.509 -76.9974 149.206
  111 250.249 -44.8589 -120.590
  112 250.249 -44.8589 -120.590
  113 450.753 7.48344 26.4572
  114 450.753 7.48344 26.4572
  115 466.830 3.07605 -25.3477
  116 466.830 3.07605 -25.3477
  117 631.389 43.1674 8.18824
  118 675.565 43.5472 4.18540
  119 631.389 43.1674 8.18824
  120 675.565 43.5472 4.18540
  121 661.935 56.3117 -18.7930
  122 661.935 56.3117 -18.7930
  123 73.5465 -118.955 -40.1541
  124 73.5465 -118.955 -40.1541
  125 569.260 -70.3956 65.8743
  126 569.260 -70.3956 65.8743
  127 482.334 -11.7150 30.1656
  128 482.334 -11.7150 30.1656
  129 111.956 -102.578 91.9572
  130 111.956 -102.578 91.9572
  131 449.146 8.96085 -0.383430
  132 449.146 8.96085 -0.383430
  133 481.476 -22.5441 -38.5741
  134 481.476 -22.5441 -38.5741
  135 455.999 3.67279 4.40183
  136 455.999 3.67279 4.40183
  137 456.377 3.23258 -4.10469
  138 456.377 3.23258 -4.10469
  139 461.271 6.27757 -13.2116
  140 461.271 6.27757 -13.2116
  141 459.222 6.12127 11.8864
  142 459.222 6.12127 11.8864
  143 440.366 14.9645 -0.487681
  144 440.366 14.9645 -0.487681
  145 369.433 24.4254 -2.87704
  146 369.433 24.4254 -2.87704
  147 532.487 -18.9466 7.19365
  148 532.487 -18.9466 7.19365
  149 606.679 -20.0902 -26.1318
  150 606.679 -20.0902 -26.1318
  151 470.015 -52.6200 74.2274
  152 470.015 -52.6200 74.2274
  153 354.906 -95.7253 -168.496
  154 354.906 -95.7253 -168.496
  155 419.673 17.1219 25.2369
  156 419.673 17.1219 25.2369
  157 541.899 -3.11110 -18.6179
  158 541.899 -3.11110 -18.6179
  159 735.423 59.0215 43.2908
  160 735.423 59.0215 43.2908
  161 369.480 -102.874 194.584
  162 369.480 -102.874 194.584
  163 750.187 24.5147 -8.67052
  164 750.187 24.5147 -8.67052
  165 438.631 14.9274 11.6591
  166 438.631 14.9274 11.6591
  167 417.055 14.1651 -37.0053
  168 417.055 14.1651 -37.0053
  169 515.980 15.7397 11.4419
  170 515.980 15.7397 11.4419
  171 434.633 17.8278 -13.2567
  172 434.633 17.8278 -13.2567
  173 451.781 7.20062 1.92508
  174 451.781 7.20062 1.92508
  175 458.986 3.49455 -7.00675
  176 458.986 3.49455 -7.00675
  177 705.716 56.9799 -43.9596
  178 705.716 56.9799 -43.9596
  179 452.126 7.01017 -2.32336
  180 452.126 7.01017 -2.32336
  181 335.339 24.5393 -19.3275
  182 335.339 24.5393 -19.3275
  183 600.352 44.6071 2.71489
  184 600.352 44.6071 2.71489
  185 122.616 -100.745 -118.530
  186 122.616 -100.745 -118.530
  187 330.048 -3.41001 81.7958
  188 330.048 -3.41001 81.7958
  189 438.523 -71.0474 -115.628
  190 438.523 -71.0474 -115.628
  191 517.786 -14.3100 6.83240
  192 517.786 -14.3100 6.83240
  193 484.755 -1.70448 18.4876
  194 484.755 -1.70448 18.4876
  195 656.427 20.8180 41.7358
  196 656.427 20.8180 41.7358
  197 275.979 9.02739 -50.6025
  198 275.979 9.02739 -50.6025
  199 744.151 33.0396 19.9742
  200 744.151 33.0396 19.9742
  201 493.675 -6.13098 -19.5578
  202 493.675 -6.13098 -19.5578
  203 459.688 2.49353 6.45937
  204 459.688 2.49353 6.45937
  205 513.722 -20.2315 -10.5406
  206 513.722 -20.2315 -10.5406
  207 561.224 -27.9817 -5.09058
  208 561.224 -27.9817 -5.09058
  209 35.1807 -208.336 17.8474
  210 35.1807 -208.336 17.8474
  211 473.733 2.42962 -16.2205
  212 473.733 2.42962 -16.2205
  213 469.858 3.65452 14.1517
  214 469.858 3.65452 14.1517
  215 451.929 -41.6191 -73.4904
  216 451.929 -41.6191 -73.4904
  217 527.645 -11.2045 -11.3519
  218 527.645 -11.2045 -11.3519
  219 433.066 15.5423 -25.2208
  220 433.066 15.5423 -25.2208
  221 119.387 -147.828 130.286
  222 119.387 -147.828 130.286
  223 535.055 2.61999 17.6981
  224 535.055 2.61999 17.6981
  225 520.454 13.3795 -15.1075
  226 520.454 13.3795 -15.1075
  227 736.221 43.9177 -34.4026
  228 736.221 43.9177 -34.4026
  229 563.238 -20.6089 -7.89959
  230 563.238 -20.6089 -7.89959
  231 613.201 -25.5855 -111.492
  232 613.201 -25.5855 -111.492
  233 453.589 -20.4929 56.4615
  234 453.589 -20.4929 56.4615
  235 445.094 12.4908 1.96568
  236 445.094 12.4908 1.96568
  237 237.377 -34.6010 106.706
  238 237.377 -34.6010 106.706
  239 586.811 -49.2431 129.893
  240 586.811 -49.2431 129.893
  241 161.932 -20.2699 -52.8838
  242 161.932 -20.2699 -52.8838
  243 524.122 -39.4730 -26.1073
  244 524.122 -39.4730 -26.1073
  245 428.916 19.2431 14.5532
  246 428.916 19.2431 14.5532
  247 15.1708 -271.941 -14.6089
  248 15.1708 -271.941 -14.6089
  249 29.4939 -238.342 48.3404
  250 29.4939 -238.342 48.3404
  251 436.398 3.01389 40.4881
  252 436.398 3.01389 40.4881
  253 455.497 1.72496 1.58941
  254 455.497 1.72496 1.58941
  255 451.743 7.24943 0.303342
  256 451.743 7.24943 0.303342
  257 424.189 -5.25745 -53.9082
  258 424.189 -5.25745 -53.9082
  259 455.754 1.57276 -1.68373
  260 455.754 1.57276 -1.68373
  261 503.353 -35.5620 34.2975
  262 503.353 -35.5620 34.2975
  263 467.598 1.63285 -7.85239
  264 467.598 1.63285 -7.85239
  265 363.024 -30.7582 -100.462
  266 363.024 -30.7582 -100.462
  267 615.865 47.4311 -1.01039
  268 615.865 47.4311 -1.01039
  269 451.147 9.93827 -20.4974
  270 451.147 9.93827 -20.4974
  271 449.455 9.29960 -4.06702
  272 449.455 9.29960 -4.06702
  273 382.987 18.5869 -37.0184
  274 382.987 18.5869 -37.0184
  275 117.299 -44.2664 30.6029
  276 117.299 -44.2664 30.6029
  277 480.475 -80.0813 103.273
  278 480.475 -80.0813 103.273
  279 454.152 6.71220 7.95637
  280 454.152 6.71220 7.95637
  281 670.906 47.3546 -10.9636
  282 670.906 47.3546 -10.9636
  283 798.896 70.3760 95.8088
  284 798.896 70.3760 95.8088
  285 539.295 -57.3571 34.6194
  286 539.295 -57.3571 34.6194
  287 390.522 19.4880 27.1157
  288 390.522 19.4880 27.1157
  289 493.596 -98.5780 136.338
  290 493.596 -98.5780 136.338
  291 509.421 -6.05335 12.6919
  292 509.421 -6.05335 12.6919
  293 453.875 4.42065 2.17664
  294 453.875 4.42065 2.17664
  295 447.590 12.2064 -13.0327
  296 447.590 12.2064 -13.0327
  297 451.852 7.13370 -0.597929
  298 451.852 7.13370 -0.597929
  299 458.156 1.25865 -3.04079
  300 458.156 1.25865 -3.04079
  301 467.198 2.29476 7.88279
  302 467.198 2.29476 7.88279
  303 445.212 12.4251 -3.34127
  304 445.212 12.4251 -3.34127
  305 102.386 -172.380 -124.110
  306 102.386 -172.380 -124.110
  307 307.158 20.1042 25.3135
  308 307.158 20.1042 25.3135
  309 454.356 3.69088 -2.09020
  310 454.356 3.69088 -2.09020
  311 401.301 23.0259 -18.1547
  312 401.301 23.0259 -18.1547
  313 402.332 25.1059 6.90951
  314 402.332 25.1059 6.90951
  315 453.432 6.45437 -5.63265
  316 453.432 6.45437 -5.63265
  317 606.306 32.5803 -3.66420
  318 606.306 32.5803 -3.66420
  319 450.125 10.8159 17.9352
  320 450.125 10.8159 17.9352
  321 573.068 18.3676 -14.0393
  322 573.068 18.3676 -14.0393
  323 838.081 23.5977 56.8479
  324 838.081 23.5977 56.8479
  325 448.491 11.1975 11.2498
  326 448.491 11.1975 11.2498
  327 441.553 14.8253 5.88496
  328 441.553 14.8253 5.88496
  329 344.338 -70.8314 -194.490
  330 344.338 -70.8314 -194.490
  331 458.425 1.13757 2.97434
  332 458.425 1.13757 2.97434
  333 449.037 9.36896 3.03987
  334 449.037 9.36896 3.03987
  335 432.840 19.2433 0.675171
  336 432.840 19.2433 0.675171
  337 224.506 -79.1533 155.912
  338 224.506 -79.1533 155.912
  339 556.795 36.5941 2.48216
  340 556.795 36.5941 2.48216
  341 31.8713 -233.315 -55.7126
  342 31.8713 -233.315 -55.7126
  343 349.209 22.0226 22.4819
  344 349.209 22.0226 22.4819
  345 793.279 10.6760 7.74288
  346 793.279 10.6760 7.74288
  347 828.495 42.3350 -58.7262
  348 828.495 42.3350 -58.7262
  349 392.300 -45.4549 112.417
  350 409.217 -23.3424 82.9929
  351 392.300 -45.4549 112.417
  352 409.217 -23.3424 82.9929
  353 804.801 19.8527 29.5619
  354 804.801 19.8527 29.5619
  355 464.197 -0.704533 31.5712
  356 464.197 -0.704533 31.5712
  357 547.576 -73.9710 -80.7188
  358 547.576 -73.9710 -80.7188
  359 522.125 -4.45089 14.6102
  360 522.125 -4.45089 14.6102
  361 351.799 -71.0555 212.477
  362 351.799 -71.0555 212.477
  363 609.257 48.8363 -1.60013
  364 609.257 48.8363 -1.60013
  365 803.699 7.21360 -6.15212
  366 803.699 7.21360 -6.15212
  367 493.391 0.180929 -15.3952
  368 493.391 0.180929 -15.3952
  369 441.552 15.7707 -7.04926
  370 441.552 15.7707 -7.04926
  371 678.806 52.7924 18.2993
  372 678.806 52.7924 18.2993
  373 523.216 21.9668 -3.19578
  374 523.216 21.9668 -3.19578
  375 475.799 1.77223 -9.76867
  376 475.799 1.77223 -9.76867
  377 130.939 -63.7210 -89.7999
  378 130.939 -63.7210 -89.7999
  379 525.723 -9.49781 3.70221
  380 525.723 -9.49781 3.70221
  381 450.768 -0.770143 -37.2963
  382 450.768 -0.770143 -37.2963
  383 518.718 -1.02080 -17.4919
  384 518.718 -1.02080 -17.4919
  385 807.687 14.1498 -24.4285
  386 807.687 14.1498 -24.4285
  387 452.334 6.90627 4.45145
  388 452.334 6.90627 4.45145
  389 551.127 27.1537 14.2578
  390 551.127 27.1537 14.2578
  391 592.712 -12.1494 7.51240
  392 592.712 -12.1494 7.51240
  393 453.965 8.12553 -9.96209
  394 453.965 8.12553 -9.96209
  395 854.464 82.9925 -110.879
  396 854.464 82.9925 -110.879
  397 518.622 -7.63348 -5.61729
  398 518.622 -7.63348 -5.61729
</Section>

newXOutput 135

<Section columns = "stress_xx | stress_yy | stress_xy">
  1 457.928 0.448533 -0.500671
  2 458.138 0.554331 0.674893
  3 457.928 0.448533 -0.500671
  4 458.138 0.554331 0.674893
  5 697.358 52.2284 200.342
  6 724.117 51.1393 -197.156
  7 697.358 52.2284 200.342
  8 724.117 51.1393 -197.156
  9 459.034 0.314319 -1.31569
  10 462.700 0.553817 -2.34244
  11 468.015 1.25061 -4.76666
  12 480.255 0.460656 -6.42540
  13 496.057 0.745272 -10.5935
  14 514.668 -4.65370 -10.5417
  15 531.969 -5.57090 -1.39625
  16 524.578 -3.79240 8.43956
  17 505.752 4.04292 15.0594
  18 495.458 9.81373 -0.589727
  19 502.913 4.69327 -14.1633
  20 524.090 -5.64881 -10.2766
  21 527.198 -6.76833 3.76442
  22 517.324 -3.06832 9.10078
  23 492.795 0.110261 10.6698
  24 479.198 1.77841 8.14380
  25 468.343 1.43544 4.57869
  26 462.794 0.445670 2.14544
  27 459.292 0.372273 1.27157
  28 458.789 1.62971 0.787869
  29 458.000 3.33768 0.918300
  30 456.057 5.79134 0.818349
  31 455.281 6.73117 -0.0792026
  32 456.272 5.49554 -0.980207
  33 457.661 3.63891 -0.831981
  34 458.269 1.84967 -0.884068
  35 459.034 0.314319 -1.31569
  36 462.700 0.553817 -2.34244
  37 468.015 1.25061 -4.76666
  38 480.255 0.460656 -6.42540
  39 496.057 0.745272 -10.5935
  40 514.668 -4.65370 -10.5417
  41 531.969 -5.57090 -1.39625
  42 524.578 -3.79240 8.43956
  43 505.752 4.04292 15.0594
  44 495.458 9.81373 -0.589727
  45 502.913 4.69327 -14.1633
  46 524.090 -5.64881 -10.2766
  47 527.198 -6.76833 3.76442
  48 517.324 -3.06832 9.10078
  49 492.795 0.110261 10.6698
  50 479.198 1.77841 8.14380
  51 468.343 1.43544 4.57869
  52 462.794 0.445670 2.14544
  53 459.292 0.372273 1.27157
  54 458.789 1.62971 0.787869
  55 458.000 3.33768 0.918300
  56 456.057 5.79134 0.818349
  57 455.281 6.73117 -0.0792026
  58 456.272 5.49554 -0.980207
  59 457.661 3.63891 -0.831981
  60 458.269 1.84967 -0.884068
  61 962.690 51.1344 101.697
  62 878.763 14.2893 35.6892
  63 829.741 5.83789 13.0871
  64 819.223 4.25391 2.51009
  65 829.275 5.66809 -11.1612
  66 866.788 12.2250 -30.8911
  67 971.775 44.4816 -87.5814
  68 129.905 -138.510 -165.577
  69 25.7242 -333.539 -43.7998
  70 6.84369 -382.731 -19.1160
  71 6.55862 -376.190 -9.29112
  72 11.5657 -365.109 20.4753
  73 28.0332 -323.195 46.4398
  74 140.480 -128.642 183.312
  75 962.690 51.1344 101.697
  76 878.763 14.2893 35.6892
  77 829.741 5.83789 13.0871
  78 819.223 4.25391 2.51009
  79 829.275 5.66809 -11.1612
  80 866.788 12.2250 -30.8911
  81 971.775 44.4816 -87.5814
  82 129.905 -138.510 -165.577
  83 25.7242 -333.539 -43.7998
  84 6.84369 -382.731 -19.1160
  85 6.55862 -376.190 -9.29112
  86 11.5657 -365.109 20.4753
  87 28.0332 -323.195 46.4398
  88 140.480 -128.642 183.312
  89 421.852 23.9801 -6.20990
  90 421.852 23.9801 -6.20990
  91 385.422 5.39328 56.5023
  92 370.436 -2.23119 -67.5627
  93 385.422 5.39328 56.5023
  94 370.436 -2.23119 -67.5627
  95 219.973 6.15218 27.3085
  96 219.973 6.15218 27.3085
  97 564.146 36.4879 -8.09576
  98 574.191 21.2470 15.9678
  99 564.146 36.4879 -8.09576
  100 574.191 21.2470 15.9678
  101 451.721 10.8116 6.14280
  102 451.721 10.8116 6.14280
  103 538.655 -30.6623 1.79857
  104 538.655 -30.6623 1.79857
  105 452.246 11.3071 -7.58394
  106 452.246 11.3071 -7.58394
  107 528.614 -65.5004 -60.6362
  108 528.614 -65.5004 -60.6362
  109 371.128 -77.5539 150.301
  110 371.128 -77.5539 150.301
  111 252.062 -45.1748 -121.483
  112 252.062 -45.1748 -121.483
  113 453.966 7.53417 26.6390
  114 453.966 7.53417 26.6390
  115 470.147 3.09520 -25.5233
  116 470.147 3.09520 -25.5233
  117 635.817 43.4917 8.29951
  118 680.279 43.8443 4.22315
  119 635.817 43.4917 8.29951
  120 680.279 43.8443 4.22315
  121 666.567 56.7188 -18.9662
  122 666.567 56.7188 -18.9662
  123 74.0883 -119.781 -40.4701
  124 74.0883 -119.781 -40.4701
  125 573.228 -70.8782 66.3926
  126 573.228 -70.8782 66.3926
  127 485.752 -11.8005 30.3835
  128 485.752 -11.8005 30.3835
  129 112.779 -103.286 92.6712
  130 112.779 -103.286 92.6712
  131 452.350 9.02180 -0.385860
  132 452.350 9.02180 -0.385860
  133 484.885 -22.7069 -38.8560
  134 484.885 -22.7069 -38.8560
  135 459.245 3.69789 4.43005
  136 459.245 3.69789 4.43005
  137 459.625 3.25475 -4.13092
  138 459.625 3.25475 -4.13092
  139 464.550 6.32003 -13.2993
  140 464.550 6.32003 -13.2993
  141 462.488 6.16288 11.9649
  142 462.488 6.16288 11.9649
  143 443.515 15.0673 -0.491031
  144 443.515 15.0673 -0.491031
  145 372.110 24.5996 -2.89759
  146 372.110 24.5996 -2.89759
  147 536.249 -19.0790 7.21781
  148 536.249 -19.0790 7.21781
  149 610.913 -20.1990 -26.3809
  150 610.913 -20.1990 -26.3809
  151 473.335 -52.9986 74.7682
  152 473.335 -52.9986 74.7682
  153 357.409 -96.3940 -169.762
  154 357.409 -96.3940 -169.762
  155 422.684 17.2423 25.4113
  156 422.684 17.2423 25.4113
  157 545.732 -3.12748 -18.7165
  158 545.732 -3.12748 -18.7165
  159 740.508 59.4467 43.6271
  160 740.508 59.4467 43.6271
  161 372.082 -103.603 196.033
  162 372.082 -103.603 196.033
  163 755.345 24.6745 -8.73268
  164 755.345 24.6745 -8.73268
  165 441.768 15.0302 11.7372
  166 441.768 15.0302 11.7372
  167 420.046 14.2650 -37.2637
  168 420.046 14.2650 -37.2637
  169 519.667 15.8573 11.5102
  170 519.667 15.8573 11.5102
  171 437.744 17.9512 -13.3461
  172 437.744 17.9512 -13.3461
  173 455.001 7.24949 1.93743
  174 455.001 7.24949 1.93743
  175 462.251 3.51829 -7.05216
  176 462.251 3.51829 -7.05216
  177 710.608 57.4186 -44.3289
  178 710.608 57.4186 -44.3289
  179 455.348 7.05784 -2.33822
  180 455.348 7.05784 -2.33822
  181 337.780 24.7185 -19.4646
  182 337.780 24.7185 -19.4646
  183 604.589 44.9285 2.70409
  184 604.589 44.9285 2.70409
  185 123.510 -101.440 -119.446
  186 123.510 -101.440 -119.446
  187 332.435 -3.43060 82.3824
  188 332.435 -3.43060 82.3824
  189 441.621 -71.5594 -116.476
  190 441.621 -71.5594 -116.476
  191 521.443 -14.4138 6.89472
  192 521.443 -14.4138 6.89472
  193 488.186 -1.71880 18.6165
  194 488.186 -1.71880 18.6165
  195 660.992 21.0098 42.1000
  196 660.992 21.0098 42.1000
  197 277.999 9.10125 -50.9683
  198 277.999 9.10125 -50.9683
  199 749.280 33.2602 20.1208
  200 749.280 33.2602 20.1208
  201 497.167 -6.17706 -19.6987
  202 497.167 -6.17706 -19.6987
  203 462.957 2.51038 6.50114
  204 462.957 2.51038 6.50114
  205 517.350 -20.3784 -10.6305
  206 517.350 -20.3784 -10.6305
  207 565.168 -28.1707 -5.16927
  208 565.168 -28.1707 -5.16927
  209 35.4339 -209.834 17.9928
  210 35.4339 -209.834 17.9928
  211 477.092 2.44456 -16.3305
  212 477.092 2.44456 -16.3305
  213 473.192 3.67887 14.2467
  214 473.192 3.67887 14.2467
  215 455.133 -41.9184 -74.0236
  216 455.133 -41.9184 -74.0236
  217 531.380 -11.2841 -11.4090
  218 531.380 -11.2841 -11.4090
  219 436.164 15.6506 -25.3947
  220 436.164 15.6506 -25.3947
  221 120.241 -148.844 131.305
  222 120.241 -148.844 131.305
  223 538.851 2.64581 17.7951
  224 538.851 2.64581 17.7951
  225 524.167 13.4800 -15.1956
  226 524.167 13.4800 -15.1956
  227 741.307 44.2196 -34.6631
  228 741.307 44.2196 -34.6631
  229 567.198 -20.7449 -7.91201
  230 567.198 -20.7449 -7.91201
  231 617.447 -25.6977 -112.361
  232 617.447 -25.6977 -112.361
  233 456.811 -20.6399 56.8650
  234 456.811 -20.6399 56.8650
  235 448.273 12.5763 1.97859
  236 448.273 12.5763 1.97859
  237 239.105 -34.8409 107.494
  238 239.105 -34.8409 107.494
  239 590.874 -49.5367 130.888
  240 590.874 -49.5367 130.888
  241 163.135 -20.3932 -53.2785
  242 163.135 -20.3932 -53.2785
  243 527.812 -39.7553 -26.3160
  244 527.812 -39.7553 -26.3160
  245 431.990 19.3771 14.6522
  246 431.990 19.3771 14.6522
  247 15.2721 -273.922 -14.7311
  248 15.2721 -273.922 -14.7311
  249 29.7027 -240.053 48.7414
  250 29.7027 -240.053 48.7414
  251 439.515 3.03450 40.7719
  252 439.515 3.03450 40.7719
  253 458.739 1.73685 1.59945
  254 458.739 1.73685 1.59945
  255 454.963 7.29848 0.305301
  256 454.963 7.29848 0.305301
  257 427.221 -5.29565 -54.2904
  258 427.221 -5.29565 -54.2904
  259 458.998 1.58367 -1.69437
  260 458.998 1.58367 -1.69437
  261 506.906 -35.8172 34.5568
  262 506.906 -35.8172 34.5568
  263 470.916 1.64365 -7.90362
  264 470.916 1.64365 -7.90362
  265 365.626 -30.9793 -101.189
  266 365.626 -30.9793 -101.189
  267 620.202 47.7704 -0.987745
  268 620.202 47.7704 -0.987745
  269 454.364 10.0062 -20.6363
  270 454.364 10.0062 -20.6363
  271 452.661 9.36302 -4.09334
  272 452.661 9.36302 -4.09334
  273 385.751 18.7202 -37.2785
  274 385.751 18.7202 -37.2785
  275 118.174 -44.5527 30.8360
  276 118.174 -44.5527 30.8360
  277 483.851 -80.6570 104.034
  278 483.851 -80.6570 104.034
  279 457.387 6.75798 8.00814
  280 457.387 6.75798 8.00814
  281 675.593 47.6812 -11.0556
  282 675.593 47.6812 -11.0556
  283 804.354 70.9249 96.5273
  284 804.354 70.9249 96.5273
  285 543.079 -57.7625 34.8999
  286 543.079 -57.7625 34.8999
  287 393.339 19.6268 27.3045
  288 393.339 19.6268 27.3045
  289 497.045 -99.2819 137.347
  290 497.045 -99.2819 137.347
  291 513.015 -6.09837 12.7854
  292 513.015 -6.09837 12.7854
  293 457.108 4.45074 2.19050
  294 457.108 4.45074 2.19050
  295 450.784 12.2901 -13.1193
  296 450.784 12.2901 -13.1193
  297 455.073 7.18198 -0.601740
  298 455.073 7.18198 -0.601740
  299 461.415 1.26729 -3.06017
  300 461.415 1.26729 -3.06017
  301 470.514 2.31013 7.93420
  302 470.514 2.31013 7.93420
  303 448.392 12.5102 -3.36319
  304 448.392 12.5102 -3.36319
  305 103.115 -173.561 -125.088
  306 103.115 -173.561 -125.088
  307 309.402 20.2543 25.4935
  308 309.402 20.2543 25.4935
  309 457.591 3.71608 -2.10346
  310 457.591 3.71608 -2.10346
  311 404.192 23.1883 -18.2807
  312 404.192 23.1883 -18.2807
  313 405.231 25.2829 6.95695
  314 405.231 25.2829 6.95695
  315 456.662 6.49839 -5.66906
  316 456.662 6.49839 -5.66906
  317 610.565 32.8341 -3.74466
  318 610.565 32.8341 -3.74466
  319 453.335 10.8901 18.0557
  320 453.335 10.8901 18.0557
  321 577.112 18.5105 -14.0971
  322 577.112 18.5105 -14.0971
  323 843.771 23.7529 57.2478
  324 843.771 23.7529 57.2478
  325 451.690 11.2743 11.3242
  326 451.690 11.2743 11.3242
  327 444.709 14.9272 5.92389
  328 444.709 14.9272 5.92389
  329 346.736 -71.2055 -195.974
  330 346.736 -71.2055 -195.974
  331 461.685 1.14537 2.99329
  332 461.685 1.14537 2.99329
  333 452.240 9.43278 3.05957
  334 452.240 9.43278 3.05957
  335 435.941 19.3765 0.679672
  336 435.941 19.3765 0.679672
  337 226.128 -79.7158 157.086
  338 226.128 -79.7158 157.086
  339 560.752 36.8586 2.49269
  340 560.752 36.8586 2.49269
  341 32.0933 -234.987 -56.1664
  342 32.0933 -234.987 -56.1664
  343 351.747 22.1820 22.6397
  344 351.747 22.1820 22.6397
  345 798.677 10.7434 7.79326
  346 798.677 10.7434 7.79326
  347 834.140 42.6347 -59.1444
  348 834.140 42.6347 -59.1444
  349 395.094 -45.7831 113.230
  350 412.138 -23.5096 83.5854
  351 395.094 -45.7831 113.230
  352 412.138 -23.5096 83.5854
  353 810.279 19.9808 29.7644
  354 810.279 19.9808 29.7644
  355 467.497 -0.711346 31.7921
  356 467.497 -0.711346 31.7921
  357 551.396 -74.4896 -81.3347
  358 551.396 -74.4896 -81.3347
  359 525.831 -4.48054 14.6949
  360 525.831 -4.48054 14.6949
  361 354.233 -71.4389 214.086
  362 354.233 -71.4389 214.086
  363 613.556 49.1800 -1.61011
  364 613.556 49.1800 -1.61011
  365 809.153 7.25858 -6.19346
  366 809.153 7.25858 -6.19346
  367 496.876 0.180011 -15.5015
  368 496.876 0.180011 -15.5015
  369 444.708 15.8793 -7.09606
  370 444.708 15.8793 -7.09606
  371 683.542 53.1637 18.4572
  372 683.542 53.1637 18.4572
  373 526.953 22.1273 -3.21443
  374 526.953 22.1273 -3.21443
  375 479.169 1.78349 -9.83344
  376 479.169 1.78349 -9.83344
  377 131.914 -64.1551 -90.4847
  378 131.914 -64.1551 -90.4847
  379 529.437 -9.56615 3.71447
  380 529.437 -9.56615 3.71447
  381 453.978 -0.777463 -37.5590
  382 453.978 -0.777463 -37.5590
  383 522.409 -1.02628 -17.5948
  384 522.409 -1.02628 -17.5948
  385 813.180 14.2423 -24.5942
  386 813.180 14.2423 -24.5942
  387 455.558 6.95327 4.48015
  388 455.558 6.95327 4.48015
  389 555.038 27.3547 14.3318
  390 555.038 27.3547 14.3318
  391 596.861 -12.2137 7.62133
  392 596.861 -12.2137 7.62133
  393 457.198 8.18105 -10.0273
  394 457.198 8.18105 -10.0273
  395 860.265 83.6484 -111.701
  396 860.265 83.6484 -111.701
  397 522.278 -7.69009 -5.66345
  398 522.278 -7.69009 -5.66345
</Section>

newXOutput 136

<Section columns = "stress_xx | stress_yy | stress_xy">
  1 461.163 0.451770 -0.503763
  2 461.374 0.558259 0.679052
  3 461.163 0.451770 -0.503763
  4 461.374 0.558259 0.679052
  5 702.044 52.7627 201.823
  6 728.969 51.6727 -198.615
  7 702.044 52.7627 201.823
  8 728.969 51.6727 -198.615
  9 462.276 0.316521 -1.32388
  10 465.963 0.557614 -2.35716
  11 471.311 1.25901 -4.79705
  12 483.628 0.463499 -6.46703
  13 499.530 0.749266 -10.6644
  14 518.263 -4.68876 -10.6157
  15 535.686 -5.61166 -1.41172
  16 528.269 -3.81905 8.48675
  17 509.342 4.07470 15.1499
  18 498.993 9.88679 -0.593359
  19 506.487 4.72775 -14.2493
  20 527.779 -5.68886 -10.3338
  21 530.883 -6.81798 3.79760
  22 520.938 -3.09126 9.16527
  23 496.249 0.109408 10.7417
  24 482.565 1.79000 8.19682
  25 471.642 1.44509 4.60780
  26 466.059 0.448738 2.15889
  27 462.535 0.374901 1.27952
  28 462.029 1.64085 0.792710
  29 461.235 3.36028 0.924024
  30 459.281 5.83023 0.823497
  31 458.501 6.77627 -0.0796968
  32 459.497 5.53249 -0.986331
  33 460.894 3.66355 -0.837059
  34 461.506 1.86237 -0.889585
  35 462.276 0.316521 -1.32388
  36 465.963 0.557614 -2.35716
  37 471.311 1.25901 -4.79705
  38 483.628 0.463499 -6.46703
  39 499.530 0.749266 -10.6644
  40 518.263 -4.68876 -10.6157
  41 535.686 -5.61166 -1.41172
  42 528.269 -3.81905 8.48675
  43 509.342 4.07470 15.1499
  44 498.993 9.88679 -0.593359
  45 506.487 4.72775 -14.2493
  46 527.779 -5.68886 -10.3338
  47 530.883 -6.81798 3.79760
  48 520.938 -3.09126 9.16527
  49 496.249 0.109408 10.7417
  50 482.565 1.79000 8.19682
  51 471.642 1.44509 4.60780
  52 466.059 0.448738 2.15889
  53 462.535 0.374901 1.27952
  54 462.029 1.64085 0.792710
  55 461.235 3.36028 0.924024
  56 459.281 5.83023 0.823497
  57 458.501 6.77627 -0.0796968
  58 459.497 5.53249 -0.986331
  59 460.894 3.66355 -0.837059
  60 461.506 1.86237 -0.889585
  61 969.076 51.5031 102.398
  62 884.621 14.3819 35.9253
  63 835.300 5.87171 13.1705
  64 824.716 4.27950 2.52435
  65 834.830 5.70322 -11.2319
  66 872.576 12.3033 -31.0927
  67 978.222 44.8015 -88.1852
  68 130.805 -139.320 -166.853
  69 25.9034 -335.927 -44.1777
  70 6.87869 -385.560 -19.2804
  71 6.59276 -378.980 -9.35971
  72 11.6381 -367.794 20.6521
  73 28.2320 -325.507 46.8422
  74 141.441 -129.382 184.719
  75 969.076 51.5031 102.398
  76 884.621 14.3819 35.9253
  77 835.300 5.87171 13.1705
  78 824.716 4.27950 2.52435
  79 834.830 5.70322 -11.2319
  80 872.576 12.3033 -31.0927
  81 978.222 44.8015 -88.1852
  82 130.805 -139.320 -166.853
  83 25.9034 -335.927 -44.1777
  84 6.87869 -385.560 -19.2804
  85 6.59276 -378.980 -9.35971
  86 11.6381 -367.794 20.6521
  87 28.2320 -325.507 46.8422
  88 141.441 -129.382 184.719
  89 424.859 24.1463 -6.25214
  90 424.859 24.1463 -6.25214
  91 388.175 5.43301 56.8984
  92 373.084 -2.24537 -68.0404
  93 388.175 5.43301 56.8984
  94 373.084 -2.24537 -68.0404
  95 221.589 6.21154 27.5058
  96 221.589 6.21154 27.5058
  97 568.120 36.7501 -8.13536
  98 578.215 21.4098 16.0375
  99 568.120 36.7501 -8.13536
  100 578.215 21.4098 16.0375
  101 454.919 10.8849 6.18259
  102 454.919 10.8849 6.18259
  103 542.423 -30.8773 1.84198
  104 542.423 -30.8773 1.84198
  105 455.447 11.3839 -7.63321
  106 455.447 11.3839 -7.63321
  107 532.292 -65.9646 -61.0896
  108 532.292 -65.9646 -61.0896
  109 373.745 -78.1101 151.396
  110 373.745 -78.1101 151.396
  111 253.874 -45.4904 -122.375
  112 253.874 -45.4904 -122.375
  113 457.175 7.58482 26.8205
  114 457.175 7.58482 26.8205
  115 473.460 3.11431 -25.6987
  116 473.460 3.11431 -25.6987
  117 640.240 43.8159 8.41140
  118 684.988 44.1409 4.26098
  119 640.240 43.8159 8.41140
  120 684.988 44.1409 4.26098
  121 671.193 57.1258 -19.1397
  122 671.193 57.1258 -19.1397
  123 74.6299 -120.606 -40.7864
  124 74.6299 -120.606 -40.7864
  125 577.192 -71.3601 66.9112
  126 577.192 -71.3601 66.9112
  127 489.166 -11.8859 30.6012
  128 489.166 -11.8859 30.6012
  129 113.602 -103.993 93.3854
  130 113.602 -103.993 93.3854
  131 455.552 9.08266 -0.388284
  132 455.552 9.08266 -0.388284
  133 488.291 -22.8697 -39.1378
  134 488.291 -22.8697 -39.1378
  135 462.488 3.72295 4.45821
  136 462.488 3.72295 4.45821
  137 462.870 3.27689 -4.15709
  138 462.870 3.27689 -4.15709
  139 467.827 6.36243 -13.3868
  140 467.827 6.36243 -13.3868
  141 465.752 6.20442 12.0432
  142 465.752 6.20442 12.0432
  143 446.661 15.1700 -0.494376
  144 446.661 15.1700 -0.494376
  145 374.786 24.7738 -2.91813
  146 374.786 24.7738 -2.91813
  147 540.007 -19.2114 7.24158
  148 540.007 -19.2114 7.24158
  149 615.143 -20.3072 -26.6307
  150 615.143 -20.3072 -26.6307
  151 476.652 -53.3771 75.3087
  152 476.652 -53.3771 75.3087
  153 359.910 -97.0621 -171.027
  154 359.910 -97.0621 -171.027
  155 425.693 17.3625 25.5855
  156 425.693 17.3625 25.5855
  157 549.561 -3.14376 -18.8146
  158 549.561 -3.14376 -18.8146
  159 745.586 59.8717 43.9635
  160 745.586 59.8717 43.9635
  161 374.681 -104.331 197.481
  162 374.681 -104.331 197.481
  163 760.495 24.8340 -8.79479
  164 760.495 24.8340 -8.79479
  165 444.903 15.1329 11.8151
  166 444.903 15.1329 11.8151
  167 423.035 14.3649 -37.5218
  168 423.035 14.3649 -37.5218
  169 523.352 15.9749 11.5782
  170 523.352 15.9749 11.5782
  171 440.853 18.0745 -13.4353
  172 440.853 18.0745 -13.4353
  173 458.219 7.29830 1.94975
  174 458.219 7.29830 1.94975
  175 465.512 3.54199 -7.09746
  176 465.512 3.54199 -7.09746
  177 715.493 57.8574 -44.6986
  178 715.493 57.8574 -44.6986
  179 458.568 7.10544 -2.35305
  180 458.568 7.10544 -2.35305
  181 340.220 24.8975 -19.6017
  182 340.220 24.8975 -19.6017
  183 608.821 45.2497 2.69288
  184 608.821 45.2497 2.69288
  185 124.403 -102.135 -120.362
  186 124.403 -102.135 -120.362
  187 334.821 -3.45112 82.9687
  188 334.821 -3.45112 82.9687
  189 444.715 -72.0711 -117.324
  190 444.715 -72.0711 -117.324
  191 525.097 -14.5175 6.95717
  192 525.097 -14.5175 6.95717
  193 491.614 -1.73315 18.7453
  194 491.614 -1.73315 18.7453
  195 665.552 21.2020 42.4648
  196 665.552 21.2020 42.4648
  197 280.018 9.17518 -51.3338
  198 280.018 9.17518 -51.3338
  199 754.402 33.4803 20.2675
  200 754.402 33.4803 20.2675
  201 500.655 -6.22315 -19.8396
  202 500.655 -6.22315 -19.8396
  203 466.223 2.52721 6.54283
  204 466.223 2.52721 6.54283
  205 520.974 -20.5252 -10.7206
  206 520.974 -20.5252 -10.7206
  207 569.108 -28.3593 -5.24849
  208 569.108 -28.3593 -5.24849
  209 35.6869 -211.330 18.1384
  210 35.6869 -211.330 18.1384
  211 480.448 2.45945 -16.4403
  212 480.448 2.45945 -16.4403
  213 476.523 3.70316 14.3416
  214 476.523 3.70316 14.3416
  215 458.335 -42.2176 -74.5564
  216 458.335 -42.2176 -74.5564
  217 535.111 -11.3637 -11.4658
  218 535.111 -11.3637 -11.4658
  219 439.261 15.7588 -25.5684
  220 439.261 15.7588 -25.5684
  221 121.094 -149.859 132.325
  222 121.094 -149.859 132.325
  223 542.644 2.67173 17.8916
  224 542.644 2.67173 17.8916
  225 527.877 13.5805 -15.2833
  226 527.877 13.5805 -15.2833
  227 746.386 44.5211 -34.9236
  228 746.386 44.5211 -34.9236
  229 571.155 -20.8807 -7.92381
  230 571.155 -20.8807 -7.92381
  231 621.688 -25.8087 -113.229
  232 621.688 -25.8087 -113.229
  233 460.030 -20.7868 57.2682
  234 460.030 -20.7868 57.2682
  235 451.449 12.6617 1.99148
  236 451.449 12.6617 1.99148
  237 240.832 -35.0806 108.281
  238 240.832 -35.0806 108.281
  239 594.931 -49.8293 131.883
  240 594.931 -49.8293 131.883
  241 164.337 -20.5160 -53.6731
  242 164.337 -20.5160 -53.6731
  243 531.499 -40.0374 -26.5247
  244 531.499 -40.0374 -26.5247
  245 435.061 19.5109 14.7511
  246 435.061 19.5109 14.7511
  247 15.3732 -275.902 -14.8535
  248 15.3732 -275.902 -14.8535
  249 29.9113 -241.762 49.1429
  250 29.9113 -241.762 49.1429
  251 442.628 3.05507 41.0554
  252 442.628 3.05507 41.0554
  253 461.979 1.74872 1.60946
  254 461.979 1.74872 1.60946
  255 458.181 7.34746 0.307257
  256 458.181 7.34746 0.307257
  257 430.250 -5.33384 -54.6723
  258 430.250 -5.33384 -54.6723
  259 462.239 1.59456 -1.70498
  260 462.239 1.59456 -1.70498
  261 510.455 -36.0722 34.8161
  262 510.455 -36.0722 34.8161
  263 474.231 1.65444 -7.95474
  264 474.231 1.65444 -7.95474
  265 368.226 -31.2002 -101.914
  266 368.226 -31.2002 -101.914
  267 624.535 48.1096 -0.964712
  268 624.535 48.1096 -0.964712
  269 457.577 10.0739 -20.7751
  270 457.577 10.0739 -20.7751
  271 455.865 9.42635 -4.11960
  272 455.865 9.42635 -4.11960
  273 388.513 18.8533 -37.5383
  274 388.513 18.8533 -37.5383
  275 119.049 -44.8384 31.0691
  276 119.049 -44.8384 31.0691
  277 487.224 -81.2324 104.795
  278 487.224 -81.2324 104.795
  279 460.619 6.80371 8.05981
  280 460.619 6.80371 8.05981
  281 680.275 48.0074 -11.1477
  282 680.275 48.0074 -11.1477
  283 809.805 71.4739 97.2456
  284 809.805 71.4739 97.2456
  285 546.859 -58.1676 35.1806
  286 546.859 -58.1676 35.1806
  287 396.154 19.7655 27.4930
  288 396.154 19.7655 27.4930
  289 500.491 -99.9853 138.356
  290 500.491 -99.9853 138.356
  291 516.607 -6.14338 12.8789
  292 516.607 -6.14338 12.8789
  293 460.338 4.48078 2.20433
  294 460.338 4.48078 2.20433
  295 453.976 12.3738 -13.2058
  296 453.976 12.3738 -13.2058
  297 458.291 7.23020 -0.605542
  298 458.291 7.23020 -0.605542
  299 464.671 1.27592 -3.07950
  300 464.671 1.27592 -3.07950
  301 473.827 2.32548 7.98551
  302 473.827 2.32548 7.98551
  303 451.569 12.5952 -3.38507
  304 451.569 12.5952 -3.38507
  305 103.842 -174.741 -126.067
  306 103.842 -174.741 -126.067
  307 311.645 20.4043 25.6734
  308 311.645 20.4043 25.6734
  309 460.824 3.74126 -2.11670
  310 460.824 3.74126 -2.11670
  311 407.081 23.3506 -18.4066
  312 407.081 23.3506 -18.4066
  313 408.128 25.4597 7.00433
  314 408.128 25.4597 7.00433
  315 459.889 6.54236 -5.70539
  316 459.889 6.54236 -5.70539
  317 614.819 33.0880 -3.82580
  318 614.819 33.0880 -3.82580
  319 456.542 10.9643 18.1760
  320 456.542 10.9643 18.1760
  321 581.152 18.6535 -14.1543
  322 581.152 18.6535 -14.1543
  323 849.453 23.9077 57.6473
  324 849.453 23.9077 57.6473
  325 454.888 11.3509 11.3985
  326 454.888 11.3509 11.3985
  327 447.863 15.0289 5.96276
  328 447.863 15.0289 5.96276
  329 349.131 -71.5773 -197.458
  330 349.131 -71.5773 -197.458
  331 464.943 1.15316 3.01218
  332 464.943 1.15316 3.01218
  333 455.441 9.49651 3.07923
  334 455.441 9.49651 3.07923
  335 439.039 19.5096 0.684166
  336 439.039 19.5096 0.684166
  337 227.748 -80.2777 158.259
  338 227.748 -80.2777 158.259
  339 564.706 37.1229 2.50310
  340 564.706 37.1229 2.50310
  341 32.3151 -236.657 -56.6207
  342 32.3151 -236.657 -56.6207
  343 354.283 22.3414 22.7974
  344 354.283 22.3414 22.7974
  345 804.067 10.8107 7.84353
  346 804.067 10.8107 7.84353
  347 839.777 42.9341 -59.5622
  348 839.777 42.9341 -59.5622
  349 397.885 -46.1112 114.043
  350 415.056 -23.6768 84.1773
  351 397.885 -46.1112 114.043
  352 415.056 -23.6768 84.1773
  353 815.750 20.1085 29.9665
  354 815.750 20.1085 29.9665
  355 470.794 -0.718179 32.0128
  356 470.794 -0.718179 32.0128
  357 555.211 -75.0077 -81.9507
  358 555.211 -75.0077 -81.9507
  359 529.534 -4.51013 14.7793
  360 529.534 -4.51013 14.7793
  361 356.663 -71.8202 215.695
  362 356.663 -71.8202 215.695
  363 617.851 49.5233 -1.62006
  364 617.851 49.5233 -1.62006
  365 814.599 7.30345 -6.23473
  366 814.599 7.30345 -6.23473
  367 500.358 0.179063 -15.6076
  368 500.358 0.179063 -15.6076
  369 447.862 15.9877 -7.14278
  370 447.862 15.9877 -7.14278
  371 688.273 53.5346 18.6153
  372 688.273 53.5346 18.6153
  373 530.686 22.2878 -3.23301
  374 530.686 22.2878 -3.23301
  375 482.536 1.79472 -9.89809
  376 482.536 1.79472 -9.89809
  377 132.890 -64.5886 -91.1696
  378 132.890 -64.5886 -91.1696
  379 533.147 -9.63444 3.72653
  380 533.147 -9.63444 3.72653
  381 457.187 -0.784803 -37.8214
  382 457.187 -0.784803 -37.8214
  383 526.097 -1.03173 -17.6974
  384 526.097 -1.03173 -17.6974
  385 818.665 14.3347 -24.7596
  386 818.665 14.3347 -24.7596
  387 458.779 7.00020 4.50879
  388 458.779 7.00020 4.50879
  389 558.945 27.5557 14.4054
  390 558.945 27.5557 14.4054
  391 601.005 -12.2775 7.73094
  392 601.005 -12.2775 7.73094
  393 460.429 8.23649 -10.0924
  394 460.429 8.23649 -10.0924
  395 866.056 84.3047 -112.523
  396 866.056 84.3047 -112.523
  397 525.931 -7.74668 -5.70965
  398 525.931 -7.74668 -5.70965
</Section>

newXOutput 137

<Section columns = "stress_xx | stress_yy | stress_xy">
  1 464.395 0.455005 -0.506847
  2 464.608 0.562184 0.683201
  3 464.395 0.455005 -0.506847
  4 464.608 0.562184 0.683201
  5 706.723 53.2991 203.303
  6 733.813 52.2082 -200.073
  7 706.723 53.2991 203.303
  8 733.813 52.2082 -200.073
  9 465.515 0.318720 -1.33204
  10 469.224 0.561407 -2.37184
  11 474.604 1.26739 -4.82736
  12 486.997 0.466335 -6.50858
  13 503.000 0.753240 -10.7351
  14 521.855 -4.72381 -10.6898
  15 539.400 -5.65241 -1.42725
  16 531.956 -3.84569 8.53373
  17 512.930 4.10651 15.2402
  18 502.525 9.95983 -0.596980
  19 510.058 4.76223 -14.3351
  20 531.465 -5.72889 -10.3907
  21 534.566 -6.86762 3.83084
  22 524.548 -3.11419 9.22972
  23 499.699 0.108532 10.8135
  24 485.928 1.80156 8.24974
  25 474.937 1.45472 4.63685
  26 469.321 0.451804 2.17232
  27 465.776 0.377527 1.28746
  28 465.266 1.65197 0.797538
  29 464.468 3.38284 0.929733
  30 462.503 5.86906 0.828632
  31 461.718 6.82129 -0.0801898
  32 462.720 5.56939 -0.992438
  33 464.124 3.68815 -0.842122
  34 464.740 1.87506 -0.895088
  35 465.515 0.318720 -1.33204
  36 469.224 0.561407 -2.37184
  37 474.604 1.26739 -4.82736
  38 486.997 0.466335 -6.50858
  39 503.000 0.753240 -10.7351
  40 521.855 -4.72381 -10.6898
  41 539.400 -5.65241 -1.42725
  42 531.956 -3.84569 8.53373
  43 512.930 4.10651 15.2402
  44 502.525 9.95983 -0.596980
  45 510.058 4.76223 -14.3351
  46 531.465 -5.72889 -10.3907
  47 534.566 -6.86762 3.83084
  48 524.548 -3.11419 9.22972
  49 499.699 0.108532 10.8135
  50 485.928 1.80156 8.24974
  51 474.937 1.45472 4.63685
  52 469.321 0.451804 2.17232
  53 465.776 0.377527 1.28746
  54 465.266 1.65197 0.797538
  55 464.468 3.38284 0.929733
  56 462.503 5.86906 0.828632
  57 461.718 6.82129 -0.0801898
  58 462.720 5.56939 -0.992438
  59 464.124 3.68815 -0.842122
  60 464.740 1.87506 -0.895088
  61 975.451 51.8717 103.098
  62 890.470 14.4744 36.1609
  63 840.850 5.90541 13.2537
  64 830.201 4.30503 2.53855
  65 840.376 5.73827 -11.3024
  66 878.355 12.3814 -31.2939
  67 984.659 45.1211 -88.7883
  68 131.704 -140.127 -168.129
  69 26.0825 -338.313 -44.5564
  70 6.91347 -388.389 -19.4452
  71 6.62670 -381.770 -9.42829
  72 11.7104 -370.478 20.8294
  73 28.4307 -327.818 47.2455
  74 142.401 -130.120 186.126
  75 975.451 51.8717 103.098
  76 890.470 14.4744 36.1609
  77 840.850 5.90541 13.2537
  78 830.201 4.30503 2.53855
  79 840.376 5.73827 -11.3024
  80 878.355 12.3814 -31.2939
  81 984.659 45.1211 -88.7883
  82 131.704 -140.127 -168.129
  83 26.0825 -338.313 -44.5564
  84 6.91347 -388.389 -19.4452
  85 6.62670 -381.770 -9.42829
  86 11.7104 -370.478 20.8294
  87 28.4307 -327.818 47.2455
  88 142.401 -130.120 186.126
  89 427.864 24.3124 -6.29431
  90 427.864 24.3124 -6.29431
  91 390.926 5.47273 57.2942
  92 375.731 -2.25952 -68.5177
  93 390.926 5.47273 57.2942
  94 375.731 -2.25952 -68.5177
  95 223.206 6.27108 27.7030
  96 223.206 6.27108 27.7030
  97 572.091 37.0121 -8.17468
  98 582.235 21.5727 16.1065
  99 572.091 37.0121 -8.17468
  100 582.235 21.5727 16.1065
  101 458.114 10.9581 6.22230
  102 458.114 10.9581 6.22230
  103 546.187 -31.0922 1.88578
  104 546.187 -31.0922 1.88578
  105 458.645 11.4606 -7.68237
  106 458.645 11.4606 -7.68237
  107 535.967 -66.4285 -61.5431
  108 535.967 -66.4285 -61.5431
  109 376.360 -78.6660 152.491
  110 376.360 -78.6660 152.491
  111 255.684 -45.8058 -123.268
  112 255.684 -45.8058 -123.268
  113 460.383 7.63539 27.0017
  114 460.383 7.63539 27.0017
  115 476.771 3.13335 -25.8738
  116 476.771 3.13335 -25.8738
  117 644.659 44.1402 8.52393
  118 689.692 44.4371 4.29888
  119 644.659 44.1402 8.52393
  120 689.692 44.4371 4.29888
  121 675.815 57.5325 -19.3137
  122 675.815 57.5325 -19.3137
  123 75.1713 -121.430 -41.1028
  124 75.1713 -121.430 -41.1028
  125 581.152 -71.8414 67.4301
  126 581.152 -71.8414 67.4301
  127 492.578 -11.9713 30.8187
  128 492.578 -11.9713 30.8187
  129 114.425 -104.700 94.1000
  130 114.425 -104.700 94.1000
  131 458.751 9.14344 -0.390702
  132 458.751 9.14344 -0.390702
  133 491.695 -23.0323 -39.4195
  134 491.695 -23.0323 -39.4195
  135 465.728 3.74798 4.48629
  136 465.728 3.74798 4.48629
  137 466.113 3.29900 -4.18320
  138 466.113 3.29900 -4.18320
  139 471.101 6.40477 -13.4742
  140 471.101 6.40477 -13.4742
  141 469.014 6.24590 12.1213
  142 469.014 6.24590 12.1213
  143 449.806 15.2725 -0.497717
  144 449.806 15.2725 -0.497717
  145 377.461 24.9478 -2.93866
  146 377.461 24.9478 -2.93866
  147 543.762 -19.3435 7.26495
  148 543.762 -19.3435 7.26495
  149 619.368 -20.4149 -26.8812
  150 619.368 -20.4149 -26.8812
  151 479.966 -53.7553 75.8489
  152 479.966 -53.7553 75.8489
  153 362.409 -97.7294 -172.293
  154 362.409 -97.7294 -172.293
  155 428.700 17.4826 25.7594
  156 428.700 17.4826 25.7594
  157 553.386 -3.15993 -18.9120
  158 553.386 -3.15993 -18.9120
  159 750.659 60.2964 44.2999
  160 750.659 60.2964 44.2999
  161 377.278 -105.059 198.929
  162 377.278 -105.059 198.929
  163 765.639 24.9932 -8.85686
  164 765.639 24.9932 -8.85686
  165 448.036 15.2355 11.8929
  166 448.036 15.2355 11.8929
  167 426.022 14.4646 -37.7797
  168 426.022 14.4646 -37.7797
  169 527.034 16.0925 11.6460
  170 527.034 16.0925 11.6460
  171 443.960 18.1976 -13.5244
  172 443.960 18.1976 -13.5244
  173 461.434 7.34703 1.96205
  174 461.434 7.34703 1.96205
  175 468.771 3.56565 -7.14267
  176 468.771 3.56565 -7.14267
  177 720.373 58.2964 -45.0689
  178 720.373 58.2964 -45.0689
  179 461.785 7.15297 -2.36784
  180 461.785 7.15297 -2.36784
  181 342.659 25.0765 -19.7386
  182 342.659 25.0765 -19.7386
  183 613.049 45.5707 2.68128
  184 613.049 45.5707 2.68128
  185 125.296 -102.828 -121.279
  186 125.296 -102.828 -121.279
  187 337.205 -3.47158 83.5545
  188 337.205 -3.47158 83.5545
  189 447.807 -72.5824 -118.171
  190 447.807 -72.5824 -118.171
  191 528.747 -14.6212 7.01976
  192 528.747 -14.6212 7.01976
  193 495.040 -1.74751 18.8740
  194 495.040 -1.74751 18.8740
  195 670.106 21.3947 42.8303
  196 670.106 21.3947 42.8303
  197 282.037 9.24918 -51.6992
  198 282.037 9.24918 -51.6992
  199 759.517 33.7001 20.4140
  200 759.517 33.7001 20.4140
  201 504.140 -6.26923 -19.9804
  202 504.140 -6.26923 -19.9804
  203 469.486 2.54401 6.58442
  204 469.486 2.54401 6.58442
  205 524.596 -20.6719 -10.8109
  206 524.596 -20.6719 -10.8109
  207 573.044 -28.5477 -5.32824
  208 573.044 -28.5477 -5.32824
  209 35.9397 -212.825 18.2841
  210 35.9397 -212.825 18.2841
  211 483.802 2.47429 -16.5499
  212 483.802 2.47429 -16.5499
  213 479.851 3.72742 14.4363
  214 479.851 3.72742 14.4363
  215 461.533 -42.5167 -75.0890
  216 461.533 -42.5167 -75.0890
  217 538.839 -11.4432 -11.5222
  218 538.839 -11.4432 -11.5222
  219 442.355 15.8668 -25.7418
  220 442.355 15.8668 -25.7418
  221 121.946 -150.873 133.345
  222 121.946 -150.873 133.345
  223 546.434 2.69773 17.9876
  224 546.434 2.69773 17.9876
  225 531.584 13.6810 -15.3707
  226 531.584 13.6810 -15.3707
  227 751.459 44.8223 -35.1841
  228 751.459 44.8223 -35.1841
  229 575.107 -21.0162 -7.93498
  230 575.107 -21.0162 -7.93498
  231 625.923 -25.9187 -114.098
  232 625.923 -25.9187 -114.098
  233 463.246 -20.9336 57.6711
  234 463.246 -20.9336 57.6711
  235 454.624 12.7469 2.00435
  236 454.624 12.7469 2.00435
  237 242.559 -35.3200 109.069
  238 242.559 -35.3200 109.069
  239 598.984 -50.1208 132.879
  240 598.984 -50.1208 132.879
  241 165.540 -20.6385 -54.0677
  242 165.540 -20.6385 -54.0677
  243 535.182 -40.3193 -26.7336
  244 535.182 -40.3193 -26.7336
  245 438.130 19.6446 14.8499
  246 438.130 19.6446 14.8499
  247 15.4742 -277.881 -14.9761
  248 15.4742 -277.881 -14.9761
  249 30.1198 -243.470 49.5450
  250 30.1198 -243.470 49.5450
  251 445.740 3.07562 41.3386
  252 445.740 3.07562 41.3386
  253 465.216 1.76058 1.61945
  254 465.216 1.76058 1.61945
  255 461.396 7.39636 0.309208
  256 461.396 7.39636 0.309208
  257 433.277 -5.37201 -55.0539
  258 433.277 -5.37201 -55.0539
  259 465.478 1.60545 -1.71557
  260 465.478 1.60545 -1.71557
  261 514.000 -36.3270 35.0754
  262 514.000 -36.3270 35.0754
  263 477.543 1.66520 -8.00576
  264 477.543 1.66520 -8.00576
  265 370.824 -31.4210 -102.640
  266 370.824 -31.4210 -102.640
  267 628.864 48.4485 -0.941295
  268 628.864 48.4485 -0.941295
  269 460.788 10.1416 -20.9136
  270 460.788 10.1416 -20.9136
  271 459.066 9.48959 -4.14580
  272 459.066 9.48959 -4.14580
  273 391.274 18.9863 -37.7979
  274 391.274 18.9863 -37.7979
  275 119.924 -45.1234 31.3022
  276 119.924 -45.1234 31.3022
  277 490.594 -81.8075 105.556
  278 490.594 -81.8075 105.556
  279 463.849 6.84937 8.11137
  280 463.849 6.84937 8.11137
  281 684.951 48.3332 -11.2399
  282 684.951 48.3332 -11.2399
  283 815.249 72.0232 97.9637
  284 815.249 72.0232 97.9637
  285 550.635 -58.5723 35.4615
  286 550.635 -58.5723 35.4615
  287 398.967 19.9041 27.6814
  288 398.967 19.9041 27.6814
  289 503.933 -100.688 139.364
  290 503.933 -100.688 139.364
  291 520.195 -6.18838 12.9724
  292 520.195 -6.18838 12.9724
  293 463.566 4.51078 2.21812
  294 463.566 4.51078 2.21812
  295 457.165 12.4574 -13.2921
  296 457.165 12.4574 -13.2921
  297 461.507 7.27834 -0.609335
  298 461.507 7.27834 -0.609335
  299 467.924 1.28454 -3.09879
  300 467.924 1.28454 -3.09879
  301 477.137 2.34079 8.03671
  302 477.137 2.34079 8.03671
  303 454.744 12.6800 -3.40691
  304 454.744 12.6800 -3.40691
  305 104.570 -175.918 -127.046
  306 104.570 -175.918 -127.046
  307 313.887 20.5542 25.8531
  308 313.887 20.5542 25.8531
  309 464.055 3.76639 -2.12990
  310 464.055 3.76639 -2.12990
  311 409.969 23.5127 -18.5323
  312 409.969 23.5127 -18.5323
  313 411.023 25.6363 7.05165
  314 411.023 25.6363 7.05165
  315 463.114 6.58626 -5.74163
  316 463.114 6.58626 -5.74163
  317 619.069 33.3421 -3.90761
  318 619.069 33.3421 -3.90761
  319 459.747 11.0383 18.2962
  320 459.747 11.0383 18.2962
  321 585.189 18.7965 -14.2108
  322 585.189 18.7965 -14.2108
  323 855.127 24.0623 58.0464
  324 855.127 24.0623 58.0464
  325 458.083 11.4275 11.4727
  326 458.083 11.4275 11.4727
  327 451.015 15.1305 6.00155
  328 451.015 15.1305 6.00155
  329 351.523 -71.9470 -198.942
  330 351.523 -71.9470 -198.942
  331 468.198 1.16094 3.03103
  332 468.198 1.16094 3.03103
  333 458.640 9.56014 3.09885
  334 458.640 9.56014 3.09885
  335 442.135 19.6425 0.688653
  336 442.135 19.6425 0.688653
  337 229.367 -80.8393 159.433
  338 229.367 -80.8393 159.433
  339 568.656 37.3870 2.51342
  340 568.656 37.3870 2.51342
  341 32.5366 -238.326 -57.0755
  342 32.5366 -238.326 -57.0755
  343 356.818 22.5007 22.9548
  344 356.818 22.5007 22.9548
  345 809.449 10.8778 7.89369
  346 809.449 10.8778 7.89369
  347 845.406 43.2333 -59.9796
  348 845.406 43.2333 -59.9796
  349 400.674 -46.4391 114.855
  350 417.972 -23.8438 84.7689
  351 400.674 -46.4391 114.855
  352 417.972 -23.8438 84.7689
  353 821.213 20.2360 30.1684
  354 821.213 20.2360 30.1684
  355 474.088 -0.725032 32.2333
  356 474.088 -0.725032 32.2333
  357 559.023 -75.5253 -82.5667
  358 559.023 -75.5253 -82.5667
  359 533.234 -4.53967 14.8633
  360 533.234 -4.53967 14.8633
  361 359.091 -72.1993 217.304
  362 359.091 -72.1993 217.304
  363 622.142 49.8663 -1.62998
  364 622.142 49.8663 -1.62998
  365 820.038 7.34820 -6.27594
  366 820.038 7.34820 -6.27594
  367 503.836 0.178085 -15.7135
  368 503.836 0.178085 -15.7135
  369 451.014 16.0960 -7.18941
  370 451.014 16.0960 -7.18941
  371 692.998 53.9052 18.7736
  372 692.998 53.9052 18.7736
  373 534.417 22.4482 -3.25152
  374 534.417 22.4482 -3.25152
  375 485.900 1.80592 -9.96262
  376 485.900 1.80592 -9.96262
  377 133.865 -65.0215 -91.8547
  378 133.865 -65.0215 -91.8547
  379 536.854 -9.70269 3.73839
  380 536.854 -9.70269 3.73839
  381 460.392 -0.792164 -38.0835
  382 460.392 -0.792164 -38.0835
  383 529.782 -1.03714 -17.7995
  384 529.782 -1.03714 -17.7995
  385 824.142 14.4269 -24.9248
  386 824.142 14.4269 -24.9248
  387 461.998 7.04706 4.53736
  388 461.998 7.04706 4.53736
  389 562.849 27.7566 14.4786
  390 562.849 27.7566 14.4786
  391 605.146 -12.3409 7.84124
  392 605.146 -12.3409 7.84124
  393 463.658 8.29186 -10.1574
  394 463.658 8.29186 -10.1574
  395 871.839 84.9614 -113.345
  396 871.839 84.9614 -113.345
  397 529.580 -7.80326 -5.75590
  398 529.580 -7.80326 -5.75590
</Section>

newXOutput 138

<Section columns = "stress_xx | stress_yy | stress_xy">
  1 467.624 0.458238 -0.509923
  2 467.839 0.566106 0.687338
  3 467.624 0.458238 -0.509923
  4 467.839 0.566106 0.687338
  5 711.395 53.8374 204.783
  6 738.650 52.7457 -201.531
  7 711.395 53.8374 204.783
  8 738.650 52.7457 -201.531
  9 468.751 0.320917 -1.34018
  10 472.483 0.565195 -2.38649
  11 477.895 1.27576 -4.85761
  12 490.363 0.469163 -6.55004
  13 506.467 0.757193 -10.8057
  14 525.444 -4.75887 -10.7637
  15 543.109 -5.69315 -1.44285
  16 535.641 -3.87230 8.58050
  17 516.516 4.13834 15.3301
  18 506.055 10.0329 -0.600591
  19 513.626 4.79670 -14.4206
  20 535.148 -5.76888 -10.4473
  21 538.244 -6.91725 3.86414
  22 528.154 -3.13712 9.29411
  23 503.147 0.107635 10.8852
  24 489.288 1.81310 8.30256
  25 478.230 1.46434 4.66582
  26 472.580 0.454866 2.18570
  27 469.014 0.380150 1.29537
  28 468.501 1.66308 0.802352
  29 467.698 3.40537 0.935427
  30 465.722 5.90783 0.833754
  31 464.932 6.86624 -0.0806815
  32 465.940 5.60623 -0.998530
  33 467.353 3.71272 -0.847171
  34 467.972 1.88773 -0.900576
  35 468.751 0.320917 -1.34018
  36 472.483 0.565195 -2.38649
  37 477.895 1.27576 -4.85761
  38 490.363 0.469163 -6.55004
  39 506.467 0.757193 -10.8057
  40 525.444 -4.75887 -10.7637
  41 543.109 -5.69315 -1.44285
  42 535.641 -3.87230 8.58050
  43 516.516 4.13834 15.3301
  44 506.055 10.0329 -0.600591
  45 513.626 4.79670 -14.4206
  46 535.148 -5.76888 -10.4473
  47 538.244 -6.91725 3.86414
  48 528.154 -3.13712 9.29411
  49 503.147 0.107635 10.8852
  50 489.288 1.81310 8.30256
  51 478.230 1.46434 4.66582
  52 472.580 0.454866 2.18570
  53 469.014 0.380150 1.29537
  54 468.501 1.66308 0.802352
  55 467.698 3.40537 0.935427
  56 465.722 5.90783 0.833754
  57 464.932 6.86624 -0.0806815
  58 465.940 5.60623 -0.998530
  59 467.353 3.71272 -0.847171
  60 467.972 1.88773 -0.900576
  61 981.816 52.2401 103.797
  62 896.309 14.5667 36.3961
  63 846.392 5.93898 13.3368
  64 835.678 4.33047 2.55270
  65 845.914 5.77323 -11.3728
  66 884.125 12.4593 -31.4947
  67 991.084 45.4406 -89.3906
  68 132.602 -140.931 -169.406
  69 26.2614 -340.698 -44.9358
  70 6.94802 -391.217 -19.6103
  71 6.66043 -384.559 -9.49685
  72 11.7824 -373.161 21.0069
  73 28.6293 -330.127 47.6495
  74 143.361 -130.854 187.533
  75 981.816 52.2401 103.797
  76 896.309 14.5667 36.3961
  77 846.392 5.93898 13.3368
  78 835.678 4.33047 2.55270
  79 845.914 5.77323 -11.3728
  80 884.125 12.4593 -31.4947
  81 991.084 45.4406 -89.3906
  82 132.602 -140.931 -169.406
  83 26.2614 -340.698 -44.9358
  84 6.94802 -391.217 -19.6103
  85 6.66043 -384.559 -9.49685
  86 11.7824 -373.161 21.0069
  87 28.6293 -330.127 47.6495
  88 143.361 -130.854 187.533
  89 430.867 24.4783 -6.33643
  90 430.867 24.4783 -6.33643
  91 393.675 5.51244 57.6896
  92 378.376 -2.27364 -68.9946
  93 393.675 5.51244 57.6896
  94 378.376 -2.27364 -68.9946
  95 224.821 6.33079 27.9001
  96 224.821 6.33079 27.9001
  97 576.058 37.2740 -8.21373
  98 586.251 21.7356 16.1748
  99 576.058 37.2740 -8.21373
  100 586.251 21.7356 16.1748
  101 461.307 11.0311 6.26194
  102 461.307 11.0311 6.26194
  103 549.947 -31.3068 1.92998
  104 549.947 -31.3068 1.92998
  105 461.841 11.5373 -7.73145
  106 461.841 11.5373 -7.73145
  107 539.638 -66.8920 -61.9965
  108 539.638 -66.8920 -61.9965
  109 378.973 -79.2216 153.584
  110 378.973 -79.2216 153.584
  111 257.494 -46.1209 -124.160
  112 257.494 -46.1209 -124.160
  113 463.588 7.68589 27.1828
  114 463.588 7.68589 27.1828
  115 480.079 3.15235 -26.0487
  116 480.079 3.15235 -26.0487
  117 649.074 44.4645 8.63707
  118 694.391 44.7330 4.33685
  119 649.074 44.4645 8.63707
  120 694.391 44.7330 4.33685
  121 680.431 57.9389 -19.4880
  122 680.431 57.9389 -19.4880
  123 75.7126 -122.254 -41.4195
  124 75.7126 -122.254 -41.4195
  125 585.107 -72.3221 67.9492
  126 585.107 -72.3221 67.9492
  127 495.987 -12.0567 31.0361
  128 495.987 -12.0567 31.0361
  129 115.247 -105.406 94.8148
  130 115.247 -105.406 94.8148
  131 461.948 9.20412 -0.393114
  132 461.948 9.20412 -0.393114
  133 495.095 -23.1949 -39.7010
  134 495.095 -23.1949 -39.7010
  135 468.966 3.77297 4.51432
  136 468.966 3.77297 4.51432
  137 469.353 3.32109 -4.20924
  138 469.353 3.32109 -4.20924
  139 474.373 6.44705 -13.5614
  140 474.373 6.44705 -13.5614
  141 472.273 6.28733 12.1994
  142 472.273 6.28733 12.1994
  143 452.948 15.3750 -0.501053
  144 452.948 15.3750 -0.501053
  145 380.134 25.1216 -2.95916
  146 380.134 25.1216 -2.95916
  147 547.514 -19.4756 7.28793
  148 547.514 -19.4756 7.28793
  149 623.589 -20.5219 -27.1323
  150 623.589 -20.5219 -27.1323
  151 483.277 -54.1333 76.3890
  152 483.277 -54.1333 76.3890
  153 364.905 -98.3960 -173.558
  154 364.905 -98.3960 -173.558
  155 431.705 17.6025 25.9331
  156 431.705 17.6025 25.9331
  157 557.208 -3.17601 -19.0090
  158 557.208 -3.17601 -19.0090
  159 755.725 60.7208 44.6365
  160 755.725 60.7208 44.6365
  161 379.872 -105.787 200.377
  162 379.872 -105.787 200.377
  163 770.776 25.1521 -8.91887
  164 770.776 25.1521 -8.91887
  165 451.166 15.3380 11.9706
  166 451.166 15.3380 11.9706
  167 429.006 14.5643 -38.0372
  168 429.006 14.5643 -38.0372
  169 530.714 16.2100 11.7136
  170 530.714 16.2100 11.7136
  171 447.065 18.3205 -13.6134
  172 447.065 18.3205 -13.6134
  173 464.647 7.39569 1.97431
  174 464.647 7.39569 1.97431
  175 472.027 3.58928 -7.18778
  176 472.027 3.58928 -7.18778
  177 725.247 58.7355 -45.4395
  178 725.247 58.7355 -45.4395
  179 465.000 7.20043 -2.38259
  180 465.000 7.20043 -2.38259
  181 345.096 25.2554 -19.8754
  182 345.096 25.2554 -19.8754
  183 617.273 45.8915 2.66928
  184 617.273 45.8915 2.66928
  185 126.188 -103.521 -122.196
  186 126.188 -103.521 -122.196
  187 339.588 -3.49198 84.1399
  188 339.588 -3.49198 84.1399
  189 450.895 -73.0935 -119.018
  190 450.895 -73.0935 -119.018
  191 532.394 -14.7249 7.08249
  192 532.394 -14.7249 7.08249
  193 498.462 -1.76190 19.0024
  194 498.462 -1.76190 19.0024
  195 674.656 21.5880 43.1963
  196 674.656 21.5880 43.1963
  197 284.054 9.32325 -52.0643
  198 284.054 9.32325 -52.0643
  199 764.626 33.9195 20.5605
  200 764.626 33.9195 20.5605
  201 507.622 -6.31531 -20.1211
  202 507.622 -6.31531 -20.1211
  203 472.747 2.56078 6.62592
  204 472.747 2.56078 6.62592
  205 528.214 -20.8185 -10.9012
  206 528.214 -20.8185 -10.9012
  207 576.976 -28.7357 -5.40851
  208 576.976 -28.7357 -5.40851
  209 36.1924 -214.319 18.4300
  210 36.1924 -214.319 18.4300
  211 487.152 2.48909 -16.6594
  212 487.152 2.48909 -16.6594
  213 483.177 3.75163 14.5309
  214 483.177 3.75163 14.5309
  215 464.729 -42.8155 -75.6212
  216 464.729 -42.8155 -75.6212
  217 542.563 -11.5226 -11.5782
  218 542.563 -11.5226 -11.5782
  219 445.447 15.9747 -25.9150
  220 445.447 15.9747 -25.9150
  221 122.797 -151.885 134.366
  222 122.797 -151.885 134.366
  223 550.220 2.72381 18.0831
  224 550.220 2.72381 18.0831
  225 535.288 13.7816 -15.4577
  226 535.288 13.7816 -15.4577
  227 756.525 45.1230 -35.4445
  228 756.525 45.1230 -35.4445
  229 579.056 -21.1514 -7.94553
  230 579.056 -21.1514 -7.94553
  231 630.154 -26.0276 -114.968
  232 630.154 -26.0276 -114.968
  233 466.459 -21.0804 58.0737
  234 466.459 -21.0804 58.0737
  235 457.795 12.8321 2.01718
  236 457.795 12.8321 2.01718
  237 244.285 -35.5592 109.856
  238 244.285 -35.5592 109.856
  239 603.032 -50.4112 133.875
  240 603.032 -50.4112 133.875
  241 166.742 -20.7606 -54.4621
  242 166.742 -20.7606 -54.4621
  243 538.862 -40.6010 -26.9427
  244 538.862 -40.6010 -26.9427
  245 441.197 19.7781 14.9485
  246 441.197 19.7781 14.9485
  247 15.5750 -279.859 -15.0988
  248 15.5750 -279.859 -15.0988
  249 30.3280 -245.177 49.9477
  250 30.3280 -245.177 49.9477
  251 448.849 3.09614 41.6216
  252 448.849 3.09614 41.6216
  253 468.451 1.77242 1.62941
  254 468.451 1.77242 1.62941
  255 464.609 7.44518 0.311154
  256 464.609 7.44518 0.311154
  257 436.302 -5.41016 -55.4352
  258 436.302 -5.41016 -55.4352
  259 468.713 1.61632 -1.72612
  260 468.713 1.61632 -1.72612
  261 517.543 -36.5817 35.3348
  262 517.543 -36.5817 35.3348
  263 480.852 1.67595 -8.05667
  264 480.852 1.67595 -8.05667
  265 373.420 -31.6416 -103.365
  266 373.420 -31.6416 -103.365
  267 633.188 48.7872 -0.917496
  268 633.188 48.7872 -0.917496
  269 463.997 10.2092 -21.0519
  270 463.997 10.2092 -21.0519
  271 462.264 9.55274 -4.17194
  272 462.264 9.55274 -4.17194
  273 394.032 19.1193 -38.0571
  274 394.032 19.1193 -38.0571
  275 120.799 -45.4078 31.5354
  276 120.799 -45.4078 31.5354
  277 493.960 -82.3821 106.317
  278 493.960 -82.3821 106.317
  279 467.076 6.89496 8.16281
  280 467.076 6.89496 8.16281
  281 689.623 48.6586 -11.3322
  282 689.623 48.6586 -11.3322
  283 820.685 72.5727 98.6817
  284 820.685 72.5727 98.6817
  285 554.408 -58.9766 35.7427
  286 554.408 -58.9766 35.7427
  287 401.778 20.0426 27.8695
  288 401.778 20.0426 27.8695
  289 507.372 -101.391 140.372
  290 507.372 -101.391 140.372
  291 523.780 -6.23337 13.0658
  292 523.780 -6.23337 13.0658
  293 466.791 4.54074 2.23189
  294 466.791 4.54074 2.23189
  295 460.352 12.5408 -13.3783
  296 460.352 12.5408 -13.3783
  297 464.720 7.32641 -0.613118
  298 464.720 7.32641 -0.613118
  299 471.175 1.29314 -3.11803
  300 471.175 1.29314 -3.11803
  301 480.444 2.35609 8.08781
  302 480.444 2.35609 8.08781
  303 457.917 12.7647 -3.42870
  304 457.917 12.7647 -3.42870
  305 105.296 -177.094 -128.026
  306 105.296 -177.094 -128.026
  307 316.128 20.7042 26.0326
  308 316.128 20.7042 26.0326
  309 467.282 3.79149 -2.14306
  310 467.282 3.79149 -2.14306
  311 412.854 23.6746 -18.6579
  312 412.854 23.6746 -18.6579
  313 413.916 25.8128 7.09891
  314 413.916 25.8128 7.09891
  315 466.337 6.63010 -5.77780
  316 466.337 6.63010 -5.77780
  317 623.315 33.5962 -3.99010
  318 623.315 33.5962 -3.99010
  319 462.949 11.1122 18.4161
  320 462.949 11.1122 18.4161
  321 589.222 18.9396 -14.2667
  322 589.222 18.9396 -14.2667
  323 860.792 24.2165 58.4451
  324 860.792 24.2165 58.4451
  325 461.275 11.5040 11.5467
  326 461.275 11.5040 11.5467
  327 454.165 15.2320 6.04027
  328 454.165 15.2320 6.04027
  329 353.912 -72.3144 -200.426
  330 353.912 -72.3144 -200.426
  331 471.451 1.16870 3.04984
  332 471.451 1.16870 3.04984
  333 461.836 9.62369 3.11843
  334 461.836 9.62369 3.11843
  335 445.229 19.7752 0.693131
  336 445.229 19.7752 0.693131
  337 230.986 -81.4004 160.607
  338 230.986 -81.4004 160.607
  339 572.603 37.6510 2.52362
  340 572.603 37.6510 2.52362
  341 32.7579 -239.994 -57.5309
  342 32.7579 -239.994 -57.5309
  343 359.351 22.6599 23.1121
  344 359.351 22.6599 23.1121
  345 814.824 10.9447 7.94376
  346 814.824 10.9447 7.94376
  347 851.027 43.5322 -60.3966
  348 851.027 43.5322 -60.3966
  349 403.461 -46.7668 115.667
  350 420.886 -24.0108 85.3600
  351 403.461 -46.7668 115.667
  352 420.886 -24.0108 85.3600
  353 826.668 20.3632 30.3700
  354 826.668 20.3632 30.3700
  355 477.379 -0.731906 32.4535
  356 477.379 -0.731906 32.4535
  357 562.830 -76.0424 -83.1829
  358 562.830 -76.0424 -83.1829
  359 536.931 -4.56915 14.9470
  360 536.931 -4.56915 14.9470
  361 361.515 -72.5763 218.913
  362 361.515 -72.5763 218.913
  363 626.429 50.2090 -1.63987
  364 626.429 50.2090 -1.63987
  365 825.468 7.39284 -6.31708
  366 825.468 7.39284 -6.31708
  367 507.312 0.177077 -15.8194
  368 507.312 0.177077 -15.8194
  369 454.163 16.2041 -7.23595
  370 454.163 16.2041 -7.23595
  371 697.719 54.2754 18.9322
  372 697.719 54.2754 18.9322
  373 538.145 22.6086 -3.26995
  374 538.145 22.6086 -3.26995
  375 489.260 1.81710 -10.0270
  376 489.260 1.81710 -10.0270
  377 134.840 -65.4537 -92.5399
  378 134.840 -65.4537 -92.5399
  379 540.558 -9.77090 3.75004
  380 540.558 -9.77090 3.75004
  381 463.595 -0.799545 -38.3454
  382 463.595 -0.799545 -38.3454
  383 533.464 -1.04253 -17.9013
  384 533.464 -1.04253 -17.9013
  385 829.612 14.5189 -25.0897
  386 829.612 14.5189 -25.0897
  387 465.214 7.09386 4.56587
  388 465.214 7.09386 4.56587
  389 566.750 27.9575 14.5513
  390 566.750 27.9575 14.5513
  391 609.282 -12.4040 7.95221
  392 609.282 -12.4040 7.95221
  393 466.884 8.34715 -10.2223
  394 466.884 8.34715 -10.2223
  395 877.613 85.6184 -114.166
  396 877.613 85.6184 -114.166
  397 533.227 -7.85983 -5.80220
  398 533.227 -7.85983 -5.80220
</Section>

newXOutput 139

<Section columns = "stress_xx | stress_yy | stress_xy">
  1 470.851 0.461470 -0.512990
  2 471.068 0.570025 0.691463
  3 470.851 0.461470 -0.512990
  4 471.068 0.570025 0.691463
  5 716.060 54.3776 206.263
  6 743.479 53.2852 -202.989
  7 716.060 54.3776 206.263
  8 743.479 53.2852 -202.989
  9 471.985 0.323113 -1.34830
  10 475.738 0.568979 -2.40110
  11 481.183 1.28412 -4.88779
  12 493.727 0.471983 -6.59141
  13 509.930 0.761126 -10.8762
  14 529.030 -4.79393 -10.8376
  15 546.816 -5.73388 -1.45850
  16 539.323 -3.89889 8.62707
  17 520.099 4.17019 15.4198
  18 509.583 10.1059 -0.604190
  19 517.192 4.83116 -14.5059
  20 538.828 -5.80884 -10.5037
  21 541.920 -6.96687 3.89750
  22 531.758 -3.16005 9.35846
  23 506.591 0.106716 10.9568
  24 492.646 1.82462 8.35528
  25 481.521 1.47394 4.69473
  26 475.836 0.457924 2.19906
  27 472.250 0.382772 1.30326
  28 471.733 1.67417 0.807153
  29 470.926 3.42787 0.941106
  30 468.938 5.94653 0.838864
  31 468.144 6.91112 -0.0811719
  32 469.157 5.64302 -1.00461
  33 470.578 3.73726 -0.852204
  34 471.201 1.90038 -0.906050
  35 471.985 0.323113 -1.34830
  36 475.738 0.568979 -2.40110
  37 481.183 1.28412 -4.88779
  38 493.727 0.471983 -6.59141
  39 509.930 0.761126 -10.8762
  40 529.030 -4.79393 -10.8376
  41 546.816 -5.73388 -1.45850
  42 539.323 -3.89889 8.62707
  43 520.099 4.17019 15.4198
  44 509.583 10.1059 -0.604190
  45 517.192 4.83116 -14.5059
  46 538.828 -5.80884 -10.5037
  47 541.920 -6.96687 3.89750
  48 531.758 -3.16005 9.35846
  49 506.591 0.106716 10.9568
  50 492.646 1.82462 8.35528
  51 481.521 1.47394 4.69473
  52 475.836 0.457924 2.19906
  53 472.250 0.382772 1.30326
  54 471.733 1.67417 0.807153
  55 470.926 3.42787 0.941106
  56 468.938 5.94653 0.838864
  57 468.144 6.91112 -0.0811719
  58 469.157 5.64302 -1.00461
  59 470.578 3.73726 -0.852204
  60 471.201 1.90038 -0.906050
  61 988.170 52.6082 104.495
  62 902.140 14.6588 36.6309
  63 851.926 5.97244 13.4196
  64 841.146 4.35585 2.56679
  65 851.443 5.80810 -11.4430
  66 889.886 12.5370 -31.6951
  67 997.499 45.7599 -89.9921
  68 133.499 -141.731 -170.683
  69 26.4400 -343.081 -45.3160
  70 6.98235 -394.044 -19.7757
  71 6.69395 -387.348 -9.56540
  72 11.8543 -375.844 21.1849
  73 28.8277 -332.434 48.0544
  74 144.318 -131.585 188.941
  75 988.170 52.6082 104.495
  76 902.140 14.6588 36.6309
  77 851.926 5.97244 13.4196
  78 841.146 4.35585 2.56679
  79 851.443 5.80810 -11.4430
  80 889.886 12.5370 -31.6951
  81 997.499 45.7599 -89.9921
  82 133.499 -141.731 -170.683
  83 26.4400 -343.081 -45.3160
  84 6.98235 -394.044 -19.7757
  85 6.69395 -387.348 -9.56540
  86 11.8543 -375.844 21.1849
  87 28.8277 -332.434 48.0544
  88 144.318 -131.585 188.941
  89 433.867 24.6440 -6.37849
  90 433.867 24.6440 -6.37849
  91 396.422 5.55213 58.0846
  92 381.019 -2.28773 -69.4711
  93 396.422 5.55213 58.0846
  94 381.019 -2.28773 -69.4711
  95 226.437 6.39067 28.0971
  96 226.437 6.39067 28.0971
  97 580.021 37.5357 -8.25251
  98 590.263 21.8986 16.2425
  99 580.021 37.5357 -8.25251
  100 590.263 21.8986 16.2425
  101 464.498 11.1041 6.30149
  102 464.498 11.1041 6.30149
  103 553.705 -31.5213 1.97456
  104 553.705 -31.5213 1.97456
  105 465.035 11.6138 -7.78042
  106 465.035 11.6138 -7.78042
  107 543.305 -67.3552 -62.4500
  108 543.305 -67.3552 -62.4500
  109 381.583 -79.7769 154.678
  110 381.583 -79.7769 154.678
  111 259.302 -46.4356 -125.052
  112 259.302 -46.4356 -125.052
  113 466.790 7.73631 27.3635
  114 466.790 7.73631 27.3635
  115 483.385 3.17129 -26.2234
  116 483.385 3.17129 -26.2234
  117 653.484 44.7887 8.75084
  118 699.085 45.0284 4.37490
  119 653.484 44.7887 8.75084
  120 699.085 45.0284 4.37490
  121 685.043 58.3452 -19.6626
  122 685.043 58.3452 -19.6626
  123 76.2538 -123.076 -41.7363
  124 76.2538 -123.076 -41.7363
  125 589.058 -72.8020 68.4686
  126 589.058 -72.8020 68.4686
  127 499.393 -12.1420 31.2534
  128 499.393 -12.1420 31.2534
  129 116.070 -106.110 95.5299
  130 116.070 -106.110 95.5299
  131 465.142 9.26472 -0.395519
  132 465.142 9.26472 -0.395519
  133 498.492 -23.3573 -39.9825
  134 498.492 -23.3573 -39.9825
  135 472.202 3.79793 4.54227
  136 472.202 3.79793 4.54227
  137 472.590 3.34314 -4.23523
  138 472.590 3.34314 -4.23523
  139 477.642 6.48925 -13.6485
  140 477.642 6.48925 -13.6485
  141 475.529 6.32869 12.2772
  142 475.529 6.32869 12.2772
  143 456.087 15.4772 -0.504385
  144 456.087 15.4772 -0.504385
  145 382.806 25.2953 -2.97965
  146 382.806 25.2953 -2.97965
  147 551.262 -19.6075 7.31052
  148 551.262 -19.6075 7.31052
  149 627.805 -20.6284 -27.3841
  150 627.805 -20.6284 -27.3841
  151 486.586 -54.5110 76.9287
  152 486.586 -54.5110 76.9287
  153 367.399 -99.0619 -174.823
  154 367.399 -99.0619 -174.823
  155 434.708 17.7224 26.1066
  156 434.708 17.7224 26.1066
  157 561.027 -3.19199 -19.1053
  158 561.027 -3.19199 -19.1053
  159 760.785 61.1450 44.9730
  160 760.785 61.1450 44.9730
  161 382.464 -106.513 201.824
  162 382.464 -106.513 201.824
  163 775.906 25.3106 -8.98083
  164 775.906 25.3106 -8.98083
  165 454.294 15.4403 12.0482
  166 454.294 15.4403 12.0482
  167 431.989 14.6639 -38.2945
  168 431.989 14.6639 -38.2945
  169 534.390 16.3276 11.7809
  170 534.390 16.3276 11.7809
  171 450.168 18.4433 -13.7022
  172 450.168 18.4433 -13.7022
  173 467.857 7.44428 1.98655
  174 467.857 7.44428 1.98655
  175 475.281 3.61287 -7.23279
  176 475.281 3.61287 -7.23279
  177 730.115 59.1747 -45.8106
  178 730.115 59.1747 -45.8106
  179 468.212 7.24782 -2.39731
  180 468.212 7.24782 -2.39731
  181 347.533 25.4342 -20.0120
  182 347.533 25.4342 -20.0120
  183 621.494 46.2121 2.65688
  184 621.494 46.2121 2.65688
  185 127.080 -104.213 -123.114
  186 127.080 -104.213 -123.114
  187 341.969 -3.51231 84.7249
  188 341.969 -3.51231 84.7249
  189 453.981 -73.6042 -119.865
  190 453.981 -73.6042 -119.865
  191 536.038 -14.8285 7.14536
  192 536.038 -14.8285 7.14536
  193 501.881 -1.77630 19.1308
  194 501.881 -1.77630 19.1308
  195 679.200 21.7816 43.5630
  196 679.200 21.7816 43.5630
  197 286.071 9.39740 -52.4292
  198 286.071 9.39740 -52.4292
  199 769.729 34.1386 20.7069
  200 769.729 34.1386 20.7069
  201 511.101 -6.36138 -20.2617
  202 511.101 -6.36138 -20.2617
  203 476.005 2.57753 6.66732
  204 476.005 2.57753 6.66732
  205 531.828 -20.9651 -10.9917
  206 531.828 -20.9651 -10.9917
  207 580.904 -28.9234 -5.48931
  208 580.904 -28.9234 -5.48931
  209 36.4450 -215.813 18.5761
  210 36.4450 -215.813 18.5761
  211 490.500 2.50385 -16.7687
  212 490.500 2.50385 -16.7687
  213 486.500 3.77581 14.6253
  214 486.500 3.77581 14.6253
  215 467.922 -43.1141 -76.1532
  216 467.922 -43.1141 -76.1532
  217 546.284 -11.6020 -11.6338
  218 546.284 -11.6020 -11.6338
  219 448.537 16.0825 -26.0880
  220 448.537 16.0825 -26.0880
  221 123.648 -152.895 135.387
  222 123.648 -152.895 135.387
  223 554.003 2.74999 18.1782
  224 554.003 2.74999 18.1782
  225 538.989 13.8821 -15.5444
  226 538.989 13.8821 -15.5444
  227 761.586 45.4234 -35.7049
  228 761.586 45.4234 -35.7049
  229 583.000 -21.2864 -7.95546
  230 583.000 -21.2864 -7.95546
  231 634.380 -26.1353 -115.837
  232 634.380 -26.1353 -115.837
  233 469.670 -21.2270 58.4761
  234 469.670 -21.2270 58.4761
  235 460.965 12.9171 2.03000
  236 460.965 12.9171 2.03000
  237 246.009 -35.7981 110.643
  238 246.009 -35.7981 110.643
  239 607.075 -50.7005 134.871
  240 607.075 -50.7005 134.871
  241 167.944 -20.8823 -54.8566
  242 167.944 -20.8823 -54.8566
  243 542.538 -40.8824 -27.1519
  244 542.538 -40.8824 -27.1519
  245 444.262 19.9115 15.0470
  246 444.262 19.9115 15.0470
  247 15.6756 -281.836 -15.2218
  248 15.6756 -281.836 -15.2218
  249 30.5361 -246.883 50.3509
  250 30.5361 -246.883 50.3509
  251 451.955 3.11664 41.9042
  252 451.955 3.11664 41.9042
  253 471.683 1.78424 1.63935
  254 471.683 1.78424 1.63935
  255 467.819 7.49393 0.313097
  256 467.819 7.49393 0.313097
  257 439.325 -5.44829 -55.8161
  258 439.325 -5.44829 -55.8161
  259 471.947 1.62718 -1.73666
  260 471.947 1.62718 -1.73666
  261 521.082 -36.8362 35.5941
  262 521.082 -36.8362 35.5941
  263 484.159 1.68668 -8.10748
  264 484.159 1.68668 -8.10748
  265 376.015 -31.8621 -104.090
  266 376.015 -31.8621 -104.090
  267 637.509 49.1256 -0.893315
  268 637.509 49.1256 -0.893315
  269 467.203 10.2768 -21.1900
  270 467.203 10.2768 -21.1900
  271 465.460 9.61580 -4.19803
  272 465.460 9.61580 -4.19803
  273 396.790 19.2521 -38.3162
  274 396.790 19.2521 -38.3162
  275 121.674 -45.6916 31.7686
  276 121.674 -45.6916 31.7686
  277 497.323 -82.9564 107.077
  278 497.323 -82.9564 107.077
  279 470.301 6.94049 8.21415
  280 470.301 6.94049 8.21415
  281 694.289 48.9837 -11.4246
  282 694.289 48.9837 -11.4246
  283 826.113 73.1224 99.3996
  284 826.113 73.1224 99.3996
  285 558.176 -59.3806 36.0242
  286 558.176 -59.3806 36.0242
  287 404.588 20.1810 28.0574
  288 404.588 20.1810 28.0574
  289 510.807 -102.092 141.380
  290 510.807 -102.092 141.380
  291 527.361 -6.27836 13.1592
  292 527.361 -6.27836 13.1592
  293 470.013 4.57065 2.24562
  294 470.013 4.57065 2.24562
  295 463.536 12.6242 -13.4643
  296 463.536 12.6242 -13.4643
  297 467.931 7.37440 -0.616893
  298 467.931 7.37440 -0.616893
  299 474.423 1.30174 -3.13722
  300 474.423 1.30174 -3.13722
  301 483.749 2.37135 8.13880
  302 483.749 2.37135 8.13880
  303 461.087 12.8493 -3.45045
  304 461.087 12.8493 -3.45045
  305 106.022 -178.269 -129.007
  306 106.022 -178.269 -129.007
  307 318.369 20.8541 26.2120
  308 318.369 20.8541 26.2120
  309 470.507 3.81656 -2.15620
  310 470.507 3.81656 -2.15620
  311 415.738 23.8364 -18.7833
  312 415.738 23.8364 -18.7833
  313 416.808 25.9891 7.14610
  314 416.808 25.9891 7.14610
  315 469.556 6.67388 -5.81389
  316 469.556 6.67388 -5.81389
  317 627.557 33.8505 -4.07326
  318 627.557 33.8505 -4.07326
  319 466.149 11.1861 18.5358
  320 466.149 11.1861 18.5358
  321 593.251 19.0828 -14.3220
  322 593.251 19.0828 -14.3220
  323 866.449 24.3704 58.8433
  324 866.449 24.3704 58.8433
  325 464.466 11.5803 11.6205
  326 464.466 11.5803 11.6205
  327 457.312 15.3333 6.07891
  328 457.312 15.3333 6.07891
  329 356.298 -72.6795 -201.911
  330 356.298 -72.6795 -201.911
  331 474.701 1.17646 3.06860
  332 474.701 1.17646 3.06860
  333 465.030 9.68714 3.13796
  334 465.030 9.68714 3.13796
  335 448.321 19.9078 0.697602
  336 448.321 19.9078 0.697602
  337 232.603 -81.9610 161.780
  338 232.603 -81.9610 161.780
  339 576.547 37.9149 2.53372
  340 576.547 37.9149 2.53372
  341 32.9789 -241.661 -57.9867
  342 32.9789 -241.661 -57.9867
  343 361.884 22.8190 23.2693
  344 361.884 22.8190 23.2693
  345 820.191 11.0115 7.99371
  346 820.191 11.0115 7.99371
  347 856.640 43.8308 -60.8132
  348 856.640 43.8308 -60.8132
  349 406.245 -47.0943 116.479
  350 423.797 -24.1776 85.9506
  351 406.245 -47.0943 116.479
  352 423.797 -24.1776 85.9506
  353 832.115 20.4901 30.5713
  354 832.115 20.4901 30.5713
  355 480.667 -0.738800 32.6735
  356 480.667 -0.738800 32.6735
  357 566.633 -76.5589 -83.7991
  358 566.633 -76.5589 -83.7991
  359 540.625 -4.59858 15.0303
  360 540.625 -4.59858 15.0303
  361 363.936 -72.9512 220.522
  362 363.936 -72.9512 220.522
  363 630.713 50.5514 -1.64974
  364 630.713 50.5514 -1.64974
  365 830.891 7.43736 -6.35815
  366 830.891 7.43736 -6.35815
  367 510.784 0.176040 -15.9251
  368 510.784 0.176040 -15.9251
  369 457.310 16.3122 -7.28241
  370 457.310 16.3122 -7.28241
  371 702.434 54.6453 19.0910
  372 702.434 54.6453 19.0910
  373 541.871 22.7689 -3.28831
  374 541.871 22.7689 -3.28831
  375 492.618 1.82825 -10.0913
  376 492.618 1.82825 -10.0913
  377 135.815 -65.8853 -93.2251
  378 135.815 -65.8853 -93.2251
  379 544.258 -9.83907 3.76149
  380 544.258 -9.83907 3.76149
  381 466.795 -0.806946 -38.6070
  382 466.795 -0.806946 -38.6070
  383 537.143 -1.04788 -18.0026
  384 537.143 -1.04788 -18.0026
  385 835.073 14.6107 -25.2543
  386 835.073 14.6107 -25.2543
  387 468.427 7.14059 4.59432
  388 468.427 7.14059 4.59432
  389 570.648 28.1583 14.6236
  390 570.648 28.1583 14.6236
  391 613.413 -12.4667 8.06387
  392 613.413 -12.4667 8.06387
  393 470.107 8.40236 -10.2870
  394 470.107 8.40236 -10.2870
  395 883.379 86.2758 -114.987
  396 883.379 86.2758 -114.987
  397 536.869 -7.91639 -5.84854
  398 536.869 -7.91639 -5.84854
</Section>

newXOutput 140

<Section columns = "stress_xx | stress_yy | stress_xy">
  1 474.076 0.464700 -0.516048
  2 474.294 0.573941 0.695577
  3 474.076 0.464700 -0.516048
  4 474.294 0.573941 0.695577
  5 720.717 54.9198 207.742
  6 748.301 53.8267 -204.446
  7 720.717 54.9198 207.742
  8 748.301 53.8267 -204.446
  9 475.216 0.325306 -1.35640
  10 478.991 0.572758 -2.41568
  11 484.468 1.29247 -4.91789
  12 497.087 0.474796 -6.63270
  13 513.390 0.765039 -10.9466
  14 532.612 -4.82899 -10.9114
  15 550.518 -5.77459 -1.47422
  16 543.001 -3.92546 8.67343
  17 523.679 4.20207 15.5092
  18 513.108 10.1790 -0.607779
  19 520.755 4.86562 -14.5908
  20 542.504 -5.84878 -10.5598
  21 545.591 -7.01647 3.93093
  22 535.357 -3.18298 9.42275
  23 510.032 0.105774 11.0283
  24 496.000 1.83611 8.40789
  25 484.808 1.48353 4.72357
  26 479.090 0.460979 2.21238
  27 475.483 0.385391 1.31113
  28 474.963 1.68525 0.811939
  29 474.151 3.45034 0.946771
  30 472.152 5.98519 0.843961
  31 471.354 6.95594 -0.0816610
  32 472.372 5.67975 -1.01067
  33 473.801 3.76176 -0.857223
  34 474.427 1.91302 -0.911510
  35 475.216 0.325306 -1.35640
  36 478.991 0.572758 -2.41568
  37 484.468 1.29247 -4.91789
  38 497.087 0.474796 -6.63270
  39 513.390 0.765039 -10.9466
  40 532.612 -4.82899 -10.9114
  41 550.518 -5.77459 -1.47422
  42 543.001 -3.92546 8.67343
  43 523.679 4.20207 15.5092
  44 513.108 10.1790 -0.607779
  45 520.755 4.86562 -14.5908
  46 542.504 -5.84878 -10.5598
  47 545.591 -7.01647 3.93093
  48 535.357 -3.18298 9.42275
  49 510.032 0.105774 11.0283
  50 496.000 1.83611 8.40789
  51 484.808 1.48353 4.72357
  52 479.090 0.460979 2.21238
  53 475.483 0.385391 1.31113
  54 474.963 1.68525 0.811939
  55 474.151 3.45034 0.946771
  56 472.152 5.98519 0.843961
  57 471.354 6.95594 -0.0816610
  58 472.372 5.67975 -1.01067
  59 473.801 3.76176 -0.857223
  60 474.427 1.91302 -0.911510
  61 994.513 52.9762 105.192
  62 907.960 14.7507 36.8653
  63 857.451 6.00577 13.5023
  64 846.606 4.38114 2.58083
  65 856.964 5.84289 -11.5131
  66 895.637 12.6146 -31.8952
  67 1003.90 46.0790 -90.5929
  68 134.395 -142.529 -171.960
  69 26.6186 -345.463 -45.6969
  70 7.01645 -396.871 -19.9415
  71 6.72728 -390.137 -9.63393
  72 11.9260 -378.527 21.3632
  73 29.0259 -334.740 48.4601
  74 145.275 -132.312 190.349
  75 994.513 52.9762 105.192
  76 907.960 14.7507 36.8653
  77 857.451 6.00577 13.5023
  78 846.606 4.38114 2.58083
  79 856.964 5.84289 -11.5131
  80 895.637 12.6146 -31.8952
  81 1003.90 46.0790 -90.5929
  82 134.395 -142.529 -171.960
  83 26.6186 -345.463 -45.6969
  84 7.01645 -396.871 -19.9415
  85 6.72728 -390.137 -9.63393
  86 11.9260 -378.527 21.3632
  87 29.0259 -334.740 48.4601
  88 145.275 -132.312 190.349
  89 436.866 24.8096 -6.42050
  90 436.866 24.8096 -6.42050
  91 399.168 5.59182 58.4793
  92 383.660 -2.30178 -69.9473
  93 399.168 5.59182 58.4793
  94 383.660 -2.30178 -69.9473
  95 228.052 6.45072 28.2940
  96 228.052 6.45072 28.2940
  97 583.981 37.7973 -8.29101
  98 594.272 22.0616 16.3096
  99 583.981 37.7973 -8.29101
  100 594.272 22.0616 16.3096
  101 467.686 11.1770 6.34096
  102 467.686 11.1770 6.34096
  103 557.458 -31.7356 2.01954
  104 557.458 -31.7356 2.01954
  105 468.226 11.6902 -7.82929
  106 468.226 11.6902 -7.82929
  107 546.969 -67.8180 -62.9034
  108 546.969 -67.8180 -62.9034
  109 384.192 -80.3319 155.771
  110 384.192 -80.3319 155.771
  111 261.110 -46.7501 -125.944
  112 261.110 -46.7501 -125.944
  113 469.990 7.78665 27.5441
  114 469.990 7.78665 27.5441
  115 486.688 3.19018 -26.3980
  116 486.688 3.19018 -26.3980
  117 657.889 45.1130 8.86522
  118 703.773 45.3234 4.41301
  119 657.889 45.1130 8.86522
  120 703.773 45.3234 4.41301
  121 689.650 58.7512 -19.8377
  122 689.650 58.7512 -19.8377
  123 76.7948 -123.897 -42.0533
  124 76.7948 -123.897 -42.0533
  125 593.004 -73.2813 68.9883
  126 593.004 -73.2813 68.9883
  127 502.795 -12.2273 31.4706
  128 502.795 -12.2273 31.4706
  129 116.892 -106.814 96.2453
  130 116.892 -106.814 96.2453
  131 468.334 9.32523 -0.397919
  132 468.334 9.32523 -0.397919
  133 501.886 -23.5197 -40.2638
  134 501.886 -23.5197 -40.2638
  135 475.435 3.82285 4.57017
  136 475.435 3.82285 4.57017
  137 475.825 3.36517 -4.26115
  138 475.825 3.36517 -4.26115
  139 480.908 6.53140 -13.7354
  140 480.908 6.53140 -13.7354
  141 478.782 6.36999 12.3549
  142 478.782 6.36999 12.3549
  143 459.225 15.5794 -0.507712
  144 459.225 15.5794 -0.507712
  145 385.476 25.4689 -3.00013
  146 385.476 25.4689 -3.00013
  147 555.006 -19.7393 7.33271
  148 555.006 -19.7393 7.33271
  149 632.016 -20.7343 -27.6366
  150 632.016 -20.7343 -27.6366
  151 489.891 -54.8885 77.4682
  152 489.891 -54.8885 77.4682
  153 369.890 -99.7271 -176.089
  154 369.890 -99.7271 -176.089
  155 437.708 17.8421 26.2799
  156 437.708 17.8421 26.2799
  157 564.842 -3.20786 -19.2012
  158 564.842 -3.20786 -19.2012
  159 765.838 61.5689 45.3097
  160 765.838 61.5689 45.3097
  161 385.053 -107.240 203.272
  162 385.053 -107.240 203.272
  163 781.030 25.4689 -9.04274
  164 781.030 25.4689 -9.04274
  165 457.420 15.5425 12.1256
  166 457.420 15.5425 12.1256
  167 434.969 14.7634 -38.5514
  168 434.969 14.7634 -38.5514
  169 538.064 16.4451 11.8480
  170 538.064 16.4451 11.8480
  171 453.268 18.5660 -13.7908
  172 453.268 18.5660 -13.7908
  173 471.065 7.49279 1.99876
  174 471.065 7.49279 1.99876
  175 478.532 3.63643 -7.27770
  176 478.532 3.63643 -7.27770
  177 734.978 59.6140 -46.1821
  178 734.978 59.6140 -46.1821
  179 471.422 7.29515 -2.41200
  180 471.422 7.29515 -2.41200
  181 349.968 25.6129 -20.1486
  182 349.968 25.6129 -20.1486
  183 625.710 46.5325 2.64409
  184 625.710 46.5325 2.64409
  185 127.972 -104.904 -124.032
  186 127.972 -104.904 -124.032
  187 344.350 -3.53258 85.3095
  188 344.350 -3.53258 85.3095
  189 457.064 -74.1147 -120.712
  190 457.064 -74.1147 -120.712
  191 539.679 -14.9320 7.20836
  192 539.679 -14.9320 7.20836
  193 505.298 -1.79072 19.2590
  194 505.298 -1.79072 19.2590
  195 683.739 21.9758 43.9302
  196 683.739 21.9758 43.9302
  197 288.087 9.47162 -52.7938
  198 288.087 9.47162 -52.7938
  199 774.825 34.3573 20.8532
  200 774.825 34.3573 20.8532
  201 514.577 -6.40746 -20.4022
  202 514.577 -6.40746 -20.4022
  203 479.260 2.59425 6.70864
  204 479.260 2.59425 6.70864
  205 535.440 -21.1116 -11.0823
  206 535.440 -21.1116 -11.0823
  207 584.828 -29.1109 -5.57064
  208 584.828 -29.1109 -5.57064
  209 36.6973 -217.305 18.7223
  210 36.6973 -217.305 18.7223
  211 493.844 2.51856 -16.8779
  212 493.844 2.51856 -16.8779
  213 489.820 3.79993 14.7196
  214 489.820 3.79993 14.7196
  215 471.113 -43.4126 -76.6849
  216 471.113 -43.4126 -76.6849
  217 550.002 -11.6813 -11.6891
  218 550.002 -11.6813 -11.6891
  219 451.624 16.1902 -26.2608
  220 451.624 16.1902 -26.2608
  221 124.498 -153.904 136.409
  222 124.498 -153.904 136.409
  223 557.783 2.77625 18.2728
  224 557.783 2.77625 18.2728
  225 542.688 13.9826 -15.6308
  226 542.688 13.9826 -15.6308
  227 766.640 45.7234 -35.9652
  228 766.640 45.7234 -35.9652
  229 586.941 -21.4210 -7.96477
  230 586.941 -21.4210 -7.96477
  231 638.600 -26.2419 -116.707
  232 638.600 -26.2419 -116.707
  233 472.878 -21.3735 58.8781
  234 472.878 -21.3735 58.8781
  235 464.132 13.0020 2.04279
  236 464.132 13.0020 2.04279
  237 247.733 -36.0367 111.430
  238 247.733 -36.0367 111.430
  239 611.113 -50.9887 135.867
  240 611.113 -50.9887 135.867
  241 169.146 -21.0035 -55.2510
  242 169.146 -21.0035 -55.2510
  243 546.211 -41.1637 -27.3613
  244 546.211 -41.1637 -27.3613
  245 447.325 20.0447 15.1453
  246 447.325 20.0447 15.1453
  247 15.7760 -283.813 -15.3449
  248 15.7760 -283.813 -15.3449
  249 30.7440 -248.587 50.7546
  250 30.7440 -248.587 50.7546
  251 455.060 3.13710 42.1866
  252 455.060 3.13710 42.1866
  253 474.913 1.79605 1.64926
  254 474.913 1.79605 1.64926
  255 471.026 7.54261 0.315035
  256 471.026 7.54261 0.315035
  257 442.345 -5.48640 -56.1966
  258 442.345 -5.48640 -56.1966
  259 475.178 1.63802 -1.74716
  260 475.178 1.63802 -1.74716
  261 524.618 -37.0905 35.8534
  262 524.618 -37.0905 35.8534
  263 487.462 1.69738 -8.15818
  264 487.462 1.69738 -8.15818
  265 378.608 -32.0824 -104.814
  266 378.608 -32.0824 -104.814
  267 641.825 49.4638 -0.868754
  268 641.825 49.4638 -0.868754
  269 470.406 10.3442 -21.3279
  270 470.406 10.3442 -21.3279
  271 468.654 9.67877 -4.22405
  272 468.654 9.67877 -4.22405
  273 399.545 19.3849 -38.5749
  274 399.545 19.3849 -38.5749
  275 122.549 -45.9747 32.0019
  276 122.549 -45.9747 32.0019
  277 500.683 -83.5303 107.837
  278 500.683 -83.5303 107.837
  279 473.523 6.98596 8.26539
  280 473.523 6.98596 8.26539
  281 698.950 49.3083 -11.5171
  282 698.950 49.3083 -11.5171
  283 831.534 73.6723 100.117
  284 831.534 73.6723 100.117
  285 561.941 -59.7842 36.3059
  286 561.941 -59.7842 36.3059
  287 407.396 20.3192 28.2451
  288 407.396 20.3192 28.2451
  289 514.238 -102.794 142.388
  290 514.238 -102.794 142.388
  291 530.939 -6.32334 13.2526
  292 530.939 -6.32334 13.2526
  293 473.233 4.60052 2.25931
  294 473.233 4.60052 2.25931
  295 466.718 12.7074 -13.5501
  296 466.718 12.7074 -13.5501
  297 471.139 7.42232 -0.620658
  298 471.139 7.42232 -0.620658
  299 477.668 1.31032 -3.15637
  300 477.668 1.31032 -3.15637
  301 487.050 2.38659 8.18968
  302 487.050 2.38659 8.18968
  303 464.254 12.9338 -3.47215
  304 464.254 12.9338 -3.47215
  305 106.748 -179.442 -129.988
  306 106.748 -179.442 -129.988
  307 320.608 21.0040 26.3913
  308 320.608 21.0040 26.3913
  309 473.730 3.84159 -2.16930
  310 473.730 3.84159 -2.16930
  311 418.619 23.9980 -18.9086
  312 418.619 23.9980 -18.9086
  313 419.697 26.1652 7.19323
  314 419.697 26.1652 7.19323
  315 472.774 6.71759 -5.84989
  316 472.774 6.71759 -5.84989
  317 631.795 34.1049 -4.15710
  318 631.795 34.1049 -4.15710
  319 469.346 11.2598 18.6554
  320 469.346 11.2598 18.6554
  321 597.276 19.2260 -14.3767
  322 597.276 19.2260 -14.3767
  323 872.098 24.5241 59.2412
  324 872.098 24.5241 59.2412
  325 467.653 11.6566 11.6942
  326 467.653 11.6566 11.6942
  327 460.457 15.4345 6.11748
  328 460.457 15.4345 6.11748
  329 358.682 -73.0425 -203.395
  330 358.682 -73.0425 -203.395
  331 477.948 1.18420 3.08732
  332 477.948 1.18420 3.08732
  333 468.221 9.75050 3.15745
  334 468.221 9.75050 3.15745
  335 451.411 20.0402 0.702066
  336 451.411 20.0402 0.702066
  337 234.220 -82.5212 162.954
  338 234.220 -82.5212 162.954
  339 580.488 38.1786 2.54371
  340 580.488 38.1786 2.54371
  341 33.1997 -243.327 -58.4430
  342 33.1997 -243.327 -58.4430
  343 364.415 22.9780 23.4263
  344 364.415 22.9780 23.4263
  345 825.551 11.0781 8.04357
  346 825.551 11.0781 8.04357
  347 862.245 44.1292 -61.2295
  348 862.245 44.1292 -61.2295
  349 409.028 -47.4216 117.290
  350 426.707 -24.3443 86.5408
  351 409.028 -47.4216 117.290
  352 426.707 -24.3443 86.5408
  353 837.554 20.6168 30.7723
  354 837.554 20.6168 30.7723
  355 483.953 -0.745713 32.8933
  356 483.953 -0.745713 32.8933
  357 570.432 -77.0749 -84.4154
  358 570.432 -77.0749 -84.4154
  359 544.315 -4.62796 15.1133
  360 544.315 -4.62796 15.1133
  361 366.355 -73.3240 222.131
  362 366.355 -73.3240 222.131
  363 634.992 50.8934 -1.65958
  364 634.992 50.8934 -1.65958
  365 836.305 7.48177 -6.39915
  366 836.305 7.48177 -6.39915
  367 514.254 0.174973 -16.0307
  368 514.254 0.174973 -16.0307
  369 460.454 16.4200 -7.32879
  370 460.454 16.4200 -7.32879
  371 707.144 55.0148 19.2500
  372 707.144 55.0148 19.2500
  373 545.593 22.9291 -3.30660
  374 545.593 22.9291 -3.30660
  375 495.974 1.83937 -10.1555
  376 495.974 1.83937 -10.1555
  377 136.790 -66.3163 -93.9105
  378 136.790 -66.3163 -93.9105
  379 547.955 -9.90719 3.77274
  380 547.955 -9.90719 3.77274
  381 469.993 -0.814367 -38.8684
  382 469.993 -0.814367 -38.8684
  383 540.820 -1.05320 -18.1036
  384 540.820 -1.05320 -18.1036
  385 840.527 14.7024 -25.4187
  386 840.527 14.7024 -25.4187
  387 471.638 7.18725 4.62270
  388 471.638 7.18725 4.62270
  389 574.542 28.3591 14.6954
  390 574.542 28.3591 14.6954
  391 617.541 -12.5290 8.17620
  392 617.541 -12.5290 8.17620
  393 473.328 8.45750 -10.3516
  394 473.328 8.45750 -10.3516
  395 889.136 86.9336 -115.808
  396 889.136 86.9336 -115.808
  397 540.509 -7.97293 -5.89493
  398 540.509 -7.97293 -5.89493
</Section>

newXOutput 141

<Section columns = "stress_xx | stress_yy | stress_xy">
  1 477.298 0.467928 -0.519098
  2 477.517 0.577853 0.699679
  3 477.298 0.467928 -0.519098
  4 477.517 0.577853 0.699679
  5 725.367 55.4640 209.221
  6 753.115 54.3703 -205.903
  7 725.367 55.4640 209.221
  8 753.115 54.3703 -205.903
  9 478.444 0.327497 -1.36448
  10 482.242 0.576532 -2.43022
  11 487.751 1.30080 -4.94793
  12 500.444 0.477600 -6.67391
  13 516.848 0.768931 -11.0169
  14 536.190 -4.86406 -10.9852
  15 554.217 -5.81530 -1.49000
  16 546.676 -3.95200 8.71958
  17 527.256 4.23397 15.5983
  18 516.631 10.2520 -0.611357
  19 524.316 4.90007 -14.6756
  20 546.178 -5.88868 -10.6157
  21 549.260 -7.06606 3.96441
  22 538.954 -3.20591 9.48699
  23 513.470 0.104811 11.0997
  24 499.352 1.84758 8.46039
  25 488.093 1.49311 4.75235
  26 482.342 0.464030 2.22566
  27 478.713 0.388008 1.31898
  28 478.190 1.69631 0.816713
  29 477.374 3.47278 0.952421
  30 475.364 6.02378 0.849045
  31 474.561 7.00068 -0.0821488
  32 475.585 5.71642 -1.01671
  33 477.021 3.78622 -0.862227
  34 477.651 1.92565 -0.916956
  35 478.444 0.327497 -1.36448
  36 482.242 0.576532 -2.43022
  37 487.751 1.30080 -4.94793
  38 500.444 0.477600 -6.67391
  39 516.848 0.768931 -11.0169
  40 536.190 -4.86406 -10.9852
  41 554.217 -5.81530 -1.49000
  42 546.676 -3.95200 8.71958
  43 527.256 4.23397 15.5983
  44 516.631 10.2520 -0.611357
  45 524.316 4.90007 -14.6756
  46 546.178 -5.88868 -10.6157
  47 549.260 -7.06606 3.96441
  48 538.954 -3.20591 9.48699
  49 513.470 0.104811 11.0997
  50 499.352 1.84758 8.46039
  51 488.093 1.49311 4.75235
  52 482.342 0.464030 2.22566
  53 478.713 0.388008 1.31898
  54 478.190 1.69631 0.816713
  55 477.374 3.47278 0.952421
  56 475.364 6.02378 0.849045
  57 474.561 7.00068 -0.0821488
  58 475.585 5.71642 -1.01671
  59 477.021 3.78622 -0.862227
  60 477.651 1.92565 -0.916956
  61 1000.85 53.3440 105.888
  62 913.772 14.8425 37.0993
  63 862.967 6.03898 13.5848
  64 852.058 4.40637 2.59481
  65 862.476 5.87759 -11.5830
  66 901.380 12.6921 -32.0948
  67 1010.30 46.3980 -91.1930
  68 135.290 -143.323 -173.238
  69 26.7969 -347.843 -46.0785
  70 7.05033 -399.698 -20.1076
  71 6.76039 -392.925 -9.70246
  72 11.9975 -381.209 21.5418
  73 29.2240 -337.045 48.8666
  74 146.230 -133.037 191.757
  75 1000.85 53.3440 105.888
  76 913.772 14.8425 37.0993
  77 862.967 6.03898 13.5848
  78 852.058 4.40637 2.59481
  79 862.476 5.87759 -11.5830
  80 901.380 12.6921 -32.0948
  81 1010.30 46.3980 -91.1930
  82 135.290 -143.323 -173.238
  83 26.7969 -347.843 -46.0785
  84 7.05033 -399.698 -20.1076
  85 6.76039 -392.925 -9.70246
  86 11.9975 -381.209 21.5418
  87 29.2240 -337.045 48.8666
  88 146.230 -133.037 191.757
  89 439.863 24.9750 -6.46245
  90 439.863 24.9750 -6.46245
  91 401.911 5.63149 58.8736
  92 386.300 -2.31581 -70.4230
  93 401.911 5.63149 58.8736
  94 386.300 -2.31581 -70.4230
  95 229.667 6.51094 28.4908
  96 229.667 6.51094 28.4908
  97 587.938 38.0588 -8.32925
  98 598.277 22.2247 16.3760
  99 587.938 38.0588 -8.32925
  100 598.277 22.2247 16.3760
  101 470.871 11.2498 6.38034
  102 470.871 11.2498 6.38034
  103 561.208 -31.9496 2.06490
  104 561.208 -31.9496 2.06490
  105 471.414 11.7665 -7.87807
  106 471.414 11.7665 -7.87807
  107 550.628 -68.2805 -63.3568
  108 550.628 -68.2805 -63.3568
  109 386.798 -80.8866 156.864
  110 386.798 -80.8866 156.864
  111 262.917 -47.0644 -126.835
  112 262.917 -47.0644 -126.835
  113 473.188 7.83692 27.7244
  114 473.188 7.83692 27.7244
  115 489.987 3.20902 -26.5723
  116 489.987 3.20902 -26.5723
  117 662.290 45.4372 8.98023
  118 708.457 45.6180 4.45119
  119 662.290 45.4372 8.98023
  120 708.457 45.6180 4.45119
  121 694.252 59.1570 -20.0131
  122 694.252 59.1570 -20.0131
  123 77.3357 -124.717 -42.3705
  124 77.3357 -124.717 -42.3705
  125 596.946 -73.7600 69.5083
  126 596.946 -73.7600 69.5083
  127 506.195 -12.3126 31.6876
  128 506.195 -12.3126 31.6876
  129 117.713 -107.517 96.9611
  130 117.713 -107.517 96.9611
  131 471.524 9.38565 -0.400312
  132 471.524 9.38565 -0.400312
  133 505.277 -23.6820 -40.5449
  134 505.277 -23.6820 -40.5449
  135 478.665 3.84774 4.59799
  136 478.665 3.84774 4.59799
  137 479.057 3.38716 -4.28701
  138 479.057 3.38716 -4.28701
  139 484.171 6.57348 -13.8222
  140 484.171 6.57348 -13.8222
  141 482.033 6.41123 12.4325
  142 482.033 6.41123 12.4325
  143 462.360 15.6814 -0.511035
  144 462.360 15.6814 -0.511035
  145 388.145 25.6424 -3.02058
  146 388.145 25.6424 -3.02058
  147 558.748 -19.8709 7.35451
  148 558.748 -19.8709 7.35451
  149 636.223 -20.8396 -27.8898
  150 636.223 -20.8396 -27.8898
  151 493.193 -55.2658 78.0074
  152 493.193 -55.2658 78.0074
  153 372.379 -100.392 -177.354
  154 372.379 -100.392 -177.354
  155 440.707 17.9617 26.4530
  156 440.707 17.9617 26.4530
  157 568.654 -3.22364 -19.2965
  158 568.654 -3.22364 -19.2965
  159 770.886 61.9925 45.6464
  160 770.886 61.9925 45.6464
  161 387.640 -107.965 204.719
  162 387.640 -107.965 204.719
  163 786.147 25.6268 -9.10460
  164 786.147 25.6268 -9.10460
  165 460.543 15.6445 12.2029
  166 460.543 15.6445 12.2029
  167 437.948 14.8627 -38.8081
  168 437.948 14.8627 -38.8081
  169 541.735 16.5626 11.9148
  170 541.735 16.5626 11.9148
  171 456.366 18.6885 -13.8794
  172 456.366 18.6885 -13.8794
  173 474.270 7.54124 2.01094
  174 474.270 7.54124 2.01094
  175 481.780 3.65996 -7.32252
  176 481.780 3.65996 -7.32252
  177 739.834 60.0534 -46.5540
  178 739.834 60.0534 -46.5540
  179 474.629 7.34240 -2.42665
  180 474.629 7.34240 -2.42665
  181 352.402 25.7916 -20.2850
  182 352.402 25.7916 -20.2850
  183 629.923 46.8528 2.63091
  184 629.923 46.8528 2.63091
  185 128.863 -105.594 -124.950
  186 128.863 -105.594 -124.950
  187 346.728 -3.55279 85.8937
  188 346.728 -3.55279 85.8937
  189 460.145 -74.6248 -121.558
  190 460.145 -74.6248 -121.558
  191 543.316 -15.0355 7.27150
  192 543.316 -15.0355 7.27150
  193 508.711 -1.80516 19.3871
  194 508.711 -1.80516 19.3871
  195 688.273 22.1704 44.2981
  196 688.273 22.1704 44.2981
  197 290.102 9.54591 -53.1583
  198 290.102 9.54591 -53.1583
  199 779.914 34.5756 20.9995
  200 779.914 34.5756 20.9995
  201 518.050 -6.45353 -20.5426
  202 518.050 -6.45353 -20.5426
  203 482.513 2.61095 6.74987
  204 482.513 2.61095 6.74987
  205 539.048 -21.2580 -11.1731
  206 539.048 -21.2580 -11.1731
  207 588.749 -29.2980 -5.65250
  208 588.749 -29.2980 -5.65250
  209 36.9496 -218.796 18.8687
  210 36.9496 -218.796 18.8687
  211 497.186 2.53323 -16.9868
  212 497.186 2.53323 -16.9868
  213 493.137 3.82402 14.8137
  214 493.137 3.82402 14.8137
  215 474.300 -43.7108 -77.2163
  216 474.300 -43.7108 -77.2163
  217 553.716 -11.7606 -11.7440
  218 553.716 -11.7606 -11.7440
  219 454.710 16.2978 -26.4334
  220 454.710 16.2978 -26.4334
  221 125.348 -154.912 137.431
  222 125.348 -154.912 137.431
  223 561.560 2.80259 18.3669
  224 561.560 2.80259 18.3669
  225 546.383 14.0831 -15.7168
  226 546.383 14.0831 -15.7168
  227 771.688 46.0230 -36.2255
  228 771.688 46.0230 -36.2255
  229 590.878 -21.5555 -7.97347
  230 590.878 -21.5555 -7.97347
  231 642.815 -26.3475 -117.577
  232 642.815 -26.3475 -117.577
  233 476.084 -21.5199 59.2798
  234 476.084 -21.5199 59.2798
  235 467.297 13.0868 2.05555
  236 467.297 13.0868 2.05555
  237 249.457 -36.2750 112.216
  238 249.457 -36.2750 112.216
  239 615.147 -51.2759 136.863
  240 615.147 -51.2759 136.863
  241 170.347 -21.1245 -55.6453
  242 170.347 -21.1245 -55.6453
  243 549.880 -41.4448 -27.5708
  244 549.880 -41.4448 -27.5708
  245 450.385 20.1778 15.2435
  246 450.385 20.1778 15.2435
  247 15.8762 -285.788 -15.4682
  248 15.8762 -285.788 -15.4682
  249 30.9517 -250.291 51.1589
  250 30.9517 -250.291 51.1589
  251 458.162 3.15753 42.4686
  252 458.162 3.15753 42.4686
  253 478.140 1.80785 1.65915
  254 478.140 1.80785 1.65915
  255 474.231 7.59121 0.316969
  256 474.231 7.59121 0.316969
  257 445.363 -5.52450 -56.5769
  258 445.363 -5.52450 -56.5769
  259 478.406 1.64886 -1.75764
  260 478.406 1.64886 -1.75764
  261 528.151 -37.3447 36.1127
  262 528.151 -37.3447 36.1127
  263 490.763 1.70807 -8.20878
  264 490.763 1.70807 -8.20878
  265 381.199 -32.3027 -105.537
  266 381.199 -32.3027 -105.537
  267 646.137 49.8018 -0.843814
  268 646.137 49.8018 -0.843814
  269 473.607 10.4115 -21.4655
  270 473.607 10.4115 -21.4655
  271 471.845 9.74166 -4.25003
  272 471.845 9.74166 -4.25003
  273 402.299 19.5175 -38.8334
  274 402.299 19.5175 -38.8334
  275 123.424 -46.2572 32.2351
  276 123.424 -46.2572 32.2351
  277 504.039 -84.1039 108.597
  278 504.039 -84.1039 108.597
  279 476.742 7.03136 8.31651
  280 476.742 7.03136 8.31651
  281 703.607 49.6326 -11.6097
  282 703.607 49.6326 -11.6097
  283 836.948 74.2225 100.835
  284 836.948 74.2225 100.835
  285 565.702 -60.1875 36.5878
  286 565.702 -60.1875 36.5878
  287 410.202 20.4574 28.4326
  288 410.202 20.4574 28.4326
  289 517.665 -103.494 143.395
  290 517.665 -103.494 143.395
  291 534.514 -6.36831 13.3459
  292 534.514 -6.36831 13.3459
  293 476.451 4.63035 2.27298
  294 476.451 4.63035 2.27298
  295 469.897 12.7906 -13.6358
  296 469.897 12.7906 -13.6358
  297 474.345 7.47017 -0.624414
  298 474.345 7.47017 -0.624414
  299 480.911 1.31889 -3.17547
  300 480.911 1.31889 -3.17547
  301 490.349 2.40181 8.24046
  302 490.349 2.40181 8.24046
  303 467.420 13.0182 -3.49381
  304 467.420 13.0182 -3.49381
  305 107.472 -180.613 -130.970
  306 107.472 -180.613 -130.970
  307 322.846 21.1539 26.5704
  308 322.846 21.1539 26.5704
  309 476.950 3.86659 -2.18237
  310 476.950 3.86659 -2.18237
  311 421.499 24.1595 -19.0337
  312 421.499 24.1595 -19.0337
  313 422.585 26.3412 7.24030
  314 422.585 26.3412 7.24030
  315 475.989 6.76125 -5.88582
  316 475.989 6.76125 -5.88582
  317 636.028 34.3594 -4.24160
  318 636.028 34.3594 -4.24160
  319 472.541 11.3334 18.7747
  320 472.541 11.3334 18.7747
  321 601.298 19.3693 -14.4307
  322 601.298 19.3693 -14.4307
  323 877.738 24.6774 59.6386
  324 877.738 24.6774 59.6386
  325 470.838 11.7327 11.7678
  326 470.838 11.7327 11.7678
  327 463.599 15.5356 6.15599
  328 463.599 15.5356 6.15599
  329 361.063 -73.4032 -204.880
  330 361.063 -73.4032 -204.880
  331 481.192 1.19194 3.10599
  332 481.192 1.19194 3.10599
  333 471.410 9.81377 3.17690
  334 471.410 9.81377 3.17690
  335 454.498 20.1724 0.706521
  336 454.498 20.1724 0.706521
  337 235.835 -83.0810 164.127
  338 235.835 -83.0810 164.127
  339 584.425 38.4421 2.55360
  340 584.425 38.4421 2.55360
  341 33.4202 -244.991 -58.8998
  342 33.4202 -244.991 -58.8998
  343 366.944 23.1369 23.5831
  344 366.944 23.1369 23.5831
  345 830.903 11.1445 8.09332
  346 830.903 11.1445 8.09332
  347 867.842 44.4273 -61.6453
  348 867.842 44.4273 -61.6453
  349 411.808 -47.7488 118.100
  350 429.614 -24.5109 87.1305
  351 411.808 -47.7488 118.100
  352 429.614 -24.5109 87.1305
  353 842.986 20.7431 30.9730
  354 842.986 20.7431 30.9730
  355 487.237 -0.752647 33.1128
  356 487.237 -0.752647 33.1128
  357 574.227 -77.5904 -85.0318
  358 574.227 -77.5904 -85.0318
  359 548.002 -4.65728 15.1960
  360 548.002 -4.65728 15.1960
  361 368.770 -73.6946 223.740
  362 368.770 -73.6946 223.740
  363 639.267 51.2351 -1.66938
  364 639.267 51.2351 -1.66938
  365 841.712 7.52606 -6.44008
  366 841.712 7.52606 -6.44008
  367 517.720 0.173877 -16.1361
  368 517.720 0.173877 -16.1361
  369 463.597 16.5278 -7.37508
  370 463.597 16.5278 -7.37508
  371 711.849 55.3840 19.4092
  372 711.849 55.3840 19.4092
  373 549.313 23.0892 -3.32482
  374 549.313 23.0892 -3.32482
  375 499.326 1.85046 -10.2196
  376 499.326 1.85046 -10.2196
  377 137.765 -66.7467 -94.5960
  378 137.765 -66.7467 -94.5960
  379 551.648 -9.97527 3.78378
  380 551.648 -9.97527 3.78378
  381 473.189 -0.821808 -39.1295
  382 473.189 -0.821808 -39.1295
  383 544.493 -1.05848 -18.2042
  384 544.493 -1.05848 -18.2042
  385 845.972 14.7939 -25.5829
  386 845.972 14.7939 -25.5829
  387 474.847 7.23384 4.65102
  388 474.847 7.23384 4.65102
  389 578.433 28.5598 14.7668
  390 578.433 28.5598 14.7668
  391 621.664 -12.5910 8.28921
  392 621.664 -12.5910 8.28921
  393 476.546 8.51256 -10.4161
  394 476.546 8.51256 -10.4161
  395 894.884 87.5918 -116.629
  396 894.884 87.5918 -116.629
  397 544.144 -8.02946 -5.94136
  398 544.144 -8.02946 -5.94136
</Section>

newXOutput 142

<Section columns = "stress_xx | stress_yy | stress_xy">
  1 480.517 0.471155 -0.522140
  2 480.738 0.581763 0.703770
  3 480.517 0.471155 -0.522140
  4 480.738 0.581763 0.703770
  5 730.010 56.0100 210.700
  6 757.921 54.9159 -207.360
  7 730.010 56.0100 210.700
  8 757.921 54.9159 -207.360
  9 481.670 0.329687 -1.37254
  10 485.489 0.580302 -2.44472
  11 491.031 1.30912 -4.97790
  12 503.799 0.480397 -6.71504
  13 520.301 0.772803 -11.0870
  14 539.766 -4.89913 -11.0588
  15 557.913 -5.85599 -1.50584
  16 550.348 -3.97852 8.76553
  17 530.831 4.26589 15.6871
  18 520.151 10.3250 -0.614924
  19 527.874 4.93451 -14.7600
  20 549.848 -5.92855 -10.6713
  21 552.924 -7.11564 3.99796
  22 542.546 -3.22884 9.55119
  23 516.905 0.103826 11.1710
  24 502.700 1.85903 8.51280
  25 491.375 1.50267 4.78106
  26 485.590 0.467078 2.23892
  27 481.941 0.390623 1.32681
  28 481.415 1.70737 0.821473
  29 480.594 3.49518 0.958056
  30 478.572 6.06231 0.854117
  31 477.765 7.04535 -0.0826353
  32 478.795 5.75304 -1.02274
  33 480.239 3.81065 -0.867216
  34 480.872 1.93826 -0.922388
  35 481.670 0.329687 -1.37254
  36 485.489 0.580302 -2.44472
  37 491.031 1.30912 -4.97790
  38 503.799 0.480397 -6.71504
  39 520.301 0.772803 -11.0870
  40 539.766 -4.89913 -11.0588
  41 557.913 -5.85599 -1.50584
  42 550.348 -3.97852 8.76553
  43 530.831 4.26589 15.6871
  44 520.151 10.3250 -0.614924
  45 527.874 4.93451 -14.7600
  46 549.848 -5.92855 -10.6713
  47 552.924 -7.11564 3.99796
  48 542.546 -3.22884 9.55119
  49 516.905 0.103826 11.1710
  50 502.700 1.85903 8.51280
  51 491.375 1.50267 4.78106
  52 485.590 0.467078 2.23892
  53 481.941 0.390623 1.32681
  54 481.415 1.70737 0.821473
  55 480.594 3.49518 0.958056
  56 478.572 6.06231 0.854117
  57 477.765 7.04535 -0.0826353
  58 478.795 5.75304 -1.02274
  59 480.239 3.81065 -0.867216
  60 480.872 1.93826 -0.922388
  61 1007.17 53.7116 106.584
  62 919.574 14.9340 37.3329
  63 868.475 6.07208 13.6670
  64 857.502 4.43152 2.60874
  65 867.980 5.91220 -11.6527
  66 907.114 12.7693 -32.2941
  67 1016.68 46.7167 -91.7923
  68 136.184 -144.114 -174.516
  69 26.9750 -350.221 -46.4609
  70 7.08399 -402.524 -20.2740
  71 6.79331 -395.713 -9.77096
  72 12.0687 -383.890 21.7209
  73 29.4220 -339.348 49.2739
  74 147.184 -133.759 193.166
  75 1007.17 53.7116 106.584
  76 919.574 14.9340 37.3329
  77 868.475 6.07208 13.6670
  78 857.502 4.43152 2.60874
  79 867.980 5.91220 -11.6527
  80 907.114 12.7693 -32.2941
  81 1016.68 46.7167 -91.7923
  82 136.184 -144.114 -174.516
  83 26.9750 -350.221 -46.4609
  84 7.08399 -402.524 -20.2740
  85 6.79331 -395.713 -9.77096
  86 12.0687 -383.890 21.7209
  87 29.4220 -339.348 49.2739
  88 147.184 -133.759 193.166
  89 442.858 25.1402 -6.50434
  90 442.858 25.1402 -6.50434
  91 404.653 5.67116 59.2675
  92 388.939 -2.32981 -70.8984
  93 404.653 5.67116 59.2675
  94 388.939 -2.32981 -70.8984
  95 231.281 6.57133 28.6875
  96 231.281 6.57133 28.6875
  97 591.892 38.3201 -8.36721
  98 602.279 22.3879 16.4418
  99 591.892 38.3201 -8.36721
  100 602.279 22.3879 16.4418
  101 474.054 11.3224 6.41965
  102 474.054 11.3224 6.41965
  103 564.954 -32.1635 2.11064
  104 564.954 -32.1635 2.11064
  105 474.600 11.8427 -7.92674
  106 474.600 11.8427 -7.92674
  107 554.284 -68.7426 -63.8102
  108 554.284 -68.7426 -63.8102
  109 389.402 -81.4410 157.956
  110 389.402 -81.4410 157.956
  111 264.722 -47.3783 -127.726
  112 264.722 -47.3783 -127.726
  113 476.383 7.88711 27.9045
  114 476.383 7.88711 27.9045
  115 493.285 3.22781 -26.7463
  116 493.285 3.22781 -26.7463
  117 666.687 45.7615 9.09584
  118 713.135 45.9122 4.48945
  119 666.687 45.7615 9.09584
  120 713.135 45.9122 4.48945
  121 698.849 59.5625 -20.1889
  122 698.849 59.5625 -20.1889
  123 77.8764 -125.536 -42.6879
  124 77.8764 -125.536 -42.6879
  125 600.884 -74.2380 70.0286
  126 600.884 -74.2380 70.0286
  127 509.592 -12.3978 31.9045
  128 509.592 -12.3978 31.9045
  129 118.535 -108.219 97.6771
  130 118.535 -108.219 97.6771
  131 474.711 9.44599 -0.402700
  132 474.711 9.44599 -0.402700
  133 508.665 -23.8442 -40.8260
  134 508.665 -23.8442 -40.8260
  135 481.892 3.87260 4.62576
  136 481.892 3.87260 4.62576
  137 482.286 3.40913 -4.31281
  138 482.286 3.40913 -4.31281
  139 487.432 6.61550 -13.9088
  140 487.432 6.61550 -13.9088
  141 485.281 6.45241 12.5099
  142 485.281 6.45241 12.5099
  143 465.493 15.7833 -0.514353
  144 465.493 15.7833 -0.514353
  145 390.812 25.8157 -3.04102
  146 390.812 25.8157 -3.04102
  147 562.486 -20.0024 7.37593
  148 562.486 -20.0024 7.37593
  149 640.426 -20.9443 -28.1436
  150 640.426 -20.9443 -28.1436
  151 496.492 -55.6428 78.5464
  152 496.492 -55.6428 78.5464
  153 374.866 -101.055 -178.619
  154 374.866 -101.055 -178.619
  155 443.703 18.0812 26.6258
  156 443.703 18.0812 26.6258
  157 572.462 -3.23931 -19.3912
  158 572.462 -3.23931 -19.3912
  159 775.927 62.4158 45.9832
  160 775.927 62.4158 45.9832
  161 390.224 -108.690 206.165
  162 390.224 -108.690 206.165
  163 791.258 25.7844 -9.16641
  164 791.258 25.7844 -9.16641
  165 463.664 15.7465 12.2800
  166 463.664 15.7465 12.2800
  167 440.924 14.9620 -39.0646
  168 440.924 14.9620 -39.0646
  169 545.403 16.6801 11.9814
  170 545.403 16.6801 11.9814
  171 459.462 18.8109 -13.9678
  172 459.462 18.8109 -13.9678
  173 477.473 7.58961 2.02309
  174 477.473 7.58961 2.02309
  175 485.026 3.68345 -7.36724
  176 485.026 3.68345 -7.36724
  177 744.685 60.4929 -46.9264
  178 744.685 60.4929 -46.9264
  179 477.833 7.38959 -2.44127
  180 477.833 7.38959 -2.44127
  181 354.835 25.9702 -20.4213
  182 354.835 25.9702 -20.4213
  183 634.131 47.1728 2.61734
  184 634.131 47.1728 2.61734
  185 129.754 -106.283 -125.868
  186 129.754 -106.283 -125.868
  187 349.106 -3.57294 86.4775
  188 349.106 -3.57294 86.4775
  189 463.222 -75.1346 -122.403
  190 463.222 -75.1346 -122.403
  191 546.950 -15.1389 7.33477
  192 546.950 -15.1389 7.33477
  193 512.121 -1.81963 19.5150
  194 512.121 -1.81963 19.5150
  195 692.801 22.3656 44.6666
  196 692.801 22.3656 44.6666
  197 292.117 9.62027 -53.5225
  198 292.117 9.62027 -53.5225
  199 784.997 34.7936 21.1456
  200 784.997 34.7936 21.1456
  201 521.520 -6.49960 -20.6829
  202 521.520 -6.49960 -20.6829
  203 485.763 2.62762 6.79100
  204 485.763 2.62762 6.79100
  205 542.653 -21.4044 -11.2640
  206 542.653 -21.4044 -11.2640
  207 592.666 -29.4848 -5.73487
  208 592.666 -29.4848 -5.73487
  209 37.2017 -220.286 19.0152
  210 37.2017 -220.286 19.0152
  211 500.525 2.54785 -17.0956
  212 500.525 2.54785 -17.0956
  213 496.451 3.84807 14.9077
  214 496.451 3.84807 14.9077
  215 477.485 -44.0089 -77.7475
  216 477.485 -44.0089 -77.7475
  217 557.428 -11.8397 -11.7986
  218 557.428 -11.8397 -11.7986
  219 457.793 16.4053 -26.6057
  220 457.793 16.4053 -26.6057
  221 126.196 -155.919 138.454
  222 126.196 -155.919 138.454
  223 565.334 2.82902 18.4605
  224 565.334 2.82902 18.4605
  225 550.076 14.1836 -15.8025
  226 550.076 14.1836 -15.8025
  227 776.729 46.3222 -36.4858
  228 776.729 46.3222 -36.4858
  229 594.811 -21.6896 -7.98155
  230 594.811 -21.6896 -7.98155
  231 647.026 -26.4519 -118.448
  232 647.026 -26.4519 -118.448
  233 479.287 -21.6662 59.6811
  234 479.287 -21.6662 59.6811
  235 470.459 13.1714 2.06829
  236 470.459 13.1714 2.06829
  237 251.179 -36.5131 113.003
  238 251.179 -36.5131 113.003
  239 619.175 -51.5620 137.860
  240 619.175 -51.5620 137.860
  241 171.549 -21.2450 -56.0395
  242 171.549 -21.2450 -56.0395
  243 553.545 -41.7257 -27.7805
  244 553.545 -41.7257 -27.7805
  245 453.444 20.3107 15.3415
  246 453.444 20.3107 15.3415
  247 15.9763 -287.762 -15.5917
  248 15.9763 -287.762 -15.5917
  249 31.1592 -251.993 51.5637
  250 31.1592 -251.993 51.5637
  251 461.261 3.17793 42.7504
  252 461.261 3.17793 42.7504
  253 481.364 1.81963 1.66901
  254 481.364 1.81963 1.66901
  255 477.434 7.63973 0.318898
  256 477.434 7.63973 0.318898
  257 448.379 -5.56258 -56.9568
  258 448.379 -5.56258 -56.9568
  259 481.632 1.65968 -1.76809
  260 481.632 1.65968 -1.76809
  261 531.680 -37.5986 36.3721
  262 531.680 -37.5986 36.3721
  263 494.061 1.71874 -8.25927
  264 494.061 1.71874 -8.25927
  265 383.788 -32.5227 -106.261
  266 383.788 -32.5227 -106.261
  267 650.445 50.1395 -0.818496
  268 650.445 50.1395 -0.818496
  269 476.806 10.4787 -21.6030
  270 476.806 10.4787 -21.6030
  271 475.034 9.80445 -4.27594
  272 475.034 9.80445 -4.27594
  273 405.051 19.6501 -39.0917
  274 405.051 19.6501 -39.0917
  275 124.298 -46.5391 32.4685
  276 124.298 -46.5391 32.4685
  277 507.392 -84.6770 109.357
  278 507.392 -84.6770 109.357
  279 479.959 7.07670 8.36753
  280 479.959 7.07670 8.36753
  281 708.258 49.9564 -11.7023
  282 708.258 49.9564 -11.7023
  283 842.353 74.7729 101.552
  284 842.353 74.7729 101.552
  285 569.460 -60.5903 36.8700
  286 569.460 -60.5903 36.8700
  287 413.006 20.5954 28.6199
  288 413.006 20.5954 28.6199
  289 521.089 -104.195 144.402
  290 521.089 -104.195 144.402
  291 538.086 -6.41327 13.4392
  292 538.086 -6.41327 13.4392
  293 479.666 4.66013 2.28661
  294 479.666 4.66013 2.28661
  295 473.074 12.8736 -13.7213
  296 473.074 12.8736 -13.7213
  297 477.548 7.51795 -0.628162
  298 477.548 7.51795 -0.628162
  299 484.151 1.32745 -3.19452
  300 484.151 1.32745 -3.19452
  301 493.645 2.41700 8.29114
  302 493.645 2.41700 8.29114
  303 470.582 13.1025 -3.51543
  304 470.582 13.1025 -3.51543
  305 108.197 -181.782 -131.952
  306 108.197 -181.782 -131.952
  307 325.084 21.3037 26.7494
  308 325.084 21.3037 26.7494
  309 480.167 3.89155 -2.19541
  310 480.167 3.89155 -2.19541
  311 424.377 24.3209 -19.1587
  312 424.377 24.3209 -19.1587
  313 425.471 26.5170 7.28731
  314 425.471 26.5170 7.28731
  315 479.201 6.80484 -5.92167
  316 479.201 6.80484 -5.92167
  317 640.257 34.6140 -4.32677
  318 640.257 34.6140 -4.32677
  319 475.733 11.4070 18.8939
  320 475.733 11.4070 18.8939
  321 605.316 19.5127 -14.4841
  322 605.316 19.5127 -14.4841
  323 883.370 24.8304 60.0356
  324 883.370 24.8304 60.0356
  325 474.021 11.8088 11.8413
  326 474.021 11.8088 11.8413
  327 466.740 15.6365 6.19442
  328 466.740 15.6365 6.19442
  329 363.441 -73.7617 -206.365
  330 363.441 -73.7617 -206.365
  331 484.434 1.19966 3.12461
  332 484.434 1.19966 3.12461
  333 474.596 9.87695 3.19631
  334 474.596 9.87695 3.19631
  335 457.583 20.3045 0.710969
  336 457.583 20.3045 0.710969
  337 237.450 -83.6403 165.300
  338 237.450 -83.6403 165.300
  339 588.359 38.7055 2.56339
  340 588.359 38.7055 2.56339
  341 33.6404 -246.654 -59.3572
  342 33.6404 -246.654 -59.3572
  343 369.473 23.2957 23.7397
  344 369.473 23.2957 23.7397
  345 836.247 11.2108 8.14297
  346 836.247 11.2108 8.14297
  347 873.431 44.7251 -62.0608
  348 873.431 44.7251 -62.0608
  349 414.586 -48.0757 118.910
  350 432.519 -24.6774 87.7197
  351 414.586 -48.0757 118.910
  352 432.519 -24.6774 87.7197
  353 848.410 20.8692 31.1735
  354 848.410 20.8692 31.1735
  355 490.517 -0.759601 33.3321
  356 490.517 -0.759601 33.3321
  357 578.017 -78.1053 -85.6483
  358 578.017 -78.1053 -85.6483
  359 551.687 -4.68655 15.2784
  360 551.687 -4.68655 15.2784
  361 371.182 -74.0632 225.349
  362 371.182 -74.0632 225.349
  363 643.538 51.5765 -1.67916
  364 643.538 51.5765 -1.67916
  365 847.111 7.57024 -6.48095
  366 847.111 7.57024 -6.48095
  367 521.183 0.172752 -16.2414
  368 521.183 0.172752 -16.2414
  369 466.736 16.6354 -7.42129
  370 466.736 16.6354 -7.42129
  371 716.549 55.7528 19.5687
  372 716.549 55.7528 19.5687
  373 553.029 23.2493 -3.34296
  374 553.029 23.2493 -3.34296
  375 502.675 1.86153 -10.2835
  376 502.675 1.86153 -10.2835
  377 138.739 -67.1765 -95.2816
  378 138.739 -67.1765 -95.2816
  379 555.338 -10.0433 3.79463
  380 555.338 -10.0433 3.79463
  381 476.382 -0.829269 -39.3903
  382 476.382 -0.829269 -39.3903
  383 548.163 -1.06374 -18.3045
  384 548.163 -1.06374 -18.3045
  385 851.410 14.8852 -25.7468
  386 851.410 14.8852 -25.7468
  387 478.053 7.28036 4.67927
  388 478.053 7.28036 4.67927
  389 582.320 28.7605 14.8378
  390 582.320 28.7605 14.8378
  391 625.783 -12.6525 8.40289
  392 625.783 -12.6525 8.40289
  393 479.762 8.56754 -10.4804
  394 479.762 8.56754 -10.4804
  395 900.624 88.2503 -117.449
  396 900.624 88.2503 -117.449
  397 547.777 -8.08598 -5.98784
  398 547.777 -8.08598 -5.98784
</Section>

newXOutput 143

<Section columns = "stress_xx | stress_yy | stress_xy">
  1 483.734 0.474380 -0.525173
  2 483.956 0.585670 0.707850
  3 483.734 0.474380 -0.525173
  4 483.956 0.585670 0.707850
  5 734.647 56.5580 212.178
  6 762.720 55.4635 -208.816
  7 734.647 56.5580 212.178
  8 762.720 55.4635 -208.816
  9 484.894 0.331874 -1.38057
  10 488.734 0.584067 -2.45918
  11 494.308 1.31743 -5.00781
  12 507.151 0.483187 -6.75608
  13 523.752 0.776655 -11.1571
  14 543.337 -4.93420 -11.1325
  15 561.605 -5.89667 -1.52175
  16 554.017 -4.00502 8.81128
  17 534.403 4.29783 15.7756
  18 523.670 10.3981 -0.618481
  19 531.430 4.96895 -14.8443
  20 553.515 -5.96840 -10.7267
  21 556.586 -7.16520 4.03157
  22 546.136 -3.25177 9.61533
  23 520.337 0.102820 11.2422
  24 506.046 1.87046 8.56510
  25 494.654 1.51222 4.80970
  26 488.836 0.470123 2.25214
  27 485.166 0.393236 1.33463
  28 484.636 1.71840 0.826219
  29 483.811 3.51756 0.963676
  30 481.779 6.10079 0.859176
  31 480.967 7.08996 -0.0831205
  32 482.002 5.78961 -1.02875
  33 483.455 3.83505 -0.872191
  34 484.091 1.95085 -0.927805
  35 484.894 0.331874 -1.38057
  36 488.734 0.584067 -2.45918
  37 494.308 1.31743 -5.00781
  38 507.151 0.483187 -6.75608
  39 523.752 0.776655 -11.1571
  40 543.337 -4.93420 -11.1325
  41 561.605 -5.89667 -1.52175
  42 554.017 -4.00502 8.81128
  43 534.403 4.29783 15.7756
  44 523.670 10.3981 -0.618481
  45 531.430 4.96895 -14.8443
  46 553.515 -5.96840 -10.7267
  47 556.586 -7.16520 4.03157
  48 546.136 -3.25177 9.61533
  49 520.337 0.102820 11.2422
  50 506.046 1.87046 8.56510
  51 494.654 1.51222 4.80970
  52 488.836 0.470123 2.25214
  53 485.166 0.393236 1.33463
  54 484.636 1.71840 0.826219
  55 483.811 3.51756 0.963676
  56 481.779 6.10079 0.859176
  57 480.967 7.08996 -0.0831205
  58 482.002 5.78961 -1.02875
  59 483.455 3.83505 -0.872191
  60 484.091 1.95085 -0.927805
  61 1013.48 54.0789 107.279
  62 925.367 15.0254 37.5660
  63 873.975 6.10505 13.7492
  64 862.938 4.45659 2.62262
  65 873.476 5.94672 -11.7223
  66 912.839 12.8465 -32.4930
  67 1023.05 47.0353 -92.3908
  68 137.077 -144.901 -175.795
  69 27.1530 -352.598 -46.8440
  70 7.11742 -405.350 -20.4407
  71 6.82602 -398.501 -9.83946
  72 12.1398 -386.570 21.9003
  73 29.6197 -341.649 49.6820
  74 148.137 -134.477 194.575
  75 1013.48 54.0789 107.279
  76 925.367 15.0254 37.5660
  77 873.975 6.10505 13.7492
  78 862.938 4.45659 2.62262
  79 873.476 5.94672 -11.7223
  80 912.839 12.8465 -32.4930
  81 1023.05 47.0353 -92.3908
  82 137.077 -144.901 -175.795
  83 27.1530 -352.598 -46.8440
  84 7.11742 -405.350 -20.4407
  85 6.82602 -398.501 -9.83946
  86 12.1398 -386.570 21.9003
  87 29.6197 -341.649 49.6820
  88 148.137 -134.477 194.575
  89 445.850 25.3052 -6.54617
  90 445.850 25.3052 -6.54617
  91 407.394 5.71081 59.6611
  92 391.575 -2.34377 -71.3734
  93 407.394 5.71081 59.6611
  94 391.575 -2.34377 -71.3734
  95 232.895 6.63189 28.8842
  96 232.895 6.63189 28.8842
  97 595.842 38.5813 -8.40490
  98 606.276 22.5511 16.5070
  99 595.842 38.5813 -8.40490
  100 606.276 22.5511 16.5070
  101 477.235 11.3950 6.45888
  102 477.235 11.3950 6.45888
  103 568.697 -32.3772 2.15677
  104 568.697 -32.3772 2.15677
  105 477.784 11.9188 -7.97532
  106 477.784 11.9188 -7.97532
  107 557.937 -69.2044 -64.2636
  108 557.937 -69.2044 -64.2636
  109 392.004 -81.9950 159.048
  110 392.004 -81.9950 159.048
  111 266.527 -47.6920 -128.617
  112 266.527 -47.6920 -128.617
  113 479.575 7.93723 28.0843
  114 479.575 7.93723 28.0843
  115 496.579 3.24654 -26.9202
  116 496.579 3.24654 -26.9202
  117 671.079 46.0857 9.21207
  118 717.808 46.2060 4.52777
  119 671.079 46.0857 9.21207
  120 717.808 46.2060 4.52777
  121 703.441 59.9679 -20.3650
  122 703.441 59.9679 -20.3650
  123 78.4170 -126.354 -43.0055
  124 78.4170 -126.354 -43.0055
  125 604.818 -74.7153 70.5491
  126 604.818 -74.7153 70.5491
  127 512.986 -12.4830 32.1212
  128 512.986 -12.4830 32.1212
  129 119.356 -108.921 98.3934
  130 119.356 -108.921 98.3934
  131 477.895 9.50623 -0.405082
  132 477.895 9.50623 -0.405082
  133 512.051 -24.0063 -41.1069
  134 512.051 -24.0063 -41.1069
  135 485.117 3.89742 4.65345
  136 485.117 3.89742 4.65345
  137 485.513 3.43106 -4.33855
  138 485.513 3.43106 -4.33855
  139 490.690 6.65745 -13.9952
  140 490.690 6.65745 -13.9952
  141 488.527 6.49354 12.5872
  142 488.527 6.49354 12.5872
  143 468.623 15.8851 -0.517666
  144 468.623 15.8851 -0.517666
  145 393.478 25.9889 -3.06145
  146 393.478 25.9889 -3.06145
  147 566.220 -20.1337 7.39695
  148 566.220 -20.1337 7.39695
  149 644.624 -21.0484 -28.3980
  150 644.624 -21.0484 -28.3980
  151 499.788 -56.0196 79.0851
  152 499.788 -56.0196 79.0851
  153 377.351 -101.718 -179.884
  154 377.351 -101.718 -179.884
  155 446.697 18.2006 26.7985
  156 446.697 18.2006 26.7985
  157 576.267 -3.25488 -19.4854
  158 576.267 -3.25488 -19.4854
  159 780.962 62.8389 46.3201
  160 780.962 62.8389 46.3201
  161 392.806 -109.414 207.612
  162 392.806 -109.414 207.612
  163 796.362 25.9417 -9.22816
  164 796.362 25.9417 -9.22816
  165 466.783 15.8483 12.3570
  166 466.783 15.8483 12.3570
  167 443.898 15.0612 -39.3207
  168 443.898 15.0612 -39.3207
  169 549.069 16.7976 12.0478
  170 549.069 16.7976 12.0478
  171 462.555 18.9331 -14.0560
  172 462.555 18.9331 -14.0560
  173 480.673 7.63791 2.03522
  174 480.673 7.63791 2.03522
  175 488.269 3.70691 -7.41186
  176 488.269 3.70691 -7.41186
  177 749.530 60.9326 -47.2991
  178 749.530 60.9326 -47.2991
  179 481.035 7.43671 -2.45585
  180 481.035 7.43671 -2.45585
  181 357.267 26.1487 -20.5575
  182 357.267 26.1487 -20.5575
  183 638.336 47.4927 2.60337
  184 638.336 47.4927 2.60337
  185 130.644 -106.971 -126.787
  186 130.644 -106.971 -126.787
  187 351.482 -3.59302 87.0609
  188 351.482 -3.59302 87.0609
  189 466.297 -75.6442 -123.249
  190 466.297 -75.6442 -123.249
  191 550.581 -15.2423 7.39818
  192 550.581 -15.2423 7.39818
  193 515.529 -1.83411 19.6428
  194 515.529 -1.83411 19.6428
  195 697.325 22.5611 45.0357
  196 697.325 22.5611 45.0357
  197 294.130 9.69469 -53.8865
  198 294.130 9.69469 -53.8865
  199 790.074 35.0112 21.2918
  200 790.074 35.0112 21.2918
  201 524.987 -6.54567 -20.8231
  202 524.987 -6.54567 -20.8231
  203 489.010 2.64427 6.83205
  204 489.010 2.64427 6.83205
  205 546.254 -21.5507 -11.3550
  206 546.254 -21.5507 -11.3550
  207 596.578 -29.6714 -5.81777
  208 596.578 -29.6714 -5.81777
  209 37.4536 -221.776 19.1619
  210 37.4536 -221.776 19.1619
  211 503.861 2.56243 -17.2043
  212 503.861 2.56243 -17.2043
  213 499.763 3.87207 15.0015
  214 499.763 3.87207 15.0015
  215 480.668 -44.3068 -78.2783
  216 480.668 -44.3068 -78.2783
  217 561.136 -11.9189 -11.8527
  218 561.136 -11.9189 -11.8527
  219 460.873 16.5126 -26.7778
  220 460.873 16.5126 -26.7778
  221 127.044 -156.924 139.477
  222 127.044 -156.924 139.477
  223 569.104 2.85553 18.5536
  224 569.104 2.85553 18.5536
  225 553.766 14.2841 -15.8878
  226 553.766 14.2841 -15.8878
  227 781.765 46.6211 -36.7461
  228 781.765 46.6211 -36.7461
  229 598.741 -21.8235 -7.98902
  230 598.741 -21.8235 -7.98902
  231 651.231 -26.5553 -119.319
  232 651.231 -26.5553 -119.319
  233 482.487 -21.8125 60.0822
  234 482.487 -21.8125 60.0822
  235 473.619 13.2560 2.08100
  236 473.619 13.2560 2.08100
  237 252.901 -36.7509 113.789
  238 252.901 -36.7509 113.789
  239 623.199 -51.8471 138.856
  240 623.199 -51.8471 138.856
  241 172.750 -21.3651 -56.4337
  242 172.750 -21.3651 -56.4337
  243 557.207 -42.0063 -27.9903
  244 557.207 -42.0063 -27.9903
  245 456.500 20.4435 15.4394
  246 456.500 20.4435 15.4394
  247 16.0762 -289.736 -15.7153
  248 16.0762 -289.736 -15.7153
  249 31.3666 -253.693 51.9690
  250 31.3666 -253.693 51.9690
  251 464.359 3.19831 43.0319
  252 464.359 3.19831 43.0319
  253 484.586 1.83140 1.67884
  254 484.586 1.83140 1.67884
  255 480.634 7.68818 0.320823
  256 480.634 7.68818 0.320823
  257 451.393 -5.60064 -57.3364
  258 451.393 -5.60064 -57.3364
  259 484.855 1.67048 -1.77852
  260 484.855 1.67048 -1.77852
  261 535.206 -37.8525 36.6314
  262 535.206 -37.8525 36.6314
  263 497.357 1.72939 -8.30966
  264 497.357 1.72939 -8.30966
  265 386.375 -32.7427 -106.984
  266 386.375 -32.7427 -106.984
  267 654.749 50.4770 -0.792803
  268 654.749 50.4770 -0.792803
  269 480.002 10.5459 -21.7403
  270 480.002 10.5459 -21.7403
  271 478.220 9.86716 -4.30180
  272 478.220 9.86716 -4.30180
  273 407.801 19.7825 -39.3496
  274 407.801 19.7825 -39.3496
  275 125.173 -46.8203 32.7018
  276 125.173 -46.8203 32.7018
  277 510.742 -85.2498 110.116
  278 510.742 -85.2498 110.116
  279 483.173 7.12197 8.41844
  280 483.173 7.12197 8.41844
  281 712.904 50.2799 -11.7951
  282 712.904 50.2799 -11.7951
  283 847.752 75.3235 102.270
  284 847.752 75.3235 102.270
  285 573.213 -60.9929 37.1525
  286 573.213 -60.9929 37.1525
  287 415.809 20.7333 28.8069
  288 415.809 20.7333 28.8069
  289 524.509 -104.894 145.409
  290 524.509 -104.894 145.409
  291 541.654 -6.45823 13.5325
  292 541.654 -6.45823 13.5325
  293 482.878 4.68987 2.30020
  294 482.878 4.68987 2.30020
  295 476.249 12.9565 -13.8067
  296 476.249 12.9565 -13.8067
  297 480.749 7.56565 -0.631900
  298 480.749 7.56565 -0.631900
  299 487.388 1.33600 -3.21353
  300 487.388 1.33600 -3.21353
  301 496.939 2.43217 8.34170
  302 496.939 2.43217 8.34170
  303 473.743 13.1866 -3.53701
  304 473.743 13.1866 -3.53701
  305 108.920 -182.950 -132.935
  306 108.920 -182.950 -132.935
  307 327.320 21.4536 26.9282
  308 327.320 21.4536 26.9282
  309 483.382 3.91648 -2.20841
  310 483.382 3.91648 -2.20841
  311 427.254 24.4820 -19.2835
  312 427.254 24.4820 -19.2835
  313 428.355 26.6926 7.33425
  314 428.355 26.6926 7.33425
  315 482.411 6.84838 -5.95744
  316 482.411 6.84838 -5.95744
  317 644.482 34.8687 -4.41260
  318 644.482 34.8687 -4.41260
  319 478.923 11.4804 19.0128
  320 478.923 11.4804 19.0128
  321 609.330 19.6561 -14.5369
  322 609.330 19.6561 -14.5369
  323 888.994 24.9831 60.4321
  324 888.994 24.9831 60.4321
  325 477.201 11.8847 11.9146
  326 477.201 11.8847 11.9146
  327 469.877 15.7373 6.23278
  328 469.877 15.7373 6.23278
  329 365.816 -74.1179 -207.850
  330 365.816 -74.1179 -207.850
  331 487.674 1.20738 3.14319
  332 487.674 1.20738 3.14319
  333 477.780 9.94004 3.21567
  334 477.780 9.94004 3.21567
  335 460.666 20.4365 0.715410
  336 460.666 20.4365 0.715410
  337 239.063 -84.1992 166.474
  338 239.063 -84.1992 166.474
  339 592.290 38.9688 2.57307
  340 592.290 38.9688 2.57307
  341 33.8604 -248.316 -59.8150
  342 33.8604 -248.316 -59.8150
  343 372.000 23.4544 23.8963
  344 372.000 23.4544 23.8963
  345 841.583 11.2769 8.19252
  346 841.583 11.2769 8.19252
  347 879.012 45.0227 -62.4759
  348 879.012 45.0227 -62.4759
  349 417.361 -48.4025 119.720
  350 435.422 -24.8437 88.3086
  351 417.361 -48.4025 119.720
  352 435.422 -24.8437 88.3086
  353 853.826 20.9951 31.3737
  354 853.826 20.9951 31.3737
  355 493.795 -0.766575 33.5512
  356 493.795 -0.766575 33.5512
  357 581.804 -78.6198 -86.2649
  358 581.804 -78.6198 -86.2649
  359 555.368 -4.71577 15.3604
  360 555.368 -4.71577 15.3604
  361 373.591 -74.4296 226.958
  362 373.591 -74.4296 226.958
  363 647.805 51.9176 -1.68891
  364 647.805 51.9176 -1.68891
  365 852.502 7.61430 -6.52175
  366 852.502 7.61430 -6.52175
  367 524.642 0.171597 -16.3466
  368 524.642 0.171597 -16.3466
  369 469.874 16.7429 -7.46741
  370 469.874 16.7429 -7.46741
  371 721.244 56.1213 19.7284
  372 721.244 56.1213 19.7284
  373 556.743 23.4093 -3.36103
  374 556.743 23.4093 -3.36103
  375 506.021 1.87257 -10.3474
  376 506.021 1.87257 -10.3474
  377 139.714 -67.6057 -95.9672
  378 139.714 -67.6057 -95.9672
  379 559.025 -10.1113 3.80528
  380 559.025 -10.1113 3.80528
  381 479.572 -0.836751 -39.6510
  382 479.572 -0.836751 -39.6510
  383 551.830 -1.06896 -18.4043
  384 551.830 -1.06896 -18.4043
  385 856.840 14.9763 -25.9104
  386 856.840 14.9763 -25.9104
  387 481.256 7.32682 4.70746
  388 481.256 7.32682 4.70746
  389 586.205 28.9611 14.9083
  390 586.205 28.9611 14.9083
  391 629.897 -12.7137 8.51725
  392 629.897 -12.7137 8.51725
  393 482.975 8.62245 -10.5446
  394 482.975 8.62245 -10.5446
  395 906.355 88.9092 -118.269
  396 906.355 88.9092 -118.269
  397 551.406 -8.14249 -6.03436
  398 551.406 -8.14249 -6.03436
</Section>

newXOutput 144

<Section columns = "stress_xx | stress_yy | stress_xy">
  1 486.948 0.477603 -0.528198
  2 487.172 0.589573 0.711919
  3 486.948 0.477603 -0.528198
  4 487.172 0.589573 0.711919
  5 739.276 57.1079 213.655
  6 767.512 56.0132 -210.271
  7 739.276 57.1079 213.655
  8 767.512 56.0132 -210.271
  9 488.114 0.334059 -1.38859
  10 491.977 0.587828 -2.47361
  11 497.582 1.32573 -5.03764
  12 510.499 0.485968 -6.79703
  13 527.200 0.780487 -11.2271
  14 546.906 -4.96928 -11.2060
  15 565.294 -5.93734 -1.53771
  16 557.682 -4.03149 8.85682
  17 537.973 4.32979 15.8638
  18 527.185 10.4711 -0.622026
  19 534.983 5.00338 -14.9282
  20 557.179 -6.00821 -10.7818
  21 560.244 -7.21476 4.06523
  22 549.722 -3.27469 9.67942
  23 523.766 0.101792 11.3133
  24 509.389 1.88187 8.61729
  25 497.931 1.52175 4.83827
  26 492.079 0.473164 2.26533
  27 488.389 0.395847 1.34242
  28 487.856 1.72943 0.830952
  29 487.026 3.53990 0.969281
  30 484.983 6.13920 0.864223
  31 484.167 7.13449 -0.0836044
  32 485.207 5.82612 -1.03475
  33 486.667 3.85941 -0.877151
  34 487.307 1.96343 -0.933209
  35 488.114 0.334059 -1.38859
  36 491.977 0.587828 -2.47361
  37 497.582 1.32573 -5.03764
  38 510.499 0.485968 -6.79703
  39 527.200 0.780487 -11.2271
  40 546.906 -4.96928 -11.2060
  41 565.294 -5.93734 -1.53771
  42 557.682 -4.03149 8.85682
  43 537.973 4.32979 15.8638
  44 527.185 10.4711 -0.622026
  45 534.983 5.00338 -14.9282
  46 557.179 -6.00821 -10.7818
  47 560.244 -7.21476 4.06523
  48 549.722 -3.27469 9.67942
  49 523.766 0.101792 11.3133
  50 509.389 1.88187 8.61729
  51 497.931 1.52175 4.83827
  52 492.079 0.473164 2.26533
  53 488.389 0.395847 1.34242
  54 487.856 1.72943 0.830952
  55 487.026 3.53990 0.969281
  56 484.983 6.13920 0.864223
  57 484.167 7.13449 -0.0836044
  58 485.207 5.82612 -1.03475
  59 486.667 3.85941 -0.877151
  60 487.307 1.96343 -0.933209
  61 1019.78 54.4461 107.972
  62 931.151 15.1167 37.7987
  63 879.466 6.13791 13.8311
  64 868.365 4.48160 2.63644
  65 878.963 5.98117 -11.7917
  66 918.554 12.9234 -32.6915
  67 1029.41 47.3536 -92.9885
  68 137.969 -145.686 -177.074
  69 27.3307 -354.974 -47.2278
  70 7.15063 -408.176 -20.6078
  71 6.85853 -401.289 -9.90794
  72 12.2107 -389.250 22.0800
  73 29.8174 -343.949 50.0909
  74 149.088 -135.192 195.985
  75 1019.78 54.4461 107.972
  76 931.151 15.1167 37.7987
  77 879.466 6.13791 13.8311
  78 868.365 4.48160 2.63644
  79 878.963 5.98117 -11.7917
  80 918.554 12.9234 -32.6915
  81 1029.41 47.3536 -92.9885
  82 137.969 -145.686 -177.074
  83 27.3307 -354.974 -47.2278
  84 7.15063 -408.176 -20.6078
  85 6.85853 -401.289 -9.90794
  86 12.2107 -389.250 22.0800
  87 29.8174 -343.949 50.0909
  88 149.088 -135.192 195.985
  89 448.841 25.4701 -6.58795
  90 448.841 25.4701 -6.58795
  91 410.132 5.75045 60.0544
  92 394.210 -2.35771 -71.8481
  93 410.132 5.75045 60.0544
  94 394.210 -2.35771 -71.8481
  95 234.509 6.69262 29.0807
  96 234.509 6.69262 29.0807
  97 599.789 38.8424 -8.44233
  98 610.270 22.7143 16.5715
  99 599.789 38.8424 -8.44233
  100 610.270 22.7143 16.5715
  101 480.413 11.4675 6.49803
  102 480.413 11.4675 6.49803
  103 572.437 -32.5907 2.20329
  104 572.437 -32.5907 2.20329
  105 480.965 11.9948 -8.02381
  106 480.965 11.9948 -8.02381
  107 561.586 -69.6659 -64.7170
  108 561.586 -69.6659 -64.7170
  109 394.603 -82.5488 160.139
  110 394.603 -82.5488 160.139
  111 268.331 -48.0053 -129.508
  112 268.331 -48.0053 -129.508
  113 482.765 7.98727 28.2639
  114 482.765 7.98727 28.2639
  115 499.871 3.26522 -27.0939
  116 499.871 3.26522 -27.0939
  117 675.467 46.4099 9.32891
  118 722.476 46.4994 4.56617
  119 675.467 46.4099 9.32891
  120 722.476 46.4994 4.56617
  121 708.029 60.3730 -20.5415
  122 708.029 60.3730 -20.5415
  123 78.9574 -127.172 -43.3233
  124 78.9574 -127.172 -43.3233
  125 608.747 -75.1920 71.0699
  126 608.747 -75.1920 71.0699
  127 516.377 -12.5681 32.3378
  128 516.377 -12.5681 32.3378
  129 120.177 -109.621 99.1100
  130 120.177 -109.621 99.1100
  131 481.077 9.56639 -0.407457
  132 481.077 9.56639 -0.407457
  133 515.433 -24.1683 -41.3876
  134 515.433 -24.1683 -41.3876
  135 488.340 3.92220 4.68109
  136 488.340 3.92220 4.68109
  137 488.738 3.45297 -4.36423
  138 488.738 3.45297 -4.36423
  139 493.946 6.69934 -14.0815
  140 493.946 6.69934 -14.0815
  141 491.769 6.53460 12.6644
  142 491.769 6.53460 12.6644
  143 471.751 15.9867 -0.520975
  144 471.751 15.9867 -0.520975
  145 396.142 26.1619 -3.08185
  146 396.142 26.1619 -3.08185
  147 569.951 -20.2649 7.41758
  148 569.951 -20.2649 7.41758
  149 648.817 -21.1519 -28.6532
  150 648.817 -21.1519 -28.6532
  151 503.081 -56.3961 79.6235
  152 503.081 -56.3961 79.6235
  153 379.833 -102.381 -181.149
  154 379.833 -102.381 -181.149
  155 449.690 18.3199 26.9709
  156 449.690 18.3199 26.9709
  157 580.069 -3.27036 -19.5790
  158 580.069 -3.27036 -19.5790
  159 785.992 63.2618 46.6570
  160 785.992 63.2618 46.6570
  161 395.385 -110.138 209.058
  162 395.385 -110.138 209.058
  163 801.459 26.0987 -9.28987
  164 801.459 26.0987 -9.28987
  165 469.900 15.9500 12.4339
  166 469.900 15.9500 12.4339
  167 446.870 15.1603 -39.5766
  168 446.870 15.1603 -39.5766
  169 552.732 16.9151 12.1140
  170 552.732 16.9151 12.1140
  171 465.647 19.0552 -14.1441
  172 465.647 19.0552 -14.1441
  173 483.871 7.68614 2.04731
  174 483.871 7.68614 2.04731
  175 491.509 3.73033 -7.45638
  176 491.509 3.73033 -7.45638
  177 754.370 61.3724 -47.6723
  178 754.370 61.3724 -47.6723
  179 484.235 7.48376 -2.47040
  180 484.235 7.48376 -2.47040
  181 359.697 26.3271 -20.6936
  182 359.697 26.3271 -20.6936
  183 642.536 47.8123 2.58902
  184 642.536 47.8123 2.58902
  185 131.534 -107.659 -127.706
  186 131.534 -107.659 -127.706
  187 353.857 -3.61304 87.6438
  188 353.857 -3.61304 87.6438
  189 469.368 -76.1534 -124.094
  190 469.368 -76.1534 -124.094
  191 554.208 -15.3457 7.46172
  192 554.208 -15.3457 7.46172
  193 518.933 -1.84861 19.7704
  194 518.933 -1.84861 19.7704
  195 701.843 22.7572 45.4053
  196 701.843 22.7572 45.4053
  197 296.143 9.76919 -54.2503
  198 296.143 9.76919 -54.2503
  199 795.145 35.2284 21.4378
  200 795.145 35.2284 21.4378
  201 528.450 -6.59173 -20.9633
  202 528.450 -6.59173 -20.9633
  203 492.255 2.66089 6.87301
  204 492.255 2.66089 6.87301
  205 549.852 -21.6969 -11.4462
  206 549.852 -21.6969 -11.4462
  207 600.487 -29.8576 -5.90119
  208 600.487 -29.8576 -5.90119
  209 37.7054 -223.264 19.3088
  210 37.7054 -223.264 19.3088
  211 507.194 2.57697 -17.3128
  212 507.194 2.57697 -17.3128
  213 503.072 3.89603 15.0951
  214 503.072 3.89603 15.0951
  215 483.847 -44.6045 -78.8088
  216 483.847 -44.6045 -78.8088
  217 564.840 -11.9979 -11.9065
  218 564.840 -11.9979 -11.9065
  219 463.952 16.6198 -26.9497
  220 463.952 16.6198 -26.9497
  221 127.892 -157.928 140.501
  222 127.892 -157.928 140.501
  223 572.871 2.88214 18.6463
  224 572.871 2.88214 18.6463
  225 557.453 14.3847 -15.9728
  226 557.453 14.3847 -15.9728
  227 786.794 46.9196 -37.0063
  228 786.794 46.9196 -37.0063
  229 602.666 -21.9571 -7.99588
  230 602.666 -21.9571 -7.99588
  231 655.431 -26.6575 -120.190
  232 655.431 -26.6575 -120.190
  233 485.684 -21.9586 60.4830
  234 485.684 -21.9586 60.4830
  235 476.777 13.3404 2.09369
  236 476.777 13.3404 2.09369
  237 254.621 -36.9884 114.575
  238 254.621 -36.9884 114.575
  239 627.217 -52.1310 139.853
  240 627.217 -52.1310 139.853
  241 173.951 -21.4849 -56.8279
  242 173.951 -21.4849 -56.8279
  243 560.866 -42.2868 -28.2002
  244 560.866 -42.2868 -28.2002
  245 459.554 20.5762 15.5372
  246 459.554 20.5762 15.5372
  247 16.1760 -291.708 -15.8392
  248 16.1760 -291.708 -15.8392
  249 31.5737 -255.393 52.3749
  250 31.5737 -255.393 52.3749
  251 467.454 3.21866 43.3130
  252 467.454 3.21866 43.3130
  253 487.805 1.84315 1.68865
  254 487.805 1.84315 1.68865
  255 483.832 7.73656 0.322744
  256 483.832 7.73656 0.322744
  257 454.404 -5.63869 -57.7156
  258 454.404 -5.63869 -57.7156
  259 488.075 1.68128 -1.78892
  260 488.075 1.68128 -1.78892
  261 538.729 -38.1061 36.8907
  262 538.729 -38.1061 36.8907
  263 500.649 1.74002 -8.35994
  264 500.649 1.74002 -8.35994
  265 388.961 -32.9625 -107.706
  266 388.961 -32.9625 -107.706
  267 659.048 50.8143 -0.766734
  268 659.048 50.8143 -0.766734
  269 483.195 10.6129 -21.8773
  270 483.195 10.6129 -21.8773
  271 481.404 9.92977 -4.32760
  272 481.404 9.92977 -4.32760
  273 410.550 19.9149 -39.6073
  274 410.550 19.9149 -39.6073
  275 126.047 -47.1008 32.9352
  276 126.047 -47.1008 32.9352
  277 514.088 -85.8223 110.875
  278 514.088 -85.8223 110.875
  279 486.385 7.16718 8.46924
  280 486.385 7.16718 8.46924
  281 717.546 50.6029 -11.8880
  282 717.546 50.6029 -11.8880
  283 853.142 75.8743 102.987
  284 853.142 75.8743 102.987
  285 576.963 -61.3950 37.4352
  286 576.963 -61.3950 37.4352
  287 418.610 20.8711 28.9938
  288 418.610 20.8711 28.9938
  289 527.925 -105.594 146.415
  290 527.925 -105.594 146.415
  291 545.219 -6.50318 13.6257
  292 545.219 -6.50318 13.6257
  293 486.088 4.71957 2.31377
  294 486.088 4.71957 2.31377
  295 479.421 13.0393 -13.8919
  296 479.421 13.0393 -13.8919
  297 483.947 7.61328 -0.635629
  298 483.947 7.61328 -0.635629
  299 490.623 1.34453 -3.23249
  300 490.623 1.34453 -3.23249
  301 500.229 2.44731 8.39217
  302 500.229 2.44731 8.39217
  303 476.901 13.2707 -3.55854
  304 476.901 13.2707 -3.55854
  305 109.643 -184.116 -133.919
  306 109.643 -184.116 -133.919
  307 329.556 21.6034 27.1068
  308 329.556 21.6034 27.1068
  309 486.594 3.94137 -2.22139
  310 486.594 3.94137 -2.22139
  311 430.128 24.6431 -19.4082
  312 430.128 24.6431 -19.4082
  313 431.237 26.8681 7.38114
  314 431.237 26.8681 7.38114
  315 485.618 6.89185 -5.99313
  316 485.618 6.89185 -5.99313
  317 648.703 35.1235 -4.49909
  318 648.703 35.1235 -4.49909
  319 482.110 11.5538 19.1316
  320 482.110 11.5538 19.1316
  321 613.341 19.7997 -14.5890
  322 613.341 19.7997 -14.5890
  323 894.609 25.1356 60.8283
  324 894.609 25.1356 60.8283
  325 480.379 11.9606 11.9878
  326 480.379 11.9606 11.9878
  327 473.013 15.8380 6.27106
  328 473.013 15.8380 6.27106
  329 368.189 -74.4720 -209.335
  330 368.189 -74.4720 -209.335
  331 490.910 1.21508 3.16173
  332 490.910 1.21508 3.16173
  333 480.962 10.0030 3.23500
  334 480.962 10.0030 3.23500
  335 463.747 20.5683 0.719842
  336 463.747 20.5683 0.719842
  337 240.676 -84.7576 167.647
  338 240.676 -84.7576 167.647
  339 596.217 39.2319 2.58264
  340 596.217 39.2319 2.58264
  341 34.0802 -249.977 -60.2733
  342 34.0802 -249.977 -60.2733
  343 374.526 23.6131 24.0526
  344 374.526 23.6131 24.0526
  345 846.912 11.3429 8.24196
  346 846.912 11.3429 8.24196
  347 884.585 45.3200 -62.8906
  348 884.585 45.3200 -62.8906
  349 420.135 -48.7291 120.529
  350 438.322 -25.0100 88.8969
  351 420.135 -48.7291 120.529
  352 438.322 -25.0100 88.8969
  353 859.235 21.1206 31.5735
  354 859.235 21.1206 31.5735
  355 497.070 -0.773569 33.7700
  356 497.070 -0.773569 33.7700
  357 585.586 -79.1337 -86.8815
  358 585.586 -79.1337 -86.8815
  359 559.046 -4.74493 15.4421
  360 559.046 -4.74493 15.4421
  361 375.998 -74.7940 228.567
  362 375.998 -74.7940 228.567
  363 652.068 52.2584 -1.69864
  364 652.068 52.2584 -1.69864
  365 857.884 7.65826 -6.56249
  366 857.884 7.65826 -6.56249
  367 528.099 0.170413 -16.4516
  368 528.099 0.170413 -16.4516
  369 473.009 16.8502 -7.51345
  370 473.009 16.8502 -7.51345
  371 725.933 56.4894 19.8882
  372 725.933 56.4894 19.8882
  373 560.454 23.5693 -3.37903
  374 560.454 23.5693 -3.37903
  375 509.365 1.88358 -10.4111
  376 509.365 1.88358 -10.4111
  377 140.688 -68.0342 -96.6530
  378 140.688 -68.0342 -96.6530
  379 562.709 -10.1792 3.81573
  380 562.709 -10.1792 3.81573
  381 482.760 -0.844252 -39.9113
  382 482.760 -0.844252 -39.9113
  383 555.494 -1.07415 -18.5038
  384 555.494 -1.07415 -18.5038
  385 862.263 15.0673 -26.0738
  386 862.263 15.0673 -26.0738
  387 484.457 7.37321 4.73559
  388 484.457 7.37321 4.73559
  389 590.086 29.1617 14.9784
  390 590.086 29.1617 14.9784
  391 634.008 -12.7745 8.63227
  392 634.008 -12.7745 8.63227
  393 486.186 8.67728 -10.6087
  394 486.186 8.67728 -10.6087
  395 912.078 89.5684 -119.088
  396 912.078 89.5684 -119.088
  397 555.032 -8.19898 -6.08093
  398 555.032 -8.19898 -6.08093
</Section>

newXOutput 145

<Section columns = "stress_xx | stress_yy | stress_xy">
  1 490.160 0.480825 -0.531215
  2 490.385 0.593474 0.715976
  3 490.160 0.480825 -0.531215
  4 490.385 0.593474 0.715976
  5 743.898 57.6598 215.133
  6 772.295 56.5648 -211.727
  7 743.898 57.6598 215.133
  8 772.295 56.5648 -211.727
  9 491.333 0.336242 -1.39658
  10 495.217 0.591584 -2.48801
  11 500.854 1.33401 -5.06741
  12 513.845 0.488743 -6.83791
  13 530.644 0.784298 -11.2969
  14 550.471 -5.00435 -11.2795
  15 568.979 -5.97800 -1.55374
  16 561.345 -4.05794 8.90215
  17 541.540 4.36178 15.9518
  18 530.699 10.5441 -0.625561
  19 538.533 5.03781 -15.0119
  20 560.839 -6.04799 -10.8367
  21 563.898 -7.26430 4.09896
  22 553.304 -3.29762 9.74347
  23 527.191 0.100742 11.3842
  24 512.728 1.89325 8.66939
  25 501.205 1.53127 4.86678
  26 495.320 0.476201 2.27848
  27 491.609 0.398456 1.35019
  28 491.073 1.74044 0.835672
  29 490.239 3.56221 0.974872
  30 488.184 6.17756 0.869257
  31 487.364 7.17896 -0.0840871
  32 488.410 5.86257 -1.04073
  33 489.877 3.88374 -0.882097
  34 490.520 1.97599 -0.938598
  35 491.333 0.336242 -1.39658
  36 495.217 0.591584 -2.48801
  37 500.854 1.33401 -5.06741
  38 513.845 0.488743 -6.83791
  39 530.644 0.784298 -11.2969
  40 550.471 -5.00435 -11.2795
  41 568.979 -5.97800 -1.55374
  42 561.345 -4.05794 8.90215
  43 541.540 4.36178 15.9518
  44 530.699 10.5441 -0.625561
  45 538.533 5.03781 -15.0119
  46 560.839 -6.04799 -10.8367
  47 563.898 -7.26430 4.09896
  48 553.304 -3.29762 9.74347
  49 527.191 0.100742 11.3842
  50 512.728 1.89325 8.66939
  51 501.205 1.53127 4.86678
  52 495.320 0.476201 2.27848
  53 491.609 0.398456 1.35019
  54 491.073 1.74044 0.835672
  55 490.239 3.56221 0.974872
  56 488.184 6.17756 0.869257
  57 487.364 7.17896 -0.0840871
  58 488.410 5.86257 -1.04073
  59 489.877 3.88374 -0.882097
  60 490.520 1.97599 -0.938598
  61 1026.07 54.8131 108.665
  62 936.925 15.2077 38.0310
  63 884.949 6.17064 13.9128
  64 873.784 4.50653 2.65020
  65 884.442 6.01552 -11.8609
  66 924.261 13.0002 -32.8896
  67 1035.76 47.6718 -93.5856
  68 138.859 -146.467 -178.353
  69 27.5083 -357.348 -47.6124
  70 7.18362 -411.001 -20.7752
  71 6.89084 -404.076 -9.97640
  72 12.2815 -391.929 22.2601
  73 30.0149 -346.248 50.5006
  74 150.038 -135.905 197.395
  75 1026.07 54.8131 108.665
  76 936.925 15.2077 38.0310
  77 884.949 6.17064 13.9128
  78 873.784 4.50653 2.65020
  79 884.442 6.01552 -11.8609
  80 924.261 13.0002 -32.8896
  81 1035.76 47.6718 -93.5856
  82 138.859 -146.467 -178.353
  83 27.5083 -357.348 -47.6124
  84 7.18362 -411.001 -20.7752
  85 6.89084 -404.076 -9.97640
  86 12.2815 -391.929 22.2601
  87 30.0149 -346.248 50.5006
  88 150.038 -135.905 197.395
  89 451.830 25.6348 -6.62967
  90 451.830 25.6348 -6.62967
  91 412.869 5.79008 60.4472
  92 396.843 -2.37161 -72.3223
  93 412.869 5.79008 60.4472
  94 396.843 -2.37161 -72.3223
  95 236.122 6.75352 29.2771
  96 236.122 6.75352 29.2771
  97 603.732 39.1033 -8.47948
  98 614.261 22.8777 16.6354
  99 603.732 39.1033 -8.47948
  100 614.261 22.8777 16.6354
  101 483.589 11.5398 6.53709
  102 483.589 11.5398 6.53709
  103 576.173 -32.8040 2.25019
  104 576.173 -32.8040 2.25019
  105 484.143 12.0707 -8.07219
  106 484.143 12.0707 -8.07219
  107 565.231 -70.1270 -65.1704
  108 565.231 -70.1270 -65.1704
  109 397.201 -83.1022 161.230
  110 397.201 -83.1022 161.230
  111 270.133 -48.3184 -130.399
  112 270.133 -48.3184 -130.399
  113 485.952 8.03724 28.4433
  114 485.952 8.03724 28.4433
  115 503.160 3.28384 -27.2674
  116 503.160 3.28384 -27.2674
  117 679.850 46.7342 9.44635
  118 727.139 46.7924 4.60463
  119 679.850 46.7342 9.44635
  120 727.139 46.7924 4.60463
  121 712.612 60.7778 -20.7183
  122 712.612 60.7778 -20.7183
  123 79.4977 -127.988 -43.6413
  124 79.4977 -127.988 -43.6413
  125 612.672 -75.6680 71.5910
  126 612.672 -75.6680 71.5910
  127 519.765 -12.6532 32.5543
  128 519.765 -12.6532 32.5543
  129 120.998 -110.320 99.8268
  130 120.998 -110.320 99.8268
  131 484.257 9.62646 -0.409827
  132 484.257 9.62646 -0.409827
  133 518.812 -24.3302 -41.6683
  134 518.812 -24.3302 -41.6683
  135 491.560 3.94696 4.70866
  136 491.560 3.94696 4.70866
  137 491.959 3.47485 -4.38984
  138 491.959 3.47485 -4.38984
  139 497.198 6.74117 -14.1676
  140 497.198 6.74117 -14.1676
  141 495.010 6.57560 12.7413
  142 495.010 6.57560 12.7413
  143 474.877 16.0882 -0.524280
  144 474.877 16.0882 -0.524280
  145 398.805 26.3348 -3.10225
  146 398.805 26.3348 -3.10225
  147 573.679 -20.3960 7.43783
  148 573.679 -20.3960 7.43783
  149 653.006 -21.2548 -28.9090
  150 653.006 -21.2548 -28.9090
  151 506.371 -56.7725 80.1617
  152 506.371 -56.7725 80.1617
  153 382.312 -103.042 -182.414
  154 382.312 -103.042 -182.414
  155 452.680 18.4390 27.1431
  156 452.680 18.4390 27.1431
  157 583.867 -3.28573 -19.6721
  158 583.867 -3.28573 -19.6721
  159 791.014 63.6844 46.9940
  160 791.014 63.6844 46.9940
  161 397.961 -110.861 210.504
  162 397.961 -110.861 210.504
  163 806.550 26.2554 -9.35152
  164 806.550 26.2554 -9.35152
  165 473.014 16.0515 12.5107
  166 473.014 16.0515 12.5107
  167 449.840 15.2594 -39.8321
  168 449.840 15.2594 -39.8321
  169 556.392 17.0326 12.1799
  170 556.392 17.0326 12.1799
  171 468.736 19.1771 -14.2321
  172 468.736 19.1771 -14.2321
  173 487.066 7.73429 2.05938
  174 487.066 7.73429 2.05938
  175 494.747 3.75372 -7.50081
  176 494.747 3.75372 -7.50081
  177 759.204 61.8122 -48.0459
  178 759.204 61.8122 -48.0459
  179 487.432 7.53074 -2.48491
  180 487.432 7.53074 -2.48491
  181 362.127 26.5054 -20.8296
  182 362.127 26.5054 -20.8296
  183 646.733 48.1318 2.57428
  184 646.733 48.1318 2.57428
  185 132.423 -108.346 -128.626
  186 132.423 -108.346 -128.626
  187 356.230 -3.63300 88.2264
  188 356.230 -3.63300 88.2264
  189 472.437 -76.6623 -124.939
  190 472.437 -76.6623 -124.939
  191 557.832 -15.4489 7.52540
  192 557.832 -15.4489 7.52540
  193 522.334 -1.86313 19.8979
  194 522.334 -1.86313 19.8979
  195 706.356 22.9537 45.7756
  196 706.356 22.9537 45.7756
  197 298.155 9.84376 -54.6139
  198 298.155 9.84376 -54.6139
  199 800.208 35.4453 21.5837
  200 800.208 35.4453 21.5837
  201 531.911 -6.63780 -21.1033
  202 531.911 -6.63780 -21.1033
  203 495.497 2.67748 6.91387
  204 495.497 2.67748 6.91387
  205 553.447 -21.8430 -11.5374
  206 553.447 -21.8430 -11.5374
  207 604.392 -30.0435 -5.98512
  208 604.392 -30.0435 -5.98512
  209 37.9571 -224.751 19.4558
  210 37.9571 -224.751 19.4558
  211 510.525 2.59146 -17.4211
  212 510.525 2.59146 -17.4211
  213 506.378 3.91995 15.1886
  214 506.378 3.91995 15.1886
  215 487.024 -44.9020 -79.3391
  216 487.024 -44.9020 -79.3391
  217 568.542 -12.0769 -11.9599
  218 568.542 -12.0769 -11.9599
  219 467.028 16.7269 -27.1214
  220 467.028 16.7269 -27.1214
  221 128.739 -158.930 141.525
  222 128.739 -158.930 141.525
  223 576.635 2.90882 18.7385
  224 576.635 2.90882 18.7385
  225 561.137 14.4852 -16.0575
  226 561.137 14.4852 -16.0575
  227 791.817 47.2177 -37.2664
  228 791.817 47.2177 -37.2664
  229 606.588 -22.0905 -8.00212
  230 606.588 -22.0905 -8.00212
  231 659.626 -26.7586 -121.061
  232 659.626 -26.7586 -121.061
  233 488.879 -22.1046 60.8835
  234 488.879 -22.1046 60.8835
  235 479.932 13.4248 2.10636
  236 479.932 13.4248 2.10636
  237 256.341 -37.2257 115.360
  238 256.341 -37.2257 115.360
  239 631.231 -52.4140 140.850
  240 631.231 -52.4140 140.850
  241 175.151 -21.6042 -57.2220
  242 175.151 -21.6042 -57.2220
  243 564.521 -42.5671 -28.4103
  244 564.521 -42.5671 -28.4103
  245 462.606 20.7087 15.6348
  246 462.606 20.7087 15.6348
  247 16.2755 -293.680 -15.9632
  248 16.2755 -293.680 -15.9632
  249 31.7807 -257.092 52.7814
  250 31.7807 -257.092 52.7814
  251 470.546 3.23897 43.5939
  252 470.546 3.23897 43.5939
  253 491.021 1.85488 1.69844
  254 491.021 1.85488 1.69844
  255 487.027 7.78487 0.324661
  256 487.027 7.78487 0.324661
  257 457.413 -5.67671 -58.0945
  258 457.413 -5.67671 -58.0945
  259 491.293 1.69206 -1.79929
  260 491.293 1.69206 -1.79929
  261 542.249 -38.3596 37.1500
  262 542.249 -38.3596 37.1500
  263 503.939 1.75063 -8.41012
  264 503.939 1.75063 -8.41012
  265 391.544 -33.1821 -108.428
  266 391.544 -33.1821 -108.428
  267 663.344 51.1513 -0.740292
  268 663.344 51.1513 -0.740292
  269 486.387 10.6799 -22.0142
  270 486.387 10.6799 -22.0142
  271 484.585 9.99230 -4.35334
  272 484.585 9.99230 -4.35334
  273 413.297 20.0472 -39.8648
  274 413.297 20.0472 -39.8648
  275 126.921 -47.3808 33.1686
  276 126.921 -47.3808 33.1686
  277 517.431 -86.3943 111.634
  278 517.431 -86.3943 111.634
  279 489.594 7.21233 8.51993
  280 489.594 7.21233 8.51993
  281 722.182 50.9256 -11.9810
  282 722.182 50.9256 -11.9810
  283 858.526 76.4253 103.704
  284 858.526 76.4253 103.704
  285 580.709 -61.7968 37.7182
  286 580.709 -61.7968 37.7182
  287 421.410 21.0088 29.1804
  288 421.410 21.0088 29.1804
  289 531.338 -106.292 147.422
  290 531.338 -106.292 147.422
  291 548.781 -6.54811 13.7189
  292 548.781 -6.54811 13.7189
  293 489.295 4.74923 2.32730
  294 489.295 4.74923 2.32730
  295 482.591 13.1220 -13.9770
  296 482.591 13.1220 -13.9770
  297 487.143 7.66084 -0.639349
  298 487.143 7.66084 -0.639349
  299 493.855 1.35306 -3.25141
  300 493.855 1.35306 -3.25141
  301 503.517 2.46242 8.44253
  302 503.517 2.46242 8.44253
  303 480.057 13.3546 -3.58003
  304 480.057 13.3546 -3.58003
  305 110.365 -185.280 -134.903
  306 110.365 -185.280 -134.903
  307 331.790 21.7532 27.2853
  308 331.790 21.7532 27.2853
  309 489.804 3.96623 -2.23433
  310 489.804 3.96623 -2.23433
  311 433.001 24.8040 -19.5327
  312 433.001 24.8040 -19.5327
  313 434.118 27.0434 7.42796
  314 434.118 27.0434 7.42796
  315 488.822 6.93526 -6.02874
  316 488.822 6.93526 -6.02874
  317 652.919 35.3785 -4.58625
  318 652.919 35.3785 -4.58625
  319 485.295 11.6270 19.2501
  320 485.295 11.6270 19.2501
  321 617.348 19.9432 -14.6406
  322 617.348 19.9432 -14.6406
  323 900.217 25.2877 61.2240
  324 900.217 25.2877 61.2240
  325 483.555 12.0363 12.0608
  326 483.555 12.0363 12.0608
  327 476.146 15.9386 6.30928
  328 476.146 15.9386 6.30928
  329 370.558 -74.8238 -210.821
  330 370.558 -74.8238 -210.821
  331 494.144 1.22278 3.18022
  332 494.144 1.22278 3.18022
  333 484.141 10.0659 3.25428
  334 484.141 10.0659 3.25428
  335 466.826 20.6999 0.724268
  336 466.826 20.6999 0.724268
  337 242.288 -85.3157 168.820
  338 242.288 -85.3157 168.820
  339 600.142 39.4948 2.59211
  340 600.142 39.4948 2.59211
  341 34.2997 -251.636 -60.7322
  342 34.2997 -251.636 -60.7322
  343 377.051 23.7716 24.2088
  344 377.051 23.7716 24.2088
  345 852.234 11.4087 8.29130
  346 852.234 11.4087 8.29130
  347 890.150 45.6170 -63.3049
  348 890.150 45.6170 -63.3049
  349 422.906 -49.0555 121.338
  350 441.221 -25.1761 89.4848
  351 422.906 -49.0555 121.338
  352 441.221 -25.1761 89.4848
  353 864.635 21.2459 31.7732
  354 864.635 21.2459 31.7732
  355 500.343 -0.780582 33.9887
  356 500.343 -0.780582 33.9887
  357 589.364 -79.6470 -87.4983
  358 589.364 -79.6470 -87.4983
  359 562.721 -4.77404 15.5234
  360 562.721 -4.77404 15.5234
  361 378.401 -75.1562 230.176
  362 378.401 -75.1562 230.176
  363 656.327 52.5988 -1.70833
  364 656.327 52.5988 -1.70833
  365 863.260 7.70210 -6.60315
  366 863.260 7.70210 -6.60315
  367 531.553 0.169199 -16.5565
  368 531.553 0.169199 -16.5565
  369 476.142 16.9574 -7.55941
  370 476.142 16.9574 -7.55941
  371 730.618 56.8572 20.0484
  372 730.618 56.8572 20.0484
  373 564.162 23.7292 -3.39696
  374 564.162 23.7292 -3.39696
  375 512.705 1.89457 -10.4747
  376 512.705 1.89457 -10.4747
  377 141.662 -68.4622 -97.3389
  378 141.662 -68.4622 -97.3389
  379 566.389 -10.2472 3.82597
  380 566.389 -10.2472 3.82597
  381 485.945 -0.851774 -40.1714
  382 485.945 -0.851774 -40.1714
  383 559.155 -1.07930 -18.6029
  384 559.155 -1.07930 -18.6029
  385 867.677 15.1581 -26.2369
  386 867.677 15.1581 -26.2369
  387 487.655 7.41954 4.76365
  388 487.655 7.41954 4.76365
  389 593.963 29.3623 15.0481
  390 593.963 29.3623 15.0481
  391 638.114 -12.8349 8.74797
  392 638.114 -12.8349 8.74797
  393 489.394 8.73204 -10.6726
  394 489.394 8.73204 -10.6726
  395 917.793 90.2280 -119.908
  396 917.793 90.2280 -119.908
  397 558.654 -8.25547 -6.12754
  398 558.654 -8.25547 -6.12754
</Section>

newXOutput 146

<Section columns = "stress_xx | stress_yy | stress_xy">
  1 493.369 0.484045 -0.534223
  2 493.596 0.597371 0.720022
  3 493.369 0.484045 -0.534223
  4 493.596 0.597371 0.720022
  5 748.512 58.2136 216.609
  6 777.072 57.1185 -213.182
  7 748.512 58.2136 216.609
  8 777.072 57.1185 -213.182
  9 494.548 0.338423 -1.40456
  10 498.454 0.595335 -2.50237
  11 504.122 1.34228 -5.09711
  12 517.188 0.491509 -6.87870
  13 534.086 0.788090 -11.3666
  14 554.033 -5.03943 -11.3529
  15 572.661 -6.01864 -1.56982
  16 565.004 -4.08437 8.94729
  17 545.104 4.39379 16.0394
  18 534.210 10.6171 -0.629086
  19 542.081 5.07223 -15.0953
  20 564.497 -6.08774 -10.8913
  21 567.549 -7.31383 4.13275
  22 556.884 -3.32055 9.80746
  23 530.614 0.0996702 11.4551
  24 516.065 1.90461 8.72138
  25 504.476 1.54077 4.89523
  26 498.558 0.479235 2.29160
  27 494.826 0.401063 1.35794
  28 494.287 1.75143 0.840378
  29 493.448 3.58449 0.980449
  30 491.383 6.21586 0.874278
  31 490.558 7.22336 -0.0845685
  32 491.609 5.89897 -1.04670
  33 493.085 3.90804 -0.887028
  34 493.731 1.98854 -0.943973
  35 494.548 0.338423 -1.40456
  36 498.454 0.595335 -2.50237
  37 504.122 1.34228 -5.09711
  38 517.188 0.491509 -6.87870
  39 534.086 0.788090 -11.3666
  40 554.033 -5.03943 -11.3529
  41 572.661 -6.01864 -1.56982
  42 565.004 -4.08437 8.94729
  43 545.104 4.39379 16.0394
  44 534.210 10.6171 -0.629086
  45 542.081 5.07223 -15.0953
  46 564.497 -6.08774 -10.8913
  47 567.549 -7.31383 4.13275
  48 556.884 -3.32055 9.80746
  49 530.614 0.0996702 11.4551
  50 516.065 1.90461 8.72138
  51 504.476 1.54077 4.89523
  52 498.558 0.479235 2.29160
  53 494.826 0.401063 1.35794
  54 494.287 1.75143 0.840378
  55 493.448 3.58449 0.980449
  56 491.383 6.21586 0.874278
  57 490.558 7.22336 -0.0845685
  58 491.609 5.89897 -1.04670
  59 493.085 3.90804 -0.887028
  60 493.731 1.98854 -0.943973
  61 1032.35 55.1798 109.357
  62 942.690 15.2985 38.2630
  63 890.424 6.20326 13.9944
  64 879.195 4.53139 2.66392
  65 889.913 6.04979 -11.9300
  66 929.959 13.0768 -33.0873
  67 1042.10 47.9898 -94.1818
  68 139.749 -147.246 -179.633
  69 27.6857 -359.720 -47.9977
  70 7.21638 -413.825 -20.9429
  71 6.92294 -406.863 -10.0449
  72 12.3520 -394.608 22.4406
  73 30.2122 -348.544 50.9111
  74 150.987 -136.614 198.805
  75 1032.35 55.1798 109.357
  76 942.690 15.2985 38.2630
  77 890.424 6.20326 13.9944
  78 879.195 4.53139 2.66392
  79 889.913 6.04979 -11.9300
  80 929.959 13.0768 -33.0873
  81 1042.10 47.9898 -94.1818
  82 139.749 -147.246 -179.633
  83 27.6857 -359.720 -47.9977
  84 7.21638 -413.825 -20.9429
  85 6.92294 -406.863 -10.0449
  86 12.3520 -394.608 22.4406
  87 30.2122 -348.544 50.9111
  88 150.987 -136.614 198.805
  89 454.816 25.7993 -6.67133
  90 454.816 25.7993 -6.67133
  91 415.604 5.82970 60.8397
  92 399.475 -2.38549 -72.7962
  93 415.604 5.82970 60.8397
  94 399.475 -2.38549 -72.7962
  95 237.735 6.81459 29.4734
  96 237.735 6.81459 29.4734
  97 607.673 39.3640 -8.51636
  98 618.248 23.0411 16.6986
  99 607.673 39.3640 -8.51636
  100 618.248 23.0411 16.6986
  101 486.762 11.6121 6.57608
  102 486.762 11.6121 6.57608
  103 579.905 -33.0172 2.29747
  104 579.905 -33.0172 2.29747
  105 487.320 12.1465 -8.12048
  106 487.320 12.1465 -8.12048
  107 568.872 -70.5878 -65.6237
  108 568.872 -70.5878 -65.6237
  109 399.796 -83.6554 162.321
  110 399.796 -83.6554 162.321
  111 271.935 -48.6312 -131.289
  112 271.935 -48.6312 -131.289
  113 489.137 8.08713 28.6224
  114 489.137 8.08713 28.6224
  115 506.446 3.30242 -27.4406
  116 506.446 3.30242 -27.4406
  117 684.229 47.0584 9.56440
  118 731.797 47.0851 4.64316
  119 684.229 47.0584 9.56440
  120 731.797 47.0851 4.64316
  121 717.189 61.1825 -20.8955
  122 717.189 61.1825 -20.8955
  123 80.0378 -128.803 -43.9595
  124 80.0378 -128.803 -43.9595
  125 616.592 -76.1433 72.1123
  126 616.592 -76.1433 72.1123
  127 523.150 -12.7383 32.7706
  128 523.150 -12.7383 32.7706
  129 121.818 -111.019 100.544
  130 121.818 -111.019 100.544
  131 487.434 9.68645 -0.412190
  132 487.434 9.68645 -0.412190
  133 522.189 -24.4920 -41.9488
  134 522.189 -24.4920 -41.9488
  135 494.777 3.97167 4.73616
  136 494.777 3.97167 4.73616
  137 495.179 3.49670 -4.41540
  138 495.179 3.49670 -4.41540
  139 500.449 6.78293 -14.2536
  140 500.449 6.78293 -14.2536
  141 498.247 6.61655 12.8182
  142 498.247 6.61655 12.8182
  143 478.001 16.1895 -0.527580
  144 478.001 16.1895 -0.527580
  145 401.467 26.5076 -3.12262
  146 401.467 26.5076 -3.12262
  147 577.403 -20.5269 7.45768
  148 577.403 -20.5269 7.45768
  149 657.191 -21.3572 -29.1654
  150 657.191 -21.3572 -29.1654
  151 509.659 -57.1486 80.6996
  152 509.659 -57.1486 80.6996
  153 384.790 -103.703 -183.678
  154 384.790 -103.703 -183.678
  155 455.668 18.5581 27.3151
  156 455.668 18.5581 27.3151
  157 587.661 -3.30101 -19.7647
  158 587.661 -3.30101 -19.7647
  159 796.031 64.1067 47.3311
  160 796.031 64.1067 47.3311
  161 400.535 -111.583 211.949
  162 400.535 -111.583 211.949
  163 811.634 26.4117 -9.41313
  164 811.634 26.4117 -9.41313
  165 476.126 16.1530 12.5873
  166 476.126 16.1530 12.5873
  167 452.808 15.3583 -40.0874
  168 452.808 15.3583 -40.0874
  169 560.049 17.1500 12.2456
  170 560.049 17.1500 12.2456
  171 471.823 19.2989 -14.3199
  172 471.823 19.2989 -14.3199
  173 490.259 7.78238 2.07142
  174 490.259 7.78238 2.07142
  175 497.982 3.77707 -7.54514
  176 497.982 3.77707 -7.54514
  177 764.031 62.2522 -48.4200
  178 764.031 62.2522 -48.4200
  179 490.627 7.57765 -2.49939
  180 490.627 7.57765 -2.49939
  181 364.555 26.6836 -20.9654
  182 364.555 26.6836 -20.9654
  183 650.926 48.4510 2.55916
  184 650.926 48.4510 2.55916
  185 133.312 -109.031 -129.545
  186 133.312 -109.031 -129.545
  187 358.602 -3.65289 88.8085
  188 358.602 -3.65289 88.8085
  189 475.504 -77.1709 -125.783
  190 475.504 -77.1709 -125.783
  191 561.453 -15.5522 7.58920
  192 561.453 -15.5522 7.58920
  193 525.733 -1.87767 20.0253
  194 525.733 -1.87767 20.0253
  195 710.865 23.1507 46.1465
  196 710.865 23.1507 46.1465
  197 300.166 9.91840 -54.9773
  198 300.166 9.91840 -54.9773
  199 805.266 35.6618 21.7296
  200 805.266 35.6618 21.7296
  201 535.368 -6.68386 -21.2432
  202 535.368 -6.68386 -21.2432
  203 498.737 2.69405 6.95465
  204 498.737 2.69405 6.95465
  205 557.039 -21.9891 -11.6288
  206 557.039 -21.9891 -11.6288
  207 608.293 -30.2292 -6.06957
  208 608.293 -30.2292 -6.06957
  209 38.2085 -226.237 19.6030
  210 38.2085 -226.237 19.6030
  211 513.852 2.60591 -17.5292
  212 513.852 2.60591 -17.5292
  213 509.681 3.94383 15.2819
  214 509.681 3.94383 15.2819
  215 490.198 -45.1993 -79.8691
  216 490.198 -45.1993 -79.8691
  217 572.240 -12.1558 -12.0130
  218 572.240 -12.1558 -12.0130
  219 470.102 16.8339 -27.2929
  220 470.102 16.8339 -27.2929
  221 129.585 -159.931 142.550
  222 129.585 -159.931 142.550
  223 580.396 2.93559 18.8302
  224 580.396 2.93559 18.8302
  225 564.818 14.5857 -16.1418
  226 564.818 14.5857 -16.1418
  227 796.834 47.5154 -37.5266
  228 796.834 47.5154 -37.5266
  229 610.506 -22.2236 -8.00776
  230 610.506 -22.2236 -8.00776
  231 663.816 -26.8587 -121.933
  232 663.816 -26.8587 -121.933
  233 492.071 -22.2505 61.2837
  234 492.071 -22.2505 61.2837
  235 483.085 13.5090 2.11900
  236 483.085 13.5090 2.11900
  237 258.060 -37.4627 116.146
  238 258.060 -37.4627 116.146
  239 635.240 -52.6958 141.847
  240 635.240 -52.6958 141.847
  241 176.352 -21.7232 -57.6160
  242 176.352 -21.7232 -57.6160
  243 568.173 -42.8471 -28.6206
  244 568.173 -42.8471 -28.6206
  245 465.656 20.8410 15.7322
  246 465.656 20.8410 15.7322
  247 16.3749 -295.650 -16.0874
  248 16.3749 -295.650 -16.0874
  249 31.9875 -258.789 53.1883
  250 31.9875 -258.789 53.1883
  251 473.637 3.25926 43.8745
  252 473.637 3.25926 43.8745
  253 494.236 1.86660 1.70820
  254 494.236 1.86660 1.70820
  255 490.219 7.83310 0.326574
  256 490.219 7.83310 0.326574
  257 460.420 -5.71472 -58.4731
  258 460.420 -5.71472 -58.4731
  259 494.508 1.70283 -1.80964
  260 494.508 1.70283 -1.80964
  261 545.766 -38.6129 37.4094
  262 545.766 -38.6129 37.4094
  263 507.226 1.76122 -8.46020
  264 507.226 1.76122 -8.46020
  265 394.126 -33.4017 -109.150
  266 394.126 -33.4017 -109.150
  267 667.635 51.4881 -0.713477
  268 667.635 51.4881 -0.713477
  269 489.575 10.7467 -22.1508
  270 489.575 10.7467 -22.1508
  271 487.764 10.0547 -4.37903
  272 487.764 10.0547 -4.37903
  273 416.042 20.1794 -40.1220
  274 416.042 20.1794 -40.1220
  275 127.795 -47.6601 33.4021
  276 127.795 -47.6601 33.4021
  277 520.771 -86.9661 112.393
  278 520.771 -86.9661 112.393
  279 492.801 7.25742 8.57052
  280 492.801 7.25742 8.57052
  281 726.813 51.2479 -12.0741
  282 726.813 51.2479 -12.0741
  283 863.901 76.9765 104.420
  284 863.901 76.9765 104.420
  285 584.451 -62.1983 38.0014
  286 584.451 -62.1983 38.0014
  287 424.207 21.1464 29.3669
  288 424.207 21.1464 29.3669
  289 534.747 -106.990 148.428
  290 534.747 -106.990 148.428
  291 552.339 -6.59305 13.8121
  292 552.339 -6.59305 13.8121
  293 492.500 4.77884 2.34080
  294 492.500 4.77884 2.34080
  295 485.758 13.2046 -14.0619
  296 485.758 13.2046 -14.0619
  297 490.336 7.70832 -0.643060
  298 490.336 7.70832 -0.643060
  299 497.085 1.36158 -3.27028
  300 497.085 1.36158 -3.27028
  301 506.802 2.47751 8.49278
  302 506.802 2.47751 8.49278
  303 483.210 13.4384 -3.60148
  304 483.210 13.4384 -3.60148
  305 111.087 -186.443 -135.888
  306 111.087 -186.443 -135.888
  307 334.024 21.9029 27.4637
  308 334.024 21.9029 27.4637
  309 493.011 3.99105 -2.24723
  310 493.011 3.99105 -2.24723
  311 435.871 24.9647 -19.6571
  312 435.871 24.9647 -19.6571
  313 436.996 27.2185 7.47471
  314 436.996 27.2185 7.47471
  315 492.025 6.97861 -6.06428
  316 492.025 6.97861 -6.06428
  317 657.132 35.6335 -4.67406
  318 657.132 35.6335 -4.67406
  319 488.477 11.7002 19.3685
  320 488.477 11.7002 19.3685
  321 621.351 20.0869 -14.6915
  322 621.351 20.0869 -14.6915
  323 905.816 25.4395 61.6193
  324 905.816 25.4395 61.6193
  325 486.728 12.1120 12.1337
  326 486.728 12.1120 12.1337
  327 479.277 16.0390 6.34742
  328 479.277 16.0390 6.34742
  329 372.926 -75.1735 -212.306
  330 372.926 -75.1735 -212.306
  331 497.376 1.23046 3.19866
  332 497.376 1.23046 3.19866
  333 487.317 10.1288 3.27352
  334 487.317 10.1288 3.27352
  335 469.902 20.8314 0.728685
  336 469.902 20.8314 0.728685
  337 243.898 -85.8732 169.994
  338 243.898 -85.8732 169.994
  339 604.062 39.7576 2.60148
  340 604.062 39.7576 2.60148
  341 34.5190 -253.295 -61.1915
  342 34.5190 -253.295 -61.1915
  343 379.574 23.9301 24.3648
  344 379.574 23.9301 24.3648
  345 857.547 11.4743 8.34054
  346 857.547 11.4743 8.34054
  347 895.707 45.9138 -63.7189
  348 895.707 45.9138 -63.7189
  349 425.675 -49.3817 122.146
  350 444.117 -25.3422 90.0723
  351 425.675 -49.3817 122.146
  352 444.117 -25.3422 90.0723
  353 870.028 21.3709 31.9725
  354 870.028 21.3709 31.9725
  355 503.612 -0.787615 34.2070
  356 503.612 -0.787615 34.2070
  357 593.139 -80.1599 -88.1151
  358 593.139 -80.1599 -88.1151
  359 566.393 -4.80310 15.6044
  360 566.393 -4.80310 15.6044
  361 380.801 -75.5163 231.785
  362 380.801 -75.5163 231.785
  363 660.582 52.9389 -1.71800
  364 660.582 52.9389 -1.71800
  365 868.627 7.74583 -6.64375
  366 868.627 7.74583 -6.64375
  367 535.003 0.167957 -16.6613
  368 535.003 0.167957 -16.6613
  369 479.273 17.0645 -7.60528
  370 479.273 17.0645 -7.60528
  371 735.297 57.2247 20.2087
  372 735.297 57.2247 20.2087
  373 567.868 23.8890 -3.41481
  374 567.868 23.8890 -3.41481
  375 516.043 1.90553 -10.5381
  376 516.043 1.90553 -10.5381
  377 142.636 -68.8895 -98.0249
  378 142.636 -68.8895 -98.0249
  379 570.065 -10.3150 3.83603
  380 570.065 -10.3150 3.83603
  381 489.128 -0.859315 -40.4313
  382 489.128 -0.859315 -40.4313
  383 562.814 -1.08443 -18.7016
  384 562.814 -1.08443 -18.7016
  385 873.084 15.2487 -26.3998
  386 873.084 15.2487 -26.3998
  387 490.851 7.46580 4.79165
  388 490.851 7.46580 4.79165
  389 597.838 29.5628 15.1173
  390 597.838 29.5628 15.1173
  391 642.215 -12.8950 8.86432
  392 642.215 -12.8950 8.86432
  393 492.599 8.78672 -10.7364
  394 492.599 8.78672 -10.7364
  395 923.498 90.8880 -120.727
  396 923.498 90.8880 -120.727
  397 562.273 -8.31194 -6.17420
  398 562.273 -8.31194 -6.17420
</Section>

newXOutput 147

<Section columns = "stress_xx | stress_yy | stress_xy">
  1 496.575 0.487263 -0.537224
  2 496.804 0.601266 0.724056
  3 496.575 0.487263 -0.537224
  4 496.804 0.601266 0.724056
  5 753.120 58.7692 218.086
  6 781.841 57.6741 -214.636
  7 753.120 58.7692 218.086
  8 781.841 57.6741 -214.636
  9 497.761 0.340602 -1.41251
  10 501.688 0.599082 -2.51669
  11 507.388 1.35054 -5.12674
  12 520.528 0.494268 -6.91940
  13 537.524 0.791862 -11.4362
  14 557.591 -5.07452 -11.4263
  15 576.339 -6.05928 -1.58597
  16 568.661 -4.11078 8.99222
  17 548.666 4.42582 16.1268
  18 537.719 10.6901 -0.632599
  19 545.626 5.10664 -15.1785
  20 568.152 -6.12747 -10.9457
  21 571.197 -7.36334 4.16659
  22 560.459 -3.34347 9.87140
  23 534.033 0.0985773 11.5259
  24 519.399 1.91595 8.77327
  25 507.744 1.55026 4.92360
  26 501.793 0.482266 2.30469
  27 498.041 0.403667 1.36567
  28 497.498 1.76241 0.845071
  29 496.656 3.60674 0.986010
  30 494.579 6.25410 0.879288
  31 493.750 7.26768 -0.0850486
  32 494.807 5.93532 -1.05265
  33 496.290 3.93230 -0.891945
  34 496.940 2.00108 -0.949335
  35 497.761 0.340602 -1.41251
  36 501.688 0.599082 -2.51669
  37 507.388 1.35054 -5.12674
  38 520.528 0.494268 -6.91940
  39 537.524 0.791862 -11.4362
  40 557.591 -5.07452 -11.4263
  41 576.339 -6.05928 -1.58597
  42 568.661 -4.11078 8.99222
  43 548.666 4.42582 16.1268
  44 537.719 10.6901 -0.632599
  45 545.626 5.10664 -15.1785
  46 568.152 -6.12747 -10.9457
  47 571.197 -7.36334 4.16659
  48 560.459 -3.34347 9.87140
  49 534.033 0.0985773 11.5259
  50 519.399 1.91595 8.77327
  51 507.744 1.55026 4.92360
  52 501.793 0.482266 2.30469
  53 498.041 0.403667 1.36567
  54 497.498 1.76241 0.845071
  55 496.656 3.60674 0.986010
  56 494.579 6.25410 0.879288
  57 493.750 7.26768 -0.0850486
  58 494.807 5.93532 -1.05265
  59 496.290 3.93230 -0.891945
  60 496.940 2.00108 -0.949335
  61 1038.62 55.5464 110.049
  62 948.446 15.3892 38.4945
  63 895.891 6.23576 14.0758
  64 884.598 4.55617 2.67758
  65 895.375 6.08398 -11.9990
  66 935.648 13.1533 -33.2847
  67 1048.43 48.3077 -94.7773
  68 140.638 -148.021 -180.913
  69 27.8629 -362.091 -48.3838
  70 7.24893 -416.649 -21.1110
  71 6.95484 -409.649 -10.1133
  72 12.4223 -397.286 22.6214
  73 30.4094 -350.840 51.3224
  74 151.935 -137.320 200.216
  75 1038.62 55.5464 110.049
  76 948.446 15.3892 38.4945
  77 895.891 6.23576 14.0758
  78 884.598 4.55617 2.67758
  79 895.375 6.08398 -11.9990
  80 935.648 13.1533 -33.2847
  81 1048.43 48.3077 -94.7773
  82 140.638 -148.021 -180.913
  83 27.8629 -362.091 -48.3838
  84 7.24893 -416.649 -21.1110
  85 6.95484 -409.649 -10.1133
  86 12.4223 -397.286 22.6214
  87 30.4094 -350.840 51.3224
  88 151.935 -137.320 200.216
  89 457.801 25.9636 -6.71294
  90 457.801 25.9636 -6.71294
  91 418.337 5.86931 61.2319
  92 402.105 -2.39933 -73.2697
  93 418.337 5.86931 61.2319
  94 402.105 -2.39933 -73.2697
  95 239.348 6.87582 29.6697
  96 239.348 6.87582 29.6697
  97 611.609 39.6247 -8.55298
  98 622.231 23.2045 16.7612
  99 611.609 39.6247 -8.55298
  100 622.231 23.2045 16.7612
  101 489.933 11.6843 6.61499
  102 489.933 11.6843 6.61499
  103 583.634 -33.2301 2.34513
  104 583.634 -33.2301 2.34513
  105 490.493 12.2222 -8.16867
  106 490.493 12.2222 -8.16867
  107 572.510 -71.0483 -66.0771
  108 572.510 -71.0483 -66.0771
  109 402.389 -84.2082 163.411
  110 402.389 -84.2082 163.411
  111 273.736 -48.9438 -132.179
  112 273.736 -48.9438 -132.179
  113 492.320 8.13695 28.8013
  114 492.320 8.13695 28.8013
  115 509.730 3.32094 -27.6136
  116 509.730 3.32094 -27.6136
  117 688.603 47.3826 9.68306
  118 736.450 47.3773 4.68176
  119 688.603 47.3826 9.68306
  120 736.450 47.3773 4.68176
  121 721.762 61.5869 -21.0731
  122 721.762 61.5869 -21.0731
  123 80.5778 -129.618 -44.2779
  124 80.5778 -129.618 -44.2779
  125 620.509 -76.6180 72.6339
  126 620.509 -76.6180 72.6339
  127 526.533 -12.8233 32.9868
  128 526.533 -12.8233 32.9868
  129 122.638 -111.717 101.261
  130 122.638 -111.717 101.261
  131 490.609 9.74635 -0.414548
  132 490.609 9.74635 -0.414548
  133 525.562 -24.6537 -42.2292
  134 525.562 -24.6537 -42.2292
  135 497.992 3.99636 4.76360
  136 497.992 3.99636 4.76360
  137 498.395 3.51852 -4.44089
  138 498.395 3.51852 -4.44089
  139 503.696 6.82463 -14.3394
  140 503.696 6.82463 -14.3394
  141 501.482 6.65743 12.8949
  142 501.482 6.65743 12.8949
  143 481.122 16.2908 -0.530875
  144 481.122 16.2908 -0.530875
  145 404.127 26.6803 -3.14298
  146 404.127 26.6803 -3.14298
  147 581.124 -20.6577 7.47716
  148 581.124 -20.6577 7.47716
  149 661.370 -21.4589 -29.4225
  150 661.370 -21.4589 -29.4225
  151 512.943 -57.5244 81.2373
  152 512.943 -57.5244 81.2373
  153 387.265 -104.363 -184.943
  154 387.265 -104.363 -184.943
  155 458.654 18.6770 27.4869
  156 458.654 18.6770 27.4869
  157 591.453 -3.31618 -19.8567
  158 591.453 -3.31618 -19.8567
  159 801.042 64.5287 47.6682
  160 801.042 64.5287 47.6682
  161 403.107 -112.305 213.395
  162 403.107 -112.305 213.395
  163 816.712 26.5678 -9.47468
  164 816.712 26.5678 -9.47468
  165 479.236 16.2543 12.6638
  166 479.236 16.2543 12.6638
  167 455.774 15.4571 -40.3425
  168 455.774 15.4571 -40.3425
  169 563.703 17.2675 12.3110
  170 563.703 17.2675 12.3110
  171 474.907 19.4205 -14.4076
  172 474.907 19.4205 -14.4076
  173 493.449 7.83040 2.08344
  174 493.449 7.83040 2.08344
  175 501.214 3.80039 -7.58938
  176 501.214 3.80039 -7.58938
  177 768.854 62.6924 -48.7944
  178 768.854 62.6924 -48.7944
  179 493.819 7.62450 -2.51384
  180 493.819 7.62450 -2.51384
  181 366.982 26.8618 -21.1011
  182 366.982 26.8618 -21.1011
  183 655.115 48.7701 2.54365
  184 655.115 48.7701 2.54365
  185 134.201 -109.716 -130.465
  186 134.201 -109.716 -130.465
  187 360.973 -3.67273 89.3902
  188 360.973 -3.67273 89.3902
  189 478.567 -77.6792 -126.627
  190 478.567 -77.6792 -126.627
  191 565.070 -15.6553 7.65315
  192 565.070 -15.6553 7.65315
  193 529.128 -1.89222 20.1525
  194 529.128 -1.89222 20.1525
  195 715.368 23.3482 46.5179
  196 715.368 23.3482 46.5179
  197 302.177 9.99311 -55.3404
  198 302.177 9.99311 -55.3404
  199 810.317 35.8780 21.8754
  200 810.317 35.8780 21.8754
  201 538.823 -6.72992 -21.3831
  202 538.823 -6.72992 -21.3831
  203 501.973 2.71060 6.99534
  204 501.973 2.71060 6.99534
  205 560.627 -22.1350 -11.7204
  206 560.627 -22.1350 -11.7204
  207 612.191 -30.4145 -6.15454
  208 612.191 -30.4145 -6.15454
  209 38.4599 -227.722 19.7503
  210 38.4599 -227.722 19.7503
  211 517.177 2.62032 -17.6372
  212 517.177 2.62032 -17.6372
  213 512.981 3.96766 15.3751
  214 512.981 3.96766 15.3751
  215 493.369 -45.4964 -80.3987
  216 493.369 -45.4964 -80.3987
  217 575.935 -12.2347 -12.0657
  218 575.935 -12.2347 -12.0657
  219 473.174 16.9407 -27.4641
  220 473.174 16.9407 -27.4641
  221 130.430 -160.931 143.575
  222 130.430 -160.931 143.575
  223 584.153 2.96245 18.9215
  224 584.153 2.96245 18.9215
  225 568.496 14.6862 -16.2258
  226 568.496 14.6862 -16.2258
  227 801.844 47.8128 -37.7867
  228 801.844 47.8128 -37.7867
  229 614.420 -22.3564 -8.01279
  230 614.420 -22.3564 -8.01279
  231 668.001 -26.9576 -122.805
  232 668.001 -26.9576 -122.805
  233 495.261 -22.3964 61.6836
  234 495.261 -22.3964 61.6836
  235 486.235 13.5931 2.13161
  236 486.235 13.5931 2.13161
  237 259.778 -37.6995 116.931
  238 259.778 -37.6995 116.931
  239 639.244 -52.9766 142.845
  240 639.244 -52.9766 142.845
  241 177.552 -21.8418 -58.0099
  242 177.552 -21.8418 -58.0099
  243 571.821 -43.1270 -28.8309
  244 571.821 -43.1270 -28.8309
  245 468.703 20.9732 15.8296
  246 468.703 20.9732 15.8296
  247 16.4741 -297.620 -16.2118
  248 16.4741 -297.620 -16.2118
  249 32.1941 -260.485 53.5959
  250 32.1941 -260.485 53.5959
  251 476.725 3.27952 44.1549
  252 476.725 3.27952 44.1549
  253 497.447 1.87831 1.71793
  254 497.447 1.87831 1.71793
  255 493.409 7.88125 0.328482
  256 493.409 7.88125 0.328482
  257 463.425 -5.75271 -58.8514
  258 463.425 -5.75271 -58.8514
  259 497.721 1.71359 -1.81996
  260 497.721 1.71359 -1.81996
  261 549.279 -38.8661 37.6687
  262 549.279 -38.8661 37.6687
  263 510.510 1.77179 -8.51018
  264 510.510 1.77179 -8.51018
  265 396.706 -33.6210 -109.871
  266 396.706 -33.6210 -109.871
  267 671.922 51.8247 -0.686292
  268 671.922 51.8247 -0.686292
  269 492.761 10.8135 -22.2872
  270 492.761 10.8135 -22.2872
  271 490.941 10.1171 -4.40466
  272 490.941 10.1171 -4.40466
  273 418.786 20.3115 -40.3790
  274 418.786 20.3115 -40.3790
  275 128.669 -47.9388 33.6356
  276 128.669 -47.9388 33.6356
  277 524.108 -87.5374 113.151
  278 524.108 -87.5374 113.151
  279 496.005 7.30244 8.62100
  280 496.005 7.30244 8.62100
  281 731.440 51.5698 -12.1673
  282 731.440 51.5698 -12.1673
  283 869.270 77.5280 105.137
  284 869.270 77.5280 105.137
  285 588.190 -62.5993 38.2848
  286 588.190 -62.5993 38.2848
  287 427.003 21.2839 29.5531
  288 427.003 21.2839 29.5531
  289 538.153 -107.688 149.433
  290 538.153 -107.688 149.433
  291 555.894 -6.63797 13.9052
  292 555.894 -6.63797 13.9052
  293 495.702 4.80841 2.35426
  294 495.702 4.80841 2.35426
  295 488.923 13.2870 -14.1467
  296 488.923 13.2870 -14.1467
  297 493.526 7.75573 -0.646762
  298 493.526 7.75573 -0.646762
  299 500.312 1.37008 -3.28911
  300 500.312 1.37008 -3.28911
  301 510.085 2.49258 8.54294
  302 510.085 2.49258 8.54294
  303 486.361 13.5221 -3.62289
  304 486.361 13.5221 -3.62289
  305 111.808 -187.604 -136.873
  306 111.808 -187.604 -136.873
  307 336.256 22.0526 27.6419
  308 336.256 22.0526 27.6419
  309 496.216 4.01584 -2.26011
  310 496.216 4.01584 -2.26011
  311 438.740 25.1253 -19.7813
  312 438.740 25.1253 -19.7813
  313 439.873 27.3935 7.52141
  314 439.873 27.3935 7.52141
  315 495.224 7.02189 -6.09973
  316 495.224 7.02189 -6.09973
  317 661.340 35.8887 -4.76253
  318 661.340 35.8887 -4.76253
  319 491.657 11.7732 19.4867
  320 491.657 11.7732 19.4867
  321 625.350 20.2306 -14.7418
  322 625.350 20.2306 -14.7418
  323 911.407 25.5910 62.0141
  324 911.407 25.5910 62.0141
  325 489.898 12.1875 12.2065
  326 489.898 12.1875 12.2065
  327 482.406 16.1393 6.38549
  328 482.406 16.1393 6.38549
  329 375.290 -75.5209 -213.792
  330 375.290 -75.5209 -213.792
  331 500.605 1.23814 3.21707
  332 500.605 1.23814 3.21707
  333 490.492 10.1915 3.29271
  334 490.492 10.1915 3.29271
  335 472.977 20.9627 0.733096
  336 472.977 20.9627 0.733096
  337 245.508 -86.4304 171.167
  338 245.508 -86.4304 171.167
  339 607.980 40.0203 2.61075
  340 607.980 40.0203 2.61075
  341 34.7380 -254.952 -61.6513
  342 34.7380 -254.952 -61.6513
  343 382.096 24.0884 24.5207
  344 382.096 24.0884 24.5207
  345 862.854 11.5398 8.38968
  346 862.854 11.5398 8.38968
  347 901.257 46.2103 -64.1324
  348 901.257 46.2103 -64.1324
  349 428.442 -49.7077 122.954
  350 447.011 -25.5081 90.6593
  351 428.442 -49.7077 122.954
  352 447.011 -25.5081 90.6593
  353 875.414 21.4956 32.1715
  354 875.414 21.4956 32.1715
  355 506.879 -0.794668 34.4252
  356 506.879 -0.794668 34.4252
  357 596.909 -80.6722 -88.7320
  358 596.909 -80.6722 -88.7320
  359 570.062 -4.83210 15.6851
  360 570.062 -4.83210 15.6851
  361 383.198 -75.8744 233.394
  362 383.198 -75.8744 233.394
  363 664.833 53.2787 -1.72763
  364 664.833 53.2787 -1.72763
  365 873.986 7.78945 -6.68429
  366 873.986 7.78945 -6.68429
  367 538.450 0.166686 -16.7660
  368 538.450 0.166686 -16.7660
  369 482.401 17.1714 -7.65107
  370 482.401 17.1714 -7.65107
  371 739.971 57.5918 20.3692
  372 739.971 57.5918 20.3692
  373 571.570 24.0488 -3.43260
  374 571.570 24.0488 -3.43260
  375 519.378 1.91646 -10.6015
  376 519.378 1.91646 -10.6015
  377 143.610 -69.3162 -98.7110
  378 143.610 -69.3162 -98.7110
  379 573.739 -10.3828 3.84588
  380 573.739 -10.3828 3.84588
  381 492.308 -0.866876 -40.6909
  382 492.308 -0.866876 -40.6909
  383 566.469 -1.08952 -18.8000
  384 566.469 -1.08952 -18.8000
  385 878.483 15.3391 -26.5624
  386 878.483 15.3391 -26.5624
  387 494.045 7.51199 4.81959
  388 494.045 7.51199 4.81959
  389 601.709 29.7632 15.1861
  390 601.709 29.7632 15.1861
  391 646.313 -12.9547 8.98135
  392 646.313 -12.9547 8.98135
  393 495.802 8.84133 -10.8001
  394 495.802 8.84133 -10.8001
  395 929.196 91.5483 -121.545
  396 929.196 91.5483 -121.545
  397 565.888 -8.36840 -6.22090
  398 565.888 -8.36840 -6.22090
</Section>

newXOutput 148

<Section columns = "stress_xx | stress_yy | stress_xy">
  1 499.779 0.490480 -0.540215
  2 500.009 0.605157 0.728080
  3 499.779 0.490480 -0.540215
  4 500.009 0.605157 0.728080
  5 757.721 59.3268 219.562
  6 786.602 58.2318 -216.090
  7 757.721 59.3268 219.562
  8 786.602 58.2318 -216.090
  9 500.972 0.342779 -1.42044
  10 504.920 0.602824 -2.53098
  11 510.652 1.35879 -5.15631
  12 523.864 0.497019 -6.96003
  13 540.959 0.795614 -11.5057
  14 561.146 -5.10960 -11.4996
  15 580.014 -6.09990 -1.60218
  16 572.314 -4.13716 9.03694
  17 552.225 4.45787 16.2138
  18 541.225 10.7632 -0.636102
  19 549.169 5.14104 -15.2614
  20 571.803 -6.16716 -10.9998
  21 574.841 -7.41285 4.20050
  22 564.032 -3.36640 9.93530
  23 537.449 0.0974629 11.5965
  24 522.731 1.92726 8.82506
  25 511.010 1.55974 4.95192
  26 505.026 0.485293 2.31774
  27 501.253 0.406270 1.37339
  28 500.707 1.77338 0.849751
  29 499.860 3.62896 0.991558
  30 497.773 6.29229 0.884284
  31 496.940 7.31194 -0.0855274
  32 498.002 5.97161 -1.05859
  33 499.493 3.95653 -0.896847
  34 500.145 2.01360 -0.954682
  35 500.972 0.342779 -1.42044
  36 504.920 0.602824 -2.53098
  37 510.652 1.35879 -5.15631
  38 523.864 0.497019 -6.96003
  39 540.959 0.795614 -11.5057
  40 561.146 -5.10960 -11.4996
  41 580.014 -6.09990 -1.60218
  42 572.314 -4.13716 9.03694
  43 552.225 4.45787 16.2138
  44 541.225 10.7632 -0.636102
  45 549.169 5.14104 -15.2614
  46 571.803 -6.16716 -10.9998
  47 574.841 -7.41285 4.20050
  48 564.032 -3.36640 9.93530
  49 537.449 0.0974629 11.5965
  50 522.731 1.92726 8.82506
  51 511.010 1.55974 4.95192
  52 505.026 0.485293 2.31774
  53 501.253 0.406270 1.37339
  54 500.707 1.77338 0.849751
  55 499.860 3.62896 0.991558
  56 497.773 6.29229 0.884284
  57 496.940 7.31194 -0.0855274
  58 498.002 5.97161 -1.05859
  59 499.493 3.95653 -0.896847
  60 500.145 2.01360 -0.954682
  61 1044.88 55.9127 110.739
  62 954.193 15.4797 38.7255
  63 901.349 6.26815 14.1570
  64 889.993 4.58088 2.69119
  65 900.829 6.11808 -12.0678
  66 941.328 13.2296 -33.4817
  67 1054.75 48.6253 -95.3720
  68 141.525 -148.793 -182.194
  69 28.0400 -364.460 -48.7706
  70 7.28125 -419.473 -21.2793
  71 6.98654 -412.436 -10.1817
  72 12.4924 -399.963 22.8026
  73 30.6064 -353.134 51.7345
  74 152.881 -138.023 201.627
  75 1044.88 55.9127 110.739
  76 954.193 15.4797 38.7255
  77 901.349 6.26815 14.1570
  78 889.993 4.58088 2.69119
  79 900.829 6.11808 -12.0678
  80 941.328 13.2296 -33.4817
  81 1054.75 48.6253 -95.3720
  82 141.525 -148.793 -182.194
  83 28.0400 -364.460 -48.7706
  84 7.28125 -419.473 -21.2793
  85 6.98654 -412.436 -10.1817
  86 12.4924 -399.963 22.8026
  87 30.6064 -353.134 51.7345
  88 152.881 -138.023 201.627
  89 460.784 26.1278 -6.75449
  90 460.784 26.1278 -6.75449
  91 421.068 5.90891 61.6237
  92 404.734 -2.41315 -73.7428
  93 421.068 5.90891 61.6237
  94 404.734 -2.41315 -73.7428
  95 240.960 6.93723 29.8658
  96 240.960 6.93723 29.8658
  97 615.543 39.8852 -8.58933
  98 626.210 23.3680 16.8232
  99 615.543 39.8852 -8.58933
  100 626.210 23.3680 16.8232
  101 493.102 11.7564 6.65381
  102 493.102 11.7564 6.65381
  103 587.360 -33.4428 2.39317
  104 587.360 -33.4428 2.39317
  105 493.665 12.2977 -8.21676
  106 493.665 12.2977 -8.21676
  107 576.144 -71.5084 -66.5304
  108 576.144 -71.5084 -66.5304
  109 404.981 -84.7608 164.501
  110 404.981 -84.7608 164.501
  111 275.535 -49.2560 -133.069
  112 275.535 -49.2560 -133.069
  113 495.499 8.18669 28.9799
  114 495.499 8.18669 28.9799
  115 513.011 3.33941 -27.7865
  116 513.011 3.33941 -27.7865
  117 692.973 47.7068 9.80231
  118 741.098 47.6691 4.72043
  119 692.973 47.7068 9.80231
  120 741.098 47.6691 4.72043
  121 726.331 61.9911 -21.2510
  122 726.331 61.9911 -21.2510
  123 81.1176 -130.431 -44.5964
  124 81.1176 -130.431 -44.5964
  125 624.421 -77.0921 73.1558
  126 624.421 -77.0921 73.1558
  127 529.912 -12.9083 33.2029
  128 529.912 -12.9083 33.2029
  129 123.458 -112.414 101.979
  130 123.458 -112.414 101.979
  131 493.781 9.80616 -0.416899
  132 493.781 9.80616 -0.416899
  133 528.932 -24.8153 -42.5095
  134 528.932 -24.8153 -42.5095
  135 501.204 4.02101 4.79098
  136 501.204 4.02101 4.79098
  137 501.609 3.54031 -4.46633
  138 501.609 3.54031 -4.46633
  139 506.941 6.86627 -14.4251
  140 506.941 6.86627 -14.4251
  141 504.715 6.69826 12.9714
  142 504.715 6.69826 12.9714
  143 484.241 16.3919 -0.534166
  144 484.241 16.3919 -0.534166
  145 406.785 26.8528 -3.16332
  146 406.785 26.8528 -3.16332
  147 584.842 -20.7884 7.49625
  148 584.842 -20.7884 7.49625
  149 665.546 -21.5601 -29.6803
  150 665.546 -21.5601 -29.6803
  151 516.224 -57.9000 81.7747
  152 516.224 -57.9000 81.7747
  153 389.737 -105.023 -186.208
  154 389.737 -105.023 -186.208
  155 461.638 18.7958 27.6585
  156 461.638 18.7958 27.6585
  157 595.241 -3.33125 -19.9482
  158 595.241 -3.33125 -19.9482
  159 806.047 64.9505 48.0054
  160 806.047 64.9505 48.0054
  161 405.676 -113.026 214.840
  162 405.676 -113.026 214.840
  163 821.783 26.7236 -9.53618
  164 821.783 26.7236 -9.53618
  165 482.343 16.3554 12.7402
  166 482.343 16.3554 12.7402
  167 458.738 15.5559 -40.5972
  168 458.738 15.5559 -40.5972
  169 567.355 17.3849 12.3762
  170 567.355 17.3849 12.3762
  171 477.990 19.5420 -14.4951
  172 477.990 19.5420 -14.4951
  173 496.637 7.87834 2.09542
  174 496.637 7.87834 2.09542
  175 504.444 3.82368 -7.63352
  176 504.444 3.82368 -7.63352
  177 773.670 63.1326 -49.1693
  178 773.670 63.1326 -49.1693
  179 497.009 7.67127 -2.52825
  180 497.009 7.67127 -2.52825
  181 369.408 27.0399 -21.2367
  182 369.408 27.0399 -21.2367
  183 659.300 49.0890 2.52776
  184 659.300 49.0890 2.52776
  185 135.089 -110.400 -131.386
  186 135.089 -110.400 -131.386
  187 363.342 -3.69250 89.9715
  188 363.342 -3.69250 89.9715
  189 481.628 -78.1871 -127.471
  190 481.628 -78.1871 -127.471
  191 568.684 -15.7584 7.71722
  192 568.684 -15.7584 7.71722
  193 532.520 -1.90680 20.2796
  194 532.520 -1.90680 20.2796
  195 719.866 23.5461 46.8900
  196 719.866 23.5461 46.8900
  197 304.186 10.0679 -55.7033
  198 304.186 10.0679 -55.7033
  199 815.362 36.0938 22.0211
  200 815.362 36.0938 22.0211
  201 542.274 -6.77598 -21.5229
  202 542.274 -6.77598 -21.5229
  203 505.208 2.72711 7.03593
  204 505.208 2.72711 7.03593
  205 564.213 -22.2810 -11.8120
  206 564.213 -22.2810 -11.8120
  207 616.084 -30.5995 -6.24002
  208 616.084 -30.5995 -6.24002
  209 38.7111 -229.206 19.8979
  210 38.7111 -229.206 19.8979
  211 520.499 2.63468 -17.7451
  212 520.499 2.63468 -17.7451
  213 516.279 3.99146 15.4681
  214 516.279 3.99146 15.4681
  215 496.538 -45.7934 -80.9281
  216 496.538 -45.7934 -80.9281
  217 579.626 -12.3134 -12.1180
  218 579.626 -12.3134 -12.1180
  219 476.244 17.0475 -27.6351
  220 476.244 17.0475 -27.6351
  221 131.275 -161.929 144.601
  222 131.275 -161.929 144.601
  223 587.907 2.98939 19.0123
  224 587.907 2.98939 19.0123
  225 572.172 14.7867 -16.3095
  226 572.172 14.7867 -16.3095
  227 806.849 48.1097 -38.0467
  228 806.849 48.1097 -38.0467
  229 618.330 -22.4889 -8.01722
  230 618.330 -22.4889 -8.01722
  231 672.181 -27.0555 -123.677
  232 672.181 -27.0555 -123.677
  233 498.448 -22.5421 62.0832
  234 498.448 -22.5421 62.0832
  235 489.383 13.6770 2.14420
  236 489.383 13.6770 2.14420
  237 261.496 -37.9359 117.716
  238 261.496 -37.9359 117.716
  239 643.244 -53.2563 143.842
  240 643.244 -53.2563 143.842
  241 178.752 -21.9600 -58.4038
  242 178.752 -21.9600 -58.4038
  243 575.466 -43.4067 -29.0415
  244 575.466 -43.4067 -29.0415
  245 471.749 21.1053 15.9267
  246 471.749 21.1053 15.9267
  247 16.5731 -299.589 -16.3364
  248 16.5731 -299.589 -16.3364
  249 32.4005 -262.180 54.0039
  250 32.4005 -262.180 54.0039
  251 479.810 3.29975 44.4349
  252 479.810 3.29975 44.4349
  253 500.656 1.89000 1.72764
  254 500.656 1.89000 1.72764
  255 496.597 7.92934 0.330386
  256 496.597 7.92934 0.330386
  257 466.427 -5.79069 -59.2293
  258 466.427 -5.79069 -59.2293
  259 500.931 1.72433 -1.83025
  260 500.931 1.72433 -1.83025
  261 552.789 -39.1190 37.9280
  262 552.789 -39.1190 37.9280
  263 513.792 1.78234 -8.56005
  264 513.792 1.78234 -8.56005
  265 399.284 -33.8403 -110.592
  266 399.284 -33.8403 -110.592
  267 676.205 52.1610 -0.658736
  268 676.205 52.1610 -0.658736
  269 495.945 10.8802 -22.4235
  270 495.945 10.8802 -22.4235
  271 494.114 10.1794 -4.43024
  272 494.114 10.1794 -4.43024
  273 421.528 20.4435 -40.6356
  274 421.528 20.4435 -40.6356
  275 129.543 -48.2168 33.8691
  276 129.543 -48.2168 33.8691
  277 527.441 -88.1084 113.909
  278 527.441 -88.1084 113.909
  279 499.207 7.34740 8.67138
  280 499.207 7.34740 8.67138
  281 736.061 51.8913 -12.2605
  282 736.061 51.8913 -12.2605
  283 874.630 78.0796 105.853
  284 874.630 78.0796 105.853
  285 591.925 -63.0001 38.5685
  286 591.925 -63.0001 38.5685
  287 429.797 21.4213 29.7391
  288 429.797 21.4213 29.7391
  289 541.555 -108.385 150.439
  290 541.555 -108.385 150.439
  291 559.446 -6.68289 13.9983
  292 559.446 -6.68289 13.9983
  293 498.902 4.83793 2.36770
  294 498.902 4.83793 2.36770
  295 492.085 13.3694 -14.2313
  296 492.085 13.3694 -14.2313
  297 496.715 7.80308 -0.650455
  298 496.715 7.80308 -0.650455
  299 503.536 1.37857 -3.30789
  300 503.536 1.37857 -3.30789
  301 513.364 2.50762 8.59298
  302 513.364 2.50762 8.59298
  303 489.510 13.6057 -3.64425
  304 489.510 13.6057 -3.64425
  305 112.528 -188.763 -137.859
  306 112.528 -188.763 -137.859
  307 338.488 22.2023 27.8200
  308 338.488 22.2023 27.8200
  309 499.418 4.04059 -2.27296
  310 499.418 4.04059 -2.27296
  311 441.608 25.2857 -19.9054
  312 441.608 25.2857 -19.9054
  313 442.748 27.5683 7.56804
  314 442.748 27.5683 7.56804
  315 498.421 7.06512 -6.13511
  316 498.421 7.06512 -6.13511
  317 665.544 36.1440 -4.85165
  318 665.544 36.1440 -4.85165
  319 494.835 11.8462 19.6047
  320 494.835 11.8462 19.6047
  321 629.346 20.3744 -14.7915
  322 629.346 20.3744 -14.7915
  323 916.989 25.7423 62.4086
  324 916.989 25.7423 62.4086
  325 493.066 12.2630 12.2791
  326 493.066 12.2630 12.2791
  327 485.532 16.2394 6.42350
  328 485.532 16.2394 6.42350
  329 377.651 -75.8661 -215.277
  330 377.651 -75.8661 -215.277
  331 503.831 1.24580 3.23542
  332 503.831 1.24580 3.23542
  333 493.663 10.2541 3.31187
  334 493.663 10.2541 3.31187
  335 476.049 21.0938 0.737498
  336 476.049 21.0938 0.737498
  337 247.117 -86.9871 172.340
  338 247.117 -86.9871 172.340
  339 611.894 40.2828 2.61991
  340 611.894 40.2828 2.61991
  341 34.9567 -256.607 -62.1117
  342 34.9567 -256.607 -62.1117
  343 384.617 24.2467 24.6764
  344 384.617 24.2467 24.6764
  345 868.152 11.6052 8.43872
  346 868.152 11.6052 8.43872
  347 906.798 46.5066 -64.5456
  348 906.798 46.5066 -64.5456
  349 431.207 -50.0335 123.761
  350 449.902 -25.6739 91.2458
  351 431.207 -50.0335 123.761
  352 449.902 -25.6739 91.2458
  353 880.792 21.6201 32.3703
  354 880.792 21.6201 32.3703
  355 510.144 -0.801741 34.6431
  356 510.144 -0.801741 34.6431
  357 600.674 -81.1840 -89.3490
  358 600.674 -81.1840 -89.3490
  359 573.727 -4.86105 15.7655
  360 573.727 -4.86105 15.7655
  361 385.593 -76.2303 235.003
  362 385.593 -76.2303 235.003
  363 669.081 53.6182 -1.73724
  364 669.081 53.6182 -1.73724
  365 879.338 7.83295 -6.72475
  366 879.338 7.83295 -6.72475
  367 541.894 0.165386 -16.8705
  368 541.894 0.165386 -16.8705
  369 485.527 17.2782 -7.69677
  370 485.527 17.2782 -7.69677
  371 744.640 57.9585 20.5300
  372 744.640 57.9585 20.5300
  373 575.270 24.2085 -3.45031
  374 575.270 24.2085 -3.45031
  375 522.710 1.92736 -10.6648
  376 522.710 1.92736 -10.6648
  377 144.584 -69.7424 -99.3972
  378 144.584 -69.7424 -99.3972
  379 577.409 -10.4506 3.85554
  380 577.409 -10.4506 3.85554
  381 495.485 -0.874457 -40.9502
  382 495.485 -0.874457 -40.9502
  383 570.121 -1.09458 -18.8979
  384 570.121 -1.09458 -18.8979
  385 883.874 15.4294 -26.7248
  386 883.874 15.4294 -26.7248
  387 497.236 7.55811 4.84747
  388 497.236 7.55811 4.84747
  389 605.576 29.9637 15.2545
  390 605.576 29.9637 15.2545
  391 650.406 -13.0140 9.09903
  392 650.406 -13.0140 9.09903
  393 499.003 8.89586 -10.8637
  394 499.003 8.89586 -10.8637
  395 934.885 92.2089 -122.364
  396 934.885 92.2089 -122.364
  397 569.501 -8.42484 -6.26765
  398 569.501 -8.42484 -6.26765
</Section>

newXOutput 149

<Section columns = "stress_xx | stress_yy | stress_xy">
  1 502.981 0.493584 -0.543201
  2 503.212 0.608935 0.732095
  3 502.981 0.493584 -0.543201
  4 503.212 0.608935 0.732095
  5 762.315 59.8863 221.037
  6 791.356 58.7913 -217.543
  7 762.315 59.8863 221.037
  8 791.356 58.7913 -217.543
  9 504.180 0.344843 -1.42835
  10 508.149 0.606450 -2.54524
  11 513.912 1.36691 -5.18582
  12 527.199 0.499643 -7.00059
  13 544.391 0.799225 -11.5752
  14 564.697 -5.14483 -11.5728
  15 583.685 -6.14066 -1.61848
  16 575.964 -4.16367 9.08146
  17 555.781 4.48981 16.3007
  18 544.729 10.8360 -0.639594
  19 552.708 5.17532 -15.3441
  20 575.451 -6.20697 -11.0536
  21 578.482 -7.46249 4.23448
  22 567.601 -3.38947 9.99917
  23 540.863 0.0962079 11.6671
  24 526.059 1.93845 8.87678
  25 514.272 1.56909 4.98018
  26 508.256 0.488204 2.33078
  27 504.463 0.408758 1.38108
  28 503.914 1.78423 0.854421
  29 503.062 3.65105 0.997095
  30 500.964 6.33033 0.889273
  31 500.127 7.35606 -0.0860054
  32 501.194 6.00777 -1.06451
  33 502.693 3.98063 -0.901739
  34 503.349 2.02600 -0.960020
  35 504.180 0.344843 -1.42835
  36 508.149 0.606450 -2.54524
  37 513.912 1.36691 -5.18582
  38 527.199 0.499643 -7.00059
  39 544.391 0.799225 -11.5752
  40 564.697 -5.14483 -11.5728
  41 583.685 -6.14066 -1.61848
  42 575.964 -4.16367 9.08146
  43 555.781 4.48981 16.3007
  44 544.729 10.8360 -0.639594
  45 552.708 5.17532 -15.3441
  46 575.451 -6.20697 -11.0536
  47 578.482 -7.46249 4.23448
  48 567.601 -3.38947 9.99917
  49 540.863 0.0962079 11.6671
  50 526.059 1.93845 8.87678
  51 514.272 1.56909 4.98018
  52 508.256 0.488204 2.33078
  53 504.463 0.408758 1.38108
  54 503.914 1.78423 0.854421
  55 503.062 3.65105 0.997095
  56 500.964 6.33033 0.889273
  57 500.127 7.35606 -0.0860054
  58 501.194 6.00777 -1.06451
  59 502.693 3.98063 -0.901739
  60 503.349 2.02600 -0.960020
  61 1051.12 56.2786 111.428
  62 959.931 15.5697 38.9564
  63 906.799 6.30010 14.2380
  64 895.379 4.60519 2.70476
  65 906.275 6.15177 -12.1365
  66 946.999 13.3054 -33.6784
  67 1061.06 48.9424 -95.9661
  68 142.413 -149.561 -183.475
  69 28.2174 -366.829 -49.1581
  70 7.31351 -422.297 -21.4481
  71 7.01809 -415.223 -10.2501
  72 12.5625 -402.641 22.9841
  73 30.8038 -355.427 52.1473
  74 153.827 -138.723 203.038
  75 1051.12 56.2786 111.428
  76 959.931 15.5697 38.9564
  77 906.799 6.30010 14.2380
  78 895.379 4.60519 2.70476
  79 906.275 6.15177 -12.1365
  80 946.999 13.3054 -33.6784
  81 1061.06 48.9424 -95.9661
  82 142.413 -149.561 -183.475
  83 28.2174 -366.829 -49.1581
  84 7.31351 -422.297 -21.4481
  85 7.01809 -415.223 -10.2501
  86 12.5625 -402.641 22.9841
  87 30.8038 -355.427 52.1473
  88 153.827 -138.723 203.038
  89 463.764 26.2918 -6.79600
  90 463.764 26.2918 -6.79600
  91 423.798 5.94842 62.0152
  92 407.360 -2.42703 -74.2156
  93 423.798 5.94842 62.0152
  94 407.360 -2.42703 -74.2156
  95 242.572 6.99869 30.0619
  96 242.572 6.99869 30.0619
  97 619.473 40.1454 -8.62550
  98 630.186 23.5314 16.8847
  99 619.473 40.1454 -8.62550
  100 630.186 23.5314 16.8847
  101 496.268 11.8283 6.69259
  102 496.268 11.8283 6.69259
  103 591.082 -33.6556 2.44151
  104 591.082 -33.6556 2.44151
  105 496.834 12.3732 -8.26479
  106 496.834 12.3732 -8.26479
  107 579.774 -71.9685 -66.9837
  108 579.774 -71.9685 -66.9837
  109 407.569 -85.3132 165.591
  110 407.569 -85.3132 165.591
  111 277.334 -49.5682 -133.959
  112 277.334 -49.5682 -133.959
  113 498.677 8.23629 29.1584
  114 498.677 8.23629 29.1584
  115 516.289 3.35774 -27.9592
  116 516.289 3.35774 -27.9592
  117 697.338 48.0308 9.92195
  118 745.740 47.9605 4.75913
  119 697.338 48.0308 9.92195
  120 745.740 47.9605 4.75913
  121 730.894 62.3950 -21.4291
  122 730.894 62.3950 -21.4291
  123 81.6573 -131.244 -44.9151
  124 81.6573 -131.244 -44.9151
  125 628.329 -77.5658 73.6779
  126 628.329 -77.5658 73.6779
  127 533.288 -12.9934 33.4189
  128 533.288 -12.9934 33.4189
  129 124.277 -113.110 102.697
  130 124.277 -113.110 102.697
  131 496.951 9.86582 -0.419247
  132 496.951 9.86582 -0.419247
  133 532.300 -24.9771 -42.7896
  134 532.300 -24.9771 -42.7896
  135 504.413 4.04553 4.81832
  136 504.413 4.04553 4.81832
  137 504.821 3.56198 -4.49172
  138 504.821 3.56198 -4.49172
  139 510.183 6.90776 -14.5106
  140 510.183 6.90776 -14.5106
  141 507.945 6.73894 13.0479
  142 507.945 6.73894 13.0479
  143 487.357 16.4928 -0.537454
  144 487.357 16.4928 -0.537454
  145 409.442 27.0252 -3.18365
  146 409.442 27.0252 -3.18365
  147 588.556 -20.9191 7.51503
  148 588.556 -20.9191 7.51503
  149 669.717 -21.6610 -29.9385
  150 669.717 -21.6610 -29.9385
  151 519.502 -58.2757 82.3120
  152 519.502 -58.2757 82.3120
  153 392.208 -105.682 -187.472
  154 392.208 -105.682 -187.472
  155 464.620 18.9145 27.8299
  156 464.620 18.9145 27.8299
  157 599.025 -3.34642 -20.0392
  158 599.025 -3.34642 -20.0392
  159 811.045 65.3719 48.3425
  160 811.045 65.3719 48.3425
  161 408.243 -113.747 216.285
  162 408.243 -113.747 216.285
  163 826.847 26.8789 -9.59764
  164 826.847 26.8789 -9.59764
  165 485.448 16.4564 12.8165
  166 485.448 16.4564 12.8165
  167 461.700 15.6545 -40.8518
  168 461.700 15.6545 -40.8518
  169 571.004 17.5022 12.4412
  170 571.004 17.5022 12.4412
  171 481.070 19.6633 -14.5826
  172 481.070 19.6633 -14.5826
  173 499.822 7.92614 2.10739
  174 499.822 7.92614 2.10739
  175 507.671 3.84684 -7.67760
  176 507.671 3.84684 -7.67760
  177 778.481 63.5728 -49.5443
  178 778.481 63.5728 -49.5443
  179 500.196 7.71791 -2.54263
  180 500.196 7.71791 -2.54263
  181 371.832 27.2178 -21.3722
  182 371.832 27.2178 -21.3722
  183 663.481 49.4077 2.51161
  184 663.481 49.4077 2.51161
  185 135.977 -111.084 -132.306
  186 135.977 -111.084 -132.306
  187 365.710 -3.71231 90.5525
  188 365.710 -3.71231 90.5525
  189 484.686 -78.6951 -128.314
  190 484.686 -78.6951 -128.314
  191 572.295 -15.8617 7.78142
  192 572.295 -15.8617 7.78142
  193 535.910 -1.92152 20.4066
  194 535.910 -1.92152 20.4066
  195 724.358 23.7442 47.2624
  196 724.358 23.7442 47.2624
  197 306.195 10.1427 -56.0661
  198 306.195 10.1427 -56.0661
  199 820.400 36.3092 22.1668
  200 820.400 36.3092 22.1668
  201 545.722 -6.82216 -21.6626
  202 545.722 -6.82216 -21.6626
  203 508.439 2.74351 7.07647
  204 508.439 2.74351 7.07647
  205 567.794 -22.4270 -11.9038
  206 567.794 -22.4270 -11.9038
  207 619.974 -30.7846 -6.32590
  208 619.974 -30.7846 -6.32590
  209 38.9622 -230.690 20.0455
  210 38.9622 -230.690 20.0455
  211 523.818 2.64890 -17.8528
  212 523.818 2.64890 -17.8528
  213 519.574 4.01511 15.5611
  214 519.574 4.01511 15.5611
  215 499.704 -46.0904 -81.4573
  216 499.704 -46.0904 -81.4573
  217 583.314 -12.3923 -12.1701
  218 583.314 -12.3923 -12.1701
  219 479.311 17.1541 -27.8060
  220 479.311 17.1541 -27.8060
  221 132.120 -162.926 145.627
  222 132.120 -162.926 145.627
  223 591.658 3.01624 19.1027
  224 591.658 3.01624 19.1027
  225 575.844 14.8871 -16.3929
  226 575.844 14.8871 -16.3929
  227 811.847 48.4063 -38.3067
  228 811.847 48.4063 -38.3067
  229 622.236 -22.6215 -8.02119
  230 622.236 -22.6215 -8.02119
  231 676.357 -27.1525 -124.550
  232 676.357 -27.1525 -124.550
  233 501.632 -22.6879 62.4825
  234 501.632 -22.6879 62.4825
  235 492.529 13.7609 2.15677
  236 492.529 13.7609 2.15677
  237 263.212 -38.1723 118.501
  238 263.212 -38.1723 118.501
  239 647.239 -53.5351 144.840
  240 647.239 -53.5351 144.840
  241 179.952 -22.0781 -58.7977
  242 179.952 -22.0781 -58.7977
  243 579.107 -43.6864 -29.2521
  244 579.107 -43.6864 -29.2521
  245 474.792 21.2372 16.0238
  246 474.792 21.2372 16.0238
  247 16.6721 -301.557 -16.4611
  248 16.6721 -301.557 -16.4611
  249 32.6070 -263.874 54.4124
  250 32.6070 -263.874 54.4124
  251 482.893 3.31987 44.7147
  252 482.893 3.31987 44.7147
  253 503.862 1.90158 1.73734
  254 503.862 1.90158 1.73734
  255 499.782 7.97728 0.332287
  256 499.782 7.97728 0.332287
  257 469.427 -5.82876 -59.6070
  258 469.427 -5.82876 -59.6070
  259 504.139 1.73496 -1.84053
  260 504.139 1.73496 -1.84053
  261 556.295 -39.3721 38.1873
  262 556.295 -39.3721 38.1873
  263 517.071 1.79276 -8.60985
  264 517.071 1.79276 -8.60985
  265 401.861 -34.0596 -111.312
  266 401.861 -34.0596 -111.312
  267 680.484 52.4971 -0.630946
  268 680.484 52.4971 -0.630946
  269 499.126 10.9467 -22.5595
  270 499.126 10.9467 -22.5595
  271 497.286 10.2415 -4.45578
  272 497.286 10.2415 -4.45578
  273 424.269 20.5754 -40.8921
  274 424.269 20.5754 -40.8921
  275 130.417 -48.4946 34.1026
  276 130.417 -48.4946 34.1026
  277 530.771 -88.6793 114.667
  278 530.771 -88.6793 114.667
  279 502.406 7.39222 8.72168
  280 502.406 7.39222 8.72168
  281 740.677 52.2124 -12.3539
  282 740.677 52.2124 -12.3539
  283 879.984 78.6314 106.570
  284 879.984 78.6314 106.570
  285 595.656 -63.4008 38.8524
  286 595.656 -63.4008 38.8524
  287 432.590 21.5585 29.9249
  288 432.590 21.5585 29.9249
  289 544.953 -109.082 151.444
  290 544.953 -109.082 151.444
  291 562.995 -6.72794 14.0914
  292 562.995 -6.72794 14.0914
  293 502.099 4.86733 2.38111
  294 502.099 4.86733 2.38111
  295 495.245 13.4516 -14.3158
  296 495.245 13.4516 -14.3158
  297 499.900 7.85027 -0.654143
  298 499.900 7.85027 -0.654143
  299 506.758 1.38695 -3.32663
  300 506.758 1.38695 -3.32663
  301 516.641 2.52253 8.64296
  302 516.641 2.52253 8.64296
  303 492.656 13.6891 -3.66558
  304 492.656 13.6891 -3.66558
  305 113.248 -189.921 -138.846
  306 113.248 -189.921 -138.846
  307 340.718 22.3520 27.9980
  308 340.718 22.3520 27.9980
  309 502.618 4.06522 -2.28578
  310 502.618 4.06522 -2.28578
  311 444.473 25.4460 -20.0294
  312 444.473 25.4460 -20.0294
  313 445.621 27.7430 7.61464
  314 445.621 27.7430 7.61464
  315 501.616 7.10821 -6.17043
  316 501.616 7.10821 -6.17043
  317 669.743 36.3993 -4.94121
  318 669.743 36.3993 -4.94121
  319 498.010 11.9190 19.7225
  320 498.010 11.9190 19.7225
  321 633.338 20.5181 -14.8408
  322 633.338 20.5181 -14.8408
  323 922.564 25.8930 62.8027
  324 922.564 25.8930 62.8027
  325 496.232 12.3382 12.3516
  326 496.232 12.3382 12.3516
  327 488.656 16.3394 6.46145
  328 488.656 16.3394 6.46145
  329 380.011 -76.2090 -216.763
  330 380.011 -76.2090 -216.763
  331 507.054 1.25335 3.25375
  332 507.054 1.25335 3.25375
  333 496.832 10.3166 3.33100
  334 496.832 10.3166 3.33100
  335 479.118 21.2248 0.741895
  336 479.118 21.2248 0.741895
  337 248.724 -87.5435 173.513
  338 248.724 -87.5435 173.513
  339 615.805 40.5451 2.62900
  340 615.805 40.5451 2.62900
  341 35.1755 -258.263 -62.5724
  342 35.1755 -258.263 -62.5724
  343 387.136 24.4049 24.8320
  344 387.136 24.4049 24.8320
  345 873.443 11.6701 8.48769
  346 873.443 11.6701 8.48769
  347 912.332 46.8024 -64.9584
  348 912.332 46.8024 -64.9584
  349 433.969 -50.3594 124.568
  350 452.792 -25.8398 91.8321
  351 433.969 -50.3594 124.568
  352 452.792 -25.8398 91.8321
  353 886.162 21.7441 32.5689
  354 886.162 21.7441 32.5689
  355 513.405 -0.808941 34.8608
  356 513.405 -0.808941 34.8608
  357 604.436 -81.6956 -89.9661
  358 604.436 -81.6956 -89.9661
  359 577.390 -4.89012 15.8456
  360 577.390 -4.89012 15.8456
  361 387.984 -76.5839 236.612
  362 387.984 -76.5839 236.612
  363 673.323 53.9574 -1.74683
  364 673.323 53.9574 -1.74683
  365 884.682 7.87605 -6.76518
  366 884.682 7.87605 -6.76518
  367 545.336 0.163940 -16.9749
  368 545.336 0.163940 -16.9749
  369 488.650 17.3848 -7.74242
  370 488.650 17.3848 -7.74242
  371 749.304 58.3249 20.6908
  372 749.304 58.3249 20.6908
  373 578.966 24.3680 -3.46797
  374 578.966 24.3680 -3.46797
  375 526.039 1.93813 -10.7279
  376 526.039 1.93813 -10.7279
  377 145.557 -70.1682 -100.083
  378 145.557 -70.1682 -100.083
  379 581.075 -10.5185 3.86500
  380 581.075 -10.5185 3.86500
  381 498.661 -0.882159 -41.2094
  382 498.661 -0.882159 -41.2094
  383 573.770 -1.09977 -18.9956
  384 573.770 -1.09977 -18.9956
  385 889.257 15.5193 -26.8870
  386 889.257 15.5193 -26.8870
  387 500.424 7.60410 4.87530
  388 500.424 7.60410 4.87530
  389 609.440 30.1639 15.3226
  390 609.440 30.1639 15.3226
  391 654.495 -13.0732 9.21720
  392 654.495 -13.0732 9.21720
  393 502.201 8.95025 -10.9271
  394 502.201 8.95025 -10.9271
  395 940.565 92.8697 -123.181
  396 940.565 92.8697 -123.181
  397 573.109 -8.48143 -6.31446
  398 573.109 -8.48143 -6.31446
</Section>

newXOutput 150

<Section columns = "stress_xx | stress_yy | stress_xy">
  1 506.180 0.496797 -0.546177
  2 506.413 0.612820 0.736096
  3 506.180 0.496797 -0.546177
  4 506.413 0.612820 0.736096
  5 766.902 60.4477 222.512
  6 796.103 59.3529 -218.997
  7 766.902 60.4477 222.512
  8 796.103 59.3529 -218.997
  9 507.385 0.347016 -1.43624
  10 511.376 0.610183 -2.55946
  11 517.170 1.37513 -5.21525
  12 530.530 0.502380 -7.04105
  13 547.819 0.802937 -11.6445
  14 568.246 -5.17992 -11.6460
  15 587.353 -6.18126 -1.63480
  16 579.610 -4.19001 9.12579
  17 559.335 4.52191 16.3872
  18 548.231 10.9090 -0.643075
  19 556.246 5.20971 -15.4265
  20 579.097 -6.24661 -11.1072
  21 582.119 -7.51197 4.26850
  22 571.166 -3.41239 10.0630
  23 544.273 0.0950508 11.7376
  24 529.384 1.94972 8.92836
  25 517.533 1.57854 5.00836
  26 511.484 0.491225 2.34377
  27 507.670 0.411356 1.38876
  28 507.118 1.79517 0.859074
  29 506.262 3.67321 1.00261
  30 504.153 6.36840 0.894245
  31 503.311 7.40018 -0.0864817
  32 504.384 6.04395 -1.07042
  33 505.890 4.00478 -0.906613
  34 506.549 2.03848 -0.965340
  35 507.385 0.347016 -1.43624
  36 511.376 0.610183 -2.55946
  37 517.170 1.37513 -5.21525
  38 530.530 0.502380 -7.04105
  39 547.819 0.802937 -11.6445
  40 568.246 -5.17992 -11.6460
  41 587.353 -6.18126 -1.63480
  42 579.610 -4.19001 9.12579
  43 559.335 4.52191 16.3872
  44 548.231 10.9090 -0.643075
  45 556.246 5.20971 -15.4265
  46 579.097 -6.24661 -11.1072
  47 582.119 -7.51197 4.26850
  48 571.166 -3.41239 10.0630
  49 544.273 0.0950508 11.7376
  50 529.384 1.94972 8.92836
  51 517.533 1.57854 5.00836
  52 511.484 0.491225 2.34377
  53 507.670 0.411356 1.38876
  54 507.118 1.79517 0.859074
  55 506.262 3.67321 1.00261
  56 504.153 6.36840 0.894245
  57 503.311 7.40018 -0.0864817
  58 504.384 6.04395 -1.07042
  59 505.890 4.00478 -0.906613
  60 506.549 2.03848 -0.965340
  61 1057.36 56.6445 112.117
  62 965.660 15.6599 39.1866
  63 912.240 6.33225 14.3189
  64 900.758 4.62976 2.71826
  65 911.712 6.18570 -12.2049
  66 952.661 13.3814 -33.8746
  67 1067.36 49.2597 -96.5594
  68 143.299 -150.327 -184.756
  69 28.3941 -369.195 -49.5464
  70 7.34539 -425.120 -21.6171
  71 7.04939 -418.009 -10.3185
  72 12.6323 -405.317 23.1661
  73 31.0005 -357.718 52.5610
  74 154.771 -139.420 204.450
  75 1057.36 56.6445 112.117
  76 965.660 15.6599 39.1866
  77 912.240 6.33225 14.3189
  78 900.758 4.62976 2.71826
  79 911.712 6.18570 -12.2049
  80 952.661 13.3814 -33.8746
  81 1067.36 49.2597 -96.5594
  82 143.299 -150.327 -184.756
  83 28.3941 -369.195 -49.5464
  84 7.34539 -425.120 -21.6171
  85 7.04939 -418.009 -10.3185
  86 12.6323 -405.317 23.1661
  87 31.0005 -357.718 52.5610
  88 154.771 -139.420 204.450
  89 466.743 26.4556 -6.83744
  90 466.743 26.4556 -6.83744
  91 426.526 5.98800 62.4063
  92 409.985 -2.44079 -74.6880
  93 426.526 5.98800 62.4063
  94 409.985 -2.44079 -74.6880
  95 244.183 7.06042 30.2578
  96 244.183 7.06042 30.2578
  97 623.400 40.4056 -8.66132
  98 634.158 23.6950 16.9455
  99 623.400 40.4056 -8.66132
  100 634.158 23.6950 16.9455
  101 499.431 11.9002 6.73126
  102 499.431 11.9002 6.73126
  103 594.800 -33.8680 2.49030
  104 594.800 -33.8680 2.49030
  105 500.000 12.4486 -8.31269
  106 500.000 12.4486 -8.31269
  107 583.401 -72.4279 -67.4370
  108 583.401 -72.4279 -67.4370
  109 410.156 -85.8651 166.680
  110 410.156 -85.8651 166.680
  111 279.131 -49.8799 -134.848
  112 279.131 -49.8799 -134.848
  113 501.852 8.28588 29.3366
  114 501.852 8.28588 29.3366
  115 519.564 3.37611 -28.1316
  116 519.564 3.37611 -28.1316
  117 701.699 48.3550 10.0424
  118 750.378 48.2515 4.79793
  119 701.699 48.3550 10.0424
  120 750.378 48.2515 4.79793
  121 735.452 62.7988 -21.6077
  122 735.452 62.7988 -21.6077
  123 82.1968 -132.056 -45.2340
  124 82.1968 -132.056 -45.2340
  125 632.232 -78.0386 74.2003
  126 632.232 -78.0386 74.2003
  127 536.662 -13.0784 33.6347
  128 536.662 -13.0784 33.6347
  129 125.097 -113.805 103.416
  130 125.097 -113.805 103.416
  131 500.118 9.92546 -0.421587
  132 500.118 9.92546 -0.421587
  133 535.665 -25.1385 -43.0697
  134 535.665 -25.1385 -43.0697
  135 507.620 4.07011 4.84557
  136 507.620 4.07011 4.84557
  137 508.030 3.58371 -4.51704
  138 508.030 3.58371 -4.51704
  139 513.423 6.94927 -14.5960
  140 513.423 6.94927 -14.5960
  141 511.172 6.77965 13.1241
  142 511.172 6.77965 13.1241
  143 490.472 16.5936 -0.540736
  144 490.472 16.5936 -0.540736
  145 412.098 27.1974 -3.20396
  146 412.098 27.1974 -3.20396
  147 592.267 -21.0495 7.53335
  148 592.267 -21.0495 7.53335
  149 673.883 -21.7610 -30.1976
  150 673.883 -21.7610 -30.1976
  151 522.778 -58.6508 82.8489
  152 522.778 -58.6508 82.8489
  153 394.676 -106.340 -188.736
  154 394.676 -106.340 -188.736
  155 467.600 19.0330 28.0011
  156 467.600 19.0330 28.0011
  157 602.806 -3.36130 -20.1296
  158 602.806 -3.36130 -20.1296
  159 816.037 65.7932 48.6798
  160 816.037 65.7932 48.6798
  161 410.807 -114.466 217.729
  162 410.807 -114.466 217.729
  163 831.905 27.0340 -9.65904
  164 831.905 27.0340 -9.65904
  165 488.551 16.5573 12.8926
  166 488.551 16.5573 12.8926
  167 464.659 15.7531 -41.1059
  168 464.659 15.7531 -41.1059
  169 574.650 17.6196 12.5060
  170 574.650 17.6196 12.5060
  171 484.148 19.7845 -14.6699
  172 484.148 19.7845 -14.6699
  173 503.005 7.97394 2.11932
  174 503.005 7.97394 2.11932
  175 510.896 3.87005 -7.72155
  176 510.896 3.87005 -7.72155
  177 783.286 64.0132 -49.9200
  178 783.286 64.0132 -49.9200
  179 503.380 7.76455 -2.55698
  180 503.380 7.76455 -2.55698
  181 374.256 27.3958 -21.5076
  182 374.256 27.3958 -21.5076
  183 667.658 49.7262 2.49496
  184 667.658 49.7262 2.49496
  185 136.864 -111.766 -133.227
  186 136.864 -111.766 -133.227
  187 368.077 -3.73196 91.1330
  188 368.077 -3.73196 91.1330
  189 487.741 -79.2024 -129.158
  190 487.741 -79.2024 -129.158
  191 575.902 -15.9647 7.84575
  192 575.902 -15.9647 7.84575
  193 539.296 -1.93613 20.5334
  194 539.296 -1.93613 20.5334
  195 728.846 23.9431 47.6356
  196 728.846 23.9431 47.6356
  197 308.203 10.2176 -56.4285
  198 308.203 10.2176 -56.4285
  199 825.432 36.5243 22.3124
  200 825.432 36.5243 22.3124
  201 549.167 -6.86822 -21.8022
  202 549.167 -6.86822 -21.8022
  203 511.668 2.75998 7.11689
  204 511.668 2.75998 7.11689
  205 571.373 -22.5727 -11.9957
  206 571.373 -22.5727 -11.9957
  207 623.860 -30.9690 -6.41240
  208 623.860 -30.9690 -6.41240
  209 39.2131 -232.173 20.1933
  210 39.2131 -232.173 20.1933
  211 527.134 2.66318 -17.9603
  212 527.134 2.66318 -17.9603
  213 522.866 4.03882 15.6538
  214 522.866 4.03882 15.6538
  215 502.867 -46.3870 -81.9861
  216 502.867 -46.3870 -81.9861
  217 586.999 -12.4710 -12.2217
  218 586.999 -12.4710 -12.2217
  219 482.376 17.2606 -27.9766
  220 482.376 17.2606 -27.9766
  221 132.963 -163.922 146.654
  222 132.963 -163.922 146.654
  223 595.406 3.04335 19.1926
  224 595.406 3.04335 19.1926
  225 579.514 14.9876 -16.4758
  226 579.514 14.9876 -16.4758
  227 816.839 48.7025 -38.5667
  228 816.839 48.7025 -38.5667
  229 626.139 -22.7535 -8.02441
  230 626.139 -22.7535 -8.02441
  231 680.527 -27.2482 -125.423
  232 680.527 -27.2482 -125.423
  233 504.814 -22.8335 62.8815
  234 504.814 -22.8335 62.8815
  235 495.672 13.8446 2.16931
  236 495.672 13.8446 2.16931
  237 264.928 -38.4083 119.285
  238 264.928 -38.4083 119.285
  239 651.228 -53.8127 145.837
  240 651.228 -53.8127 145.837
  241 181.151 -22.1955 -59.1915
  242 181.151 -22.1955 -59.1915
  243 582.744 -43.9657 -29.4629
  244 582.744 -43.9657 -29.4629
  245 477.833 21.3689 16.1207
  246 477.833 21.3689 16.1207
  247 16.7708 -303.524 -16.5861
  248 16.7708 -303.524 -16.5861
  249 32.8130 -265.566 54.8215
  250 32.8130 -265.566 54.8215
  251 485.974 3.34004 44.9941
  252 485.974 3.34004 44.9941
  253 507.066 1.91324 1.74700
  254 507.066 1.91324 1.74700
  255 502.965 8.02521 0.334183
  256 502.965 8.02521 0.334183
  257 472.425 -5.86670 -59.9843
  258 472.425 -5.86670 -59.9843
  259 507.344 1.74568 -1.85077
  260 507.344 1.74568 -1.85077
  261 559.799 -39.6247 38.4467
  262 559.799 -39.6247 38.4467
  263 520.347 1.80327 -8.65951
  264 520.347 1.80327 -8.65951
  265 404.435 -34.2785 -112.032
  266 404.435 -34.2785 -112.032
  267 684.759 52.8329 -0.602654
  268 684.759 52.8329 -0.602654
  269 502.305 11.0132 -22.6954
  270 502.305 11.0132 -22.6954
  271 500.455 10.3036 -4.48124
  272 500.455 10.3036 -4.48124
  273 427.007 20.7072 -41.1483
  274 427.007 20.7072 -41.1483
  275 131.291 -48.7714 34.3362
  276 131.291 -48.7714 34.3362
  277 534.098 -89.2495 115.425
  278 534.098 -89.2495 115.425
  279 505.603 7.43705 8.77185
  280 505.603 7.43705 8.77185
  281 745.288 52.5332 -12.4473
  282 745.288 52.5332 -12.4473
  283 885.330 79.1834 107.286
  284 885.330 79.1834 107.286
  285 599.383 -63.8008 39.1365
  286 599.383 -63.8008 39.1365
  287 435.380 21.6957 30.1105
  288 435.380 21.6957 30.1105
  289 548.348 -109.778 152.449
  290 548.348 -109.778 152.449
  291 566.540 -6.77284 14.1844
  292 566.540 -6.77284 14.1844
  293 505.294 4.89677 2.39448
  294 505.294 4.89677 2.39448
  295 498.403 13.5338 -14.4001
  296 498.403 13.5338 -14.4001
  297 503.084 7.89747 -0.657818
  298 503.084 7.89747 -0.657818
  299 509.977 1.39542 -3.34532
  300 509.977 1.39542 -3.34532
  301 519.915 2.53752 8.69280
  302 519.915 2.53752 8.69280
  303 495.800 13.7725 -3.68686
  304 495.800 13.7725 -3.68686
  305 113.968 -191.077 -139.833
  306 113.968 -191.077 -139.833
  307 342.948 22.5016 28.1757
  308 342.948 22.5016 28.1757
  309 505.815 4.08991 -2.29856
  310 505.815 4.08991 -2.29856
  311 447.336 25.6062 -20.1532
  312 447.336 25.6062 -20.1532
  313 448.493 27.9175 7.66115
  314 448.493 27.9175 7.66115
  315 504.808 7.15132 -6.20566
  316 504.808 7.15132 -6.20566
  317 673.939 36.6548 -5.03163
  318 673.939 36.6548 -5.03163
  319 501.182 11.9918 19.8401
  320 501.182 11.9918 19.8401
  321 637.326 20.6620 -14.8893
  322 637.326 20.6620 -14.8893
  323 928.130 26.0437 63.1963
  324 928.130 26.0437 63.1963
  325 499.395 12.4135 12.4240
  326 499.395 12.4135 12.4240
  327 491.777 16.4393 6.49931
  328 491.777 16.4393 6.49931
  329 382.367 -76.5498 -218.249
  330 382.367 -76.5498 -218.249
  331 510.275 1.26099 3.27202
  332 510.275 1.26099 3.27202
  333 499.999 10.3791 3.35007
  334 499.999 10.3791 3.35007
  335 482.186 21.3557 0.746283
  336 482.186 21.3557 0.746283
  337 250.331 -88.0993 174.687
  338 250.331 -88.0993 174.687
  339 619.713 40.8073 2.63795
  340 619.713 40.8073 2.63795
  341 35.3937 -259.916 -63.0337
  342 35.3937 -259.916 -63.0337
  343 389.654 24.5630 24.9874
  344 389.654 24.5630 24.9874
  345 878.727 11.7351 8.53653
  346 878.727 11.7351 8.53653
  347 917.858 47.0981 -65.3708
  348 917.858 47.0981 -65.3708
  349 436.729 -50.6849 125.374
  350 455.679 -26.0053 92.4177
  351 436.729 -50.6849 125.374
  352 455.679 -26.0053 92.4177
  353 891.524 21.8680 32.7671
  354 891.524 21.8680 32.7671
  355 516.664 -0.816053 35.0783
  356 516.664 -0.816053 35.0783
  357 608.194 -82.2063 -90.5832
  358 608.194 -82.2063 -90.5832
  359 581.049 -4.91896 15.9253
  360 581.049 -4.91896 15.9253
  361 390.373 -76.9357 238.220
  362 390.373 -76.9357 238.220
  363 677.563 54.2963 -1.75638
  364 677.563 54.2963 -1.75638
  365 890.018 7.91933 -6.80551
  366 890.018 7.91933 -6.80551
  367 548.774 0.162582 -17.0792
  368 548.774 0.162582 -17.0792
  369 491.772 17.4913 -7.78796
  370 491.772 17.4913 -7.78796
  371 753.963 58.6909 20.8520
  372 753.963 58.6909 20.8520
  373 582.660 24.5276 -3.48554
  374 582.660 24.5276 -3.48554
  375 529.365 1.94898 -10.7909
  376 529.365 1.94898 -10.7909
  377 146.531 -70.5931 -100.770
  378 146.531 -70.5931 -100.770
  379 584.739 -10.5862 3.87427
  380 584.739 -10.5862 3.87427
  381 501.833 -0.889779 -41.4682
  382 501.833 -0.889779 -41.4682
  383 577.416 -1.10476 -19.0928
  384 577.416 -1.10476 -19.0928
  385 894.633 15.6092 -27.0489
  386 894.633 15.6092 -27.0489
  387 503.610 7.65009 4.90305
  388 503.610 7.65009 4.90305
  389 613.302 30.3643 15.3901
  390 613.302 30.3643 15.3901
  391 658.580 -13.1317 9.33620
  392 658.580 -13.1317 9.33620
  393 505.396 9.00463 -10.9904
  394 505.396 9.00463 -10.9904
  395 946.237 93.5311 -123.999
  396 946.237 93.5311 -123.999
  397 576.715 -8.53785 -6.36129
  398 576.715 -8.53785 -6.36129
</Section>

newXOutput 151

<Section columns = "stress_xx | stress_yy | stress_xy">
  1 509.376 0.500009 -0.549144
  2 509.610 0.616703 0.740086
  3 509.376 0.500009 -0.549144
  4 509.610 0.616703 0.740086
  5 771.482 61.0110 223.987
  6 800.842 59.9165 -220.449
  7 771.482 61.0110 223.987
  8 800.842 59.9165 -220.449
  9 510.588 0.349187 -1.44411
  10 514.600 0.613912 -2.57364
  11 520.426 1.38334 -5.24462
  12 533.858 0.505108 -7.08143
  13 551.245 0.806630 -11.7136
  14 571.790 -5.21501 -11.7191
  15 591.017 -6.22185 -1.65119
  16 583.254 -4.21633 9.16991
  17 562.886 4.55403 16.4734
  18 551.730 10.9820 -0.646546
  19 559.781 5.24410 -15.5086
  20 582.739 -6.28621 -11.1606
  21 585.753 -7.56143 4.30259
  22 574.729 -3.43532 10.1267
  23 547.680 0.0938724 11.8079
  24 532.707 1.96097 8.97985
  25 520.790 1.58797 5.03648
  26 514.709 0.494242 2.35672
  27 510.875 0.413952 1.39641
  28 510.319 1.80609 0.863714
  29 509.459 3.69533 1.00812
  30 507.339 6.40641 0.899205
  31 506.493 7.44424 -0.0869568
  32 507.571 6.08008 -1.07631
  33 509.085 4.02891 -0.911472
  34 509.748 2.05096 -0.970645
  35 510.588 0.349187 -1.44411
  36 514.600 0.613912 -2.57364
  37 520.426 1.38334 -5.24462
  38 533.858 0.505108 -7.08143
  39 551.245 0.806630 -11.7136
  40 571.790 -5.21501 -11.7191
  41 591.017 -6.22185 -1.65119
  42 583.254 -4.21633 9.16991
  43 562.886 4.55403 16.4734
  44 551.730 10.9820 -0.646546
  45 559.781 5.24410 -15.5086
  46 582.739 -6.28621 -11.1606
  47 585.753 -7.56143 4.30259
  48 574.729 -3.43532 10.1267
  49 547.680 0.0938724 11.8079
  50 532.707 1.96097 8.97985
  51 520.790 1.58797 5.03648
  52 514.709 0.494242 2.35672
  53 510.875 0.413952 1.39641
  54 510.319 1.80609 0.863714
  55 509.459 3.69533 1.00812
  56 507.339 6.40641 0.899205
  57 506.493 7.44424 -0.0869568
  58 507.571 6.08008 -1.07631
  59 509.085 4.02891 -0.911472
  60 509.748 2.05096 -0.970645
  61 1063.59 57.0103 112.805
  62 971.380 15.7499 39.4165
  63 917.673 6.36428 14.3995
  64 906.129 4.65426 2.73171
  65 917.141 6.21956 -12.2732
  66 958.315 13.4572 -34.0705
  67 1073.64 49.5768 -97.1518
  68 144.183 -151.089 -186.038
  69 28.5706 -371.559 -49.9354
  70 7.37705 -427.942 -21.7865
  71 7.08048 -420.794 -10.3869
  72 12.7019 -407.992 23.3483
  73 31.1971 -360.007 52.9756
  74 155.713 -140.113 205.862
  75 1063.59 57.0103 112.805
  76 971.380 15.7499 39.4165
  77 917.673 6.36428 14.3995
  78 906.129 4.65426 2.73171
  79 917.141 6.21956 -12.2732
  80 958.315 13.4572 -34.0705
  81 1073.64 49.5768 -97.1518
  82 144.183 -151.089 -186.038
  83 28.5706 -371.559 -49.9354
  84 7.37705 -427.942 -21.7865
  85 7.08048 -420.794 -10.3869
  86 12.7019 -407.992 23.3483
  87 31.1971 -360.007 52.9756
  88 155.713 -140.113 205.862
  89 469.720 26.6192 -6.87882
  90 469.720 26.6192 -6.87882
  91 429.252 6.02756 62.7970
  92 412.609 -2.45451 -75.1600
  93 429.252 6.02756 62.7970
  94 412.609 -2.45451 -75.1600
  95 245.794 7.12232 30.4537
  96 245.794 7.12232 30.4537
  97 627.323 40.6657 -8.69687
  98 638.127 23.8587 17.0056
  99 627.323 40.6657 -8.69687
  100 638.127 23.8587 17.0056
  101 502.593 11.9719 6.76984
  102 502.593 11.9719 6.76984
  103 598.515 -34.0802 2.53948
  104 598.515 -34.0802 2.53948
  105 503.164 12.5239 -8.36049
  106 503.164 12.5239 -8.36049
  107 587.024 -72.8870 -67.8903
  108 587.024 -72.8870 -67.8903
  109 412.741 -86.4167 167.768
  110 412.741 -86.4167 167.768
  111 280.928 -50.1913 -135.738
  112 280.928 -50.1913 -135.738
  113 505.024 8.33540 29.5145
  114 505.024 8.33540 29.5145
  115 522.837 3.39442 -28.3038
  116 522.837 3.39442 -28.3038
  117 706.055 48.6792 10.1634
  118 755.010 48.5422 4.83679
  119 706.055 48.6792 10.1634
  120 755.010 48.5422 4.83679
  121 740.006 63.2023 -21.7867
  122 740.006 63.2023 -21.7867
  123 82.7362 -132.866 -45.5532
  124 82.7362 -132.866 -45.5532
  125 636.131 -78.5106 74.7230
  126 636.131 -78.5106 74.7230
  127 540.032 -13.1633 33.8504
  128 540.032 -13.1633 33.8504
  129 125.916 -114.500 104.134
  130 125.916 -114.500 104.134
  131 503.283 9.98501 -0.423921
  132 503.283 9.98501 -0.423921
  133 539.026 -25.2998 -43.3495
  134 539.026 -25.2998 -43.3495
  135 510.825 4.09466 4.87275
  136 510.825 4.09466 4.87275
  137 511.236 3.60542 -4.54229
  138 511.236 3.60542 -4.54229
  139 516.660 6.99072 -14.6812
  140 516.660 6.99072 -14.6812
  141 514.397 6.82030 13.2002
  142 514.397 6.82030 13.2002
  143 493.584 16.6943 -0.544014
  144 493.584 16.6943 -0.544014
  145 414.752 27.3695 -3.22425
  146 414.752 27.3695 -3.22425
  147 595.974 -21.1797 7.55129
  148 595.974 -21.1797 7.55129
  149 678.045 -21.8605 -30.4573
  150 678.045 -21.8605 -30.4573
  151 526.050 -59.0258 83.3855
  152 526.050 -59.0258 83.3855
  153 397.141 -106.997 -190.001
  154 397.141 -106.997 -190.001
  155 470.578 19.1515 28.1720
  156 470.578 19.1515 28.1720
  157 606.584 -3.37607 -20.2195
  158 606.584 -3.37607 -20.2195
  159 821.023 66.2141 49.0171
  160 821.023 66.2141 49.0171
  161 413.368 -115.186 219.173
  162 413.368 -115.186 219.173
  163 836.956 27.1889 -9.72039
  164 836.956 27.1889 -9.72039
  165 491.652 16.6581 12.9686
  166 491.652 16.6581 12.9686
  167 467.617 15.8515 -41.3599
  168 467.617 15.8515 -41.3599
  169 578.293 17.7370 12.5705
  170 578.293 17.7370 12.5705
  171 487.223 19.9056 -14.7570
  172 487.223 19.9056 -14.7570
  173 506.185 8.02168 2.13122
  174 506.185 8.02168 2.13122
  175 514.118 3.89324 -7.76540
  176 514.118 3.89324 -7.76540
  177 788.086 64.4538 -50.2960
  178 788.086 64.4538 -50.2960
  179 506.562 7.81112 -2.57128
  180 506.562 7.81112 -2.57128
  181 376.678 27.5736 -21.6429
  182 376.678 27.5736 -21.6429
  183 671.831 50.0445 2.47792
  184 671.831 50.0445 2.47792
  185 137.751 -112.448 -134.149
  186 137.751 -112.448 -134.149
  187 370.442 -3.75155 91.7131
  188 370.442 -3.75155 91.7131
  189 490.793 -79.7095 -130.000
  190 490.793 -79.7095 -130.000
  191 579.506 -16.0677 7.91022
  192 579.506 -16.0677 7.91022
  193 542.680 -1.95077 20.6600
  194 542.680 -1.95077 20.6600
  195 733.329 24.1424 48.0094
  196 733.329 24.1424 48.0094
  197 310.210 10.2926 -56.7908
  198 310.210 10.2926 -56.7908
  199 830.458 36.7390 22.4578
  200 830.458 36.7390 22.4578
  201 552.609 -6.91427 -21.9416
  202 552.609 -6.91427 -21.9416
  203 514.894 2.77642 7.15722
  204 514.894 2.77642 7.15722
  205 574.948 -22.7184 -12.0878
  206 574.948 -22.7184 -12.0878
  207 627.742 -31.1531 -6.49942
  208 627.742 -31.1531 -6.49942
  209 39.4638 -233.654 20.3413
  210 39.4638 -233.654 20.3413
  211 530.448 2.67741 -18.0676
  212 530.448 2.67741 -18.0676
  213 526.155 4.06249 15.7463
  214 526.155 4.06249 15.7463
  215 506.027 -46.6834 -82.5146
  216 506.027 -46.6834 -82.5146
  217 590.681 -12.5496 -12.2729
  218 590.681 -12.5496 -12.2729
  219 485.439 17.3670 -28.1470
  220 485.439 17.3670 -28.1470
  221 133.806 -164.916 147.681
  222 133.806 -164.916 147.681
  223 599.151 3.07054 19.2819
  224 599.151 3.07054 19.2819
  225 583.181 15.0881 -16.5585
  226 583.181 15.0881 -16.5585
  227 821.825 48.9984 -38.8266
  228 821.825 48.9984 -38.8266
  229 630.037 -22.8853 -8.02703
  230 630.037 -22.8853 -8.02703
  231 684.692 -27.3428 -126.296
  232 684.692 -27.3428 -126.296
  233 507.993 -22.9789 63.2802
  234 507.993 -22.9789 63.2802
  235 498.813 13.9282 2.18183
  236 498.813 13.9282 2.18183
  237 266.643 -38.6439 120.069
  238 266.643 -38.6439 120.069
  239 655.213 -54.0892 146.835
  240 655.213 -54.0892 146.835
  241 182.351 -22.3126 -59.5852
  242 182.351 -22.3126 -59.5852
  243 586.379 -44.2447 -29.6739
  244 586.379 -44.2447 -29.6739
  245 480.872 21.5005 16.2175
  246 480.872 21.5005 16.2175
  247 16.8693 -305.490 -16.7112
  248 16.8693 -305.490 -16.7112
  249 33.0189 -267.258 55.2312
  250 33.0189 -267.258 55.2312
  251 489.053 3.36019 45.2733
  252 489.053 3.36019 45.2733
  253 510.267 1.92489 1.75663
  254 510.267 1.92489 1.75663
  255 506.145 8.07307 0.336074
  256 506.145 8.07307 0.336074
  257 475.421 -5.90462 -60.3612
  258 475.421 -5.90462 -60.3612
  259 510.546 1.75639 -1.86098
  260 510.546 1.75639 -1.86098
  261 563.299 -39.8772 38.7060
  262 563.299 -39.8772 38.7060
  263 523.620 1.81377 -8.70907
  264 523.620 1.81377 -8.70907
  265 407.008 -34.4974 -112.752
  266 407.008 -34.4974 -112.752
  267 689.029 53.1686 -0.573997
  268 689.029 53.1686 -0.573997
  269 505.481 11.0796 -22.8310
  270 505.481 11.0796 -22.8310
  271 503.622 10.3656 -4.50665
  272 503.622 10.3656 -4.50665
  273 429.744 20.8389 -41.4042
  274 429.744 20.8389 -41.4042
  275 132.165 -49.0475 34.5698
  276 132.165 -49.0475 34.5698
  277 537.421 -89.8194 116.182
  278 537.421 -89.8194 116.182
  279 508.797 7.48182 8.82190
  280 508.797 7.48182 8.82190
  281 749.895 52.8535 -12.5409
  282 749.895 52.8535 -12.5409
  283 890.668 79.7357 108.002
  284 890.668 79.7357 108.002
  285 603.107 -64.2004 39.4209
  286 603.107 -64.2004 39.4209
  287 438.169 21.8327 30.2959
  288 438.169 21.8327 30.2959
  289 551.739 -110.474 153.454
  290 551.739 -110.474 153.454
  291 570.082 -6.81773 14.2774
  292 570.082 -6.81773 14.2774
  293 508.486 4.92617 2.40781
  294 508.486 4.92617 2.40781
  295 501.558 13.6158 -14.4843
  296 501.558 13.6158 -14.4843
  297 506.264 7.94460 -0.661484
  298 506.264 7.94460 -0.661484
  299 513.194 1.40388 -3.36397
  300 513.194 1.40388 -3.36397
  301 523.186 2.55249 8.74254
  302 523.186 2.55249 8.74254
  303 498.941 13.8557 -3.70809
  304 498.941 13.8557 -3.70809
  305 114.686 -192.231 -140.821
  306 114.686 -192.231 -140.821
  307 345.177 22.6512 28.3534
  308 345.177 22.6512 28.3534
  309 509.009 4.11456 -2.31131
  310 509.009 4.11456 -2.31131
  311 450.198 25.7662 -20.2769
  312 450.198 25.7662 -20.2769
  313 451.362 28.0918 7.70760
  314 451.362 28.0918 7.70760
  315 507.997 7.19436 -6.24080
  316 507.997 7.19436 -6.24080
  317 678.130 36.9104 -5.12270
  318 678.130 36.9104 -5.12270
  319 504.352 12.0644 19.9575
  320 504.352 12.0644 19.9575
  321 641.311 20.8060 -14.9371
  322 641.311 20.8060 -14.9371
  323 933.688 26.1940 63.5895
  324 933.688 26.1940 63.5895
  325 502.556 12.4886 12.4962
  326 502.556 12.4886 12.4962
  327 494.897 16.5391 6.53710
  328 494.897 16.5391 6.53710
  329 384.720 -76.8884 -219.735
  330 384.720 -76.8884 -219.735
  331 513.494 1.26862 3.29024
  332 513.494 1.26862 3.29024
  333 503.164 10.4415 3.36910
  334 503.164 10.4415 3.36910
  335 485.251 21.4864 0.750663
  336 485.251 21.4864 0.750663
  337 251.937 -88.6547 175.860
  338 251.937 -88.6547 175.860
  339 623.618 41.0693 2.64681
  340 623.618 41.0693 2.64681
  341 35.6118 -261.568 -63.4956
  342 35.6118 -261.568 -63.4956
  343 392.171 24.7210 25.1427
  344 392.171 24.7210 25.1427
  345 884.003 11.8000 8.58526
  346 884.003 11.8000 8.58526
  347 923.376 47.3936 -65.7828
  348 923.376 47.3936 -65.7828
  349 439.488 -51.0102 126.180
  350 458.564 -26.1708 93.0029
  351 439.488 -51.0102 126.180
  352 458.564 -26.1708 93.0029
  353 896.879 21.9916 32.9650
  354 896.879 21.9916 32.9650
  355 519.921 -0.823184 35.2955
  356 519.921 -0.823184 35.2955
  357 611.948 -82.7165 -91.2005
  358 611.948 -82.7165 -91.2005
  359 584.705 -4.94776 16.0047
  360 584.705 -4.94776 16.0047
  361 392.758 -77.2853 239.829
  362 392.758 -77.2853 239.829
  363 681.798 54.6348 -1.76591
  364 681.798 54.6348 -1.76591
  365 895.346 7.96251 -6.84578
  366 895.346 7.96251 -6.84578
  367 552.208 0.161196 -17.1833
  368 552.208 0.161196 -17.1833
  369 494.891 17.5977 -7.83342
  370 494.891 17.5977 -7.83342
  371 758.617 59.0566 21.0134
  372 758.617 59.0566 21.0134
  373 586.352 24.6871 -3.50303
  374 586.352 24.6871 -3.50303
  375 532.688 1.95980 -10.8538
  376 532.688 1.95980 -10.8538
  377 147.504 -71.0174 -101.456
  378 147.504 -71.0174 -101.456
  379 588.399 -10.6539 3.88334
  380 588.399 -10.6539 3.88334
  381 505.003 -0.897419 -41.7268
  382 505.003 -0.897419 -41.7268
  383 581.060 -1.10973 -19.1897
  384 581.060 -1.10973 -19.1897
  385 900.001 15.6990 -27.2105
  386 900.001 15.6990 -27.2105
  387 506.793 7.69601 4.93074
  388 506.793 7.69601 4.93074
  389 617.160 30.5645 15.4572
  390 617.160 30.5645 15.4572
  391 662.661 -13.1899 9.45586
  392 662.661 -13.1899 9.45586
  393 508.589 9.05894 -11.0536
  394 508.589 9.05894 -11.0536
  395 951.901 94.1928 -124.816
  396 951.901 94.1928 -124.816
  397 580.317 -8.59426 -6.40817
  398 580.317 -8.59426 -6.40817
</Section>

newXOutput 152

<Section columns = "stress_xx | stress_yy | stress_xy">
  1 512.570 0.503219 -0.552103
  2 512.806 0.620582 0.744065
  3 512.570 0.503219 -0.552103
  4 512.806 0.620582 0.744065
  5 776.054 61.5762 225.461
  6 805.574 60.4821 -221.902
  7 776.054 61.5762 225.461
  8 805.574 60.4821 -221.902
  9 513.788 0.351356 -1.45196
  10 517.821 0.617636 -2.58778
  11 523.678 1.39154 -5.27391
  12 537.183 0.507830 -7.12172
  13 554.667 0.810303 -11.7827
  14 575.332 -5.25011 -11.7921
  15 594.678 -6.26243 -1.66764
  16 586.895 -4.24262 9.21383
  17 566.435 4.58617 16.5593
  18 555.227 11.0550 -0.650007
  19 563.313 5.27848 -15.5905
  20 586.378 -6.32578 -11.2137
  21 589.384 -7.61089 4.33673
  22 578.287 -3.45824 10.1904
  23 551.084 0.0926727 11.8782
  24 536.026 1.97220 9.03123
  25 524.045 1.59739 5.06453
  26 517.931 0.497255 2.36965
  27 514.077 0.416547 1.40404
  28 513.518 1.81701 0.868341
  29 512.653 3.71743 1.01361
  30 510.523 6.44436 0.904152
  31 509.673 7.48822 -0.0874305
  32 510.756 6.11616 -1.08218
  33 512.277 4.05300 -0.916316
  34 512.943 2.06342 -0.975937
  35 513.788 0.351356 -1.45196
  36 517.821 0.617636 -2.58778
  37 523.678 1.39154 -5.27391
  38 537.183 0.507830 -7.12172
  39 554.667 0.810303 -11.7827
  40 575.332 -5.25011 -11.7921
  41 594.678 -6.26243 -1.66764
  42 586.895 -4.24262 9.21383
  43 566.435 4.58617 16.5593
  44 555.227 11.0550 -0.650007
  45 563.313 5.27848 -15.5905
  46 586.378 -6.32578 -11.2137
  47 589.384 -7.61089 4.33673
  48 578.287 -3.45824 10.1904
  49 551.084 0.0926727 11.8782
  50 536.026 1.97220 9.03123
  51 524.045 1.59739 5.06453
  52 517.931 0.497255 2.36965
  53 514.077 0.416547 1.40404
  54 513.518 1.81701 0.868341
  55 512.653 3.71743 1.01361
  56 510.523 6.44436 0.904152
  57 509.673 7.48822 -0.0874305
  58 510.756 6.11616 -1.08218
  59 512.277 4.05300 -0.916316
  60 512.943 2.06342 -0.975937
  61 1069.81 57.3759 113.491
  62 977.090 15.8397 39.6459
  63 923.099 6.39620 14.4800
  64 911.491 4.67869 2.74511
  65 922.562 6.25333 -12.3414
  66 963.959 13.5328 -34.2659
  67 1079.92 49.8937 -97.7435
  68 145.067 -151.848 -187.321
  69 28.7469 -373.922 -50.3251
  70 7.40848 -430.764 -21.9562
  71 7.11138 -423.580 -10.4553
  72 12.7713 -410.667 23.5310
  73 31.3935 -362.294 53.3909
  74 156.654 -140.804 207.275
  75 1069.81 57.3759 113.491
  76 977.090 15.8397 39.6459
  77 923.099 6.39620 14.4800
  78 911.491 4.67869 2.74511
  79 922.562 6.25333 -12.3414
  80 963.959 13.5328 -34.2659
  81 1079.92 49.8937 -97.7435
  82 145.067 -151.848 -187.321
  83 28.7469 -373.922 -50.3251
  84 7.40848 -430.764 -21.9562
  85 7.11138 -423.580 -10.4553
  86 12.7713 -410.667 23.5310
  87 31.3935 -362.294 53.3909
  88 156.654 -140.804 207.275
  89 472.694 26.7827 -6.92015
  90 472.694 26.7827 -6.92015
  91 431.977 6.06712 63.1873
  92 415.230 -2.46821 -75.6316
  93 431.977 6.06712 63.1873
  94 415.230 -2.46821 -75.6316
  95 247.405 7.18439 30.6494
  96 247.405 7.18439 30.6494
  97 631.243 40.9257 -8.73216
  98 642.092 24.0224 17.0650
  99 631.243 40.9257 -8.73216
  100 642.092 24.0224 17.0650
  101 505.751 12.0436 6.80835
  102 505.751 12.0436 6.80835
  103 602.227 -34.2921 2.58903
  104 602.227 -34.2921 2.58903
  105 506.326 12.5990 -8.40820
  106 506.326 12.5990 -8.40820
  107 590.643 -73.3458 -68.3436
  108 590.643 -73.3458 -68.3436
  109 415.323 -86.9680 168.856
  110 415.323 -86.9680 168.856
  111 282.724 -50.5024 -136.627
  112 282.724 -50.5024 -136.627
  113 508.194 8.38484 29.6922
  114 508.194 8.38484 29.6922
  115 526.107 3.41268 -28.4758
  116 526.107 3.41268 -28.4758
  117 710.407 49.0033 10.2851
  118 759.638 48.8324 4.87573
  119 710.407 49.0033 10.2851
  120 759.638 48.8324 4.87573
  121 744.555 63.6055 -21.9660
  122 744.555 63.6055 -21.9660
  123 83.2755 -133.676 -45.8725
  124 83.2755 -133.676 -45.8725
  125 640.026 -78.9821 75.2460
  126 640.026 -78.9821 75.2460
  127 543.400 -13.2481 34.0659
  128 543.400 -13.2481 34.0659
  129 126.734 -115.193 104.853
  130 126.734 -115.193 104.853
  131 506.446 10.0445 -0.426248
  132 506.446 10.0445 -0.426248
  133 542.385 -25.4611 -43.6293
  134 542.385 -25.4611 -43.6293
  135 514.027 4.11917 4.89988
  136 514.027 4.11917 4.89988
  137 514.440 3.62709 -4.56748
  138 514.440 3.62709 -4.56748
  139 519.894 7.03211 -14.7662
  140 519.894 7.03211 -14.7662
  141 517.619 6.86088 13.2762
  142 517.619 6.86088 13.2762
  143 496.693 16.7949 -0.547287
  144 496.693 16.7949 -0.547287
  145 417.405 27.5415 -3.24452
  146 417.405 27.5415 -3.24452
  147 599.679 -21.3098 7.56885
  148 599.679 -21.3098 7.56885
  149 682.202 -21.9593 -30.7176
  150 682.202 -21.9593 -30.7176
  151 529.319 -59.4004 83.9219
  152 529.319 -59.4004 83.9219
  153 399.605 -107.654 -191.265
  154 399.605 -107.654 -191.265
  155 473.554 19.2698 28.3427
  156 473.554 19.2698 28.3427
  157 610.358 -3.39075 -20.3088
  158 610.358 -3.39075 -20.3088
  159 826.004 66.6349 49.3545
  160 826.004 66.6349 49.3545
  161 415.927 -115.904 220.617
  162 415.927 -115.904 220.617
  163 842.001 27.3434 -9.78168
  164 842.001 27.3434 -9.78168
  165 494.750 16.7588 13.0445
  166 494.750 16.7588 13.0445
  167 470.573 15.9499 -41.6135
  168 470.573 15.9499 -41.6135
  169 581.934 17.8544 12.6347
  170 581.934 17.8544 12.6347
  171 490.297 20.0265 -14.8440
  172 490.297 20.0265 -14.8440
  173 509.363 8.06934 2.14309
  174 509.363 8.06934 2.14309
  175 517.338 3.91639 -7.80916
  176 517.338 3.91639 -7.80916
  177 792.879 64.8944 -50.6725
  178 792.879 64.8944 -50.6725
  179 509.742 7.85763 -2.58556
  180 509.742 7.85763 -2.58556
  181 379.099 27.7513 -21.7780
  182 379.099 27.7513 -21.7780
  183 676.001 50.3626 2.46051
  184 676.001 50.3626 2.46051
  185 138.638 -113.129 -135.070
  186 138.638 -113.129 -135.070
  187 372.806 -3.77108 92.2927
  188 372.806 -3.77108 92.2927
  189 493.842 -80.2163 -130.843
  190 493.842 -80.2163 -130.843
  191 583.107 -16.1706 7.97482
  192 583.107 -16.1706 7.97482
  193 546.060 -1.96542 20.7865
  194 546.060 -1.96542 20.7865
  195 737.807 24.3422 48.3838
  196 737.807 24.3422 48.3838
  197 312.217 10.3676 -57.1528
  198 312.217 10.3676 -57.1528
  199 835.477 36.9534 22.6033
  200 835.477 36.9534 22.6033
  201 556.048 -6.96031 -22.0810
  202 556.048 -6.96031 -22.0810
  203 518.118 2.79284 7.19746
  204 518.118 2.79284 7.19746
  205 578.520 -22.8641 -12.1799
  206 578.520 -22.8641 -12.1799
  207 631.621 -31.3370 -6.58694
  208 631.621 -31.3370 -6.58694
  209 39.7144 -235.134 20.4895
  210 39.7144 -235.134 20.4895
  211 533.758 2.69161 -18.1748
  212 533.758 2.69161 -18.1748
  213 529.442 4.08612 15.8388
  214 529.442 4.08612 15.8388
  215 509.185 -46.9796 -83.0429
  216 509.185 -46.9796 -83.0429
  217 594.360 -12.6281 -12.3238
  218 594.360 -12.6281 -12.3238
  219 488.500 17.4733 -28.3171
  220 488.500 17.4733 -28.3171
  221 134.648 -165.909 148.709
  222 134.648 -165.909 148.709
  223 602.892 3.09782 19.3709
  224 602.892 3.09782 19.3709
  225 586.845 15.1886 -16.6408
  226 586.845 15.1886 -16.6408
  227 826.805 49.2939 -39.0865
  228 826.805 49.2939 -39.0865
  229 633.932 -23.0168 -8.02904
  230 633.932 -23.0168 -8.02904
  231 688.852 -27.4363 -127.170
  232 688.852 -27.4363 -127.170
  233 511.169 -23.1243 63.6785
  234 511.169 -23.1243 63.6785
  235 501.952 14.0118 2.19432
  236 501.952 14.0118 2.19432
  237 268.357 -38.8794 120.853
  238 268.357 -38.8794 120.853
  239 659.193 -54.3647 147.833
  240 659.193 -54.3647 147.833
  241 183.550 -22.4293 -59.9788
  242 183.550 -22.4293 -59.9788
  243 590.009 -44.5236 -29.8849
  244 590.009 -44.5236 -29.8849
  245 483.909 21.6320 16.3141
  246 483.909 21.6320 16.3141
  247 16.9676 -307.455 -16.8365
  248 16.9676 -307.455 -16.8365
  249 33.2246 -268.948 55.6414
  250 33.2246 -268.948 55.6414
  251 492.129 3.38030 45.5522
  252 492.129 3.38030 45.5522
  253 513.466 1.93652 1.76625
  254 513.466 1.93652 1.76625
  255 509.323 8.12086 0.337962
  256 509.323 8.12086 0.337962
  257 478.414 -5.94252 -60.7378
  258 478.414 -5.94252 -60.7378
  259 513.746 1.76708 -1.87117
  260 513.746 1.76708 -1.87117
  261 566.796 -40.1295 38.9653
  262 566.796 -40.1295 38.9653
  263 526.890 1.82424 -8.75853
  264 526.890 1.82424 -8.75853
  265 409.579 -34.7161 -113.471
  266 409.579 -34.7161 -113.471
  267 693.296 53.5040 -0.544975
  268 693.296 53.5040 -0.544975
  269 508.654 11.1459 -22.9664
  270 508.654 11.1459 -22.9664
  271 506.786 10.4275 -4.53200
  272 506.786 10.4275 -4.53200
  273 432.480 20.9705 -41.6599
  274 432.480 20.9705 -41.6599
  275 133.038 -49.3230 34.8034
  276 133.038 -49.3230 34.8034
  277 540.742 -90.3889 116.940
  278 540.742 -90.3889 116.940
  279 511.988 7.52652 8.87185
  280 511.988 7.52652 8.87185
  281 754.496 53.1735 -12.6345
  282 754.496 53.1735 -12.6345
  283 895.999 80.2882 108.717
  284 895.999 80.2882 108.717
  285 606.827 -64.5997 39.7056
  286 606.827 -64.5997 39.7056
  287 440.957 21.9697 30.4811
  288 440.957 21.9697 30.4811
  289 555.126 -111.169 154.458
  290 555.126 -111.169 154.458
  291 573.621 -6.86262 14.3703
  292 573.621 -6.86262 14.3703
  293 511.675 4.95553 2.42111
  294 511.675 4.95553 2.42111
  295 504.711 13.6978 -14.5683
  296 504.711 13.6978 -14.5683
  297 509.443 7.99165 -0.665142
  298 509.443 7.99165 -0.665142
  299 516.408 1.41232 -3.38257
  300 516.408 1.41232 -3.38257
  301 526.455 2.56743 8.79217
  302 526.455 2.56743 8.79217
  303 502.080 13.9388 -3.72928
  304 502.080 13.9388 -3.72928
  305 115.404 -193.384 -141.809
  306 115.404 -193.384 -141.809
  307 347.404 22.8008 28.5309
  308 347.404 22.8008 28.5309
  309 512.201 4.13918 -2.32403
  310 512.201 4.13918 -2.32403
  311 453.058 25.9260 -20.4004
  312 453.058 25.9260 -20.4004
  313 454.230 28.2659 7.75398
  314 454.230 28.2659 7.75398
  315 511.184 7.23735 -6.27586
  316 511.184 7.23735 -6.27586
  317 682.318 37.1662 -5.21442
  318 682.318 37.1662 -5.21442
  319 507.520 12.1370 20.0747
  320 507.520 12.1370 20.0747
  321 645.292 20.9500 -14.9844
  322 645.292 20.9500 -14.9844
  323 939.239 26.3440 63.9822
  324 939.239 26.3440 63.9822
  325 505.714 12.5637 12.5683
  326 505.714 12.5637 12.5683
  327 498.014 16.6387 6.57482
  328 498.014 16.6387 6.57482
  329 387.071 -77.2249 -221.221
  330 387.071 -77.2249 -221.221
  331 516.710 1.27625 3.30842
  332 516.710 1.27625 3.30842
  333 506.325 10.5037 3.38809
  334 506.325 10.5037 3.38809
  335 488.315 21.6169 0.755036
  336 488.315 21.6169 0.755036
  337 253.541 -89.2097 177.033
  338 253.541 -89.2097 177.033
  339 627.519 41.3313 2.65556
  340 627.519 41.3313 2.65556
  341 35.8295 -263.219 -63.9579
  342 35.8295 -263.219 -63.9579
  343 394.686 24.8789 25.2978
  344 394.686 24.8789 25.2978
  345 889.271 11.8647 8.63390
  346 889.271 11.8647 8.63390
  347 928.886 47.6888 -66.1944
  348 928.886 47.6888 -66.1944
  349 442.244 -51.3353 126.985
  350 461.447 -26.3362 93.5876
  351 442.244 -51.3353 126.985
  352 461.447 -26.3362 93.5876
  353 902.226 22.1150 33.1626
  354 902.226 22.1150 33.1626
  355 523.175 -0.830335 35.5125
  356 523.175 -0.830335 35.5125
  357 615.697 -83.2262 -91.8178
  358 615.697 -83.2262 -91.8178
  359 588.359 -4.97650 16.0838
  360 588.359 -4.97650 16.0838
  361 395.140 -77.6329 241.438
  362 395.140 -77.6329 241.438
  363 686.029 54.9731 -1.77540
  364 686.029 54.9731 -1.77540
  365 900.667 8.00558 -6.88598
  366 900.667 8.00558 -6.88598
  367 555.640 0.159781 -17.2873
  368 555.640 0.159781 -17.2873
  369 498.007 17.7039 -7.87879
  370 498.007 17.7039 -7.87879
  371 763.265 59.4220 21.1750
  372 763.265 59.4220 21.1750
  373 590.040 24.8465 -3.52046
  374 590.040 24.8465 -3.52046
  375 536.008 1.97060 -10.9166
  376 536.008 1.97060 -10.9166
  377 148.477 -71.4411 -102.143
  378 148.477 -71.4411 -102.143
  379 592.056 -10.7215 3.89221
  380 592.056 -10.7215 3.89221
  381 508.171 -0.905078 -41.9851
  382 508.171 -0.905078 -41.9851
  383 584.700 -1.11466 -19.2861
  384 584.700 -1.11466 -19.2861
  385 905.361 15.7886 -27.3719
  386 905.361 15.7886 -27.3719
  387 509.974 7.74187 4.95837
  388 509.974 7.74187 4.95837
  389 621.014 30.7648 15.5239
  390 621.014 30.7648 15.5239
  391 666.737 -13.2477 9.57618
  392 666.737 -13.2477 9.57618
  393 511.780 9.11317 -11.1166
  394 511.780 9.11317 -11.1166
  395 957.556 94.8548 -125.633
  396 957.556 94.8548 -125.633
  397 583.915 -8.65065 -6.45509
  398 583.915 -8.65065 -6.45509
</Section>

newXOutput 153

<Section columns = "stress_xx | stress_yy | stress_xy">
  1 515.761 0.506427 -0.555054
  2 515.999 0.624459 0.748033
  3 515.761 0.506427 -0.555054
  4 515.999 0.624459 0.748033
  5 780.620 62.1433 226.935
  6 810.298 61.0497 -223.354
  7 780.620 62.1433 226.935
  8 810.298 61.0497 -223.354
  9 516.986 0.353523 -1.45978
  10 521.040 0.621356 -2.60189
  11 526.928 1.39972 -5.30314
  12 540.505 0.510543 -7.16194
  13 558.087 0.813956 -11.8517
  14 578.870 -5.28521 -11.8651
  15 598.335 -6.30299 -1.68414
  16 590.532 -4.26889 9.25756
  17 569.981 4.61833 16.6450
  18 558.722 11.1280 -0.653457
  19 566.843 5.31285 -15.6721
  20 590.014 -6.36532 -11.2666
  21 593.011 -7.66033 4.37092
  22 581.843 -3.48116 10.2540
  23 554.485 0.0914519 11.9483
  24 539.343 1.98341 9.08251
  25 527.297 1.60680 5.09252
  26 521.150 0.500265 2.38254
  27 517.276 0.419139 1.41166
  28 516.714 1.82790 0.872955
  29 515.845 3.73949 1.01908
  30 513.704 6.48226 0.909087
  31 512.850 7.53214 -0.0879031
  32 513.938 6.15218 -1.08804
  33 515.467 4.07706 -0.921147
  34 516.136 2.07586 -0.981215
  35 516.986 0.353523 -1.45978
  36 521.040 0.621356 -2.60189
  37 526.928 1.39972 -5.30314
  38 540.505 0.510543 -7.16194
  39 558.087 0.813956 -11.8517
  40 578.870 -5.28521 -11.8651
  41 598.335 -6.30299 -1.68414
  42 590.532 -4.26889 9.25756
  43 569.981 4.61833 16.6450
  44 558.722 11.1280 -0.653457
  45 566.843 5.31285 -15.6721
  46 590.014 -6.36532 -11.2666
  47 593.011 -7.66033 4.37092
  48 581.843 -3.48116 10.2540
  49 554.485 0.0914519 11.9483
  50 539.343 1.98341 9.08251
  51 527.297 1.60680 5.09252
  52 521.150 0.500265 2.38254
  53 517.276 0.419139 1.41166
  54 516.714 1.82790 0.872955
  55 515.845 3.73949 1.01908
  56 513.704 6.48226 0.909087
  57 512.850 7.53214 -0.0879031
  58 513.938 6.15218 -1.08804
  59 515.467 4.07706 -0.921147
  60 516.136 2.07586 -0.981215
  61 1076.01 57.7412 114.177
  62 982.792 15.9293 39.8750
  63 928.515 6.42800 14.5603
  64 916.845 4.70305 2.75846
  65 927.975 6.28701 -12.4094
  66 969.595 13.6083 -34.4610
  67 1086.18 50.2104 -98.3345
  68 145.949 -152.605 -188.603
  69 28.9230 -376.284 -50.7155
  70 7.43970 -433.585 -22.1262
  71 7.14208 -426.365 -10.5236
  72 12.8404 -413.341 23.7140
  73 31.5898 -364.581 53.8070
  74 157.594 -141.492 208.688
  75 1076.01 57.7412 114.177
  76 982.792 15.9293 39.8750
  77 928.515 6.42800 14.5603
  78 916.845 4.70305 2.75846
  79 927.975 6.28701 -12.4094
  80 969.595 13.6083 -34.4610
  81 1086.18 50.2104 -98.3345
  82 145.949 -152.605 -188.603
  83 28.9230 -376.284 -50.7155
  84 7.43970 -433.585 -22.1262
  85 7.14208 -426.365 -10.5236
  86 12.8404 -413.341 23.7140
  87 31.5898 -364.581 53.8070
  88 157.594 -141.492 208.688
  89 475.667 26.9460 -6.96142
  90 475.667 26.9460 -6.96142
  91 434.699 6.10666 63.5773
  92 417.851 -2.48188 -76.1028
  93 434.699 6.10666 63.5773
  94 417.851 -2.48188 -76.1028
  95 249.015 7.24662 30.8451
  96 249.015 7.24662 30.8451
  97 635.160 41.1855 -8.76719
  98 646.053 24.1862 17.1239
  99 635.160 41.1855 -8.76719
  100 646.053 24.1862 17.1239
  101 508.908 12.1152 6.84678
  102 508.908 12.1152 6.84678
  103 605.935 -34.5039 2.63896
  104 605.935 -34.5039 2.63896
  105 509.485 12.6741 -8.45581
  106 509.485 12.6741 -8.45581
  107 594.259 -73.8042 -68.7968
  108 594.259 -73.8042 -68.7968
  109 417.904 -87.5191 169.944
  110 417.904 -87.5191 169.944
  111 284.518 -50.8133 -137.515
  112 284.518 -50.8133 -137.515
  113 511.362 8.43421 29.8697
  114 511.362 8.43421 29.8697
  115 529.375 3.43090 -28.6476
  116 529.375 3.43090 -28.6476
  117 714.755 49.3275 10.4073
  118 764.260 49.1223 4.91473
  119 714.755 49.3275 10.4073
  120 764.260 49.1223 4.91473
  121 749.099 64.0086 -22.1456
  122 749.099 64.0086 -22.1456
  123 83.8146 -134.484 -46.1920
  124 83.8146 -134.484 -46.1920
  125 643.917 -79.4528 75.7692
  126 643.917 -79.4528 75.7692
  127 546.765 -13.3329 34.2813
  128 546.765 -13.3329 34.2813
  129 127.553 -115.886 105.572
  130 127.553 -115.886 105.572
  131 509.606 10.1039 -0.428570
  132 509.606 10.1039 -0.428570
  133 545.741 -25.6223 -43.9089
  134 545.741 -25.6223 -43.9089
  135 517.226 4.14365 4.92694
  136 517.226 4.14365 4.92694
  137 517.641 3.64874 -4.59262
  138 517.641 3.64874 -4.59262
  139 523.126 7.07343 -14.8511
  140 523.126 7.07343 -14.8511
  141 520.838 6.90141 13.3520
  142 520.838 6.90141 13.3520
  143 499.801 16.8954 -0.550555
  144 499.801 16.8954 -0.550555
  145 420.056 27.7134 -3.26478
  146 420.056 27.7134 -3.26478
  147 603.379 -21.4398 7.58604
  148 603.379 -21.4398 7.58604
  149 686.355 -22.0576 -30.9786
  150 686.355 -22.0576 -30.9786
  151 532.586 -59.7749 84.4580
  152 532.586 -59.7749 84.4580
  153 402.066 -108.310 -192.529
  154 402.066 -108.310 -192.529
  155 476.528 19.3880 28.5133
  156 476.528 19.3880 28.5133
  157 614.129 -3.40533 -20.3976
  158 614.129 -3.40533 -20.3976
  159 830.978 67.0553 49.6920
  160 830.978 67.0553 49.6920
  161 418.484 -116.623 222.061
  162 418.484 -116.623 222.061
  163 847.039 27.4977 -9.84292
  164 847.039 27.4977 -9.84292
  165 497.846 16.8593 13.1202
  166 497.846 16.8593 13.1202
  167 473.526 16.0482 -41.8668
  168 473.526 16.0482 -41.8668
  169 585.572 17.9718 12.6988
  170 585.572 17.9718 12.6988
  171 493.368 20.1473 -14.9308
  172 493.368 20.1473 -14.9308
  173 512.538 8.11693 2.15494
  174 512.538 8.11693 2.15494
  175 520.554 3.93950 -7.85282
  176 520.554 3.93950 -7.85282
  177 797.667 65.3352 -51.0493
  178 797.667 65.3352 -51.0493
  179 512.919 7.90406 -2.59980
  180 512.919 7.90406 -2.59980
  181 381.519 27.9290 -21.9130
  182 381.519 27.9290 -21.9130
  183 680.166 50.6806 2.44272
  184 680.166 50.6806 2.44272
  185 139.524 -113.809 -135.992
  186 139.524 -113.809 -135.992
  187 375.168 -3.79055 92.8720
  188 375.168 -3.79055 92.8720
  189 496.889 -80.7227 -131.685
  190 496.889 -80.7227 -131.685
  191 586.705 -16.2734 8.03955
  192 586.705 -16.2734 8.03955
  193 549.438 -1.98010 20.9129
  194 549.438 -1.98010 20.9129
  195 742.279 24.5425 48.7587
  196 742.279 24.5425 48.7587
  197 314.222 10.4427 -57.5147
  198 314.222 10.4427 -57.5147
  199 840.490 37.1675 22.7486
  200 840.490 37.1675 22.7486
  201 559.484 -7.00636 -22.2203
  202 559.484 -7.00636 -22.2203
  203 521.339 2.80923 7.23761
  204 521.339 2.80923 7.23761
  205 582.089 -23.0096 -12.2722
  206 582.089 -23.0096 -12.2722
  207 635.495 -31.5205 -6.67497
  208 635.495 -31.5205 -6.67497
  209 39.9649 -236.613 20.6378
  210 39.9649 -236.613 20.6378
  211 537.066 2.70575 -18.2818
  212 537.066 2.70575 -18.2818
  213 532.725 4.10971 15.9310
  214 532.725 4.10971 15.9310
  215 512.340 -47.2756 -83.5708
  216 512.340 -47.2756 -83.5708
  217 598.035 -12.7066 -12.3743
  218 598.035 -12.7066 -12.3743
  219 491.558 17.5794 -28.4871
  220 491.558 17.5794 -28.4871
  221 135.489 -166.901 149.737
  222 135.489 -166.901 149.737
  223 606.630 3.12519 19.4593
  224 606.630 3.12519 19.4593
  225 590.506 15.2892 -16.7228
  226 590.506 15.2892 -16.7228
  227 831.779 49.5891 -39.3463
  228 831.779 49.5891 -39.3463
  229 637.824 -23.1480 -8.03046
  230 637.824 -23.1480 -8.03046
  231 693.006 -27.5287 -128.043
  232 693.006 -27.5287 -128.043
  233 514.343 -23.2696 64.0766
  234 514.343 -23.2696 64.0766
  235 505.088 14.0952 2.20678
  236 505.088 14.0952 2.20678
  237 270.071 -39.1145 121.637
  238 270.071 -39.1145 121.637
  239 663.169 -54.6391 148.831
  240 663.169 -54.6391 148.831
  241 184.749 -22.5456 -60.3724
  242 184.749 -22.5456 -60.3724
  243 593.637 -44.8023 -30.0962
  244 593.637 -44.8023 -30.0962
  245 486.943 21.7633 16.4106
  246 486.943 21.7633 16.4106
  247 17.0658 -309.419 -16.9620
  248 17.0658 -309.419 -16.9620
  249 33.4301 -270.637 56.0521
  250 33.4301 -270.637 56.0521
  251 495.203 3.40039 45.8307
  252 495.203 3.40039 45.8307
  253 516.662 1.94814 1.77583
  254 516.662 1.94814 1.77583
  255 512.498 8.16858 0.339845
  256 512.498 8.16858 0.339845
  257 481.406 -5.98041 -61.1141
  258 481.406 -5.98041 -61.1141
  259 516.943 1.77776 -1.88133
  260 516.943 1.77776 -1.88133
  261 570.290 -40.3817 39.2246
  262 570.290 -40.3817 39.2246
  263 530.158 1.83470 -8.80789
  264 530.158 1.83470 -8.80789
  265 412.148 -34.9347 -114.189
  266 412.148 -34.9347 -114.189
  267 697.559 53.8391 -0.515589
  268 697.559 53.8391 -0.515589
  269 511.826 11.2121 -23.1016
  270 511.826 11.2121 -23.1016
  271 509.948 10.4893 -4.55729
  272 509.948 10.4893 -4.55729
  273 435.213 21.1021 -41.9153
  274 435.213 21.1021 -41.9153
  275 133.912 -49.5980 35.0371
  276 133.912 -49.5980 35.0371
  277 544.059 -90.9580 117.697
  278 544.059 -90.9580 117.697
  279 515.177 7.57117 8.92170
  280 515.177 7.57117 8.92170
  281 759.093 53.4931 -12.7282
  282 759.093 53.4931 -12.7282
  283 901.323 80.8409 109.433
  284 901.323 80.8409 109.433
  285 610.543 -64.9986 39.9905
  286 610.543 -64.9986 39.9905
  287 443.742 22.1065 30.6660
  288 443.742 22.1065 30.6660
  289 558.510 -111.863 155.462
  290 558.510 -111.863 155.462
  291 577.156 -6.90749 14.4633
  292 577.156 -6.90749 14.4633
  293 514.862 4.98484 2.43439
  294 514.862 4.98484 2.43439
  295 507.861 13.7796 -14.6521
  296 507.861 13.7796 -14.6521
  297 512.618 8.03863 -0.668790
  298 512.618 8.03863 -0.668790
  299 519.619 1.42076 -3.40113
  300 519.619 1.42076 -3.40113
  301 529.721 2.58234 8.84171
  302 529.721 2.58234 8.84171
  303 505.217 14.0219 -3.75043
  304 505.217 14.0219 -3.75043
  305 116.121 -194.535 -142.798
  306 116.121 -194.535 -142.798
  307 349.631 22.9504 28.7082
  308 349.631 22.9504 28.7082
  309 515.391 4.16376 -2.33671
  310 515.391 4.16376 -2.33671
  311 455.916 26.0857 -20.5237
  312 455.916 26.0857 -20.5237
  313 457.096 28.4399 7.80031
  314 457.096 28.4399 7.80031
  315 514.369 7.28027 -6.31085
  316 514.369 7.28027 -6.31085
  317 686.501 37.4220 -5.30678
  318 686.501 37.4220 -5.30678
  319 510.685 12.2095 20.1917
  320 510.685 12.2095 20.1917
  321 649.269 21.0942 -15.0311
  322 649.269 21.0942 -15.0311
  323 944.781 26.4938 64.3746
  324 944.781 26.4938 64.3746
  325 508.870 12.6386 12.6402
  326 508.870 12.6386 12.6402
  327 501.128 16.7382 6.61247
  328 501.128 16.7382 6.61247
  329 389.418 -77.5591 -222.708
  330 389.418 -77.5591 -222.708
  331 519.923 1.28386 3.32655
  332 519.923 1.28386 3.32655
  333 509.485 10.5659 3.40704
  334 509.485 10.5659 3.40704
  335 491.376 21.7473 0.759401
  336 491.376 21.7473 0.759401
  337 255.145 -89.7642 178.206
  338 255.145 -89.7642 178.206
  339 631.417 41.5930 2.66421
  340 631.417 41.5930 2.66421
  341 36.0470 -264.869 -64.4207
  342 36.0470 -264.869 -64.4207
  343 397.201 25.0367 25.4527
  344 397.201 25.0367 25.4527
  345 894.533 11.9292 8.68243
  346 894.533 11.9292 8.68243
  347 934.388 47.9837 -66.6056
  348 934.388 47.9837 -66.6056
  349 444.997 -51.6602 127.790
  350 464.328 -26.5014 94.1719
  351 444.997 -51.6602 127.790
  352 464.328 -26.5014 94.1719
  353 907.566 22.2381 33.3600
  354 907.566 22.2381 33.3600
  355 526.426 -0.837506 35.7292
  356 526.426 -0.837506 35.7292
  357 619.443 -83.7354 -92.4351
  358 619.443 -83.7354 -92.4351
  359 592.009 -5.00518 16.1625
  360 592.009 -5.00518 16.1625
  361 397.519 -77.9784 243.047
  362 397.519 -77.9784 243.047
  363 690.256 55.3110 -1.78487
  364 690.256 55.3110 -1.78487
  365 905.979 8.04854 -6.92611
  366 905.979 8.04854 -6.92611
  367 559.069 0.158338 -17.3912
  368 559.069 0.158338 -17.3912
  369 501.122 17.8101 -7.92408
  370 501.122 17.8101 -7.92408
  371 767.909 59.7870 21.3367
  372 767.909 59.7870 21.3367
  373 593.725 25.0059 -3.53782
  374 593.725 25.0059 -3.53782
  375 539.326 1.98137 -10.9793
  376 539.326 1.98137 -10.9793
  377 149.451 -71.8642 -102.830
  378 149.451 -71.8642 -102.830
  379 595.709 -10.7891 3.90089
  380 595.709 -10.7891 3.90089
  381 511.336 -0.912757 -42.2432
  382 511.336 -0.912757 -42.2432
  383 588.338 -1.11956 -19.3822
  384 588.338 -1.11956 -19.3822
  385 910.714 15.8780 -27.5330
  386 910.714 15.8780 -27.5330
  387 513.153 7.78767 4.98593
  388 513.153 7.78767 4.98593
  389 624.865 30.9650 15.5902
  390 624.865 30.9650 15.5902
  391 670.809 -13.3051 9.69714
  392 670.809 -13.3051 9.69714
  393 514.968 9.16733 -11.1796
  394 514.968 9.16733 -11.1796
  395 963.203 95.5172 -126.450
  396 963.203 95.5172 -126.450
  397 587.511 -8.70704 -6.50205
  398 587.511 -8.70704 -6.50205
</Section>

newXOutput 154

<Section columns = "stress_xx | stress_yy | stress_xy">
  1 518.950 0.509634 -0.557997
  2 519.189 0.628332 0.751990
  3 518.950 0.509634 -0.557997
  4 519.189 0.628332 0.751990
  5 785.179 62.7123 228.408
  6 815.015 61.6192 -224.805
  7 785.179 62.7123 228.408
  8 815.015 61.6192 -224.805
  9 520.181 0.355688 -1.46759
  10 524.256 0.625071 -2.61597
  11 530.175 1.40789 -5.33230
  12 543.825 0.513250 -7.20207
  13 561.503 0.817590 -11.9205
  14 582.405 -5.32031 -11.9380
  15 601.989 -6.34354 -1.70071
  16 594.167 -4.29514 9.30108
  17 573.524 4.65052 16.7303
  18 562.214 11.2010 -0.656896
  19 570.370 5.34722 -15.7535
  20 593.646 -6.40483 -11.3192
  21 596.634 -7.70976 4.40518
  22 585.395 -3.50408 10.3176
  23 557.883 0.0902099 12.0183
  24 542.657 1.99459 9.13369
  25 530.546 1.61619 5.12044
  26 524.367 0.503272 2.39540
  27 520.473 0.421729 1.41925
  28 519.908 1.83879 0.877556
  29 519.035 3.76152 1.02454
  30 516.883 6.52010 0.914010
  31 516.024 7.57599 -0.0883743
  32 517.118 6.18815 -1.09389
  33 518.654 4.10108 -0.925963
  34 519.327 2.08829 -0.986480
  35 520.181 0.355688 -1.46759
  36 524.256 0.625071 -2.61597
  37 530.175 1.40789 -5.33230
  38 543.825 0.513250 -7.20207
  39 561.503 0.817590 -11.9205
  40 582.405 -5.32031 -11.9380
  41 601.989 -6.34354 -1.70071
  42 594.167 -4.29514 9.30108
  43 573.524 4.65052 16.7303
  44 562.214 11.2010 -0.656896
  45 570.370 5.34722 -15.7535
  46 593.646 -6.40483 -11.3192
  47 596.634 -7.70976 4.40518
  48 585.395 -3.50408 10.3176
  49 557.883 0.0902099 12.0183
  50 542.657 1.99459 9.13369
  51 530.546 1.61619 5.12044
  52 524.367 0.503272 2.39540
  53 520.473 0.421729 1.41925
  54 519.908 1.83879 0.877556
  55 519.035 3.76152 1.02454
  56 516.883 6.52010 0.914010
  57 516.024 7.57599 -0.0883743
  58 517.118 6.18815 -1.09389
  59 518.654 4.10108 -0.925963
  60 519.327 2.08829 -0.986480
  61 1082.21 58.1063 114.862
  62 988.484 16.0187 40.1036
  63 933.924 6.45969 14.6404
  64 922.192 4.72734 2.77176
  65 933.380 6.32062 -12.4773
  66 975.222 13.6837 -34.6557
  67 1092.44 50.5269 -98.9247
  68 146.830 -153.357 -189.886
  69 29.0989 -378.644 -51.1067
  70 7.47069 -436.406 -22.2966
  71 7.17257 -429.149 -10.5920
  72 12.9094 -416.015 23.8973
  73 31.7859 -366.865 54.2239
  74 158.533 -142.176 210.101
  75 1082.21 58.1063 114.862
  76 988.484 16.0187 40.1036
  77 933.924 6.45969 14.6404
  78 922.192 4.72734 2.77176
  79 933.380 6.32062 -12.4773
  80 975.222 13.6837 -34.6557
  81 1092.44 50.5269 -98.9247
  82 146.830 -153.357 -189.886
  83 29.0989 -378.644 -51.1067
  84 7.47069 -436.406 -22.2966
  85 7.17257 -429.149 -10.5920
  86 12.9094 -416.015 23.8973
  87 31.7859 -366.865 54.2239
  88 158.533 -142.176 210.101
  89 478.638 27.1091 -7.00263
  90 478.638 27.1091 -7.00263
  91 437.420 6.14619 63.9669
  92 420.469 -2.49552 -76.5737
  93 437.420 6.14619 63.9669
  94 420.469 -2.49552 -76.5737
  95 250.625 7.30901 31.0406
  96 250.625 7.30901 31.0406
  97 639.074 41.4451 -8.80195
  98 650.011 24.3501 17.1821
  99 639.074 41.4451 -8.80195
  100 650.011 24.3501 17.1821
  101 512.062 12.1867 6.88514
  102 512.062 12.1867 6.88514
  103 609.639 -34.7155 2.68926
  104 609.639 -34.7155 2.68926
  105 512.642 12.7491 -8.50333
  106 512.642 12.7491 -8.50333
  107 597.871 -74.2623 -69.2500
  108 597.871 -74.2623 -69.2500
  109 420.482 -88.0698 171.032
  110 420.482 -88.0698 171.032
  111 286.312 -51.1239 -138.404
  112 286.312 -51.1239 -138.404
  113 514.527 8.48350 30.0469
  114 514.527 8.48350 30.0469
  115 532.639 3.44906 -28.8192
  116 532.639 3.44906 -28.8192
  117 719.098 49.6516 10.5301
  118 768.878 49.4117 4.95379
  119 719.098 49.6516 10.5301
  120 768.878 49.4117 4.95379
  121 753.638 64.4114 -22.3256
  122 753.638 64.4114 -22.3256
  123 84.3535 -135.292 -46.5117
  124 84.3535 -135.292 -46.5117
  125 647.803 -79.9229 76.2926
  126 647.803 -79.9229 76.2926
  127 550.126 -13.4177 34.4965
  128 550.126 -13.4177 34.4965
  129 128.371 -116.577 106.292
  130 128.371 -116.577 106.292
  131 512.763 10.1631 -0.430887
  132 512.763 10.1631 -0.430887
  133 549.093 -25.7834 -44.1884
  134 549.093 -25.7834 -44.1884
  135 520.423 4.16810 4.95393
  136 520.423 4.16810 4.95393
  137 520.839 3.67036 -4.61769
  138 520.839 3.67036 -4.61769
  139 526.355 7.11469 -14.9358
  140 526.355 7.11469 -14.9358
  141 524.055 6.94189 13.4277
  142 524.055 6.94189 13.4277
  143 502.906 16.9957 -0.553820
  144 502.906 16.9957 -0.553820
  145 422.706 27.8851 -3.28502
  146 422.706 27.8851 -3.28502
  147 607.077 -21.5696 7.60284
  148 607.077 -21.5696 7.60284
  149 690.504 -22.1553 -31.2402
  150 690.504 -22.1553 -31.2402
  151 535.849 -60.1491 84.9938
  152 535.849 -60.1491 84.9938
  153 404.524 -108.966 -193.793
  154 404.524 -108.966 -193.793
  155 479.499 19.5061 28.6836
  156 479.499 19.5061 28.6836
  157 617.897 -3.41980 -20.4859
  158 617.897 -3.41980 -20.4859
  159 835.946 67.4755 50.0295
  160 835.946 67.4755 50.0295
  161 421.038 -117.340 223.505
  162 421.038 -117.340 223.505
  163 852.071 27.6516 -9.90412
  164 852.071 27.6516 -9.90412
  165 500.940 16.9597 13.1958
  166 500.940 16.9597 13.1958
  167 476.478 16.1464 -42.1199
  168 476.478 16.1464 -42.1199
  169 589.207 18.0892 12.7626
  170 589.207 18.0892 12.7626
  171 496.437 20.2679 -15.0175
  172 496.437 20.2679 -15.0175
  173 515.711 8.16445 2.16676
  174 515.711 8.16445 2.16676
  175 523.769 3.96259 -7.89639
  176 523.769 3.96259 -7.89639
  177 802.450 65.7761 -51.4266
  178 802.450 65.7761 -51.4266
  179 516.094 7.95043 -2.61401
  180 516.094 7.95043 -2.61401
  181 383.938 28.1066 -22.0479
  182 383.938 28.1066 -22.0479
  183 684.328 50.9983 2.42455
  184 684.328 50.9983 2.42455
  185 140.409 -114.488 -136.914
  186 140.409 -114.488 -136.914
  187 377.530 -3.80995 93.4508
  188 377.530 -3.80995 93.4508
  189 499.933 -81.2289 -132.527
  190 499.933 -81.2289 -132.527
  191 590.299 -16.3762 8.10441
  192 590.299 -16.3762 8.10441
  193 552.812 -1.99479 21.0391
  194 552.812 -1.99479 21.0391
  195 746.747 24.7432 49.1343
  196 746.747 24.7432 49.1343
  197 316.227 10.5179 -57.8763
  198 316.227 10.5179 -57.8763
  199 845.497 37.3812 22.8939
  200 845.497 37.3812 22.8939
  201 562.917 -7.05240 -22.3596
  202 562.917 -7.05240 -22.3596
  203 524.558 2.82560 7.27768
  204 524.558 2.82560 7.27768
  205 585.655 -23.1551 -12.3647
  206 585.655 -23.1551 -12.3647
  207 639.366 -31.7038 -6.76351
  208 639.366 -31.7038 -6.76351
  209 40.2152 -238.091 20.7863
  210 40.2152 -238.091 20.7863
  211 540.371 2.71986 -18.3887
  212 540.371 2.71986 -18.3887
  213 536.006 4.13325 16.0231
  214 536.006 4.13325 16.0231
  215 515.493 -47.5714 -84.0985
  216 515.493 -47.5714 -84.0985
  217 601.707 -12.7850 -12.4245
  218 601.707 -12.7850 -12.4245
  219 494.614 17.6855 -28.6568
  220 494.614 17.6855 -28.6568
  221 136.330 -167.891 150.766
  222 136.330 -167.891 150.766
  223 610.365 3.15264 19.5473
  224 610.365 3.15264 19.5473
  225 594.164 15.3897 -16.8044
  226 594.164 15.3897 -16.8044
  227 836.746 49.8838 -39.6061
  228 836.746 49.8838 -39.6061
  229 641.711 -23.2790 -8.03129
  230 641.711 -23.2790 -8.03129
  231 697.156 -27.6200 -128.917
  232 697.156 -27.6200 -128.917
  233 517.514 -23.4147 64.4744
  234 517.514 -23.4147 64.4744
  235 508.222 14.1785 2.21923
  236 508.222 14.1785 2.21923
  237 271.783 -39.3494 122.421
  238 271.783 -39.3494 122.421
  239 667.139 -54.9125 149.829
  240 667.139 -54.9125 149.829
  241 185.948 -22.6615 -60.7660
  242 185.948 -22.6615 -60.7660
  243 597.261 -45.0807 -30.3075
  244 597.261 -45.0807 -30.3075
  245 489.976 21.8945 16.5069
  246 489.976 21.8945 16.5069
  247 17.1638 -311.382 -17.0877
  248 17.1638 -311.382 -17.0877
  249 33.6354 -272.324 56.4634
  250 33.6354 -272.324 56.4634
  251 498.275 3.42045 46.1090
  252 498.275 3.42045 46.1090
  253 519.856 1.95974 1.78540
  254 519.856 1.95974 1.78540
  255 515.671 8.21623 0.341724
  256 515.671 8.21623 0.341724
  257 484.395 -6.01828 -61.4901
  258 484.395 -6.01828 -61.4901
  259 520.138 1.78843 -1.89147
  260 520.138 1.78843 -1.89147
  261 573.781 -40.6336 39.4839
  262 573.781 -40.6336 39.4839
  263 533.423 1.84514 -8.85715
  264 533.423 1.84514 -8.85715
  265 414.716 -35.1531 -114.907
  266 414.716 -35.1531 -114.907
  267 701.817 54.1741 -0.485842
  268 701.817 54.1741 -0.485842
  269 514.994 11.2782 -23.2366
  270 514.994 11.2782 -23.2366
  271 513.107 10.5510 -4.58253
  272 513.107 10.5510 -4.58253
  273 437.946 21.2335 -42.1704
  274 437.946 21.2335 -42.1704
  275 134.786 -49.8722 35.2708
  276 134.786 -49.8722 35.2708
  277 547.372 -91.5268 118.453
  278 547.372 -91.5268 118.453
  279 518.364 7.61575 8.97144
  280 518.364 7.61575 8.97144
  281 763.684 53.8123 -12.8221
  282 763.684 53.8123 -12.8221
  283 906.639 81.3938 110.148
  284 906.639 81.3938 110.148
  285 614.255 -65.3972 40.2756
  286 614.255 -65.3972 40.2756
  287 446.526 22.2432 30.8508
  288 446.526 22.2432 30.8508
  289 561.890 -112.557 156.466
  290 561.890 -112.557 156.466
  291 580.689 -6.95236 14.5561
  292 580.689 -6.95236 14.5561
  293 518.047 5.01412 2.44762
  294 518.047 5.01412 2.44762
  295 511.009 13.8613 -14.7358
  296 511.009 13.8613 -14.7358
  297 515.792 8.08554 -0.672430
  298 515.792 8.08554 -0.672430
  299 522.828 1.42919 -3.41964
  300 522.828 1.42919 -3.41964
  301 532.984 2.59724 8.89114
  302 532.984 2.59724 8.89114
  303 508.351 14.1048 -3.77154
  304 508.351 14.1048 -3.77154
  305 116.838 -195.684 -143.787
  306 116.838 -195.684 -143.787
  307 351.857 23.0999 28.8854
  308 351.857 23.0999 28.8854
  309 518.578 4.18831 -2.34937
  310 518.578 4.18831 -2.34937
  311 458.772 26.2453 -20.6470
  312 458.772 26.2453 -20.6470
  313 459.960 28.6138 7.84658
  314 459.960 28.6138 7.84658
  315 517.551 7.32314 -6.34576
  316 517.551 7.32314 -6.34576
  317 690.680 37.6780 -5.39978
  318 690.680 37.6780 -5.39978
  319 513.848 12.2819 20.3085
  320 513.848 12.2819 20.3085
  321 653.242 21.2383 -15.0771
  322 653.242 21.2383 -15.0771
  323 950.315 26.6432 64.7665
  324 950.315 26.6432 64.7665
  325 512.024 12.7135 12.7120
  326 512.024 12.7135 12.7120
  327 504.241 16.8376 6.65005
  328 504.241 16.8376 6.65005
  329 391.763 -77.8912 -224.194
  330 391.763 -77.8912 -224.194
  331 523.133 1.29146 3.34465
  332 523.133 1.29146 3.34465
  333 512.642 10.6280 3.42595
  334 512.642 10.6280 3.42595
  335 494.435 21.8775 0.763759
  336 494.435 21.8775 0.763759
  337 256.748 -90.3184 179.379
  338 256.748 -90.3184 179.379
  339 635.312 41.8546 2.67276
  340 635.312 41.8546 2.67276
  341 36.2643 -266.518 -64.8840
  342 36.2643 -266.518 -64.8840
  343 399.714 25.1945 25.6075
  344 399.714 25.1945 25.6075
  345 899.786 11.9936 8.73087
  346 899.786 11.9936 8.73087
  347 939.883 48.2784 -67.0165
  348 939.883 48.2784 -67.0165
  349 447.749 -51.9850 128.595
  350 467.207 -26.6666 94.7558
  351 447.749 -51.9850 128.595
  352 467.207 -26.6666 94.7558
  353 912.898 22.3610 33.5571
  354 912.898 22.3610 33.5571
  355 529.674 -0.844696 35.9458
  356 529.674 -0.844696 35.9458
  357 623.184 -84.2441 -93.0526
  358 623.184 -84.2441 -93.0526
  359 595.656 -5.03382 16.2409
  360 595.656 -5.03382 16.2409
  361 399.896 -78.3219 244.655
  362 399.896 -78.3219 244.655
  363 694.480 55.6486 -1.79431
  364 694.480 55.6486 -1.79431
  365 911.284 8.09138 -6.96618
  366 911.284 8.09138 -6.96618
  367 562.494 0.156866 -17.4949
  368 562.494 0.156866 -17.4949
  369 504.234 17.9160 -7.96929
  370 504.234 17.9160 -7.96929
  371 772.547 60.1517 21.4987
  372 772.547 60.1517 21.4987
  373 597.408 25.1652 -3.55510
  374 597.408 25.1652 -3.55510
  375 542.640 1.99212 -11.0419
  376 542.640 1.99212 -11.0419
  377 150.424 -72.2866 -103.516
  378 150.424 -72.2866 -103.516
  379 599.359 -10.8566 3.90938
  380 599.359 -10.8566 3.90938
  381 514.499 -0.920456 -42.5011
  382 514.499 -0.920456 -42.5011
  383 591.972 -1.12443 -19.4780
  384 591.972 -1.12443 -19.4780
  385 916.059 15.9673 -27.6939
  386 916.059 15.9673 -27.6939
  387 516.329 7.83339 5.01343
  388 516.329 7.83339 5.01343
  389 628.713 31.1652 15.6560
  390 628.713 31.1652 15.6560
  391 674.877 -13.3622 9.81876
  392 674.877 -13.3622 9.81876
  393 518.153 9.22141 -11.2424
  394 518.153 9.22141 -11.2424
  395 968.841 96.1800 -127.266
  396 968.841 96.1800 -127.266
  397 591.103 -8.76341 -6.54905
  398 591.103 -8.76341 -6.54905
</Section>

newXOutput 155

<Section columns = "stress_xx | stress_yy | stress_xy">
  1 522.136 0.512839 -0.560931
  2 522.377 0.632203 0.755936
  3 522.136 0.512839 -0.560931
  4 522.377 0.632203 0.755936
  5 789.731 63.2832 229.881
  6 819.724 62.1907 -226.256
  7 789.731 63.2832 229.881
  8 819.724 62.1907 -226.256
  9 523.374 0.357851 -1.47538
  10 527.469 0.628781 -2.63001
  11 533.419 1.41605 -5.36140
  12 547.141 0.515949 -7.24211
  13 564.916 0.821204 -11.9893
  14 585.936 -5.35541 -12.0108
  15 605.639 -6.38409 -1.71733
  16 597.798 -4.32136 9.34441
  17 577.065 4.68272 16.8154
  18 565.704 11.2740 -0.660325
  19 573.895 5.38158 -15.8346
  20 597.276 -6.44431 -11.3715
  21 600.255 -7.75917 4.43949
  22 588.944 -3.52700 10.3812
  23 561.278 0.0889469 12.0883
  24 545.968 2.00576 9.18477
  25 533.793 1.62557 5.14830
  26 527.582 0.506276 2.40823
  27 523.667 0.424317 1.42683
  28 523.099 1.84966 0.882143
  29 522.222 3.78352 1.02999
  30 520.059 6.55788 0.918920
  31 519.196 7.61977 -0.0888443
  32 520.295 6.22406 -1.09972
  33 521.839 4.12507 -0.930765
  34 522.515 2.10070 -0.991730
  35 523.374 0.357851 -1.47538
  36 527.469 0.628781 -2.63001
  37 533.419 1.41605 -5.36140
  38 547.141 0.515949 -7.24211
  39 564.916 0.821204 -11.9893
  40 585.936 -5.35541 -12.0108
  41 605.639 -6.38409 -1.71733
  42 597.798 -4.32136 9.34441
  43 577.065 4.68272 16.8154
  44 565.704 11.2740 -0.660325
  45 573.895 5.38158 -15.8346
  46 597.276 -6.44431 -11.3715
  47 600.255 -7.75917 4.43949
  48 588.944 -3.52700 10.3812
  49 561.278 0.0889469 12.0883
  50 545.968 2.00576 9.18477
  51 533.793 1.62557 5.14830
  52 527.582 0.506276 2.40823
  53 523.667 0.424317 1.42683
  54 523.099 1.84966 0.882143
  55 522.222 3.78352 1.02999
  56 520.059 6.55788 0.918920
  57 519.196 7.61977 -0.0888443
  58 520.295 6.22406 -1.09972
  59 521.839 4.12507 -0.930765
  60 522.515 2.10070 -0.991730
  61 1088.39 58.4713 115.547
  62 994.168 16.1080 40.3319
  63 939.325 6.49126 14.7204
  64 927.530 4.75156 2.78500
  65 938.776 6.35414 -12.5450
  66 980.840 13.7589 -34.8501
  67 1098.68 50.8432 -99.5141
  68 147.711 -154.107 -191.169
  69 29.2747 -381.002 -51.4987
  70 7.50146 -439.226 -22.4673
  71 7.20287 -431.934 -10.6603
  72 12.9783 -418.688 24.0810
  73 31.9818 -369.148 54.6416
  74 159.470 -142.858 211.514
  75 1088.39 58.4713 115.547
  76 994.168 16.1080 40.3319
  77 939.325 6.49126 14.7204
  78 927.530 4.75156 2.78500
  79 938.776 6.35414 -12.5450
  80 980.840 13.7589 -34.8501
  81 1098.68 50.8432 -99.5141
  82 147.711 -154.107 -191.169
  83 29.2747 -381.002 -51.4987
  84 7.50146 -439.226 -22.4673
  85 7.20287 -431.934 -10.6603
  86 12.9783 -418.688 24.0810
  87 31.9818 -369.148 54.6416
  88 159.470 -142.858 211.514
  89 481.606 27.2721 -7.04379
  90 481.606 27.2721 -7.04379
  91 440.139 6.18571 64.3562
  92 423.086 -2.50913 -77.0441
  93 440.139 6.18571 64.3562
  94 423.086 -2.50913 -77.0441
  95 252.235 7.37157 31.2361
  96 252.235 7.37157 31.2361
  97 642.984 41.7047 -8.83645
  98 653.965 24.5140 17.2397
  99 642.984 41.7047 -8.83645
  100 653.965 24.5140 17.2397
  101 515.213 12.2580 6.92341
  102 515.213 12.2580 6.92341
  103 613.340 -34.9269 2.73993
  104 613.340 -34.9269 2.73993
  105 515.796 12.8240 -8.55075
  106 515.796 12.8240 -8.55075
  107 601.480 -74.7201 -69.7033
  108 601.480 -74.7201 -69.7033
  109 423.058 -88.6202 172.118
  110 423.058 -88.6202 172.118
  111 288.105 -51.4342 -139.292
  112 288.105 -51.4342 -139.292
  113 517.689 8.53272 30.2239
  114 517.689 8.53272 30.2239
  115 535.901 3.46717 -28.9906
  116 535.901 3.46717 -28.9906
  117 723.437 49.9757 10.6535
  118 773.490 49.7008 4.99292
  119 723.437 49.9757 10.6535
  120 773.490 49.7008 4.99292
  121 758.173 64.8140 -22.5059
  122 758.173 64.8140 -22.5059
  123 84.8924 -136.099 -46.8315
  124 84.8924 -136.099 -46.8315
  125 651.685 -80.3924 76.8164
  126 651.685 -80.3924 76.8164
  127 553.485 -13.5025 34.7117
  128 553.485 -13.5025 34.7117
  129 129.189 -117.268 107.011
  130 129.189 -117.268 107.011
  131 515.919 10.2224 -0.433197
  132 515.919 10.2224 -0.433197
  133 552.443 -25.9443 -44.4678
  134 552.443 -25.9443 -44.4678
  135 523.617 4.19251 4.98087
  136 523.617 4.19251 4.98087
  137 524.035 3.69195 -4.64271
  138 524.035 3.69195 -4.64271
  139 529.581 7.15589 -15.0204
  140 529.581 7.15589 -15.0204
  141 527.269 6.98230 13.5033
  142 527.269 6.98230 13.5033
  143 506.009 17.0958 -0.557079
  144 506.009 17.0958 -0.557079
  145 425.354 28.0567 -3.30525
  146 425.354 28.0567 -3.30525
  147 610.771 -21.6993 7.61926
  148 610.771 -21.6993 7.61926
  149 694.648 -22.2524 -31.5025
  150 694.648 -22.2524 -31.5025
  151 539.110 -60.5231 85.5294
  152 539.110 -60.5231 85.5294
  153 406.981 -109.620 -195.057
  154 406.981 -109.620 -195.057
  155 482.469 19.6241 28.8536
  156 482.469 19.6241 28.8536
  157 621.661 -3.43418 -20.5736
  158 621.661 -3.43418 -20.5736
  159 840.908 67.8954 50.3670
  160 840.908 67.8954 50.3670
  161 423.589 -118.057 224.948
  162 423.589 -118.057 224.948
  163 857.096 27.8052 -9.96526
  164 857.096 27.8052 -9.96526
  165 504.031 17.0600 13.2713
  166 504.031 17.0600 13.2713
  167 479.427 16.2445 -42.3727
  168 479.427 16.2445 -42.3727
  169 592.839 18.2065 12.8262
  170 592.839 18.2065 12.8262
  171 499.504 20.3884 -15.1041
  172 499.504 20.3884 -15.1041
  173 518.882 8.21190 2.17855
  174 518.882 8.21190 2.17855
  175 526.980 3.98564 -7.93987
  176 526.980 3.98564 -7.93987
  177 807.227 66.2171 -51.8042
  178 807.227 66.2171 -51.8042
  179 519.266 7.99674 -2.62818
  180 519.266 7.99674 -2.62818
  181 386.356 28.2841 -22.1827
  182 386.356 28.2841 -22.1827
  183 688.485 51.3159 2.40601
  184 688.485 51.3159 2.40601
  185 141.295 -115.166 -137.837
  186 141.295 -115.166 -137.837
  187 379.889 -3.82930 94.0293
  188 379.889 -3.82930 94.0293
  189 502.974 -81.7347 -133.368
  190 502.974 -81.7347 -133.368
  191 593.891 -16.4790 8.16939
  192 593.891 -16.4790 8.16939
  193 556.184 -2.00950 21.1652
  194 556.184 -2.00950 21.1652
  195 751.209 24.9444 49.5104
  196 751.209 24.9444 49.5104
  197 318.231 10.5931 -58.2376
  198 318.231 10.5931 -58.2376
  199 850.498 37.5945 23.0390
  200 850.498 37.5945 23.0390
  201 566.347 -7.09844 -22.4987
  202 566.347 -7.09844 -22.4987
  203 527.773 2.84194 7.31766
  204 527.773 2.84194 7.31766
  205 589.217 -23.3005 -12.4572
  206 589.217 -23.3005 -12.4572
  207 643.233 -31.8867 -6.85255
  208 643.233 -31.8867 -6.85255
  209 40.4654 -239.568 20.9349
  210 40.4654 -239.568 20.9349
  211 543.673 2.73392 -18.4954
  212 543.673 2.73392 -18.4954
  213 539.285 4.15676 16.1151
  214 539.285 4.15676 16.1151
  215 518.642 -47.8671 -84.6259
  216 518.642 -47.8671 -84.6259
  217 605.376 -12.8633 -12.4743
  218 605.376 -12.8633 -12.4743
  219 497.668 17.7914 -28.8263
  220 497.668 17.7914 -28.8263
  221 137.170 -168.880 151.796
  222 137.170 -168.880 151.796
  223 614.097 3.18017 19.6348
  224 614.097 3.18017 19.6348
  225 597.820 15.4902 -16.8858
  226 597.820 15.4902 -16.8858
  227 841.708 50.1782 -39.8658
  228 841.708 50.1782 -39.8658
  229 645.595 -23.4097 -8.03151
  230 645.595 -23.4097 -8.03151
  231 701.301 -27.7103 -129.792
  232 701.301 -27.7103 -129.792
  233 520.683 -23.5598 64.8718
  234 520.683 -23.5598 64.8718
  235 511.353 14.2617 2.23164
  236 511.353 14.2617 2.23164
  237 273.495 -39.5841 123.204
  238 273.495 -39.5841 123.204
  239 671.105 -55.1848 150.828
  240 671.105 -55.1848 150.828
  241 187.146 -22.7771 -61.1594
  242 187.146 -22.7771 -61.1594
  243 600.881 -45.3590 -30.5190
  244 600.881 -45.3590 -30.5190
  245 493.006 22.0255 16.6031
  246 493.006 22.0255 16.6031
  247 17.2616 -313.344 -17.2135
  248 17.2616 -313.344 -17.2135
  249 33.8406 -274.011 56.8752
  250 33.8406 -274.011 56.8752
  251 501.344 3.44048 46.3870
  252 501.344 3.44048 46.3870
  253 523.047 1.97133 1.79494
  254 523.047 1.97133 1.79494
  255 518.841 8.26380 0.343598
  256 518.841 8.26380 0.343598
  257 487.382 -6.05613 -61.8657
  258 487.382 -6.05613 -61.8657
  259 523.331 1.79909 -1.90158
  260 523.331 1.79909 -1.90158
  261 577.268 -40.8854 39.7432
  262 577.268 -40.8854 39.7432
  263 536.685 1.85555 -8.90630
  264 536.685 1.85555 -8.90630
  265 417.281 -35.3714 -115.625
  266 417.281 -35.3714 -115.625
  267 706.071 54.5088 -0.455733
  268 706.071 54.5088 -0.455733
  269 518.161 11.3443 -23.3713
  270 518.161 11.3443 -23.3713
  271 516.264 10.6127 -4.60772
  272 516.264 10.6127 -4.60772
  273 440.676 21.3649 -42.4253
  274 440.676 21.3649 -42.4253
  275 135.659 -50.1459 35.5046
  276 135.659 -50.1459 35.5046
  277 550.683 -92.0952 119.210
  278 550.683 -92.0952 119.210
  279 521.548 7.66027 9.02108
  280 521.548 7.66027 9.02108
  281 768.271 54.1311 -12.9160
  282 768.271 54.1311 -12.9160
  283 911.948 81.9469 110.864
  284 911.948 81.9469 110.864
  285 617.964 -65.7954 40.5610
  286 617.964 -65.7954 40.5610
  287 449.308 22.3799 31.0353
  288 449.308 22.3799 31.0353
  289 565.267 -113.250 157.470
  290 565.267 -113.250 157.470
  291 584.218 -6.99722 14.6490
  292 584.218 -6.99722 14.6490
  293 521.229 5.04335 2.46083
  294 521.229 5.04335 2.46083
  295 514.155 13.9429 -14.8194
  296 514.155 13.9429 -14.8194
  297 518.962 8.13238 -0.676061
  298 518.962 8.13238 -0.676061
  299 526.034 1.43760 -3.43810
  300 526.034 1.43760 -3.43810
  301 536.244 2.61210 8.94046
  302 536.244 2.61210 8.94046
  303 511.483 14.1876 -3.79261
  304 511.483 14.1876 -3.79261
  305 117.554 -196.832 -144.777
  306 117.554 -196.832 -144.777
  307 354.082 23.2494 29.0624
  308 354.082 23.2494 29.0624
  309 521.762 4.21282 -2.36199
  310 521.762 4.21282 -2.36199
  311 461.627 26.4047 -20.7700
  312 461.627 26.4047 -20.7700
  313 462.823 28.7874 7.89278
  314 462.823 28.7874 7.89278
  315 520.730 7.36594 -6.38060
  316 520.730 7.36594 -6.38060
  317 694.855 37.9341 -5.49341
  318 694.855 37.9341 -5.49341
  319 517.008 12.3542 20.4252
  320 517.008 12.3542 20.4252
  321 657.212 21.3826 -15.1226
  322 657.212 21.3826 -15.1226
  323 955.840 26.7924 65.1580
  324 955.840 26.7924 65.1580
  325 515.175 12.7882 12.7837
  326 515.175 12.7882 12.7837
  327 507.351 16.9369 6.68756
  328 507.351 16.9369 6.68756
  329 394.106 -78.2211 -225.680
  330 394.106 -78.2211 -225.680
  331 526.341 1.29906 3.36269
  332 526.341 1.29906 3.36269
  333 515.797 10.6901 3.44482
  334 515.797 10.6901 3.44482
  335 497.491 22.0075 0.768109
  336 497.491 22.0075 0.768109
  337 258.350 -90.8720 180.552
  338 258.350 -90.8720 180.552
  339 639.204 42.1161 2.68120
  340 639.204 42.1161 2.68120
  341 36.4813 -268.165 -65.3478
  342 36.4813 -268.165 -65.3478
  343 402.226 25.3521 25.7621
  344 402.226 25.3521 25.7621
  345 905.032 12.0579 8.77920
  346 905.032 12.0579 8.77920
  347 945.370 48.5728 -67.4269
  348 945.370 48.5728 -67.4269
  349 450.498 -52.3096 129.399
  350 470.083 -26.8316 95.3392
  351 450.498 -52.3096 129.399
  352 470.083 -26.8316 95.3392
  353 918.222 22.4836 33.7539
  354 918.222 22.4836 33.7539
  355 532.920 -0.851905 36.1621
  356 532.920 -0.851905 36.1621
  357 626.922 -84.7522 -93.6701
  358 626.922 -84.7522 -93.6701
  359 599.300 -5.06240 16.3190
  360 599.300 -5.06240 16.3190
  361 402.269 -78.6632 246.264
  362 402.269 -78.6632 246.264
  363 698.699 55.9859 -1.80372
  364 698.699 55.9859 -1.80372
  365 916.582 8.13413 -7.00618
  366 916.582 8.13413 -7.00618
  367 565.917 0.155366 -17.5985
  368 565.917 0.155366 -17.5985
  369 507.343 18.0219 -8.01441
  370 507.343 18.0219 -8.01441
  371 777.181 60.5161 21.6609
  372 777.181 60.5161 21.6609
  373 601.088 25.3244 -3.57231
  374 601.088 25.3244 -3.57231
  375 545.952 2.00283 -11.1043
  376 545.952 2.00283 -11.1043
  377 151.396 -72.7085 -104.203
  378 151.396 -72.7085 -104.203
  379 603.006 -10.9241 3.91767
  380 603.006 -10.9241 3.91767
  381 517.659 -0.928174 -42.7587
  382 517.659 -0.928174 -42.7587
  383 595.604 -1.12926 -19.5733
  384 595.604 -1.12926 -19.5733
  385 921.396 16.0564 -27.8546
  386 921.396 16.0564 -27.8546
  387 519.502 7.87905 5.04087
  388 519.502 7.87905 5.04087
  389 632.558 31.3653 15.7214
  390 632.558 31.3653 15.7214
  391 678.941 -13.4189 9.94103
  392 678.941 -13.4189 9.94103
  393 521.336 9.27542 -11.3050
  394 521.336 9.27542 -11.3050
  395 974.471 96.8430 -128.082
  396 974.471 96.8430 -128.082
  397 594.691 -8.81977 -6.59610
  398 594.691 -8.81977 -6.59610
</Section>

newXOutput 156

<Section columns = "stress_xx | stress_yy | stress_xy">
  1 525.320 0.516042 -0.563858
  2 525.562 0.636070 0.759870
  3 525.320 0.516042 -0.563858
  4 525.562 0.636070 0.759870
  5 794.276 63.8559 231.353
  6 824.426 62.7642 -227.707
  7 794.276 63.8559 231.353
  8 824.426 62.7642 -227.707
  9 526.564 0.360013 -1.48314
  10 530.680 0.632488 -2.64401
  11 536.661 1.42420 -5.39043
  12 550.455 0.518640 -7.28208
  13 568.326 0.824799 -12.0579
  14 589.465 -5.39051 -12.0836
  15 609.286 -6.42462 -1.73401
  16 601.426 -4.34756 9.38753
  17 580.603 4.71495 16.9002
  18 569.191 11.3470 -0.663743
  19 577.417 5.41594 -15.9155
  20 600.903 -6.48377 -11.4236
  21 603.871 -7.80858 4.47386
  22 592.489 -3.54993 10.4447
  23 564.669 0.0876629 12.1581
  24 549.276 2.01690 9.23575
  25 537.036 1.63494 5.17609
  26 530.793 0.509276 2.42102
  27 526.859 0.426902 1.43438
  28 526.288 1.86051 0.886718
  29 525.406 3.80549 1.03542
  30 523.233 6.59560 0.923819
  31 522.366 7.66348 -0.0893131
  32 523.470 6.25992 -1.10553
  33 525.022 4.14903 -0.935553
  34 525.700 2.11310 -0.996967
  35 526.564 0.360013 -1.48314
  36 530.680 0.632488 -2.64401
  37 536.661 1.42420 -5.39043
  38 550.455 0.518640 -7.28208
  39 568.326 0.824799 -12.0579
  40 589.465 -5.39051 -12.0836
  41 609.286 -6.42462 -1.73401
  42 601.426 -4.34756 9.38753
  43 580.603 4.71495 16.9002
  44 569.191 11.3470 -0.663743
  45 577.417 5.41594 -15.9155
  46 600.903 -6.48377 -11.4236
  47 603.871 -7.80858 4.47386
  48 592.489 -3.54993 10.4447
  49 564.669 0.0876629 12.1581
  50 549.276 2.01690 9.23575
  51 537.036 1.63494 5.17609
  52 530.793 0.509276 2.42102
  53 526.859 0.426902 1.43438
  54 526.288 1.86051 0.886718
  55 525.406 3.80549 1.03542
  56 523.233 6.59560 0.923819
  57 522.366 7.66348 -0.0893131
  58 523.470 6.25992 -1.10553
  59 525.022 4.14903 -0.935553
  60 525.700 2.11310 -0.996967
  61 1094.57 58.8360 116.230
  62 999.842 16.1971 40.5597
  63 944.717 6.52272 14.8001
  64 932.860 4.77570 2.79819
  65 944.164 6.38758 -12.6125
  66 986.449 13.8339 -35.0440
  67 1104.92 51.1594 -100.103
  68 148.590 -154.854 -192.453
  69 29.4503 -383.359 -51.8913
  70 7.53202 -442.046 -22.6383
  71 7.23297 -434.718 -10.7286
  72 13.0469 -421.360 24.2651
  73 32.1777 -371.430 55.0601
  74 160.407 -143.536 212.928
  75 1094.57 58.8360 116.230
  76 999.842 16.1971 40.5597
  77 944.717 6.52272 14.8001
  78 932.860 4.77570 2.79819
  79 944.164 6.38758 -12.6125
  80 986.449 13.8339 -35.0440
  81 1104.92 51.1594 -100.103
  82 148.590 -154.854 -192.453
  83 29.4503 -383.359 -51.8913
  84 7.53202 -442.046 -22.6383
  85 7.23297 -434.718 -10.7286
  86 13.0469 -421.360 24.2651
  87 32.1777 -371.430 55.0601
  88 160.407 -143.536 212.928
  89 484.573 27.4348 -7.08489
  90 484.573 27.4348 -7.08489
  91 442.857 6.22522 64.7451
  92 425.701 -2.52271 -77.5142
  93 442.857 6.22522 64.7451
  94 425.701 -2.52271 -77.5142
  95 253.844 7.43429 31.4314
  96 253.844 7.43429 31.4314
  97 646.891 41.9640 -8.87069
  98 657.916 24.6779 17.2967
  99 646.891 41.9640 -8.87069
  100 657.916 24.6779 17.2967
  101 518.362 12.3293 6.96160
  102 518.362 12.3293 6.96160
  103 617.038 -35.1381 2.79097
  104 617.038 -35.1381 2.79097
  105 518.948 12.8988 -8.59808
  106 518.948 12.8988 -8.59808
  107 605.085 -75.1775 -70.1565
  108 605.085 -75.1775 -70.1565
  109 425.632 -89.1703 173.205
  110 425.632 -89.1703 173.205
  111 289.896 -51.7443 -140.180
  112 289.896 -51.7443 -140.180
  113 520.849 8.58187 30.4007
  114 520.849 8.58187 30.4007
  115 539.160 3.48522 -29.1617
  116 539.160 3.48522 -29.1617
  117 727.771 50.2998 10.7775
  118 778.097 49.9895 5.03212
  119 727.771 50.2998 10.7775
  120 778.097 49.9895 5.03212
  121 762.703 65.2164 -22.6866
  122 762.703 65.2164 -22.6866
  123 85.4310 -136.904 -47.1516
  124 85.4310 -136.904 -47.1516
  125 655.563 -80.8612 77.3404
  126 655.563 -80.8612 77.3404
  127 556.841 -13.5872 34.9267
  128 556.841 -13.5872 34.9267
  129 130.007 -117.958 107.732
  130 130.007 -117.958 107.732
  131 519.071 10.2815 -0.435501
  132 519.071 10.2815 -0.435501
  133 555.790 -26.1052 -44.7470
  134 555.790 -26.1052 -44.7470
  135 526.809 4.21689 5.00774
  136 526.809 4.21689 5.00774
  137 527.229 3.71351 -4.66766
  138 527.229 3.71351 -4.66766
  139 532.805 7.19702 -15.1048
  140 532.805 7.19702 -15.1048
  141 530.481 7.02265 13.5787
  142 530.481 7.02265 13.5787
  143 509.109 17.1959 -0.560334
  144 509.109 17.1959 -0.560334
  145 428.001 28.2281 -3.32546
  146 428.001 28.2281 -3.32546
  147 614.461 -21.8288 7.63531
  148 614.461 -21.8288 7.63531
  149 698.787 -22.3489 -31.7654
  150 698.787 -22.3489 -31.7654
  151 542.367 -60.8969 86.0648
  152 542.367 -60.8969 86.0648
  153 409.434 -110.274 -196.321
  154 409.434 -110.274 -196.321
  155 485.437 19.7420 29.0235
  156 485.437 19.7420 29.0235
  157 625.422 -3.44846 -20.6608
  158 625.422 -3.44846 -20.6608
  159 845.864 68.3151 50.7046
  160 845.864 68.3151 50.7046
  161 426.138 -118.773 226.390
  162 426.138 -118.773 226.390
  163 862.115 27.9586 -10.0263
  164 862.115 27.9586 -10.0263
  165 507.120 17.1602 13.3466
  166 507.120 17.1602 13.3466
  167 482.375 16.3425 -42.6253
  168 482.375 16.3425 -42.6253
  169 596.469 18.3239 12.8896
  170 596.469 18.3239 12.8896
  171 502.569 20.5087 -15.1905
  172 502.569 20.5087 -15.1905
  173 522.050 8.25928 2.19031
  174 522.050 8.25928 2.19031
  175 530.189 4.00865 -7.98325
  176 530.189 4.00865 -7.98325
  177 811.998 66.6582 -52.1823
  178 811.998 66.6582 -52.1823
  179 522.436 8.04297 -2.64232
  180 522.436 8.04297 -2.64232
  181 388.772 28.4615 -22.3173
  182 388.772 28.4615 -22.3173
  183 692.639 51.6333 2.38710
  184 692.639 51.6333 2.38710
  185 142.180 -115.843 -138.760
  186 142.180 -115.843 -138.760
  187 382.248 -3.84859 94.6073
  188 382.248 -3.84859 94.6073
  189 506.012 -82.2403 -134.209
  190 506.012 -82.2403 -134.209
  191 597.478 -16.5817 8.23451
  192 597.478 -16.5817 8.23451
  193 559.553 -2.02423 21.2912
  194 559.553 -2.02423 21.2912
  195 755.666 25.1460 49.8870
  196 755.666 25.1460 49.8870
  197 320.234 10.6685 -58.5988
  198 320.234 10.6685 -58.5988
  199 855.492 37.8075 23.1841
  200 855.492 37.8075 23.1841
  201 569.774 -7.14447 -22.6377
  202 569.774 -7.14447 -22.6377
  203 530.987 2.85826 7.35755
  204 530.987 2.85826 7.35755
  205 592.776 -23.4458 -12.5499
  206 592.776 -23.4458 -12.5499
  207 647.096 -32.0694 -6.94210
  208 647.096 -32.0694 -6.94210
  209 40.7154 -241.045 21.0837
  210 40.7154 -241.045 21.0837
  211 546.973 2.74794 -18.6019
  212 546.973 2.74794 -18.6019
  213 542.560 4.18022 16.2069
  214 542.560 4.18022 16.2069
  215 521.789 -48.1626 -85.1529
  216 521.789 -48.1626 -85.1529
  217 609.041 -12.9416 -12.5237
  218 609.041 -12.9416 -12.5237
  219 500.720 17.8972 -28.9956
  220 500.720 17.8972 -28.9956
  221 138.010 -169.867 152.825
  222 138.010 -169.867 152.825
  223 617.826 3.20779 19.7219
  224 617.826 3.20779 19.7219
  225 601.472 15.5907 -16.9667
  226 601.472 15.5907 -16.9667
  227 846.663 50.4723 -40.1255
  228 846.663 50.4723 -40.1255
  229 649.475 -23.5402 -8.03115
  230 649.475 -23.5402 -8.03115
  231 705.441 -27.7995 -130.666
  232 705.441 -27.7995 -130.666
  233 523.848 -23.7048 65.2690
  234 523.848 -23.7048 65.2690
  235 514.482 14.3447 2.24404
  236 514.482 14.3447 2.24404
  237 275.206 -39.8185 123.987
  238 275.206 -39.8185 123.987
  239 675.066 -55.4561 151.826
  240 675.066 -55.4561 151.826
  241 188.345 -22.8923 -61.5529
  242 188.345 -22.8923 -61.5529
  243 604.498 -45.6371 -30.7307
  244 604.498 -45.6371 -30.7307
  245 496.034 22.1564 16.6992
  246 496.034 22.1564 16.6992
  247 17.3593 -315.305 -17.3395
  248 17.3593 -315.305 -17.3395
  249 34.0455 -275.696 57.2876
  250 34.0455 -275.696 57.2876
  251 504.411 3.46048 46.6647
  252 504.411 3.46048 46.6647
  253 526.235 1.98290 1.80445
  254 526.235 1.98290 1.80445
  255 522.009 8.31130 0.345469
  256 522.009 8.31130 0.345469
  257 490.366 -6.09397 -62.2410
  258 490.366 -6.09397 -62.2410
  259 526.520 1.80973 -1.91167
  260 526.520 1.80973 -1.91167
  261 580.753 -41.1371 40.0025
  262 580.753 -41.1371 40.0025
  263 539.945 1.86595 -8.95536
  264 539.945 1.86595 -8.95536
  265 419.845 -35.5896 -116.343
  266 419.845 -35.5896 -116.343
  267 710.321 54.8433 -0.425265
  268 710.321 54.8433 -0.425265
  269 521.325 11.4102 -23.5059
  270 521.325 11.4102 -23.5059
  271 519.418 10.6743 -4.63285
  272 519.418 10.6743 -4.63285
  273 443.405 21.4961 -42.6799
  274 443.405 21.4961 -42.6799
  275 136.532 -50.4189 35.7383
  276 136.532 -50.4189 35.7383
  277 553.990 -92.6633 119.966
  278 553.990 -92.6633 119.966
  279 524.729 7.70473 9.07061
  280 524.729 7.70473 9.07061
  281 772.852 54.4495 -13.0100
  282 772.852 54.4495 -13.0100
  283 917.250 82.5002 111.579
  284 917.250 82.5002 111.579
  285 621.669 -66.1933 40.8466
  286 621.669 -66.1933 40.8466
  287 452.089 22.5164 31.2196
  288 452.089 22.5164 31.2196
  289 568.640 -113.943 158.473
  290 568.640 -113.943 158.473
  291 587.743 -7.04207 14.7418
  292 587.743 -7.04207 14.7418
  293 524.408 5.07254 2.47400
  294 524.408 5.07254 2.47400
  295 517.298 14.0245 -14.9028
  296 517.298 14.0245 -14.9028
  297 522.131 8.17915 -0.679683
  298 522.131 8.17915 -0.679683
  299 529.238 1.44601 -3.45652
  300 529.238 1.44601 -3.45652
  301 539.502 2.62695 8.98969
  302 539.502 2.62695 8.98969
  303 514.613 14.2702 -3.81363
  304 514.613 14.2702 -3.81363
  305 118.269 -197.978 -145.768
  306 118.269 -197.978 -145.768
  307 356.306 23.3989 29.2393
  308 356.306 23.3989 29.2393
  309 524.944 4.23730 -2.37458
  310 524.944 4.23730 -2.37458
  311 464.480 26.5639 -20.8930
  312 464.480 26.5639 -20.8930
  313 465.683 28.9609 7.93892
  314 465.683 28.9609 7.93892
  315 523.907 7.40868 -6.41535
  316 523.907 7.40868 -6.41535
  317 699.025 38.1902 -5.58769
  318 699.025 38.1902 -5.58769
  319 520.166 12.4264 20.5416
  320 520.166 12.4264 20.5416
  321 661.178 21.5269 -15.1674
  322 661.178 21.5269 -15.1674
  323 961.358 26.9413 65.5490
  324 961.358 26.9413 65.5490
  325 518.323 12.8629 12.8553
  326 518.323 12.8629 12.8553
  327 510.459 17.0360 6.72500
  328 510.459 17.0360 6.72500
  329 396.445 -78.5488 -227.167
  330 396.445 -78.5488 -227.167
  331 529.547 1.30664 3.38070
  332 529.547 1.30664 3.38070
  333 518.949 10.7520 3.46365
  334 518.949 10.7520 3.46365
  335 500.546 22.1375 0.772452
  336 500.546 22.1375 0.772452
  337 259.950 -91.4253 181.725
  338 259.950 -91.4253 181.725
  339 643.092 42.3774 2.68955
  340 643.092 42.3774 2.68955
  341 36.6981 -269.811 -65.8121
  342 36.6981 -269.811 -65.8121
  343 404.736 25.5097 25.9165
  344 404.736 25.5097 25.9165
  345 910.271 12.1220 8.82744
  346 910.271 12.1220 8.82744
  347 950.849 48.8670 -67.8370
  348 950.849 48.8670 -67.8370
  349 453.245 -52.6339 130.202
  350 472.957 -26.9965 95.9221
  351 453.245 -52.6339 130.202
  352 472.957 -26.9965 95.9221
  353 923.539 22.6059 33.9504
  354 923.539 22.6059 33.9504
  355 536.163 -0.859133 36.3781
  356 536.163 -0.859133 36.3781
  357 630.655 -85.2598 -94.2877
  358 630.655 -85.2598 -94.2877
  359 602.941 -5.09094 16.3968
  360 602.941 -5.09094 16.3968
  361 404.639 -79.0025 247.873
  362 404.639 -79.0025 247.873
  363 702.915 56.3229 -1.81311
  364 702.915 56.3229 -1.81311
  365 921.871 8.17676 -7.04612
  366 921.871 8.17676 -7.04612
  367 569.336 0.153837 -17.7020
  368 569.336 0.153837 -17.7020
  369 510.451 18.1276 -8.05946
  370 510.451 18.1276 -8.05946
  371 781.809 60.8801 21.8233
  372 781.809 60.8801 21.8233
  373 604.765 25.4836 -3.58946
  374 604.765 25.4836 -3.58946
  375 549.261 2.01353 -11.1666
  376 549.261 2.01353 -11.1666
  377 152.369 -73.1298 -104.890
  378 152.369 -73.1298 -104.890
  379 606.649 -10.9915 3.92577
  380 606.649 -10.9915 3.92577
  381 520.817 -0.935911 -43.0160
  382 520.817 -0.935911 -43.0160
  383 599.232 -1.13407 -19.6683
  384 599.232 -1.13407 -19.6683
  385 926.726 16.1453 -28.0149
  386 926.726 16.1453 -28.0149
  387 522.673 7.92465 5.06825
  388 522.673 7.92465 5.06825
  389 636.400 31.5653 15.7864
  390 636.400 31.5653 15.7864
  391 683.000 -13.4752 10.0639
  392 683.000 -13.4752 10.0639
  393 524.516 9.32935 -11.3676
  394 524.516 9.32935 -11.3676
  395 980.093 97.5064 -128.898
  396 980.093 97.5064 -128.898
  397 598.277 -8.87612 -6.64319
  398 598.277 -8.87612 -6.64319
</Section>

newXOutput 157

<Section columns = "stress_xx | stress_yy | stress_xy">
  1 528.501 0.519244 -0.566777
  2 528.744 0.639934 0.763794
  3 528.501 0.519244 -0.566777
  4 528.744 0.639934 0.763794
  5 798.813 64.4306 232.825
  6 829.121 63.3396 -229.157
  7 798.813 64.4306 232.825
  8 829.121 63.3396 -229.157
  9 529.751 0.362172 -1.49089
  10 533.888 0.636189 -2.65798
  11 539.900 1.43234 -5.41939
  12 553.766 0.521324 -7.32197
  13 571.732 0.828375 -12.1264
  14 592.989 -5.42562 -12.1563
  15 612.929 -6.46514 -1.75075
  16 605.051 -4.37374 9.43046
  17 584.139 4.74720 16.9848
  18 572.676 11.4200 -0.667151
  19 580.937 5.45029 -15.9961
  20 604.526 -6.52319 -11.4755
  21 607.485 -7.85797 4.50829
  22 596.031 -3.57284 10.5081
  23 568.058 0.0863579 12.2278
  24 552.581 2.02802 9.28663
  25 540.278 1.64429 5.20382
  26 534.003 0.512272 2.43378
  27 530.048 0.429486 1.44192
  28 529.474 1.87136 0.891279
  29 528.588 3.82743 1.04084
  30 526.404 6.63326 0.928705
  31 525.533 7.70713 -0.0897806
  32 526.642 6.29573 -1.11133
  33 528.201 4.17295 -0.940326
  34 528.883 2.12549 -1.00219
  35 529.751 0.362172 -1.49089
  36 533.888 0.636189 -2.65798
  37 539.900 1.43234 -5.41939
  38 553.766 0.521324 -7.32197
  39 571.732 0.828375 -12.1264
  40 592.989 -5.42562 -12.1563
  41 612.929 -6.46514 -1.75075
  42 605.051 -4.37374 9.43046
  43 584.139 4.74720 16.9848
  44 572.676 11.4200 -0.667151
  45 580.937 5.45029 -15.9961
  46 604.526 -6.52319 -11.4755
  47 607.485 -7.85797 4.50829
  48 596.031 -3.57284 10.5081
  49 568.058 0.0863579 12.2278
  50 552.581 2.02802 9.28663
  51 540.278 1.64429 5.20382
  52 534.003 0.512272 2.43378
  53 530.048 0.429486 1.44192
  54 529.474 1.87136 0.891279
  55 528.588 3.82743 1.04084
  56 526.404 6.63326 0.928705
  57 525.533 7.70713 -0.0897806
  58 526.642 6.29573 -1.11133
  59 528.201 4.17295 -0.940326
  60 528.883 2.12549 -1.00219
  61 1100.73 59.2006 116.912
  62 1005.51 16.2860 40.7871
  63 950.101 6.55407 14.8797
  64 938.183 4.79978 2.81133
  65 949.544 6.42094 -12.6799
  66 992.050 13.9088 -35.2376
  67 1111.14 51.4754 -100.691
  68 149.468 -155.597 -193.737
  69 29.6257 -385.714 -52.2847
  70 7.56235 -444.866 -22.8097
  71 7.26287 -437.502 -10.7969
  72 13.1153 -424.032 24.4495
  73 32.3733 -373.710 55.4794
  74 161.341 -144.211 214.343
  75 1100.73 59.2006 116.912
  76 1005.51 16.2860 40.7871
  77 950.101 6.55407 14.8797
  78 938.183 4.79978 2.81133
  79 949.544 6.42094 -12.6799
  80 992.050 13.9088 -35.2376
  81 1111.14 51.4754 -100.691
  82 149.468 -155.597 -193.737
  83 29.6257 -385.714 -52.2847
  84 7.56235 -444.866 -22.8097
  85 7.26287 -437.502 -10.7969
  86 13.1153 -424.032 24.4495
  87 32.3733 -373.710 55.4794
  88 161.341 -144.211 214.343
  89 487.537 27.5974 -7.12593
  90 487.537 27.5974 -7.12593
  91 445.573 6.26472 65.1337
  92 428.315 -2.53626 -77.9839
  93 445.573 6.26472 65.1337
  94 428.315 -2.53626 -77.9839
  95 255.453 7.49718 31.6267
  96 255.453 7.49718 31.6267
  97 650.795 42.2233 -8.90467
  98 661.863 24.8420 17.3531
  99 650.795 42.2233 -8.90467
  100 661.863 24.8420 17.3531
  101 521.509 12.4005 6.99972
  102 521.509 12.4005 6.99972
  103 620.732 -35.3492 2.84239
  104 620.732 -35.3492 2.84239
  105 522.097 12.9734 -8.64531
  106 522.097 12.9734 -8.64531
  107 608.686 -75.6346 -70.6096
  108 608.686 -75.6346 -70.6096
  109 428.204 -89.7201 174.291
  110 428.204 -89.7201 174.291
  111 291.687 -52.0541 -141.068
  112 291.687 -52.0541 -141.068
  113 524.007 8.63094 30.5772
  114 524.007 8.63094 30.5772
  115 542.417 3.50323 -29.3327
  116 542.417 3.50323 -29.3327
  117 732.101 50.6240 10.9021
  118 782.699 50.2778 5.07138
  119 732.101 50.6240 10.9021
  120 782.699 50.2778 5.07138
  121 767.228 65.6186 -22.8675
  122 767.228 65.6186 -22.8675
  123 85.9696 -137.709 -47.4719
  124 85.9696 -137.709 -47.4719
  125 659.437 -81.3294 77.8646
  126 659.437 -81.3294 77.8646
  127 560.194 -13.6718 35.1415
  128 560.194 -13.6718 35.1415
  129 130.824 -118.647 108.452
  130 130.824 -118.647 108.452
  131 522.222 10.3405 -0.437800
  132 522.222 10.3405 -0.437800
  133 559.134 -26.2660 -45.0261
  134 559.134 -26.2660 -45.0261
  135 529.998 4.24124 5.03455
  136 529.998 4.24124 5.03455
  137 530.420 3.73504 -4.69256
  138 530.420 3.73504 -4.69256
  139 536.026 7.23810 -15.1891
  140 536.026 7.23810 -15.1891
  141 533.690 7.06295 13.6539
  142 533.690 7.06295 13.6539
  143 512.208 17.2958 -0.563585
  144 512.208 17.2958 -0.563585
  145 430.647 28.3995 -3.34565
  146 430.647 28.3995 -3.34565
  147 618.149 -21.9583 7.65098
  148 618.149 -21.9583 7.65098
  149 702.922 -22.4449 -32.0289
  150 702.922 -22.4449 -32.0289
  151 545.622 -61.2704 86.5999
  152 545.622 -61.2704 86.5999
  153 411.886 -110.927 -197.584
  154 411.886 -110.927 -197.584
  155 488.402 19.8597 29.1932
  156 488.402 19.8597 29.1932
  157 629.180 -3.46264 -20.7475
  158 629.180 -3.46264 -20.7475
  159 850.814 68.7345 51.0422
  160 850.814 68.7345 51.0422
  161 428.685 -119.489 227.833
  162 428.685 -119.489 227.833
  163 867.128 28.1116 -10.0874
  164 867.128 28.1116 -10.0874
  165 510.207 17.2602 13.4218
  166 510.207 17.2602 13.4218
  167 485.320 16.4405 -42.8775
  168 485.320 16.4405 -42.8775
  169 600.096 18.4412 12.9527
  170 600.096 18.4412 12.9527
  171 505.631 20.6289 -15.2768
  172 505.631 20.6289 -15.2768
  173 525.215 8.30659 2.20205
  174 525.215 8.30659 2.20205
  175 533.396 4.03163 -8.02654
  176 533.396 4.03163 -8.02654
  177 816.763 67.0994 -52.5607
  178 816.763 67.0994 -52.5607
  179 525.603 8.08914 -2.65643
  180 525.603 8.08914 -2.65643
  181 391.188 28.6389 -22.4519
  182 391.188 28.6389 -22.4519
  183 696.789 51.9505 2.36781
  184 696.789 51.9505 2.36781
  185 143.064 -116.520 -139.683
  186 143.064 -116.520 -139.683
  187 384.605 -3.86782 95.1849
  188 384.605 -3.86782 95.1849
  189 509.048 -82.7455 -135.050
  190 509.048 -82.7455 -135.050
  191 601.063 -16.6843 8.29975
  192 601.063 -16.6843 8.29975
  193 562.918 -2.03897 21.4170
  194 562.918 -2.03897 21.4170
  195 760.119 25.3481 50.2642
  196 760.119 25.3481 50.2642
  197 322.236 10.7438 -58.9597
  198 322.236 10.7438 -58.9597
  199 860.479 38.0202 23.3292
  200 860.479 38.0202 23.3292
  201 573.198 -7.19051 -22.7766
  202 573.198 -7.19051 -22.7766
  203 534.197 2.87455 7.39735
  204 534.197 2.87455 7.39735
  205 596.332 -23.5911 -12.6426
  206 596.332 -23.5911 -12.6426
  207 650.955 -32.2518 -7.03214
  208 650.955 -32.2518 -7.03214
  209 40.9653 -242.520 21.2326
  210 40.9653 -242.520 21.2326
  211 550.269 2.76192 -18.7083
  212 550.269 2.76192 -18.7083
  213 545.833 4.20365 16.2986
  214 545.833 4.20365 16.2986
  215 524.934 -48.4579 -85.6797
  216 524.934 -48.4579 -85.6797
  217 612.703 -13.0198 -12.5728
  218 612.703 -13.0198 -12.5728
  219 503.770 18.0029 -29.1647
  220 503.770 18.0029 -29.1647
  221 138.848 -170.853 153.856
  222 138.848 -170.853 153.856
  223 621.552 3.23550 19.8085
  224 621.552 3.23550 19.8085
  225 605.122 15.6912 -17.0474
  226 605.122 15.6912 -17.0474
  227 851.612 50.7659 -40.3851
  228 851.612 50.7659 -40.3851
  229 653.351 -23.6703 -8.03019
  230 653.351 -23.6703 -8.03019
  231 709.576 -27.8876 -131.541
  232 709.576 -27.8876 -131.541
  233 527.012 -23.8496 65.6659
  234 527.012 -23.8496 65.6659
  235 517.609 14.4277 2.25640
  236 517.609 14.4277 2.25640
  237 276.916 -40.0526 124.770
  238 276.916 -40.0526 124.770
  239 679.022 -55.7263 152.825
  240 679.022 -55.7263 152.825
  241 189.543 -23.0071 -61.9462
  242 189.543 -23.0071 -61.9462
  243 608.111 -45.9150 -30.9425
  244 608.111 -45.9150 -30.9425
  245 499.060 22.2872 16.7951
  246 499.060 22.2872 16.7951
  247 17.4568 -317.265 -17.4658
  248 17.4568 -317.265 -17.4658
  249 34.2503 -277.380 57.7004
  250 34.2503 -277.380 57.7004
  251 507.476 3.48045 46.9422
  252 507.476 3.48045 46.9422
  253 529.421 1.99446 1.81394
  254 529.421 1.99446 1.81394
  255 525.174 8.35872 0.347336
  256 525.174 8.35872 0.347336
  257 493.349 -6.13179 -62.6160
  258 493.349 -6.13179 -62.6160
  259 529.707 1.82036 -1.92173
  260 529.707 1.82036 -1.92173
  261 584.234 -41.3886 40.2618
  262 584.234 -41.3886 40.2618
  263 543.201 1.87633 -9.00431
  264 543.201 1.87633 -9.00431
  265 422.407 -35.8076 -117.059
  266 422.407 -35.8076 -117.059
  267 714.568 55.1775 -0.394439
  268 714.568 55.1775 -0.394439
  269 524.486 11.4761 -23.6403
  270 524.486 11.4761 -23.6403
  271 522.570 10.7357 -4.65792
  272 522.570 10.7357 -4.65792
  273 446.132 21.6273 -42.9343
  274 446.132 21.6273 -42.9343
  275 137.405 -50.6914 35.9721
  276 137.405 -50.6914 35.9721
  277 557.294 -93.2310 120.722
  278 557.294 -93.2310 120.722
  279 527.908 7.74912 9.12004
  280 527.908 7.74912 9.12004
  281 777.429 54.7676 -13.1041
  282 777.429 54.7676 -13.1041
  283 922.544 83.0537 112.294
  284 922.544 83.0537 112.294
  285 625.370 -66.5908 41.1324
  286 625.370 -66.5908 41.1324
  287 454.867 22.6528 31.4038
  288 454.867 22.6528 31.4038
  289 572.009 -114.636 159.476
  290 572.009 -114.636 159.476
  291 591.266 -7.08692 14.8346
  292 591.266 -7.08692 14.8346
  293 527.585 5.10168 2.48715
  294 527.585 5.10168 2.48715
  295 520.439 14.1059 -14.9860
  296 520.439 14.1059 -14.9860
  297 525.297 8.22585 -0.683297
  298 525.297 8.22585 -0.683297
  299 532.439 1.45440 -3.47490
  300 532.439 1.45440 -3.47490
  301 542.757 2.64176 9.03881
  302 542.757 2.64176 9.03881
  303 517.740 14.3528 -3.83461
  304 517.740 14.3528 -3.83461
  305 118.984 -199.122 -146.759
  306 118.984 -199.122 -146.759
  307 358.529 23.5484 29.4161
  308 358.529 23.5484 29.4161
  309 528.123 4.26175 -2.38714
  310 528.123 4.26175 -2.38714
  311 467.330 26.7230 -21.0157
  312 467.330 26.7230 -21.0157
  313 468.542 29.1343 7.98501
  314 468.542 29.1343 7.98501
  315 527.082 7.45137 -6.45003
  316 527.082 7.45137 -6.45003
  317 703.192 38.4465 -5.68260
  318 703.192 38.4465 -5.68260
  319 523.321 12.4985 20.6579
  320 523.321 12.4985 20.6579
  321 665.141 21.6713 -15.2117
  322 665.141 21.6713 -15.2117
  323 966.868 27.0898 65.9397
  324 966.868 27.0898 65.9397
  325 521.470 12.9374 12.9267
  326 521.470 12.9374 12.9267
  327 513.564 17.1350 6.76237
  328 513.564 17.1350 6.76237
  329 398.782 -78.8743 -228.654
  330 398.782 -78.8743 -228.654
  331 532.750 1.31421 3.39866
  332 532.750 1.31421 3.39866
  333 522.099 10.8138 3.48243
  334 522.099 10.8138 3.48243
  335 503.598 22.2672 0.776788
  336 503.598 22.2672 0.776788
  337 261.550 -91.9781 182.897
  338 261.550 -91.9781 182.897
  339 646.977 42.6386 2.69780
  340 646.977 42.6386 2.69780
  341 36.9146 -271.456 -66.2769
  342 36.9146 -271.456 -66.2769
  343 407.245 25.6671 26.0708
  344 407.245 25.6671 26.0708
  345 915.502 12.1859 8.87558
  346 915.502 12.1859 8.87558
  347 956.320 49.1609 -68.2467
  348 956.320 49.1609 -68.2467
  349 455.990 -52.9581 131.005
  350 475.829 -27.1613 96.5046
  351 455.990 -52.9581 131.005
  352 475.829 -27.1613 96.5046
  353 928.848 22.7279 34.1467
  354 928.848 22.7279 34.1467
  355 539.403 -0.866381 36.5940
  356 539.403 -0.866381 36.5940
  357 634.384 -85.7669 -94.9054
  358 634.384 -85.7669 -94.9054
  359 606.579 -5.11941 16.4743
  360 606.579 -5.11941 16.4743
  361 407.006 -79.3397 249.481
  362 407.006 -79.3397 249.481
  363 707.126 56.6596 -1.82246
  364 707.126 56.6596 -1.82246
  365 927.153 8.21929 -7.08599
  366 927.153 8.21929 -7.08599
  367 572.752 0.152281 -17.8053
  368 572.752 0.152281 -17.8053
  369 513.556 18.2332 -8.10442
  370 513.556 18.2332 -8.10442
  371 786.432 61.2437 21.9859
  372 786.432 61.2437 21.9859
  373 608.439 25.6427 -3.60653
  374 608.439 25.6427 -3.60653
  375 552.567 2.02419 -11.2288
  376 552.567 2.02419 -11.2288
  377 153.342 -73.5505 -105.577
  378 153.342 -73.5505 -105.577
  379 610.289 -11.0589 3.93368
  380 610.289 -11.0589 3.93368
  381 523.972 -0.943668 -43.2731
  382 523.972 -0.943668 -43.2731
  383 602.858 -1.13884 -19.7630
  384 602.858 -1.13884 -19.7630
  385 932.048 16.2341 -28.1751
  386 932.048 16.2341 -28.1751
  387 525.842 7.97018 5.09557
  388 525.842 7.97018 5.09557
  389 640.238 31.7654 15.8510
  390 640.238 31.7654 15.8510
  391 687.056 -13.5312 10.1875
  392 687.056 -13.5312 10.1875
  393 527.694 9.38321 -11.4300
  394 527.694 9.38321 -11.4300
  395 985.706 98.1702 -129.713
  396 985.706 98.1702 -129.713
  397 601.859 -8.93246 -6.69032
  398 601.859 -8.93246 -6.69032
</Section>

newXOutput 158

<Section columns = "stress_xx | stress_yy | stress_xy">
  1 531.680 0.522444 -0.569687
  2 531.924 0.643796 0.767707
  3 531.680 0.522444 -0.569687
  4 531.924 0.643796 0.767707
  5 803.344 65.0070 234.296
  6 833.809 63.9170 -230.606
  7 803.344 65.0070 234.296
  8 833.809 63.9170 -230.606
  9 532.936 0.364329 -1.49861
  10 537.094 0.639886 -2.67192
  11 543.136 1.44046 -5.44829
  12 557.074 0.524001 -7.36177
  13 575.136 0.831931 -12.1948
  14 596.511 -5.46073 -12.2289
  15 616.569 -6.50564 -1.76755
  16 608.673 -4.39990 9.47319
  17 587.672 4.77948 17.0690
  18 576.159 11.4930 -0.670548
  19 584.453 5.48463 -16.0764
  20 608.147 -6.56258 -11.5271
  21 611.095 -7.90735 4.54277
  22 599.570 -3.59576 10.5715
  23 571.444 0.0850319 12.2975
  24 555.883 2.03912 9.33741
  25 543.516 1.65362 5.23148
  26 537.209 0.515266 2.44651
  27 533.235 0.432068 1.44944
  28 532.657 1.88218 0.895828
  29 531.767 3.84934 1.04624
  30 529.573 6.67087 0.933579
  31 528.698 7.75071 -0.0902469
  32 529.812 6.33148 -1.11711
  33 531.378 4.19684 -0.945086
  34 532.064 2.13786 -1.00740
  35 532.936 0.364329 -1.49861
  36 537.094 0.639886 -2.67192
  37 543.136 1.44046 -5.44829
  38 557.074 0.524001 -7.36177
  39 575.136 0.831931 -12.1948
  40 596.511 -5.46073 -12.2289
  41 616.569 -6.50564 -1.76755
  42 608.673 -4.39990 9.47319
  43 587.672 4.77948 17.0690
  44 576.159 11.4930 -0.670548
  45 584.453 5.48463 -16.0764
  46 608.147 -6.56258 -11.5271
  47 611.095 -7.90735 4.54277
  48 599.570 -3.59576 10.5715
  49 571.444 0.0850319 12.2975
  50 555.883 2.03912 9.33741
  51 543.516 1.65362 5.23148
  52 537.209 0.515266 2.44651
  53 533.235 0.432068 1.44944
  54 532.657 1.88218 0.895828
  55 531.767 3.84934 1.04624
  56 529.573 6.67087 0.933579
  57 528.698 7.75071 -0.0902469
  58 529.812 6.33148 -1.11711
  59 531.378 4.19684 -0.945086
  60 532.064 2.13786 -1.00740
  61 1106.89 59.5649 117.594
  62 1011.16 16.3748 41.0141
  63 955.478 6.58530 14.9591
  64 943.497 4.82379 2.82442
  65 954.916 6.45422 -12.7472
  66 997.642 13.9835 -35.4309
  67 1117.36 51.7912 -101.278
  68 150.345 -156.338 -195.022
  69 29.8009 -388.067 -52.6788
  70 7.59247 -447.685 -22.9814
  71 7.29257 -440.285 -10.8652
  72 13.1836 -426.703 24.6343
  73 32.5688 -375.989 55.8995
  74 162.275 -144.884 215.757
  75 1106.89 59.5649 117.594
  76 1011.16 16.3748 41.0141
  77 955.478 6.58530 14.9591
  78 943.497 4.82379 2.82442
  79 954.916 6.45422 -12.7472
  80 997.642 13.9835 -35.4309
  81 1117.36 51.7912 -101.278
  82 150.345 -156.338 -195.022
  83 29.8009 -388.067 -52.6788
  84 7.59247 -447.685 -22.9814
  85 7.29257 -440.285 -10.8652
  86 13.1836 -426.703 24.6343
  87 32.5688 -375.989 55.8995
  88 162.275 -144.884 215.757
  89 490.500 27.7599 -7.16692
  90 490.500 27.7599 -7.16692
  91 448.287 6.30420 65.5219
  92 430.927 -2.54978 -78.4533
  93 448.287 6.30420 65.5219
  94 430.927 -2.54978 -78.4533
  95 257.061 7.56022 31.8219
  96 257.061 7.56022 31.8219
  97 654.695 42.4824 -8.93838
  98 665.806 25.0060 17.4089
  99 654.695 42.4824 -8.93838
  100 665.806 25.0060 17.4089
  101 524.653 12.4716 7.03776
  102 524.653 12.4716 7.03776
  103 624.423 -35.5600 2.89417
  104 624.423 -35.5600 2.89417
  105 525.244 13.0480 -8.69244
  106 525.244 13.0480 -8.69244
  107 612.284 -76.0914 -71.0628
  108 612.284 -76.0914 -71.0628
  109 430.774 -90.2696 175.377
  110 430.774 -90.2696 175.377
  111 293.477 -52.3636 -141.956
  112 293.477 -52.3636 -141.956
  113 527.162 8.67994 30.7535
  114 527.162 8.67994 30.7535
  115 545.671 3.52119 -29.5035
  116 545.671 3.52119 -29.5035
  117 736.427 50.9481 11.0272
  118 787.297 50.5657 5.11070
  119 736.427 50.9481 11.0272
  120 787.297 50.5657 5.11070
  121 771.748 66.0205 -23.0489
  122 771.748 66.0205 -23.0489
  123 86.5080 -138.513 -47.7923
  124 86.5080 -138.513 -47.7923
  125 663.306 -81.7969 78.3891
  126 663.306 -81.7969 78.3891
  127 563.545 -13.7565 35.3562
  128 563.545 -13.7565 35.3562
  129 131.641 -119.335 109.172
  130 131.641 -119.335 109.172
  131 525.370 10.3995 -0.440093
  132 525.370 10.3995 -0.440093
  133 562.476 -26.4267 -45.3051
  134 562.476 -26.4267 -45.3051
  135 533.184 4.26555 5.06130
  136 533.184 4.26555 5.06130
  137 533.608 3.75655 -4.71739
  138 533.608 3.75655 -4.71739
  139 539.245 7.27911 -15.2732
  140 539.245 7.27911 -15.2732
  141 536.896 7.10319 13.7290
  142 536.896 7.10319 13.7290
  143 515.304 17.3956 -0.566831
  144 515.304 17.3956 -0.566831
  145 433.291 28.5707 -3.36583
  146 433.291 28.5707 -3.36583
  147 621.833 -22.0875 7.66628
  148 621.833 -22.0875 7.66628
  149 707.053 -22.5402 -32.2931
  150 707.053 -22.5402 -32.2931
  151 548.874 -61.6437 87.1347
  152 548.874 -61.6437 87.1347
  153 414.335 -111.580 -198.848
  154 414.335 -111.580 -198.848
  155 491.366 19.9774 29.3627
  156 491.366 19.9774 29.3627
  157 632.934 -3.47673 -20.8337
  158 632.934 -3.47673 -20.8337
  159 855.758 69.1536 51.3799
  160 855.758 69.1536 51.3799
  161 431.229 -120.204 229.275
  162 431.229 -120.204 229.275
  163 872.133 28.2643 -10.1484
  164 872.133 28.2643 -10.1484
  165 513.292 17.3601 13.4969
  166 513.292 17.3601 13.4969
  167 488.264 16.5383 -43.1295
  168 488.264 16.5383 -43.1295
  169 603.720 18.5585 13.0156
  170 603.720 18.5585 13.0156
  171 508.692 20.7490 -15.3630
  172 508.692 20.7490 -15.3630
  173 528.378 8.35383 2.21376
  174 528.378 8.35383 2.21376
  175 536.599 4.05458 -8.06973
  176 536.599 4.05458 -8.06973
  177 821.523 67.5407 -52.9395
  178 821.523 67.5407 -52.9395
  179 528.768 8.13524 -2.67050
  180 528.768 8.13524 -2.67050
  181 393.602 28.8161 -22.5863
  182 393.602 28.8161 -22.5863
  183 700.935 52.2675 2.34816
  184 700.935 52.2675 2.34816
  185 143.948 -117.195 -140.606
  186 143.948 -117.195 -140.606
  187 386.961 -3.88699 95.7621
  188 386.961 -3.88699 95.7621
  189 512.081 -83.2505 -135.891
  190 512.081 -83.2505 -135.891
  191 604.644 -16.7869 8.36512
  192 604.644 -16.7869 8.36512
  193 566.281 -2.05374 21.5427
  194 566.281 -2.05374 21.5427
  195 764.566 25.5506 50.6420
  196 764.566 25.5506 50.6420
  197 324.238 10.8193 -59.3205
  198 324.238 10.8193 -59.3205
  199 865.461 38.2325 23.4741
  200 865.461 38.2325 23.4741
  201 576.618 -7.23654 -22.9155
  202 576.618 -7.23654 -22.9155
  203 537.405 2.89082 7.43706
  204 537.405 2.89082 7.43706
  205 599.884 -23.7363 -12.7356
  206 599.884 -23.7363 -12.7356
  207 654.811 -32.4338 -7.12269
  208 654.811 -32.4338 -7.12269
  209 41.2150 -243.994 21.3818
  210 41.2150 -243.994 21.3818
  211 553.563 2.77586 -18.8145
  212 553.563 2.77586 -18.8145
  213 549.103 4.22703 16.3901
  214 549.103 4.22703 16.3901
  215 528.075 -48.7530 -86.2062
  216 528.075 -48.7530 -86.2062
  217 616.362 -13.0979 -12.6216
  218 616.362 -13.0979 -12.6216
  219 506.817 18.1085 -29.3336
  220 506.817 18.1085 -29.3336
  221 139.687 -171.838 154.887
  222 139.687 -171.838 154.887
  223 625.274 3.26328 19.8946
  224 625.274 3.26328 19.8946
  225 608.769 15.7917 -17.1277
  226 608.769 15.7917 -17.1277
  227 856.556 51.0592 -40.6447
  228 856.556 51.0592 -40.6447
  229 657.223 -23.8003 -8.02864
  230 657.223 -23.8003 -8.02864
  231 713.706 -27.9746 -132.416
  232 713.706 -27.9746 -132.416
  233 530.172 -23.9944 66.0624
  234 530.172 -23.9944 66.0624
  235 520.733 14.5105 2.26875
  236 520.733 14.5105 2.26875
  237 278.625 -40.2865 125.553
  238 278.625 -40.2865 125.553
  239 682.974 -55.9954 153.824
  240 682.974 -55.9954 153.824
  241 190.741 -23.1215 -62.3395
  242 190.741 -23.1215 -62.3395
  243 611.721 -46.1927 -31.1544
  244 611.721 -46.1927 -31.1544
  245 502.084 22.4178 16.8909
  246 502.084 22.4178 16.8909
  247 17.5541 -319.224 -17.5922
  248 17.5541 -319.224 -17.5922
  249 34.4549 -279.063 58.1138
  250 34.4549 -279.063 58.1138
  251 510.538 3.50040 47.2193
  252 510.538 3.50040 47.2193
  253 532.605 2.00601 1.82341
  254 532.605 2.00601 1.82341
  255 528.337 8.40608 0.349198
  256 528.337 8.40608 0.349198
  257 496.329 -6.16959 -62.9906
  258 496.329 -6.16959 -62.9906
  259 532.892 1.83098 -1.93177
  260 532.892 1.83098 -1.93177
  261 587.711 -41.6399 40.5211
  262 587.711 -41.6399 40.5211
  263 546.455 1.88669 -9.05316
  264 546.455 1.88669 -9.05316
  265 424.967 -36.0255 -117.776
  266 424.967 -36.0255 -117.776
  267 718.810 55.5116 -0.363255
  268 718.810 55.5116 -0.363255
  269 527.645 11.5418 -23.7745
  270 527.645 11.5418 -23.7745
  271 525.720 10.7971 -4.68294
  272 525.720 10.7971 -4.68294
  273 448.857 21.7583 -43.1884
  274 448.857 21.7583 -43.1884
  275 138.279 -50.9632 36.2060
  276 138.279 -50.9632 36.2060
  277 560.595 -93.7983 121.478
  278 560.595 -93.7983 121.478
  279 531.085 7.79345 9.16936
  280 531.085 7.79345 9.16936
  281 782.001 55.0853 -13.1983
  282 782.001 55.0853 -13.1983
  283 927.831 83.6073 113.008
  284 927.831 83.6073 113.008
  285 629.068 -66.9879 41.4185
  286 629.068 -66.9879 41.4185
  287 457.644 22.7890 31.5877
  288 457.644 22.7890 31.5877
  289 575.375 -115.328 160.479
  290 575.375 -115.328 160.479
  291 594.785 -7.13176 14.9273
  292 594.785 -7.13176 14.9273
  293 530.760 5.13079 2.50026
  294 530.760 5.13079 2.50026
  295 523.577 14.1872 -15.0691
  296 523.577 14.1872 -15.0691
  297 528.460 8.27248 -0.686901
  298 528.460 8.27248 -0.686901
  299 535.637 1.46278 -3.49323
  300 535.637 1.46278 -3.49323
  301 546.009 2.65656 9.08783
  302 546.009 2.65656 9.08783
  303 520.865 14.4353 -3.85555
  304 520.865 14.4353 -3.85555
  305 119.698 -200.265 -147.751
  306 119.698 -200.265 -147.751
  307 360.751 23.6978 29.5927
  308 360.751 23.6978 29.5927
  309 531.300 4.28616 -2.39967
  310 531.300 4.28616 -2.39967
  311 470.179 26.8820 -21.1384
  312 470.179 26.8820 -21.1384
  313 471.399 29.3075 8.03103
  314 471.399 29.3075 8.03103
  315 530.254 7.49399 -6.48464
  316 530.254 7.49399 -6.48464
  317 707.354 38.7029 -5.77814
  318 707.354 38.7029 -5.77814
  319 526.474 12.5705 20.7739
  320 526.474 12.5705 20.7739
  321 669.100 21.8158 -15.2554
  322 669.100 21.8158 -15.2554
  323 972.370 27.2381 66.3299
  324 972.370 27.2381 66.3299
  325 524.614 13.0119 12.9980
  326 524.614 13.0119 12.9980
  327 516.667 17.2338 6.79966
  328 516.667 17.2338 6.79966
  329 401.116 -79.1976 -230.140
  330 401.116 -79.1976 -230.140
  331 535.950 1.32178 3.41658
  332 535.950 1.32178 3.41658
  333 525.246 10.8756 3.50118
  334 525.246 10.8756 3.50118
  335 506.649 22.3968 0.781116
  336 506.649 22.3968 0.781116
  337 263.149 -92.5306 184.070
  338 263.149 -92.5306 184.070
  339 650.859 42.8997 2.70594
  340 650.859 42.8997 2.70594
  341 37.1308 -273.100 -66.7422
  342 37.1308 -273.100 -66.7422
  343 409.753 25.8245 26.2250
  344 409.753 25.8245 26.2250
  345 920.726 12.2497 8.92361
  346 920.726 12.2497 8.92361
  347 961.783 49.4545 -68.6559
  348 961.783 49.4545 -68.6559
  349 458.733 -53.2822 131.808
  350 478.699 -27.3260 97.0867
  351 458.733 -53.2822 131.808
  352 478.699 -27.3260 97.0867
  353 934.150 22.8497 34.3426
  354 934.150 22.8497 34.3426
  355 542.641 -0.873648 36.8096
  356 542.641 -0.873648 36.8096
  357 638.109 -86.2735 -95.5231
  358 638.109 -86.2735 -95.5231
  359 610.214 -5.14784 16.5514
  360 610.214 -5.14784 16.5514
  361 409.371 -79.6748 251.090
  362 409.371 -79.6748 251.090
  363 711.334 56.9959 -1.83179
  364 711.334 56.9959 -1.83179
  365 932.428 8.26170 -7.12580
  366 932.428 8.26170 -7.12580
  367 576.165 0.150696 -17.9085
  368 576.165 0.150696 -17.9085
  369 516.659 18.3386 -8.14930
  370 516.659 18.3386 -8.14930
  371 791.050 61.6070 22.1487
  372 791.050 61.6070 22.1487
  373 612.111 25.8017 -3.62353
  374 612.111 25.8017 -3.62353
  375 555.870 2.03483 -11.2910
  376 555.870 2.03483 -11.2910
  377 154.314 -73.9706 -106.265
  378 154.314 -73.9706 -106.265
  379 613.926 -11.1263 3.94139
  380 613.926 -11.1263 3.94139
  381 527.125 -0.951444 -43.5299
  382 527.125 -0.951444 -43.5299
  383 606.481 -1.14358 -19.8572
  384 606.481 -1.14358 -19.8572
  385 937.363 16.3227 -28.3350
  386 937.363 16.3227 -28.3350
  387 529.008 8.01565 5.12283
  388 529.008 8.01565 5.12283
  389 644.073 31.9653 15.9152
  390 644.073 31.9653 15.9152
  391 691.107 -13.5867 10.3117
  392 691.107 -13.5867 10.3117
  393 530.869 9.43700 -11.4923
  394 530.869 9.43700 -11.4923
  395 991.311 98.8343 -130.528
  396 991.311 98.8343 -130.528
  397 605.437 -8.98878 -6.73749
  398 605.437 -8.98878 -6.73749
</Section>

newXOutput 159

<Section columns = "stress_xx | stress_yy | stress_xy">
  1 534.856 0.525642 -0.572590
  2 535.102 0.647654 0.771609
  3 534.856 0.525642 -0.572590
  4 535.102 0.647654 0.771609
  5 807.868 65.5854 235.767
  6 838.489 64.4964 -232.055
  7 807.868 65.5854 235.767
  8 838.489 64.4964 -232.055
  9 536.119 0.366484 -1.50631
  10 540.297 0.643579 -2.68582
  11 546.370 1.44857 -5.47712
  12 560.379 0.526670 -7.40150
  13 578.537 0.835467 -12.2631
  14 600.029 -5.49584 -12.3015
  15 620.206 -6.54614 -1.78440
  16 612.292 -4.42604 9.51573
  17 591.202 4.81177 17.1530
  18 579.640 11.5660 -0.673935
  19 587.968 5.51897 -16.1566
  20 611.764 -6.60194 -11.5785
  21 614.702 -7.95671 4.57731
  22 603.105 -3.61868 10.6349
  23 574.826 0.0836852 12.3670
  24 559.182 2.05019 9.38809
  25 546.752 1.66295 5.25908
  26 540.413 0.518256 2.45921
  27 536.419 0.434647 1.45694
  28 535.838 1.89300 0.900363
  29 534.944 3.87122 1.05163
  30 532.739 6.70843 0.938441
  31 531.860 7.79422 -0.0907119
  32 532.980 6.36718 -1.12288
  33 534.553 4.22070 -0.949831
  34 535.242 2.15021 -1.01260
  35 536.119 0.366484 -1.50631
  36 540.297 0.643579 -2.68582
  37 546.370 1.44857 -5.47712
  38 560.379 0.526670 -7.40150
  39 578.537 0.835467 -12.2631
  40 600.029 -5.49584 -12.3015
  41 620.206 -6.54614 -1.78440
  42 612.292 -4.42604 9.51573
  43 591.202 4.81177 17.1530
  44 579.640 11.5660 -0.673935
  45 587.968 5.51897 -16.1566
  46 611.764 -6.60194 -11.5785
  47 614.702 -7.95671 4.57731
  48 603.105 -3.61868 10.6349
  49 574.826 0.0836852 12.3670
  50 559.182 2.05019 9.38809
  51 546.752 1.66295 5.25908
  52 540.413 0.518256 2.45921
  53 536.419 0.434647 1.45694
  54 535.838 1.89300 0.900363
  55 534.944 3.87122 1.05163
  56 532.739 6.70843 0.938441
  57 531.860 7.79422 -0.0907119
  58 532.980 6.36718 -1.12288
  59 534.553 4.22070 -0.949831
  60 535.242 2.15021 -1.01260
  61 1113.03 59.9290 118.275
  62 1016.81 16.4634 41.2408
  63 960.846 6.61642 15.0384
  64 948.804 4.84773 2.83746
  65 960.280 6.48742 -12.8143
  66 1003.23 14.0581 -35.6237
  67 1123.56 52.1068 -101.864
  68 151.222 -157.075 -196.306
  69 29.9759 -390.419 -53.0737
  70 7.62237 -450.504 -23.1534
  71 7.32207 -443.068 -10.9334
  72 13.2516 -429.373 24.8195
  73 32.7642 -378.266 56.3203
  74 163.207 -145.553 217.172
  75 1113.03 59.9290 118.275
  76 1016.81 16.4634 41.2408
  77 960.846 6.61642 15.0384
  78 948.804 4.84773 2.83746
  79 960.280 6.48742 -12.8143
  80 1003.23 14.0581 -35.6237
  81 1123.56 52.1068 -101.864
  82 151.222 -157.075 -196.306
  83 29.9759 -390.419 -53.0737
  84 7.62237 -450.504 -23.1534
  85 7.32207 -443.068 -10.9334
  86 13.2516 -429.373 24.8195
  87 32.7642 -378.266 56.3203
  88 163.207 -145.553 217.172
  89 493.461 27.9222 -7.20786
  90 493.461 27.9222 -7.20786
  91 450.999 6.34367 65.9098
  92 433.537 -2.56328 -78.9223
  93 450.999 6.34367 65.9098
  94 433.537 -2.56328 -78.9223
  95 258.669 7.62343 32.0169
  96 258.669 7.62343 32.0169
  97 658.592 42.7414 -8.97184
  98 669.746 25.1702 17.4640
  99 658.592 42.7414 -8.97184
  100 669.746 25.1702 17.4640
  101 527.795 12.5426 7.07572
  102 527.795 12.5426 7.07572
  103 628.110 -35.7707 2.94632
  104 628.110 -35.7707 2.94632
  105 528.389 13.1225 -8.73948
  106 528.389 13.1225 -8.73948
  107 615.878 -76.5478 -71.5159
  108 615.878 -76.5478 -71.5159
  109 433.341 -90.8188 176.462
  110 433.341 -90.8188 176.462
  111 295.266 -52.6728 -142.843
  112 295.266 -52.6728 -142.843
  113 530.315 8.72887 30.9295
  114 530.315 8.72887 30.9295
  115 548.922 3.53909 -29.6740
  116 548.922 3.53909 -29.6740
  117 740.748 51.2721 11.1529
  118 791.889 50.8532 5.15008
  119 740.748 51.2721 11.1529
  120 791.889 50.8532 5.15008
  121 776.263 66.4222 -23.2305
  122 776.263 66.4222 -23.2305
  123 87.0462 -139.316 -48.1129
  124 87.0462 -139.316 -48.1129
  125 667.171 -82.2638 78.9139
  126 667.171 -82.2638 78.9139
  127 566.892 -13.8411 35.5708
  128 566.892 -13.8411 35.5708
  129 132.458 -120.023 109.893
  130 132.458 -120.023 109.893
  131 528.515 10.4583 -0.442380
  132 528.515 10.4583 -0.442380
  133 565.814 -26.5874 -45.5839
  134 565.814 -26.5874 -45.5839
  135 536.368 4.28983 5.08798
  136 536.368 4.28983 5.08798
  137 536.794 3.77802 -4.74217
  138 536.794 3.77802 -4.74217
  139 542.461 7.32006 -15.3572
  140 542.461 7.32006 -15.3572
  141 540.100 7.14337 13.8040
  142 540.100 7.14337 13.8040
  143 518.397 17.4953 -0.570073
  144 518.397 17.4953 -0.570073
  145 435.933 28.7417 -3.38599
  146 435.933 28.7417 -3.38599
  147 625.513 -22.2167 7.68120
  148 625.513 -22.2167 7.68120
  149 711.179 -22.6350 -32.5579
  150 711.179 -22.6350 -32.5579
  151 552.122 -62.0168 87.6692
  152 552.122 -62.0168 87.6692
  153 416.782 -112.232 -200.111
  154 416.782 -112.232 -200.111
  155 494.327 20.0949 29.5319
  156 494.327 20.0949 29.5319
  157 636.685 -3.49071 -20.9193
  158 636.685 -3.49071 -20.9193
  159 860.696 69.5725 51.7176
  160 860.696 69.5725 51.7176
  161 433.770 -120.918 230.717
  162 433.770 -120.918 230.717
  163 877.133 28.4168 -10.2093
  164 877.133 28.4168 -10.2093
  165 516.374 17.4599 13.5719
  166 516.374 17.4599 13.5719
  167 491.205 16.6361 -43.3812
  168 491.205 16.6361 -43.3812
  169 607.342 18.6758 13.0783
  170 607.342 18.6758 13.0783
  171 511.750 20.8689 -15.4490
  172 511.750 20.8689 -15.4490
  173 531.539 8.40100 2.22544
  174 531.539 8.40100 2.22544
  175 539.801 4.07750 -8.11283
  176 539.801 4.07750 -8.11283
  177 826.277 67.9821 -53.3187
  178 826.277 67.9821 -53.3187
  179 531.930 8.18128 -2.68454
  180 531.930 8.18128 -2.68454
  181 396.015 28.9933 -22.7206
  182 396.015 28.9933 -22.7206
  183 705.077 52.5843 2.32813
  184 705.077 52.5843 2.32813
  185 144.832 -117.870 -141.530
  186 144.832 -117.870 -141.530
  187 389.315 -3.90610 96.3389
  188 389.315 -3.90610 96.3389
  189 515.111 -83.7551 -136.731
  190 515.111 -83.7551 -136.731
  191 608.222 -16.8895 8.43062
  192 608.222 -16.8895 8.43062
  193 569.641 -2.06852 21.6682
  194 569.641 -2.06852 21.6682
  195 769.008 25.7536 51.0204
  196 769.008 25.7536 51.0204
  197 326.239 10.8948 -59.6810
  198 326.239 10.8948 -59.6810
  199 870.436 38.4444 23.6190
  200 870.436 38.4444 23.6190
  201 580.036 -7.28257 -23.0542
  202 580.036 -7.28257 -23.0542
  203 540.611 2.90706 7.47669
  204 540.611 2.90706 7.47669
  205 603.434 -23.8814 -12.8286
  206 603.434 -23.8814 -12.8286
  207 658.662 -32.6156 -7.21373
  208 658.662 -32.6156 -7.21373
  209 41.4646 -245.467 21.5310
  210 41.4646 -245.467 21.5310
  211 556.854 2.78975 -18.9206
  212 556.854 2.78975 -18.9206
  213 552.370 4.25037 16.4814
  214 552.370 4.25037 16.4814
  215 531.214 -49.0479 -86.7325
  216 531.214 -49.0479 -86.7325
  217 620.018 -13.1760 -12.6699
  218 620.018 -13.1760 -12.6699
  219 509.862 18.2140 -29.5022
  220 509.862 18.2140 -29.5022
  221 140.524 -172.821 155.918
  222 140.524 -172.821 155.918
  223 628.993 3.29115 19.9803
  224 628.993 3.29115 19.9803
  225 612.413 15.8922 -17.2077
  226 612.413 15.8922 -17.2077
  227 861.493 51.3522 -40.9043
  228 861.493 51.3522 -40.9043
  229 661.091 -23.9299 -8.02651
  230 661.091 -23.9299 -8.02651
  231 717.831 -28.0606 -133.292
  232 717.831 -28.0606 -133.292
  233 533.330 -24.1391 66.4587
  234 533.330 -24.1391 66.4587
  235 523.856 14.5933 2.28107
  236 523.856 14.5933 2.28107
  237 280.334 -40.5201 126.335
  238 280.334 -40.5201 126.335
  239 686.920 -56.2635 154.823
  240 686.920 -56.2635 154.823
  241 191.939 -23.2356 -62.7327
  242 191.939 -23.2356 -62.7327
  243 615.328 -46.4701 -31.3664
  244 615.328 -46.4701 -31.3664
  245 505.106 22.5482 16.9865
  246 505.106 22.5482 16.9865
  247 17.6513 -321.183 -17.7187
  248 17.6513 -321.183 -17.7187
  249 34.6593 -280.745 58.5278
  250 34.6593 -280.745 58.5278
  251 513.599 3.52032 47.4962
  252 513.599 3.52032 47.4962
  253 535.786 2.01754 1.83285
  254 535.786 2.01754 1.83285
  255 531.497 8.45336 0.351056
  256 531.497 8.45336 0.351056
  257 499.307 -6.20737 -63.3650
  258 499.307 -6.20737 -63.3650
  259 536.074 1.84159 -1.94178
  260 536.074 1.84159 -1.94178
  261 591.186 -41.8910 40.7804
  262 591.186 -41.8910 40.7804
  263 549.707 1.89703 -9.10191
  264 549.707 1.89703 -9.10191
  265 427.526 -36.2433 -118.492
  266 427.526 -36.2433 -118.492
  267 723.048 55.8453 -0.331715
  268 723.048 55.8453 -0.331715
  269 530.801 11.6075 -23.9085
  270 530.801 11.6075 -23.9085
  271 528.867 10.8584 -4.70791
  272 528.867 10.8584 -4.70791
  273 451.581 21.8893 -43.4422
  274 451.581 21.8893 -43.4422
  275 139.152 -51.2343 36.4398
  276 139.152 -51.2343 36.4398
  277 563.892 -94.3653 122.234
  278 563.892 -94.3653 122.234
  279 534.259 7.83772 9.21858
  280 534.259 7.83772 9.21858
  281 786.567 55.4026 -13.2925
  282 786.567 55.4026 -13.2925
  283 933.110 84.1612 113.723
  284 933.110 84.1612 113.723
  285 632.762 -67.3847 41.7048
  286 632.762 -67.3847 41.7048
  287 460.420 22.9252 31.7714
  288 460.420 22.9252 31.7714
  289 578.737 -116.019 161.482
  290 578.737 -116.019 161.482
  291 598.301 -7.17659 15.0200
  292 598.301 -7.17659 15.0200
  293 533.932 5.15985 2.51334
  294 533.932 5.15985 2.51334
  295 526.713 14.2683 -15.1521
  296 526.713 14.2683 -15.1521
  297 531.621 8.31903 -0.690497
  298 531.621 8.31903 -0.690497
  299 538.833 1.47115 -3.51152
  300 538.833 1.47115 -3.51152
  301 549.258 2.67133 9.13675
  302 549.258 2.67133 9.13675
  303 523.988 14.5176 -3.87645
  304 523.988 14.5176 -3.87645
  305 120.412 -201.406 -148.743
  306 120.412 -201.406 -148.743
  307 362.972 23.8472 29.7691
  308 362.972 23.8472 29.7691
  309 534.475 4.31054 -2.41217
  310 534.475 4.31054 -2.41217
  311 473.027 27.0408 -21.2609
  312 473.027 27.0408 -21.2609
  313 474.254 29.4805 8.07699
  314 474.254 29.4805 8.07699
  315 533.423 7.53656 -6.51916
  316 533.423 7.53656 -6.51916
  317 711.513 38.9595 -5.87431
  318 711.513 38.9595 -5.87431
  319 529.624 12.6424 20.8898
  320 529.624 12.6424 20.8898
  321 673.055 21.9603 -15.2984
  322 673.055 21.9603 -15.2984
  323 977.863 27.3861 66.7197
  324 977.863 27.3861 66.7197
  325 527.755 13.0862 13.0691
  326 527.755 13.0862 13.0691
  327 519.768 17.3326 6.83689
  328 519.768 17.3326 6.83689
  329 403.448 -79.5188 -231.627
  330 403.448 -79.5188 -231.627
  331 539.147 1.32933 3.43445
  332 539.147 1.32933 3.43445
  333 528.391 10.9373 3.51988
  334 528.391 10.9373 3.51988
  335 509.697 22.5263 0.785437
  336 509.697 22.5263 0.785437
  337 264.747 -93.0825 185.243
  338 264.747 -93.0825 185.243
  339 654.738 43.1605 2.71399
  340 654.738 43.1605 2.71399
  341 37.3469 -274.743 -67.2080
  342 37.3469 -274.743 -67.2080
  343 412.260 25.9818 26.3790
  344 412.260 25.9818 26.3790
  345 925.942 12.3134 8.97155
  346 925.942 12.3134 8.97155
  347 967.239 49.7479 -69.0648
  348 967.239 49.7479 -69.0648
  349 461.474 -53.6060 132.610
  350 481.567 -27.4906 97.6683
  351 461.474 -53.6060 132.610
  352 481.567 -27.4906 97.6683
  353 939.445 22.9713 34.5383
  354 939.445 22.9713 34.5383
  355 545.876 -0.880934 37.0249
  356 545.876 -0.880934 37.0249
  357 641.831 -86.7796 -96.1410
  358 641.831 -86.7796 -96.1410
  359 613.845 -5.17622 16.6282
  360 613.845 -5.17622 16.6282
  361 411.732 -80.0079 252.698
  362 411.732 -80.0079 252.698
  363 715.537 57.3320 -1.84109
  364 715.537 57.3320 -1.84109
  365 937.694 8.30402 -7.16554
  366 937.694 8.30402 -7.16554
  367 579.575 0.149084 -18.0116
  368 579.575 0.149084 -18.0116
  369 519.759 18.4439 -8.19410
  370 519.759 18.4439 -8.19410
  371 795.664 61.9700 22.3117
  372 795.664 61.9700 22.3117
  373 615.779 25.9607 -3.64047
  374 615.779 25.9607 -3.64047
  375 559.170 2.04544 -11.3529
  376 559.170 2.04544 -11.3529
  377 155.286 -74.3901 -106.952
  378 155.286 -74.3901 -106.952
  379 617.560 -11.1936 3.94892
  380 617.560 -11.1936 3.94892
  381 530.275 -0.959239 -43.7865
  382 530.275 -0.959239 -43.7865
  383 610.100 -1.14829 -19.9511
  384 610.100 -1.14829 -19.9511
  385 942.670 16.4111 -28.4946
  386 942.670 16.4111 -28.4946
  387 532.171 8.06104 5.15002
  388 532.171 8.06104 5.15002
  389 647.904 32.1653 15.9789
  390 647.904 32.1653 15.9789
  391 695.154 -13.6419 10.4365
  392 695.154 -13.6419 10.4365
  393 534.042 9.49071 -11.5544
  394 534.042 9.49071 -11.5544
  395 996.908 99.4987 -131.343
  396 996.908 99.4987 -131.343
  397 609.012 -9.04509 -6.78471
  398 609.012 -9.04509 -6.78471
</Section>

newXOutput 160

<Section columns = "stress_xx | stress_yy | stress_xy">
  1 538.029 0.528839 -0.575484
  2 538.277 0.651510 0.775500
  3 538.029 0.528839 -0.575484
  4 538.277 0.651510 0.775500
  5 812.386 66.1656 237.237
  6 843.161 65.0776 -233.504
  7 812.386 66.1656 237.237
  8 843.161 65.0776 -233.504
  9 539.298 0.368637 -1.51400
  10 543.498 0.647267 -2.69969
  11 549.601 1.45667 -5.50589
  12 563.681 0.529332 -7.44114
  13 581.934 0.838985 -12.3313
  14 603.544 -5.53096 -12.3740
  15 623.839 -6.58662 -1.80132
  16 615.908 -4.45215 9.55807
  17 594.730 4.84409 17.2366
  18 583.118 11.6389 -0.677311
  19 591.480 5.55330 -16.2364
  20 615.378 -6.64127 -11.6297
  21 618.305 -8.00606 4.61191
  22 606.637 -3.64160 10.6981
  23 578.206 0.0823176 12.4364
  24 562.479 2.06125 9.43867
  25 549.985 1.67226 5.28662
  26 543.614 0.521242 2.47188
  27 539.601 0.437225 1.46442
  28 539.017 1.90380 0.904886
  29 538.118 3.89307 1.05701
  30 535.903 6.74592 0.943291
  31 535.020 7.83766 -0.0911757
  32 536.144 6.40282 -1.12864
  33 537.725 4.24452 -0.954563
  34 538.417 2.16255 -1.01778
  35 539.298 0.368637 -1.51400
  36 543.498 0.647267 -2.69969
  37 549.601 1.45667 -5.50589
  38 563.681 0.529332 -7.44114
  39 581.934 0.838985 -12.3313
  40 603.544 -5.53096 -12.3740
  41 623.839 -6.58662 -1.80132
  42 615.908 -4.45215 9.55807
  43 594.730 4.84409 17.2366
  44 583.118 11.6389 -0.677311
  45 591.480 5.55330 -16.2364
  46 615.378 -6.64127 -11.6297
  47 618.305 -8.00606 4.61191
  48 606.637 -3.64160 10.6981
  49 578.206 0.0823176 12.4364
  50 562.479 2.06125 9.43867
  51 549.985 1.67226 5.28662
  52 543.614 0.521242 2.47188
  53 539.601 0.437225 1.46442
  54 539.017 1.90380 0.904886
  55 538.118 3.89307 1.05701
  56 535.903 6.74592 0.943291
  57 535.020 7.83766 -0.0911757
  58 536.144 6.40282 -1.12864
  59 537.725 4.24452 -0.954563
  60 538.417 2.16255 -1.01778
  61 1119.16 60.2929 118.955
  62 1022.45 16.5518 41.4670
  63 966.205 6.64743 15.1174
  64 954.103 4.87161 2.85045
  65 965.636 6.52054 -12.8812
  66 1008.80 14.1325 -35.8162
  67 1129.75 52.4222 -102.450
  68 152.097 -157.809 -197.592
  69 30.1507 -392.770 -53.4692
  70 7.65204 -453.322 -23.3257
  71 7.35138 -445.851 -11.0017
  72 13.3195 -432.043 25.0050
  73 32.9594 -380.541 56.7420
  74 164.138 -146.219 218.587
  75 1119.16 60.2929 118.955
  76 1022.45 16.5518 41.4670
  77 966.205 6.64743 15.1174
  78 954.103 4.87161 2.85045
  79 965.636 6.52054 -12.8812
  80 1008.80 14.1325 -35.8162
  81 1129.75 52.4222 -102.450
  82 152.097 -157.809 -197.592
  83 30.1507 -392.770 -53.4692
  84 7.65204 -453.322 -23.3257
  85 7.35138 -445.851 -11.0017
  86 13.3195 -432.043 25.0050
  87 32.9594 -380.541 56.7420
  88 164.138 -146.219 218.587
  89 496.419 28.0842 -7.24874
  90 496.419 28.0842 -7.24874
  91 453.709 6.38314 66.2973
  92 436.146 -2.57674 -79.3909
  93 453.709 6.38314 66.2973
  94 436.146 -2.57674 -79.3909
  95 260.277 7.68680 32.2119
  96 260.277 7.68680 32.2119
  97 662.486 43.0002 -9.00504
  98 673.682 25.3344 17.5186
  99 662.486 43.0002 -9.00504
  100 673.682 25.3344 17.5186
  101 530.935 12.6135 7.11360
  102 530.935 12.6135 7.11360
  103 631.794 -35.9811 2.99885
  104 631.794 -35.9811 2.99885
  105 531.531 13.1969 -8.78643
  106 531.531 13.1969 -8.78643
  107 619.468 -77.0039 -71.9690
  108 619.468 -77.0039 -71.9690
  109 435.907 -91.3677 177.547
  110 435.907 -91.3677 177.547
  111 297.053 -52.9818 -143.730
  112 297.053 -52.9818 -143.730
  113 533.465 8.77772 31.1054
  114 533.465 8.77772 31.1054
  115 552.171 3.55695 -29.8444
  116 552.171 3.55695 -29.8444
  117 745.065 51.5962 11.2792
  118 796.476 51.1403 5.18953
  119 745.065 51.5962 11.2792
  120 796.476 51.1403 5.18953
  121 780.774 66.8237 -23.4125
  122 780.774 66.8237 -23.4125
  123 87.5843 -140.118 -48.4337
  124 87.5843 -140.118 -48.4337
  125 671.032 -82.7300 79.4389
  126 671.032 -82.7300 79.4389
  127 570.236 -13.9256 35.7852
  128 570.236 -13.9256 35.7852
  129 133.274 -120.709 110.614
  130 133.274 -120.709 110.614
  131 531.658 10.5171 -0.444661
  132 531.658 10.5171 -0.444661
  133 569.149 -26.7479 -45.8627
  134 569.149 -26.7479 -45.8627
  135 539.550 4.31408 5.11460
  136 539.550 4.31408 5.11460
  137 539.977 3.79947 -4.76689
  138 539.977 3.79947 -4.76689
  139 545.674 7.36095 -15.4410
  140 545.674 7.36095 -15.4410
  141 543.301 7.18349 13.8788
  142 543.301 7.18349 13.8788
  143 521.489 17.5948 -0.573311
  144 521.489 17.5948 -0.573311
  145 438.574 28.9126 -3.40613
  146 438.574 28.9126 -3.40613
  147 629.191 -22.3457 7.69575
  148 629.191 -22.3457 7.69575
  149 715.301 -22.7293 -32.8233
  150 715.301 -22.7293 -32.8233
  151 555.368 -62.3896 88.2035
  152 555.368 -62.3896 88.2035
  153 419.227 -112.883 -201.375
  154 419.227 -112.883 -201.375
  155 497.287 20.2123 29.7010
  156 497.287 20.2123 29.7010
  157 640.432 -3.50459 -21.0044
  158 640.432 -3.50459 -21.0044
  159 865.628 69.9911 52.0554
  160 865.628 69.9911 52.0554
  161 436.309 -121.632 232.159
  162 436.309 -121.632 232.159
  163 882.126 28.5689 -10.2702
  164 882.126 28.5689 -10.2702
  165 519.455 17.5595 13.6467
  166 519.455 17.5595 13.6467
  167 494.144 16.7337 -43.6326
  168 494.144 16.7337 -43.6326
  169 610.961 18.7931 13.1407
  170 610.961 18.7931 13.1407
  171 514.805 20.9887 -15.5349
  172 514.805 20.9887 -15.5349
  173 534.697 8.44810 2.23709
  174 534.697 8.44810 2.23709
  175 542.999 4.10038 -8.15584
  176 542.999 4.10038 -8.15584
  177 831.026 68.4236 -53.6982
  178 831.026 68.4236 -53.6982
  179 535.090 8.22725 -2.69855
  180 535.090 8.22725 -2.69855
  181 398.426 29.1704 -22.8548
  182 398.426 29.1704 -22.8548
  183 709.216 52.9009 2.30774
  184 709.216 52.9009 2.30774
  185 145.715 -118.544 -142.454
  186 145.715 -118.544 -142.454
  187 391.668 -3.92515 96.9153
  188 391.668 -3.92515 96.9153
  189 518.138 -84.2594 -137.571
  190 518.138 -84.2594 -137.571
  191 611.797 -16.9920 8.49625
  192 611.797 -16.9920 8.49625
  193 572.998 -2.08333 21.7936
  194 572.998 -2.08333 21.7936
  195 773.446 25.9571 51.3993
  196 773.446 25.9571 51.3993
  197 328.238 10.9704 -60.0412
  198 328.238 10.9704 -60.0412
  199 875.405 38.6561 23.7637
  200 875.405 38.6561 23.7637
  201 583.451 -7.32859 -23.1929
  202 583.451 -7.32859 -23.1929
  203 543.813 2.92328 7.51623
  204 543.813 2.92328 7.51623
  205 606.980 -24.0264 -12.9217
  206 606.980 -24.0264 -12.9217
  207 662.510 -32.7971 -7.30528
  208 662.510 -32.7971 -7.30528
  209 41.7140 -246.939 21.6805
  210 41.7140 -246.939 21.6805
  211 560.142 2.80360 -19.0265
  212 560.142 2.80360 -19.0265
  213 555.635 4.27367 16.5727
  214 555.635 4.27367 16.5727
  215 534.350 -49.3426 -87.2584
  216 534.350 -49.3426 -87.2584
  217 623.671 -13.2540 -12.7180
  218 623.671 -13.2540 -12.7180
  219 512.905 18.3193 -29.6706
  220 512.905 18.3193 -29.6706
  221 141.361 -173.803 156.950
  222 141.361 -173.803 156.950
  223 632.709 3.31911 20.0656
  224 632.709 3.31911 20.0656
  225 616.054 15.9927 -17.2874
  226 616.054 15.9927 -17.2874
  227 866.424 51.6447 -41.1637
  228 866.424 51.6447 -41.1637
  229 664.956 -24.0593 -8.02378
  230 664.956 -24.0593 -8.02378
  231 721.951 -28.1455 -134.167
  232 721.951 -28.1455 -134.167
  233 536.486 -24.2837 66.8547
  234 536.486 -24.2837 66.8547
  235 526.975 14.6759 2.29336
  236 526.975 14.6759 2.29336
  237 282.041 -40.7534 127.117
  238 282.041 -40.7534 127.117
  239 690.862 -56.5306 155.822
  240 690.862 -56.5306 155.822
  241 193.136 -23.3493 -63.1259
  242 193.136 -23.3493 -63.1259
  243 618.931 -46.7474 -31.5786
  244 618.931 -46.7474 -31.5786
  245 508.126 22.6785 17.0820
  246 508.126 22.6785 17.0820
  247 17.7482 -323.140 -17.8455
  248 17.7482 -323.140 -17.8455
  249 34.8636 -282.425 58.9423
  250 34.8636 -282.425 58.9423
  251 516.656 3.54020 47.7727
  252 516.656 3.54020 47.7727
  253 538.964 2.02905 1.84226
  254 538.964 2.02905 1.84226
  255 534.655 8.50057 0.352910
  256 534.655 8.50057 0.352910
  257 502.283 -6.24514 -63.7390
  258 502.283 -6.24514 -63.7390
  259 539.254 1.85219 -1.95176
  260 539.254 1.85219 -1.95176
  261 594.657 -42.1420 41.0397
  262 594.657 -42.1420 41.0397
  263 552.955 1.90736 -9.15056
  264 552.955 1.90736 -9.15056
  265 430.082 -36.4609 -119.208
  266 430.082 -36.4609 -119.208
  267 727.281 56.1789 -0.299821
  268 727.281 56.1789 -0.299821
  269 533.955 11.6731 -24.0422
  270 533.955 11.6731 -24.0422
  271 532.012 10.9197 -4.73281
  272 532.012 10.9197 -4.73281
  273 454.303 22.0202 -43.6958
  274 454.303 22.0202 -43.6958
  275 140.025 -51.5049 36.6737
  276 140.025 -51.5049 36.6737
  277 567.186 -94.9319 122.989
  278 567.186 -94.9319 122.989
  279 537.430 7.88193 9.26769
  280 537.430 7.88193 9.26769
  281 791.129 55.7195 -13.3869
  282 791.129 55.7195 -13.3869
  283 938.383 84.7153 114.437
  284 938.383 84.7153 114.437
  285 636.452 -67.7811 41.9913
  286 636.452 -67.7811 41.9913
  287 463.193 23.0613 31.9549
  288 463.193 23.0613 31.9549
  289 582.096 -116.710 162.484
  290 582.096 -116.710 162.484
  291 601.814 -7.22141 15.1127
  292 601.814 -7.22141 15.1127
  293 537.101 5.18887 2.52638
  294 537.101 5.18887 2.52638
  295 529.846 14.3494 -15.2349
  296 529.846 14.3494 -15.2349
  297 534.779 8.36552 -0.694085
  298 534.779 8.36552 -0.694085
  299 542.026 1.47951 -3.52976
  300 542.026 1.47951 -3.52976
  301 552.505 2.68607 9.18557
  302 552.505 2.68607 9.18557
  303 527.108 14.5999 -3.89731
  304 527.108 14.5999 -3.89731
  305 121.124 -202.545 -149.736
  306 121.124 -202.545 -149.736
  307 365.192 23.9966 29.9455
  308 365.192 23.9966 29.9455
  309 537.646 4.33488 -2.42464
  310 537.646 4.33488 -2.42464
  311 475.872 27.1994 -21.3832
  312 475.872 27.1994 -21.3832
  313 477.107 29.6533 8.12289
  314 477.107 29.6533 8.12289
  315 536.590 7.57906 -6.55361
  316 536.590 7.57906 -6.55361
  317 715.667 39.2161 -5.97111
  318 715.667 39.2161 -5.97111
  319 532.772 12.7142 21.0055
  320 532.772 12.7142 21.0055
  321 677.007 22.1049 -15.3409
  322 677.007 22.1049 -15.3409
  323 983.349 27.5338 67.1091
  324 983.349 27.5338 67.1091
  325 530.894 13.1605 13.1401
  326 530.894 13.1605 13.1401
  327 522.867 17.4312 6.87405
  328 522.867 17.4312 6.87405
  329 405.776 -79.8378 -233.114
  330 405.776 -79.8378 -233.114
  331 542.342 1.33687 3.45228
  332 542.342 1.33687 3.45228
  333 531.534 10.9988 3.53855
  334 531.534 10.9988 3.53855
  335 512.743 22.6555 0.789751
  336 512.743 22.6555 0.789751
  337 266.344 -93.6341 186.416
  338 266.344 -93.6341 186.416
  339 658.613 43.4213 2.72193
  340 658.613 43.4213 2.72193
  341 37.5626 -276.384 -67.6743
  342 37.5626 -276.384 -67.6743
  343 414.765 26.1390 26.5328
  344 414.765 26.1390 26.5328
  345 931.151 12.3769 9.01939
  346 931.151 12.3769 9.01939
  347 972.687 50.0410 -69.4733
  348 972.687 50.0410 -69.4733
  349 464.212 -53.9297 133.412
  350 484.432 -27.6551 98.2495
  351 464.212 -53.9297 133.412
  352 484.432 -27.6551 98.2495
  353 944.731 23.0925 34.7337
  354 944.731 23.0925 34.7337
  355 549.108 -0.888239 37.2401
  356 549.108 -0.888239 37.2401
  357 645.548 -87.2851 -96.7589
  358 645.548 -87.2851 -96.7589
  359 617.474 -5.20454 16.7047
  360 617.474 -5.20454 16.7047
  361 414.090 -80.3389 254.306
  362 414.090 -80.3389 254.306
  363 719.737 57.6677 -1.85036
  364 719.737 57.6677 -1.85036
  365 942.953 8.34622 -7.20521
  366 942.953 8.34622 -7.20521
  367 582.982 0.147443 -18.1146
  368 582.982 0.147443 -18.1146
  369 522.857 18.5491 -8.23881
  370 522.857 18.5491 -8.23881
  371 800.272 62.3327 22.4749
  372 800.272 62.3327 22.4749
  373 619.445 26.1196 -3.65733
  374 619.445 26.1196 -3.65733
  375 562.467 2.05603 -11.4148
  376 562.467 2.05603 -11.4148
  377 156.259 -74.8090 -107.639
  378 156.259 -74.8090 -107.639
  379 621.190 -11.2609 3.95626
  380 621.190 -11.2609 3.95626
  381 533.422 -0.967054 -44.0429
  382 533.422 -0.967054 -44.0429
  383 613.717 -1.15297 -20.0447
  384 613.717 -1.15297 -20.0447
  385 947.969 16.4994 -28.6540
  386 947.969 16.4994 -28.6540
  387 535.332 8.10638 5.17716
  388 535.332 8.10638 5.17716
  389 651.733 32.3652 16.0422
  390 651.733 32.3652 16.0422
  391 699.197 -13.6968 10.5620
  392 699.197 -13.6968 10.5620
  393 537.213 9.54435 -11.6165
  394 537.213 9.54435 -11.6165
  395 1002.50 100.163 -132.157
  396 1002.50 100.163 -132.157
  397 612.584 -9.10139 -6.83196
  398 612.584 -9.10139 -6.83196
</Section>

newXOutput 161

<Section columns = "stress_xx | stress_yy | stress_xy">
  1 541.201 0.532034 -0.578370
  2 541.450 0.655362 0.779381
  3 541.201 0.532034 -0.578370
  4 541.450 0.655362 0.779381
  5 816.896 66.7477 238.707
  6 847.827 65.6609 -234.952
  7 816.896 66.7477 238.707
  8 847.827 65.6609 -234.952
  9 542.476 0.370788 -1.52166
  10 546.695 0.650951 -2.71352
  11 552.829 1.46476 -5.53459
  12 566.980 0.531987 -7.48070
  13 585.329 0.842483 -12.3994
  14 607.055 -5.56607 -12.4464
  15 627.469 -6.62710 -1.81829
  16 619.520 -4.47824 9.60021
  17 598.255 4.87643 17.3200
  18 586.594 11.7119 -0.680677
  19 594.989 5.58762 -16.3160
  20 618.989 -6.68058 -11.6806
  21 621.905 -8.05541 4.64656
  22 610.165 -3.66451 10.7614
  23 581.582 0.0809292 12.5057
  24 565.773 2.07228 9.48915
  25 553.215 1.68155 5.31409
  26 546.813 0.524225 2.48451
  27 542.780 0.439800 1.47188
  28 542.193 1.91459 0.909396
  29 541.290 3.91488 1.06237
  30 539.065 6.78336 0.948129
  31 538.177 7.88104 -0.0916382
  32 539.307 6.43842 -1.13438
  33 540.895 4.26831 -0.959281
  34 541.590 2.17487 -1.02295
  35 542.476 0.370788 -1.52166
  36 546.695 0.650951 -2.71352
  37 552.829 1.46476 -5.53459
  38 566.980 0.531987 -7.48070
  39 585.329 0.842483 -12.3994
  40 607.055 -5.56607 -12.4464
  41 627.469 -6.62710 -1.81829
  42 619.520 -4.47824 9.60021
  43 598.255 4.87643 17.3200
  44 586.594 11.7119 -0.680677
  45 594.989 5.58762 -16.3160
  46 618.989 -6.68058 -11.6806
  47 621.905 -8.05541 4.64656
  48 610.165 -3.66451 10.7614
  49 581.582 0.0809292 12.5057
  50 565.773 2.07228 9.48915
  51 553.215 1.68155 5.31409
  52 546.813 0.524225 2.48451
  53 542.780 0.439800 1.47188
  54 542.193 1.91459 0.909396
  55 541.290 3.91488 1.06237
  56 539.065 6.78336 0.948129
  57 538.177 7.88104 -0.0916382
  58 539.307 6.43842 -1.13438
  59 540.895 4.26831 -0.959281
  60 541.590 2.17487 -1.02295
  61 1125.29 60.6567 119.634
  62 1028.08 16.6401 41.6928
  63 971.557 6.67832 15.1963
  64 959.393 4.89541 2.86339
  65 970.984 6.55358 -12.9480
  66 1014.37 14.2067 -36.0083
  67 1135.93 52.7374 -103.035
  68 152.971 -158.540 -198.877
  69 30.3254 -395.119 -53.8655
  70 7.68150 -456.139 -23.4984
  71 7.38048 -448.634 -11.0699
  72 13.3872 -434.712 25.1909
  73 33.1545 -382.815 57.1645
  74 165.068 -146.882 220.003
  75 1125.29 60.6567 119.634
  76 1028.08 16.6401 41.6928
  77 971.557 6.67832 15.1963
  78 959.393 4.89541 2.86339
  79 970.984 6.55358 -12.9480
  80 1014.37 14.2067 -36.0083
  81 1135.93 52.7374 -103.035
  82 152.971 -158.540 -198.877
  83 30.3254 -395.119 -53.8655
  84 7.68150 -456.139 -23.4984
  85 7.38048 -448.634 -11.0699
  86 13.3872 -434.712 25.1909
  87 33.1545 -382.815 57.1645
  88 165.068 -146.882 220.003
  89 499.376 28.2462 -7.28956
  90 499.376 28.2462 -7.28956
  91 456.418 6.42259 66.6844
  92 438.753 -2.59018 -79.8591
  93 456.418 6.42259 66.6844
  94 438.753 -2.59018 -79.8591
  95 261.884 7.75033 32.4068
  96 261.884 7.75033 32.4068
  97 666.376 43.2589 -9.03798
  98 677.614 25.4986 17.5725
  99 666.376 43.2589 -9.03798
  100 677.614 25.4986 17.5725
  101 534.072 12.6842 7.15141
  102 534.072 12.6842 7.15141
  103 635.475 -36.1914 3.05173
  104 635.475 -36.1914 3.05173
  105 534.671 13.2712 -8.83328
  106 534.671 13.2712 -8.83328
  107 623.055 -77.4597 -72.4221
  108 623.055 -77.4597 -72.4221
  109 438.470 -91.9163 178.631
  110 438.470 -91.9163 178.631
  111 298.840 -53.2905 -144.617
  112 298.840 -53.2905 -144.617
  113 536.613 8.82650 31.2810
  114 536.613 8.82650 31.2810
  115 555.416 3.57475 -30.0145
  116 555.416 3.57475 -30.0145
  117 749.377 51.9203 11.4061
  118 801.058 51.4271 5.22904
  119 749.377 51.9203 11.4061
  120 801.058 51.4271 5.22904
  121 785.280 67.2250 -23.5948
  122 785.280 67.2250 -23.5948
  123 88.1223 -140.919 -48.7547
  124 88.1223 -140.919 -48.7547
  125 674.889 -83.1956 79.9641
  126 674.889 -83.1956 79.9641
  127 573.578 -14.0102 35.9996
  128 573.578 -14.0102 35.9996
  129 134.091 -121.395 111.336
  130 134.091 -121.395 111.336
  131 534.799 10.5758 -0.446936
  132 534.799 10.5758 -0.446936
  133 572.482 -26.9083 -46.1412
  134 572.482 -26.9083 -46.1412
  135 542.729 4.33829 5.14116
  136 542.729 4.33829 5.14116
  137 543.158 3.82089 -4.79155
  138 543.158 3.82089 -4.79155
  139 548.885 7.40178 -15.5246
  140 548.885 7.40178 -15.5246
  141 546.500 7.22355 13.9535
  142 546.500 7.22355 13.9535
  143 524.578 17.6942 -0.576544
  144 524.578 17.6942 -0.576544
  145 441.214 29.0834 -3.42626
  146 441.214 29.0834 -3.42626
  147 632.865 -22.4746 7.70993
  148 632.865 -22.4746 7.70993
  149 719.418 -22.8229 -33.0893
  150 719.418 -22.8229 -33.0893
  151 558.611 -62.7622 88.7376
  152 558.611 -62.7622 88.7376
  153 421.669 -113.533 -202.638
  154 421.669 -113.533 -202.638
  155 500.244 20.3296 29.8698
  156 500.244 20.3296 29.8698
  157 644.176 -3.51838 -21.0890
  158 644.176 -3.51838 -21.0890
  159 870.553 70.4095 52.3932
  160 870.553 70.4095 52.3932
  161 438.846 -122.345 233.600
  162 438.846 -122.345 233.600
  163 887.113 28.7208 -10.3310
  164 887.113 28.7208 -10.3310
  165 522.533 17.6590 13.7214
  166 522.533 17.6590 13.7214
  167 497.081 16.8313 -43.8838
  168 497.081 16.8313 -43.8838
  169 614.577 18.9104 13.2029
  170 614.577 18.9104 13.2029
  171 517.859 21.1083 -15.6207
  172 517.859 21.1083 -15.6207
  173 537.852 8.49513 2.24872
  174 537.852 8.49513 2.24872
  175 546.195 4.12323 -8.19875
  176 546.195 4.12323 -8.19875
  177 835.769 68.8652 -54.0781
  178 835.769 68.8652 -54.0781
  179 538.247 8.27315 -2.71252
  180 538.247 8.27315 -2.71252
  181 400.837 29.3474 -22.9889
  182 400.837 29.3474 -22.9889
  183 713.350 53.2174 2.28698
  184 713.350 53.2174 2.28698
  185 146.598 -119.217 -143.378
  186 146.598 -119.217 -143.378
  187 394.020 -3.94414 97.4913
  188 394.020 -3.94414 97.4913
  189 521.163 -84.7635 -138.410
  190 521.163 -84.7635 -138.410
  191 615.369 -17.0944 8.56200
  192 615.369 -17.0944 8.56200
  193 576.352 -2.09815 21.9188
  194 576.352 -2.09815 21.9188
  195 777.878 26.1610 51.7787
  196 777.878 26.1610 51.7787
  197 330.238 11.0460 -60.4013
  198 330.238 11.0460 -60.4013
  199 880.368 38.8673 23.9084
  200 880.368 38.8673 23.9084
  201 586.862 -7.37462 -23.3315
  202 586.862 -7.37462 -23.3315
  203 547.014 2.93948 7.55568
  204 547.014 2.93948 7.55568
  205 610.523 -24.1714 -13.0150
  206 610.523 -24.1714 -13.0150
  207 666.355 -32.9783 -7.39731
  208 666.355 -32.9783 -7.39731
  209 41.9633 -248.410 21.8301
  210 41.9633 -248.410 21.8301
  211 563.427 2.81741 -19.1322
  212 563.427 2.81741 -19.1322
  213 558.896 4.29693 16.6637
  214 558.896 4.29693 16.6637
  215 537.484 -49.6372 -87.7840
  216 537.484 -49.6372 -87.7840
  217 627.320 -13.3319 -12.7657
  218 627.320 -13.3319 -12.7657
  219 515.946 18.4246 -29.8389
  220 515.946 18.4246 -29.8389
  221 142.197 -174.784 157.982
  222 142.197 -174.784 157.982
  223 636.422 3.34714 20.1503
  224 636.422 3.34714 20.1503
  225 619.693 16.0932 -17.3668
  226 619.693 16.0932 -17.3668
  227 871.349 51.9369 -41.4232
  228 871.349 51.9369 -41.4232
  229 668.817 -24.1885 -8.02047
  230 668.817 -24.1885 -8.02047
  231 726.067 -28.2293 -135.043
  232 726.067 -28.2293 -135.043
  233 539.638 -24.4282 67.2503
  234 539.638 -24.4282 67.2503
  235 530.093 14.7584 2.30563
  236 530.093 14.7584 2.30563
  237 283.748 -40.9865 127.899
  238 283.748 -40.9865 127.899
  239 694.800 -56.7966 156.821
  240 694.800 -56.7966 156.821
  241 194.333 -23.4626 -63.5190
  242 194.333 -23.4626 -63.5190
  243 622.531 -47.0245 -31.7909
  244 622.531 -47.0245 -31.7909
  245 511.143 22.8087 17.1774
  246 511.143 22.8087 17.1774
  247 17.8451 -325.097 -17.9724
  248 17.8451 -325.097 -17.9724
  249 35.0676 -284.104 59.3573
  250 35.0676 -284.104 59.3573
  251 519.712 3.56006 48.0490
  252 519.712 3.56006 48.0490
  253 542.140 2.04055 1.85166
  254 542.140 2.04055 1.85166
  255 537.811 8.54771 0.354760
  256 537.811 8.54771 0.354760
  257 505.256 -6.28289 -64.1126
  258 505.256 -6.28289 -64.1126
  259 542.431 1.86277 -1.96172
  260 542.431 1.86277 -1.96172
  261 598.126 -42.3928 41.2989
  262 598.126 -42.3928 41.2989
  263 556.201 1.91766 -9.19911
  264 556.201 1.91766 -9.19911
  265 432.637 -36.6784 -119.923
  266 432.637 -36.6784 -119.923
  267 731.511 56.5123 -0.267574
  268 731.511 56.5123 -0.267574
  269 537.107 11.7386 -24.1758
  270 537.107 11.7386 -24.1758
  271 535.154 10.9808 -4.75767
  272 535.154 10.9808 -4.75767
  273 457.024 22.1510 -43.9492
  274 457.024 22.1510 -43.9492
  275 140.897 -51.7748 36.9076
  276 140.897 -51.7748 36.9076
  277 570.477 -95.4982 123.744
  278 570.477 -95.4982 123.744
  279 540.599 7.92608 9.31671
  280 540.599 7.92608 9.31671
  281 795.686 56.0360 -13.4813
  282 795.686 56.0360 -13.4813
  283 943.648 85.2696 115.151
  284 943.648 85.2696 115.151
  285 640.138 -68.1772 42.2781
  286 640.138 -68.1772 42.2781
  287 465.965 23.1973 32.1382
  288 465.965 23.1973 32.1382
  289 585.451 -117.400 163.486
  290 585.451 -117.400 163.486
  291 605.324 -7.26622 15.2053
  292 605.324 -7.26622 15.2053
  293 540.268 5.21785 2.53940
  294 540.268 5.21785 2.53940
  295 532.978 14.4304 -15.3175
  296 532.978 14.4304 -15.3175
  297 537.935 8.41193 -0.697663
  298 537.935 8.41193 -0.697663
  299 545.217 1.48786 -3.54796
  300 545.217 1.48786 -3.54796
  301 555.749 2.70079 9.23429
  302 555.749 2.70079 9.23429
  303 530.226 14.6820 -3.91812
  304 530.226 14.6820 -3.91812
  305 121.837 -203.683 -150.729
  306 121.837 -203.683 -150.729
  307 367.411 24.1459 30.1216
  308 367.411 24.1459 30.1216
  309 540.816 4.35919 -2.43707
  310 540.816 4.35919 -2.43707
  311 478.716 27.3580 -21.5054
  312 478.716 27.3580 -21.5054
  313 479.959 29.8260 8.16873
  314 479.959 29.8260 8.16873
  315 539.755 7.62151 -6.58799
  316 539.755 7.62151 -6.58799
  317 719.817 39.4728 -6.06854
  318 719.817 39.4728 -6.06854
  319 535.918 12.7860 21.1210
  320 535.918 12.7860 21.1210
  321 680.955 22.2496 -15.3828
  322 680.955 22.2496 -15.3828
  323 988.827 27.6812 67.4980
  324 988.827 27.6812 67.4980
  325 534.031 13.2346 13.2110
  326 534.031 13.2346 13.2110
  327 525.963 17.5296 6.91115
  328 525.963 17.5296 6.91115
  329 408.102 -80.1547 -234.601
  330 408.102 -80.1547 -234.601
  331 545.535 1.34441 3.47007
  332 545.535 1.34441 3.47007
  333 534.674 11.0603 3.55717
  334 534.674 11.0603 3.55717
  335 515.786 22.7847 0.794057
  336 515.786 22.7847 0.794057
  337 267.940 -94.1853 187.588
  338 267.940 -94.1853 187.588
  339 662.485 43.6819 2.72978
  340 662.485 43.6819 2.72978
  341 37.7782 -278.024 -68.1411
  342 37.7782 -278.024 -68.1411
  343 417.269 26.2961 26.6865
  344 417.269 26.2961 26.6865
  345 936.353 12.4402 9.06714
  346 936.353 12.4402 9.06714
  347 978.128 50.3338 -69.8814
  348 978.128 50.3338 -69.8814
  349 466.949 -54.2532 134.213
  350 487.295 -27.8195 98.8302
  351 466.949 -54.2532 134.213
  352 487.295 -27.8195 98.8302
  353 950.011 23.2135 34.9289
  354 950.011 23.2135 34.9289
  355 552.338 -0.895563 37.4550
  356 552.338 -0.895563 37.4550
  357 649.261 -87.7902 -97.3768
  358 649.261 -87.7902 -97.3768
  359 621.100 -5.23281 16.7809
  360 621.100 -5.23281 16.7809
  361 416.446 -80.6678 255.915
  362 416.446 -80.6678 255.915
  363 723.932 58.0032 -1.85961
  364 723.932 58.0032 -1.85961
  365 948.205 8.38832 -7.24482
  366 948.205 8.38832 -7.24482
  367 586.386 0.145775 -18.2174
  368 586.386 0.145775 -18.2174
  369 525.953 18.6541 -8.28345
  370 525.953 18.6541 -8.28345
  371 804.875 62.6950 22.6383
  372 804.875 62.6950 22.6383
  373 623.108 26.2784 -3.67412
  374 623.108 26.2784 -3.67412
  375 565.762 2.06659 -11.4766
  376 565.762 2.06659 -11.4766
  377 157.231 -75.2273 -108.327
  378 157.231 -75.2273 -108.327
  379 624.817 -11.3281 3.96340
  380 624.817 -11.3281 3.96340
  381 536.568 -0.974887 -44.2989
  382 536.568 -0.974887 -44.2989
  383 617.331 -1.15761 -20.1378
  384 617.331 -1.15761 -20.1378
  385 953.261 16.5875 -28.8132
  386 953.261 16.5875 -28.8132
  387 538.491 8.15165 5.20423
  388 538.491 8.15165 5.20423
  389 655.558 32.5650 16.1052
  390 655.558 32.5650 16.1052
  391 703.235 -13.7513 10.6881
  392 703.235 -13.7513 10.6881
  393 540.380 9.59792 -11.6784
  394 540.380 9.59792 -11.6784
  395 1008.08 100.828 -132.971
  396 1008.08 100.828 -132.971
  397 616.153 -9.15767 -6.87926
  398 616.153 -9.15767 -6.87926
</Section>

newXOutput 162

<Section columns = "stress_xx | stress_yy | stress_xy">
  1 544.369 0.535227 -0.581249
  2 544.620 0.659211 0.783250
  3 544.369 0.535227 -0.581249
  4 544.620 0.659211 0.783250
  5 821.399 67.3317 240.177
  6 852.485 66.2460 -236.400
  7 821.399 67.3317 240.177
  8 852.485 66.2460 -236.400
  9 545.651 0.372938 -1.52930
  10 549.891 0.654630 -2.72732
  11 556.054 1.47283 -5.56323
  12 570.276 0.534634 -7.52018
  13 588.720 0.845962 -12.4674
  14 610.564 -5.60119 -12.5188
  15 631.095 -6.66756 -1.83532
  16 623.130 -4.50431 9.64215
  17 601.777 4.90879 17.4032
  18 590.067 11.7849 -0.684032
  19 598.496 5.62194 -16.3954
  20 622.598 -6.71985 -11.7312
  21 625.501 -8.10473 4.68127
  22 613.690 -3.68743 10.8246
  23 584.956 0.0795202 12.5750
  24 569.064 2.08330 9.53953
  25 556.443 1.69083 5.34150
  26 550.009 0.527205 2.49712
  27 545.956 0.442373 1.47932
  28 545.366 1.92536 0.913893
  29 544.459 3.93667 1.06772
  30 542.224 6.82074 0.952954
  31 541.332 7.92435 -0.0920996
  32 542.467 6.47396 -1.14010
  33 544.062 4.29207 -0.963984
  34 544.760 2.18718 -1.02810
  35 545.651 0.372938 -1.52930
  36 549.891 0.654630 -2.72732
  37 556.054 1.47283 -5.56323
  38 570.276 0.534634 -7.52018
  39 588.720 0.845962 -12.4674
  40 610.564 -5.60119 -12.5188
  41 631.095 -6.66756 -1.83532
  42 623.130 -4.50431 9.64215
  43 601.777 4.90879 17.4032
  44 590.067 11.7849 -0.684032
  45 598.496 5.62194 -16.3954
  46 622.598 -6.71985 -11.7312
  47 625.501 -8.10473 4.68127
  48 613.690 -3.68743 10.8246
  49 584.956 0.0795202 12.5750
  50 569.064 2.08330 9.53953
  51 556.443 1.69083 5.34150
  52 550.009 0.527205 2.49712
  53 545.956 0.442373 1.47932
  54 545.366 1.92536 0.913893
  55 544.459 3.93667 1.06772
  56 542.224 6.82074 0.952954
  57 541.332 7.92435 -0.0920996
  58 542.467 6.47396 -1.14010
  59 544.062 4.29207 -0.963984
  60 544.760 2.18718 -1.02810
  61 1131.40 61.0202 120.312
  62 1033.70 16.7281 41.9182
  63 976.901 6.70911 15.2750
  64 964.676 4.91914 2.87628
  65 976.324 6.58654 -13.0146
  66 1019.92 14.2808 -36.2001
  67 1142.11 53.0525 -103.619
  68 153.844 -159.268 -200.163
  69 30.4999 -397.466 -54.2626
  70 7.71075 -458.957 -23.6714
  71 7.40939 -451.416 -11.1382
  72 13.4547 -437.380 25.3772
  73 33.3494 -385.087 57.5878
  74 165.997 -147.542 221.418
  75 1131.40 61.0202 120.312
  76 1033.70 16.7281 41.9182
  77 976.901 6.70911 15.2750
  78 964.676 4.91914 2.87628
  79 976.324 6.58654 -13.0146
  80 1019.92 14.2808 -36.2001
  81 1142.11 53.0525 -103.619
  82 153.844 -159.268 -200.163
  83 30.4999 -397.466 -54.2626
  84 7.71075 -458.957 -23.6714
  85 7.40939 -451.416 -11.1382
  86 13.4547 -437.380 25.3772
  87 33.3494 -385.087 57.5878
  88 165.997 -147.542 221.418
  89 502.331 28.4079 -7.33032
  90 502.331 28.4079 -7.33032
  91 459.125 6.46202 67.0712
  92 441.358 -2.60359 -80.3269
  93 459.125 6.46202 67.0712
  94 441.358 -2.60359 -80.3269
  95 263.491 7.81402 32.6016
  96 263.491 7.81402 32.6016
  97 670.263 43.5175 -9.07067
  98 681.543 25.6629 17.6258
  99 670.263 43.5175 -9.07067
  100 681.543 25.6629 17.6258
  101 537.206 12.7549 7.18913
  102 537.206 12.7549 7.18913
  103 639.151 -36.4015 3.10499
  104 639.151 -36.4015 3.10499
  105 537.808 13.3453 -8.88004
  106 537.808 13.3453 -8.88004
  107 626.638 -77.9151 -72.8752
  108 626.638 -77.9151 -72.8752
  109 441.031 -92.4647 179.715
  110 441.031 -92.4647 179.715
  111 300.626 -53.5990 -145.504
  112 300.626 -53.5990 -145.504
  113 539.758 8.87521 31.4563
  114 539.758 8.87521 31.4563
  115 558.660 3.59251 -30.1844
  116 558.660 3.59251 -30.1844
  117 753.686 52.2444 11.5335
  118 805.636 51.7134 5.26862
  119 753.686 52.2444 11.5335
  120 805.636 51.7134 5.26862
  121 789.781 67.6260 -23.7775
  122 789.781 67.6260 -23.7775
  123 88.6601 -141.719 -49.0759
  124 88.6601 -141.719 -49.0759
  125 678.741 -83.6605 80.4897
  126 678.741 -83.6605 80.4897
  127 576.917 -14.0947 36.2137
  128 576.917 -14.0947 36.2137
  129 134.907 -122.080 112.058
  130 134.907 -122.080 112.058
  131 537.938 10.6344 -0.449206
  132 537.938 10.6344 -0.449206
  133 575.811 -27.0687 -46.4197
  134 575.811 -27.0687 -46.4197
  135 545.905 4.36247 5.16766
  136 545.905 4.36247 5.16766
  137 546.336 3.84228 -4.81615
  138 546.336 3.84228 -4.81615
  139 552.093 7.44254 -15.6082
  140 552.093 7.44254 -15.6082
  141 549.696 7.26356 14.0280
  142 549.696 7.26356 14.0280
  143 527.665 17.7935 -0.579772
  144 527.665 17.7935 -0.579772
  145 443.852 29.2541 -3.44637
  146 443.852 29.2541 -3.44637
  147 636.535 -22.6033 7.72374
  148 636.535 -22.6033 7.72374
  149 723.531 -22.9160 -33.3560
  150 723.531 -22.9160 -33.3560
  151 561.851 -63.1346 89.2714
  152 561.851 -63.1346 89.2714
  153 424.109 -114.183 -203.901
  154 424.109 -114.183 -203.901
  155 503.199 20.4468 30.0384
  156 503.199 20.4468 30.0384
  157 647.917 -3.53207 -21.1730
  158 647.917 -3.53207 -21.1730
  159 875.473 70.8276 52.7311
  160 875.473 70.8276 52.7311
  161 441.380 -123.058 235.041
  162 441.380 -123.058 235.041
  163 892.093 28.8724 -10.3918
  164 892.093 28.8724 -10.3918
  165 525.608 17.7584 13.7960
  166 525.608 17.7584 13.7960
  167 500.016 16.9288 -44.1346
  168 500.016 16.9288 -44.1346
  169 618.190 19.0277 13.2649
  170 618.190 19.0277 13.2649
  171 520.911 21.2278 -15.7063
  172 520.911 21.2278 -15.7063
  173 541.005 8.54209 2.26032
  174 541.005 8.54209 2.26032
  175 549.389 4.14604 -8.24157
  176 549.389 4.14604 -8.24157
  177 840.507 69.3069 -54.4585
  178 840.507 69.3069 -54.4585
  179 541.402 8.31898 -2.72646
  180 541.402 8.31898 -2.72646
  181 403.247 29.5243 -23.1228
  182 403.247 29.5243 -23.1228
  183 717.481 53.5336 2.26585
  184 717.481 53.5336 2.26585
  185 147.480 -119.890 -144.303
  186 147.480 -119.890 -144.303
  187 396.371 -3.96307 98.0669
  188 396.371 -3.96307 98.0669
  189 524.185 -85.2672 -139.249
  190 524.185 -85.2672 -139.249
  191 618.937 -17.1968 8.62787
  192 618.937 -17.1968 8.62787
  193 579.703 -2.11299 22.0440
  194 579.703 -2.11299 22.0440
  195 782.305 26.3654 52.1588
  196 782.305 26.3654 52.1588
  197 332.236 11.1217 -60.7612
  198 332.236 11.1217 -60.7612
  199 885.325 39.0783 24.0531
  200 885.325 39.0783 24.0531
  201 590.271 -7.42064 -23.4699
  202 590.271 -7.42064 -23.4699
  203 550.211 2.95564 7.59505
  204 550.211 2.95564 7.59505
  205 614.062 -24.3163 -13.1084
  206 614.062 -24.3163 -13.1084
  207 670.195 -33.1592 -7.48985
  208 670.195 -33.1592 -7.48985
  209 42.2125 -249.881 21.9798
  210 42.2125 -249.881 21.9798
  211 566.710 2.83118 -19.2378
  212 566.710 2.83118 -19.2378
  213 562.155 4.32015 16.7546
  214 562.155 4.32015 16.7546
  215 540.615 -49.9316 -88.3094
  216 540.615 -49.9316 -88.3094
  217 630.966 -13.4098 -12.8130
  218 630.966 -13.4098 -12.8130
  219 518.984 18.5297 -30.0069
  220 518.984 18.5297 -30.0069
  221 143.032 -175.763 159.015
  222 143.032 -175.763 159.015
  223 640.132 3.37526 20.2347
  224 640.132 3.37526 20.2347
  225 623.328 16.1937 -17.4458
  226 623.328 16.1937 -17.4458
  227 876.268 52.2288 -41.6826
  228 876.268 52.2288 -41.6826
  229 672.675 -24.3173 -8.01658
  230 672.675 -24.3173 -8.01658
  231 730.177 -28.3120 -135.919
  232 730.177 -28.3120 -135.919
  233 542.789 -24.5726 67.6457
  234 542.789 -24.5726 67.6457
  235 533.208 14.8408 2.31788
  236 533.208 14.8408 2.31788
  237 285.454 -41.2194 128.681
  238 285.454 -41.2194 128.681
  239 698.732 -57.0616 157.820
  240 698.732 -57.0616 157.820
  241 195.530 -23.5755 -63.9120
  242 195.530 -23.5755 -63.9120
  243 626.127 -47.3014 -32.0034
  244 626.127 -47.3014 -32.0034
  245 514.159 22.9387 17.2726
  246 514.159 22.9387 17.2726
  247 17.9417 -327.052 -18.0996
  248 17.9417 -327.052 -18.0996
  249 35.2715 -285.782 59.7728
  250 35.2715 -285.782 59.7728
  251 522.765 3.57990 48.3250
  252 522.765 3.57990 48.3250
  253 545.313 2.05204 1.86103
  254 545.313 2.05204 1.86103
  255 540.964 8.59478 0.356606
  256 540.964 8.59478 0.356606
  257 508.228 -6.32062 -64.4860
  258 508.228 -6.32062 -64.4860
  259 545.605 1.87334 -1.97165
  260 545.605 1.87334 -1.97165
  261 601.591 -42.6435 41.5582
  262 601.591 -42.6435 41.5582
  263 559.444 1.92795 -9.24756
  264 559.444 1.92795 -9.24756
  265 435.190 -36.8958 -120.638
  266 435.190 -36.8958 -120.638
  267 735.737 56.8454 -0.234974
  268 735.737 56.8454 -0.234974
  269 540.256 11.8040 -24.3092
  270 540.256 11.8040 -24.3092
  271 538.294 11.0418 -4.78247
  272 538.294 11.0418 -4.78247
  273 459.743 22.2817 -44.2022
  274 459.743 22.2817 -44.2022
  275 141.770 -52.0442 37.1416
  276 141.770 -52.0442 37.1416
  277 573.765 -96.0640 124.499
  278 573.765 -96.0640 124.499
  279 543.766 7.97016 9.36561
  280 543.766 7.97016 9.36561
  281 800.238 56.3522 -13.5758
  282 800.238 56.3522 -13.5758
  283 948.905 85.8240 115.865
  284 948.905 85.8240 115.865
  285 643.821 -68.5729 42.5651
  286 643.821 -68.5729 42.5651
  287 468.735 23.3331 32.3212
  288 468.735 23.3331 32.3212
  289 588.803 -118.090 164.488
  290 588.803 -118.090 164.488
  291 608.830 -7.31102 15.2979
  292 608.830 -7.31102 15.2979
  293 543.433 5.24679 2.55238
  294 543.433 5.24679 2.55238
  295 536.106 14.5113 -15.4001
  296 536.106 14.5113 -15.4001
  297 541.089 8.45828 -0.701233
  298 541.089 8.45828 -0.701233
  299 548.405 1.49620 -3.56612
  300 548.405 1.49620 -3.56612
  301 558.990 2.71549 9.28291
  302 558.990 2.71549 9.28291
  303 533.341 14.7640 -3.93889
  304 533.341 14.7640 -3.93889
  305 122.548 -204.819 -151.723
  306 122.548 -204.819 -151.723
  307 369.629 24.2952 30.2976
  308 369.629 24.2952 30.2976
  309 543.983 4.38347 -2.44948
  310 543.983 4.38347 -2.44948
  311 481.558 27.5163 -21.6275
  312 481.558 27.5163 -21.6275
  313 482.808 29.9986 8.21451
  314 482.808 29.9986 8.21451
  315 542.917 7.66389 -6.62229
  316 542.917 7.66389 -6.62229
  317 723.963 39.7297 -6.16659
  318 723.963 39.7297 -6.16659
  319 539.061 12.8576 21.2363
  320 539.061 12.8576 21.2363
  321 684.899 22.3943 -15.4240
  322 684.899 22.3943 -15.4240
  323 994.296 27.8284 67.8865
  324 994.296 27.8284 67.8865
  325 537.165 13.3087 13.2817
  326 537.165 13.3087 13.2817
  327 529.057 17.6280 6.94817
  328 529.057 17.6280 6.94817
  329 410.425 -80.4693 -236.088
  330 410.425 -80.4693 -236.088
  331 548.725 1.35193 3.48781
  332 548.725 1.35193 3.48781
  333 537.812 11.1217 3.57575
  334 537.812 11.1217 3.57575
  335 518.828 22.9137 0.798356
  336 518.828 22.9137 0.798356
  337 269.535 -94.7360 188.761
  338 269.535 -94.7360 188.761
  339 666.354 43.9423 2.73753
  340 666.354 43.9423 2.73753
  341 37.9934 -279.663 -68.6083
  342 37.9934 -279.663 -68.6083
  343 419.772 26.4531 26.8400
  344 419.772 26.4531 26.8400
  345 941.547 12.5034 9.11478
  346 941.547 12.5034 9.11478
  347 983.560 50.6264 -70.2891
  348 983.560 50.6264 -70.2891
  349 469.683 -54.5765 135.014
  350 490.156 -27.9837 99.4104
  351 469.683 -54.5765 135.014
  352 490.156 -27.9837 99.4104
  353 955.283 23.3343 35.1238
  354 955.283 23.3343 35.1238
  355 555.565 -0.902906 37.6697
  356 555.565 -0.902906 37.6697
  357 652.970 -88.2947 -97.9949
  358 652.970 -88.2947 -97.9949
  359 624.722 -5.26103 16.8568
  360 624.722 -5.26103 16.8568
  361 418.798 -80.9947 257.523
  362 418.798 -80.9947 257.523
  363 728.124 58.3383 -1.86883
  364 728.124 58.3383 -1.86883
  365 953.448 8.43032 -7.28437
  366 953.448 8.43032 -7.28437
  367 589.787 0.144079 -18.3201
  368 589.787 0.144079 -18.3201
  369 529.047 18.7590 -8.32800
  370 529.047 18.7590 -8.32800
  371 809.473 63.0569 22.8019
  372 809.473 63.0569 22.8019
  373 626.769 26.4372 -3.69085
  374 626.769 26.4372 -3.69085
  375 569.054 2.07712 -11.5382
  376 569.054 2.07712 -11.5382
  377 158.202 -75.6450 -109.014
  378 158.202 -75.6450 -109.014
  379 628.441 -11.3953 3.97036
  380 628.441 -11.3953 3.97036
  381 539.710 -0.982740 -44.5548
  382 539.710 -0.982740 -44.5548
  383 620.942 -1.16222 -20.2306
  384 620.942 -1.16222 -20.2306
  385 958.545 16.6754 -28.9721
  386 958.545 16.6754 -28.9721
  387 541.647 8.19685 5.23124
  388 541.647 8.19685 5.23124
  389 659.380 32.7648 16.1677
  390 659.380 32.7648 16.1677
  391 707.270 -13.8054 10.8149
  392 707.270 -13.8054 10.8149
  393 543.546 9.65141 -11.7402
  394 543.546 9.65141 -11.7402
  395 1013.65 101.494 -133.785
  396 1013.65 101.494 -133.785
  397 619.718 -9.21395 -6.92660
  398 619.718 -9.21395 -6.92660
</Section>

newXOutput 163

<Section columns = "stress_xx | stress_yy | stress_xy">
  1 547.535 0.538419 -0.584120
  2 547.787 0.663058 0.787109
  3 547.535 0.538419 -0.584120
  4 547.787 0.663058 0.787109
  5 825.896 67.9174 241.646
  6 857.136 66.8331 -237.848
  7 825.896 67.9174 241.646
  8 857.136 66.8331 -237.848
  9 548.823 0.375085 -1.53693
  10 553.083 0.658305 -2.74108
  11 559.277 1.48090 -5.59180
  12 573.570 0.537274 -7.55958
  13 592.108 0.849422 -12.5353
  14 614.068 -5.63631 -12.5911
  15 634.718 -6.70801 -1.85240
  16 626.736 -4.53036 9.68391
  17 605.297 4.94117 17.4860
  18 593.538 11.8578 -0.687377
  19 602.000 5.65626 -16.4745
  20 626.203 -6.75909 -11.7816
  21 629.094 -8.15405 4.71603
  22 617.212 -3.71034 10.8877
  23 588.326 0.0780905 12.6441
  24 572.352 2.09429 9.58981
  25 559.668 1.70010 5.36884
  26 553.203 0.530182 2.50969
  27 549.130 0.444945 1.48674
  28 548.537 1.93612 0.918377
  29 547.626 3.95843 1.07305
  30 545.380 6.85806 0.957768
  31 544.484 7.96759 -0.0925597
  32 545.624 6.50944 -1.14581
  33 547.227 4.31579 -0.968674
  34 547.928 2.19948 -1.03324
  35 548.823 0.375085 -1.53693
  36 553.083 0.658305 -2.74108
  37 559.277 1.48090 -5.59180
  38 573.570 0.537274 -7.55958
  39 592.108 0.849422 -12.5353
  40 614.068 -5.63631 -12.5911
  41 634.718 -6.70801 -1.85240
  42 626.736 -4.53036 9.68391
  43 605.297 4.94117 17.4860
  44 593.538 11.8578 -0.687377
  45 602.000 5.65626 -16.4745
  46 626.203 -6.75909 -11.7816
  47 629.094 -8.15405 4.71603
  48 617.212 -3.71034 10.8877
  49 588.326 0.0780905 12.6441
  50 572.352 2.09429 9.58981
  51 559.668 1.70010 5.36884
  52 553.203 0.530182 2.50969
  53 549.130 0.444945 1.48674
  54 548.537 1.93612 0.918377
  55 547.626 3.95843 1.07305
  56 545.380 6.85806 0.957768
  57 544.484 7.96759 -0.0925597
  58 545.624 6.50944 -1.14581
  59 547.227 4.31579 -0.968674
  60 547.928 2.19948 -1.03324
  61 1137.50 61.3835 120.989
  62 1039.31 16.8160 42.1432
  63 982.237 6.73978 15.3536
  64 969.951 4.94281 2.88912
  65 981.655 6.61942 -13.0811
  66 1025.47 14.3548 -36.3914
  67 1148.27 53.3673 -104.202
  68 154.716 -159.993 -201.449
  69 30.6742 -399.812 -54.6604
  70 7.73977 -461.773 -23.8447
  71 7.43810 -454.198 -11.2064
  72 13.5220 -440.048 25.5638
  73 33.5441 -387.358 58.0118
  74 166.924 -148.199 222.834
  75 1137.50 61.3835 120.989
  76 1039.31 16.8160 42.1432
  77 982.237 6.73978 15.3536
  78 969.951 4.94281 2.88912
  79 981.655 6.61942 -13.0811
  80 1025.47 14.3548 -36.3914
  81 1148.27 53.3673 -104.202
  82 154.716 -159.993 -201.449
  83 30.6742 -399.812 -54.6604
  84 7.73977 -461.773 -23.8447
  85 7.43810 -454.198 -11.2064
  86 13.5220 -440.048 25.5638
  87 33.5441 -387.358 58.0118
  88 166.924 -148.199 222.834
  89 505.284 28.5695 -7.37104
  90 505.284 28.5695 -7.37104
  91 461.830 6.50145 67.4576
  92 443.962 -2.61697 -80.7944
  93 461.830 6.50145 67.4576
  94 443.962 -2.61697 -80.7944
  95 265.098 7.87787 32.7963
  96 265.098 7.87787 32.7963
  97 674.147 43.7759 -9.10309
  98 685.468 25.8273 17.6785
  99 674.147 43.7759 -9.10309
  100 685.468 25.8273 17.6785
  101 540.339 12.8255 7.22678
  102 540.339 12.8255 7.22678
  103 642.825 -36.6114 3.15860
  104 642.825 -36.6114 3.15860
  105 540.943 13.4194 -8.92670
  106 540.943 13.4194 -8.92670
  107 630.218 -78.3702 -73.3283
  108 630.218 -78.3702 -73.3283
  109 443.590 -93.0127 180.799
  110 443.590 -93.0127 180.799
  111 302.411 -53.9071 -146.390
  112 302.411 -53.9071 -146.390
  113 542.901 8.92384 31.6315
  114 542.901 8.92384 31.6315
  115 561.900 3.61021 -30.3542
  116 561.900 3.61021 -30.3542
  117 757.989 52.5684 11.6615
  118 810.208 51.9994 5.30825
  119 757.989 52.5684 11.6615
  120 810.208 51.9994 5.30825
  121 794.278 68.0268 -23.9605
  122 794.278 68.0268 -23.9605
  123 89.1978 -142.518 -49.3973
  124 89.1978 -142.518 -49.3973
  125 682.590 -84.1248 81.0154
  126 682.590 -84.1248 81.0154
  127 580.253 -14.1791 36.4278
  128 580.253 -14.1791 36.4278
  129 135.722 -122.764 112.780
  130 135.722 -122.764 112.780
  131 541.073 10.6929 -0.451470
  132 541.073 10.6929 -0.451470
  133 579.138 -27.2289 -46.6980
  134 579.138 -27.2289 -46.6980
  135 549.079 4.38661 5.19410
  136 549.079 4.38661 5.19410
  137 549.512 3.86364 -4.84070
  138 549.512 3.86364 -4.84070
  139 555.299 7.48325 -15.6915
  140 555.299 7.48325 -15.6915
  141 552.889 7.30351 14.1024
  142 552.889 7.30351 14.1024
  143 530.750 17.8926 -0.582996
  144 530.750 17.8926 -0.582996
  145 446.489 29.4246 -3.46646
  146 446.489 29.4246 -3.46646
  147 640.203 -22.7319 7.73717
  148 640.203 -22.7319 7.73717
  149 727.640 -23.0085 -33.6233
  150 727.640 -23.0085 -33.6233
  151 565.088 -63.5067 89.8049
  152 565.088 -63.5067 89.8049
  153 426.547 -114.832 -205.164
  154 426.547 -114.832 -205.164
  155 506.153 20.5639 30.2068
  156 506.153 20.5639 30.2068
  157 651.654 -3.54566 -21.2565
  158 651.654 -3.54566 -21.2565
  159 880.387 71.2454 53.0690
  160 880.387 71.2454 53.0690
  161 443.911 -123.770 236.482
  162 443.911 -123.770 236.482
  163 897.066 29.0236 -10.4525
  164 897.066 29.0236 -10.4525
  165 528.682 17.8577 13.8705
  166 528.682 17.8577 13.8705
  167 502.950 17.0262 -44.3852
  168 502.950 17.0262 -44.3852
  169 621.800 19.1449 13.3267
  170 621.800 19.1449 13.3267
  171 523.960 21.3471 -15.7917
  172 523.960 21.3471 -15.7917
  173 544.156 8.58898 2.27190
  174 544.156 8.58898 2.27190
  175 552.580 4.16883 -8.28430
  176 552.580 4.16883 -8.28430
  177 845.238 69.7487 -54.8391
  178 845.238 69.7487 -54.8391
  179 544.554 8.36475 -2.74037
  180 544.554 8.36475 -2.74037
  181 405.655 29.7012 -23.2567
  182 405.655 29.7012 -23.2567
  183 721.608 53.8497 2.24436
  184 721.608 53.8497 2.24436
  185 148.362 -120.561 -145.228
  186 148.362 -120.561 -145.228
  187 398.720 -3.98195 98.6421
  188 398.720 -3.98195 98.6421
  189 527.204 -85.7706 -140.088
  190 527.204 -85.7706 -140.088
  191 622.502 -17.2991 8.69387
  192 622.502 -17.2991 8.69387
  193 583.051 -2.12785 22.1689
  194 583.051 -2.12785 22.1689
  195 786.727 26.5702 52.5393
  196 786.727 26.5702 52.5393
  197 334.233 11.1975 -61.1208
  198 334.233 11.1975 -61.1208
  199 890.275 39.2888 24.1976
  200 890.275 39.2888 24.1976
  201 593.676 -7.46666 -23.6083
  202 593.676 -7.46666 -23.6083
  203 553.406 2.97179 7.63433
  204 553.406 2.97179 7.63433
  205 617.599 -24.4611 -13.2019
  206 617.599 -24.4611 -13.2019
  207 674.032 -33.3397 -7.58287
  208 674.032 -33.3397 -7.58287
  209 42.4615 -251.350 22.1297
  210 42.4615 -251.350 22.1297
  211 569.990 2.84491 -19.3432
  212 569.990 2.84491 -19.3432
  213 565.412 4.34333 16.8454
  214 565.412 4.34333 16.8454
  215 543.743 -50.2258 -88.8345
  216 543.743 -50.2258 -88.8345
  217 634.609 -13.4876 -12.8599
  218 634.609 -13.4876 -12.8599
  219 522.021 18.6347 -30.1747
  220 522.021 18.6347 -30.1747
  221 143.867 -176.741 160.048
  222 143.867 -176.741 160.048
  223 643.839 3.40347 20.3185
  224 643.839 3.40347 20.3185
  225 626.961 16.2942 -17.5245
  226 626.961 16.2942 -17.5245
  227 881.181 52.5203 -41.9419
  228 881.181 52.5203 -41.9419
  229 676.528 -24.4460 -8.01210
  230 676.528 -24.4460 -8.01210
  231 734.282 -28.3937 -136.796
  232 734.282 -28.3937 -136.796
  233 545.936 -24.7169 68.0408
  234 545.936 -24.7169 68.0408
  235 536.320 14.9231 2.33011
  236 536.320 14.9231 2.33011
  237 287.159 -41.4520 129.462
  238 287.159 -41.4520 129.462
  239 702.660 -57.3255 158.820
  240 702.660 -57.3255 158.820
  241 196.727 -23.6881 -64.3050
  242 196.727 -23.6881 -64.3050
  243 629.720 -47.5781 -32.2160
  244 629.720 -47.5781 -32.2160
  245 517.172 23.0686 17.3677
  246 517.172 23.0686 17.3677
  247 18.0382 -329.007 -18.2269
  248 18.0382 -329.007 -18.2269
  249 35.4752 -287.459 60.1889
  250 35.4752 -287.459 60.1889
  251 525.816 3.59970 48.6007
  252 525.816 3.59970 48.6007
  253 548.484 2.06351 1.87037
  254 548.484 2.06351 1.87037
  255 544.114 8.64177 0.358448
  256 544.114 8.64177 0.358448
  257 511.197 -6.35834 -64.8590
  258 511.197 -6.35834 -64.8590
  259 548.777 1.88390 -1.98156
  260 548.777 1.88390 -1.98156
  261 605.053 -42.8940 41.8174
  262 605.053 -42.8940 41.8174
  263 562.685 1.93822 -9.29591
  264 562.685 1.93822 -9.29591
  265 437.742 -37.1130 -121.352
  266 437.742 -37.1130 -121.352
  267 739.959 57.1783 -0.202023
  268 739.959 57.1783 -0.202023
  269 543.403 11.8693 -24.4423
  270 543.403 11.8693 -24.4423
  271 541.431 11.1028 -4.80721
  272 541.431 11.1028 -4.80721
  273 462.460 22.4123 -44.4551
  274 462.460 22.4123 -44.4551
  275 142.643 -52.3129 37.3756
  276 142.643 -52.3129 37.3756
  277 577.050 -96.6296 125.253
  278 577.050 -96.6296 125.253
  279 546.930 8.01419 9.41442
  280 546.930 8.01419 9.41442
  281 804.786 56.6680 -13.6704
  282 804.786 56.6680 -13.6704
  283 954.156 86.3787 116.579
  284 954.156 86.3787 116.579
  285 647.500 -68.9683 42.8523
  286 647.500 -68.9683 42.8523
  287 471.504 23.4689 32.5041
  288 471.504 23.4689 32.5041
  289 592.150 -118.779 165.489
  290 592.150 -118.779 165.489
  291 612.333 -7.35582 15.3905
  292 612.333 -7.35582 15.3905
  293 546.595 5.27568 2.56533
  294 546.595 5.27568 2.56533
  295 539.233 14.5921 -15.4824
  296 539.233 14.5921 -15.4824
  297 544.240 8.50455 -0.704794
  298 544.240 8.50455 -0.704794
  299 551.590 1.50453 -3.58423
  300 551.590 1.50453 -3.58423
  301 562.229 2.73016 9.33142
  302 562.229 2.73016 9.33142
  303 536.455 14.8459 -3.95963
  304 536.455 14.8459 -3.95963
  305 123.259 -205.953 -152.718
  306 123.259 -205.953 -152.718
  307 371.847 24.4445 30.4735
  308 371.847 24.4445 30.4735
  309 547.147 4.40771 -2.46185
  310 547.147 4.40771 -2.46185
  311 484.398 27.6746 -21.7494
  312 484.398 27.6746 -21.7494
  313 485.656 30.1709 8.26022
  314 485.656 30.1709 8.26022
  315 546.076 7.70622 -6.65651
  316 546.076 7.70622 -6.65651
  317 728.105 39.9866 -6.26526
  318 728.105 39.9866 -6.26526
  319 542.202 12.9291 21.3514
  320 542.202 12.9291 21.3514
  321 688.839 22.5391 -15.4647
  322 688.839 22.5391 -15.4647
  323 999.758 27.9752 68.2746
  324 999.758 27.9752 68.2746
  325 540.297 13.3826 13.3524
  326 540.297 13.3826 13.3524
  327 532.149 17.7262 6.98512
  328 532.149 17.7262 6.98512
  329 412.746 -80.7819 -237.575
  330 412.746 -80.7819 -237.575
  331 551.912 1.35944 3.50551
  332 551.912 1.35944 3.50551
  333 540.947 11.1830 3.59430
  334 540.947 11.1830 3.59430
  335 521.867 23.0425 0.802647
  336 521.867 23.0425 0.802647
  337 271.129 -95.2863 189.934
  338 271.129 -95.2863 189.934
  339 670.220 44.2026 2.74518
  340 670.220 44.2026 2.74518
  341 38.2085 -281.301 -69.0761
  342 38.2085 -281.301 -69.0761
  343 422.273 26.6100 26.9934
  344 422.273 26.6100 26.9934
  345 946.734 12.5664 9.16233
  346 946.734 12.5664 9.16233
  347 988.985 50.9188 -70.6964
  348 988.985 50.9188 -70.6964
  349 472.415 -54.8996 135.814
  350 493.015 -28.1479 99.9902
  351 472.415 -54.8996 135.814
  352 493.015 -28.1479 99.9902
  353 960.547 23.4548 35.3183
  354 960.547 23.4548 35.3183
  355 558.790 -0.910268 37.8842
  356 558.790 -0.910268 37.8842
  357 656.675 -88.7987 -98.6130
  358 656.675 -88.7987 -98.6130
  359 628.342 -5.28920 16.9323
  360 628.342 -5.28920 16.9323
  361 421.148 -81.3196 259.131
  362 421.148 -81.3196 259.131
  363 732.312 58.6731 -1.87802
  364 732.312 58.6731 -1.87802
  365 958.685 8.47221 -7.32385
  366 958.685 8.47221 -7.32385
  367 593.185 0.142355 -18.4226
  368 593.185 0.142355 -18.4226
  369 532.138 18.8638 -8.37248
  370 532.138 18.8638 -8.37248
  371 814.066 63.4186 22.9657
  372 814.066 63.4186 22.9657
  373 630.426 26.5959 -3.70750
  374 630.426 26.5959 -3.70750
  375 572.342 2.08763 -11.5998
  376 572.342 2.08763 -11.5998
  377 159.174 -76.0621 -109.702
  378 159.174 -76.0621 -109.702
  379 632.061 -11.4624 3.97712
  380 632.061 -11.4624 3.97712
  381 542.851 -0.990612 -44.8104
  382 542.851 -0.990612 -44.8104
  383 624.550 -1.16681 -20.3231
  384 624.550 -1.16681 -20.3231
  385 963.821 16.7632 -29.1307
  386 963.821 16.7632 -29.1307
  387 544.801 8.24199 5.25819
  388 544.801 8.24199 5.25819
  389 663.199 32.9646 16.2297
  390 663.199 32.9646 16.2297
  391 711.300 -13.8591 10.9423
  392 711.300 -13.8591 10.9423
  393 546.709 9.70483 -11.8019
  394 546.709 9.70483 -11.8019
  395 1019.21 102.160 -134.598
  396 1019.21 102.160 -134.598
  397 623.280 -9.27021 -6.97398
  398 623.280 -9.27021 -6.97398
</Section>

newXOutput 164

<Section columns = "stress_xx | stress_yy | stress_xy">
  1 550.699 0.541609 -0.586982
  2 550.952 0.666901 0.790957
  3 550.699 0.541609 -0.586982
  4 550.952 0.666901 0.790957
  5 830.385 68.5051 243.114
  6 861.779 67.4221 -239.294
  7 830.385 68.5051 243.114
  8 861.779 67.4221 -239.294
  9 551.993 0.377230 -1.54453
  10 556.273 0.661975 -2.75481
  11 562.497 1.48895 -5.62030
  12 576.861 0.539907 -7.59891
  13 595.493 0.852863 -12.6031
  14 617.570 -5.67143 -12.6634
  15 638.337 -6.74845 -1.86954
  16 630.340 -4.55638 9.72546
  17 608.815 4.97357 17.5686
  18 597.007 11.9308 -0.690711
  19 605.502 5.69056 -16.5533
  20 629.805 -6.79830 -11.8318
  21 632.684 -8.20335 4.75085
  22 620.731 -3.73326 10.9508
  23 591.694 0.0766403 12.7131
  24 575.637 2.10526 9.64000
  25 562.890 1.70936 5.39612
  26 556.394 0.533155 2.52223
  27 552.302 0.447514 1.49414
  28 551.705 1.94687 0.922849
  29 550.790 3.98015 1.07837
  30 548.534 6.89533 0.962570
  31 547.634 8.01077 -0.0930185
  32 548.779 6.54487 -1.15150
  33 550.389 4.33948 -0.973350
  34 551.093 2.21176 -1.03837
  35 551.993 0.377230 -1.54453
  36 556.273 0.661975 -2.75481
  37 562.497 1.48895 -5.62030
  38 576.861 0.539907 -7.59891
  39 595.493 0.852863 -12.6031
  40 617.570 -5.67143 -12.6634
  41 638.337 -6.74845 -1.86954
  42 630.340 -4.55638 9.72546
  43 608.815 4.97357 17.5686
  44 597.007 11.9308 -0.690711
  45 605.502 5.69056 -16.5533
  46 629.805 -6.79830 -11.8318
  47 632.684 -8.20335 4.75085
  48 620.731 -3.73326 10.9508
  49 591.694 0.0766403 12.7131
  50 575.637 2.10526 9.64000
  51 562.890 1.70936 5.39612
  52 556.394 0.533155 2.52223
  53 552.302 0.447514 1.49414
  54 551.705 1.94687 0.922849
  55 550.790 3.98015 1.07837
  56 548.534 6.89533 0.962570
  57 547.634 8.01077 -0.0930185
  58 548.779 6.54487 -1.15150
  59 550.389 4.33948 -0.973350
  60 551.093 2.21176 -1.03837
  61 1143.60 61.7466 121.665
  62 1044.92 16.9038 42.3678
  63 987.565 6.77034 15.4319
  64 975.218 4.96641 2.90191
  65 986.979 6.65222 -13.1475
  66 1031.01 14.4286 -36.5824
  67 1154.42 53.6820 -104.785
  68 155.587 -160.714 -202.736
  69 30.8483 -402.156 -55.0588
  70 7.76857 -464.590 -24.0184
  71 7.46662 -456.980 -11.2745
  72 13.5891 -442.715 25.7508
  73 33.7387 -389.627 58.4367
  74 167.850 -148.853 224.251
  75 1143.60 61.7466 121.665
  76 1044.92 16.9038 42.3678
  77 987.565 6.77034 15.4319
  78 975.218 4.96641 2.90191
  79 986.979 6.65222 -13.1475
  80 1031.01 14.4286 -36.5824
  81 1154.42 53.6820 -104.785
  82 155.587 -160.714 -202.736
  83 30.8483 -402.156 -55.0588
  84 7.76857 -464.590 -24.0184
  85 7.46662 -456.980 -11.2745
  86 13.5891 -442.715 25.7508
  87 33.7387 -389.627 58.4367
  88 167.850 -148.853 224.251
  89 508.234 28.7309 -7.41169
  90 508.234 28.7309 -7.41169
  91 464.534 6.54086 67.8437
  92 446.564 -2.63032 -81.2615
  93 464.534 6.54086 67.8437
  94 446.564 -2.63032 -81.2615
  95 266.704 7.94188 32.9909
  96 266.704 7.94188 32.9909
  97 678.027 44.0342 -9.13526
  98 689.390 25.9917 17.7307
  99 678.027 44.0342 -9.13526
  100 689.390 25.9917 17.7307
  101 543.468 12.8960 7.26436
  102 543.468 12.8960 7.26436
  103 646.495 -36.8211 3.21258
  104 646.495 -36.8211 3.21258
  105 544.075 13.4934 -8.97327
  106 544.075 13.4934 -8.97327
  107 633.794 -78.8250 -73.7813
  108 633.794 -78.8250 -73.7813
  109 446.147 -93.5604 181.882
  110 446.147 -93.5604 181.882
  111 304.194 -54.2150 -147.276
  112 304.194 -54.2150 -147.276
  113 546.041 8.97240 31.8064
  114 546.041 8.97240 31.8064
  115 565.138 3.62786 -30.5237
  116 565.138 3.62786 -30.5237
  117 762.289 52.8925 11.7901
  118 814.775 52.2850 5.34795
  119 762.289 52.8925 11.7901
  120 814.775 52.2850 5.34795
  121 798.770 68.4274 -24.1437
  122 798.770 68.4274 -24.1437
  123 89.7354 -143.316 -49.7188
  124 89.7354 -143.316 -49.7188
  125 686.434 -84.5884 81.5414
  126 686.434 -84.5884 81.5414
  127 583.585 -14.2635 36.6417
  128 583.585 -14.2635 36.6417
  129 136.538 -123.447 113.502
  130 136.538 -123.447 113.502
  131 544.207 10.7514 -0.453728
  132 544.207 10.7514 -0.453728
  133 582.462 -27.3891 -46.9762
  134 582.462 -27.3891 -46.9762
  135 552.250 4.41072 5.22047
  136 552.250 4.41072 5.22047
  137 552.685 3.88498 -4.86518
  138 552.685 3.88498 -4.86518
  139 558.501 7.52389 -15.7747
  140 558.501 7.52389 -15.7747
  141 556.080 7.34340 14.1767
  142 556.080 7.34340 14.1767
  143 533.832 17.9916 -0.586216
  144 533.832 17.9916 -0.586216
  145 449.124 29.5950 -3.48654
  146 449.124 29.5950 -3.48654
  147 643.867 -22.8604 7.75024
  148 643.867 -22.8604 7.75024
  149 731.744 -23.1004 -33.8912
  150 731.744 -23.1004 -33.8912
  151 568.322 -63.8787 90.3382
  152 568.322 -63.8787 90.3382
  153 428.982 -115.481 -206.427
  154 428.982 -115.481 -206.427
  155 509.104 20.6808 30.3750
  156 509.104 20.6808 30.3750
  157 655.389 -3.55915 -21.3396
  158 655.389 -3.55915 -21.3396
  159 885.295 71.6629 53.4069
  160 885.295 71.6629 53.4069
  161 446.440 -124.481 237.923
  162 446.440 -124.481 237.923
  163 902.034 29.1746 -10.5132
  164 902.034 29.1746 -10.5132
  165 531.753 17.9569 13.9448
  166 531.753 17.9569 13.9448
  167 505.881 17.1235 -44.6356
  168 505.881 17.1235 -44.6356
  169 625.408 19.2622 13.3882
  170 625.408 19.2622 13.3882
  171 527.007 21.4663 -15.8771
  172 527.007 21.4663 -15.8771
  173 547.304 8.63580 2.28344
  174 547.304 8.63580 2.28344
  175 555.768 4.19157 -8.32693
  176 555.768 4.19157 -8.32693
  177 849.965 70.1907 -55.2202
  178 849.965 70.1907 -55.2202
  179 547.704 8.41046 -2.75424
  180 547.704 8.41046 -2.75424
  181 408.062 29.8779 -23.3904
  182 408.062 29.8779 -23.3904
  183 725.731 54.1656 2.22251
  184 725.731 54.1656 2.22251
  185 149.243 -121.232 -146.153
  186 149.243 -121.232 -146.153
  187 401.068 -4.00076 99.2168
  188 401.068 -4.00076 99.2168
  189 530.220 -86.2738 -140.926
  190 530.220 -86.2738 -140.926
  191 626.064 -17.4014 8.76000
  192 626.064 -17.4014 8.76000
  193 586.396 -2.14273 22.2938
  194 586.396 -2.14273 22.2938
  195 791.145 26.7755 52.9204
  196 791.145 26.7755 52.9204
  197 336.230 11.2733 -61.4802
  198 336.230 11.2733 -61.4802
  199 895.219 39.4991 24.3421
  200 895.219 39.4991 24.3421
  201 597.079 -7.51267 -23.7466
  202 597.079 -7.51267 -23.7466
  203 556.599 2.98791 7.67353
  204 556.599 2.98791 7.67353
  205 621.132 -24.6059 -13.2956
  206 621.132 -24.6059 -13.2956
  207 677.865 -33.5201 -7.67639
  208 677.865 -33.5201 -7.67639
  209 42.7104 -252.818 22.2798
  210 42.7104 -252.818 22.2798
  211 573.267 2.85859 -19.4485
  212 573.267 2.85859 -19.4485
  213 568.665 4.36647 16.9360
  214 568.665 4.36647 16.9360
  215 546.869 -50.5198 -89.3592
  216 546.869 -50.5198 -89.3592
  217 638.249 -13.5654 -12.9066
  218 638.249 -13.5654 -12.9066
  219 525.055 18.7396 -30.3422
  220 525.055 18.7396 -30.3422
  221 144.701 -177.718 161.082
  222 144.701 -177.718 161.082
  223 647.542 3.43176 20.4019
  224 647.542 3.43176 20.4019
  225 630.591 16.3947 -17.6028
  226 630.591 16.3947 -17.6028
  227 886.088 52.8114 -42.2011
  228 886.088 52.8114 -42.2011
  229 680.378 -24.5743 -8.00704
  230 680.378 -24.5743 -8.00704
  231 738.382 -28.4744 -137.673
  232 738.382 -28.4744 -137.673
  233 549.081 -24.8611 68.4355
  234 549.081 -24.8611 68.4355
  235 539.431 15.0053 2.34231
  236 539.431 15.0053 2.34231
  237 288.864 -41.6843 130.243
  238 288.864 -41.6843 130.243
  239 706.583 -57.5884 159.819
  240 706.583 -57.5884 159.819
  241 197.924 -23.8003 -64.6979
  242 197.924 -23.8003 -64.6979
  243 633.310 -47.8546 -32.4287
  244 633.310 -47.8546 -32.4287
  245 520.183 23.1983 17.4626
  246 520.183 23.1983 17.4626
  247 18.1345 -330.960 -18.3543
  248 18.1345 -330.960 -18.3543
  249 35.6787 -289.135 60.6055
  250 35.6787 -289.135 60.6055
  251 528.864 3.61948 48.8762
  252 528.864 3.61948 48.8762
  253 551.652 2.07497 1.87969
  254 551.652 2.07497 1.87969
  255 547.262 8.68870 0.360286
  256 547.262 8.68870 0.360286
  257 514.164 -6.39604 -65.2317
  258 514.164 -6.39604 -65.2317
  259 551.946 1.89444 -1.99144
  260 551.946 1.89444 -1.99144
  261 608.512 -43.1443 42.0767
  262 608.512 -43.1443 42.0767
  263 565.922 1.94846 -9.34416
  264 565.922 1.94846 -9.34416
  265 440.291 -37.3301 -122.066
  266 440.291 -37.3301 -122.066
  267 744.176 57.5109 -0.168723
  268 744.176 57.5109 -0.168723
  269 546.547 11.9345 -24.5753
  270 546.547 11.9345 -24.5753
  271 544.567 11.1637 -4.83191
  272 544.567 11.1637 -4.83191
  273 465.175 22.5428 -44.7077
  274 465.175 22.5428 -44.7077
  275 143.515 -52.5810 37.6096
  276 143.515 -52.5810 37.6096
  277 580.331 -97.1947 126.008
  278 580.331 -97.1947 126.008
  279 550.091 8.05815 9.46312
  280 550.091 8.05815 9.46312
  281 809.328 56.9834 -13.7651
  282 809.328 56.9834 -13.7651
  283 959.399 86.9335 117.293
  284 959.399 86.9335 117.293
  285 651.176 -69.3633 43.1398
  286 651.176 -69.3633 43.1398
  287 474.271 23.6045 32.6868
  288 474.271 23.6045 32.6868
  289 595.495 -119.468 166.490
  290 595.495 -119.468 166.490
  291 615.833 -7.40061 15.4830
  292 615.833 -7.40061 15.4830
  293 549.754 5.30454 2.57826
  294 549.754 5.30454 2.57826
  295 542.357 14.6727 -15.5646
  296 542.357 14.6727 -15.5646
  297 547.389 8.55076 -0.708347
  298 547.389 8.55076 -0.708347
  299 554.773 1.51284 -3.60230
  300 554.773 1.51284 -3.60230
  301 565.464 2.74481 9.37984
  302 565.464 2.74481 9.37984
  303 539.565 14.9277 -3.98032
  304 539.565 14.9277 -3.98032
  305 123.970 -207.086 -153.713
  306 123.970 -207.086 -153.713
  307 374.063 24.5938 30.6493
  308 374.063 24.5938 30.6493
  309 550.309 4.43192 -2.47419
  310 550.309 4.43192 -2.47419
  311 487.236 27.8326 -21.8711
  312 487.236 27.8326 -21.8711
  313 488.502 30.3431 8.30588
  314 488.502 30.3431 8.30588
  315 549.233 7.74849 -6.69066
  316 549.233 7.74849 -6.69066
  317 732.243 40.2437 -6.36456
  318 732.243 40.2437 -6.36456
  319 545.340 13.0006 21.4663
  320 545.340 13.0006 21.4663
  321 692.776 22.6840 -15.5049
  322 692.776 22.6840 -15.5049
  323 1005.21 28.1217 68.6623
  324 1005.21 28.1217 68.6623
  325 543.426 13.4565 13.4228
  326 543.426 13.4565 13.4228
  327 535.238 17.8243 7.02200
  328 535.238 17.8243 7.02200
  329 415.063 -81.0922 -239.062
  330 415.063 -81.0922 -239.062
  331 555.097 1.36695 3.52317
  332 555.097 1.36695 3.52317
  333 544.080 11.2443 3.61280
  334 544.080 11.2443 3.61280
  335 524.904 23.1712 0.806932
  336 524.904 23.1712 0.806932
  337 272.722 -95.8362 191.106
  338 272.722 -95.8362 191.106
  339 674.082 44.4628 2.75273
  340 674.082 44.4628 2.75273
  341 38.4232 -282.937 -69.5444
  342 38.4232 -282.937 -69.5444
  343 424.774 26.7669 27.1466
  344 424.774 26.7669 27.1466
  345 951.914 12.6293 9.20978
  346 951.914 12.6293 9.20978
  347 994.403 51.2108 -71.1034
  348 994.403 51.2108 -71.1034
  349 475.145 -55.2225 136.614
  350 495.872 -28.3119 100.570
  351 475.145 -55.2225 136.614
  352 495.872 -28.3119 100.570
  353 965.804 23.5750 35.5127
  354 965.804 23.5750 35.5127
  355 562.012 -0.917649 38.0984
  356 562.012 -0.917649 38.0984
  357 660.376 -89.3022 -99.2311
  358 660.376 -89.3022 -99.2311
  359 631.958 -5.31731 17.0075
  360 631.958 -5.31731 17.0075
  361 423.494 -81.6424 260.739
  362 423.494 -81.6424 260.739
  363 736.496 59.0076 -1.88718
  364 736.496 59.0076 -1.88718
  365 963.913 8.51399 -7.36326
  366 963.913 8.51399 -7.36326
  367 596.580 0.140603 -18.5251
  368 596.580 0.140603 -18.5251
  369 535.227 18.9684 -8.41687
  370 535.227 18.9684 -8.41687
  371 818.654 63.7799 23.1296
  372 818.654 63.7799 23.1296
  373 634.081 26.7546 -3.72409
  374 634.081 26.7546 -3.72409
  375 575.628 2.09811 -11.6612
  376 575.628 2.09811 -11.6612
  377 160.146 -76.4787 -110.390
  378 160.146 -76.4787 -110.390
  379 635.678 -11.5295 3.98370
  380 635.678 -11.5295 3.98370
  381 545.988 -0.998502 -45.0657
  382 545.988 -0.998502 -45.0657
  383 628.155 -1.17135 -20.4152
  384 628.155 -1.17135 -20.4152
  385 969.091 16.8508 -29.2891
  386 969.091 16.8508 -29.2891
  387 547.952 8.28707 5.28508
  388 547.952 8.28707 5.28508
  389 667.014 33.1643 16.2914
  390 667.014 33.1643 16.2914
  391 715.326 -13.9125 11.0703
  392 715.326 -13.9125 11.0703
  393 549.869 9.75818 -11.8634
  394 549.869 9.75818 -11.8634
  395 1024.77 102.826 -135.411
  396 1024.77 102.826 -135.411
  397 626.839 -9.32646 -7.02140
  398 626.839 -9.32646 -7.02140
</Section>

newXOutput 165

<Section columns = "stress_xx | stress_yy | stress_xy">
  1 553.860 0.544797 -0.589837
  2 554.115 0.670741 0.794794
  3 553.860 0.544797 -0.589837
  4 554.115 0.670741 0.794794
  5 834.868 69.0946 244.582
  6 866.416 68.0131 -240.741
  7 834.868 69.0946 244.582
  8 866.416 68.0131 -240.741
  9 555.160 0.379374 -1.55211
  10 559.461 0.665641 -2.76850
  11 565.715 1.49699 -5.64874
  12 580.148 0.542533 -7.63815
  13 598.875 0.856285 -12.6707
  14 621.068 -5.70656 -12.7356
  15 641.953 -6.78887 -1.88674
  16 633.940 -4.58238 9.76683
  17 612.329 5.00599 17.6509
  18 600.474 12.0037 -0.694035
  19 609.001 5.72487 -16.6319
  20 633.403 -6.83749 -11.8817
  21 636.271 -8.25265 4.78572
  22 624.246 -3.75617 11.0139
  23 595.058 0.0751695 12.7820
  24 578.919 2.11621 9.69008
  25 566.110 1.71860 5.42334
  26 559.582 0.536125 2.53474
  27 555.471 0.450081 1.50153
  28 554.871 1.95760 0.927307
  29 553.952 4.00185 1.08367
  30 551.685 6.93255 0.967360
  31 550.781 8.05388 -0.0934762
  32 551.931 6.58026 -1.15718
  33 553.549 4.36314 -0.978012
  34 554.256 2.22403 -1.04349
  35 555.160 0.379374 -1.55211
  36 559.461 0.665641 -2.76850
  37 565.715 1.49699 -5.64874
  38 580.148 0.542533 -7.63815
  39 598.875 0.856285 -12.6707
  40 621.068 -5.70656 -12.7356
  41 641.953 -6.78887 -1.88674
  42 633.940 -4.58238 9.76683
  43 612.329 5.00599 17.6509
  44 600.474 12.0037 -0.694035
  45 609.001 5.72487 -16.6319
  46 633.403 -6.83749 -11.8817
  47 636.271 -8.25265 4.78572
  48 624.246 -3.75617 11.0139
  49 595.058 0.0751695 12.7820
  50 578.919 2.11621 9.69008
  51 566.110 1.71860 5.42334
  52 559.582 0.536125 2.53474
  53 555.471 0.450081 1.50153
  54 554.871 1.95760 0.927307
  55 553.952 4.00185 1.08367
  56 551.685 6.93255 0.967360
  57 550.781 8.05388 -0.0934762
  58 551.931 6.58026 -1.15718
  59 553.549 4.36314 -0.978012
  60 554.256 2.22403 -1.04349
  61 1149.68 62.1095 122.341
  62 1050.51 16.9913 42.5921
  63 992.884 6.80079 15.5101
  64 980.477 4.98995 2.91465
  65 992.294 6.68494 -13.2137
  66 1036.54 14.5022 -36.7731
  67 1160.56 53.9965 -105.367
  68 156.457 -161.433 -204.023
  69 31.0222 -404.499 -55.4581
  70 7.79716 -467.406 -24.1924
  71 7.49493 -459.761 -11.3427
  72 13.6561 -445.382 25.9381
  73 33.9332 -391.895 58.8623
  74 168.775 -149.504 225.668
  75 1149.68 62.1095 122.341
  76 1050.51 16.9913 42.5921
  77 992.884 6.80079 15.5101
  78 980.477 4.98995 2.91465
  79 992.294 6.68494 -13.2137
  80 1036.54 14.5022 -36.7731
  81 1160.56 53.9965 -105.367
  82 156.457 -161.433 -204.023
  83 31.0222 -404.499 -55.4581
  84 7.79716 -467.406 -24.1924
  85 7.49493 -459.761 -11.3427
  86 13.6561 -445.382 25.9381
  87 33.9332 -391.895 58.8623
  88 168.775 -149.504 225.668
  89 511.183 28.8922 -7.45229
  90 511.183 28.8922 -7.45229
  91 467.236 6.58027 68.2294
  92 449.164 -2.64364 -81.7282
  93 467.236 6.58027 68.2294
  94 449.164 -2.64364 -81.7282
  95 268.310 8.00604 33.1853
  96 268.310 8.00604 33.1853
  97 681.905 44.2924 -9.16718
  98 693.308 26.1562 17.7822
  99 681.905 44.2924 -9.16718
  100 693.308 26.1562 17.7822
  101 546.596 12.9664 7.30185
  102 546.596 12.9664 7.30185
  103 650.162 -37.0306 3.26693
  104 650.162 -37.0306 3.26693
  105 547.206 13.5673 -9.01975
  106 547.206 13.5673 -9.01975
  107 637.367 -79.2795 -74.2343
  108 637.367 -79.2795 -74.2343
  109 448.702 -94.1078 182.965
  110 448.702 -94.1078 182.965
  111 305.977 -54.5226 -148.162
  112 305.977 -54.5226 -148.162
  113 549.179 9.02089 31.9811
  114 549.179 9.02089 31.9811
  115 568.373 3.64547 -30.6930
  116 568.373 3.64547 -30.6930
  117 766.584 53.2165 11.9192
  118 819.337 52.5703 5.38771
  119 766.584 53.2165 11.9192
  120 819.337 52.5703 5.38771
  121 803.257 68.8278 -24.3274
  122 803.257 68.8278 -24.3274
  123 90.2728 -144.113 -50.0406
  124 90.2728 -144.113 -50.0406
  125 690.274 -85.0514 82.0677
  126 690.274 -85.0514 82.0677
  127 586.916 -14.3479 36.8555
  128 586.916 -14.3479 36.8555
  129 137.353 -124.129 114.224
  130 137.353 -124.129 114.224
  131 547.338 10.8097 -0.455980
  132 547.338 10.8097 -0.455980
  133 585.782 -27.5492 -47.2543
  134 585.782 -27.5492 -47.2543
  135 555.419 4.43480 5.24679
  136 555.419 4.43480 5.24679
  137 555.855 3.90629 -4.88961
  138 555.855 3.90629 -4.88961
  139 561.702 7.56447 -15.8578
  140 561.702 7.56447 -15.8578
  141 559.269 7.38323 14.2508
  142 559.269 7.38323 14.2508
  143 536.912 18.0905 -0.589431
  144 536.912 18.0905 -0.589431
  145 451.758 29.7653 -3.50660
  146 451.758 29.7653 -3.50660
  147 647.527 -22.9887 7.76294
  148 647.527 -22.9887 7.76294
  149 735.844 -23.1918 -34.1597
  150 735.844 -23.1918 -34.1597
  151 571.553 -64.2504 90.8712
  152 571.553 -64.2504 90.8712
  153 431.415 -116.128 -207.690
  154 431.415 -116.128 -207.690
  155 512.053 20.7977 30.5430
  156 512.053 20.7977 30.5430
  157 659.119 -3.57254 -21.4220
  158 659.119 -3.57254 -21.4220
  159 890.197 72.0802 53.7448
  160 890.197 72.0802 53.7448
  161 448.967 -125.192 239.363
  162 448.967 -125.192 239.363
  163 906.995 29.3253 -10.5738
  164 906.995 29.3253 -10.5738
  165 534.822 18.0559 14.0190
  166 534.822 18.0559 14.0190
  167 508.810 17.2207 -44.8856
  168 508.810 17.2207 -44.8856
  169 629.013 19.3794 13.4495
  170 629.013 19.3794 13.4495
  171 530.052 21.5854 -15.9623
  172 530.052 21.5854 -15.9623
  173 550.450 8.68256 2.29497
  174 550.450 8.68256 2.29497
  175 558.954 4.21429 -8.36947
  176 558.954 4.21429 -8.36947
  177 854.685 70.6327 -55.6016
  178 854.685 70.6327 -55.6016
  179 550.852 8.45609 -2.76808
  180 550.852 8.45609 -2.76808
  181 410.468 30.0546 -23.5240
  182 410.468 30.0546 -23.5240
  183 729.850 54.4813 2.20029
  184 729.850 54.4813 2.20029
  185 150.124 -121.902 -147.079
  186 150.124 -121.902 -147.079
  187 403.414 -4.01952 99.7912
  188 403.414 -4.01952 99.7912
  189 533.233 -86.7766 -141.765
  190 533.233 -86.7766 -141.765
  191 629.623 -17.5036 8.82625
  192 629.623 -17.5036 8.82625
  193 589.738 -2.15762 22.4185
  194 589.738 -2.15762 22.4185
  195 795.557 26.9812 53.3021
  196 795.557 26.9812 53.3021
  197 338.226 11.3492 -61.8394
  198 338.226 11.3492 -61.8394
  199 900.157 39.7090 24.4864
  200 900.157 39.7090 24.4864
  201 600.479 -7.55868 -23.8848
  202 600.479 -7.55868 -23.8848
  203 559.788 3.00401 7.71263
  204 559.788 3.00401 7.71263
  205 624.662 -24.7505 -13.3893
  206 624.662 -24.7505 -13.3893
  207 681.694 -33.7001 -7.77040
  208 681.694 -33.7001 -7.77040
  209 42.9591 -254.285 22.4300
  210 42.9591 -254.285 22.4300
  211 576.541 2.87224 -19.5536
  212 576.541 2.87224 -19.5536
  213 571.916 4.38957 17.0265
  214 571.916 4.38957 17.0265
  215 549.992 -50.8136 -89.8837
  216 549.992 -50.8136 -89.8837
  217 641.885 -13.6431 -12.9528
  218 641.885 -13.6431 -12.9528
  219 528.087 18.8444 -30.5096
  220 528.087 18.8444 -30.5096
  221 145.535 -178.693 162.116
  222 145.535 -178.693 162.116
  223 651.242 3.46013 20.4849
  224 651.242 3.46013 20.4849
  225 634.218 16.4952 -17.6809
  226 634.218 16.4952 -17.6809
  227 890.989 53.1022 -42.4604
  228 890.989 53.1022 -42.4604
  229 684.224 -24.7024 -8.00140
  230 684.224 -24.7024 -8.00140
  231 742.478 -28.5539 -138.550
  232 742.478 -28.5539 -138.550
  233 552.223 -25.0052 68.8300
  234 552.223 -25.0052 68.8300
  235 542.539 15.0873 2.35448
  236 542.539 15.0873 2.35448
  237 290.567 -41.9164 131.024
  238 290.567 -41.9164 131.024
  239 710.501 -57.8503 160.819
  240 710.501 -57.8503 160.819
  241 199.120 -23.9121 -65.0907
  242 199.120 -23.9121 -65.0907
  243 636.896 -48.1309 -32.6415
  244 636.896 -48.1309 -32.6415
  245 523.192 23.3279 17.5574
  246 523.192 23.3279 17.5574
  247 18.2306 -332.913 -18.4820
  248 18.2306 -332.913 -18.4820
  249 35.8820 -290.809 61.0227
  250 35.8820 -290.809 61.0227
  251 531.911 3.63922 49.1513
  252 531.911 3.63922 49.1513
  253 554.818 2.08642 1.88899
  254 554.818 2.08642 1.88899
  255 550.408 8.73555 0.362120
  256 550.408 8.73555 0.362120
  257 517.129 -6.43372 -65.6040
  258 517.129 -6.43372 -65.6040
  259 555.113 1.90498 -2.00130
  260 555.113 1.90498 -2.00130
  261 611.967 -43.3944 42.3359
  262 611.967 -43.3944 42.3359
  263 569.157 1.95869 -9.39231
  264 569.157 1.95869 -9.39231
  265 442.839 -37.5471 -122.780
  266 442.839 -37.5471 -122.780
  267 748.390 57.8433 -0.135074
  268 748.390 57.8433 -0.135074
  269 549.689 11.9997 -24.7081
  270 549.689 11.9997 -24.7081
  271 547.699 11.2245 -4.85654
  272 547.699 11.2245 -4.85654
  273 467.889 22.6732 -44.9600
  274 467.889 22.6732 -44.9600
  275 144.388 -52.8485 37.8436
  276 144.388 -52.8485 37.8436
  277 583.609 -97.7595 126.762
  278 583.609 -97.7595 126.762
  279 553.250 8.10205 9.51172
  280 553.250 8.10205 9.51172
  281 813.865 57.2985 -13.8599
  282 813.865 57.2985 -13.8599
  283 964.634 87.4886 118.006
  284 964.634 87.4886 118.006
  285 654.848 -69.7580 43.4274
  286 654.848 -69.7580 43.4274
  287 477.036 23.7400 32.8692
  288 477.036 23.7400 32.8692
  289 598.836 -120.156 167.491
  290 598.836 -120.156 167.491
  291 619.330 -7.44539 15.5755
  292 619.330 -7.44539 15.5755
  293 552.911 5.33335 2.59114
  294 552.911 5.33335 2.59114
  295 545.478 14.7533 -15.6467
  296 545.478 14.7533 -15.6467
  297 550.535 8.59689 -0.711891
  298 550.535 8.59689 -0.711891
  299 557.954 1.52115 -3.62033
  300 557.954 1.52115 -3.62033
  301 568.698 2.75943 9.42816
  302 568.698 2.75943 9.42816
  303 542.674 15.0094 -4.00097
  304 542.674 15.0094 -4.00097
  305 124.679 -208.217 -154.709
  306 124.679 -208.217 -154.709
  307 376.278 24.7430 30.8248
  308 376.278 24.7430 30.8248
  309 553.468 4.45610 -2.48651
  310 553.468 4.45610 -2.48651
  311 490.072 27.9906 -21.9928
  312 490.072 27.9906 -21.9928
  313 491.347 30.5152 8.35148
  314 491.347 30.5152 8.35148
  315 552.388 7.79070 -6.72473
  316 552.388 7.79070 -6.72473
  317 736.376 40.5009 -6.46447
  318 736.376 40.5009 -6.46447
  319 548.476 13.0719 21.5810
  320 548.476 13.0719 21.5810
  321 696.710 22.8289 -15.5444
  322 696.710 22.8289 -15.5444
  323 1010.66 28.2680 69.0496
  324 1010.66 28.2680 69.0496
  325 546.553 13.5302 13.4932
  326 546.553 13.5302 13.4932
  327 538.325 17.9223 7.05882
  328 538.325 17.9223 7.05882
  329 417.378 -81.4004 -240.550
  330 417.378 -81.4004 -240.550
  331 558.279 1.37444 3.54079
  332 558.279 1.37444 3.54079
  333 547.210 11.3054 3.63126
  334 547.210 11.3054 3.63126
  335 527.939 23.2997 0.811209
  336 527.939 23.2997 0.811209
  337 274.314 -96.3856 192.279
  338 274.314 -96.3856 192.279
  339 677.941 44.7228 2.76018
  340 677.941 44.7228 2.76018
  341 38.6378 -284.573 -70.0131
  342 38.6378 -284.573 -70.0131
  343 427.273 26.9236 27.2997
  344 427.273 26.9236 27.2997
  345 957.086 12.6921 9.25714
  346 957.086 12.6921 9.25714
  347 999.812 51.5027 -71.5099
  348 999.812 51.5027 -71.5099
  349 477.872 -55.5453 137.413
  350 498.727 -28.4759 101.149
  351 477.872 -55.5453 137.413
  352 498.727 -28.4759 101.149
  353 971.054 23.6949 35.7067
  354 971.054 23.6949 35.7067
  355 565.231 -0.925049 38.3124
  356 565.231 -0.925049 38.3124
  357 664.073 -89.8051 -99.8494
  358 664.073 -89.8051 -99.8494
  359 635.571 -5.34538 17.0824
  360 635.571 -5.34538 17.0824
  361 425.838 -81.9631 262.347
  362 425.838 -81.9631 262.347
  363 740.676 59.3418 -1.89631
  364 740.676 59.3418 -1.89631
  365 969.134 8.55567 -7.40261
  366 969.134 8.55567 -7.40261
  367 599.971 0.138824 -18.6274
  368 599.971 0.138824 -18.6274
  369 538.314 19.0729 -8.46118
  370 538.314 19.0729 -8.46118
  371 823.237 64.1408 23.2938
  372 823.237 64.1408 23.2938
  373 637.732 26.9132 -3.74060
  374 637.732 26.9132 -3.74060
  375 578.912 2.10857 -11.7225
  376 578.912 2.10857 -11.7225
  377 161.117 -76.8946 -111.077
  378 161.117 -76.8946 -111.077
  379 639.292 -11.5966 3.99009
  380 639.292 -11.5966 3.99009
  381 549.124 -1.00641 -45.3208
  382 549.124 -1.00641 -45.3208
  383 631.757 -1.17587 -20.5069
  384 631.757 -1.17587 -20.5069
  385 974.352 16.9383 -29.4473
  386 974.352 16.9383 -29.4473
  387 551.101 8.33207 5.31191
  388 551.101 8.33207 5.31191
  389 670.826 33.3640 16.3527
  390 670.826 33.3640 16.3527
  391 719.348 -13.9655 11.1990
  392 719.348 -13.9655 11.1990
  393 553.027 9.81145 -11.9248
  394 553.027 9.81145 -11.9248
  395 1030.31 103.492 -136.223
  396 1030.31 103.492 -136.223
  397 630.394 -9.38269 -7.06886
  398 630.394 -9.38269 -7.06886
</Section>

newXOutput 166

<Section columns = "stress_xx | stress_yy | stress_xy">
  1 557.018 0.547984 -0.592684
  2 557.275 0.674579 0.798620
  3 557.018 0.547984 -0.592684
  4 557.275 0.674579 0.798620
  5 839.344 69.6859 246.050
  6 871.045 68.6059 -242.187
  7 839.344 69.6859 246.050
  8 871.045 68.6059 -242.187
  9 558.325 0.381515 -1.55967
  10 562.646 0.669303 -2.78216
  11 568.929 1.50501 -5.67712
  12 583.433 0.545151 -7.67731
  13 602.254 0.859689 -12.7383
  14 624.563 -5.74168 -12.8077
  15 645.566 -6.82929 -1.90399
  16 637.537 -4.60836 9.80800
  17 615.841 5.03844 17.7329
  18 603.938 12.0767 -0.697349
  19 612.497 5.75916 -16.7103
  20 636.999 -6.87664 -11.9314
  21 639.854 -8.30192 4.82065
  22 627.758 -3.77908 11.0769
  23 598.419 0.0736782 12.8508
  24 582.198 2.12713 9.74007
  25 569.327 1.72782 5.45050
  26 562.768 0.539091 2.54721
  27 558.637 0.452646 1.50889
  28 558.035 1.96832 0.931753
  29 557.111 4.02351 1.08897
  30 554.834 6.96970 0.972138
  31 553.926 8.09692 -0.0939326
  32 555.081 6.61558 -1.16285
  33 556.706 4.38677 -0.982660
  34 557.416 2.23628 -1.04859
  35 558.325 0.381515 -1.55967
  36 562.646 0.669303 -2.78216
  37 568.929 1.50501 -5.67712
  38 583.433 0.545151 -7.67731
  39 602.254 0.859689 -12.7383
  40 624.563 -5.74168 -12.8077
  41 645.566 -6.82929 -1.90399
  42 637.537 -4.60836 9.80800
  43 615.841 5.03844 17.7329
  44 603.938 12.0767 -0.697349
  45 612.497 5.75916 -16.7103
  46 636.999 -6.87664 -11.9314
  47 639.854 -8.30192 4.82065
  48 627.758 -3.77908 11.0769
  49 598.419 0.0736782 12.8508
  50 582.198 2.12713 9.74007
  51 569.327 1.72782 5.45050
  52 562.768 0.539091 2.54721
  53 558.637 0.452646 1.50889
  54 558.035 1.96832 0.931753
  55 557.111 4.02351 1.08897
  56 554.834 6.96970 0.972138
  57 553.926 8.09692 -0.0939326
  58 555.081 6.61558 -1.16285
  59 556.706 4.38677 -0.982660
  60 557.416 2.23628 -1.04859
  61 1155.75 62.4722 123.015
  62 1056.10 17.0787 42.8159
  63 998.196 6.83113 15.5881
  64 985.729 5.01341 2.92734
  65 997.602 6.71759 -13.2797
  66 1042.07 14.5757 -36.9634
  67 1166.69 54.3108 -105.948
  68 157.326 -162.148 -205.310
  69 31.1960 -406.840 -55.8580
  70 7.82553 -470.221 -24.3667
  71 7.52306 -462.542 -11.4109
  72 13.7228 -448.048 26.1258
  73 34.1275 -394.161 59.2888
  74 169.698 -150.152 227.085
  75 1155.75 62.4722 123.015
  76 1056.10 17.0787 42.8159
  77 998.196 6.83113 15.5881
  78 985.729 5.01341 2.92734
  79 997.602 6.71759 -13.2797
  80 1042.07 14.5757 -36.9634
  81 1166.69 54.3108 -105.948
  82 157.326 -162.148 -205.310
  83 31.1960 -406.840 -55.8580
  84 7.82553 -470.221 -24.3667
  85 7.52306 -462.542 -11.4109
  86 13.7228 -448.048 26.1258
  87 34.1275 -394.161 59.2888
  88 169.698 -150.152 227.085
  89 514.130 29.0533 -7.49284
  90 514.130 29.0533 -7.49284
  91 469.936 6.61966 68.6148
  92 451.763 -2.65694 -82.1945
  93 469.936 6.61966 68.6148
  94 451.763 -2.65694 -82.1945
  95 269.915 8.07037 33.3797
  96 269.915 8.07037 33.3797
  97 685.779 44.5504 -9.19884
  98 697.223 26.3207 17.8331
  99 685.779 44.5504 -9.19884
  100 697.223 26.3207 17.8331
  101 549.721 13.0367 7.33927
  102 549.721 13.0367 7.33927
  103 653.825 -37.2400 3.32163
  104 653.825 -37.2400 3.32163
  105 550.333 13.6411 -9.06613
  106 550.333 13.6411 -9.06613
  107 640.936 -79.7336 -74.6873
  108 640.936 -79.7336 -74.6873
  109 451.255 -94.6549 184.048
  110 451.255 -94.6549 184.048
  111 307.759 -54.8300 -149.048
  112 307.759 -54.8300 -149.048
  113 552.315 9.06931 32.1555
  114 552.315 9.06931 32.1555
  115 571.605 3.66302 -30.8622
  116 571.605 3.66302 -30.8622
  117 770.874 53.5405 12.0489
  118 823.894 52.8551 5.42753
  119 770.874 53.5405 12.0489
  120 823.894 52.8551 5.42753
  121 807.739 69.2279 -24.5113
  122 807.739 69.2279 -24.5113
  123 90.8100 -144.910 -50.3625
  124 90.8100 -144.910 -50.3625
  125 694.109 -85.5138 82.5942
  126 694.109 -85.5138 82.5942
  127 590.243 -14.4323 37.0691
  128 590.243 -14.4323 37.0691
  129 138.168 -124.811 114.947
  130 138.168 -124.811 114.947
  131 550.467 10.8680 -0.458227
  132 550.467 10.8680 -0.458227
  133 589.100 -27.7092 -47.5322
  134 589.100 -27.7092 -47.5322
  135 558.586 4.45885 5.27304
  136 558.586 4.45885 5.27304
  137 559.023 3.92756 -4.91398
  138 559.023 3.92756 -4.91398
  139 564.899 7.60499 -15.9407
  140 564.899 7.60499 -15.9407
  141 562.455 7.42301 14.3248
  142 562.455 7.42301 14.3248
  143 539.990 18.1893 -0.592642
  144 539.990 18.1893 -0.592642
  145 454.391 29.9354 -3.52664
  146 454.391 29.9354 -3.52664
  147 651.185 -23.1169 7.77527
  148 651.185 -23.1169 7.77527
  149 739.939 -23.2826 -34.4289
  150 739.939 -23.2826 -34.4289
  151 574.782 -64.6218 91.4039
  152 574.782 -64.6218 91.4039
  153 433.846 -116.775 -208.953
  154 433.846 -116.775 -208.953
  155 515.001 20.9144 30.7108
  156 515.001 20.9144 30.7108
  157 662.847 -3.58584 -21.5040
  158 662.847 -3.58584 -21.5040
  159 895.093 72.4973 54.0828
  160 895.093 72.4973 54.0828
  161 451.491 -125.902 240.803
  162 451.491 -125.902 240.803
  163 911.949 29.4757 -10.6344
  164 911.949 29.4757 -10.6344
  165 537.888 18.1548 14.0931
  166 537.888 18.1548 14.0931
  167 511.737 17.3178 -45.1354
  168 511.737 17.3178 -45.1354
  169 632.616 19.4966 13.5106
  170 632.616 19.4966 13.5106
  171 533.094 21.7043 -16.0473
  172 533.094 21.7043 -16.0473
  173 553.593 8.72924 2.30646
  174 553.593 8.72924 2.30646
  175 562.137 4.23697 -8.41192
  176 562.137 4.23697 -8.41192
  177 859.400 71.0748 -55.9834
  178 859.400 71.0748 -55.9834
  179 553.997 8.50166 -2.78189
  180 553.997 8.50166 -2.78189
  181 412.873 30.2312 -23.6575
  182 412.873 30.2312 -23.6575
  183 733.965 54.7968 2.17772
  184 733.965 54.7968 2.17772
  185 151.005 -122.571 -148.005
  186 151.005 -122.571 -148.005
  187 405.759 -4.03822 100.365
  188 405.759 -4.03822 100.365
  189 536.244 -87.2791 -142.602
  190 536.244 -87.2791 -142.602
  191 633.178 -17.6058 8.89262
  192 633.178 -17.6058 8.89262
  193 593.078 -2.17253 22.5430
  194 593.078 -2.17253 22.5430
  195 799.964 27.1874 53.6843
  196 799.964 27.1874 53.6843
  197 340.221 11.4252 -62.1983
  198 340.221 11.4252 -62.1983
  199 905.089 39.9185 24.6307
  200 905.089 39.9185 24.6307
  201 603.875 -7.60469 -24.0229
  202 603.875 -7.60469 -24.0229
  203 562.976 3.02008 7.75166
  204 562.976 3.02008 7.75166
  205 628.189 -24.8952 -13.4832
  206 628.189 -24.8952 -13.4832
  207 685.519 -33.8798 -7.86490
  208 685.519 -33.8798 -7.86490
  209 43.2077 -255.751 22.5804
  210 43.2077 -255.751 22.5804
  211 579.812 2.88584 -19.6585
  212 579.812 2.88584 -19.6585
  213 575.164 4.41263 17.1168
  214 575.164 4.41263 17.1168
  215 553.112 -51.1073 -90.4079
  216 553.112 -51.1073 -90.4079
  217 645.518 -13.7207 -12.9988
  218 645.518 -13.7207 -12.9988
  219 531.116 18.9490 -30.6767
  220 531.116 18.9490 -30.6767
  221 146.368 -179.667 163.151
  222 146.368 -179.667 163.151
  223 654.940 3.48858 20.5674
  224 654.940 3.48858 20.5674
  225 637.842 16.5957 -17.7586
  226 637.842 16.5957 -17.7586
  227 895.884 53.3926 -42.7195
  228 895.884 53.3926 -42.7195
  229 688.066 -24.8303 -7.99518
  230 688.066 -24.8303 -7.99518
  231 746.568 -28.6324 -139.427
  232 746.568 -28.6324 -139.427
  233 555.363 -25.1492 69.2242
  234 555.363 -25.1492 69.2242
  235 545.645 15.1693 2.36663
  236 545.645 15.1693 2.36663
  237 292.270 -42.1482 131.805
  238 292.270 -42.1482 131.805
  239 714.415 -58.1111 161.819
  240 714.415 -58.1111 161.819
  241 200.316 -24.0236 -65.4835
  242 200.316 -24.0236 -65.4835
  243 640.479 -48.4071 -32.8545
  244 640.479 -48.4071 -32.8545
  245 526.199 23.4573 17.6521
  246 526.199 23.4573 17.6521
  247 18.3266 -334.864 -18.6099
  248 18.3266 -334.864 -18.6099
  249 36.0852 -292.483 61.4403
  250 36.0852 -292.483 61.4403
  251 534.955 3.65894 49.4262
  252 534.955 3.65894 49.4262
  253 557.981 2.09784 1.89827
  254 557.981 2.09784 1.89827
  255 553.551 8.78233 0.363949
  256 553.551 8.78233 0.363949
  257 520.091 -6.47139 -65.9761
  258 520.091 -6.47139 -65.9761
  259 558.278 1.91550 -2.01113
  260 558.278 1.91550 -2.01113
  261 615.419 -43.6444 42.5952
  262 615.419 -43.6444 42.5952
  263 572.389 1.96891 -9.44036
  264 572.389 1.96891 -9.44036
  265 445.385 -37.7639 -123.493
  266 445.385 -37.7639 -123.493
  267 752.599 58.1755 -0.101077
  268 752.599 58.1755 -0.101077
  269 552.828 12.0647 -24.8406
  270 552.828 12.0647 -24.8406
  271 550.830 11.2852 -4.88113
  272 550.830 11.2852 -4.88113
  273 470.602 22.8036 -45.2121
  274 470.602 22.8036 -45.2121
  275 145.260 -53.1153 38.0777
  276 145.260 -53.1153 38.0777
  277 586.884 -98.3240 127.516
  278 586.884 -98.3240 127.516
  279 556.407 8.14589 9.56022
  280 556.407 8.14589 9.56022
  281 818.398 57.6131 -13.9548
  282 818.398 57.6131 -13.9548
  283 969.863 88.0438 118.719
  284 969.863 88.0438 118.719
  285 658.516 -70.1523 43.7154
  286 658.516 -70.1523 43.7154
  287 479.799 23.8755 33.0515
  288 479.799 23.8755 33.0515
  289 602.173 -120.844 168.492
  290 602.173 -120.844 168.492
  291 622.823 -7.49016 15.6679
  292 622.823 -7.49016 15.6679
  293 556.066 5.36212 2.60400
  294 556.066 5.36212 2.60400
  295 548.598 14.8337 -15.7286
  296 548.598 14.8337 -15.7286
  297 553.679 8.64296 -0.715426
  298 553.679 8.64296 -0.715426
  299 561.131 1.52944 -3.63831
  300 561.131 1.52944 -3.63831
  301 571.928 2.77403 9.47637
  302 571.928 2.77403 9.47637
  303 545.780 15.0910 -4.02157
  304 545.780 15.0910 -4.02157
  305 125.389 -209.347 -155.705
  306 125.389 -209.347 -155.705
  307 378.493 24.8922 31.0003
  308 378.493 24.8922 31.0003
  309 556.625 4.48024 -2.49879
  310 556.625 4.48024 -2.49879
  311 492.907 28.1483 -22.1142
  312 492.907 28.1483 -22.1142
  313 494.189 30.6871 8.39702
  314 494.189 30.6871 8.39702
  315 555.540 7.83285 -6.75873
  316 555.540 7.83285 -6.75873
  317 740.506 40.7581 -6.56499
  318 740.506 40.7581 -6.56499
  319 551.609 13.1432 21.6956
  320 551.609 13.1432 21.6956
  321 700.639 22.9739 -15.5833
  322 700.639 22.9739 -15.5833
  323 1016.10 28.4140 69.4364
  324 1016.10 28.4140 69.4364
  325 549.678 13.6039 13.5634
  326 549.678 13.6039 13.5634
  327 541.410 18.0201 7.09557
  328 541.410 18.0201 7.09557
  329 419.691 -81.7065 -242.037
  330 419.691 -81.7065 -242.037
  331 561.458 1.38192 3.55836
  332 561.458 1.38192 3.55836
  333 550.339 11.3664 3.64968
  334 550.339 11.3664 3.64968
  335 530.972 23.4281 0.815479
  336 530.972 23.4281 0.815479
  337 275.905 -96.9346 193.451
  338 275.905 -96.9346 193.451
  339 681.798 44.9827 2.76753
  340 681.798 44.9827 2.76753
  341 38.8521 -286.207 -70.4823
  342 38.8521 -286.207 -70.4823
  343 429.770 27.0803 27.4526
  344 429.770 27.0803 27.4526
  345 962.251 12.7547 9.30439
  346 962.251 12.7547 9.30439
  347 1005.21 51.7942 -71.9160
  348 1005.21 51.7942 -71.9160
  349 480.598 -55.8679 138.212
  350 501.579 -28.6397 101.727
  351 480.598 -55.8679 138.212
  352 501.579 -28.6397 101.727
  353 976.296 23.8147 35.9005
  354 976.296 23.8147 35.9005
  355 568.448 -0.932468 38.5262
  356 568.448 -0.932468 38.5262
  357 667.766 -90.3076 -100.468
  358 667.766 -90.3076 -100.468
  359 639.182 -5.37339 17.1570
  360 639.182 -5.37339 17.1570
  361 428.178 -82.2818 263.955
  362 428.178 -82.2818 263.955
  363 744.852 59.6757 -1.90542
  364 744.852 59.6757 -1.90542
  365 974.348 8.59725 -7.44190
  366 974.348 8.59725 -7.44190
  367 603.360 0.137018 -18.7296
  368 603.360 0.137018 -18.7296
  369 541.398 19.1773 -8.50541
  370 541.398 19.1773 -8.50541
  371 827.815 64.5014 23.4581
  372 827.815 64.5014 23.4581
  373 641.381 27.0717 -3.75705
  374 641.381 27.0717 -3.75705
  375 582.192 2.11900 -11.7837
  376 582.192 2.11900 -11.7837
  377 162.089 -77.3100 -111.765
  378 162.089 -77.3100 -111.765
  379 642.903 -11.6636 3.99630
  380 642.903 -11.6636 3.99630
  381 552.257 -1.01434 -45.5757
  382 552.257 -1.01434 -45.5757
  383 635.356 -1.18036 -20.5982
  384 635.356 -1.18036 -20.5982
  385 979.606 17.0256 -29.6052
  386 979.606 17.0256 -29.6052
  387 554.247 8.37702 5.33868
  388 554.247 8.37702 5.33868
  389 674.635 33.5636 16.4136
  390 674.635 33.5636 16.4136
  391 723.366 -14.0181 11.3282
  392 723.366 -14.0181 11.3282
  393 556.182 9.86465 -11.9861
  394 556.182 9.86465 -11.9861
  395 1035.85 104.159 -137.036
  396 1035.85 104.159 -137.036
  397 633.946 -9.43892 -7.11635
  398 633.946 -9.43892 -7.11635
</Section>

newXOutput 167

<Section columns = "stress_xx | stress_yy | stress_xy">
  1 560.174 0.551169 -0.595523
  2 560.432 0.678413 0.802436
  3 560.174 0.551169 -0.595523
  4 560.432 0.678413 0.802436
  5 843.813 70.2791 247.517
  6 875.667 69.2007 -243.632
  7 843.813 70.2791 247.517
  8 875.667 69.2007 -243.632
  9 561.487 0.383654 -1.56722
  10 565.828 0.672960 -2.79579
  11 572.142 1.51303 -5.70543
  12 586.715 0.547762 -7.71639
  13 605.630 0.863073 -12.8058
  14 628.055 -5.77681 -12.8797
  15 649.175 -6.86969 -1.92130
  16 641.131 -4.63432 9.84898
  17 619.351 5.07091 17.8147
  18 607.400 12.1496 -0.700652
  19 615.991 5.79345 -16.7884
  20 640.592 -6.91576 -11.9808
  21 643.433 -8.35119 4.85563
  22 631.267 -3.80199 11.1398
  23 601.778 0.0721664 12.9195
  24 585.475 2.13804 9.78996
  25 572.541 1.73704 5.47759
  26 565.951 0.542054 2.55966
  27 561.801 0.455209 1.51624
  28 561.195 1.97903 0.936187
  29 560.268 4.04515 1.09424
  30 557.981 7.00680 0.976904
  31 557.069 8.13989 -0.0943878
  32 558.229 6.65086 -1.16850
  33 559.860 4.41036 -0.987294
  34 560.574 2.24851 -1.05368
  35 561.487 0.383654 -1.56722
  36 565.828 0.672960 -2.79579
  37 572.142 1.51303 -5.70543
  38 586.715 0.547762 -7.71639
  39 605.630 0.863073 -12.8058
  40 628.055 -5.77681 -12.8797
  41 649.175 -6.86969 -1.92130
  42 641.131 -4.63432 9.84898
  43 619.351 5.07091 17.8147
  44 607.400 12.1496 -0.700652
  45 615.991 5.79345 -16.7884
  46 640.592 -6.91576 -11.9808
  47 643.433 -8.35119 4.85563
  48 631.267 -3.80199 11.1398
  49 601.778 0.0721664 12.9195
  50 585.475 2.13804 9.78996
  51 572.541 1.73704 5.47759
  52 565.951 0.542054 2.55966
  53 561.801 0.455209 1.51624
  54 561.195 1.97903 0.936187
  55 560.268 4.04515 1.09424
  56 557.981 7.00680 0.976904
  57 557.069 8.13989 -0.0943878
  58 558.229 6.65086 -1.16850
  59 559.860 4.41036 -0.987294
  60 560.574 2.24851 -1.05368
  61 1161.82 62.8347 123.689
  62 1061.67 17.1660 43.0393
  63 1003.50 6.86136 15.6660
  64 990.973 5.03681 2.93998
  65 1002.90 6.75015 -13.3456
  66 1047.58 14.6491 -37.1533
  67 1172.81 54.6249 -106.528
  68 158.194 -162.861 -206.597
  69 31.3695 -409.179 -56.2587
  70 7.85369 -473.036 -24.5414
  71 7.55098 -465.323 -11.4790
  72 13.7894 -450.713 26.3138
  73 34.3216 -396.426 59.7160
  74 170.621 -150.797 228.502
  75 1161.82 62.8347 123.689
  76 1061.67 17.1660 43.0393
  77 1003.50 6.86136 15.6660
  78 990.973 5.03681 2.93998
  79 1002.90 6.75015 -13.3456
  80 1047.58 14.6491 -37.1533
  81 1172.81 54.6249 -106.528
  82 158.194 -162.861 -206.597
  83 31.3695 -409.179 -56.2587
  84 7.85369 -473.036 -24.5414
  85 7.55098 -465.323 -11.4790
  86 13.7894 -450.713 26.3138
  87 34.3216 -396.426 59.7160
  88 170.621 -150.797 228.502
  89 517.074 29.2142 -7.53333
  90 517.074 29.2142 -7.53333
  91 472.634 6.65904 68.9998
  92 454.361 -2.67021 -82.6605
  93 472.634 6.65904 68.9998
  94 454.361 -2.67021 -82.6605
  95 271.521 8.13485 33.5740
  96 271.521 8.13485 33.5740
  97 689.649 44.8083 -9.23024
  98 701.134 26.4853 17.8834
  99 689.649 44.8083 -9.23024
  100 701.134 26.4853 17.8834
  101 552.844 13.1070 7.37661
  102 552.844 13.1070 7.37661
  103 657.485 -37.4491 3.37670
  104 657.485 -37.4491 3.37670
  105 553.459 13.7148 -9.11242
  106 553.459 13.7148 -9.11242
  107 644.501 -80.1874 -75.1403
  108 644.501 -80.1874 -75.1403
  109 453.805 -95.2017 185.129
  110 453.805 -95.2017 185.129
  111 309.540 -55.1371 -149.933
  112 309.540 -55.1371 -149.933
  113 555.448 9.11765 32.3297
  114 555.448 9.11765 32.3297
  115 574.835 3.68052 -31.0311
  116 574.835 3.68052 -31.0311
  117 775.160 53.8645 12.1792
  118 828.447 53.1396 5.46741
  119 775.160 53.8645 12.1792
  120 828.447 53.1396 5.46741
  121 812.216 69.6279 -24.6955
  122 812.216 69.6279 -24.6955
  123 91.3471 -145.705 -50.6846
  124 91.3471 -145.705 -50.6846
  125 697.941 -85.9755 83.1210
  126 697.941 -85.9755 83.1210
  127 593.567 -14.5166 37.2826
  128 593.567 -14.5166 37.2826
  129 138.983 -125.491 115.670
  130 138.983 -125.491 115.670
  131 553.593 10.9262 -0.460468
  132 553.593 10.9262 -0.460468
  133 592.415 -27.8691 -47.8101
  134 592.415 -27.8691 -47.8101
  135 561.749 4.48286 5.29923
  136 561.749 4.48286 5.29923
  137 562.189 3.94881 -4.93829
  138 562.189 3.94881 -4.93829
  139 568.095 7.64545 -16.0234
  140 568.095 7.64545 -16.0234
  141 565.638 7.46273 14.3986
  142 565.638 7.46273 14.3986
  143 543.065 18.2879 -0.595849
  144 543.065 18.2879 -0.595849
  145 457.022 30.1054 -3.54667
  146 457.022 30.1054 -3.54667
  147 654.839 -23.2449 7.78724
  148 654.839 -23.2449 7.78724
  149 744.030 -23.3728 -34.6986
  150 744.030 -23.3728 -34.6986
  151 578.007 -64.9930 91.9364
  152 578.007 -64.9930 91.9364
  153 436.274 -117.422 -210.216
  154 436.274 -117.422 -210.216
  155 517.946 21.0310 30.8784
  156 517.946 21.0310 30.8784
  157 666.571 -3.59903 -21.5855
  158 666.571 -3.59903 -21.5855
  159 899.983 72.9141 54.4208
  160 899.983 72.9141 54.4208
  161 454.013 -126.612 242.243
  162 454.013 -126.612 242.243
  163 916.898 29.6258 -10.6949
  164 916.898 29.6258 -10.6949
  165 540.953 18.2536 14.1670
  166 540.953 18.2536 14.1670
  167 514.662 17.4148 -45.3849
  168 514.662 17.4148 -45.3849
  169 636.216 19.6138 13.5715
  170 636.216 19.6138 13.5715
  171 536.135 21.8231 -16.1323
  172 536.135 21.8231 -16.1323
  173 556.734 8.77586 2.31793
  174 556.734 8.77586 2.31793
  175 565.317 4.25962 -8.45428
  176 565.317 4.25962 -8.45428
  177 864.110 71.5170 -56.3655
  178 864.110 71.5170 -56.3655
  179 557.140 8.54717 -2.79567
  180 557.140 8.54717 -2.79567
  181 415.277 30.4077 -23.7909
  182 415.277 30.4077 -23.7909
  183 738.076 55.1121 2.15478
  184 738.076 55.1121 2.15478
  185 151.885 -123.239 -148.931
  186 151.885 -123.239 -148.931
  187 408.103 -4.05686 100.939
  188 408.103 -4.05686 100.939
  189 539.252 -87.7814 -143.440
  190 539.252 -87.7814 -143.440
  191 636.730 -17.7080 8.95912
  192 636.730 -17.7080 8.95912
  193 596.414 -2.18747 22.6675
  194 596.414 -2.18747 22.6675
  195 804.367 27.3940 54.0670
  196 804.367 27.3940 54.0670
  197 342.216 11.5012 -62.5571
  198 342.216 11.5012 -62.5571
  199 910.014 40.1278 24.7750
  200 910.014 40.1278 24.7750
  201 607.269 -7.65070 -24.1609
  202 607.269 -7.65070 -24.1609
  203 566.160 3.03612 7.79059
  204 566.160 3.03612 7.79059
  205 631.713 -25.0397 -13.5772
  206 631.713 -25.0397 -13.5772
  207 689.341 -34.0592 -7.95988
  208 689.341 -34.0592 -7.95988
  209 43.4561 -257.217 22.7310
  210 43.4561 -257.217 22.7310
  211 583.081 2.89940 -19.7633
  212 583.081 2.89940 -19.7633
  213 578.410 4.43565 17.2069
  214 578.410 4.43565 17.2069
  215 556.230 -51.4007 -90.9319
  216 556.230 -51.4007 -90.9319
  217 649.148 -13.7983 -13.0443
  218 649.148 -13.7983 -13.0443
  219 534.144 19.0536 -30.8437
  220 534.144 19.0536 -30.8437
  221 147.200 -180.640 164.186
  222 147.200 -180.640 164.186
  223 658.634 3.51712 20.6495
  224 658.634 3.51712 20.6495
  225 641.464 16.6962 -17.8360
  226 641.464 16.6962 -17.8360
  227 900.773 53.6826 -42.9786
  228 900.773 53.6826 -42.9786
  229 691.905 -24.9578 -7.98838
  230 691.905 -24.9578 -7.98838
  231 750.654 -28.7099 -140.304
  232 750.654 -28.7099 -140.304
  233 558.500 -25.2932 69.6180
  234 558.500 -25.2932 69.6180
  235 548.748 15.2511 2.37876
  236 548.748 15.2511 2.37876
  237 293.972 -42.3798 132.586
  238 293.972 -42.3798 132.586
  239 718.324 -58.3709 162.819
  240 718.324 -58.3709 162.819
  241 201.512 -24.1347 -65.8762
  242 201.512 -24.1347 -65.8762
  243 644.058 -48.6830 -33.0676
  244 644.058 -48.6830 -33.0676
  245 529.204 23.5866 17.7466
  246 529.204 23.5866 17.7466
  247 18.4224 -336.815 -18.7379
  248 18.4224 -336.815 -18.7379
  249 36.2881 -294.155 61.8585
  250 36.2881 -294.155 61.8585
  251 537.996 3.67863 49.7007
  252 537.996 3.67863 49.7007
  253 561.142 2.10926 1.90752
  254 561.142 2.10926 1.90752
  255 556.692 8.82904 0.365775
  256 556.692 8.82904 0.365775
  257 523.052 -6.50904 -66.3478
  258 523.052 -6.50904 -66.3478
  259 561.439 1.92601 -2.02094
  260 561.439 1.92601 -2.02094
  261 618.869 -43.8943 42.8544
  262 618.869 -43.8943 42.8544
  263 575.619 1.97910 -9.48831
  264 575.619 1.97910 -9.48831
  265 447.929 -37.9806 -124.205
  266 447.929 -37.9806 -124.205
  267 756.805 58.5075 -0.0667350
  268 756.805 58.5075 -0.0667350
  269 555.965 12.1297 -24.9730
  270 555.965 12.1297 -24.9730
  271 553.957 11.3458 -4.90565
  272 553.957 11.3458 -4.90565
  273 473.312 22.9338 -45.4639
  274 473.312 22.9338 -45.4639
  275 146.133 -53.3816 38.3118
  276 146.133 -53.3816 38.3118
  277 590.156 -98.8881 128.269
  278 590.156 -98.8881 128.269
  279 559.561 8.18967 9.60861
  280 559.561 8.18967 9.60861
  281 822.925 57.9274 -14.0497
  282 822.925 57.9274 -14.0497
  283 975.084 88.5992 119.432
  284 975.084 88.5992 119.432
  285 662.180 -70.5462 44.0035
  286 662.180 -70.5462 44.0035
  287 482.561 24.0108 33.2336
  288 482.561 24.0108 33.2336
  289 605.507 -121.531 169.492
  290 605.507 -121.531 169.492
  291 626.314 -7.53493 15.7604
  292 626.314 -7.53493 15.7604
  293 559.218 5.39085 2.61683
  294 559.218 5.39085 2.61683
  295 551.714 14.9141 -15.8104
  296 551.714 14.9141 -15.8104
  297 556.820 8.68895 -0.718953
  298 556.820 8.68895 -0.718953
  299 564.307 1.53773 -3.65624
  300 564.307 1.53773 -3.65624
  301 575.156 2.78861 9.52449
  302 575.156 2.78861 9.52449
  303 548.884 15.1724 -4.04214
  304 548.884 15.1724 -4.04214
  305 126.097 -210.475 -156.702
  306 126.097 -210.475 -156.702
  307 380.706 25.0414 31.1756
  308 380.706 25.0414 31.1756
  309 559.779 4.50435 -2.51104
  310 559.779 4.50435 -2.51104
  311 495.740 28.3060 -22.2356
  312 495.740 28.3060 -22.2356
  313 497.030 30.8588 8.44249
  314 497.030 30.8588 8.44249
  315 558.689 7.87494 -6.79265
  316 558.689 7.87494 -6.79265
  317 744.631 41.0155 -6.66613
  318 744.631 41.0155 -6.66613
  319 554.740 13.2144 21.8099
  320 554.740 13.2144 21.8099
  321 704.565 23.1189 -15.6217
  322 704.565 23.1189 -15.6217
  323 1021.53 28.5596 69.8228
  324 1021.53 28.5596 69.8228
  325 552.800 13.6775 13.6335
  326 552.800 13.6775 13.6335
  327 544.493 18.1178 7.13224
  328 544.493 18.1178 7.13224
  329 422.000 -82.0104 -243.524
  330 422.000 -82.0104 -243.524
  331 564.635 1.38940 3.57589
  332 564.635 1.38940 3.57589
  333 553.464 11.4274 3.66807
  334 553.464 11.4274 3.66807
  335 534.003 23.5563 0.819741
  336 534.003 23.5563 0.819741
  337 277.495 -97.4833 194.623
  338 277.495 -97.4833 194.623
  339 685.650 45.2424 2.77479
  340 685.650 45.2424 2.77479
  341 39.0661 -287.840 -70.9521
  342 39.0661 -287.840 -70.9521
  343 432.267 27.2368 27.6053
  344 432.267 27.2368 27.6053
  345 967.409 12.8171 9.35155
  346 967.409 12.8171 9.35155
  347 1010.61 52.0855 -72.3218
  348 1010.61 52.0855 -72.3218
  349 483.321 -56.1903 139.011
  350 504.430 -28.8034 102.305
  351 483.321 -56.1903 139.011
  352 504.430 -28.8034 102.305
  353 981.530 23.9341 36.0939
  354 981.530 23.9341 36.0939
  355 571.662 -0.939905 38.7398
  356 571.662 -0.939905 38.7398
  357 671.455 -90.8095 -101.086
  358 671.455 -90.8095 -101.086
  359 642.789 -5.40135 17.2313
  360 642.789 -5.40135 17.2313
  361 430.516 -82.5985 265.563
  362 430.516 -82.5985 265.563
  363 749.024 60.0093 -1.91450
  364 749.024 60.0093 -1.91450
  365 979.554 8.63872 -7.48112
  366 979.554 8.63872 -7.48112
  367 606.746 0.135184 -18.8316
  368 606.746 0.135184 -18.8316
  369 544.481 19.2816 -8.54956
  370 544.481 19.2816 -8.54956
  371 832.388 64.8617 23.6227
  372 832.388 64.8617 23.6227
  373 645.028 27.2301 -3.77343
  374 645.028 27.2301 -3.77343
  375 585.470 2.12940 -11.8448
  376 585.470 2.12940 -11.8448
  377 163.060 -77.7247 -112.453
  378 163.060 -77.7247 -112.453
  379 646.510 -11.7306 4.00232
  380 646.510 -11.7306 4.00232
  381 555.387 -1.02229 -45.8303
  382 555.387 -1.02229 -45.8303
  383 638.952 -1.18481 -20.6892
  384 638.952 -1.18481 -20.6892
  385 984.853 17.1127 -29.7629
  386 984.853 17.1127 -29.7629
  387 557.391 8.42190 5.36539
  388 557.391 8.42190 5.36539
  389 678.441 33.7632 16.4740
  390 678.441 33.7632 16.4740
  391 727.379 -14.0704 11.4582
  392 727.379 -14.0704 11.4582
  393 559.335 9.91778 -12.0473
  394 559.335 9.91778 -12.0473
  395 1041.38 104.826 -137.847
  396 1041.38 104.826 -137.847
  397 637.495 -9.49513 -7.16389
  398 637.495 -9.49513 -7.16389
</Section>

newXOutput 168

<Section columns = "stress_xx | stress_yy | stress_xy">
  1 563.328 0.554352 -0.598354
  2 563.587 0.682244 0.806241
  3 563.328 0.554352 -0.598354
  4 563.587 0.682244 0.806241
  5 848.275 70.8740 248.983
  6 880.281 69.7974 -245.077
  7 848.275 70.8740 248.983
  8 880.281 69.7974 -245.077
  9 564.646 0.385792 -1.57474
  10 569.008 0.676612 -2.80938
  11 575.351 1.52103 -5.73367
  12 589.994 0.550366 -7.75539
  13 609.003 0.866438 -12.8731
  14 631.544 -5.81194 -12.9517
  15 652.781 -6.91009 -1.93867
  16 644.722 -4.66025 9.88976
  17 622.858 5.10340 17.8961
  18 610.859 12.2226 -0.703945
  19 619.483 5.82773 -16.8663
  20 644.182 -6.95486 -12.0300
  21 647.010 -8.40044 4.89067
  22 634.772 -3.82490 11.2027
  23 605.133 0.0706343 12.9882
  24 588.749 2.14893 9.83975
  25 575.753 1.74624 5.50462
  26 569.131 0.545014 2.57207
  27 564.962 0.457770 1.52356
  28 564.354 1.98972 0.940608
  29 563.422 4.06675 1.09951
  30 561.125 7.04385 0.981658
  31 560.209 8.18280 -0.0948418
  32 561.374 6.68608 -1.17414
  33 563.013 4.43392 -0.991915
  34 563.729 2.26074 -1.05875
  35 564.646 0.385792 -1.57474
  36 569.008 0.676612 -2.80938
  37 575.351 1.52103 -5.73367
  38 589.994 0.550366 -7.75539
  39 609.003 0.866438 -12.8731
  40 631.544 -5.81194 -12.9517
  41 652.781 -6.91009 -1.93867
  42 644.722 -4.66025 9.88976
  43 622.858 5.10340 17.8961
  44 610.859 12.2226 -0.703945
  45 619.483 5.82773 -16.8663
  46 644.182 -6.95486 -12.0300
  47 647.010 -8.40044 4.89067
  48 634.772 -3.82490 11.2027
  49 605.133 0.0706343 12.9882
  50 588.749 2.14893 9.83975
  51 575.753 1.74624 5.50462
  52 569.131 0.545014 2.57207
  53 564.962 0.457770 1.52356
  54 564.354 1.98972 0.940608
  55 563.422 4.06675 1.09951
  56 561.125 7.04385 0.981658
  57 560.209 8.18280 -0.0948418
  58 561.374 6.68608 -1.17414
  59 563.013 4.43392 -0.991915
  60 563.729 2.26074 -1.05875
  61 1167.87 63.1970 124.362
  62 1067.24 17.2530 43.2623
  63 1008.80 6.89149 15.7436
  64 996.208 5.06014 2.95257
  65 1008.19 6.78264 -13.4114
  66 1053.09 14.7223 -37.3428
  67 1178.92 54.9389 -107.108
  68 159.060 -163.570 -207.885
  69 31.5429 -411.517 -56.6601
  70 7.88163 -475.850 -24.7163
  71 7.57871 -468.104 -11.5472
  72 13.8558 -453.377 26.5023
  73 34.5156 -398.689 60.1440
  74 171.542 -151.439 229.920
  75 1167.87 63.1970 124.362
  76 1067.24 17.2530 43.2623
  77 1008.80 6.89149 15.7436
  78 996.208 5.06014 2.95257
  79 1008.19 6.78264 -13.4114
  80 1053.09 14.7223 -37.3428
  81 1178.92 54.9389 -107.108
  82 159.060 -163.570 -207.885
  83 31.5429 -411.517 -56.6601
  84 7.88163 -475.850 -24.7163
  85 7.57871 -468.104 -11.5472
  86 13.8558 -453.377 26.5023
  87 34.5156 -398.689 60.1440
  88 171.542 -151.439 229.920
  89 520.017 29.3749 -7.57376
  90 520.017 29.3749 -7.57376
  91 475.331 6.69840 69.3845
  92 456.956 -2.68345 -83.1261
  93 475.331 6.69840 69.3845
  94 456.956 -2.68345 -83.1261
  95 273.125 8.19949 33.7682
  96 273.125 8.19949 33.7682
  97 693.517 45.0661 -9.26140
  98 705.041 26.6499 17.9331
  99 693.517 45.0661 -9.26140
  100 705.041 26.6499 17.9331
  101 555.964 13.1771 7.41388
  102 555.964 13.1771 7.41388
  103 661.141 -37.6581 3.43213
  104 661.141 -37.6581 3.43213
  105 556.582 13.7884 -9.15861
  106 556.582 13.7884 -9.15861
  107 648.063 -80.6408 -75.5932
  108 648.063 -80.6408 -75.5932
  109 456.354 -95.7483 186.211
  110 456.354 -95.7483 186.211
  111 311.320 -55.4439 -150.819
  112 311.320 -55.4439 -150.819
  113 558.579 9.16592 32.5037
  114 558.579 9.16592 32.5037
  115 578.062 3.69798 -31.1998
  116 578.062 3.69798 -31.1998
  117 779.442 54.1885 12.3100
  118 832.994 53.4236 5.50734
  119 779.442 54.1885 12.3100
  120 832.994 53.4236 5.50734
  121 816.689 70.0276 -24.8801
  122 816.689 70.0276 -24.8801
  123 91.8841 -146.499 -51.0069
  124 91.8841 -146.499 -51.0069
  125 701.768 -86.4366 83.6480
  126 701.768 -86.4366 83.6480
  127 596.889 -14.6009 37.4960
  128 596.889 -14.6009 37.4960
  129 139.797 -126.171 116.394
  130 139.797 -126.171 116.394
  131 556.717 10.9843 -0.462703
  132 556.717 10.9843 -0.462703
  133 595.728 -28.0289 -48.0877
  134 595.728 -28.0289 -48.0877
  135 564.911 4.50684 5.32536
  136 564.911 4.50684 5.32536
  137 565.352 3.97004 -4.96254
  138 565.352 3.97004 -4.96254
  139 571.287 7.68585 -16.1060
  140 571.287 7.68585 -16.1060
  141 568.818 7.50239 14.4723
  142 568.818 7.50239 14.4723
  143 546.139 18.3864 -0.599051
  144 546.139 18.3864 -0.599051
  145 459.651 30.2753 -3.56668
  146 459.651 30.2753 -3.56668
  147 658.489 -23.3729 7.79884
  148 658.489 -23.3729 7.79884
  149 748.116 -23.4625 -34.9690
  150 748.116 -23.4625 -34.9690
  151 581.229 -65.3641 92.4686
  152 581.229 -65.3641 92.4686
  153 438.700 -118.067 -211.478
  154 438.700 -118.067 -211.478
  155 520.889 21.1475 31.0458
  156 520.889 21.1475 31.0458
  157 670.292 -3.61213 -21.6664
  158 670.292 -3.61213 -21.6664
  159 904.867 73.3306 54.7589
  160 904.867 73.3306 54.7589
  161 456.532 -127.321 243.682
  162 456.532 -127.321 243.682
  163 921.839 29.7756 -10.7553
  164 921.839 29.7756 -10.7553
  165 544.015 18.3522 14.2409
  166 544.015 18.3522 14.2409
  167 517.585 17.5118 -45.6341
  168 517.585 17.5118 -45.6341
  169 639.813 19.7310 13.6321
  170 639.813 19.7310 13.6321
  171 539.173 21.9417 -16.2171
  172 539.173 21.9417 -16.2171
  173 559.873 8.82241 2.32937
  174 559.873 8.82241 2.32937
  175 568.495 4.28224 -8.49655
  176 568.495 4.28224 -8.49655
  177 868.814 71.9593 -56.7480
  178 868.814 71.9593 -56.7480
  179 560.280 8.59261 -2.80941
  180 560.280 8.59261 -2.80941
  181 417.679 30.5842 -23.9241
  182 417.679 30.5842 -23.9241
  183 742.184 55.4273 2.13149
  184 742.184 55.4273 2.13149
  185 152.765 -123.906 -149.857
  186 152.765 -123.906 -149.857
  187 410.445 -4.07545 101.512
  188 410.445 -4.07545 101.512
  189 542.258 -88.2833 -144.277
  190 542.258 -88.2833 -144.277
  191 640.279 -17.8100 9.02574
  192 640.279 -17.8100 9.02574
  193 599.748 -2.20242 22.7918
  194 599.748 -2.20242 22.7918
  195 808.764 27.6011 54.4503
  196 808.764 27.6011 54.4503
  197 344.209 11.5773 -62.9156
  198 344.209 11.5773 -62.9156
  199 914.933 40.3366 24.9191
  200 914.933 40.3366 24.9191
  201 610.659 -7.69670 -24.2989
  202 610.659 -7.69670 -24.2989
  203 569.342 3.05215 7.82944
  204 569.342 3.05215 7.82944
  205 635.233 -25.1842 -13.6713
  206 635.233 -25.1842 -13.6713
  207 693.159 -34.2384 -8.05536
  208 693.159 -34.2384 -8.05536
  209 43.7044 -258.681 22.8817
  210 43.7044 -258.681 22.8817
  211 586.347 2.91292 -19.8680
  212 586.347 2.91292 -19.8680
  213 581.652 4.45863 17.2969
  214 581.652 4.45863 17.2969
  215 559.345 -51.6940 -91.4555
  216 559.345 -51.6940 -91.4555
  217 652.775 -13.8758 -13.0896
  218 652.775 -13.8758 -13.0896
  219 537.169 19.1580 -31.0104
  220 537.169 19.1580 -31.0104
  221 148.031 -181.611 165.222
  222 148.031 -181.611 165.222
  223 662.324 3.54574 20.7311
  224 662.324 3.54574 20.7311
  225 645.082 16.7967 -17.9131
  226 645.082 16.7967 -17.9131
  227 905.655 53.9723 -43.2376
  228 905.655 53.9723 -43.2376
  229 695.740 -25.0852 -7.98101
  230 695.740 -25.0852 -7.98101
  231 754.735 -28.7862 -141.182
  232 754.735 -28.7862 -141.182
  233 561.635 -25.4370 70.0116
  234 561.635 -25.4370 70.0116
  235 551.849 15.3328 2.39086
  236 551.849 15.3328 2.39086
  237 295.673 -42.6111 133.366
  238 295.673 -42.6111 133.366
  239 722.228 -58.6296 163.819
  240 722.228 -58.6296 163.819
  241 202.708 -24.2454 -66.2688
  242 202.708 -24.2454 -66.2688
  243 647.634 -48.9587 -33.2809
  244 647.634 -48.9587 -33.2809
  245 532.206 23.7158 17.8410
  246 532.206 23.7158 17.8410
  247 18.5181 -338.765 -18.8661
  248 18.5181 -338.765 -18.8661
  249 36.4909 -295.826 62.2773
  250 36.4909 -295.826 62.2773
  251 541.036 3.69829 49.9750
  252 541.036 3.69829 49.9750
  253 564.300 2.12066 1.91674
  254 564.300 2.12066 1.91674
  255 559.830 8.87568 0.367596
  256 559.830 8.87568 0.367596
  257 526.010 -6.54667 -66.7192
  258 526.010 -6.54667 -66.7192
  259 564.599 1.93650 -2.03072
  260 564.599 1.93650 -2.03072
  261 622.315 -44.1439 43.1136
  262 622.315 -44.1439 43.1136
  263 578.846 1.98927 -9.53616
  264 578.846 1.98927 -9.53616
  265 450.471 -38.1972 -124.918
  266 450.471 -38.1972 -124.918
  267 761.006 58.8393 -0.0320477
  268 761.006 58.8393 -0.0320477
  269 559.099 12.1945 -25.1051
  270 559.099 12.1945 -25.1051
  271 557.083 11.4063 -4.93013
  272 557.083 11.4063 -4.93013
  273 476.021 23.0639 -45.7154
  274 476.021 23.0639 -45.7154
  275 147.005 -53.6472 38.5459
  276 147.005 -53.6472 38.5459
  277 593.425 -99.4518 129.022
  278 593.425 -99.4518 129.022
  279 562.712 8.23339 9.65690
  280 562.712 8.23339 9.65690
  281 827.448 58.2413 -14.1447
  282 827.448 58.2413 -14.1447
  283 980.298 89.1548 120.145
  284 980.298 89.1548 120.145
  285 665.841 -70.9399 44.2919
  286 665.841 -70.9399 44.2919
  287 485.321 24.1460 33.4154
  288 485.321 24.1460 33.4154
  289 608.837 -122.218 170.493
  290 608.837 -122.218 170.493
  291 629.801 -7.57969 15.8527
  292 629.801 -7.57969 15.8527
  293 562.368 5.41954 2.62962
  294 562.368 5.41954 2.62962
  295 554.829 14.9943 -15.8920
  296 554.829 14.9943 -15.8920
  297 559.959 8.73488 -0.722471
  298 559.959 8.73488 -0.722471
  299 567.479 1.54600 -3.67414
  300 567.479 1.54600 -3.67414
  301 578.381 2.80316 9.57250
  302 578.381 2.80316 9.57250
  303 551.985 15.2538 -4.06267
  304 551.985 15.2538 -4.06267
  305 126.805 -211.601 -157.699
  306 126.805 -211.601 -157.699
  307 382.918 25.1905 31.3507
  308 382.918 25.1905 31.3507
  309 562.931 4.52843 -2.52326
  310 562.931 4.52843 -2.52326
  311 498.571 28.4635 -22.3568
  312 498.571 28.4635 -22.3568
  313 499.869 31.0304 8.48791
  314 499.869 31.0304 8.48791
  315 561.837 7.91697 -6.82649
  316 561.837 7.91697 -6.82649
  317 748.753 41.2730 -6.76789
  318 748.753 41.2730 -6.76789
  319 557.869 13.2854 21.9241
  320 557.869 13.2854 21.9241
  321 708.488 23.2641 -15.6594
  322 708.488 23.2641 -15.6594
  323 1026.95 28.7050 70.2088
  324 1026.95 28.7050 70.2088
  325 555.920 13.7509 13.7035
  326 555.920 13.7509 13.7035
  327 547.573 18.2154 7.16885
  328 547.573 18.2154 7.16885
  329 424.307 -82.3121 -245.012
  330 424.307 -82.3121 -245.012
  331 567.810 1.39686 3.59338
  332 567.810 1.39686 3.59338
  333 556.588 11.4883 3.68641
  334 556.588 11.4883 3.68641
  335 537.032 23.6844 0.823996
  336 537.032 23.6844 0.823996
  337 279.084 -98.0315 195.796
  338 279.084 -98.0315 195.796
  339 689.500 45.5020 2.78195
  340 689.500 45.5020 2.78195
  341 39.2799 -289.471 -71.4223
  342 39.2799 -289.471 -71.4223
  343 434.762 27.3933 27.7579
  344 434.762 27.3933 27.7579
  345 972.559 12.8794 9.39862
  346 972.559 12.8794 9.39862
  347 1016.00 52.3766 -72.7271
  348 1016.00 52.3766 -72.7271
  349 486.043 -56.5125 139.809
  350 507.278 -28.9670 102.883
  351 486.043 -56.5125 139.809
  352 507.278 -28.9670 102.883
  353 986.758 24.0533 36.2872
  354 986.758 24.0533 36.2872
  355 574.873 -0.947361 38.9531
  356 574.873 -0.947361 38.9531
  357 675.140 -91.3110 -101.704
  358 675.140 -91.3110 -101.704
  359 646.393 -5.42926 17.3053
  360 646.393 -5.42926 17.3053
  361 432.851 -82.9131 267.171
  362 432.851 -82.9131 267.171
  363 753.193 60.3426 -1.92355
  364 753.193 60.3426 -1.92355
  365 984.752 8.68009 -7.52028
  366 984.752 8.68009 -7.52028
  367 610.128 0.133323 -18.9336
  368 610.128 0.133323 -18.9336
  369 547.561 19.3857 -8.59363
  370 547.561 19.3857 -8.59363
  371 836.956 65.2217 23.7874
  372 836.956 65.2217 23.7874
  373 648.671 27.3885 -3.78973
  374 648.671 27.3885 -3.78973
  375 588.744 2.13978 -11.9058
  376 588.744 2.13978 -11.9058
  377 164.031 -78.1389 -113.141
  378 164.031 -78.1389 -113.141
  379 650.114 -11.7975 4.00815
  380 650.114 -11.7975 4.00815
  381 558.515 -1.03025 -46.0846
  382 558.515 -1.03025 -46.0846
  383 642.546 -1.18923 -20.7799
  384 642.546 -1.18923 -20.7799
  385 990.092 17.1997 -29.9203
  386 990.092 17.1997 -29.9203
  387 560.532 8.46672 5.39204
  388 560.532 8.46672 5.39204
  389 682.243 33.9628 16.5341
  390 682.243 33.9628 16.5341
  391 731.389 -14.1223 11.5887
  392 731.389 -14.1223 11.5887
  393 562.486 9.97083 -12.1083
  394 562.486 9.97083 -12.1083
  395 1046.91 105.493 -138.659
  396 1046.91 105.493 -138.659
  397 641.041 -9.55133 -7.21147
  398 641.041 -9.55133 -7.21147
</Section>

newXOutput 169

<Section columns = "stress_xx | stress_yy | stress_xy">
  1 566.479 0.557533 -0.601177
  2 566.740 0.686073 0.810036
  3 566.479 0.557533 -0.601177
  4 566.740 0.686073 0.810036
  5 852.731 71.4709 250.449
  6 884.888 70.3960 -246.521
  7 852.731 71.4709 250.449
  8 884.888 70.3960 -246.521
  9 567.804 0.387927 -1.58224
  10 572.185 0.680260 -2.82294
  11 578.558 1.52902 -5.76185
  12 593.271 0.552963 -7.79432
  13 612.373 0.869785 -12.9404
  14 635.029 -5.84707 -13.0236
  15 656.383 -6.95047 -1.95609
  16 648.310 -4.68617 9.93035
  17 626.362 5.13591 17.9773
  18 614.316 12.2955 -0.707228
  19 622.972 5.86201 -16.9439
  20 647.769 -6.99392 -12.0790
  21 650.583 -8.44969 4.92576
  22 638.274 -3.84781 11.2655
  23 608.485 0.0690819 13.0567
  24 592.020 2.15979 9.88945
  25 578.961 1.75542 5.53159
  26 572.309 0.547970 2.58445
  27 568.121 0.460329 1.53087
  28 567.509 2.00040 0.945016
  29 566.574 4.08833 1.10476
  30 564.267 7.08083 0.986401
  31 563.346 8.22565 -0.0952946
  32 564.517 6.72125 -1.17976
  33 566.162 4.45744 -0.996522
  34 566.882 2.27294 -1.06381
  35 567.804 0.387927 -1.58224
  36 572.185 0.680260 -2.82294
  37 578.558 1.52902 -5.76185
  38 593.271 0.552963 -7.79432
  39 612.373 0.869785 -12.9404
  40 635.029 -5.84707 -13.0236
  41 656.383 -6.95047 -1.95609
  42 648.310 -4.68617 9.93035
  43 626.362 5.13591 17.9773
  44 614.316 12.2955 -0.707228
  45 622.972 5.86201 -16.9439
  46 647.769 -6.99392 -12.0790
  47 650.583 -8.44969 4.92576
  48 638.274 -3.84781 11.2655
  49 608.485 0.0690819 13.0567
  50 592.020 2.15979 9.88945
  51 578.961 1.75542 5.53159
  52 572.309 0.547970 2.58445
  53 568.121 0.460329 1.53087
  54 567.509 2.00040 0.945016
  55 566.574 4.08833 1.10476
  56 564.267 7.08083 0.986401
  57 563.346 8.22565 -0.0952946
  58 564.517 6.72125 -1.17976
  59 566.162 4.45744 -0.996522
  60 566.882 2.27294 -1.06381
  61 1173.91 63.5591 125.034
  62 1072.80 17.3399 43.4850
  63 1014.08 6.92150 15.8211
  64 1001.44 5.08341 2.96511
  65 1013.48 6.81505 -13.4770
  66 1058.58 14.7953 -37.5320
  67 1185.02 55.2526 -107.687
  68 159.926 -164.276 -209.174
  69 31.7161 -413.853 -57.0622
  70 7.90935 -478.664 -24.8917
  71 7.60624 -470.884 -11.6153
  72 13.9219 -456.041 26.6910
  73 34.7095 -400.951 60.5728
  74 172.461 -152.078 231.338
  75 1173.91 63.5591 125.034
  76 1072.80 17.3399 43.4850
  77 1014.08 6.92150 15.8211
  78 1001.44 5.08341 2.96511
  79 1013.48 6.81505 -13.4770
  80 1058.58 14.7953 -37.5320
  81 1185.02 55.2526 -107.687
  82 159.926 -164.276 -209.174
  83 31.7161 -413.853 -57.0622
  84 7.90935 -478.664 -24.8917
  85 7.60624 -470.884 -11.6153
  86 13.9219 -456.041 26.6910
  87 34.7095 -400.951 60.5728
  88 172.461 -152.078 231.338
  89 522.958 29.5355 -7.61414
  90 522.958 29.5355 -7.61414
  91 478.026 6.73776 69.7688
  92 459.550 -2.69666 -83.5913
  93 478.026 6.73776 69.7688
  94 459.550 -2.69666 -83.5913
  95 274.730 8.26428 33.9623
  96 274.730 8.26428 33.9623
  97 697.381 45.3237 -9.29229
  98 708.945 26.8146 17.9822
  99 697.381 45.3237 -9.29229
  100 708.945 26.8146 17.9822
  101 559.082 13.2471 7.45107
  102 559.082 13.2471 7.45107
  103 664.795 -37.8669 3.48791
  104 664.795 -37.8669 3.48791
  105 559.702 13.8618 -9.20472
  106 559.702 13.8618 -9.20472
  107 651.621 -81.0939 -76.0461
  108 651.621 -81.0939 -76.0461
  109 458.900 -96.2945 187.292
  110 458.900 -96.2945 187.292
  111 313.098 -55.7505 -151.704
  112 313.098 -55.7505 -151.704
  113 561.707 9.21412 32.6774
  114 561.707 9.21412 32.6774
  115 581.287 3.71538 -31.3683
  116 581.287 3.71538 -31.3683
  117 783.720 54.5125 12.4414
  118 837.536 53.7073 5.54734
  119 783.720 54.5125 12.4414
  120 837.536 53.7073 5.54734
  121 821.158 70.4270 -25.0650
  122 821.158 70.4270 -25.0650
  123 92.4210 -147.293 -51.3293
  124 92.4210 -147.293 -51.3293
  125 705.591 -86.8970 84.1752
  126 705.591 -86.8970 84.1752
  127 600.207 -14.6851 37.7092
  128 600.207 -14.6851 37.7092
  129 140.611 -126.850 117.117
  130 140.611 -126.850 117.117
  131 559.838 11.0423 -0.464933
  132 559.838 11.0423 -0.464933
  133 599.037 -28.1886 -48.3653
  134 599.037 -28.1886 -48.3653
  135 568.069 4.53079 5.35143
  136 568.069 4.53079 5.35143
  137 568.512 3.99123 -4.98674
  138 568.512 3.99123 -4.98674
  139 574.477 7.72619 -16.1885
  140 574.477 7.72619 -16.1885
  141 571.997 7.54200 14.5459
  142 571.997 7.54200 14.5459
  143 549.210 18.4848 -0.602248
  144 549.210 18.4848 -0.602248
  145 462.279 30.4451 -3.58667
  146 462.279 30.4451 -3.58667
  147 662.137 -23.5006 7.81008
  148 662.137 -23.5006 7.81008
  149 752.199 -23.5516 -35.2399
  150 752.199 -23.5516 -35.2399
  151 584.449 -65.7348 93.0006
  152 584.449 -65.7348 93.0006
  153 441.124 -118.712 -212.741
  154 441.124 -118.712 -212.741
  155 523.830 21.2639 31.2129
  156 523.830 21.2639 31.2129
  157 674.009 -3.62513 -21.7469
  158 674.009 -3.62513 -21.7469
  159 909.746 73.7468 55.0970
  160 909.746 73.7468 55.0970
  161 459.049 -128.029 245.121
  162 459.049 -128.029 245.121
  163 926.775 29.9251 -10.8157
  164 926.775 29.9251 -10.8157
  165 547.075 18.4508 14.3146
  166 547.075 18.4508 14.3146
  167 520.506 17.6086 -45.8831
  168 520.506 17.6086 -45.8831
  169 643.407 19.8482 13.6925
  170 643.407 19.8482 13.6925
  171 542.209 22.0602 -16.3017
  172 542.209 22.0602 -16.3017
  173 563.009 8.86889 2.34078
  174 563.009 8.86889 2.34078
  175 571.671 4.30483 -8.53872
  176 571.671 4.30483 -8.53872
  177 873.512 72.4018 -57.1309
  178 873.512 72.4018 -57.1309
  179 563.417 8.63798 -2.82312
  180 563.417 8.63798 -2.82312
  181 420.080 30.7605 -24.0572
  182 420.080 30.7605 -24.0572
  183 746.287 55.7422 2.10783
  184 746.287 55.7422 2.10783
  185 153.645 -124.573 -150.784
  186 153.645 -124.573 -150.784
  187 412.786 -4.09398 102.085
  188 412.786 -4.09398 102.085
  189 545.260 -88.7849 -145.114
  190 545.260 -88.7849 -145.114
  191 643.825 -17.9121 9.09248
  192 643.825 -17.9121 9.09248
  193 603.078 -2.21738 22.9159
  194 603.078 -2.21738 22.9159
  195 813.156 27.8086 54.8341
  196 813.156 27.8086 54.8341
  197 346.202 11.6534 -63.2739
  198 346.202 11.6534 -63.2739
  199 919.847 40.5452 25.0631
  200 919.847 40.5452 25.0631
  201 614.047 -7.74270 -24.4367
  202 614.047 -7.74270 -24.4367
  203 572.522 3.06814 7.86821
  204 572.522 3.06814 7.86821
  205 638.750 -25.3286 -13.7655
  206 638.750 -25.3286 -13.7655
  207 696.973 -34.4172 -8.15131
  208 696.973 -34.4172 -8.15131
  209 43.9526 -260.144 23.0325
  210 43.9526 -260.144 23.0325
  211 589.610 2.92640 -19.9724
  212 589.610 2.92640 -19.9724
  213 584.892 4.48157 17.3868
  214 584.892 4.48157 17.3868
  215 562.457 -51.9871 -91.9788
  216 562.457 -51.9871 -91.9788
  217 656.399 -13.9532 -13.1344
  218 656.399 -13.9532 -13.1344
  219 540.192 19.2623 -31.1769
  220 540.192 19.2623 -31.1769
  221 148.862 -182.581 166.258
  222 148.862 -182.581 166.258
  223 666.012 3.57444 20.8122
  224 666.012 3.57444 20.8122
  225 648.698 16.8972 -17.9899
  226 648.698 16.8972 -17.9899
  227 910.532 54.2617 -43.4966
  228 910.532 54.2617 -43.4966
  229 699.571 -25.2122 -7.97307
  230 699.571 -25.2122 -7.97307
  231 758.810 -28.8616 -142.060
  232 758.810 -28.8616 -142.060
  233 564.767 -25.5808 70.4049
  234 564.767 -25.5808 70.4049
  235 554.948 15.4145 2.40294
  236 554.948 15.4145 2.40294
  237 297.373 -42.8422 134.146
  238 297.373 -42.8422 134.146
  239 726.128 -58.8873 164.819
  240 726.128 -58.8873 164.819
  241 203.904 -24.3558 -66.6614
  242 203.904 -24.3558 -66.6614
  243 651.206 -49.2342 -33.4942
  244 651.206 -49.2342 -33.4942
  245 535.207 23.8448 17.9353
  246 535.207 23.8448 17.9353
  247 18.6135 -340.714 -18.9945
  248 18.6135 -340.714 -18.9945
  249 36.6935 -297.496 62.6965
  250 36.6935 -297.496 62.6965
  251 544.073 3.71793 50.2490
  252 544.073 3.71793 50.2490
  253 567.456 2.13205 1.92595
  254 567.456 2.13205 1.92595
  255 562.966 8.92225 0.369414
  256 562.966 8.92225 0.369414
  257 528.966 -6.58429 -67.0903
  258 528.966 -6.58429 -67.0903
  259 567.756 1.94699 -2.04048
  260 567.756 1.94699 -2.04048
  261 625.758 -44.3934 43.3728
  262 625.758 -44.3934 43.3728
  263 582.070 1.99943 -9.58392
  264 582.070 1.99943 -9.58392
  265 453.012 -38.4136 -125.630
  266 453.012 -38.4136 -125.630
  267 765.203 59.1708 0.00298317
  268 765.203 59.1708 0.00298317
  269 562.231 12.2593 -25.2371
  270 562.231 12.2593 -25.2371
  271 560.206 11.4668 -4.95455
  272 560.206 11.4668 -4.95455
  273 478.729 23.1940 -45.9667
  274 478.729 23.1940 -45.9667
  275 147.877 -53.9123 38.7801
  276 147.877 -53.9123 38.7801
  277 596.690 -100.015 129.776
  278 596.690 -100.015 129.776
  279 565.861 8.27704 9.70509
  280 565.861 8.27704 9.70509
  281 831.966 58.5549 -14.2398
  282 831.966 58.5549 -14.2398
  283 985.505 89.7105 120.858
  284 985.505 89.7105 120.858
  285 669.498 -71.3331 44.5805
  286 669.498 -71.3331 44.5805
  287 488.079 24.2811 33.5970
  288 488.079 24.2811 33.5970
  289 612.163 -122.904 171.492
  290 612.163 -122.904 171.492
  291 633.285 -7.62444 15.9451
  292 633.285 -7.62444 15.9451
  293 565.515 5.44819 2.64239
  294 565.515 5.44819 2.64239
  295 557.941 15.0745 -15.9734
  296 557.941 15.0745 -15.9734
  297 563.095 8.78073 -0.725980
  298 563.095 8.78073 -0.725980
  299 570.650 1.55426 -3.69199
  300 570.650 1.55426 -3.69199
  301 581.603 2.81769 9.62042
  302 581.603 2.81769 9.62042
  303 555.085 15.3350 -4.08315
  304 555.085 15.3350 -4.08315
  305 127.512 -212.725 -158.697
  306 127.512 -212.725 -158.697
  307 385.130 25.3397 31.5257
  308 385.130 25.3397 31.5257
  309 566.080 4.55247 -2.53545
  310 566.080 4.55247 -2.53545
  311 501.400 28.6208 -22.4778
  312 501.400 28.6208 -22.4778
  313 502.706 31.2018 8.53327
  314 502.706 31.2018 8.53327
  315 564.981 7.95894 -6.86026
  316 564.981 7.95894 -6.86026
  317 752.870 41.5306 -6.87025
  318 752.870 41.5306 -6.87025
  319 560.995 13.3564 22.0381
  320 560.995 13.3564 22.0381
  321 712.407 23.4093 -15.6966
  322 712.407 23.4093 -15.6966
  323 1032.36 28.8501 70.5943
  324 1032.36 28.8501 70.5943
  325 559.038 13.8243 13.7733
  326 559.038 13.8243 13.7733
  327 550.651 18.3129 7.20539
  328 550.651 18.3129 7.20539
  329 426.611 -82.6117 -246.499
  330 426.611 -82.6117 -246.499
  331 570.982 1.40432 3.61082
  332 570.982 1.40432 3.61082
  333 559.709 11.5491 3.70471
  334 559.709 11.5491 3.70471
  335 540.058 23.8123 0.828245
  336 540.058 23.8123 0.828245
  337 280.672 -98.5793 196.968
  338 280.672 -98.5793 196.968
  339 693.346 45.7614 2.78901
  340 693.346 45.7614 2.78901
  341 39.4935 -291.102 -71.8930
  342 39.4935 -291.102 -71.8930
  343 437.256 27.5497 27.9104
  344 437.256 27.5497 27.9104
  345 977.702 12.9416 9.44558
  346 977.702 12.9416 9.44558
  347 1021.37 52.6673 -73.1321
  348 1021.37 52.6673 -73.1321
  349 488.762 -56.8346 140.606
  350 510.124 -29.1305 103.460
  351 488.762 -56.8346 140.606
  352 510.124 -29.1305 103.460
  353 991.978 24.1722 36.4801
  354 991.978 24.1722 36.4801
  355 578.082 -0.954836 39.1662
  356 578.082 -0.954836 39.1662
  357 678.821 -91.8119 -102.323
  358 678.821 -91.8119 -102.323
  359 649.994 -5.45712 17.3790
  360 649.994 -5.45712 17.3790
  361 435.183 -83.2256 268.778
  362 435.183 -83.2256 268.778
  363 757.357 60.6756 -1.93258
  364 757.357 60.6756 -1.93258
  365 989.943 8.72136 -7.55937
  366 989.943 8.72136 -7.55937
  367 613.508 0.131434 -19.0354
  368 613.508 0.131434 -19.0354
  369 550.638 19.4896 -8.63762
  370 550.638 19.4896 -8.63762
  371 841.519 65.5813 23.9523
  372 841.519 65.5813 23.9523
  373 652.312 27.5468 -3.80597
  374 652.312 27.5468 -3.80597
  375 592.016 2.15013 -11.9666
  376 592.016 2.15013 -11.9666
  377 165.002 -78.5525 -113.830
  378 165.002 -78.5525 -113.830
  379 653.715 -11.8644 4.01379
  380 653.715 -11.8644 4.01379
  381 561.640 -1.03824 -46.3387
  382 561.640 -1.03824 -46.3387
  383 646.136 -1.19362 -20.8701
  384 646.136 -1.19362 -20.8701
  385 995.324 17.2865 -30.0775
  386 995.324 17.2865 -30.0775
  387 563.671 8.51147 5.41863
  388 563.671 8.51147 5.41863
  389 686.042 34.1623 16.5937
  390 686.042 34.1623 16.5937
  391 735.394 -14.1738 11.7198
  392 735.394 -14.1738 11.7198
  393 565.634 10.0238 -12.1692
  394 565.634 10.0238 -12.1692
  395 1052.42 106.161 -139.470
  396 1052.42 106.161 -139.470
  397 644.583 -9.60752 -7.25909
  398 644.583 -9.60752 -7.25909
</Section>

newXOutput 170

<Section columns = "stress_xx | stress_yy | stress_xy">
  1 569.627 0.560713 -0.603993
  2 569.890 0.689898 0.813820
  3 569.627 0.560713 -0.603993
  4 569.890 0.689898 0.813820
  5 857.179 72.0695 251.915
  6 889.489 70.9965 -247.965
  7 857.179 72.0695 251.915
  8 889.489 70.9965 -247.965
  9 570.958 0.390060 -1.58973
  10 575.359 0.683904 -2.83647
  11 581.762 1.53700 -5.78997
  12 596.544 0.555552 -7.83316
  13 615.739 0.873112 -13.0075
  14 638.511 -5.88221 -13.0955
  15 659.982 -6.99084 -1.97357
  16 651.895 -4.71206 9.97075
  17 629.864 5.16844 18.0583
  18 617.771 12.3685 -0.710500
  19 626.458 5.89628 -17.0212
  20 651.352 -7.03295 -12.1277
  21 654.153 -8.49891 4.96090
  22 641.772 -3.87072 11.3283
  23 611.834 0.0675092 13.1251
  24 595.288 2.17063 9.93904
  25 582.168 1.76460 5.55849
  26 575.485 0.550924 2.59680
  27 571.277 0.462886 1.53816
  28 570.663 2.01106 0.949411
  29 569.723 4.10987 1.10999
  30 567.406 7.11776 0.991131
  31 566.482 8.26842 -0.0957461
  32 567.657 6.75637 -1.18536
  33 569.309 4.48094 -1.00112
  34 570.032 2.28514 -1.06886
  35 570.958 0.390060 -1.58973
  36 575.359 0.683904 -2.83647
  37 581.762 1.53700 -5.78997
  38 596.544 0.555552 -7.83316
  39 615.739 0.873112 -13.0075
  40 638.511 -5.88221 -13.0955
  41 659.982 -6.99084 -1.97357
  42 651.895 -4.71206 9.97075
  43 629.864 5.16844 18.0583
  44 617.771 12.3685 -0.710500
  45 626.458 5.89628 -17.0212
  46 651.352 -7.03295 -12.1277
  47 654.153 -8.49891 4.96090
  48 641.772 -3.87072 11.3283
  49 611.834 0.0675092 13.1251
  50 595.288 2.17063 9.93904
  51 582.168 1.76460 5.55849
  52 575.485 0.550924 2.59680
  53 571.277 0.462886 1.53816
  54 570.663 2.01106 0.949411
  55 569.723 4.10987 1.10999
  56 567.406 7.11776 0.991131
  57 566.482 8.26842 -0.0957461
  58 567.657 6.75637 -1.18536
  59 569.309 4.48094 -1.00112
  60 570.032 2.28514 -1.06886
  61 1179.94 63.9210 125.705
  62 1078.35 17.4267 43.7072
  63 1019.36 6.95140 15.8985
  64 1006.66 5.10661 2.97761
  65 1018.75 6.84739 -13.5424
  66 1064.07 14.8682 -37.7208
  67 1191.11 55.5662 -108.265
  68 160.791 -164.979 -210.462
  69 31.8891 -416.188 -57.4651
  70 7.93685 -481.478 -25.0673
  71 7.63358 -473.664 -11.6834
  72 13.9880 -458.704 26.8802
  73 34.9032 -403.211 61.0024
  74 173.380 -152.714 232.756
  75 1179.94 63.9210 125.705
  76 1078.35 17.4267 43.7072
  77 1019.36 6.95140 15.8985
  78 1006.66 5.10661 2.97761
  79 1018.75 6.84739 -13.5424
  80 1064.07 14.8682 -37.7208
  81 1191.11 55.5662 -108.265
  82 160.791 -164.979 -210.462
  83 31.8891 -416.188 -57.4651
  84 7.93685 -481.478 -25.0673
  85 7.63358 -473.664 -11.6834
  86 13.9880 -458.704 26.8802
  87 34.9032 -403.211 61.0024
  88 173.380 -152.714 232.756
  89 525.897 29.6959 -7.65447
  90 525.897 29.6959 -7.65447
  91 480.719 6.77710 70.1528
  92 462.143 -2.70985 -84.0562
  93 480.719 6.77710 70.1528
  94 462.143 -2.70985 -84.0562
  95 276.334 8.32924 34.1564
  96 276.334 8.32924 34.1564
  97 701.242 45.5812 -9.32294
  98 712.846 26.9794 18.0307
  99 701.242 45.5812 -9.32294
  100 712.846 26.9794 18.0307
  101 562.197 13.3170 7.48818
  102 562.197 13.3170 7.48818
  103 668.444 -38.0755 3.54405
  104 668.444 -38.0755 3.54405
  105 562.820 13.9352 -9.25073
  106 562.820 13.9352 -9.25073
  107 655.176 -81.5467 -76.4990
  108 655.176 -81.5467 -76.4990
  109 461.445 -96.8404 188.373
  110 461.445 -96.8404 188.373
  111 314.876 -56.0568 -152.588
  112 314.876 -56.0568 -152.588
  113 564.833 9.26224 32.8510
  114 564.833 9.26224 32.8510
  115 584.509 3.73274 -31.5366
  116 584.509 3.73274 -31.5366
  117 787.993 54.8365 12.5733
  118 842.074 53.9907 5.58740
  119 787.993 54.8365 12.5733
  120 842.074 53.9907 5.58740
  121 825.621 70.8263 -25.2502
  122 825.621 70.8263 -25.2502
  123 92.9577 -148.085 -51.6520
  124 92.9577 -148.085 -51.6520
  125 709.410 -87.3568 84.7027
  126 709.410 -87.3568 84.7027
  127 603.523 -14.7693 37.9223
  128 603.523 -14.7693 37.9223
  129 141.425 -127.528 117.841
  130 141.425 -127.528 117.841
  131 562.957 11.1003 -0.467157
  132 562.957 11.1003 -0.467157
  133 602.343 -28.3482 -48.6427
  134 602.343 -28.3482 -48.6427
  135 571.226 4.55471 5.37744
  136 571.226 4.55471 5.37744
  137 571.670 4.01240 -5.01087
  138 571.670 4.01240 -5.01087
  139 577.664 7.76647 -16.2708
  140 577.664 7.76647 -16.2708
  141 575.172 7.58154 14.6193
  142 575.172 7.58154 14.6193
  143 552.279 18.5830 -0.605442
  144 552.279 18.5830 -0.605442
  145 464.906 30.6147 -3.60665
  146 464.906 30.6147 -3.60665
  147 665.781 -23.6283 7.82095
  148 665.781 -23.6283 7.82095
  149 756.276 -23.6401 -35.5115
  150 756.276 -23.6401 -35.5115
  151 587.666 -66.1054 93.5323
  152 587.666 -66.1054 93.5323
  153 443.546 -119.357 -214.003
  154 443.546 -119.357 -214.003
  155 526.769 21.3802 31.3799
  156 526.769 21.3802 31.3799
  157 677.723 -3.63803 -21.8268
  158 677.723 -3.63803 -21.8268
  159 914.618 74.1628 55.4351
  160 914.618 74.1628 55.4351
  161 461.563 -128.737 246.560
  162 461.563 -128.737 246.560
  163 931.704 30.0743 -10.8761
  164 931.704 30.0743 -10.8761
  165 550.132 18.5492 14.3882
  166 550.132 18.5492 14.3882
  167 523.425 17.7054 -46.1318
  168 523.425 17.7054 -46.1318
  169 646.998 19.9654 13.7527
  170 646.998 19.9654 13.7527
  171 545.243 22.1786 -16.3862
  172 545.243 22.1786 -16.3862
  173 566.142 8.91530 2.35217
  174 566.142 8.91530 2.35217
  175 574.844 4.32738 -8.58081
  176 574.844 4.32738 -8.58081
  177 878.205 72.8443 -57.5141
  178 878.205 72.8443 -57.5141
  179 566.553 8.68329 -2.83680
  180 566.553 8.68329 -2.83680
  181 422.481 30.9368 -24.1903
  182 422.481 30.9368 -24.1903
  183 750.387 56.0570 2.08383
  184 750.387 56.0570 2.08383
  185 154.524 -125.238 -151.711
  186 154.524 -125.238 -151.711
  187 415.126 -4.11245 102.657
  188 415.126 -4.11245 102.657
  189 548.260 -89.2863 -145.951
  190 548.260 -89.2863 -145.951
  191 647.367 -18.0140 9.15935
  192 647.367 -18.0140 9.15935
  193 606.406 -2.23237 23.0399
  194 606.406 -2.23237 23.0399
  195 817.544 28.0166 55.2185
  196 817.544 28.0166 55.2185
  197 348.194 11.7297 -63.6320
  198 348.194 11.7297 -63.6320
  199 924.754 40.7534 25.2071
  200 924.754 40.7534 25.2071
  201 617.431 -7.78870 -24.5744
  202 617.431 -7.78870 -24.5744
  203 575.699 3.08412 7.90689
  204 575.699 3.08412 7.90689
  205 642.264 -25.4729 -13.8599
  206 642.264 -25.4729 -13.8599
  207 700.784 -34.5958 -8.24775
  208 700.784 -34.5958 -8.24775
  209 44.2006 -261.606 23.1836
  210 44.2006 -261.606 23.1836
  211 592.870 2.93983 -20.0767
  212 592.870 2.93983 -20.0767
  213 588.129 4.50447 17.4765
  214 588.129 4.50447 17.4765
  215 565.567 -52.2801 -92.5019
  216 565.567 -52.2801 -92.5019
  217 660.019 -14.0306 -13.1790
  218 660.019 -14.0306 -13.1790
  219 543.213 19.3666 -31.3432
  220 543.213 19.3666 -31.3432
  221 149.692 -183.549 167.294
  222 149.692 -183.549 167.294
  223 669.697 3.60323 20.8930
  224 669.697 3.60323 20.8930
  225 652.311 16.9977 -18.0663
  226 652.311 16.9977 -18.0663
  227 915.403 54.5507 -43.7555
  228 915.403 54.5507 -43.7555
  229 703.398 -25.3390 -7.96455
  230 703.398 -25.3390 -7.96455
  231 762.881 -28.9358 -142.938
  232 762.881 -28.9358 -142.938
  233 567.896 -25.7244 70.7979
  234 567.896 -25.7244 70.7979
  235 558.044 15.4960 2.41500
  236 558.044 15.4960 2.41500
  237 299.073 -43.0730 134.926
  238 299.073 -43.0730 134.926
  239 730.023 -59.1440 165.819
  240 730.023 -59.1440 165.819
  241 205.099 -24.4658 -67.0539
  242 205.099 -24.4658 -67.0539
  243 654.776 -49.5096 -33.7077
  244 654.776 -49.5096 -33.7077
  245 538.205 23.9737 18.0294
  246 538.205 23.9737 18.0294
  247 18.7088 -342.662 -19.1230
  248 18.7088 -342.662 -19.1230
  249 36.8960 -299.164 63.1163
  250 36.8960 -299.164 63.1163
  251 547.108 3.73754 50.5228
  252 547.108 3.73754 50.5228
  253 570.609 2.14342 1.93513
  254 570.609 2.14342 1.93513
  255 566.100 8.96874 0.371227
  256 566.100 8.96874 0.371227
  257 531.920 -6.62188 -67.4610
  258 531.920 -6.62188 -67.4610
  259 570.910 1.95746 -2.05021
  260 570.910 1.95746 -2.05021
  261 629.198 -44.6428 43.6320
  262 629.198 -44.6428 43.6320
  263 585.291 2.00957 -9.63157
  264 585.291 2.00957 -9.63157
  265 455.551 -38.6299 -126.341
  266 455.551 -38.6299 -126.341
  267 769.397 59.5021 0.0383565
  268 769.397 59.5021 0.0383565
  269 565.361 12.3240 -25.3689
  270 565.361 12.3240 -25.3689
  271 563.327 11.5272 -4.97892
  272 563.327 11.5272 -4.97892
  273 481.434 23.3240 -46.2178
  274 481.434 23.3240 -46.2178
  275 148.749 -54.1767 39.0143
  276 148.749 -54.1767 39.0143
  277 599.952 -100.578 130.528
  278 599.952 -100.578 130.528
  279 569.008 8.32064 9.75318
  280 569.008 8.32064 9.75318
  281 836.479 58.8681 -14.3350
  282 836.479 58.8681 -14.3350
  283 990.705 90.2665 121.570
  284 990.705 90.2665 121.570
  285 673.152 -71.7260 44.8693
  286 673.152 -71.7260 44.8693
  287 490.836 24.4161 33.7785
  288 490.836 24.4161 33.7785
  289 615.487 -123.590 172.492
  290 615.487 -123.590 172.492
  291 636.765 -7.66918 16.0374
  292 636.765 -7.66918 16.0374
  293 568.659 5.47680 2.65512
  294 568.659 5.47680 2.65512
  295 561.051 15.1545 -16.0548
  296 561.051 15.1545 -16.0548
  297 566.229 8.82652 -0.729481
  298 566.229 8.82652 -0.729481
  299 573.817 1.56251 -3.70980
  300 573.817 1.56251 -3.70980
  301 584.823 2.83219 9.66824
  302 584.823 2.83219 9.66824
  303 558.181 15.4162 -4.10359
  304 558.181 15.4162 -4.10359
  305 128.219 -213.848 -159.695
  306 128.219 -213.848 -159.695
  307 387.341 25.4888 31.7006
  308 387.341 25.4888 31.7006
  309 569.227 4.57648 -2.54761
  310 569.227 4.57648 -2.54761
  311 504.228 28.7780 -22.5987
  312 504.228 28.7780 -22.5987
  313 505.541 31.3730 8.57856
  314 505.541 31.3730 8.57856
  315 568.123 8.00086 -6.89396
  316 568.123 8.00086 -6.89396
  317 756.983 41.7883 -6.97322
  318 756.983 41.7883 -6.97322
  319 564.119 13.4273 22.1519
  320 564.119 13.4273 22.1519
  321 716.322 23.5545 -15.7332
  322 716.322 23.5545 -15.7332
  323 1037.77 28.9950 70.9795
  324 1037.77 28.9950 70.9795
  325 562.153 13.8976 13.8430
  326 562.153 13.8976 13.8430
  327 553.727 18.4102 7.24187
  328 553.727 18.4102 7.24187
  329 428.913 -82.9092 -247.987
  330 428.913 -82.9092 -247.987
  331 574.151 1.41176 3.62822
  332 574.151 1.41176 3.62822
  333 562.827 11.6098 3.72297
  334 562.827 11.6098 3.72297
  335 543.082 23.9400 0.832485
  336 543.082 23.9400 0.832485
  337 282.259 -99.1266 198.140
  338 282.259 -99.1266 198.140
  339 697.189 46.0207 2.79597
  340 697.189 46.0207 2.79597
  341 39.7068 -292.731 -72.3642
  342 39.7068 -292.731 -72.3642
  343 439.748 27.7060 28.0626
  344 439.748 27.7060 28.0626
  345 982.838 13.0036 9.49246
  346 982.838 13.0036 9.49246
  347 1026.75 52.9579 -73.5367
  348 1026.75 52.9579 -73.5367
  349 491.479 -57.1565 141.403
  350 512.968 -29.2939 104.036
  351 491.479 -57.1565 141.403
  352 512.968 -29.2939 104.036
  353 997.190 24.2909 36.6728
  354 997.190 24.2909 36.6728
  355 581.288 -0.962330 39.3791
  356 581.288 -0.962330 39.3791
  357 682.498 -92.3123 -102.942
  358 682.498 -92.3123 -102.942
  359 653.592 -5.48492 17.4523
  360 653.592 -5.48492 17.4523
  361 437.511 -83.5362 270.386
  362 437.511 -83.5362 270.386
  363 761.517 61.0083 -1.94157
  364 761.517 61.0083 -1.94157
  365 995.127 8.76252 -7.59840
  366 995.127 8.76252 -7.59840
  367 616.884 0.129519 -19.1370
  368 616.884 0.129519 -19.1370
  369 553.713 19.5935 -8.68152
  370 553.713 19.5935 -8.68152
  371 846.077 65.9406 24.1174
  372 846.077 65.9406 24.1174
  373 655.950 27.7051 -3.82215
  374 655.950 27.7051 -3.82215
  375 595.285 2.16046 -12.0274
  376 595.285 2.16046 -12.0274
  377 165.973 -78.9655 -114.518
  378 165.973 -78.9655 -114.518
  379 657.312 -11.9313 4.01925
  380 657.312 -11.9313 4.01925
  381 564.763 -1.04624 -46.5926
  382 564.763 -1.04624 -46.5926
  383 649.724 -1.19798 -20.9601
  384 649.724 -1.19798 -20.9601
  385 1000.55 17.3731 -30.2345
  386 1000.55 17.3731 -30.2345
  387 566.808 8.55616 5.44516
  388 566.808 8.55616 5.44516
  389 689.838 34.3618 16.6529
  390 689.838 34.3618 16.6529
  391 739.395 -14.2250 11.8516
  392 739.395 -14.2250 11.8516
  393 568.779 10.0767 -12.2300
  394 568.779 10.0767 -12.2300
  395 1057.93 106.828 -140.281
  396 1057.93 106.828 -140.281
  397 648.122 -9.66369 -7.30675
  398 648.122 -9.66369 -7.30675
</Section>

newXOutput 171

<Section columns = "stress_xx | stress_yy | stress_xy">
  1 572.774 0.563891 -0.606800
  2 573.037 0.693721 0.817593
  3 572.774 0.563891 -0.606800
  4 573.037 0.693721 0.817593
  5 861.621 72.6700 253.380
  6 894.081 71.5989 -249.409
  7 861.621 72.6700 253.380
  8 894.081 71.5989 -249.409
  9 574.110 0.392192 -1.59719
  10 578.531 0.687543 -2.84996
  11 584.964 1.54497 -5.81802
  12 599.815 0.558135 -7.87192
  13 619.103 0.876422 -13.0745
  14 641.989 -5.91734 -13.1673
  15 663.578 -7.03120 -1.99110
  16 655.477 -4.73792 10.0110
  17 633.363 5.20099 18.1389
  18 621.223 12.4414 -0.713762
  19 629.942 5.93055 -17.0984
  20 654.933 -7.07196 -12.1762
  21 657.719 -8.54813 4.99610
  22 645.268 -3.89363 11.3911
  23 615.181 0.0659163 13.1934
  24 598.553 2.18145 9.98854
  25 585.371 1.77376 5.58534
  26 578.658 0.553874 2.60912
  27 574.431 0.465441 1.54543
  28 573.813 2.02171 0.953794
  29 572.869 4.13139 1.11521
  30 570.542 7.15464 0.995850
  31 569.614 8.31113 -0.0961965
  32 570.794 6.79143 -1.19095
  33 572.454 4.50440 -1.00569
  34 573.180 2.29732 -1.07390
  35 574.110 0.392192 -1.59719
  36 578.531 0.687543 -2.84996
  37 584.964 1.54497 -5.81802
  38 599.815 0.558135 -7.87192
  39 619.103 0.876422 -13.0745
  40 641.989 -5.91734 -13.1673
  41 663.578 -7.03120 -1.99110
  42 655.477 -4.73792 10.0110
  43 633.363 5.20099 18.1389
  44 621.223 12.4414 -0.713762
  45 629.942 5.93055 -17.0984
  46 654.933 -7.07196 -12.1762
  47 657.719 -8.54813 4.99610
  48 645.268 -3.89363 11.3911
  49 615.181 0.0659163 13.1934
  50 598.553 2.18145 9.98854
  51 585.371 1.77376 5.58534
  52 578.658 0.553874 2.60912
  53 574.431 0.465441 1.54543
  54 573.813 2.02171 0.953794
  55 572.869 4.13139 1.11521
  56 570.542 7.15464 0.995850
  57 569.614 8.31113 -0.0961965
  58 570.794 6.79143 -1.19095
  59 572.454 4.50440 -1.00569
  60 573.180 2.29732 -1.07390
  61 1185.97 64.2826 126.376
  62 1083.89 17.5132 43.9290
  63 1024.64 6.98120 15.9756
  64 1011.87 5.12974 2.99006
  65 1024.02 6.87964 -13.6077
  66 1069.55 14.9410 -37.9093
  67 1197.19 55.8796 -108.842
  68 161.655 -165.679 -211.751
  69 32.0620 -418.521 -57.8687
  70 7.96414 -484.291 -25.2433
  71 7.66073 -476.443 -11.7515
  72 14.0538 -461.367 27.0697
  73 35.0967 -405.469 61.4328
  74 174.297 -153.347 234.174
  75 1185.97 64.2826 126.376
  76 1083.89 17.5132 43.9290
  77 1024.64 6.98120 15.9756
  78 1011.87 5.12974 2.99006
  79 1024.02 6.87964 -13.6077
  80 1069.55 14.9410 -37.9093
  81 1197.19 55.8796 -108.842
  82 161.655 -165.679 -211.751
  83 32.0620 -418.521 -57.8687
  84 7.96414 -484.291 -25.2433
  85 7.66073 -476.443 -11.7515
  86 14.0538 -461.367 27.0697
  87 35.0967 -405.469 61.4328
  88 174.297 -153.347 234.174
  89 528.834 29.8561 -7.69474
  90 528.834 29.8561 -7.69474
  91 483.411 6.81643 70.5364
  92 464.733 -2.72301 -84.5207
  93 483.411 6.81643 70.5364
  94 464.733 -2.72301 -84.5207
  95 277.937 8.39434 34.3503
  96 277.937 8.39434 34.3503
  97 705.099 45.8386 -9.35333
  98 716.742 27.1442 18.0787
  99 705.099 45.8386 -9.35333
  100 716.742 27.1442 18.0787
  101 565.311 13.3868 7.52521
  102 565.311 13.3868 7.52521
  103 672.090 -38.2839 3.60055
  104 672.090 -38.2839 3.60055
  105 565.936 14.0085 -9.29665
  106 565.936 14.0085 -9.29665
  107 658.727 -81.9992 -76.9519
  108 658.727 -81.9992 -76.9519
  109 463.987 -97.3861 189.453
  110 463.987 -97.3861 189.453
  111 316.653 -56.3628 -153.473
  112 316.653 -56.3628 -153.473
  113 567.956 9.31030 33.0243
  114 567.956 9.31030 33.0243
  115 587.728 3.75004 -31.7047
  116 587.728 3.75004 -31.7047
  117 792.262 55.1605 12.7058
  118 846.606 54.2736 5.62752
  119 792.262 55.1605 12.7058
  120 846.606 54.2736 5.62752
  121 830.080 71.2253 -25.4357
  122 830.080 71.2253 -25.4357
  123 93.4943 -148.877 -51.9748
  124 93.4943 -148.877 -51.9748
  125 713.225 -87.8159 85.2305
  126 713.225 -87.8159 85.2305
  127 606.836 -14.8535 38.1352
  128 606.836 -14.8535 38.1352
  129 142.239 -128.205 118.565
  130 142.239 -128.205 118.565
  131 566.074 11.1581 -0.469375
  132 566.074 11.1581 -0.469375
  133 605.647 -28.5078 -48.9200
  134 605.647 -28.5078 -48.9200
  135 574.379 4.57859 5.40338
  136 574.379 4.57859 5.40338
  137 574.826 4.03354 -5.03495
  138 574.826 4.03354 -5.03495
  139 580.849 7.80669 -16.3530
  140 580.849 7.80669 -16.3530
  141 578.345 7.62103 14.6926
  142 578.345 7.62103 14.6926
  143 555.345 18.6812 -0.608631
  144 555.345 18.6812 -0.608631
  145 467.531 30.7842 -3.62661
  146 467.531 30.7842 -3.62661
  147 669.422 -23.7558 7.83146
  148 669.422 -23.7558 7.83146
  149 760.350 -23.7280 -35.7837
  150 760.350 -23.7280 -35.7837
  151 590.879 -66.4757 94.0638
  152 590.879 -66.4757 94.0638
  153 445.965 -120.000 -215.265
  154 445.965 -120.000 -215.265
  155 529.706 21.4964 31.5466
  156 529.706 21.4964 31.5466
  157 681.434 -3.65084 -21.9062
  158 681.434 -3.65084 -21.9062
  159 919.484 74.5786 55.7732
  160 919.484 74.5786 55.7732
  161 464.075 -129.444 247.998
  162 464.075 -129.444 247.998
  163 936.627 30.2233 -10.9364
  164 936.627 30.2233 -10.9364
  165 553.188 18.6475 14.4616
  166 553.188 18.6475 14.4616
  167 526.341 17.8021 -46.3802
  168 526.341 17.8021 -46.3802
  169 650.587 20.0826 13.8127
  170 650.587 20.0826 13.8127
  171 548.275 22.2968 -16.4706
  172 548.275 22.2968 -16.4706
  173 569.273 8.96164 2.36353
  174 569.273 8.96164 2.36353
  175 578.014 4.34990 -8.62280
  176 578.014 4.34990 -8.62280
  177 882.893 73.2869 -57.8976
  178 882.893 73.2869 -57.8976
  179 569.686 8.72853 -2.85044
  180 569.686 8.72853 -2.85044
  181 424.880 31.1130 -24.3232
  182 424.880 31.1130 -24.3232
  183 754.483 56.3716 2.05946
  184 754.483 56.3716 2.05946
  185 155.402 -125.903 -152.638
  186 155.402 -125.903 -152.638
  187 417.464 -4.13086 103.229
  188 417.464 -4.13086 103.229
  189 551.257 -89.7873 -146.787
  190 551.257 -89.7873 -146.787
  191 650.907 -18.1160 9.22633
  192 650.907 -18.1160 9.22633
  193 609.731 -2.24737 23.1638
  194 609.731 -2.24737 23.1638
  195 821.926 28.2250 55.6034
  196 821.926 28.2250 55.6034
  197 350.185 11.8059 -63.9899
  198 350.185 11.8059 -63.9899
  199 929.654 40.9613 25.3510
  200 929.654 40.9613 25.3510
  201 620.813 -7.83469 -24.7121
  202 620.813 -7.83469 -24.7121
  203 578.873 3.10007 7.94548
  204 578.873 3.10007 7.94548
  205 645.775 -25.6171 -13.9543
  206 645.775 -25.6171 -13.9543
  207 704.590 -34.7740 -8.34468
  208 704.590 -34.7740 -8.34468
  209 44.4485 -263.067 23.3347
  210 44.4485 -263.067 23.3347
  211 596.128 2.95323 -20.1809
  212 596.128 2.95323 -20.1809
  213 591.364 4.52733 17.5661
  214 591.364 4.52733 17.5661
  215 568.674 -52.5728 -93.0247
  216 568.674 -52.5728 -93.0247
  217 663.637 -14.1079 -13.2232
  218 663.637 -14.1079 -13.2232
  219 546.232 19.4707 -31.5093
  220 546.232 19.4707 -31.5093
  221 150.521 -184.516 168.331
  222 150.521 -184.516 168.331
  223 673.378 3.63209 20.9732
  224 673.378 3.63209 20.9732
  225 655.921 17.0982 -18.1424
  226 655.921 17.0982 -18.1424
  227 920.268 54.8393 -44.0144
  228 920.268 54.8393 -44.0144
  229 707.222 -25.4656 -7.95546
  230 707.222 -25.4656 -7.95546
  231 766.947 -29.0091 -143.817
  232 766.947 -29.0091 -143.817
  233 571.023 -25.8680 71.1905
  234 571.023 -25.8680 71.1905
  235 561.138 15.5774 2.42703
  236 561.138 15.5774 2.42703
  237 300.772 -43.3036 135.705
  238 300.772 -43.3036 135.705
  239 733.913 -59.3996 166.819
  240 733.913 -59.3996 166.819
  241 206.294 -24.5755 -67.4464
  242 206.294 -24.5755 -67.4464
  243 658.341 -49.7847 -33.9214
  244 658.341 -49.7847 -33.9214
  245 541.202 24.1024 18.1234
  246 541.202 24.1024 18.1234
  247 18.8040 -344.609 -19.2518
  248 18.8040 -344.609 -19.2518
  249 37.0982 -300.831 63.5367
  250 37.0982 -300.831 63.5367
  251 550.140 3.75711 50.7962
  252 550.140 3.75711 50.7962
  253 573.760 2.15477 1.94428
  254 573.760 2.15477 1.94428
  255 569.231 9.01517 0.373037
  256 569.231 9.01517 0.373037
  257 534.871 -6.65947 -67.8314
  258 534.871 -6.65947 -67.8314
  259 574.062 1.96792 -2.05992
  260 574.062 1.96792 -2.05992
  261 632.634 -44.8919 43.8912
  262 632.634 -44.8919 43.8912
  263 588.510 2.01969 -9.67913
  264 588.510 2.01969 -9.67913
  265 458.088 -38.8461 -127.052
  266 458.088 -38.8461 -127.052
  267 773.586 59.8332 0.0740711
  268 773.586 59.8332 0.0740711
  269 568.488 12.3886 -25.5004
  270 568.488 12.3886 -25.5004
  271 566.445 11.5874 -5.00323
  272 566.445 11.5874 -5.00323
  273 484.138 23.4538 -46.4686
  274 484.138 23.4538 -46.4686
  275 149.621 -54.4406 39.2485
  276 149.621 -54.4406 39.2485
  277 603.211 -101.141 131.281
  278 603.211 -101.141 131.281
  279 572.152 8.36418 9.80117
  280 572.152 8.36418 9.80117
  281 840.987 59.1809 -14.4303
  282 840.987 59.1809 -14.4303
  283 995.897 90.8226 122.282
  284 995.897 90.8226 122.282
  285 676.802 -72.1186 45.1583
  286 676.802 -72.1186 45.1583
  287 493.590 24.5510 33.9597
  288 493.590 24.5510 33.9597
  289 618.806 -124.275 173.491
  290 618.806 -124.275 173.491
  291 640.243 -7.71391 16.1297
  292 640.243 -7.71391 16.1297
  293 571.801 5.50536 2.66782
  294 571.801 5.50536 2.66782
  295 564.158 15.2344 -16.1359
  296 564.158 15.2344 -16.1359
  297 569.361 8.87224 -0.732974
  298 569.361 8.87224 -0.732974
  299 576.982 1.57075 -3.72756
  300 576.982 1.57075 -3.72756
  301 588.040 2.84667 9.71596
  302 588.040 2.84667 9.71596
  303 561.276 15.4972 -4.12400
  304 561.276 15.4972 -4.12400
  305 128.925 -214.970 -160.694
  306 128.925 -214.970 -160.694
  307 389.550 25.6378 31.8753
  308 389.550 25.6378 31.8753
  309 572.371 4.60045 -2.55974
  310 572.371 4.60045 -2.55974
  311 507.053 28.9351 -22.7195
  312 507.053 28.9351 -22.7195
  313 508.375 31.5441 8.62380
  314 508.375 31.5441 8.62380
  315 571.263 8.04272 -6.92758
  316 571.263 8.04272 -6.92758
  317 761.093 42.0461 -7.07680
  318 761.093 42.0461 -7.07680
  319 567.240 13.4981 22.2655
  320 567.240 13.4981 22.2655
  321 720.234 23.6999 -15.7693
  322 720.234 23.6999 -15.7693
  323 1043.17 29.1395 71.3642
  324 1043.17 29.1395 71.3642
  325 565.265 13.9708 13.9125
  326 565.265 13.9708 13.9125
  327 556.800 18.5074 7.27827
  328 556.800 18.5074 7.27827
  329 431.211 -83.2045 -249.474
  330 431.211 -83.2045 -249.474
  331 577.318 1.41920 3.64559
  332 577.318 1.41920 3.64559
  333 565.943 11.6704 3.74120
  334 565.943 11.6704 3.74120
  335 546.104 24.0677 0.836719
  336 546.104 24.0677 0.836719
  337 283.845 -99.6736 199.312
  338 283.845 -99.6736 199.312
  339 701.029 46.2798 2.80284
  340 701.029 46.2798 2.80284
  341 39.9198 -294.359 -72.8359
  342 39.9198 -294.359 -72.8359
  343 442.240 27.8622 28.2148
  344 442.240 27.8622 28.2148
  345 987.967 13.0655 9.53923
  346 987.967 13.0655 9.53923
  347 1032.11 53.2481 -73.9408
  348 1032.11 53.2481 -73.9408
  349 494.193 -57.4782 142.200
  350 515.809 -29.4572 104.613
  351 494.193 -57.4782 142.200
  352 515.809 -29.4572 104.613
  353 1002.40 24.4093 36.8651
  354 1002.40 24.4093 36.8651
  355 584.492 -0.969842 39.5918
  356 584.492 -0.969842 39.5918
  357 686.171 -92.8122 -103.560
  358 686.171 -92.8122 -103.560
  359 657.188 -5.51268 17.5253
  360 657.188 -5.51268 17.5253
  361 439.837 -83.8447 271.993
  362 439.837 -83.8447 271.993
  363 765.674 61.3406 -1.95054
  364 765.674 61.3406 -1.95054
  365 1000.30 8.80358 -7.63736
  366 1000.30 8.80358 -7.63736
  367 620.258 0.127576 -19.2386
  368 620.258 0.127576 -19.2386
  369 556.787 19.6972 -8.72535
  370 556.787 19.6972 -8.72535
  371 850.630 66.2995 24.2826
  372 850.630 66.2995 24.2826
  373 659.585 27.8633 -3.83825
  374 659.585 27.8633 -3.83825
  375 598.551 2.17076 -12.0880
  376 598.551 2.17076 -12.0880
  377 166.944 -79.3779 -115.206
  378 166.944 -79.3779 -115.206
  379 660.906 -11.9981 4.02453
  380 660.906 -11.9981 4.02453
  381 567.884 -1.05427 -46.8462
  382 567.884 -1.05427 -46.8462
  383 653.308 -1.20231 -21.0496
  384 653.308 -1.20231 -21.0496
  385 1005.76 17.4596 -30.3912
  386 1005.76 17.4596 -30.3912
  387 569.942 8.60078 5.47163
  388 569.942 8.60078 5.47163
  389 693.631 34.5612 16.7118
  390 693.631 34.5612 16.7118
  391 743.393 -14.2758 11.9840
  392 743.393 -14.2758 11.9840
  393 571.922 10.1296 -12.2907
  394 571.922 10.1296 -12.2907
  395 1063.43 107.497 -141.091
  396 1063.43 107.497 -141.091
  397 651.657 -9.71985 -7.35444
  398 651.657 -9.71985 -7.35444
</Section>

newXOutput 172

<Section columns = "stress_xx | stress_yy | stress_xy">
  1 575.917 0.567068 -0.609600
  2 576.182 0.697540 0.821356
  3 575.917 0.567068 -0.609600
  4 576.182 0.697540 0.821356
  5 866.056 73.2723 254.844
  6 898.667 72.2031 -250.852
  7 866.056 73.2723 254.844
  8 898.667 72.2031 -250.852
  9 577.260 0.394321 -1.60463
  10 581.701 0.691178 -2.86342
  11 588.162 1.55292 -5.84601
  12 603.083 0.560710 -7.91061
  13 622.464 0.879712 -13.1414
  14 645.465 -5.95248 -13.2390
  15 667.170 -7.07155 -2.00869
  16 659.056 -4.76377 10.0510
  17 636.860 5.23357 18.2193
  18 624.673 12.5143 -0.717014
  19 633.423 5.96481 -17.1752
  20 658.510 -7.11093 -12.2245
  21 661.282 -8.59734 5.03135
  22 648.760 -3.91653 11.4538
  23 618.524 0.0643031 13.2616
  24 601.816 2.19226 10.0379
  25 588.572 1.78290 5.61212
  26 581.828 0.556820 2.62141
  27 577.583 0.467994 1.55269
  28 576.962 2.03235 0.958165
  29 576.014 4.15287 1.12042
  30 573.677 7.19146 1.00056
  31 572.745 8.35378 -0.0966456
  32 573.929 6.82645 -1.19653
  33 575.596 4.52782 -1.01026
  34 576.325 2.30948 -1.07892
  35 577.260 0.394321 -1.60463
  36 581.701 0.691178 -2.86342
  37 588.162 1.55292 -5.84601
  38 603.083 0.560710 -7.91061
  39 622.464 0.879712 -13.1414
  40 645.465 -5.95248 -13.2390
  41 667.170 -7.07155 -2.00869
  42 659.056 -4.76377 10.0510
  43 636.860 5.23357 18.2193
  44 624.673 12.5143 -0.717014
  45 633.423 5.96481 -17.1752
  46 658.510 -7.11093 -12.2245
  47 661.282 -8.59734 5.03135
  48 648.760 -3.91653 11.4538
  49 618.524 0.0643031 13.2616
  50 601.816 2.19226 10.0379
  51 588.572 1.78290 5.61212
  52 581.828 0.556820 2.62141
  53 577.583 0.467994 1.55269
  54 576.962 2.03235 0.958165
  55 576.014 4.15287 1.12042
  56 573.677 7.19146 1.00056
  57 572.745 8.35378 -0.0966456
  58 573.929 6.82645 -1.19653
  59 575.596 4.52782 -1.01026
  60 576.325 2.30948 -1.07892
  61 1191.98 64.6441 127.045
  62 1089.42 17.5996 44.1505
  63 1029.90 7.01089 16.0526
  64 1017.07 5.15281 3.00245
  65 1029.28 6.91182 -13.6729
  66 1075.02 15.0135 -38.0974
  67 1203.26 56.1928 -109.419
  68 162.517 -166.376 -213.040
  69 32.2346 -420.853 -58.2730
  70 7.99122 -487.103 -25.4196
  71 7.68768 -479.223 -11.8195
  72 14.1194 -464.029 27.2596
  73 35.2901 -407.726 61.8640
  74 175.213 -153.976 235.593
  75 1191.98 64.6441 127.045
  76 1089.42 17.5996 44.1505
  77 1029.90 7.01089 16.0526
  78 1017.07 5.15281 3.00245
  79 1029.28 6.91182 -13.6729
  80 1075.02 15.0135 -38.0974
  81 1203.26 56.1928 -109.419
  82 162.517 -166.376 -213.040
  83 32.2346 -420.853 -58.2730
  84 7.99122 -487.103 -25.4196
  85 7.68768 -479.223 -11.8195
  86 14.1194 -464.029 27.2596
  87 35.2901 -407.726 61.8640
  88 175.213 -153.976 235.593
  89 531.769 30.0162 -7.73496
  90 531.769 30.0162 -7.73496
  91 486.100 6.85575 70.9196
  92 467.323 -2.73614 -84.9848
  93 486.100 6.85575 70.9196
  94 467.323 -2.73614 -84.9848
  95 279.540 8.45961 34.5441
  96 279.540 8.45961 34.5441
  97 708.953 46.0958 -9.38348
  98 720.636 27.3090 18.1260
  99 708.953 46.0958 -9.38348
  100 720.636 27.3090 18.1260
  101 568.421 13.4566 7.56218
  102 568.421 13.4566 7.56218
  103 675.733 -38.4921 3.65741
  104 675.733 -38.4921 3.65741
  105 569.049 14.0817 -9.34247
  106 569.049 14.0817 -9.34247
  107 662.274 -82.4514 -77.4047
  108 662.274 -82.4514 -77.4047
  109 466.527 -97.9314 190.533
  110 466.527 -97.9314 190.533
  111 318.429 -56.6686 -154.357
  112 318.429 -56.6686 -154.357
  113 571.077 9.35828 33.1973
  114 571.077 9.35828 33.1973
  115 590.945 3.76730 -31.8726
  116 590.945 3.76730 -31.8726
  117 796.527 55.4844 12.8388
  118 851.134 54.5562 5.66769
  119 796.527 55.4844 12.8388
  120 851.134 54.5562 5.66769
  121 834.534 71.6241 -25.6215
  122 834.534 71.6241 -25.6215
  123 94.0307 -149.667 -52.2978
  124 94.0307 -149.667 -52.2978
  125 717.036 -88.2744 85.7584
  126 717.036 -88.2744 85.7584
  127 610.146 -14.9376 38.3481
  128 610.146 -14.9376 38.3481
  129 143.052 -128.881 119.290
  130 143.052 -128.881 119.290
  131 569.189 11.2159 -0.471587
  132 569.189 11.2159 -0.471587
  133 608.947 -28.6672 -49.1972
  134 608.947 -28.6672 -49.1972
  135 577.530 4.60244 5.42927
  136 577.530 4.60244 5.42927
  137 577.979 4.05465 -5.05898
  138 577.979 4.05465 -5.05898
  139 584.031 7.84685 -16.4350
  140 584.031 7.84685 -16.4350
  141 581.516 7.66047 14.7657
  142 581.516 7.66047 14.7657
  143 558.409 18.7792 -0.611815
  144 558.409 18.7792 -0.611815
  145 470.155 30.9535 -3.64655
  146 470.155 30.9535 -3.64655
  147 673.059 -23.8832 7.84161
  148 673.059 -23.8832 7.84161
  149 764.419 -23.8154 -36.0565
  150 764.419 -23.8154 -36.0565
  151 594.090 -66.8458 94.5950
  152 594.090 -66.8458 94.5950
  153 448.382 -120.643 -216.527
  154 448.382 -120.643 -216.527
  155 532.641 21.6124 31.7132
  156 532.641 21.6124 31.7132
  157 685.142 -3.66355 -21.9851
  158 685.142 -3.66355 -21.9851
  159 924.345 74.9941 56.1113
  160 924.345 74.9941 56.1113
  161 466.584 -130.151 249.437
  162 466.584 -130.151 249.437
  163 941.544 30.3719 -10.9966
  164 941.544 30.3719 -10.9966
  165 556.241 18.7456 14.5350
  166 556.241 18.7456 14.5350
  167 529.256 17.8987 -46.6284
  168 529.256 17.8987 -46.6284
  169 654.173 20.1997 13.8725
  170 654.173 20.1997 13.8725
  171 551.304 22.4149 -16.5549
  172 551.304 22.4149 -16.5549
  173 572.402 9.00792 2.37486
  174 572.402 9.00792 2.37486
  175 581.182 4.37238 -8.66470
  176 581.182 4.37238 -8.66470
  177 887.575 73.7296 -58.2816
  178 887.575 73.7296 -58.2816
  179 572.816 8.77371 -2.86406
  180 572.816 8.77371 -2.86406
  181 427.277 31.2891 -24.4560
  182 427.277 31.2891 -24.4560
  183 758.576 56.6860 2.03475
  184 758.576 56.6860 2.03475
  185 156.281 -126.567 -153.566
  186 156.281 -126.567 -153.566
  187 419.802 -4.14922 103.800
  188 419.802 -4.14922 103.800
  189 554.252 -90.2881 -147.623
  190 554.252 -90.2881 -147.623
  191 654.443 -18.2178 9.29344
  192 654.443 -18.2178 9.29344
  193 613.053 -2.26239 23.2875
  194 613.053 -2.26239 23.2875
  195 826.304 28.4339 55.9888
  196 826.304 28.4339 55.9888
  197 352.175 11.8823 -64.3476
  198 352.175 11.8823 -64.3476
  199 934.549 41.1688 25.4948
  200 934.549 41.1688 25.4948
  201 624.191 -7.88068 -24.8496
  202 624.191 -7.88068 -24.8496
  203 582.045 3.11599 7.98399
  204 582.045 3.11599 7.98399
  205 649.283 -25.7613 -14.0489
  206 649.283 -25.7613 -14.0489
  207 708.394 -34.9520 -8.44208
  208 708.394 -34.9520 -8.44208
  209 44.6962 -264.528 23.4861
  210 44.6962 -264.528 23.4861
  211 599.383 2.96658 -20.2849
  212 599.383 2.96658 -20.2849
  213 594.596 4.55015 17.6555
  214 594.596 4.55015 17.6555
  215 571.778 -52.8654 -93.5471
  216 571.778 -52.8654 -93.5471
  217 667.251 -14.1851 -13.2670
  218 667.251 -14.1851 -13.2670
  219 549.248 19.5746 -31.6752
  220 549.248 19.5746 -31.6752
  221 151.350 -185.482 169.369
  222 151.350 -185.482 169.369
  223 677.056 3.66104 21.0530
  224 677.056 3.66104 21.0530
  225 659.529 17.1987 -18.2182
  226 659.529 17.1987 -18.2182
  227 925.127 55.1276 -44.2732
  228 925.127 55.1276 -44.2732
  229 711.042 -25.5918 -7.94580
  230 711.042 -25.5918 -7.94580
  231 771.009 -29.0812 -144.695
  232 771.009 -29.0812 -144.695
  233 574.147 -26.0114 71.5829
  234 574.147 -26.0114 71.5829
  235 564.230 15.6587 2.43904
  236 564.230 15.6587 2.43904
  237 302.470 -43.5339 136.484
  238 302.470 -43.5339 136.484
  239 737.798 -59.6542 167.820
  240 737.798 -59.6542 167.820
  241 207.489 -24.6848 -67.8387
  242 207.489 -24.6848 -67.8387
  243 661.904 -50.0597 -34.1351
  244 661.904 -50.0597 -34.1351
  245 544.196 24.2310 18.2172
  246 544.196 24.2310 18.2172
  247 18.8989 -346.555 -19.3807
  248 18.8989 -346.555 -19.3807
  249 37.3003 -302.498 63.9575
  250 37.3003 -302.498 63.9575
  251 553.171 3.77667 51.0694
  252 553.171 3.77667 51.0694
  253 576.908 2.16612 1.95341
  254 576.908 2.16612 1.95341
  255 572.359 9.06152 0.374842
  256 572.359 9.06152 0.374842
  257 537.821 -6.69703 -68.2015
  258 537.821 -6.69703 -68.2015
  259 577.211 1.97837 -2.06960
  260 577.211 1.97837 -2.06960
  261 636.068 -45.1410 44.1504
  262 636.068 -45.1410 44.1504
  263 591.726 2.02979 -9.72659
  264 591.726 2.02979 -9.72659
  265 460.623 -39.0621 -127.763
  266 460.623 -39.0621 -127.763
  267 777.771 60.1641 0.110126
  268 777.771 60.1641 0.110126
  269 571.613 12.4531 -25.6318
  270 571.613 12.4531 -25.6318
  271 569.561 11.6476 -5.02749
  272 569.561 11.6476 -5.02749
  273 486.841 23.5836 -46.7191
  274 486.841 23.5836 -46.7191
  275 150.493 -54.7038 39.4827
  276 150.493 -54.7038 39.4827
  277 606.467 -101.703 132.034
  278 606.467 -101.703 132.034
  279 575.293 8.40765 9.84906
  280 575.293 8.40765 9.84906
  281 845.490 59.4933 -14.5256
  282 845.490 59.4933 -14.5256
  283 1001.08 91.3789 122.994
  284 1001.08 91.3789 122.994
  285 680.448 -72.5108 45.4476
  286 680.448 -72.5108 45.4476
  287 496.344 24.6858 34.1407
  288 496.344 24.6858 34.1407
  289 622.122 -124.959 174.490
  290 622.122 -124.959 174.490
  291 643.717 -7.75863 16.2219
  292 643.717 -7.75863 16.2219
  293 574.941 5.53389 2.68050
  294 574.941 5.53389 2.68050
  295 567.263 15.3143 -16.2170
  296 567.263 15.3143 -16.2170
  297 572.490 8.91788 -0.736458
  298 572.490 8.91788 -0.736458
  299 580.145 1.57898 -3.74529
  300 580.145 1.57898 -3.74529
  301 591.254 2.86113 9.76358
  302 591.254 2.86113 9.76358
  303 564.368 15.5781 -4.14436
  304 564.368 15.5781 -4.14436
  305 129.630 -216.089 -161.694
  306 129.630 -216.089 -161.694
  307 391.759 25.7868 32.0499
  308 391.759 25.7868 32.0499
  309 575.513 4.62440 -2.57184
  310 575.513 4.62440 -2.57184
  311 509.877 29.0920 -22.8401
  312 509.877 29.0920 -22.8401
  313 511.207 31.7151 8.66898
  314 511.207 31.7151 8.66898
  315 574.400 8.08451 -6.96113
  316 574.400 8.08451 -6.96113
  317 765.198 42.3040 -7.18098
  318 765.198 42.3040 -7.18098
  319 570.359 13.5688 22.3789
  320 570.359 13.5688 22.3789
  321 724.142 23.8453 -15.8047
  322 724.142 23.8453 -15.8047
  323 1048.56 29.2837 71.7485
  324 1048.56 29.2837 71.7485
  325 568.376 14.0438 13.9820
  326 568.376 14.0438 13.9820
  327 559.871 18.6045 7.31461
  328 559.871 18.6045 7.31461
  329 433.507 -83.4977 -250.962
  330 433.507 -83.4977 -250.962
  331 580.482 1.42662 3.66290
  332 580.482 1.42662 3.66290
  333 569.057 11.7309 3.75938
  334 569.057 11.7309 3.75938
  335 549.124 24.1951 0.840946
  336 549.124 24.1951 0.840946
  337 285.431 -100.220 200.484
  338 285.431 -100.220 200.484
  339 704.866 46.5388 2.80961
  340 704.866 46.5388 2.80961
  341 40.1326 -295.986 -73.3081
  342 40.1326 -295.986 -73.3081
  343 444.730 28.0183 28.3668
  344 444.730 28.0183 28.3668
  345 993.088 13.1272 9.58591
  346 993.088 13.1272 9.58591
  347 1037.47 53.5381 -74.3446
  348 1037.47 53.5381 -74.3446
  349 496.906 -57.7997 142.996
  350 518.649 -29.6204 105.189
  351 496.906 -57.7997 142.996
  352 518.649 -29.6204 105.189
  353 1007.59 24.5275 37.0573
  354 1007.59 24.5275 37.0573
  355 587.692 -0.977372 39.8042
  356 587.692 -0.977372 39.8042
  357 689.841 -93.3116 -104.179
  358 689.841 -93.3116 -104.179
  359 660.780 -5.54038 17.5981
  360 660.780 -5.54038 17.5981
  361 442.160 -84.1512 273.601
  362 442.160 -84.1512 273.601
  363 769.827 61.6727 -1.95949
  364 769.827 61.6727 -1.95949
  365 1005.47 8.84454 -7.67626
  366 1005.47 8.84454 -7.67626
  367 623.628 0.125606 -19.3400
  368 623.628 0.125606 -19.3400
  369 559.857 19.8008 -8.76910
  370 559.857 19.8008 -8.76910
  371 855.178 66.6582 24.4481
  372 855.178 66.6582 24.4481
  373 663.217 28.0214 -3.85428
  374 663.217 28.0214 -3.85428
  375 601.815 2.18104 -12.1486
  376 601.815 2.18104 -12.1486
  377 167.914 -79.7897 -115.895
  378 167.914 -79.7897 -115.895
  379 664.497 -12.0649 4.02962
  380 664.497 -12.0649 4.02962
  381 571.002 -1.06231 -47.0996
  382 571.002 -1.06231 -47.0996
  383 656.890 -1.20660 -21.1389
  384 656.890 -1.20660 -21.1389
  385 1010.97 17.5460 -30.5476
  386 1010.97 17.5460 -30.5476
  387 573.073 8.64534 5.49804
  388 573.073 8.64534 5.49804
  389 697.421 34.7606 16.7702
  390 697.421 34.7606 16.7702
  391 747.386 -14.3262 12.1170
  392 747.386 -14.3262 12.1170
  393 575.063 10.1823 -12.3513
  394 575.063 10.1823 -12.3513
  395 1068.92 108.165 -141.901
  396 1068.92 108.165 -141.901
  397 655.189 -9.77600 -7.40218
  398 655.189 -9.77600 -7.40218
</Section>

newXOutput 173

<Section columns = "stress_xx | stress_yy | stress_xy">
  1 579.058 0.570243 -0.612392
  2 579.324 0.701356 0.825108
  3 579.058 0.570243 -0.612392
  4 579.324 0.701356 0.825108
  5 870.484 73.8763 256.308
  6 903.246 72.8093 -252.294
  7 870.484 73.8763 256.308
  8 903.246 72.8093 -252.294
  9 580.407 0.396449 -1.61206
  10 584.868 0.694809 -2.87684
  11 591.359 1.56087 -5.87394
  12 606.348 0.563278 -7.94922
  13 625.821 0.882984 -13.2083
  14 648.937 -5.98762 -13.3107
  15 670.759 -7.11188 -2.02633
  16 662.631 -4.78960 10.0908
  17 640.354 5.26616 18.2994
  18 628.121 12.5873 -0.720255
  19 636.902 5.99907 -17.2519
  20 662.085 -7.14988 -12.2725
  21 664.841 -8.64653 5.06666
  22 652.249 -3.93944 11.5164
  23 621.864 0.0626699 13.3297
  24 605.075 2.20304 10.0872
  25 591.771 1.79204 5.63884
  26 584.996 0.559763 2.63367
  27 580.731 0.470544 1.55992
  28 580.107 2.04298 0.962523
  29 579.155 4.17433 1.12562
  30 576.808 7.22823 1.00525
  31 575.873 8.39636 -0.0970936
  32 577.062 6.86141 -1.20209
  33 578.736 4.55122 -1.01481
  34 579.468 2.32163 -1.08393
  35 580.407 0.396449 -1.61206
  36 584.868 0.694809 -2.87684
  37 591.359 1.56087 -5.87394
  38 606.348 0.563278 -7.94922
  39 625.821 0.882984 -13.2083
  40 648.937 -5.98762 -13.3107
  41 670.759 -7.11188 -2.02633
  42 662.631 -4.78960 10.0908
  43 640.354 5.26616 18.2994
  44 628.121 12.5873 -0.720255
  45 636.902 5.99907 -17.2519
  46 662.085 -7.14988 -12.2725
  47 664.841 -8.64653 5.06666
  48 652.249 -3.93944 11.5164
  49 621.864 0.0626699 13.3297
  50 605.075 2.20304 10.0872
  51 591.771 1.79204 5.63884
  52 584.996 0.559763 2.63367
  53 580.731 0.470544 1.55992
  54 580.107 2.04298 0.962523
  55 579.155 4.17433 1.12562
  56 576.808 7.22823 1.00525
  57 575.873 8.39636 -0.0970936
  58 577.062 6.86141 -1.20209
  59 578.736 4.55122 -1.01481
  60 579.468 2.32163 -1.08393
  61 1197.98 65.0054 127.714
  62 1094.95 17.6858 44.3715
  63 1035.16 7.04047 16.1294
  64 1022.27 5.17582 3.01480
  65 1034.53 6.94393 -13.7379
  66 1080.49 15.0860 -38.2852
  67 1209.32 56.5058 -109.995
  68 163.379 -167.069 -214.330
  69 32.4071 -423.183 -58.6780
  70 8.01807 -489.915 -25.5963
  71 7.71443 -482.002 -11.8876
  72 14.1849 -466.690 27.4498
  73 35.4834 -409.982 62.2959
  74 176.128 -154.603 237.012
  75 1197.98 65.0054 127.714
  76 1094.95 17.6858 44.3715
  77 1035.16 7.04047 16.1294
  78 1022.27 5.17582 3.01480
  79 1034.53 6.94393 -13.7379
  80 1080.49 15.0860 -38.2852
  81 1209.32 56.5058 -109.995
  82 163.379 -167.069 -214.330
  83 32.4071 -423.183 -58.6780
  84 8.01807 -489.915 -25.5963
  85 7.71443 -482.002 -11.8876
  86 14.1849 -466.690 27.4498
  87 35.4834 -409.982 62.2959
  88 176.128 -154.603 237.012
  89 534.702 30.1761 -7.77512
  90 534.702 30.1761 -7.77512
  91 488.788 6.89506 71.3025
  92 469.910 -2.74924 -85.4485
  93 488.788 6.89506 71.3025
  94 469.910 -2.74924 -85.4485
  95 281.143 8.52502 34.7378
  96 281.143 8.52502 34.7378
  97 712.804 46.3529 -9.41337
  98 724.525 27.4739 18.1728
  99 712.804 46.3529 -9.41337
  100 724.525 27.4739 18.1728
  101 571.530 13.5262 7.59906
  102 571.530 13.5262 7.59906
  103 679.373 -38.7001 3.71462
  104 679.373 -38.7001 3.71462
  105 572.160 14.1548 -9.38820
  106 572.160 14.1548 -9.38820
  107 665.818 -82.9032 -77.8575
  108 665.818 -82.9032 -77.8575
  109 469.065 -98.4765 191.613
  110 469.065 -98.4765 191.613
  111 320.204 -56.9741 -155.241
  112 320.204 -56.9741 -155.241
  113 574.195 9.40619 33.3702
  114 574.195 9.40619 33.3702
  115 594.158 3.78450 -32.0403
  116 594.158 3.78450 -32.0403
  117 800.787 55.8084 12.9724
  118 855.657 54.8384 5.70793
  119 800.787 55.8084 12.9724
  120 855.657 54.8384 5.70793
  121 838.983 72.0227 -25.8076
  122 838.983 72.0227 -25.8076
  123 94.5670 -150.457 -52.6210
  124 94.5670 -150.457 -52.6210
  125 720.843 -88.7323 86.2867
  126 720.843 -88.7323 86.2867
  127 613.453 -15.0217 38.5607
  128 613.453 -15.0217 38.5607
  129 143.865 -129.557 120.015
  130 143.865 -129.557 120.015
  131 572.300 11.2736 -0.473794
  132 572.300 11.2736 -0.473794
  133 612.245 -28.8266 -49.4742
  134 612.245 -28.8266 -49.4742
  135 580.679 4.62625 5.45510
  136 580.679 4.62625 5.45510
  137 581.129 4.07573 -5.08294
  138 581.129 4.07573 -5.08294
  139 587.211 7.88695 -16.5168
  140 587.211 7.88695 -16.5168
  141 584.683 7.69985 14.8387
  142 584.683 7.69985 14.8387
  143 561.471 18.8770 -0.614995
  144 561.471 18.8770 -0.614995
  145 472.778 31.1227 -3.66648
  146 472.778 31.1227 -3.66648
  147 676.694 -24.0104 7.85140
  148 676.694 -24.0104 7.85140
  149 768.484 -23.9022 -36.3299
  150 768.484 -23.9022 -36.3299
  151 597.298 -67.2157 95.1259
  152 597.298 -67.2157 95.1259
  153 450.796 -121.285 -217.789
  154 450.796 -121.285 -217.789
  155 535.575 21.7283 31.8795
  156 535.575 21.7283 31.8795
  157 688.846 -3.67616 -22.0635
  158 688.846 -3.67616 -22.0635
  159 929.199 75.4093 56.4495
  160 929.199 75.4093 56.4495
  161 469.091 -130.857 250.875
  162 469.091 -130.857 250.875
  163 946.454 30.5203 -11.0568
  164 946.454 30.5203 -11.0568
  165 559.292 18.8437 14.6082
  166 559.292 18.8437 14.6082
  167 532.169 17.9952 -46.8762
  168 532.169 17.9952 -46.8762
  169 657.757 20.3169 13.9320
  170 657.757 20.3169 13.9320
  171 554.332 22.5328 -16.6390
  172 554.332 22.5328 -16.6390
  173 575.528 9.05412 2.38617
  174 575.528 9.05412 2.38617
  175 584.347 4.39484 -8.70651
  176 584.347 4.39484 -8.70651
  177 892.251 74.1724 -58.6658
  178 892.251 74.1724 -58.6658
  179 575.944 8.81882 -2.87764
  180 575.944 8.81882 -2.87764
  181 429.674 31.4651 -24.5886
  182 429.674 31.4651 -24.5886
  183 762.664 57.0002 2.00968
  184 762.664 57.0002 2.00968
  185 157.158 -127.231 -154.493
  186 157.158 -127.231 -154.493
  187 422.137 -4.16752 104.371
  188 422.137 -4.16752 104.371
  189 557.244 -90.7885 -148.458
  190 557.244 -90.7885 -148.458
  191 657.975 -18.3197 9.36067
  192 657.975 -18.3197 9.36067
  193 616.372 -2.27743 23.4111
  194 616.372 -2.27743 23.4111
  195 830.677 28.6432 56.3747
  196 830.677 28.6432 56.3747
  197 354.165 11.9587 -64.7050
  198 354.165 11.9587 -64.7050
  199 939.438 41.3760 25.6385
  200 939.438 41.3760 25.6385
  201 627.567 -7.92667 -24.9871
  202 627.567 -7.92667 -24.9871
  203 585.214 3.13189 8.02242
  204 585.214 3.13189 8.02242
  205 652.787 -25.9054 -14.1436
  206 652.787 -25.9054 -14.1436
  207 712.193 -35.1297 -8.53996
  208 712.193 -35.1297 -8.53996
  209 44.9438 -265.987 23.6376
  210 44.9438 -265.987 23.6376
  211 602.635 2.97990 -20.3887
  212 602.635 2.97990 -20.3887
  213 597.825 4.57293 17.7448
  214 597.825 4.57293 17.7448
  215 574.880 -53.1578 -94.0693
  216 574.880 -53.1578 -94.0693
  217 670.862 -14.2623 -13.3105
  218 670.862 -14.2623 -13.3105
  219 552.263 19.6785 -31.8409
  220 552.263 19.6785 -31.8409
  221 152.178 -186.447 170.407
  222 152.178 -186.447 170.407
  223 680.732 3.69008 21.1324
  224 680.732 3.69008 21.1324
  225 663.133 17.2992 -18.2937
  226 663.133 17.2992 -18.2937
  227 929.980 55.4155 -44.5319
  228 929.980 55.4155 -44.5319
  229 714.859 -25.7179 -7.93557
  230 714.859 -25.7179 -7.93557
  231 775.065 -29.1524 -145.574
  232 775.065 -29.1524 -145.574
  233 577.269 -26.1548 71.9750
  234 577.269 -26.1548 71.9750
  235 567.319 15.7398 2.45103
  236 567.319 15.7398 2.45103
  237 304.167 -43.7639 137.263
  238 304.167 -43.7639 137.263
  239 741.679 -59.9078 168.820
  240 741.679 -59.9078 168.820
  241 208.684 -24.7937 -68.2311
  242 208.684 -24.7937 -68.2311
  243 665.463 -50.3344 -34.3490
  244 665.463 -50.3344 -34.3490
  245 547.188 24.3594 18.3109
  246 547.188 24.3594 18.3109
  247 18.9938 -348.500 -19.5098
  248 18.9938 -348.500 -19.5098
  249 37.5022 -304.163 64.3789
  250 37.5022 -304.163 64.3789
  251 556.199 3.79619 51.3423
  252 556.199 3.79619 51.3423
  253 580.053 2.17745 1.96252
  254 580.053 2.17745 1.96252
  255 575.486 9.10781 0.376644
  256 575.486 9.10781 0.376644
  257 540.768 -6.73458 -68.5713
  258 540.768 -6.73458 -68.5713
  259 580.358 1.98880 -2.07926
  260 580.358 1.98880 -2.07926
  261 639.498 -45.3898 44.4096
  262 639.498 -45.3898 44.4096
  263 594.939 2.03987 -9.77395
  264 594.939 2.03987 -9.77395
  265 463.156 -39.2780 -128.473
  266 463.156 -39.2780 -128.473
  267 781.953 60.4947 0.146519
  268 781.953 60.4947 0.146519
  269 574.735 12.5176 -25.7629
  270 574.735 12.5176 -25.7629
  271 572.674 11.7078 -5.05170
  272 572.674 11.7078 -5.05170
  273 489.541 23.7133 -46.9694
  274 489.541 23.7133 -46.9694
  275 151.365 -54.9664 39.7170
  276 151.365 -54.9664 39.7170
  277 609.719 -102.265 132.786
  278 609.719 -102.265 132.786
  279 578.433 8.45106 9.89684
  280 578.433 8.45106 9.89684
  281 849.989 59.8054 -14.6210
  282 849.989 59.8054 -14.6210
  283 1006.26 91.9354 123.706
  284 1006.26 91.9354 123.706
  285 684.091 -72.9026 45.7371
  286 684.091 -72.9026 45.7371
  287 499.095 24.8205 34.3215
  288 499.095 24.8205 34.3215
  289 625.435 -125.644 175.489
  290 625.435 -125.644 175.489
  291 647.188 -7.80335 16.3141
  292 647.188 -7.80335 16.3141
  293 578.078 5.56237 2.69314
  294 578.078 5.56237 2.69314
  295 570.366 15.3940 -16.2979
  296 570.366 15.3940 -16.2979
  297 575.617 8.96346 -0.739934
  298 575.617 8.96346 -0.739934
  299 583.305 1.58720 -3.76297
  300 583.305 1.58720 -3.76297
  301 594.466 2.87556 9.81110
  302 594.466 2.87556 9.81110
  303 567.458 15.6589 -4.16468
  304 567.458 15.6589 -4.16468
  305 130.335 -217.207 -162.694
  306 130.335 -217.207 -162.694
  307 393.967 25.9358 32.2243
  308 393.967 25.9358 32.2243
  309 578.652 4.64831 -2.58391
  310 578.652 4.64831 -2.58391
  311 512.699 29.2488 -22.9606
  312 512.699 29.2488 -22.9606
  313 514.037 31.8858 8.71410
  314 514.037 31.8858 8.71410
  315 577.535 8.12625 -6.99461
  316 577.535 8.12625 -6.99461
  317 769.299 42.5621 -7.28576
  318 769.299 42.5621 -7.28576
  319 573.476 13.6394 22.4922
  320 573.476 13.6394 22.4922
  321 728.046 23.9907 -15.8396
  322 728.046 23.9907 -15.8396
  323 1053.94 29.4277 72.1324
  324 1053.94 29.4277 72.1324
  325 571.484 14.1168 14.0513
  326 571.484 14.1168 14.0513
  327 562.940 18.7015 7.35088
  328 562.940 18.7015 7.35088
  329 435.801 -83.7888 -252.450
  330 435.801 -83.7888 -252.450
  331 583.644 1.43404 3.68018
  332 583.644 1.43404 3.68018
  333 572.168 11.7914 3.77753
  334 572.168 11.7914 3.77753
  335 552.142 24.3224 0.845165
  336 552.142 24.3224 0.845165
  337 287.015 -100.766 201.656
  338 287.015 -100.766 201.656
  339 708.700 46.7977 2.81629
  340 708.700 46.7977 2.81629
  341 40.3452 -297.612 -73.7807
  342 40.3452 -297.612 -73.7807
  343 447.218 28.1743 28.5186
  344 447.218 28.1743 28.5186
  345 998.203 13.1888 9.63250
  346 998.203 13.1888 9.63250
  347 1042.82 53.8279 -74.7480
  348 1042.82 53.8279 -74.7480
  349 499.616 -58.1211 143.792
  350 521.486 -29.7834 105.764
  351 499.616 -58.1211 143.792
  352 521.486 -29.7834 105.764
  353 1012.78 24.6454 37.2491
  354 1012.78 24.6454 37.2491
  355 590.891 -0.984922 40.0164
  356 590.891 -0.984922 40.0164
  357 693.506 -93.8105 -104.798
  358 693.506 -93.8105 -104.798
  359 664.369 -5.56803 17.6705
  360 664.369 -5.56803 17.6705
  361 444.480 -84.4556 275.208
  362 444.480 -84.4556 275.208
  363 773.976 62.0045 -1.96840
  364 773.976 62.0045 -1.96840
  365 1010.63 8.88540 -7.71510
  366 1010.63 8.88540 -7.71510
  367 626.995 0.123610 -19.4413
  368 626.995 0.123610 -19.4413
  369 562.926 19.9043 -8.81277
  370 562.926 19.9043 -8.81277
  371 859.721 67.0164 24.6137
  372 859.721 67.0164 24.6137
  373 666.846 28.1795 -3.87025
  374 666.846 28.1795 -3.87025
  375 605.075 2.19129 -12.2090
  376 605.075 2.19129 -12.2090
  377 168.885 -80.2010 -116.583
  378 168.885 -80.2010 -116.583
  379 668.085 -12.1316 4.03453
  380 668.085 -12.1316 4.03453
  381 574.118 -1.07037 -47.3527
  382 574.118 -1.07037 -47.3527
  383 660.469 -1.21086 -21.2277
  384 660.469 -1.21086 -21.2277
  385 1016.18 17.6321 -30.7038
  386 1016.18 17.6321 -30.7038
  387 576.202 8.68984 5.52440
  388 576.202 8.68984 5.52440
  389 701.207 34.9599 16.8282
  390 701.207 34.9599 16.8282
  391 751.375 -14.3763 12.2506
  392 751.375 -14.3763 12.2506
  393 578.201 10.2350 -12.4117
  394 578.201 10.2350 -12.4117
  395 1074.40 108.834 -142.711
  396 1074.40 108.834 -142.711
  397 658.718 -9.83214 -7.44995
  398 658.718 -9.83214 -7.44995
</Section>

newXOutput 174

<Section columns = "stress_xx | stress_yy | stress_xy">
  1 582.197 0.573416 -0.615177
  2 582.464 0.705170 0.828850
  3 582.197 0.573416 -0.615177
  4 582.464 0.705170 0.828850
  5 874.906 74.4822 257.772
  6 907.817 73.4174 -253.736
  7 874.906 74.4822 257.772
  8 907.817 73.4174 -253.736
  9 583.552 0.398575 -1.61946
  10 588.032 0.698435 -2.89023
  11 594.552 1.56880 -5.90180
  12 609.610 0.565840 -7.98775
  13 629.176 0.886237 -13.2750
  14 652.406 -6.02276 -13.3823
  15 674.344 -7.15221 -2.04403
  16 666.204 -4.81540 10.1305
  17 643.845 5.29878 18.3792
  18 631.567 12.6602 -0.723486
  19 640.378 6.03331 -17.3283
  20 665.656 -7.18879 -12.3203
  21 668.398 -8.69571 5.10201
  22 655.734 -3.96234 11.5790
  23 625.202 0.0610166 13.3977
  24 608.332 2.21379 10.1365
  25 594.966 1.80116 5.66549
  26 588.161 0.562703 2.64590
  27 583.878 0.473093 1.56713
  28 583.251 2.05359 0.966868
  29 582.295 4.19575 1.13080
  30 579.938 7.26494 1.00994
  31 578.998 8.43887 -0.0975403
  32 580.193 6.89631 -1.20764
  33 581.873 4.57458 -1.01935
  34 582.608 2.33376 -1.08893
  35 583.552 0.398575 -1.61946
  36 588.032 0.698435 -2.89023
  37 594.552 1.56880 -5.90180
  38 609.610 0.565840 -7.98775
  39 629.176 0.886237 -13.2750
  40 652.406 -6.02276 -13.3823
  41 674.344 -7.15221 -2.04403
  42 666.204 -4.81540 10.1305
  43 643.845 5.29878 18.3792
  44 631.567 12.6602 -0.723486
  45 640.378 6.03331 -17.3283
  46 665.656 -7.18879 -12.3203
  47 668.398 -8.69571 5.10201
  48 655.734 -3.96234 11.5790
  49 625.202 0.0610166 13.3977
  50 608.332 2.21379 10.1365
  51 594.966 1.80116 5.66549
  52 588.161 0.562703 2.64590
  53 583.878 0.473093 1.56713
  54 583.251 2.05359 0.966868
  55 582.295 4.19575 1.13080
  56 579.938 7.26494 1.00994
  57 578.998 8.43887 -0.0975403
  58 580.193 6.89631 -1.20764
  59 581.873 4.57458 -1.01935
  60 582.608 2.33376 -1.08893
  61 1203.97 65.3665 128.381
  62 1100.46 17.7719 44.5922
  63 1040.40 7.06994 16.2061
  64 1027.46 5.19876 3.02710
  65 1039.78 6.97595 -13.8028
  66 1085.94 15.1583 -38.4725
  67 1215.37 56.8186 -110.570
  68 164.239 -167.760 -215.620
  69 32.5794 -425.511 -59.0837
  70 8.04472 -492.727 -25.7732
  71 7.74100 -484.781 -11.9556
  72 14.2502 -469.351 27.6404
  73 35.6764 -412.236 62.7287
  74 177.041 -155.227 238.431
  75 1203.97 65.3665 128.381
  76 1100.46 17.7719 44.5922
  77 1040.40 7.06994 16.2061
  78 1027.46 5.19876 3.02710
  79 1039.78 6.97595 -13.8028
  80 1085.94 15.1583 -38.4725
  81 1215.37 56.8186 -110.570
  82 164.239 -167.760 -215.620
  83 32.5794 -425.511 -59.0837
  84 8.04472 -492.727 -25.7732
  85 7.74100 -484.781 -11.9556
  86 14.2502 -469.351 27.6404
  87 35.6764 -412.236 62.7287
  88 177.041 -155.227 238.431
  89 537.632 30.3358 -7.81523
  90 537.632 30.3358 -7.81523
  91 491.475 6.93435 71.6851
  92 472.496 -2.76232 -85.9119
  93 491.475 6.93435 71.6851
  94 472.496 -2.76232 -85.9119
  95 282.746 8.59060 34.9314
  96 282.746 8.59060 34.9314
  97 716.652 46.6098 -9.44301
  98 728.411 27.6389 18.2189
  99 716.652 46.6098 -9.44301
  100 728.411 27.6389 18.2189
  101 574.636 13.5957 7.63587
  102 574.636 13.5957 7.63587
  103 683.009 -38.9080 3.77218
  104 683.009 -38.9080 3.77218
  105 575.269 14.2278 -9.43385
  106 575.269 14.2278 -9.43385
  107 669.359 -83.3547 -78.3103
  108 669.359 -83.3547 -78.3103
  109 471.601 -99.0213 192.692
  110 471.601 -99.0213 192.692
  111 321.978 -57.2794 -156.125
  112 321.978 -57.2794 -156.125
  113 577.311 9.45403 33.5428
  114 577.311 9.45403 33.5428
  115 597.370 3.80166 -32.2078
  116 597.370 3.80166 -32.2078
  117 805.043 56.1323 13.1065
  118 860.174 55.1202 5.74822
  119 805.043 56.1323 13.1065
  120 860.174 55.1202 5.74822
  121 843.428 72.4211 -25.9940
  122 843.428 72.4211 -25.9940
  123 95.1031 -151.246 -52.9444
  124 95.1031 -151.246 -52.9444
  125 724.645 -89.1895 86.8151
  126 724.645 -89.1895 86.8151
  127 616.758 -15.1058 38.7733
  128 616.758 -15.1058 38.7733
  129 144.678 -130.231 120.740
  130 144.678 -130.231 120.740
  131 575.410 11.3312 -0.475996
  132 575.410 11.3312 -0.475996
  133 615.540 -28.9858 -49.7511
  134 615.540 -28.9858 -49.7511
  135 583.825 4.65004 5.48086
  136 583.825 4.65004 5.48086
  137 584.277 4.09678 -5.10685
  138 584.277 4.09678 -5.10685
  139 590.388 7.92698 -16.5986
  140 590.388 7.92698 -16.5986
  141 587.849 7.73917 14.9116
  142 587.849 7.73917 14.9116
  143 564.531 18.9748 -0.618171
  144 564.531 18.9748 -0.618171
  145 475.398 31.2918 -3.68639
  146 475.398 31.2918 -3.68639
  147 680.325 -24.1376 7.86083
  148 680.325 -24.1376 7.86083
  149 772.544 -23.9885 -36.6039
  150 772.544 -23.9885 -36.6039
  151 600.503 -67.5853 95.6566
  152 600.503 -67.5853 95.6566
  153 453.208 -121.927 -219.051
  154 453.208 -121.927 -219.051
  155 538.506 21.8442 32.0456
  156 538.506 21.8442 32.0456
  157 692.547 -3.68867 -22.1414
  158 692.547 -3.68867 -22.1414
  159 934.048 75.8242 56.7877
  160 934.048 75.8242 56.7877
  161 471.596 -131.562 252.312
  162 471.596 -131.562 252.312
  163 951.358 30.6684 -11.1170
  164 951.358 30.6684 -11.1170
  165 562.341 18.9416 14.6812
  166 562.341 18.9416 14.6812
  167 535.080 18.0916 -47.1238
  168 535.080 18.0916 -47.1238
  169 661.337 20.4340 13.9913
  170 661.337 20.4340 13.9913
  171 557.357 22.6506 -16.7230
  172 557.357 22.6506 -16.7230
  173 578.652 9.10026 2.39745
  174 578.652 9.10026 2.39745
  175 587.510 4.41726 -8.74823
  176 587.510 4.41726 -8.74823
  177 896.922 74.6153 -59.0504
  178 896.922 74.6153 -59.0504
  179 579.069 8.86386 -2.89119
  180 579.069 8.86386 -2.89119
  181 432.070 31.6411 -24.7212
  182 432.070 31.6411 -24.7212
  183 766.749 57.3143 1.98426
  184 766.749 57.3143 1.98426
  185 158.036 -127.893 -155.422
  186 158.036 -127.893 -155.422
  187 424.472 -4.18577 104.942
  188 424.472 -4.18577 104.942
  189 560.233 -91.2887 -149.293
  190 560.233 -91.2887 -149.293
  191 661.505 -18.4214 9.42801
  192 661.505 -18.4214 9.42801
  193 619.688 -2.29249 23.5346
  194 619.688 -2.29249 23.5346
  195 835.044 28.8529 56.7612
  196 835.044 28.8529 56.7612
  197 356.153 12.0351 -65.0622
  198 356.153 12.0351 -65.0622
  199 944.320 41.5829 25.7821
  200 944.320 41.5829 25.7821
  201 630.940 -7.97265 -25.1245
  202 630.940 -7.97265 -25.1245
  203 588.381 3.14777 8.06076
  204 588.381 3.14777 8.06076
  205 656.289 -26.0495 -14.2384
  206 656.289 -26.0495 -14.2384
  207 715.989 -35.3071 -8.63833
  208 715.989 -35.3071 -8.63833
  209 45.1913 -267.445 23.7892
  210 45.1913 -267.445 23.7892
  211 605.884 2.99317 -20.4924
  212 605.884 2.99317 -20.4924
  213 601.051 4.59567 17.8340
  214 601.051 4.59567 17.8340
  215 577.979 -53.4500 -94.5912
  216 577.979 -53.4500 -94.5912
  217 674.469 -14.3394 -13.3537
  218 674.469 -14.3394 -13.3537
  219 555.275 19.7823 -32.0063
  220 555.275 19.7823 -32.0063
  221 153.006 -187.410 171.446
  222 153.006 -187.410 171.446
  223 684.404 3.71919 21.2114
  224 684.404 3.71919 21.2114
  225 666.735 17.3997 -18.3689
  226 666.735 17.3997 -18.3689
  227 934.827 55.7030 -44.7906
  228 934.827 55.7030 -44.7906
  229 718.671 -25.8436 -7.92477
  230 718.671 -25.8436 -7.92477
  231 779.116 -29.2224 -146.453
  232 779.116 -29.2224 -146.453
  233 580.388 -26.2981 72.3668
  234 580.388 -26.2981 72.3668
  235 570.406 15.8209 2.46299
  236 570.406 15.8209 2.46299
  237 305.863 -43.9938 138.042
  238 305.863 -43.9938 138.042
  239 745.555 -60.1604 169.821
  240 745.555 -60.1604 169.821
  241 209.878 -24.9022 -68.6233
  242 209.878 -24.9022 -68.6233
  243 669.018 -50.6090 -34.5630
  244 669.018 -50.6090 -34.5630
  245 550.178 24.4877 18.4045
  246 550.178 24.4877 18.4045
  247 19.0884 -350.444 -19.6391
  248 19.0884 -350.444 -19.6391
  249 37.7039 -305.826 64.8008
  250 37.7039 -305.826 64.8008
  251 559.224 3.81568 51.6148
  252 559.224 3.81568 51.6148
  253 583.197 2.18876 1.97161
  254 583.197 2.18876 1.97161
  255 578.609 9.15403 0.378441
  256 578.609 9.15403 0.378441
  257 543.713 -6.77211 -68.9408
  258 543.713 -6.77211 -68.9408
  259 583.502 1.99922 -2.08889
  260 583.502 1.99922 -2.08889
  261 642.925 -45.6385 44.6688
  262 642.925 -45.6385 44.6688
  263 598.150 2.04993 -9.82121
  264 598.150 2.04993 -9.82121
  265 465.688 -39.4938 -129.182
  266 465.688 -39.4938 -129.182
  267 786.130 60.8251 0.183251
  268 786.130 60.8251 0.183251
  269 577.855 12.5819 -25.8939
  270 577.855 12.5819 -25.8939
  271 575.785 11.7678 -5.07585
  272 575.785 11.7678 -5.07585
  273 492.241 23.8429 -47.2195
  274 492.241 23.8429 -47.2195
  275 152.237 -55.2284 39.9513
  276 152.237 -55.2284 39.9513
  277 612.969 -102.827 133.538
  278 612.969 -102.827 133.538
  279 581.569 8.49442 9.94453
  280 581.569 8.49442 9.94453
  281 854.483 60.1171 -14.7165
  282 854.483 60.1171 -14.7165
  283 1011.43 92.4921 124.417
  284 1011.43 92.4921 124.417
  285 687.730 -73.2941 46.0268
  286 687.730 -73.2941 46.0268
  287 501.845 24.9550 34.5021
  288 501.845 24.9550 34.5021
  289 628.744 -126.327 176.488
  290 628.744 -126.327 176.488
  291 650.656 -7.84806 16.4062
  292 650.656 -7.84806 16.4062
  293 581.213 5.59081 2.70575
  294 581.213 5.59081 2.70575
  295 573.466 15.4736 -16.3786
  296 573.466 15.4736 -16.3786
  297 578.741 9.00897 -0.743401
  298 578.741 9.00897 -0.743401
  299 586.462 1.59541 -3.78060
  300 586.462 1.59541 -3.78060
  301 597.675 2.88997 9.85852
  302 597.675 2.88997 9.85852
  303 570.546 15.7396 -4.18496
  304 570.546 15.7396 -4.18496
  305 131.039 -218.323 -163.695
  306 131.039 -218.323 -163.695
  307 396.173 26.0848 32.3986
  308 396.173 26.0848 32.3986
  309 581.789 4.67218 -2.59595
  310 581.789 4.67218 -2.59595
  311 515.520 29.4054 -23.0809
  312 515.520 29.4054 -23.0809
  313 516.865 32.0564 8.75916
  314 516.865 32.0564 8.75916
  315 580.668 8.16793 -7.02801
  316 580.668 8.16793 -7.02801
  317 773.396 42.8202 -7.39114
  318 773.396 42.8202 -7.39114
  319 576.590 13.7099 22.6052
  320 576.590 13.7099 22.6052
  321 731.947 24.1362 -15.8739
  322 731.947 24.1362 -15.8739
  323 1059.32 29.5714 72.5158
  324 1059.32 29.5714 72.5158
  325 574.589 14.1897 14.1205
  326 574.589 14.1897 14.1205
  327 566.007 18.7983 7.38708
  328 566.007 18.7983 7.38708
  329 438.091 -84.0777 -253.937
  330 438.091 -84.0777 -253.937
  331 586.803 1.44144 3.69742
  332 586.803 1.44144 3.69742
  333 575.277 11.8518 3.79563
  334 575.277 11.8518 3.79563
  335 555.158 24.4496 0.849377
  336 555.158 24.4496 0.849377
  337 288.598 -101.312 202.828
  338 288.598 -101.312 202.828
  339 712.530 47.0564 2.82287
  340 712.530 47.0564 2.82287
  341 40.5575 -299.237 -74.2539
  342 40.5575 -299.237 -74.2539
  343 449.706 28.3303 28.6702
  344 449.706 28.3303 28.6702
  345 1003.31 13.2502 9.67899
  346 1003.31 13.2502 9.67899
  347 1048.16 54.1174 -75.1510
  348 1048.16 54.1174 -75.1510
  349 502.325 -58.4422 144.587
  350 524.321 -29.9464 106.339
  351 502.325 -58.4422 144.587
  352 524.321 -29.9464 106.339
  353 1017.97 24.7631 37.4407
  354 1017.97 24.7631 37.4407
  355 594.086 -0.992489 40.2284
  356 594.086 -0.992489 40.2284
  357 697.167 -94.3088 -105.416
  358 697.167 -94.3088 -105.416
  359 667.955 -5.59564 17.7426
  360 667.955 -5.59564 17.7426
  361 446.797 -84.7580 276.815
  362 446.797 -84.7580 276.815
  363 778.120 62.3359 -1.97729
  364 778.120 62.3359 -1.97729
  365 1015.79 8.92616 -7.75387
  366 1015.79 8.92616 -7.75387
  367 630.360 0.121586 -19.5424
  368 630.360 0.121586 -19.5424
  369 565.992 20.0076 -8.85636
  370 565.992 20.0076 -8.85636
  371 864.259 67.3744 24.7795
  372 864.259 67.3744 24.7795
  373 670.473 28.3375 -3.88615
  374 670.473 28.3375 -3.88615
  375 608.333 2.20152 -12.2693
  376 608.333 2.20152 -12.2693
  377 169.855 -80.6117 -117.272
  378 169.855 -80.6117 -117.272
  379 671.670 -12.1983 4.03926
  380 671.670 -12.1983 4.03926
  381 577.231 -1.07845 -47.6056
  382 577.231 -1.07845 -47.6056
  383 664.044 -1.21509 -21.3162
  384 664.044 -1.21509 -21.3162
  385 1021.37 17.7182 -30.8598
  386 1021.37 17.7182 -30.8598
  387 579.329 8.73427 5.55069
  388 579.329 8.73427 5.55069
  389 704.990 35.1592 16.8858
  390 704.990 35.1592 16.8858
  391 755.359 -14.4260 12.3849
  392 755.359 -14.4260 12.3849
  393 581.336 10.2876 -12.4720
  394 581.336 10.2876 -12.4720
  395 1079.87 109.503 -143.520
  396 1079.87 109.503 -143.520
  397 662.244 -9.88827 -7.49776
  398 662.244 -9.88827 -7.49776
</Section>

newXOutput 175

<Section columns = "stress_xx | stress_yy | stress_xy">
  1 585.333 0.576587 -0.617953
  2 585.602 0.708980 0.832581
  3 585.333 0.576587 -0.617953
  4 585.602 0.708980 0.832581
  5 879.321 75.0899 259.235
  6 912.381 74.0273 -255.178
  7 879.321 75.0899 259.235
  8 912.381 74.0273 -255.178
  9 586.694 0.400698 -1.62684
  10 591.194 0.702057 -2.90359
  11 597.743 1.57672 -5.92960
  12 612.869 0.568394 -8.02620
  13 632.527 0.889472 -13.3416
  14 655.871 -6.05790 -13.4538
  15 677.926 -7.19252 -2.06178
  16 669.774 -4.84118 10.1699
  17 647.334 5.33142 18.4588
  18 635.010 12.7331 -0.726707
  19 643.852 6.06756 -17.4044
  20 669.225 -7.22768 -12.3678
  21 671.951 -8.74487 5.13742
  22 659.216 -3.98525 11.6416
  23 628.536 0.0593433 13.4657
  24 611.586 2.22453 10.1856
  25 598.159 1.81026 5.69209
  26 591.323 0.565640 2.65810
  27 587.021 0.475640 1.57433
  28 586.391 2.06419 0.971201
  29 585.431 4.21714 1.13597
  30 583.065 7.30159 1.01461
  31 582.121 8.48132 -0.0979859
  32 583.320 6.93117 -1.21318
  33 585.008 4.59791 -1.02388
  34 585.746 2.34588 -1.09391
  35 586.694 0.400698 -1.62684
  36 591.194 0.702057 -2.90359
  37 597.743 1.57672 -5.92960
  38 612.869 0.568394 -8.02620
  39 632.527 0.889472 -13.3416
  40 655.871 -6.05790 -13.4538
  41 677.926 -7.19252 -2.06178
  42 669.774 -4.84118 10.1699
  43 647.334 5.33142 18.4588
  44 635.010 12.7331 -0.726707
  45 643.852 6.06756 -17.4044
  46 669.225 -7.22768 -12.3678
  47 671.951 -8.74487 5.13742
  48 659.216 -3.98525 11.6416
  49 628.536 0.0593433 13.4657
  50 611.586 2.22453 10.1856
  51 598.159 1.81026 5.69209
  52 591.323 0.565640 2.65810
  53 587.021 0.475640 1.57433
  54 586.391 2.06419 0.971201
  55 585.431 4.21714 1.13597
  56 583.065 7.30159 1.01461
  57 582.121 8.48132 -0.0979859
  58 583.320 6.93117 -1.21318
  59 585.008 4.59791 -1.02388
  60 585.746 2.34588 -1.09391
  61 1209.95 65.7273 129.048
  62 1105.97 17.8578 44.8125
  63 1045.65 7.09931 16.2825
  64 1032.64 5.22163 3.03936
  65 1045.01 7.00791 -13.8675
  66 1091.39 15.2304 -38.6596
  67 1221.41 57.1313 -111.144
  68 165.099 -168.447 -216.910
  69 32.7515 -427.838 -59.4902
  70 8.07115 -495.538 -25.9505
  71 7.76736 -487.559 -12.0236
  72 14.3152 -472.011 27.8313
  73 35.8694 -414.488 63.1622
  74 177.953 -155.848 239.851
  75 1209.95 65.7273 129.048
  76 1105.97 17.8578 44.8125
  77 1045.65 7.09931 16.2825
  78 1032.64 5.22163 3.03936
  79 1045.01 7.00791 -13.8675
  80 1091.39 15.2304 -38.6596
  81 1221.41 57.1313 -111.144
  82 165.099 -168.447 -216.910
  83 32.7515 -427.838 -59.4902
  84 8.07115 -495.538 -25.9505
  85 7.76736 -487.559 -12.0236
  86 14.3152 -472.011 27.8313
  87 35.8694 -414.488 63.1622
  88 177.953 -155.848 239.851
  89 540.561 30.4954 -7.85528
  90 540.561 30.4954 -7.85528
  91 494.159 6.97363 72.0673
  92 475.080 -2.77537 -86.3749
  93 494.159 6.97363 72.0673
  94 475.080 -2.77537 -86.3749
  95 284.348 8.65632 35.1250
  96 284.348 8.65632 35.1250
  97 720.497 46.8666 -9.47241
  98 732.294 27.8039 18.2645
  99 720.497 46.8666 -9.47241
  100 732.294 27.8039 18.2645
  101 577.740 13.6652 7.67260
  102 577.740 13.6652 7.67260
  103 686.642 -39.1157 3.83009
  104 686.642 -39.1157 3.83009
  105 578.375 14.3007 -9.47940
  106 578.375 14.3007 -9.47940
  107 672.896 -83.8058 -78.7631
  108 672.896 -83.8058 -78.7631
  109 474.135 -99.5657 193.770
  110 474.135 -99.5657 193.770
  111 323.751 -57.5844 -157.008
  112 323.751 -57.5844 -157.008
  113 580.425 9.50180 33.7151
  114 580.425 9.50180 33.7151
  115 600.578 3.81877 -32.3751
  116 600.578 3.81877 -32.3751
  117 809.295 56.4562 13.2412
  118 864.687 55.4017 5.78857
  119 809.295 56.4562 13.2412
  120 864.687 55.4017 5.78857
  121 847.868 72.8192 -26.1807
  122 847.868 72.8192 -26.1807
  123 95.6392 -152.034 -53.2680
  124 95.6392 -152.034 -53.2680
  125 728.443 -89.6461 87.3438
  126 728.443 -89.6461 87.3438
  127 620.059 -15.1898 38.9857
  128 620.059 -15.1898 38.9857
  129 145.490 -130.905 121.465
  130 145.490 -130.905 121.465
  131 578.517 11.3887 -0.478192
  132 578.517 11.3887 -0.478192
  133 618.832 -29.1450 -50.0278
  134 618.832 -29.1450 -50.0278
  135 586.969 4.67379 5.50657
  136 586.969 4.67379 5.50657
  137 587.422 4.11781 -5.13070
  138 587.422 4.11781 -5.13070
  139 593.562 7.96696 -16.6801
  140 593.562 7.96696 -16.6801
  141 591.012 7.77843 14.9843
  142 591.012 7.77843 14.9843
  143 567.589 19.0724 -0.621343
  144 567.589 19.0724 -0.621343
  145 478.018 31.4608 -3.70628
  146 478.018 31.4608 -3.70628
  147 683.952 -24.2645 7.86990
  148 683.952 -24.2645 7.86990
  149 776.600 -24.0742 -36.8785
  150 776.600 -24.0742 -36.8785
  151 603.706 -67.9548 96.1870
  152 603.706 -67.9548 96.1870
  153 455.618 -122.568 -220.313
  154 455.618 -122.568 -220.313
  155 541.435 21.9599 32.2116
  156 541.435 21.9599 32.2116
  157 696.244 -3.70109 -22.2187
  158 696.244 -3.70109 -22.2187
  159 938.890 76.2389 57.1260
  160 938.890 76.2389 57.1260
  161 474.097 -132.267 253.749
  162 474.097 -132.267 253.749
  163 956.255 30.8162 -11.1771
  164 956.255 30.8162 -11.1771
  165 565.387 19.0394 14.7542
  166 565.387 19.0394 14.7542
  167 537.989 18.1879 -47.3712
  168 537.989 18.1879 -47.3712
  169 664.915 20.5511 14.0504
  170 664.915 20.5511 14.0504
  171 560.380 22.7683 -16.8069
  172 560.380 22.7683 -16.8069
  173 581.774 9.14633 2.40871
  174 581.774 9.14633 2.40871
  175 590.670 4.43965 -8.78985
  176 590.670 4.43965 -8.78985
  177 901.587 75.0583 -59.4354
  178 901.587 75.0583 -59.4354
  179 582.192 8.90884 -2.90470
  180 582.192 8.90884 -2.90470
  181 434.464 31.8169 -24.8536
  182 434.464 31.8169 -24.8536
  183 770.830 57.6281 1.95849
  184 770.830 57.6281 1.95849
  185 158.913 -128.555 -156.350
  186 158.913 -128.555 -156.350
  187 426.805 -4.20396 105.512
  188 426.805 -4.20396 105.512
  189 563.219 -91.7885 -150.128
  190 563.219 -91.7885 -150.128
  191 665.032 -18.5232 9.49548
  192 665.032 -18.5232 9.49548
  193 623.001 -2.30757 23.6579
  194 623.001 -2.30757 23.6579
  195 839.407 29.0631 57.1482
  196 839.407 29.0631 57.1482
  197 358.141 12.1116 -65.4192
  198 358.141 12.1116 -65.4192
  199 949.196 41.7894 25.9257
  200 949.196 41.7894 25.9257
  201 634.309 -8.01863 -25.2617
  202 634.309 -8.01863 -25.2617
  203 591.545 3.16362 8.09902
  204 591.545 3.16362 8.09902
  205 659.787 -26.1934 -14.3333
  206 659.787 -26.1934 -14.3333
  207 719.781 -35.4842 -8.73717
  208 719.781 -35.4842 -8.73717
  209 45.4386 -268.902 23.9410
  210 45.4386 -268.902 23.9410
  211 609.131 3.00641 -20.5960
  212 609.131 3.00641 -20.5960
  213 604.275 4.61837 17.9229
  214 604.275 4.61837 17.9229
  215 581.075 -53.7420 -95.1129
  216 581.075 -53.7420 -95.1129
  217 678.074 -14.4164 -13.3965
  218 678.074 -14.4164 -13.3965
  219 558.285 19.8859 -32.1716
  220 558.285 19.8859 -32.1716
  221 153.833 -188.372 172.485
  222 153.833 -188.372 172.485
  223 688.073 3.74839 21.2899
  224 688.073 3.74839 21.2899
  225 670.334 17.5002 -18.4437
  226 670.334 17.5002 -18.4437
  227 939.669 55.9903 -45.0492
  228 939.669 55.9903 -45.0492
  229 722.480 -25.9692 -7.91341
  230 722.480 -25.9692 -7.91341
  231 783.163 -29.2915 -147.333
  232 783.163 -29.2915 -147.333
  233 583.505 -26.4412 72.7583
  234 583.505 -26.4412 72.7583
  235 573.491 15.9019 2.47493
  236 573.491 15.9019 2.47493
  237 307.558 -44.2233 138.821
  238 307.558 -44.2233 138.821
  239 749.427 -60.4119 170.821
  240 749.427 -60.4119 170.821
  241 211.073 -25.0104 -69.0155
  242 211.073 -25.0104 -69.0155
  243 672.571 -50.8833 -34.7771
  244 672.571 -50.8833 -34.7771
  245 553.166 24.6159 18.4980
  246 553.166 24.6159 18.4980
  247 19.1829 -352.387 -19.7686
  248 19.1829 -352.387 -19.7686
  249 37.9054 -307.489 65.2232
  250 37.9054 -307.489 65.2232
  251 562.248 3.83515 51.8872
  252 562.248 3.83515 51.8872
  253 586.337 2.20006 1.98067
  254 586.337 2.20006 1.98067
  255 581.731 9.20017 0.380235
  256 581.731 9.20017 0.380235
  257 546.656 -6.80963 -69.3099
  258 546.656 -6.80963 -69.3099
  259 586.644 2.00964 -2.09850
  260 586.644 2.00964 -2.09850
  261 646.349 -45.8870 44.9279
  262 646.349 -45.8870 44.9279
  263 601.358 2.05998 -9.86838
  264 601.358 2.05998 -9.86838
  265 468.218 -39.7095 -129.892
  266 468.218 -39.7095 -129.892
  267 790.303 61.1553 0.220318
  268 790.303 61.1553 0.220318
  269 580.973 12.6462 -26.0247
  270 580.973 12.6462 -26.0247
  271 578.894 11.8277 -5.09995
  272 578.894 11.8277 -5.09995
  273 494.938 23.9724 -47.4693
  274 494.938 23.9724 -47.4693
  275 153.108 -55.4898 40.1856
  276 153.108 -55.4898 40.1856
  277 616.215 -103.388 134.289
  278 616.215 -103.388 134.289
  279 584.703 8.53771 9.99211
  280 584.703 8.53771 9.99211
  281 858.971 60.4285 -14.8121
  282 858.971 60.4285 -14.8121
  283 1016.60 93.0489 125.129
  284 1016.60 93.0489 125.129
  285 691.365 -73.6853 46.3167
  286 691.365 -73.6853 46.3167
  287 504.593 25.0895 34.6825
  288 504.593 25.0895 34.6825
  289 632.049 -127.010 177.486
  290 632.049 -127.010 177.486
  291 654.121 -7.89276 16.4984
  292 654.121 -7.89276 16.4984
  293 584.345 5.61922 2.71832
  294 584.345 5.61922 2.71832
  295 576.564 15.5531 -16.4592
  296 576.564 15.5531 -16.4592
  297 581.863 9.05441 -0.746860
  298 581.863 9.05441 -0.746860
  299 589.617 1.60361 -3.79820
  300 589.617 1.60361 -3.79820
  301 600.881 2.90435 9.90585
  302 600.881 2.90435 9.90585
  303 573.631 15.8202 -4.20520
  304 573.631 15.8202 -4.20520
  305 131.742 -219.438 -164.696
  306 131.742 -219.438 -164.696
  307 398.379 26.2338 32.5727
  308 398.379 26.2338 32.5727
  309 584.924 4.69603 -2.60796
  310 584.924 4.69603 -2.60796
  311 518.338 29.5619 -23.2011
  312 518.338 29.5619 -23.2011
  313 519.691 32.2269 8.80415
  314 519.691 32.2269 8.80415
  315 583.797 8.20956 -7.06133
  316 583.797 8.20956 -7.06133
  317 777.489 43.0784 -7.49712
  318 777.489 43.0784 -7.49712
  319 579.701 13.7803 22.7181
  320 579.701 13.7803 22.7181
  321 735.844 24.2818 -15.9077
  322 735.844 24.2818 -15.9077
  323 1064.68 29.7148 72.8988
  324 1064.68 29.7148 72.8988
  325 577.692 14.2625 14.1895
  326 577.692 14.2625 14.1895
  327 569.071 18.8950 7.42322
  328 569.071 18.8950 7.42322
  329 440.379 -84.3645 -255.425
  330 440.379 -84.3645 -255.425
  331 589.960 1.44884 3.71461
  332 589.960 1.44884 3.71461
  333 578.384 11.9120 3.81370
  334 578.384 11.9120 3.81370
  335 558.171 24.5766 0.853583
  336 558.171 24.5766 0.853583
  337 290.180 -101.857 204.000
  338 290.180 -101.857 204.000
  339 716.357 47.3150 2.82935
  340 716.357 47.3150 2.82935
  341 40.7696 -300.860 -74.7275
  342 40.7696 -300.860 -74.7275
  343 452.192 28.4861 28.8218
  344 452.192 28.4861 28.8218
  345 1008.41 13.3115 9.72538
  346 1008.41 13.3115 9.72538
  347 1053.49 54.4066 -75.5536
  348 1053.49 54.4066 -75.5536
  349 505.031 -58.7632 145.382
  350 527.154 -30.1093 106.913
  351 505.031 -58.7632 145.382
  352 527.154 -30.1093 106.913
  353 1023.14 24.8805 37.6320
  354 1023.14 24.8805 37.6320
  355 597.280 -1.00008 40.4401
  356 597.280 -1.00008 40.4401
  357 700.824 -94.8067 -106.035
  358 700.824 -94.8067 -106.035
  359 671.538 -5.62319 17.8144
  360 671.538 -5.62319 17.8144
  361 449.111 -85.0584 278.422
  362 449.111 -85.0584 278.422
  363 782.261 62.6671 -1.98615
  364 782.261 62.6671 -1.98615
  365 1020.93 8.96682 -7.79258
  366 1020.93 8.96682 -7.79258
  367 633.721 0.119536 -19.6435
  368 633.721 0.119536 -19.6435
  369 569.056 20.1108 -8.89987
  370 569.056 20.1108 -8.89987
  371 868.792 67.7320 24.9455
  372 868.792 67.7320 24.9455
  373 674.097 28.4954 -3.90198
  374 674.097 28.4954 -3.90198
  375 611.588 2.21172 -12.3295
  376 611.588 2.21172 -12.3295
  377 170.825 -81.0217 -117.960
  378 170.825 -81.0217 -117.960
  379 675.251 -12.2650 4.04380
  380 675.251 -12.2650 4.04380
  381 580.341 -1.08654 -47.8582
  382 580.341 -1.08654 -47.8582
  383 667.617 -1.21929 -21.4044
  384 667.617 -1.21929 -21.4044
  385 1026.56 17.8040 -31.0155
  386 1026.56 17.8040 -31.0155
  387 582.453 8.77864 5.57692
  388 582.453 8.77864 5.57692
  389 708.770 35.3584 16.9431
  390 708.770 35.3584 16.9431
  391 759.340 -14.4754 12.5197
  392 759.340 -14.4754 12.5197
  393 584.470 10.3402 -12.5322
  394 584.470 10.3402 -12.5322
  395 1085.34 110.173 -144.329
  396 1085.34 110.173 -144.329
  397 665.767 -9.94438 -7.54561
  398 665.767 -9.94438 -7.54561
</Section>

newXOutput 176

<Section columns = "stress_xx | stress_yy | stress_xy">
  1 588.467 0.579757 -0.620722
  2 588.737 0.712788 0.836302
  3 588.467 0.579757 -0.620722
  4 588.737 0.712788 0.836302
  5 883.729 75.6995 260.697
  6 916.939 74.6391 -256.619
  7 883.729 75.6995 260.697
  8 916.939 74.6391 -256.619
  9 589.833 0.402820 -1.63421
  10 594.353 0.705674 -2.91691
  11 600.931 1.58463 -5.95733
  12 616.125 0.570941 -8.06457
  13 635.875 0.892689 -13.4081
  14 659.333 -6.09305 -13.5253
  15 681.505 -7.23282 -2.07959
  16 673.340 -4.86694 10.2092
  17 650.820 5.36408 18.5381
  18 638.450 12.8060 -0.729918
  19 647.323 6.10180 -17.4803
  20 672.790 -7.26654 -12.4151
  21 675.501 -8.79403 5.17289
  22 662.695 -4.00815 11.7041
  23 631.867 0.0576500 13.5335
  24 614.837 2.23525 10.2346
  25 601.350 1.81935 5.71862
  26 594.483 0.568574 2.67026
  27 590.163 0.478184 1.58151
  28 589.530 2.07477 0.975522
  29 588.566 4.23851 1.14112
  30 586.189 7.33819 1.01927
  31 585.242 8.52370 -0.0984302
  32 586.446 6.96598 -1.21870
  33 588.140 4.62121 -1.02839
  34 588.881 2.35799 -1.09888
  35 589.833 0.402820 -1.63421
  36 594.353 0.705674 -2.91691
  37 600.931 1.58463 -5.95733
  38 616.125 0.570941 -8.06457
  39 635.875 0.892689 -13.4081
  40 659.333 -6.09305 -13.5253
  41 681.505 -7.23282 -2.07959
  42 673.340 -4.86694 10.2092
  43 650.820 5.36408 18.5381
  44 638.450 12.8060 -0.729918
  45 647.323 6.10180 -17.4803
  46 672.790 -7.26654 -12.4151
  47 675.501 -8.79403 5.17289
  48 662.695 -4.00815 11.7041
  49 631.867 0.0576500 13.5335
  50 614.837 2.23525 10.2346
  51 601.350 1.81935 5.71862
  52 594.483 0.568574 2.67026
  53 590.163 0.478184 1.58151
  54 589.530 2.07477 0.975522
  55 588.566 4.23851 1.14112
  56 586.189 7.33819 1.01927
  57 585.242 8.52370 -0.0984302
  58 586.446 6.96598 -1.21870
  59 588.140 4.62121 -1.02839
  60 588.881 2.35799 -1.09888
  61 1215.93 66.0880 129.714
  62 1111.47 17.9436 45.0323
  63 1050.88 7.12857 16.3589
  64 1037.82 5.24444 3.05157
  65 1050.24 7.03978 -13.9321
  66 1096.83 15.3024 -38.8462
  67 1227.44 57.4437 -111.717
  68 165.957 -169.132 -218.200
  69 32.9234 -430.163 -59.8974
  70 8.09736 -498.349 -26.1282
  71 7.79354 -490.337 -12.0917
  72 14.3801 -474.670 28.0227
  73 36.0622 -416.739 63.5965
  74 178.864 -156.465 241.271
  75 1215.93 66.0880 129.714
  76 1111.47 17.9436 45.0323
  77 1050.88 7.12857 16.3589
  78 1037.82 5.24444 3.05157
  79 1050.24 7.03978 -13.9321
  80 1096.83 15.3024 -38.8462
  81 1227.44 57.4437 -111.717
  82 165.957 -169.132 -218.200
  83 32.9234 -430.163 -59.8974
  84 8.09736 -498.349 -26.1282
  85 7.79354 -490.337 -12.0917
  86 14.3801 -474.670 28.0227
  87 36.0622 -416.739 63.5965
  88 178.864 -156.465 241.271
  89 543.488 30.6548 -7.89527
  90 543.488 30.6548 -7.89527
  91 496.842 7.01290 72.4492
  92 477.663 -2.78839 -86.8375
  93 496.842 7.01290 72.4492
  94 477.663 -2.78839 -86.8375
  95 285.950 8.72220 35.3184
  96 285.950 8.72220 35.3184
  97 724.338 47.1233 -9.50155
  98 736.173 27.9690 18.3095
  99 724.338 47.1233 -9.50155
  100 736.173 27.9690 18.3095
  101 580.841 13.7345 7.70926
  102 580.841 13.7345 7.70926
  103 690.271 -39.3231 3.88836
  104 690.271 -39.3231 3.88836
  105 581.479 14.3735 -9.52485
  106 581.479 14.3735 -9.52485
  107 676.429 -84.2567 -79.2158
  108 676.429 -84.2567 -79.2158
  109 476.666 -100.110 194.849
  110 476.666 -100.110 194.849
  111 325.523 -57.8891 -157.892
  112 325.523 -57.8891 -157.892
  113 583.536 9.54949 33.8873
  114 583.536 9.54949 33.8873
  115 603.784 3.83583 -32.5422
  116 603.784 3.83583 -32.5422
  117 813.542 56.7802 13.3764
  118 869.195 55.6828 5.82897
  119 813.542 56.7802 13.3764
  120 869.195 55.6828 5.82897
  121 852.303 73.2172 -26.3678
  122 852.303 73.2172 -26.3678
  123 96.1750 -152.821 -53.5917
  124 96.1750 -152.821 -53.5917
  125 732.237 -90.1021 87.8727
  126 732.237 -90.1021 87.8727
  127 623.358 -15.2738 39.1980
  128 623.358 -15.2738 39.1980
  129 146.303 -131.578 122.190
  130 146.303 -131.578 122.190
  131 581.622 11.4461 -0.480382
  132 581.622 11.4461 -0.480382
  133 622.122 -29.3041 -50.3045
  134 622.122 -29.3041 -50.3045
  135 590.110 4.69751 5.53222
  136 590.110 4.69751 5.53222
  137 590.565 4.13881 -5.15450
  138 590.565 4.13881 -5.15450
  139 596.734 8.00688 -16.7615
  140 596.734 8.00688 -16.7615
  141 594.172 7.81764 15.0569
  142 594.172 7.81764 15.0569
  143 570.644 19.1699 -0.624510
  144 570.644 19.1699 -0.624510
  145 480.636 31.6296 -3.72616
  146 480.636 31.6296 -3.72616
  147 687.577 -24.3914 7.87861
  148 687.577 -24.3914 7.87861
  149 780.652 -24.1593 -37.1536
  150 780.652 -24.1593 -37.1536
  151 606.905 -68.3239 96.7172
  152 606.905 -68.3239 96.7172
  153 458.026 -123.208 -221.574
  154 458.026 -123.208 -221.574
  155 544.362 22.0755 32.3773
  156 544.362 22.0755 32.3773
  157 699.939 -3.71341 -22.2956
  158 699.939 -3.71341 -22.2956
  159 943.727 76.6534 57.4642
  160 943.727 76.6534 57.4642
  161 476.597 -132.971 255.186
  162 476.597 -132.971 255.186
  163 961.147 30.9638 -11.2371
  164 961.147 30.9638 -11.2371
  165 568.432 19.1370 14.8270
  166 568.432 19.1370 14.8270
  167 540.896 18.2842 -47.6182
  168 540.896 18.2842 -47.6182
  169 668.491 20.6682 14.1093
  170 668.491 20.6682 14.1093
  171 563.401 22.8858 -16.8906
  172 563.401 22.8858 -16.8906
  173 584.893 9.19233 2.41993
  174 584.893 9.19233 2.41993
  175 593.827 4.46200 -8.83139
  176 593.827 4.46200 -8.83139
  177 906.247 75.5014 -59.8207
  178 906.247 75.5014 -59.8207
  179 585.313 8.95376 -2.91819
  180 585.313 8.95376 -2.91819
  181 436.857 31.9927 -24.9859
  182 436.857 31.9927 -24.9859
  183 774.907 57.9418 1.93238
  184 774.907 57.9418 1.93238
  185 159.789 -129.215 -157.279
  186 159.789 -129.215 -157.279
  187 429.137 -4.22209 106.082
  188 429.137 -4.22209 106.082
  189 566.202 -92.2881 -150.963
  190 566.202 -92.2881 -150.963
  191 668.555 -18.6248 9.56307
  192 668.555 -18.6248 9.56307
  193 626.311 -2.32266 23.7811
  194 626.311 -2.32266 23.7811
  195 843.765 29.2737 57.5357
  196 843.765 29.2737 57.5357
  197 360.128 12.1882 -65.7760
  198 360.128 12.1882 -65.7760
  199 954.066 41.9956 26.0691
  200 954.066 41.9956 26.0691
  201 637.676 -8.06461 -25.3989
  202 637.676 -8.06461 -25.3989
  203 594.706 3.17945 8.13719
  204 594.706 3.17945 8.13719
  205 663.282 -26.3373 -14.4283
  206 663.282 -26.3373 -14.4283
  207 723.569 -35.6610 -8.83648
  208 723.569 -35.6610 -8.83648
  209 45.6858 -270.359 24.0930
  210 45.6858 -270.359 24.0930
  211 612.374 3.01960 -20.6993
  212 612.374 3.01960 -20.6993
  213 607.496 4.64103 18.0118
  214 607.496 4.64103 18.0118
  215 584.169 -54.0338 -95.6342
  216 584.169 -54.0338 -95.6342
  217 681.675 -14.4934 -13.4390
  218 681.675 -14.4934 -13.4390
  219 561.293 19.9894 -32.3366
  220 561.293 19.9894 -32.3366
  221 154.659 -189.332 173.524
  222 154.659 -189.332 173.524
  223 691.739 3.77767 21.3679
  224 691.739 3.77767 21.3679
  225 673.930 17.6007 -18.5182
  226 673.930 17.6007 -18.5182
  227 944.504 56.2771 -45.3077
  228 944.504 56.2771 -45.3077
  229 726.285 -26.0944 -7.90149
  230 726.285 -26.0944 -7.90149
  231 787.205 -29.3595 -148.212
  232 787.205 -29.3595 -148.212
  233 586.619 -26.5843 73.1495
  234 586.619 -26.5843 73.1495
  235 576.573 15.9827 2.48684
  236 576.573 15.9827 2.48684
  237 309.253 -44.4527 139.599
  238 309.253 -44.4527 139.599
  239 753.294 -60.6624 171.822
  240 753.294 -60.6624 171.822
  241 212.267 -25.1183 -69.4076
  242 212.267 -25.1183 -69.4076
  243 676.119 -51.1575 -34.9914
  244 676.119 -51.1575 -34.9914
  245 556.151 24.7439 18.5913
  246 556.151 24.7439 18.5913
  247 19.2772 -354.330 -19.8983
  248 19.2772 -354.330 -19.8983
  249 38.1068 -309.150 65.6462
  250 38.1068 -309.150 65.6462
  251 565.269 3.85459 52.1592
  252 565.269 3.85459 52.1592
  253 589.475 2.21135 1.98971
  254 589.475 2.21135 1.98971
  255 584.850 9.24625 0.382024
  256 584.850 9.24625 0.382024
  257 549.597 -6.84713 -69.6787
  258 549.597 -6.84713 -69.6787
  259 589.783 2.02003 -2.10808
  260 589.783 2.02003 -2.10808
  261 649.770 -46.1354 45.1870
  262 649.770 -46.1354 45.1870
  263 604.563 2.07001 -9.91545
  264 604.563 2.07001 -9.91545
  265 470.746 -39.9250 -130.601
  266 470.746 -39.9250 -130.601
  267 794.472 61.4853 0.257721
  268 794.472 61.4853 0.257721
  269 584.088 12.7103 -26.1552
  270 584.088 12.7103 -26.1552
  271 582.000 11.8876 -5.12400
  272 582.000 11.8876 -5.12400
  273 497.634 24.1018 -47.7188
  274 497.634 24.1018 -47.7188
  275 153.980 -55.7506 40.4199
  276 153.980 -55.7506 40.4199
  277 619.458 -103.949 135.041
  278 619.458 -103.949 135.041
  279 587.835 8.58094 10.0396
  280 587.835 8.58094 10.0396
  281 863.455 60.7394 -14.9077
  282 863.455 60.7394 -14.9077
  283 1021.75 93.6059 125.840
  284 1021.75 93.6059 125.840
  285 694.997 -74.0761 46.6068
  286 694.997 -74.0761 46.6068
  287 507.339 25.2239 34.8627
  288 507.339 25.2239 34.8627
  289 635.351 -127.693 178.484
  290 635.351 -127.693 178.484
  291 657.583 -7.93745 16.5905
  292 657.583 -7.93745 16.5905
  293 587.475 5.64758 2.73087
  294 587.475 5.64758 2.73087
  295 579.659 15.6325 -16.5397
  296 579.659 15.6325 -16.5397
  297 584.982 9.09979 -0.750310
  298 584.982 9.09979 -0.750310
  299 592.769 1.61180 -3.81575
  300 592.769 1.61180 -3.81575
  301 604.084 2.91872 9.95308
  302 604.084 2.91872 9.95308
  303 576.714 15.9007 -4.22540
  304 576.714 15.9007 -4.22540
  305 132.445 -220.551 -165.697
  306 132.445 -220.551 -165.697
  307 400.584 26.3827 32.7467
  308 400.584 26.3827 32.7467
  309 588.056 4.71984 -2.61994
  310 588.056 4.71984 -2.61994
  311 521.155 29.7182 -23.3212
  312 521.155 29.7182 -23.3212
  313 522.516 32.3972 8.84909
  314 522.516 32.3972 8.84909
  315 586.925 8.25112 -7.09458
  316 586.925 8.25112 -7.09458
  317 781.578 43.3368 -7.60370
  318 781.578 43.3368 -7.60370
  319 582.811 13.8507 22.8308
  320 582.811 13.8507 22.8308
  321 739.737 24.4275 -15.9409
  322 739.737 24.4275 -15.9409
  323 1070.04 29.8579 73.2814
  324 1070.04 29.8579 73.2814
  325 580.793 14.3352 14.2584
  326 580.793 14.3352 14.2584
  327 572.133 18.9916 7.45928
  328 572.133 18.9916 7.45928
  329 442.664 -84.6492 -256.913
  330 442.664 -84.6492 -256.913
  331 593.114 1.45622 3.73176
  332 593.114 1.45622 3.73176
  333 581.488 11.9722 3.83172
  334 581.488 11.9722 3.83172
  335 561.183 24.7035 0.857781
  336 561.183 24.7035 0.857781
  337 291.762 -102.402 205.172
  338 291.762 -102.402 205.172
  339 720.181 47.5734 2.83574
  340 720.181 47.5734 2.83574
  341 40.9815 -302.482 -75.2017
  342 40.9815 -302.482 -75.2017
  343 454.677 28.6419 28.9731
  344 454.677 28.6419 28.9731
  345 1013.50 13.3726 9.77168
  346 1013.50 13.3726 9.77168
  347 1058.82 54.6956 -75.9558
  348 1058.82 54.6956 -75.9558
  349 507.735 -59.0840 146.176
  350 529.985 -30.2720 107.487
  351 507.735 -59.0840 146.176
  352 529.985 -30.2720 107.487
  353 1028.31 24.9977 37.8230
  354 1028.31 24.9977 37.8230
  355 600.470 -1.00768 40.6516
  356 600.470 -1.00768 40.6516
  357 704.478 -95.3041 -106.654
  358 704.478 -95.3041 -106.654
  359 675.118 -5.65069 17.8859
  360 675.118 -5.65069 17.8859
  361 451.423 -85.3568 280.029
  362 451.423 -85.3568 280.029
  363 786.399 62.9980 -1.99499
  364 786.399 62.9980 -1.99499
  365 1026.07 9.00738 -7.83123
  366 1026.07 9.00738 -7.83123
  367 637.079 0.117459 -19.7444
  368 637.079 0.117459 -19.7444
  369 572.118 20.2138 -8.94330
  370 572.118 20.2138 -8.94330
  371 873.320 68.0893 25.1116
  372 873.320 68.0893 25.1116
  373 677.718 28.6533 -3.91774
  374 677.718 28.6533 -3.91774
  375 614.840 2.22189 -12.3896
  376 614.840 2.22189 -12.3896
  377 171.795 -81.4313 -118.649
  378 171.795 -81.4313 -118.649
  379 678.829 -12.3316 4.04816
  380 678.829 -12.3316 4.04816
  381 583.450 -1.09466 -48.1106
  382 583.450 -1.09466 -48.1106
  383 671.187 -1.22346 -21.4922
  384 671.187 -1.22346 -21.4922
  385 1031.74 17.8897 -31.1710
  386 1031.74 17.8897 -31.1710
  387 585.575 8.82294 5.60310
  388 585.575 8.82294 5.60310
  389 712.547 35.5576 16.9999
  390 712.547 35.5576 16.9999
  391 763.317 -14.5244 12.6552
  392 763.317 -14.5244 12.6552
  393 587.600 10.3927 -12.5923
  394 587.600 10.3927 -12.5923
  395 1090.79 110.842 -145.137
  396 1090.79 110.842 -145.137
  397 669.286 -10.0005 -7.59350
  398 669.286 -10.0005 -7.59350
</Section>

newXOutput 177

<Section columns = "stress_xx | stress_yy | stress_xy">
  1 591.598 0.582925 -0.623484
  2 591.870 0.716592 0.840013
  3 591.598 0.582925 -0.623484
  4 591.870 0.716592 0.840013
  5 888.130 76.3108 262.159
  6 921.489 75.2528 -258.059
  7 888.130 76.3108 262.159
  8 921.489 75.2528 -258.059
  9 592.971 0.404940 -1.64156
  10 597.510 0.709287 -2.93020
  11 604.117 1.59253 -5.98501
  12 619.379 0.573481 -8.10286
  13 639.221 0.895887 -13.4745
  14 662.793 -6.12819 -13.5967
  15 685.080 -7.27311 -2.09745
  16 676.904 -4.89267 10.2482
  17 654.304 5.39676 18.6171
  18 641.889 12.8789 -0.733118
  19 650.792 6.13603 -17.5560
  20 676.352 -7.30536 -12.4622
  21 679.047 -8.84317 5.20840
  22 666.171 -4.03105 11.7665
  23 635.196 0.0559368 13.6012
  24 618.086 2.24595 10.2835
  25 604.537 1.82843 5.74509
  26 597.641 0.571504 2.68240
  27 593.301 0.480727 1.58867
  28 592.665 2.08534 0.979830
  29 591.698 4.25985 1.14626
  30 589.311 7.37473 1.02392
  31 588.360 8.56602 -0.0988734
  32 589.569 7.00073 -1.22420
  33 591.270 4.64447 -1.03289
  34 592.014 2.37008 -1.10383
  35 592.971 0.404940 -1.64156
  36 597.510 0.709287 -2.93020
  37 604.117 1.59253 -5.98501
  38 619.379 0.573481 -8.10286
  39 639.221 0.895887 -13.4745
  40 662.793 -6.12819 -13.5967
  41 685.080 -7.27311 -2.09745
  42 676.904 -4.89267 10.2482
  43 654.304 5.39676 18.6171
  44 641.889 12.8789 -0.733118
  45 650.792 6.13603 -17.5560
  46 676.352 -7.30536 -12.4622
  47 679.047 -8.84317 5.20840
  48 666.171 -4.03105 11.7665
  49 635.196 0.0559368 13.6012
  50 618.086 2.24595 10.2835
  51 604.537 1.82843 5.74509
  52 597.641 0.571504 2.68240
  53 593.301 0.480727 1.58867
  54 592.665 2.08534 0.979830
  55 591.698 4.25985 1.14626
  56 589.311 7.37473 1.02392
  57 588.360 8.56602 -0.0988734
  58 589.569 7.00073 -1.22420
  59 591.270 4.64447 -1.03289
  60 592.014 2.37008 -1.10383
  61 1221.89 66.4484 130.379
  62 1116.96 18.0291 45.2518
  63 1056.10 7.15772 16.4350
  64 1042.98 5.26719 3.06372
  65 1055.46 7.07159 -13.9965
  66 1102.26 15.3743 -39.0326
  67 1233.46 57.7560 -112.290
  68 166.815 -169.813 -219.491
  69 33.0952 -432.487 -60.3053
  70 8.12336 -501.159 -26.3061
  71 7.81952 -493.115 -12.1596
  72 14.4449 -477.329 28.2143
  73 36.2548 -418.988 64.0316
  74 179.774 -157.080 242.691
  75 1221.89 66.4484 130.379
  76 1116.96 18.0291 45.2518
  77 1056.10 7.15772 16.4350
  78 1042.98 5.26719 3.06372
  79 1055.46 7.07159 -13.9965
  80 1102.26 15.3743 -39.0326
  81 1233.46 57.7560 -112.290
  82 166.815 -169.813 -219.491
  83 33.0952 -432.487 -60.3053
  84 8.12336 -501.159 -26.3061
  85 7.81952 -493.115 -12.1596
  86 14.4449 -477.329 28.2143
  87 36.2548 -418.988 64.0316
  88 179.774 -157.080 242.691
  89 546.413 30.8140 -7.93522
  90 546.413 30.8140 -7.93522
  91 499.523 7.05216 72.8307
  92 480.244 -2.80139 -87.2998
  93 499.523 7.05216 72.8307
  94 480.244 -2.80139 -87.2998
  95 287.551 8.78823 35.5117
  96 287.551 8.78823 35.5117
  97 728.176 47.3799 -9.53045
  98 740.048 28.1342 18.3539
  99 728.176 47.3799 -9.53045
  100 740.048 28.1342 18.3539
  101 583.940 13.8038 7.74584
  102 583.940 13.8038 7.74584
  103 693.897 -39.5304 3.94698
  104 693.897 -39.5304 3.94698
  105 584.580 14.4462 -9.57022
  106 584.580 14.4462 -9.57022
  107 679.959 -84.7072 -79.6685
  108 679.959 -84.7072 -79.6685
  109 479.196 -100.654 195.926
  110 479.196 -100.654 195.926
  111 327.294 -58.1936 -158.775
  112 327.294 -58.1936 -158.775
  113 586.645 9.59712 34.0592
  114 586.645 9.59712 34.0592
  115 606.988 3.85284 -32.7091
  116 606.988 3.85284 -32.7091
  117 817.785 57.1041 13.5121
  118 873.698 55.9635 5.86944
  119 817.785 57.1041 13.5121
  120 873.698 55.9635 5.86944
  121 856.734 73.6149 -26.5551
  122 856.734 73.6149 -26.5551
  123 96.7108 -153.606 -53.9156
  124 96.7108 -153.606 -53.9156
  125 736.027 -90.5574 88.4019
  126 736.027 -90.5574 88.4019
  127 626.654 -15.3578 39.4101
  128 626.654 -15.3578 39.4101
  129 147.115 -132.250 122.916
  130 147.115 -132.250 122.916
  131 584.724 11.5035 -0.482566
  132 584.724 11.5035 -0.482566
  133 625.408 -29.4631 -50.5810
  134 625.408 -29.4631 -50.5810
  135 593.249 4.72120 5.55780
  136 593.249 4.72120 5.55780
  137 593.705 4.15978 -5.17823
  138 593.705 4.15978 -5.17823
  139 599.904 8.04674 -16.8428
  140 599.904 8.04674 -16.8428
  141 597.330 7.85679 15.1293
  142 597.330 7.85679 15.1293
  143 573.697 19.2672 -0.627673
  144 573.697 19.2672 -0.627673
  145 483.253 31.7983 -3.74602
  146 483.253 31.7983 -3.74602
  147 691.198 -24.5181 7.88697
  148 691.198 -24.5181 7.88697
  149 784.699 -24.2439 -37.4294
  150 784.699 -24.2439 -37.4294
  151 610.102 -68.6929 97.2471
  152 610.102 -68.6929 97.2471
  153 460.431 -123.847 -222.836
  154 460.431 -123.847 -222.836
  155 547.287 22.1910 32.5428
  156 547.287 22.1910 32.5428
  157 703.630 -3.72563 -22.3720
  158 703.630 -3.72563 -22.3720
  159 948.558 77.0675 57.8025
  160 948.558 77.0675 57.8025
  161 479.094 -133.674 256.623
  162 479.094 -133.674 256.623
  163 966.032 31.1110 -11.2971
  164 966.032 31.1110 -11.2971
  165 571.474 19.2346 14.8998
  166 571.474 19.2346 14.8998
  167 543.800 18.3803 -47.8650
  168 543.800 18.3803 -47.8650
  169 672.063 20.7853 14.1679
  170 672.063 20.7853 14.1679
  171 566.419 23.0032 -16.9742
  172 566.419 23.0032 -16.9742
  173 588.009 9.23827 2.43114
  174 588.009 9.23827 2.43114
  175 596.982 4.48433 -8.87284
  176 596.982 4.48433 -8.87284
  177 910.901 75.9445 -60.2063
  178 910.901 75.9445 -60.2063
  179 588.431 8.99861 -2.93164
  180 588.431 8.99861 -2.93164
  181 439.249 32.1684 -25.1181
  182 439.249 32.1684 -25.1181
  183 778.980 58.2553 1.90591
  184 778.980 58.2553 1.90591
  185 160.665 -129.875 -158.208
  186 160.665 -129.875 -158.208
  187 431.467 -4.24017 106.652
  188 431.467 -4.24017 106.652
  189 569.183 -92.7874 -151.797
  190 569.183 -92.7874 -151.797
  191 672.075 -18.7264 9.63077
  192 672.075 -18.7264 9.63077
  193 629.619 -2.33777 23.9042
  194 629.619 -2.33777 23.9042
  195 848.118 29.4848 57.9237
  196 848.118 29.4848 57.9237
  197 362.115 12.2648 -66.1325
  198 362.115 12.2648 -66.1325
  199 958.930 42.2015 26.2125
  200 958.930 42.2015 26.2125
  201 641.039 -8.11059 -25.5360
  202 641.039 -8.11059 -25.5360
  203 597.865 3.19526 8.17528
  204 597.865 3.19526 8.17528
  205 666.774 -26.4812 -14.5235
  206 666.774 -26.4812 -14.5235
  207 727.353 -35.8375 -8.93627
  208 727.353 -35.8375 -8.93627
  209 45.9328 -271.814 24.2451
  210 45.9328 -271.814 24.2451
  211 615.615 3.03275 -20.8026
  212 615.615 3.03275 -20.8026
  213 610.714 4.66365 18.1005
  214 610.714 4.66365 18.1005
  215 587.260 -54.3255 -96.1552
  216 587.260 -54.3255 -96.1552
  217 685.273 -14.5704 -13.4812
  218 685.273 -14.5704 -13.4812
  219 564.298 20.0929 -32.5014
  220 564.298 20.0929 -32.5014
  221 155.484 -190.291 174.564
  222 155.484 -190.291 174.564
  223 695.401 3.80703 21.4455
  224 695.401 3.80703 21.4455
  225 677.523 17.7012 -18.5924
  226 677.523 17.7012 -18.5924
  227 949.333 56.5636 -45.5662
  228 949.333 56.5636 -45.5662
  229 730.087 -26.2194 -7.88900
  230 730.087 -26.2194 -7.88900
  231 791.241 -29.4264 -149.092
  232 791.241 -29.4264 -149.092
  233 589.730 -26.7273 73.5404
  234 589.730 -26.7273 73.5404
  235 579.654 16.0634 2.49873
  236 579.654 16.0634 2.49873
  237 310.947 -44.6817 140.377
  238 310.947 -44.6817 140.377
  239 757.156 -60.9119 172.823
  240 757.156 -60.9119 172.823
  241 213.461 -25.2258 -69.7997
  242 213.461 -25.2258 -69.7997
  243 679.665 -51.4315 -35.2058
  244 679.665 -51.4315 -35.2058
  245 559.135 24.8718 18.6844
  246 559.135 24.8718 18.6844
  247 19.3713 -356.271 -20.0281
  248 19.3713 -356.271 -20.0281
  249 38.3079 -310.810 66.0697
  250 38.3079 -310.810 66.0697
  251 568.288 3.87400 52.4309
  252 568.288 3.87400 52.4309
  253 592.611 2.22262 1.99873
  254 592.611 2.22262 1.99873
  255 587.966 9.29225 0.383810
  256 587.966 9.29225 0.383810
  257 552.536 -6.88461 -70.0472
  258 552.536 -6.88461 -70.0472
  259 592.920 2.03042 -2.11764
  260 592.920 2.03042 -2.11764
  261 653.188 -46.3836 45.4462
  262 653.188 -46.3836 45.4462
  263 607.766 2.08002 -9.96242
  264 607.766 2.08002 -9.96242
  265 473.272 -40.1404 -131.309
  266 473.272 -40.1404 -131.309
  267 798.637 61.8150 0.295458
  268 798.637 61.8150 0.295458
  269 587.200 12.7744 -26.2856
  270 587.200 12.7744 -26.2856
  271 585.104 11.9474 -5.14799
  272 585.104 11.9474 -5.14799
  273 500.328 24.2311 -47.9681
  274 500.328 24.2311 -47.9681
  275 154.851 -56.0108 40.6543
  276 154.851 -56.0108 40.6543
  277 622.698 -104.509 135.792
  278 622.698 -104.509 135.792
  279 590.964 8.62412 10.0870
  280 590.964 8.62412 10.0870
  281 867.934 61.0500 -15.0034
  282 867.934 61.0500 -15.0034
  283 1026.90 94.1631 126.551
  284 1026.90 94.1631 126.551
  285 698.625 -74.4666 46.8972
  286 698.625 -74.4666 46.8972
  287 510.084 25.3581 35.0427
  288 510.084 25.3581 35.0427
  289 638.650 -128.375 179.481
  290 638.650 -128.375 179.481
  291 661.041 -7.98214 16.6825
  292 661.041 -7.98214 16.6825
  293 590.602 5.67590 2.74339
  294 590.602 5.67590 2.74339
  295 582.753 15.7119 -16.6200
  296 582.753 15.7119 -16.6200
  297 588.099 9.14509 -0.753752
  298 588.099 9.14509 -0.753752
  299 595.919 1.61997 -3.83326
  300 595.919 1.61997 -3.83326
  301 607.285 2.93305 10.0002
  302 607.285 2.93305 10.0002
  303 579.794 15.9811 -4.24556
  304 579.794 15.9811 -4.24556
  305 133.147 -221.662 -166.700
  306 133.147 -221.662 -166.700
  307 402.788 26.5316 32.9205
  308 402.788 26.5316 32.9205
  309 591.185 4.74362 -2.63189
  310 591.185 4.74362 -2.63189
  311 523.970 29.8744 -23.4411
  312 523.970 29.8744 -23.4411
  313 525.339 32.5673 8.89397
  314 525.339 32.5673 8.89397
  315 590.050 8.29263 -7.12776
  316 590.050 8.29263 -7.12776
  317 785.663 43.5952 -7.71087
  318 785.663 43.5952 -7.71087
  319 585.918 13.9209 22.9433
  320 585.918 13.9209 22.9433
  321 743.627 24.5732 -15.9735
  322 743.627 24.5732 -15.9735
  323 1075.39 30.0008 73.6636
  324 1075.39 30.0008 73.6636
  325 583.892 14.4078 14.3272
  326 583.892 14.4078 14.3272
  327 575.193 19.0881 7.49528
  328 575.193 19.0881 7.49528
  329 444.947 -84.9318 -258.401
  330 444.947 -84.9318 -258.401
  331 596.265 1.46360 3.74887
  332 596.265 1.46360 3.74887
  333 584.590 12.0323 3.84971
  334 584.590 12.0323 3.84971
  335 564.192 24.8302 0.861971
  336 564.192 24.8302 0.861971
  337 293.342 -102.947 206.344
  338 293.342 -102.947 206.344
  339 724.002 47.8317 2.84203
  340 724.002 47.8317 2.84203
  341 41.1930 -304.103 -75.6763
  342 41.1930 -304.103 -75.6763
  343 457.161 28.7975 29.1243
  344 457.161 28.7975 29.1243
  345 1018.59 13.4337 9.81789
  346 1018.59 13.4337 9.81789
  347 1064.14 54.9843 -76.3576
  348 1064.14 54.9843 -76.3576
  349 510.437 -59.4047 146.970
  350 532.814 -30.4347 108.061
  351 510.437 -59.4047 146.970
  352 532.814 -30.4347 108.061
  353 1033.47 25.1146 38.0137
  354 1033.47 25.1146 38.0137
  355 603.658 -1.01530 40.8629
  356 603.658 -1.01530 40.8629
  357 708.127 -95.8009 -107.273
  358 708.127 -95.8009 -107.273
  359 678.695 -5.67814 17.9571
  360 678.695 -5.67814 17.9571
  361 453.731 -85.6532 281.636
  362 453.731 -85.6532 281.636
  363 790.532 63.3285 -2.00379
  364 790.532 63.3285 -2.00379
  365 1031.20 9.04783 -7.86981
  366 1031.20 9.04783 -7.86981
  367 640.434 0.115356 -19.8452
  368 640.434 0.115356 -19.8452
  369 575.177 20.3168 -8.98666
  370 575.177 20.3168 -8.98666
  371 877.844 68.4463 25.2780
  372 877.844 68.4463 25.2780
  373 681.337 28.8111 -3.93344
  374 681.337 28.8111 -3.93344
  375 618.090 2.23204 -12.4496
  376 618.090 2.23204 -12.4496
  377 172.765 -81.8402 -119.338
  378 172.765 -81.8402 -119.338
  379 682.404 -12.3982 4.05234
  380 682.404 -12.3982 4.05234
  381 586.556 -1.10279 -48.3627
  382 586.556 -1.10279 -48.3627
  383 674.755 -1.22760 -21.5796
  384 674.755 -1.22760 -21.5796
  385 1036.91 17.9753 -31.3263
  386 1036.91 17.9753 -31.3263
  387 588.695 8.86718 5.62921
  388 588.695 8.86718 5.62921
  389 716.320 35.7568 17.0563
  390 716.320 35.7568 17.0563
  391 767.289 -14.5730 12.7913
  392 767.289 -14.5730 12.7913
  393 590.728 10.4451 -12.6522
  394 590.728 10.4451 -12.6522
  395 1096.24 111.512 -145.945
  396 1096.24 111.512 -145.945
  397 672.802 -10.0566 -7.64143
  398 672.802 -10.0566 -7.64143
</Section>

newXOutput 178

<Section columns = "stress_xx | stress_yy | stress_xy">
  1 594.726 0.586091 -0.626238
  2 595.000 0.720394 0.843713
  3 594.726 0.586091 -0.626238
  4 595.000 0.720394 0.843713
  5 892.524 76.9238 263.620
  6 926.032 75.8684 -259.499
  7 892.524 76.9238 263.620
  8 926.032 75.8684 -259.499
  9 596.105 0.407058 -1.64888
  10 600.664 0.712896 -2.94346
  11 607.300 1.60041 -6.01262
  12 622.630 0.576014 -8.14108
  13 642.563 0.899066 -13.5408
  14 666.248 -6.16334 -13.6681
  15 688.652 -7.31339 -2.11536
  16 680.464 -4.91839 10.2871
  17 657.785 5.42946 18.6959
  18 645.325 12.9519 -0.736308
  19 654.258 6.17025 -17.6314
  20 679.912 -7.34416 -12.5091
  21 682.590 -8.89230 5.24397
  22 669.643 -4.05395 11.8289
  23 638.521 0.0542037 13.6688
  24 621.331 2.25662 10.3323
  25 607.722 1.83750 5.77150
  26 600.796 0.574431 2.69450
  27 596.438 0.483267 1.59581
  28 595.799 2.09590 0.984127
  29 594.827 4.28115 1.15139
  30 592.431 7.41122 1.02855
  31 591.476 8.60827 -0.0993154
  32 592.689 7.03543 -1.22969
  33 594.398 4.66770 -1.03737
  34 595.144 2.38216 -1.10878
  35 596.105 0.407058 -1.64888
  36 600.664 0.712896 -2.94346
  37 607.300 1.60041 -6.01262
  38 622.630 0.576014 -8.14108
  39 642.563 0.899066 -13.5408
  40 666.248 -6.16334 -13.6681
  41 688.652 -7.31339 -2.11536
  42 680.464 -4.91839 10.2871
  43 657.785 5.42946 18.6959
  44 645.325 12.9519 -0.736308
  45 654.258 6.17025 -17.6314
  46 679.912 -7.34416 -12.5091
  47 682.590 -8.89230 5.24397
  48 669.643 -4.05395 11.8289
  49 638.521 0.0542037 13.6688
  50 621.331 2.25662 10.3323
  51 607.722 1.83750 5.77150
  52 600.796 0.574431 2.69450
  53 596.438 0.483267 1.59581
  54 595.799 2.09590 0.984127
  55 594.827 4.28115 1.15139
  56 592.431 7.41122 1.02855
  57 591.476 8.60827 -0.0993154
  58 592.689 7.03543 -1.22969
  59 594.398 4.66770 -1.03737
  60 595.144 2.38216 -1.10878
  61 1227.84 66.8087 131.043
  62 1122.44 18.1145 45.4709
  63 1061.32 7.18677 16.5110
  64 1048.14 5.28987 3.07584
  65 1060.68 7.10331 -14.0608
  66 1107.68 15.4460 -39.2185
  67 1239.47 58.0681 -112.862
  68 167.671 -170.491 -220.782
  69 33.2668 -434.809 -60.7139
  70 8.14915 -503.969 -26.4844
  71 7.84531 -495.892 -12.2276
  72 14.5094 -479.987 28.4064
  73 36.4473 -421.236 64.4675
  74 180.682 -157.692 244.111
  75 1227.84 66.8087 131.043
  76 1122.44 18.1145 45.4709
  77 1061.32 7.18677 16.5110
  78 1048.14 5.28987 3.07584
  79 1060.68 7.10331 -14.0608
  80 1107.68 15.4460 -39.2185
  81 1239.47 58.0681 -112.862
  82 167.671 -170.491 -220.782
  83 33.2668 -434.809 -60.7139
  84 8.14915 -503.969 -26.4844
  85 7.84531 -495.892 -12.2276
  86 14.5094 -479.987 28.4064
  87 36.4473 -421.236 64.4675
  88 180.682 -157.692 244.111
  89 549.336 30.9730 -7.97511
  90 549.336 30.9730 -7.97511
  91 502.203 7.09140 73.2118
  92 482.824 -2.81435 -87.7617
  93 502.203 7.09140 73.2118
  94 482.824 -2.81435 -87.7617
  95 289.152 8.85442 35.7050
  96 289.152 8.85442 35.7050
  97 732.011 47.6363 -9.55910
  98 743.920 28.2994 18.3977
  99 732.011 47.6363 -9.55910
  100 743.920 28.2994 18.3977
  101 587.036 13.8729 7.78235
  102 587.036 13.8729 7.78235
  103 697.519 -39.7376 4.00595
  104 697.519 -39.7376 4.00595
  105 587.679 14.5189 -9.61549
  106 587.679 14.5189 -9.61549
  107 683.485 -85.1574 -80.1212
  108 683.485 -85.1574 -80.1212
  109 481.723 -101.197 197.004
  110 481.723 -101.197 197.004
  111 329.064 -58.4978 -159.658
  112 329.064 -58.4978 -159.658
  113 589.751 9.64467 34.2309
  114 589.751 9.64467 34.2309
  115 610.188 3.86980 -32.8758
  116 610.188 3.86980 -32.8758
  117 822.024 57.4279 13.6484
  118 878.196 56.2438 5.90996
  119 822.024 57.4279 13.6484
  120 878.196 56.2438 5.90996
  121 861.160 74.0124 -26.7427
  122 861.160 74.0124 -26.7427
  123 97.2464 -154.391 -54.2397
  124 97.2464 -154.391 -54.2397
  125 739.813 -91.0121 88.9313
  126 739.813 -91.0121 88.9313
  127 629.947 -15.4417 39.6222
  128 629.947 -15.4417 39.6222
  129 147.926 -132.922 123.642
  130 147.926 -132.922 123.642
  131 587.824 11.5608 -0.484745
  132 587.824 11.5608 -0.484745
  133 628.691 -29.6220 -50.8574
  134 628.691 -29.6220 -50.8574
  135 596.385 4.74485 5.58333
  136 596.385 4.74485 5.58333
  137 596.843 4.18073 -5.20192
  138 596.843 4.18073 -5.20192
  139 603.070 8.08654 -16.9239
  140 603.070 8.08654 -16.9239
  141 600.485 7.89589 15.2016
  142 600.485 7.89589 15.2016
  143 576.748 19.3645 -0.630831
  144 576.748 19.3645 -0.630831
  145 485.868 31.9669 -3.76587
  146 485.868 31.9669 -3.76587
  147 694.816 -24.6447 7.89497
  148 694.816 -24.6447 7.89497
  149 788.742 -24.3279 -37.7058
  150 788.742 -24.3279 -37.7058
  151 613.295 -69.0617 97.7767
  152 613.295 -69.0617 97.7767
  153 462.834 -124.486 -224.097
  154 462.834 -124.486 -224.097
  155 550.210 22.3063 32.7081
  156 550.210 22.3063 32.7081
  157 707.318 -3.73775 -22.4478
  158 707.318 -3.73775 -22.4478
  159 953.384 77.4814 58.1407
  160 953.384 77.4814 58.1407
  161 481.589 -134.377 258.059
  162 481.589 -134.377 258.059
  163 970.911 31.2580 -11.3570
  164 970.911 31.2580 -11.3570
  165 574.513 19.3320 14.9724
  166 574.513 19.3320 14.9724
  167 546.703 18.4764 -48.1116
  168 546.703 18.4764 -48.1116
  169 675.633 20.9024 14.2264
  170 675.633 20.9024 14.2264
  171 569.436 23.1204 -17.0576
  172 569.436 23.1204 -17.0576
  173 591.123 9.28414 2.44231
  174 591.123 9.28414 2.44231
  175 600.135 4.50662 -8.91420
  176 600.135 4.50662 -8.91420
  177 915.550 76.3878 -60.5923
  178 915.550 76.3878 -60.5923
  179 591.547 9.04340 -2.94506
  180 591.547 9.04340 -2.94506
  181 441.640 32.3440 -25.2502
  182 441.640 32.3440 -25.2502
  183 783.049 58.5686 1.87910
  184 783.049 58.5686 1.87910
  185 161.541 -130.534 -159.137
  186 161.541 -130.534 -159.137
  187 433.796 -4.25819 107.221
  188 433.796 -4.25819 107.221
  189 572.161 -93.2864 -152.631
  190 572.161 -93.2864 -152.631
  191 675.592 -18.8280 9.69859
  192 675.592 -18.8280 9.69859
  193 632.923 -2.35290 24.0271
  194 632.923 -2.35290 24.0271
  195 852.466 29.6963 58.3122
  196 852.466 29.6963 58.3122
  197 364.100 12.3415 -66.4889
  198 364.100 12.3415 -66.4889
  199 963.788 42.4070 26.3558
  200 963.788 42.4070 26.3558
  201 644.400 -8.15656 -25.6730
  202 644.400 -8.15656 -25.6730
  203 601.022 3.21104 8.21329
  204 601.022 3.21104 8.21329
  205 670.262 -26.6249 -14.6188
  206 670.262 -26.6249 -14.6188
  207 731.134 -36.0138 -9.03654
  208 731.134 -36.0138 -9.03654
  209 46.1797 -273.268 24.3974
  210 46.1797 -273.268 24.3974
  211 618.854 3.04586 -20.9056
  212 618.854 3.04586 -20.9056
  213 613.930 4.68624 18.1890
  214 613.930 4.68624 18.1890
  215 590.349 -54.6170 -96.6760
  216 590.349 -54.6170 -96.6760
  217 688.868 -14.6472 -13.5230
  218 688.868 -14.6472 -13.5230
  219 567.302 20.1962 -32.6660
  220 567.302 20.1962 -32.6660
  221 156.309 -191.249 175.604
  222 156.309 -191.249 175.604
  223 699.061 3.83647 21.5227
  224 699.061 3.83647 21.5227
  225 681.114 17.8017 -18.6663
  226 681.114 17.8017 -18.6663
  227 954.157 56.8498 -45.8246
  228 954.157 56.8498 -45.8246
  229 733.885 -26.3442 -7.87595
  230 733.885 -26.3442 -7.87595
  231 795.273 -29.4923 -149.972
  232 795.273 -29.4923 -149.972
  233 592.839 -26.8702 73.9310
  234 592.839 -26.8702 73.9310
  235 582.731 16.1441 2.51060
  236 582.731 16.1441 2.51060
  237 312.640 -44.9106 141.155
  238 312.640 -44.9106 141.155
  239 761.014 -61.1603 173.824
  240 761.014 -61.1603 173.824
  241 214.654 -25.3329 -70.1916
  242 214.654 -25.3329 -70.1916
  243 683.207 -51.7053 -35.4203
  244 683.207 -51.7053 -35.4203
  245 562.117 24.9996 18.7775
  246 562.117 24.9996 18.7775
  247 19.4653 -358.211 -20.1581
  248 19.4653 -358.211 -20.1581
  249 38.5089 -312.469 66.4937
  250 38.5089 -312.469 66.4937
  251 571.305 3.89338 52.7024
  252 571.305 3.89338 52.7024
  253 595.744 2.23388 2.00772
  254 595.744 2.23388 2.00772
  255 591.080 9.33819 0.385591
  256 591.080 9.33819 0.385591
  257 555.472 -6.92208 -70.4153
  258 555.472 -6.92208 -70.4153
  259 596.054 2.04080 -2.12718
  260 596.054 2.04080 -2.12718
  261 656.603 -46.6316 45.7053
  262 656.603 -46.6316 45.7053
  263 610.966 2.09001 -10.0093
  264 610.966 2.09001 -10.0093
  265 475.797 -40.3556 -132.017
  266 475.797 -40.3556 -132.017
  267 802.799 62.1445 0.333529
  268 802.799 62.1445 0.333529
  269 590.310 12.8384 -26.4158
  270 590.310 12.8384 -26.4158
  271 588.206 12.0071 -5.17193
  272 588.206 12.0071 -5.17193
  273 503.021 24.3603 -48.2171
  274 503.021 24.3603 -48.2171
  275 155.723 -56.2704 40.8887
  276 155.723 -56.2704 40.8887
  277 625.935 -105.070 136.543
  278 625.935 -105.070 136.543
  279 594.091 8.66723 10.1343
  280 594.091 8.66723 10.1343
  281 872.409 61.3603 -15.0992
  282 872.409 61.3603 -15.0992
  283 1032.04 94.7205 127.261
  284 1032.04 94.7205 127.261
  285 702.250 -74.8567 47.1878
  286 702.250 -74.8567 47.1878
  287 512.827 25.4922 35.2225
  288 512.827 25.4922 35.2225
  289 641.945 -129.057 180.479
  290 641.945 -129.057 180.479
  291 664.496 -8.02681 16.7745
  292 664.496 -8.02681 16.7745
  293 593.727 5.70418 2.75588
  294 593.727 5.70418 2.75588
  295 585.844 15.7911 -16.7001
  296 585.844 15.7911 -16.7001
  297 591.214 9.19033 -0.757186
  298 591.214 9.19033 -0.757186
  299 599.067 1.62814 -3.85072
  300 599.067 1.62814 -3.85072
  301 610.484 2.94737 10.0472
  302 610.484 2.94737 10.0472
  303 582.872 16.0614 -4.26568
  304 582.872 16.0614 -4.26568
  305 133.849 -222.772 -167.703
  306 133.849 -222.772 -167.703
  307 404.991 26.6804 33.0943
  308 404.991 26.6804 33.0943
  309 594.312 4.76736 -2.64381
  310 594.312 4.76736 -2.64381
  311 526.783 30.0304 -23.5608
  312 526.783 30.0304 -23.5608
  313 528.160 32.7373 8.93879
  314 528.160 32.7373 8.93879
  315 593.172 8.33408 -7.16087
  316 593.172 8.33408 -7.16087
  317 789.743 43.8537 -7.81863
  318 789.743 43.8537 -7.81863
  319 589.022 13.9911 23.0556
  320 589.022 13.9911 23.0556
  321 747.514 24.7190 -16.0055
  322 747.514 24.7190 -16.0055
  323 1080.74 30.1433 74.0453
  324 1080.74 30.1433 74.0453
  325 586.988 14.4803 14.3959
  326 586.988 14.4803 14.3959
  327 578.251 19.1844 7.53122
  328 578.251 19.1844 7.53122
  329 447.227 -85.2122 -259.889
  330 447.227 -85.2122 -259.889
  331 599.414 1.47097 3.76594
  332 599.414 1.47097 3.76594
  333 587.690 12.0923 3.86766
  334 587.690 12.0923 3.86766
  335 567.199 24.9567 0.866155
  336 567.199 24.9567 0.866155
  337 294.922 -103.491 207.516
  338 294.922 -103.491 207.516
  339 727.820 48.0898 2.84823
  340 727.820 48.0898 2.84823
  341 41.4044 -305.723 -76.1514
  342 41.4044 -305.723 -76.1514
  343 459.643 28.9531 29.2754
  344 459.643 28.9531 29.2754
  345 1023.67 13.4945 9.86400
  346 1023.67 13.4945 9.86400
  347 1069.45 55.2728 -76.7590
  348 1069.45 55.2728 -76.7590
  349 513.137 -59.7252 147.763
  350 535.641 -30.5972 108.634
  351 513.137 -59.7252 147.763
  352 535.641 -30.5972 108.634
  353 1038.63 25.2313 38.2042
  354 1038.63 25.2313 38.2042
  355 606.843 -1.02294 41.0740
  356 606.843 -1.02294 41.0740
  357 711.772 -96.2972 -107.892
  358 711.772 -96.2972 -107.892
  359 682.269 -5.70554 18.0280
  360 682.269 -5.70554 18.0280
  361 456.036 -85.9476 283.243
  362 456.036 -85.9476 283.243
  363 794.661 63.6588 -2.01257
  364 794.661 63.6588 -2.01257
  365 1036.33 9.08819 -7.90833
  366 1036.33 9.08819 -7.90833
  367 643.787 0.113225 -19.9458
  368 643.787 0.113225 -19.9458
  369 578.234 20.4196 -9.02993
  370 578.234 20.4196 -9.02993
  371 882.362 68.8029 25.4445
  372 882.362 68.8029 25.4445
  373 684.952 28.9689 -3.94907
  374 684.952 28.9689 -3.94907
  375 621.337 2.24217 -12.5095
  376 621.337 2.24217 -12.5095
  377 173.735 -82.2485 -120.027
  378 173.735 -82.2485 -120.027
  379 685.975 -12.4647 4.05634
  380 685.975 -12.4647 4.05634
  381 589.659 -1.11094 -48.6146
  382 589.659 -1.11094 -48.6146
  383 678.319 -1.23170 -21.6667
  384 678.319 -1.23170 -21.6667
  385 1042.08 18.0607 -31.4813
  386 1042.08 18.0607 -31.4813
  387 591.812 8.91136 5.65527
  388 591.812 8.91136 5.65527
  389 720.090 35.9559 17.1123
  390 720.090 35.9559 17.1123
  391 771.258 -14.6213 12.9280
  392 771.258 -14.6213 12.9280
  393 593.854 10.4974 -12.7121
  394 593.854 10.4974 -12.7121
  395 1101.69 112.183 -146.753
  396 1101.69 112.183 -146.753
  397 676.315 -10.1126 -7.68939
  398 676.315 -10.1126 -7.68939
</Section>

newXOutput 179

<Section columns = "stress_xx | stress_yy | stress_xy">
  1 597.853 0.589256 -0.628984
  2 598.127 0.724192 0.847402
  3 597.853 0.589256 -0.628984
  4 598.127 0.724192 0.847402
  5 896.912 77.5387 265.081
  6 930.567 76.4858 -260.938
  7 896.912 77.5387 265.081
  8 930.567 76.4858 -260.938
  9 599.237 0.409173 -1.65619
  10 603.815 0.716501 -2.95668
  11 610.480 1.60828 -6.04016
  12 625.878 0.578540 -8.17922
  13 645.902 0.902228 -13.6070
  14 669.701 -6.19849 -13.7393
  15 692.221 -7.35366 -2.13333
  16 684.022 -4.94408 10.3258
  17 661.264 5.46219 18.7744
  18 648.759 13.0248 -0.739488
  19 657.721 6.20447 -17.7065
  20 683.468 -7.38293 -12.5557
  21 686.130 -8.94142 5.27958
  22 673.112 -4.07685 11.8913
  23 641.843 0.0524509 13.7363
  24 624.574 2.26728 10.3810
  25 610.905 1.84655 5.79785
  26 603.948 0.577354 2.70657
  27 599.572 0.485806 1.60293
  28 598.929 2.10644 0.988410
  29 597.954 4.30243 1.15650
  30 595.548 7.44765 1.03318
  31 594.589 8.65046 -0.0997562
  32 595.807 7.07008 -1.23517
  33 597.523 4.69090 -1.04185
  34 598.272 2.39422 -1.11371
  35 599.237 0.409173 -1.65619
  36 603.815 0.716501 -2.95668
  37 610.480 1.60828 -6.04016
  38 625.878 0.578540 -8.17922
  39 645.902 0.902228 -13.6070
  40 669.701 -6.19849 -13.7393
  41 692.221 -7.35366 -2.13333
  42 684.022 -4.94408 10.3258
  43 661.264 5.46219 18.7744
  44 648.759 13.0248 -0.739488
  45 657.721 6.20447 -17.7065
  46 683.468 -7.38293 -12.5557
  47 686.130 -8.94142 5.27958
  48 673.112 -4.07685 11.8913
  49 641.843 0.0524509 13.7363
  50 624.574 2.26728 10.3810
  51 610.905 1.84655 5.79785
  52 603.948 0.577354 2.70657
  53 599.572 0.485806 1.60293
  54 598.929 2.10644 0.988410
  55 597.954 4.30243 1.15650
  56 595.548 7.44765 1.03318
  57 594.589 8.65046 -0.0997562
  58 595.807 7.07008 -1.23517
  59 597.523 4.69090 -1.04185
  60 598.272 2.39422 -1.11371
  61 1233.78 67.1687 131.707
  62 1127.91 18.1998 45.6896
  63 1066.53 7.21572 16.5868
  64 1053.29 5.31249 3.08790
  65 1065.88 7.13497 -14.1250
  66 1113.09 15.5176 -39.4041
  67 1245.47 58.3800 -113.434
  68 168.527 -171.167 -222.073
  69 33.4381 -437.129 -61.1233
  70 8.17472 -506.778 -26.6631
  71 7.87090 -498.670 -12.2956
  72 14.5738 -482.645 28.5988
  73 36.6396 -423.482 64.9042
  74 181.589 -158.301 245.532
  75 1233.78 67.1687 131.707
  76 1127.91 18.1998 45.6896
  77 1066.53 7.21572 16.5868
  78 1053.29 5.31249 3.08790
  79 1065.88 7.13497 -14.1250
  80 1113.09 15.5176 -39.4041
  81 1245.47 58.3800 -113.434
  82 168.527 -171.167 -222.073
  83 33.4381 -437.129 -61.1233
  84 8.17472 -506.778 -26.6631
  85 7.87090 -498.670 -12.2956
  86 14.5738 -482.645 28.5988
  87 36.6396 -423.482 64.9042
  88 181.589 -158.301 245.532
  89 552.258 31.1319 -8.01494
  90 552.258 31.1319 -8.01494
  91 504.881 7.13064 73.5926
  92 485.401 -2.82730 -88.2232
  93 504.881 7.13064 73.5926
  94 485.401 -2.82730 -88.2232
  95 290.753 8.92075 35.8981
  96 290.753 8.92075 35.8981
  97 735.842 47.8926 -9.58750
  98 747.789 28.4646 18.4409
  99 735.842 47.8926 -9.58750
  100 747.789 28.4646 18.4409
  101 590.130 13.9420 7.81878
  102 590.130 13.9420 7.81878
  103 701.139 -39.9445 4.06527
  104 701.139 -39.9445 4.06527
  105 590.776 14.5914 -9.66068
  106 590.776 14.5914 -9.66068
  107 687.008 -85.6073 -80.5739
  108 687.008 -85.6073 -80.5739
  109 484.249 -101.741 198.081
  110 484.249 -101.741 198.081
  111 330.833 -58.8017 -160.540
  112 330.833 -58.8017 -160.540
  113 592.855 9.69215 34.4024
  114 592.855 9.69215 34.4024
  115 613.387 3.88671 -33.0423
  116 613.387 3.88671 -33.0423
  117 826.258 57.7518 13.7852
  118 882.689 56.5238 5.95053
  119 826.258 57.7518 13.7852
  120 882.689 56.5238 5.95053
  121 865.582 74.4096 -26.9306
  122 865.582 74.4096 -26.9306
  123 97.7819 -155.176 -54.5640
  124 97.7819 -155.176 -54.5640
  125 743.595 -91.4661 89.4609
  126 743.595 -91.4661 89.4609
  127 633.237 -15.5256 39.8340
  128 633.237 -15.5256 39.8340
  129 148.738 -133.592 124.369
  130 148.738 -133.592 124.369
  131 590.922 11.6180 -0.486919
  132 590.922 11.6180 -0.486919
  133 631.972 -29.7808 -51.1336
  134 631.972 -29.7808 -51.1336
  135 599.519 4.76847 5.60880
  136 599.519 4.76847 5.60880
  137 599.979 4.20164 -5.22554
  138 599.979 4.20164 -5.22554
  139 606.235 8.12627 -17.0049
  140 606.235 8.12627 -17.0049
  141 603.638 7.93493 15.2738
  142 603.638 7.93493 15.2738
  143 579.796 19.4616 -0.633985
  144 579.796 19.4616 -0.633985
  145 488.482 32.1353 -3.78570
  146 488.482 32.1353 -3.78570
  147 698.430 -24.7711 7.90261
  148 698.430 -24.7711 7.90261
  149 792.781 -24.4113 -37.9827
  150 792.781 -24.4113 -37.9827
  151 616.486 -69.4302 98.3061
  152 616.486 -69.4302 98.3061
  153 465.235 -125.124 -225.358
  154 465.235 -125.124 -225.358
  155 553.131 22.4216 32.8732
  156 553.131 22.4216 32.8732
  157 711.002 -3.74978 -22.5232
  158 711.002 -3.74978 -22.5232
  159 958.203 77.8951 58.4790
  160 958.203 77.8951 58.4790
  161 484.081 -135.080 259.496
  162 484.081 -135.080 259.496
  163 975.783 31.4047 -11.4169
  164 975.783 31.4047 -11.4169
  165 577.551 19.4293 15.0448
  166 577.551 19.4293 15.0448
  167 549.604 18.5723 -48.3578
  168 549.604 18.5723 -48.3578
  169 679.200 21.0194 14.2846
  170 679.200 21.0194 14.2846
  171 572.450 23.2375 -17.1409
  172 572.450 23.2375 -17.1409
  173 594.235 9.32994 2.45347
  174 594.235 9.32994 2.45347
  175 603.285 4.52888 -8.95547
  176 603.285 4.52888 -8.95547
  177 920.194 76.8312 -60.9786
  178 920.194 76.8312 -60.9786
  179 594.661 9.08812 -2.95845
  180 594.661 9.08812 -2.95845
  181 444.030 32.5195 -25.3822
  182 444.030 32.5195 -25.3822
  183 787.115 58.8817 1.85194
  184 787.115 58.8817 1.85194
  185 162.416 -131.193 -160.066
  186 162.416 -131.193 -160.066
  187 436.124 -4.27616 107.790
  188 436.124 -4.27616 107.790
  189 575.137 -93.7850 -153.464
  190 575.137 -93.7850 -153.464
  191 679.106 -18.9295 9.76654
  192 679.106 -18.9295 9.76654
  193 636.225 -2.36804 24.1499
  194 636.225 -2.36804 24.1499
  195 856.810 29.9082 58.7012
  196 856.810 29.9082 58.7012
  197 366.085 12.4183 -66.8450
  198 366.085 12.4183 -66.8450
  199 968.640 42.6123 26.4990
  200 968.640 42.6123 26.4990
  201 647.758 -8.20252 -25.8099
  202 647.758 -8.20252 -25.8099
  203 604.176 3.22680 8.25121
  204 604.176 3.22680 8.25121
  205 673.748 -26.7686 -14.7141
  206 673.748 -26.7686 -14.7141
  207 734.911 -36.1897 -9.13727
  208 734.911 -36.1897 -9.13727
  209 46.4265 -274.722 24.5499
  210 46.4265 -274.722 24.5499
  211 622.089 3.05893 -21.0085
  212 622.089 3.05893 -21.0085
  213 617.143 4.70878 18.2774
  214 617.143 4.70878 18.2774
  215 593.435 -54.9083 -97.1965
  216 593.435 -54.9083 -97.1965
  217 692.460 -14.7240 -13.5644
  218 692.460 -14.7240 -13.5644
  219 570.303 20.2994 -32.8304
  220 570.303 20.2994 -32.8304
  221 157.133 -192.206 176.645
  222 157.133 -192.206 176.645
  223 702.717 3.86599 21.5995
  224 702.717 3.86599 21.5995
  225 684.701 17.9022 -18.7399
  226 684.701 17.9022 -18.7399
  227 958.974 57.1356 -46.0829
  228 958.974 57.1356 -46.0829
  229 737.679 -26.4687 -7.86234
  230 737.679 -26.4687 -7.86234
  231 799.301 -29.5572 -150.852
  232 799.301 -29.5572 -150.852
  233 595.945 -27.0130 74.3213
  234 595.945 -27.0130 74.3213
  235 585.807 16.2246 2.52244
  236 585.807 16.2246 2.52244
  237 314.332 -45.1391 141.933
  238 314.332 -45.1391 141.933
  239 764.867 -61.4078 174.825
  240 764.867 -61.4078 174.825
  241 215.848 -25.4396 -70.5835
  242 215.848 -25.4396 -70.5835
  243 686.746 -51.9789 -35.6349
  244 686.746 -51.9789 -35.6349
  245 565.096 25.1272 18.8703
  246 565.096 25.1272 18.8703
  247 19.5591 -360.151 -20.2883
  248 19.5591 -360.151 -20.2883
  249 38.7098 -314.127 66.9182
  250 38.7098 -314.127 66.9182
  251 574.319 3.91274 52.9736
  252 574.319 3.91274 52.9736
  253 598.875 2.24512 2.01669
  254 598.875 2.24512 2.01669
  255 594.192 9.38405 0.387369
  256 594.192 9.38405 0.387369
  257 558.406 -6.95953 -70.7832
  258 558.406 -6.95953 -70.7832
  259 599.186 2.05116 -2.13669
  260 599.186 2.05116 -2.13669
  261 660.014 -46.8795 45.9644
  262 660.014 -46.8795 45.9644
  263 614.163 2.09998 -10.0561
  264 614.163 2.09998 -10.0561
  265 478.320 -40.5708 -132.725
  266 478.320 -40.5708 -132.725
  267 806.956 62.4738 0.371930
  268 806.956 62.4738 0.371930
  269 593.418 12.9023 -26.5458
  270 593.418 12.9023 -26.5458
  271 591.305 12.0667 -5.19582
  272 591.305 12.0667 -5.19582
  273 505.712 24.4895 -48.4659
  274 505.712 24.4895 -48.4659
  275 156.594 -56.5295 41.1231
  276 156.594 -56.5295 41.1231
  277 629.169 -105.629 137.294
  278 629.169 -105.629 137.294
  279 597.216 8.71028 10.1814
  280 597.216 8.71028 10.1814
  281 876.878 61.6702 -15.1951
  282 876.878 61.6702 -15.1951
  283 1037.18 95.2780 127.972
  284 1037.18 95.2780 127.972
  285 705.871 -75.2465 47.4786
  286 705.871 -75.2465 47.4786
  287 515.569 25.6263 35.4021
  288 515.569 25.6263 35.4021
  289 645.236 -129.738 181.476
  290 645.236 -129.738 181.476
  291 667.949 -8.07148 16.8665
  292 667.949 -8.07148 16.8665
  293 596.850 5.73242 2.76833
  294 596.850 5.73242 2.76833
  295 588.932 15.8702 -16.7801
  296 588.932 15.8702 -16.7801
  297 594.326 9.23549 -0.760611
  298 594.326 9.23549 -0.760611
  299 602.211 1.63630 -3.86815
  300 602.211 1.63630 -3.86815
  301 613.679 2.96166 10.0942
  302 613.679 2.96166 10.0942
  303 585.948 16.1415 -4.28576
  304 585.948 16.1415 -4.28576
  305 134.550 -223.880 -168.706
  306 134.550 -223.880 -168.706
  307 407.193 26.8292 33.2678
  308 407.193 26.8292 33.2678
  309 597.437 4.79107 -2.65570
  310 597.437 4.79107 -2.65570
  311 529.595 30.1863 -23.6804
  312 529.595 30.1863 -23.6804
  313 530.979 32.9071 8.98356
  314 530.979 32.9071 8.98356
  315 596.292 8.37547 -7.19390
  316 596.292 8.37547 -7.19390
  317 793.820 44.1124 -7.92699
  318 793.820 44.1124 -7.92699
  319 592.124 14.0611 23.1677
  320 592.124 14.0611 23.1677
  321 751.397 24.8649 -16.0370
  322 751.397 24.8649 -16.0370
  323 1086.08 30.2856 74.4267
  324 1086.08 30.2856 74.4267
  325 590.082 14.5527 14.4644
  326 590.082 14.5527 14.4644
  327 581.306 19.2806 7.56708
  328 581.306 19.2806 7.56708
  329 449.504 -85.4905 -261.377
  330 449.504 -85.4905 -261.377
  331 602.560 1.47832 3.78296
  332 602.560 1.47832 3.78296
  333 590.787 12.1523 3.88557
  334 590.787 12.1523 3.88557
  335 570.204 25.0831 0.870332
  336 570.204 25.0831 0.870332
  337 296.500 -104.034 208.687
  338 296.500 -104.034 208.687
  339 731.634 48.3478 2.85433
  340 731.634 48.3478 2.85433
  341 41.6155 -307.341 -76.6270
  342 41.6155 -307.341 -76.6270
  343 462.124 29.1086 29.4263
  344 462.124 29.1086 29.4263
  345 1028.74 13.5552 9.91002
  346 1028.74 13.5552 9.91002
  347 1074.75 55.5610 -77.1600
  348 1074.75 55.5610 -77.1600
  349 515.835 -60.0454 148.556
  350 538.465 -30.7596 109.207
  351 515.835 -60.0454 148.556
  352 538.465 -30.7596 109.207
  353 1043.77 25.3477 38.3944
  354 1043.77 25.3477 38.3944
  355 610.026 -1.03060 41.2849
  356 610.026 -1.03060 41.2849
  357 715.414 -96.7931 -108.511
  358 715.414 -96.7931 -108.511
  359 685.840 -5.73288 18.0986
  360 685.840 -5.73288 18.0986
  361 458.339 -86.2399 284.849
  362 458.339 -86.2399 284.849
  363 798.787 63.9888 -2.02133
  364 798.787 63.9888 -2.02133
  365 1041.44 9.12845 -7.94679
  366 1041.44 9.12845 -7.94679
  367 647.136 0.111069 -20.0463
  368 647.136 0.111069 -20.0463
  369 581.289 20.5223 -9.07312
  370 581.289 20.5223 -9.07312
  371 886.875 69.1593 25.6112
  372 886.875 69.1593 25.6112
  373 688.565 29.1265 -3.96463
  374 688.565 29.1265 -3.96463
  375 624.580 2.25227 -12.5693
  376 624.580 2.25227 -12.5693
  377 174.704 -82.6563 -120.716
  378 174.704 -82.6563 -120.716
  379 689.544 -12.5312 4.06016
  380 689.544 -12.5312 4.06016
  381 592.760 -1.11911 -48.8662
  382 592.760 -1.11911 -48.8662
  383 681.880 -1.23578 -21.7535
  384 681.880 -1.23578 -21.7535
  385 1047.23 18.1459 -31.6361
  386 1047.23 18.1459 -31.6361
  387 594.926 8.95548 5.68126
  388 594.926 8.95548 5.68126
  389 723.857 36.1550 17.1680
  390 723.857 36.1550 17.1680
  391 775.222 -14.6692 13.0652
  392 775.222 -14.6692 13.0652
  393 596.978 10.5497 -12.7718
  394 596.978 10.5497 -12.7718
  395 1107.12 112.853 -147.560
  396 1107.12 112.853 -147.560
  397 679.824 -10.1687 -7.73739
  398 679.824 -10.1687 -7.73739
</Section>

newXOutput 180

<Section columns = "stress_xx | stress_yy | stress_xy">
  1 600.976 0.592419 -0.631722
  2 601.253 0.727988 0.851082
  3 600.976 0.592419 -0.631722
  4 601.253 0.727988 0.851082
  5 901.293 78.1554 266.541
  6 935.096 77.1051 -262.377
  7 901.293 78.1554 266.541
  8 935.096 77.1051 -262.377
  9 602.367 0.411287 -1.66348
  10 606.964 0.720101 -2.96987
  11 613.658 1.61615 -6.06764
  12 629.123 0.581059 -8.21728
  13 649.239 0.905371 -13.6731
  14 673.150 -6.23364 -13.8106
  15 695.786 -7.39392 -2.15135
  16 687.576 -4.96975 10.3643
  17 664.740 5.49493 18.8526
  18 652.190 13.0977 -0.742658
  19 661.182 6.23869 -17.7815
  20 687.021 -7.42166 -12.6020
  21 689.666 -8.99052 5.31525
  22 676.578 -4.09974 11.9536
  23 645.163 0.0506782 13.8037
  24 627.814 2.27791 10.4297
  25 614.085 1.85559 5.82414
  26 607.098 0.580275 2.71862
  27 602.703 0.488342 1.61004
  28 602.058 2.11697 0.992682
  29 601.078 4.32367 1.16160
  30 598.663 7.48403 1.03779
  31 597.700 8.69258 -0.100196
  32 598.923 7.10468 -1.24063
  33 600.645 4.71407 -1.04630
  34 601.397 2.40627 -1.11863
  35 602.367 0.411287 -1.66348
  36 606.964 0.720101 -2.96987
  37 613.658 1.61615 -6.06764
  38 629.123 0.581059 -8.21728
  39 649.239 0.905371 -13.6731
  40 673.150 -6.23364 -13.8106
  41 695.786 -7.39392 -2.15135
  42 687.576 -4.96975 10.3643
  43 664.740 5.49493 18.8526
  44 652.190 13.0977 -0.742658
  45 661.182 6.23869 -17.7815
  46 687.021 -7.42166 -12.6020
  47 689.666 -8.99052 5.31525
  48 676.578 -4.09974 11.9536
  49 645.163 0.0506782 13.8037
  50 627.814 2.27791 10.4297
  51 614.085 1.85559 5.82414
  52 607.098 0.580275 2.71862
  53 602.703 0.488342 1.61004
  54 602.058 2.11697 0.992682
  55 601.078 4.32367 1.16160
  56 598.663 7.48403 1.03779
  57 597.700 8.69258 -0.100196
  58 598.923 7.10468 -1.24063
  59 600.645 4.71407 -1.04630
  60 601.397 2.40627 -1.11863
  61 1239.72 67.5285 132.369
  62 1133.38 18.2849 45.9080
  63 1071.73 7.24456 16.6624
  64 1058.44 5.33504 3.09992
  65 1071.08 7.16655 -14.1890
  66 1118.49 15.5890 -39.5894
  67 1251.46 58.6917 -114.004
  68 169.381 -171.839 -223.365
  69 33.6093 -439.448 -61.5334
  70 8.20008 -509.587 -26.8420
  71 7.89631 -501.447 -12.3635
  72 14.6379 -485.301 28.7916
  73 36.8318 -425.727 65.3416
  74 182.495 -158.907 246.953
  75 1239.72 67.5285 132.369
  76 1133.38 18.2849 45.9080
  77 1071.73 7.24456 16.6624
  78 1058.44 5.33504 3.09992
  79 1071.08 7.16655 -14.1890
  80 1118.49 15.5890 -39.5894
  81 1251.46 58.6917 -114.004
  82 169.381 -171.839 -223.365
  83 33.6093 -439.448 -61.5334
  84 8.20008 -509.587 -26.8420
  85 7.89631 -501.447 -12.3635
  86 14.6379 -485.301 28.7916
  87 36.8318 -425.727 65.3416
  88 182.495 -158.907 246.953
  89 555.177 31.2907 -8.05472
  90 555.177 31.2907 -8.05472
  91 507.557 7.16986 73.9731
  92 487.978 -2.84021 -88.6843
  93 507.557 7.16986 73.9731
  94 487.978 -2.84021 -88.6843
  95 292.353 8.98724 36.0911
  96 292.353 8.98724 36.0911
  97 739.670 48.1487 -9.61566
  98 751.654 28.6299 18.4836
  99 739.670 48.1487 -9.61566
  100 751.654 28.6299 18.4836
  101 593.222 14.0110 7.85514
  102 593.222 14.0110 7.85514
  103 704.754 -40.1512 4.12493
  104 704.754 -40.1512 4.12493
  105 593.871 14.6638 -9.70577
  106 593.871 14.6638 -9.70577
  107 690.528 -86.0568 -81.0265
  108 690.528 -86.0568 -81.0265
  109 486.772 -102.284 199.157
  110 486.772 -102.284 199.157
  111 332.601 -59.1054 -161.423
  112 332.601 -59.1054 -161.423
  113 595.956 9.73956 34.5736
  114 595.956 9.73956 34.5736
  115 616.582 3.90358 -33.2086
  116 616.582 3.90358 -33.2086
  117 830.488 58.0757 13.9226
  118 887.177 56.8034 5.99116
  119 830.488 58.0757 13.9226
  120 887.177 56.8034 5.99116
  121 869.998 74.8067 -27.1189
  122 869.998 74.8067 -27.1189
  123 98.3172 -155.959 -54.8885
  124 98.3172 -155.959 -54.8885
  125 747.373 -91.9195 89.9908
  126 747.373 -91.9195 89.9908
  127 636.524 -15.6094 40.0458
  128 636.524 -15.6094 40.0458
  129 149.549 -134.262 125.095
  130 149.549 -134.262 125.095
  131 594.017 11.6751 -0.489087
  132 594.017 11.6751 -0.489087
  133 635.250 -29.9396 -51.4097
  134 635.250 -29.9396 -51.4097
  135 602.650 4.79206 5.63420
  136 602.650 4.79206 5.63420
  137 603.111 4.22253 -5.24911
  138 603.111 4.22253 -5.24911
  139 609.396 8.16595 -17.0857
  140 609.396 8.16595 -17.0857
  141 606.788 7.97391 15.3458
  142 606.788 7.97391 15.3458
  143 582.843 19.5586 -0.637135
  144 582.843 19.5586 -0.637135
  145 491.094 32.3036 -3.80551
  146 491.094 32.3036 -3.80551
  147 702.042 -24.8975 7.90990
  148 702.042 -24.8975 7.90990
  149 796.815 -24.4942 -38.2603
  150 796.815 -24.4942 -38.2603
  151 619.674 -69.7985 98.8352
  152 619.674 -69.7985 98.8352
  153 467.634 -125.762 -226.619
  154 467.634 -125.762 -226.619
  155 556.050 22.5367 33.0381
  156 556.050 22.5367 33.0381
  157 714.683 -3.76171 -22.5981
  158 714.683 -3.76171 -22.5981
  159 963.016 78.3085 58.8173
  160 963.016 78.3085 58.8173
  161 486.570 -135.782 260.931
  162 486.570 -135.782 260.931
  163 980.650 31.5511 -11.4767
  164 980.650 31.5511 -11.4767
  165 580.586 19.5265 15.1172
  166 580.586 19.5265 15.1172
  167 552.503 18.6682 -48.6038
  168 552.503 18.6682 -48.6038
  169 682.765 21.1365 14.3426
  170 682.765 21.1365 14.3426
  171 575.462 23.3545 -17.2241
  172 575.462 23.3545 -17.2241
  173 597.344 9.37567 2.46459
  174 597.344 9.37567 2.46459
  175 606.432 4.55111 -8.99665
  176 606.432 4.55111 -8.99665
  177 924.832 77.2746 -61.3652
  178 924.832 77.2746 -61.3652
  179 597.771 9.13278 -2.97180
  180 597.771 9.13278 -2.97180
  181 446.418 32.6950 -25.5141
  182 446.418 32.6950 -25.5141
  183 791.177 59.1947 1.82444
  184 791.177 59.1947 1.82444
  185 163.291 -131.850 -160.996
  186 163.291 -131.850 -160.996
  187 438.450 -4.29407 108.358
  188 438.450 -4.29407 108.358
  189 578.110 -94.2834 -154.297
  190 578.110 -94.2834 -154.297
  191 682.616 -19.0310 9.83459
  192 682.616 -19.0310 9.83459
  193 639.524 -2.38320 24.2725
  194 639.524 -2.38320 24.2725
  195 861.148 30.1206 59.0908
  196 861.148 30.1206 59.0908
  197 368.069 12.4951 -67.2009
  198 368.069 12.4951 -67.2009
  199 973.486 42.8172 26.6421
  200 973.486 42.8172 26.6421
  201 651.113 -8.24849 -25.9468
  202 651.113 -8.24849 -25.9468
  203 607.327 3.24253 8.28905
  204 607.327 3.24253 8.28905
  205 677.230 -26.9122 -14.8096
  206 677.230 -26.9122 -14.8096
  207 738.685 -36.3654 -9.23848
  208 738.685 -36.3654 -9.23848
  209 46.6731 -276.174 24.7025
  210 46.6731 -276.174 24.7025
  211 625.322 3.07197 -21.1113
  212 625.322 3.07197 -21.1113
  213 620.353 4.73129 18.3657
  214 620.353 4.73129 18.3657
  215 596.518 -55.1995 -97.7167
  216 596.518 -55.1995 -97.7167
  217 696.049 -14.8007 -13.6056
  218 696.049 -14.8007 -13.6056
  219 573.302 20.4024 -32.9946
  220 573.302 20.4024 -32.9946
  221 157.956 -193.161 177.687
  222 157.956 -193.161 177.687
  223 706.371 3.89560 21.6758
  224 706.371 3.89560 21.6758
  225 688.286 18.0027 -18.8132
  226 688.286 18.0027 -18.8132
  227 963.786 57.4211 -46.3412
  228 963.786 57.4211 -46.3412
  229 741.470 -26.5929 -7.84817
  230 741.470 -26.5929 -7.84817
  231 803.323 -29.6210 -151.733
  232 803.323 -29.6210 -151.733
  233 599.049 -27.1558 74.7113
  234 599.049 -27.1558 74.7113
  235 588.880 16.3050 2.53427
  236 588.880 16.3050 2.53427
  237 316.024 -45.3675 142.710
  238 316.024 -45.3675 142.710
  239 768.715 -61.6542 175.826
  240 768.715 -61.6542 175.826
  241 217.041 -25.5461 -70.9754
  242 217.041 -25.5461 -70.9754
  243 690.281 -52.2523 -35.8497
  244 690.281 -52.2523 -35.8497
  245 568.073 25.2546 18.9631
  246 568.073 25.2546 18.9631
  247 19.6528 -362.089 -20.4187
  248 19.6528 -362.089 -20.4187
  249 38.9104 -315.784 67.3433
  250 38.9104 -315.784 67.3433
  251 577.331 3.93207 53.2445
  252 577.331 3.93207 53.2445
  253 602.003 2.25635 2.02564
  254 602.003 2.25635 2.02564
  255 597.301 9.42985 0.389143
  256 597.301 9.42985 0.389143
  257 561.338 -6.99696 -71.1507
  258 561.338 -6.99696 -71.1507
  259 602.315 2.06151 -2.14618
  260 602.315 2.06151 -2.14618
  261 663.423 -47.1273 46.2235
  262 663.423 -47.1273 46.2235
  263 617.358 2.10994 -10.1028
  264 617.358 2.10994 -10.1028
  265 480.841 -40.7858 -133.432
  266 480.841 -40.7858 -133.432
  267 811.109 62.8029 0.410663
  268 811.109 62.8029 0.410663
  269 596.524 12.9661 -26.6755
  270 596.524 12.9661 -26.6755
  271 594.402 12.1262 -5.21966
  272 594.402 12.1262 -5.21966
  273 508.401 24.6185 -48.7145
  274 508.401 24.6185 -48.7145
  275 157.465 -56.7879 41.3576
  276 157.465 -56.7879 41.3576
  277 632.399 -106.189 138.044
  278 632.399 -106.189 138.044
  279 600.337 8.75328 10.2285
  280 600.337 8.75328 10.2285
  281 881.343 61.9797 -15.2910
  282 881.343 61.9797 -15.2910
  283 1042.31 95.8357 128.682
  284 1042.31 95.8357 128.682
  285 709.488 -75.6359 47.7696
  286 709.488 -75.6359 47.7696
  287 518.308 25.7602 35.5815
  288 518.308 25.7602 35.5815
  289 648.524 -130.418 182.473
  290 648.524 -130.418 182.473
  291 671.398 -8.11614 16.9584
  292 671.398 -8.11614 16.9584
  293 599.970 5.76062 2.78076
  294 599.970 5.76062 2.78076
  295 592.018 15.9492 -16.8600
  296 592.018 15.9492 -16.8600
  297 597.435 9.28059 -0.764028
  298 597.435 9.28059 -0.764028
  299 605.353 1.64444 -3.88553
  300 605.353 1.64444 -3.88553
  301 616.872 2.97593 10.1410
  302 616.872 2.97593 10.1410
  303 589.022 16.2216 -4.30580
  304 589.022 16.2216 -4.30580
  305 135.250 -224.987 -169.710
  306 135.250 -224.987 -169.710
  307 409.394 26.9780 33.4412
  308 409.394 26.9780 33.4412
  309 600.559 4.81475 -2.66756
  310 600.559 4.81475 -2.66756
  311 532.404 30.3421 -23.7999
  312 532.404 30.3421 -23.7999
  313 533.797 33.0768 9.02826
  314 533.797 33.0768 9.02826
  315 599.410 8.41680 -7.22686
  316 599.410 8.41680 -7.22686
  317 797.893 44.3711 -8.03593
  318 797.893 44.3711 -8.03593
  319 595.224 14.1311 23.2797
  320 595.224 14.1311 23.2797
  321 755.276 25.0108 -16.0679
  322 755.276 25.0108 -16.0679
  323 1091.40 30.4276 74.8076
  324 1091.40 30.4276 74.8076
  325 593.173 14.6250 14.5328
  326 593.173 14.6250 14.5328
  327 584.359 19.3767 7.60288
  328 584.359 19.3767 7.60288
  329 451.778 -85.7667 -262.864
  330 451.778 -85.7667 -262.864
  331 605.704 1.48567 3.79995
  332 605.704 1.48567 3.79995
  333 593.882 12.2121 3.90344
  334 593.882 12.2121 3.90344
  335 573.207 25.2094 0.874502
  336 573.207 25.2094 0.874502
  337 298.077 -104.578 209.859
  338 298.077 -104.578 209.859
  339 735.445 48.6057 2.86034
  340 735.445 48.6057 2.86034
  341 41.8263 -308.958 -77.1030
  342 41.8263 -308.958 -77.1030
  343 464.604 29.2640 29.5771
  344 464.604 29.2640 29.5771
  345 1033.80 13.6158 9.95595
  346 1033.80 13.6158 9.95595
  347 1080.05 55.8490 -77.5606
  348 1080.05 55.8490 -77.5606
  349 518.530 -60.3656 149.348
  350 541.288 -30.9220 109.779
  351 518.530 -60.3656 149.348
  352 541.288 -30.9220 109.779
  353 1048.91 25.4638 38.5844
  354 1048.91 25.4638 38.5844
  355 613.206 -1.03828 41.4955
  356 613.206 -1.03828 41.4955
  357 719.051 -97.2884 -109.130
  358 719.051 -97.2884 -109.130
  359 689.407 -5.76018 18.1688
  360 689.407 -5.76018 18.1688
  361 460.638 -86.5303 286.456
  362 460.638 -86.5303 286.456
  363 802.909 64.3184 -2.03005
  364 802.909 64.3184 -2.03005
  365 1046.55 9.16861 -7.98518
  366 1046.55 9.16861 -7.98518
  367 650.482 0.108886 -20.1467
  368 650.482 0.108886 -20.1467
  369 584.342 20.6248 -9.11624
  370 584.342 20.6248 -9.11624
  371 891.384 69.5152 25.7780
  372 891.384 69.5152 25.7780
  373 692.175 29.2842 -3.98012
  374 692.175 29.2842 -3.98012
  375 627.821 2.26234 -12.6289
  376 627.821 2.26234 -12.6289
  377 175.674 -83.0635 -121.405
  378 175.674 -83.0635 -121.405
  379 693.109 -12.5976 4.06379
  380 693.109 -12.5976 4.06379
  381 595.858 -1.12730 -49.1176
  382 595.858 -1.12730 -49.1176
  383 685.439 -1.23982 -21.8399
  384 685.439 -1.23982 -21.8399
  385 1052.38 18.2310 -31.7906
  386 1052.38 18.2310 -31.7906
  387 598.038 8.99953 5.70720
  388 598.038 8.99953 5.70720
  389 727.621 36.3540 17.2232
  390 727.621 36.3540 17.2232
  391 779.182 -14.7168 13.2031
  392 779.182 -14.7168 13.2031
  393 600.098 10.6019 -12.8314
  394 600.098 10.6019 -12.8314
  395 1112.54 113.524 -148.367
  396 1112.54 113.524 -148.367
  397 683.330 -10.2248 -7.78543
  398 683.330 -10.2248 -7.78543
</Section>

newXOutput 181

<Section columns = "stress_xx | stress_yy | stress_xy">
  1 604.098 0.595580 -0.634453
  2 604.375 0.731781 0.854751
  3 604.098 0.595580 -0.634453
  4 604.375 0.731781 0.854751
  5 905.668 78.7738 268.001
  6 939.618 77.7263 -263.815
  7 905.668 78.7738 268.001
  8 939.618 77.7263 -263.815
  9 605.494 0.413399 -1.67074
  10 610.111 0.723696 -2.98303
  11 616.833 1.62400 -6.09506
  12 632.366 0.583571 -8.25527
  13 652.572 0.908496 -13.7391
  14 676.597 -6.26879 -13.8817
  15 699.348 -7.43416 -2.16942
  16 691.127 -4.99540 10.4027
  17 668.213 5.52769 18.9306
  18 655.619 13.1706 -0.745818
  19 664.641 6.27290 -17.8562
  20 690.571 -7.46037 -12.6482
  21 693.199 -9.03961 5.35097
  22 680.040 -4.12264 12.0158
  23 648.479 0.0488859 13.8711
  24 631.051 2.28853 10.4782
  25 617.262 1.86462 5.85037
  26 610.245 0.583192 2.73063
  27 605.832 0.490876 1.61713
  28 605.183 2.12749 0.996941
  29 604.200 4.34489 1.16669
  30 601.775 7.52035 1.04240
  31 600.808 8.73464 -0.100634
  32 602.036 7.13922 -1.24608
  33 603.765 4.73721 -1.05075
  34 604.520 2.41830 -1.12353
  35 605.494 0.413399 -1.67074
  36 610.111 0.723696 -2.98303
  37 616.833 1.62400 -6.09506
  38 632.366 0.583571 -8.25527
  39 652.572 0.908496 -13.7391
  40 676.597 -6.26879 -13.8817
  41 699.348 -7.43416 -2.16942
  42 691.127 -4.99540 10.4027
  43 668.213 5.52769 18.9306
  44 655.619 13.1706 -0.745818
  45 664.641 6.27290 -17.8562
  46 690.571 -7.46037 -12.6482
  47 693.199 -9.03961 5.35097
  48 680.040 -4.12264 12.0158
  49 648.479 0.0488859 13.8711
  50 631.051 2.28853 10.4782
  51 617.262 1.86462 5.85037
  52 610.245 0.583192 2.73063
  53 605.832 0.490876 1.61713
  54 605.183 2.12749 0.996941
  55 604.200 4.34489 1.16669
  56 601.775 7.52035 1.04240
  57 600.808 8.73464 -0.100634
  58 602.036 7.13922 -1.24608
  59 603.765 4.73721 -1.05075
  60 604.520 2.41830 -1.12353
  61 1245.64 67.8882 133.031
  62 1138.83 18.3698 46.1259
  63 1076.92 7.27329 16.7379
  64 1063.57 5.35754 3.11189
  65 1076.27 7.19805 -14.2529
  66 1123.89 15.6603 -39.7743
  67 1257.44 59.0033 -114.574
  68 170.234 -172.508 -224.657
  69 33.7804 -441.765 -61.9442
  70 8.22522 -512.395 -27.0213
  71 7.92152 -504.223 -12.4315
  72 14.7019 -487.958 28.9847
  73 37.0238 -427.970 65.7799
  74 183.400 -159.509 248.374
  75 1245.64 67.8882 133.031
  76 1138.83 18.3698 46.1259
  77 1076.92 7.27329 16.7379
  78 1063.57 5.35754 3.11189
  79 1076.27 7.19805 -14.2529
  80 1123.89 15.6603 -39.7743
  81 1257.44 59.0033 -114.574
  82 170.234 -172.508 -224.657
  83 33.7804 -441.765 -61.9442
  84 8.22522 -512.395 -27.0213
  85 7.92152 -504.223 -12.4315
  86 14.7019 -487.958 28.9847
  87 37.0238 -427.970 65.7799
  88 183.400 -159.509 248.374
  89 558.094 31.4492 -8.09445
  90 558.094 31.4492 -8.09445
  91 510.231 7.20906 74.3532
  92 490.552 -2.85310 -89.1451
  93 510.231 7.20906 74.3532
  94 490.552 -2.85310 -89.1451
  95 293.953 9.05388 36.2841
  96 293.953 9.05388 36.2841
  97 743.495 48.4047 -9.64357
  98 755.515 28.7953 18.5257
  99 743.495 48.4047 -9.64357
  100 755.515 28.7953 18.5257
  101 596.312 14.0798 7.89142
  102 596.312 14.0798 7.89142
  103 708.367 -40.3578 4.18494
  104 708.367 -40.3578 4.18494
  105 596.962 14.7361 -9.75077
  106 596.962 14.7361 -9.75077
  107 694.043 -86.5060 -81.4791
  108 694.043 -86.5060 -81.4791
  109 489.293 -102.826 200.234
  110 489.293 -102.826 200.234
  111 334.368 -59.4089 -162.305
  112 334.368 -59.4089 -162.305
  113 599.055 9.78690 34.7446
  114 599.055 9.78690 34.7446
  115 619.775 3.92039 -33.3747
  116 619.775 3.92039 -33.3747
  117 834.714 58.3996 14.0605
  118 891.661 57.0826 6.03185
  119 834.714 58.3996 14.0605
  120 891.661 57.0826 6.03185
  121 874.410 75.2035 -27.3074
  122 874.410 75.2035 -27.3074
  123 98.8524 -156.741 -55.2131
  124 98.8524 -156.741 -55.2131
  125 751.146 -92.3723 90.5209
  126 751.146 -92.3723 90.5209
  127 639.809 -15.6932 40.2574
  128 639.809 -15.6932 40.2574
  129 150.360 -134.931 125.822
  130 150.360 -134.931 125.822
  131 597.110 11.7321 -0.491249
  132 597.110 11.7321 -0.491249
  133 638.525 -30.0982 -51.6857
  134 638.525 -30.0982 -51.6857
  135 605.779 4.81562 5.65955
  136 605.779 4.81562 5.65955
  137 606.242 4.24340 -5.27262
  138 606.242 4.24340 -5.27262
  139 612.555 8.20557 -17.1664
  140 612.555 8.20557 -17.1664
  141 609.935 8.01284 15.4177
  142 609.935 8.01284 15.4177
  143 585.887 19.6554 -0.640280
  144 585.887 19.6554 -0.640280
  145 493.705 32.4718 -3.82530
  146 493.705 32.4718 -3.82530
  147 705.650 -25.0236 7.91684
  148 705.650 -25.0236 7.91684
  149 800.845 -24.5765 -38.5384
  150 800.845 -24.5765 -38.5384
  151 622.859 -70.1666 99.3641
  152 622.859 -70.1666 99.3641
  153 470.030 -126.399 -227.880
  154 470.030 -126.399 -227.880
  155 558.966 22.6518 33.2028
  156 558.966 22.6518 33.2028
  157 718.361 -3.77355 -22.6724
  158 718.361 -3.77355 -22.6724
  159 967.824 78.7216 59.1557
  160 967.824 78.7216 59.1557
  161 489.058 -136.483 262.367
  162 489.058 -136.483 262.367
  163 985.510 31.6972 -11.5365
  164 985.510 31.6972 -11.5365
  165 583.620 19.6236 15.1894
  166 583.620 19.6236 15.1894
  167 555.399 18.7640 -48.8495
  168 555.399 18.7640 -48.8495
  169 686.327 21.2535 14.4003
  170 686.327 21.2535 14.4003
  171 578.472 23.4713 -17.3072
  172 578.472 23.4713 -17.3072
  173 600.451 9.42133 2.47569
  174 600.451 9.42133 2.47569
  175 609.577 4.57330 -9.03774
  176 609.577 4.57330 -9.03774
  177 929.464 77.7182 -61.7521
  178 929.464 77.7182 -61.7521
  179 600.880 9.17737 -2.98513
  180 600.880 9.17737 -2.98513
  181 448.806 32.8704 -25.6458
  182 448.806 32.8704 -25.6458
  183 795.235 59.5075 1.79660
  184 795.235 59.5075 1.79660
  185 164.165 -132.507 -161.926
  186 164.165 -132.507 -161.926
  187 440.775 -4.31193 108.926
  188 440.775 -4.31193 108.926
  189 581.080 -94.7815 -155.130
  190 581.080 -94.7815 -155.130
  191 686.124 -19.1324 9.90277
  192 686.124 -19.1324 9.90277
  193 642.820 -2.39839 24.3950
  194 642.820 -2.39839 24.3950
  195 865.481 30.3334 59.4809
  196 865.481 30.3334 59.4809
  197 370.052 12.5720 -67.5566
  198 370.052 12.5720 -67.5566
  199 978.326 43.0217 26.7851
  200 978.326 43.0217 26.7851
  201 654.464 -8.29445 -26.0835
  202 654.464 -8.29445 -26.0835
  203 610.476 3.25824 8.32680
  204 610.476 3.25824 8.32680
  205 680.709 -27.0558 -14.9052
  206 680.709 -27.0558 -14.9052
  207 742.455 -36.5408 -9.34015
  208 742.455 -36.5408 -9.34015
  209 46.9196 -277.625 24.8552
  210 46.9196 -277.625 24.8552
  211 628.552 3.08496 -21.2139
  212 628.552 3.08496 -21.2139
  213 623.560 4.75375 18.4538
  214 623.560 4.75375 18.4538
  215 599.599 -55.4904 -98.2366
  216 599.599 -55.4904 -98.2366
  217 699.634 -14.8774 -13.6464
  218 699.634 -14.8774 -13.6464
  219 576.299 20.5054 -33.1586
  220 576.299 20.5054 -33.1586
  221 158.779 -194.115 178.728
  222 158.779 -194.115 178.728
  223 710.021 3.92528 21.7517
  224 710.021 3.92528 21.7517
  225 691.868 18.1032 -18.8862
  226 691.868 18.1032 -18.8862
  227 968.591 57.7062 -46.5994
  228 968.591 57.7062 -46.5994
  229 745.257 -26.7169 -7.83345
  230 745.257 -26.7169 -7.83345
  231 807.341 -29.6838 -152.614
  232 807.341 -29.6838 -152.614
  233 602.150 -27.2984 75.1010
  234 602.150 -27.2984 75.1010
  235 591.951 16.3853 2.54606
  236 591.951 16.3853 2.54606
  237 317.714 -45.5956 143.487
  238 317.714 -45.5956 143.487
  239 772.559 -61.8996 176.828
  240 772.559 -61.8996 176.828
  241 218.234 -25.6521 -71.3672
  242 218.234 -25.6521 -71.3672
  243 693.814 -52.5255 -36.0646
  244 693.814 -52.5255 -36.0646
  245 571.049 25.3819 19.0557
  246 571.049 25.3819 19.0557
  247 19.7463 -364.027 -20.5493
  248 19.7463 -364.027 -20.5493
  249 39.1109 -317.439 67.7689
  250 39.1109 -317.439 67.7689
  251 580.341 3.95137 53.5151
  252 580.341 3.95137 53.5151
  253 605.129 2.26757 2.03456
  254 605.129 2.26757 2.03456
  255 600.408 9.47557 0.390912
  256 600.408 9.47557 0.390912
  257 564.268 -7.03438 -71.5179
  258 564.268 -7.03438 -71.5179
  259 605.442 2.07185 -2.15564
  260 605.442 2.07185 -2.15564
  261 666.828 -47.3748 46.4826
  262 666.828 -47.3748 46.4826
  263 620.550 2.11988 -10.1493
  264 620.550 2.11988 -10.1493
  265 483.360 -41.0007 -134.139
  266 483.360 -41.0007 -134.139
  267 815.258 63.1318 0.449725
  268 815.258 63.1318 0.449725
  269 599.627 13.0299 -26.8051
  270 599.627 13.0299 -26.8051
  271 597.496 12.1856 -5.24344
  272 597.496 12.1856 -5.24344
  273 511.089 24.7475 -48.9627
  274 511.089 24.7475 -48.9627
  275 158.337 -57.0457 41.5921
  276 158.337 -57.0457 41.5921
  277 635.626 -106.748 138.794
  278 635.626 -106.748 138.794
  279 603.457 8.79621 10.2755
  280 603.457 8.79621 10.2755
  281 885.803 62.2888 -15.3870
  282 885.803 62.2888 -15.3870
  283 1047.43 96.3936 129.392
  284 1047.43 96.3936 129.392
  285 713.102 -76.0250 48.0608
  286 713.102 -76.0250 48.0608
  287 521.046 25.8940 35.7607
  288 521.046 25.8940 35.7607
  289 651.809 -131.098 183.469
  290 651.809 -131.098 183.469
  291 674.843 -8.16080 17.0503
  292 674.843 -8.16080 17.0503
  293 603.087 5.78878 2.79316
  294 603.087 5.78878 2.79316
  295 595.102 16.0281 -16.9397
  296 595.102 16.0281 -16.9397
  297 600.543 9.32562 -0.767437
  298 600.543 9.32562 -0.767437
  299 608.493 1.65257 -3.90287
  300 608.493 1.65257 -3.90287
  301 620.062 2.99017 10.1877
  302 620.062 2.99017 10.1877
  303 592.093 16.3015 -4.32580
  304 592.093 16.3015 -4.32580
  305 135.950 -226.092 -170.714
  306 135.950 -226.092 -170.714
  307 411.594 27.1268 33.6145
  308 411.594 27.1268 33.6145
  309 603.678 4.83840 -2.67939
  310 603.678 4.83840 -2.67939
  311 535.212 30.4977 -23.9193
  312 535.212 30.4977 -23.9193
  313 536.612 33.2463 9.07290
  314 536.612 33.2463 9.07290
  315 602.525 8.45808 -7.25975
  316 602.525 8.45808 -7.25975
  317 801.962 44.6300 -8.14545
  318 801.962 44.6300 -8.14545
  319 598.321 14.2010 23.3914
  320 598.321 14.2010 23.3914
  321 759.152 25.1568 -16.0982
  322 759.152 25.1568 -16.0982
  323 1096.72 30.5693 75.1881
  324 1096.72 30.5693 75.1881
  325 596.262 14.6972 14.6011
  326 596.262 14.6972 14.6011
  327 587.410 19.4727 7.63861
  328 587.410 19.4727 7.63861
  329 454.050 -86.0408 -264.352
  330 454.050 -86.0408 -264.352
  331 608.846 1.49301 3.81689
  332 608.846 1.49301 3.81689
  333 596.974 12.2719 3.92127
  334 596.974 12.2719 3.92127
  335 576.207 25.3355 0.878664
  336 576.207 25.3355 0.878664
  337 299.654 -105.121 211.031
  338 299.654 -105.121 211.031
  339 739.253 48.8634 2.86626
  340 739.253 48.8634 2.86626
  341 42.0370 -310.575 -77.5796
  342 42.0370 -310.575 -77.5796
  343 467.083 29.4193 29.7277
  344 467.083 29.4193 29.7277
  345 1038.86 13.6763 10.0018
  346 1038.86 13.6763 10.0018
  347 1085.34 56.1367 -77.9608
  348 1085.34 56.1367 -77.9608
  349 521.224 -60.6855 150.140
  350 544.108 -31.0842 110.351
  351 521.224 -60.6855 150.140
  352 544.108 -31.0842 110.351
  353 1054.05 25.5798 38.7741
  354 1054.05 25.5798 38.7741
  355 616.383 -1.04597 41.7059
  356 616.383 -1.04597 41.7059
  357 722.685 -97.7832 -109.750
  358 722.685 -97.7832 -109.750
  359 692.972 -5.78743 18.2388
  360 692.972 -5.78743 18.2388
  361 462.935 -86.8186 288.062
  362 462.935 -86.8186 288.062
  363 807.026 64.6478 -2.03875
  364 807.026 64.6478 -2.03875
  365 1051.66 9.20867 -8.02351
  366 1051.66 9.20867 -8.02351
  367 653.826 0.106677 -20.2470
  368 653.826 0.106677 -20.2470
  369 587.392 20.7272 -9.15928
  370 587.392 20.7272 -9.15928
  371 895.887 69.8709 25.9450
  372 895.887 69.8709 25.9450
  373 695.782 29.4417 -3.99555
  374 695.782 29.4417 -3.99555
  375 631.060 2.27240 -12.6885
  376 631.060 2.27240 -12.6885
  377 176.643 -83.4702 -122.094
  378 176.643 -83.4702 -122.094
  379 696.670 -12.6640 4.06725
  380 696.670 -12.6640 4.06725
  381 598.955 -1.13551 -49.3688
  382 598.955 -1.13551 -49.3688
  383 688.994 -1.24383 -21.9259
  384 688.994 -1.24383 -21.9259
  385 1057.53 18.3159 -31.9449
  386 1057.53 18.3159 -31.9449
  387 601.148 9.04352 5.73308
  388 601.148 9.04352 5.73308
  389 731.382 36.5530 17.2781
  390 731.382 36.5530 17.2781
  391 783.139 -14.7640 13.3416
  392 783.139 -14.7640 13.3416
  393 603.217 10.6540 -12.8908
  394 603.217 10.6540 -12.8908
  395 1117.96 114.196 -149.174
  396 1117.96 114.196 -149.174
  397 686.833 -10.2808 -7.83350
  398 686.833 -10.2808 -7.83350
</Section>

newXOutput 182

<Section columns = "stress_xx | stress_yy | stress_xy">
  1 607.217 0.598740 -0.637176
  2 607.495 0.735570 0.858410
  3 607.217 0.598740 -0.637176
  4 607.495 0.735570 0.858410
  5 910.036 79.3941 269.460
  6 944.132 78.3493 -265.253
  7 910.036 79.3941 269.460
  8 944.132 78.3493 -265.253
  9 608.619 0.415509 -1.67799
  10 613.254 0.727288 -2.99616
  11 620.005 1.63183 -6.12242
  12 635.605 0.586076 -8.29317
  13 655.902 0.911602 -13.8049
  14 680.039 -6.30395 -13.9528
  15 702.907 -7.47440 -2.18755
  16 694.676 -5.02103 10.4408
  17 671.684 5.56048 19.0083
  18 659.046 13.2435 -0.748967
  19 668.097 6.30710 -17.9306
  20 694.118 -7.49905 -12.6941
  21 696.729 -9.08869 5.38675
  22 683.500 -4.14553 12.0780
  23 651.793 0.0470739 13.9383
  24 634.286 2.29912 10.5267
  25 620.436 1.87363 5.87653
  26 613.390 0.586106 2.74261
  27 608.958 0.493409 1.62419
  28 608.307 2.13800 1.00119
  29 607.319 4.36608 1.17176
  30 604.885 7.55662 1.04699
  31 603.914 8.77663 -0.101071
  32 605.147 7.17372 -1.25151
  33 606.882 4.76031 -1.05518
  34 607.641 2.43032 -1.12842
  35 608.619 0.415509 -1.67799
  36 613.254 0.727288 -2.99616
  37 620.005 1.63183 -6.12242
  38 635.605 0.586076 -8.29317
  39 655.902 0.911602 -13.8049
  40 680.039 -6.30395 -13.9528
  41 702.907 -7.47440 -2.18755
  42 694.676 -5.02103 10.4408
  43 671.684 5.56048 19.0083
  44 659.046 13.2435 -0.748967
  45 668.097 6.30710 -17.9306
  46 694.118 -7.49905 -12.6941
  47 696.729 -9.08869 5.38675
  48 683.500 -4.14553 12.0780
  49 651.793 0.0470739 13.9383
  50 634.286 2.29912 10.5267
  51 620.436 1.87363 5.87653
  52 613.390 0.586106 2.74261
  53 608.958 0.493409 1.62419
  54 608.307 2.13800 1.00119
  55 607.319 4.36608 1.17176
  56 604.885 7.55662 1.04699
  57 603.914 8.77663 -0.101071
  58 605.147 7.17372 -1.25151
  59 606.882 4.76031 -1.05518
  60 607.641 2.43032 -1.12842
  61 1251.55 68.2476 133.692
  62 1144.28 18.4546 46.3434
  63 1082.11 7.30192 16.8132
  64 1068.70 5.37997 3.12382
  65 1081.45 7.22948 -14.3166
  66 1129.28 15.7314 -39.9588
  67 1263.41 59.3146 -115.143
  68 171.087 -173.174 -225.949
  69 33.9512 -444.081 -62.3557
  70 8.25016 -515.203 -27.2010
  71 7.94654 -506.999 -12.4994
  72 14.7657 -490.613 29.1782
  73 37.2157 -430.211 66.2189
  74 184.303 -160.109 249.795
  75 1251.55 68.2476 133.692
  76 1144.28 18.4546 46.3434
  77 1082.11 7.30192 16.8132
  78 1068.70 5.37997 3.12382
  79 1081.45 7.22948 -14.3166
  80 1129.28 15.7314 -39.9588
  81 1263.41 59.3146 -115.143
  82 171.087 -173.174 -225.949
  83 33.9512 -444.081 -62.3557
  84 8.25016 -515.203 -27.2010
  85 7.94654 -506.999 -12.4994
  86 14.7657 -490.613 29.1782
  87 37.2157 -430.211 66.2189
  88 184.303 -160.109 249.795
  89 561.009 31.6076 -8.13412
  90 561.009 31.6076 -8.13412
  91 512.904 7.24826 74.7329
  92 493.125 -2.86596 -89.6055
  93 512.904 7.24826 74.7329
  94 493.125 -2.86596 -89.6055
  95 295.552 9.12067 36.4769
  96 295.552 9.12067 36.4769
  97 747.317 48.6606 -9.67124
  98 759.373 28.9607 18.5672
  99 747.317 48.6606 -9.67124
  100 759.373 28.9607 18.5672
  101 599.399 14.1486 7.92763
  102 599.399 14.1486 7.92763
  103 711.976 -40.5642 4.24530
  104 711.976 -40.5642 4.24530
  105 600.052 14.8083 -9.79569
  106 600.052 14.8083 -9.79569
  107 697.556 -86.9549 -81.9317
  108 697.556 -86.9549 -81.9317
  109 491.813 -103.369 201.309
  110 491.813 -103.369 201.309
  111 336.134 -59.7120 -163.187
  112 336.134 -59.7120 -163.187
  113 602.152 9.83417 34.9154
  114 602.152 9.83417 34.9154
  115 622.965 3.93716 -33.5406
  116 622.965 3.93716 -33.5406
  117 838.936 58.7234 14.1989
  118 896.139 57.3615 6.07259
  119 838.936 58.7234 14.1989
  120 896.139 57.3615 6.07259
  121 878.818 75.6001 -27.4962
  122 878.818 75.6001 -27.4962
  123 99.3875 -157.522 -55.5379
  124 99.3875 -157.522 -55.5379
  125 754.916 -92.8244 91.0512
  126 754.916 -92.8244 91.0512
  127 643.091 -15.7770 40.4688
  128 643.091 -15.7770 40.4688
  129 151.170 -135.599 126.549
  130 151.170 -135.599 126.549
  131 600.201 11.7890 -0.493406
  132 600.201 11.7890 -0.493406
  133 641.797 -30.2568 -51.9616
  134 641.797 -30.2568 -51.9616
  135 608.905 4.83914 5.68484
  136 608.905 4.83914 5.68484
  137 609.370 4.26423 -5.29608
  138 609.370 4.26423 -5.29608
  139 615.712 8.24514 -17.2470
  140 615.712 8.24514 -17.2470
  141 613.080 8.05171 15.4895
  142 613.080 8.05171 15.4895
  143 588.929 19.7522 -0.643422
  144 588.929 19.7522 -0.643422
  145 496.314 32.6399 -3.84508
  146 496.314 32.6399 -3.84508
  147 709.255 -25.1497 7.92342
  148 709.255 -25.1497 7.92342
  149 804.871 -24.6583 -38.8171
  150 804.871 -24.6583 -38.8171
  151 626.041 -70.5344 99.8927
  152 626.041 -70.5344 99.8927
  153 472.424 -127.035 -229.141
  154 472.424 -127.035 -229.141
  155 561.881 22.7667 33.3673
  156 561.881 22.7667 33.3673
  157 722.036 -3.78529 -22.7463
  158 722.036 -3.78529 -22.7463
  159 972.626 79.1345 59.4940
  160 972.626 79.1345 59.4940
  161 491.543 -137.183 263.802
  162 491.543 -137.183 263.802
  163 990.364 31.8430 -11.5962
  164 990.364 31.8430 -11.5962
  165 586.651 19.7205 15.2615
  166 586.651 19.7205 15.2615
  167 558.294 18.8597 -49.0950
  168 558.294 18.8597 -49.0950
  169 689.886 21.3705 14.4579
  170 689.886 21.3705 14.4579
  171 581.480 23.5880 -17.3901
  172 581.480 23.5880 -17.3901
  173 603.556 9.46693 2.48676
  174 603.556 9.46693 2.48676
  175 612.720 4.59547 -9.07874
  176 612.720 4.59547 -9.07874
  177 934.091 78.1618 -62.1394
  178 934.091 78.1618 -62.1394
  179 603.986 9.22190 -2.99842
  180 603.986 9.22190 -2.99842
  181 451.192 33.0456 -25.7774
  182 451.192 33.0456 -25.7774
  183 799.289 59.8201 1.76841
  184 799.289 59.8201 1.76841
  185 165.039 -133.163 -162.857
  186 165.039 -133.163 -162.857
  187 443.099 -4.32973 109.493
  188 443.099 -4.32973 109.493
  189 584.047 -95.2793 -155.963
  190 584.047 -95.2793 -155.963
  191 689.628 -19.2338 9.97106
  192 689.628 -19.2338 9.97106
  193 646.113 -2.41358 24.5174
  194 646.113 -2.41358 24.5174
  195 869.810 30.5467 59.8714
  196 869.810 30.5467 59.8714
  197 372.034 12.6489 -67.9121
  198 372.034 12.6489 -67.9121
  199 983.160 43.2260 26.9281
  200 983.160 43.2260 26.9281
  201 657.813 -8.34041 -26.2201
  202 657.813 -8.34041 -26.2201
  203 613.622 3.27393 8.36447
  204 613.622 3.27393 8.36447
  205 684.185 -27.1992 -15.0009
  206 684.185 -27.1992 -15.0009
  207 746.221 -36.7159 -9.44229
  208 746.221 -36.7159 -9.44229
  209 47.1659 -279.075 25.0081
  210 47.1659 -279.075 25.0081
  211 631.780 3.09791 -21.3164
  212 631.780 3.09791 -21.3164
  213 626.765 4.77618 18.5418
  214 626.765 4.77618 18.5418
  215 602.677 -55.7812 -98.7562
  216 602.677 -55.7812 -98.7562
  217 703.217 -14.9540 -13.6868
  218 703.217 -14.9540 -13.6868
  219 579.294 20.6083 -33.3224
  220 579.294 20.6083 -33.3224
  221 159.601 -195.067 179.771
  222 159.601 -195.067 179.771
  223 713.668 3.95505 21.8271
  224 713.668 3.95505 21.8271
  225 695.448 18.2037 -18.9588
  226 695.448 18.2037 -18.9588
  227 973.391 57.9910 -46.8575
  228 973.391 57.9910 -46.8575
  229 749.040 -26.8406 -7.81817
  230 749.040 -26.8406 -7.81817
  231 811.353 -29.7456 -153.495
  232 811.353 -29.7456 -153.495
  233 605.249 -27.4409 75.4904
  234 605.249 -27.4409 75.4904
  235 595.020 16.4655 2.55784
  236 595.020 16.4655 2.55784
  237 319.404 -45.8234 144.264
  238 319.404 -45.8234 144.264
  239 776.398 -62.1439 177.829
  240 776.398 -62.1439 177.829
  241 219.427 -25.7578 -71.7589
  242 219.427 -25.7578 -71.7589
  243 697.342 -52.7986 -36.2795
  244 697.342 -52.7986 -36.2795
  245 574.022 25.5091 19.1482
  246 574.022 25.5091 19.1482
  247 19.8396 -365.964 -20.6800
  248 19.8396 -365.964 -20.6800
  249 39.3111 -319.094 68.1950
  250 39.3111 -319.094 68.1950
  251 583.348 3.97064 53.7855
  252 583.348 3.97064 53.7855
  253 608.252 2.27877 2.04347
  254 608.252 2.27877 2.04347
  255 603.512 9.52123 0.392678
  256 603.512 9.52123 0.392678
  257 567.196 -7.07178 -71.8848
  258 567.196 -7.07178 -71.8848
  259 608.566 2.08218 -2.16508
  260 608.566 2.08218 -2.16508
  261 670.230 -47.6222 46.7416
  262 670.230 -47.6222 46.7416
  263 623.739 2.12980 -10.1958
  264 623.739 2.12980 -10.1958
  265 485.878 -41.2154 -134.845
  266 485.878 -41.2154 -134.845
  267 819.403 63.4604 0.489115
  268 819.403 63.4604 0.489115
  269 602.727 13.0935 -26.9345
  270 602.727 13.0935 -26.9345
  271 600.588 12.2450 -5.26717
  272 600.588 12.2450 -5.26717
  273 513.775 24.8763 -49.2108
  274 513.775 24.8763 -49.2108
  275 159.208 -57.3029 41.8266
  276 159.208 -57.3029 41.8266
  277 638.851 -107.307 139.544
  278 638.851 -107.307 139.544
  279 606.574 8.83909 10.3224
  280 606.574 8.83909 10.3224
  281 890.258 62.5976 -15.4831
  282 890.258 62.5976 -15.4831
  283 1052.54 96.9516 130.102
  284 1052.54 96.9516 130.102
  285 716.713 -76.4137 48.3522
  286 716.713 -76.4137 48.3522
  287 523.783 26.0278 35.9397
  288 523.783 26.0278 35.9397
  289 655.090 -131.778 184.466
  290 655.090 -131.778 184.466
  291 678.286 -8.20544 17.1422
  292 678.286 -8.20544 17.1422
  293 606.202 5.81690 2.80552
  294 606.202 5.81690 2.80552
  295 598.183 16.1069 -17.0193
  296 598.183 16.1069 -17.0193
  297 603.648 9.37059 -0.770837
  298 603.648 9.37059 -0.770837
  299 611.630 1.66070 -3.92017
  300 611.630 1.66070 -3.92017
  301 623.250 3.00439 10.2344
  302 623.250 3.00439 10.2344
  303 595.162 16.3814 -4.34576
  304 595.162 16.3814 -4.34576
  305 136.649 -227.195 -171.719
  306 136.649 -227.195 -171.719
  307 413.793 27.2755 33.7876
  308 413.793 27.2755 33.7876
  309 606.796 4.86201 -2.69120
  310 606.796 4.86201 -2.69120
  311 538.018 30.6532 -24.0385
  312 538.018 30.6532 -24.0385
  313 539.426 33.4156 9.11749
  314 539.426 33.4156 9.11749
  315 605.638 8.49930 -7.29256
  316 605.638 8.49930 -7.29256
  317 806.027 44.8890 -8.25557
  318 806.027 44.8890 -8.25557
  319 601.416 14.2708 23.5030
  320 601.416 14.2708 23.5030
  321 763.024 25.3028 -16.1280
  322 763.024 25.3028 -16.1280
  323 1102.04 30.7108 75.5681
  324 1102.04 30.7108 75.5681
  325 599.349 14.7694 14.6692
  326 599.349 14.7694 14.6692
  327 590.459 19.5685 7.67428
  328 590.459 19.5685 7.67428
  329 456.319 -86.3128 -265.840
  330 456.319 -86.3128 -265.840
  331 611.985 1.50034 3.83380
  332 611.985 1.50034 3.83380
  333 600.064 12.3316 3.93906
  334 600.064 12.3316 3.93906
  335 579.206 25.4615 0.882820
  336 579.206 25.4615 0.882820
  337 301.229 -105.663 212.202
  338 301.229 -105.663 212.202
  339 743.058 49.1210 2.87208
  340 743.058 49.1210 2.87208
  341 42.2473 -312.190 -78.0566
  342 42.2473 -312.190 -78.0566
  343 469.560 29.5745 29.8781
  344 469.560 29.5745 29.8781
  345 1043.91 13.7366 10.0475
  346 1043.91 13.7366 10.0475
  347 1090.62 56.4241 -78.3606
  348 1090.62 56.4241 -78.3606
  349 523.915 -61.0053 150.932
  350 546.926 -31.2463 110.922
  351 523.915 -61.0053 150.932
  352 546.926 -31.2463 110.922
  353 1059.17 25.6954 38.9634
  354 1059.17 25.6954 38.9634
  355 619.558 -1.05369 41.9161
  356 619.558 -1.05369 41.9161
  357 726.315 -98.2775 -110.369
  358 726.315 -98.2775 -110.369
  359 696.534 -5.81462 18.3085
  360 696.534 -5.81462 18.3085
  361 465.229 -87.1050 289.668
  362 465.229 -87.1050 289.668
  363 811.140 64.9769 -2.04743
  364 811.140 64.9769 -2.04743
  365 1056.75 9.24863 -8.06178
  366 1056.75 9.24863 -8.06178
  367 657.166 0.104441 -20.3472
  368 657.166 0.104441 -20.3472
  369 590.441 20.8295 -9.20223
  370 590.441 20.8295 -9.20223
  371 900.386 70.2262 26.1122
  372 900.386 70.2262 26.1122
  373 699.387 29.5992 -4.01091
  374 699.387 29.5992 -4.01091
  375 634.295 2.28242 -12.7479
  376 634.295 2.28242 -12.7479
  377 177.612 -83.8762 -122.783
  378 177.612 -83.8762 -122.783
  379 700.229 -12.7304 4.07053
  380 700.229 -12.7304 4.07053
  381 602.048 -1.14373 -49.6197
  382 602.048 -1.14373 -49.6197
  383 692.547 -1.24780 -22.0116
  384 692.547 -1.24780 -22.0116
  385 1062.66 18.4007 -32.0989
  386 1062.66 18.4007 -32.0989
  387 604.255 9.08744 5.75891
  388 604.255 9.08744 5.75891
  389 735.139 36.7520 17.3325
  390 735.139 36.7520 17.3325
  391 787.091 -14.8109 13.4807
  392 787.091 -14.8109 13.4807
  393 606.333 10.7060 -12.9502
  394 606.333 10.7060 -12.9502
  395 1123.37 114.867 -149.980
  396 1123.37 114.867 -149.980
  397 690.333 -10.3368 -7.88161
  398 690.333 -10.3368 -7.88161
</Section>

newXOutput 183

<Section columns = "stress_xx | stress_yy | stress_xy">
  1 610.333 0.601898 -0.639892
  2 610.613 0.739357 0.862058
  3 610.333 0.601898 -0.639892
  4 610.613 0.739357 0.862058
  5 914.397 80.0161 270.919
  6 948.640 78.9741 -266.690
  7 914.397 80.0161 270.919
  8 948.640 78.9741 -266.690
  9 611.741 0.417617 -1.68522
  10 616.396 0.730875 -3.00925
  11 623.175 1.63966 -6.14972
  12 638.842 0.588574 -8.33100
  13 659.229 0.914691 -13.8707
  14 683.479 -6.33910 -14.0238
  15 706.462 -7.51462 -2.20573
  16 698.221 -5.04663 10.4788
  17 675.152 5.59329 19.0857
  18 662.471 13.3164 -0.752107
  19 671.550 6.34130 -18.0048
  20 697.663 -7.53770 -12.7398
  21 700.256 -9.13776 5.42257
  22 686.956 -4.16843 12.1402
  23 655.103 0.0452422 14.0054
  24 637.517 2.30970 10.5750
  25 623.608 1.88263 5.90264
  26 616.532 0.589017 2.75457
  27 612.082 0.495939 1.63124
  28 611.428 2.14849 1.00542
  29 610.436 4.38724 1.17682
  30 607.992 7.59284 1.05157
  31 607.018 8.81856 -0.101508
  32 608.255 7.20816 -1.25693
  33 609.997 4.78338 -1.05960
  34 610.759 2.44232 -1.13330
  35 611.741 0.417617 -1.68522
  36 616.396 0.730875 -3.00925
  37 623.175 1.63966 -6.14972
  38 638.842 0.588574 -8.33100
  39 659.229 0.914691 -13.8707
  40 683.479 -6.33910 -14.0238
  41 706.462 -7.51462 -2.20573
  42 698.221 -5.04663 10.4788
  43 675.152 5.59329 19.0857
  44 662.471 13.3164 -0.752107
  45 671.550 6.34130 -18.0048
  46 697.663 -7.53770 -12.7398
  47 700.256 -9.13776 5.42257
  48 686.956 -4.16843 12.1402
  49 655.103 0.0452422 14.0054
  50 637.517 2.30970 10.5750
  51 623.608 1.88263 5.90264
  52 616.532 0.589017 2.75457
  53 612.082 0.495939 1.63124
  54 611.428 2.14849 1.00542
  55 610.436 4.38724 1.17682
  56 607.992 7.59284 1.05157
  57 607.018 8.81856 -0.101508
  58 608.255 7.20816 -1.25693
  59 609.997 4.78338 -1.05960
  60 610.759 2.44232 -1.13330
  61 1257.46 68.6068 134.352
  62 1149.72 18.5392 46.5606
  63 1087.29 7.33045 16.8884
  64 1073.82 5.40233 3.13570
  65 1086.63 7.26084 -14.3802
  66 1134.66 15.8024 -40.1430
  67 1269.37 59.6258 -115.711
  68 171.938 -173.837 -227.241
  69 34.1219 -446.395 -62.7679
  70 8.27487 -518.011 -27.3809
  71 7.97137 -509.775 -12.5673
  72 14.8293 -493.268 29.3720
  73 37.4074 -432.451 66.6587
  74 185.205 -160.706 251.217
  75 1257.46 68.6068 134.352
  76 1149.72 18.5392 46.5606
  77 1087.29 7.33045 16.8884
  78 1073.82 5.40233 3.13570
  79 1086.63 7.26084 -14.3802
  80 1134.66 15.8024 -40.1430
  81 1269.37 59.6258 -115.711
  82 171.938 -173.837 -227.241
  83 34.1219 -446.395 -62.7679
  84 8.27487 -518.011 -27.3809
  85 7.97137 -509.775 -12.5673
  86 14.8293 -493.268 29.3720
  87 37.4074 -432.451 66.6587
  88 185.205 -160.706 251.217
  89 563.922 31.7659 -8.17374
  90 563.922 31.7659 -8.17374
  91 515.574 7.28744 75.1124
  92 495.697 -2.87880 -90.0655
  93 515.574 7.28744 75.1124
  94 495.697 -2.87880 -90.0655
  95 297.152 9.18761 36.6697
  96 297.152 9.18761 36.6697
  97 751.136 48.9164 -9.69866
  98 763.228 29.1262 18.6081
  99 751.136 48.9164 -9.69866
  100 763.228 29.1262 18.6081
  101 602.484 14.2173 7.96377
  102 602.484 14.2173 7.96377
  103 715.582 -40.7704 4.30601
  104 715.582 -40.7704 4.30601
  105 603.139 14.8805 -9.84051
  106 603.139 14.8805 -9.84051
  107 701.064 -87.4035 -82.3842
  108 701.064 -87.4035 -82.3842
  109 494.330 -103.911 202.385
  110 494.330 -103.911 202.385
  111 337.899 -60.0150 -164.068
  112 337.899 -60.0150 -164.068
  113 605.246 9.88137 35.0860
  114 605.246 9.88137 35.0860
  115 626.153 3.95388 -33.7063
  116 626.153 3.95388 -33.7063
  117 843.153 59.0472 14.3378
  118 900.613 57.6400 6.11339
  119 843.153 59.0472 14.3378
  120 900.613 57.6400 6.11339
  121 883.221 75.9965 -27.6853
  122 883.221 75.9965 -27.6853
  123 99.9224 -158.302 -55.8629
  124 99.9224 -158.302 -55.8629
  125 758.681 -93.2760 91.5817
  126 758.681 -93.2760 91.5817
  127 646.370 -15.8608 40.6802
  128 646.370 -15.8608 40.6802
  129 151.981 -136.266 127.276
  130 151.981 -136.266 127.276
  131 603.289 11.8459 -0.495557
  132 603.289 11.8459 -0.495557
  133 645.066 -30.4152 -52.2373
  134 645.066 -30.4152 -52.2373
  135 612.029 4.86264 5.71007
  136 612.029 4.86264 5.71007
  137 612.495 4.28504 -5.31948
  138 612.495 4.28504 -5.31948
  139 618.866 8.28464 -17.3274
  140 618.866 8.28464 -17.3274
  141 616.223 8.09053 15.5611
  142 616.223 8.09053 15.5611
  143 591.968 19.8488 -0.646558
  144 591.968 19.8488 -0.646558
  145 498.922 32.8078 -3.86484
  146 498.922 32.8078 -3.86484
  147 712.856 -25.2756 7.92966
  148 712.856 -25.2756 7.92966
  149 808.893 -24.7395 -39.0964
  150 808.893 -24.7395 -39.0964
  151 629.220 -70.9020 100.421
  152 629.220 -70.9020 100.421
  153 474.816 -127.670 -230.402
  154 474.816 -127.670 -230.402
  155 564.794 22.8815 33.5316
  156 564.794 22.8815 33.5316
  157 725.707 -3.79693 -22.8197
  158 725.707 -3.79693 -22.8197
  159 977.422 79.5472 59.8323
  160 977.422 79.5472 59.8323
  161 494.025 -137.884 265.237
  162 494.025 -137.884 265.237
  163 995.211 31.9886 -11.6559
  164 995.211 31.9886 -11.6559
  165 589.679 19.8173 15.3335
  166 589.679 19.8173 15.3335
  167 561.187 18.9554 -49.3401
  168 561.187 18.9554 -49.3401
  169 693.442 21.4876 14.5153
  170 693.442 21.4876 14.5153
  171 584.486 23.7046 -17.4729
  172 584.486 23.7046 -17.4729
  173 606.658 9.51246 2.49781
  174 606.658 9.51246 2.49781
  175 615.859 4.61760 -9.11965
  176 615.859 4.61760 -9.11965
  177 938.713 78.6055 -62.5270
  178 938.713 78.6055 -62.5270
  179 607.090 9.26637 -3.01168
  180 607.090 9.26637 -3.01168
  181 453.577 33.2208 -25.9089
  182 453.577 33.2208 -25.9089
  183 803.339 60.1325 1.73989
  184 803.339 60.1325 1.73989
  185 165.913 -133.818 -163.787
  186 165.913 -133.818 -163.787
  187 445.422 -4.34748 110.060
  188 445.422 -4.34748 110.060
  189 587.012 -95.7768 -156.795
  190 587.012 -95.7768 -156.795
  191 693.129 -19.3351 10.0395
  192 693.129 -19.3351 10.0395
  193 649.403 -2.42880 24.6396
  194 649.403 -2.42880 24.6396
  195 874.134 30.7604 60.2625
  196 874.134 30.7604 60.2625
  197 374.016 12.7259 -68.2673
  198 374.016 12.7259 -68.2673
  199 987.987 43.4299 27.0709
  200 987.987 43.4299 27.0709
  201 661.159 -8.38636 -26.3567
  202 661.159 -8.38636 -26.3567
  203 616.766 3.28959 8.40206
  204 616.766 3.28959 8.40206
  205 687.658 -27.3426 -15.0967
  206 687.658 -27.3426 -15.0967
  207 749.983 -36.8907 -9.54490
  208 749.983 -36.8907 -9.54490
  209 47.4121 -280.525 25.1612
  210 47.4121 -280.525 25.1612
  211 635.004 3.11082 -21.4187
  212 635.004 3.11082 -21.4187
  213 629.968 4.79857 18.6296
  214 629.968 4.79857 18.6296
  215 605.753 -56.0718 -99.2755
  216 605.753 -56.0718 -99.2755
  217 706.796 -15.0306 -13.7270
  218 706.796 -15.0306 -13.7270
  219 582.286 20.7110 -33.4860
  220 582.286 20.7110 -33.4860
  221 160.423 -196.018 180.813
  222 160.423 -196.018 180.813
  223 717.312 3.98490 21.9021
  224 717.312 3.98490 21.9021
  225 699.024 18.3042 -19.0311
  226 699.024 18.3042 -19.0311
  227 978.185 58.2754 -47.1155
  228 978.185 58.2754 -47.1155
  229 752.820 -26.9641 -7.80233
  230 752.820 -26.9641 -7.80233
  231 815.361 -29.8063 -154.376
  232 815.361 -29.8063 -154.376
  233 608.345 -27.5834 75.8795
  234 608.345 -27.5834 75.8795
  235 598.086 16.5456 2.56959
  236 598.086 16.5456 2.56959
  237 321.093 -46.0510 145.041
  238 321.093 -46.0510 145.041
  239 780.232 -62.3873 178.830
  240 780.232 -62.3873 178.830
  241 220.620 -25.8631 -72.1505
  242 220.620 -25.8631 -72.1505
  243 700.868 -53.0714 -36.4947
  244 700.868 -53.0714 -36.4947
  245 576.993 25.6362 19.2406
  246 576.993 25.6362 19.2406
  247 19.9328 -367.899 -20.8109
  248 19.9328 -367.899 -20.8109
  249 39.5112 -320.747 68.6216
  250 39.5112 -320.747 68.6216
  251 586.354 3.98989 54.0556
  252 586.354 3.98989 54.0556
  253 611.373 2.28996 2.05234
  254 611.373 2.28996 2.05234
  255 606.614 9.56682 0.394440
  256 606.614 9.56682 0.394440
  257 570.122 -7.10916 -72.2513
  258 570.122 -7.10916 -72.2513
  259 611.688 2.09249 -2.17449
  260 611.688 2.09249 -2.17449
  261 673.630 -47.8695 47.0007
  262 673.630 -47.8695 47.0007
  263 626.926 2.13970 -10.2422
  264 626.926 2.13970 -10.2422
  265 488.394 -41.4300 -135.551
  266 488.394 -41.4300 -135.551
  267 823.545 63.7888 0.528832
  268 823.545 63.7888 0.528832
  269 605.826 13.1571 -27.0637
  270 605.826 13.1571 -27.0637
  271 603.678 12.3043 -5.29085
  272 603.678 12.3043 -5.29085
  273 516.459 25.0051 -49.4586
  274 516.459 25.0051 -49.4586
  275 160.079 -57.5595 42.0611
  276 160.079 -57.5595 42.0611
  277 642.072 -107.865 140.294
  278 642.072 -107.865 140.294
  279 609.688 8.88190 10.3692
  280 609.688 8.88190 10.3692
  281 894.709 62.9061 -15.5793
  282 894.709 62.9061 -15.5793
  283 1057.65 97.5098 130.811
  284 1057.65 97.5098 130.811
  285 720.319 -76.8021 48.6439
  286 720.319 -76.8021 48.6439
  287 526.517 26.1614 36.1185
  288 526.517 26.1614 36.1185
  289 658.367 -132.457 185.462
  290 658.367 -132.457 185.462
  291 681.726 -8.25008 17.2340
  292 681.726 -8.25008 17.2340
  293 609.315 5.84498 2.81786
  294 609.315 5.84498 2.81786
  295 601.263 16.1856 -17.0988
  296 601.263 16.1856 -17.0988
  297 606.750 9.41548 -0.774229
  298 606.750 9.41548 -0.774229
  299 614.765 1.66881 -3.93743
  300 614.765 1.66881 -3.93743
  301 626.435 3.01859 10.2809
  302 626.435 3.01859 10.2809
  303 598.229 16.4611 -4.36568
  304 598.229 16.4611 -4.36568
  305 137.348 -228.296 -172.725
  306 137.348 -228.296 -172.725
  307 415.991 27.4242 33.9606
  308 415.991 27.4242 33.9606
  309 609.910 4.88559 -2.70297
  310 609.910 4.88559 -2.70297
  311 540.823 30.8085 -24.1575
  312 540.823 30.8085 -24.1575
  313 542.238 33.5848 9.16201
  314 542.238 33.5848 9.16201
  315 608.748 8.54046 -7.32530
  316 608.748 8.54046 -7.32530
  317 810.087 45.1480 -8.36626
  318 810.087 45.1480 -8.36626
  319 604.509 14.3405 23.6144
  320 604.509 14.3405 23.6144
  321 766.892 25.4490 -16.1573
  322 766.892 25.4490 -16.1573
  323 1107.34 30.8519 75.9478
  324 1107.34 30.8519 75.9478
  325 602.433 14.8414 14.7373
  326 602.433 14.8414 14.7373
  327 593.505 19.6642 7.70988
  328 593.505 19.6642 7.70988
  329 458.585 -86.5827 -267.328
  330 458.585 -86.5827 -267.328
  331 615.121 1.50766 3.85066
  332 615.121 1.50766 3.85066
  333 603.152 12.3912 3.95682
  334 603.152 12.3912 3.95682
  335 582.202 25.5873 0.886969
  336 582.202 25.5873 0.886969
  337 302.804 -106.205 213.373
  338 302.804 -106.205 213.373
  339 746.860 49.3784 2.87781
  340 746.860 49.3784 2.87781
  341 42.4575 -313.803 -78.5342
  342 42.4575 -313.803 -78.5342
  343 472.036 29.7296 30.0284
  344 472.036 29.7296 30.0284
  345 1048.95 13.7967 10.0932
  346 1048.95 13.7967 10.0932
  347 1095.89 56.7113 -78.7600
  348 1095.89 56.7113 -78.7600
  349 526.604 -61.3249 151.723
  350 549.742 -31.4083 111.493
  351 526.604 -61.3249 151.723
  352 549.742 -31.4083 111.493
  353 1064.29 25.8109 39.1526
  354 1064.29 25.8109 39.1526
  355 622.731 -1.06142 42.1261
  356 622.731 -1.06142 42.1261
  357 729.941 -98.7714 -110.988
  358 729.941 -98.7714 -110.988
  359 700.093 -5.84177 18.3778
  360 700.093 -5.84177 18.3778
  361 467.520 -87.3893 291.275
  362 467.520 -87.3893 291.275
  363 815.250 65.3056 -2.05607
  364 815.250 65.3056 -2.05607
  365 1061.84 9.28850 -8.09998
  366 1061.84 9.28850 -8.09998
  367 660.503 0.102179 -20.4472
  368 660.503 0.102179 -20.4472
  369 593.486 20.9317 -9.24511
  370 593.486 20.9317 -9.24511
  371 904.880 70.5812 26.2796
  372 904.880 70.5812 26.2796
  373 702.989 29.7566 -4.02620
  374 702.989 29.7566 -4.02620
  375 637.528 2.29242 -12.8072
  376 637.528 2.29242 -12.8072
  377 178.581 -84.2817 -123.473
  378 178.581 -84.2817 -123.473
  379 703.785 -12.7967 4.07364
  380 703.785 -12.7967 4.07364
  381 605.139 -1.15198 -49.8704
  382 605.139 -1.15198 -49.8704
  383 696.097 -1.25175 -22.0970
  384 696.097 -1.25175 -22.0970
  385 1067.79 18.4853 -32.2528
  386 1067.79 18.4853 -32.2528
  387 607.360 9.13131 5.78467
  388 607.360 9.13131 5.78467
  389 738.894 36.9509 17.3866
  390 738.894 36.9509 17.3866
  391 791.039 -14.8573 13.6204
  392 791.039 -14.8573 13.6204
  393 609.446 10.7580 -13.0094
  394 609.446 10.7580 -13.0094
  395 1128.77 115.539 -150.786
  396 1128.77 115.539 -150.786
  397 693.829 -10.3928 -7.92976
  398 693.829 -10.3928 -7.92976
</Section>

newXOutput 184

<Section columns = "stress_xx | stress_yy | stress_xy">
  1 613.447 0.605054 -0.642600
  2 613.728 0.743141 0.865697
  3 613.447 0.605054 -0.642600
  4 613.728 0.743141 0.865697
  5 918.751 80.6398 272.377
  6 953.140 79.6008 -268.127
  7 918.751 80.6398 272.377
  8 953.140 79.6008 -268.127
  9 614.861 0.419724 -1.69243
  10 619.535 0.734457 -3.02231
  11 626.342 1.64748 -6.17695
  12 642.076 0.591066 -8.36876
  13 662.554 0.917762 -13.9364
  14 686.916 -6.37426 -14.0948
  15 710.014 -7.55483 -2.22396
  16 701.763 -5.07222 10.5165
  17 678.618 5.62612 19.1629
  18 665.893 13.3892 -0.755236
  19 675.001 6.37549 -18.0788
  20 701.204 -7.57632 -12.7852
  21 703.779 -9.18682 5.45844
  22 690.409 -4.19132 12.2023
  23 658.411 0.0433911 14.0724
  24 640.746 2.32025 10.6233
  25 626.777 1.89162 5.92869
  26 619.672 0.591924 2.76649
  27 615.203 0.498467 1.63828
  28 614.546 2.15897 1.00965
  29 613.551 4.40837 1.18187
  30 611.097 7.62900 1.05613
  31 610.119 8.86042 -0.101942
  32 611.361 7.24255 -1.26234
  33 613.110 4.80642 -1.06401
  34 613.874 2.45431 -1.13817
  35 614.861 0.419724 -1.69243
  36 619.535 0.734457 -3.02231
  37 626.342 1.64748 -6.17695
  38 642.076 0.591066 -8.36876
  39 662.554 0.917762 -13.9364
  40 686.916 -6.37426 -14.0948
  41 710.014 -7.55483 -2.22396
  42 701.763 -5.07222 10.5165
  43 678.618 5.62612 19.1629
  44 665.893 13.3892 -0.755236
  45 675.001 6.37549 -18.0788
  46 701.204 -7.57632 -12.7852
  47 703.779 -9.18682 5.45844
  48 690.409 -4.19132 12.2023
  49 658.411 0.0433911 14.0724
  50 640.746 2.32025 10.6233
  51 626.777 1.89162 5.92869
  52 619.672 0.591924 2.76649
  53 615.203 0.498467 1.63828
  54 614.546 2.15897 1.00965
  55 613.551 4.40837 1.18187
  56 611.097 7.62900 1.05613
  57 610.119 8.86042 -0.101942
  58 611.361 7.24255 -1.26234
  59 613.110 4.80642 -1.06401
  60 613.874 2.45431 -1.13817
  61 1263.35 68.9658 135.011
  62 1155.15 18.6236 46.7774
  63 1092.46 7.35887 16.9633
  64 1078.94 5.42464 3.14753
  65 1091.79 7.29213 -14.4436
  66 1140.03 15.8732 -40.3268
  67 1275.32 59.9368 -116.279
  68 172.788 -174.496 -228.534
  69 34.2923 -448.708 -63.1809
  70 8.29938 -520.818 -27.5612
  71 7.99601 -512.551 -12.6352
  72 14.8928 -495.922 29.5663
  73 37.5989 -434.689 67.0993
  74 186.106 -161.300 252.639
  75 1263.35 68.9658 135.011
  76 1155.15 18.6236 46.7774
  77 1092.46 7.35887 16.9633
  78 1078.94 5.42464 3.14753
  79 1091.79 7.29213 -14.4436
  80 1140.03 15.8732 -40.3268
  81 1275.32 59.9368 -116.279
  82 172.788 -174.496 -228.534
  83 34.2923 -448.708 -63.1809
  84 8.29938 -520.818 -27.5612
  85 7.99601 -512.551 -12.6352
  86 14.8928 -495.922 29.5663
  87 37.5989 -434.689 67.0993
  88 186.106 -161.300 252.639
  89 566.834 31.9239 -8.21330
  90 566.834 31.9239 -8.21330
  91 518.244 7.32661 75.4914
  92 498.267 -2.89161 -90.5252
  93 518.244 7.32661 75.4914
  94 498.267 -2.89161 -90.5252
  95 298.750 9.25469 36.8623
  96 298.750 9.25469 36.8623
  97 754.951 49.1720 -9.72584
  98 767.078 29.2917 18.6484
  99 754.951 49.1720 -9.72584
  100 767.078 29.2917 18.6484
  101 605.566 14.2859 7.99983
  102 605.566 14.2859 7.99983
  103 719.184 -40.9764 4.36705
  104 719.184 -40.9764 4.36705
  105 606.224 14.9525 -9.88524
  106 606.224 14.9525 -9.88524
  107 704.570 -87.8518 -82.8367
  108 704.570 -87.8518 -82.8367
  109 496.845 -104.453 203.460
  110 496.845 -104.453 203.460
  111 339.663 -60.3176 -164.950
  112 339.663 -60.3176 -164.950
  113 608.338 9.92850 35.2563
  114 608.338 9.92850 35.2563
  115 629.338 3.97055 -33.8718
  116 629.338 3.97055 -33.8718
  117 847.366 59.3711 14.4773
  118 905.082 57.9181 6.15424
  119 847.366 59.3711 14.4773
  120 905.082 57.9181 6.15424
  121 887.619 76.3927 -27.8746
  122 887.619 76.3927 -27.8746
  123 100.457 -159.082 -56.1881
  124 100.457 -159.082 -56.1881
  125 762.443 -93.7268 92.1125
  126 762.443 -93.7268 92.1125
  127 649.646 -15.9445 40.8914
  128 649.646 -15.9445 40.8914
  129 152.791 -136.932 128.004
  130 152.791 -136.932 128.004
  131 606.375 11.9027 -0.497703
  132 606.375 11.9027 -0.497703
  133 648.333 -30.5736 -52.5129
  134 648.333 -30.5736 -52.5129
  135 615.150 4.88610 5.73524
  136 615.150 4.88610 5.73524
  137 615.618 4.30582 -5.34283
  138 615.618 4.30582 -5.34283
  139 622.017 8.32408 -17.4076
  140 622.017 8.32408 -17.4076
  141 619.363 8.12929 15.6326
  142 619.363 8.12929 15.6326
  143 595.006 19.9453 -0.649691
  144 595.006 19.9453 -0.649691
  145 501.529 32.9756 -3.88459
  146 501.529 32.9756 -3.88459
  147 716.455 -25.4014 7.93554
  148 716.455 -25.4014 7.93554
  149 812.910 -24.8202 -39.3763
  150 812.910 -24.8202 -39.3763
  151 632.397 -71.2694 100.949
  152 632.397 -71.2694 100.949
  153 477.205 -128.305 -231.663
  154 477.205 -128.305 -231.663
  155 567.705 22.9962 33.6957
  156 567.705 22.9962 33.6957
  157 729.375 -3.80847 -22.8925
  158 729.375 -3.80847 -22.8925
  159 982.212 79.9595 60.1707
  160 982.212 79.9595 60.1707
  161 496.505 -138.583 266.671
  162 496.505 -138.583 266.671
  163 1000.05 32.1339 -11.7155
  164 1000.05 32.1339 -11.7155
  165 592.706 19.9140 15.4053
  166 592.706 19.9140 15.4053
  167 564.077 19.0509 -49.5851
  168 564.077 19.0509 -49.5851
  169 696.996 21.6046 14.5724
  170 696.996 21.6046 14.5724
  171 587.489 23.8210 -17.5555
  172 587.489 23.8210 -17.5555
  173 609.757 9.55793 2.50883
  174 609.757 9.55793 2.50883
  175 618.997 4.63970 -9.16047
  176 618.997 4.63970 -9.16047
  177 943.329 79.0493 -62.9150
  178 943.329 79.0493 -62.9150
  179 610.191 9.31077 -3.02491
  180 610.191 9.31077 -3.02491
  181 455.961 33.3960 -26.0403
  182 455.961 33.3960 -26.0403
  183 807.386 60.4447 1.71102
  184 807.386 60.4447 1.71102
  185 166.786 -134.472 -164.718
  186 166.786 -134.472 -164.718
  187 447.743 -4.36517 110.627
  188 447.743 -4.36517 110.627
  189 589.974 -96.2740 -157.627
  190 589.974 -96.2740 -157.627
  191 696.627 -19.4364 10.1080
  192 696.627 -19.4364 10.1080
  193 652.691 -2.44403 24.7617
  194 652.691 -2.44403 24.7617
  195 878.453 30.9745 60.6541
  196 878.453 30.9745 60.6541
  197 375.997 12.8029 -68.6223
  198 375.997 12.8029 -68.6223
  199 992.809 43.6335 27.2137
  200 992.809 43.6335 27.2137
  201 664.502 -8.43231 -26.4931
  202 664.502 -8.43231 -26.4931
  203 619.907 3.30523 8.43957
  204 619.907 3.30523 8.43957
  205 691.128 -27.4860 -15.1927
  206 691.128 -27.4860 -15.1927
  207 753.742 -37.0652 -9.64798
  208 753.742 -37.0652 -9.64798
  209 47.6582 -281.973 25.3144
  210 47.6582 -281.973 25.3144
  211 638.226 3.12369 -21.5208
  212 638.226 3.12369 -21.5208
  213 633.167 4.82092 18.7173
  214 633.167 4.82092 18.7173
  215 608.826 -56.3623 -99.7945
  216 608.826 -56.3623 -99.7945
  217 710.372 -15.1071 -13.7667
  218 710.372 -15.1071 -13.7667
  219 585.277 20.8137 -33.6493
  220 585.277 20.8137 -33.6493
  221 161.244 -196.968 181.856
  222 161.244 -196.968 181.856
  223 720.953 4.01483 21.9767
  224 720.953 4.01483 21.9767
  225 702.598 18.4046 -19.1032
  226 702.598 18.4046 -19.1032
  227 982.973 58.5595 -47.3735
  228 982.973 58.5595 -47.3735
  229 756.596 -27.0873 -7.78595
  230 756.596 -27.0873 -7.78595
  231 819.364 -29.8660 -155.257
  232 819.364 -29.8660 -155.257
  233 611.438 -27.7257 76.2683
  234 611.438 -27.7257 76.2683
  235 601.150 16.6256 2.58132
  236 601.150 16.6256 2.58132
  237 322.781 -46.2784 145.817
  238 322.781 -46.2784 145.817
  239 784.062 -62.6297 179.832
  240 784.062 -62.6297 179.832
  241 221.812 -25.9681 -72.5421
  242 221.812 -25.9681 -72.5421
  243 704.390 -53.3440 -36.7099
  244 704.390 -53.3440 -36.7099
  245 579.962 25.7631 19.3328
  246 579.962 25.7631 19.3328
  247 20.0258 -369.834 -20.9420
  248 20.0258 -369.834 -20.9420
  249 39.7112 -322.399 69.0488
  250 39.7112 -322.399 69.0488
  251 589.357 4.00910 54.3254
  252 589.357 4.00910 54.3254
  253 614.491 2.30113 2.06120
  254 614.491 2.30113 2.06120
  255 609.714 9.61234 0.396198
  256 609.714 9.61234 0.396198
  257 573.045 -7.14653 -72.6176
  258 573.045 -7.14653 -72.6176
  259 614.808 2.10279 -2.18388
  260 614.808 2.10279 -2.18388
  261 677.026 -48.1165 47.2597
  262 677.026 -48.1165 47.2597
  263 630.110 2.14959 -10.2885
  264 630.110 2.14959 -10.2885
  265 490.908 -41.6445 -136.257
  266 490.908 -41.6445 -136.257
  267 827.682 64.1170 0.568876
  268 827.682 64.1170 0.568876
  269 608.921 13.2205 -27.1927
  270 608.921 13.2205 -27.1927
  271 606.765 12.3635 -5.31448
  272 606.765 12.3635 -5.31448
  273 519.142 25.1338 -49.7061
  274 519.142 25.1338 -49.7061
  275 160.949 -57.8156 42.2957
  276 160.949 -57.8156 42.2957
  277 645.289 -108.423 141.043
  278 645.289 -108.423 141.043
  279 612.801 8.92466 10.4159
  280 612.801 8.92466 10.4159
  281 899.154 63.2141 -15.6755
  282 899.154 63.2141 -15.6755
  283 1062.75 98.0682 131.521
  284 1062.75 98.0682 131.521
  285 723.922 -77.1901 48.9358
  286 723.922 -77.1901 48.9358
  287 529.250 26.2949 36.2970
  288 529.250 26.2949 36.2970
  289 661.641 -133.135 186.458
  290 661.641 -133.135 186.458
  291 685.162 -8.29470 17.3258
  292 685.162 -8.29470 17.3258
  293 612.425 5.87302 2.83017
  294 612.425 5.87302 2.83017
  295 604.339 16.2642 -17.1781
  296 604.339 16.2642 -17.1781
  297 609.850 9.46031 -0.777613
  298 609.850 9.46031 -0.777613
  299 617.897 1.67691 -3.95464
  300 617.897 1.67691 -3.95464
  301 629.617 3.03277 10.3274
  302 629.617 3.03277 10.3274
  303 601.294 16.5407 -4.38556
  304 601.294 16.5407 -4.38556
  305 138.045 -229.396 -173.731
  306 138.045 -229.396 -173.731
  307 418.189 27.5729 34.1335
  308 418.189 27.5729 34.1335
  309 613.023 4.90914 -2.71471
  310 613.023 4.90914 -2.71471
  311 543.625 30.9637 -24.2764
  312 543.625 30.9637 -24.2764
  313 545.049 33.7538 9.20648
  314 545.049 33.7538 9.20648
  315 611.856 8.58157 -7.35797
  316 611.856 8.58157 -7.35797
  317 814.144 45.4072 -8.47753
  318 814.144 45.4072 -8.47753
  319 607.599 14.4101 23.7256
  320 607.599 14.4101 23.7256
  321 770.757 25.5951 -16.1859
  322 770.757 25.5951 -16.1859
  323 1112.64 30.9928 76.3270
  324 1112.64 30.9928 76.3270
  325 605.515 14.9133 14.8052
  326 605.515 14.9133 14.8052
  327 596.549 19.7598 7.74541
  328 596.549 19.7598 7.74541
  329 460.849 -86.8505 -268.816
  330 460.849 -86.8505 -268.816
  331 618.255 1.51497 3.86748
  332 618.255 1.51497 3.86748
  333 606.237 12.4507 3.97453
  334 606.237 12.4507 3.97453
  335 585.197 25.7130 0.891110
  336 585.197 25.7130 0.891110
  337 304.377 -106.747 214.545
  338 304.377 -106.747 214.545
  339 750.659 49.6357 2.88344
  340 750.659 49.6357 2.88344
  341 42.6673 -315.416 -79.0122
  342 42.6673 -315.416 -79.0122
  343 474.511 29.8847 30.1785
  344 474.511 29.8847 30.1785
  345 1053.99 13.8567 10.1387
  346 1053.99 13.8567 10.1387
  347 1101.16 56.9982 -79.1590
  348 1101.16 56.9982 -79.1590
  349 529.291 -61.6443 152.513
  350 552.556 -31.5702 112.064
  351 529.291 -61.6443 152.513
  352 552.556 -31.5702 112.064
  353 1069.40 25.9260 39.3414
  354 1069.40 25.9260 39.3414
  355 625.900 -1.06917 42.3358
  356 625.900 -1.06917 42.3358
  357 733.563 -99.2647 -111.608
  358 733.563 -99.2647 -111.608
  359 703.649 -5.86886 18.4469
  360 703.649 -5.86886 18.4469
  361 469.808 -87.6716 292.880
  362 469.808 -87.6716 292.880
  363 819.357 65.6341 -2.06469
  364 819.357 65.6341 -2.06469
  365 1066.92 9.32827 -8.13813
  366 1066.92 9.32827 -8.13813
  367 663.837 0.0998913 -20.5471
  368 663.837 0.0998913 -20.5471
  369 596.530 21.0337 -9.28792
  370 596.530 21.0337 -9.28792
  371 909.369 70.9359 26.4471
  372 909.369 70.9359 26.4471
  373 706.588 29.9140 -4.04143
  374 706.588 29.9140 -4.04143
  375 640.758 2.30240 -12.8665
  376 640.758 2.30240 -12.8665
  377 179.550 -84.6866 -124.162
  378 179.550 -84.6866 -124.162
  379 707.337 -12.8630 4.07656
  380 707.337 -12.8630 4.07656
  381 608.228 -1.16024 -50.1208
  382 608.228 -1.16024 -50.1208
  383 699.644 -1.25567 -22.1820
  384 699.644 -1.25567 -22.1820
  385 1072.91 18.5698 -32.4063
  386 1072.91 18.5698 -32.4063
  387 610.463 9.17511 5.81038
  388 610.463 9.17511 5.81038
  389 742.645 37.1497 17.4402
  390 742.645 37.1497 17.4402
  391 794.983 -14.9035 13.7607
  392 794.983 -14.9035 13.7607
  393 612.557 10.8099 -13.0685
  394 612.557 10.8099 -13.0685
  395 1134.17 116.211 -151.591
  396 1134.17 116.211 -151.591
  397 697.323 -10.4488 -7.97794
  398 697.323 -10.4488 -7.97794
</Section>

newXOutput 185

<Section columns = "stress_xx | stress_yy | stress_xy">
  1 616.558 0.608209 -0.645301
  2 616.841 0.746921 0.869325
  3 616.558 0.608209 -0.645301
  4 616.841 0.746921 0.869325
  5 923.099 81.2654 273.834
  6 957.633 80.2293 -269.563
  7 923.099 81.2654 273.834
  8 957.633 80.2293 -269.563
  9 617.978 0.421828 -1.69962
  10 622.671 0.738036 -3.03534
  11 629.507 1.65528 -6.20412
  12 645.307 0.593550 -8.40643
  13 665.875 0.920814 -14.0020
  14 690.349 -6.40942 -14.1657
  15 713.562 -7.59503 -2.24225
  16 705.303 -5.09778 10.5541
  17 682.081 5.65897 19.2397
  18 669.313 13.4621 -0.758355
  19 678.450 6.40968 -18.1525
  20 704.742 -7.61491 -12.8305
  21 707.299 -9.23586 5.49437
  22 693.858 -4.21421 12.2643
  23 661.715 0.0415204 14.1394
  24 643.972 2.33078 10.6714
  25 629.944 1.90059 5.95467
  26 622.809 0.594828 2.77838
  27 618.322 0.500994 1.64529
  28 617.662 2.16943 1.01386
  29 616.663 4.42946 1.18690
  30 614.200 7.66510 1.06069
  31 613.218 8.90222 -0.102376
  32 614.465 7.27689 -1.26773
  33 616.220 4.82943 -1.06840
  34 616.987 2.46629 -1.14302
  35 617.978 0.421828 -1.69962
  36 622.671 0.738036 -3.03534
  37 629.507 1.65528 -6.20412
  38 645.307 0.593550 -8.40643
  39 665.875 0.920814 -14.0020
  40 690.349 -6.40942 -14.1657
  41 713.562 -7.59503 -2.24225
  42 705.303 -5.09778 10.5541
  43 682.081 5.65897 19.2397
  44 669.313 13.4621 -0.758355
  45 678.450 6.40968 -18.1525
  46 704.742 -7.61491 -12.8305
  47 707.299 -9.23586 5.49437
  48 693.858 -4.21421 12.2643
  49 661.715 0.0415204 14.1394
  50 643.972 2.33078 10.6714
  51 629.944 1.90059 5.95467
  52 622.809 0.594828 2.77838
  53 618.322 0.500994 1.64529
  54 617.662 2.16943 1.01386
  55 616.663 4.42946 1.18690
  56 614.200 7.66510 1.06069
  57 613.218 8.90222 -0.102376
  58 614.465 7.27689 -1.26773
  59 616.220 4.82943 -1.06840
  60 616.987 2.46629 -1.14302
  61 1269.23 69.3246 135.669
  62 1160.57 18.7079 46.9938
  63 1097.62 7.38719 17.0381
  64 1084.04 5.44688 3.15932
  65 1096.95 7.32334 -14.5069
  66 1145.39 15.9439 -40.5103
  67 1281.26 60.2476 -116.845
  68 173.637 -175.153 -229.827
  69 34.4626 -451.019 -63.5946
  70 8.32368 -523.624 -27.7418
  71 8.02045 -515.327 -12.7030
  72 14.9560 -498.575 29.7608
  73 37.7904 -436.926 67.5406
  74 187.006 -161.891 254.061
  75 1269.23 69.3246 135.669
  76 1160.57 18.7079 46.9938
  77 1097.62 7.38719 17.0381
  78 1084.04 5.44688 3.15932
  79 1096.95 7.32334 -14.5069
  80 1145.39 15.9439 -40.5103
  81 1281.26 60.2476 -116.845
  82 173.637 -175.153 -229.827
  83 34.4626 -451.019 -63.5946
  84 8.32368 -523.624 -27.7418
  85 8.02045 -515.327 -12.7030
  86 14.9560 -498.575 29.7608
  87 37.7904 -436.926 67.5406
  88 187.006 -161.891 254.061
  89 569.743 32.0818 -8.25281
  90 569.743 32.0818 -8.25281
  91 520.911 7.36577 75.8701
  92 500.835 -2.90439 -90.9845
  93 520.911 7.36577 75.8701
  94 500.835 -2.90439 -90.9845
  95 300.349 9.32193 37.0549
  96 300.349 9.32193 37.0549
  97 758.763 49.4275 -9.75278
  98 770.926 29.4572 18.6882
  99 758.763 49.4275 -9.75278
  100 770.926 29.4572 18.6882
  101 608.646 14.3544 8.03581
  102 608.646 14.3544 8.03581
  103 722.783 -41.1822 4.42845
  104 722.783 -41.1822 4.42845
  105 609.307 15.0244 -9.92988
  106 609.307 15.0244 -9.92988
  107 708.072 -88.2997 -83.2892
  108 708.072 -88.2997 -83.2892
  109 499.358 -104.994 204.534
  110 499.358 -104.994 204.534
  111 341.426 -60.6200 -165.831
  112 341.426 -60.6200 -165.831
  113 611.428 9.97556 35.4265
  114 611.428 9.97556 35.4265
  115 632.520 3.98718 -34.0371
  116 632.520 3.98718 -34.0371
  117 851.575 59.6949 14.6173
  118 909.546 58.1959 6.19514
  119 851.575 59.6949 14.6173
  120 909.546 58.1959 6.19514
  121 892.013 76.7886 -28.0643
  122 892.013 76.7886 -28.0643
  123 100.992 -159.860 -56.5134
  124 100.992 -159.860 -56.5134
  125 766.200 -94.1771 92.6435
  126 766.200 -94.1771 92.6435
  127 652.919 -16.0281 41.1024
  128 652.919 -16.0281 41.1024
  129 153.601 -137.598 128.732
  130 153.601 -137.598 128.732
  131 609.458 11.9594 -0.499844
  132 609.458 11.9594 -0.499844
  133 651.597 -30.7319 -52.7883
  134 651.597 -30.7319 -52.7883
  135 618.269 4.90953 5.76036
  136 618.269 4.90953 5.76036
  137 618.738 4.32657 -5.36612
  138 618.738 4.32657 -5.36612
  139 625.166 8.36346 -17.4877
  140 625.166 8.36346 -17.4877
  141 622.501 8.16799 15.7040
  142 622.501 8.16799 15.7040
  143 598.041 20.0416 -0.652819
  144 598.041 20.0416 -0.652819
  145 504.134 33.1433 -3.90432
  146 504.134 33.1433 -3.90432
  147 720.050 -25.5271 7.94107
  148 720.050 -25.5271 7.94107
  149 816.923 -24.9003 -39.6567
  150 816.923 -24.9003 -39.6567
  151 635.570 -71.6366 101.477
  152 635.570 -71.6366 101.477
  153 479.592 -128.939 -232.923
  154 479.592 -128.939 -232.923
  155 570.614 23.1108 33.8596
  156 570.614 23.1108 33.8596
  157 733.040 -3.81992 -22.9649
  158 733.040 -3.81992 -22.9649
  159 986.996 80.3716 60.5091
  160 986.996 80.3716 60.5091
  161 498.982 -139.282 268.106
  162 498.982 -139.282 268.106
  163 1004.89 32.2789 -11.7751
  164 1004.89 32.2789 -11.7751
  165 595.730 20.0106 15.4771
  166 595.730 20.0106 15.4771
  167 566.966 19.1463 -49.8297
  168 566.966 19.1463 -49.8297
  169 700.547 21.7216 14.6293
  170 700.547 21.7216 14.6293
  171 590.491 23.9373 -17.6381
  172 590.491 23.9373 -17.6381
  173 612.855 9.60333 2.51983
  174 612.855 9.60333 2.51983
  175 622.132 4.66176 -9.20121
  176 622.132 4.66176 -9.20121
  177 947.940 79.4932 -63.3032
  178 947.940 79.4932 -63.3032
  179 613.290 9.35510 -3.03811
  180 613.290 9.35510 -3.03811
  181 458.344 33.5710 -26.1716
  182 458.344 33.5710 -26.1716
  183 811.429 60.7567 1.68182
  184 811.429 60.7567 1.68182
  185 167.659 -135.126 -165.650
  186 167.659 -135.126 -165.650
  187 450.063 -4.38281 111.193
  188 450.063 -4.38281 111.193
  189 592.933 -96.7710 -158.459
  190 592.933 -96.7710 -158.459
  191 700.121 -19.5376 10.1766
  192 700.121 -19.5376 10.1766
  193 655.975 -2.45928 24.8837
  194 655.975 -2.45928 24.8837
  195 882.767 31.1890 61.0461
  196 882.767 31.1890 61.0461
  197 377.977 12.8800 -68.9771
  198 377.977 12.8800 -68.9771
  199 997.625 43.8367 27.3564
  200 997.625 43.8367 27.3564
  201 667.842 -8.47826 -26.6295
  202 667.842 -8.47826 -26.6295
  203 623.046 3.32084 8.47699
  204 623.046 3.32084 8.47699
  205 694.595 -27.6292 -15.2887
  206 694.595 -27.6292 -15.2887
  207 757.497 -37.2394 -9.75151
  208 757.497 -37.2394 -9.75151
  209 47.9042 -283.421 25.4678
  210 47.9042 -283.421 25.4678
  211 641.446 3.13653 -21.6228
  212 641.446 3.13653 -21.6228
  213 636.364 4.84323 18.8048
  214 636.364 4.84323 18.8048
  215 611.896 -56.6525 -100.313
  216 611.896 -56.6525 -100.313
  217 713.945 -15.1835 -13.8062
  218 713.945 -15.1835 -13.8062
  219 588.265 20.9162 -33.8125
  220 588.265 20.9162 -33.8125
  221 162.064 -197.917 182.900
  222 162.064 -197.917 182.900
  223 724.591 4.04484 22.0508
  224 724.591 4.04484 22.0508
  225 706.169 18.5051 -19.1749
  226 706.169 18.5051 -19.1749
  227 987.756 58.8432 -47.6314
  228 987.756 58.8432 -47.6314
  229 760.368 -27.2102 -7.76901
  230 760.368 -27.2102 -7.76901
  231 823.363 -29.9247 -156.139
  232 823.363 -29.9247 -156.139
  233 614.529 -27.8680 76.6569
  234 614.529 -27.8680 76.6569
  235 604.212 16.7055 2.59303
  236 604.212 16.7055 2.59303
  237 324.469 -46.5055 146.594
  238 324.469 -46.5055 146.594
  239 787.888 -62.8710 180.833
  240 787.888 -62.8710 180.833
  241 223.004 -26.0728 -72.9336
  242 223.004 -26.0728 -72.9336
  243 707.909 -53.6165 -36.9253
  244 707.909 -53.6165 -36.9253
  245 582.928 25.8898 19.4249
  246 582.928 25.8898 19.4249
  247 20.1186 -371.768 -21.0733
  248 20.1186 -371.768 -21.0733
  249 39.9109 -324.049 69.4765
  250 39.9109 -324.049 69.4765
  251 592.358 4.02830 54.5949
  252 592.358 4.02830 54.5949
  253 617.607 2.31229 2.07003
  254 617.607 2.31229 2.07003
  255 612.811 9.65779 0.397952
  256 612.811 9.65779 0.397952
  257 575.966 -7.18388 -72.9835
  258 575.966 -7.18388 -72.9835
  259 617.924 2.11308 -2.19325
  260 617.924 2.11308 -2.19325
  261 680.419 -48.3635 47.5188
  262 680.419 -48.3635 47.5188
  263 633.291 2.15945 -10.3347
  264 633.291 2.15945 -10.3347
  265 493.420 -41.8589 -136.962
  266 493.420 -41.8589 -136.962
  267 831.815 64.4450 0.609244
  268 831.815 64.4450 0.609244
  269 612.015 13.2839 -27.3215
  270 612.015 13.2839 -27.3215
  271 609.850 12.4226 -5.33806
  272 609.850 12.4226 -5.33806
  273 521.823 25.2624 -49.9534
  274 521.823 25.2624 -49.9534
  275 161.820 -58.0710 42.5302
  276 161.820 -58.0710 42.5302
  277 648.504 -108.981 141.793
  278 648.504 -108.981 141.793
  279 615.910 8.96735 10.4625
  280 615.910 8.96735 10.4625
  281 903.595 63.5219 -15.7718
  282 903.595 63.5219 -15.7718
  283 1067.84 98.6267 132.230
  284 1067.84 98.6267 132.230
  285 727.522 -77.5778 49.2278
  286 727.522 -77.5778 49.2278
  287 531.981 26.4283 36.4754
  288 531.981 26.4283 36.4754
  289 664.912 -133.813 187.453
  290 664.912 -133.813 187.453
  291 688.595 -8.33932 17.4175
  292 688.595 -8.33932 17.4175
  293 615.533 5.90101 2.84244
  294 615.533 5.90101 2.84244
  295 607.414 16.3427 -17.2572
  296 607.414 16.3427 -17.2572
  297 612.948 9.50507 -0.780988
  298 612.948 9.50507 -0.780988
  299 621.027 1.68501 -3.97181
  300 621.027 1.68501 -3.97181
  301 632.797 3.04692 10.3737
  302 632.797 3.04692 10.3737
  303 604.356 16.6202 -4.40540
  304 604.356 16.6202 -4.40540
  305 138.743 -230.495 -174.737
  306 138.743 -230.495 -174.737
  307 420.385 27.7215 34.3062
  308 420.385 27.7215 34.3062
  309 616.132 4.93266 -2.72642
  310 616.132 4.93266 -2.72642
  311 546.426 31.1187 -24.3952
  312 546.426 31.1187 -24.3952
  313 547.857 33.9227 9.25089
  314 547.857 33.9227 9.25089
  315 614.962 8.62261 -7.39057
  316 614.962 8.62261 -7.39057
  317 818.197 45.6664 -8.58938
  318 818.197 45.6664 -8.58938
  319 610.687 14.4796 23.8367
  320 610.687 14.4796 23.8367
  321 774.619 25.7414 -16.2140
  322 774.619 25.7414 -16.2140
  323 1117.93 31.1334 76.7058
  324 1117.93 31.1334 76.7058
  325 608.594 14.9852 14.8729
  326 608.594 14.9852 14.8729
  327 599.591 19.8553 7.78087
  328 599.591 19.8553 7.78087
  329 463.110 -87.1162 -270.304
  330 463.110 -87.1162 -270.304
  331 621.386 1.52227 3.88426
  332 621.386 1.52227 3.88426
  333 609.320 12.5101 3.99221
  334 609.320 12.5101 3.99221
  335 588.189 25.8385 0.895245
  336 588.189 25.8385 0.895245
  337 305.950 -107.288 215.716
  338 305.950 -107.288 215.716
  339 754.454 49.8928 2.88898
  340 754.454 49.8928 2.88898
  341 42.8770 -317.027 -79.4907
  342 42.8770 -317.027 -79.4907
  343 476.985 30.0396 30.3285
  344 476.985 30.0396 30.3285
  345 1059.02 13.9166 10.1842
  346 1059.02 13.9166 10.1842
  347 1106.42 57.2849 -79.5576
  348 1106.42 57.2849 -79.5576
  349 531.976 -61.9635 153.304
  350 555.368 -31.7320 112.634
  351 531.976 -61.9635 153.304
  352 555.368 -31.7320 112.634
  353 1074.50 26.0410 39.5300
  354 1074.50 26.0410 39.5300
  355 629.068 -1.07694 42.5453
  356 629.068 -1.07694 42.5453
  357 737.181 -99.7575 -112.227
  358 737.181 -99.7575 -112.227
  359 707.202 -5.89591 18.5157
  360 707.202 -5.89591 18.5157
  361 472.093 -87.9520 294.486
  362 472.093 -87.9520 294.486
  363 823.459 65.9623 -2.07329
  364 823.459 65.9623 -2.07329
  365 1071.99 9.36794 -8.17621
  366 1071.99 9.36794 -8.17621
  367 667.169 0.0975774 -20.6469
  368 667.169 0.0975774 -20.6469
  369 599.571 21.1356 -9.33064
  370 599.571 21.1356 -9.33064
  371 913.853 71.2903 26.6148
  372 913.853 71.2903 26.6148
  373 710.184 30.0713 -4.05659
  374 710.184 30.0713 -4.05659
  375 643.985 2.31235 -12.9256
  376 643.985 2.31235 -12.9256
  377 180.519 -85.0909 -124.851
  378 180.519 -85.0909 -124.851
  379 710.886 -12.9293 4.07931
  380 710.886 -12.9293 4.07931
  381 611.315 -1.16852 -50.3710
  382 611.315 -1.16852 -50.3710
  383 703.188 -1.25955 -22.2666
  384 703.188 -1.25955 -22.2666
  385 1078.03 18.6541 -32.5597
  386 1078.03 18.6541 -32.5597
  387 613.563 9.21885 5.83603
  388 613.563 9.21885 5.83603
  389 746.393 37.3486 17.4935
  390 746.393 37.3486 17.4935
  391 798.923 -14.9493 13.9015
  392 798.923 -14.9493 13.9015
  393 615.666 10.8618 -13.1275
  394 615.666 10.8618 -13.1275
  395 1139.55 116.883 -152.396
  396 1139.55 116.883 -152.396
  397 700.813 -10.5048 -8.02616
  398 700.813 -10.5048 -8.02616
</Section>

newXOutput 186

<Section columns = "stress_xx | stress_yy | stress_xy">
  1 619.667 0.611361 -0.647994
  2 619.952 0.750699 0.872943
  3 619.667 0.611361 -0.647994
  4 619.952 0.750699 0.872943
  5 927.440 81.8927 275.291
  6 962.120 80.8597 -270.999
  7 927.440 81.8927 275.291
  8 962.120 80.8597 -270.999
  9 621.093 0.423930 -1.70680
  10 625.805 0.741610 -3.04833
  11 632.669 1.66307 -6.23123
  12 648.535 0.596028 -8.44403
  13 669.193 0.923849 -14.0674
  14 693.779 -6.44458 -14.2365
  15 717.108 -7.63522 -2.26058
  16 708.839 -5.12332 10.5915
  17 685.542 5.69184 19.3164
  18 672.730 13.5350 -0.761464
  19 681.896 6.44386 -18.2260
  20 708.277 -7.65347 -12.8755
  21 710.816 -9.28489 5.53034
  22 697.304 -4.23710 12.3263
  23 665.017 0.0396302 14.2062
  24 647.195 2.34129 10.7195
  25 633.108 1.90955 5.98059
  26 625.944 0.597729 2.79024
  27 621.439 0.503518 1.65229
  28 620.775 2.17988 1.01805
  29 619.773 4.45053 1.19192
  30 617.300 7.70115 1.06524
  31 616.314 8.94395 -0.102809
  32 617.566 7.31118 -1.27311
  33 619.328 4.85241 -1.07278
  34 620.098 2.47825 -1.14786
  35 621.093 0.423930 -1.70680
  36 625.805 0.741610 -3.04833
  37 632.669 1.66307 -6.23123
  38 648.535 0.596028 -8.44403
  39 669.193 0.923849 -14.0674
  40 693.779 -6.44458 -14.2365
  41 717.108 -7.63522 -2.26058
  42 708.839 -5.12332 10.5915
  43 685.542 5.69184 19.3164
  44 672.730 13.5350 -0.761464
  45 681.896 6.44386 -18.2260
  46 708.277 -7.65347 -12.8755
  47 710.816 -9.28489 5.53034
  48 697.304 -4.23710 12.3263
  49 665.017 0.0396302 14.2062
  50 647.195 2.34129 10.7195
  51 633.108 1.90955 5.98059
  52 625.944 0.597729 2.79024
  53 621.439 0.503518 1.65229
  54 620.775 2.17988 1.01805
  55 619.773 4.45053 1.19192
  56 617.300 7.70115 1.06524
  57 616.314 8.94395 -0.102809
  58 617.566 7.31118 -1.27311
  59 619.328 4.85241 -1.07278
  60 620.098 2.47825 -1.14786
  61 1275.11 69.6832 136.326
  62 1165.98 18.7920 47.2098
  63 1102.78 7.41541 17.1128
  64 1089.14 5.46906 3.17106
  65 1102.10 7.35448 -14.5701
  66 1150.75 16.0145 -40.6935
  67 1287.19 60.5582 -117.412
  68 174.485 -175.807 -231.121
  69 34.6327 -453.328 -64.0090
  70 8.34776 -526.430 -27.9228
  71 8.04471 -518.102 -12.7709
  72 15.0191 -501.228 29.9558
  73 37.9816 -439.162 67.9828
  74 187.904 -162.479 255.483
  75 1275.11 69.6832 136.326
  76 1165.98 18.7920 47.2098
  77 1102.78 7.41541 17.1128
  78 1089.14 5.46906 3.17106
  79 1102.10 7.35448 -14.5701
  80 1150.75 16.0145 -40.6935
  81 1287.19 60.5582 -117.412
  82 174.485 -175.807 -231.121
  83 34.6327 -453.328 -64.0090
  84 8.34776 -526.430 -27.9228
  85 8.04471 -518.102 -12.7709
  86 15.0191 -501.228 29.9558
  87 37.9816 -439.162 67.9828
  88 187.904 -162.479 255.483
  89 572.650 32.2396 -8.29227
  90 572.650 32.2396 -8.29227
  91 523.577 7.40491 76.2485
  92 503.401 -2.91715 -91.4434
  93 523.577 7.40491 76.2485
  94 503.401 -2.91715 -91.4434
  95 301.947 9.38932 37.2474
  96 301.947 9.38932 37.2474
  97 762.572 49.6828 -9.77947
  98 774.770 29.6229 18.7274
  99 762.572 49.6828 -9.77947
  100 774.770 29.6229 18.7274
  101 611.724 14.4228 8.07172
  102 611.724 14.4228 8.07172
  103 726.379 -41.3879 4.49018
  104 726.379 -41.3879 4.49018
  105 612.387 15.0963 -9.97443
  106 612.387 15.0963 -9.97443
  107 711.570 -88.7473 -83.7417
  108 711.570 -88.7473 -83.7417
  109 501.868 -105.536 205.608
  110 501.868 -105.536 205.608
  111 343.188 -60.9222 -166.712
  112 343.188 -60.9222 -166.712
  113 614.515 10.0225 35.5963
  114 614.515 10.0225 35.5963
  115 635.700 4.00375 -34.2022
  116 635.700 4.00375 -34.2022
  117 855.780 60.0187 14.7578
  118 914.005 58.4733 6.23610
  119 855.780 60.0187 14.7578
  120 914.005 58.4733 6.23610
  121 896.402 77.1844 -28.2543
  122 896.402 77.1844 -28.2543
  123 101.526 -160.638 -56.8389
  124 101.526 -160.638 -56.8389
  125 769.953 -94.6267 93.1747
  126 769.953 -94.6267 93.1747
  127 656.190 -16.1118 41.3134
  128 656.190 -16.1118 41.3134
  129 154.410 -138.262 129.460
  130 154.410 -138.262 129.460
  131 612.540 12.0160 -0.501979
  132 612.540 12.0160 -0.501979
  133 654.857 -30.8901 -53.0636
  134 654.857 -30.8901 -53.0636
  135 621.385 4.93292 5.78541
  136 621.385 4.93292 5.78541
  137 621.856 4.34729 -5.38935
  138 621.856 4.34729 -5.38935
  139 628.312 8.40279 -17.5677
  140 628.312 8.40279 -17.5677
  141 625.636 8.20664 15.7752
  142 625.636 8.20664 15.7752
  143 601.074 20.1379 -0.655943
  144 601.074 20.1379 -0.655943
  145 506.738 33.3108 -3.92403
  146 506.738 33.3108 -3.92403
  147 723.641 -25.6526 7.94626
  148 723.641 -25.6526 7.94626
  149 820.931 -24.9798 -39.9377
  150 820.931 -24.9798 -39.9377
  151 638.741 -72.0036 102.005
  152 638.741 -72.0036 102.005
  153 481.977 -129.573 -234.183
  154 481.977 -129.573 -234.183
  155 573.521 23.2253 34.0232
  156 573.521 23.2253 34.0232
  157 736.702 -3.83127 -23.0368
  158 736.702 -3.83127 -23.0368
  159 991.775 80.7835 60.8474
  160 991.775 80.7835 60.8474
  161 501.457 -139.980 269.540
  162 501.457 -139.980 269.540
  163 1009.72 32.4237 -11.8346
  164 1009.72 32.4237 -11.8346
  165 598.752 20.1071 15.5487
  166 598.752 20.1071 15.5487
  167 569.853 19.2417 -50.0741
  168 569.853 19.2417 -50.0741
  169 704.095 21.8385 14.6860
  170 704.095 21.8385 14.6860
  171 593.490 24.0534 -17.7204
  172 593.490 24.0534 -17.7204
  173 615.950 9.64866 2.53080
  174 615.950 9.64866 2.53080
  175 625.264 4.68380 -9.24185
  176 625.264 4.68380 -9.24185
  177 952.545 79.9372 -63.6918
  178 952.545 79.9372 -63.6918
  179 616.386 9.39938 -3.05128
  180 616.386 9.39938 -3.05128
  181 460.725 33.7460 -26.3028
  182 460.725 33.7460 -26.3028
  183 815.468 61.0686 1.65228
  184 815.468 61.0686 1.65228
  185 168.531 -135.778 -166.581
  186 168.531 -135.778 -166.581
  187 452.381 -4.40040 111.759
  188 452.381 -4.40040 111.759
  189 595.890 -97.2676 -159.290
  190 595.890 -97.2676 -159.290
  191 703.613 -19.6388 10.2454
  192 703.613 -19.6388 10.2454
  193 659.257 -2.47455 25.0055
  194 659.257 -2.47455 25.0055
  195 887.076 31.4040 61.4387
  196 887.076 31.4040 61.4387
  197 379.956 12.9572 -69.3317
  198 379.956 12.9572 -69.3317
  199 1002.43 44.0397 27.4990
  200 1002.43 44.0397 27.4990
  201 671.179 -8.52420 -26.7657
  202 671.179 -8.52420 -26.7657
  203 626.182 3.33644 8.51433
  204 626.182 3.33644 8.51433
  205 698.058 -27.7724 -15.3849
  206 698.058 -27.7724 -15.3849
  207 761.249 -37.4134 -9.85552
  208 761.249 -37.4134 -9.85552
  209 48.1500 -284.867 25.6213
  210 48.1500 -284.867 25.6213
  211 644.662 3.14932 -21.7246
  212 644.662 3.14932 -21.7246
  213 639.558 4.86551 18.8922
  214 639.558 4.86551 18.8922
  215 614.964 -56.9426 -100.832
  216 614.964 -56.9426 -100.832
  217 717.514 -15.2598 -13.8453
  218 717.514 -15.2598 -13.8453
  219 591.251 21.0186 -33.9754
  220 591.251 21.0186 -33.9754
  221 162.883 -198.864 183.944
  222 162.883 -198.864 183.944
  223 728.226 4.07494 22.1245
  224 728.226 4.07494 22.1245
  225 709.737 18.6056 -19.2463
  226 709.737 18.6056 -19.2463
  227 992.532 59.1266 -47.8892
  228 992.532 59.1266 -47.8892
  229 764.137 -27.3329 -7.75152
  230 764.137 -27.3329 -7.75152
  231 827.356 -29.9823 -157.020
  232 827.356 -29.9823 -157.020
  233 617.618 -28.0101 77.0451
  234 617.618 -28.0101 77.0451
  235 607.271 16.7852 2.60471
  236 607.271 16.7852 2.60471
  237 326.156 -46.7324 147.370
  238 326.156 -46.7324 147.370
  239 791.709 -63.1113 181.835
  240 791.709 -63.1113 181.835
  241 224.196 -26.1771 -73.3250
  242 224.196 -26.1771 -73.3250
  243 711.424 -53.8888 -37.1407
  244 711.424 -53.8888 -37.1407
  245 585.893 26.0165 19.5168
  246 585.893 26.0165 19.5168
  247 20.2113 -373.701 -21.2048
  248 20.2113 -373.701 -21.2048
  249 40.1105 -325.699 69.9047
  250 40.1105 -325.699 69.9047
  251 595.356 4.04746 54.8641
  252 595.356 4.04746 54.8641
  253 620.721 2.32343 2.07884
  254 620.721 2.32343 2.07884
  255 615.906 9.70317 0.399702
  256 615.906 9.70317 0.399702
  257 578.885 -7.22122 -73.3491
  258 578.885 -7.22122 -73.3491
  259 621.039 2.12336 -2.20259
  260 621.039 2.12336 -2.20259
  261 683.809 -48.6102 47.7778
  262 683.809 -48.6102 47.7778
  263 636.470 2.16930 -10.3808
  264 636.470 2.16930 -10.3808
  265 495.931 -42.0731 -137.666
  266 495.931 -42.0731 -137.666
  267 835.944 64.7727 0.649936
  268 835.944 64.7727 0.649936
  269 615.106 13.3472 -27.4501
  270 615.106 13.3472 -27.4501
  271 612.933 12.4816 -5.36158
  272 612.933 12.4816 -5.36158
  273 524.503 25.3909 -50.2004
  274 524.503 25.3909 -50.2004
  275 162.691 -58.3258 42.7648
  276 162.691 -58.3258 42.7648
  277 651.716 -109.538 142.542
  278 651.716 -109.538 142.542
  279 619.017 9.00999 10.5089
  280 619.017 9.00999 10.5089
  281 908.031 63.8292 -15.8682
  282 908.031 63.8292 -15.8682
  283 1072.93 99.1854 132.939
  284 1072.93 99.1854 132.939
  285 731.118 -77.9652 49.5201
  286 731.118 -77.9652 49.5201
  287 534.711 26.5616 36.6536
  288 534.711 26.5616 36.6536
  289 668.179 -134.491 188.448
  290 668.179 -134.491 188.448
  291 692.026 -8.38393 17.5093
  292 692.026 -8.38393 17.5093
  293 618.638 5.92897 2.85469
  294 618.638 5.92897 2.85469
  295 610.486 16.4211 -17.3362
  296 610.486 16.4211 -17.3362
  297 616.043 9.54976 -0.784356
  298 616.043 9.54976 -0.784356
  299 624.154 1.69309 -3.98895
  300 624.154 1.69309 -3.98895
  301 635.974 3.06105 10.4200
  302 635.974 3.06105 10.4200
  303 607.416 16.6997 -4.42520
  304 607.416 16.6997 -4.42520
  305 139.439 -231.591 -175.744
  306 139.439 -231.591 -175.744
  307 422.580 27.8701 34.4787
  308 422.580 27.8701 34.4787
  309 619.240 4.95614 -2.73811
  310 619.240 4.95614 -2.73811
  311 549.225 31.2736 -24.5139
  312 549.225 31.2736 -24.5139
  313 550.664 34.0914 9.29524
  314 550.664 34.0914 9.29524
  315 618.065 8.66360 -7.42309
  316 618.065 8.66360 -7.42309
  317 822.246 45.9258 -8.70181
  318 822.246 45.9258 -8.70181
  319 613.772 14.5490 23.9475
  320 613.772 14.5490 23.9475
  321 778.477 25.8877 -16.2416
  322 778.477 25.8877 -16.2416
  323 1123.21 31.2737 77.0842
  324 1123.21 31.2737 77.0842
  325 611.672 15.0569 14.9406
  326 611.672 15.0569 14.9406
  327 602.630 19.9506 7.81627
  328 602.630 19.9506 7.81627
  329 465.369 -87.3798 -271.792
  330 465.369 -87.3798 -271.792
  331 624.515 1.52956 3.90100
  332 624.515 1.52956 3.90100
  333 612.401 12.5694 4.00985
  334 612.401 12.5694 4.00985
  335 591.179 25.9638 0.899373
  336 591.179 25.9638 0.899373
  337 307.522 -107.829 216.887
  338 307.522 -107.829 216.887
  339 758.246 50.1498 2.89443
  340 758.246 50.1498 2.89443
  341 43.0864 -318.637 -79.9696
  342 43.0864 -318.637 -79.9696
  343 479.457 30.1945 30.4784
  344 479.457 30.1945 30.4784
  345 1064.04 13.9764 10.2295
  346 1064.04 13.9764 10.2295
  347 1111.67 57.5714 -79.9559
  348 1111.67 57.5714 -79.9559
  349 534.659 -62.2826 154.093
  350 558.178 -31.8937 113.204
  351 534.659 -62.2826 154.093
  352 558.178 -31.8937 113.204
  353 1079.60 26.1557 39.7184
  354 1079.60 26.1557 39.7184
  355 632.232 -1.08472 42.7546
  356 632.232 -1.08472 42.7546
  357 740.795 -100.250 -112.846
  358 740.795 -100.250 -112.846
  359 710.752 -5.92290 18.5841
  360 710.752 -5.92290 18.5841
  361 474.375 -88.2303 296.092
  362 474.375 -88.2303 296.092
  363 827.558 66.2902 -2.08185
  364 827.558 66.2902 -2.08185
  365 1077.06 9.40751 -8.21422
  366 1077.06 9.40751 -8.21422
  367 670.497 0.0952376 -20.7465
  368 670.497 0.0952376 -20.7465
  369 602.611 21.2374 -9.37329
  370 602.611 21.2374 -9.37329
  371 918.332 71.6443 26.7826
  372 918.332 71.6443 26.7826
  373 713.777 30.2285 -4.07168
  374 713.777 30.2285 -4.07168
  375 647.209 2.32227 -12.9846
  376 647.209 2.32227 -12.9846
  377 181.488 -85.4947 -125.541
  378 181.488 -85.4947 -125.541
  379 714.432 -12.9955 4.08188
  380 714.432 -12.9955 4.08188
  381 614.399 -1.17681 -50.6209
  382 614.399 -1.17681 -50.6209
  383 706.729 -1.26340 -22.3509
  384 706.729 -1.26340 -22.3509
  385 1083.14 18.7383 -32.7128
  386 1083.14 18.7383 -32.7128
  387 616.660 9.26252 5.86162
  388 616.660 9.26252 5.86162
  389 750.137 37.5473 17.5464
  390 750.137 37.5473 17.5464
  391 802.859 -14.9947 14.0430
  392 802.859 -14.9947 14.0430
  393 618.772 10.9135 -13.1864
  394 618.772 10.9135 -13.1864
  395 1144.93 117.556 -153.201
  396 1144.93 117.556 -153.201
  397 704.299 -10.5608 -8.07442
  398 704.299 -10.5608 -8.07442
</Section>

newXOutput 187

<Section columns = "stress_xx | stress_yy | stress_xy">
  1 622.774 0.614513 -0.650680
  2 623.060 0.754474 0.876550
  3 622.774 0.614513 -0.650680
  4 623.060 0.754474 0.876550
  5 931.775 82.5217 276.748
  6 966.599 81.4919 -272.434
  7 931.775 82.5217 276.748
  8 966.599 81.4919 -272.434
  9 624.205 0.426030 -1.71395
  10 628.936 0.745180 -3.06130
  11 635.828 1.67085 -6.25828
  12 651.761 0.598498 -8.48156
  13 672.508 0.926866 -14.1328
  14 697.206 -6.47974 -14.3073
  15 720.650 -7.67540 -2.27897
  16 712.372 -5.14884 10.6287
  17 689.000 5.72473 19.3927
  18 676.145 13.6079 -0.764564
  19 685.339 6.47804 -18.2993
  20 711.809 -7.69201 -12.9202
  21 714.329 -9.33391 5.56636
  22 700.747 -4.25999 12.3883
  23 668.316 0.0377207 14.2729
  24 650.416 2.35179 10.7674
  25 636.269 1.91850 6.00646
  26 629.076 0.600627 2.80208
  27 624.552 0.506040 1.65927
  28 623.886 2.19032 1.02224
  29 622.880 4.47158 1.19693
  30 620.398 7.73715 1.06977
  31 619.409 8.98562 -0.103240
  32 620.664 7.34542 -1.27847
  33 622.433 4.87535 -1.07714
  34 623.206 2.49020 -1.15269
  35 624.205 0.426030 -1.71395
  36 628.936 0.745180 -3.06130
  37 635.828 1.67085 -6.25828
  38 651.761 0.598498 -8.48156
  39 672.508 0.926866 -14.1328
  40 697.206 -6.47974 -14.3073
  41 720.650 -7.67540 -2.27897
  42 712.372 -5.14884 10.6287
  43 689.000 5.72473 19.3927
  44 676.145 13.6079 -0.764564
  45 685.339 6.47804 -18.2993
  46 711.809 -7.69201 -12.9202
  47 714.329 -9.33391 5.56636
  48 700.747 -4.25999 12.3883
  49 668.316 0.0377207 14.2729
  50 650.416 2.35179 10.7674
  51 636.269 1.91850 6.00646
  52 629.076 0.600627 2.80208
  53 624.552 0.506040 1.65927
  54 623.886 2.19032 1.02224
  55 622.880 4.47158 1.19693
  56 620.398 7.73715 1.06977
  57 619.409 8.98562 -0.103240
  58 620.664 7.34542 -1.27847
  59 622.433 4.87535 -1.07714
  60 623.206 2.49020 -1.15269
  61 1280.97 70.0416 136.983
  62 1171.39 18.8760 47.4254
  63 1107.93 7.44353 17.1873
  64 1094.23 5.49118 3.18276
  65 1107.25 7.38555 -14.6331
  66 1156.09 16.0849 -40.8763
  67 1293.11 60.8686 -117.977
  68 175.332 -176.458 -232.414
  69 34.8027 -455.636 -64.4241
  70 8.37163 -529.235 -28.1041
  71 8.06877 -520.876 -12.8387
  72 15.0820 -503.880 30.1511
  73 38.1727 -441.395 68.4257
  74 188.801 -163.064 256.906
  75 1280.97 70.0416 136.983
  76 1171.39 18.8760 47.4254
  77 1107.93 7.44353 17.1873
  78 1094.23 5.49118 3.18276
  79 1107.25 7.38555 -14.6331
  80 1156.09 16.0849 -40.8763
  81 1293.11 60.8686 -117.977
  82 175.332 -176.458 -232.414
  83 34.8027 -455.636 -64.4241
  84 8.37163 -529.235 -28.1041
  85 8.06877 -520.876 -12.8387
  86 15.0820 -503.880 30.1511
  87 38.1727 -441.395 68.4257
  88 188.801 -163.064 256.906
  89 575.556 32.3971 -8.33167
  90 575.556 32.3971 -8.33167
  91 526.241 7.44404 76.6265
  92 505.966 -2.92988 -91.9020
  93 526.241 7.44404 76.6265
  94 505.966 -2.92988 -91.9020
  95 303.544 9.45685 37.4397
  96 303.544 9.45685 37.4397
  97 766.378 49.9381 -9.80592
  98 778.610 29.7886 18.7661
  99 766.378 49.9381 -9.80592
  100 778.610 29.7886 18.7661
  101 614.799 14.4911 8.10756
  102 614.799 14.4911 8.10756
  103 729.971 -41.5933 4.55225
  104 729.971 -41.5933 4.55225
  105 615.465 15.1680 -10.0189
  106 615.465 15.1680 -10.0189
  107 715.065 -89.1946 -84.1941
  108 715.065 -89.1946 -84.1941
  109 504.377 -106.077 206.682
  110 504.377 -106.077 206.682
  111 344.950 -61.2241 -167.592
  112 344.950 -61.2241 -167.592
  113 617.599 10.0695 35.7660
  114 617.599 10.0695 35.7660
  115 638.877 4.02028 -34.3671
  116 638.877 4.02028 -34.3671
  117 859.980 60.3424 14.8988
  118 918.459 58.7504 6.27711
  119 859.980 60.3424 14.8988
  120 918.459 58.7504 6.27711
  121 900.786 77.5799 -28.4445
  122 900.786 77.5799 -28.4445
  123 102.061 -161.415 -57.1646
  124 102.061 -161.415 -57.1646
  125 773.702 -95.0757 93.7062
  126 773.702 -95.0757 93.7062
  127 659.457 -16.1954 41.5242
  128 659.457 -16.1954 41.5242
  129 155.219 -138.926 130.188
  130 155.219 -138.926 130.188
  131 615.618 12.0725 -0.504108
  132 615.618 12.0725 -0.504108
  133 658.115 -31.0482 -53.3388
  134 658.115 -31.0482 -53.3388
  135 624.499 4.95629 5.81040
  136 624.499 4.95629 5.81040
  137 624.972 4.36799 -5.41253
  138 624.972 4.36799 -5.41253
  139 631.456 8.44206 -17.6475
  140 631.456 8.44206 -17.6475
  141 628.768 8.24524 15.8463
  142 628.768 8.24524 15.8463
  143 604.104 20.2340 -0.659063
  144 604.104 20.2340 -0.659063
  145 509.340 33.4782 -3.94373
  146 509.340 33.4782 -3.94373
  147 727.230 -25.7780 7.95109
  148 727.230 -25.7780 7.95109
  149 824.936 -25.0588 -40.2193
  150 824.936 -25.0588 -40.2193
  151 641.909 -72.3703 102.532
  152 641.909 -72.3703 102.532
  153 484.360 -130.205 -235.444
  154 484.360 -130.205 -235.444
  155 576.426 23.3397 34.1867
  156 576.426 23.3397 34.1867
  157 740.360 -3.84253 -23.1082
  158 740.360 -3.84253 -23.1082
  159 996.548 81.1951 61.1858
  160 996.548 81.1951 61.1858
  161 503.930 -140.678 270.973
  162 503.930 -140.678 270.973
  163 1014.54 32.5682 -11.8940
  164 1014.54 32.5682 -11.8940
  165 601.772 20.2034 15.6202
  166 601.772 20.2034 15.6202
  167 572.738 19.3370 -50.3182
  168 572.738 19.3370 -50.3182
  169 707.641 21.9555 14.7425
  170 707.641 21.9555 14.7425
  171 596.487 24.1694 -17.8027
  172 596.487 24.1694 -17.8027
  173 619.042 9.69392 2.54174
  174 619.042 9.69392 2.54174
  175 628.394 4.70580 -9.28241
  176 628.394 4.70580 -9.28241
  177 957.145 80.3813 -64.0807
  178 957.145 80.3813 -64.0807
  179 619.480 9.44359 -3.06441
  180 619.480 9.44359 -3.06441
  181 463.106 33.9208 -26.4338
  182 463.106 33.9208 -26.4338
  183 819.504 61.3803 1.62240
  184 819.504 61.3803 1.62240
  185 169.403 -136.430 -167.513
  186 169.403 -136.430 -167.513
  187 454.698 -4.41793 112.324
  188 454.698 -4.41793 112.324
  189 598.844 -97.7639 -160.121
  190 598.844 -97.7639 -160.121
  191 707.101 -19.7399 10.3143
  192 707.101 -19.7399 10.3143
  193 662.536 -2.48983 25.1272
  194 662.536 -2.48983 25.1272
  195 891.380 31.6194 61.8317
  196 891.380 31.6194 61.8317
  197 381.934 13.0344 -69.6861
  198 381.934 13.0344 -69.6861
  199 1007.24 44.2423 27.6415
  200 1007.24 44.2423 27.6415
  201 674.513 -8.57014 -26.9019
  202 674.513 -8.57014 -26.9019
  203 629.315 3.35200 8.55159
  204 629.315 3.35200 8.55159
  205 701.518 -27.9156 -15.4811
  206 701.518 -27.9156 -15.4811
  207 764.997 -37.5871 -9.95998
  208 764.997 -37.5871 -9.95998
  209 48.3956 -286.312 25.7750
  210 48.3956 -286.312 25.7750
  211 647.876 3.16207 -21.8263
  212 647.876 3.16207 -21.8263
  213 642.750 4.88774 18.9795
  214 642.750 4.88774 18.9795
  215 618.029 -57.2325 -101.350
  216 618.029 -57.2325 -101.350
  217 721.081 -15.3361 -13.8841
  218 721.081 -15.3361 -13.8841
  219 594.235 21.1209 -34.1382
  220 594.235 21.1209 -34.1382
  221 163.702 -199.810 184.989
  222 163.702 -199.810 184.989
  223 731.858 4.10511 22.1978
  224 731.858 4.10511 22.1978
  225 713.303 18.7061 -19.3174
  226 713.303 18.7061 -19.3174
  227 997.303 59.4096 -48.1470
  228 997.303 59.4096 -48.1470
  229 767.902 -27.4554 -7.73348
  230 767.902 -27.4554 -7.73348
  231 831.345 -30.0389 -157.902
  232 831.345 -30.0389 -157.902
  233 620.704 -28.1522 77.4330
  234 620.704 -28.1522 77.4330
  235 610.328 16.8649 2.61637
  236 610.328 16.8649 2.61637
  237 327.841 -46.9590 148.145
  238 327.841 -46.9590 148.145
  239 795.525 -63.3506 182.837
  240 795.525 -63.3506 182.837
  241 225.388 -26.2810 -73.7164
  242 225.388 -26.2810 -73.7164
  243 714.936 -54.1608 -37.3563
  244 714.936 -54.1608 -37.3563
  245 588.856 26.1429 19.6087
  246 588.856 26.1429 19.6087
  247 20.3038 -375.633 -21.3364
  248 20.3038 -375.633 -21.3364
  249 40.3099 -327.347 70.3334
  250 40.3099 -327.347 70.3334
  251 598.353 4.06659 55.1331
  252 598.353 4.06659 55.1331
  253 623.832 2.33457 2.08763
  254 623.832 2.33457 2.08763
  255 618.998 9.74848 0.401449
  256 618.998 9.74848 0.401449
  257 581.802 -7.25854 -73.7144
  258 581.802 -7.25854 -73.7144
  259 624.151 2.13363 -2.21191
  260 624.151 2.13363 -2.21191
  261 687.195 -48.8568 48.0368
  262 687.195 -48.8568 48.0368
  263 639.646 2.17913 -10.4268
  264 639.646 2.17913 -10.4268
  265 498.440 -42.2872 -138.371
  266 498.440 -42.2872 -138.371
  267 840.070 65.1003 0.690950
  268 840.070 65.1003 0.690950
  269 618.194 13.4104 -27.5785
  270 618.194 13.4104 -27.5785
  271 616.013 12.5406 -5.38505
  272 616.013 12.5406 -5.38505
  273 527.181 25.5193 -50.4472
  274 527.181 25.5193 -50.4472
  275 163.562 -58.5801 42.9995
  276 163.562 -58.5801 42.9995
  277 654.924 -110.095 143.290
  278 654.924 -110.095 143.290
  279 622.122 9.05257 10.5553
  280 622.122 9.05257 10.5553
  281 912.462 64.1362 -15.9646
  282 912.462 64.1362 -15.9646
  283 1078.01 99.7442 133.647
  284 1078.01 99.7442 133.647
  285 734.710 -78.3522 49.8126
  286 734.710 -78.3522 49.8126
  287 537.439 26.6948 36.8316
  288 537.439 26.6948 36.8316
  289 671.443 -135.168 189.443
  290 671.443 -135.168 189.443
  291 695.453 -8.42854 17.6009
  292 695.453 -8.42854 17.6009
  293 621.741 5.95689 2.86690
  294 621.741 5.95689 2.86690
  295 613.556 16.4994 -17.4151
  296 613.556 16.4994 -17.4151
  297 619.136 9.59438 -0.787715
  298 619.136 9.59438 -0.787715
  299 627.279 1.70116 -4.00604
  300 627.279 1.70116 -4.00604
  301 639.148 3.07515 10.4662
  302 639.148 3.07515 10.4662
  303 610.473 16.7790 -4.44496
  304 610.473 16.7790 -4.44496
  305 140.135 -232.686 -176.752
  306 140.135 -232.686 -176.752
  307 424.775 28.0187 34.6511
  308 424.775 28.0187 34.6511
  309 622.345 4.97959 -2.74976
  310 622.345 4.97959 -2.74976
  311 552.022 31.4284 -24.6323
  312 552.022 31.4284 -24.6323
  313 553.469 34.2600 9.33953
  314 553.469 34.2600 9.33953
  315 621.165 8.70454 -7.45554
  316 621.165 8.70454 -7.45554
  317 826.290 46.1853 -8.81482
  318 826.290 46.1853 -8.81482
  319 616.855 14.6184 24.0582
  320 616.855 14.6184 24.0582
  321 782.331 26.0341 -16.2686
  322 782.331 26.0341 -16.2686
  323 1128.49 31.4138 77.4621
  324 1128.49 31.4138 77.4621
  325 614.747 15.1285 15.0081
  326 614.747 15.1285 15.0081
  327 605.668 20.0458 7.85161
  328 605.668 20.0458 7.85161
  329 467.624 -87.6413 -273.280
  330 467.624 -87.6413 -273.280
  331 627.641 1.53684 3.91770
  332 627.641 1.53684 3.91770
  333 615.479 12.6287 4.02745
  334 615.479 12.6287 4.02745
  335 594.167 26.0891 0.903493
  336 594.167 26.0891 0.903493
  337 309.092 -108.369 218.059
  338 309.092 -108.369 218.059
  339 762.035 50.4067 2.89979
  340 762.035 50.4067 2.89979
  341 43.2955 -320.246 -80.4491
  342 43.2955 -320.246 -80.4491
  343 481.928 30.3492 30.6281
  344 481.928 30.3492 30.6281
  345 1069.05 14.0360 10.2748
  346 1069.05 14.0360 10.2748
  347 1116.92 57.8575 -80.3537
  348 1116.92 57.8575 -80.3537
  349 537.340 -62.6015 154.883
  350 560.985 -32.0553 113.773
  351 537.340 -62.6015 154.883
  352 560.985 -32.0553 113.773
  353 1084.69 26.2701 39.9064
  354 1084.69 26.2701 39.9064
  355 635.394 -1.09252 42.9637
  356 635.394 -1.09252 42.9637
  357 744.405 -100.742 -113.466
  358 744.405 -100.742 -113.466
  359 714.299 -5.94985 18.6523
  360 714.299 -5.94985 18.6523
  361 476.654 -88.5067 297.698
  362 476.654 -88.5067 297.698
  363 831.652 66.6178 -2.09039
  364 831.652 66.6178 -2.09039
  365 1082.11 9.44699 -8.25218
  366 1082.11 9.44699 -8.25218
  367 673.822 0.0928718 -20.8461
  368 673.822 0.0928718 -20.8461
  369 605.648 21.3390 -9.41586
  370 605.648 21.3390 -9.41586
  371 922.806 71.9980 26.9506
  372 922.806 71.9980 26.9506
  373 717.368 30.3857 -4.08671
  374 717.368 30.3857 -4.08671
  375 650.431 2.33218 -13.0435
  376 650.431 2.33218 -13.0435
  377 182.456 -85.8979 -126.231
  378 182.456 -85.8979 -126.231
  379 717.974 -13.0616 4.08427
  380 717.974 -13.0616 4.08427
  381 617.480 -1.18513 -50.8706
  382 617.480 -1.18513 -50.8706
  383 710.267 -1.26722 -22.4349
  384 710.267 -1.26722 -22.4349
  385 1088.24 18.8223 -32.8656
  386 1088.24 18.8223 -32.8656
  387 619.755 9.30614 5.88715
  388 619.755 9.30614 5.88715
  389 753.879 37.7461 17.5989
  390 753.879 37.7461 17.5989
  391 806.791 -15.0397 14.1851
  392 806.791 -15.0397 14.1851
  393 621.876 10.9652 -13.2451
  394 621.876 10.9652 -13.2451
  395 1150.30 118.229 -154.005
  396 1150.30 118.229 -154.005
  397 707.783 -10.6168 -8.12271
  398 707.783 -10.6168 -8.12271
</Section>

newXOutput 188

<Section columns = "stress_xx | stress_yy | stress_xy">
  1 625.878 0.617662 -0.653358
  2 626.165 0.758246 0.880148
  3 625.878 0.617662 -0.653358
  4 626.165 0.758246 0.880148
  5 936.103 83.1525 278.204
  6 971.072 82.1259 -273.868
  7 936.103 83.1525 278.204
  8 971.072 82.1259 -273.868
  9 627.315 0.428129 -1.72108
  10 632.065 0.748745 -3.07423
  11 638.985 1.67862 -6.28526
  12 654.984 0.600962 -8.51900
  13 675.820 0.929865 -14.1981
  14 700.629 -6.51490 -14.3780
  15 724.188 -7.71556 -2.29741
  16 715.902 -5.17434 10.6658
  17 692.455 5.75764 19.4688
  18 679.558 13.6808 -0.767653
  19 688.780 6.51221 -18.3723
  20 715.339 -7.73051 -12.9648
  21 717.839 -9.38291 5.60244
  22 704.187 -4.28288 12.4502
  23 671.611 0.0357917 14.3396
  24 653.634 2.36226 10.8153
  25 639.428 1.92743 6.03226
  26 632.205 0.603522 2.81388
  27 627.664 0.508560 1.66623
  28 626.995 2.20075 1.02642
  29 625.985 4.49259 1.20192
  30 623.493 7.77309 1.07429
  31 622.500 9.02723 -0.103670
  32 623.760 7.37961 -1.28382
  33 625.536 4.89826 -1.08150
  34 626.311 2.50213 -1.15751
  35 627.315 0.428129 -1.72108
  36 632.065 0.748745 -3.07423
  37 638.985 1.67862 -6.28526
  38 654.984 0.600962 -8.51900
  39 675.820 0.929865 -14.1981
  40 700.629 -6.51490 -14.3780
  41 724.188 -7.71556 -2.29741
  42 715.902 -5.17434 10.6658
  43 692.455 5.75764 19.4688
  44 679.558 13.6808 -0.767653
  45 688.780 6.51221 -18.3723
  46 715.339 -7.73051 -12.9648
  47 717.839 -9.38291 5.60244
  48 704.187 -4.28288 12.4502
  49 671.611 0.0357917 14.3396
  50 653.634 2.36226 10.8153
  51 639.428 1.92743 6.03226
  52 632.205 0.603522 2.81388
  53 627.664 0.508560 1.66623
  54 626.995 2.20075 1.02642
  55 625.985 4.49259 1.20192
  56 623.493 7.77309 1.07429
  57 622.500 9.02723 -0.103670
  58 623.760 7.37961 -1.28382
  59 625.536 4.89826 -1.08150
  60 626.311 2.50213 -1.15751
  61 1286.83 70.3998 137.638
  62 1176.78 18.9598 47.6406
  63 1113.07 7.47154 17.2616
  64 1099.31 5.51323 3.19441
  65 1112.38 7.41654 -14.6960
  66 1161.43 16.1552 -41.0587
  67 1299.02 61.1789 -118.541
  68 176.179 -177.105 -233.708
  69 34.9724 -457.942 -64.8399
  70 8.39529 -532.040 -28.2857
  71 8.09265 -523.651 -12.9065
  72 15.1447 -506.532 30.3468
  73 38.3637 -443.627 68.8694
  74 189.697 -163.646 258.329
  75 1286.83 70.3998 137.638
  76 1176.78 18.9598 47.6406
  77 1113.07 7.47154 17.2616
  78 1099.31 5.51323 3.19441
  79 1112.38 7.41654 -14.6960
  80 1161.43 16.1552 -41.0587
  81 1299.02 61.1789 -118.541
  82 176.179 -177.105 -233.708
  83 34.9724 -457.942 -64.8399
  84 8.39529 -532.040 -28.2857
  85 8.09265 -523.651 -12.9065
  86 15.1447 -506.532 30.3468
  87 38.3637 -443.627 68.8694
  88 189.697 -163.646 258.329
  89 578.459 32.5545 -8.37102
  90 578.459 32.5545 -8.37102
  91 528.903 7.48316 77.0042
  92 508.530 -2.94259 -92.3602
  93 528.903 7.48316 77.0042
  94 508.530 -2.94259 -92.3602
  95 305.142 9.52453 37.6320
  96 305.142 9.52453 37.6320
  97 770.180 50.1932 -9.83213
  98 782.447 29.9543 18.8042
  99 770.180 50.1932 -9.83213
  100 782.447 29.9543 18.8042
  101 617.872 14.5593 8.14333
  102 617.872 14.5593 8.14333
  103 733.560 -41.7986 4.61467
  104 733.560 -41.7986 4.61467
  105 618.540 15.2397 -10.0633
  106 618.540 15.2397 -10.0633
  107 718.556 -89.6416 -84.6465
  108 718.556 -89.6416 -84.6465
  109 506.884 -106.617 207.755
  110 506.884 -106.617 207.755
  111 346.710 -61.5257 -168.473
  112 346.710 -61.5257 -168.473
  113 620.682 10.1163 35.9355
  114 620.682 10.1163 35.9355
  115 642.052 4.03676 -34.5317
  116 642.052 4.03676 -34.5317
  117 864.176 60.6662 15.0404
  118 922.908 59.0271 6.31818
  119 864.176 60.6662 15.0404
  120 922.908 59.0271 6.31818
  121 905.166 77.9752 -28.6350
  122 905.166 77.9752 -28.6350
  123 102.595 -162.190 -57.4905
  124 102.595 -162.190 -57.4905
  125 777.447 -95.5241 94.2379
  126 777.447 -95.5241 94.2379
  127 662.722 -16.2790 41.7348
  128 662.722 -16.2790 41.7348
  129 156.028 -139.589 130.917
  130 156.028 -139.589 130.917
  131 618.695 12.1290 -0.506232
  132 618.695 12.1290 -0.506232
  133 661.371 -31.2062 -53.6139
  134 661.371 -31.2062 -53.6139
  135 627.611 4.97962 5.83534
  136 627.611 4.97962 5.83534
  137 628.085 4.38866 -5.43565
  138 628.085 4.38866 -5.43565
  139 634.597 8.48127 -17.7272
  140 634.597 8.48127 -17.7272
  141 631.898 8.28378 15.9172
  142 631.898 8.28378 15.9172
  143 607.133 20.3300 -0.662178
  144 607.133 20.3300 -0.662178
  145 511.941 33.6455 -3.96340
  146 511.941 33.6455 -3.96340
  147 730.815 -25.9032 7.95558
  148 730.815 -25.9032 7.95558
  149 828.936 -25.1372 -40.5015
  150 828.936 -25.1372 -40.5015
  151 645.074 -72.7368 103.059
  152 645.074 -72.7368 103.059
  153 486.740 -130.838 -236.704
  154 486.740 -130.838 -236.704
  155 579.329 23.4539 34.3500
  156 579.329 23.4539 34.3500
  157 744.015 -3.85369 -23.1791
  158 744.015 -3.85369 -23.1791
  159 1001.31 81.6064 61.5242
  160 1001.31 81.6064 61.5242
  161 506.400 -141.375 272.407
  162 506.400 -141.375 272.407
  163 1019.36 32.7124 -11.9534
  164 1019.36 32.7124 -11.9534
  165 604.790 20.2996 15.6916
  166 604.790 20.2996 15.6916
  167 575.620 19.4322 -50.5620
  168 575.620 19.4322 -50.5620
  169 711.184 22.0725 14.7988
  170 711.184 22.0725 14.7988
  171 599.482 24.2853 -17.8848
  172 599.482 24.2853 -17.8848
  173 622.132 9.73912 2.55266
  174 622.132 9.73912 2.55266
  175 631.521 4.72778 -9.32288
  176 631.521 4.72778 -9.32288
  177 961.740 80.8255 -64.4699
  178 961.740 80.8255 -64.4699
  179 622.572 9.48773 -3.07752
  180 622.572 9.48773 -3.07752
  181 465.485 34.0956 -26.5648
  182 465.485 34.0956 -26.5648
  183 823.535 61.6918 1.59219
  184 823.535 61.6918 1.59219
  185 170.275 -137.081 -168.445
  186 170.275 -137.081 -168.445
  187 457.014 -4.43541 112.889
  188 457.014 -4.43541 112.889
  189 601.795 -98.2600 -160.951
  190 601.795 -98.2600 -160.951
  191 710.587 -19.8409 10.3832
  192 710.587 -19.8409 10.3832
  193 665.812 -2.50513 25.2488
  194 665.812 -2.50513 25.2488
  195 895.680 31.8353 62.2253
  196 895.680 31.8353 62.2253
  197 383.912 13.1117 -70.0403
  198 383.912 13.1117 -70.0403
  199 1012.04 44.4446 27.7839
  200 1012.04 44.4446 27.7839
  201 677.845 -8.61608 -27.0380
  202 677.845 -8.61608 -27.0380
  203 632.446 3.36755 8.58877
  204 632.446 3.36755 8.58877
  205 704.976 -28.0586 -15.5775
  206 704.976 -28.0586 -15.5775
  207 768.741 -37.7604 -10.0649
  208 768.741 -37.7604 -10.0649
  209 48.6412 -287.757 25.9289
  210 48.6412 -287.757 25.9289
  211 651.087 3.17479 -21.9278
  212 651.087 3.17479 -21.9278
  213 645.939 4.90994 19.0666
  214 645.939 4.90994 19.0666
  215 621.091 -57.5222 -101.868
  216 621.091 -57.5222 -101.868
  217 724.645 -15.4124 -13.9226
  218 724.645 -15.4124 -13.9226
  219 597.217 21.2231 -34.3007
  220 597.217 21.2231 -34.3007
  221 164.520 -200.754 186.034
  222 164.520 -200.754 186.034
  223 735.487 4.13536 22.2707
  224 735.487 4.13536 22.2707
  225 716.865 18.8066 -19.3881
  226 716.865 18.8066 -19.3881
  227 1002.07 59.6923 -48.4047
  228 1002.07 59.6923 -48.4047
  229 771.663 -27.5776 -7.71490
  230 771.663 -27.5776 -7.71490
  231 835.329 -30.0945 -158.785
  232 835.329 -30.0945 -158.785
  233 623.787 -28.2942 77.8207
  234 623.787 -28.2942 77.8207
  235 613.383 16.9444 2.62800
  236 613.383 16.9444 2.62800
  237 329.526 -47.1854 148.921
  238 329.526 -47.1854 148.921
  239 799.336 -63.5890 183.839
  240 799.336 -63.5890 183.839
  241 226.579 -26.3846 -74.1077
  242 226.579 -26.3846 -74.1077
  243 718.445 -54.4327 -37.5720
  244 718.445 -54.4327 -37.5720
  245 591.816 26.2693 19.7003
  246 591.816 26.2693 19.7003
  247 20.3962 -377.564 -21.4682
  248 20.3962 -377.564 -21.4682
  249 40.5091 -328.994 70.7627
  250 40.5091 -328.994 70.7627
  251 601.347 4.08570 55.4017
  252 601.347 4.08570 55.4017
  253 626.940 2.34568 2.09640
  254 626.940 2.34568 2.09640
  255 622.088 9.79373 0.403191
  256 622.088 9.79373 0.403191
  257 584.717 -7.29584 -74.0793
  258 584.717 -7.29584 -74.0793
  259 627.260 2.14388 -2.22120
  260 627.260 2.14388 -2.22120
  261 690.579 -49.1033 48.2958
  262 690.579 -49.1033 48.2958
  263 642.819 2.18895 -10.4728
  264 642.819 2.18895 -10.4728
  265 500.947 -42.5012 -139.075
  266 500.947 -42.5012 -139.075
  267 844.191 65.4276 0.732286
  268 844.191 65.4276 0.732286
  269 621.281 13.4736 -27.7068
  270 621.281 13.4736 -27.7068
  271 619.091 12.5994 -5.40847
  272 619.091 12.5994 -5.40847
  273 529.857 25.6476 -50.6937
  274 529.857 25.6476 -50.6937
  275 164.432 -58.8338 43.2341
  276 164.432 -58.8338 43.2341
  277 658.130 -110.652 144.039
  278 658.130 -110.652 144.039
  279 625.225 9.09508 10.6016
  280 625.225 9.09508 10.6016
  281 916.889 64.4429 -16.0611
  282 916.889 64.4429 -16.0611
  283 1083.08 100.303 134.356
  284 1083.08 100.303 134.356
  285 738.299 -78.7388 50.1053
  286 738.299 -78.7388 50.1053
  287 540.165 26.8279 37.0093
  288 540.165 26.8279 37.0093
  289 674.703 -135.844 190.438
  290 674.703 -135.844 190.438
  291 698.876 -8.47313 17.6926
  292 698.876 -8.47313 17.6926
  293 624.841 5.98477 2.87909
  294 624.841 5.98477 2.87909
  295 616.623 16.5775 -17.4938
  296 616.623 16.5775 -17.4938
  297 622.227 9.63894 -0.791066
  298 622.227 9.63894 -0.791066
  299 630.401 1.70922 -4.02308
  300 630.401 1.70922 -4.02308
  301 642.320 3.08923 10.5122
  302 642.320 3.08923 10.5122
  303 613.528 16.8582 -4.46468
  304 613.528 16.8582 -4.46468
  305 140.830 -233.780 -177.760
  306 140.830 -233.780 -177.760
  307 426.968 28.1673 34.8234
  308 426.968 28.1673 34.8234
  309 625.447 5.00301 -2.76139
  310 625.447 5.00301 -2.76139
  311 554.817 31.5830 -24.7507
  312 554.817 31.5830 -24.7507
  313 556.273 34.4284 9.38376
  314 556.273 34.4284 9.38376
  315 624.264 8.74541 -7.48792
  316 624.264 8.74541 -7.48792
  317 830.331 46.4448 -8.92839
  318 830.331 46.4448 -8.92839
  319 619.936 14.6876 24.1687
  320 619.936 14.6876 24.1687
  321 786.182 26.1805 -16.2951
  322 786.182 26.1805 -16.2951
  323 1133.76 31.5536 77.8396
  324 1133.76 31.5536 77.8396
  325 617.819 15.2001 15.0755
  326 617.819 15.2001 15.0755
  327 608.703 20.1409 7.88688
  328 608.703 20.1409 7.88688
  329 469.877 -87.9007 -274.768
  330 469.877 -87.9007 -274.768
  331 630.765 1.54411 3.93436
  332 630.765 1.54411 3.93436
  333 618.555 12.6879 4.04501
  334 618.555 12.6879 4.04501
  335 597.153 26.2141 0.907607
  336 597.153 26.2141 0.907607
  337 310.662 -108.909 219.230
  338 310.662 -108.909 219.230
  339 765.821 50.6634 2.90505
  340 765.821 50.6634 2.90505
  341 43.5045 -321.854 -80.9290
  342 43.5045 -321.854 -80.9290
  343 484.398 30.5039 30.7776
  344 484.398 30.5039 30.7776
  345 1074.06 14.0954 10.3200
  346 1074.06 14.0954 10.3200
  347 1122.15 58.1435 -80.7511
  348 1122.15 58.1435 -80.7511
  349 540.018 -62.9203 155.671
  350 563.791 -32.2168 114.342
  351 540.018 -62.9203 155.671
  352 563.791 -32.2168 114.342
  353 1089.77 26.3843 40.0942
  354 1089.77 26.3843 40.0942
  355 638.554 -1.10034 43.1725
  356 638.554 -1.10034 43.1725
  357 748.011 -101.233 -114.085
  358 748.011 -101.233 -114.085
  359 717.843 -5.97674 18.7202
  360 717.843 -5.97674 18.7202
  361 478.930 -88.7811 299.303
  362 478.930 -88.7811 299.303
  363 835.743 66.9450 -2.09891
  364 835.743 66.9450 -2.09891
  365 1087.17 9.48637 -8.29007
  366 1087.17 9.48637 -8.29007
  367 677.145 0.0904802 -20.9455
  368 677.145 0.0904802 -20.9455
  369 608.682 21.4405 -9.45835
  370 608.682 21.4405 -9.45835
  371 927.275 72.3514 27.1188
  372 927.275 72.3514 27.1188
  373 720.956 30.5428 -4.10167
  374 720.956 30.5428 -4.10167
  375 653.650 2.34205 -13.1023
  376 653.650 2.34205 -13.1023
  377 183.425 -86.3006 -126.920
  378 183.425 -86.3006 -126.920
  379 721.514 -13.1278 4.08649
  380 721.514 -13.1278 4.08649
  381 620.559 -1.19346 -51.1201
  382 620.559 -1.19346 -51.1201
  383 713.802 -1.27101 -22.5185
  384 713.802 -1.27101 -22.5185
  385 1093.33 18.9062 -33.0182
  386 1093.33 18.9062 -33.0182
  387 622.848 9.34969 5.91263
  388 622.848 9.34969 5.91263
  389 757.617 37.9448 17.6510
  390 757.617 37.9448 17.6510
  391 810.719 -15.0844 14.3277
  392 810.719 -15.0844 14.3277
  393 624.977 11.0169 -13.3038
  394 624.977 11.0169 -13.3038
  395 1155.66 118.902 -154.809
  396 1155.66 118.902 -154.809
  397 711.263 -10.6727 -8.17104
  398 711.263 -10.6727 -8.17104
</Section>

newXOutput 189

<Section columns = "stress_xx | stress_yy | stress_xy">
  1 628.980 0.620810 -0.656029
  2 629.268 0.762015 0.883736
  3 628.980 0.620810 -0.656029
  4 629.268 0.762015 0.883736
  5 940.424 83.7851 279.659
  6 975.537 82.7617 -275.302
  7 940.424 83.7851 279.659
  8 975.537 82.7617 -275.302
  9 630.423 0.430225 -1.72820
  10 635.191 0.752306 -3.08712
  11 642.139 1.68638 -6.31219
  12 658.204 0.603419 -8.55637
  13 679.130 0.932846 -14.2632
  14 704.050 -6.55006 -14.4486
  15 727.723 -7.75572 -2.31590
  16 719.429 -5.19981 10.7026
  17 695.908 5.79057 19.5447
  18 682.969 13.7536 -0.770732
  19 692.218 6.54637 -18.4451
  20 718.865 -7.76898 -13.0091
  21 721.346 -9.43191 5.63856
  22 707.624 -4.30576 12.5120
  23 674.904 0.0338435 14.4061
  24 656.849 2.37271 10.8631
  25 642.584 1.93636 6.05801
  26 635.332 0.606413 2.82565
  27 630.773 0.511079 1.67317
  28 630.101 2.21116 1.03058
  29 629.087 4.51357 1.20690
  30 626.586 7.80898 1.07880
  31 625.589 9.06877 -0.104099
  32 626.854 7.41375 -1.28915
  33 628.636 4.92114 -1.08584
  34 629.415 2.51405 -1.16231
  35 630.423 0.430225 -1.72820
  36 635.191 0.752306 -3.08712
  37 642.139 1.68638 -6.31219
  38 658.204 0.603419 -8.55637
  39 679.130 0.932846 -14.2632
  40 704.050 -6.55006 -14.4486
  41 727.723 -7.75572 -2.31590
  42 719.429 -5.19981 10.7026
  43 695.908 5.79057 19.5447
  44 682.969 13.7536 -0.770732
  45 692.218 6.54637 -18.4451
  46 718.865 -7.76898 -13.0091
  47 721.346 -9.43191 5.63856
  48 707.624 -4.30576 12.5120
  49 674.904 0.0338435 14.4061
  50 656.849 2.37271 10.8631
  51 642.584 1.93636 6.05801
  52 635.332 0.606413 2.82565
  53 630.773 0.511079 1.67317
  54 630.101 2.21116 1.03058
  55 629.087 4.51357 1.20690
  56 626.586 7.80898 1.07880
  57 625.589 9.06877 -0.104099
  58 626.854 7.41375 -1.28915
  59 628.636 4.92114 -1.08584
  60 629.415 2.51405 -1.16231
  61 1292.67 70.7578 138.293
  62 1182.17 19.0434 47.8555
  63 1118.20 7.49945 17.3358
  64 1104.39 5.53523 3.20601
  65 1117.51 7.44747 -14.7588
  66 1166.76 16.2253 -41.2408
  67 1304.92 61.4889 -119.105
  68 177.024 -177.750 -235.002
  69 35.1420 -460.247 -65.2564
  70 8.41874 -534.845 -28.4677
  71 8.11634 -526.425 -12.9743
  72 15.2073 -509.183 30.5428
  73 38.5545 -445.858 69.3139
  74 190.592 -164.225 259.752
  75 1292.67 70.7578 138.293
  76 1182.17 19.0434 47.8555
  77 1118.20 7.49945 17.3358
  78 1104.39 5.53523 3.20601
  79 1117.51 7.44747 -14.7588
  80 1166.76 16.2253 -41.2408
  81 1304.92 61.4889 -119.105
  82 177.024 -177.750 -235.002
  83 35.1420 -460.247 -65.2564
  84 8.41874 -534.845 -28.4677
  85 8.11634 -526.425 -12.9743
  86 15.2073 -509.183 30.5428
  87 38.5545 -445.858 69.3139
  88 190.592 -164.225 259.752
  89 581.361 32.7118 -8.41032
  90 581.361 32.7118 -8.41032
  91 531.564 7.52226 77.3815
  92 511.092 -2.95527 -92.8180
  93 531.564 7.52226 77.3815
  94 511.092 -2.95527 -92.8180
  95 306.739 9.59236 37.8242
  96 306.739 9.59236 37.8242
  97 773.979 50.4481 -9.85810
  98 786.280 30.1201 18.8417
  99 773.979 50.4481 -9.85810
  100 786.280 30.1201 18.8417
  101 620.943 14.6274 8.17902
  102 620.943 14.6274 8.17902
  103 737.146 -42.0037 4.67742
  104 737.146 -42.0037 4.67742
  105 621.613 15.3112 -10.1075
  106 621.613 15.3112 -10.1075
  107 722.044 -90.0882 -85.0988
  108 722.044 -90.0882 -85.0988
  109 509.388 -107.158 208.828
  110 509.388 -107.158 208.828
  111 348.469 -61.8271 -169.353
  112 348.469 -61.8271 -169.353
  113 623.762 10.1631 36.1047
  114 623.762 10.1631 36.1047
  115 645.224 4.05320 -34.6962
  116 645.224 4.05320 -34.6962
  117 868.368 60.9900 15.1824
  118 927.353 59.3034 6.35929
  119 868.368 60.9900 15.1824
  120 927.353 59.3034 6.35929
  121 909.541 78.3703 -28.8258
  122 909.541 78.3703 -28.8258
  123 103.129 -162.965 -57.8166
  124 103.129 -162.965 -57.8166
  125 781.188 -95.9718 94.7698
  126 781.188 -95.9718 94.7698
  127 665.984 -16.3625 41.9453
  128 665.984 -16.3625 41.9453
  129 156.837 -140.251 131.646
  130 156.837 -140.251 131.646
  131 621.769 12.1854 -0.508351
  132 621.769 12.1854 -0.508351
  133 664.623 -31.3642 -53.8888
  134 664.623 -31.3642 -53.8888
  135 630.720 5.00292 5.86022
  136 630.720 5.00292 5.86022
  137 631.195 4.40931 -5.45872
  138 631.195 4.40931 -5.45872
  139 637.736 8.52042 -17.8067
  140 637.736 8.52042 -17.8067
  141 635.025 8.32226 15.9880
  142 635.025 8.32226 15.9880
  143 610.159 20.4259 -0.665289
  144 610.159 20.4259 -0.665289
  145 514.540 33.8126 -3.98307
  146 514.540 33.8126 -3.98307
  147 734.398 -26.0284 7.95973
  148 734.398 -26.0284 7.95973
  149 832.932 -25.2151 -40.7842
  150 832.932 -25.2151 -40.7842
  151 648.236 -73.1031 103.586
  152 648.236 -73.1031 103.586
  153 489.118 -131.469 -237.964
  154 489.118 -131.469 -237.964
  155 582.230 23.5681 34.5131
  156 582.230 23.5681 34.5131
  157 747.667 -3.86475 -23.2495
  158 747.667 -3.86475 -23.2495
  159 1006.08 82.0175 61.8626
  160 1006.08 82.0175 61.8626
  161 508.868 -142.071 273.840
  162 508.868 -142.071 273.840
  163 1024.17 32.8563 -12.0128
  164 1024.17 32.8563 -12.0128
  165 607.805 20.3957 15.7628
  166 607.805 20.3957 15.7628
  167 578.501 19.5273 -50.8056
  168 578.501 19.5273 -50.8056
  169 714.724 22.1894 14.8548
  170 714.724 22.1894 14.8548
  171 602.475 24.4010 -17.9668
  172 602.475 24.4010 -17.9668
  173 625.220 9.78426 2.56355
  174 625.220 9.78426 2.56355
  175 634.646 4.74972 -9.36326
  176 634.646 4.74972 -9.36326
  177 966.329 81.2697 -64.8594
  178 966.329 81.2697 -64.8594
  179 625.661 9.53181 -3.09059
  180 625.661 9.53181 -3.09059
  181 467.863 34.2703 -26.6956
  182 467.863 34.2703 -26.6956
  183 827.563 62.0031 1.56164
  184 827.563 62.0031 1.56164
  185 171.146 -137.732 -169.377
  186 171.146 -137.732 -169.377
  187 459.329 -4.45284 113.454
  188 459.329 -4.45284 113.454
  189 604.744 -98.7557 -161.781
  190 604.744 -98.7557 -161.781
  191 714.069 -19.9420 10.4523
  192 714.069 -19.9420 10.4523
  193 669.085 -2.52045 25.3702
  194 669.085 -2.52045 25.3702
  195 899.974 32.0515 62.6193
  196 899.974 32.0515 62.6193
  197 385.889 13.1890 -70.3942
  198 385.889 13.1890 -70.3942
  199 1016.83 44.6466 27.9263
  200 1016.83 44.6466 27.9263
  201 681.173 -8.66201 -27.1740
  202 681.173 -8.66201 -27.1740
  203 635.575 3.38307 8.62587
  204 635.575 3.38307 8.62587
  205 708.430 -28.2016 -15.6740
  206 708.430 -28.2016 -15.6740
  207 772.482 -37.9335 -10.1703
  208 772.482 -37.9335 -10.1703
  209 48.8866 -289.200 26.0829
  210 48.8866 -289.200 26.0829
  211 654.295 3.18746 -22.0292
  212 654.295 3.18746 -22.0292
  213 649.125 4.93210 19.1535
  214 649.125 4.93210 19.1535
  215 624.151 -57.8118 -102.385
  216 624.151 -57.8118 -102.385
  217 728.205 -15.4885 -13.9607
  218 728.205 -15.4885 -13.9607
  219 600.196 21.3252 -34.4630
  220 600.196 21.3252 -34.4630
  221 165.337 -201.697 187.079
  222 165.337 -201.697 187.079
  223 739.112 4.16570 22.3431
  224 739.112 4.16570 22.3431
  225 720.425 18.9071 -19.4586
  226 720.425 18.9071 -19.4586
  227 1006.83 59.9747 -48.6623
  228 1006.83 59.9747 -48.6623
  229 775.421 -27.6995 -7.69576
  230 775.421 -27.6995 -7.69576
  231 839.308 -30.1491 -159.667
  232 839.308 -30.1491 -159.667
  233 626.868 -28.4361 78.2080
  234 626.868 -28.4361 78.2080
  235 616.435 17.0239 2.63962
  236 616.435 17.0239 2.63962
  237 331.211 -47.4115 149.696
  238 331.211 -47.4115 149.696
  239 803.143 -63.8263 184.841
  240 803.143 -63.8263 184.841
  241 227.771 -26.4878 -74.4989
  242 227.771 -26.4878 -74.4989
  243 721.951 -54.7044 -37.7879
  244 721.951 -54.7044 -37.7879
  245 594.775 26.3955 19.7919
  246 594.775 26.3955 19.7919
  247 20.4884 -379.494 -21.6002
  248 20.4884 -379.494 -21.6002
  249 40.7081 -330.640 71.1925
  250 40.7081 -330.640 71.1925
  251 604.339 4.10478 55.6701
  252 604.339 4.10478 55.6701
  253 630.046 2.35679 2.10514
  254 630.046 2.35679 2.10514
  255 625.176 9.83890 0.404930
  256 625.176 9.83890 0.404930
  257 587.630 -7.33313 -74.4440
  258 587.630 -7.33313 -74.4440
  259 630.367 2.15413 -2.23047
  260 630.367 2.15413 -2.23047
  261 693.960 -49.3496 48.5547
  262 693.960 -49.3496 48.5547
  263 645.990 2.19874 -10.5186
  264 645.990 2.19874 -10.5186
  265 503.452 -42.7151 -139.778
  266 503.452 -42.7151 -139.778
  267 848.309 65.7547 0.773942
  268 848.309 65.7547 0.773942
  269 624.365 13.5366 -27.8348
  270 624.365 13.5366 -27.8348
  271 622.166 12.6582 -5.43184
  272 622.166 12.6582 -5.43184
  273 532.532 25.7758 -50.9400
  274 532.532 25.7758 -50.9400
  275 165.303 -59.0868 43.4688
  276 165.303 -59.0868 43.4688
  277 661.332 -111.208 144.787
  278 661.332 -111.208 144.787
  279 628.324 9.13754 10.6478
  280 628.324 9.13754 10.6478
  281 921.310 64.7491 -16.1577
  282 921.310 64.7491 -16.1577
  283 1088.15 100.862 135.064
  284 1088.15 100.862 135.064
  285 741.884 -79.1251 50.3982
  286 741.884 -79.1251 50.3982
  287 542.890 26.9609 37.1869
  288 542.890 26.9609 37.1869
  289 677.960 -136.520 191.432
  290 677.960 -136.520 191.432
  291 702.297 -8.51772 17.7842
  292 702.297 -8.51772 17.7842
  293 627.939 6.01261 2.89125
  294 627.939 6.01261 2.89125
  295 619.688 16.6556 -17.5724
  296 619.688 16.6556 -17.5724
  297 625.315 9.68343 -0.794408
  298 625.315 9.68343 -0.794408
  299 633.520 1.71727 -4.04009
  300 633.520 1.71727 -4.04009
  301 645.489 3.10329 10.5582
  302 645.489 3.10329 10.5582
  303 616.581 16.9373 -4.48436
  304 616.581 16.9373 -4.48436
  305 141.525 -234.872 -178.769
  306 141.525 -234.872 -178.769
  307 429.161 28.3158 34.9955
  308 429.161 28.3158 34.9955
  309 628.547 5.02640 -2.77299
  310 628.547 5.02640 -2.77299
  311 557.611 31.7375 -24.8689
  312 557.611 31.7375 -24.8689
  313 559.074 34.5966 9.42794
  314 559.074 34.5966 9.42794
  315 627.359 8.78623 -7.52023
  316 627.359 8.78623 -7.52023
  317 834.368 46.7045 -9.04254
  318 834.368 46.7045 -9.04254
  319 623.014 14.7568 24.2790
  320 623.014 14.7568 24.2790
  321 790.029 26.3270 -16.3210
  322 790.029 26.3270 -16.3210
  323 1139.02 31.6931 78.2167
  324 1139.02 31.6931 78.2167
  325 620.889 15.2716 15.1427
  326 620.889 15.2716 15.1427
  327 611.736 20.2359 7.92208
  328 611.736 20.2359 7.92208
  329 472.128 -88.1581 -276.256
  330 472.128 -88.1581 -276.256
  331 633.886 1.55137 3.95097
  332 633.886 1.55137 3.95097
  333 621.628 12.7470 4.06254
  334 621.628 12.7470 4.06254
  335 600.136 26.3391 0.911714
  336 600.136 26.3391 0.911714
  337 312.231 -109.449 220.401
  338 312.231 -109.449 220.401
  339 769.604 50.9200 2.91022
  340 769.604 50.9200 2.91022
  341 43.7131 -323.461 -81.4095
  342 43.7131 -323.461 -81.4095
  343 486.866 30.6585 30.9270
  344 486.866 30.6585 30.9270
  345 1079.06 14.1548 10.3651
  346 1079.06 14.1548 10.3651
  347 1127.38 58.4291 -81.1481
  348 1127.38 58.4291 -81.1481
  349 542.695 -63.2388 156.460
  350 566.594 -32.3781 114.910
  351 542.695 -63.2388 156.460
  352 566.594 -32.3781 114.910
  353 1094.85 26.4983 40.2817
  354 1094.85 26.4983 40.2817
  355 641.711 -1.10818 43.3811
  356 641.711 -1.10818 43.3811
  357 751.614 -101.724 -114.705
  358 751.614 -101.724 -114.705
  359 721.384 -6.00359 18.7877
  360 721.384 -6.00359 18.7877
  361 481.204 -89.0535 300.908
  362 481.204 -89.0535 300.908
  363 839.830 67.2720 -2.10740
  364 839.830 67.2720 -2.10740
  365 1092.21 9.52566 -8.32790
  366 1092.21 9.52566 -8.32790
  367 680.464 0.0880629 -21.0447
  368 680.464 0.0880629 -21.0447
  369 611.715 21.5419 -9.50076
  370 611.715 21.5419 -9.50076
  371 931.740 72.7044 27.2872
  372 931.740 72.7044 27.2872
  373 724.541 30.6998 -4.11657
  374 724.541 30.6998 -4.11657
  375 656.866 2.35190 -13.1610
  376 656.866 2.35190 -13.1610
  377 184.393 -86.7026 -127.610
  378 184.393 -86.7026 -127.610
  379 725.050 -13.1938 4.08853
  380 725.050 -13.1938 4.08853
  381 623.636 -1.20181 -51.3693
  382 623.636 -1.20181 -51.3693
  383 717.335 -1.27477 -22.6018
  384 717.335 -1.27477 -22.6018
  385 1098.41 18.9899 -33.1706
  386 1098.41 18.9899 -33.1706
  387 625.939 9.39318 5.93804
  388 625.939 9.39318 5.93804
  389 761.353 38.1434 17.7027
  390 761.353 38.1434 17.7027
  391 814.643 -15.1288 14.4709
  392 814.643 -15.1288 14.4709
  393 628.076 11.0684 -13.3623
  394 628.076 11.0684 -13.3623
  395 1161.01 119.575 -155.613
  396 1161.01 119.575 -155.613
  397 714.741 -10.7286 -8.21940
  398 714.741 -10.7286 -8.21940
</Section>

newXOutput 190

<Section columns = "stress_xx | stress_yy | stress_xy">
  1 632.079 0.623956 -0.658692
  2 632.369 0.765781 0.887313
  3 632.079 0.623956 -0.658692
  4 632.369 0.765781 0.887313
  5 944.739 84.4194 281.113
  6 979.995 83.3994 -276.736
  7 944.739 84.4194 281.113
  8 979.995 83.3994 -276.736
  9 633.528 0.432320 -1.73530
  10 638.314 0.755863 -3.09999
  11 645.291 1.69413 -6.33905
  12 661.421 0.605870 -8.59367
  13 682.436 0.935809 -14.3283
  14 707.467 -6.58522 -14.5192
  15 731.255 -7.79586 -2.33445
  16 722.954 -5.22527 10.7393
  17 699.358 5.82353 19.6203
  18 686.377 13.8265 -0.773801
  19 695.654 6.58053 -18.5176
  20 722.388 -7.80743 -13.0532
  21 724.850 -9.48089 5.67473
  22 711.057 -4.32865 12.5738
  23 678.194 0.0318760 14.4725
  24 660.061 2.38314 10.9108
  25 645.738 1.94526 6.08369
  26 638.457 0.609301 2.83739
  27 633.879 0.513595 1.68009
  28 633.204 2.22156 1.03473
  29 632.187 4.53452 1.21187
  30 629.676 7.84481 1.08330
  31 628.676 9.11025 -0.104527
  32 629.946 7.44784 -1.29447
  33 631.734 4.94399 -1.09016
  34 632.515 2.52596 -1.16710
  35 633.528 0.432320 -1.73530
  36 638.314 0.755863 -3.09999
  37 645.291 1.69413 -6.33905
  38 661.421 0.605870 -8.59367
  39 682.436 0.935809 -14.3283
  40 707.467 -6.58522 -14.5192
  41 731.255 -7.79586 -2.33445
  42 722.954 -5.22527 10.7393
  43 699.358 5.82353 19.6203
  44 686.377 13.8265 -0.773801
  45 695.654 6.58053 -18.5176
  46 722.388 -7.80743 -13.0532
  47 724.850 -9.48089 5.67473
  48 711.057 -4.32865 12.5738
  49 678.194 0.0318760 14.4725
  50 660.061 2.38314 10.9108
  51 645.738 1.94526 6.08369
  52 638.457 0.609301 2.83739
  53 633.879 0.513595 1.68009
  54 633.204 2.22156 1.03473
  55 632.187 4.53452 1.21187
  56 629.676 7.84481 1.08330
  57 628.676 9.11025 -0.104527
  58 629.946 7.44784 -1.29447
  59 631.734 4.94399 -1.09016
  60 632.515 2.52596 -1.16710
  61 1298.51 71.1155 138.947
  62 1187.55 19.1269 48.0699
  63 1123.32 7.52726 17.4098
  64 1109.46 5.55717 3.21757
  65 1122.63 7.47832 -14.8214
  66 1172.09 16.2953 -41.4225
  67 1310.81 61.7988 -119.668
  68 177.867 -178.391 -236.297
  69 35.3114 -462.550 -65.6737
  70 8.44198 -537.649 -28.6500
  71 8.13983 -529.199 -13.0421
  72 15.2696 -511.833 30.7392
  73 38.7451 -448.087 69.7591
  74 191.485 -164.801 261.175
  75 1298.51 71.1155 138.947
  76 1187.55 19.1269 48.0699
  77 1123.32 7.52726 17.4098
  78 1109.46 5.55717 3.21757
  79 1122.63 7.47832 -14.8214
  80 1172.09 16.2953 -41.4225
  81 1310.81 61.7988 -119.668
  82 177.867 -178.391 -236.297
  83 35.3114 -462.550 -65.6737
  84 8.44198 -537.649 -28.6500
  85 8.13983 -529.199 -13.0421
  86 15.2696 -511.833 30.7392
  87 38.7451 -448.087 69.7591
  88 191.485 -164.801 261.175
  89 584.260 32.8689 -8.44956
  90 584.260 32.8689 -8.44956
  91 534.223 7.56136 77.7585
  92 513.652 -2.96792 -93.2754
  93 534.223 7.56136 77.7585
  94 513.652 -2.96792 -93.2754
  95 308.335 9.66034 38.0162
  96 308.335 9.66034 38.0162
  97 777.775 50.7030 -9.88383
  98 790.110 30.2859 18.8786
  99 777.775 50.7030 -9.88383
  100 790.110 30.2859 18.8786
  101 624.011 14.6955 8.21464
  102 624.011 14.6955 8.21464
  103 740.729 -42.2086 4.74052
  104 740.729 -42.2086 4.74052
  105 624.684 15.3827 -10.1517
  106 624.684 15.3827 -10.1517
  107 725.529 -90.5346 -85.5511
  108 725.529 -90.5346 -85.5511
  109 511.891 -107.698 209.900
  110 511.891 -107.698 209.900
  111 350.227 -62.1283 -170.233
  112 350.227 -62.1283 -170.233
  113 626.839 10.2098 36.2737
  114 626.839 10.2098 36.2737
  115 648.393 4.06958 -34.8605
  116 648.393 4.06958 -34.8605
  117 872.556 61.3137 15.3250
  118 931.792 59.5793 6.40046
  119 872.556 61.3137 15.3250
  120 931.792 59.5793 6.40046
  121 913.912 78.7651 -29.0169
  122 913.912 78.7651 -29.0169
  123 103.663 -163.739 -58.1428
  124 103.663 -163.739 -58.1428
  125 784.925 -96.4189 95.3019
  126 784.925 -96.4189 95.3019
  127 669.244 -16.4460 42.1557
  128 669.244 -16.4460 42.1557
  129 157.646 -140.913 132.375
  130 157.646 -140.913 132.375
  131 624.841 12.2417 -0.510464
  132 624.841 12.2417 -0.510464
  133 667.872 -31.5220 -54.1636
  134 667.872 -31.5220 -54.1636
  135 633.826 5.02619 5.88504
  136 633.826 5.02619 5.88504
  137 634.303 4.42992 -5.48173
  138 634.303 4.42992 -5.48173
  139 640.872 8.55951 -17.8861
  140 640.872 8.55951 -17.8861
  141 638.150 8.36069 16.0587
  142 638.150 8.36069 16.0587
  143 613.183 20.5216 -0.668396
  144 613.183 20.5216 -0.668396
  145 517.138 33.9797 -4.00271
  146 517.138 33.9797 -4.00271
  147 737.976 -26.1534 7.96352
  148 737.976 -26.1534 7.96352
  149 836.923 -25.2924 -41.0675
  150 836.923 -25.2924 -41.0675
  151 651.396 -73.4692 104.112
  152 651.396 -73.4692 104.112
  153 491.494 -132.100 -239.223
  154 491.494 -132.100 -239.223
  155 585.129 23.6821 34.6759
  156 585.129 23.6821 34.6759
  157 751.315 -3.87572 -23.3194
  158 751.315 -3.87572 -23.3194
  159 1010.83 82.4283 62.2010
  160 1010.83 82.4283 62.2010
  161 511.333 -142.767 275.272
  162 511.333 -142.767 275.272
  163 1028.97 33.0000 -12.0721
  164 1028.97 33.0000 -12.0721
  165 610.819 20.4917 15.8339
  166 610.819 20.4917 15.8339
  167 581.380 19.6223 -51.0489
  168 581.380 19.6223 -51.0489
  169 718.262 22.3063 14.9107
  170 718.262 22.3063 14.9107
  171 605.465 24.5166 -18.0487
  172 605.465 24.5166 -18.0487
  173 628.305 9.82932 2.57442
  174 628.305 9.82932 2.57442
  175 637.768 4.77163 -9.40355
  176 637.768 4.77163 -9.40355
  177 970.913 81.7140 -65.2492
  178 970.913 81.7140 -65.2492
  179 628.748 9.57583 -3.10363
  180 628.748 9.57583 -3.10363
  181 470.240 34.4449 -26.8263
  182 470.240 34.4449 -26.8263
  183 831.587 62.3143 1.53077
  184 831.587 62.3143 1.53077
  185 172.017 -138.381 -170.310
  186 172.017 -138.381 -170.310
  187 461.642 -4.47021 114.018
  188 461.642 -4.47021 114.018
  189 607.690 -99.2512 -162.611
  190 607.690 -99.2512 -162.611
  191 717.548 -20.0429 10.5215
  192 717.548 -20.0429 10.5215
  193 672.355 -2.53578 25.4915
  194 672.355 -2.53578 25.4915
  195 904.264 32.2682 63.0139
  196 904.264 32.2682 63.0139
  197 387.865 13.2664 -70.7479
  198 387.865 13.2664 -70.7479
  199 1021.61 44.8482 28.0685
  200 1021.61 44.8482 28.0685
  201 684.498 -8.70794 -27.3099
  202 684.498 -8.70794 -27.3099
  203 638.701 3.39857 8.66288
  204 638.701 3.39857 8.66288
  205 711.881 -28.3445 -15.7705
  206 711.881 -28.3445 -15.7705
  207 776.219 -38.1063 -10.2761
  208 776.219 -38.1063 -10.2761
  209 49.1318 -290.643 26.2370
  210 49.1318 -290.643 26.2370
  211 657.501 3.20010 -22.1304
  212 657.501 3.20010 -22.1304
  213 652.308 4.95421 19.2403
  214 652.308 4.95421 19.2403
  215 627.208 -58.1011 -102.903
  216 627.208 -58.1011 -102.903
  217 731.762 -15.5646 -13.9986
  218 731.762 -15.5646 -13.9986
  219 603.174 21.4272 -34.6252
  220 603.174 21.4272 -34.6252
  221 166.154 -202.639 188.125
  222 166.154 -202.639 188.125
  223 742.735 4.19611 22.4151
  224 742.735 4.19611 22.4151
  225 723.982 19.0076 -19.5288
  226 723.982 19.0076 -19.5288
  227 1011.58 60.2567 -48.9198
  228 1011.58 60.2567 -48.9198
  229 779.175 -27.8212 -7.67609
  230 779.175 -27.8212 -7.67609
  231 843.283 -30.2026 -160.549
  232 843.283 -30.2026 -160.549
  233 629.946 -28.5779 78.5951
  234 629.946 -28.5779 78.5951
  235 619.486 17.1032 2.65121
  236 619.486 17.1032 2.65121
  237 332.894 -47.6375 150.471
  238 332.894 -47.6375 150.471
  239 806.946 -64.0625 185.842
  240 806.946 -64.0625 185.842
  241 228.962 -26.5907 -74.8901
  242 228.962 -26.5907 -74.8901
  243 725.453 -54.9759 -38.0038
  244 725.453 -54.9759 -38.0038
  245 597.731 26.5216 19.8833
  246 597.731 26.5216 19.8833
  247 20.5804 -381.423 -21.7324
  248 20.5804 -381.423 -21.7324
  249 40.9070 -332.285 71.6228
  250 40.9070 -332.285 71.6228
  251 607.328 4.12383 55.9383
  252 607.328 4.12383 55.9383
  253 633.150 2.36788 2.11386
  254 633.150 2.36788 2.11386
  255 628.261 9.88401 0.406665
  256 628.261 9.88401 0.406665
  257 590.540 -7.37040 -74.8083
  258 590.540 -7.37040 -74.8083
  259 633.472 2.16436 -2.23972
  260 633.472 2.16436 -2.23972
  261 697.337 -49.5957 48.8137
  262 697.337 -49.5957 48.8137
  263 649.158 2.20852 -10.5643
  264 649.158 2.20852 -10.5643
  265 505.956 -42.9288 -140.481
  266 505.956 -42.9288 -140.481
  267 852.422 66.0816 0.815917
  268 852.422 66.0816 0.815917
  269 627.446 13.5996 -27.9626
  270 627.446 13.5996 -27.9626
  271 625.239 12.7169 -5.45515
  272 625.239 12.7169 -5.45515
  273 535.205 25.9040 -51.1861
  274 535.205 25.9040 -51.1861
  275 166.173 -59.3393 43.7035
  276 166.173 -59.3393 43.7035
  277 664.531 -111.764 145.535
  278 664.531 -111.764 145.535
  279 631.422 9.17995 10.6939
  280 631.422 9.17995 10.6939
  281 925.727 65.0551 -16.2543
  282 925.727 65.0551 -16.2543
  283 1093.20 101.422 135.772
  284 1093.20 101.422 135.772
  285 745.466 -79.5111 50.6914
  286 745.466 -79.5111 50.6914
  287 545.613 27.0937 37.3643
  288 545.613 27.0937 37.3643
  289 681.213 -137.196 192.426
  290 681.213 -137.196 192.426
  291 705.715 -8.56230 17.8757
  292 705.715 -8.56230 17.8757
  293 631.035 6.04041 2.90337
  294 631.035 6.04041 2.90337
  295 622.751 16.7336 -17.6509
  296 622.751 16.7336 -17.6509
  297 628.400 9.72786 -0.797743
  298 628.400 9.72786 -0.797743
  299 636.637 1.72531 -4.05706
  300 636.637 1.72531 -4.05706
  301 648.655 3.11733 10.6041
  302 648.655 3.11733 10.6041
  303 619.632 17.0162 -4.50401
  304 619.632 17.0162 -4.50401
  305 142.219 -235.962 -179.778
  306 142.219 -235.962 -179.778
  307 431.352 28.4643 35.1675
  308 431.352 28.4643 35.1675
  309 631.645 5.04975 -2.78455
  310 631.645 5.04975 -2.78455
  311 560.403 31.8918 -24.9870
  312 560.403 31.8918 -24.9870
  313 561.874 34.7647 9.47205
  314 561.874 34.7647 9.47205
  315 630.453 8.82700 -7.55247
  316 630.453 8.82700 -7.55247
  317 838.401 46.9643 -9.15725
  318 838.401 46.9643 -9.15725
  319 626.090 14.8258 24.3891
  320 626.090 14.8258 24.3891
  321 793.873 26.4736 -16.3463
  322 793.873 26.4736 -16.3463
  323 1144.27 31.8323 78.5934
  324 1144.27 31.8323 78.5934
  325 623.957 15.3429 15.2099
  326 623.957 15.3429 15.2099
  327 614.766 20.3308 7.95722
  328 614.766 20.3308 7.95722
  329 474.375 -88.4133 -277.744
  330 474.375 -88.4133 -277.744
  331 637.005 1.55862 3.96755
  332 637.005 1.55862 3.96755
  333 624.699 12.8060 4.08002
  334 624.699 12.8060 4.08002
  335 603.118 26.4638 0.915814
  336 603.118 26.4638 0.915814
  337 313.798 -109.988 221.572
  338 313.798 -109.988 221.572
  339 773.383 51.1764 2.91530
  340 773.383 51.1764 2.91530
  341 43.9216 -325.066 -81.8904
  342 43.9216 -325.066 -81.8904
  343 489.333 30.8130 31.0762
  344 489.333 30.8130 31.0762
  345 1084.05 14.2140 10.4101
  346 1084.05 14.2140 10.4101
  347 1132.61 58.7146 -81.5448
  348 1132.61 58.7146 -81.5448
  349 545.369 -63.5572 157.247
  350 569.395 -32.5394 115.478
  351 545.369 -63.5572 157.247
  352 569.395 -32.5394 115.478
  353 1099.92 26.6120 40.4690
  354 1099.92 26.6120 40.4690
  355 644.865 -1.11604 43.5896
  356 644.865 -1.11604 43.5896
  357 755.212 -102.214 -115.325
  358 755.212 -102.214 -115.325
  359 724.922 -6.03038 18.8550
  360 724.922 -6.03038 18.8550
  361 483.474 -89.3239 302.513
  362 483.474 -89.3239 302.513
  363 843.914 67.5987 -2.11586
  364 843.914 67.5987 -2.11586
  365 1097.25 9.56485 -8.36567
  366 1097.25 9.56485 -8.36567
  367 683.781 0.0856199 -21.1439
  368 683.781 0.0856199 -21.1439
  369 614.745 21.6432 -9.54310
  370 614.745 21.6432 -9.54310
  371 936.199 73.0572 27.4557
  372 936.199 73.0572 27.4557
  373 728.124 30.8568 -4.13140
  374 728.124 30.8568 -4.13140
  375 660.079 2.36173 -13.2196
  376 660.079 2.36173 -13.2196
  377 185.361 -87.1041 -128.300
  378 185.361 -87.1041 -128.300
  379 728.583 -13.2599 4.09040
  380 728.583 -13.2599 4.09040
  381 626.710 -1.21018 -51.6182
  382 626.710 -1.21018 -51.6182
  383 720.865 -1.27849 -22.6848
  384 720.865 -1.27849 -22.6848
  385 1103.49 19.0735 -33.3228
  386 1103.49 19.0735 -33.3228
  387 629.027 9.43660 5.96341
  388 629.027 9.43660 5.96341
  389 765.085 38.3420 17.7541
  390 765.085 38.3420 17.7541
  391 818.563 -15.1728 14.6148
  392 818.563 -15.1728 14.6148
  393 631.173 11.1199 -13.4207
  394 631.173 11.1199 -13.4207
  395 1166.36 120.249 -156.416
  396 1166.36 120.249 -156.416
  397 718.214 -10.7846 -8.26780
  398 718.214 -10.7846 -8.26780
</Section>

newXOutput 191

<Section columns = "stress_xx | stress_yy | stress_xy">
  1 635.176 0.627100 -0.661348
  2 635.467 0.769544 0.890881
  3 635.176 0.627100 -0.661348
  4 635.467 0.769544 0.890881
  5 949.047 85.0554 282.568
  6 984.447 84.0388 -278.169
  7 949.047 85.0554 282.568
  8 984.447 84.0388 -278.169
  9 636.630 0.434412 -1.74237
  10 641.436 0.759416 -3.11282
  11 648.440 1.70186 -6.36585
  12 664.635 0.608313 -8.63089
  13 685.739 0.938755 -14.3933
  14 710.881 -6.62039 -14.5897
  15 734.784 -7.83599 -2.35304
  16 726.475 -5.25070 10.7758
  17 702.806 5.85650 19.6956
  18 689.783 13.8994 -0.776860
  19 699.088 6.61469 -18.5900
  20 725.908 -7.84584 -13.0970
  21 728.350 -9.52986 5.71095
  22 714.487 -4.35153 12.6356
  23 681.481 0.0298893 14.5389
  24 663.270 2.39355 10.9584
  25 648.889 1.95416 6.10932
  26 641.579 0.612186 2.84911
  27 636.984 0.516109 1.68700
  28 636.306 2.23194 1.03887
  29 635.284 4.55545 1.21682
  30 632.765 7.88060 1.08779
  31 631.761 9.15166 -0.104954
  32 633.035 7.48187 -1.29978
  33 634.830 4.96680 -1.09448
  34 635.614 2.53785 -1.17188
  35 636.630 0.434412 -1.74237
  36 641.436 0.759416 -3.11282
  37 648.440 1.70186 -6.36585
  38 664.635 0.608313 -8.63089
  39 685.739 0.938755 -14.3933
  40 710.881 -6.62039 -14.5897
  41 734.784 -7.83599 -2.35304
  42 726.475 -5.25070 10.7758
  43 702.806 5.85650 19.6956
  44 689.783 13.8994 -0.776860
  45 699.088 6.61469 -18.5900
  46 725.908 -7.84584 -13.0970
  47 728.350 -9.52986 5.71095
  48 714.487 -4.35153 12.6356
  49 681.481 0.0298893 14.5389
  50 663.270 2.39355 10.9584
  51 648.889 1.95416 6.10932
  52 641.579 0.612186 2.84911
  53 636.984 0.516109 1.68700
  54 636.306 2.23194 1.03887
  55 635.284 4.55545 1.21682
  56 632.765 7.88060 1.08779
  57 631.761 9.15166 -0.104954
  58 633.035 7.48187 -1.29978
  59 634.830 4.96680 -1.09448
  60 635.614 2.53785 -1.17188
  61 1304.33 71.4731 139.600
  62 1192.92 19.2102 48.2840
  63 1128.44 7.55497 17.4836
  64 1114.52 5.57904 3.22909
  65 1127.75 7.50910 -14.8838
  66 1177.40 16.3652 -41.6040
  67 1316.70 62.1085 -120.230
  68 178.710 -179.030 -237.591
  69 35.4806 -464.851 -66.0916
  70 8.46500 -540.452 -28.8326
  71 8.16314 -531.972 -13.1099
  72 15.3318 -514.483 30.9359
  73 38.9357 -450.315 70.2051
  74 192.377 -165.374 262.598
  75 1304.33 71.4731 139.600
  76 1192.92 19.2102 48.2840
  77 1128.44 7.55497 17.4836
  78 1114.52 5.57904 3.22909
  79 1127.75 7.50910 -14.8838
  80 1177.40 16.3652 -41.6040
  81 1316.70 62.1085 -120.230
  82 178.710 -179.030 -237.591
  83 35.4806 -464.851 -66.0916
  84 8.46500 -540.452 -28.8326
  85 8.16314 -531.972 -13.1099
  86 15.3318 -514.483 30.9359
  87 38.9357 -450.315 70.2051
  88 192.377 -165.374 262.598
  89 587.158 33.0258 -8.48875
  90 587.158 33.0258 -8.48875
  91 536.880 7.60044 78.1351
  92 516.210 -2.98055 -93.7325
  93 536.880 7.60044 78.1351
  94 516.210 -2.98055 -93.7325
  95 309.931 9.72846 38.2082
  96 309.931 9.72846 38.2082
  97 781.568 50.9577 -9.90933
  98 793.937 30.4518 18.9150
  99 781.568 50.9577 -9.90933
  100 793.937 30.4518 18.9150
  101 627.077 14.7634 8.25018
  102 627.077 14.7634 8.25018
  103 744.308 -42.4133 4.80395
  104 744.308 -42.4133 4.80395
  105 627.752 15.4541 -10.1958
  106 627.752 15.4541 -10.1958
  107 729.010 -90.9806 -86.0034
  108 729.010 -90.9806 -86.0034
  109 514.392 -108.238 210.972
  110 514.392 -108.238 210.972
  111 351.985 -62.4292 -171.112
  112 351.985 -62.4292 -171.112
  113 629.914 10.2564 36.4424
  114 629.914 10.2564 36.4424
  115 651.560 4.08592 -35.0247
  116 651.560 4.08592 -35.0247
  117 876.739 61.6375 15.4681
  118 936.227 59.8549 6.44168
  119 876.739 61.6375 15.4681
  120 936.227 59.8549 6.44168
  121 918.278 79.1598 -29.2083
  122 918.278 79.1598 -29.2083
  123 104.197 -164.512 -58.4692
  124 104.197 -164.512 -58.4692
  125 788.658 -96.8654 95.8342
  126 788.658 -96.8654 95.8342
  127 672.500 -16.5295 42.3660
  128 672.500 -16.5295 42.3660
  129 158.454 -141.573 133.105
  130 158.454 -141.573 133.105
  131 627.910 12.2979 -0.512572
  132 627.910 12.2979 -0.512572
  133 671.119 -31.6798 -54.4383
  134 671.119 -31.6798 -54.4383
  135 636.930 5.04943 5.90980
  136 636.930 5.04943 5.90980
  137 637.409 4.45051 -5.50469
  138 637.409 4.45051 -5.50469
  139 644.006 8.59854 -17.9653
  140 644.006 8.59854 -17.9653
  141 641.273 8.39907 16.1293
  142 641.273 8.39907 16.1293
  143 616.205 20.6172 -0.671498
  144 616.205 20.6172 -0.671498
  145 519.735 34.1466 -4.02234
  146 519.735 34.1466 -4.02234
  147 741.552 -26.2782 7.96698
  148 741.552 -26.2782 7.96698
  149 840.911 -25.3692 -41.3514
  150 840.911 -25.3692 -41.3514
  151 654.553 -73.8350 104.639
  152 654.553 -73.8350 104.639
  153 493.867 -132.730 -240.483
  154 493.867 -132.730 -240.483
  155 588.026 23.7961 34.8386
  156 588.026 23.7961 34.8386
  157 754.961 -3.88659 -23.3888
  158 754.961 -3.88659 -23.3888
  159 1015.58 82.8389 62.5393
  160 1015.58 82.8389 62.5393
  161 513.796 -143.463 276.705
  162 513.796 -143.463 276.705
  163 1033.77 33.1433 -12.1313
  164 1033.77 33.1433 -12.1313
  165 613.830 20.5876 15.9050
  166 613.830 20.5876 15.9050
  167 584.257 19.7172 -51.2920
  168 584.257 19.7172 -51.2920
  169 721.797 22.4232 14.9663
  170 721.797 22.4232 14.9663
  171 608.454 24.6321 -18.1304
  172 608.454 24.6321 -18.1304
  173 631.388 9.87432 2.58527
  174 631.388 9.87432 2.58527
  175 640.888 4.79350 -9.44376
  176 640.888 4.79350 -9.44376
  177 975.491 82.1585 -65.6393
  178 975.491 82.1585 -65.6393
  179 631.833 9.61979 -3.11665
  180 631.833 9.61979 -3.11665
  181 472.616 34.6195 -26.9569
  182 472.616 34.6195 -26.9569
  183 835.608 62.6253 1.49956
  184 835.608 62.6253 1.49956
  185 172.887 -139.030 -171.243
  186 172.887 -139.030 -171.243
  187 463.954 -4.48753 114.582
  188 463.954 -4.48753 114.582
  189 610.633 -99.7464 -163.441
  190 610.633 -99.7464 -163.441
  191 721.023 -20.1438 10.5909
  192 721.023 -20.1438 10.5909
  193 675.623 -2.55114 25.6126
  194 675.623 -2.55114 25.6126
  195 908.549 32.4854 63.4089
  196 908.549 32.4854 63.4089
  197 389.840 13.3439 -71.1014
  198 389.840 13.3439 -71.1014
  199 1026.39 45.0496 28.2107
  200 1026.39 45.0496 28.2107
  201 687.821 -8.75387 -27.4457
  202 687.821 -8.75387 -27.4457
  203 641.825 3.41404 8.69981
  204 641.825 3.41404 8.69981
  205 715.329 -28.4874 -15.8672
  206 715.329 -28.4874 -15.8672
  207 779.952 -38.2789 -10.3824
  208 779.952 -38.2789 -10.3824
  209 49.3770 -292.084 26.3914
  210 49.3770 -292.084 26.3914
  211 660.704 3.21270 -22.2315
  212 660.704 3.21270 -22.2315
  213 655.489 4.97630 19.3270
  214 655.489 4.97630 19.3270
  215 630.263 -58.3903 -103.420
  216 630.263 -58.3903 -103.420
  217 735.316 -15.6407 -14.0360
  218 735.316 -15.6407 -14.0360
  219 606.149 21.5290 -34.7871
  220 606.149 21.5290 -34.7871
  221 166.970 -203.580 189.171
  222 166.970 -203.580 189.171
  223 746.354 4.22661 22.4866
  224 746.354 4.22661 22.4866
  225 727.537 19.1081 -19.5987
  226 727.537 19.1081 -19.5987
  227 1016.33 60.5384 -49.1773
  228 1016.33 60.5384 -49.1773
  229 782.925 -27.9427 -7.65587
  230 782.925 -27.9427 -7.65587
  231 847.253 -30.2552 -161.432
  232 847.253 -30.2552 -161.432
  233 633.022 -28.7196 78.9818
  234 633.022 -28.7196 78.9818
  235 622.534 17.1825 2.66278
  236 622.534 17.1825 2.66278
  237 334.577 -47.8631 151.246
  238 334.577 -47.8631 151.246
  239 810.744 -64.2978 186.844
  240 810.744 -64.2978 186.844
  241 230.153 -26.6933 -75.2811
  242 230.153 -26.6933 -75.2811
  243 728.952 -55.2473 -38.2199
  244 728.952 -55.2473 -38.2199
  245 600.686 26.6475 19.9746
  246 600.686 26.6475 19.9746
  247 20.6723 -383.351 -21.8648
  248 20.6723 -383.351 -21.8648
  249 41.1057 -333.929 72.0536
  250 41.1057 -333.929 72.0536
  251 610.315 4.14286 56.2061
  252 610.315 4.14286 56.2061
  253 636.251 2.37895 2.12256
  254 636.251 2.37895 2.12256
  255 631.344 9.92905 0.408395
  256 631.344 9.92905 0.408395
  257 593.449 -7.40766 -75.1723
  258 593.449 -7.40766 -75.1723
  259 636.574 2.17458 -2.24894
  260 636.574 2.17458 -2.24894
  261 700.712 -49.8416 49.0726
  262 700.712 -49.8416 49.0726
  263 652.323 2.21828 -10.6099
  264 652.323 2.21828 -10.6099
  265 508.458 -43.1424 -141.184
  266 508.458 -43.1424 -141.184
  267 856.532 66.4083 0.858210
  268 856.532 66.4083 0.858210
  269 630.525 13.6624 -28.0903
  270 630.525 13.6624 -28.0903
  271 628.310 12.7755 -5.47842
  272 628.310 12.7755 -5.47842
  273 537.876 26.0320 -51.4318
  274 537.876 26.0320 -51.4318
  275 167.043 -59.5912 43.9383
  276 167.043 -59.5912 43.9383
  277 667.727 -112.320 146.283
  278 667.727 -112.320 146.283
  279 634.517 9.22229 10.7399
  280 634.517 9.22229 10.7399
  281 930.140 65.3606 -16.3510
  282 930.140 65.3606 -16.3510
  283 1098.25 101.981 136.480
  284 1098.25 101.981 136.480
  285 749.044 -79.8967 50.9847
  286 749.044 -79.8967 50.9847
  287 548.334 27.2265 37.5414
  288 548.334 27.2265 37.5414
  289 684.463 -137.871 193.420
  290 684.463 -137.871 193.420
  291 709.129 -8.60687 17.9672
  292 709.129 -8.60687 17.9672
  293 634.128 6.06817 2.91547
  294 634.128 6.06817 2.91547
  295 625.811 16.8115 -17.7292
  296 625.811 16.8115 -17.7292
  297 631.484 9.77221 -0.801070
  298 631.484 9.77221 -0.801070
  299 639.752 1.73334 -4.07398
  300 639.752 1.73334 -4.07398
  301 651.819 3.13134 10.6499
  302 651.819 3.13134 10.6499
  303 622.680 17.0951 -4.52361
  304 622.680 17.0951 -4.52361
  305 142.913 -237.050 -180.787
  306 142.913 -237.050 -180.787
  307 433.543 28.6127 35.3394
  308 433.543 28.6127 35.3394
  309 634.740 5.07308 -2.79609
  310 634.740 5.07308 -2.79609
  311 563.193 32.0460 -25.1049
  312 563.193 32.0460 -25.1049
  313 564.672 34.9327 9.51611
  314 564.672 34.9327 9.51611
  315 633.544 8.86770 -7.58463
  316 633.544 8.86770 -7.58463
  317 842.430 47.2241 -9.27254
  318 842.430 47.2241 -9.27254
  319 629.164 14.8948 24.4990
  320 629.164 14.8948 24.4990
  321 797.713 26.6203 -16.3711
  322 797.713 26.6203 -16.3711
  323 1149.51 31.9712 78.9697
  324 1149.51 31.9712 78.9697
  325 627.023 15.4142 15.2769
  326 627.023 15.4142 15.2769
  327 617.795 20.4255 7.99229
  328 617.795 20.4255 7.99229
  329 476.620 -88.6665 -279.232
  330 476.620 -88.6665 -279.232
  331 640.121 1.56586 3.98409
  332 640.121 1.56586 3.98409
  333 627.768 12.8649 4.09747
  334 627.768 12.8649 4.09747
  335 606.097 26.5885 0.919907
  336 606.097 26.5885 0.919907
  337 315.365 -110.527 222.742
  338 315.365 -110.527 222.742
  339 777.160 51.4327 2.92029
  340 777.160 51.4327 2.92029
  341 44.1297 -326.670 -82.3718
  342 44.1297 -326.670 -82.3718
  343 491.799 30.9674 31.2253
  344 491.799 30.9674 31.2253
  345 1089.04 14.2730 10.4550
  346 1089.04 14.2730 10.4550
  347 1137.82 58.9997 -81.9410
  348 1137.82 58.9997 -81.9410
  349 548.042 -63.8754 158.035
  350 572.194 -32.7006 116.045
  351 548.042 -63.8754 158.035
  352 572.194 -32.7006 116.045
  353 1104.98 26.7255 40.6559
  354 1104.98 26.7255 40.6559
  355 648.017 -1.12391 43.7977
  356 648.017 -1.12391 43.7977
  357 758.807 -102.704 -115.944
  358 758.807 -102.704 -115.944
  359 728.457 -6.05713 18.9220
  360 728.457 -6.05713 18.9220
  361 485.742 -89.5924 304.118
  362 485.742 -89.5924 304.118
  363 847.993 67.9252 -2.12429
  364 847.993 67.9252 -2.12429
  365 1102.28 9.60394 -8.40338
  366 1102.28 9.60394 -8.40338
  367 687.094 0.0831514 -21.2429
  368 687.094 0.0831514 -21.2429
  369 617.773 21.7443 -9.58536
  370 617.773 21.7443 -9.58536
  371 940.654 73.4096 27.6243
  372 940.654 73.4096 27.6243
  373 731.704 31.0137 -4.14616
  374 731.704 31.0137 -4.14616
  375 663.290 2.37154 -13.2780
  376 663.290 2.37154 -13.2780
  377 186.329 -87.5051 -128.990
  378 186.329 -87.5051 -128.990
  379 732.113 -13.3259 4.09209
  380 732.113 -13.3259 4.09209
  381 629.782 -1.21857 -51.8670
  382 629.782 -1.21857 -51.8670
  383 724.391 -1.28219 -22.7674
  384 724.391 -1.28219 -22.7674
  385 1108.56 19.1569 -33.4747
  386 1108.56 19.1569 -33.4747
  387 632.112 9.47997 5.98871
  388 632.112 9.47997 5.98871
  389 768.813 38.5406 17.8051
  390 768.813 38.5406 17.8051
  391 822.479 -15.2164 14.7592
  392 822.479 -15.2164 14.7592
  393 634.267 11.1713 -13.4790
  394 634.267 11.1713 -13.4790
  395 1171.70 120.923 -157.218
  396 1171.70 120.923 -157.218
  397 721.685 -10.8405 -8.31623
  398 721.685 -10.8405 -8.31623
</Section>

newXOutput 192

<Section columns = "stress_xx | stress_yy | stress_xy">
  1 638.270 0.630243 -0.663996
  2 638.562 0.773304 0.894438
  3 638.270 0.630243 -0.663996
  4 638.562 0.773304 0.894438
  5 953.348 85.6932 284.021
  6 988.891 84.6801 -279.601
  7 953.348 85.6932 284.021
  8 988.891 84.6801 -279.601
  9 639.730 0.436503 -1.74943
  10 644.554 0.762964 -3.12562
  11 651.586 1.70959 -6.39259
  12 667.847 0.610750 -8.66803
  13 689.039 0.941683 -14.4581
  14 714.292 -6.65556 -14.6602
  15 738.309 -7.87612 -2.37169
  16 729.993 -5.27611 10.8121
  17 706.251 5.88949 19.7706
  18 693.187 13.9722 -0.779909
  19 702.518 6.64884 -18.6620
  20 729.425 -7.88423 -13.1407
  21 731.847 -9.57881 5.74722
  22 717.914 -4.37442 12.6973
  23 684.765 0.0278835 14.6051
  24 666.477 2.40394 11.0059
  25 652.037 1.96304 6.13489
  26 644.698 0.615068 2.86079
  27 640.085 0.518621 1.69389
  28 639.404 2.24231 1.04299
  29 638.379 4.57634 1.22176
  30 635.850 7.91632 1.09227
  31 634.843 9.19301 -0.105380
  32 636.121 7.51586 -1.30508
  33 637.923 4.98959 -1.09878
  34 638.709 2.54973 -1.17664
  35 639.730 0.436503 -1.74943
  36 644.554 0.762964 -3.12562
  37 651.586 1.70959 -6.39259
  38 667.847 0.610750 -8.66803
  39 689.039 0.941683 -14.4581
  40 714.292 -6.65556 -14.6602
  41 738.309 -7.87612 -2.37169
  42 729.993 -5.27611 10.8121
  43 706.251 5.88949 19.7706
  44 693.187 13.9722 -0.779909
  45 702.518 6.64884 -18.6620
  46 729.425 -7.88423 -13.1407
  47 731.847 -9.57881 5.74722
  48 717.914 -4.37442 12.6973
  49 684.765 0.0278835 14.6051
  50 666.477 2.40394 11.0059
  51 652.037 1.96304 6.13489
  52 644.698 0.615068 2.86079
  53 640.085 0.518621 1.69389
  54 639.404 2.24231 1.04299
  55 638.379 4.57634 1.22176
  56 635.850 7.91632 1.09227
  57 634.843 9.19301 -0.105380
  58 636.121 7.51586 -1.30508
  59 637.923 4.98959 -1.09878
  60 638.709 2.54973 -1.17664
  61 1310.15 71.8305 140.252
  62 1198.28 19.2934 48.4978
  63 1133.55 7.58258 17.5573
  64 1119.57 5.60085 3.24056
  65 1132.85 7.53981 -14.9462
  66 1182.71 16.4349 -41.7850
  67 1322.57 62.4180 -120.792
  68 179.552 -179.665 -238.886
  69 35.6496 -467.151 -66.5103
  70 8.48782 -543.256 -29.0155
  71 8.18626 -534.746 -13.1776
  72 15.3938 -517.131 31.1331
  73 39.1260 -452.541 70.6519
  74 193.268 -165.945 264.022
  75 1310.15 71.8305 140.252
  76 1198.28 19.2934 48.4978
  77 1133.55 7.58258 17.5573
  78 1119.57 5.60085 3.24056
  79 1132.85 7.53981 -14.9462
  80 1182.71 16.4349 -41.7850
  81 1322.57 62.4180 -120.792
  82 179.552 -179.665 -238.886
  83 35.6496 -467.151 -66.5103
  84 8.48782 -543.256 -29.0155
  85 8.18626 -534.746 -13.1776
  86 15.3938 -517.131 31.1331
  87 39.1260 -452.541 70.6519
  88 193.268 -165.945 264.022
  89 590.054 33.1825 -8.52789
  90 590.054 33.1825 -8.52789
  91 539.536 7.63950 78.5114
  92 518.767 -2.99315 -94.1893
  93 539.536 7.63950 78.5114
  94 518.767 -2.99315 -94.1893
  95 311.527 9.79673 38.4001
  96 311.527 9.79673 38.4001
  97 785.357 51.2122 -9.93458
  98 797.760 30.6178 18.9508
  99 785.357 51.2122 -9.93458
  100 797.760 30.6178 18.9508
  101 630.141 14.8312 8.28565
  102 630.141 14.8312 8.28565
  103 747.883 -42.6179 4.86771
  104 747.883 -42.6179 4.86771
  105 630.818 15.5253 -10.2399
  106 630.818 15.5253 -10.2399
  107 732.487 -91.4263 -86.4557
  108 732.487 -91.4263 -86.4557
  109 516.890 -108.777 212.044
  110 516.890 -108.777 212.044
  111 353.741 -62.7298 -171.992
  112 353.741 -62.7298 -171.992
  113 632.987 10.3030 36.6110
  114 632.987 10.3030 36.6110
  115 654.724 4.10221 -35.1886
  116 654.724 4.10221 -35.1886
  117 880.918 61.9612 15.6117
  118 940.657 60.1302 6.48295
  119 880.918 61.9612 15.6117
  120 940.657 60.1302 6.48295
  121 922.639 79.5542 -29.3999
  122 922.639 79.5542 -29.3999
  123 104.731 -165.284 -58.7958
  124 104.731 -165.284 -58.7958
  125 792.387 -97.3113 96.3668
  126 792.387 -97.3113 96.3668
  127 675.754 -16.6129 42.5761
  128 675.754 -16.6129 42.5761
  129 159.262 -142.233 133.834
  130 159.262 -142.233 133.834
  131 630.977 12.3540 -0.514674
  132 630.977 12.3540 -0.514674
  133 674.363 -31.8375 -54.7128
  134 674.363 -31.8375 -54.7128
  135 640.032 5.07264 5.93451
  136 640.032 5.07264 5.93451
  137 640.512 4.47108 -5.52760
  138 640.512 4.47108 -5.52760
  139 647.137 8.63752 -18.0444
  140 647.137 8.63752 -18.0444
  141 644.393 8.43739 16.1997
  142 644.393 8.43739 16.1997
  143 619.224 20.7127 -0.674596
  144 619.224 20.7127 -0.674596
  145 522.330 34.3133 -4.04196
  146 522.330 34.3133 -4.04196
  147 745.125 -26.4030 7.97009
  148 745.125 -26.4030 7.97009
  149 844.894 -25.4454 -41.6359
  150 844.894 -25.4454 -41.6359
  151 657.706 -74.2007 105.165
  152 657.706 -74.2007 105.165
  153 496.238 -133.359 -241.743
  154 496.238 -133.359 -241.743
  155 590.921 23.9099 35.0011
  156 590.921 23.9099 35.0011
  157 758.603 -3.89737 -23.4578
  158 758.603 -3.89737 -23.4578
  159 1020.33 83.2492 62.8777
  160 1020.33 83.2492 62.8777
  161 516.257 -144.157 278.137
  162 516.257 -144.157 278.137
  163 1038.56 33.2865 -12.1905
  164 1038.56 33.2865 -12.1905
  165 616.838 20.6833 15.9758
  166 616.838 20.6833 15.9758
  167 587.131 19.8121 -51.5347
  168 587.131 19.8121 -51.5347
  169 725.329 22.5401 15.0217
  170 725.329 22.5401 15.0217
  171 611.440 24.7474 -18.2120
  172 611.440 24.7474 -18.2120
  173 634.469 9.91926 2.59608
  174 634.469 9.91926 2.59608
  175 644.005 4.81535 -9.48388
  176 644.005 4.81535 -9.48388
  177 980.064 82.6029 -66.0297
  178 980.064 82.6029 -66.0297
  179 634.915 9.66368 -3.12963
  180 634.915 9.66368 -3.12963
  181 474.991 34.7939 -27.0873
  182 474.991 34.7939 -27.0873
  183 839.624 62.9361 1.46802
  184 839.624 62.9361 1.46802
  185 173.757 -139.678 -172.176
  186 173.757 -139.678 -172.176
  187 466.265 -4.50479 115.146
  188 466.265 -4.50479 115.146
  189 613.574 -100.241 -164.270
  190 613.574 -100.241 -164.270
  191 724.496 -20.2447 10.6603
  192 724.496 -20.2447 10.6603
  193 678.887 -2.56650 25.7337
  194 678.887 -2.56650 25.7337
  195 912.830 32.7029 63.8043
  196 912.830 32.7029 63.8043
  197 391.814 13.4214 -71.4547
  198 391.814 13.4214 -71.4547
  199 1031.17 45.2506 28.3528
  200 1031.17 45.2506 28.3528
  201 691.140 -8.79979 -27.5814
  202 691.140 -8.79979 -27.5814
  203 644.946 3.42949 8.73667
  204 644.946 3.42949 8.73667
  205 718.773 -28.6301 -15.9640
  206 718.773 -28.6301 -15.9640
  207 783.682 -38.4511 -10.4892
  208 783.682 -38.4511 -10.4892
  209 49.6220 -293.525 26.5458
  210 49.6220 -293.525 26.5458
  211 663.904 3.22525 -22.3324
  212 663.904 3.22525 -22.3324
  213 658.667 4.99834 19.4136
  214 658.667 4.99834 19.4136
  215 633.315 -58.6794 -103.937
  216 633.315 -58.6794 -103.937
  217 738.867 -15.7166 -14.0732
  218 738.867 -15.7166 -14.0732
  219 609.122 21.6308 -34.9488
  220 609.122 21.6308 -34.9488
  221 167.786 -204.519 190.218
  222 167.786 -204.519 190.218
  223 749.971 4.25718 22.5578
  224 749.971 4.25718 22.5578
  225 731.088 19.2085 -19.6682
  226 731.088 19.2085 -19.6682
  227 1021.07 60.8197 -49.4346
  228 1021.07 60.8197 -49.4346
  229 786.672 -28.0639 -7.63511
  230 786.672 -28.0639 -7.63511
  231 851.218 -30.3067 -162.315
  232 851.218 -30.3067 -162.315
  233 636.095 -28.8612 79.3683
  234 636.095 -28.8612 79.3683
  235 625.579 17.2616 2.67432
  236 625.579 17.2616 2.67432
  237 336.258 -48.0886 152.020
  238 336.258 -48.0886 152.020
  239 814.537 -64.5321 187.847
  240 814.537 -64.5321 187.847
  241 231.343 -26.7955 -75.6722
  242 231.343 -26.7955 -75.6722
  243 732.448 -55.5184 -38.4361
  244 732.448 -55.5184 -38.4361
  245 603.638 26.7733 20.0658
  246 603.638 26.7733 20.0658
  247 20.7640 -385.278 -21.9973
  248 20.7640 -385.278 -21.9973
  249 41.3042 -335.571 72.4849
  250 41.3042 -335.571 72.4849
  251 613.301 4.16186 56.4737
  252 613.301 4.16186 56.4737
  253 639.349 2.39002 2.13123
  254 639.349 2.39002 2.13123
  255 634.424 9.97402 0.410122
  256 634.424 9.97402 0.410122
  257 596.355 -7.44490 -75.5360
  258 596.355 -7.44490 -75.5360
  259 639.674 2.18479 -2.25814
  260 639.674 2.18479 -2.25814
  261 704.083 -50.0875 49.3315
  262 704.083 -50.0875 49.3315
  263 655.486 2.22802 -10.6555
  264 655.486 2.22802 -10.6555
  265 510.958 -43.3559 -141.886
  266 510.958 -43.3559 -141.886
  267 860.637 66.7347 0.900819
  268 860.637 66.7347 0.900819
  269 633.602 13.7252 -28.2177
  270 633.602 13.7252 -28.2177
  271 631.379 12.8341 -5.50163
  272 631.379 12.8341 -5.50163
  273 540.546 26.1600 -51.6774
  274 540.546 26.1600 -51.6774
  275 167.914 -59.8425 44.1730
  276 167.914 -59.8425 44.1730
  277 670.920 -112.875 147.030
  278 670.920 -112.875 147.030
  279 637.610 9.26457 10.7858
  280 637.610 9.26457 10.7858
  281 934.547 65.6659 -16.4478
  282 934.547 65.6659 -16.4478
  283 1103.30 102.541 137.187
  284 1103.30 102.541 137.187
  285 752.619 -80.2820 51.2782
  286 752.619 -80.2820 51.2782
  287 551.053 27.3592 37.7184
  288 551.053 27.3592 37.7184
  289 687.709 -138.545 194.414
  290 687.709 -138.545 194.414
  291 712.541 -8.65143 18.0587
  292 712.541 -8.65143 18.0587
  293 637.219 6.09589 2.92754
  294 637.219 6.09589 2.92754
  295 628.869 16.8893 -17.8073
  296 628.869 16.8893 -17.8073
  297 634.565 9.81650 -0.804388
  298 634.565 9.81650 -0.804388
  299 642.864 1.74136 -4.09087
  300 642.864 1.74136 -4.09087
  301 654.981 3.14533 10.6955
  302 654.981 3.14533 10.6955
  303 625.726 17.1739 -4.54317
  304 625.726 17.1739 -4.54317
  305 143.605 -238.137 -181.798
  306 143.605 -238.137 -181.798
  307 435.732 28.7611 35.5111
  308 435.732 28.7611 35.5111
  309 637.833 5.09637 -2.80760
  310 637.833 5.09637 -2.80760
  311 565.982 32.2001 -25.2227
  312 565.982 32.2001 -25.2227
  313 567.468 35.1005 9.56011
  314 567.468 35.1005 9.56011
  315 636.632 8.90835 -7.61673
  316 636.632 8.90835 -7.61673
  317 846.455 47.4841 -9.38838
  318 846.455 47.4841 -9.38838
  319 632.235 14.9637 24.6088
  320 632.235 14.9637 24.6088
  321 801.549 26.7670 -16.3954
  322 801.549 26.7670 -16.3954
  323 1154.75 32.1099 79.3455
  324 1154.75 32.1099 79.3455
  325 630.086 15.4854 15.3437
  326 630.086 15.4854 15.3437
  327 620.821 20.5201 8.02729
  328 620.821 20.5201 8.02729
  329 478.863 -88.9175 -280.720
  330 478.863 -88.9175 -280.720
  331 643.235 1.57310 4.00059
  332 643.235 1.57310 4.00059
  333 630.835 12.9237 4.11488
  334 630.835 12.9237 4.11488
  335 609.075 26.7130 0.923993
  336 609.075 26.7130 0.923993
  337 316.931 -111.065 223.913
  338 316.931 -111.065 223.913
  339 780.933 51.6889 2.92519
  340 780.933 51.6889 2.92519
  341 44.3377 -328.273 -82.8536
  342 44.3377 -328.273 -82.8536
  343 494.264 31.1218 31.3742
  344 494.264 31.1218 31.3742
  345 1094.02 14.3320 10.4998
  346 1094.02 14.3320 10.4998
  347 1143.03 59.2846 -82.3368
  348 1143.03 59.2846 -82.3368
  349 550.712 -64.1934 158.822
  350 574.991 -32.8616 116.612
  351 550.712 -64.1934 158.822
  352 574.991 -32.8616 116.612
  353 1110.03 26.8387 40.8427
  354 1110.03 26.8387 40.8427
  355 651.166 -1.13180 44.0057
  356 651.166 -1.13180 44.0057
  357 762.398 -103.193 -116.564
  358 762.398 -103.193 -116.564
  359 731.989 -6.08382 18.9886
  360 731.989 -6.08382 18.9886
  361 488.007 -89.8589 305.723
  362 488.007 -89.8589 305.723
  363 852.069 68.2513 -2.13270
  364 852.069 68.2513 -2.13270
  365 1107.30 9.64294 -8.44102
  366 1107.30 9.64294 -8.44102
  367 690.405 0.0806573 -21.3418
  368 690.405 0.0806573 -21.3418
  369 620.799 21.8453 -9.62754
  370 620.799 21.8453 -9.62754
  371 945.104 73.7617 27.7931
  372 945.104 73.7617 27.7931
  373 735.281 31.1706 -4.16086
  374 735.281 31.1706 -4.16086
  375 666.498 2.38132 -13.3364
  376 666.498 2.38132 -13.3364
  377 187.297 -87.9055 -129.680
  378 187.297 -87.9055 -129.680
  379 735.640 -13.3918 4.09361
  380 735.640 -13.3918 4.09361
  381 632.852 -1.22697 -52.1154
  382 632.852 -1.22697 -52.1154
  383 727.915 -1.28585 -22.8496
  384 727.915 -1.28585 -22.8496
  385 1113.63 19.2402 -33.6263
  386 1113.63 19.2402 -33.6263
  387 635.196 9.52327 6.01396
  388 635.196 9.52327 6.01396
  389 772.539 38.7391 17.8556
  390 772.539 38.7391 17.8556
  391 826.391 -15.2597 14.9042
  392 826.391 -15.2597 14.9042
  393 637.359 11.2227 -13.5371
  394 637.359 11.2227 -13.5371
  395 1177.03 121.598 -158.020
  396 1177.03 121.598 -158.020
  397 725.153 -10.8964 -8.36470
  398 725.153 -10.8964 -8.36470
</Section>

newXOutput 193

<Section columns = "stress_xx | stress_yy | stress_xy">
  1 641.362 0.633384 -0.666638
  2 641.656 0.777061 0.897985
  3 641.362 0.633384 -0.666638
  4 641.656 0.777061 0.897985
  5 957.643 86.3327 285.474
  6 993.329 85.3232 -281.033
  7 957.643 86.3327 285.474
  8 993.329 85.3232 -281.033
  9 642.828 0.438592 -1.75647
  10 647.670 0.766508 -3.13839
  11 654.730 1.71730 -6.41927
  12 671.056 0.613180 -8.70510
  13 692.337 0.944593 -14.5229
  14 717.700 -6.69072 -14.7306
  15 741.831 -7.91623 -2.39038
  16 733.508 -5.30150 10.8482
  17 709.694 5.92251 19.8454
  18 696.588 14.0451 -0.782948
  19 705.947 6.68298 -18.7339
  20 732.940 -7.92258 -13.1841
  21 735.341 -9.62776 5.78354
  22 721.338 -4.39730 12.7590
  23 688.046 0.0258585 14.6713
  24 669.681 2.41431 11.0533
  25 655.183 1.97191 6.16039
  26 647.815 0.617947 2.87244
  27 643.184 0.521131 1.70076
  28 642.500 2.25267 1.04711
  29 641.472 4.59721 1.22669
  30 638.934 7.95199 1.09674
  31 637.922 9.23430 -0.105804
  32 639.205 7.54979 -1.31035
  33 641.014 5.01234 -1.10307
  34 641.803 2.56159 -1.18139
  35 642.828 0.438592 -1.75647
  36 647.670 0.766508 -3.13839
  37 654.730 1.71730 -6.41927
  38 671.056 0.613180 -8.70510
  39 692.337 0.944593 -14.5229
  40 717.700 -6.69072 -14.7306
  41 741.831 -7.91623 -2.39038
  42 733.508 -5.30150 10.8482
  43 709.694 5.92251 19.8454
  44 696.588 14.0451 -0.782948
  45 705.947 6.68298 -18.7339
  46 732.940 -7.92258 -13.1841
  47 735.341 -9.62776 5.78354
  48 721.338 -4.39730 12.7590
  49 688.046 0.0258585 14.6713
  50 669.681 2.41431 11.0533
  51 655.183 1.97191 6.16039
  52 647.815 0.617947 2.87244
  53 643.184 0.521131 1.70076
  54 642.500 2.25267 1.04711
  55 641.472 4.59721 1.22669
  56 638.934 7.95199 1.09674
  57 637.922 9.23430 -0.105804
  58 639.205 7.54979 -1.31035
  59 641.014 5.01234 -1.10307
  60 641.803 2.56159 -1.18139
  61 1315.95 72.1876 140.903
  62 1203.64 19.3764 48.7111
  63 1138.65 7.61009 17.6308
  64 1124.62 5.62261 3.25198
  65 1137.95 7.57045 -15.0084
  66 1188.00 16.5045 -41.9657
  67 1328.43 62.7273 -121.353
  68 180.393 -180.298 -240.181
  69 35.8185 -469.449 -66.9297
  70 8.51043 -546.058 -29.1988
  71 8.20919 -537.518 -13.2454
  72 15.4556 -519.780 31.3305
  73 39.3162 -454.765 71.0995
  74 194.158 -166.512 265.446
  75 1315.95 72.1876 140.903
  76 1203.64 19.3764 48.7111
  77 1138.65 7.61009 17.6308
  78 1124.62 5.62261 3.25198
  79 1137.95 7.57045 -15.0084
  80 1188.00 16.5045 -41.9657
  81 1328.43 62.7273 -121.353
  82 180.393 -180.298 -240.181
  83 35.8185 -469.449 -66.9297
  84 8.51043 -546.058 -29.1988
  85 8.20919 -537.518 -13.2454
  86 15.4556 -519.780 31.3305
  87 39.3162 -454.765 71.0995
  88 194.158 -166.512 265.446
  89 592.947 33.3391 -8.56697
  90 592.947 33.3391 -8.56697
  91 542.190 7.67856 78.8874
  92 521.323 -3.00573 -94.6456
  93 542.190 7.67856 78.8874
  94 521.323 -3.00573 -94.6456
  95 313.123 9.86514 38.5919
  96 313.123 9.86514 38.5919
  97 789.144 51.4667 -9.95959
  98 801.579 30.7838 18.9861
  99 789.144 51.4667 -9.95959
  100 801.579 30.7838 18.9861
  101 633.202 14.8990 8.32105
  102 633.202 14.8990 8.32105
  103 751.456 -42.8223 4.93181
  104 751.456 -42.8223 4.93181
  105 633.882 15.5965 -10.2838
  106 633.882 15.5965 -10.2838
  107 735.961 -91.8716 -86.9079
  108 735.961 -91.8716 -86.9079
  109 519.386 -109.317 213.115
  110 519.386 -109.317 213.115
  111 355.496 -63.0302 -172.871
  112 355.496 -63.0302 -172.871
  113 636.057 10.3495 36.7793
  114 636.057 10.3495 36.7793
  115 657.886 4.11846 -35.3523
  116 657.886 4.11846 -35.3523
  117 885.093 62.2849 15.7558
  118 945.083 60.4051 6.52428
  119 885.093 62.2849 15.7558
  120 945.083 60.4051 6.52428
  121 926.996 79.9484 -29.5918
  122 926.996 79.9484 -29.5918
  123 105.264 -166.055 -59.1225
  124 105.264 -166.055 -59.1225
  125 796.111 -97.7565 96.8995
  126 796.111 -97.7565 96.8995
  127 679.005 -16.6963 42.7861
  128 679.005 -16.6963 42.7861
  129 160.069 -142.892 134.564
  130 160.069 -142.892 134.564
  131 634.042 12.4101 -0.516771
  132 634.042 12.4101 -0.516771
  133 677.604 -31.9951 -54.9872
  134 677.604 -31.9951 -54.9872
  135 643.131 5.09581 5.95915
  136 643.131 5.09581 5.95915
  137 643.613 4.49161 -5.55044
  138 643.613 4.49161 -5.55044
  139 650.266 8.67643 -18.1233
  140 650.266 8.67643 -18.1233
  141 647.510 8.47565 16.2700
  142 647.510 8.47565 16.2700
  143 622.242 20.8081 -0.677690
  144 622.242 20.8081 -0.677690
  145 524.924 34.4800 -4.06155
  146 524.924 34.4800 -4.06155
  147 748.694 -26.5276 7.97286
  148 748.694 -26.5276 7.97286
  149 848.873 -25.5211 -41.9209
  150 848.873 -25.5211 -41.9209
  151 660.857 -74.5661 105.690
  152 660.857 -74.5661 105.690
  153 498.607 -133.988 -243.002
  154 498.607 -133.988 -243.002
  155 593.814 24.0236 35.1633
  156 593.814 24.0236 35.1633
  157 762.242 -3.90805 -23.5262
  158 762.242 -3.90805 -23.5262
  159 1025.06 83.6592 63.2161
  160 1025.06 83.6592 63.2161
  161 518.715 -144.851 279.569
  162 518.715 -144.851 279.569
  163 1043.35 33.4293 -12.2496
  164 1043.35 33.4293 -12.2496
  165 619.845 20.7789 16.0466
  166 619.845 20.7789 16.0466
  167 590.004 19.9068 -51.7773
  168 590.004 19.9068 -51.7773
  169 728.859 22.6570 15.0769
  170 728.859 22.6570 15.0769
  171 614.424 24.8626 -18.2935
  172 614.424 24.8626 -18.2935
  173 637.547 9.96412 2.60688
  174 637.547 9.96412 2.60688
  175 647.119 4.83717 -9.52391
  176 647.119 4.83717 -9.52391
  177 984.632 83.0475 -66.4205
  178 984.632 83.0475 -66.4205
  179 637.994 9.70751 -3.14258
  180 637.994 9.70751 -3.14258
  181 477.364 34.9683 -27.2177
  182 477.364 34.9683 -27.2177
  183 843.637 63.2467 1.43615
  184 843.637 63.2467 1.43615
  185 174.626 -140.325 -173.109
  186 174.626 -140.325 -173.109
  187 468.574 -4.52201 115.709
  188 468.574 -4.52201 115.709
  189 616.512 -100.736 -165.099
  190 616.512 -100.736 -165.099
  191 727.966 -20.3455 10.7298
  192 727.966 -20.3455 10.7298
  193 682.149 -2.58189 25.8545
  194 682.149 -2.58189 25.8545
  195 917.105 32.9209 64.2003
  196 917.105 32.9209 64.2003
  197 393.788 13.4989 -71.8078
  198 393.788 13.4989 -71.8078
  199 1035.93 45.4513 28.4947
  200 1035.93 45.4513 28.4947
  201 694.457 -8.84571 -27.7170
  202 694.457 -8.84571 -27.7170
  203 648.064 3.44492 8.77344
  204 648.064 3.44492 8.77344
  205 722.215 -28.7728 -16.0609
  206 722.215 -28.7728 -16.0609
  207 787.408 -38.6231 -10.5964
  208 787.408 -38.6231 -10.5964
  209 49.8668 -294.964 26.7005
  210 49.8668 -294.964 26.7005
  211 667.102 3.23777 -22.4332
  212 667.102 3.23777 -22.4332
  213 661.843 5.02034 19.5000
  214 661.843 5.02034 19.5000
  215 636.365 -58.9682 -104.453
  216 636.365 -58.9682 -104.453
  217 742.415 -15.7926 -14.1100
  218 742.415 -15.7926 -14.1100
  219 612.093 21.7324 -35.1103
  220 612.093 21.7324 -35.1103
  221 168.600 -205.457 191.265
  222 168.600 -205.457 191.265
  223 753.584 4.28784 22.6285
  224 753.584 4.28784 22.6285
  225 734.637 19.3090 -19.7375
  226 734.637 19.3090 -19.7375
  227 1025.80 61.1007 -49.6919
  228 1025.80 61.1007 -49.6919
  229 790.416 -28.1848 -7.61381
  230 790.416 -28.1848 -7.61381
  231 855.178 -30.3572 -163.198
  232 855.178 -30.3572 -163.198
  233 639.166 -29.0028 79.7545
  234 639.166 -29.0028 79.7545
  235 628.623 17.3406 2.68585
  236 628.623 17.3406 2.68585
  237 337.939 -48.3137 152.794
  238 337.939 -48.3137 152.794
  239 818.326 -64.7654 188.849
  240 818.326 -64.7654 188.849
  241 232.534 -26.8973 -76.0631
  242 232.534 -26.8973 -76.0631
  243 735.940 -55.7893 -38.6524
  244 735.940 -55.7893 -38.6524
  245 606.588 26.8989 20.1568
  246 606.588 26.8989 20.1568
  247 20.8555 -387.205 -22.1300
  248 20.8555 -387.205 -22.1300
  249 41.5025 -337.212 72.9168
  250 41.5025 -337.212 72.9168
  251 616.283 4.18083 56.7410
  252 616.283 4.18083 56.7410
  253 642.446 2.40106 2.13989
  254 642.446 2.40106 2.13989
  255 637.502 10.0189 0.411846
  256 637.502 10.0189 0.411846
  257 599.259 -7.48212 -75.8993
  258 599.259 -7.48212 -75.8993
  259 642.771 2.19498 -2.26732
  260 642.771 2.19498 -2.26732
  261 707.451 -50.3331 49.5904
  262 707.451 -50.3331 49.5904
  263 658.646 2.23775 -10.7009
  264 658.646 2.23775 -10.7009
  265 513.456 -43.5692 -142.587
  266 513.456 -43.5692 -142.587
  267 864.739 67.0610 0.943745
  268 864.739 67.0610 0.943745
  269 636.676 13.7879 -28.3450
  270 636.676 13.7879 -28.3450
  271 634.445 12.8925 -5.52480
  272 634.445 12.8925 -5.52480
  273 543.214 26.2879 -51.9227
  274 543.214 26.2879 -51.9227
  275 168.784 -60.0933 44.4078
  276 168.784 -60.0933 44.4078
  277 674.110 -113.430 147.778
  278 674.110 -113.430 147.778
  279 640.700 9.30680 10.8316
  280 640.700 9.30680 10.8316
  281 938.950 65.9707 -16.5446
  282 938.950 65.9707 -16.5446
  283 1108.34 103.101 137.894
  284 1108.34 103.101 137.894
  285 756.190 -80.6670 51.5720
  286 756.190 -80.6670 51.5720
  287 553.771 27.4917 37.8952
  288 553.771 27.4917 37.8952
  289 690.952 -139.219 195.407
  290 690.952 -139.219 195.407
  291 715.949 -8.69599 18.1502
  292 715.949 -8.69599 18.1502
  293 640.307 6.12357 2.93958
  294 640.307 6.12357 2.93958
  295 631.925 16.9670 -17.8854
  296 631.925 16.9670 -17.8854
  297 637.643 9.86072 -0.807698
  298 637.643 9.86072 -0.807698
  299 645.974 1.74937 -4.10771
  300 645.974 1.74937 -4.10771
  301 658.139 3.15930 10.7411
  302 658.139 3.15930 10.7411
  303 628.770 17.2526 -4.56270
  304 628.770 17.2526 -4.56270
  305 144.298 -239.222 -182.808
  306 144.298 -239.222 -182.808
  307 437.921 28.9095 35.6826
  308 437.921 28.9095 35.6826
  309 640.923 5.11962 -2.81908
  310 640.923 5.11962 -2.81908
  311 568.768 32.3540 -25.3404
  312 568.768 32.3540 -25.3404
  313 570.263 35.2681 9.60405
  314 570.263 35.2681 9.60405
  315 639.718 8.94894 -7.64875
  316 639.718 8.94894 -7.64875
  317 850.476 47.7442 -9.50479
  318 850.476 47.7442 -9.50479
  319 635.304 15.0325 24.7184
  320 635.304 15.0325 24.7184
  321 805.383 26.9137 -16.4191
  322 805.383 26.9137 -16.4191
  323 1159.98 32.2483 79.7210
  324 1159.98 32.2483 79.7210
  325 633.147 15.5565 15.4105
  326 633.147 15.5565 15.4105
  327 623.845 20.6146 8.06223
  328 623.845 20.6146 8.06223
  329 481.102 -89.1665 -282.208
  330 481.102 -89.1665 -282.208
  331 646.346 1.58032 4.01704
  332 646.346 1.58032 4.01704
  333 633.899 12.9825 4.13225
  334 633.899 12.9825 4.13225
  335 612.050 26.8373 0.928072
  336 612.050 26.8373 0.928072
  337 318.496 -111.603 225.084
  338 318.496 -111.603 225.084
  339 784.703 51.9449 2.93000
  340 784.703 51.9449 2.93000
  341 44.5454 -329.875 -83.3360
  342 44.5454 -329.875 -83.3360
  343 496.728 31.2760 31.5230
  344 496.728 31.2760 31.5230
  345 1098.99 14.3907 10.5446
  346 1098.99 14.3907 10.5446
  347 1148.23 59.5693 -82.7322
  348 1148.23 59.5693 -82.7322
  349 553.380 -64.5113 159.608
  350 577.786 -33.0226 117.179
  351 553.380 -64.5113 159.608
  352 577.786 -33.0226 117.179
  353 1115.08 26.9517 41.0291
  354 1115.08 26.9517 41.0291
  355 654.313 -1.13971 44.2134
  356 654.313 -1.13971 44.2134
  357 765.985 -103.682 -117.184
  358 765.985 -103.682 -117.184
  359 735.518 -6.11047 19.0550
  360 735.518 -6.11047 19.0550
  361 490.269 -90.1234 307.328
  362 490.269 -90.1234 307.328
  363 856.141 68.5771 -2.14108
  364 856.141 68.5771 -2.14108
  365 1112.31 9.68185 -8.47861
  366 1112.31 9.68185 -8.47861
  367 693.712 0.0781377 -21.4406
  368 693.712 0.0781377 -21.4406
  369 623.822 21.9462 -9.66965
  370 623.822 21.9462 -9.66965
  371 949.549 74.1135 27.9621
  372 949.549 74.1135 27.9621
  373 738.855 31.3273 -4.17549
  374 738.855 31.3273 -4.17549
  375 669.703 2.39107 -13.3947
  376 669.703 2.39107 -13.3947
  377 188.265 -88.3053 -130.370
  378 188.265 -88.3053 -130.370
  379 739.163 -13.4578 4.09496
  380 739.163 -13.4578 4.09496
  381 635.919 -1.23539 -52.3637
  382 635.919 -1.23539 -52.3637
  383 731.437 -1.28948 -22.9316
  384 731.437 -1.28948 -22.9316
  385 1118.68 19.3233 -33.7778
  386 1118.68 19.3233 -33.7778
  387 638.276 9.56651 6.03915
  388 638.276 9.56651 6.03915
  389 776.262 38.9376 17.9058
  390 776.262 38.9376 17.9058
  391 830.299 -15.3027 15.0497
  392 830.299 -15.3027 15.0497
  393 640.448 11.2740 -13.5952
  394 640.448 11.2740 -13.5952
  395 1182.35 122.272 -158.822
  396 1182.35 122.272 -158.822
  397 728.617 -10.9523 -8.41320
  398 728.617 -10.9523 -8.41320
</Section>

newXOutput 194

<Section columns = "stress_xx | stress_yy | stress_xy">
  1 644.451 0.636523 -0.669271
  2 644.746 0.780815 0.901523
  3 644.451 0.636523 -0.669271
  4 644.746 0.780815 0.901523
  5 961.932 86.9739 286.927
  6 997.760 85.9681 -282.464
  7 961.932 86.9739 286.927
  8 997.760 85.9681 -282.464
  9 645.923 0.440679 -1.76350
  10 650.784 0.770048 -3.15113
  11 657.871 1.72500 -6.44589
  12 674.262 0.615603 -8.74209
  13 695.631 0.947486 -14.5875
  14 721.104 -6.72589 -14.8009
  15 745.350 -7.95632 -2.40913
  16 737.020 -5.32687 10.8842
  17 713.134 5.95555 19.9200
  18 699.987 14.1179 -0.785977
  19 709.373 6.71712 -18.8055
  20 736.451 -7.96091 -13.2273
  21 738.832 -9.67669 5.81990
  22 724.759 -4.42018 12.8206
  23 691.324 0.0238145 14.7373
  24 672.882 2.42466 11.1006
  25 658.326 1.98077 6.18584
  26 650.930 0.620822 2.88407
  27 646.281 0.523639 1.70761
  28 645.594 2.26302 1.05121
  29 644.562 4.61804 1.23161
  30 642.014 7.98761 1.10119
  31 641.000 9.27552 -0.106228
  32 642.287 7.58368 -1.31562
  33 644.102 5.03506 -1.10734
  34 644.894 2.57344 -1.18613
  35 645.923 0.440679 -1.76350
  36 650.784 0.770048 -3.15113
  37 657.871 1.72500 -6.44589
  38 674.262 0.615603 -8.74209
  39 695.631 0.947486 -14.5875
  40 721.104 -6.72589 -14.8009
  41 745.350 -7.95632 -2.40913
  42 737.020 -5.32687 10.8842
  43 713.134 5.95555 19.9200
  44 699.987 14.1179 -0.785977
  45 709.373 6.71712 -18.8055
  46 736.451 -7.96091 -13.2273
  47 738.832 -9.67669 5.81990
  48 724.759 -4.42018 12.8206
  49 691.324 0.0238145 14.7373
  50 672.882 2.42466 11.1006
  51 658.326 1.98077 6.18584
  52 650.930 0.620822 2.88407
  53 646.281 0.523639 1.70761
  54 645.594 2.26302 1.05121
  55 644.562 4.61804 1.23161
  56 642.014 7.98761 1.10119
  57 641.000 9.27552 -0.106228
  58 642.287 7.58368 -1.31562
  59 644.102 5.03506 -1.10734
  60 644.894 2.57344 -1.18613
  61 1321.75 72.5446 141.554
  62 1208.98 19.4593 48.9240
  63 1143.75 7.63750 17.7042
  64 1129.66 5.64430 3.26337
  65 1143.04 7.60102 -15.0704
  66 1193.29 16.5739 -42.1461
  67 1334.28 63.0364 -121.913
  68 181.233 -180.927 -241.477
  69 35.9871 -471.746 -67.3498
  70 8.53282 -548.860 -29.3824
  71 8.23193 -540.291 -13.3131
  72 15.5173 -522.427 31.5284
  73 39.5062 -456.988 71.5479
  74 195.046 -167.076 266.870
  75 1321.75 72.5446 141.554
  76 1208.98 19.4593 48.9240
  77 1143.75 7.63750 17.7042
  78 1129.66 5.64430 3.26337
  79 1143.04 7.60102 -15.0704
  80 1193.29 16.5739 -42.1461
  81 1334.28 63.0364 -121.913
  82 181.233 -180.927 -241.477
  83 35.9871 -471.746 -67.3498
  84 8.53282 -548.860 -29.3824
  85 8.23193 -540.291 -13.3131
  86 15.5173 -522.427 31.5284
  87 39.5062 -456.988 71.5479
  88 195.046 -167.076 266.870
  89 595.839 33.4956 -8.60600
  90 595.839 33.4956 -8.60600
  91 544.842 7.71760 79.2630
  92 523.877 -3.01828 -95.1016
  93 544.842 7.71760 79.2630
  94 523.877 -3.01828 -95.1016
  95 314.718 9.93370 38.7836
  96 314.718 9.93370 38.7836
  97 792.927 51.7210 -9.98437
  98 805.395 30.9499 19.0208
  99 792.927 51.7210 -9.98437
  100 805.395 30.9499 19.0208
  101 636.261 14.9667 8.35638
  102 636.261 14.9667 8.35638
  103 755.025 -43.0265 4.99625
  104 755.025 -43.0265 4.99625
  105 636.943 15.6676 -10.3276
  106 636.943 15.6676 -10.3276
  107 739.432 -92.3167 -87.3601
  108 739.432 -92.3167 -87.3601
  109 521.881 -109.856 214.186
  110 521.881 -109.856 214.186
  111 357.251 -63.3303 -173.750
  112 357.251 -63.3303 -173.750
  113 639.125 10.3959 36.9474
  114 639.125 10.3959 36.9474
  115 661.045 4.13465 -35.5158
  116 661.045 4.13465 -35.5158
  117 889.264 62.6086 15.9004
  118 949.503 60.6796 6.56565
  119 889.264 62.6086 15.9004
  120 949.503 60.6796 6.56565
  121 931.348 80.3424 -29.7840
  122 931.348 80.3424 -29.7840
  123 105.798 -166.825 -59.4495
  124 105.798 -166.825 -59.4495
  125 799.832 -98.2011 97.4325
  126 799.832 -98.2011 97.4325
  127 682.253 -16.7797 42.9959
  128 682.253 -16.7797 42.9959
  129 160.877 -143.550 135.294
  130 160.877 -143.550 135.294
  131 637.104 12.4660 -0.518863
  132 637.104 12.4660 -0.518863
  133 680.843 -32.1526 -55.2615
  134 680.843 -32.1526 -55.2615
  135 646.227 5.11895 5.98374
  136 646.227 5.11895 5.98374
  137 646.711 4.51212 -5.57324
  138 646.711 4.51212 -5.57324
  139 653.392 8.71529 -18.2021
  140 653.392 8.71529 -18.2021
  141 650.625 8.51386 16.3401
  142 650.625 8.51386 16.3401
  143 625.257 20.9034 -0.680780
  144 625.257 20.9034 -0.680780
  145 527.516 34.6465 -4.08113
  146 527.516 34.6465 -4.08113
  147 752.260 -26.6520 7.97528
  148 752.260 -26.6520 7.97528
  149 852.847 -25.5962 -42.2064
  150 852.847 -25.5962 -42.2064
  151 664.005 -74.9313 106.216
  152 664.005 -74.9313 106.216
  153 500.974 -134.616 -244.261
  154 500.974 -134.616 -244.261
  155 596.705 24.1372 35.3254
  156 596.705 24.1372 35.3254
  157 765.877 -3.91864 -23.5942
  158 765.877 -3.91864 -23.5942
  159 1029.80 84.0690 63.5545
  160 1029.80 84.0690 63.5545
  161 521.170 -145.545 281.000
  162 521.170 -145.545 281.000
  163 1048.13 33.5719 -12.3087
  164 1048.13 33.5719 -12.3087
  165 622.850 20.8744 16.1173
  166 622.850 20.8744 16.1173
  167 592.875 20.0015 -52.0195
  168 592.875 20.0015 -52.0195
  169 732.386 22.7739 15.1319
  170 732.386 22.7739 15.1319
  171 617.406 24.9776 -18.3749
  172 617.406 24.9776 -18.3749
  173 640.622 10.0089 2.61764
  174 640.622 10.0089 2.61764
  175 650.232 4.85895 -9.56386
  176 650.232 4.85895 -9.56386
  177 989.194 83.4922 -66.8115
  178 989.194 83.4922 -66.8115
  179 641.072 9.75127 -3.15549
  180 641.072 9.75127 -3.15549
  181 479.737 35.1426 -27.3479
  182 479.737 35.1426 -27.3479
  183 847.646 63.5571 1.40396
  184 847.646 63.5571 1.40396
  185 175.495 -140.971 -174.043
  186 175.495 -140.971 -174.043
  187 470.882 -4.53917 116.271
  188 470.882 -4.53917 116.271
  189 619.447 -101.230 -165.928
  190 619.447 -101.230 -165.928
  191 731.432 -20.4463 10.7995
  192 731.432 -20.4463 10.7995
  193 685.408 -2.59729 25.9753
  194 685.408 -2.59729 25.9753
  195 921.376 33.1393 64.5968
  196 921.376 33.1393 64.5968
  197 395.761 13.5765 -72.1606
  198 395.761 13.5765 -72.1606
  199 1040.70 45.6517 28.6366
  200 1040.70 45.6517 28.6366
  201 697.770 -8.89162 -27.8525
  202 697.770 -8.89162 -27.8525
  203 651.180 3.46033 8.81013
  204 651.180 3.46033 8.81013
  205 725.653 -28.9155 -16.1579
  206 725.653 -28.9155 -16.1579
  207 791.130 -38.7948 -10.7040
  208 791.130 -38.7948 -10.7040
  209 50.1116 -296.403 26.8552
  210 50.1116 -296.403 26.8552
  211 670.297 3.25025 -22.5338
  212 670.297 3.25025 -22.5338
  213 665.016 5.04231 19.5862
  214 665.016 5.04231 19.5862
  215 639.412 -59.2569 -104.969
  216 639.412 -59.2569 -104.969
  217 745.960 -15.8684 -14.1465
  218 745.960 -15.8684 -14.1465
  219 615.062 21.8340 -35.2716
  220 615.062 21.8340 -35.2716
  221 169.415 -206.394 192.313
  222 169.415 -206.394 192.313
  223 757.194 4.31858 22.6988
  224 757.194 4.31858 22.6988
  225 738.183 19.4095 -19.8064
  226 738.183 19.4095 -19.8064
  227 1030.53 61.3814 -49.9492
  228 1030.53 61.3814 -49.9492
  229 794.155 -28.3055 -7.59197
  230 794.155 -28.3055 -7.59197
  231 859.133 -30.4067 -164.082
  232 859.133 -30.4067 -164.082
  233 642.234 -29.1442 80.1404
  234 642.234 -29.1442 80.1404
  235 631.664 17.4195 2.69735
  236 631.664 17.4195 2.69735
  237 339.620 -48.5387 153.569
  238 339.620 -48.5387 153.569
  239 822.111 -64.9977 189.851
  240 822.111 -64.9977 189.851
  241 233.724 -26.9988 -76.4540
  242 233.724 -26.9988 -76.4540
  243 739.429 -56.0601 -38.8688
  244 739.429 -56.0601 -38.8688
  245 609.536 27.0245 20.2477
  246 609.536 27.0245 20.2477
  247 20.9469 -389.130 -22.2629
  248 20.9469 -389.130 -22.2629
  249 41.7007 -338.852 73.3491
  250 41.7007 -338.852 73.3491
  251 619.264 4.19977 57.0080
  252 619.264 4.19977 57.0080
  253 645.539 2.41210 2.14852
  254 645.539 2.41210 2.14852
  255 640.578 10.0638 0.413565
  256 640.578 10.0638 0.413565
  257 602.161 -7.51933 -76.2624
  258 602.161 -7.51933 -76.2624
  259 645.866 2.20517 -2.27647
  260 645.866 2.20517 -2.27647
  261 710.817 -50.5786 49.8493
  262 710.817 -50.5786 49.8493
  263 661.804 2.24746 -10.7463
  264 661.804 2.24746 -10.7463
  265 515.953 -43.7824 -143.289
  266 515.953 -43.7824 -143.289
  267 868.837 67.3870 0.986985
  268 868.837 67.3870 0.986985
  269 639.748 13.8506 -28.4720
  270 639.748 13.8506 -28.4720
  271 637.508 12.9509 -5.54791
  272 637.508 12.9509 -5.54791
  273 545.881 26.4156 -52.1677
  274 545.881 26.4156 -52.1677
  275 169.654 -60.3434 44.6426
  276 169.654 -60.3434 44.6426
  277 677.297 -113.985 148.525
  278 677.297 -113.985 148.525
  279 643.788 9.34896 10.8773
  280 643.788 9.34896 10.8773
  281 943.348 66.2752 -16.6415
  282 943.348 66.2752 -16.6415
  283 1113.37 103.661 138.601
  284 1113.37 103.661 138.601
  285 759.757 -81.0516 51.8659
  286 759.757 -81.0516 51.8659
  287 556.487 27.6242 38.0717
  288 556.487 27.6242 38.0717
  289 694.192 -139.893 196.400
  290 694.192 -139.893 196.400
  291 719.354 -8.74053 18.2416
  292 719.354 -8.74053 18.2416
  293 643.393 6.15121 2.95158
  294 643.393 6.15121 2.95158
  295 634.979 17.0446 -17.9632
  296 634.979 17.0446 -17.9632
  297 640.719 9.90488 -0.811001
  298 640.719 9.90488 -0.811001
  299 649.081 1.75736 -4.12451
  300 649.081 1.75736 -4.12451
  301 661.295 3.17325 10.7866
  302 661.295 3.17325 10.7866
  303 631.812 17.3311 -4.58219
  304 631.812 17.3311 -4.58219
  305 144.989 -240.306 -183.820
  306 144.989 -240.306 -183.820
  307 440.109 29.0579 35.8540
  308 440.109 29.0579 35.8540
  309 644.011 5.14285 -2.83054
  310 644.011 5.14285 -2.83054
  311 571.553 32.5077 -25.4579
  312 571.553 32.5077 -25.4579
  313 573.055 35.4355 9.64794
  314 573.055 35.4355 9.64794
  315 642.802 8.98948 -7.68070
  316 642.802 8.98948 -7.68070
  317 854.492 48.0043 -9.62176
  318 854.492 48.0043 -9.62176
  319 638.370 15.1012 24.8278
  320 638.370 15.1012 24.8278
  321 809.212 27.0606 -16.4423
  322 809.212 27.0606 -16.4423
  323 1165.20 32.3865 80.0960
  324 1165.20 32.3865 80.0960
  325 636.205 15.6275 15.4771
  326 636.205 15.6275 15.4771
  327 626.867 20.7090 8.09711
  328 626.867 20.7090 8.09711
  329 483.339 -89.4135 -283.696
  330 483.339 -89.4135 -283.696
  331 649.455 1.58754 4.03346
  332 649.455 1.58754 4.03346
  333 636.961 13.0412 4.14959
  334 636.961 13.0412 4.14959
  335 615.023 26.9615 0.932144
  336 615.023 26.9615 0.932144
  337 320.060 -112.141 226.255
  338 320.060 -112.141 226.255
  339 788.470 52.2007 2.93471
  340 788.470 52.2007 2.93471
  341 44.7529 -331.476 -83.8188
  342 44.7529 -331.476 -83.8188
  343 499.190 31.4301 31.6716
  344 499.190 31.4301 31.6716
  345 1103.96 14.4494 10.5892
  346 1103.96 14.4494 10.5892
  347 1153.42 59.8537 -83.1273
  348 1153.42 59.8537 -83.1273
  349 556.046 -64.8290 160.394
  350 580.579 -33.1835 117.745
  351 556.046 -64.8290 160.394
  352 580.579 -33.1835 117.745
  353 1120.12 27.0644 41.2153
  354 1120.12 27.0644 41.2153
  355 657.457 -1.14764 44.4210
  356 657.457 -1.14764 44.4210
  357 769.568 -104.170 -117.804
  358 769.568 -104.170 -117.804
  359 739.044 -6.13706 19.1211
  360 739.044 -6.13706 19.1211
  361 492.528 -90.3859 308.932
  362 492.528 -90.3859 308.932
  363 860.209 68.9026 -2.14944
  364 860.209 68.9026 -2.14944
  365 1117.32 9.72066 -8.51613
  366 1117.32 9.72066 -8.51613
  367 697.017 0.0755928 -21.5393
  368 697.017 0.0755928 -21.5393
  369 626.843 22.0470 -9.71168
  370 626.843 22.0470 -9.71168
  371 953.989 74.4649 28.1312
  372 953.989 74.4649 28.1312
  373 742.426 31.4841 -4.19006
  374 742.426 31.4841 -4.19006
  375 672.905 2.40080 -13.4528
  376 672.905 2.40080 -13.4528
  377 189.233 -88.7045 -131.060
  378 189.233 -88.7045 -131.060
  379 742.684 -13.5237 4.09613
  380 742.684 -13.5237 4.09613
  381 638.983 -1.24383 -52.6117
  382 638.983 -1.24383 -52.6117
  383 734.955 -1.29309 -23.0132
  384 734.955 -1.29309 -23.0132
  385 1123.73 19.4063 -33.9290
  386 1123.73 19.4063 -33.9290
  387 641.355 9.60969 6.06428
  388 641.355 9.60969 6.06428
  389 779.981 39.1360 17.9556
  390 779.981 39.1360 17.9556
  391 834.202 -15.3453 15.1959
  392 834.202 -15.3453 15.1959
  393 643.535 11.3252 -13.6531
  394 643.535 11.3252 -13.6531
  395 1187.66 122.947 -159.624
  396 1187.66 122.947 -159.624
  397 732.078 -11.0081 -8.46174
  398 732.078 -11.0081 -8.46174
</Section>

newXOutput 195

<Section columns = "stress_xx | stress_yy | stress_xy">
  1 647.538 0.639661 -0.671898
  2 647.835 0.784566 0.905050
  3 647.538 0.639661 -0.671898
  4 647.835 0.784566 0.905050
  5 966.213 87.6169 288.378
  6 1002.18 86.6148 -283.894
  7 966.213 87.6169 288.378
  8 1002.18 86.6148 -283.894
  9 649.015 0.442764 -1.77050
  10 653.895 0.773584 -3.16383
  11 661.010 1.73269 -6.47244
  12 677.466 0.618020 -8.77901
  13 698.922 0.950361 -14.6521
  14 724.506 -6.76106 -14.8712
  15 748.865 -7.99641 -2.42793
  16 740.529 -5.35221 10.9199
  17 716.572 5.98860 19.9943
  18 703.384 14.1908 -0.788996
  19 712.796 6.75125 -18.8768
  20 739.959 -7.99921 -13.2702
  21 742.319 -9.72561 5.85632
  22 728.176 -4.44305 12.8821
  23 694.600 0.0217515 14.8033
  24 676.081 2.43500 11.1478
  25 661.467 1.98961 6.21123
  26 654.042 0.623694 2.89566
  27 649.375 0.526146 1.71445
  28 648.686 2.27335 1.05530
  29 647.649 4.63885 1.23651
  30 645.093 8.02318 1.10564
  31 644.075 9.31668 -0.106650
  32 645.366 7.61751 -1.32087
  33 647.187 5.05775 -1.11161
  34 647.982 2.58527 -1.19086
  35 649.015 0.442764 -1.77050
  36 653.895 0.773584 -3.16383
  37 661.010 1.73269 -6.47244
  38 677.466 0.618020 -8.77901
  39 698.922 0.950361 -14.6521
  40 724.506 -6.76106 -14.8712
  41 748.865 -7.99641 -2.42793
  42 740.529 -5.35221 10.9199
  43 716.572 5.98860 19.9943
  44 703.384 14.1908 -0.788996
  45 712.796 6.75125 -18.8768
  46 739.959 -7.99921 -13.2702
  47 742.319 -9.72561 5.85632
  48 728.176 -4.44305 12.8821
  49 694.600 0.0217515 14.8033
  50 676.081 2.43500 11.1478
  51 661.467 1.98961 6.21123
  52 654.042 0.623694 2.89566
  53 649.375 0.526146 1.71445
  54 648.686 2.27335 1.05530
  55 647.649 4.63885 1.23651
  56 645.093 8.02318 1.10564
  57 644.075 9.31668 -0.106650
  58 645.366 7.61751 -1.32087
  59 647.187 5.05775 -1.11161
  60 647.982 2.58527 -1.19086
  61 1327.54 72.9013 142.203
  62 1214.32 19.5420 49.1366
  63 1148.83 7.66481 17.7774
  64 1134.69 5.66593 3.27470
  65 1148.12 7.63152 -15.1324
  66 1198.57 16.6432 -42.3261
  67 1340.12 63.3454 -122.472
  68 182.072 -181.554 -242.772
  69 36.1556 -474.041 -67.7707
  70 8.55501 -551.662 -29.5664
  71 8.25449 -543.063 -13.3808
  72 15.5787 -525.074 31.7266
  73 39.6961 -459.209 71.9970
  74 195.933 -167.637 268.294
  75 1327.54 72.9013 142.203
  76 1214.32 19.5420 49.1366
  77 1148.83 7.66481 17.7774
  78 1134.69 5.66593 3.27470
  79 1148.12 7.63152 -15.1324
  80 1198.57 16.6432 -42.3261
  81 1340.12 63.3454 -122.472
  82 182.072 -181.554 -242.772
  83 36.1556 -474.041 -67.7707
  84 8.55501 -551.662 -29.5664
  85 8.25449 -543.063 -13.3808
  86 15.5787 -525.074 31.7266
  87 39.6961 -459.209 71.9970
  88 195.933 -167.637 268.294
  89 598.729 33.6518 -8.64498
  90 598.729 33.6518 -8.64498
  91 547.493 7.75662 79.6382
  92 526.429 -3.03081 -95.5572
  93 547.493 7.75662 79.6382
  94 526.429 -3.03081 -95.5572
  95 316.312 10.0024 38.9752
  96 316.312 10.0024 38.9752
  97 796.707 51.9752 -10.0089
  98 809.208 31.1160 19.0549
  99 796.707 51.9752 -10.0089
  100 809.208 31.1160 19.0549
  101 639.318 15.0342 8.39163
  102 639.318 15.0342 8.39163
  103 758.591 -43.2305 5.06102
  104 758.591 -43.2305 5.06102
  105 640.002 15.7386 -10.3714
  106 640.002 15.7386 -10.3714
  107 742.899 -92.7614 -87.8123
  108 742.899 -92.7614 -87.8123
  109 524.373 -110.394 215.256
  110 524.373 -110.394 215.256
  111 359.004 -63.6302 -174.629
  112 359.004 -63.6302 -174.629
  113 642.191 10.4423 37.1153
  114 642.191 10.4423 37.1153
  115 664.201 4.15080 -35.6791
  116 664.201 4.15080 -35.6791
  117 893.430 62.9323 16.0455
  118 953.919 60.9538 6.60708
  119 893.430 62.9323 16.0455
  120 953.919 60.9538 6.60708
  121 935.696 80.7362 -29.9764
  122 935.696 80.7362 -29.9764
  123 106.331 -167.595 -59.7766
  124 106.331 -167.595 -59.7766
  125 803.549 -98.6451 97.9657
  126 803.549 -98.6451 97.9657
  127 685.499 -16.8630 43.2057
  128 685.499 -16.8630 43.2057
  129 161.684 -144.207 136.025
  130 161.684 -144.207 136.025
  131 640.164 12.5219 -0.520949
  132 640.164 12.5219 -0.520949
  133 684.078 -32.3100 -55.5356
  134 684.078 -32.3100 -55.5356
  135 649.322 5.14206 6.00827
  136 649.322 5.14206 6.00827
  137 649.807 4.53260 -5.59598
  138 649.807 4.53260 -5.59598
  139 656.515 8.75410 -18.2808
  140 656.515 8.75410 -18.2808
  141 653.738 8.55202 16.4101
  142 653.738 8.55202 16.4101
  143 628.270 20.9985 -0.683866
  144 628.270 20.9985 -0.683866
  145 530.107 34.8129 -4.10070
  146 530.107 34.8129 -4.10070
  147 755.823 -26.7764 7.97737
  148 755.823 -26.7764 7.97737
  149 856.818 -25.6708 -42.4925
  150 856.818 -25.6708 -42.4925
  151 667.151 -75.2962 106.741
  152 667.151 -75.2962 106.741
  153 503.339 -135.244 -245.521
  154 503.339 -135.244 -245.521
  155 599.594 24.2507 35.4873
  156 599.594 24.2507 35.4873
  157 769.510 -3.92913 -23.6617
  158 769.510 -3.92913 -23.6617
  159 1034.52 84.4786 63.8929
  160 1034.52 84.4786 63.8929
  161 523.624 -146.238 282.431
  162 523.624 -146.238 282.431
  163 1052.90 33.7142 -12.3677
  164 1052.90 33.7142 -12.3677
  165 625.852 20.9698 16.1878
  166 625.852 20.9698 16.1878
  167 595.744 20.0961 -52.2615
  168 595.744 20.0961 -52.2615
  169 735.910 22.8908 15.1867
  170 735.910 22.8908 15.1867
  171 620.386 25.0925 -18.4561
  172 620.386 25.0925 -18.4561
  173 643.696 10.0537 2.62839
  174 643.696 10.0537 2.62839
  175 653.341 4.88070 -9.60372
  176 653.341 4.88070 -9.60372
  177 993.751 83.9369 -67.2028
  178 993.751 83.9369 -67.2028
  179 644.147 9.79498 -3.16838
  180 644.147 9.79498 -3.16838
  181 482.108 35.3168 -27.4781
  182 482.108 35.3168 -27.4781
  183 851.652 63.8674 1.37143
  184 851.652 63.8674 1.37143
  185 176.364 -141.616 -174.977
  186 176.364 -141.616 -174.977
  187 473.189 -4.55628 116.834
  188 473.189 -4.55628 116.834
  189 622.380 -101.724 -166.756
  190 622.380 -101.724 -166.756
  191 734.895 -20.5470 10.8693
  192 734.895 -20.5470 10.8693
  193 688.664 -2.61271 26.0959
  194 688.664 -2.61271 26.0959
  195 925.642 33.3581 64.9937
  196 925.642 33.3581 64.9937
  197 397.733 13.6542 -72.5132
  198 397.733 13.6542 -72.5132
  199 1045.45 45.8517 28.7784
  200 1045.45 45.8517 28.7784
  201 701.081 -8.93753 -27.9880
  202 701.081 -8.93753 -27.9880
  203 654.293 3.47571 8.84673
  204 654.293 3.47571 8.84673
  205 729.089 -29.0580 -16.2550
  206 729.089 -29.0580 -16.2550
  207 794.849 -38.9662 -10.8121
  208 794.849 -38.9662 -10.8121
  209 50.3562 -297.840 27.0102
  210 50.3562 -297.840 27.0102
  211 673.489 3.26270 -22.6343
  212 673.489 3.26270 -22.6343
  213 668.186 5.06424 19.6723
  214 668.186 5.06424 19.6723
  215 642.456 -59.5454 -105.485
  216 642.456 -59.5454 -105.485
  217 749.501 -15.9442 -14.1827
  218 749.501 -15.9442 -14.1827
  219 618.029 21.9354 -35.4327
  220 618.029 21.9354 -35.4327
  221 170.228 -207.329 193.361
  222 170.228 -207.329 193.361
  223 760.802 4.34939 22.7687
  224 760.802 4.34939 22.7687
  225 741.726 19.5100 -19.8751
  226 741.726 19.5100 -19.8751
  227 1035.26 61.6617 -50.2063
  228 1035.26 61.6617 -50.2063
  229 797.892 -28.4259 -7.56960
  230 797.892 -28.4259 -7.56960
  231 863.084 -30.4551 -164.965
  232 863.084 -30.4551 -164.965
  233 645.300 -29.2855 80.5260
  234 645.300 -29.2855 80.5260
  235 634.703 17.4983 2.70882
  236 634.703 17.4983 2.70882
  237 341.299 -48.7634 154.342
  238 341.299 -48.7634 154.342
  239 825.890 -65.2290 190.853
  240 825.890 -65.2290 190.853
  241 234.914 -27.1000 -76.8448
  242 234.914 -27.1000 -76.8448
  243 742.915 -56.3307 -39.0853
  244 742.915 -56.3307 -39.0853
  245 612.482 27.1498 20.3384
  246 612.482 27.1498 20.3384
  247 21.0382 -391.054 -22.3960
  248 21.0382 -391.054 -22.3960
  249 41.8986 -340.491 73.7820
  250 41.8986 -340.491 73.7820
  251 622.243 4.21869 57.2747
  252 622.243 4.21869 57.2747
  253 648.631 2.42312 2.15713
  254 648.631 2.42312 2.15713
  255 643.651 10.1085 0.415280
  256 643.651 10.1085 0.415280
  257 605.061 -7.55652 -76.6251
  258 605.061 -7.55652 -76.6251
  259 648.958 2.21534 -2.28560
  260 648.958 2.21534 -2.28560
  261 714.179 -50.8239 50.1082
  262 714.179 -50.8239 50.1082
  263 664.959 2.25715 -10.7915
  264 664.959 2.25715 -10.7915
  265 518.448 -43.9955 -143.990
  266 518.448 -43.9955 -143.990
  267 872.930 67.7128 1.03054
  268 872.930 67.7128 1.03054
  269 642.818 13.9131 -28.5989
  270 642.818 13.9131 -28.5989
  271 640.570 13.0092 -5.57097
  272 640.570 13.0092 -5.57097
  273 548.546 26.5433 -52.4125
  274 548.546 26.5433 -52.4125
  275 170.524 -60.5930 44.8774
  276 170.524 -60.5930 44.8774
  277 680.481 -114.539 149.271
  278 680.481 -114.539 149.271
  279 646.873 9.39107 10.9230
  280 646.873 9.39107 10.9230
  281 947.741 66.5794 -16.7385
  282 947.741 66.5794 -16.7385
  283 1118.39 104.221 139.308
  284 1118.39 104.221 139.308
  285 763.321 -81.4359 52.1600
  286 763.321 -81.4359 52.1600
  287 559.202 27.7566 38.2481
  288 559.202 27.7566 38.2481
  289 697.428 -140.566 197.393
  290 697.428 -140.566 197.393
  291 722.756 -8.78507 18.3329
  292 722.756 -8.78507 18.3329
  293 646.477 6.17881 2.96356
  294 646.477 6.17881 2.96356
  295 638.030 17.1221 -18.0410
  296 638.030 17.1221 -18.0410
  297 643.793 9.94897 -0.814295
  298 643.793 9.94897 -0.814295
  299 652.186 1.76535 -4.14127
  300 652.186 1.76535 -4.14127
  301 664.448 3.18717 10.8320
  302 664.448 3.18717 10.8320
  303 634.851 17.4096 -4.60163
  304 634.851 17.4096 -4.60163
  305 145.680 -241.388 -184.831
  306 145.680 -241.388 -184.831
  307 442.296 29.2062 36.0253
  308 442.296 29.2062 36.0253
  309 647.096 5.16604 -2.84196
  310 647.096 5.16604 -2.84196
  311 574.336 32.6614 -25.5753
  312 574.336 32.6614 -25.5753
  313 575.846 35.6029 9.69176
  314 575.846 35.6029 9.69176
  315 645.883 9.02996 -7.71258
  316 645.883 9.02996 -7.71258
  317 858.505 48.2646 -9.73930
  318 858.505 48.2646 -9.73930
  319 641.434 15.1698 24.9370
  320 641.434 15.1698 24.9370
  321 813.038 27.2075 -16.4649
  322 813.038 27.2075 -16.4649
  323 1170.42 32.5243 80.4705
  324 1170.42 32.5243 80.4705
  325 639.261 15.6984 15.5436
  326 639.261 15.6984 15.5436
  327 629.886 20.8032 8.13192
  328 629.886 20.8032 8.13192
  329 485.574 -89.6583 -285.184
  330 485.574 -89.6583 -285.184
  331 652.561 1.59474 4.04984
  332 652.561 1.59474 4.04984
  333 640.020 13.0998 4.16688
  334 640.020 13.0998 4.16688
  335 617.994 27.0855 0.936210
  336 617.994 27.0855 0.936210
  337 321.623 -112.678 227.425
  338 321.623 -112.678 227.425
  339 792.234 52.4565 2.93934
  340 792.234 52.4565 2.93934
  341 44.9601 -333.075 -84.3021
  342 44.9601 -333.075 -84.3021
  343 501.651 31.5842 31.8201
  344 501.651 31.5842 31.8201
  345 1108.92 14.5079 10.6338
  346 1108.92 14.5079 10.6338
  347 1158.61 60.1379 -83.5219
  348 1158.61 60.1379 -83.5219
  349 558.710 -65.1465 161.180
  350 583.370 -33.3442 118.311
  351 558.710 -65.1465 161.180
  352 583.370 -33.3442 118.311
  353 1125.15 27.1770 41.4012
  354 1125.15 27.1770 41.4012
  355 660.598 -1.15558 44.6283
  356 660.598 -1.15558 44.6283
  357 773.147 -104.658 -118.424
  358 773.147 -104.658 -118.424
  359 742.567 -6.16361 19.1869
  360 742.567 -6.16361 19.1869
  361 494.784 -90.6465 310.537
  362 494.784 -90.6465 310.537
  363 864.273 69.2279 -2.15777
  364 864.273 69.2279 -2.15777
  365 1122.32 9.75938 -8.55359
  366 1122.32 9.75938 -8.55359
  367 700.318 0.0730225 -21.6378
  368 700.318 0.0730225 -21.6378
  369 629.862 22.1476 -9.75363
  370 629.862 22.1476 -9.75363
  371 958.424 74.8160 28.3005
  372 958.424 74.8160 28.3005
  373 745.995 31.6407 -4.20456
  374 745.995 31.6407 -4.20456
  375 676.105 2.41051 -13.5109
  376 676.105 2.41051 -13.5109
  377 190.200 -89.1032 -131.750
  378 190.200 -89.1032 -131.750
  379 746.201 -13.5895 4.09713
  380 746.201 -13.5895 4.09713
  381 642.046 -1.25229 -52.8594
  382 642.046 -1.25229 -52.8594
  383 738.470 -1.29665 -23.0944
  384 738.470 -1.29665 -23.0944
  385 1128.78 19.4891 -34.0800
  386 1128.78 19.4891 -34.0800
  387 644.431 9.65281 6.08935
  388 644.431 9.65281 6.08935
  389 783.697 39.3344 18.0051
  390 783.697 39.3344 18.0051
  391 838.102 -15.3875 15.3426
  392 838.102 -15.3875 15.3426
  393 646.619 11.3763 -13.7109
  394 646.619 11.3763 -13.7109
  395 1192.97 123.622 -160.425
  396 1192.97 123.622 -160.425
  397 735.536 -11.0640 -8.51031
  398 735.536 -11.0640 -8.51031
</Section>

newXOutput 196

<Section columns = "stress_xx | stress_yy | stress_xy">
  1 650.623 0.642797 -0.674517
  2 650.921 0.788315 0.908568
  3 650.623 0.642797 -0.674517
  4 650.921 0.788315 0.908568
  5 970.489 88.2616 289.830
  6 1006.60 87.2633 -285.324
  7 970.489 88.2616 289.830
  8 1006.60 87.2633 -285.324
  9 652.106 0.444847 -1.77748
  10 657.004 0.777115 -3.17651
  11 664.146 1.74037 -6.49894
  12 680.666 0.620430 -8.81585
  13 702.211 0.953219 -14.7165
  14 727.904 -6.79623 -14.9414
  15 752.378 -8.03649 -2.44677
  16 744.036 -5.37754 10.9555
  17 720.007 6.02168 20.0683
  18 706.778 14.2636 -0.792005
  19 716.217 6.78538 -18.9480
  20 743.464 -8.03748 -13.3129
  21 745.803 -9.77451 5.89278
  22 731.590 -4.46593 12.9436
  23 697.872 0.0196695 14.8691
  24 679.276 2.44531 11.1949
  25 664.605 1.99844 6.23656
  26 657.151 0.626563 2.90723
  27 652.467 0.528650 1.72127
  28 651.774 2.28367 1.05938
  29 650.735 4.65963 1.24140
  30 648.169 8.05869 1.11007
  31 647.147 9.35778 -0.107071
  32 648.443 7.65130 -1.32611
  33 650.271 5.08041 -1.11586
  34 651.068 2.59709 -1.19558
  35 652.106 0.444847 -1.77748
  36 657.004 0.777115 -3.17651
  37 664.146 1.74037 -6.49894
  38 680.666 0.620430 -8.81585
  39 702.211 0.953219 -14.7165
  40 727.904 -6.79623 -14.9414
  41 752.378 -8.03649 -2.44677
  42 744.036 -5.37754 10.9555
  43 720.007 6.02168 20.0683
  44 706.778 14.2636 -0.792005
  45 716.217 6.78538 -18.9480
  46 743.464 -8.03748 -13.3129
  47 745.803 -9.77451 5.89278
  48 731.590 -4.46593 12.9436
  49 697.872 0.0196695 14.8691
  50 679.276 2.44531 11.1949
  51 664.605 1.99844 6.23656
  52 657.151 0.626563 2.90723
  53 652.467 0.528650 1.72127
  54 651.774 2.28367 1.05938
  55 650.735 4.65963 1.24140
  56 648.169 8.05869 1.11007
  57 647.147 9.35778 -0.107071
  58 648.443 7.65130 -1.32611
  59 650.271 5.08041 -1.11586
  60 651.068 2.59709 -1.19558
  61 1333.31 73.2579 142.852
  62 1219.65 19.6246 49.3488
  63 1153.91 7.69202 17.8504
  64 1139.71 5.68751 3.28600
  65 1153.20 7.66196 -15.1942
  66 1203.85 16.7124 -42.5058
  67 1345.96 63.6542 -123.030
  68 182.910 -182.177 -244.068
  69 36.3239 -476.334 -68.1922
  70 8.57698 -554.463 -29.7507
  71 8.27686 -545.835 -13.4485
  72 15.6400 -527.720 31.9252
  73 39.8859 -461.429 72.4469
  74 196.819 -168.196 269.719
  75 1333.31 73.2579 142.852
  76 1219.65 19.6246 49.3488
  77 1153.91 7.69202 17.8504
  78 1139.71 5.68751 3.28600
  79 1153.20 7.66196 -15.1942
  80 1203.85 16.7124 -42.5058
  81 1345.96 63.6542 -123.030
  82 182.910 -182.177 -244.068
  83 36.3239 -476.334 -68.1922
  84 8.57698 -554.463 -29.7507
  85 8.27686 -545.835 -13.4485
  86 15.6400 -527.720 31.9252
  87 39.8859 -461.429 72.4469
  88 196.819 -168.196 269.719
  89 601.617 33.8079 -8.68390
  90 601.617 33.8079 -8.68390
  91 550.141 7.79564 80.0132
  92 528.980 -3.04331 -96.0125
  93 550.141 7.79564 80.0132
  94 528.980 -3.04331 -96.0125
  95 317.907 10.0712 39.1667
  96 317.907 10.0712 39.1667
  97 800.483 52.2292 -10.0332
  98 813.017 31.2821 19.0885
  99 800.483 52.2292 -10.0332
  100 813.017 31.2821 19.0885
  101 642.372 15.1017 8.42681
  102 642.372 15.1017 8.42681
  103 762.153 -43.4343 5.12613
  104 762.153 -43.4343 5.12613
  105 643.059 15.8095 -10.4150
  106 643.059 15.8095 -10.4150
  107 746.363 -93.2059 -88.2644
  108 746.363 -93.2059 -88.2644
  109 526.863 -110.933 216.326
  110 526.863 -110.933 216.326
  111 360.756 -63.9299 -175.507
  112 360.756 -63.9299 -175.507
  113 645.254 10.4886 37.2830
  114 645.254 10.4886 37.2830
  115 667.355 4.16691 -35.8422
  116 667.355 4.16691 -35.8422
  117 897.593 63.2559 16.1912
  118 958.330 61.2276 6.64855
  119 897.593 63.2559 16.1912
  120 958.330 61.2276 6.64855
  121 940.039 81.1297 -30.1692
  122 940.039 81.1297 -30.1692
  123 106.864 -168.363 -60.1038
  124 106.864 -168.363 -60.1038
  125 807.262 -99.0884 98.4991
  126 807.262 -99.0884 98.4991
  127 688.741 -16.9463 43.4152
  128 688.741 -16.9463 43.4152
  129 162.491 -144.864 136.756
  130 162.491 -144.864 136.756
  131 643.222 12.5777 -0.523030
  132 643.222 12.5777 -0.523030
  133 687.311 -32.4673 -55.8096
  134 687.311 -32.4673 -55.8096
  135 652.413 5.16514 6.03275
  136 652.413 5.16514 6.03275
  137 652.900 4.55306 -5.61866
  138 652.900 4.55306 -5.61866
  139 659.636 8.79284 -18.3593
  140 659.636 8.79284 -18.3593
  141 656.848 8.59012 16.4800
  142 656.848 8.59012 16.4800
  143 631.281 21.0935 -0.686947
  144 631.281 21.0935 -0.686947
  145 532.696 34.9791 -4.12024
  146 532.696 34.9791 -4.12024
  147 759.382 -26.9006 7.97911
  148 759.382 -26.9006 7.97911
  149 860.784 -25.7448 -42.7792
  150 860.784 -25.7448 -42.7792
  151 670.293 -75.6610 107.266
  152 670.293 -75.6610 107.266
  153 505.701 -135.871 -246.780
  154 505.701 -135.871 -246.780
  155 602.481 24.3641 35.6489
  156 602.481 24.3641 35.6489
  157 773.139 -3.93952 -23.7287
  158 773.139 -3.93952 -23.7287
  159 1039.24 84.8878 64.2313
  160 1039.24 84.8878 64.2313
  161 526.074 -146.930 283.862
  162 526.074 -146.930 283.862
  163 1057.67 33.8563 -12.4267
  164 1057.67 33.8563 -12.4267
  165 628.852 21.0651 16.2582
  166 628.852 21.0651 16.2582
  167 598.610 20.1906 -52.5032
  168 598.610 20.1906 -52.5032
  169 739.432 23.0076 15.2413
  170 739.432 23.0076 15.2413
  171 623.364 25.2073 -18.5372
  172 623.364 25.2073 -18.5372
  173 646.767 10.0983 2.63910
  174 646.767 10.0983 2.63910
  175 656.449 4.90242 -9.64349
  176 656.449 4.90242 -9.64349
  177 998.303 84.3818 -67.5945
  178 998.303 84.3818 -67.5945
  179 647.219 9.83862 -3.18124
  180 647.219 9.83862 -3.18124
  181 484.478 35.4910 -27.6081
  182 484.478 35.4910 -27.6081
  183 855.653 64.1775 1.33859
  184 855.653 64.1775 1.33859
  185 177.232 -142.261 -175.911
  186 177.232 -142.261 -175.911
  187 475.494 -4.57334 117.395
  188 475.494 -4.57334 117.395
  189 625.310 -102.218 -167.584
  190 625.310 -102.218 -167.584
  191 738.356 -20.6477 10.9391
  192 738.356 -20.6477 10.9391
  193 691.918 -2.62815 26.2164
  194 691.918 -2.62815 26.2164
  195 929.903 33.5773 65.3911
  196 929.903 33.5773 65.3911
  197 399.704 13.7319 -72.8656
  198 399.704 13.7319 -72.8656
  199 1050.20 46.0515 28.9201
  200 1050.20 46.0515 28.9201
  201 704.389 -8.98344 -28.1233
  202 704.389 -8.98344 -28.1233
  203 657.404 3.49107 8.88326
  204 657.404 3.49107 8.88326
  205 732.521 -29.2005 -16.3523
  206 732.521 -29.2005 -16.3523
  207 798.564 -39.1373 -10.9207
  208 798.564 -39.1373 -10.9207
  209 50.6006 -299.277 27.1653
  210 50.6006 -299.277 27.1653
  211 676.679 3.27510 -22.7346
  212 676.679 3.27510 -22.7346
  213 671.354 5.08613 19.7583
  214 671.354 5.08613 19.7583
  215 645.498 -59.8337 -106.001
  216 645.498 -59.8337 -106.001
  217 753.040 -16.0199 -14.2186
  218 753.040 -16.0199 -14.2186
  219 620.994 22.0367 -35.5935
  220 620.994 22.0367 -35.5935
  221 171.041 -208.263 194.409
  222 171.041 -208.263 194.409
  223 764.406 4.38029 22.8382
  224 764.406 4.38029 22.8382
  225 745.267 19.6105 -19.9434
  226 745.267 19.6105 -19.9434
  227 1039.98 61.9417 -50.4633
  228 1039.98 61.9417 -50.4633
  229 801.624 -28.5461 -7.54668
  230 801.624 -28.5461 -7.54668
  231 867.030 -30.5026 -165.849
  232 867.030 -30.5026 -165.849
  233 648.363 -29.4268 80.9112
  234 648.363 -29.4268 80.9112
  235 637.739 17.5770 2.72028
  236 637.739 17.5770 2.72028
  237 342.978 -48.9879 155.116
  238 342.978 -48.9879 155.116
  239 829.666 -65.4593 191.855
  240 829.666 -65.4593 191.855
  241 236.104 -27.2008 -77.2355
  242 236.104 -27.2008 -77.2355
  243 746.397 -56.6010 -39.3019
  244 746.397 -56.6010 -39.3019
  245 615.426 27.2751 20.4291
  246 615.426 27.2751 20.4291
  247 21.1292 -392.978 -22.5293
  248 21.1292 -392.978 -22.5293
  249 42.0964 -342.129 74.2154
  250 42.0964 -342.129 74.2154
  251 625.219 4.23758 57.5412
  252 625.219 4.23758 57.5412
  253 651.719 2.43413 2.16571
  254 651.719 2.43413 2.16571
  255 646.722 10.1532 0.416992
  256 646.722 10.1532 0.416992
  257 607.959 -7.59369 -76.9875
  258 607.959 -7.59369 -76.9875
  259 652.048 2.22550 -2.29470
  260 652.048 2.22550 -2.29470
  261 717.538 -51.0691 50.3671
  262 717.538 -51.0691 50.3671
  263 668.111 2.26682 -10.8367
  264 668.111 2.26682 -10.8367
  265 520.941 -44.2085 -144.690
  266 520.941 -44.2085 -144.690
  267 877.020 68.0384 1.07440
  268 877.020 68.0384 1.07440
  269 645.885 13.9755 -28.7256
  270 645.885 13.9755 -28.7256
  271 643.629 13.0674 -5.59398
  272 643.629 13.0674 -5.59398
  273 551.209 26.6709 -52.6571
  274 551.209 26.6709 -52.6571
  275 171.394 -60.8419 45.1123
  276 171.394 -60.8419 45.1123
  277 683.661 -115.093 150.018
  278 683.661 -115.093 150.018
  279 649.956 9.43312 10.9685
  280 649.956 9.43312 10.9685
  281 952.130 66.8832 -16.8355
  282 952.130 66.8832 -16.8355
  283 1123.41 104.781 140.014
  284 1123.41 104.781 140.014
  285 766.882 -81.8198 52.4544
  286 766.882 -81.8198 52.4544
  287 561.915 27.8888 38.4243
  288 561.915 27.8888 38.4243
  289 700.661 -141.238 198.385
  290 700.661 -141.238 198.385
  291 726.155 -8.82960 18.4243
  292 726.155 -8.82960 18.4243
  293 649.558 6.20637 2.97551
  294 649.558 6.20637 2.97551
  295 641.079 17.1994 -18.1186
  296 641.079 17.1994 -18.1186
  297 646.864 9.99299 -0.817581
  298 646.864 9.99299 -0.817581
  299 655.288 1.77333 -4.15800
  300 655.288 1.77333 -4.15800
  301 667.599 3.20107 10.8774
  302 667.599 3.20107 10.8774
  303 637.888 17.4880 -4.62104
  304 637.888 17.4880 -4.62104
  305 146.370 -242.468 -185.844
  306 146.370 -242.468 -185.844
  307 444.482 29.3545 36.1964
  308 444.482 29.3545 36.1964
  309 650.179 5.18921 -2.85336
  310 650.179 5.18921 -2.85336
  311 577.117 32.8148 -25.6925
  312 577.117 32.8148 -25.6925
  313 578.635 35.7700 9.73553
  314 578.635 35.7700 9.73553
  315 648.962 9.07039 -7.74440
  316 648.962 9.07039 -7.74440
  317 862.515 48.5250 -9.85738
  318 862.515 48.5250 -9.85738
  319 644.496 15.2384 25.0461
  320 644.496 15.2384 25.0461
  321 816.861 27.3544 -16.4870
  322 816.861 27.3544 -16.4870
  323 1175.62 32.6619 80.8447
  324 1175.62 32.6619 80.8447
  325 642.315 15.7692 15.6100
  326 642.315 15.7692 15.6100
  327 632.903 20.8974 8.16666
  328 632.903 20.8974 8.16666
  329 487.805 -89.9011 -286.671
  330 487.805 -89.9011 -286.671
  331 655.665 1.60194 4.06617
  332 655.665 1.60194 4.06617
  333 643.077 13.1583 4.18414
  334 643.077 13.1583 4.18414
  335 620.963 27.2094 0.940268
  336 620.963 27.2094 0.940268
  337 323.185 -113.215 228.596
  338 323.185 -113.215 228.596
  339 795.994 52.7121 2.94387
  340 795.994 52.7121 2.94387
  341 45.1671 -334.673 -84.7859
  342 45.1671 -334.673 -84.7859
  343 504.110 31.7382 31.9685
  344 504.110 31.7382 31.9685
  345 1113.87 14.5663 10.6782
  346 1113.87 14.5663 10.6782
  347 1163.79 60.4218 -83.9161
  348 1163.79 60.4218 -83.9161
  349 561.372 -65.4639 161.965
  350 586.158 -33.5049 118.876
  351 561.372 -65.4639 161.965
  352 586.158 -33.5049 118.876
  353 1130.18 27.2892 41.5868
  354 1130.18 27.2892 41.5868
  355 663.737 -1.16355 44.8353
  356 663.737 -1.16355 44.8353
  357 776.723 -105.145 -119.044
  358 776.723 -105.145 -119.044
  359 746.088 -6.19010 19.2524
  360 746.088 -6.19010 19.2524
  361 497.038 -90.9051 312.141
  362 497.038 -90.9051 312.141
  363 868.333 69.5528 -2.16607
  364 868.333 69.5528 -2.16607
  365 1127.32 9.79801 -8.59099
  366 1127.32 9.79801 -8.59099
  367 703.617 0.0704271 -21.7362
  368 703.617 0.0704271 -21.7362
  369 632.879 22.2481 -9.79550
  370 632.879 22.2481 -9.79550
  371 962.855 75.1669 28.4699
  372 962.855 75.1669 28.4699
  373 749.561 31.7973 -4.21900
  374 749.561 31.7973 -4.21900
  375 679.302 2.42019 -13.5688
  376 679.302 2.42019 -13.5688
  377 191.167 -89.5013 -132.440
  378 191.167 -89.5013 -132.440
  379 749.715 -13.6553 4.09796
  380 749.715 -13.6553 4.09796
  381 645.105 -1.26077 -53.1069
  382 645.105 -1.26077 -53.1069
  383 741.983 -1.30019 -23.1753
  384 741.983 -1.30019 -23.1753
  385 1133.81 19.5718 -34.2307
  386 1133.81 19.5718 -34.2307
  387 647.504 9.69587 6.11437
  388 647.504 9.69587 6.11437
  389 787.410 39.5328 18.0541
  390 787.410 39.5328 18.0541
  391 841.998 -15.4294 15.4899
  392 841.998 -15.4294 15.4899
  393 649.701 11.4274 -13.7686
  394 649.701 11.4274 -13.7686
  395 1198.27 124.297 -161.225
  396 1198.27 124.297 -161.225
  397 738.991 -11.1199 -8.55891
  398 738.991 -11.1199 -8.55891
</Section>

newXOutput 197

<Section columns = "stress_xx | stress_yy | stress_xy">
  1 653.705 0.645931 -0.677129
  2 654.004 0.792060 0.912075
  3 653.705 0.645931 -0.677129
  4 654.004 0.792060 0.912075
  5 974.758 88.9080 291.280
  6 1011.01 87.9135 -286.754
  7 974.758 88.9080 291.280
  8 1011.01 87.9135 -286.754
  9 655.193 0.446928 -1.78445
  10 660.110 0.780643 -3.18915
  11 667.279 1.74803 -6.52538
  12 683.864 0.622833 -8.85262
  13 705.496 0.956059 -14.7809
  14 731.299 -6.83141 -15.0115
  15 755.886 -8.07655 -2.46567
  16 747.539 -5.40284 10.9909
  17 723.439 6.05478 20.1420
  18 710.170 14.3365 -0.795005
  19 719.635 6.81950 -19.0189
  20 746.967 -8.07572 -13.3555
  21 749.284 -9.82341 5.92929
  22 735.001 -4.48881 13.0051
  23 701.142 0.0175686 14.9349
  24 682.469 2.45560 11.2420
  25 667.740 2.00726 6.26183
  26 660.258 0.629429 2.91877
  27 655.556 0.531152 1.72807
  28 654.861 2.29398 1.06345
  29 653.817 4.68038 1.24627
  30 651.243 8.09415 1.11449
  31 650.217 9.39881 -0.107491
  32 651.518 7.68503 -1.33134
  33 653.352 5.10304 -1.12009
  34 654.152 2.60890 -1.20028
  35 655.193 0.446928 -1.78445
  36 660.110 0.780643 -3.18915
  37 667.279 1.74803 -6.52538
  38 683.864 0.622833 -8.85262
  39 705.496 0.956059 -14.7809
  40 731.299 -6.83141 -15.0115
  41 755.886 -8.07655 -2.46567
  42 747.539 -5.40284 10.9909
  43 723.439 6.05478 20.1420
  44 710.170 14.3365 -0.795005
  45 719.635 6.81950 -19.0189
  46 746.967 -8.07572 -13.3555
  47 749.284 -9.82341 5.92929
  48 735.001 -4.48881 13.0051
  49 701.142 0.0175686 14.9349
  50 682.469 2.45560 11.2420
  51 667.740 2.00726 6.26183
  52 660.258 0.629429 2.91877
  53 655.556 0.531152 1.72807
  54 654.861 2.29398 1.06345
  55 653.817 4.68038 1.24627
  56 651.243 8.09415 1.11449
  57 650.217 9.39881 -0.107491
  58 651.518 7.68503 -1.33134
  59 653.352 5.10304 -1.12009
  60 654.152 2.60890 -1.20028
  61 1339.08 73.6142 143.500
  62 1224.97 19.7069 49.5606
  63 1158.99 7.71913 17.9233
  64 1144.73 5.70902 3.29725
  65 1158.27 7.69232 -15.2558
  66 1209.11 16.7814 -42.6852
  67 1351.78 63.9627 -123.588
  68 183.746 -182.797 -245.364
  69 36.4920 -478.626 -68.6144
  70 8.59875 -557.264 -29.9353
  71 8.29904 -548.607 -13.5162
  72 15.7011 -530.366 32.1241
  73 40.0755 -463.647 72.8976
  74 197.704 -168.751 271.144
  75 1339.08 73.6142 143.500
  76 1224.97 19.7069 49.5606
  77 1158.99 7.71913 17.9233
  78 1144.73 5.70902 3.29725
  79 1158.27 7.69232 -15.2558
  80 1209.11 16.7814 -42.6852
  81 1351.78 63.9627 -123.588
  82 183.746 -182.797 -245.364
  83 36.4920 -478.626 -68.6144
  84 8.59875 -557.264 -29.9353
  85 8.29904 -548.607 -13.5162
  86 15.7011 -530.366 32.1241
  87 40.0755 -463.647 72.8976
  88 197.704 -168.751 271.144
  89 604.503 33.9639 -8.72277
  90 604.503 33.9639 -8.72277
  91 552.789 7.83464 80.3877
  92 531.529 -3.05579 -96.4674
  93 552.789 7.83464 80.3877
  94 531.529 -3.05579 -96.4674
  95 319.500 10.1402 39.3581
  96 319.500 10.1402 39.3581
  97 804.257 52.4831 -10.0573
  98 816.823 31.4484 19.1215
  99 804.257 52.4831 -10.0573
  100 816.823 31.4484 19.1215
  101 645.424 15.1691 8.46192
  102 645.424 15.1691 8.46192
  103 765.713 -43.6380 5.19156
  104 765.713 -43.6380 5.19156
  105 646.114 15.8803 -10.4586
  106 646.114 15.8803 -10.4586
  107 749.823 -93.6500 -88.7165
  108 749.823 -93.6500 -88.7165
  109 529.351 -111.471 217.396
  110 529.351 -111.471 217.396
  111 362.508 -64.2293 -176.385
  112 362.508 -64.2293 -176.385
  113 648.315 10.5348 37.4504
  114 648.315 10.5348 37.4504
  115 670.506 4.18296 -36.0051
  116 670.506 4.18296 -36.0051
  117 901.751 63.5796 16.3373
  118 962.736 61.5011 6.69008
  119 901.751 63.5796 16.3373
  120 962.736 61.5011 6.69008
  121 944.378 81.5231 -30.3621
  122 944.378 81.5231 -30.3621
  123 107.398 -169.130 -60.4313
  124 107.398 -169.130 -60.4313
  125 810.970 -99.5312 99.0328
  126 810.970 -99.5312 99.0328
  127 691.981 -17.0295 43.6247
  128 691.981 -17.0295 43.6247
  129 163.297 -145.519 137.487
  130 163.297 -145.519 137.487
  131 646.277 12.6335 -0.525106
  132 646.277 12.6335 -0.525106
  133 690.541 -32.6245 -56.0835
  134 690.541 -32.6245 -56.0835
  135 655.503 5.18819 6.05717
  136 655.503 5.18819 6.05717
  137 655.991 4.57349 -5.64130
  138 655.991 4.57349 -5.64130
  139 662.755 8.83153 -18.4377
  140 662.755 8.83153 -18.4377
  141 659.955 8.62817 16.5498
  142 659.955 8.62817 16.5498
  143 634.289 21.1884 -0.690024
  144 634.289 21.1884 -0.690024
  145 535.284 35.1452 -4.13977
  146 535.284 35.1452 -4.13977
  147 762.939 -27.0247 7.98052
  148 762.939 -27.0247 7.98052
  149 864.746 -25.8183 -43.0664
  150 864.746 -25.8183 -43.0664
  151 673.433 -76.0255 107.791
  152 673.433 -76.0255 107.791
  153 508.061 -136.497 -248.038
  154 508.061 -136.497 -248.038
  155 605.366 24.4773 35.8104
  156 605.366 24.4773 35.8104
  157 776.765 -3.94982 -23.7952
  158 776.765 -3.94982 -23.7952
  159 1043.96 85.2969 64.5696
  160 1043.96 85.2969 64.5696
  161 528.523 -147.622 285.293
  162 528.523 -147.622 285.293
  163 1062.43 33.9980 -12.4856
  164 1062.43 33.9980 -12.4856
  165 631.850 21.1602 16.3285
  166 631.850 21.1602 16.3285
  167 601.475 20.2850 -52.7447
  168 601.475 20.2850 -52.7447
  169 742.951 23.1245 15.2956
  170 742.951 23.1245 15.2956
  171 626.339 25.3220 -18.6181
  172 626.339 25.3220 -18.6181
  173 649.835 10.1429 2.64979
  174 649.835 10.1429 2.64979
  175 659.553 4.92411 -9.68317
  176 659.553 4.92411 -9.68317
  177 1002.85 84.8267 -67.9864
  178 1002.85 84.8267 -67.9864
  179 650.289 9.88219 -3.19407
  180 650.289 9.88219 -3.19407
  181 486.847 35.6650 -27.7380
  182 486.847 35.6650 -27.7380
  183 859.651 64.4874 1.30541
  184 859.651 64.4874 1.30541
  185 178.100 -142.905 -176.845
  186 178.100 -142.905 -176.845
  187 477.798 -4.59034 117.957
  188 477.798 -4.59034 117.957
  189 628.237 -102.711 -168.411
  190 628.237 -102.711 -168.411
  191 741.813 -20.7483 11.0091
  192 741.813 -20.7483 11.0091
  193 695.168 -2.64360 26.3368
  194 695.168 -2.64360 26.3368
  195 934.159 33.7970 65.7890
  196 934.159 33.7970 65.7890
  197 401.674 13.8097 -73.2178
  198 401.674 13.8097 -73.2178
  199 1054.95 46.2509 29.0618
  200 1054.95 46.2509 29.0618
  201 707.694 -9.02934 -28.2586
  202 707.694 -9.02934 -28.2586
  203 660.513 3.50640 8.91971
  204 660.513 3.50640 8.91971
  205 735.951 -29.3430 -16.4496
  206 735.951 -29.3430 -16.4496
  207 802.276 -39.3081 -11.0297
  208 802.276 -39.3081 -11.0297
  209 50.8450 -300.713 27.3205
  210 50.8450 -300.713 27.3205
  211 679.865 3.28746 -22.8348
  212 679.865 3.28746 -22.8348
  213 674.519 5.10799 19.8441
  214 674.519 5.10799 19.8441
  215 648.537 -60.1219 -106.516
  216 648.537 -60.1219 -106.516
  217 756.575 -16.0956 -14.2541
  218 756.575 -16.0956 -14.2541
  219 623.956 22.1379 -35.7542
  220 623.956 22.1379 -35.7542
  221 171.853 -209.196 195.458
  222 171.853 -209.196 195.458
  223 768.007 4.41126 22.9072
  224 768.007 4.41126 22.9072
  225 748.804 19.7109 -20.0115
  226 748.804 19.7109 -20.0115
  227 1044.69 62.2213 -50.7203
  228 1044.69 62.2213 -50.7203
  229 805.353 -28.6661 -7.52324
  230 805.353 -28.6661 -7.52324
  231 870.972 -30.5491 -166.733
  232 870.972 -30.5491 -166.733
  233 651.424 -29.5680 81.2962
  234 651.424 -29.5680 81.2962
  235 640.774 17.6556 2.73171
  236 640.774 17.6556 2.73171
  237 344.655 -49.2121 155.889
  238 344.655 -49.2121 155.889
  239 833.437 -65.6885 192.858
  240 833.437 -65.6885 192.858
  241 237.294 -27.3013 -77.6262
  242 237.294 -27.3013 -77.6262
  243 749.876 -56.8712 -39.5187
  244 749.876 -56.8712 -39.5187
  245 618.368 27.4002 20.5195
  246 618.368 27.4002 20.5195
  247 21.2202 -394.900 -22.6627
  248 21.2202 -394.900 -22.6627
  249 42.2940 -343.765 74.6494
  250 42.2940 -343.765 74.6494
  251 628.193 4.25644 57.8074
  252 628.193 4.25644 57.8074
  253 654.806 2.44512 2.17428
  254 654.806 2.44512 2.17428
  255 649.791 10.1979 0.418700
  256 649.791 10.1979 0.418700
  257 610.854 -7.63085 -77.3496
  258 610.854 -7.63085 -77.3496
  259 655.135 2.23565 -2.30378
  260 655.135 2.23565 -2.30378
  261 720.894 -51.3141 50.6259
  262 720.894 -51.3141 50.6259
  263 671.261 2.27648 -10.8818
  264 671.261 2.27648 -10.8818
  265 523.432 -44.4213 -145.390
  266 523.432 -44.4213 -145.390
  267 881.106 68.3637 1.11858
  268 881.106 68.3637 1.11858
  269 648.950 14.0379 -28.8521
  270 648.950 14.0379 -28.8521
  271 646.686 13.1255 -5.61694
  272 646.686 13.1255 -5.61694
  273 553.871 26.7984 -52.9014
  274 553.871 26.7984 -52.9014
  275 172.264 -61.0903 45.3471
  276 172.264 -61.0903 45.3471
  277 686.839 -115.646 150.764
  278 686.839 -115.646 150.764
  279 653.037 9.47512 11.0139
  280 653.037 9.47512 11.0139
  281 956.514 67.1867 -16.9326
  282 956.514 67.1867 -16.9326
  283 1128.41 105.341 140.721
  284 1128.41 105.341 140.721
  285 770.439 -82.2034 52.7489
  286 770.439 -82.2034 52.7489
  287 564.626 28.0210 38.6003
  288 564.626 28.0210 38.6003
  289 703.890 -141.910 199.377
  290 703.890 -141.910 199.377
  291 729.551 -8.87412 18.5156
  292 729.551 -8.87412 18.5156
  293 652.636 6.23390 2.98743
  294 652.636 6.23390 2.98743
  295 644.125 17.2767 -18.1961
  296 644.125 17.2767 -18.1961
  297 649.933 10.0370 -0.820859
  298 649.933 10.0370 -0.820859
  299 658.388 1.78130 -4.17468
  300 658.388 1.78130 -4.17468
  301 670.747 3.21495 10.9226
  302 670.747 3.21495 10.9226
  303 640.923 17.5662 -4.64041
  304 640.923 17.5662 -4.64041
  305 147.060 -243.547 -186.856
  306 147.060 -243.547 -186.856
  307 446.667 29.5028 36.3674
  308 446.667 29.5028 36.3674
  309 653.260 5.21234 -2.86472
  310 653.260 5.21234 -2.86472
  311 579.897 32.9682 -25.8096
  312 579.897 32.9682 -25.8096
  313 581.423 35.9370 9.77924
  314 581.423 35.9370 9.77924
  315 652.038 9.11076 -7.77614
  316 652.038 9.11076 -7.77614
  317 866.520 48.7854 -9.97603
  318 866.520 48.7854 -9.97603
  319 647.556 15.3068 25.1549
  320 647.556 15.3068 25.1549
  321 820.680 27.5015 -16.5086
  322 820.680 27.5015 -16.5086
  323 1180.82 32.7992 81.2184
  324 1180.82 32.7992 81.2184
  325 645.367 15.8399 15.6763
  326 645.367 15.8399 15.6763
  327 635.918 20.9914 8.20134
  328 635.918 20.9914 8.20134
  329 490.034 -90.1419 -288.159
  330 490.034 -90.1419 -288.159
  331 658.766 1.60912 4.08247
  332 658.766 1.60912 4.08247
  333 646.132 13.2167 4.20136
  334 646.132 13.2167 4.20136
  335 623.930 27.3332 0.944320
  336 623.930 27.3332 0.944320
  337 324.746 -113.752 229.766
  338 324.746 -113.752 229.766
  339 799.752 52.9675 2.94832
  340 799.752 52.9675 2.94832
  341 45.3738 -336.270 -85.2702
  342 45.3738 -336.270 -85.2702
  343 506.569 31.8920 32.1166
  344 506.569 31.8920 32.1166
  345 1118.82 14.6246 10.7226
  346 1118.82 14.6246 10.7226
  347 1168.96 60.7054 -84.3099
  348 1168.96 60.7054 -84.3099
  349 564.031 -65.7811 162.750
  350 588.945 -33.6654 119.441
  351 564.031 -65.7811 162.750
  352 588.945 -33.6654 119.441
  353 1135.20 27.4013 41.7722
  354 1135.20 27.4013 41.7722
  355 666.874 -1.17152 45.0422
  356 666.874 -1.17152 45.0422
  357 780.294 -105.632 -119.664
  358 780.294 -105.632 -119.664
  359 749.605 -6.21655 19.3176
  360 749.605 -6.21655 19.3176
  361 499.288 -91.1617 313.745
  362 499.288 -91.1617 313.745
  363 872.390 69.8775 -2.17435
  364 872.390 69.8775 -2.17435
  365 1132.30 9.83654 -8.62833
  366 1132.30 9.83654 -8.62833
  367 706.913 0.0678064 -21.8345
  368 706.913 0.0678064 -21.8345
  369 635.894 22.3485 -9.83730
  370 635.894 22.3485 -9.83730
  371 967.281 75.5173 28.6395
  372 967.281 75.5173 28.6395
  373 753.124 31.9538 -4.23338
  374 753.124 31.9538 -4.23338
  375 682.496 2.42985 -13.6266
  376 682.496 2.42985 -13.6266
  377 192.135 -89.8989 -133.131
  378 192.135 -89.8989 -133.131
  379 753.226 -13.7211 4.09862
  380 753.226 -13.7211 4.09862
  381 648.163 -1.26926 -53.3542
  382 648.163 -1.26926 -53.3542
  383 745.492 -1.30370 -23.2559
  384 745.492 -1.30370 -23.2559
  385 1138.84 19.6543 -34.3812
  386 1138.84 19.6543 -34.3812
  387 650.576 9.73887 6.13934
  388 650.576 9.73887 6.13934
  389 791.120 39.7311 18.1028
  390 791.120 39.7311 18.1028
  391 845.890 -15.4709 15.6378
  392 845.890 -15.4709 15.6378
  393 652.781 11.4784 -13.8262
  394 652.781 11.4784 -13.8262
  395 1203.56 124.973 -162.025
  396 1203.56 124.973 -162.025
  397 742.442 -11.1757 -8.60755
  398 742.442 -11.1757 -8.60755
</Section>

newXOutput 198

<Section columns = "stress_xx | stress_yy | stress_xy">
  1 656.785 0.649064 -0.679734
  2 657.085 0.795802 0.915573
  3 656.785 0.649064 -0.679734
  4 657.085 0.795802 0.915573
  5 979.020 89.5561 292.730
  6 1015.41 88.5656 -288.183
  7 979.020 89.5561 292.730
  8 1015.41 88.5656 -288.183
  9 658.279 0.449007 -1.79140
  10 663.213 0.784165 -3.20176
  11 670.410 1.75569 -6.55175
  12 687.059 0.625230 -8.88932
  13 708.779 0.958882 -14.8451
  14 734.691 -6.86658 -15.0816
  15 759.392 -8.11661 -2.48462
  16 751.039 -5.42812 11.0262
  17 726.869 6.08790 20.2155
  18 713.560 14.4093 -0.797994
  19 723.051 6.85362 -19.0896
  20 750.466 -8.11393 -13.3977
  21 752.762 -9.87229 5.96585
  22 738.409 -4.51168 13.0665
  23 704.408 0.0154488 15.0006
  24 685.660 2.46587 11.2889
  25 670.873 2.01607 6.28704
  26 663.362 0.632292 2.93027
  27 658.643 0.533652 1.73485
  28 657.945 2.30428 1.06751
  29 656.898 4.70110 1.25114
  30 654.314 8.12956 1.11890
  31 653.285 9.43978 -0.107909
  32 654.590 7.71872 -1.33655
  33 656.430 5.12564 -1.12432
  34 657.233 2.62069 -1.20497
  35 658.279 0.449007 -1.79140
  36 663.213 0.784165 -3.20176
  37 670.410 1.75569 -6.55175
  38 687.059 0.625230 -8.88932
  39 708.779 0.958882 -14.8451
  40 734.691 -6.86658 -15.0816
  41 759.392 -8.11661 -2.48462
  42 751.039 -5.42812 11.0262
  43 726.869 6.08790 20.2155
  44 713.560 14.4093 -0.797994
  45 723.051 6.85362 -19.0896
  46 750.466 -8.11393 -13.3977
  47 752.762 -9.87229 5.96585
  48 738.409 -4.51168 13.0665
  49 704.408 0.0154488 15.0006
  50 685.660 2.46587 11.2889
  51 670.873 2.01607 6.28704
  52 663.362 0.632292 2.93027
  53 658.643 0.533652 1.73485
  54 657.945 2.30428 1.06751
  55 656.898 4.70110 1.25114
  56 654.314 8.12956 1.11890
  57 653.285 9.43978 -0.107909
  58 654.590 7.71872 -1.33655
  59 656.430 5.12564 -1.12432
  60 657.233 2.62069 -1.20497
  61 1344.84 73.9703 144.147
  62 1230.28 19.7892 49.7721
  63 1164.05 7.74615 17.9960
  64 1149.74 5.73048 3.30845
  65 1163.33 7.72261 -15.3173
  66 1214.37 16.8503 -42.8642
  67 1357.59 64.2711 -124.145
  68 184.582 -183.414 -246.661
  69 36.6600 -480.916 -69.0374
  70 8.62031 -560.064 -30.1202
  71 8.32103 -551.378 -13.5838
  72 15.7620 -533.011 32.3234
  73 40.2649 -465.864 73.3490
  74 198.587 -169.304 272.569
  75 1344.84 73.9703 144.147
  76 1230.28 19.7892 49.7721
  77 1164.05 7.74615 17.9960
  78 1149.74 5.73048 3.30845
  79 1163.33 7.72261 -15.3173
  80 1214.37 16.8503 -42.8642
  81 1357.59 64.2711 -124.145
  82 184.582 -183.414 -246.661
  83 36.6600 -480.916 -69.0374
  84 8.62031 -560.064 -30.1202
  85 8.32103 -551.378 -13.5838
  86 15.7620 -533.011 32.3234
  87 40.2649 -465.864 73.3490
  88 198.587 -169.304 272.569
  89 607.387 34.1196 -8.76159
  90 607.387 34.1196 -8.76159
  91 555.434 7.87363 80.7620
  92 534.076 -3.06824 -96.9219
  93 555.434 7.87363 80.7620
  94 534.076 -3.06824 -96.9219
  95 321.094 10.2094 39.5494
  96 321.094 10.2094 39.5494
  97 808.027 52.7369 -10.0811
  98 820.625 31.6146 19.1540
  99 808.027 52.7369 -10.0811
  100 820.625 31.6146 19.1540
  101 648.474 15.2364 8.49696
  102 648.474 15.2364 8.49696
  103 769.269 -43.8414 5.25733
  104 769.269 -43.8414 5.25733
  105 649.166 15.9510 -10.5021
  106 649.166 15.9510 -10.5021
  107 753.280 -94.0938 -89.1685
  108 753.280 -94.0938 -89.1685
  109 531.837 -112.009 218.465
  110 531.837 -112.009 218.465
  111 364.258 -64.5284 -177.263
  112 364.258 -64.5284 -177.263
  113 651.373 10.5810 37.6176
  114 651.373 10.5810 37.6176
  115 673.655 4.19897 -36.1679
  116 673.655 4.19897 -36.1679
  117 905.905 63.9032 16.4839
  118 967.137 61.7742 6.73165
  119 905.905 63.9032 16.4839
  120 967.137 61.7742 6.73165
  121 948.712 81.9162 -30.5554
  122 948.712 81.9162 -30.5554
  123 107.930 -169.897 -60.7589
  124 107.930 -169.897 -60.7589
  125 814.675 -99.9733 99.5666
  126 814.675 -99.9733 99.5666
  127 695.218 -17.1128 43.8340
  128 695.218 -17.1128 43.8340
  129 164.104 -146.174 138.218
  130 164.104 -146.174 138.218
  131 649.330 12.6891 -0.527176
  132 649.330 12.6891 -0.527176
  133 693.768 -32.7817 -56.3572
  134 693.768 -32.7817 -56.3572
  135 658.590 5.21121 6.08152
  136 658.590 5.21121 6.08152
  137 659.079 4.59389 -5.66387
  138 659.079 4.59389 -5.66387
  139 665.871 8.87016 -18.5160
  140 665.871 8.87016 -18.5160
  141 663.060 8.66616 16.6194
  142 663.060 8.66616 16.6194
  143 637.296 21.2832 -0.693096
  144 637.296 21.2832 -0.693096
  145 537.871 35.3112 -4.15929
  146 537.871 35.3112 -4.15929
  147 766.492 -27.1486 7.98159
  148 766.492 -27.1486 7.98159
  149 868.704 -25.8913 -43.3542
  150 868.704 -25.8913 -43.3542
  151 676.570 -76.3898 108.315
  152 676.570 -76.3898 108.315
  153 510.419 -137.122 -249.297
  154 510.419 -137.122 -249.297
  155 608.249 24.5905 35.9716
  156 608.249 24.5905 35.9716
  157 780.388 -3.96003 -23.8613
  158 780.388 -3.96003 -23.8613
  159 1048.67 85.7056 64.9080
  160 1048.67 85.7056 64.9080
  161 530.969 -148.313 286.723
  162 530.969 -148.313 286.723
  163 1067.19 34.1396 -12.5445
  164 1067.19 34.1396 -12.5445
  165 634.846 21.2552 16.3987
  166 634.846 21.2552 16.3987
  167 604.338 20.3793 -52.9859
  168 604.338 20.3793 -52.9859
  169 746.467 23.2413 15.3498
  170 746.467 23.2413 15.3498
  171 629.313 25.4365 -18.6990
  172 629.313 25.4365 -18.6990
  173 652.902 10.1875 2.66046
  174 652.902 10.1875 2.66046
  175 662.656 4.94577 -9.72277
  176 662.656 4.94577 -9.72277
  177 1007.39 85.2717 -68.3786
  178 1007.39 85.2717 -68.3786
  179 653.357 9.92571 -3.20686
  180 653.357 9.92571 -3.20686
  181 489.215 35.8390 -27.8678
  182 489.215 35.8390 -27.8678
  183 863.646 64.7971 1.27192
  184 863.646 64.7971 1.27192
  185 178.967 -143.548 -177.780
  186 178.967 -143.548 -177.780
  187 480.101 -4.60729 118.518
  188 480.101 -4.60729 118.518
  189 631.162 -103.205 -169.238
  190 631.162 -103.205 -169.238
  191 745.267 -20.8489 11.0792
  192 745.267 -20.8489 11.0792
  193 698.416 -2.65907 26.4570
  194 698.416 -2.65907 26.4570
  195 938.411 34.0171 66.1873
  196 938.411 34.0171 66.1873
  197 403.644 13.8875 -73.5698
  198 403.644 13.8875 -73.5698
  199 1059.68 46.4501 29.2033
  200 1059.68 46.4501 29.2033
  201 710.996 -9.07524 -28.3937
  202 710.996 -9.07524 -28.3937
  203 663.619 3.52171 8.95608
  204 663.619 3.52171 8.95608
  205 739.377 -29.4853 -16.5470
  206 739.377 -29.4853 -16.5470
  207 805.984 -39.4787 -11.1392
  208 805.984 -39.4787 -11.1392
  209 51.0892 -302.147 27.4759
  210 51.0892 -302.147 27.4759
  211 683.050 3.29979 -22.9348
  212 683.050 3.29979 -22.9348
  213 677.682 5.12980 19.9298
  214 677.682 5.12980 19.9298
  215 651.574 -60.4099 -107.031
  216 651.574 -60.4099 -107.031
  217 760.108 -16.1712 -14.2893
  218 760.108 -16.1712 -14.2893
  219 626.916 22.2390 -35.9147
  220 626.916 22.2390 -35.9147
  221 172.664 -210.127 196.508
  222 172.664 -210.127 196.508
  223 771.605 4.44232 22.9758
  224 771.605 4.44232 22.9758
  225 752.339 19.8114 -20.0792
  226 752.339 19.8114 -20.0792
  227 1049.40 62.5006 -50.9772
  228 1049.40 62.5006 -50.9772
  229 809.078 -28.7857 -7.49925
  230 809.078 -28.7857 -7.49925
  231 874.908 -30.5945 -167.617
  232 874.908 -30.5945 -167.617
  233 654.482 -29.7091 81.6810
  234 654.482 -29.7091 81.6810
  235 643.806 17.7341 2.74312
  236 643.806 17.7341 2.74312
  237 346.332 -49.4361 156.662
  238 346.332 -49.4361 156.662
  239 837.203 -65.9168 193.860
  240 837.203 -65.9168 193.860
  241 238.483 -27.4014 -78.0167
  242 238.483 -27.4014 -78.0167
  243 753.352 -57.1412 -39.7355
  244 753.352 -57.1412 -39.7355
  245 621.308 27.5251 20.6099
  246 621.308 27.5251 20.6099
  247 21.3109 -396.822 -22.7963
  248 21.3109 -396.822 -22.7963
  249 42.4915 -345.400 75.0838
  250 42.4915 -345.400 75.0838
  251 631.164 4.27528 58.0733
  252 631.164 4.27528 58.0733
  253 657.890 2.45610 2.18282
  254 657.890 2.45610 2.18282
  255 652.857 10.2424 0.420404
  256 652.857 10.2424 0.420404
  257 613.748 -7.66800 -77.7114
  258 613.748 -7.66800 -77.7114
  259 658.220 2.24578 -2.31284
  260 658.220 2.24578 -2.31284
  261 724.247 -51.5590 50.8847
  262 724.247 -51.5590 50.8847
  263 674.408 2.28612 -10.9268
  264 674.408 2.28612 -10.9268
  265 525.922 -44.6341 -146.090
  266 525.922 -44.6341 -146.090
  267 885.188 68.6889 1.16307
  268 885.188 68.6889 1.16307
  269 652.012 14.1002 -28.9784
  270 652.012 14.1002 -28.9784
  271 649.740 13.1836 -5.63985
  272 649.740 13.1836 -5.63985
  273 556.531 26.9258 -53.1454
  274 556.531 26.9258 -53.1454
  275 173.133 -61.3382 45.5820
  276 173.133 -61.3382 45.5820
  277 690.013 -116.200 151.510
  278 690.013 -116.200 151.510
  279 656.115 9.51705 11.0592
  280 656.115 9.51705 11.0592
  281 960.893 67.4898 -17.0298
  282 960.893 67.4898 -17.0298
  283 1133.42 105.902 141.427
  284 1133.42 105.902 141.427
  285 773.992 -82.5866 53.0437
  286 773.992 -82.5866 53.0437
  287 567.335 28.1530 38.7760
  288 567.335 28.1530 38.7760
  289 707.116 -142.582 200.369
  290 707.116 -142.582 200.369
  291 732.944 -8.91863 18.6068
  292 732.944 -8.91863 18.6068
  293 655.712 6.26138 2.99933
  294 655.712 6.26138 2.99933
  295 647.169 17.3539 -18.2734
  296 647.169 17.3539 -18.2734
  297 653.000 10.0808 -0.824129
  298 653.000 10.0808 -0.824129
  299 661.485 1.78925 -4.19132
  300 661.485 1.78925 -4.19132
  301 673.893 3.22880 10.9677
  302 673.893 3.22880 10.9677
  303 643.955 17.6444 -4.65974
  304 643.955 17.6444 -4.65974
  305 147.749 -244.624 -187.870
  306 147.749 -244.624 -187.870
  307 448.851 29.6510 36.5383
  308 448.851 29.6510 36.5383
  309 656.338 5.23544 -2.87606
  310 656.338 5.23544 -2.87606
  311 582.675 33.1214 -25.9266
  312 582.675 33.1214 -25.9266
  313 584.208 36.1039 9.82290
  314 584.208 36.1039 9.82290
  315 655.112 9.15107 -7.80781
  316 655.112 9.15107 -7.80781
  317 870.521 49.0460 -10.0952
  318 870.521 49.0460 -10.0952
  319 650.613 15.3752 25.2636
  320 650.613 15.3752 25.2636
  321 824.495 27.6485 -16.5296
  322 824.495 27.6485 -16.5296
  323 1186.01 32.9363 81.5917
  324 1186.01 32.9363 81.5917
  325 648.416 15.9105 15.7424
  326 648.416 15.9105 15.7424
  327 638.931 21.0852 8.23596
  328 638.931 21.0852 8.23596
  329 492.261 -90.3805 -289.647
  330 492.261 -90.3805 -289.647
  331 661.865 1.61630 4.09873
  332 661.865 1.61630 4.09873
  333 649.185 13.2750 4.21855
  334 649.185 13.2750 4.21855
  335 626.894 27.4568 0.948365
  336 626.894 27.4568 0.948365
  337 326.306 -114.288 230.936
  338 326.306 -114.288 230.936
  339 803.506 53.2228 2.95267
  340 803.506 53.2228 2.95267
  341 45.5803 -337.866 -85.7549
  342 45.5803 -337.866 -85.7549
  343 509.026 32.0458 32.2647
  344 509.026 32.0458 32.2647
  345 1123.75 14.6827 10.7669
  346 1123.75 14.6827 10.7669
  347 1174.12 60.9888 -84.7033
  348 1174.12 60.9888 -84.7033
  349 566.689 -66.0981 163.534
  350 591.729 -33.8258 120.005
  351 566.689 -66.0981 163.534
  352 591.729 -33.8258 120.005
  353 1140.21 27.5131 41.9574
  354 1140.21 27.5131 41.9574
  355 670.007 -1.17952 45.2488
  356 670.007 -1.17952 45.2488
  357 783.862 -106.118 -120.284
  358 783.862 -106.118 -120.284
  359 753.119 -6.24295 19.3825
  360 753.119 -6.24295 19.3825
  361 501.536 -91.4164 315.349
  362 501.536 -91.4164 315.349
  363 876.442 70.2018 -2.18260
  364 876.442 70.2018 -2.18260
  365 1137.28 9.87498 -8.66561
  366 1137.28 9.87498 -8.66561
  367 710.206 0.0651607 -21.9327
  368 710.206 0.0651607 -21.9327
  369 638.906 22.4487 -9.87903
  370 638.906 22.4487 -9.87903
  371 971.702 75.8675 28.8092
  372 971.702 75.8675 28.8092
  373 756.685 32.1103 -4.24768
  374 756.685 32.1103 -4.24768
  375 685.687 2.43948 -13.6844
  376 685.687 2.43948 -13.6844
  377 193.102 -90.2959 -133.821
  378 193.102 -90.2959 -133.821
  379 756.734 -13.7868 4.09910
  380 756.734 -13.7868 4.09910
  381 651.218 -1.27777 -53.6013
  382 651.218 -1.27777 -53.6013
  383 748.999 -1.30717 -23.3361
  384 748.999 -1.30717 -23.3361
  385 1143.86 19.7367 -34.5315
  386 1143.86 19.7367 -34.5315
  387 653.645 9.78180 6.16424
  388 653.645 9.78180 6.16424
  389 794.827 39.9294 18.1511
  390 794.827 39.9294 18.1511
  391 849.778 -15.5121 15.7862
  392 849.778 -15.5121 15.7862
  393 655.858 11.5293 -13.8837
  394 655.858 11.5293 -13.8837
  395 1208.84 125.649 -162.825
  396 1208.84 125.649 -162.825
  397 745.891 -11.2315 -8.65622
  398 745.891 -11.2315 -8.65622
</Section>

newXOutput 199

<Section columns = "stress_xx | stress_yy | stress_xy">
  1 659.862 0.652194 -0.682331
  2 660.164 0.799542 0.919061
  3 659.862 0.652194 -0.682331
  4 660.164 0.799542 0.919061
  5 983.276 90.2060 294.180
  6 1019.81 89.2194 -289.611
  7 983.276 90.2060 294.180
  8 1019.81 89.2194 -289.611
  9 661.362 0.451085 -1.79832
  10 666.314 0.787684 -3.21434
  11 673.538 1.76333 -6.57807
  12 690.251 0.627619 -8.92593
  13 712.058 0.961688 -14.9093
  14 738.079 -6.90175 -15.1516
  15 762.894 -8.15665 -2.50361
  16 754.536 -5.45338 11.0612
  17 730.297 6.12104 20.2888
  18 716.947 14.4821 -0.800974
  19 726.464 6.88773 -19.1600
  20 753.962 -8.15211 -13.4398
  21 756.236 -9.92116 6.00245
  22 741.813 -4.53455 13.1279
  23 707.672 0.0133102 15.0661
  24 688.847 2.47612 11.3358
  25 674.003 2.02486 6.31220
  26 666.464 0.635152 2.94175
  27 661.728 0.536150 1.74162
  28 661.026 2.31456 1.07155
  29 659.976 4.72180 1.25599
  30 657.383 8.16491 1.12330
  31 656.350 9.48069 -0.108327
  32 657.660 7.75235 -1.34174
  33 659.506 5.14820 -1.12853
  34 660.312 2.63247 -1.20965
  35 661.362 0.451085 -1.79832
  36 666.314 0.787684 -3.21434
  37 673.538 1.76333 -6.57807
  38 690.251 0.627619 -8.92593
  39 712.058 0.961688 -14.9093
  40 738.079 -6.90175 -15.1516
  41 762.894 -8.15665 -2.50361
  42 754.536 -5.45338 11.0612
  43 730.297 6.12104 20.2888
  44 716.947 14.4821 -0.800974
  45 726.464 6.88773 -19.1600
  46 753.962 -8.15211 -13.4398
  47 756.236 -9.92116 6.00245
  48 741.813 -4.53455 13.1279
  49 707.672 0.0133102 15.0661
  50 688.847 2.47612 11.3358
  51 674.003 2.02486 6.31220
  52 666.464 0.635152 2.94175
  53 661.728 0.536150 1.74162
  54 661.026 2.31456 1.07155
  55 659.976 4.72180 1.25599
  56 657.383 8.16491 1.12330
  57 656.350 9.48069 -0.108327
  58 657.660 7.75235 -1.34174
  59 659.506 5.14820 -1.12853
  60 660.312 2.63247 -1.20965
  61 1350.59 74.3262 144.793
  62 1235.59 19.8713 49.9831
  63 1169.11 7.77306 18.0685
  64 1154.74 5.75188 3.31962
  65 1168.38 7.75283 -15.3787
  66 1219.62 16.9190 -43.0428
  67 1363.40 64.5794 -124.701
  68 185.417 -184.029 -247.957
  69 36.8277 -483.205 -69.4611
  70 8.64166 -562.863 -30.3055
  71 8.34283 -554.149 -13.6515
  72 15.8227 -535.655 32.5231
  73 40.4542 -468.079 73.8013
  74 199.469 -169.854 273.994
  75 1350.59 74.3262 144.793
  76 1235.59 19.8713 49.9831
  77 1169.11 7.77306 18.0685
  78 1154.74 5.75188 3.31962
  79 1168.38 7.75283 -15.3787
  80 1219.62 16.9190 -43.0428
  81 1363.40 64.5794 -124.701
  82 185.417 -184.029 -247.957
  83 36.8277 -483.205 -69.4611
  84 8.64166 -562.863 -30.3055
  85 8.34283 -554.149 -13.6515
  86 15.8227 -535.655 32.5231
  87 40.4542 -468.079 73.8013
  88 199.469 -169.854 273.994
  89 610.269 34.2752 -8.80035
  90 610.269 34.2752 -8.80035
  91 558.078 7.91260 81.1358
  92 536.622 -3.08067 -97.3761
  93 558.078 7.91260 81.1358
  94 536.622 -3.08067 -97.3761
  95 322.687 10.2786 39.7406
  96 322.687 10.2786 39.7406
  97 811.794 52.9906 -10.1047
  98 824.423 31.7809 19.1860
  99 811.794 52.9906 -10.1047
  100 824.423 31.7809 19.1860
  101 651.521 15.3036 8.53192
  102 651.521 15.3036 8.53192
  103 772.821 -44.0447 5.32343
  104 772.821 -44.0447 5.32343
  105 652.215 16.0216 -10.5455
  106 652.215 16.0216 -10.5455
  107 756.733 -94.5372 -89.6205
  108 756.733 -94.5372 -89.6205
  109 534.321 -112.546 219.533
  110 534.321 -112.546 219.533
  111 366.008 -64.8273 -178.141
  112 366.008 -64.8273 -178.141
  113 654.429 10.6271 37.7846
  114 654.429 10.6271 37.7846
  115 676.801 4.21494 -36.3304
  116 676.801 4.21494 -36.3304
  117 910.054 64.2269 16.6310
  118 971.533 62.0469 6.77328
  119 910.054 64.2269 16.6310
  120 971.533 62.0469 6.77328
  121 953.041 82.3091 -30.7489
  122 953.041 82.3091 -30.7489
  123 108.463 -170.662 -61.0867
  124 108.463 -170.662 -61.0867
  125 818.376 -100.415 100.101
  126 818.376 -100.415 100.101
  127 698.453 -17.1959 44.0432
  128 698.453 -17.1959 44.0432
  129 164.910 -146.828 138.949
  130 164.910 -146.828 138.949
  131 652.381 12.7447 -0.529241
  132 652.381 12.7447 -0.529241
  133 696.992 -32.9388 -56.6308
  134 696.992 -32.9388 -56.6308
  135 661.674 5.23420 6.10583
  136 661.674 5.23420 6.10583
  137 662.165 4.61427 -5.68640
  138 662.165 4.61427 -5.68640
  139 668.985 8.90873 -18.5941
  140 668.985 8.90873 -18.5941
  141 666.163 8.70410 16.6889
  142 666.163 8.70410 16.6889
  143 640.300 21.3778 -0.696165
  144 640.300 21.3778 -0.696165
  145 540.456 35.4771 -4.17879
  146 540.456 35.4771 -4.17879
  147 770.042 -27.2725 7.98232
  148 770.042 -27.2725 7.98232
  149 872.657 -25.9636 -43.6425
  150 872.657 -25.9636 -43.6425
  151 679.704 -76.7539 108.839
  152 679.704 -76.7539 108.839
  153 512.774 -137.747 -250.556
  154 512.774 -137.747 -250.556
  155 611.130 24.7036 36.1327
  156 611.130 24.7036 36.1327
  157 784.007 -3.97014 -23.9268
  158 784.007 -3.97014 -23.9268
  159 1053.37 86.1141 65.2463
  160 1053.37 86.1141 65.2463
  161 533.412 -149.004 288.153
  162 533.412 -149.004 288.153
  163 1071.94 34.2808 -12.6033
  164 1071.94 34.2808 -12.6033
  165 637.839 21.3502 16.4687
  166 637.839 21.3502 16.4687
  167 607.199 20.4736 -53.2268
  168 607.199 20.4736 -53.2268
  169 749.981 23.3581 15.4037
  170 749.981 23.3581 15.4037
  171 632.284 25.5509 -18.7797
  172 632.284 25.5509 -18.7797
  173 655.965 10.2320 2.67110
  174 655.965 10.2320 2.67110
  175 665.755 4.96740 -9.76229
  176 665.755 4.96740 -9.76229
  177 1011.93 85.7167 -68.7711
  178 1011.93 85.7167 -68.7711
  179 656.423 9.96916 -3.21963
  180 656.423 9.96916 -3.21963
  181 491.581 36.0129 -27.9974
  182 491.581 36.0129 -27.9974
  183 867.636 65.1066 1.23810
  184 867.636 65.1066 1.23810
  185 179.834 -144.190 -178.715
  186 179.834 -144.190 -178.715
  187 482.402 -4.62420 119.079
  188 482.402 -4.62420 119.079
  189 634.084 -103.697 -170.065
  190 634.084 -103.697 -170.065
  191 748.717 -20.9494 11.1494
  192 748.717 -20.9494 11.1494
  193 701.661 -2.67455 26.5771
  194 701.661 -2.67455 26.5771
  195 942.657 34.2376 66.5861
  196 942.657 34.2376 66.5861
  197 405.613 13.9654 -73.9216
  198 405.613 13.9654 -73.9216
  199 1064.42 46.6489 29.3448
  200 1064.42 46.6489 29.3448
  201 714.295 -9.12113 -28.5288
  202 714.295 -9.12113 -28.5288
  203 666.722 3.53700 8.99237
  204 666.722 3.53700 8.99237
  205 742.800 -29.6276 -16.6445
  206 742.800 -29.6276 -16.6445
  207 809.688 -39.6489 -11.2491
  208 809.688 -39.6489 -11.2491
  209 51.3333 -303.581 27.6315
  210 51.3333 -303.581 27.6315
  211 686.231 3.31208 -23.0347
  212 686.231 3.31208 -23.0347
  213 680.841 5.15158 20.0154
  214 680.841 5.15158 20.0154
  215 654.608 -60.6977 -107.546
  216 654.608 -60.6977 -107.546
  217 763.637 -16.2468 -14.3242
  218 763.637 -16.2468 -14.3242
  219 629.874 22.3400 -36.0750
  220 629.874 22.3400 -36.0750
  221 173.475 -211.057 197.558
  222 173.475 -211.057 197.558
  223 775.200 4.47345 23.0440
  224 775.200 4.47345 23.0440
  225 755.871 19.9119 -20.1466
  226 755.871 19.9119 -20.1466
  227 1054.10 62.7796 -51.2340
  228 1054.10 62.7796 -51.2340
  229 812.800 -28.9052 -7.47474
  230 812.800 -28.9052 -7.47474
  231 878.840 -30.6390 -168.501
  232 878.840 -30.6390 -168.501
  233 657.538 -29.8500 82.0654
  234 657.538 -29.8500 82.0654
  235 646.836 17.8125 2.75451
  236 646.836 17.8125 2.75451
  237 348.009 -49.6599 157.435
  238 348.009 -49.6599 157.435
  239 840.965 -66.1441 194.863
  240 840.965 -66.1441 194.863
  241 239.672 -27.5012 -78.4073
  242 239.672 -27.5012 -78.4073
  243 756.825 -57.4111 -39.9525
  244 756.825 -57.4111 -39.9525
  245 624.245 27.6500 20.7001
  246 624.245 27.6500 20.7001
  247 21.4015 -398.743 -22.9301
  248 21.4015 -398.743 -22.9301
  249 42.6888 -347.035 75.5188
  250 42.6888 -347.035 75.5188
  251 634.134 4.29409 58.3389
  252 634.134 4.29409 58.3389
  253 660.971 2.46706 2.19134
  254 660.971 2.46706 2.19134
  255 655.921 10.2869 0.422105
  256 655.921 10.2869 0.422105
  257 616.639 -7.70512 -78.0729
  258 616.639 -7.70512 -78.0729
  259 661.303 2.25591 -2.32188
  260 661.303 2.25591 -2.32188
  261 727.597 -51.8037 51.1435
  262 727.597 -51.8037 51.1435
  263 677.552 2.29574 -10.9716
  264 677.552 2.29574 -10.9716
  265 528.410 -44.8466 -146.789
  266 528.410 -44.8466 -146.789
  267 889.266 69.0138 1.20787
  268 889.266 69.0138 1.20787
  269 655.072 14.1624 -29.1045
  270 655.072 14.1624 -29.1045
  271 652.792 13.2415 -5.66270
  272 652.792 13.2415 -5.66270
  273 559.189 27.0532 -53.3893
  274 559.189 27.0532 -53.3893
  275 174.003 -61.5854 45.8169
  276 174.003 -61.5854 45.8169
  277 693.184 -116.753 152.256
  278 693.184 -116.753 152.256
  279 659.190 9.55893 11.1045
  280 659.190 9.55893 11.1045
  281 965.268 67.7926 -17.1270
  282 965.268 67.7926 -17.1270
  283 1138.41 106.462 142.132
  284 1138.41 106.462 142.132
  285 777.542 -82.9695 53.3386
  286 777.542 -82.9695 53.3386
  287 570.043 28.2849 38.9516
  288 570.043 28.2849 38.9516
  289 710.338 -143.253 201.361
  290 710.338 -143.253 201.361
  291 736.334 -8.96314 18.6980
  292 736.334 -8.96314 18.6980
  293 658.786 6.28883 3.01119
  294 658.786 6.28883 3.01119
  295 650.211 17.4310 -18.3506
  296 650.211 17.4310 -18.3506
  297 656.064 10.1247 -0.827391
  298 656.064 10.1247 -0.827391
  299 664.580 1.79720 -4.20792
  300 664.580 1.79720 -4.20792
  301 677.036 3.24263 11.0127
  302 677.036 3.24263 11.0127
  303 646.985 17.7224 -4.67903
  304 646.985 17.7224 -4.67903
  305 148.437 -245.700 -188.884
  306 148.437 -245.700 -188.884
  307 451.034 29.7992 36.7090
  308 451.034 29.7992 36.7090
  309 659.414 5.25850 -2.88737
  310 659.414 5.25850 -2.88737
  311 585.451 33.2745 -26.0434
  312 585.451 33.2745 -26.0434
  313 586.992 36.2706 9.86649
  314 586.992 36.2706 9.86649
  315 658.184 9.19133 -7.83941
  316 658.184 9.19133 -7.83941
  317 874.518 49.3066 -10.2150
  318 874.518 49.3066 -10.2150
  319 653.667 15.4434 25.3721
  320 653.667 15.4434 25.3721
  321 828.307 27.7957 -16.5500
  322 828.307 27.7957 -16.5500
  323 1191.20 33.0731 81.9646
  324 1191.20 33.0731 81.9646
  325 651.463 15.9810 15.8084
  326 651.463 15.9810 15.8084
  327 641.942 21.1790 8.27051
  328 641.942 21.1790 8.27051
  329 494.485 -90.6171 -291.135
  330 494.485 -90.6171 -291.135
  331 664.962 1.62347 4.11495
  332 664.962 1.62347 4.11495
  333 652.235 13.3333 4.23569
  334 652.235 13.3333 4.23569
  335 629.857 27.5802 0.952403
  336 629.857 27.5802 0.952403
  337 327.865 -114.823 232.107
  338 327.865 -114.823 232.107
  339 807.258 53.4780 2.95694
  340 807.258 53.4780 2.95694
  341 45.7866 -339.461 -86.2401
  342 45.7866 -339.461 -86.2401
  343 511.482 32.1995 32.4125
  344 511.482 32.1995 32.4125
  345 1128.69 14.7407 10.8111
  346 1128.69 14.7407 10.8111
  347 1179.28 61.2720 -85.0964
  348 1179.28 61.2720 -85.0964
  349 569.345 -66.4150 164.317
  350 594.511 -33.9862 120.569
  351 569.345 -66.4150 164.317
  352 594.511 -33.9862 120.569
  353 1145.21 27.6246 42.1422
  354 1145.21 27.6246 42.1422
  355 673.139 -1.18753 45.4553
  356 673.139 -1.18753 45.4553
  357 787.426 -106.604 -120.904
  358 787.426 -106.604 -120.904
  359 756.630 -6.26930 19.4472
  360 756.630 -6.26930 19.4472
  361 503.780 -91.6691 316.952
  362 503.780 -91.6691 316.952
  363 880.491 70.5259 -2.19082
  364 880.491 70.5259 -2.19082
  365 1142.26 9.91333 -8.70282
  366 1142.26 9.91333 -8.70282
  367 713.496 0.0624899 -22.0307
  368 713.496 0.0624899 -22.0307
  369 641.916 22.5489 -9.92068
  370 641.916 22.5489 -9.92068
  371 976.118 76.2174 28.9791
  372 976.118 76.2174 28.9791
  373 760.243 32.2667 -4.26193
  374 760.243 32.2667 -4.26193
  375 688.876 2.44910 -13.7420
  376 688.876 2.44910 -13.7420
  377 194.069 -90.6924 -134.511
  378 194.069 -90.6924 -134.511
  379 760.238 -13.8525 4.09942
  380 760.238 -13.8525 4.09942
  381 654.271 -1.28629 -53.8480
  382 654.271 -1.28629 -53.8480
  383 752.503 -1.31062 -23.4160
  384 752.503 -1.31062 -23.4160
  385 1148.88 19.8189 -34.6815
  386 1148.88 19.8189 -34.6815
  387 656.711 9.82467 6.18910
  388 656.711 9.82467 6.18910
  389 798.531 40.1276 18.1990
  390 798.531 40.1276 18.1990
  391 853.662 -15.5529 15.9352
  392 853.662 -15.5529 15.9352
  393 658.933 11.5802 -13.9410
  394 658.933 11.5802 -13.9410
  395 1214.12 126.325 -163.625
  396 1214.12 126.325 -163.625
  397 749.336 -11.2873 -8.70493
  398 749.336 -11.2873 -8.70493
</Section>

newXOutput 200

<Section columns = "stress_xx | stress_yy | stress_xy">
  1 662.937 0.655324 -0.684921
  2 663.240 0.803278 0.922539
  3 662.937 0.655324 -0.684921
  4 663.240 0.803278 0.922539
  5 987.525 90.8575 295.629
  6 1024.20 89.8750 -291.039
  7 987.525 90.8575 295.629
  8 1024.20 89.8750 -291.039
  9 664.442 0.453160 -1.80524
  10 669.413 0.791199 -3.22689
  11 676.664 1.77097 -6.60432
  12 693.441 0.630003 -8.96248
  13 715.335 0.964476 -14.9733
  14 741.465 -6.93693 -15.2215
  15 766.393 -8.19668 -2.52266
  16 758.031 -5.47862 11.0961
  17 733.722 6.15420 20.3618
  18 720.332 14.5550 -0.803943
  19 729.875 6.92184 -19.2302
  20 757.456 -8.19026 -13.4817
  21 759.708 -9.97002 6.03910
  22 745.215 -4.55742 13.1892
  23 710.932 0.0111528 15.1316
  24 692.032 2.48635 11.3825
  25 677.131 2.03364 6.33729
  26 669.564 0.638008 2.95320
  27 664.810 0.538646 1.74837
  28 664.106 2.32482 1.07558
  29 663.051 4.74246 1.26082
  30 660.450 8.20021 1.12769
  31 659.413 9.52154 -0.108744
  32 660.727 7.78594 -1.34693
  33 662.580 5.17073 -1.13273
  34 663.388 2.64423 -1.21431
  35 664.442 0.453160 -1.80524
  36 669.413 0.791199 -3.22689
  37 676.664 1.77097 -6.60432
  38 693.441 0.630003 -8.96248
  39 715.335 0.964476 -14.9733
  40 741.465 -6.93693 -15.2215
  41 766.393 -8.19668 -2.52266
  42 758.031 -5.47862 11.0961
  43 733.722 6.15420 20.3618
  44 720.332 14.5550 -0.803943
  45 729.875 6.92184 -19.2302
  46 757.456 -8.19026 -13.4817
  47 759.708 -9.97002 6.03910
  48 745.215 -4.55742 13.1892
  49 710.932 0.0111528 15.1316
  50 692.032 2.48635 11.3825
  51 677.131 2.03364 6.33729
  52 669.564 0.638008 2.95320
  53 664.810 0.538646 1.74837
  54 664.106 2.32482 1.07558
  55 663.051 4.74246 1.26082
  56 660.450 8.20021 1.12769
  57 659.413 9.52154 -0.108744
  58 660.727 7.78594 -1.34693
  59 662.580 5.17073 -1.13273
  60 663.388 2.64423 -1.21431
  61 1356.33 74.6819 145.438
  62 1240.89 19.9532 50.1938
  63 1174.16 7.79988 18.1409
  64 1159.74 5.77322 3.33074
  65 1173.43 7.78299 -15.4400
  66 1224.86 16.9876 -43.2212
  67 1369.19 64.8874 -125.257
  68 186.250 -184.640 -249.254
  69 36.9953 -485.492 -69.8855
  70 8.66280 -565.663 -30.4911
  71 8.36445 -556.920 -13.7191
  72 15.8833 -538.299 32.7231
  73 40.6433 -470.292 74.2543
  74 200.350 -170.400 275.419
  75 1356.33 74.6819 145.438
  76 1240.89 19.9532 50.1938
  77 1174.16 7.79988 18.1409
  78 1159.74 5.77322 3.33074
  79 1173.43 7.78299 -15.4400
  80 1224.86 16.9876 -43.2212
  81 1369.19 64.8874 -125.257
  82 186.250 -184.640 -249.254
  83 36.9953 -485.492 -69.8855
  84 8.66280 -565.663 -30.4911
  85 8.36445 -556.920 -13.7191
  86 15.8833 -538.299 32.7231
  87 40.6433 -470.292 74.2543
  88 200.350 -170.400 275.419
  89 613.149 34.4307 -8.83907
  90 613.149 34.4307 -8.83907
  91 560.720 7.95156 81.5094
  92 539.166 -3.09307 -97.8299
  93 560.720 7.95156 81.5094
  94 539.166 -3.09307 -97.8299
  95 324.280 10.3481 39.9317
  96 324.280 10.3481 39.9317
  97 815.558 53.2441 -10.1281
  98 828.219 31.9473 19.2173
  99 815.558 53.2441 -10.1281
  100 828.219 31.9473 19.2173
  101 654.566 15.3707 8.56682
  102 654.566 15.3707 8.56682
  103 776.371 -44.2478 5.38985
  104 776.371 -44.2478 5.38985
  105 655.263 16.0921 -10.5888
  106 655.263 16.0921 -10.5888
  107 760.183 -94.9804 -90.0725
  108 760.183 -94.9804 -90.0725
  109 536.803 -113.084 220.602
  110 536.803 -113.084 220.602
  111 367.757 -65.1260 -179.019
  112 367.757 -65.1260 -179.019
  113 657.483 10.6731 37.9514
  114 657.483 10.6731 37.9514
  115 679.944 4.23085 -36.4927
  116 679.944 4.23085 -36.4927
  117 914.200 64.5505 16.7786
  118 975.925 62.3193 6.81495
  119 914.200 64.5505 16.7786
  120 975.925 62.3193 6.81495
  121 957.366 82.7018 -30.9427
  122 957.366 82.7018 -30.9427
  123 108.996 -171.427 -61.4147
  124 108.996 -171.427 -61.4147
  125 822.072 -100.856 100.635
  126 822.072 -100.856 100.635
  127 701.684 -17.2791 44.2522
  128 701.684 -17.2791 44.2522
  129 165.716 -147.481 139.681
  130 165.716 -147.481 139.681
  131 655.429 12.8002 -0.531301
  132 655.429 12.8002 -0.531301
  133 700.214 -33.0957 -56.9043
  134 700.214 -33.0957 -56.9043
  135 664.756 5.25715 6.13007
  136 664.756 5.25715 6.13007
  137 665.248 4.63461 -5.70887
  138 665.248 4.63461 -5.70887
  139 672.096 8.94724 -18.6720
  140 672.096 8.94724 -18.6720
  141 669.263 8.74199 16.7582
  142 669.263 8.74199 16.7582
  143 643.302 21.4723 -0.699229
  144 643.302 21.4723 -0.699229
  145 543.040 35.6429 -4.19827
  146 543.040 35.6429 -4.19827
  147 773.589 -27.3962 7.98271
  148 773.589 -27.3962 7.98271
  149 876.607 -26.0355 -43.9314
  150 876.607 -26.0355 -43.9314
  151 682.835 -77.1178 109.363
  152 682.835 -77.1178 109.363
  153 515.127 -138.371 -251.814
  154 515.127 -138.371 -251.814
  155 614.009 24.8165 36.2936
  156 614.009 24.8165 36.2936
  157 787.623 -3.98015 -23.9919
  158 787.623 -3.98015 -23.9919
  159 1058.07 86.5224 65.5847
  160 1058.07 86.5224 65.5847
  161 535.854 -149.694 289.582
  162 535.854 -149.694 289.582
  163 1076.68 34.4218 -12.6621
  164 1076.68 34.4218 -12.6621
  165 640.831 21.4449 16.5387
  166 640.831 21.4449 16.5387
  167 610.058 20.5677 -53.4675
  168 610.058 20.5677 -53.4675
  169 753.492 23.4749 15.4575
  170 753.492 23.4749 15.4575
  171 635.253 25.6651 -18.8602
  172 635.253 25.6651 -18.8602
  173 659.027 10.2764 2.68172
  174 659.027 10.2764 2.68172
  175 668.853 4.98899 -9.80171
  176 668.853 4.98899 -9.80171
  177 1016.46 86.1619 -69.1639
  178 1016.46 86.1619 -69.1639
  179 659.486 10.0126 -3.23236
  180 659.486 10.0126 -3.23236
  181 493.947 36.1867 -28.1270
  182 493.947 36.1867 -28.1270
  183 871.623 65.4160 1.20396
  184 871.623 65.4160 1.20396
  185 180.701 -144.832 -179.650
  186 180.701 -144.832 -179.650
  187 484.702 -4.64105 119.639
  188 484.702 -4.64105 119.639
  189 637.003 -104.190 -170.892
  190 637.003 -104.190 -170.892
  191 752.165 -21.0498 11.2197
  192 752.165 -21.0498 11.2197
  193 704.903 -2.69006 26.6970
  194 704.903 -2.69006 26.6970
  195 946.900 34.4585 66.9854
  196 946.900 34.4585 66.9854
  197 407.581 14.0433 -74.2731
  198 407.581 14.0433 -74.2731
  199 1069.14 46.8474 29.4861
  200 1069.14 46.8474 29.4861
  201 717.591 -9.16703 -28.6638
  202 717.591 -9.16703 -28.6638
  203 669.823 3.55227 9.02857
  204 669.823 3.55227 9.02857
  205 746.220 -29.7698 -16.7422
  206 746.220 -29.7698 -16.7422
  207 813.389 -39.8189 -11.3594
  208 813.389 -39.8189 -11.3594
  209 51.5772 -305.013 27.7872
  210 51.5772 -305.013 27.7872
  211 689.410 3.32433 -23.1344
  212 689.410 3.32433 -23.1344
  213 683.999 5.17332 20.1008
  214 683.999 5.17332 20.1008
  215 657.640 -60.9853 -108.060
  216 657.640 -60.9853 -108.060
  217 767.163 -16.3222 -14.3588
  218 767.163 -16.3222 -14.3588
  219 632.830 22.4409 -36.2350
  220 632.830 22.4409 -36.2350
  221 174.285 -211.986 198.608
  222 174.285 -211.986 198.608
  223 778.792 4.50467 23.1118
  224 778.792 4.50467 23.1118
  225 759.401 20.0124 -20.2138
  226 759.401 20.0124 -20.2138
  227 1058.79 63.0583 -51.4907
  228 1058.79 63.0583 -51.4907
  229 816.518 -29.0244 -7.44970
  230 816.518 -29.0244 -7.44970
  231 882.768 -30.6824 -169.386
  232 882.768 -30.6824 -169.386
  233 660.591 -29.9909 82.4495
  234 660.591 -29.9909 82.4495
  235 649.863 17.8908 2.76587
  236 649.863 17.8908 2.76587
  237 349.684 -49.8835 158.208
  238 349.684 -49.8835 158.208
  239 844.722 -66.3704 195.865
  240 844.722 -66.3704 195.865
  241 240.861 -27.6006 -78.7977
  242 240.861 -27.6006 -78.7977
  243 760.294 -57.6807 -40.1696
  244 760.294 -57.6807 -40.1696
  245 627.181 27.7747 20.7902
  246 627.181 27.7747 20.7902
  247 21.4919 -400.662 -23.0641
  248 21.4919 -400.662 -23.0641
  249 42.8859 -348.667 75.9543
  250 42.8859 -348.667 75.9543
  251 637.101 4.31287 58.6043
  252 637.101 4.31287 58.6043
  253 664.050 2.47802 2.19984
  254 664.050 2.47802 2.19984
  255 658.982 10.3313 0.423801
  256 658.982 10.3313 0.423801
  257 619.528 -7.74224 -78.4340
  258 619.528 -7.74224 -78.4340
  259 664.383 2.26602 -2.33089
  260 664.383 2.26602 -2.33089
  261 730.944 -52.0483 51.4023
  262 730.944 -52.0483 51.4023
  263 680.694 2.30534 -11.0164
  264 680.694 2.30534 -11.0164
  265 530.896 -45.0591 -147.488
  266 530.896 -45.0591 -147.488
  267 893.340 69.3386 1.25297
  268 893.340 69.3386 1.25297
  269 658.130 14.2245 -29.2304
  270 658.130 14.2245 -29.2304
  271 655.842 13.2994 -5.68551
  272 655.842 13.2994 -5.68551
  273 561.846 27.1804 -53.6328
  274 561.846 27.1804 -53.6328
  275 174.873 -61.8321 46.0519
  276 174.873 -61.8321 46.0519
  277 696.353 -117.305 153.002
  278 696.353 -117.305 153.002
  279 662.264 9.60075 11.1496
  280 662.264 9.60075 11.1496
  281 969.638 68.0950 -17.2243
  282 969.638 68.0950 -17.2243
  283 1143.40 107.023 142.838
  284 1143.40 107.023 142.838
  285 781.089 -83.3521 53.6338
  286 781.089 -83.3521 53.6338
  287 572.750 28.4168 39.1270
  288 572.750 28.4168 39.1270
  289 713.557 -143.923 202.352
  290 713.557 -143.923 202.352
  291 739.721 -9.00763 18.7892
  292 739.721 -9.00763 18.7892
  293 661.858 6.31623 3.02302
  294 661.858 6.31623 3.02302
  295 653.251 17.5080 -18.4276
  296 653.251 17.5080 -18.4276
  297 659.126 10.1684 -0.830645
  298 659.126 10.1684 -0.830645
  299 667.672 1.80514 -4.22448
  300 667.672 1.80514 -4.22448
  301 680.176 3.25644 11.0577
  302 680.176 3.25644 11.0577
  303 650.013 17.8003 -4.69829
  304 650.013 17.8003 -4.69829
  305 149.125 -246.774 -189.898
  306 149.125 -246.774 -189.898
  307 453.216 29.9473 36.8796
  308 453.216 29.9473 36.8796
  309 662.487 5.28154 -2.89865
  310 662.487 5.28154 -2.89865
  311 588.225 33.4274 -26.1601
  312 588.225 33.4274 -26.1601
  313 589.774 36.4371 9.91003
  314 589.774 36.4371 9.91003
  315 661.253 9.23153 -7.87094
  316 661.253 9.23153 -7.87094
  317 878.511 49.5674 -10.3353
  318 878.511 49.5674 -10.3353
  319 656.720 15.5116 25.4805
  320 656.720 15.5116 25.4805
  321 832.116 27.9429 -16.5700
  322 832.116 27.9429 -16.5700
  323 1196.38 33.2096 82.3371
  324 1196.38 33.2096 82.3371
  325 654.508 16.0515 15.8743
  326 654.508 16.0515 15.8743
  327 644.950 21.2727 8.30500
  328 644.950 21.2727 8.30500
  329 496.706 -90.8517 -292.622
  330 496.706 -90.8517 -292.622
  331 668.055 1.63063 4.13113
  332 668.055 1.63063 4.13113
  333 655.283 13.3915 4.25280
  334 655.283 13.3915 4.25280
  335 632.817 27.7036 0.956435
  336 632.817 27.7036 0.956435
  337 329.423 -115.359 233.277
  338 329.423 -115.359 233.277
  339 811.006 53.7330 2.96112
  340 811.006 53.7330 2.96112
  341 45.9926 -341.054 -86.7258
  342 45.9926 -341.054 -86.7258
  343 513.936 32.3531 32.5603
  344 513.936 32.3531 32.5603
  345 1133.61 14.7985 10.8552
  346 1133.61 14.7985 10.8552
  347 1184.43 61.5549 -85.4890
  348 1184.43 61.5549 -85.4890
  349 571.998 -66.7316 165.101
  350 597.292 -34.1464 121.133
  351 571.998 -66.7316 165.101
  352 597.292 -34.1464 121.133
  353 1150.21 27.7360 42.3268
  354 1150.21 27.7360 42.3268
  355 676.268 -1.19556 45.6615
  356 676.268 -1.19556 45.6615
  357 790.986 -107.090 -121.524
  358 790.986 -107.090 -121.524
  359 760.139 -6.29560 19.5115
  360 760.139 -6.29560 19.5115
  361 506.022 -91.9199 318.556
  362 506.022 -91.9199 318.556
  363 884.537 70.8497 -2.19902
  364 884.537 70.8497 -2.19902
  365 1147.22 9.95159 -8.73998
  366 1147.22 9.95159 -8.73998
  367 716.783 0.0597942 -22.1286
  368 716.783 0.0597942 -22.1286
  369 644.924 22.6489 -9.96225
  370 644.924 22.6489 -9.96225
  371 980.529 76.5669 29.1491
  372 980.529 76.5669 29.1491
  373 763.798 32.4231 -4.27611
  374 763.798 32.4231 -4.27611
  375 692.062 2.45868 -13.7995
  376 692.062 2.45868 -13.7995
  377 195.036 -91.0883 -135.202
  378 195.036 -91.0883 -135.202
  379 763.739 -13.9181 4.09957
  380 763.739 -13.9181 4.09957
  381 657.321 -1.29484 -54.0946
  382 657.321 -1.29484 -54.0946
  383 756.004 -1.31403 -23.4956
  384 756.004 -1.31403 -23.4956
  385 1153.88 19.9010 -34.8313
  386 1153.88 19.9010 -34.8313
  387 659.775 9.86749 6.21389
  388 659.775 9.86749 6.21389
  389 802.231 40.3258 18.2465
  390 802.231 40.3258 18.2465
  391 857.542 -15.5934 16.0848
  392 857.542 -15.5934 16.0848
  393 662.005 11.6310 -13.9983
  394 662.005 11.6310 -13.9983
  395 1219.39 127.001 -164.424
  396 1219.39 127.001 -164.424
  397 752.778 -11.3431 -8.75366
  398 752.778 -11.3431 -8.75366
</Section>

newXOutput 201

<Section columns = "stress_xx | stress_yy | stress_xy">
  1 666.010 0.658451 -0.687504
  2 666.314 0.807012 0.926008
  3 666.010 0.658451 -0.687504
  4 666.314 0.807012 0.926008
  5 991.768 91.5108 297.077
  6 1028.58 90.5324 -292.466
  7 991.768 91.5108 297.077
  8 1028.58 90.5324 -292.466
  9 667.520 0.455234 -1.81213
  10 672.509 0.794709 -3.23940
  11 679.787 1.77859 -6.63052
  12 696.628 0.632379 -8.99895
  13 718.608 0.967247 -15.0373
  14 744.847 -6.97210 -15.2914
  15 769.889 -8.23670 -2.54176
  16 761.522 -5.50384 11.1308
  17 737.144 6.18737 20.4345
  18 723.715 14.6278 -0.806903
  19 733.283 6.95594 -19.3002
  20 760.946 -8.22838 -13.5233
  21 763.176 -10.0189 6.07580
  22 748.613 -4.58029 13.2505
  23 714.190 0.00897675 15.1970
  24 695.214 2.49657 11.4292
  25 680.256 2.04241 6.36233
  26 672.661 0.640861 2.96462
  27 667.889 0.541140 1.75510
  28 667.182 2.33508 1.07960
  29 666.124 4.76310 1.26565
  30 663.514 8.23546 1.13207
  31 662.474 9.56232 -0.109159
  32 663.792 7.81947 -1.35210
  33 665.651 5.19324 -1.13692
  34 666.462 2.65598 -1.21896
  35 667.520 0.455234 -1.81213
  36 672.509 0.794709 -3.23940
  37 679.787 1.77859 -6.63052
  38 696.628 0.632379 -8.99895
  39 718.608 0.967247 -15.0373
  40 744.847 -6.97210 -15.2914
  41 769.889 -8.23670 -2.54176
  42 761.522 -5.50384 11.1308
  43 737.144 6.18737 20.4345
  44 723.715 14.6278 -0.806903
  45 733.283 6.95594 -19.3002
  46 760.946 -8.22838 -13.5233
  47 763.176 -10.0189 6.07580
  48 748.613 -4.58029 13.2505
  49 714.190 0.00897675 15.1970
  50 695.214 2.49657 11.4292
  51 680.256 2.04241 6.36233
  52 672.661 0.640861 2.96462
  53 667.889 0.541140 1.75510
  54 667.182 2.33508 1.07960
  55 666.124 4.76310 1.26565
  56 663.514 8.23546 1.13207
  57 662.474 9.56232 -0.109159
  58 663.792 7.81947 -1.35210
  59 665.651 5.19324 -1.13692
  60 666.462 2.65598 -1.21896
  61 1362.06 75.0374 146.083
  62 1246.17 20.0350 50.4041
  63 1179.20 7.82660 18.2132
  64 1164.72 5.79450 3.34181
  65 1178.46 7.81308 -15.5011
  66 1230.10 17.0561 -43.3992
  67 1374.98 65.1952 -125.811
  68 187.083 -185.248 -250.551
  69 37.1627 -487.777 -70.3105
  70 8.68374 -568.461 -30.6771
  71 8.38588 -559.691 -13.7867
  72 15.9437 -540.941 32.9235
  73 40.8323 -472.504 74.7080
  74 201.230 -170.944 276.845
  75 1362.06 75.0374 146.083
  76 1246.17 20.0350 50.4041
  77 1179.20 7.82660 18.2132
  78 1164.72 5.79450 3.34181
  79 1178.46 7.81308 -15.5011
  80 1230.10 17.0561 -43.3992
  81 1374.98 65.1952 -125.811
  82 187.083 -185.248 -250.551
  83 37.1627 -487.777 -70.3105
  84 8.68374 -568.461 -30.6771
  85 8.38588 -559.691 -13.7867
  86 15.9437 -540.941 32.9235
  87 40.8323 -472.504 74.7080
  88 201.230 -170.944 276.845
  89 616.028 34.5860 -8.87772
  90 616.028 34.5860 -8.87772
  91 563.360 7.99051 81.8826
  92 541.709 -3.10545 -98.2833
  93 563.360 7.99051 81.8826
  94 541.709 -3.10545 -98.2833
  95 325.872 10.4176 40.1227
  96 325.872 10.4176 40.1227
  97 819.319 53.4975 -10.1512
  98 832.011 32.1138 19.2482
  99 819.319 53.4975 -10.1512
  100 832.011 32.1138 19.2482
  101 657.609 15.4377 8.60164
  102 657.609 15.4377 8.60164
  103 779.917 -44.4508 5.45661
  104 779.917 -44.4508 5.45661
  105 658.308 16.1626 -10.6320
  106 658.308 16.1626 -10.6320
  107 763.630 -95.4233 -90.5244
  108 763.630 -95.4233 -90.5244
  109 539.283 -113.621 221.669
  110 539.283 -113.621 221.669
  111 369.504 -65.4244 -179.896
  112 369.504 -65.4244 -179.896
  113 660.534 10.7190 38.1180
  114 660.534 10.7190 38.1180
  115 683.085 4.24672 -36.6549
  116 683.085 4.24672 -36.6549
  117 918.341 64.8741 16.9267
  118 980.312 62.5914 6.85667
  119 918.341 64.8741 16.9267
  120 980.312 62.5914 6.85667
  121 961.686 83.0943 -31.1367
  122 961.686 83.0943 -31.1367
  123 109.529 -172.191 -61.7428
  124 109.529 -172.191 -61.7428
  125 825.765 -101.296 101.169
  126 825.765 -101.296 101.169
  127 704.913 -17.3622 44.4611
  128 704.913 -17.3622 44.4611
  129 166.521 -148.134 140.413
  130 166.521 -148.134 140.413
  131 658.475 12.8556 -0.533355
  132 658.475 12.8556 -0.533355
  133 703.433 -33.2526 -57.1777
  134 703.433 -33.2526 -57.1777
  135 667.836 5.28008 6.15426
  136 667.836 5.28008 6.15426
  137 668.330 4.65494 -5.73128
  138 668.330 4.65494 -5.73128
  139 675.204 8.98570 -18.7498
  140 675.204 8.98570 -18.7498
  141 672.361 8.77982 16.8274
  142 672.361 8.77982 16.8274
  143 646.301 21.5667 -0.702289
  144 646.301 21.5667 -0.702289
  145 545.622 35.8085 -4.21773
  146 545.622 35.8085 -4.21773
  147 777.133 -27.5197 7.98277
  148 777.133 -27.5197 7.98277
  149 880.552 -26.1068 -44.2209
  150 880.552 -26.1068 -44.2209
  151 685.964 -77.4814 109.887
  152 685.964 -77.4814 109.887
  153 517.478 -138.995 -253.072
  154 517.478 -138.995 -253.072
  155 616.887 24.9293 36.4542
  156 616.887 24.9293 36.4542
  157 791.237 -3.99007 -24.0566
  158 791.237 -3.99007 -24.0566
  159 1062.76 86.9304 65.9230
  160 1062.76 86.9304 65.9230
  161 538.292 -150.384 291.011
  162 538.292 -150.384 291.011
  163 1081.42 34.5625 -12.7208
  164 1081.42 34.5625 -12.7208
  165 643.820 21.5396 16.6085
  166 643.820 21.5396 16.6085
  167 612.915 20.6618 -53.7079
  168 612.915 20.6618 -53.7079
  169 757.000 23.5917 15.5110
  170 757.000 23.5917 15.5110
  171 638.221 25.7792 -18.9407
  172 638.221 25.7792 -18.9407
  173 662.086 10.3207 2.69231
  174 662.086 10.3207 2.69231
  175 671.948 5.01056 -9.84106
  176 671.948 5.01056 -9.84106
  177 1020.98 86.6071 -69.5569
  178 1020.98 86.6071 -69.5569
  179 662.546 10.0559 -3.24507
  180 662.546 10.0559 -3.24507
  181 496.311 36.3604 -28.2564
  182 496.311 36.3604 -28.2564
  183 875.606 65.7252 1.16950
  184 875.606 65.7252 1.16950
  185 181.567 -145.473 -180.586
  186 181.567 -145.473 -180.586
  187 487.001 -4.65785 120.199
  188 487.001 -4.65785 120.199
  189 639.920 -104.682 -171.718
  190 639.920 -104.682 -171.718
  191 755.610 -21.1503 11.2902
  192 755.610 -21.1503 11.2902
  193 708.142 -2.70557 26.8168
  194 708.142 -2.70557 26.8168
  195 951.137 34.6799 67.3851
  196 951.137 34.6799 67.3851
  197 409.548 14.1213 -74.6244
  198 409.548 14.1213 -74.6244
  199 1073.86 47.0456 29.6274
  200 1073.86 47.0456 29.6274
  201 720.884 -9.21291 -28.7987
  202 720.884 -9.21291 -28.7987
  203 672.922 3.56751 9.06470
  204 672.922 3.56751 9.06470
  205 749.637 -29.9120 -16.8399
  206 749.637 -29.9120 -16.8399
  207 817.086 -39.9887 -11.4702
  208 817.086 -39.9887 -11.4702
  209 51.8210 -306.445 27.9431
  210 51.8210 -306.445 27.9431
  211 692.586 3.33654 -23.2340
  212 692.586 3.33654 -23.2340
  213 687.153 5.19503 20.1860
  214 687.153 5.19503 20.1860
  215 660.669 -61.2728 -108.574
  216 660.669 -61.2728 -108.574
  217 770.686 -16.3977 -14.3930
  218 770.686 -16.3977 -14.3930
  219 635.784 22.5416 -36.3949
  220 635.784 22.5416 -36.3949
  221 175.094 -212.913 199.659
  222 175.094 -212.913 199.659
  223 782.381 4.53596 23.1792
  224 782.381 4.53596 23.1792
  225 762.928 20.1128 -20.2806
  226 762.928 20.1128 -20.2806
  227 1063.48 63.3366 -51.7474
  228 1063.48 63.3366 -51.7474
  229 820.233 -29.1433 -7.42412
  230 820.233 -29.1433 -7.42412
  231 886.690 -30.7248 -170.270
  232 886.690 -30.7248 -170.270
  233 663.642 -30.1318 82.8333
  234 663.642 -30.1318 82.8333
  235 652.888 17.9689 2.77722
  236 652.888 17.9689 2.77722
  237 351.359 -50.1068 158.980
  238 351.359 -50.1068 158.980
  239 848.475 -66.5957 196.868
  240 848.475 -66.5957 196.868
  241 242.050 -27.6997 -79.1881
  242 242.050 -27.6997 -79.1881
  243 763.761 -57.9501 -40.3868
  244 763.761 -57.9501 -40.3868
  245 630.115 27.8992 20.8802
  246 630.115 27.8992 20.8802
  247 21.5822 -402.581 -23.1983
  248 21.5822 -402.581 -23.1983
  249 43.0828 -350.299 76.3903
  250 43.0828 -350.299 76.3903
  251 640.066 4.33162 58.8694
  252 640.066 4.33162 58.8694
  253 667.127 2.48895 2.20832
  254 667.127 2.48895 2.20832
  255 662.041 10.3757 0.425494
  256 662.041 10.3757 0.425494
  257 622.415 -7.77933 -78.7948
  258 622.415 -7.77933 -78.7948
  259 667.461 2.27612 -2.33988
  260 667.461 2.27612 -2.33988
  261 734.288 -52.2927 51.6610
  262 734.288 -52.2927 51.6610
  263 683.833 2.31493 -11.0611
  264 683.833 2.31493 -11.0611
  265 533.380 -45.2715 -148.186
  266 533.380 -45.2715 -148.186
  267 897.411 69.6631 1.29838
  268 897.411 69.6631 1.29838
  269 661.186 14.2865 -29.3561
  270 661.186 14.2865 -29.3561
  271 658.889 13.3572 -5.70827
  272 658.889 13.3572 -5.70827
  273 564.502 27.3075 -53.8761
  274 564.502 27.3075 -53.8761
  275 175.742 -62.0782 46.2868
  276 175.742 -62.0782 46.2868
  277 699.518 -117.857 153.747
  278 699.518 -117.857 153.747
  279 665.335 9.64251 11.1946
  280 665.335 9.64251 11.1946
  281 974.003 68.3970 -17.3216
  282 974.003 68.3970 -17.3216
  283 1148.38 107.584 143.543
  284 1148.38 107.584 143.543
  285 784.632 -83.7343 53.9291
  286 784.632 -83.7343 53.9291
  287 575.454 28.5485 39.3021
  288 575.454 28.5485 39.3021
  289 716.773 -144.593 203.343
  290 716.773 -144.593 203.343
  291 743.104 -9.05212 18.8803
  292 743.104 -9.05212 18.8803
  293 664.927 6.34360 3.03483
  294 664.927 6.34360 3.03483
  295 656.288 17.5849 -18.5045
  296 656.288 17.5849 -18.5045
  297 662.186 10.2121 -0.833892
  298 662.186 10.2121 -0.833892
  299 670.762 1.81306 -4.24099
  300 670.762 1.81306 -4.24099
  301 683.314 3.27023 11.1025
  302 683.314 3.27023 11.1025
  303 653.039 17.8782 -4.71750
  304 653.039 17.8782 -4.71750
  305 149.812 -247.846 -190.913
  306 149.812 -247.846 -190.913
  307 455.397 30.0955 37.0500
  308 455.397 30.0955 37.0500
  309 665.558 5.30454 -2.90991
  310 665.558 5.30454 -2.90991
  311 590.998 33.5802 -26.2766
  312 590.998 33.5802 -26.2766
  313 592.555 36.6035 9.95351
  314 592.555 36.6035 9.95351
  315 664.320 9.27167 -7.90240
  316 664.320 9.27167 -7.90240
  317 882.501 49.8282 -10.4561
  318 882.501 49.8282 -10.4561
  319 659.770 15.5797 25.5886
  320 659.770 15.5797 25.5886
  321 835.921 28.0902 -16.5894
  322 835.921 28.0902 -16.5894
  323 1201.55 33.3458 82.7091
  324 1201.55 33.3458 82.7091
  325 657.550 16.1218 15.9401
  326 657.550 16.1218 15.9401
  327 647.956 21.3662 8.33942
  328 647.956 21.3662 8.33942
  329 498.924 -91.0842 -294.110
  330 498.924 -91.0842 -294.110
  331 671.147 1.63778 4.14726
  332 671.147 1.63778 4.14726
  333 658.328 13.4496 4.26988
  334 658.328 13.4496 4.26988
  335 635.776 27.8267 0.960459
  336 635.776 27.8267 0.960459
  337 330.980 -115.894 234.447
  338 330.980 -115.894 234.447
  339 814.751 53.9879 2.96521
  340 814.751 53.9879 2.96521
  341 46.1984 -342.646 -87.2120
  342 46.1984 -342.646 -87.2120
  343 516.390 32.5066 32.7079
  344 516.390 32.5066 32.7079
  345 1138.53 14.8562 10.8992
  346 1138.53 14.8562 10.8992
  347 1189.57 61.8376 -85.8812
  348 1189.57 61.8376 -85.8812
  349 574.650 -67.0481 165.884
  350 600.070 -34.3065 121.696
  351 574.650 -67.0481 165.884
  352 600.070 -34.3065 121.696
  353 1155.20 27.8471 42.5111
  354 1155.20 27.8471 42.5111
  355 679.394 -1.20361 45.8674
  356 679.394 -1.20361 45.8674
  357 794.542 -107.574 -122.144
  358 794.542 -107.574 -122.144
  359 763.644 -6.32184 19.5755
  360 763.644 -6.32184 19.5755
  361 508.261 -92.1688 320.159
  362 508.261 -92.1688 320.159
  363 888.578 71.1732 -2.20720
  364 888.578 71.1732 -2.20720
  365 1152.18 9.98975 -8.77707
  366 1152.18 9.98975 -8.77707
  367 720.067 0.0570736 -22.2264
  368 720.067 0.0570736 -22.2264
  369 647.930 22.7487 -10.0037
  370 647.930 22.7487 -10.0037
  371 984.935 76.9161 29.3193
  372 984.935 76.9161 29.3193
  373 767.350 32.5793 -4.29022
  374 767.350 32.5793 -4.29022
  375 695.245 2.46825 -13.8569
  376 695.245 2.46825 -13.8569
  377 196.002 -91.4836 -135.893
  378 196.002 -91.4836 -135.893
  379 767.238 -13.9837 4.09954
  380 767.238 -13.9837 4.09954
  381 660.369 -1.30340 -54.3409
  382 660.369 -1.30340 -54.3409
  383 759.502 -1.31741 -23.5749
  384 759.502 -1.31741 -23.5749
  385 1158.88 19.9830 -34.9809
  386 1158.88 19.9830 -34.9809
  387 662.837 9.91024 6.23863
  388 662.837 9.91024 6.23863
  389 805.928 40.5239 18.2937
  390 805.928 40.5239 18.2937
  391 861.418 -15.6336 16.2349
  392 861.418 -15.6336 16.2349
  393 665.075 11.6817 -14.0554
  394 665.075 11.6817 -14.0554
  395 1224.65 127.678 -165.222
  396 1224.65 127.678 -165.222
  397 756.217 -11.3989 -8.80244
  398 756.217 -11.3989 -8.80244
</Section>

newXOutput 202

<Section columns = "stress_xx | stress_yy | stress_xy">
  1 669.080 0.661577 -0.690080
  2 669.385 0.810742 0.929466
  3 669.080 0.661577 -0.690080
  4 669.385 0.810742 0.929466
  5 996.004 92.1657 298.525
  6 1032.96 91.1916 -293.892
  7 996.004 92.1657 298.525
  8 1032.96 91.1916 -293.892
  9 670.596 0.457305 -1.81900
  10 675.603 0.798215 -3.25189
  11 682.908 1.78620 -6.65666
  12 699.812 0.634750 -9.03535
  13 721.879 0.970001 -15.1011
  14 748.227 -7.00728 -15.3612
  15 773.381 -8.27671 -2.56090
  16 765.010 -5.52904 11.1653
  17 740.564 6.22058 20.5070
  18 727.096 14.7006 -0.809853
  19 736.689 6.99004 -19.3700
  20 764.434 -8.26647 -13.5647
  21 766.640 -10.0677 6.11255
  22 752.008 -4.60316 13.3117
  23 717.445 0.00678200 15.2623
  24 698.393 2.50676 11.4758
  25 683.379 2.05116 6.38731
  26 675.755 0.643712 2.97601
  27 670.967 0.543633 1.76181
  28 670.257 2.34532 1.08361
  29 669.195 4.78371 1.27046
  30 666.575 8.27065 1.13643
  31 665.532 9.60304 -0.109573
  32 666.855 7.85296 -1.35725
  33 668.720 5.21571 -1.14109
  34 669.534 2.66772 -1.22360
  35 670.596 0.457305 -1.81900
  36 675.603 0.798215 -3.25189
  37 682.908 1.78620 -6.65666
  38 699.812 0.634750 -9.03535
  39 721.879 0.970001 -15.1011
  40 748.227 -7.00728 -15.3612
  41 773.381 -8.27671 -2.56090
  42 765.010 -5.52904 11.1653
  43 740.564 6.22058 20.5070
  44 727.096 14.7006 -0.809853
  45 736.689 6.99004 -19.3700
  46 764.434 -8.26647 -13.5647
  47 766.640 -10.0677 6.11255
  48 752.008 -4.60316 13.3117
  49 717.445 0.00678200 15.2623
  50 698.393 2.50676 11.4758
  51 683.379 2.05116 6.38731
  52 675.755 0.643712 2.97601
  53 670.967 0.543633 1.76181
  54 670.257 2.34532 1.08361
  55 669.195 4.78371 1.27046
  56 666.575 8.27065 1.13643
  57 665.532 9.60304 -0.109573
  58 666.855 7.85296 -1.35725
  59 668.720 5.21571 -1.14109
  60 669.534 2.66772 -1.22360
  61 1367.78 75.3927 146.726
  62 1251.45 20.1166 50.6141
  63 1184.23 7.85323 18.2853
  64 1169.70 5.81572 3.35284
  65 1183.49 7.84309 -15.5621
  66 1235.32 17.1244 -43.5768
  67 1380.75 65.5029 -126.365
  68 187.914 -185.854 -251.849
  69 37.3299 -490.061 -70.7363
  70 8.70446 -571.259 -30.8634
  71 8.40713 -562.461 -13.8543
  72 16.0039 -543.584 33.1242
  73 41.0211 -474.715 75.1626
  74 202.108 -171.485 278.270
  75 1367.78 75.3927 146.726
  76 1251.45 20.1166 50.6141
  77 1184.23 7.85323 18.2853
  78 1169.70 5.81572 3.35284
  79 1183.49 7.84309 -15.5621
  80 1235.32 17.1244 -43.5768
  81 1380.75 65.5029 -126.365
  82 187.914 -185.854 -251.849
  83 37.3299 -490.061 -70.7363
  84 8.70446 -571.259 -30.8634
  85 8.40713 -562.461 -13.8543
  86 16.0039 -543.584 33.1242
  87 41.0211 -474.715 75.1626
  88 202.108 -171.485 278.270
  89 618.904 34.7411 -8.91633
  90 618.904 34.7411 -8.91633
  91 565.999 8.02945 82.2554
  92 544.250 -3.11780 -98.7364
  93 565.999 8.02945 82.2554
  94 544.250 -3.11780 -98.7364
  95 327.464 10.4873 40.3136
  96 327.464 10.4873 40.3136
  97 823.077 53.7508 -10.1741
  98 835.799 32.2802 19.2785
  99 823.077 53.7508 -10.1741
  100 835.799 32.2802 19.2785
  101 660.649 15.5046 8.63639
  102 660.649 15.5046 8.63639
  103 783.460 -44.6535 5.52369
  104 783.460 -44.6535 5.52369
  105 661.350 16.2329 -10.6752
  106 661.350 16.2329 -10.6752
  107 767.073 -95.8658 -90.9763
  108 767.073 -95.8658 -90.9763
  109 541.761 -114.157 222.737
  110 541.761 -114.157 222.737
  111 371.251 -65.7225 -180.773
  112 371.251 -65.7225 -180.773
  113 663.583 10.7649 38.2843
  114 663.583 10.7649 38.2843
  115 686.224 4.26255 -36.8168
  116 686.224 4.26255 -36.8168
  117 922.478 65.1977 17.0753
  118 984.694 62.8631 6.89844
  119 922.478 65.1977 17.0753
  120 984.694 62.8631 6.89844
  121 966.002 83.4866 -31.3310
  122 966.002 83.4866 -31.3310
  123 110.061 -172.954 -62.0711
  124 110.061 -172.954 -62.0711
  125 829.454 -101.736 101.704
  126 829.454 -101.736 101.704
  127 708.139 -17.4453 44.6699
  128 708.139 -17.4453 44.6699
  129 167.326 -148.785 141.145
  130 167.326 -148.785 141.145
  131 661.519 12.9109 -0.535404
  132 661.519 12.9109 -0.535404
  133 706.649 -33.4095 -57.4509
  134 706.649 -33.4095 -57.4509
  135 670.913 5.30297 6.17840
  136 670.913 5.30297 6.17840
  137 671.408 4.67523 -5.75365
  138 671.408 4.67523 -5.75365
  139 678.310 9.02410 -18.8275
  140 678.310 9.02410 -18.8275
  141 675.456 8.81760 16.8965
  142 675.456 8.81760 16.8965
  143 649.299 21.6610 -0.705345
  144 649.299 21.6610 -0.705345
  145 548.203 35.9740 -4.23718
  146 548.203 35.9740 -4.23718
  147 780.673 -27.6432 7.98250
  148 780.673 -27.6432 7.98250
  149 884.493 -26.1775 -44.5108
  150 884.493 -26.1775 -44.5108
  151 689.090 -77.8449 110.411
  152 689.090 -77.8449 110.411
  153 519.827 -139.618 -254.331
  154 519.827 -139.618 -254.331
  155 619.762 25.0421 36.6147
  156 619.762 25.0421 36.6147
  157 794.846 -3.99990 -24.1207
  158 794.846 -3.99990 -24.1207
  159 1067.45 87.3382 66.2613
  160 1067.45 87.3382 66.2613
  161 540.729 -151.073 292.440
  162 540.729 -151.073 292.440
  163 1086.15 34.7030 -12.7794
  164 1086.15 34.7030 -12.7794
  165 646.807 21.6342 16.6782
  166 646.807 21.6342 16.6782
  167 615.770 20.7558 -53.9480
  168 615.770 20.7558 -53.9480
  169 760.506 23.7085 15.5643
  170 760.506 23.7085 15.5643
  171 641.186 25.8932 -19.0210
  172 641.186 25.8932 -19.0210
  173 665.143 10.3650 2.70288
  174 665.143 10.3650 2.70288
  175 675.040 5.03209 -9.88031
  176 675.040 5.03209 -9.88031
  177 1025.50 87.0524 -69.9503
  178 1025.50 87.0524 -69.9503
  179 665.604 10.0991 -3.25774
  180 665.604 10.0991 -3.25774
  181 498.674 36.5340 -28.3858
  182 498.674 36.5340 -28.3858
  183 879.585 66.0342 1.13472
  184 879.585 66.0342 1.13472
  185 182.433 -146.113 -181.521
  186 182.433 -146.113 -181.521
  187 489.299 -4.67459 120.758
  188 489.299 -4.67459 120.758
  189 642.834 -105.174 -172.544
  190 642.834 -105.174 -172.544
  191 759.051 -21.2506 11.3607
  192 759.051 -21.2506 11.3607
  193 711.379 -2.72111 26.9365
  194 711.379 -2.72111 26.9365
  195 955.369 34.9016 67.7853
  196 955.369 34.9016 67.7853
  197 411.514 14.1994 -74.9755
  198 411.514 14.1994 -74.9755
  199 1078.58 47.2435 29.7685
  200 1078.58 47.2435 29.7685
  201 724.175 -9.25880 -28.9335
  202 724.175 -9.25880 -28.9335
  203 676.018 3.58273 9.10075
  204 676.018 3.58273 9.10075
  205 753.051 -30.0541 -16.9377
  206 753.051 -30.0541 -16.9377
  207 820.780 -40.1581 -11.5814
  208 820.780 -40.1581 -11.5814
  209 52.0647 -307.876 28.0991
  210 52.0647 -307.876 28.0991
  211 695.759 3.34871 -23.3334
  212 695.759 3.34871 -23.3334
  213 690.305 5.21669 20.2712
  214 690.305 5.21669 20.2712
  215 663.695 -61.5601 -109.088
  216 663.695 -61.5601 -109.088
  217 774.206 -16.4730 -14.4270
  218 774.206 -16.4730 -14.4270
  219 638.736 22.6423 -36.5546
  220 638.736 22.6423 -36.5546
  221 175.903 -213.839 200.710
  222 175.903 -213.839 200.710
  223 785.967 4.56733 23.2462
  224 785.967 4.56733 23.2462
  225 766.452 20.2133 -20.3472
  226 766.452 20.2133 -20.3472
  227 1068.17 63.6145 -52.0039
  228 1068.17 63.6145 -52.0039
  229 823.944 -29.2620 -7.39802
  230 823.944 -29.2620 -7.39802
  231 890.608 -30.7663 -171.155
  232 890.608 -30.7663 -171.155
  233 666.690 -30.2725 83.2169
  234 666.690 -30.2725 83.2169
  235 655.911 18.0470 2.78854
  236 655.911 18.0470 2.78854
  237 353.033 -50.3298 159.752
  238 353.033 -50.3298 159.752
  239 852.223 -66.8201 197.870
  240 852.223 -66.8201 197.870
  241 243.239 -27.7985 -79.5784
  242 243.239 -27.7985 -79.5784
  243 767.223 -58.2194 -40.6041
  244 767.223 -58.2194 -40.6041
  245 633.046 28.0237 20.9700
  246 633.046 28.0237 20.9700
  247 21.6723 -404.499 -23.3326
  248 21.6723 -404.499 -23.3326
  249 43.2795 -351.930 76.8268
  250 43.2795 -351.930 76.8268
  251 643.029 4.35035 59.1342
  252 643.029 4.35035 59.1342
  253 670.201 2.49988 2.21677
  254 670.201 2.49988 2.21677
  255 665.098 10.4200 0.427183
  256 665.098 10.4200 0.427183
  257 625.300 -7.81641 -79.1554
  258 625.300 -7.81641 -79.1554
  259 670.536 2.28621 -2.34885
  260 670.536 2.28621 -2.34885
  261 737.629 -52.5369 51.9198
  262 737.629 -52.5369 51.9198
  263 686.970 2.32450 -11.1058
  264 686.970 2.32450 -11.1058
  265 535.863 -45.4837 -148.884
  266 535.863 -45.4837 -148.884
  267 901.477 69.9874 1.34410
  268 901.477 69.9874 1.34410
  269 664.239 14.3485 -29.4816
  270 664.239 14.3485 -29.4816
  271 661.934 13.4150 -5.73098
  272 661.934 13.4150 -5.73098
  273 567.155 27.4346 -54.1192
  274 567.155 27.4346 -54.1192
  275 176.612 -62.3237 46.5218
  276 176.612 -62.3237 46.5218
  277 702.680 -118.409 154.492
  278 702.680 -118.409 154.492
  279 668.403 9.68421 11.2396
  280 668.403 9.68421 11.2396
  281 978.363 68.6987 -17.4190
  282 978.363 68.6987 -17.4190
  283 1153.36 108.145 144.248
  284 1153.36 108.145 144.248
  285 788.171 -84.1162 54.2247
  286 788.171 -84.1162 54.2247
  287 578.157 28.6801 39.4771
  288 578.157 28.6801 39.4771
  289 719.985 -145.263 204.334
  290 719.985 -145.263 204.334
  291 746.485 -9.09660 18.9714
  292 746.485 -9.09660 18.9714
  293 667.993 6.37093 3.04660
  294 667.993 6.37093 3.04660
  295 659.323 17.6617 -18.5813
  296 659.323 17.6617 -18.5813
  297 665.243 10.2557 -0.837130
  298 665.243 10.2557 -0.837130
  299 673.849 1.82098 -4.25747
  300 673.849 1.82098 -4.25747
  301 686.449 3.28399 11.1472
  302 686.449 3.28399 11.1472
  303 656.062 17.9559 -4.73668
  304 656.062 17.9559 -4.73668
  305 150.499 -248.917 -191.928
  306 150.499 -248.917 -191.928
  307 457.577 30.2436 37.2203
  308 457.577 30.2436 37.2203
  309 668.627 5.32751 -2.92113
  310 668.627 5.32751 -2.92113
  311 593.768 33.7328 -26.3930
  312 593.768 33.7328 -26.3930
  313 595.334 36.7697 9.99694
  314 595.334 36.7697 9.99694
  315 667.385 9.31176 -7.93379
  316 667.385 9.31176 -7.93379
  317 886.486 50.0892 -10.5775
  318 886.486 50.0892 -10.5775
  319 662.817 15.6477 25.6966
  320 662.817 15.6477 25.6966
  321 839.722 28.2375 -16.6083
  322 839.722 28.2375 -16.6083
  323 1206.71 33.4818 83.0808
  324 1206.71 33.4818 83.0808
  325 660.590 16.1921 16.0057
  326 660.590 16.1921 16.0057
  327 650.960 21.4596 8.37378
  328 650.960 21.4596 8.37378
  329 501.140 -91.3146 -295.598
  330 501.140 -91.3146 -295.598
  331 674.236 1.64492 4.16336
  332 674.236 1.64492 4.16336
  333 661.372 13.5076 4.28691
  334 661.372 13.5076 4.28691
  335 638.732 27.9498 0.964477
  336 638.732 27.9498 0.964477
  337 332.536 -116.428 235.617
  338 332.536 -116.428 235.617
  339 818.493 54.2427 2.96920
  340 818.493 54.2427 2.96920
  341 46.4039 -344.238 -87.6986
  342 46.4039 -344.238 -87.6986
  343 518.842 32.6601 32.8553
  344 518.842 32.6601 32.8553
  345 1143.44 14.9138 10.9431
  346 1143.44 14.9138 10.9431
  347 1194.71 62.1200 -86.2730
  348 1194.71 62.1200 -86.2730
  349 577.299 -67.3645 166.666
  350 602.846 -34.4666 122.258
  351 577.299 -67.3645 166.666
  352 602.846 -34.4666 122.258
  353 1160.18 27.9579 42.6952
  354 1160.18 27.9579 42.6952
  355 682.518 -1.21168 46.0732
  356 682.518 -1.21168 46.0732
  357 798.095 -108.059 -122.764
  358 798.095 -108.059 -122.764
  359 767.147 -6.34805 19.6393
  360 767.147 -6.34805 19.6393
  361 510.498 -92.4156 321.762
  362 510.498 -92.4156 321.762
  363 892.616 71.4964 -2.21534
  364 892.616 71.4964 -2.21534
  365 1157.13 10.0278 -8.81411
  366 1157.13 10.0278 -8.81411
  367 723.348 0.0543282 -22.3241
  368 723.348 0.0543282 -22.3241
  369 650.933 22.8485 -10.0452
  370 650.933 22.8485 -10.0452
  371 989.337 77.2650 29.4896
  372 989.337 77.2650 29.4896
  373 770.900 32.7355 -4.30427
  374 770.900 32.7355 -4.30427
  375 698.426 2.47778 -13.9143
  376 698.426 2.47778 -13.9143
  377 196.969 -91.8784 -136.583
  378 196.969 -91.8784 -136.583
  379 770.733 -14.0493 4.09935
  380 770.733 -14.0493 4.09935
  381 663.414 -1.31198 -54.5870
  382 663.414 -1.31198 -54.5870
  383 762.998 -1.32076 -23.6538
  384 762.998 -1.32076 -23.6538
  385 1163.88 20.0648 -35.1302
  386 1163.88 20.0648 -35.1302
  387 665.896 9.95293 6.26331
  388 665.896 9.95293 6.26331
  389 809.623 40.7220 18.3405
  390 809.623 40.7220 18.3405
  391 865.290 -15.6733 16.3856
  392 865.290 -15.6733 16.3856
  393 668.143 11.7324 -14.1124
  394 668.143 11.7324 -14.1124
  395 1229.90 128.355 -166.020
  396 1229.90 128.355 -166.020
  397 759.653 -11.4547 -8.85124
  398 759.653 -11.4547 -8.85124
</Section>

newXOutput 203

<Section columns = "stress_xx | stress_yy | stress_xy">
  1 672.147 0.664701 -0.692648
  2 672.454 0.814470 0.932915
  3 672.147 0.664701 -0.692648
  4 672.454 0.814470 0.932915
  5 1000.23 92.8223 299.972
  6 1037.33 91.8525 -295.318
  7 1000.23 92.8223 299.972
  8 1037.33 91.8525 -295.318
  9 673.669 0.459375 -1.82586
  10 678.694 0.801717 -3.26434
  11 686.026 1.79380 -6.68273
  12 702.993 0.637113 -9.07167
  13 725.147 0.972738 -15.1649
  14 751.603 -7.04246 -15.4310
  15 776.871 -8.31671 -2.58009
  16 768.495 -5.55421 11.1996
  17 743.981 6.25380 20.5792
  18 730.474 14.7734 -0.812794
  19 740.093 7.02413 -19.4395
  20 767.918 -8.30454 -13.6059
  21 770.102 -10.1165 6.14934
  22 755.400 -4.62603 13.3728
  23 720.697 0.00456862 15.3275
  24 701.570 2.51693 11.5223
  25 686.499 2.05990 6.41223
  26 678.847 0.646559 2.98738
  27 674.041 0.546123 1.76851
  28 673.328 2.35555 1.08761
  29 672.263 4.80428 1.27526
  30 669.635 8.30579 1.14079
  31 668.588 9.64370 -0.109986
  32 669.915 7.88639 -1.36240
  33 671.787 5.23815 -1.14525
  34 672.603 2.67944 -1.22823
  35 673.669 0.459375 -1.82586
  36 678.694 0.801717 -3.26434
  37 686.026 1.79380 -6.68273
  38 702.993 0.637113 -9.07167
  39 725.147 0.972738 -15.1649
  40 751.603 -7.04246 -15.4310
  41 776.871 -8.31671 -2.58009
  42 768.495 -5.55421 11.1996
  43 743.981 6.25380 20.5792
  44 730.474 14.7734 -0.812794
  45 740.093 7.02413 -19.4395
  46 767.918 -8.30454 -13.6059
  47 770.102 -10.1165 6.14934
  48 755.400 -4.62603 13.3728
  49 720.697 0.00456862 15.3275
  50 701.570 2.51693 11.5223
  51 686.499 2.05990 6.41223
  52 678.847 0.646559 2.98738
  53 674.041 0.546123 1.76851
  54 673.328 2.35555 1.08761
  55 672.263 4.80428 1.27526
  56 669.635 8.30579 1.14079
  57 668.588 9.64370 -0.109986
  58 669.915 7.88639 -1.36240
  59 671.787 5.23815 -1.14525
  60 672.603 2.67944 -1.22823
  61 1373.49 75.7478 147.369
  62 1256.73 20.1981 50.8237
  63 1189.26 7.87975 18.3572
  64 1174.68 5.83688 3.36384
  65 1188.52 7.87305 -15.6229
  66 1240.54 17.1926 -43.7541
  67 1386.52 65.8104 -126.919
  68 188.745 -186.456 -253.146
  69 37.4970 -492.343 -71.1628
  70 8.72498 -574.057 -31.0500
  71 8.42819 -565.230 -13.9219
  72 16.0639 -546.225 33.3254
  73 41.2098 -476.923 75.6179
  74 202.985 -172.023 279.696
  75 1373.49 75.7478 147.369
  76 1256.73 20.1981 50.8237
  77 1189.26 7.87975 18.3572
  78 1174.68 5.83688 3.36384
  79 1188.52 7.87305 -15.6229
  80 1240.54 17.1926 -43.7541
  81 1386.52 65.8104 -126.919
  82 188.745 -186.456 -253.146
  83 37.4970 -492.343 -71.1628
  84 8.72498 -574.057 -31.0500
  85 8.42819 -565.230 -13.9219
  86 16.0639 -546.225 33.3254
  87 41.2098 -476.923 75.6179
  88 202.985 -172.023 279.696
  89 621.778 34.8961 -8.95489
  90 621.778 34.8961 -8.95489
  91 568.636 8.06837 82.6279
  92 546.790 -3.13013 -99.1891
  93 568.636 8.06837 82.6279
  94 546.790 -3.13013 -99.1891
  95 329.056 10.5572 40.5044
  96 329.056 10.5572 40.5044
  97 826.831 54.0039 -10.1968
  98 839.584 32.4468 19.3082
  99 826.831 54.0039 -10.1968
  100 839.584 32.4468 19.3082
  101 663.688 15.5715 8.67106
  102 663.688 15.5715 8.67106
  103 786.999 -44.8561 5.59110
  104 786.999 -44.8561 5.59110
  105 664.391 16.3031 -10.7182
  106 664.391 16.3031 -10.7182
  107 770.513 -96.3080 -91.4282
  108 770.513 -96.3080 -91.4282
  109 544.237 -114.694 223.804
  110 544.237 -114.694 223.804
  111 372.996 -66.0205 -181.649
  112 372.996 -66.0205 -181.649
  113 666.630 10.8107 38.4504
  114 666.630 10.8107 38.4504
  115 689.360 4.27833 -36.9786
  116 689.360 4.27833 -36.9786
  117 926.611 65.5212 17.2244
  118 989.072 63.1344 6.94026
  119 926.611 65.5212 17.2244
  120 989.072 63.1344 6.94026
  121 970.314 83.8786 -31.5256
  122 970.314 83.8786 -31.5256
  123 110.593 -173.716 -62.3996
  124 110.593 -173.716 -62.3996
  125 833.139 -102.175 102.239
  126 833.139 -102.175 102.239
  127 711.362 -17.5284 44.8785
  128 711.362 -17.5284 44.8785
  129 168.131 -149.436 141.878
  130 168.131 -149.436 141.878
  131 664.560 12.9662 -0.537448
  132 664.560 12.9662 -0.537448
  133 709.862 -33.5662 -57.7239
  134 709.862 -33.5662 -57.7239
  135 673.987 5.32583 6.20247
  136 673.987 5.32583 6.20247
  137 674.484 4.69550 -5.77596
  138 674.484 4.69550 -5.77596
  139 681.414 9.06245 -18.9050
  140 681.414 9.06245 -18.9050
  141 678.548 8.85532 16.9655
  142 678.548 8.85532 16.9655
  143 652.294 21.7552 -0.708397
  144 652.294 21.7552 -0.708397
  145 550.782 36.1393 -4.25661
  146 550.782 36.1393 -4.25661
  147 784.210 -27.7665 7.98189
  148 784.210 -27.7665 7.98189
  149 888.429 -26.2478 -44.8014
  150 888.429 -26.2478 -44.8014
  151 692.213 -78.2081 110.934
  152 692.213 -78.2081 110.934
  153 522.174 -140.240 -255.588
  154 522.174 -140.240 -255.588
  155 622.635 25.1547 36.7750
  156 622.635 25.1547 36.7750
  157 798.453 -4.00963 -24.1844
  158 798.453 -4.00963 -24.1844
  159 1072.13 87.7456 66.5996
  160 1072.13 87.7456 66.5996
  161 543.163 -151.761 293.869
  162 543.163 -151.761 293.869
  163 1090.88 34.8432 -12.8380
  164 1090.88 34.8432 -12.8380
  165 649.792 21.7286 16.7478
  166 649.792 21.7286 16.7478
  167 618.623 20.8497 -54.1879
  168 618.623 20.8497 -54.1879
  169 764.009 23.8253 15.6174
  170 764.009 23.8253 15.6174
  171 644.148 26.0071 -19.1012
  172 644.148 26.0071 -19.1012
  173 668.197 10.4092 2.71342
  174 668.197 10.4092 2.71342
  175 678.130 5.05360 -9.91948
  176 678.130 5.05360 -9.91948
  177 1030.02 87.4978 -70.3439
  178 1030.02 87.4978 -70.3439
  179 668.660 10.1423 -3.27038
  180 668.660 10.1423 -3.27038
  181 501.036 36.7076 -28.5150
  182 501.036 36.7076 -28.5150
  183 883.561 66.3431 1.09962
  184 883.561 66.3431 1.09962
  185 183.298 -146.752 -182.457
  186 183.298 -146.752 -182.457
  187 491.595 -4.69129 121.317
  188 491.595 -4.69129 121.317
  189 645.746 -105.666 -173.370
  190 645.746 -105.666 -173.370
  191 762.490 -21.3510 11.4313
  192 762.490 -21.3510 11.4313
  193 714.612 -2.73666 27.0561
  194 714.612 -2.73666 27.0561
  195 959.597 35.1238 68.1859
  196 959.597 35.1238 68.1859
  197 413.480 14.2775 -75.3264
  198 413.480 14.2775 -75.3264
  199 1083.29 47.4410 29.9096
  200 1083.29 47.4410 29.9096
  201 727.462 -9.30467 -29.0682
  202 727.462 -9.30467 -29.0682
  203 679.111 3.59793 9.13672
  204 679.111 3.59793 9.13672
  205 756.461 -30.1961 -17.0357
  206 756.461 -30.1961 -17.0357
  207 824.470 -40.3272 -11.6931
  208 824.470 -40.3272 -11.6931
  209 52.3082 -309.306 28.2553
  210 52.3082 -309.306 28.2553
  211 698.930 3.36085 -23.4326
  212 698.930 3.36085 -23.4326
  213 693.454 5.23832 20.3561
  214 693.454 5.23832 20.3561
  215 666.719 -61.8472 -109.602
  216 666.719 -61.8472 -109.602
  217 777.723 -16.5483 -14.4606
  218 777.723 -16.5483 -14.4606
  219 641.686 22.7429 -36.7140
  220 641.686 22.7429 -36.7140
  221 176.711 -214.764 201.761
  222 176.711 -214.764 201.761
  223 789.549 4.59878 23.3127
  224 789.549 4.59878 23.3127
  225 769.973 20.3138 -20.4134
  226 769.973 20.3138 -20.4134
  227 1072.85 63.8922 -52.2604
  228 1072.85 63.8922 -52.2604
  229 827.651 -29.3804 -7.37139
  230 827.651 -29.3804 -7.37139
  231 894.521 -30.8067 -172.040
  232 894.521 -30.8067 -172.040
  233 669.735 -30.4131 83.6001
  234 669.735 -30.4131 83.6001
  235 658.932 18.1250 2.79983
  236 658.932 18.1250 2.79983
  237 354.706 -50.5527 160.524
  238 354.706 -50.5527 160.524
  239 855.967 -67.0434 198.873
  240 855.967 -67.0434 198.873
  241 244.427 -27.8969 -79.9686
  242 244.427 -27.8969 -79.9686
  243 770.683 -58.4885 -40.8215
  244 770.683 -58.4885 -40.8215
  245 635.976 28.1479 21.0598
  246 635.976 28.1479 21.0598
  247 21.7623 -406.416 -23.4671
  248 21.7623 -406.416 -23.4671
  249 43.4761 -353.559 77.2638
  250 43.4761 -353.559 77.2638
  251 645.990 4.36905 59.3988
  252 645.990 4.36905 59.3988
  253 673.273 2.51079 2.22521
  254 673.273 2.51079 2.22521
  255 668.152 10.4642 0.428868
  256 668.152 10.4642 0.428868
  257 628.183 -7.85348 -79.5156
  258 628.183 -7.85348 -79.5156
  259 673.609 2.29629 -2.35779
  260 673.609 2.29629 -2.35779
  261 740.967 -52.7810 52.1785
  262 740.967 -52.7810 52.1785
  263 690.104 2.33405 -11.1503
  264 690.104 2.33405 -11.1503
  265 538.344 -45.6958 -149.582
  266 538.344 -45.6958 -149.582
  267 905.540 70.3115 1.39012
  268 905.540 70.3115 1.39012
  269 667.289 14.4103 -29.6070
  270 667.289 14.4103 -29.6070
  271 664.977 13.4726 -5.75363
  272 664.977 13.4726 -5.75363
  273 569.807 27.5616 -54.3620
  274 569.807 27.5616 -54.3620
  275 177.481 -62.5686 46.7568
  276 177.481 -62.5686 46.7568
  277 705.839 -118.961 155.237
  278 705.839 -118.961 155.237
  279 671.469 9.72586 11.2844
  280 671.469 9.72586 11.2844
  281 982.719 69.0001 -17.5165
  282 982.719 69.0001 -17.5165
  283 1158.33 108.707 144.953
  284 1158.33 108.707 144.953
  285 791.707 -84.4978 54.5204
  286 791.707 -84.4978 54.5204
  287 580.858 28.8116 39.6519
  288 580.858 28.8116 39.6519
  289 723.194 -145.932 205.324
  290 723.194 -145.932 205.324
  291 749.862 -9.14107 19.0625
  292 749.862 -9.14107 19.0625
  293 671.058 6.39821 3.05835
  294 671.058 6.39821 3.05835
  295 662.356 17.7384 -18.6579
  296 662.356 17.7384 -18.6579
  297 668.298 10.2993 -0.840360
  298 668.298 10.2993 -0.840360
  299 676.934 1.82888 -4.27391
  300 676.934 1.82888 -4.27391
  301 689.581 3.29774 11.1919
  302 689.581 3.29774 11.1919
  303 659.083 18.0335 -4.75582
  304 659.083 18.0335 -4.75582
  305 151.185 -249.986 -192.944
  306 151.185 -249.986 -192.944
  307 459.757 30.3916 37.3904
  308 459.757 30.3916 37.3904
  309 671.693 5.35045 -2.93233
  310 671.693 5.35045 -2.93233
  311 596.538 33.8853 -26.5093
  312 596.538 33.8853 -26.5093
  313 598.110 36.9358 10.0403
  314 598.110 36.9358 10.0403
  315 670.447 9.35180 -7.96511
  316 670.447 9.35180 -7.96511
  317 890.468 50.3502 -10.6995
  318 890.468 50.3502 -10.6995
  319 665.863 15.7156 25.8044
  320 665.863 15.7156 25.8044
  321 843.521 28.3850 -16.6266
  322 843.521 28.3850 -16.6266
  323 1211.86 33.6175 83.4520
  324 1211.86 33.6175 83.4520
  325 663.627 16.2622 16.0713
  326 663.627 16.2622 16.0713
  327 653.962 21.5529 8.40807
  328 653.962 21.5529 8.40807
  329 503.353 -91.5430 -297.085
  330 503.353 -91.5430 -297.085
  331 677.322 1.65205 4.17943
  332 677.322 1.65205 4.17943
  333 664.412 13.5655 4.30391
  334 664.412 13.5655 4.30391
  335 641.686 28.0726 0.968488
  336 641.686 28.0726 0.968488
  337 334.091 -116.962 236.787
  338 334.091 -116.962 236.787
  339 822.231 54.4973 2.97312
  340 822.231 54.4973 2.97312
  341 46.6092 -345.827 -88.1858
  342 46.6092 -345.827 -88.1858
  343 521.293 32.8134 33.0026
  344 521.293 32.8134 33.0026
  345 1148.34 14.9713 10.9869
  346 1148.34 14.9713 10.9869
  347 1199.84 62.4021 -86.6644
  348 1199.84 62.4021 -86.6644
  349 579.946 -67.6807 167.448
  350 605.620 -34.6265 122.821
  351 579.946 -67.6807 167.448
  352 605.620 -34.6265 122.821
  353 1165.16 28.0686 42.8790
  354 1165.16 28.0686 42.8790
  355 685.639 -1.21976 46.2788
  356 685.639 -1.21976 46.2788
  357 801.644 -108.543 -123.384
  358 801.644 -108.543 -123.384
  359 770.646 -6.37420 19.7028
  360 770.646 -6.37420 19.7028
  361 512.731 -92.6606 323.365
  362 512.731 -92.6606 323.365
  363 896.650 71.8193 -2.22347
  364 896.650 71.8193 -2.22347
  365 1162.08 10.0658 -8.85108
  366 1162.08 10.0658 -8.85108
  367 726.626 0.0515580 -22.4217
  368 726.626 0.0515580 -22.4217
  369 653.935 22.9481 -10.0865
  370 653.935 22.9481 -10.0865
  371 993.734 77.6136 29.6601
  372 993.734 77.6136 29.6601
  373 774.447 32.8917 -4.31826
  374 774.447 32.8917 -4.31826
  375 701.604 2.48730 -13.9715
  376 701.604 2.48730 -13.9715
  377 197.935 -92.2727 -137.274
  378 197.935 -92.2727 -137.274
  379 774.225 -14.1148 4.09899
  380 774.225 -14.1148 4.09899
  381 666.458 -1.32058 -54.8328
  382 666.458 -1.32058 -54.8328
  383 766.491 -1.32408 -23.7323
  384 766.491 -1.32408 -23.7323
  385 1168.86 20.1464 -35.2793
  386 1168.86 20.1464 -35.2793
  387 668.953 9.99556 6.28794
  388 668.953 9.99556 6.28794
  389 813.314 40.9201 18.3869
  390 813.314 40.9201 18.3869
  391 869.158 -15.7128 16.5369
  392 869.158 -15.7128 16.5369
  393 671.208 11.7829 -14.1693
  394 671.208 11.7829 -14.1693
  395 1235.14 129.032 -166.818
  396 1235.14 129.032 -166.818
  397 763.085 -11.5104 -8.90008
  398 763.085 -11.5104 -8.90008
</Section>

newXOutput 204

<Section columns = "stress_xx | stress_yy | stress_xy">
  1 675.213 0.667823 -0.695209
  2 675.521 0.818195 0.936354
  3 675.213 0.667823 -0.695209
  4 675.521 0.818195 0.936354
  5 1004.46 93.4807 301.418
  6 1041.69 92.5152 -296.744
  7 1004.46 93.4807 301.418
  8 1041.69 92.5152 -296.744
  9 676.740 0.461443 -1.83269
  10 681.783 0.805215 -3.27676
  11 689.141 1.80139 -6.70875
  12 706.172 0.639470 -9.10792
  13 728.411 0.975457 -15.2285
  14 754.976 -7.07764 -15.5007
  15 780.357 -8.35670 -2.59933
  16 771.978 -5.57937 11.2338
  17 747.396 6.28704 20.6512
  18 733.850 14.8463 -0.815724
  19 743.494 7.05822 -19.5088
  20 771.400 -8.34257 -13.6468
  21 773.560 -10.1653 6.18617
  22 758.788 -4.64889 13.4340
  23 723.946 0.00233668 15.3926
  24 704.744 2.52708 11.5687
  25 689.616 2.06863 6.43709
  26 681.936 0.649403 2.99871
  27 677.114 0.548611 1.77519
  28 676.398 2.36577 1.09160
  29 675.329 4.82484 1.28005
  30 672.692 8.34088 1.14513
  31 671.642 9.68429 -0.110398
  32 672.973 7.91978 -1.36753
  33 674.851 5.26055 -1.14940
  34 675.670 2.69115 -1.23285
  35 676.740 0.461443 -1.83269
  36 681.783 0.805215 -3.27676
  37 689.141 1.80139 -6.70875
  38 706.172 0.639470 -9.10792
  39 728.411 0.975457 -15.2285
  40 754.976 -7.07764 -15.5007
  41 780.357 -8.35670 -2.59933
  42 771.978 -5.57937 11.2338
  43 747.396 6.28704 20.6512
  44 733.850 14.8463 -0.815724
  45 743.494 7.05822 -19.5088
  46 771.400 -8.34257 -13.6468
  47 773.560 -10.1653 6.18617
  48 758.788 -4.64889 13.4340
  49 723.946 0.00233668 15.3926
  50 704.744 2.52708 11.5687
  51 689.616 2.06863 6.43709
  52 681.936 0.649403 2.99871
  53 677.114 0.548611 1.77519
  54 676.398 2.36577 1.09160
  55 675.329 4.82484 1.28005
  56 672.692 8.34088 1.14513
  57 671.642 9.68429 -0.110398
  58 672.973 7.91978 -1.36753
  59 674.851 5.26055 -1.14940
  60 675.670 2.69115 -1.23285
  61 1379.19 76.1027 148.011
  62 1261.99 20.2794 51.0329
  63 1194.28 7.90618 18.4290
  64 1179.64 5.85799 3.37478
  65 1193.53 7.90293 -15.6836
  66 1245.75 17.2607 -43.9311
  67 1392.28 66.1177 -127.471
  68 189.574 -187.055 -254.444
  69 37.6638 -494.623 -71.5901
  70 8.74529 -576.854 -31.2369
  71 8.44907 -568.000 -13.9894
  72 16.1238 -548.866 33.5268
  73 41.3983 -479.131 76.0739
  74 203.861 -172.558 281.122
  75 1379.19 76.1027 148.011
  76 1261.99 20.2794 51.0329
  77 1194.28 7.90618 18.4290
  78 1179.64 5.85799 3.37478
  79 1193.53 7.90293 -15.6836
  80 1245.75 17.2607 -43.9311
  81 1392.28 66.1177 -127.471
  82 189.574 -187.055 -254.444
  83 37.6638 -494.623 -71.5901
  84 8.74529 -576.854 -31.2369
  85 8.44907 -568.000 -13.9894
  86 16.1238 -548.866 33.5268
  87 41.3983 -479.131 76.0739
  88 203.861 -172.558 281.122
  89 624.651 35.0509 -8.99339
  90 624.651 35.0509 -8.99339
  91 571.271 8.10728 83.0001
  92 549.328 -3.14243 -99.6414
  93 571.271 8.10728 83.0001
  94 549.328 -3.14243 -99.6414
  95 330.647 10.6271 40.6952
  96 330.647 10.6271 40.6952
  97 830.582 54.2569 -10.2192
  98 843.365 32.6134 19.3374
  99 830.582 54.2569 -10.2192
  100 843.365 32.6134 19.3374
  101 666.723 15.6382 8.70567
  102 666.723 15.6382 8.70567
  103 790.535 -45.0585 5.65883
  104 790.535 -45.0585 5.65883
  105 667.429 16.3733 -10.7612
  106 667.429 16.3733 -10.7612
  107 773.949 -96.7499 -91.8800
  108 773.949 -96.7499 -91.8800
  109 546.711 -115.230 224.870
  110 546.711 -115.230 224.870
  111 374.741 -66.3181 -182.526
  112 374.741 -66.3181 -182.526
  113 669.674 10.8565 38.6163
  114 669.674 10.8565 38.6163
  115 692.493 4.29406 -37.1401
  116 692.493 4.29406 -37.1401
  117 930.740 65.8448 17.3740
  118 993.444 63.4054 6.98212
  119 930.740 65.8448 17.3740
  120 993.444 63.4054 6.98212
  121 974.621 84.2704 -31.7204
  122 974.621 84.2704 -31.7204
  123 111.126 -174.477 -62.7282
  124 111.126 -174.477 -62.7282
  125 836.819 -102.613 102.774
  126 836.819 -102.613 102.774
  127 714.583 -17.6114 45.0870
  128 714.583 -17.6114 45.0870
  129 168.936 -150.086 142.610
  130 168.936 -150.086 142.610
  131 667.599 13.0214 -0.539487
  132 667.599 13.0214 -0.539487
  133 713.073 -33.7228 -57.9969
  134 713.073 -33.7228 -57.9969
  135 677.060 5.34866 6.22649
  136 677.060 5.34866 6.22649
  137 677.558 4.71574 -5.79821
  138 677.558 4.71574 -5.79821
  139 684.515 9.10073 -18.9824
  140 684.515 9.10073 -18.9824
  141 681.639 8.89299 17.0343
  142 681.639 8.89299 17.0343
  143 655.287 21.8492 -0.711444
  144 655.287 21.8492 -0.711444
  145 553.361 36.3046 -4.27602
  146 553.361 36.3046 -4.27602
  147 787.744 -27.8897 7.98095
  148 787.744 -27.8897 7.98095
  149 892.362 -26.3174 -45.0924
  150 892.362 -26.3174 -45.0924
  151 695.333 -78.5711 111.457
  152 695.333 -78.5711 111.457
  153 524.518 -140.861 -256.846
  154 524.518 -140.861 -256.846
  155 625.506 25.2672 36.9350
  156 625.506 25.2672 36.9350
  157 802.057 -4.01927 -24.2475
  158 802.057 -4.01927 -24.2475
  159 1076.81 88.1529 66.9379
  160 1076.81 88.1529 66.9379
  161 545.594 -152.449 295.297
  162 545.594 -152.449 295.297
  163 1095.60 34.9831 -12.8965
  164 1095.60 34.9831 -12.8965
  165 652.774 21.8229 16.8173
  166 652.774 21.8229 16.8173
  167 621.474 20.9435 -54.4275
  168 621.474 20.9435 -54.4275
  169 767.510 23.9420 15.6704
  170 767.510 23.9420 15.6704
  171 647.109 26.1208 -19.1812
  172 647.109 26.1208 -19.1812
  173 671.249 10.4534 2.72394
  174 671.249 10.4534 2.72394
  175 681.217 5.07507 -9.95857
  176 681.217 5.07507 -9.95857
  177 1034.52 87.9432 -70.7378
  178 1034.52 87.9432 -70.7378
  179 671.714 10.1855 -3.28300
  180 671.714 10.1855 -3.28300
  181 503.397 36.8810 -28.6441
  182 503.397 36.8810 -28.6441
  183 887.533 66.6518 1.06421
  184 887.533 66.6518 1.06421
  185 184.163 -147.390 -183.394
  186 184.163 -147.390 -183.394
  187 493.890 -4.70794 121.876
  188 493.890 -4.70794 121.876
  189 648.655 -106.158 -174.195
  190 648.655 -106.158 -174.195
  191 765.925 -21.4512 11.5021
  192 765.925 -21.4512 11.5021
  193 717.843 -2.75223 27.1755
  194 717.843 -2.75223 27.1755
  195 963.820 35.3464 68.5870
  196 963.820 35.3464 68.5870
  197 415.445 14.3556 -75.6771
  198 415.445 14.3556 -75.6771
  199 1087.99 47.6383 30.0506
  200 1087.99 47.6383 30.0506
  201 730.747 -9.35055 -29.2028
  202 730.747 -9.35055 -29.2028
  203 682.202 3.61311 9.17261
  204 682.202 3.61311 9.17261
  205 759.869 -30.3380 -17.1337
  206 759.869 -30.3380 -17.1337
  207 828.157 -40.4961 -11.8052
  208 828.157 -40.4961 -11.8052
  209 52.5516 -310.734 28.4116
  210 52.5516 -310.734 28.4116
  211 702.098 3.37294 -23.5318
  212 702.098 3.37294 -23.5318
  213 696.601 5.25992 20.4410
  214 696.601 5.25992 20.4410
  215 669.741 -62.1341 -110.115
  216 669.741 -62.1341 -110.115
  217 781.236 -16.6236 -14.4939
  218 781.236 -16.6236 -14.4939
  219 644.633 22.8433 -36.8733
  220 644.633 22.8433 -36.8733
  221 177.519 -215.687 202.813
  222 177.519 -215.687 202.813
  223 793.129 4.63031 23.3788
  224 793.129 4.63031 23.3788
  225 773.491 20.4143 -20.4793
  226 773.491 20.4143 -20.4793
  227 1077.52 64.1695 -52.5168
  228 1077.52 64.1695 -52.5168
  229 831.355 -29.4986 -7.34424
  230 831.355 -29.4986 -7.34424
  231 898.430 -30.8462 -172.925
  232 898.430 -30.8462 -172.925
  233 672.779 -30.5536 83.9831
  234 672.779 -30.5536 83.9831
  235 661.951 18.2028 2.81111
  236 661.951 18.2028 2.81111
  237 356.378 -50.7753 161.295
  238 356.378 -50.7753 161.295
  239 859.706 -67.2657 199.876
  240 859.706 -67.2657 199.876
  241 245.615 -27.9950 -80.3587
  242 245.615 -27.9950 -80.3587
  243 774.139 -58.7574 -41.0390
  244 774.139 -58.7574 -41.0390
  245 638.903 28.2721 21.1493
  246 638.903 28.2721 21.1493
  247 21.8521 -408.332 -23.6018
  248 21.8521 -408.332 -23.6018
  249 43.6725 -355.187 77.7014
  250 43.6725 -355.187 77.7014
  251 648.948 4.38773 59.6630
  252 648.948 4.38773 59.6630
  253 676.343 2.52169 2.23362
  254 676.343 2.52169 2.23362
  255 671.204 10.5084 0.430550
  256 671.204 10.5084 0.430550
  257 631.064 -7.89053 -79.8754
  258 631.064 -7.89053 -79.8754
  259 676.679 2.30636 -2.36671
  260 676.679 2.30636 -2.36671
  261 744.302 -53.0249 52.4372
  262 744.302 -53.0249 52.4372
  263 693.236 2.34359 -11.1947
  264 693.236 2.34359 -11.1947
  265 540.824 -45.9078 -150.279
  266 540.824 -45.9078 -150.279
  267 909.598 70.6353 1.43644
  268 909.598 70.6353 1.43644
  269 670.338 14.4721 -29.7321
  270 670.338 14.4721 -29.7321
  271 668.017 13.5302 -5.77624
  272 668.017 13.5302 -5.77624
  273 572.458 27.6884 -54.6046
  274 572.458 27.6884 -54.6046
  275 178.350 -62.8130 46.9919
  276 178.350 -62.8130 46.9919
  277 708.995 -119.512 155.981
  278 708.995 -119.512 155.981
  279 674.533 9.76744 11.3292
  280 674.533 9.76744 11.3292
  281 987.070 69.3011 -17.6140
  282 987.070 69.3011 -17.6140
  283 1163.29 109.268 145.657
  284 1163.29 109.268 145.657
  285 795.240 -84.8790 54.8164
  286 795.240 -84.8790 54.8164
  287 583.558 28.9431 39.8265
  288 583.558 28.9431 39.8265
  289 726.400 -146.600 206.315
  290 726.400 -146.600 206.315
  291 753.237 -9.18554 19.1535
  292 753.237 -9.18554 19.1535
  293 674.119 6.42546 3.07007
  294 674.119 6.42546 3.07007
  295 665.386 17.8150 -18.7344
  296 665.386 17.8150 -18.7344
  297 671.350 10.3428 -0.843583
  298 671.350 10.3428 -0.843583
  299 680.016 1.83678 -4.29031
  300 680.016 1.83678 -4.29031
  301 692.711 3.31146 11.2365
  302 692.711 3.31146 11.2365
  303 662.102 18.1111 -4.77492
  304 662.102 18.1111 -4.77492
  305 151.870 -251.053 -193.960
  306 151.870 -251.053 -193.960
  307 461.935 30.5397 37.5604
  308 461.935 30.5397 37.5604
  309 674.757 5.37336 -2.94350
  310 674.757 5.37336 -2.94350
  311 599.305 34.0377 -26.6254
  312 599.305 34.0377 -26.6254
  313 600.886 37.1017 10.0836
  314 600.886 37.1017 10.0836
  315 673.506 9.39178 -7.99636
  316 673.506 9.39178 -7.99636
  317 894.445 50.6114 -10.8219
  318 894.445 50.6114 -10.8219
  319 668.906 15.7835 25.9120
  320 668.906 15.7835 25.9120
  321 847.315 28.5324 -16.6444
  322 847.315 28.5324 -16.6444
  323 1217.01 33.7529 83.8228
  324 1217.01 33.7529 83.8228
  325 666.663 16.3323 16.1366
  326 666.663 16.3323 16.1366
  327 656.961 21.6460 8.44230
  328 656.961 21.6460 8.44230
  329 505.564 -91.7694 -298.573
  330 505.564 -91.7694 -298.573
  331 680.406 1.65917 4.19545
  332 680.406 1.65917 4.19545
  333 667.451 13.6234 4.32087
  334 667.451 13.6234 4.32087
  335 644.638 28.1954 0.972493
  336 644.638 28.1954 0.972493
  337 335.646 -117.496 237.957
  338 335.646 -117.496 237.957
  339 825.967 54.7518 2.97694
  340 825.967 54.7518 2.97694
  341 46.8143 -347.416 -88.6734
  342 46.8143 -347.416 -88.6734
  343 523.742 32.9667 33.1497
  344 523.742 32.9667 33.1497
  345 1153.24 15.0286 11.0307
  346 1153.24 15.0286 11.0307
  347 1204.96 62.6840 -87.0555
  348 1204.96 62.6840 -87.0555
  349 582.591 -67.9967 168.229
  350 608.392 -34.7863 123.382
  351 582.591 -67.9967 168.229
  352 608.392 -34.7863 123.382
  353 1170.13 28.1789 43.0625
  354 1170.13 28.1789 43.0625
  355 688.758 -1.22786 46.4841
  356 688.758 -1.22786 46.4841
  357 805.188 -109.026 -124.005
  358 805.188 -109.026 -124.005
  359 774.143 -6.40030 19.7660
  360 774.143 -6.40030 19.7660
  361 514.961 -92.9036 324.968
  362 514.961 -92.9036 324.968
  363 900.680 72.1420 -2.23156
  364 900.680 72.1420 -2.23156
  365 1167.01 10.1037 -8.88799
  366 1167.01 10.1037 -8.88799
  367 729.901 0.0487632 -22.5191
  368 729.901 0.0487632 -22.5191
  369 656.934 23.0476 -10.1278
  370 656.934 23.0476 -10.1278
  371 998.126 77.9619 29.8307
  372 998.126 77.9619 29.8307
  373 777.991 33.0478 -4.33218
  374 777.991 33.0478 -4.33218
  375 704.779 2.49679 -14.0286
  376 704.779 2.49679 -14.0286
  377 198.901 -92.6664 -137.965
  378 198.901 -92.6664 -137.965
  379 777.714 -14.1803 4.09846
  380 777.714 -14.1803 4.09846
  381 669.498 -1.32919 -55.0784
  382 669.498 -1.32919 -55.0784
  383 769.980 -1.32737 -23.8106
  384 769.980 -1.32737 -23.8106
  385 1173.84 20.2280 -35.4282
  386 1173.84 20.2280 -35.4282
  387 672.008 10.0381 6.31251
  388 672.008 10.0381 6.31251
  389 817.002 41.1181 18.4330
  390 817.002 41.1181 18.4330
  391 873.022 -15.7519 16.6888
  392 873.022 -15.7519 16.6888
  393 674.271 11.8335 -14.2261
  394 674.271 11.8335 -14.2261
  395 1240.38 129.709 -167.615
  396 1240.38 129.709 -167.615
  397 766.515 -11.5662 -8.94895
  398 766.515 -11.5662 -8.94895
</Section>

newXOutput 205

<Section columns = "stress_xx | stress_yy | stress_xy">
  1 678.275 0.670944 -0.697764
  2 678.585 0.821917 0.939783
  3 678.275 0.670944 -0.697764
  4 678.585 0.821917 0.939783
  5 1008.67 94.1407 302.864
  6 1046.04 93.1796 -298.168
  7 1008.67 94.1407 302.864
  8 1046.04 93.1796 -298.168
  9 679.808 0.463509 -1.83951
  10 684.869 0.808708 -3.28915
  11 692.254 1.80896 -6.73470
  12 709.348 0.641820 -9.14409
  13 731.673 0.978160 -15.2921
  14 758.346 -7.11282 -15.5703
  15 783.839 -8.39667 -2.61862
  16 775.457 -5.60450 11.2678
  17 750.808 6.32030 20.7229
  18 737.224 14.9191 -0.818645
  19 746.892 7.09230 -19.5778
  20 774.878 -8.38058 -13.6876
  21 777.015 -10.2141 6.22306
  22 762.174 -4.67176 13.4950
  23 727.193 8.62044e-05 15.4576
  24 707.915 2.53722 11.6150
  25 692.731 2.07735 6.46190
  26 685.023 0.652243 3.01002
  27 680.183 0.551097 1.78185
  28 679.465 2.37597 1.09557
  29 678.393 4.84536 1.28482
  30 675.747 8.37591 1.14947
  31 674.693 9.72483 -0.110809
  32 676.028 7.95311 -1.37264
  33 677.912 5.28293 -1.15354
  34 678.734 2.70284 -1.23745
  35 679.808 0.463509 -1.83951
  36 684.869 0.808708 -3.28915
  37 692.254 1.80896 -6.73470
  38 709.348 0.641820 -9.14409
  39 731.673 0.978160 -15.2921
  40 758.346 -7.11282 -15.5703
  41 783.839 -8.39667 -2.61862
  42 775.457 -5.60450 11.2678
  43 750.808 6.32030 20.7229
  44 737.224 14.9191 -0.818645
  45 746.892 7.09230 -19.5778
  46 774.878 -8.38058 -13.6876
  47 777.015 -10.2141 6.22306
  48 762.174 -4.67176 13.4950
  49 727.193 8.62044e-05 15.4576
  50 707.915 2.53722 11.6150
  51 692.731 2.07735 6.46190
  52 685.023 0.652243 3.01002
  53 680.183 0.551097 1.78185
  54 679.465 2.37597 1.09557
  55 678.393 4.84536 1.28482
  56 675.747 8.37591 1.14947
  57 674.693 9.72483 -0.110809
  58 676.028 7.95311 -1.37264
  59 677.912 5.28293 -1.15354
  60 678.734 2.70284 -1.23745
  61 1384.89 76.4574 148.652
  62 1267.25 20.3606 51.2417
  63 1199.29 7.93252 18.5006
  64 1184.60 5.87904 3.38569
  65 1198.54 7.93275 -15.7442
  66 1250.95 17.3286 -44.1077
  67 1398.02 66.4248 -128.023
  68 190.403 -187.651 -255.742
  69 37.8305 -496.902 -72.0180
  70 8.76539 -579.651 -31.4242
  71 8.46976 -570.769 -14.0570
  72 16.1834 -551.506 33.7287
  73 41.5867 -481.336 76.5308
  74 204.736 -173.090 282.548
  75 1384.89 76.4574 148.652
  76 1267.25 20.3606 51.2417
  77 1199.29 7.93252 18.5006
  78 1184.60 5.87904 3.38569
  79 1198.54 7.93275 -15.7442
  80 1250.95 17.3286 -44.1077
  81 1398.02 66.4248 -128.023
  82 190.403 -187.651 -255.742
  83 37.8305 -496.902 -72.0180
  84 8.76539 -579.651 -31.4242
  85 8.46976 -570.769 -14.0570
  86 16.1834 -551.506 33.7287
  87 41.5867 -481.336 76.5308
  88 204.736 -173.090 282.548
  89 627.521 35.2055 -9.03184
  90 627.521 35.2055 -9.03184
  91 573.905 8.14617 83.3719
  92 551.864 -3.15471 -100.093
  93 573.905 8.14617 83.3719
  94 551.864 -3.15471 -100.093
  95 332.238 10.6973 40.8858
  96 332.238 10.6973 40.8858
  97 834.330 54.5098 -10.2414
  98 847.144 32.7800 19.3660
  99 834.330 54.5098 -10.2414
  100 847.144 32.7800 19.3660
  101 669.757 15.7049 8.74021
  102 669.757 15.7049 8.74021
  103 794.068 -45.2607 5.72689
  104 794.068 -45.2607 5.72689
  105 670.465 16.4433 -10.8041
  106 670.465 16.4433 -10.8041
  107 777.382 -97.1915 -92.3318
  108 777.382 -97.1915 -92.3318
  109 549.183 -115.766 225.936
  110 549.183 -115.766 225.936
  111 376.485 -66.6156 -183.402
  112 376.485 -66.6156 -183.402
  113 672.716 10.9021 38.7820
  114 672.716 10.9021 38.7820
  115 695.624 4.30975 -37.3015
  116 695.624 4.30975 -37.3015
  117 934.865 66.1684 17.5240
  118 997.812 63.6760 7.02404
  119 934.865 66.1684 17.5240
  120 997.812 63.6760 7.02404
  121 978.923 84.6621 -31.9155
  122 978.923 84.6621 -31.9155
  123 111.658 -175.237 -63.0571
  124 111.658 -175.237 -63.0571
  125 840.496 -103.051 103.309
  126 840.496 -103.051 103.309
  127 717.801 -17.6943 45.2953
  128 717.801 -17.6943 45.2953
  129 169.740 -150.735 143.343
  130 169.740 -150.735 143.343
  131 670.636 13.0764 -0.541520
  132 670.636 13.0764 -0.541520
  133 716.280 -33.8794 -58.2697
  134 716.280 -33.8794 -58.2697
  135 680.130 5.37146 6.25045
  136 680.130 5.37146 6.25045
  137 680.629 4.73596 -5.82041
  138 680.629 4.73596 -5.82041
  139 687.613 9.13896 -19.0597
  140 687.613 9.13896 -19.0597
  141 684.726 8.93061 17.1030
  142 684.726 8.93061 17.1030
  143 658.278 21.9431 -0.714488
  144 658.278 21.9431 -0.714488
  145 555.937 36.4697 -4.29542
  146 555.937 36.4697 -4.29542
  147 791.275 -28.0127 7.97967
  148 791.275 -28.0127 7.97967
  149 896.291 -26.3866 -45.3840
  150 896.291 -26.3866 -45.3840
  151 698.450 -78.9339 111.979
  152 698.450 -78.9339 111.979
  153 526.860 -141.482 -258.104
  154 526.860 -141.482 -258.104
  155 628.375 25.3796 37.0949
  156 628.375 25.3796 37.0949
  157 805.657 -4.02881 -24.3103
  158 805.657 -4.02881 -24.3103
  159 1081.48 88.5599 67.2762
  160 1081.48 88.5599 67.2762
  161 548.024 -153.136 296.725
  162 548.024 -153.136 296.725
  163 1100.31 35.1228 -12.9550
  164 1100.31 35.1228 -12.9550
  165 655.755 21.9171 16.8866
  166 655.755 21.9171 16.8866
  167 624.323 21.0372 -54.6668
  168 624.323 21.0372 -54.6668
  169 771.007 24.0588 15.7231
  170 771.007 24.0588 15.7231
  171 650.068 26.2343 -19.2612
  172 650.068 26.2343 -19.2612
  173 674.299 10.4974 2.73444
  174 674.299 10.4974 2.73444
  175 684.302 5.09651 -9.99757
  176 684.302 5.09651 -9.99757
  177 1039.03 88.3888 -71.1320
  178 1039.03 88.3888 -71.1320
  179 674.765 10.2286 -3.29558
  180 674.765 10.2286 -3.29558
  181 505.757 37.0544 -28.7731
  182 505.757 37.0544 -28.7731
  183 891.502 66.9603 1.02848
  184 891.502 66.9603 1.02848
  185 185.028 -148.028 -184.330
  186 185.028 -148.028 -184.330
  187 496.183 -4.72453 122.434
  188 496.183 -4.72453 122.434
  189 651.561 -106.649 -175.020
  190 651.561 -106.649 -175.020
  191 769.357 -21.5515 11.5729
  192 769.357 -21.5515 11.5729
  193 721.072 -2.76781 27.2948
  194 721.072 -2.76781 27.2948
  195 968.039 35.5694 68.9886
  196 968.039 35.5694 68.9886
  197 417.409 14.4338 -76.0275
  198 417.409 14.4338 -76.0275
  199 1092.69 47.8353 30.1915
  200 1092.69 47.8353 30.1915
  201 734.029 -9.39642 -29.3373
  202 734.029 -9.39642 -29.3373
  203 685.291 3.62826 9.20842
  204 685.291 3.62826 9.20842
  205 763.274 -30.4799 -17.2319
  206 763.274 -30.4799 -17.2319
  207 831.840 -40.6647 -11.9178
  208 831.840 -40.6647 -11.9178
  209 52.7949 -312.162 28.5681
  210 52.7949 -312.162 28.5681
  211 705.264 3.38500 -23.6307
  212 705.264 3.38500 -23.6307
  213 699.745 5.28147 20.5257
  214 699.745 5.28147 20.5257
  215 672.759 -62.4209 -110.628
  216 672.759 -62.4209 -110.628
  217 784.747 -16.6987 -14.5269
  218 784.747 -16.6987 -14.5269
  219 647.579 22.9436 -37.0323
  220 647.579 22.9436 -37.0323
  221 178.325 -216.609 203.866
  222 178.325 -216.609 203.866
  223 796.706 4.66192 23.4446
  224 796.706 4.66192 23.4446
  225 777.007 20.5147 -20.5450
  226 777.007 20.5147 -20.5450
  227 1082.19 64.4465 -52.7731
  228 1082.19 64.4465 -52.7731
  229 835.056 -29.6165 -7.31656
  230 835.056 -29.6165 -7.31656
  231 902.334 -30.8846 -173.810
  232 902.334 -30.8846 -173.810
  233 675.819 -30.6941 84.3658
  234 675.819 -30.6941 84.3658
  235 664.967 18.2806 2.82236
  236 664.967 18.2806 2.82236
  237 358.049 -50.9976 162.067
  238 358.049 -50.9976 162.067
  239 863.441 -67.4871 200.879
  240 863.441 -67.4871 200.879
  241 246.803 -28.0928 -80.7488
  242 246.803 -28.0928 -80.7488
  243 777.592 -59.0261 -41.2567
  244 777.592 -59.0261 -41.2567
  245 641.828 28.3961 21.2388
  246 641.828 28.3961 21.2388
  247 21.9418 -410.247 -23.7367
  248 21.9418 -410.247 -23.7367
  249 43.8687 -356.814 78.1394
  250 43.8687 -356.814 78.1394
  251 651.904 4.40637 59.9270
  252 651.904 4.40637 59.9270
  253 679.410 2.53257 2.24201
  254 679.410 2.53257 2.24201
  255 674.254 10.5525 0.432227
  256 674.254 10.5525 0.432227
  257 633.942 -7.92756 -80.2350
  258 633.942 -7.92756 -80.2350
  259 679.747 2.31641 -2.37561
  260 679.747 2.31641 -2.37561
  261 747.633 -53.2687 52.6959
  262 747.633 -53.2687 52.6959
  263 696.364 2.35311 -11.2390
  264 696.364 2.35311 -11.2390
  265 543.301 -46.1196 -150.976
  266 543.301 -46.1196 -150.976
  267 913.653 70.9590 1.48307
  268 913.653 70.9590 1.48307
  269 673.384 14.5338 -29.8571
  270 673.384 14.5338 -29.8571
  271 671.055 13.5877 -5.79880
  272 671.055 13.5877 -5.79880
  273 575.107 27.8152 -54.8470
  274 575.107 27.8152 -54.8470
  275 179.219 -63.0567 47.2269
  276 179.219 -63.0567 47.2269
  277 712.148 -120.062 156.726
  278 712.148 -120.062 156.726
  279 677.594 9.80898 11.3738
  280 677.594 9.80898 11.3738
  281 991.417 69.6018 -17.7116
  282 991.417 69.6018 -17.7116
  283 1168.24 109.830 146.361
  284 1168.24 109.830 146.361
  285 798.769 -85.2599 55.1125
  286 798.769 -85.2599 55.1125
  287 586.256 29.0744 40.0009
  288 586.256 29.0744 40.0009
  289 729.602 -147.268 207.304
  290 729.602 -147.268 207.304
  291 756.608 -9.22999 19.2445
  292 756.608 -9.22999 19.2445
  293 677.179 6.45267 3.08176
  294 677.179 6.45267 3.08176
  295 668.414 17.8915 -18.8108
  296 668.414 17.8915 -18.8108
  297 674.400 10.3862 -0.846798
  298 674.400 10.3862 -0.846798
  299 683.096 1.84467 -4.30667
  300 683.096 1.84467 -4.30667
  301 695.839 3.32515 11.2809
  302 695.839 3.32515 11.2809
  303 665.119 18.1885 -4.79398
  304 665.119 18.1885 -4.79398
  305 152.555 -252.119 -194.977
  306 152.555 -252.119 -194.977
  307 464.112 30.6877 37.7303
  308 464.112 30.6877 37.7303
  309 677.818 5.39624 -2.95464
  310 677.818 5.39624 -2.95464
  311 602.070 34.1899 -26.7414
  312 602.070 34.1899 -26.7414
  313 603.659 37.2675 10.1269
  314 603.659 37.2675 10.1269
  315 676.564 9.43170 -8.02754
  316 676.564 9.43170 -8.02754
  317 898.419 50.8726 -10.9450
  318 898.419 50.8726 -10.9450
  319 671.946 15.8512 26.0195
  320 671.946 15.8512 26.0195
  321 851.106 28.6800 -16.6617
  322 851.106 28.6800 -16.6617
  323 1222.15 33.8881 84.1931
  324 1222.15 33.8881 84.1931
  325 669.696 16.4023 16.2019
  326 669.696 16.4023 16.2019
  327 659.959 21.7391 8.47647
  328 659.959 21.7391 8.47647
  329 507.772 -91.9937 -300.060
  330 507.772 -91.9937 -300.060
  331 683.488 1.66628 4.21143
  332 683.488 1.66628 4.21143
  333 670.487 13.6812 4.33779
  334 670.487 13.6812 4.33779
  335 647.588 28.3180 0.976490
  336 647.588 28.3180 0.976490
  337 337.199 -118.029 239.127
  338 337.199 -118.029 239.127
  339 829.700 55.0061 2.98067
  340 829.700 55.0061 2.98067
  341 47.0191 -349.004 -89.1614
  342 47.0191 -349.004 -89.1614
  343 526.191 33.1198 33.2967
  344 526.191 33.1198 33.2967
  345 1158.13 15.0858 11.0743
  346 1158.13 15.0858 11.0743
  347 1210.07 62.9657 -87.4461
  348 1210.07 62.9657 -87.4461
  349 585.234 -68.3125 169.010
  350 611.161 -34.9461 123.944
  351 585.234 -68.3125 169.010
  352 611.161 -34.9461 123.944
  353 1175.09 28.2891 43.2458
  354 1175.09 28.2891 43.2458
  355 691.874 -1.23598 46.6892
  356 691.874 -1.23598 46.6892
  357 808.730 -109.509 -124.625
  358 808.730 -109.509 -124.625
  359 777.636 -6.42635 19.8288
  360 777.636 -6.42635 19.8288
  361 517.189 -93.1446 326.570
  362 517.189 -93.1446 326.570
  363 904.706 72.4643 -2.23963
  364 904.706 72.4643 -2.23963
  365 1171.94 10.1415 -8.92485
  366 1171.94 10.1415 -8.92485
  367 733.174 0.0459438 -22.6164
  368 733.174 0.0459438 -22.6164
  369 659.931 23.1470 -10.1690
  370 659.931 23.1470 -10.1690
  371 1002.51 78.3099 30.0014
  372 1002.51 78.3099 30.0014
  373 781.533 33.2038 -4.34604
  374 781.533 33.2038 -4.34604
  375 707.951 2.50626 -14.0856
  376 707.951 2.50626 -14.0856
  377 199.868 -93.0595 -138.656
  378 199.868 -93.0595 -138.656
  379 781.199 -14.2457 4.09777
  380 781.199 -14.2457 4.09777
  381 672.537 -1.33782 -55.3238
  382 672.537 -1.33782 -55.3238
  383 773.467 -1.33063 -23.8885
  384 773.467 -1.33063 -23.8885
  385 1178.82 20.3093 -35.5768
  386 1178.82 20.3093 -35.5768
  387 675.060 10.0806 6.33703
  388 675.060 10.0806 6.33703
  389 820.686 41.3161 18.4786
  390 820.686 41.3161 18.4786
  391 876.883 -15.7906 16.8412
  392 876.883 -15.7906 16.8412
  393 677.331 11.8839 -14.2827
  394 677.331 11.8839 -14.2827
  395 1245.61 130.387 -168.412
  396 1245.61 130.387 -168.412
  397 769.941 -11.6219 -8.99785
  398 769.941 -11.6219 -8.99785
</Section>

newXOutput 206

<Section columns = "stress_xx | stress_yy | stress_xy">
  1 681.336 0.674063 -0.700311
  2 681.647 0.825636 0.943203
  3 681.336 0.674063 -0.700311
  4 681.647 0.825636 0.943203
  5 1012.89 94.8024 304.309
  6 1050.39 93.8458 -299.592
  7 1012.89 94.8024 304.309
  8 1050.39 93.8458 -299.592
  9 682.874 0.465573 -1.84631
  10 687.952 0.812197 -3.30151
  11 695.364 1.81653 -6.76060
  12 712.521 0.644164 -9.18019
  13 734.932 0.980845 -15.3555
  14 761.712 -7.14799 -15.6399
  15 787.319 -8.43664 -2.63796
  16 778.934 -5.62961 11.3016
  17 754.218 6.35358 20.7944
  18 740.595 14.9919 -0.821556
  19 750.288 7.12637 -19.6467
  20 778.354 -8.41856 -13.7281
  21 780.467 -10.2629 6.25999
  22 765.556 -4.69462 13.5560
  23 730.436 -0.00218275 15.5225
  24 711.083 2.54733 11.6612
  25 695.843 2.08605 6.48665
  26 688.108 0.655081 3.02129
  27 683.251 0.553581 1.78850
  28 682.529 2.38616 1.09953
  29 681.454 4.86585 1.28958
  30 678.799 8.41090 1.15379
  31 677.742 9.76530 -0.111219
  32 679.081 7.98640 -1.37774
  33 680.972 5.30528 -1.15766
  34 681.796 2.71452 -1.24205
  35 682.874 0.465573 -1.84631
  36 687.952 0.812197 -3.30151
  37 695.364 1.81653 -6.76060
  38 712.521 0.644164 -9.18019
  39 734.932 0.980845 -15.3555
  40 761.712 -7.14799 -15.6399
  41 787.319 -8.43664 -2.63796
  42 778.934 -5.62961 11.3016
  43 754.218 6.35358 20.7944
  44 740.595 14.9919 -0.821556
  45 750.288 7.12637 -19.6467
  46 778.354 -8.41856 -13.7281
  47 780.467 -10.2629 6.25999
  48 765.556 -4.69462 13.5560
  49 730.436 -0.00218275 15.5225
  50 711.083 2.54733 11.6612
  51 695.843 2.08605 6.48665
  52 688.108 0.655081 3.02129
  53 683.251 0.553581 1.78850
  54 682.529 2.38616 1.09953
  55 681.454 4.86585 1.28958
  56 678.799 8.41090 1.15379
  57 677.742 9.76530 -0.111219
  58 679.081 7.98640 -1.37774
  59 680.972 5.30528 -1.15766
  60 681.796 2.71452 -1.24205
  61 1390.57 76.8119 149.292
  62 1272.49 20.4416 51.4501
  63 1204.30 7.95876 18.5720
  64 1189.55 5.90003 3.39655
  65 1203.54 7.96250 -15.8047
  66 1256.14 17.3964 -44.2841
  67 1403.76 66.7317 -128.574
  68 191.230 -188.244 -257.040
  69 37.9970 -499.180 -72.4466
  70 8.78529 -582.447 -31.6119
  71 8.49026 -573.538 -14.1245
  72 16.2429 -554.146 33.9309
  73 41.7749 -483.540 76.9884
  74 205.609 -173.620 283.975
  75 1390.57 76.8119 149.292
  76 1272.49 20.4416 51.4501
  77 1204.30 7.95876 18.5720
  78 1189.55 5.90003 3.39655
  79 1203.54 7.96250 -15.8047
  80 1256.14 17.3964 -44.2841
  81 1403.76 66.7317 -128.574
  82 191.230 -188.244 -257.040
  83 37.9970 -499.180 -72.4466
  84 8.78529 -582.447 -31.6119
  85 8.49026 -573.538 -14.1245
  86 16.2429 -554.146 33.9309
  87 41.7749 -483.540 76.9884
  88 205.609 -173.620 283.975
  89 630.390 35.3600 -9.07023
  90 630.390 35.3600 -9.07023
  91 576.537 8.18505 83.7434
  92 554.399 -3.16697 -100.545
  93 576.537 8.18505 83.7434
  94 554.399 -3.16697 -100.545
  95 333.829 10.7675 41.0763
  96 333.829 10.7675 41.0763
  97 838.075 54.7625 -10.2634
  98 850.918 32.9467 19.3942
  99 838.075 54.7625 -10.2634
  100 850.918 32.9467 19.3942
  101 672.788 15.7714 8.77467
  102 672.788 15.7714 8.77467
  103 797.598 -45.4627 5.79528
  104 797.598 -45.4627 5.79528
  105 673.498 16.5133 -10.8469
  106 673.498 16.5133 -10.8469
  107 780.812 -97.6328 -92.7836
  108 780.812 -97.6328 -92.7836
  109 551.652 -116.301 227.002
  110 551.652 -116.301 227.002
  111 378.228 -66.9128 -184.278
  112 378.228 -66.9128 -184.278
  113 675.756 10.9477 38.9475
  114 675.756 10.9477 38.9475
  115 698.752 4.32539 -37.4627
  116 698.752 4.32539 -37.4627
  117 938.985 66.4919 17.6745
  118 1002.18 63.9463 7.06600
  119 938.985 66.4919 17.6745
  120 1002.18 63.9463 7.06600
  121 983.221 85.0535 -32.1108
  122 983.221 85.0535 -32.1108
  123 112.189 -175.996 -63.3860
  124 112.189 -175.996 -63.3860
  125 844.169 -103.488 103.845
  126 844.169 -103.488 103.845
  127 721.016 -17.7773 45.5036
  128 721.016 -17.7773 45.5036
  129 170.545 -151.384 144.076
  130 170.545 -151.384 144.076
  131 673.670 13.1315 -0.543549
  132 673.670 13.1315 -0.543549
  133 719.485 -34.0358 -58.5424
  134 719.485 -34.0358 -58.5424
  135 683.197 5.39423 6.27436
  136 683.197 5.39423 6.27436
  137 683.698 4.75615 -5.84256
  138 683.698 4.75615 -5.84256
  139 690.709 9.17714 -19.1368
  140 690.709 9.17714 -19.1368
  141 687.812 8.96817 17.1716
  142 687.812 8.96817 17.1716
  143 661.267 22.0369 -0.717527
  144 661.267 22.0369 -0.717527
  145 558.512 36.6347 -4.31481
  146 558.512 36.6347 -4.31481
  147 794.803 -28.1356 7.97807
  148 794.803 -28.1356 7.97807
  149 900.215 -26.4551 -45.6761
  150 900.215 -26.4551 -45.6761
  151 701.565 -79.2965 112.502
  152 701.565 -79.2965 112.502
  153 529.200 -142.103 -259.362
  154 529.200 -142.103 -259.362
  155 631.243 25.4919 37.2546
  156 631.243 25.4919 37.2546
  157 809.254 -4.03825 -24.3725
  158 809.254 -4.03825 -24.3725
  159 1086.14 88.9666 67.6144
  160 1086.14 88.9666 67.6144
  161 550.450 -153.822 298.153
  162 550.450 -153.822 298.153
  163 1105.02 35.2622 -13.0135
  164 1105.02 35.2622 -13.0135
  165 658.733 22.0112 16.9558
  166 658.733 22.0112 16.9558
  167 627.170 21.1308 -54.9059
  168 627.170 21.1308 -54.9059
  169 774.502 24.1755 15.7756
  170 774.502 24.1755 15.7756
  171 653.024 26.3478 -19.3410
  172 653.024 26.3478 -19.3410
  173 677.346 10.5415 2.74491
  174 677.346 10.5415 2.74491
  175 687.384 5.11792 -10.0365
  176 687.384 5.11792 -10.0365
  177 1043.53 88.8344 -71.5265
  178 1043.53 88.8344 -71.5265
  179 677.814 10.2716 -3.30814
  180 677.814 10.2716 -3.30814
  181 508.116 37.2277 -28.9019
  182 508.116 37.2277 -28.9019
  183 895.466 67.2686 0.992431
  184 895.466 67.2686 0.992431
  185 185.892 -148.665 -185.267
  186 185.892 -148.665 -185.267
  187 498.476 -4.74108 122.992
  188 498.476 -4.74108 122.992
  189 654.465 -107.140 -175.844
  190 654.465 -107.140 -175.844
  191 772.786 -21.6516 11.6439
  192 772.786 -21.6516 11.6439
  193 724.297 -2.78341 27.4139
  194 724.297 -2.78341 27.4139
  195 972.253 35.7928 69.3906
  196 972.253 35.7928 69.3906
  197 419.372 14.5121 -76.3777
  198 419.372 14.5121 -76.3777
  199 1097.38 48.0319 30.3323
  200 1097.38 48.0319 30.3323
  201 737.308 -9.44229 -29.4717
  202 737.308 -9.44229 -29.4717
  203 688.377 3.64339 9.24415
  204 688.377 3.64339 9.24415
  205 766.675 -30.6217 -17.3301
  206 766.675 -30.6217 -17.3301
  207 835.519 -40.8330 -12.0307
  208 835.519 -40.8330 -12.0307
  209 53.0381 -313.589 28.7247
  210 53.0381 -313.589 28.7247
  211 708.427 3.39703 -23.7296
  212 708.427 3.39703 -23.7296
  213 702.887 5.30299 20.6103
  214 702.887 5.30299 20.6103
  215 675.776 -62.7075 -111.141
  216 675.776 -62.7075 -111.141
  217 788.255 -16.7738 -14.5595
  218 788.255 -16.7738 -14.5595
  219 650.522 23.0439 -37.1912
  220 650.522 23.0439 -37.1912
  221 179.131 -217.530 204.919
  222 179.131 -217.530 204.919
  223 800.280 4.69361 23.5099
  224 800.280 4.69361 23.5099
  225 780.520 20.6152 -20.6103
  226 780.520 20.6152 -20.6103
  227 1086.85 64.7231 -53.0293
  228 1086.85 64.7231 -53.0293
  229 838.752 -29.7342 -7.28836
  230 838.752 -29.7342 -7.28836
  231 906.233 -30.9221 -174.696
  232 906.233 -30.9221 -174.696
  233 678.858 -30.8345 84.7481
  234 678.858 -30.8345 84.7481
  235 667.981 18.3582 2.83359
  236 667.981 18.3582 2.83359
  237 359.720 -51.2198 162.838
  238 359.720 -51.2198 162.838
  239 867.171 -67.7075 201.881
  240 867.171 -67.7075 201.881
  241 247.991 -28.1902 -81.1388
  242 247.991 -28.1902 -81.1388
  243 781.042 -59.2946 -41.4744
  244 781.042 -59.2946 -41.4744
  245 644.752 28.5200 21.3281
  246 644.752 28.5200 21.3281
  247 22.0313 -412.161 -23.8717
  248 22.0313 -412.161 -23.8717
  249 44.0647 -358.440 78.5780
  250 44.0647 -358.440 78.5780
  251 654.858 4.42499 60.1908
  252 654.858 4.42499 60.1908
  253 682.474 2.54344 2.25038
  254 682.474 2.54344 2.25038
  255 677.301 10.5965 0.433901
  256 677.301 10.5965 0.433901
  257 636.819 -7.96458 -80.5943
  258 636.819 -7.96458 -80.5943
  259 682.813 2.32646 -2.38448
  260 682.813 2.32646 -2.38448
  261 750.962 -53.5123 52.9546
  262 750.962 -53.5123 52.9546
  263 699.491 2.36261 -11.2833
  264 699.491 2.36261 -11.2833
  265 545.777 -46.3313 -151.672
  266 545.777 -46.3313 -151.672
  267 917.704 71.2825 1.53000
  268 917.704 71.2825 1.53000
  269 676.427 14.5954 -29.9819
  270 676.427 14.5954 -29.9819
  271 674.091 13.6451 -5.82130
  272 674.091 13.6451 -5.82130
  273 577.754 27.9419 -55.0891
  274 577.754 27.9419 -55.0891
  275 180.088 -63.2999 47.4620
  276 180.088 -63.2999 47.4620
  277 715.298 -120.613 157.470
  278 715.298 -120.613 157.470
  279 680.653 9.85045 11.4184
  280 680.653 9.85045 11.4184
  281 995.759 69.9022 -17.8092
  282 995.759 69.9022 -17.8092
  283 1173.19 110.391 147.065
  284 1173.19 110.391 147.065
  285 802.294 -85.6404 55.4088
  286 802.294 -85.6404 55.4088
  287 588.952 29.2056 40.1750
  288 588.952 29.2056 40.1750
  289 732.801 -147.936 208.294
  290 732.801 -147.936 208.294
  291 759.976 -9.27444 19.3354
  292 759.976 -9.27444 19.3354
  293 680.236 6.47985 3.09342
  294 680.236 6.47985 3.09342
  295 671.440 17.9679 -18.8870
  296 671.440 17.9679 -18.8870
  297 677.448 10.4296 -0.850004
  298 677.448 10.4296 -0.850004
  299 686.174 1.85254 -4.32299
  300 686.174 1.85254 -4.32299
  301 698.963 3.33883 11.3253
  302 698.963 3.33883 11.3253
  303 668.133 18.2658 -4.81300
  304 668.133 18.2658 -4.81300
  305 153.239 -253.183 -195.994
  306 153.239 -253.183 -195.994
  307 466.289 30.8356 37.9000
  308 466.289 30.8356 37.9000
  309 680.877 5.41908 -2.96575
  310 680.877 5.41908 -2.96575
  311 604.834 34.3420 -26.8573
  312 604.834 34.3420 -26.8573
  313 606.431 37.4331 10.1701
  314 606.431 37.4331 10.1701
  315 679.619 9.47157 -8.05865
  316 679.619 9.47157 -8.05865
  317 902.389 51.1340 -11.0685
  318 902.389 51.1340 -11.0685
  319 674.985 15.9189 26.1268
  320 674.985 15.9189 26.1268
  321 854.894 28.8276 -16.6785
  322 854.894 28.8276 -16.6785
  323 1227.28 34.0230 84.5631
  324 1227.28 34.0230 84.5631
  325 672.727 16.4721 16.2671
  326 672.727 16.4721 16.2671
  327 662.954 21.8320 8.51057
  328 662.954 21.8320 8.51057
  329 509.977 -92.2160 -301.548
  330 509.977 -92.2160 -301.548
  331 686.567 1.67338 4.22737
  332 686.567 1.67338 4.22737
  333 673.521 13.7388 4.35468
  334 673.521 13.7388 4.35468
  335 650.536 28.4404 0.980481
  336 650.536 28.4404 0.980481
  337 338.751 -118.562 240.296
  338 338.751 -118.562 240.296
  339 833.429 55.2603 2.98432
  340 833.429 55.2603 2.98432
  341 47.2237 -350.590 -89.6500
  342 47.2237 -350.590 -89.6500
  343 528.638 33.2729 33.4435
  344 528.638 33.2729 33.4435
  345 1163.01 15.1429 11.1179
  346 1163.01 15.1429 11.1179
  347 1215.18 63.2471 -87.8363
  348 1215.18 63.2471 -87.8363
  349 587.876 -68.6282 169.791
  350 613.929 -35.1057 124.505
  351 587.876 -68.6282 169.791
  352 613.929 -35.1057 124.505
  353 1180.05 28.3990 43.4288
  354 1180.05 28.3990 43.4288
  355 694.987 -1.24411 46.8941
  356 694.987 -1.24411 46.8941
  357 812.267 -109.991 -125.245
  358 812.267 -109.991 -125.245
  359 781.127 -6.45236 19.8915
  360 781.127 -6.45236 19.8915
  361 519.414 -93.3838 328.173
  362 519.414 -93.3838 328.173
  363 908.728 72.7864 -2.24768
  364 908.728 72.7864 -2.24768
  365 1176.87 10.1792 -8.96164
  366 1176.87 10.1792 -8.96164
  367 736.443 0.0430998 -22.7136
  368 736.443 0.0430998 -22.7136
  369 662.925 23.2462 -10.2101
  370 662.925 23.2462 -10.2101
  371 1006.90 78.6575 30.1723
  372 1006.90 78.6575 30.1723
  373 785.071 33.3598 -4.35984
  374 785.071 33.3598 -4.35984
  375 711.121 2.51570 -14.1425
  376 711.121 2.51570 -14.1425
  377 200.834 -93.4521 -139.347
  378 200.834 -93.4521 -139.347
  379 784.682 -14.3111 4.09691
  380 784.682 -14.3111 4.09691
  381 675.573 -1.34647 -55.5689
  382 675.573 -1.34647 -55.5689
  383 776.951 -1.33386 -23.9661
  384 776.951 -1.33386 -23.9661
  385 1183.78 20.3906 -35.7252
  386 1183.78 20.3906 -35.7252
  387 678.110 10.1231 6.36149
  388 678.110 10.1231 6.36149
  389 824.368 41.5140 18.5240
  390 824.368 41.5140 18.5240
  391 880.739 -15.8290 16.9941
  392 880.739 -15.8290 16.9941
  393 680.389 11.9343 -14.3393
  394 680.389 11.9343 -14.3393
  395 1250.83 131.065 -169.208
  396 1250.83 131.065 -169.208
  397 773.364 -11.6777 -9.04678
  398 773.364 -11.6777 -9.04678
</Section>

newXOutput 207

<Section columns = "stress_xx | stress_yy | stress_xy">
  1 684.394 0.677180 -0.702850
  2 684.706 0.829352 0.946613
  3 684.394 0.677180 -0.702850
  4 684.706 0.829352 0.946613
  5 1017.09 95.4658 305.754
  6 1054.73 94.5137 -301.016
  7 1017.09 95.4658 305.754
  8 1054.73 94.5137 -301.016
  9 685.938 0.467635 -1.85310
  10 691.034 0.815683 -3.31384
  11 698.472 1.82409 -6.78644
  12 715.692 0.646502 -9.21622
  13 738.188 0.983514 -15.4189
  14 765.076 -7.18318 -15.7094
  15 790.795 -8.47659 -2.65735
  16 782.407 -5.65471 11.3353
  17 757.625 6.38688 20.8656
  18 743.964 15.0647 -0.824457
  19 753.681 7.16044 -19.7153
  20 781.827 -8.45651 -13.7684
  21 783.916 -10.3117 6.29696
  22 768.935 -4.71748 13.6170
  23 733.677 -0.00447013 15.5873
  24 714.249 2.55743 11.7073
  25 698.953 2.09474 6.51134
  26 691.190 0.657916 3.03254
  27 686.316 0.556064 1.79512
  28 685.592 2.39634 1.10348
  29 684.512 4.88632 1.29433
  30 681.849 8.44583 1.15810
  31 680.788 9.80571 -0.111628
  32 682.132 8.01964 -1.38283
  33 684.028 5.32759 -1.16177
  34 684.855 2.72619 -1.24662
  35 685.938 0.467635 -1.85310
  36 691.034 0.815683 -3.31384
  37 698.472 1.82409 -6.78644
  38 715.692 0.646502 -9.21622
  39 738.188 0.983514 -15.4189
  40 765.076 -7.18318 -15.7094
  41 790.795 -8.47659 -2.65735
  42 782.407 -5.65471 11.3353
  43 757.625 6.38688 20.8656
  44 743.964 15.0647 -0.824457
  45 753.681 7.16044 -19.7153
  46 781.827 -8.45651 -13.7684
  47 783.916 -10.3117 6.29696
  48 768.935 -4.71748 13.6170
  49 733.677 -0.00447013 15.5873
  50 714.249 2.55743 11.7073
  51 698.953 2.09474 6.51134
  52 691.190 0.657916 3.03254
  53 686.316 0.556064 1.79512
  54 685.592 2.39634 1.10348
  55 684.512 4.88632 1.29433
  56 681.849 8.44583 1.15810
  57 680.788 9.80571 -0.111628
  58 682.132 8.01964 -1.38283
  59 684.028 5.32759 -1.16177
  60 684.855 2.72619 -1.24662
  61 1396.24 77.1661 149.931
  62 1277.73 20.5225 51.6582
  63 1209.30 7.98490 18.6434
  64 1194.50 5.92097 3.40737
  65 1208.54 7.99218 -15.8650
  66 1261.33 17.4641 -44.4600
  67 1409.49 67.0384 -129.124
  68 192.057 -188.835 -258.339
  69 38.1633 -501.456 -72.8760
  70 8.80498 -585.243 -31.7998
  71 8.51058 -576.306 -14.1920
  72 16.3023 -556.785 34.1335
  73 41.9629 -485.743 77.4467
  74 206.482 -174.146 285.401
  75 1396.24 77.1661 149.931
  76 1277.73 20.5225 51.6582
  77 1209.30 7.98490 18.6434
  78 1194.50 5.92097 3.40737
  79 1208.54 7.99218 -15.8650
  80 1261.33 17.4641 -44.4600
  81 1409.49 67.0384 -129.124
  82 192.057 -188.835 -258.339
  83 38.1633 -501.456 -72.8760
  84 8.80498 -585.243 -31.7998
  85 8.51058 -576.306 -14.1920
  86 16.3023 -556.785 34.1335
  87 41.9629 -485.743 77.4467
  88 206.482 -174.146 285.401
  89 633.257 35.5144 -9.10858
  90 633.257 35.5144 -9.10858
  91 579.167 8.22392 84.1146
  92 556.932 -3.17920 -100.996
  93 579.167 8.22392 84.1146
  94 556.932 -3.17920 -100.996
  95 335.419 10.8379 41.2668
  96 335.419 10.8379 41.2668
  97 841.817 55.0152 -10.2852
  98 854.689 33.1134 19.4217
  99 841.817 55.0152 -10.2852
  100 854.689 33.1134 19.4217
  101 675.817 15.8379 8.80906
  102 675.817 15.8379 8.80906
  103 801.125 -45.6646 5.86398
  104 801.125 -45.6646 5.86398
  105 676.529 16.5832 -10.8896
  106 676.529 16.5832 -10.8896
  107 784.238 -98.0737 -93.2353
  108 784.238 -98.0737 -93.2353
  109 554.120 -116.837 228.068
  110 554.120 -116.837 228.068
  111 379.969 -67.2097 -185.154
  112 379.969 -67.2097 -185.154
  113 678.793 10.9933 39.1127
  114 678.793 10.9933 39.1127
  115 701.878 4.34098 -37.6236
  116 701.878 4.34098 -37.6236
  117 943.102 66.8154 17.8256
  118 1006.53 64.2163 7.10800
  119 943.102 66.8154 17.8256
  120 1006.53 64.2163 7.10800
  121 987.514 85.4447 -32.3064
  122 987.514 85.4447 -32.3064
  123 112.721 -176.755 -63.7152
  124 112.721 -176.755 -63.7152
  125 847.838 -103.924 104.381
  126 847.838 -103.924 104.381
  127 724.228 -17.8602 45.7117
  128 724.228 -17.8602 45.7117
  129 171.348 -152.031 144.810
  130 171.348 -152.031 144.810
  131 676.703 13.1864 -0.545572
  132 676.703 13.1864 -0.545572
  133 722.688 -34.1922 -58.8149
  134 722.688 -34.1922 -58.8149
  135 686.262 5.41697 6.29821
  136 686.262 5.41697 6.29821
  137 686.765 4.77631 -5.86466
  138 686.765 4.77631 -5.86466
  139 693.803 9.21526 -19.2138
  140 693.803 9.21526 -19.2138
  141 690.894 9.00568 17.2400
  142 690.894 9.00568 17.2400
  143 664.254 22.1306 -0.720561
  144 664.254 22.1306 -0.720561
  145 561.086 36.7995 -4.33417
  146 561.086 36.7995 -4.33417
  147 798.328 -28.2584 7.97613
  148 798.328 -28.2584 7.97613
  149 904.135 -26.5232 -45.9688
  150 904.135 -26.5232 -45.9688
  151 704.677 -79.6588 113.024
  152 704.677 -79.6588 113.024
  153 531.537 -142.722 -260.619
  154 531.537 -142.722 -260.619
  155 634.108 25.6041 37.4141
  156 634.108 25.6041 37.4141
  157 812.848 -4.04761 -24.4343
  158 812.848 -4.04761 -24.4343
  159 1090.80 89.3731 67.9527
  160 1090.80 89.3731 67.9527
  161 552.875 -154.508 299.580
  162 552.875 -154.508 299.580
  163 1109.72 35.4014 -13.0718
  164 1109.72 35.4014 -13.0718
  165 661.709 22.1052 17.0250
  166 661.709 22.1052 17.0250
  167 630.015 21.2244 -55.1448
  168 630.015 21.2244 -55.1448
  169 777.995 24.2922 15.8278
  170 777.995 24.2922 15.8278
  171 655.978 26.4611 -19.4207
  172 655.978 26.4611 -19.4207
  173 680.391 10.5854 2.75535
  174 680.391 10.5854 2.75535
  175 690.464 5.13930 -10.0753
  176 690.464 5.13930 -10.0753
  177 1048.02 89.2801 -71.9212
  178 1048.02 89.2801 -71.9212
  179 680.860 10.3145 -3.32066
  180 680.860 10.3145 -3.32066
  181 510.473 37.4009 -29.0307
  182 510.473 37.4009 -29.0307
  183 899.427 67.5768 0.956072
  184 899.427 67.5768 0.956072
  185 186.755 -149.301 -186.204
  186 186.755 -149.301 -186.204
  187 500.767 -4.75758 123.549
  188 500.767 -4.75758 123.549
  189 657.366 -107.630 -176.668
  190 657.366 -107.630 -176.668
  191 776.212 -21.7517 11.7150
  192 776.212 -21.7517 11.7150
  193 727.519 -2.79903 27.5330
  194 727.519 -2.79903 27.5330
  195 976.462 36.0166 69.7930
  196 976.462 36.0166 69.7930
  197 421.335 14.5904 -76.7278
  198 421.335 14.5904 -76.7278
  199 1102.06 48.2283 30.4730
  200 1102.06 48.2283 30.4730
  201 740.584 -9.48815 -29.6060
  202 740.584 -9.48815 -29.6060
  203 691.460 3.65850 9.27980
  204 691.460 3.65850 9.27980
  205 770.074 -30.7635 -17.4285
  206 770.074 -30.7635 -17.4285
  207 839.195 -41.0011 -12.1442
  208 839.195 -41.0011 -12.1442
  209 53.2811 -315.015 28.8815
  210 53.2811 -315.015 28.8815
  211 711.587 3.40901 -23.8282
  212 711.587 3.40901 -23.8282
  213 706.025 5.32447 20.6947
  214 706.025 5.32447 20.6947
  215 678.789 -62.9939 -111.654
  216 678.789 -62.9939 -111.654
  217 791.759 -16.8489 -14.5919
  218 791.759 -16.8489 -14.5919
  219 653.463 23.1440 -37.3498
  220 653.463 23.1440 -37.3498
  221 179.937 -218.450 205.972
  222 179.937 -218.450 205.972
  223 803.850 4.72538 23.5748
  224 803.850 4.72538 23.5748
  225 784.030 20.7157 -20.6754
  226 784.030 20.7157 -20.6754
  227 1091.50 64.9994 -53.2854
  228 1091.50 64.9994 -53.2854
  229 842.446 -29.8517 -7.25964
  230 842.446 -29.8517 -7.25964
  231 910.127 -30.9585 -175.581
  232 910.127 -30.9585 -175.581
  233 681.893 -30.9747 85.1302
  234 681.893 -30.9747 85.1302
  235 670.992 18.4358 2.84480
  236 670.992 18.4358 2.84480
  237 361.390 -51.4417 163.609
  238 361.390 -51.4417 163.609
  239 870.897 -67.9269 202.884
  240 870.897 -67.9269 202.884
  241 249.178 -28.2873 -81.5287
  242 249.178 -28.2873 -81.5287
  243 784.489 -59.5629 -41.6922
  244 784.489 -59.5629 -41.6922
  245 647.673 28.6437 21.4173
  246 647.673 28.6437 21.4173
  247 22.1206 -414.074 -24.0070
  248 22.1206 -414.074 -24.0070
  249 44.2606 -360.065 79.0171
  250 44.2606 -360.065 79.0171
  251 657.810 4.44359 60.4542
  252 657.810 4.44359 60.4542
  253 685.536 2.55430 2.25872
  254 685.536 2.55430 2.25872
  255 680.346 10.6405 0.435572
  256 680.346 10.6405 0.435572
  257 639.693 -8.00158 -80.9532
  258 639.693 -8.00158 -80.9532
  259 685.876 2.33649 -2.39333
  260 685.876 2.33649 -2.39333
  261 754.288 -53.7558 53.2132
  262 754.288 -53.7558 53.2132
  263 702.614 2.37209 -11.3274
  264 702.614 2.37209 -11.3274
  265 548.251 -46.5429 -152.368
  266 548.251 -46.5429 -152.368
  267 921.751 71.6057 1.57723
  268 921.751 71.6057 1.57723
  269 679.469 14.6569 -30.1065
  270 679.469 14.6569 -30.1065
  271 677.125 13.7024 -5.84376
  272 677.125 13.7024 -5.84376
  273 580.400 28.0685 -55.3309
  274 580.400 28.0685 -55.3309
  275 180.958 -63.5426 47.6971
  276 180.958 -63.5426 47.6971
  277 718.445 -121.163 158.214
  278 718.445 -121.163 158.214
  279 683.710 9.89187 11.4629
  280 683.710 9.89187 11.4629
  281 1000.10 70.2022 -17.9069
  282 1000.10 70.2022 -17.9069
  283 1178.13 110.953 147.769
  284 1178.13 110.953 147.769
  285 805.816 -86.0207 55.7053
  286 805.816 -86.0207 55.7053
  287 591.646 29.3367 40.3490
  288 591.646 29.3367 40.3490
  289 735.996 -148.603 209.283
  290 735.996 -148.603 209.283
  291 763.341 -9.31888 19.4263
  292 763.341 -9.31888 19.4263
  293 683.291 6.50698 3.10505
  294 683.291 6.50698 3.10505
  295 674.464 18.0442 -18.9631
  296 674.464 18.0442 -18.9631
  297 680.493 10.4729 -0.853203
  298 680.493 10.4729 -0.853203
  299 689.249 1.86041 -4.33927
  300 689.249 1.86041 -4.33927
  301 702.086 3.35248 11.3696
  302 702.086 3.35248 11.3696
  303 671.145 18.3430 -4.83199
  304 671.145 18.3430 -4.83199
  305 153.922 -254.246 -197.012
  306 153.922 -254.246 -197.012
  307 468.464 30.9836 38.0696
  308 468.464 30.9836 38.0696
  309 683.933 5.44190 -2.97684
  310 683.933 5.44190 -2.97684
  311 607.596 34.4939 -26.9730
  312 607.596 34.4939 -26.9730
  313 609.200 37.5986 10.2132
  314 609.200 37.5986 10.2132
  315 682.671 9.51138 -8.08970
  316 682.671 9.51138 -8.08970
  317 906.355 51.3954 -11.1926
  318 906.355 51.3954 -11.1926
  319 678.021 15.9864 26.2339
  320 678.021 15.9864 26.2339
  321 858.678 28.9752 -16.6947
  322 858.678 28.9752 -16.6947
  323 1232.41 34.1576 84.9326
  324 1232.41 34.1576 84.9326
  325 675.755 16.5419 16.3321
  326 675.755 16.5419 16.3321
  327 665.947 21.9248 8.54461
  328 665.947 21.9248 8.54461
  329 512.180 -92.4362 -303.035
  330 512.180 -92.4362 -303.035
  331 689.643 1.68048 4.24328
  332 689.643 1.68048 4.24328
  333 676.553 13.7964 4.37153
  334 676.553 13.7964 4.37153
  335 653.482 28.5627 0.984465
  336 653.482 28.5627 0.984465
  337 340.303 -119.095 241.466
  338 340.303 -119.095 241.466
  339 837.155 55.5144 2.98788
  340 837.155 55.5144 2.98788
  341 47.4280 -352.175 -90.1390
  342 47.4280 -352.175 -90.1390
  343 531.084 33.4259 33.5902
  344 531.084 33.4259 33.5902
  345 1167.89 15.1999 11.1614
  346 1167.89 15.1999 11.1614
  347 1220.28 63.5282 -88.2261
  348 1220.28 63.5282 -88.2261
  349 590.515 -68.9437 170.571
  350 616.695 -35.2652 125.065
  351 590.515 -68.9437 170.571
  352 616.695 -35.2652 125.065
  353 1185.00 28.5087 43.6116
  354 1185.00 28.5087 43.6116
  355 698.099 -1.25226 47.0988
  356 698.099 -1.25226 47.0988
  357 815.800 -110.473 -125.866
  358 815.800 -110.473 -125.866
  359 784.615 -6.47831 19.9538
  360 784.615 -6.47831 19.9538
  361 521.636 -93.6210 329.775
  362 521.636 -93.6210 329.775
  363 912.747 73.1082 -2.25570
  364 912.747 73.1082 -2.25570
  365 1181.78 10.2168 -8.99837
  366 1181.78 10.2168 -8.99837
  367 739.710 0.0402314 -22.8106
  368 739.710 0.0402314 -22.8106
  369 665.918 23.3454 -10.2511
  370 665.918 23.3454 -10.2511
  371 1011.27 79.0049 30.3434
  372 1011.27 79.0049 30.3434
  373 788.607 33.5157 -4.37357
  374 788.607 33.5157 -4.37357
  375 714.288 2.52513 -14.1993
  376 714.288 2.52513 -14.1993
  377 201.799 -93.8441 -140.037
  378 201.799 -93.8441 -140.037
  379 788.161 -14.3765 4.09588
  380 788.161 -14.3765 4.09588
  381 678.606 -1.35513 -55.8138
  382 678.606 -1.35513 -55.8138
  383 780.433 -1.33705 -24.0433
  384 780.433 -1.33705 -24.0433
  385 1188.74 20.4717 -35.8734
  386 1188.74 20.4717 -35.8734
  387 681.158 10.1655 6.38589
  388 681.158 10.1655 6.38589
  389 828.047 41.7119 18.5689
  390 828.047 41.7119 18.5689
  391 884.591 -15.8671 17.1476
  392 884.591 -15.8671 17.1476
  393 683.445 11.9846 -14.3957
  394 683.445 11.9846 -14.3957
  395 1256.04 131.743 -170.004
  396 1256.04 131.743 -170.004
  397 776.784 -11.7334 -9.09575
  398 776.784 -11.7334 -9.09575
</Section>

newXOutput 208

<Section columns = "stress_xx | stress_yy | stress_xy">
  1 687.450 0.680295 -0.705383
  2 687.763 0.833065 0.950014
  3 687.450 0.680295 -0.705383
  4 687.763 0.833065 0.950014
  5 1021.29 96.1308 307.198
  6 1059.07 95.1834 -302.439
  7 1021.29 96.1308 307.198
  8 1059.07 95.1834 -302.439
  9 688.999 0.469695 -1.85986
  10 694.112 0.819164 -3.32614
  11 701.578 1.83163 -6.81222
  12 718.859 0.648833 -9.25218
  13 741.441 0.986166 -15.4821
  14 768.436 -7.21836 -15.7788
  15 794.268 -8.51654 -2.67678
  16 785.878 -5.67978 11.3687
  17 761.030 6.42020 20.9365
  18 747.331 15.1375 -0.827349
  19 757.072 7.19451 -19.7836
  20 785.297 -8.49443 -13.8085
  21 787.362 -10.3604 6.33398
  22 772.311 -4.74034 13.6779
  23 736.914 -0.00677589 15.6520
  24 717.412 2.56750 11.7533
  25 702.060 2.10342 6.53597
  26 694.269 0.660747 3.04376
  27 689.378 0.558544 1.80174
  28 688.651 2.40651 1.10742
  29 687.569 4.90675 1.29907
  30 684.896 8.48070 1.16240
  31 683.832 9.84605 -0.112035
  32 685.180 8.05283 -1.38791
  33 687.083 5.34988 -1.16587
  34 687.913 2.73784 -1.25119
  35 688.999 0.469695 -1.85986
  36 694.112 0.819164 -3.32614
  37 701.578 1.83163 -6.81222
  38 718.859 0.648833 -9.25218
  39 741.441 0.986166 -15.4821
  40 768.436 -7.21836 -15.7788
  41 794.268 -8.51654 -2.67678
  42 785.878 -5.67978 11.3687
  43 761.030 6.42020 20.9365
  44 747.331 15.1375 -0.827349
  45 757.072 7.19451 -19.7836
  46 785.297 -8.49443 -13.8085
  47 787.362 -10.3604 6.33398
  48 772.311 -4.74034 13.6779
  49 736.914 -0.00677589 15.6520
  50 717.412 2.56750 11.7533
  51 702.060 2.10342 6.53597
  52 694.269 0.660747 3.04376
  53 689.378 0.558544 1.80174
  54 688.651 2.40651 1.10742
  55 687.569 4.90675 1.29907
  56 684.896 8.48070 1.16240
  57 683.832 9.84605 -0.112035
  58 685.180 8.05283 -1.38791
  59 687.083 5.34988 -1.16587
  60 687.913 2.73784 -1.25119
  61 1401.91 77.5202 150.570
  62 1282.96 20.6032 51.8659
  63 1214.29 8.01095 18.7145
  64 1199.43 5.94185 3.41815
  65 1213.52 8.02179 -15.9252
  66 1266.51 17.5316 -44.6357
  67 1415.21 67.3450 -129.674
  68 192.882 -189.422 -259.637
  69 38.3295 -503.730 -73.3060
  70 8.82446 -588.038 -31.9881
  71 8.53072 -579.075 -14.2595
  72 16.3614 -559.423 34.3364
  73 42.1508 -487.944 77.9059
  74 207.353 -174.669 286.828
  75 1401.91 77.5202 150.570
  76 1282.96 20.6032 51.8659
  77 1214.29 8.01095 18.7145
  78 1199.43 5.94185 3.41815
  79 1213.52 8.02179 -15.9252
  80 1266.51 17.5316 -44.6357
  81 1415.21 67.3450 -129.674
  82 192.882 -189.422 -259.637
  83 38.3295 -503.730 -73.3060
  84 8.82446 -588.038 -31.9881
  85 8.53072 -579.075 -14.2595
  86 16.3614 -559.423 34.3364
  87 42.1508 -487.944 77.9059
  88 207.353 -174.669 286.828
  89 636.121 35.6685 -9.14687
  90 636.121 35.6685 -9.14687
  91 581.796 8.26278 84.4854
  92 559.464 -3.19140 -101.447
  93 581.796 8.26278 84.4854
  94 559.464 -3.19140 -101.447
  95 337.009 10.9085 41.4571
  96 337.009 10.9085 41.4571
  97 845.555 55.2677 -10.3067
  98 858.457 33.2802 19.4488
  99 845.555 55.2677 -10.3067
  100 858.457 33.2802 19.4488
  101 678.844 15.9043 8.84339
  102 678.844 15.9043 8.84339
  103 804.648 -45.8663 5.93301
  104 804.648 -45.8663 5.93301
  105 679.558 16.6529 -10.9322
  106 679.558 16.6529 -10.9322
  107 787.661 -98.5144 -93.6870
  108 787.661 -98.5144 -93.6870
  109 556.586 -117.372 229.132
  110 556.586 -117.372 229.132
  111 381.710 -67.5064 -186.029
  112 381.710 -67.5064 -186.029
  113 681.828 11.0388 39.2778
  114 681.828 11.0388 39.2778
  115 705.001 4.35653 -37.7844
  116 705.001 4.35653 -37.7844
  117 947.214 67.1389 17.9771
  118 1010.89 64.4859 7.15005
  119 947.214 67.1389 17.9771
  120 1010.89 64.4859 7.15005
  121 991.803 85.8356 -32.5022
  122 991.803 85.8356 -32.5022
  123 113.253 -177.512 -64.0445
  124 113.253 -177.512 -64.0445
  125 851.503 -104.360 104.916
  126 851.503 -104.360 104.916
  127 727.438 -17.9431 45.9196
  128 727.438 -17.9431 45.9196
  129 172.152 -152.678 145.543
  130 172.152 -152.678 145.543
  131 679.732 13.2413 -0.547589
  132 679.732 13.2413 -0.547589
  133 725.887 -34.3485 -59.0873
  134 725.887 -34.3485 -59.0873
  135 689.324 5.43967 6.32201
  136 689.324 5.43967 6.32201
  137 689.829 4.79645 -5.88670
  138 689.829 4.79645 -5.88670
  139 696.894 9.25332 -19.2906
  140 696.894 9.25332 -19.2906
  141 693.975 9.04314 17.3083
  142 693.975 9.04314 17.3083
  143 667.238 22.2242 -0.723592
  144 667.238 22.2242 -0.723592
  145 563.659 36.9643 -4.35352
  146 563.659 36.9643 -4.35352
  147 801.849 -28.3811 7.97386
  148 801.849 -28.3811 7.97386
  149 908.051 -26.5907 -46.2620
  150 908.051 -26.5907 -46.2620
  151 707.786 -80.0210 113.546
  152 707.786 -80.0210 113.546
  153 533.873 -143.341 -261.876
  154 533.873 -143.341 -261.876
  155 636.971 25.7162 37.5733
  156 636.971 25.7162 37.5733
  157 816.439 -4.05687 -24.4956
  158 816.439 -4.05687 -24.4956
  159 1095.45 89.7793 68.2909
  160 1095.45 89.7793 68.2909
  161 555.297 -155.194 301.007
  162 555.297 -155.194 301.007
  163 1114.41 35.5403 -13.1302
  164 1114.41 35.5403 -13.1302
  165 664.683 22.1991 17.0940
  166 664.683 22.1991 17.0940
  167 632.858 21.3179 -55.3833
  168 632.858 21.3179 -55.3833
  169 781.485 24.4089 15.8799
  170 781.485 24.4089 15.8799
  171 658.931 26.5743 -19.5002
  172 658.931 26.5743 -19.5002
  173 683.434 10.6293 2.76577
  174 683.434 10.6293 2.76577
  175 693.542 5.16065 -10.1141
  176 693.542 5.16065 -10.1141
  177 1052.51 89.7258 -72.3162
  178 1052.51 89.7258 -72.3162
  179 683.904 10.3574 -3.33315
  180 683.904 10.3574 -3.33315
  181 512.829 37.5741 -29.1593
  182 512.829 37.5741 -29.1593
  183 903.384 67.8847 0.919401
  184 903.384 67.8847 0.919401
  185 187.619 -149.936 -187.141
  186 187.619 -149.936 -187.141
  187 503.057 -4.77402 124.106
  188 503.057 -4.77402 124.106
  189 660.265 -108.120 -177.492
  190 660.265 -108.120 -177.492
  191 779.635 -21.8518 11.7861
  192 779.635 -21.8518 11.7861
  193 730.739 -2.81466 27.6519
  194 730.739 -2.81466 27.6519
  195 980.666 36.2408 70.1959
  196 980.666 36.2408 70.1959
  197 423.297 14.6687 -77.0776
  198 423.297 14.6687 -77.0776
  199 1106.74 48.4243 30.6137
  200 1106.74 48.4243 30.6137
  201 743.857 -9.53401 -29.7403
  202 743.857 -9.53401 -29.7403
  203 694.541 3.67358 9.31538
  204 694.541 3.67358 9.31538
  205 773.469 -30.9051 -17.5269
  206 773.469 -30.9051 -17.5269
  207 842.867 -41.1688 -12.2580
  208 842.867 -41.1688 -12.2580
  209 53.5240 -316.440 29.0385
  210 53.5240 -316.440 29.0385
  211 714.744 3.42096 -23.9268
  212 714.744 3.42096 -23.9268
  213 709.162 5.34591 20.7790
  214 709.162 5.34591 20.7790
  215 681.800 -63.2802 -112.166
  216 681.800 -63.2802 -112.166
  217 795.260 -16.9239 -14.6239
  218 795.260 -16.9239 -14.6239
  219 656.402 23.2440 -37.5083
  220 656.402 23.2440 -37.5083
  221 180.742 -219.368 207.026
  222 180.742 -219.368 207.026
  223 807.418 4.75722 23.6393
  224 807.418 4.75722 23.6393
  225 787.538 20.8162 -20.7402
  226 787.538 20.8162 -20.7402
  227 1096.15 65.2754 -53.5414
  228 1096.15 65.2754 -53.5414
  229 846.135 -29.9689 -7.23040
  230 846.135 -29.9689 -7.23040
  231 914.017 -30.9940 -176.467
  232 914.017 -30.9940 -176.467
  233 684.927 -31.1149 85.5120
  234 684.927 -31.1149 85.5120
  235 674.002 18.5132 2.85599
  236 674.002 18.5132 2.85599
  237 363.059 -51.6634 164.379
  238 363.059 -51.6634 164.379
  239 874.619 -68.1453 203.887
  240 874.619 -68.1453 203.887
  241 250.366 -28.3840 -81.9186
  242 250.366 -28.3840 -81.9186
  243 787.932 -59.8311 -41.9102
  244 787.932 -59.8311 -41.9102
  245 650.592 28.7673 21.5063
  246 650.592 28.7673 21.5063
  247 22.2098 -415.987 -24.1424
  248 22.2098 -415.987 -24.1424
  249 44.4563 -361.689 79.4567
  250 44.4563 -361.689 79.4567
  251 660.760 4.46215 60.7174
  252 660.760 4.46215 60.7174
  253 688.596 2.56514 2.26705
  254 688.596 2.56514 2.26705
  255 683.389 10.6844 0.437238
  256 683.389 10.6844 0.437238
  257 642.566 -8.03857 -81.3118
  258 642.566 -8.03857 -81.3118
  259 688.937 2.34651 -2.40216
  260 688.937 2.34651 -2.40216
  261 757.611 -53.9991 53.4718
  262 757.611 -53.9991 53.4718
  263 705.735 2.38156 -11.3715
  264 705.735 2.38156 -11.3715
  265 550.724 -46.7544 -153.064
  266 550.724 -46.7544 -153.064
  267 925.794 71.9287 1.62476
  268 925.794 71.9287 1.62476
  269 682.508 14.7184 -30.2309
  270 682.508 14.7184 -30.2309
  271 680.156 13.7596 -5.86617
  272 680.156 13.7596 -5.86617
  273 583.044 28.1950 -55.5725
  274 583.044 28.1950 -55.5725
  275 181.826 -63.7847 47.9322
  276 181.826 -63.7847 47.9322
  277 721.588 -121.713 158.957
  278 721.588 -121.713 158.957
  279 686.764 9.93323 11.5072
  280 686.764 9.93323 11.5072
  281 1004.43 70.5018 -18.0047
  282 1004.43 70.5018 -18.0047
  283 1183.07 111.515 148.472
  284 1183.07 111.515 148.472
  285 809.335 -86.4005 56.0021
  286 809.335 -86.4005 56.0021
  287 594.339 29.4677 40.5228
  288 594.339 29.4677 40.5228
  289 739.188 -149.269 210.273
  290 739.188 -149.269 210.273
  291 766.704 -9.36331 19.5172
  292 766.704 -9.36331 19.5172
  293 686.343 6.53408 3.11666
  294 686.343 6.53408 3.11666
  295 677.485 18.1204 -19.0390
  296 677.485 18.1204 -19.0390
  297 683.536 10.5161 -0.856394
  298 683.536 10.5161 -0.856394
  299 692.321 1.86826 -4.35551
  300 692.321 1.86826 -4.35551
  301 705.205 3.36612 11.4138
  302 705.205 3.36612 11.4138
  303 674.155 18.4201 -4.85093
  304 674.155 18.4201 -4.85093
  305 154.605 -255.307 -198.031
  306 154.605 -255.307 -198.031
  307 470.639 31.1315 38.2390
  308 470.639 31.1315 38.2390
  309 686.988 5.46468 -2.98790
  310 686.988 5.46468 -2.98790
  311 610.356 34.6457 -27.0886
  312 610.356 34.6457 -27.0886
  313 611.969 37.7639 10.2563
  314 611.969 37.7639 10.2563
  315 685.721 9.55114 -8.12067
  316 685.721 9.55114 -8.12067
  317 910.317 51.6569 -11.3173
  318 910.317 51.6569 -11.3173
  319 681.054 16.0539 26.3408
  320 681.054 16.0539 26.3408
  321 862.459 29.1230 -16.7105
  322 862.459 29.1230 -16.7105
  323 1237.53 34.2920 85.3017
  324 1237.53 34.2920 85.3017
  325 678.781 16.6116 16.3970
  326 678.781 16.6116 16.3970
  327 668.938 22.0175 8.57859
  328 668.938 22.0175 8.57859
  329 514.380 -92.6544 -304.523
  330 514.380 -92.6544 -304.523
  331 692.717 1.68756 4.25914
  332 692.717 1.68756 4.25914
  333 679.582 13.8540 4.38835
  334 679.582 13.8540 4.38835
  335 656.426 28.6849 0.988443
  336 656.426 28.6849 0.988443
  337 341.853 -119.627 242.636
  338 341.853 -119.627 242.636
  339 840.878 55.7683 2.99135
  340 840.878 55.7683 2.99135
  341 47.6321 -353.759 -90.6285
  342 47.6321 -353.759 -90.6285
  343 533.528 33.5788 33.7368
  344 533.528 33.5788 33.7368
  345 1172.76 15.2567 11.2048
  346 1172.76 15.2567 11.2048
  347 1225.37 63.8092 -88.6155
  348 1225.37 63.8092 -88.6155
  349 593.151 -69.2590 171.350
  350 619.458 -35.4246 125.625
  351 593.151 -69.2590 171.350
  352 619.458 -35.4246 125.625
  353 1189.94 28.6182 43.7940
  354 1189.94 28.6182 43.7940
  355 701.207 -1.26043 47.3032
  356 701.207 -1.26043 47.3032
  357 819.330 -110.955 -126.486
  358 819.330 -110.955 -126.486
  359 788.100 -6.50422 20.0158
  360 788.100 -6.50422 20.0158
  361 523.855 -93.8562 331.377
  362 523.855 -93.8562 331.377
  363 916.762 73.4297 -2.26369
  364 916.762 73.4297 -2.26369
  365 1186.69 10.2544 -9.03505
  366 1186.69 10.2544 -9.03505
  367 742.973 0.0373385 -22.9076
  368 742.973 0.0373385 -22.9076
  369 668.908 23.4444 -10.2921
  370 668.908 23.4444 -10.2921
  371 1015.65 79.3519 30.5145
  372 1015.65 79.3519 30.5145
  373 792.141 33.6715 -4.38724
  374 792.141 33.6715 -4.38724
  375 717.453 2.53452 -14.2560
  376 717.453 2.53452 -14.2560
  377 202.765 -94.2356 -140.729
  378 202.765 -94.2356 -140.729
  379 791.638 -14.4418 4.09468
  380 791.638 -14.4418 4.09468
  381 681.638 -1.36381 -56.0584
  382 681.638 -1.36381 -56.0584
  383 783.911 -1.34021 -24.1203
  384 783.911 -1.34021 -24.1203
  385 1193.69 20.5526 -36.0213
  386 1193.69 20.5526 -36.0213
  387 684.203 10.2078 6.41024
  388 684.203 10.2078 6.41024
  389 831.722 41.9098 18.6135
  390 831.722 41.9098 18.6135
  391 888.440 -15.9048 17.3017
  392 888.440 -15.9048 17.3017
  393 686.498 12.0349 -14.4520
  394 686.498 12.0349 -14.4520
  395 1261.25 132.422 -170.800
  396 1261.25 132.422 -170.800
  397 780.201 -11.7891 -9.14474
  398 780.201 -11.7891 -9.14474
</Section>

newXOutput 209

<Section columns = "stress_xx | stress_yy | stress_xy">
  1 690.503 0.683409 -0.707909
  2 690.818 0.836775 0.953404
  3 690.503 0.683409 -0.707909
  4 690.818 0.836775 0.953404
  5 1025.48 96.7976 308.641
  6 1063.39 95.8548 -303.861
  7 1025.48 96.7976 308.641
  8 1063.39 95.8548 -303.861
  9 692.057 0.471754 -1.86661
  10 697.189 0.822640 -3.33841
  11 704.680 1.83916 -6.83794
  12 722.024 0.651157 -9.28806
  13 744.691 0.988800 -15.5453
  14 771.794 -7.25354 -15.8482
  15 797.738 -8.55647 -2.69626
  16 789.345 -5.70482 11.4020
  17 764.432 6.45354 21.0072
  18 750.695 15.2103 -0.830230
  19 760.461 7.22857 -19.8518
  20 788.763 -8.53232 -13.8484
  21 790.804 -10.4092 6.37105
  22 775.684 -4.76319 13.7388
  23 740.149 -0.00909999 15.7166
  24 720.572 2.57756 11.7993
  25 705.165 2.11209 6.56055
  26 697.347 0.663575 3.05495
  27 692.439 0.561022 1.80833
  28 691.709 2.41666 1.11135
  29 690.622 4.92716 1.30379
  30 687.941 8.51553 1.16669
  31 686.874 9.88634 -0.112442
  32 688.226 8.08597 -1.39297
  33 690.135 5.37213 -1.16996
  34 690.967 2.74948 -1.25575
  35 692.057 0.471754 -1.86661
  36 697.189 0.822640 -3.33841
  37 704.680 1.83916 -6.83794
  38 722.024 0.651157 -9.28806
  39 744.691 0.988800 -15.5453
  40 771.794 -7.25354 -15.8482
  41 797.738 -8.55647 -2.69626
  42 789.345 -5.70482 11.4020
  43 764.432 6.45354 21.0072
  44 750.695 15.2103 -0.830230
  45 760.461 7.22857 -19.8518
  46 788.763 -8.53232 -13.8484
  47 790.804 -10.4092 6.37105
  48 775.684 -4.76319 13.7388
  49 740.149 -0.00909999 15.7166
  50 720.572 2.57756 11.7993
  51 705.165 2.11209 6.56055
  52 697.347 0.663575 3.05495
  53 692.439 0.561022 1.80833
  54 691.709 2.41666 1.11135
  55 690.622 4.92716 1.30379
  56 687.941 8.51553 1.16669
  57 686.874 9.88634 -0.112442
  58 688.226 8.08597 -1.39297
  59 690.135 5.37213 -1.16996
  60 690.967 2.74948 -1.25575
  61 1407.56 77.8740 151.207
  62 1288.19 20.6837 52.0733
  63 1219.27 8.03690 18.7855
  64 1204.36 5.96267 3.42889
  65 1218.50 8.05134 -15.9853
  66 1271.68 17.5990 -44.8110
  67 1420.92 67.6514 -130.223
  68 193.706 -190.006 -260.936
  69 38.4954 -506.002 -73.7367
  70 8.84374 -590.833 -32.1767
  71 8.55067 -581.843 -14.3270
  72 16.4204 -562.061 34.5397
  73 42.3386 -490.143 78.3658
  74 208.222 -175.190 288.255
  75 1407.56 77.8740 151.207
  76 1288.19 20.6837 52.0733
  77 1219.27 8.03690 18.7855
  78 1204.36 5.96267 3.42889
  79 1218.50 8.05134 -15.9853
  80 1271.68 17.5990 -44.8110
  81 1420.92 67.6514 -130.223
  82 193.706 -190.006 -260.936
  83 38.4954 -506.002 -73.7367
  84 8.84374 -590.833 -32.1767
  85 8.55067 -581.843 -14.3270
  86 16.4204 -562.061 34.5397
  87 42.3386 -490.143 78.3658
  88 208.222 -175.190 288.255
  89 638.984 35.8225 -9.18511
  90 638.984 35.8225 -9.18511
  91 584.423 8.30162 84.8559
  92 561.994 -3.20359 -101.898
  93 584.423 8.30162 84.8559
  94 561.994 -3.20359 -101.898
  95 338.598 10.9791 41.6473
  96 338.598 10.9791 41.6473
  97 849.291 55.5200 -10.3280
  98 862.222 33.4471 19.4753
  99 849.291 55.5200 -10.3280
  100 862.222 33.4471 19.4753
  101 681.868 15.9706 8.87764
  102 681.868 15.9706 8.87764
  103 808.168 -46.0678 6.00236
  104 808.168 -46.0678 6.00236
  105 682.585 16.7226 -10.9747
  106 682.585 16.7226 -10.9747
  107 791.080 -98.9547 -94.1386
  108 791.080 -98.9547 -94.1386
  109 559.049 -117.907 230.197
  110 559.049 -117.907 230.197
  111 383.450 -67.8029 -186.905
  112 383.450 -67.8029 -186.905
  113 684.860 11.0842 39.4426
  114 684.860 11.0842 39.4426
  115 708.121 4.37204 -37.9450
  116 708.121 4.37204 -37.9450
  117 951.322 67.4624 18.1290
  118 1015.24 64.7552 7.19215
  119 951.322 67.4624 18.1290
  120 1015.24 64.7552 7.19215
  121 996.087 86.2264 -32.6983
  122 996.087 86.2264 -32.6983
  123 113.785 -178.269 -64.3740
  124 113.785 -178.269 -64.3740
  125 855.164 -104.796 105.453
  126 855.164 -104.796 105.453
  127 730.645 -18.0259 46.1274
  128 730.645 -18.0259 46.1274
  129 172.955 -153.324 146.277
  130 172.955 -153.324 146.277
  131 682.760 13.2960 -0.549602
  132 682.760 13.2960 -0.549602
  133 729.084 -34.5047 -59.3596
  134 729.084 -34.5047 -59.3596
  135 692.385 5.46235 6.34575
  136 692.385 5.46235 6.34575
  137 692.890 4.81656 -5.90869
  138 692.890 4.81656 -5.90869
  139 699.982 9.29132 -19.3673
  140 699.982 9.29132 -19.3673
  141 697.053 9.08054 17.3765
  142 697.053 9.08054 17.3765
  143 670.220 22.3176 -0.726619
  144 670.220 22.3176 -0.726619
  145 566.230 37.1289 -4.37285
  146 566.230 37.1289 -4.37285
  147 805.367 -28.5036 7.97127
  148 805.367 -28.5036 7.97127
  149 911.963 -26.6577 -46.5558
  150 911.963 -26.6577 -46.5558
  151 710.892 -80.3829 114.067
  152 710.892 -80.3829 114.067
  153 536.206 -143.959 -263.133
  154 536.206 -143.959 -263.133
  155 639.833 25.8281 37.7324
  156 639.833 25.8281 37.7324
  157 820.026 -4.06603 -24.5564
  158 820.026 -4.06603 -24.5564
  159 1100.10 90.1853 68.6291
  160 1100.10 90.1853 68.6291
  161 557.716 -155.879 302.434
  162 557.716 -155.879 302.434
  163 1119.10 35.6790 -13.1884
  164 1119.10 35.6790 -13.1884
  165 667.655 22.2928 17.1628
  166 667.655 22.2928 17.1628
  167 635.699 21.4113 -55.6216
  168 635.699 21.4113 -55.6216
  169 784.972 24.5256 15.9318
  170 784.972 24.5256 15.9318
  171 661.881 26.6873 -19.5796
  172 661.881 26.6873 -19.5796
  173 686.474 10.6732 2.77617
  174 686.474 10.6732 2.77617
  175 696.617 5.18197 -10.1527
  176 696.617 5.18197 -10.1527
  177 1056.99 90.1716 -72.7115
  178 1056.99 90.1716 -72.7115
  179 686.946 10.4003 -3.34562
  180 686.946 10.4003 -3.34562
  181 515.185 37.7471 -29.2879
  182 515.185 37.7471 -29.2879
  183 907.338 68.1925 0.882419
  184 907.338 68.1925 0.882419
  185 188.481 -150.570 -188.079
  186 188.481 -150.570 -188.079
  187 505.345 -4.79042 124.663
  188 505.345 -4.79042 124.663
  189 663.160 -108.610 -178.316
  190 663.160 -108.610 -178.316
  191 783.055 -21.9519 11.8574
  192 783.055 -21.9519 11.8574
  193 733.956 -2.83031 27.7706
  194 733.956 -2.83031 27.7706
  195 984.865 36.4655 70.5993
  196 984.865 36.4655 70.5993
  197 425.258 14.7471 -77.4271
  198 425.258 14.7471 -77.4271
  199 1111.41 48.6200 30.7542
  200 1111.41 48.6200 30.7542
  201 747.127 -9.57986 -29.8744
  202 747.127 -9.57986 -29.8744
  203 697.620 3.68864 9.35087
  204 697.620 3.68864 9.35087
  205 776.862 -31.0467 -17.6254
  206 776.862 -31.0467 -17.6254
  207 846.536 -41.3363 -12.3723
  208 846.536 -41.3363 -12.3723
  209 53.7668 -317.864 29.1956
  210 53.7668 -317.864 29.1956
  211 717.899 3.43287 -24.0252
  212 717.899 3.43287 -24.0252
  213 712.295 5.36732 20.8632
  214 712.295 5.36732 20.8632
  215 684.809 -63.5663 -112.678
  216 684.809 -63.5663 -112.678
  217 798.759 -16.9988 -14.6556
  218 798.759 -16.9988 -14.6556
  219 659.339 23.3439 -37.6665
  220 659.339 23.3439 -37.6665
  221 181.546 -220.285 208.080
  222 181.546 -220.285 208.080
  223 810.983 4.78914 23.7034
  224 810.983 4.78914 23.7034
  225 791.042 20.9166 -20.8046
  226 791.042 20.9166 -20.8046
  227 1100.80 65.5511 -53.7974
  228 1100.80 65.5511 -53.7974
  229 849.821 -30.0858 -7.20064
  230 849.821 -30.0858 -7.20064
  231 917.903 -31.0285 -177.353
  232 917.903 -31.0285 -177.353
  233 687.957 -31.2550 85.8935
  234 687.957 -31.2550 85.8935
  235 677.009 18.5906 2.86716
  236 677.009 18.5906 2.86716
  237 364.727 -51.8848 165.150
  238 364.727 -51.8848 165.150
  239 878.336 -68.3627 204.890
  240 878.336 -68.3627 204.890
  241 251.553 -28.4804 -82.3084
  242 251.553 -28.4804 -82.3084
  243 791.373 -60.0990 -42.1283
  244 791.373 -60.0990 -42.1283
  245 653.509 28.8908 21.5953
  246 653.509 28.8908 21.5953
  247 22.2988 -417.898 -24.2780
  248 22.2988 -417.898 -24.2780
  249 44.6518 -363.311 79.8968
  250 44.6518 -363.311 79.8968
  251 663.707 4.48069 60.9803
  252 663.707 4.48069 60.9803
  253 691.654 2.57597 2.27535
  254 691.654 2.57597 2.27535
  255 686.429 10.7282 0.438901
  256 686.429 10.7282 0.438901
  257 645.436 -8.07554 -81.6702
  258 645.436 -8.07554 -81.6702
  259 691.995 2.35652 -2.41097
  260 691.995 2.35652 -2.41097
  261 760.931 -54.2422 53.7304
  262 760.931 -54.2422 53.7304
  263 708.854 2.39101 -11.4155
  264 708.854 2.39101 -11.4155
  265 553.194 -46.9658 -153.759
  266 553.194 -46.9658 -153.759
  267 929.833 72.2515 1.67258
  268 929.833 72.2515 1.67258
  269 685.544 14.7798 -30.3551
  270 685.544 14.7798 -30.3551
  271 683.185 13.8168 -5.88853
  272 683.185 13.8168 -5.88853
  273 585.686 28.3215 -55.8139
  274 585.686 28.3215 -55.8139
  275 182.695 -64.0262 48.1673
  276 182.695 -64.0262 48.1673
  277 724.729 -122.262 159.700
  278 724.729 -122.262 159.700
  279 689.816 9.97453 11.5515
  280 689.816 9.97453 11.5515
  281 1008.76 70.8011 -18.1025
  282 1008.76 70.8011 -18.1025
  283 1187.99 112.077 149.175
  284 1187.99 112.077 149.175
  285 812.850 -86.7801 56.2990
  286 812.850 -86.7801 56.2990
  287 597.031 29.5986 40.6964
  288 597.031 29.5986 40.6964
  289 742.377 -149.935 211.261
  290 742.377 -149.935 211.261
  291 770.063 -9.40773 19.6080
  292 770.063 -9.40773 19.6080
  293 689.393 6.56113 3.12823
  294 689.393 6.56113 3.12823
  295 680.504 18.1965 -19.1148
  296 680.504 18.1965 -19.1148
  297 686.577 10.5593 -0.859578
  298 686.577 10.5593 -0.859578
  299 695.391 1.87611 -4.37172
  300 695.391 1.87611 -4.37172
  301 708.322 3.37972 11.4579
  302 708.322 3.37972 11.4579
  303 677.162 18.4971 -4.86984
  304 677.162 18.4971 -4.86984
  305 155.287 -256.366 -199.049
  306 155.287 -256.366 -199.049
  307 472.812 31.2793 38.4083
  308 472.812 31.2793 38.4083
  309 690.039 5.48743 -2.99893
  310 690.039 5.48743 -2.99893
  311 613.115 34.7974 -27.2040
  312 613.115 34.7974 -27.2040
  313 614.735 37.9291 10.2993
  314 614.735 37.9291 10.2993
  315 688.769 9.59084 -8.15158
  316 688.769 9.59084 -8.15158
  317 914.275 51.9185 -11.4424
  318 914.275 51.9185 -11.4424
  319 684.086 16.1213 26.4476
  320 684.086 16.1213 26.4476
  321 866.236 29.2707 -16.7256
  322 866.236 29.2707 -16.7256
  323 1242.64 34.4261 85.6704
  324 1242.64 34.4261 85.6704
  325 681.805 16.6813 16.4618
  326 681.805 16.6813 16.4618
  327 671.926 22.1101 8.61250
  328 671.926 22.1101 8.61250
  329 516.577 -92.8706 -306.010
  330 516.577 -92.8706 -306.010
  331 695.789 1.69464 4.27497
  332 695.789 1.69464 4.27497
  333 682.609 13.9114 4.40512
  334 682.609 13.9114 4.40512
  335 659.367 28.8069 0.992414
  336 659.367 28.8069 0.992414
  337 343.403 -120.159 243.805
  338 343.403 -120.159 243.805
  339 844.598 56.0221 2.99474
  340 844.598 56.0221 2.99474
  341 47.8360 -355.342 -91.1185
  342 47.8360 -355.342 -91.1185
  343 535.972 33.7316 33.8832
  344 535.972 33.7316 33.8832
  345 1177.62 15.3134 11.2481
  346 1177.62 15.3134 11.2481
  347 1230.46 64.0898 -89.0045
  348 1230.46 64.0898 -89.0045
  349 595.786 -69.5741 172.130
  350 622.220 -35.5839 126.185
  351 595.786 -69.5741 172.130
  352 622.220 -35.5839 126.185
  353 1194.88 28.7274 43.9763
  354 1194.88 28.7274 43.9763
  355 704.313 -1.26861 47.5075
  356 704.313 -1.26861 47.5075
  357 822.856 -111.435 -127.106
  358 822.856 -111.435 -127.106
  359 791.582 -6.53008 20.0776
  360 791.582 -6.53008 20.0776
  361 526.072 -94.0896 332.978
  362 526.072 -94.0896 332.978
  363 920.774 73.7509 -2.27166
  364 920.774 73.7509 -2.27166
  365 1191.60 10.2918 -9.07166
  366 1191.60 10.2918 -9.07166
  367 746.234 0.0344214 -23.0044
  368 746.234 0.0344214 -23.0044
  369 671.896 23.5433 -10.3330
  370 671.896 23.5433 -10.3330
  371 1020.02 79.6986 30.6858
  372 1020.02 79.6986 30.6858
  373 795.671 33.8273 -4.40085
  374 795.671 33.8273 -4.40085
  375 720.614 2.54390 -14.3125
  376 720.614 2.54390 -14.3125
  377 203.731 -94.6266 -141.420
  378 203.731 -94.6266 -141.420
  379 795.111 -14.5071 4.09332
  380 795.111 -14.5071 4.09332
  381 684.667 -1.37251 -56.3028
  382 684.667 -1.37251 -56.3028
  383 787.387 -1.34335 -24.1969
  384 787.387 -1.34335 -24.1969
  385 1198.64 20.6334 -36.1690
  386 1198.64 20.6334 -36.1690
  387 687.246 10.2501 6.43454
  388 687.246 10.2501 6.43454
  389 835.395 42.1076 18.6577
  390 835.395 42.1076 18.6577
  391 892.284 -15.9421 17.4563
  392 892.284 -15.9421 17.4563
  393 689.549 12.0850 -14.5082
  394 689.549 12.0850 -14.5082
  395 1266.45 133.100 -171.595
  396 1266.45 133.100 -171.595
  397 783.614 -11.8448 -9.19377
  398 783.614 -11.8448 -9.19377
</Section>

newXOutput 210

<Section columns = "stress_xx | stress_yy | stress_xy">
  1 693.554 0.686521 -0.710428
  2 693.870 0.840482 0.956786
  3 693.554 0.686521 -0.710428
  4 693.870 0.840482 0.956786
  5 1029.66 97.4660 310.084
  6 1067.72 96.5280 -305.283
  7 1029.66 97.4660 310.084
  8 1067.72 96.5280 -305.283
  9 695.114 0.473810 -1.87334
  10 700.263 0.826113 -3.35064
  11 707.780 1.84669 -6.86360
  12 725.187 0.653475 -9.32387
  13 747.939 0.991418 -15.6083
  14 775.148 -7.28872 -15.9175
  15 801.204 -8.59639 -2.71579
  16 792.810 -5.72985 11.4352
  17 767.831 6.48691 21.0777
  18 754.057 15.2831 -0.833102
  19 763.847 7.26262 -19.9197
  20 792.227 -8.57018 -13.8881
  21 794.243 -10.4579 6.40816
  22 779.054 -4.78605 13.7996
  23 743.381 -0.0114424 15.7812
  24 723.730 2.58760 11.8451
  25 708.267 2.12074 6.58507
  26 700.421 0.666401 3.06611
  27 695.496 0.563498 1.81491
  28 694.764 2.42680 1.11527
  29 693.674 4.94754 1.30850
  30 690.984 8.55030 1.17097
  31 689.914 9.92656 -0.112847
  32 691.270 8.11906 -1.39802
  33 693.185 5.39436 -1.17403
  34 694.019 2.76111 -1.26029
  35 695.114 0.473810 -1.87334
  36 700.263 0.826113 -3.35064
  37 707.780 1.84669 -6.86360
  38 725.187 0.653475 -9.32387
  39 747.939 0.991418 -15.6083
  40 775.148 -7.28872 -15.9175
  41 801.204 -8.59639 -2.71579
  42 792.810 -5.72985 11.4352
  43 767.831 6.48691 21.0777
  44 754.057 15.2831 -0.833102
  45 763.847 7.26262 -19.9197
  46 792.227 -8.57018 -13.8881
  47 794.243 -10.4579 6.40816
  48 779.054 -4.78605 13.7996
  49 743.381 -0.0114424 15.7812
  50 723.730 2.58760 11.8451
  51 708.267 2.12074 6.58507
  52 700.421 0.666401 3.06611
  53 695.496 0.563498 1.81491
  54 694.764 2.42680 1.11527
  55 693.674 4.94754 1.30850
  56 690.984 8.55030 1.17097
  57 689.914 9.92656 -0.112847
  58 691.270 8.11906 -1.39802
  59 693.185 5.39436 -1.17403
  60 694.019 2.76111 -1.26029
  61 1413.21 78.2277 151.844
  62 1293.40 20.7642 52.2803
  63 1224.25 8.06276 18.8563
  64 1209.29 5.98343 3.43958
  65 1223.48 8.08083 -16.0452
  66 1276.84 17.6663 -44.9860
  67 1426.62 67.9576 -130.771
  68 194.530 -190.588 -262.235
  69 38.6612 -508.273 -74.1682
  70 8.86281 -593.627 -32.3657
  71 8.57044 -584.610 -14.3944
  72 16.4792 -564.697 34.7433
  73 42.5262 -492.341 78.8265
  74 209.091 -175.708 289.682
  75 1413.21 78.2277 151.844
  76 1293.40 20.7642 52.2803
  77 1224.25 8.06276 18.8563
  78 1209.29 5.98343 3.43958
  79 1223.48 8.08083 -16.0452
  80 1276.84 17.6663 -44.9860
  81 1426.62 67.9576 -130.771
  82 194.530 -190.588 -262.235
  83 38.6612 -508.273 -74.1682
  84 8.86281 -593.627 -32.3657
  85 8.57044 -584.610 -14.3944
  86 16.4792 -564.697 34.7433
  87 42.5262 -492.341 78.8265
  88 209.091 -175.708 289.682
  89 641.845 35.9764 -9.22330
  90 641.845 35.9764 -9.22330
  91 587.048 8.34044 85.2260
  92 564.522 -3.21575 -102.348
  93 587.048 8.34044 85.2260
  94 564.522 -3.21575 -102.348
  95 340.187 11.0500 41.8375
  96 340.187 11.0500 41.8375
  97 853.023 55.7723 -10.3490
  98 865.983 33.6140 19.5012
  99 853.023 55.7723 -10.3490
  100 865.983 33.6140 19.5012
  101 684.890 16.0368 8.91182
  102 684.890 16.0368 8.91182
  103 811.684 -46.2691 6.07203
  104 811.684 -46.2691 6.07203
  105 685.609 16.7922 -11.0172
  106 685.609 16.7922 -11.0172
  107 794.496 -99.3948 -94.5902
  108 794.496 -99.3948 -94.5902
  109 561.511 -118.441 231.261
  110 561.511 -118.441 231.261
  111 385.189 -68.0991 -187.780
  112 385.189 -68.0991 -187.780
  113 687.890 11.1295 39.6072
  114 687.890 11.1295 39.6072
  115 711.239 4.38750 -38.1054
  116 711.239 4.38750 -38.1054
  117 955.426 67.7859 18.2815
  118 1019.58 65.0241 7.23430
  119 955.426 67.7859 18.2815
  120 1019.58 65.0241 7.23430
  121 1000.37 86.6170 -32.8946
  122 1000.37 86.6170 -32.8946
  123 114.316 -179.024 -64.7037
  124 114.316 -179.024 -64.7037
  125 858.821 -105.230 105.989
  126 858.821 -105.230 105.989
  127 733.849 -18.1087 46.3351
  128 733.849 -18.1087 46.3351
  129 173.759 -153.969 147.011
  130 173.759 -153.969 147.011
  131 685.785 13.3507 -0.551609
  132 685.785 13.3507 -0.551609
  133 732.278 -34.6608 -59.6317
  134 732.278 -34.6608 -59.6317
  135 695.442 5.48499 6.36943
  136 695.442 5.48499 6.36943
  137 695.949 4.83664 -5.93063
  138 695.949 4.83664 -5.93063
  139 703.068 9.32927 -19.4439
  140 703.068 9.32927 -19.4439
  141 700.128 9.11789 17.4445
  142 700.128 9.11789 17.4445
  143 673.200 22.4109 -0.729641
  144 673.200 22.4109 -0.729641
  145 568.799 37.2933 -4.39217
  146 568.799 37.2933 -4.39217
  147 808.883 -28.6260 7.96835
  148 808.883 -28.6260 7.96835
  149 915.870 -26.7241 -46.8500
  150 915.870 -26.7241 -46.8500
  151 713.995 -80.7446 114.589
  152 713.995 -80.7446 114.589
  153 538.536 -144.577 -264.390
  154 538.536 -144.577 -264.390
  155 642.692 25.9400 37.8913
  156 642.692 25.9400 37.8913
  157 823.611 -4.07510 -24.6168
  158 823.611 -4.07510 -24.6168
  159 1104.74 90.5910 68.9673
  160 1104.74 90.5910 68.9673
  161 560.134 -156.563 303.860
  162 560.134 -156.563 303.860
  163 1123.79 35.8174 -13.2466
  164 1123.79 35.8174 -13.2466
  165 670.625 22.3864 17.2316
  166 670.625 22.3864 17.2316
  167 638.538 21.5046 -55.8597
  168 638.538 21.5046 -55.8597
  169 788.456 24.6423 15.9835
  170 788.456 24.6423 15.9835
  171 664.829 26.8002 -19.6589
  172 664.829 26.8002 -19.6589
  173 689.512 10.7169 2.78654
  174 689.512 10.7169 2.78654
  175 699.690 5.20326 -10.1913
  176 699.690 5.20326 -10.1913
  177 1061.47 90.6175 -73.1071
  178 1061.47 90.6175 -73.1071
  179 689.986 10.4430 -3.35805
  180 689.986 10.4430 -3.35805
  181 517.539 37.9201 -29.4163
  182 517.539 37.9201 -29.4163
  183 911.288 68.5002 0.845126
  184 911.288 68.5002 0.845126
  185 189.344 -151.204 -189.017
  186 189.344 -151.204 -189.017
  187 507.632 -4.80677 125.219
  188 507.632 -4.80677 125.219
  189 666.054 -109.100 -179.139
  190 666.054 -109.100 -179.139
  191 786.472 -22.0518 11.9288
  192 786.472 -22.0518 11.9288
  193 737.170 -2.84597 27.8892
  194 737.170 -2.84597 27.8892
  195 989.060 36.6905 71.0031
  196 989.060 36.6905 71.0031
  197 427.218 14.8256 -77.7765
  198 427.218 14.8256 -77.7765
  199 1116.08 48.8155 30.8946
  200 1116.08 48.8155 30.8946
  201 750.395 -9.62571 -30.0085
  202 750.395 -9.62571 -30.0085
  203 700.696 3.70368 9.38629
  204 700.696 3.70368 9.38629
  205 780.251 -31.1883 -17.7241
  206 780.251 -31.1883 -17.7241
  207 850.201 -41.5035 -12.4870
  208 850.201 -41.5035 -12.4870
  209 54.0094 -319.286 29.3528
  210 54.0094 -319.286 29.3528
  211 721.051 3.44474 -24.1234
  212 721.051 3.44474 -24.1234
  213 715.426 5.38869 20.9472
  214 715.426 5.38869 20.9472
  215 687.815 -63.8522 -113.189
  216 687.815 -63.8522 -113.189
  217 802.254 -17.0737 -14.6871
  218 802.254 -17.0737 -14.6871
  219 662.274 23.4437 -37.8246
  220 662.274 23.4437 -37.8246
  221 182.349 -221.201 209.135
  222 182.349 -221.201 209.135
  223 814.544 4.82115 23.7670
  224 814.544 4.82115 23.7670
  225 794.545 21.0171 -20.8688
  226 794.545 21.0171 -20.8688
  227 1105.44 65.8264 -54.0532
  228 1105.44 65.8264 -54.0532
  229 853.504 -30.2025 -7.17036
  230 853.504 -30.2025 -7.17036
  231 921.783 -31.0620 -178.239
  232 921.783 -31.0620 -178.239
  233 690.986 -31.3950 86.2747
  234 690.986 -31.3950 86.2747
  235 680.014 18.6678 2.87830
  236 680.014 18.6678 2.87830
  237 366.395 -52.1060 165.920
  238 366.395 -52.1060 165.920
  239 882.049 -68.5791 205.893
  240 882.049 -68.5791 205.893
  241 252.740 -28.5765 -82.6981
  242 252.740 -28.5765 -82.6981
  243 794.809 -60.3668 -42.3464
  244 794.809 -60.3668 -42.3464
  245 656.424 29.0142 21.6841
  246 656.424 29.0142 21.6841
  247 22.3877 -419.808 -24.4137
  248 22.3877 -419.808 -24.4137
  249 44.8472 -364.932 80.3374
  250 44.8472 -364.932 80.3374
  251 666.652 4.49921 61.2429
  252 666.652 4.49921 61.2429
  253 694.708 2.58679 2.28363
  254 694.708 2.58679 2.28363
  255 689.467 10.7720 0.440560
  256 689.467 10.7720 0.440560
  257 648.304 -8.11249 -82.0282
  258 648.304 -8.11249 -82.0282
  259 695.051 2.36651 -2.41975
  260 695.051 2.36651 -2.41975
  261 764.247 -54.4852 53.9890
  262 764.247 -54.4852 53.9890
  263 711.970 2.40045 -11.4593
  264 711.970 2.40045 -11.4593
  265 555.663 -47.1770 -154.453
  266 555.663 -47.1770 -154.453
  267 933.868 72.5741 1.72071
  268 933.868 72.5741 1.72071
  269 688.579 14.8410 -30.4791
  270 688.579 14.8410 -30.4791
  271 686.211 13.8739 -5.91084
  272 686.211 13.8739 -5.91084
  273 588.327 28.4478 -56.0550
  274 588.327 28.4478 -56.0550
  275 183.564 -64.2671 48.4025
  276 183.564 -64.2671 48.4025
  277 727.867 -122.811 160.444
  278 727.867 -122.811 160.444
  279 692.865 10.0158 11.5957
  280 692.865 10.0158 11.5957
  281 1013.08 71.1001 -18.2004
  282 1013.08 71.1001 -18.2004
  283 1192.91 112.639 149.878
  284 1192.91 112.639 149.878
  285 816.362 -87.1593 56.5961
  286 816.362 -87.1593 56.5961
  287 599.720 29.7294 40.8698
  288 599.720 29.7294 40.8698
  289 745.562 -150.601 212.250
  290 745.562 -150.601 212.250
  291 773.419 -9.45215 19.6988
  292 773.419 -9.45215 19.6988
  293 692.440 6.58815 3.13978
  294 692.440 6.58815 3.13978
  295 683.521 18.2725 -19.1905
  296 683.521 18.2725 -19.1905
  297 689.615 10.6024 -0.862753
  298 689.615 10.6024 -0.862753
  299 698.459 1.88394 -4.38788
  300 698.459 1.88394 -4.38788
  301 711.437 3.39331 11.5019
  302 711.437 3.39331 11.5019
  303 680.168 18.5740 -4.88871
  304 680.168 18.5740 -4.88871
  305 155.969 -257.424 -200.069
  306 155.969 -257.424 -200.069
  307 474.985 31.4272 38.5774
  308 474.985 31.4272 38.5774
  309 693.089 5.51015 -3.00993
  310 693.089 5.51015 -3.00993
  311 615.872 34.9489 -27.3193
  312 615.872 34.9489 -27.3193
  313 617.500 38.0941 10.3423
  314 617.500 38.0941 10.3423
  315 691.815 9.63049 -8.18242
  316 691.815 9.63049 -8.18242
  317 918.229 52.1802 -11.5681
  318 918.229 52.1802 -11.5681
  319 687.115 16.1886 26.5541
  320 687.115 16.1886 26.5541
  321 870.009 29.4186 -16.7403
  322 870.009 29.4186 -16.7403
  323 1247.74 34.5600 86.0386
  324 1247.74 34.5600 86.0386
  325 684.826 16.7508 16.5265
  326 684.826 16.7508 16.5265
  327 674.912 22.2025 8.64635
  328 674.912 22.2025 8.64635
  329 518.772 -93.0847 -307.497
  330 518.772 -93.0847 -307.497
  331 698.858 1.70170 4.29076
  332 698.858 1.70170 4.29076
  333 685.634 13.9688 4.42186
  334 685.634 13.9688 4.42186
  335 662.307 28.9288 0.996378
  336 662.307 28.9288 0.996378
  337 344.951 -120.690 244.974
  338 344.951 -120.690 244.974
  339 848.315 56.2757 2.99804
  340 848.315 56.2757 2.99804
  341 48.0396 -356.924 -91.6089
  342 48.0396 -356.924 -91.6089
  343 538.414 33.8843 34.0294
  344 538.414 33.8843 34.0294
  345 1182.48 15.3699 11.2913
  346 1182.48 15.3699 11.2913
  347 1235.54 64.3702 -89.3931
  348 1235.54 64.3702 -89.3931
  349 598.419 -69.8891 172.908
  350 624.979 -35.7431 126.744
  351 598.419 -69.8891 172.908
  352 624.979 -35.7431 126.744
  353 1199.81 28.8364 44.1582
  354 1199.81 28.8364 44.1582
  355 707.417 -1.27681 47.7115
  356 707.417 -1.27681 47.7115
  357 826.378 -111.916 -127.727
  358 826.378 -111.916 -127.727
  359 795.061 -6.55589 20.1390
  360 795.061 -6.55589 20.1390
  361 528.285 -94.3210 334.580
  362 528.285 -94.3210 334.580
  363 924.781 74.0718 -2.27960
  364 924.781 74.0718 -2.27960
  365 1196.49 10.3292 -9.10821
  366 1196.49 10.3292 -9.10821
  367 749.492 0.0314800 -23.1011
  368 749.492 0.0314800 -23.1011
  369 674.882 23.6420 -10.3738
  370 674.882 23.6420 -10.3738
  371 1024.38 80.0450 30.8573
  372 1024.38 80.0450 30.8573
  373 799.199 33.9830 -4.41439
  374 799.199 33.9830 -4.41439
  375 723.773 2.55325 -14.3690
  376 723.773 2.55325 -14.3690
  377 204.696 -95.0170 -142.111
  378 204.696 -95.0170 -142.111
  379 798.581 -14.5724 4.09179
  380 798.581 -14.5724 4.09179
  381 687.693 -1.38123 -56.5470
  382 687.693 -1.38123 -56.5470
  383 790.860 -1.34645 -24.2731
  384 790.860 -1.34645 -24.2731
  385 1203.57 20.7141 -36.3165
  386 1203.57 20.7141 -36.3165
  387 690.286 10.2923 6.45878
  388 690.286 10.2923 6.45878
  389 839.064 42.3053 18.7015
  390 839.064 42.3053 18.7015
  391 896.125 -15.9792 17.6115
  392 896.125 -15.9792 17.6115
  393 692.597 12.1352 -14.5643
  394 692.597 12.1352 -14.5643
  395 1271.64 133.779 -172.390
  396 1271.64 133.779 -172.390
  397 787.025 -11.9004 -9.24283
  398 787.025 -11.9004 -9.24283
</Section>

newXOutput 211

<Section columns = "stress_xx | stress_yy | stress_xy">
  1 696.602 0.689632 -0.712939
  2 696.920 0.844186 0.960157
  3 696.602 0.689632 -0.712939
  4 696.920 0.844186 0.960157
  5 1033.84 98.1360 311.526
  6 1072.03 97.2028 -306.704
  7 1033.84 98.1360 311.526
  8 1072.03 97.2028 -306.704
  9 698.167 0.475865 -1.88005
  10 703.334 0.829582 -3.36285
  11 710.878 1.85420 -6.88921
  12 728.346 0.655787 -9.35960
  13 751.183 0.994020 -15.6713
  14 778.499 -7.32390 -15.9868
  15 804.668 -8.63630 -2.73537
  16 796.271 -5.75486 11.4681
  17 771.228 6.52029 21.1479
  18 757.417 15.3558 -0.835965
  19 767.230 7.29668 -19.9874
  20 795.688 -8.60801 -13.9275
  21 797.679 -10.5066 6.44531
  22 782.420 -4.80890 13.8604
  23 746.610 -0.0138030 15.8456
  24 726.885 2.59761 11.8909
  25 711.366 2.12938 6.60953
  26 703.493 0.669223 3.07725
  27 698.552 0.565973 1.82147
  28 697.816 2.43693 1.11918
  29 696.723 4.96789 1.31320
  30 694.025 8.58503 1.17524
  31 692.951 9.96672 -0.113251
  32 694.311 8.15210 -1.40306
  33 696.232 5.41655 -1.17809
  34 697.069 2.77272 -1.26482
  35 698.167 0.475865 -1.88005
  36 703.334 0.829582 -3.36285
  37 710.878 1.85420 -6.88921
  38 728.346 0.655787 -9.35960
  39 751.183 0.994020 -15.6713
  40 778.499 -7.32390 -15.9868
  41 804.668 -8.63630 -2.73537
  42 796.271 -5.75486 11.4681
  43 771.228 6.52029 21.1479
  44 757.417 15.3558 -0.835965
  45 767.230 7.29668 -19.9874
  46 795.688 -8.60801 -13.9275
  47 797.679 -10.5066 6.44531
  48 782.420 -4.80890 13.8604
  49 746.610 -0.0138030 15.8456
  50 726.885 2.59761 11.8909
  51 711.366 2.12938 6.60953
  52 703.493 0.669223 3.07725
  53 698.552 0.565973 1.82147
  54 697.816 2.43693 1.11918
  55 696.723 4.96789 1.31320
  56 694.025 8.58503 1.17524
  57 692.951 9.96672 -0.113251
  58 694.311 8.15210 -1.40306
  59 696.232 5.41655 -1.17809
  60 697.069 2.77272 -1.26482
  61 1418.84 78.5811 152.480
  62 1298.61 20.8444 52.4869
  63 1229.22 8.08853 18.9270
  64 1214.20 6.00414 3.45024
  65 1228.44 8.11025 -16.1050
  66 1282.00 17.7334 -45.1606
  67 1432.31 68.2636 -131.318
  68 195.352 -191.166 -263.534
  69 38.8268 -510.543 -74.6004
  70 8.88167 -596.421 -32.5550
  71 8.59003 -587.377 -14.4619
  72 16.5378 -567.334 34.9474
  73 42.7136 -494.538 79.2879
  74 209.958 -176.222 291.109
  75 1418.84 78.5811 152.480
  76 1298.61 20.8444 52.4869
  77 1229.22 8.08853 18.9270
  78 1214.20 6.00414 3.45024
  79 1228.44 8.11025 -16.1050
  80 1282.00 17.7334 -45.1606
  81 1432.31 68.2636 -131.318
  82 195.352 -191.166 -263.534
  83 38.8268 -510.543 -74.6004
  84 8.88167 -596.421 -32.5550
  85 8.59003 -587.377 -14.4619
  86 16.5378 -567.334 34.9474
  87 42.7136 -494.538 79.2879
  88 209.958 -176.222 291.109
  89 644.704 36.1301 -9.26144
  90 644.704 36.1301 -9.26144
  91 589.672 8.37926 85.5958
  92 567.049 -3.22788 -102.798
  93 589.672 8.37926 85.5958
  94 567.049 -3.22788 -102.798
  95 341.776 11.1209 42.0275
  96 341.776 11.1209 42.0275
  97 856.752 56.0244 -10.3699
  98 869.740 33.7809 19.5267
  99 856.752 56.0244 -10.3699
  100 869.740 33.7809 19.5267
  101 687.910 16.1029 8.94593
  102 687.910 16.1029 8.94593
  103 815.198 -46.4702 6.14201
  104 815.198 -46.4702 6.14201
  105 688.631 16.8617 -11.0595
  106 688.631 16.8617 -11.0595
  107 797.909 -99.8345 -95.0417
  108 797.909 -99.8345 -95.0417
  109 563.971 -118.975 232.325
  110 563.971 -118.975 232.325
  111 386.927 -68.3951 -188.654
  112 386.927 -68.3951 -188.654
  113 690.918 11.1748 39.7715
  114 690.918 11.1748 39.7715
  115 714.355 4.40291 -38.2656
  116 714.355 4.40291 -38.2656
  117 959.526 68.1093 18.4344
  118 1023.92 65.2926 7.27649
  119 959.526 68.1093 18.4344
  120 1023.92 65.2926 7.27649
  121 1004.64 87.0073 -33.0912
  122 1004.64 87.0073 -33.0912
  123 114.847 -179.779 -65.0336
  124 114.847 -179.779 -65.0336
  125 862.474 -105.664 106.525
  126 862.474 -105.664 106.525
  127 737.050 -18.1915 46.5427
  128 737.050 -18.1915 46.5427
  129 174.561 -154.614 147.746
  130 174.561 -154.614 147.746
  131 688.808 13.4054 -0.553612
  132 688.808 13.4054 -0.553612
  133 735.469 -34.8168 -59.9038
  134 735.469 -34.8168 -59.9038
  135 698.498 5.50761 6.39306
  136 698.498 5.50761 6.39306
  137 699.006 4.85670 -5.95252
  138 699.006 4.85670 -5.95252
  139 706.152 9.36716 -19.5203
  140 706.152 9.36716 -19.5203
  141 703.201 9.15519 17.5125
  142 703.201 9.15519 17.5125
  143 676.178 22.5041 -0.732659
  144 676.178 22.5041 -0.732659
  145 571.367 37.4577 -4.41147
  146 571.367 37.4577 -4.41147
  147 812.394 -28.7483 7.96510
  148 812.394 -28.7483 7.96510
  149 919.774 -26.7900 -47.1448
  150 919.774 -26.7900 -47.1448
  151 717.096 -81.1061 115.110
  152 717.096 -81.1061 115.110
  153 540.865 -145.194 -265.647
  154 540.865 -145.194 -265.647
  155 645.550 26.0517 38.0500
  156 645.550 26.0517 38.0500
  157 827.192 -4.08408 -24.6767
  158 827.192 -4.08408 -24.6767
  159 1109.38 90.9964 69.3054
  160 1109.38 90.9964 69.3054
  161 562.549 -157.247 305.286
  162 562.549 -157.247 305.286
  163 1128.47 35.9555 -13.3048
  164 1128.47 35.9555 -13.3048
  165 673.592 22.4799 17.3002
  166 673.592 22.4799 17.3002
  167 641.376 21.5978 -56.0975
  168 641.376 21.5978 -56.0975
  169 791.938 24.7590 16.0350
  170 791.938 24.7590 16.0350
  171 667.775 26.9130 -19.7381
  172 667.775 26.9130 -19.7381
  173 692.548 10.7606 2.79689
  174 692.548 10.7606 2.79689
  175 702.760 5.22452 -10.2298
  176 702.760 5.22452 -10.2298
  177 1065.94 91.0635 -73.5029
  178 1065.94 91.0635 -73.5029
  179 693.023 10.4858 -3.37046
  180 693.023 10.4858 -3.37046
  181 519.891 38.0930 -29.5446
  182 519.891 38.0930 -29.5446
  183 915.234 68.8076 0.807523
  184 915.234 68.8076 0.807523
  185 190.206 -151.837 -189.955
  186 190.206 -151.837 -189.955
  187 509.918 -4.82306 125.775
  188 509.918 -4.82306 125.775
  189 668.944 -109.590 -179.962
  190 668.944 -109.590 -179.962
  191 789.886 -22.1518 12.0003
  192 789.886 -22.1518 12.0003
  193 740.382 -2.86165 28.0077
  194 740.382 -2.86165 28.0077
  195 993.251 36.9160 71.4073
  196 993.251 36.9160 71.4073
  197 429.177 14.9041 -78.1256
  198 429.177 14.9041 -78.1256
  199 1120.74 49.0106 31.0350
  200 1120.74 49.0106 31.0350
  201 753.660 -9.67156 -30.1424
  202 753.660 -9.67156 -30.1424
  203 703.770 3.71870 9.42163
  204 703.770 3.71870 9.42163
  205 783.637 -31.3297 -17.8228
  206 783.637 -31.3297 -17.8228
  207 853.863 -41.6705 -12.6022
  208 853.863 -41.6705 -12.6022
  209 54.2519 -320.708 29.5102
  210 54.2519 -320.708 29.5102
  211 724.201 3.45657 -24.2215
  212 724.201 3.45657 -24.2215
  213 718.555 5.41002 21.0311
  214 718.555 5.41002 21.0311
  215 690.819 -64.1379 -113.701
  216 690.819 -64.1379 -113.701
  217 805.746 -17.1485 -14.7182
  218 805.746 -17.1485 -14.7182
  219 665.206 23.5434 -37.9824
  220 665.206 23.5434 -37.9824
  221 183.152 -222.115 210.190
  222 183.152 -222.115 210.190
  223 818.103 4.85323 23.8303
  224 818.103 4.85323 23.8303
  225 798.044 21.1176 -20.9327
  226 798.044 21.1176 -20.9327
  227 1110.07 66.1014 -54.3090
  228 1110.07 66.1014 -54.3090
  229 857.183 -30.3190 -7.13957
  230 857.183 -30.3190 -7.13957
  231 925.659 -31.0945 -179.125
  232 925.659 -31.0945 -179.125
  233 694.012 -31.5349 86.6557
  234 694.012 -31.5349 86.6557
  235 683.017 18.7449 2.88942
  236 683.017 18.7449 2.88942
  237 368.061 -52.3270 166.689
  238 368.061 -52.3270 166.689
  239 885.757 -68.7946 206.896
  240 885.757 -68.7946 206.896
  241 253.926 -28.6722 -83.0877
  242 253.926 -28.6722 -83.0877
  243 798.243 -60.6344 -42.5647
  244 798.243 -60.6344 -42.5647
  245 659.337 29.1374 21.7727
  246 659.337 29.1374 21.7727
  247 22.4764 -421.718 -24.5497
  248 22.4764 -421.718 -24.5497
  249 45.0423 -366.552 80.7786
  250 45.0423 -366.552 80.7786
  251 669.595 4.51769 61.5053
  252 669.595 4.51769 61.5053
  253 697.761 2.59759 2.29189
  254 697.761 2.59759 2.29189
  255 692.502 10.8157 0.442216
  256 692.502 10.8157 0.442216
  257 651.170 -8.14943 -82.3858
  258 651.170 -8.14943 -82.3858
  259 698.104 2.37650 -2.42851
  260 698.104 2.37650 -2.42851
  261 767.561 -54.7280 54.2476
  262 767.561 -54.7280 54.2476
  263 715.083 2.40986 -11.5031
  264 715.083 2.40986 -11.5031
  265 558.131 -47.3881 -155.148
  266 558.131 -47.3881 -155.148
  267 937.899 72.8965 1.76913
  268 937.899 72.8965 1.76913
  269 691.610 14.9022 -30.6030
  270 691.610 14.9022 -30.6030
  271 689.235 13.9309 -5.93310
  272 689.235 13.9309 -5.93310
  273 590.966 28.5741 -56.2959
  274 590.966 28.5741 -56.2959
  275 184.433 -64.5075 48.6376
  276 184.433 -64.5075 48.6376
  277 731.002 -123.360 161.186
  278 731.002 -123.360 161.186
  279 695.912 10.0570 11.6398
  280 695.912 10.0570 11.6398
  281 1017.40 71.3987 -18.2983
  282 1017.40 71.3987 -18.2983
  283 1197.83 113.202 150.581
  284 1197.83 113.202 150.581
  285 819.870 -87.5381 56.8934
  286 819.870 -87.5381 56.8934
  287 602.408 29.8601 41.0430
  288 602.408 29.8601 41.0430
  289 748.744 -151.266 213.238
  290 748.744 -151.266 213.238
  291 776.772 -9.49655 19.7895
  292 776.772 -9.49655 19.7895
  293 695.485 6.61513 3.15130
  294 695.485 6.61513 3.15130
  295 686.535 18.3484 -19.2660
  296 686.535 18.3484 -19.2660
  297 692.651 10.6455 -0.865921
  298 692.651 10.6455 -0.865921
  299 701.524 1.89177 -4.40400
  300 701.524 1.89177 -4.40400
  301 714.548 3.40688 11.5458
  302 714.548 3.40688 11.5458
  303 683.171 18.6508 -4.90755
  304 683.171 18.6508 -4.90755
  305 156.649 -258.480 -201.089
  306 156.649 -258.480 -201.089
  307 477.157 31.5750 38.7465
  308 477.157 31.5750 38.7465
  309 696.136 5.53284 -3.02090
  310 696.136 5.53284 -3.02090
  311 618.627 35.1003 -27.4345
  312 618.627 35.1003 -27.4345
  313 620.262 38.2589 10.3852
  314 620.262 38.2589 10.3852
  315 694.858 9.67009 -8.21319
  316 694.858 9.67009 -8.21319
  317 922.180 52.4420 -11.6944
  318 922.180 52.4420 -11.6944
  319 690.142 16.2558 26.6605
  320 690.142 16.2558 26.6605
  321 873.780 29.5665 -16.7545
  322 873.780 29.5665 -16.7545
  323 1252.84 34.6935 86.4065
  324 1252.84 34.6935 86.4065
  325 687.846 16.8202 16.5910
  326 687.846 16.8202 16.5910
  327 677.897 22.2949 8.68013
  328 677.897 22.2949 8.68013
  329 520.964 -93.2969 -308.984
  330 520.964 -93.2969 -308.984
  331 701.925 1.70876 4.30651
  332 701.925 1.70876 4.30651
  333 688.656 14.0261 4.43857
  334 688.656 14.0261 4.43857
  335 665.244 29.0505 1.00034
  336 665.244 29.0505 1.00034
  337 346.499 -121.221 246.144
  338 346.499 -121.221 246.144
  339 852.029 56.5292 3.00125
  340 852.029 56.5292 3.00125
  341 48.2430 -358.504 -92.0998
  342 48.2430 -358.504 -92.0998
  343 540.855 34.0370 34.1755
  344 540.855 34.0370 34.1755
  345 1187.33 15.4264 11.3344
  346 1187.33 15.4264 11.3344
  347 1240.61 64.6504 -89.7813
  348 1240.61 64.6504 -89.7813
  349 601.050 -70.2040 173.687
  350 627.736 -35.9023 127.303
  351 601.050 -70.2040 173.687
  352 627.736 -35.9023 127.303
  353 1204.73 28.9452 44.3399
  354 1204.73 28.9452 44.3399
  355 710.518 -1.28503 47.9153
  356 710.518 -1.28503 47.9153
  357 829.897 -112.396 -128.347
  358 829.897 -112.396 -128.347
  359 798.537 -6.58165 20.2002
  360 798.537 -6.58165 20.2002
  361 530.496 -94.5505 336.181
  362 530.496 -94.5505 336.181
  363 928.785 74.3925 -2.28752
  364 928.785 74.3925 -2.28752
  365 1201.38 10.3664 -9.14470
  366 1201.38 10.3664 -9.14470
  367 752.747 0.0285144 -23.1977
  368 752.747 0.0285144 -23.1977
  369 677.865 23.7406 -10.4146
  370 677.865 23.7406 -10.4146
  371 1028.74 80.3911 31.0289
  372 1028.74 80.3911 31.0289
  373 802.724 34.1386 -4.42787
  374 802.724 34.1386 -4.42787
  375 726.929 2.56258 -14.4254
  376 726.929 2.56258 -14.4254
  377 205.662 -95.4068 -142.802
  378 205.662 -95.4068 -142.802
  379 802.048 -14.6376 4.09010
  380 802.048 -14.6376 4.09010
  381 690.717 -1.38996 -56.7909
  382 690.717 -1.38996 -56.7909
  383 794.330 -1.34952 -24.3491
  384 794.330 -1.34952 -24.3491
  385 1208.50 20.7946 -36.4638
  386 1208.50 20.7946 -36.4638
  387 693.324 10.3344 6.48297
  388 693.324 10.3344 6.48297
  389 842.730 42.5031 18.7450
  390 842.730 42.5031 18.7450
  391 899.962 -16.0158 17.7672
  392 899.962 -16.0158 17.7672
  393 695.643 12.1852 -14.6203
  394 695.643 12.1852 -14.6203
  395 1276.82 134.458 -173.184
  396 1276.82 134.458 -173.184
  397 790.432 -11.9561 -9.29192
  398 790.432 -11.9561 -9.29192
</Section>

newXOutput 212

<Section columns = "stress_xx | stress_yy | stress_xy">
  1 699.648 0.692740 -0.715444
  2 699.967 0.847888 0.963519
  3 699.648 0.692740 -0.715444
  4 699.967 0.847888 0.963519
  5 1038.01 98.8078 312.967
  6 1076.34 97.8795 -308.124
  7 1038.01 98.8078 312.967
  8 1076.34 97.8795 -308.124
  9 701.219 0.477917 -1.88674
  10 706.403 0.833046 -3.37502
  11 713.973 1.86170 -6.91475
  12 731.503 0.658092 -9.39527
  13 754.424 0.996604 -15.7342
  14 781.847 -7.35909 -16.0560
  15 808.128 -8.67620 -2.75499
  16 799.730 -5.77984 11.5009
  17 774.623 6.55369 21.2179
  18 760.775 15.4286 -0.838818
  19 770.611 7.33072 -20.0549
  20 799.146 -8.64582 -13.9667
  21 801.112 -10.5553 6.48251
  22 785.784 -4.83176 13.9211
  23 749.836 -0.0161818 15.9099
  24 730.037 2.60761 11.9365
  25 714.463 2.13801 6.63394
  26 706.563 0.672042 3.08835
  27 701.605 0.568445 1.82801
  28 700.866 2.44704 1.12307
  29 699.770 4.98822 1.31788
  30 697.063 8.61970 1.17950
  31 695.985 10.0068 -0.113654
  32 697.350 8.18509 -1.40808
  33 699.277 5.43871 -1.18214
  34 700.117 2.78432 -1.26934
  35 701.219 0.477917 -1.88674
  36 706.403 0.833046 -3.37502
  37 713.973 1.86170 -6.91475
  38 731.503 0.658092 -9.39527
  39 754.424 0.996604 -15.7342
  40 781.847 -7.35909 -16.0560
  41 808.128 -8.67620 -2.75499
  42 799.730 -5.77984 11.5009
  43 774.623 6.55369 21.2179
  44 760.775 15.4286 -0.838818
  45 770.611 7.33072 -20.0549
  46 799.146 -8.64582 -13.9667
  47 801.112 -10.5553 6.48251
  48 785.784 -4.83176 13.9211
  49 749.836 -0.0161818 15.9099
  50 730.037 2.60761 11.9365
  51 714.463 2.13801 6.63394
  52 706.563 0.672042 3.08835
  53 701.605 0.568445 1.82801
  54 700.866 2.44704 1.12307
  55 699.770 4.98822 1.31788
  56 697.063 8.61970 1.17950
  57 695.985 10.0068 -0.113654
  58 697.350 8.18509 -1.40808
  59 699.277 5.43871 -1.18214
  60 700.117 2.78432 -1.26934
  61 1424.47 78.9343 153.115
  62 1303.81 20.9246 52.6931
  63 1234.18 8.11420 18.9976
  64 1219.11 6.02480 3.46085
  65 1233.40 8.13960 -16.1647
  66 1287.14 17.8004 -45.3349
  67 1437.99 68.5694 -131.864
  68 196.173 -191.741 -264.834
  69 38.9922 -512.810 -75.0332
  70 8.90033 -599.214 -32.7446
  71 8.60943 -590.144 -14.5293
  72 16.5962 -569.969 35.1518
  73 42.9009 -496.732 79.7501
  74 210.824 -176.734 292.537
  75 1424.47 78.9343 153.115
  76 1303.81 20.9246 52.6931
  77 1234.18 8.11420 18.9976
  78 1219.11 6.02480 3.46085
  79 1233.40 8.13960 -16.1647
  80 1287.14 17.8004 -45.3349
  81 1437.99 68.5694 -131.864
  82 196.173 -191.741 -264.834
  83 38.9922 -512.810 -75.0332
  84 8.90033 -599.214 -32.7446
  85 8.60943 -590.144 -14.5293
  86 16.5962 -569.969 35.1518
  87 42.9009 -496.732 79.7501
  88 210.824 -176.734 292.537
  89 647.561 36.2836 -9.29952
  90 647.561 36.2836 -9.29952
  91 592.294 8.41806 85.9652
  92 569.575 -3.23999 -103.247
  93 592.294 8.41806 85.9652
  94 569.575 -3.23999 -103.247
  95 343.364 11.1920 42.2175
  96 343.364 11.1920 42.2175
  97 860.478 56.2764 -10.3905
  98 873.495 33.9479 19.5516
  99 860.478 56.2764 -10.3905
  100 873.495 33.9479 19.5516
  101 690.927 16.1689 8.97997
  102 690.927 16.1689 8.97997
  103 818.708 -46.6712 6.21232
  104 818.708 -46.6712 6.21232
  105 691.650 16.9311 -11.1018
  106 691.650 16.9311 -11.1018
  107 801.318 -100.274 -95.4933
  108 801.318 -100.274 -95.4933
  109 566.428 -119.509 233.388
  110 566.428 -119.509 233.388
  111 388.664 -68.6908 -189.529
  112 388.664 -68.6908 -189.529
  113 693.944 11.2200 39.9357
  114 693.944 11.2200 39.9357
  115 717.468 4.41828 -38.4256
  116 717.468 4.41828 -38.4256
  117 963.621 68.4328 18.5878
  118 1028.26 65.5609 7.31872
  119 963.621 68.4328 18.5878
  120 1028.26 65.5609 7.31872
  121 1008.91 87.3974 -33.2880
  122 1008.91 87.3974 -33.2880
  123 115.378 -180.533 -65.3636
  124 115.378 -180.533 -65.3636
  125 866.123 -106.098 107.062
  126 866.123 -106.098 107.062
  127 740.249 -18.2743 46.7501
  128 740.249 -18.2743 46.7501
  129 175.364 -155.257 148.480
  130 175.364 -155.257 148.480
  131 691.829 13.4599 -0.555609
  132 691.829 13.4599 -0.555609
  133 738.657 -34.9728 -60.1756
  134 738.657 -34.9728 -60.1756
  135 701.551 5.53019 6.41663
  136 701.551 5.53019 6.41663
  137 702.061 4.87673 -5.97435
  138 702.061 4.87673 -5.97435
  139 709.233 9.40500 -19.5966
  140 709.233 9.40500 -19.5966
  141 706.271 9.19244 17.5802
  142 706.271 9.19244 17.5802
  143 679.154 22.5972 -0.735673
  144 679.154 22.5972 -0.735673
  145 573.934 37.6219 -4.43075
  146 573.934 37.6219 -4.43075
  147 815.903 -28.8705 7.96152
  148 815.903 -28.8705 7.96152
  149 923.673 -26.8554 -47.4402
  150 923.673 -26.8554 -47.4402
  151 720.194 -81.4673 115.631
  152 720.194 -81.4673 115.631
  153 543.192 -145.810 -266.904
  154 543.192 -145.810 -266.904
  155 648.405 26.1634 38.2085
  156 648.405 26.1634 38.2085
  157 830.770 -4.09296 -24.7362
  158 830.770 -4.09296 -24.7362
  159 1114.01 91.4017 69.6436
  160 1114.01 91.4017 69.6436
  161 564.961 -157.930 306.712
  162 564.961 -157.930 306.712
  163 1133.14 36.0934 -13.3629
  164 1133.14 36.0934 -13.3629
  165 676.557 22.5733 17.3688
  166 676.557 22.5733 17.3688
  167 644.211 21.6909 -56.3350
  168 644.211 21.6909 -56.3350
  169 795.418 24.8756 16.0862
  170 795.418 24.8756 16.0862
  171 670.718 27.0257 -19.8171
  172 670.718 27.0257 -19.8171
  173 695.581 10.8043 2.80721
  174 695.581 10.8043 2.80721
  175 705.828 5.24575 -10.2682
  176 705.828 5.24575 -10.2682
  177 1070.41 91.5096 -73.8990
  178 1070.41 91.5096 -73.8990
  179 696.057 10.5284 -3.38283
  180 696.057 10.5284 -3.38283
  181 522.243 38.2658 -29.6728
  182 522.243 38.2658 -29.6728
  183 919.176 69.1149 0.769613
  184 919.176 69.1149 0.769613
  185 191.067 -152.469 -190.893
  186 191.067 -152.469 -190.893
  187 512.202 -4.83931 126.331
  188 512.202 -4.83931 126.331
  189 671.832 -110.079 -180.785
  190 671.832 -110.079 -180.785
  191 793.297 -22.2516 12.0718
  192 793.297 -22.2516 12.0718
  193 743.590 -2.87735 28.1261
  194 743.590 -2.87735 28.1261
  195 997.436 37.1419 71.8120
  196 997.436 37.1419 71.8120
  197 431.136 14.9827 -78.4746
  198 431.136 14.9827 -78.4746
  199 1125.40 49.2054 31.1752
  200 1125.40 49.2054 31.1752
  201 756.921 -9.71740 -30.2763
  202 756.921 -9.71740 -30.2763
  203 706.841 3.73369 9.45689
  204 706.841 3.73369 9.45689
  205 787.021 -31.4711 -17.9217
  206 787.021 -31.4711 -17.9217
  207 857.521 -41.8371 -12.7178
  208 857.521 -41.8371 -12.7178
  209 54.4943 -322.129 29.6678
  210 54.4943 -322.129 29.6678
  211 727.348 3.46837 -24.3194
  212 727.348 3.46837 -24.3194
  213 721.681 5.43132 21.1148
  214 721.681 5.43132 21.1148
  215 693.820 -64.4235 -114.212
  216 693.820 -64.4235 -114.212
  217 809.235 -17.2232 -14.7489
  218 809.235 -17.2232 -14.7489
  219 668.137 23.6430 -38.1401
  220 668.137 23.6430 -38.1401
  221 183.954 -223.028 211.245
  222 183.954 -223.028 211.245
  223 821.659 4.88539 23.8932
  224 821.659 4.88539 23.8932
  225 801.540 21.2180 -20.9962
  226 801.540 21.2180 -20.9962
  227 1114.70 66.3761 -54.5646
  228 1114.70 66.3761 -54.5646
  229 860.859 -30.4352 -7.10826
  230 860.859 -30.4352 -7.10826
  231 929.531 -31.1260 -180.012
  232 929.531 -31.1260 -180.012
  233 697.035 -31.6748 87.0363
  234 697.035 -31.6748 87.0363
  235 686.017 18.8219 2.90052
  236 686.017 18.8219 2.90052
  237 369.727 -52.5478 167.459
  238 369.727 -52.5478 167.459
  239 889.461 -69.0091 207.899
  240 889.461 -69.0091 207.899
  241 255.113 -28.7677 -83.4773
  242 255.113 -28.7677 -83.4773
  243 801.674 -60.9018 -42.7831
  244 801.674 -60.9018 -42.7831
  245 662.248 29.2604 21.8613
  246 662.248 29.2604 21.8613
  247 22.5649 -423.626 -24.6858
  248 22.5649 -423.626 -24.6858
  249 45.2373 -368.171 81.2202
  250 45.2373 -368.171 81.2202
  251 672.536 4.53615 61.7674
  252 672.536 4.53615 61.7674
  253 700.811 2.60838 2.30013
  254 700.811 2.60838 2.30013
  255 695.536 10.8593 0.443868
  256 695.536 10.8593 0.443868
  257 654.033 -8.18636 -82.7432
  258 654.033 -8.18636 -82.7432
  259 701.155 2.38647 -2.43725
  260 701.155 2.38647 -2.43725
  261 770.872 -54.9707 54.5061
  262 770.872 -54.9707 54.5061
  263 718.194 2.41926 -11.5468
  264 718.194 2.41926 -11.5468
  265 560.596 -47.5991 -155.841
  266 560.596 -47.5991 -155.841
  267 941.927 73.2187 1.81784
  268 941.927 73.2187 1.81784
  269 694.640 14.9634 -30.7266
  270 694.640 14.9634 -30.7266
  271 692.257 13.9878 -5.95531
  272 692.257 13.9878 -5.95531
  273 593.604 28.7002 -56.5365
  274 593.604 28.7002 -56.5365
  275 185.301 -64.7473 48.8728
  276 185.301 -64.7473 48.8728
  277 734.133 -123.909 161.929
  278 734.133 -123.909 161.929
  279 698.957 10.0981 11.6838
  280 698.957 10.0981 11.6838
  281 1021.71 71.6970 -18.3963
  282 1021.71 71.6970 -18.3963
  283 1202.73 113.764 151.283
  284 1202.73 113.764 151.283
  285 823.375 -87.9167 57.1908
  286 823.375 -87.9167 57.1908
  287 605.095 29.9907 41.2160
  288 605.095 29.9907 41.2160
  289 751.922 -151.931 214.226
  290 751.922 -151.931 214.226
  291 780.122 -9.54095 19.8802
  292 780.122 -9.54095 19.8802
  293 698.528 6.64207 3.16279
  294 698.528 6.64207 3.16279
  295 689.547 18.4242 -19.3414
  296 689.547 18.4242 -19.3414
  297 695.685 10.6884 -0.869081
  298 695.685 10.6884 -0.869081
  299 704.587 1.89958 -4.42008
  300 704.587 1.89958 -4.42008
  301 717.658 3.42042 11.5897
  302 717.658 3.42042 11.5897
  303 686.172 18.7275 -4.92635
  304 686.172 18.7275 -4.92635
  305 157.330 -259.535 -202.109
  306 157.330 -259.535 -202.109
  307 479.328 31.7227 38.9153
  308 479.328 31.7227 38.9153
  309 699.180 5.55550 -3.03185
  310 699.180 5.55550 -3.03185
  311 621.380 35.2516 -27.5495
  312 621.380 35.2516 -27.5495
  313 623.024 38.4236 10.4280
  314 623.024 38.4236 10.4280
  315 697.898 9.70963 -8.24389
  316 697.898 9.70963 -8.24389
  317 926.126 52.7039 -11.8211
  318 926.126 52.7039 -11.8211
  319 693.166 16.3230 26.7668
  320 693.166 16.3230 26.7668
  321 877.547 29.7145 -16.7681
  322 877.547 29.7145 -16.7681
  323 1257.93 34.8269 86.7739
  324 1257.93 34.8269 86.7739
  325 690.863 16.8895 16.6554
  326 690.863 16.8895 16.6554
  327 680.878 22.3871 8.71386
  328 680.878 22.3871 8.71386
  329 523.154 -93.5070 -310.471
  330 523.154 -93.5070 -310.471
  331 704.989 1.71581 4.32222
  332 704.989 1.71581 4.32222
  333 691.677 14.0833 4.45523
  334 691.677 14.0833 4.45523
  335 668.180 29.1721 1.00429
  336 668.180 29.1721 1.00429
  337 348.045 -121.752 247.313
  338 348.045 -121.752 247.313
  339 855.740 56.7826 3.00437
  340 855.740 56.7826 3.00437
  341 48.4462 -360.083 -92.5912
  342 48.4462 -360.083 -92.5912
  343 543.294 34.1895 34.3215
  344 543.294 34.1895 34.3215
  345 1192.17 15.4827 11.3775
  346 1192.17 15.4827 11.3775
  347 1245.67 64.9303 -90.1691
  348 1245.67 64.9303 -90.1691
  349 603.678 -70.5186 174.464
  350 630.492 -36.0613 127.861
  351 603.678 -70.5186 174.464
  352 630.492 -36.0613 127.861
  353 1209.64 29.0538 44.5214
  354 1209.64 29.0538 44.5214
  355 713.616 -1.29326 48.1189
  356 713.616 -1.29326 48.1189
  357 833.411 -112.875 -128.968
  358 833.411 -112.875 -128.968
  359 802.010 -6.60736 20.2611
  360 802.010 -6.60736 20.2611
  361 532.704 -94.7780 337.782
  362 532.704 -94.7780 337.782
  363 932.785 74.7128 -2.29541
  364 932.785 74.7128 -2.29541
  365 1206.26 10.4036 -9.18114
  366 1206.26 10.4036 -9.18114
  367 755.999 0.0255247 -23.2942
  368 755.999 0.0255247 -23.2942
  369 680.847 23.8392 -10.4552
  370 680.847 23.8392 -10.4552
  371 1033.09 80.7368 31.2006
  372 1033.09 80.7368 31.2006
  373 806.247 34.2942 -4.44128
  374 806.247 34.2942 -4.44128
  375 730.083 2.57188 -14.4817
  376 730.083 2.57188 -14.4817
  377 206.627 -95.7961 -143.493
  378 206.627 -95.7961 -143.493
  379 805.512 -14.7027 4.08825
  380 805.512 -14.7027 4.08825
  381 693.739 -1.39871 -57.0346
  382 693.739 -1.39871 -57.0346
  383 797.797 -1.35256 -24.4247
  384 797.797 -1.35256 -24.4247
  385 1213.43 20.8750 -36.6108
  386 1213.43 20.8750 -36.6108
  387 696.360 10.3765 6.50710
  388 696.360 10.3765 6.50710
  389 846.393 42.7008 18.7881
  390 846.393 42.7008 18.7881
  391 903.794 -16.0522 17.9235
  392 903.794 -16.0522 17.9235
  393 698.687 12.2352 -14.6761
  394 698.687 12.2352 -14.6761
  395 1282.00 135.137 -173.978
  396 1282.00 135.137 -173.978
  397 793.837 -12.0117 -9.34104
  398 793.837 -12.0117 -9.34104
</Section>

newXOutput 213

<Section columns = "stress_xx | stress_yy | stress_xy">
  1 702.692 0.695847 -0.717942
  2 703.012 0.851586 0.966872
  3 702.692 0.695847 -0.717942
  4 703.012 0.851586 0.966872
  5 1042.18 99.4811 314.408
  6 1080.64 98.5578 -309.544
  7 1042.18 99.4811 314.408
  8 1080.64 98.5578 -309.544
  9 704.268 0.479968 -1.89342
  10 709.469 0.836506 -3.38717
  11 717.066 1.86919 -6.94024
  12 734.657 0.660390 -9.43086
  13 757.663 0.999172 -15.7969
  14 785.192 -7.39427 -16.1251
  15 811.584 -8.71608 -2.77466
  16 803.186 -5.80481 11.5335
  17 778.015 6.58711 21.2876
  18 764.130 15.5014 -0.841661
  19 773.990 7.36476 -20.1221
  20 802.601 -8.68359 -14.0058
  21 804.542 -10.6040 6.51975
  22 789.144 -4.85461 13.9818
  23 753.060 -0.0185788 15.9742
  24 733.187 2.61759 11.9821
  25 717.558 2.14663 6.65828
  26 709.630 0.674858 3.09943
  27 704.655 0.570915 1.83453
  28 703.914 2.45714 1.12695
  29 702.814 5.00851 1.32256
  30 700.098 8.65431 1.18375
  31 699.018 10.0469 -0.114057
  32 700.387 8.21804 -1.41309
  33 702.319 5.46084 -1.18618
  34 703.162 2.79590 -1.27385
  35 704.268 0.479968 -1.89342
  36 709.469 0.836506 -3.38717
  37 717.066 1.86919 -6.94024
  38 734.657 0.660390 -9.43086
  39 757.663 0.999172 -15.7969
  40 785.192 -7.39427 -16.1251
  41 811.584 -8.71608 -2.77466
  42 803.186 -5.80481 11.5335
  43 778.015 6.58711 21.2876
  44 764.130 15.5014 -0.841661
  45 773.990 7.36476 -20.1221
  46 802.601 -8.68359 -14.0058
  47 804.542 -10.6040 6.51975
  48 789.144 -4.85461 13.9818
  49 753.060 -0.0185788 15.9742
  50 733.187 2.61759 11.9821
  51 717.558 2.14663 6.65828
  52 709.630 0.674858 3.09943
  53 704.655 0.570915 1.83453
  54 703.914 2.45714 1.12695
  55 702.814 5.00851 1.32256
  56 700.098 8.65431 1.18375
  57 699.018 10.0469 -0.114057
  58 700.387 8.21804 -1.41309
  59 702.319 5.46084 -1.18618
  60 703.162 2.79590 -1.27385
  61 1430.09 79.2873 153.749
  62 1309.00 21.0045 52.8990
  63 1239.13 8.13977 19.0680
  64 1224.01 6.04539 3.47142
  65 1238.35 8.16889 -16.2242
  66 1292.28 17.8673 -45.5089
  67 1443.66 68.8750 -132.410
  68 196.993 -192.314 -266.133
  69 39.1574 -515.076 -75.4668
  70 8.91878 -602.007 -32.9345
  71 8.62865 -592.911 -14.5967
  72 16.6545 -572.604 35.3565
  73 43.0881 -498.926 80.2130
  74 211.689 -177.243 293.964
  75 1430.09 79.2873 153.749
  76 1309.00 21.0045 52.8990
  77 1239.13 8.13977 19.0680
  78 1224.01 6.04539 3.47142
  79 1238.35 8.16889 -16.2242
  80 1292.28 17.8673 -45.5089
  81 1443.66 68.8750 -132.410
  82 196.993 -192.314 -266.133
  83 39.1574 -515.076 -75.4668
  84 8.91878 -602.007 -32.9345
  85 8.62865 -592.911 -14.5967
  86 16.6545 -572.604 35.3565
  87 43.0881 -498.926 80.2130
  88 211.689 -177.243 293.964
  89 650.416 36.4370 -9.33755
  90 650.416 36.4370 -9.33755
  91 594.914 8.45684 86.3344
  92 572.099 -3.25208 -103.696
  93 594.914 8.45684 86.3344
  94 572.099 -3.25208 -103.696
  95 344.952 11.2632 42.4073
  96 344.952 11.2632 42.4073
  97 864.201 56.5282 -10.4108
  98 877.245 34.1150 19.5759
  99 864.201 56.5282 -10.4108
  100 877.245 34.1150 19.5759
  101 693.942 16.2348 9.01394
  102 693.942 16.2348 9.01394
  103 822.215 -46.8720 6.28294
  104 822.215 -46.8720 6.28294
  105 694.668 17.0004 -11.1440
  106 694.668 17.0004 -11.1440
  107 804.724 -100.713 -95.9447
  108 804.724 -100.713 -95.9447
  109 568.884 -120.043 234.451
  110 568.884 -120.043 234.451
  111 390.400 -68.9863 -190.403
  112 390.400 -68.9863 -190.403
  113 696.967 11.2651 40.0997
  114 696.967 11.2651 40.0997
  115 720.578 4.43360 -38.5854
  116 720.578 4.43360 -38.5854
  117 967.713 68.7562 18.7417
  118 1032.59 65.8287 7.36100
  119 967.713 68.7562 18.7417
  120 1032.59 65.8287 7.36100
  121 1013.18 87.7873 -33.4851
  122 1013.18 87.7873 -33.4851
  123 115.909 -181.286 -65.6937
  124 115.909 -181.286 -65.6937
  125 869.768 -106.531 107.599
  126 869.768 -106.531 107.599
  127 743.445 -18.3570 46.9574
  128 743.445 -18.3570 46.9574
  129 176.166 -155.900 149.215
  130 176.166 -155.900 149.215
  131 694.847 13.5144 -0.557601
  132 694.847 13.5144 -0.557601
  133 741.843 -35.1287 -60.4474
  134 741.843 -35.1287 -60.4474
  135 704.601 5.55275 6.44015
  136 704.601 5.55275 6.44015
  137 705.112 4.89674 -5.99613
  138 705.112 4.89674 -5.99613
  139 712.312 9.44278 -19.6727
  140 712.312 9.44278 -19.6727
  141 709.340 9.22963 17.6479
  142 709.340 9.22963 17.6479
  143 682.128 22.6902 -0.738683
  144 682.128 22.6902 -0.738683
  145 576.500 37.7860 -4.45002
  146 576.500 37.7860 -4.45002
  147 819.409 -28.9925 7.95762
  148 819.409 -28.9925 7.95762
  149 927.569 -26.9202 -47.7360
  150 927.569 -26.9202 -47.7360
  151 723.290 -81.8284 116.151
  152 723.290 -81.8284 116.151
  153 545.516 -146.426 -268.160
  154 545.516 -146.426 -268.160
  155 651.259 26.2749 38.3668
  156 651.259 26.2749 38.3668
  157 834.345 -4.10175 -24.7951
  158 834.345 -4.10175 -24.7951
  159 1118.64 91.8066 69.9817
  160 1118.64 91.8066 69.9817
  161 567.371 -158.613 308.137
  162 567.371 -158.613 308.137
  163 1137.80 36.2310 -13.4210
  164 1137.80 36.2310 -13.4210
  165 679.520 22.6666 17.4372
  166 679.520 22.6666 17.4372
  167 647.044 21.7840 -56.5723
  168 647.044 21.7840 -56.5723
  169 798.894 24.9922 16.1373
  170 798.894 24.9922 16.1373
  171 673.660 27.1382 -19.8961
  172 673.660 27.1382 -19.8961
  173 698.612 10.8478 2.81751
  174 698.612 10.8478 2.81751
  175 708.893 5.26694 -10.3065
  176 708.893 5.26694 -10.3065
  177 1074.87 91.9557 -74.2953
  178 1074.87 91.9557 -74.2953
  179 699.090 10.5710 -3.39518
  180 699.090 10.5710 -3.39518
  181 524.594 38.4385 -29.8009
  182 524.594 38.4385 -29.8009
  183 923.115 69.4220 0.731395
  184 923.115 69.4220 0.731395
  185 191.929 -153.101 -191.832
  186 191.929 -153.101 -191.832
  187 514.486 -4.85551 126.886
  188 514.486 -4.85551 126.886
  189 674.718 -110.568 -181.607
  190 674.718 -110.568 -181.607
  191 796.704 -22.3515 12.1435
  192 796.704 -22.3515 12.1435
  193 746.796 -2.89306 28.2443
  194 746.796 -2.89306 28.2443
  195 1001.62 37.3682 72.2171
  196 1001.62 37.3682 72.2171
  197 433.093 15.0613 -78.8233
  198 433.093 15.0613 -78.8233
  199 1130.05 49.4000 31.3154
  200 1130.05 49.4000 31.3154
  201 760.180 -9.76324 -30.4101
  202 760.180 -9.76324 -30.4101
  203 709.910 3.74867 9.49208
  204 709.910 3.74867 9.49208
  205 790.401 -31.6125 -18.0206
  206 790.401 -31.6125 -18.0206
  207 861.175 -42.0035 -12.8338
  208 861.175 -42.0035 -12.8338
  209 54.7366 -323.549 29.8255
  210 54.7366 -323.549 29.8255
  211 730.492 3.48013 -24.4172
  212 730.492 3.48013 -24.4172
  213 724.804 5.45258 21.1984
  214 724.804 5.45258 21.1984
  215 696.818 -64.7089 -114.722
  216 696.818 -64.7089 -114.722
  217 812.722 -17.2979 -14.7794
  218 812.722 -17.2979 -14.7794
  219 671.065 23.7425 -38.2975
  220 671.065 23.7425 -38.2975
  221 184.755 -223.940 212.301
  222 184.755 -223.940 212.301
  223 825.211 4.91762 23.9556
  224 825.211 4.91762 23.9556
  225 805.034 21.3185 -21.0595
  226 805.034 21.3185 -21.0595
  227 1119.32 66.6505 -54.8202
  228 1119.32 66.6505 -54.8202
  229 864.531 -30.5512 -7.07644
  230 864.531 -30.5512 -7.07644
  231 933.397 -31.1566 -180.898
  232 933.397 -31.1566 -180.898
  233 700.056 -31.8145 87.4166
  234 700.056 -31.8145 87.4166
  235 689.016 18.8989 2.91160
  236 689.016 18.8989 2.91160
  237 371.392 -52.7683 168.228
  238 371.392 -52.7683 168.228
  239 893.160 -69.2226 208.902
  240 893.160 -69.2226 208.902
  241 256.299 -28.8627 -83.8668
  242 256.299 -28.8627 -83.8668
  243 805.101 -61.1691 -43.0015
  244 805.101 -61.1691 -43.0015
  245 665.157 29.3834 21.9497
  246 665.157 29.3834 21.9497
  247 22.6533 -425.534 -24.8221
  248 22.6533 -425.534 -24.8221
  249 45.4321 -369.788 81.6624
  250 45.4321 -369.788 81.6624
  251 675.475 4.55459 62.0292
  252 675.475 4.55459 62.0292
  253 703.859 2.61915 2.30835
  254 703.859 2.61915 2.30835
  255 698.566 10.9029 0.445516
  256 698.566 10.9029 0.445516
  257 656.895 -8.22327 -83.1003
  258 656.895 -8.22327 -83.1003
  259 704.204 2.39644 -2.44597
  260 704.204 2.39644 -2.44597
  261 774.180 -55.2133 54.7646
  262 774.180 -55.2133 54.7646
  263 721.302 2.42865 -11.5904
  264 721.302 2.42865 -11.5904
  265 563.060 -47.8100 -156.535
  266 563.060 -47.8100 -156.535
  267 945.951 73.5407 1.86685
  268 945.951 73.5407 1.86685
  269 697.667 15.0244 -30.8501
  270 697.667 15.0244 -30.8501
  271 695.277 14.0447 -5.97747
  272 695.277 14.0447 -5.97747
  273 596.240 28.8263 -56.7769
  274 596.240 28.8263 -56.7769
  275 186.170 -64.9865 49.1081
  276 186.170 -64.9865 49.1081
  277 737.262 -124.457 162.671
  278 737.262 -124.457 162.671
  279 701.999 10.1392 11.7277
  280 701.999 10.1392 11.7277
  281 1026.02 71.9949 -18.4943
  282 1026.02 71.9949 -18.4943
  283 1207.64 114.327 151.985
  284 1207.64 114.327 151.985
  285 826.876 -88.2949 57.4885
  286 826.876 -88.2949 57.4885
  287 607.779 30.1212 41.3888
  288 607.779 30.1212 41.3888
  289 755.098 -152.595 215.214
  290 755.098 -152.595 215.214
  291 783.469 -9.58534 19.9709
  292 783.469 -9.58534 19.9709
  293 701.569 6.66898 3.17425
  294 701.569 6.66898 3.17425
  295 692.557 18.4999 -19.4167
  296 692.557 18.4999 -19.4167
  297 698.716 10.7313 -0.872233
  298 698.716 10.7313 -0.872233
  299 707.648 1.90738 -4.43613
  300 707.648 1.90738 -4.43613
  301 720.764 3.43394 11.6334
  302 720.764 3.43394 11.6334
  303 689.170 18.8041 -4.94510
  304 689.170 18.8041 -4.94510
  305 158.009 -260.588 -203.130
  306 158.009 -260.588 -203.130
  307 481.498 31.8705 39.0841
  308 481.498 31.8705 39.0841
  309 702.222 5.57813 -3.04277
  310 702.222 5.57813 -3.04277
  311 624.132 35.4027 -27.6644
  312 624.132 35.4027 -27.6644
  313 625.783 38.5882 10.4708
  314 625.783 38.5882 10.4708
  315 700.937 9.74911 -8.27452
  316 700.937 9.74911 -8.27452
  317 930.069 52.9659 -11.9484
  318 930.069 52.9659 -11.9484
  319 696.188 16.3900 26.8728
  320 696.188 16.3900 26.8728
  321 881.310 29.8625 -16.7812
  322 881.310 29.8625 -16.7812
  323 1263.01 34.9599 87.1409
  324 1263.01 34.9599 87.1409
  325 693.877 16.9588 16.7197
  326 693.877 16.9588 16.7197
  327 683.858 22.4792 8.74752
  328 683.858 22.4792 8.74752
  329 525.341 -93.7150 -311.958
  330 525.341 -93.7150 -311.958
  331 708.051 1.72285 4.33790
  332 708.051 1.72285 4.33790
  333 694.694 14.1404 4.47187
  334 694.694 14.1404 4.47187
  335 671.113 29.2936 1.00823
  336 671.113 29.2936 1.00823
  337 349.591 -122.282 248.482
  338 349.591 -122.282 248.482
  339 859.448 57.0358 3.00741
  340 859.448 57.0358 3.00741
  341 48.6491 -361.661 -93.0831
  342 48.6491 -361.661 -93.0831
  343 545.733 34.3420 34.4673
  344 545.733 34.3420 34.4673
  345 1197.01 15.5388 11.4205
  346 1197.01 15.5388 11.4205
  347 1250.73 65.2100 -90.5565
  348 1250.73 65.2100 -90.5565
  349 606.305 -70.8331 175.242
  350 633.245 -36.2202 128.419
  351 606.305 -70.8331 175.242
  352 633.245 -36.2202 128.419
  353 1214.55 29.1621 44.7026
  354 1214.55 29.1621 44.7026
  355 716.712 -1.30151 48.3222
  356 716.712 -1.30151 48.3222
  357 836.922 -113.354 -129.588
  358 836.922 -113.354 -129.588
  359 805.480 -6.63302 20.3217
  360 805.480 -6.63302 20.3217
  361 534.909 -95.0037 339.383
  362 534.909 -95.0037 339.383
  363 936.781 75.0329 -2.30328
  364 936.781 75.0329 -2.30328
  365 1211.14 10.4407 -9.21751
  366 1211.14 10.4407 -9.21751
  367 759.248 0.0225109 -23.3905
  368 759.248 0.0225109 -23.3905
  369 683.826 23.9375 -10.4958
  370 683.826 23.9375 -10.4958
  371 1037.44 81.0823 31.3724
  372 1037.44 81.0823 31.3724
  373 809.767 34.4497 -4.45464
  374 809.767 34.4497 -4.45464
  375 733.234 2.58116 -14.5379
  376 733.234 2.58116 -14.5379
  377 207.592 -96.1849 -144.185
  378 207.592 -96.1849 -144.185
  379 808.973 -14.7679 4.08623
  380 808.973 -14.7679 4.08623
  381 696.759 -1.40747 -57.2780
  382 696.759 -1.40747 -57.2780
  383 801.261 -1.35557 -24.5000
  384 801.261 -1.35557 -24.5000
  385 1218.35 20.9552 -36.7576
  386 1218.35 20.9552 -36.7576
  387 699.393 10.4185 6.53117
  388 699.393 10.4185 6.53117
  389 850.053 42.8984 18.8308
  390 850.053 42.8984 18.8308
  391 907.623 -16.0882 18.0803
  392 907.623 -16.0882 18.0803
  393 701.728 12.2851 -14.7319
  394 701.728 12.2851 -14.7319
  395 1287.17 135.817 -174.771
  396 1287.17 135.817 -174.771
  397 797.238 -12.0674 -9.39020
  398 797.238 -12.0674 -9.39020
</Section>

newXOutput 214

<Section columns = "stress_xx | stress_yy | stress_xy">
  1 705.733 0.698953 -0.720432
  2 706.054 0.855282 0.970215
  3 705.733 0.698953 -0.720432
  4 706.054 0.855282 0.970215
  5 1046.34 100.156 315.849
  6 1084.93 99.2378 -310.963
  7 1046.34 100.156 315.849
  8 1084.93 99.2378 -310.963
  9 707.315 0.482017 -1.90008
  10 712.533 0.839962 -3.39928
  11 720.155 1.87666 -6.96567
  12 737.809 0.662683 -9.46638
  13 760.899 1.00172 -15.8596
  14 788.534 -7.42946 -16.1942
  15 815.038 -8.75596 -2.79438
  16 806.639 -5.82975 11.5659
  17 781.405 6.62056 21.3570
  18 767.483 15.5742 -0.844494
  19 777.366 7.39880 -20.1892
  20 806.054 -8.72134 -14.0446
  21 807.968 -10.6527 6.55704
  22 792.501 -4.87745 14.0424
  23 756.280 -0.0209938 16.0383
  24 736.333 2.62755 12.0276
  25 720.649 2.15523 6.68258
  26 712.695 0.677671 3.11048
  27 707.703 0.573384 1.84104
  28 706.959 2.46723 1.13083
  29 705.856 5.02878 1.32722
  30 703.132 8.68888 1.18798
  31 702.048 10.0868 -0.114457
  32 703.421 8.25093 -1.41809
  33 705.359 5.48294 -1.19020
  34 706.205 2.80747 -1.27835
  35 707.315 0.482017 -1.90008
  36 712.533 0.839962 -3.39928
  37 720.155 1.87666 -6.96567
  38 737.809 0.662683 -9.46638
  39 760.899 1.00172 -15.8596
  40 788.534 -7.42946 -16.1942
  41 815.038 -8.75596 -2.79438
  42 806.639 -5.82975 11.5659
  43 781.405 6.62056 21.3570
  44 767.483 15.5742 -0.844494
  45 777.366 7.39880 -20.1892
  46 806.054 -8.72134 -14.0446
  47 807.968 -10.6527 6.55704
  48 792.501 -4.87745 14.0424
  49 756.280 -0.0209938 16.0383
  50 736.333 2.62755 12.0276
  51 720.649 2.15523 6.68258
  52 712.695 0.677671 3.11048
  53 707.703 0.573384 1.84104
  54 706.959 2.46723 1.13083
  55 705.856 5.02878 1.32722
  56 703.132 8.68888 1.18798
  57 702.048 10.0868 -0.114457
  58 703.421 8.25093 -1.41809
  59 705.359 5.48294 -1.19020
  60 706.205 2.80747 -1.27835
  61 1435.70 79.6402 154.383
  62 1314.18 21.0843 53.1045
  63 1244.08 8.16526 19.1382
  64 1228.91 6.06594 3.48195
  65 1243.29 8.19811 -16.2836
  66 1297.41 17.9340 -45.6826
  67 1449.32 69.1805 -132.955
  68 197.812 -192.883 -267.433
  69 39.3225 -517.341 -75.9010
  70 8.93703 -604.799 -33.1248
  71 8.64769 -595.677 -14.6641
  72 16.7126 -575.238 35.5616
  73 43.2751 -501.117 80.6768
  74 212.553 -177.750 295.392
  75 1435.70 79.6402 154.383
  76 1314.18 21.0843 53.1045
  77 1244.08 8.16526 19.1382
  78 1228.91 6.06594 3.48195
  79 1243.29 8.19811 -16.2836
  80 1297.41 17.9340 -45.6826
  81 1449.32 69.1805 -132.955
  82 197.812 -192.883 -267.433
  83 39.3225 -517.341 -75.9010
  84 8.93703 -604.799 -33.1248
  85 8.64769 -595.677 -14.6641
  86 16.7126 -575.238 35.5616
  87 43.2751 -501.117 80.6768
  88 212.553 -177.750 295.392
  89 653.270 36.5902 -9.37554
  90 653.270 36.5902 -9.37554
  91 597.533 8.49562 86.7031
  92 574.621 -3.26414 -104.145
  93 597.533 8.49562 86.7031
  94 574.621 -3.26414 -104.145
  95 346.540 11.3346 42.5971
  96 346.540 11.3346 42.5971
  97 867.920 56.7800 -10.4310
  98 880.993 34.2821 19.5998
  99 867.920 56.7800 -10.4310
  100 880.993 34.2821 19.5998
  101 696.955 16.3007 9.04785
  102 696.955 16.3007 9.04785
  103 825.719 -47.0726 6.35388
  104 825.719 -47.0726 6.35388
  105 697.683 17.0697 -11.1861
  106 697.683 17.0697 -11.1861
  107 808.126 -101.152 -96.3962
  108 808.126 -101.152 -96.3962
  109 571.337 -120.576 235.513
  110 571.337 -120.576 235.513
  111 392.135 -69.2816 -191.277
  112 392.135 -69.2816 -191.277
  113 699.988 11.3102 40.2634
  114 699.988 11.3102 40.2634
  115 723.686 4.44888 -38.7450
  116 723.686 4.44888 -38.7450
  117 971.800 69.0796 18.8960
  118 1036.91 66.0963 7.40333
  119 971.800 69.0796 18.8960
  120 1036.91 66.0963 7.40333
  121 1017.44 88.1770 -33.6824
  122 1017.44 88.1770 -33.6824
  123 116.440 -182.038 -66.0241
  124 116.440 -182.038 -66.0241
  125 873.409 -106.963 108.136
  126 873.409 -106.963 108.136
  127 746.638 -18.4396 47.1645
  128 746.638 -18.4396 47.1645
  129 176.968 -156.542 149.950
  130 176.968 -156.542 149.950
  131 697.863 13.5688 -0.559587
  132 697.863 13.5688 -0.559587
  133 745.026 -35.2844 -60.7190
  134 745.026 -35.2844 -60.7190
  135 707.649 5.57527 6.46361
  136 707.649 5.57527 6.46361
  137 708.162 4.91672 -6.01786
  138 708.162 4.91672 -6.01786
  139 715.388 9.48051 -19.7487
  140 715.388 9.48051 -19.7487
  141 712.405 9.26677 17.7154
  142 712.405 9.26677 17.7154
  143 685.099 22.7830 -0.741689
  144 685.099 22.7830 -0.741689
  145 579.064 37.9500 -4.46927
  146 579.064 37.9500 -4.46927
  147 822.911 -29.1144 7.95340
  148 822.911 -29.1144 7.95340
  149 931.460 -26.9845 -48.0324
  150 931.460 -26.9845 -48.0324
  151 726.382 -82.1892 116.672
  152 726.382 -82.1892 116.672
  153 547.838 -147.041 -269.416
  154 547.838 -147.041 -269.416
  155 654.110 26.3864 38.5249
  156 654.110 26.3864 38.5249
  157 837.917 -4.11045 -24.8537
  158 837.917 -4.11045 -24.8537
  159 1123.26 92.2113 70.3197
  160 1123.26 92.2113 70.3197
  161 569.779 -159.295 309.562
  162 569.779 -159.295 309.562
  163 1142.46 36.3684 -13.4790
  164 1142.46 36.3684 -13.4790
  165 682.481 22.7598 17.5055
  166 682.481 22.7598 17.5055
  167 649.876 21.8770 -56.8093
  168 649.876 21.8770 -56.8093
  169 802.368 25.1089 16.1882
  170 802.368 25.1089 16.1882
  171 676.600 27.2506 -19.9749
  172 676.600 27.2506 -19.9749
  173 701.641 10.8913 2.82778
  174 701.641 10.8913 2.82778
  175 711.956 5.28811 -10.3448
  176 711.956 5.28811 -10.3448
  177 1079.33 92.4019 -74.6919
  178 1079.33 92.4019 -74.6919
  179 702.120 10.6135 -3.40749
  180 702.120 10.6135 -3.40749
  181 526.943 38.6112 -29.9288
  182 526.943 38.6112 -29.9288
  183 927.051 69.7289 0.692871
  184 927.051 69.7289 0.692871
  185 192.789 -153.731 -192.770
  186 192.789 -153.731 -192.770
  187 516.768 -4.87166 127.440
  188 516.768 -4.87166 127.440
  189 677.601 -111.056 -182.429
  190 677.601 -111.056 -182.429
  191 800.109 -22.4513 12.2153
  192 800.109 -22.4513 12.2153
  193 750.000 -2.90879 28.3624
  194 750.000 -2.90879 28.3624
  195 1005.79 37.5949 72.6226
  196 1005.79 37.5949 72.6226
  197 435.050 15.1399 -79.1718
  198 435.050 15.1399 -79.1718
  199 1134.70 49.5942 31.4554
  200 1134.70 49.5942 31.4554
  201 763.436 -9.80907 -30.5438
  202 763.436 -9.80907 -30.5438
  203 712.976 3.76361 9.52719
  204 712.976 3.76361 9.52719
  205 793.778 -31.7537 -18.1196
  206 793.778 -31.7537 -18.1196
  207 864.826 -42.1696 -12.9503
  208 864.826 -42.1696 -12.9503
  209 54.9787 -324.968 29.9834
  210 54.9787 -324.968 29.9834
  211 733.634 3.49185 -24.5149
  212 733.634 3.49185 -24.5149
  213 727.925 5.47380 21.2819
  214 727.925 5.47380 21.2819
  215 699.814 -64.9942 -115.233
  216 699.814 -64.9942 -115.233
  217 816.205 -17.3725 -14.8096
  218 816.205 -17.3725 -14.8096
  219 673.992 23.8419 -38.4548
  220 673.992 23.8419 -38.4548
  221 185.556 -224.850 213.357
  222 185.556 -224.850 213.357
  223 828.761 4.94994 24.0177
  224 828.761 4.94994 24.0177
  225 808.525 21.4190 -21.1225
  226 808.525 21.4190 -21.1225
  227 1123.94 66.9245 -55.0757
  228 1123.94 66.9245 -55.0757
  229 868.199 -30.6669 -7.04410
  230 868.199 -30.6669 -7.04410
  231 937.260 -31.1861 -181.785
  232 937.260 -31.1861 -181.785
  233 703.074 -31.9542 87.7967
  234 703.074 -31.9542 87.7967
  235 692.012 18.9757 2.92265
  236 692.012 18.9757 2.92265
  237 373.057 -52.9886 168.998
  238 373.057 -52.9886 168.998
  239 896.855 -69.4351 209.905
  240 896.855 -69.4351 209.905
  241 257.485 -28.9575 -84.2562
  242 257.485 -28.9575 -84.2562
  243 808.525 -61.4361 -43.2201
  244 808.525 -61.4361 -43.2201
  245 668.064 29.5062 22.0380
  246 668.064 29.5062 22.0380
  247 22.7416 -427.440 -24.9586
  248 22.7416 -427.440 -24.9586
  249 45.6268 -371.405 82.1050
  250 45.6268 -371.405 82.1050
  251 678.411 4.57299 62.2908
  252 678.411 4.57299 62.2908
  253 706.904 2.62992 2.31655
  254 706.904 2.62992 2.31655
  255 701.595 10.9464 0.447160
  256 701.595 10.9464 0.447160
  257 659.755 -8.26016 -83.4570
  258 659.755 -8.26016 -83.4570
  259 707.250 2.40639 -2.45466
  260 707.250 2.40639 -2.45466
  261 777.484 -55.4556 55.0231
  262 777.484 -55.4556 55.0231
  263 724.408 2.43801 -11.6339
  264 724.408 2.43801 -11.6339
  265 565.522 -48.0207 -157.228
  266 565.522 -48.0207 -157.228
  267 949.970 73.8624 1.91615
  268 949.970 73.8624 1.91615
  269 700.692 15.0853 -30.9734
  270 700.692 15.0853 -30.9734
  271 698.294 14.1015 -5.99958
  272 698.294 14.1015 -5.99958
  273 598.875 28.9523 -57.0170
  274 598.875 28.9523 -57.0170
  275 187.038 -65.2252 49.3433
  276 187.038 -65.2252 49.3433
  277 740.388 -125.004 163.413
  278 740.388 -125.004 163.413
  279 705.039 10.1802 11.7715
  280 705.039 10.1802 11.7715
  281 1030.33 72.2925 -18.5924
  282 1030.33 72.2925 -18.5924
  283 1212.53 114.889 152.687
  284 1212.53 114.889 152.687
  285 830.374 -88.6728 57.7864
  286 830.374 -88.6728 57.7864
  287 610.462 30.2516 41.5615
  288 610.462 30.2516 41.5615
  289 758.269 -153.258 216.201
  290 758.269 -153.258 216.201
  291 786.813 -9.62972 20.0615
  292 786.813 -9.62972 20.0615
  293 704.607 6.69584 3.18569
  294 704.607 6.69584 3.18569
  295 695.564 18.5755 -19.4918
  296 695.564 18.5755 -19.4918
  297 701.745 10.7742 -0.875378
  298 701.745 10.7742 -0.875378
  299 710.705 1.91518 -4.45213
  300 710.705 1.91518 -4.45213
  301 723.869 3.44744 11.6771
  302 723.869 3.44744 11.6771
  303 692.167 18.8806 -4.96382
  304 692.167 18.8806 -4.96382
  305 158.688 -261.639 -204.151
  306 158.688 -261.639 -204.151
  307 483.667 32.0182 39.2527
  308 483.667 32.0182 39.2527
  309 705.262 5.60072 -3.05366
  310 705.262 5.60072 -3.05366
  311 626.882 35.5537 -27.7792
  312 626.882 35.5537 -27.7792
  313 628.541 38.7526 10.5136
  314 628.541 38.7526 10.5136
  315 703.973 9.78854 -8.30508
  316 703.973 9.78854 -8.30508
  317 934.008 53.2280 -12.0762
  318 934.008 53.2280 -12.0762
  319 699.208 16.4570 26.9787
  320 699.208 16.4570 26.9787
  321 885.070 30.0106 -16.7938
  322 885.070 30.0106 -16.7938
  323 1268.08 35.0927 87.5075
  324 1268.08 35.0927 87.5075
  325 696.890 17.0280 16.7839
  326 696.890 17.0280 16.7839
  327 686.836 22.5712 8.78111
  328 686.836 22.5712 8.78111
  329 527.525 -93.9211 -313.445
  330 527.525 -93.9211 -313.445
  331 711.111 1.72988 4.35353
  332 711.111 1.72988 4.35353
  333 697.710 14.1974 4.48846
  334 697.710 14.1974 4.48846
  335 674.044 29.4149 1.01217
  336 674.044 29.4149 1.01217
  337 351.135 -122.812 249.651
  338 351.135 -122.812 249.651
  339 863.152 57.2889 3.01037
  340 863.152 57.2889 3.01037
  341 48.8518 -363.238 -93.5754
  342 48.8518 -363.238 -93.5754
  343 548.170 34.4943 34.6129
  344 548.170 34.4943 34.6129
  345 1201.84 15.5949 11.4633
  346 1201.84 15.5949 11.4633
  347 1255.78 65.4894 -90.9435
  348 1255.78 65.4894 -90.9435
  349 608.930 -71.1475 176.019
  350 635.996 -36.3790 128.977
  351 608.930 -71.1475 176.019
  352 635.996 -36.3790 128.977
  353 1219.45 29.2702 44.8835
  354 1219.45 29.2702 44.8835
  355 719.806 -1.30978 48.5254
  356 719.806 -1.30978 48.5254
  357 840.429 -113.833 -130.209
  358 840.429 -113.833 -130.209
  359 808.947 -6.65864 20.3821
  360 808.947 -6.65864 20.3821
  361 537.111 -95.2274 340.984
  362 537.111 -95.2274 340.984
  363 940.774 75.3527 -2.31112
  364 940.774 75.3527 -2.31112
  365 1216.00 10.4777 -9.25383
  366 1216.00 10.4777 -9.25383
  367 762.494 0.0194732 -23.4867
  368 762.494 0.0194732 -23.4867
  369 686.803 24.0358 -10.5364
  370 686.803 24.0358 -10.5364
  371 1041.79 81.4275 31.5444
  372 1041.79 81.4275 31.5444
  373 813.284 34.6052 -4.46793
  374 813.284 34.6052 -4.46793
  375 736.382 2.59042 -14.5939
  376 736.382 2.59042 -14.5939
  377 208.557 -96.5731 -144.876
  378 208.557 -96.5731 -144.876
  379 812.430 -14.8330 4.08405
  380 812.430 -14.8330 4.08405
  381 699.776 -1.41626 -57.5212
  382 699.776 -1.41626 -57.5212
  383 804.723 -1.35855 -24.5750
  384 804.723 -1.35855 -24.5750
  385 1223.26 21.0354 -36.9042
  386 1223.26 21.0354 -36.9042
  387 702.425 10.4605 6.55520
  388 702.425 10.4605 6.55520
  389 853.710 43.0960 18.8732
  390 853.710 43.0960 18.8732
  391 911.448 -16.1238 18.2377
  392 911.448 -16.1238 18.2377
  393 704.767 12.3349 -14.7875
  394 704.767 12.3349 -14.7875
  395 1292.33 136.497 -175.564
  396 1292.33 136.497 -175.564
  397 800.636 -12.1230 -9.43938
  398 800.636 -12.1230 -9.43938
</Section>

newXOutput 215

<Section columns = "stress_xx | stress_yy | stress_xy">
  1 708.772 0.702056 -0.722916
  2 709.095 0.858974 0.973549
  3 708.772 0.702056 -0.722916
  4 709.095 0.858974 0.973549
  5 1050.49 100.833 317.288
  6 1089.22 99.9196 -312.382
  7 1050.49 100.833 317.288
  8 1089.22 99.9196 -312.382
  9 710.359 0.484064 -1.90672
  10 715.595 0.843414 -3.41136
  11 723.243 1.88413 -6.99104
  12 740.958 0.664969 -9.50183
  13 764.131 1.00426 -15.9221
  14 791.873 -7.46464 -16.2632
  15 818.488 -8.79583 -2.81415
  16 810.089 -5.85468 11.5982
  17 784.792 6.65402 21.4262
  18 770.834 15.6470 -0.847318
  19 780.740 7.43283 -20.2560
  20 809.503 -8.75906 -14.0832
  21 811.391 -10.7014 6.59437
  22 795.856 -4.90030 14.1030
  23 759.498 -0.0234270 16.1024
  24 739.478 2.63749 12.0730
  25 723.739 2.16382 6.70681
  26 715.757 0.680480 3.12150
  27 710.749 0.575850 1.84754
  28 710.002 2.47731 1.13469
  29 708.895 5.04902 1.33187
  30 706.163 8.72339 1.19221
  31 705.076 10.1268 -0.114857
  32 706.452 8.28378 -1.42307
  33 708.397 5.50501 -1.19422
  34 709.245 2.81903 -1.28283
  35 710.359 0.484064 -1.90672
  36 715.595 0.843414 -3.41136
  37 723.243 1.88413 -6.99104
  38 740.958 0.664969 -9.50183
  39 764.131 1.00426 -15.9221
  40 791.873 -7.46464 -16.2632
  41 818.488 -8.79583 -2.81415
  42 810.089 -5.85468 11.5982
  43 784.792 6.65402 21.4262
  44 770.834 15.6470 -0.847318
  45 780.740 7.43283 -20.2560
  46 809.503 -8.75906 -14.0832
  47 811.391 -10.7014 6.59437
  48 795.856 -4.90030 14.1030
  49 759.498 -0.0234270 16.1024
  50 739.478 2.63749 12.0730
  51 723.739 2.16382 6.70681
  52 715.757 0.680480 3.12150
  53 710.749 0.575850 1.84754
  54 710.002 2.47731 1.13469
  55 708.895 5.04902 1.33187
  56 706.163 8.72339 1.19221
  57 705.076 10.1268 -0.114857
  58 706.452 8.28378 -1.42307
  59 708.397 5.50501 -1.19422
  60 709.245 2.81903 -1.28283
  61 1441.30 79.9928 155.015
  62 1319.36 21.1640 53.3096
  63 1249.02 8.19065 19.2083
  64 1233.79 6.08642 3.49244
  65 1248.23 8.22727 -16.3429
  66 1302.54 18.0007 -45.8559
  67 1454.97 69.4858 -133.499
  68 198.630 -193.449 -268.733
  69 39.4874 -519.604 -76.3360
  70 8.95508 -607.591 -33.3155
  71 8.66654 -598.443 -14.7314
  72 16.7705 -577.872 35.7671
  73 43.4619 -503.307 81.1413
  74 213.415 -178.253 296.820
  75 1441.30 79.9928 155.015
  76 1319.36 21.1640 53.3096
  77 1249.02 8.19065 19.2083
  78 1233.79 6.08642 3.49244
  79 1248.23 8.22727 -16.3429
  80 1302.54 18.0007 -45.8559
  81 1454.97 69.4858 -133.499
  82 198.630 -193.449 -268.733
  83 39.4874 -519.604 -76.3360
  84 8.95508 -607.591 -33.3155
  85 8.66654 -598.443 -14.7314
  86 16.7705 -577.872 35.7671
  87 43.4619 -503.307 81.1413
  88 213.415 -178.253 296.820
  89 656.121 36.7432 -9.41347
  90 656.121 36.7432 -9.41347
  91 600.150 8.53437 87.0716
  92 577.142 -3.27618 -104.593
  93 600.150 8.53437 87.0716
  94 577.142 -3.27618 -104.593
  95 348.127 11.4061 42.7868
  96 348.127 11.4061 42.7868
  97 871.637 57.0316 -10.4509
  98 884.737 34.4493 19.6231
  99 871.637 57.0316 -10.4509
  100 884.737 34.4493 19.6231
  101 699.966 16.3664 9.08168
  102 699.966 16.3664 9.08168
  103 829.219 -47.2731 6.42514
  104 829.219 -47.2731 6.42514
  105 700.696 17.1388 -11.2281
  106 700.696 17.1388 -11.2281
  107 811.526 -101.590 -96.8475
  108 811.526 -101.590 -96.8475
  109 573.789 -121.109 236.575
  110 573.789 -121.109 236.575
  111 393.869 -69.5766 -192.151
  112 393.869 -69.5766 -192.151
  113 703.006 11.3552 40.4269
  114 703.006 11.3552 40.4269
  115 726.791 4.46412 -38.9045
  116 726.791 4.46412 -38.9045
  117 975.884 69.4030 19.0508
  118 1041.23 66.3635 7.44569
  119 975.884 69.4030 19.0508
  120 1041.23 66.3635 7.44569
  121 1021.70 88.5665 -33.8799
  122 1021.70 88.5665 -33.8799
  123 116.971 -182.789 -66.3546
  124 116.971 -182.789 -66.3546
  125 877.047 -107.395 108.673
  126 877.047 -107.395 108.673
  127 749.829 -18.5223 47.3715
  128 749.829 -18.5223 47.3715
  129 177.770 -157.183 150.686
  130 177.770 -157.183 150.686
  131 700.877 13.6231 -0.561569
  132 700.877 13.6231 -0.561569
  133 748.206 -35.4401 -60.9905
  134 748.206 -35.4401 -60.9905
  135 710.695 5.59776 6.48702
  136 710.695 5.59776 6.48702
  137 711.209 4.93667 -6.03954
  138 711.209 4.93667 -6.03954
  139 718.462 9.51818 -19.8246
  140 718.462 9.51818 -19.8246
  141 715.468 9.30386 17.7829
  142 715.468 9.30386 17.7829
  143 688.068 22.8757 -0.744690
  144 688.068 22.8757 -0.744690
  145 581.626 38.1139 -4.48850
  146 581.626 38.1139 -4.48850
  147 826.411 -29.2362 7.94885
  148 826.411 -29.2362 7.94885
  149 935.347 -27.0482 -48.3293
  150 935.347 -27.0482 -48.3293
  151 729.472 -82.5499 117.192
  152 729.472 -82.5499 117.192
  153 550.158 -147.656 -270.673
  154 550.158 -147.656 -270.673
  155 656.960 26.4977 38.6828
  156 656.960 26.4977 38.6828
  157 841.485 -4.11905 -24.9117
  158 841.485 -4.11905 -24.9117
  159 1127.87 92.6158 70.6578
  160 1127.87 92.6158 70.6578
  161 572.184 -159.976 310.987
  162 572.184 -159.976 310.987
  163 1147.12 36.5055 -13.5369
  164 1147.12 36.5055 -13.5369
  165 685.440 22.8528 17.5737
  166 685.440 22.8528 17.5737
  167 652.705 21.9698 -57.0460
  168 652.705 21.9698 -57.0460
  169 805.840 25.2255 16.2388
  170 805.840 25.2255 16.2388
  171 679.537 27.3629 -20.0535
  172 679.537 27.3629 -20.0535
  173 704.667 10.9348 2.83803
  174 704.667 10.9348 2.83803
  175 715.016 5.30925 -10.3830
  176 715.016 5.30925 -10.3830
  177 1083.78 92.8481 -75.0887
  178 1083.78 92.8481 -75.0887
  179 705.147 10.6560 -3.41978
  180 705.147 10.6560 -3.41978
  181 529.291 38.7837 -30.0567
  182 529.291 38.7837 -30.0567
  183 930.982 70.0357 0.654042
  184 930.982 70.0357 0.654042
  185 193.650 -154.361 -193.709
  186 193.650 -154.361 -193.709
  187 519.048 -4.88776 127.995
  188 519.048 -4.88776 127.995
  189 680.481 -111.545 -183.250
  190 680.481 -111.545 -183.250
  191 803.510 -22.5510 12.2872
  192 803.510 -22.5510 12.2872
  193 753.200 -2.92453 28.4804
  194 753.200 -2.92453 28.4804
  195 1009.96 37.8219 73.0286
  196 1009.96 37.8219 73.0286
  197 437.007 15.2186 -79.5200
  198 437.007 15.2186 -79.5200
  199 1139.34 49.7881 31.5954
  200 1139.34 49.7881 31.5954
  201 766.689 -9.85490 -30.6774
  202 766.689 -9.85490 -30.6774
  203 716.040 3.77854 9.56221
  204 716.040 3.77854 9.56221
  205 797.152 -31.8949 -18.2188
  206 797.152 -31.8949 -18.2188
  207 868.474 -42.3354 -13.0671
  208 868.474 -42.3354 -13.0671
  209 55.2207 -326.386 30.1414
  210 55.2207 -326.386 30.1414
  211 736.773 3.50354 -24.6124
  212 736.773 3.50354 -24.6124
  213 731.043 5.49499 21.3652
  214 731.043 5.49499 21.3652
  215 702.808 -65.2792 -115.743
  216 702.808 -65.2792 -115.743
  217 819.685 -17.4471 -14.8394
  218 819.685 -17.4471 -14.8394
  219 676.916 23.9411 -38.6118
  220 676.916 23.9411 -38.6118
  221 186.356 -225.759 214.414
  222 186.356 -225.759 214.414
  223 832.308 4.98233 24.0794
  224 832.308 4.98233 24.0794
  225 812.014 21.5194 -21.1853
  226 812.014 21.5194 -21.1853
  227 1128.55 67.1982 -55.3310
  228 1128.55 67.1982 -55.3310
  229 871.864 -30.7824 -7.01126
  230 871.864 -30.7824 -7.01126
  231 941.117 -31.2147 -182.672
  232 941.117 -31.2147 -182.672
  233 706.090 -32.0937 88.1765
  234 706.090 -32.0937 88.1765
  235 695.005 19.0524 2.93369
  236 695.005 19.0524 2.93369
  237 374.720 -53.2087 169.766
  238 374.720 -53.2087 169.766
  239 900.546 -69.6467 210.908
  240 900.546 -69.6467 210.908
  241 258.671 -29.0519 -84.6455
  242 258.671 -29.0519 -84.6455
  243 811.946 -61.7030 -43.4388
  244 811.946 -61.7030 -43.4388
  245 670.969 29.6289 22.1261
  246 670.969 29.6289 22.1261
  247 22.8297 -429.346 -25.0952
  248 22.8297 -429.346 -25.0952
  249 45.8213 -373.020 82.5482
  250 45.8213 -373.020 82.5482
  251 681.345 4.59137 62.5521
  252 681.345 4.59137 62.5521
  253 709.947 2.64067 2.32473
  254 709.947 2.64067 2.32473
  255 704.621 10.9898 0.448801
  256 704.621 10.9898 0.448801
  257 662.612 -8.29704 -83.8135
  258 662.612 -8.29704 -83.8135
  259 710.294 2.41633 -2.46333
  260 710.294 2.41633 -2.46333
  261 780.786 -55.6979 55.2816
  262 780.786 -55.6979 55.2816
  263 727.511 2.44736 -11.6774
  264 727.511 2.44736 -11.6774
  265 567.983 -48.2314 -157.920
  266 567.983 -48.2314 -157.920
  267 953.986 74.1840 1.96575
  268 953.986 74.1840 1.96575
  269 703.715 15.1462 -31.0965
  270 703.715 15.1462 -31.0965
  271 701.309 14.1581 -6.02165
  272 701.309 14.1581 -6.02165
  273 601.507 29.0782 -57.2569
  274 601.507 29.0782 -57.2569
  275 187.907 -65.4633 49.5785
  276 187.907 -65.4633 49.5785
  277 743.510 -125.552 164.155
  278 743.510 -125.552 164.155
  279 708.076 10.2212 11.8152
  280 708.076 10.2212 11.8152
  281 1034.63 72.5898 -18.6905
  282 1034.63 72.5898 -18.6905
  283 1217.42 115.452 153.388
  284 1217.42 115.452 153.388
  285 833.868 -89.0503 58.0844
  286 833.868 -89.0503 58.0844
  287 613.144 30.3819 41.7339
  288 613.144 30.3819 41.7339
  289 761.438 -153.921 217.188
  290 761.438 -153.921 217.188
  291 790.154 -9.67409 20.1521
  292 790.154 -9.67409 20.1521
  293 707.642 6.72267 3.19709
  294 707.642 6.72267 3.19709
  295 698.570 18.6510 -19.5668
  296 698.570 18.6510 -19.5668
  297 704.772 10.8170 -0.878515
  298 704.772 10.8170 -0.878515
  299 713.761 1.92296 -4.46810
  300 713.761 1.92296 -4.46810
  301 726.970 3.46092 11.7206
  302 726.970 3.46092 11.7206
  303 695.161 18.9570 -4.98251
  304 695.161 18.9570 -4.98251
  305 159.367 -262.689 -205.173
  306 159.367 -262.689 -205.173
  307 485.835 32.1658 39.4211
  308 485.835 32.1658 39.4211
  309 708.300 5.62329 -3.06453
  310 708.300 5.62329 -3.06453
  311 629.630 35.7045 -27.8938
  312 629.630 35.7045 -27.8938
  313 631.297 38.9168 10.5563
  314 631.297 38.9168 10.5563
  315 707.006 9.82792 -8.33558
  316 707.006 9.82792 -8.33558
  317 937.942 53.4902 -12.2045
  318 937.942 53.4902 -12.2045
  319 702.225 16.5238 27.0844
  320 702.225 16.5238 27.0844
  321 888.826 30.1588 -16.8059
  322 888.826 30.1588 -16.8059
  323 1273.15 35.2252 87.8737
  324 1273.15 35.2252 87.8737
  325 699.900 17.0970 16.8480
  326 699.900 17.0970 16.8480
  327 689.811 22.6630 8.81465
  328 689.811 22.6630 8.81465
  329 529.707 -94.1251 -314.932
  330 529.707 -94.1251 -314.932
  331 714.168 1.73690 4.36913
  332 714.168 1.73690 4.36913
  333 700.723 14.2544 4.50502
  334 700.723 14.2544 4.50502
  335 676.973 29.5361 1.01610
  336 676.973 29.5361 1.01610
  337 352.679 -123.342 250.820
  338 352.679 -123.342 250.820
  339 866.854 57.5419 3.01323
  340 866.854 57.5419 3.01323
  341 49.0542 -364.814 -94.0682
  342 49.0542 -364.814 -94.0682
  343 550.606 34.6466 34.7584
  344 550.606 34.6466 34.7584
  345 1206.66 15.6508 11.5061
  346 1206.66 15.6508 11.5061
  347 1260.82 65.7686 -91.3301
  348 1260.82 65.7686 -91.3301
  349 611.552 -71.4616 176.795
  350 638.745 -36.5377 129.534
  351 611.552 -71.4616 176.795
  352 638.745 -36.5377 129.534
  353 1224.35 29.3780 45.0642
  354 1224.35 29.3780 45.0642
  355 722.897 -1.31806 48.7283
  356 722.897 -1.31806 48.7283
  357 843.933 -114.311 -130.830
  358 843.933 -114.311 -130.830
  359 812.412 -6.68421 20.4421
  360 812.412 -6.68421 20.4421
  361 539.310 -95.4492 342.585
  362 539.310 -95.4492 342.585
  363 944.762 75.6722 -2.31894
  364 944.762 75.6722 -2.31894
  365 1220.87 10.5146 -9.29008
  366 1220.87 10.5146 -9.29008
  367 765.738 0.0164115 -23.5828
  368 765.738 0.0164115 -23.5828
  369 689.778 24.1339 -10.5768
  370 689.778 24.1339 -10.5768
  371 1046.13 81.7723 31.7165
  372 1046.13 81.7723 31.7165
  373 816.798 34.7606 -4.48116
  374 816.798 34.7606 -4.48116
  375 739.528 2.59965 -14.6499
  376 739.528 2.59965 -14.6499
  377 209.522 -96.9608 -145.567
  378 209.522 -96.9608 -145.567
  379 815.885 -14.8980 4.08170
  380 815.885 -14.8980 4.08170
  381 702.791 -1.42506 -57.7642
  382 702.791 -1.42506 -57.7642
  383 808.182 -1.36149 -24.6496
  384 808.182 -1.36149 -24.6496
  385 1228.16 21.1153 -37.0505
  386 1228.16 21.1153 -37.0505
  387 705.453 10.5024 6.57916
  388 705.453 10.5024 6.57916
  389 857.363 43.2936 18.9152
  390 857.363 43.2936 18.9152
  391 915.270 -16.1591 18.3956
  392 915.270 -16.1591 18.3956
  393 707.804 12.3847 -14.8431
  394 707.804 12.3847 -14.8431
  395 1297.48 137.177 -176.357
  396 1297.48 137.177 -176.357
  397 804.031 -12.1786 -9.48859
  398 804.031 -12.1786 -9.48859
</Section>

newXOutput 216

<Section columns = "stress_xx | stress_yy | stress_xy">
  1 711.809 0.705158 -0.725392
  2 712.132 0.862664 0.976873
  3 711.809 0.705158 -0.725392
  4 712.132 0.862664 0.976873
  5 1054.64 101.511 318.727
  6 1093.50 100.603 -313.800
  7 1054.64 101.511 318.727
  8 1093.50 100.603 -313.800
  9 713.401 0.486109 -1.91334
  10 718.654 0.846862 -3.42342
  11 726.328 1.89159 -7.01635
  12 744.104 0.667248 -9.53720
  13 767.361 1.00678 -15.9846
  14 795.208 -7.49983 -16.3321
  15 821.936 -8.83568 -2.83396
  16 813.536 -5.87958 11.6303
  17 788.176 6.68750 21.4952
  18 774.182 15.7197 -0.850132
  19 784.111 7.46685 -20.3225
  20 812.949 -8.79674 -14.1215
  21 814.812 -10.7501 6.63175
  22 799.206 -4.92315 14.1635
  23 762.713 -0.0258781 16.1664
  24 742.619 2.64741 12.1183
  25 726.826 2.17240 6.73099
  26 718.817 0.683287 3.13250
  27 713.792 0.578315 1.85401
  28 713.043 2.48737 1.13854
  29 711.932 5.06923 1.33650
  30 709.192 8.75786 1.19643
  31 708.101 10.1666 -0.115256
  32 709.482 8.31658 -1.42804
  33 711.433 5.52705 -1.19822
  34 712.283 2.83057 -1.28730
  35 713.401 0.486109 -1.91334
  36 718.654 0.846862 -3.42342
  37 726.328 1.89159 -7.01635
  38 744.104 0.667248 -9.53720
  39 767.361 1.00678 -15.9846
  40 795.208 -7.49983 -16.3321
  41 821.936 -8.83568 -2.83396
  42 813.536 -5.87958 11.6303
  43 788.176 6.68750 21.4952
  44 774.182 15.7197 -0.850132
  45 784.111 7.46685 -20.3225
  46 812.949 -8.79674 -14.1215
  47 814.812 -10.7501 6.63175
  48 799.206 -4.92315 14.1635
  49 762.713 -0.0258781 16.1664
  50 742.619 2.64741 12.1183
  51 726.826 2.17240 6.73099
  52 718.817 0.683287 3.13250
  53 713.792 0.578315 1.85401
  54 713.043 2.48737 1.13854
  55 711.932 5.06923 1.33650
  56 709.192 8.75786 1.19643
  57 708.101 10.1666 -0.115256
  58 709.482 8.31658 -1.42804
  59 711.433 5.52705 -1.19822
  60 712.283 2.83057 -1.28730
  61 1446.89 80.3452 155.647
  62 1324.53 21.2436 53.5144
  63 1253.95 8.21595 19.2782
  64 1238.67 6.10686 3.50289
  65 1253.16 8.25636 -16.4020
  66 1307.65 18.0671 -46.0289
  67 1460.62 69.7909 -134.043
  68 199.448 -194.013 -270.033
  69 39.6520 -521.865 -76.7717
  70 8.97292 -610.382 -33.5064
  71 8.68521 -601.209 -14.7988
  72 16.8282 -580.504 35.9729
  73 43.6486 -505.496 81.6065
  74 214.276 -178.753 298.248
  75 1446.89 80.3452 155.647
  76 1324.53 21.2436 53.5144
  77 1253.95 8.21595 19.2782
  78 1238.67 6.10686 3.50289
  79 1253.16 8.25636 -16.4020
  80 1307.65 18.0671 -46.0289
  81 1460.62 69.7909 -134.043
  82 199.448 -194.013 -270.033
  83 39.6520 -521.865 -76.7717
  84 8.97292 -610.382 -33.5064
  85 8.68521 -601.209 -14.7988
  86 16.8282 -580.504 35.9729
  87 43.6486 -505.496 81.6065
  88 214.276 -178.753 298.248
  89 658.970 36.8961 -9.45134
  90 658.970 36.8961 -9.45134
  91 602.765 8.57312 87.4397
  92 579.661 -3.28820 -105.041
  93 602.765 8.57312 87.4397
  94 579.661 -3.28820 -105.041
  95 349.714 11.4777 42.9763
  96 349.714 11.4777 42.9763
  97 875.350 57.2830 -10.4706
  98 888.477 34.6165 19.6459
  99 875.350 57.2830 -10.4706
  100 888.477 34.6165 19.6459
  101 702.974 16.4321 9.11544
  102 702.974 16.4321 9.11544
  103 832.717 -47.4733 6.49671
  104 832.717 -47.4733 6.49671
  105 703.706 17.2079 -11.2700
  106 703.706 17.2079 -11.2700
  107 814.921 -102.028 -97.2989
  108 814.921 -102.028 -97.2989
  109 576.238 -121.642 237.636
  110 576.238 -121.642 237.636
  111 395.602 -69.8714 -193.024
  112 395.602 -69.8714 -193.024
  113 706.022 11.4001 40.5902
  114 706.022 11.4001 40.5902
  115 729.894 4.47930 -39.0637
  116 729.894 4.47930 -39.0637
  117 979.963 69.7264 19.2061
  118 1045.55 66.6303 7.48811
  119 979.963 69.7264 19.2061
  120 1045.55 66.6303 7.48811
  121 1025.95 88.9558 -34.0777
  122 1025.95 88.9558 -34.0777
  123 117.502 -183.539 -66.6853
  124 117.502 -183.539 -66.6853
  125 880.680 -107.826 109.211
  126 880.680 -107.826 109.211
  127 753.016 -18.6049 47.5784
  128 753.016 -18.6049 47.5784
  129 178.571 -157.823 151.421
  130 178.571 -157.823 151.421
  131 703.888 13.6773 -0.563546
  132 703.888 13.6773 -0.563546
  133 751.384 -35.5957 -61.2618
  134 751.384 -35.5957 -61.2618
  135 713.738 5.62022 6.51037
  136 713.738 5.62022 6.51037
  137 714.254 4.95660 -6.06117
  138 714.254 4.95660 -6.06117
  139 721.533 9.55579 -19.9003
  140 721.533 9.55579 -19.9003
  141 718.529 9.34089 17.8501
  142 718.529 9.34089 17.8501
  143 691.035 22.9683 -0.747688
  144 691.035 22.9683 -0.747688
  145 584.187 38.2776 -4.50772
  146 584.187 38.2776 -4.50772
  147 829.907 -29.3578 7.94398
  148 829.907 -29.3578 7.94398
  149 939.230 -27.1114 -48.6267
  150 939.230 -27.1114 -48.6267
  151 732.559 -82.9103 117.712
  152 732.559 -82.9103 117.712
  153 552.475 -148.269 -271.929
  154 552.475 -148.269 -271.929
  155 659.808 26.6089 38.8405
  156 659.808 26.6089 38.8405
  157 845.051 -4.12756 -24.9693
  158 845.051 -4.12756 -24.9693
  159 1132.48 93.0200 70.9958
  160 1132.48 93.0200 70.9958
  161 574.587 -160.657 312.411
  162 574.587 -160.657 312.411
  163 1151.77 36.6424 -13.5948
  164 1151.77 36.6424 -13.5948
  165 688.397 22.9457 17.6418
  166 688.397 22.9457 17.6418
  167 655.533 22.0626 -57.2825
  168 655.533 22.0626 -57.2825
  169 809.308 25.3421 16.2893
  170 809.308 25.3421 16.2893
  171 682.472 27.4750 -20.1321
  172 682.472 27.4750 -20.1321
  173 707.691 10.9782 2.84826
  174 707.691 10.9782 2.84826
  175 718.074 5.33036 -10.4210
  176 718.074 5.33036 -10.4210
  177 1088.22 93.2945 -75.4858
  178 1088.22 93.2945 -75.4858
  179 708.173 10.6984 -3.43204
  180 708.173 10.6984 -3.43204
  181 531.639 38.9562 -30.1844
  182 531.639 38.9562 -30.1844
  183 934.910 70.3423 0.614909
  184 934.910 70.3423 0.614909
  185 194.510 -154.990 -194.649
  186 194.510 -154.990 -194.649
  187 521.328 -4.90381 128.549
  188 521.328 -4.90381 128.549
  189 683.359 -112.033 -184.072
  190 683.359 -112.033 -184.072
  191 806.909 -22.6507 12.3592
  192 806.909 -22.6507 12.3592
  193 756.398 -2.94029 28.5983
  194 756.398 -2.94029 28.5983
  195 1014.13 38.0494 73.4350
  196 1014.13 38.0494 73.4350
  197 438.962 15.2974 -79.8681
  198 438.962 15.2974 -79.8681
  199 1143.97 49.9817 31.7353
  200 1143.97 49.9817 31.7353
  201 769.940 -9.90072 -30.8109
  202 769.940 -9.90072 -30.8109
  203 719.102 3.79345 9.59717
  204 719.102 3.79345 9.59717
  205 800.523 -32.0361 -18.3180
  206 800.523 -32.0361 -18.3180
  207 872.118 -42.5010 -13.1844
  208 872.118 -42.5010 -13.1844
  209 55.4626 -327.804 30.2995
  210 55.4626 -327.804 30.2995
  211 739.909 3.51519 -24.7097
  212 739.909 3.51519 -24.7097
  213 734.158 5.51614 21.4484
  214 734.158 5.51614 21.4484
  215 705.799 -65.5641 -116.253
  216 705.799 -65.5641 -116.253
  217 823.162 -17.5216 -14.8690
  218 823.162 -17.5216 -14.8690
  219 679.838 24.0403 -38.7686
  220 679.838 24.0403 -38.7686
  221 187.155 -226.667 215.471
  222 187.155 -226.667 215.471
  223 835.851 5.01480 24.1406
  224 835.851 5.01480 24.1406
  225 815.500 21.6199 -21.2477
  226 815.500 21.6199 -21.2477
  227 1133.15 67.4716 -55.5863
  228 1133.15 67.4716 -55.5863
  229 875.526 -30.8976 -6.97791
  230 875.526 -30.8976 -6.97791
  231 944.970 -31.2423 -183.559
  232 944.970 -31.2423 -183.559
  233 709.104 -32.2332 88.5559
  234 709.104 -32.2332 88.5559
  235 697.997 19.1290 2.94470
  236 697.997 19.1290 2.94470
  237 376.383 -53.4285 170.535
  238 376.383 -53.4285 170.535
  239 904.232 -69.8573 211.911
  240 904.232 -69.8573 211.911
  241 259.857 -29.1460 -85.0348
  242 259.857 -29.1460 -85.0348
  243 815.364 -61.9697 -43.6576
  244 815.364 -61.9697 -43.6576
  245 673.872 29.7514 22.2142
  246 673.872 29.7514 22.2142
  247 22.9176 -431.251 -25.2321
  248 22.9176 -431.251 -25.2321
  249 46.0156 -374.634 82.9919
  250 46.0156 -374.634 82.9919
  251 684.277 4.60973 62.8131
  252 684.277 4.60973 62.8131
  253 712.988 2.65140 2.33288
  254 712.988 2.65140 2.33288
  255 707.645 11.0332 0.450438
  256 707.645 11.0332 0.450438
  257 665.468 -8.33390 -84.1696
  258 665.468 -8.33390 -84.1696
  259 713.336 2.42625 -2.47198
  260 713.336 2.42625 -2.47198
  261 784.085 -55.9399 55.5400
  262 784.085 -55.9399 55.5400
  263 730.611 2.45670 -11.7207
  264 730.611 2.45670 -11.7207
  265 570.442 -48.4419 -158.613
  266 570.442 -48.4419 -158.613
  267 957.999 74.5053 2.01563
  268 957.999 74.5053 2.01563
  269 706.735 15.2070 -31.2194
  270 706.735 15.2070 -31.2194
  271 704.322 14.2148 -6.04366
  272 704.322 14.2148 -6.04366
  273 604.139 29.2040 -57.4966
  274 604.139 29.2040 -57.4966
  275 188.775 -65.7008 49.8138
  276 188.775 -65.7008 49.8138
  277 746.630 -126.099 164.897
  278 746.630 -126.099 164.897
  279 711.112 10.2621 11.8589
  280 711.112 10.2621 11.8589
  281 1038.92 72.8867 -18.7887
  282 1038.92 72.8867 -18.7887
  283 1222.30 116.015 154.090
  284 1222.30 116.015 154.090
  285 837.359 -89.4275 58.3826
  286 837.359 -89.4275 58.3826
  287 615.823 30.5120 41.9061
  288 615.823 30.5120 41.9061
  289 764.603 -154.584 218.175
  290 764.603 -154.584 218.175
  291 793.491 -9.71845 20.2426
  292 793.491 -9.71845 20.2426
  293 710.675 6.74946 3.20847
  294 710.675 6.74946 3.20847
  295 701.573 18.7265 -19.6417
  296 701.573 18.7265 -19.6417
  297 707.796 10.8597 -0.881644
  298 707.796 10.8597 -0.881644
  299 716.814 1.93074 -4.48403
  300 716.814 1.93074 -4.48403
  301 730.069 3.47438 11.7641
  302 730.069 3.47438 11.7641
  303 698.153 19.0333 -5.00115
  304 698.153 19.0333 -5.00115
  305 160.044 -263.737 -206.195
  306 160.044 -263.737 -206.195
  307 488.002 32.3135 39.5894
  308 488.002 32.3135 39.5894
  309 711.335 5.64582 -3.07536
  310 711.335 5.64582 -3.07536
  311 632.376 35.8552 -28.0083
  312 632.376 35.8552 -28.0083
  313 634.051 39.0809 10.5989
  314 634.051 39.0809 10.5989
  315 710.038 9.86724 -8.36601
  316 710.038 9.86724 -8.36601
  317 941.873 53.7525 -12.3334
  318 941.873 53.7525 -12.3334
  319 705.240 16.5906 27.1899
  320 705.240 16.5906 27.1899
  321 892.579 30.3070 -16.8175
  322 892.579 30.3070 -16.8175
  323 1278.21 35.3575 88.2394
  324 1278.21 35.3575 88.2394
  325 702.907 17.1660 16.9119
  326 702.907 17.1660 16.9119
  327 692.784 22.7548 8.84812
  328 692.784 22.7548 8.84812
  329 531.886 -94.3272 -316.419
  330 531.886 -94.3272 -316.419
  331 717.222 1.74391 4.38469
  332 717.222 1.74391 4.38469
  333 703.734 14.3113 4.52154
  334 703.734 14.3113 4.52154
  335 679.901 29.6571 1.02002
  336 679.901 29.6571 1.02002
  337 354.222 -123.871 251.989
  338 354.222 -123.871 251.989
  339 870.552 57.7947 3.01602
  340 870.552 57.7947 3.01602
  341 49.2564 -366.388 -94.5615
  342 49.2564 -366.388 -94.5615
  343 553.040 34.7988 34.9038
  344 553.040 34.7988 34.9038
  345 1211.48 15.7066 11.5488
  346 1211.48 15.7066 11.5488
  347 1265.86 66.0475 -91.7163
  348 1265.86 66.0475 -91.7163
  349 614.173 -71.7756 177.571
  350 641.492 -36.6963 130.090
  351 614.173 -71.7756 177.571
  352 641.492 -36.6963 130.090
  353 1229.24 29.4857 45.2446
  354 1229.24 29.4857 45.2446
  355 725.986 -1.32636 48.9311
  356 725.986 -1.32636 48.9311
  357 847.432 -114.788 -131.450
  358 847.432 -114.788 -131.450
  359 815.873 -6.70973 20.5019
  360 815.873 -6.70973 20.5019
  361 541.507 -95.6692 344.185
  362 541.507 -95.6692 344.185
  363 948.748 75.9914 -2.32673
  364 948.748 75.9914 -2.32673
  365 1225.72 10.5514 -9.32628
  366 1225.72 10.5514 -9.32628
  367 768.978 0.0133260 -23.6788
  368 768.978 0.0133260 -23.6788
  369 692.751 24.2320 -10.6172
  370 692.751 24.2320 -10.6172
  371 1050.46 82.1168 31.8888
  372 1050.46 82.1168 31.8888
  373 820.310 34.9159 -4.49433
  374 820.310 34.9159 -4.49433
  375 742.671 2.60887 -14.7058
  376 742.671 2.60887 -14.7058
  377 210.486 -97.3479 -146.259
  378 210.486 -97.3479 -146.259
  379 819.336 -14.9630 4.07920
  380 819.336 -14.9630 4.07920
  381 705.803 -1.43387 -58.0070
  382 705.803 -1.43387 -58.0070
  383 811.638 -1.36441 -24.7239
  384 811.638 -1.36441 -24.7239
  385 1233.06 21.1952 -37.1966
  386 1233.06 21.1952 -37.1966
  387 708.480 10.5443 6.60308
  388 708.480 10.5443 6.60308
  389 861.014 43.4911 18.9569
  390 861.014 43.4911 18.9569
  391 919.087 -16.1941 18.5540
  392 919.087 -16.1941 18.5540
  393 710.838 12.4344 -14.8985
  394 710.838 12.4344 -14.8985
  395 1302.62 137.857 -177.149
  396 1302.62 137.857 -177.149
  397 807.423 -12.2342 -9.53784
  398 807.423 -12.2342 -9.53784
</Section>

newXOutput 217

<Section columns = "stress_xx | stress_yy | stress_xy">
  1 714.843 0.708258 -0.727862
  2 715.168 0.866351 0.980188
  3 714.843 0.708258 -0.727862
  4 715.168 0.866351 0.980188
  5 1058.78 102.191 320.165
  6 1097.78 101.288 -315.217
  7 1058.78 102.191 320.165
  8 1097.78 101.288 -315.217
  9 716.440 0.488153 -1.91994
  10 721.710 0.850306 -3.43544
  11 729.410 1.89903 -7.04160
  12 747.247 0.669521 -9.57250
  13 770.588 1.00928 -16.0470
  14 798.541 -7.53501 -16.4010
  15 825.380 -8.87552 -2.85381
  16 816.980 -5.90446 11.6622
  17 791.558 6.72100 21.5639
  18 777.528 15.7925 -0.852937
  19 787.479 7.50087 -20.3889
  20 816.393 -8.83440 -14.1597
  21 818.229 -10.7987 6.66916
  22 802.554 -4.94599 14.2240
  23 765.924 -0.0283472 16.2302
  24 745.758 2.65731 12.1636
  25 729.910 2.18097 6.75511
  26 721.875 0.686091 3.14347
  27 716.833 0.580777 1.86047
  28 716.081 2.49742 1.14238
  29 714.967 5.08942 1.34113
  30 712.218 8.79227 1.20063
  31 711.124 10.2064 -0.115654
  32 712.509 8.34933 -1.43300
  33 714.466 5.54906 -1.20221
  34 715.318 2.84210 -1.29176
  35 716.440 0.488153 -1.91994
  36 721.710 0.850306 -3.43544
  37 729.410 1.89903 -7.04160
  38 747.247 0.669521 -9.57250
  39 770.588 1.00928 -16.0470
  40 798.541 -7.53501 -16.4010
  41 825.380 -8.87552 -2.85381
  42 816.980 -5.90446 11.6622
  43 791.558 6.72100 21.5639
  44 777.528 15.7925 -0.852937
  45 787.479 7.50087 -20.3889
  46 816.393 -8.83440 -14.1597
  47 818.229 -10.7987 6.66916
  48 802.554 -4.94599 14.2240
  49 765.924 -0.0283472 16.2302
  50 745.758 2.65731 12.1636
  51 729.910 2.18097 6.75511
  52 721.875 0.686091 3.14347
  53 716.833 0.580777 1.86047
  54 716.081 2.49742 1.14238
  55 714.967 5.08942 1.34113
  56 712.218 8.79227 1.20063
  57 711.124 10.2064 -0.115654
  58 712.509 8.34933 -1.43300
  59 714.466 5.54906 -1.20221
  60 715.318 2.84210 -1.29176
  61 1452.47 80.6973 156.277
  62 1329.69 21.3229 53.7188
  63 1258.88 8.24116 19.3480
  64 1243.55 6.12723 3.51329
  65 1258.08 8.28539 -16.4611
  66 1312.76 18.1335 -46.2016
  67 1466.25 70.0958 -134.586
  68 200.264 -194.573 -271.333
  69 39.8166 -524.125 -77.2081
  70 8.99055 -613.173 -33.6977
  71 8.70370 -603.974 -14.8661
  72 16.8858 -583.137 36.1791
  73 43.8351 -507.683 82.0725
  74 215.136 -179.251 299.676
  75 1452.47 80.6973 156.277
  76 1329.69 21.3229 53.7188
  77 1258.88 8.24116 19.3480
  78 1243.55 6.12723 3.51329
  79 1258.08 8.28539 -16.4611
  80 1312.76 18.1335 -46.2016
  81 1466.25 70.0958 -134.586
  82 200.264 -194.573 -271.333
  83 39.8166 -524.125 -77.2081
  84 8.99055 -613.173 -33.6977
  85 8.70370 -603.974 -14.8661
  86 16.8858 -583.137 36.1791
  87 43.8351 -507.683 82.0725
  88 215.136 -179.251 299.676
  89 661.818 37.0489 -9.48917
  90 661.818 37.0489 -9.48917
  91 605.379 8.61185 87.8074
  92 582.178 -3.30020 -105.489
  93 605.379 8.61185 87.8074
  94 582.178 -3.30020 -105.489
  95 351.300 11.5495 43.1658
  96 351.300 11.5495 43.1658
  97 879.060 57.5344 -10.4901
  98 892.214 34.7837 19.6681
  99 879.060 57.5344 -10.4901
  100 892.214 34.7837 19.6681
  101 705.980 16.4977 9.14913
  102 705.980 16.4977 9.14913
  103 836.211 -47.6734 6.56860
  104 836.211 -47.6734 6.56860
  105 706.714 17.2768 -11.3119
  106 706.714 17.2768 -11.3119
  107 818.314 -102.466 -97.7502
  108 818.314 -102.466 -97.7502
  109 578.685 -122.175 238.698
  110 578.685 -122.175 238.698
  111 397.335 -70.1659 -193.897
  112 397.335 -70.1659 -193.897
  113 709.036 11.4450 40.7533
  114 709.036 11.4450 40.7533
  115 732.994 4.49445 -39.2227
  116 732.994 4.49445 -39.2227
  117 984.038 70.0497 19.3618
  118 1049.86 66.8969 7.53056
  119 984.038 70.0497 19.3618
  120 1049.86 66.8969 7.53056
  121 1030.20 89.3449 -34.2757
  122 1030.20 89.3449 -34.2757
  123 118.032 -184.289 -67.0161
  124 118.032 -184.289 -67.0161
  125 884.310 -108.256 109.749
  126 884.310 -108.256 109.749
  127 756.201 -18.6874 47.7852
  128 756.201 -18.6874 47.7852
  129 179.373 -158.463 152.157
  130 179.373 -158.463 152.157
  131 706.897 13.7315 -0.565517
  132 706.897 13.7315 -0.565517
  133 754.559 -35.7513 -61.5330
  134 754.559 -35.7513 -61.5330
  135 716.779 5.64266 6.53367
  136 716.779 5.64266 6.53367
  137 717.296 4.97650 -6.08274
  138 717.296 4.97650 -6.08274
  139 724.602 9.59335 -19.9759
  140 724.602 9.59335 -19.9759
  141 721.587 9.37788 17.9173
  142 721.587 9.37788 17.9173
  143 694.000 23.0608 -0.750681
  144 694.000 23.0608 -0.750681
  145 586.747 38.4412 -4.52692
  146 586.747 38.4412 -4.52692
  147 833.400 -29.4793 7.93879
  148 833.400 -29.4793 7.93879
  149 943.109 -27.1741 -48.9246
  150 943.109 -27.1741 -48.9246
  151 735.643 -83.2705 118.231
  152 735.643 -83.2705 118.231
  153 554.791 -148.882 -273.185
  154 554.791 -148.882 -273.185
  155 662.654 26.7200 38.9980
  156 662.654 26.7200 38.9980
  157 848.613 -4.13597 -25.0264
  158 848.613 -4.13597 -25.0264
  159 1137.08 93.4239 71.3338
  160 1137.08 93.4239 71.3338
  161 576.988 -161.337 313.835
  162 576.988 -161.337 313.835
  163 1156.41 36.7790 -13.6526
  164 1156.41 36.7790 -13.6526
  165 691.352 23.0386 17.7097
  166 691.352 23.0386 17.7097
  167 658.358 22.1554 -57.5188
  168 658.358 22.1554 -57.5188
  169 812.774 25.4587 16.3395
  170 812.774 25.4587 16.3395
  171 685.406 27.5870 -20.2105
  172 685.406 27.5870 -20.2105
  173 710.712 11.0215 2.85846
  174 710.712 11.0215 2.85846
  175 721.129 5.35143 -10.4590
  176 721.129 5.35143 -10.4590
  177 1092.67 93.7409 -75.8832
  178 1092.67 93.7409 -75.8832
  179 711.196 10.7407 -3.44427
  180 711.196 10.7407 -3.44427
  181 533.985 39.1286 -30.3120
  182 533.985 39.1286 -30.3120
  183 938.834 70.6487 0.575473
  184 938.834 70.6487 0.575473
  185 195.369 -155.619 -195.588
  186 195.369 -155.619 -195.588
  187 523.606 -4.91982 129.102
  188 523.606 -4.91982 129.102
  189 686.234 -112.521 -184.892
  190 686.234 -112.521 -184.892
  191 810.304 -22.7503 12.4313
  192 810.304 -22.7503 12.4313
  193 759.592 -2.95606 28.7160
  194 759.592 -2.95606 28.7160
  195 1018.29 38.2773 73.8418
  196 1018.29 38.2773 73.8418
  197 440.917 15.3762 -80.2159
  198 440.917 15.3762 -80.2159
  199 1148.60 50.1751 31.8751
  200 1148.60 50.1751 31.8751
  201 773.187 -9.94654 -30.9443
  202 773.187 -9.94654 -30.9443
  203 722.161 3.80833 9.63204
  204 722.161 3.80833 9.63204
  205 803.891 -32.1771 -18.4173
  206 803.891 -32.1771 -18.4173
  207 875.758 -42.6662 -13.3021
  208 875.758 -42.6662 -13.3021
  209 55.7044 -329.220 30.4579
  210 55.7044 -329.220 30.4579
  211 743.043 3.52680 -24.8069
  212 743.043 3.52680 -24.8069
  213 737.271 5.53726 21.5315
  214 737.271 5.53726 21.5315
  215 708.787 -65.8489 -116.763
  216 708.787 -65.8489 -116.763
  217 826.636 -17.5960 -14.8982
  218 826.636 -17.5960 -14.8982
  219 682.758 24.1394 -38.9253
  220 682.758 24.1394 -38.9253
  221 187.954 -227.574 216.528
  222 187.954 -227.574 216.528
  223 839.392 5.04734 24.2015
  224 839.392 5.04734 24.2015
  225 818.982 21.7203 -21.3098
  226 818.982 21.7203 -21.3098
  227 1137.75 67.7446 -55.8415
  228 1137.75 67.7446 -55.8415
  229 879.184 -31.0126 -6.94404
  230 879.184 -31.0126 -6.94404
  231 948.819 -31.2689 -184.446
  232 948.819 -31.2689 -184.446
  233 712.115 -32.3726 88.9351
  234 712.115 -32.3726 88.9351
  235 700.986 19.2055 2.95569
  236 700.986 19.2055 2.95569
  237 378.045 -53.6482 171.303
  238 378.045 -53.6482 171.303
  239 907.913 -70.0669 212.914
  240 907.913 -70.0669 212.914
  241 261.042 -29.2398 -85.4239
  242 261.042 -29.2398 -85.4239
  243 818.778 -62.2362 -43.8765
  244 818.778 -62.2362 -43.8765
  245 676.772 29.8738 22.3021
  246 676.772 29.8738 22.3021
  247 23.0054 -433.155 -25.3691
  248 23.0054 -433.155 -25.3691
  249 46.2097 -376.247 83.4361
  250 46.2097 -376.247 83.4361
  251 687.207 4.62806 63.0738
  252 687.207 4.62806 63.0738
  253 716.026 2.66212 2.34101
  254 716.026 2.66212 2.34101
  255 710.667 11.0765 0.452072
  256 710.667 11.0765 0.452072
  257 668.321 -8.37075 -84.5254
  258 668.321 -8.37075 -84.5254
  259 716.375 2.43617 -2.48061
  260 716.375 2.43617 -2.48061
  261 787.381 -56.1819 55.7984
  262 787.381 -56.1819 55.7984
  263 733.709 2.46601 -11.7640
  264 733.709 2.46601 -11.7640
  265 572.899 -48.6523 -159.304
  266 572.899 -48.6523 -159.304
  267 962.007 74.8264 2.06580
  268 962.007 74.8264 2.06580
  269 709.753 15.2677 -31.3421
  270 709.753 15.2677 -31.3421
  271 707.332 14.2713 -6.06563
  272 707.332 14.2713 -6.06563
  273 606.768 29.3297 -57.7360
  274 606.768 29.3297 -57.7360
  275 189.643 -65.9378 50.0491
  276 189.643 -65.9378 50.0491
  277 749.746 -126.646 165.638
  278 749.746 -126.646 165.638
  279 714.144 10.3029 11.9024
  280 714.144 10.3029 11.9024
  281 1043.21 73.1833 -18.8869
  282 1043.21 73.1833 -18.8869
  283 1227.17 116.578 154.791
  284 1227.17 116.578 154.791
  285 840.847 -89.8044 58.6811
  286 840.847 -89.8044 58.6811
  287 618.502 30.6421 42.0781
  288 618.502 30.6421 42.0781
  289 767.765 -155.246 219.162
  290 767.765 -155.246 219.162
  291 796.826 -9.76281 20.3331
  292 796.826 -9.76281 20.3331
  293 713.706 6.77621 3.21982
  294 713.706 6.77621 3.21982
  295 704.573 18.8018 -19.7164
  296 704.573 18.8018 -19.7164
  297 710.818 10.9024 -0.884765
  298 710.818 10.9024 -0.884765
  299 719.865 1.93850 -4.49992
  300 719.865 1.93850 -4.49992
  301 733.166 3.48781 11.8075
  302 733.166 3.48781 11.8075
  303 701.142 19.1095 -5.01976
  304 701.142 19.1095 -5.01976
  305 160.722 -264.784 -207.218
  306 160.722 -264.784 -207.218
  307 490.168 32.4611 39.7576
  308 490.168 32.4611 39.7576
  309 714.367 5.66833 -3.08617
  310 714.367 5.66833 -3.08617
  311 635.121 36.0058 -28.1226
  312 635.121 36.0058 -28.1226
  313 636.803 39.2449 10.6415
  314 636.803 39.2449 10.6415
  315 713.067 9.90651 -8.39637
  316 713.067 9.90651 -8.39637
  317 945.801 54.0148 -12.4628
  318 945.801 54.0148 -12.4628
  319 708.253 16.6573 27.2953
  320 708.253 16.6573 27.2953
  321 896.329 30.4553 -16.8286
  322 896.329 30.4553 -16.8286
  323 1283.26 35.4895 88.6048
  324 1283.26 35.4895 88.6048
  325 705.913 17.2349 16.9757
  326 705.913 17.2349 16.9757
  327 695.755 22.8464 8.88153
  328 695.755 22.8464 8.88153
  329 534.062 -94.5272 -317.906
  330 534.062 -94.5272 -317.906
  331 720.274 1.75091 4.40021
  332 720.274 1.75091 4.40021
  333 706.743 14.3681 4.53803
  334 706.743 14.3681 4.53803
  335 682.826 29.7780 1.02394
  336 682.826 29.7780 1.02394
  337 355.764 -124.400 253.157
  338 355.764 -124.400 253.157
  339 874.248 58.0474 3.01871
  340 874.248 58.0474 3.01871
  341 49.4584 -367.962 -95.0552
  342 49.4584 -367.962 -95.0552
  343 555.474 34.9509 35.0490
  344 555.474 34.9509 35.0490
  345 1216.29 15.7623 11.5915
  346 1216.29 15.7623 11.5915
  347 1270.89 66.3262 -92.1020
  348 1270.89 66.3262 -92.1020
  349 616.791 -72.0895 178.347
  350 644.237 -36.8548 130.646
  351 616.791 -72.0895 178.347
  352 644.237 -36.8548 130.646
  353 1234.12 29.5931 45.4247
  354 1234.12 29.5931 45.4247
  355 729.072 -1.33468 49.1336
  356 729.072 -1.33468 49.1336
  357 850.928 -115.265 -132.071
  358 850.928 -115.265 -132.071
  359 819.332 -6.73520 20.5614
  360 819.332 -6.73520 20.5614
  361 543.701 -95.8872 345.785
  362 543.701 -95.8872 345.785
  363 952.729 76.3104 -2.33449
  364 952.729 76.3104 -2.33449
  365 1230.57 10.5882 -9.36242
  366 1230.57 10.5882 -9.36242
  367 772.216 0.0102168 -23.7747
  368 772.216 0.0102168 -23.7747
  369 695.721 24.3299 -10.6575
  370 695.721 24.3299 -10.6575
  371 1054.79 82.4610 32.0611
  372 1054.79 82.4610 32.0611
  373 823.819 35.0712 -4.50743
  374 823.819 35.0712 -4.50743
  375 745.811 2.61806 -14.7616
  376 745.811 2.61806 -14.7616
  377 211.451 -97.7345 -146.950
  378 211.451 -97.7345 -146.950
  379 822.785 -15.0280 4.07653
  380 822.785 -15.0280 4.07653
  381 708.813 -1.44271 -58.2495
  382 708.813 -1.44271 -58.2495
  383 815.091 -1.36729 -24.7979
  384 815.091 -1.36729 -24.7979
  385 1237.94 21.2749 -37.3425
  386 1237.94 21.2749 -37.3425
  387 711.504 10.5861 6.62694
  388 711.504 10.5861 6.62694
  389 864.662 43.6885 18.9982
  390 864.662 43.6885 18.9982
  391 922.900 -16.2287 18.7130
  392 922.900 -16.2287 18.7130
  393 713.870 12.4841 -14.9538
  394 713.870 12.4841 -14.9538
  395 1307.76 138.538 -177.940
  396 1307.76 138.538 -177.940
  397 810.811 -12.2898 -9.58711
  398 810.811 -12.2898 -9.58711
</Section>

newXOutput 218

<Section columns = "stress_xx | stress_yy | stress_xy">
  1 717.875 0.711357 -0.730325
  2 718.201 0.870035 0.983493
  3 717.875 0.711357 -0.730325
  4 718.201 0.870035 0.983493
  5 1062.91 102.873 321.603
  6 1102.04 101.975 -316.634
  7 1062.91 102.873 321.603
  8 1102.04 101.975 -316.634
  9 719.477 0.490194 -1.92653
  10 724.765 0.853746 -3.44743
  11 732.490 1.90647 -7.06680
  12 750.388 0.671788 -9.60774
  13 773.812 1.01176 -16.1093
  14 801.870 -7.57020 -16.4698
  15 828.820 -8.91535 -2.87372
  16 820.421 -5.92932 11.6939
  17 794.938 6.75452 21.6324
  18 780.872 15.8652 -0.855732
  19 790.846 7.53489 -20.4550
  20 819.833 -8.87203 -14.1977
  21 821.642 -10.8473 6.70663
  22 805.899 -4.96883 14.2845
  23 769.134 -0.0308341 16.2940
  24 748.894 2.66720 12.2087
  25 732.992 2.18952 6.77918
  26 724.930 0.688892 3.15440
  27 719.872 0.583238 1.86691
  28 719.117 2.50746 1.14620
  29 718.000 5.10958 1.34574
  30 715.242 8.82663 1.20483
  31 714.145 10.2461 -0.116050
  32 715.534 8.38203 -1.43794
  33 717.496 5.57104 -1.20618
  34 718.351 2.85362 -1.29621
  35 719.477 0.490194 -1.92653
  36 724.765 0.853746 -3.44743
  37 732.490 1.90647 -7.06680
  38 750.388 0.671788 -9.60774
  39 773.812 1.01176 -16.1093
  40 801.870 -7.57020 -16.4698
  41 828.820 -8.91535 -2.87372
  42 820.421 -5.92932 11.6939
  43 794.938 6.75452 21.6324
  44 780.872 15.8652 -0.855732
  45 790.846 7.53489 -20.4550
  46 819.833 -8.87203 -14.1977
  47 821.642 -10.8473 6.70663
  48 805.899 -4.96883 14.2845
  49 769.134 -0.0308341 16.2940
  50 748.894 2.66720 12.2087
  51 732.992 2.18952 6.77918
  52 724.930 0.688892 3.15440
  53 719.872 0.583238 1.86691
  54 719.117 2.50746 1.14620
  55 718.000 5.10958 1.34574
  56 715.242 8.82663 1.20483
  57 714.145 10.2461 -0.116050
  58 715.534 8.38203 -1.43794
  59 717.496 5.57104 -1.20618
  60 718.351 2.85362 -1.29621
  61 1458.04 81.0493 156.907
  62 1334.84 21.4022 53.9229
  63 1263.79 8.26628 19.4176
  64 1248.41 6.14756 3.52366
  65 1262.99 8.31436 -16.5200
  66 1317.86 18.1997 -46.3740
  67 1471.88 70.4005 -135.128
  68 201.079 -195.131 -272.634
  69 39.9809 -526.383 -77.6451
  70 9.00798 -615.963 -33.8893
  71 8.72201 -606.739 -14.9335
  72 16.9432 -585.768 36.3857
  73 44.0215 -509.868 82.5393
  74 215.995 -179.745 301.104
  75 1458.04 81.0493 156.907
  76 1334.84 21.4022 53.9229
  77 1263.79 8.26628 19.4176
  78 1248.41 6.14756 3.52366
  79 1262.99 8.31436 -16.5200
  80 1317.86 18.1997 -46.3740
  81 1471.88 70.4005 -135.128
  82 201.079 -195.131 -272.634
  83 39.9809 -526.383 -77.6451
  84 9.00798 -615.963 -33.8893
  85 8.72201 -606.739 -14.9335
  86 16.9432 -585.768 36.3857
  87 44.0215 -509.868 82.5393
  88 215.995 -179.745 301.104
  89 664.663 37.2014 -9.52694
  90 664.663 37.2014 -9.52694
  91 607.991 8.65057 88.1748
  92 584.694 -3.31217 -105.936
  93 607.991 8.65057 88.1748
  94 584.694 -3.31217 -105.936
  95 352.886 11.6214 43.3552
  96 352.886 11.6214 43.3552
  97 882.767 57.7856 -10.5094
  98 895.948 34.9510 19.6898
  99 882.767 57.7856 -10.5094
  100 895.948 34.9510 19.6898
  101 708.984 16.5632 9.18275
  102 708.984 16.5632 9.18275
  103 839.702 -47.8733 6.64080
  104 839.702 -47.8733 6.64080
  105 709.720 17.3457 -11.3537
  106 709.720 17.3457 -11.3537
  107 821.703 -102.904 -98.2015
  108 821.703 -102.904 -98.2015
  109 581.131 -122.707 239.758
  110 581.131 -122.707 239.758
  111 399.066 -70.4602 -194.770
  112 399.066 -70.4602 -194.770
  113 712.048 11.4898 40.9161
  114 712.048 11.4898 40.9161
  115 736.092 4.50955 -39.3816
  116 736.092 4.50955 -39.3816
  117 988.109 70.3731 19.5180
  118 1054.17 67.1630 7.57306
  119 988.109 70.3731 19.5180
  120 1054.17 67.1630 7.57306
  121 1034.45 89.7337 -34.4740
  122 1034.45 89.7337 -34.4740
  123 118.563 -185.037 -67.3471
  124 118.563 -185.037 -67.3471
  125 887.935 -108.686 110.286
  126 887.935 -108.686 110.286
  127 759.384 -18.7700 47.9918
  128 759.384 -18.7700 47.9918
  129 180.174 -159.102 152.893
  130 180.174 -159.102 152.893
  131 709.904 13.7856 -0.567484
  132 709.904 13.7856 -0.567484
  133 757.731 -35.9067 -61.8041
  134 757.731 -35.9067 -61.8041
  135 719.818 5.66506 6.55691
  136 719.818 5.66506 6.55691
  137 720.336 4.99638 -6.10426
  138 720.336 4.99638 -6.10426
  139 727.668 9.63085 -20.0514
  140 727.668 9.63085 -20.0514
  141 724.643 9.41481 17.9843
  142 724.643 9.41481 17.9843
  143 696.962 23.1532 -0.753670
  144 696.962 23.1532 -0.753670
  145 589.305 38.6047 -4.54610
  146 589.305 38.6047 -4.54610
  147 836.890 -29.6007 7.93327
  148 836.890 -29.6007 7.93327
  149 946.983 -27.2363 -49.2231
  150 946.983 -27.2363 -49.2231
  151 738.725 -83.6305 118.751
  152 738.725 -83.6305 118.751
  153 557.104 -149.495 -274.440
  154 557.104 -149.495 -274.440
  155 665.497 26.8310 39.1553
  156 665.497 26.8310 39.1553
  157 852.172 -4.14430 -25.0831
  158 852.172 -4.14430 -25.0831
  159 1141.68 93.8276 71.6718
  160 1141.68 93.8276 71.6718
  161 579.386 -162.017 315.259
  162 579.386 -162.017 315.259
  163 1161.05 36.9154 -13.7104
  164 1161.05 36.9154 -13.7104
  165 694.304 23.1313 17.7775
  166 694.304 23.1313 17.7775
  167 661.182 22.2480 -57.7547
  168 661.182 22.2480 -57.7547
  169 816.238 25.5753 16.3896
  170 816.238 25.5753 16.3896
  171 688.337 27.6988 -20.2888
  172 688.337 27.6988 -20.2888
  173 713.732 11.0648 2.86864
  174 713.732 11.0648 2.86864
  175 724.183 5.37248 -10.4969
  176 724.183 5.37248 -10.4969
  177 1097.10 94.1873 -76.2808
  178 1097.10 94.1873 -76.2808
  179 714.216 10.7830 -3.45646
  180 714.216 10.7830 -3.45646
  181 536.329 39.3009 -30.4395
  182 536.329 39.3009 -30.4395
  183 942.755 70.9550 0.535735
  184 942.755 70.9550 0.535735
  185 196.228 -156.246 -196.528
  186 196.228 -156.246 -196.528
  187 525.882 -4.93578 129.655
  188 525.882 -4.93578 129.655
  189 689.106 -113.008 -185.713
  190 689.106 -113.008 -185.713
  191 813.697 -22.8499 12.5035
  192 813.697 -22.8499 12.5035
  193 762.785 -2.97185 28.8336
  194 762.785 -2.97185 28.8336
  195 1022.45 38.5056 74.2491
  196 1022.45 38.5056 74.2491
  197 442.871 15.4550 -80.5636
  198 442.871 15.4550 -80.5636
  199 1153.22 50.3681 32.0148
  200 1153.22 50.3681 32.0148
  201 776.432 -9.99236 -31.0776
  202 776.432 -9.99236 -31.0776
  203 725.217 3.82319 9.66684
  204 725.217 3.82319 9.66684
  205 807.257 -32.3181 -18.5167
  206 807.257 -32.3181 -18.5167
  207 879.395 -42.8312 -13.4203
  208 879.395 -42.8312 -13.4203
  209 55.9460 -330.635 30.6163
  210 55.9460 -330.635 30.6163
  211 746.174 3.53838 -24.9040
  212 746.174 3.53838 -24.9040
  213 740.382 5.55834 21.6144
  214 740.382 5.55834 21.6144
  215 711.773 -66.1334 -117.272
  216 711.773 -66.1334 -117.272
  217 830.106 -17.6704 -14.9272
  218 830.106 -17.6704 -14.9272
  219 685.676 24.2383 -39.0817
  220 685.676 24.2383 -39.0817
  221 188.752 -228.479 217.586
  222 188.752 -228.479 217.586
  223 842.930 5.07997 24.2619
  224 842.930 5.07997 24.2619
  225 822.463 21.8208 -21.3717
  226 822.463 21.8208 -21.3717
  227 1142.35 68.0174 -56.0966
  228 1142.35 68.0174 -56.0966
  229 882.838 -31.1273 -6.90967
  230 882.838 -31.1273 -6.90967
  231 952.662 -31.2946 -185.333
  232 952.662 -31.2946 -185.333
  233 715.123 -32.5119 89.3140
  234 715.123 -32.5119 89.3140
  235 703.973 19.2820 2.96666
  236 703.973 19.2820 2.96666
  237 379.706 -53.8675 172.072
  238 379.706 -53.8675 172.072
  239 911.591 -70.2756 213.918
  240 911.591 -70.2756 213.918
  241 262.227 -29.3332 -85.8130
  242 262.227 -29.3332 -85.8130
  243 822.189 -62.5025 -44.0955
  244 822.189 -62.5025 -44.0955
  245 679.671 29.9961 22.3898
  246 679.671 29.9961 22.3898
  247 23.0930 -435.058 -25.5063
  248 23.0930 -435.058 -25.5063
  249 46.4036 -377.859 83.8808
  250 46.4036 -377.859 83.8808
  251 690.135 4.64636 63.3343
  252 690.135 4.64636 63.3343
  253 719.061 2.67283 2.34913
  254 719.061 2.67283 2.34913
  255 713.686 11.1197 0.453702
  256 713.686 11.1197 0.453702
  257 671.172 -8.40758 -84.8809
  258 671.172 -8.40758 -84.8809
  259 719.411 2.44608 -2.48921
  260 719.411 2.44608 -2.48921
  261 790.674 -56.4236 56.0568
  262 790.674 -56.4236 56.0568
  263 736.805 2.47531 -11.8071
  264 736.805 2.47531 -11.8071
  265 575.354 -48.8625 -159.996
  266 575.354 -48.8625 -159.996
  267 966.011 75.1474 2.11626
  268 966.011 75.1474 2.11626
  269 712.769 15.3283 -31.4646
  270 712.769 15.3283 -31.4646
  271 710.341 14.3278 -6.08754
  272 710.341 14.3278 -6.08754
  273 609.397 29.4553 -57.9752
  274 609.397 29.4553 -57.9752
  275 190.511 -66.1742 50.2844
  276 190.511 -66.1742 50.2844
  277 752.860 -127.192 166.379
  278 752.860 -127.192 166.379
  279 717.175 10.3437 11.9459
  280 717.175 10.3437 11.9459
  281 1047.50 73.4796 -18.9852
  282 1047.50 73.4796 -18.9852
  283 1232.04 117.142 155.491
  284 1232.04 117.142 155.491
  285 844.331 -90.1809 58.9797
  286 844.331 -90.1809 58.9797
  287 621.178 30.7721 42.2500
  288 621.178 30.7721 42.2500
  289 770.923 -155.908 220.148
  290 770.923 -155.908 220.148
  291 800.158 -9.80716 20.4236
  292 800.158 -9.80716 20.4236
  293 716.735 6.80292 3.23114
  294 716.735 6.80292 3.23114
  295 707.572 18.8770 -19.7910
  296 707.572 18.8770 -19.7910
  297 713.838 10.9449 -0.887879
  298 713.838 10.9449 -0.887879
  299 722.913 1.94626 -4.51577
  300 722.913 1.94626 -4.51577
  301 736.260 3.50122 11.8508
  302 736.260 3.50122 11.8508
  303 704.130 19.1856 -5.03834
  304 704.130 19.1856 -5.03834
  305 161.398 -265.829 -208.241
  306 161.398 -265.829 -208.241
  307 492.333 32.6086 39.9256
  308 492.333 32.6086 39.9256
  309 717.398 5.69080 -3.09696
  310 717.398 5.69080 -3.09696
  311 637.864 36.1562 -28.2369
  312 637.864 36.1562 -28.2369
  313 639.554 39.4087 10.6840
  314 639.554 39.4087 10.6840
  315 716.093 9.94572 -8.42667
  316 716.093 9.94572 -8.42667
  317 949.724 54.2773 -12.5927
  318 949.724 54.2773 -12.5927
  319 711.264 16.7239 27.4005
  320 711.264 16.7239 27.4005
  321 900.075 30.6037 -16.8391
  322 900.075 30.6037 -16.8391
  323 1288.31 35.6213 88.9697
  324 1288.31 35.6213 88.9697
  325 708.916 17.3037 17.0395
  326 708.916 17.3037 17.0395
  327 698.724 22.9379 8.91488
  328 698.724 22.9379 8.91488
  329 536.236 -94.7252 -319.392
  330 536.236 -94.7252 -319.392
  331 723.324 1.75790 4.41570
  332 723.324 1.75790 4.41570
  333 709.749 14.4248 4.55448
  334 709.749 14.4248 4.55448
  335 685.749 29.8987 1.02785
  336 685.749 29.8987 1.02785
  337 357.304 -124.928 254.326
  338 357.304 -124.928 254.326
  339 877.940 58.2999 3.02133
  340 877.940 58.2999 3.02133
  341 49.6601 -369.534 -95.5495
  342 49.6601 -369.534 -95.5495
  343 557.906 35.1029 35.1941
  344 557.906 35.1029 35.1941
  345 1221.09 15.8179 11.6340
  346 1221.09 15.8179 11.6340
  347 1275.91 66.6047 -92.4874
  348 1275.91 66.6047 -92.4874
  349 619.407 -72.4031 179.122
  350 646.980 -37.0132 131.202
  351 619.407 -72.4031 179.122
  352 646.980 -37.0132 131.202
  353 1238.99 29.7003 45.6046
  354 1238.99 29.7003 45.6046
  355 732.155 -1.34301 49.3359
  356 732.155 -1.34301 49.3359
  357 854.420 -115.742 -132.692
  358 854.420 -115.742 -132.692
  359 822.788 -6.76062 20.6206
  360 822.788 -6.76062 20.6206
  361 545.892 -96.1033 347.385
  362 545.892 -96.1033 347.385
  363 956.707 76.6290 -2.34223
  364 956.707 76.6290 -2.34223
  365 1235.41 10.6248 -9.39850
  366 1235.41 10.6248 -9.39850
  367 775.451 0.00708378 -23.8704
  368 775.451 0.00708378 -23.8704
  369 698.690 24.4276 -10.6977
  370 698.690 24.4276 -10.6977
  371 1059.12 82.8050 32.2336
  372 1059.12 82.8050 32.2336
  373 827.325 35.2264 -4.52047
  374 827.325 35.2264 -4.52047
  375 748.948 2.62722 -14.8172
  376 748.948 2.62722 -14.8172
  377 212.415 -98.1206 -147.642
  378 212.415 -98.1206 -147.642
  379 826.230 -15.0929 4.07370
  380 826.230 -15.0929 4.07370
  381 711.821 -1.45156 -58.4917
  382 711.821 -1.45156 -58.4917
  383 818.541 -1.37015 -24.8716
  384 818.541 -1.37015 -24.8716
  385 1242.83 21.3544 -37.4882
  386 1242.83 21.3544 -37.4882
  387 714.525 10.6278 6.65074
  388 714.525 10.6278 6.65074
  389 868.306 43.8860 19.0391
  390 868.306 43.8860 19.0391
  391 926.710 -16.2630 18.8725
  392 926.710 -16.2630 18.8725
  393 716.900 12.5336 -15.0090
  394 716.900 12.5336 -15.0090
  395 1312.89 139.218 -178.732
  396 1312.89 139.218 -178.732
  397 814.197 -12.3454 -9.63642
  398 814.197 -12.3454 -9.63642
</Section>

newXOutput 219

<Section columns = "stress_xx | stress_yy | stress_xy">
  1 3.60892e-07 8.14498e-09 2.60462e-09
  2 -3.71607e-07 -6.50289e-09 4.53720e-10
  3 3.60891e-07 8.14362e-09 2.60500e-09
  4 -3.71605e-07 -6.50198e-09 4.53388e-10
  5 1.81908e-08 -1.16940e-07 5.10830e-10
  6 -1.00017e-08 -1.41391e-07 -3.85141e-08
  7 1.81874e-08 -1.16941e-07 5.08676e-10
  8 -1.00017e-08 -1.41391e-07 -3.85132e-08
  9 3.86314e-07 -7.62763e-10 -7.28914e-09
  10 4.26609e-07 -5.10954e-09 -1.24897e-08
  11 4.33156e-07 8.62656e-09 -2.89792e-08
  12 5.47546e-07 1.40447e-08 -6.14425e-08
  13 7.46284e-07 7.42073e-08 -1.72900e-07
  14 1.24839e-06 1.73754e-07 -4.49672e-07
  15 2.72403e-06 2.48270e-07 -9.83577e-07
  16 2.80877e-06 2.65612e-08 -7.36288e-07
  17 1.39556e-06 -6.57726e-07 3.19049e-07
  18 3.08228e-09 2.38174e-09 -3.50261e-09
  19 5.68737e-09 -2.30163e-09 8.67972e-10
  20 -1.31326e-08 -6.31167e-09 1.49403e-08
  21 -7.83502e-08 -6.11544e-09 3.65103e-08
  22 -1.36973e-07 1.10867e-09 4.61877e-08
  23 -2.25563e-07 5.43272e-09 4.30415e-08
  24 -3.08440e-07 7.62217e-09 3.05163e-08
  25 -3.44413e-07 7.98559e-09 2.23364e-08
  26 -4.08420e-07 1.29412e-08 1.29894e-08
  27 -3.94831e-07 8.32430e-09 4.45674e-09
  28 -3.12207e-07 1.85901e-09 1.10292e-08
  29 -2.39777e-07 1.92819e-08 7.81945e-09
  30 -1.16699e-07 2.67535e-08 1.06623e-08
  31 4.50533e-09 3.08013e-08 5.75212e-09
  32 1.26382e-07 2.31723e-08 -3.65086e-09
  33 2.19001e-07 1.15874e-08 1.08276e-09
  34 2.85085e-07 1.06590e-08 -6.09721e-10
  35 3.86315e-07 -7.62460e-10 -7.28866e-09
  36 4.26609e-07 -5.10954e-09 -1.24890e-08
  37 4.33156e-07 8.62474e-09 -2.89793e-08
  38 5.47545e-07 1.40429e-08 -6.14428e-08
  39 7.46283e-07 7.42066e-08 -1.72900e-07
  40 1.24839e-06 1.73754e-07 -4.49673e-07
  41 2.72403e-06 2.48269e-07 -9.83577e-07
  42 2.80877e-06 2.65630e-08 -7.36288e-07
  43 1.39556e-06 -6.57725e-07 3.19049e-07
  44 3.08182e-09 2.37969e-09 -3.50271e-09
  45 5.68586e-09 -2.30314e-09 8.68448e-10
  46 -1.31317e-08 -6.31144e-09 1.49397e-08
  47 -7.83527e-08 -6.11635e-09 3.65094e-08
  48 -1.36972e-07 1.11019e-09 4.61871e-08
  49 -2.25561e-07 5.43575e-09 4.30408e-08
  50 -3.08440e-07 7.62369e-09 3.05168e-08
  51 -3.44415e-07 7.98445e-09 2.23371e-08
  52 -4.08421e-07 1.29394e-08 1.29899e-08
  53 -3.94831e-07 8.32430e-09 4.45650e-09
  54 -3.12205e-07 1.85946e-09 1.10292e-08
  55 -2.39777e-07 1.92816e-08 7.81983e-09
  56 -1.16700e-07 2.67537e-08 1.06623e-08
  57 4.50564e-09 3.08013e-08 5.75182e-09
  58 1.26382e-07 2.31721e-08 -3.65074e-09
  59 2.19001e-07 1.15874e-08 1.08255e-09
  60 2.85085e-07 1.06593e-08 -6.09818e-10
  61 3.60748e-08 -1.45061e-08 -3.91756e-09
  62 3.54976e-08 -3.53490e-10 3.41926e-09
  63 2.56972e-08 8.40070e-10 3.40400e-09
  64 1.74144e-08 8.70993e-10 2.60301e-09
  65 1.14357e-08 7.86713e-10 1.07063e-09
  66 5.80288e-09 9.61033e-11 4.12971e-10
  67 1.68347e-09 -4.74453e-10 1.65525e-10
  68 8.57926e-09 -2.41216e-07 -3.48143e-08
  69 7.99325e-09 -2.79013e-07 -1.95139e-08
  70 1.04261e-08 -2.93267e-07 -3.80163e-09
  71 6.03086e-09 -2.81645e-07 1.23997e-08
  72 6.42710e-11 -2.49525e-07 1.30729e-08
  73 1.54311e-10 -2.26850e-07 1.17321e-08
  74 1.69287e-09 -1.92660e-07 1.20186e-08
  75 3.60781e-08 -1.45028e-08 -3.92281e-09
  76 3.55009e-08 -3.50459e-10 3.41893e-09
  77 2.57017e-08 8.40070e-10 3.40544e-09
  78 1.74141e-08 8.69780e-10 2.60253e-09
  79 1.14357e-08 7.86107e-10 1.07103e-09
  80 5.79864e-09 9.61033e-11 4.13447e-10
  81 1.68863e-09 -4.72634e-10 1.64591e-10
  82 8.57381e-09 -2.41215e-07 -3.48110e-08
  83 7.99779e-09 -2.79010e-07 -1.95157e-08
  84 1.04268e-08 -2.93265e-07 -3.80296e-09
  85 6.02601e-09 -2.81646e-07 1.24002e-08
  86 6.57868e-11 -2.49524e-07 1.30744e-08
  87 1.55524e-10 -2.26849e-07 1.17323e-08
  88 1.70288e-09 -1.92658e-07 1.20192e-08
  89 -1.55354e-07 1.68606e-07 8.98768e-08
  90 -1.55354e-07 1.68606e-07 8.98769e-08
  91 -9.76031e-08 -7.99680e-08 2.02479e-07
  92 -3.06521e-07 -1.63727e-07 4.34945e-07
  93 -9.76065e-08 -7.99688e-08 2.02479e-07
  94 -3.06522e-07 -1.63727e-07 4.34946e-07
  95 -2.52126e-08 -2.62877e-07 2.00014e-07
  96 -2.52121e-08 -2.62877e-07 2.00014e-07
  97 -5.04239e-09 -2.26601e-09 4.39113e-10
  98 -2.01544e-10 3.47009e-09 -8.05627e-11
  99 -5.04421e-09 -2.26570e-09 4.39378e-10
  100 -2.00635e-10 3.47063e-09 -8.00859e-11
  101 -1.46030e-07 5.29280e-08 3.64473e-08
  102 -1.46031e-07 5.29288e-08 3.64475e-08
  103 -3.02763e-08 -4.28749e-08 4.96290e-08
  104 -3.02765e-08 -4.28751e-08 4.96285e-08
  105 1.08030e-07 8.79204e-08 -4.31358e-08
  106 1.08028e-07 8.79187e-08 -4.31356e-08
  107 -6.98730e-07 -9.34774e-07 7.44101e-07
  108 -6.98732e-07 -9.34776e-07 7.44099e-07
  109 -2.03105e-09 -1.78652e-07 9.49537e-08
  110 -2.03105e-09 -1.78652e-07 9.49546e-08
  111 -4.99871e-09 -5.20369e-07 2.13932e-07
  112 -4.99598e-09 -5.20369e-07 2.13933e-07
  113 -1.63925e-07 2.93546e-08 1.25128e-07
  114 -1.63926e-07 2.93543e-08 1.25128e-07
  115 1.76912e-07 3.18760e-07 -2.31109e-07
  116 1.76913e-07 3.18760e-07 -2.31109e-07
  117 -4.00041e-09 -2.63332e-08 5.50065e-09
  118 -2.84672e-09 1.50703e-09 5.60290e-09
  119 -4.00147e-09 -2.63340e-08 5.50078e-09
  120 -2.84899e-09 1.50779e-09 5.60254e-09
  121 1.58616e-10 4.58240e-09 3.82911e-09
  122 1.54068e-10 4.58094e-09 3.82671e-09
  123 1.52669e-08 -3.52128e-07 7.11865e-08
  124 1.52665e-08 -3.52128e-07 7.11847e-08
  125 5.25385e-09 -1.07497e-07 4.46884e-08
  126 5.25400e-09 -1.07497e-07 4.46885e-08
  127 -1.03329e-07 -1.83420e-08 1.10925e-07
  128 -1.03328e-07 -1.83407e-08 1.10925e-07
  129 1.82520e-09 -2.52843e-07 7.04673e-08
  130 1.82460e-09 -2.52843e-07 7.04655e-08
  131 -9.63655e-09 4.93075e-08 2.55746e-09
  132 -9.63655e-09 4.93076e-08 2.55756e-09
  133 -5.46159e-07 4.94342e-07 5.41746e-08
  134 -5.46157e-07 4.94342e-07 5.41748e-08
  135 -2.54968e-07 1.52674e-08 2.33735e-08
  136 -2.54968e-07 1.52674e-08 2.33733e-08
  137 2.86411e-07 1.81935e-08 -2.13281e-08
  138 2.86411e-07 1.81937e-08 -2.13280e-08
  139 3.09929e-07 9.80047e-08 -1.03510e-07
  140 3.09929e-07 9.80056e-08 -1.03511e-07
  141 -2.29799e-07 2.42844e-08 5.65010e-08
  142 -2.29800e-07 2.42858e-08 5.65004e-08
  143 -6.50080e-08 9.89687e-08 2.07324e-08
  144 -6.50074e-08 9.89692e-08 2.07328e-08
  145 -2.00975e-07 5.76263e-08 2.47657e-07
  146 -2.00976e-07 5.76244e-08 2.47658e-07
  147 -1.20039e-06 -5.41225e-07 7.84303e-07
  148 -1.20039e-06 -5.41224e-07 7.84303e-07
  149 -4.50782e-09 -5.99975e-07 -2.93384e-08
  150 -4.50455e-09 -5.99975e-07 -2.93388e-08
  151 -3.66019e-08 -1.01265e-07 1.23721e-07
  152 -3.66003e-08 -1.01265e-07 1.23719e-07
  153 -7.05898e-10 -5.98342e-07 6.57422e-08
  154 -7.02000e-10 -5.98340e-07 6.57412e-08
  155 -1.53159e-07 4.59118e-08 1.65508e-07
  156 -1.53160e-07 4.59107e-08 1.65508e-07
  157 -1.36442e-08 -2.13645e-08 1.86358e-08
  158 -1.36426e-08 -2.13628e-08 1.86358e-08
  159 6.27564e-09 -1.25144e-08 2.76222e-09
  160 6.27408e-09 -1.25145e-08 2.75853e-09
  161 3.83716e-09 -1.77062e-07 5.92929e-08
  162 3.83898e-09 -1.77061e-07 5.92958e-08
  163 5.11253e-09 2.78149e-09 5.78395e-09
  164 5.11708e-09 2.78370e-09 5.78404e-09
  165 -1.57279e-07 7.74326e-08 8.16206e-08
  166 -1.57279e-07 7.74327e-08 8.16209e-08
  167 -2.94999e-07 2.56927e-07 1.30394e-07
  168 -2.94995e-07 2.56928e-07 1.30395e-07
  169 9.43904e-10 4.27250e-09 -1.87427e-09
  170 9.41327e-10 4.27099e-09 -1.87547e-09
  171 -5.53279e-08 1.79201e-07 -2.19488e-08
  172 -5.53268e-08 1.79202e-07 -2.19486e-08
  173 -1.07041e-07 3.65703e-08 7.83716e-09
  174 -1.07039e-07 3.65720e-08 7.83665e-09
  175 3.17460e-07 3.06011e-08 -4.39984e-08
  176 3.17460e-07 3.06019e-08 -4.39979e-08
  177 7.54101e-10 1.05281e-09 1.68656e-09
  178 7.55011e-10 1.05268e-09 1.68645e-09
  179 1.11629e-07 3.60619e-08 -1.62229e-08
  180 1.11629e-07 3.60621e-08 -1.62226e-08
  181 -1.77285e-07 -9.62198e-08 3.17641e-07
  182 -1.77285e-07 -9.62198e-08 3.17642e-07
  183 -1.56511e-09 6.87396e-09 1.72065e-09
  184 -1.56732e-09 6.87396e-09 1.72061e-09
  185 2.57105e-08 -4.35793e-07 5.61927e-08
  186 2.57132e-08 -4.35793e-07 5.61943e-08
  187 -4.63624e-08 -1.68966e-07 1.83458e-07
  188 -4.63626e-08 -1.68966e-07 1.83458e-07
  189 -1.28743e-07 -7.41731e-07 4.34244e-07
  190 -1.28740e-07 -7.41731e-07 4.34244e-07
  191 -5.65651e-08 -1.67854e-08 5.44758e-08
  192 -5.65664e-08 -1.67859e-08 5.44758e-08
  193 -1.57965e-07 2.91402e-09 8.03360e-08
  194 -1.57967e-07 2.91246e-09 8.03361e-08
  195 7.46119e-09 -6.11353e-08 1.00717e-08
  196 7.46271e-09 -6.11349e-08 1.00726e-08
  197 -7.89734e-08 -2.98215e-07 3.02422e-07
  198 -7.89756e-08 -2.98215e-07 3.02422e-07
  199 5.60673e-09 7.78224e-10 5.95049e-09
  200 5.61037e-09 7.79437e-10 5.95139e-09
  201 3.20228e-07 4.17898e-07 -4.06870e-07
  202 3.20229e-07 4.17897e-07 -4.06870e-07
  203 -2.79691e-07 1.02561e-08 2.85760e-08
  204 -2.79693e-07 1.02564e-08 2.85759e-08
  205 -2.98632e-07 7.84537e-07 -4.23318e-07
  206 -2.98630e-07 7.84537e-07 -4.23318e-07
  207 -7.17678e-07 -1.33102e-06 7.35829e-07
  208 -7.17677e-07 -1.33102e-06 7.35829e-07
  209 4.27878e-09 -2.84423e-07 4.21697e-08
  210 4.27774e-09 -2.84423e-07 4.21701e-08
  211 4.13818e-07 1.35178e-07 -1.76458e-07
  212 4.13818e-07 1.35179e-07 -1.76458e-07
  213 -2.27352e-07 1.61459e-08 6.35991e-08
  214 -2.27351e-07 1.61476e-08 6.35987e-08
  215 -5.82535e-07 -2.37459e-07 5.46141e-07
  216 -5.82538e-07 -2.37460e-07 5.46141e-07
  217 -2.47261e-08 -1.65313e-08 2.60685e-08
  218 -2.47252e-08 -1.65310e-08 2.60680e-08
  219 -1.57775e-07 2.67692e-07 -1.49625e-08
  220 -1.57777e-07 2.67691e-07 -1.49627e-08
  221 2.59869e-09 -2.11054e-07 3.44081e-08
  222 2.60064e-09 -2.11054e-07 3.44079e-08
  223 -9.73710e-08 -5.93866e-07 8.17621e-07
  224 -9.73712e-08 -5.93866e-07 8.17621e-07
  225 -2.12536e-09 -4.50395e-09 1.30821e-09
  226 -2.12523e-09 -4.50551e-09 1.30871e-09
  227 2.26904e-09 2.97647e-09 4.16149e-09
  228 2.26646e-09 2.97526e-09 4.16259e-09
  229 -1.06500e-08 -4.83342e-08 2.96918e-08
  230 -1.06491e-08 -4.83342e-08 2.96919e-08
  231 -8.09983e-09 -3.30778e-07 -3.45277e-08
  232 -8.10425e-09 -3.30778e-07 -3.45274e-08
  233 -7.58015e-08 -6.06424e-08 1.51310e-07
  234 -7.58014e-08 -6.06410e-08 1.51311e-07
  235 -7.62440e-08 7.00763e-08 1.97772e-08
  236 -7.62448e-08 7.00766e-08 1.97779e-08
  237 -8.13322e-09 -2.20489e-07 1.27567e-07
  238 -8.13127e-09 -2.20488e-07 1.27568e-07
  239 1.37981e-08 -1.22888e-07 2.42382e-08
  240 1.37995e-08 -1.22887e-07 2.42383e-08
  241 -1.34939e-09 -3.80059e-07 1.71398e-07
  242 -1.35181e-09 -3.80060e-07 1.71396e-07
  243 -1.23588e-06 -1.75932e-07 5.41751e-07
  244 -1.23588e-06 -1.75932e-07 5.41752e-07
  245 -1.60511e-07 8.31637e-08 1.21374e-07
  246 -1.60512e-07 8.31624e-08 1.21374e-07
  247 1.27340e-08 -3.01923e-07 1.81549e-08
  248 1.27289e-08 -3.01924e-07 1.81561e-08
  249 3.78168e-10 -2.47284e-07 2.70825e-08
  250 3.77077e-10 -2.47285e-07 2.70821e-08
  251 -1.29261e-07 -7.23568e-09 1.61476e-07
  252 -1.29260e-07 -7.23399e-09 1.61476e-07
  253 -3.09285e-07 8.50871e-09 8.39560e-09
  254 -3.09285e-07 8.50884e-09 8.39555e-09
  255 -3.58770e-08 3.51311e-08 3.40666e-09
  256 -3.58761e-08 3.51314e-08 3.40687e-09
  257 -4.28947e-07 2.37118e-07 2.76325e-07
  258 -4.28945e-07 2.37118e-07 2.76326e-07
  259 3.33536e-07 6.01070e-09 -4.73530e-09
  260 3.33534e-07 6.01040e-09 -4.73543e-09
  261 -5.42180e-08 -5.48915e-08 9.70509e-08
  262 -5.42176e-08 -5.48915e-08 9.70507e-08
  263 4.30466e-07 2.72739e-08 -6.22851e-08
  264 4.30464e-07 2.72723e-08 -6.22861e-08
  265 -1.48125e-07 -4.51807e-07 4.28233e-07
  266 -1.48124e-07 -4.51807e-07 4.28231e-07
  267 -7.74101e-09 -7.63339e-09 3.75287e-09
  268 -7.74071e-09 -7.63384e-09 3.75249e-09
  269 1.15252e-07 2.10895e-07 -1.36516e-07
  270 1.15250e-07 2.10895e-07 -1.36516e-07
  271 8.09097e-08 6.31742e-08 -2.14353e-08
  272 8.09086e-08 6.31733e-08 -2.14359e-08
  273 -2.76045e-07 1.17150e-07 2.89709e-07
  274 -2.76047e-07 1.17150e-07 2.89708e-07
  275 2.22932e-09 -3.02333e-07 1.17785e-07
  276 2.23235e-09 -3.02332e-07 1.17784e-07
  277 -6.73951e-09 -1.34305e-07 9.08661e-08
  278 -6.73648e-09 -1.34303e-07 9.08639e-08
  279 -2.10607e-07 3.10509e-08 4.02758e-08
  280 -2.10607e-07 3.10514e-08 4.02750e-08
  281 -1.33923e-09 4.60614e-09 5.13821e-09
  282 -1.34120e-09 4.60432e-09 5.13768e-09
  283 1.87961e-08 -3.80945e-08 -2.49015e-09
  284 1.87988e-08 -3.80931e-08 -2.48995e-09
  285 -1.70487e-08 -8.26957e-08 6.57832e-08
  286 -1.70465e-08 -8.26945e-08 6.57839e-08
  287 -1.50863e-07 1.21736e-08 2.08821e-07
  288 -1.50863e-07 1.21739e-08 2.08822e-07
  289 5.37766e-09 -1.50977e-07 6.31584e-08
  290 5.38093e-09 -1.50975e-07 6.31589e-08
  291 -1.06814e-07 -4.17895e-09 6.03337e-08
  292 -1.06813e-07 -4.17785e-09 6.03343e-08
  293 -1.93140e-07 2.01104e-08 1.21027e-08
  294 -1.93139e-07 2.01118e-08 1.21027e-08
  295 1.08120e-07 1.32428e-07 -7.80372e-08
  296 1.08122e-07 1.32430e-07 -7.80370e-08
  297 3.91163e-08 3.35571e-08 -2.83254e-09
  298 3.91166e-08 3.35576e-08 -2.83216e-09
  299 3.68709e-07 3.09304e-09 -1.49222e-08
  300 3.68708e-07 3.09334e-09 -1.49225e-08
  301 -2.90246e-07 5.92863e-09 3.60657e-08
  302 -2.90247e-07 5.92936e-09 3.60660e-08
  303 4.29312e-09 8.49601e-08 -9.74101e-09
  304 4.29312e-09 8.49606e-08 -9.74046e-09
  305 1.75455e-08 -3.59787e-07 -1.81535e-08
  306 1.75408e-08 -3.59787e-07 -1.81508e-08
  307 -8.77099e-08 -1.67464e-07 2.49163e-07
  308 -8.77077e-08 -1.67464e-07 2.49164e-07
  309 2.22554e-07 1.75617e-08 -9.21986e-09
  310 2.22554e-07 1.75616e-08 -9.21946e-09
  311 -2.36667e-07 1.77007e-07 1.64578e-07
  312 -2.36670e-07 1.77005e-07 1.64578e-07
  313 -1.73946e-07 1.00845e-07 1.74608e-07
  314 -1.73946e-07 1.00846e-07 1.74608e-07
  315 1.91475e-07 4.38614e-08 -3.50927e-08
  316 1.91475e-07 4.38626e-08 -3.50929e-08
  317 -1.69469e-10 2.64648e-09 1.13944e-09
  318 -1.67650e-10 2.64769e-09 1.13859e-09
  319 -1.85502e-07 4.51005e-08 9.03638e-08
  320 -1.85503e-07 4.51008e-08 9.03636e-08
  321 -7.85505e-09 -2.34889e-08 8.87655e-09
  322 -7.85609e-09 -2.34877e-08 8.87701e-09
  323 2.49229e-08 -2.23044e-09 2.93607e-09
  324 2.49243e-08 -2.22881e-09 2.93659e-09
  325 -1.77858e-07 5.31093e-08 6.24305e-08
  326 -1.77858e-07 5.31087e-08 6.24308e-08
  327 -1.24308e-07 7.94723e-08 4.87209e-08
  328 -1.24308e-07 7.94727e-08 4.87213e-08
  329 -6.46523e-09 -3.53014e-07 -3.95423e-08
  330 -6.45869e-09 -3.53014e-07 -3.95454e-08
  331 -3.47184e-07 1.20837e-08 1.59674e-08
  332 -3.47184e-07 1.20829e-08 1.59677e-08
  333 -1.04978e-07 4.61838e-08 2.05183e-08
  334 -1.04976e-07 4.61841e-08 2.05183e-08
  335 -1.10865e-07 1.21322e-07 5.22007e-08
  336 -1.10865e-07 1.21322e-07 5.22010e-08
  337 6.49197e-10 -2.05898e-07 7.73365e-08
  338 6.50107e-10 -2.05897e-07 7.73359e-08
  339 -1.67271e-09 6.45377e-09 -8.38600e-10
  340 -1.67559e-09 6.45256e-09 -8.39814e-10
  341 1.47393e-08 -3.35944e-07 5.17400e-09
  342 1.47365e-08 -3.35945e-07 5.17444e-09
  343 -1.47313e-07 -5.76903e-08 2.53325e-07
  344 -1.47311e-07 -5.76889e-08 2.53325e-07
  345 1.48392e-08 1.39668e-09 4.55031e-09
  346 1.48407e-08 1.39774e-09 4.55168e-09
  347 2.88552e-09 1.95087e-10 1.40258e-09
  348 2.88477e-09 1.94480e-10 1.40126e-09
  349 -1.92167e-08 -1.52802e-07 1.36256e-07
  350 -5.24171e-08 -1.07742e-07 1.63645e-07
  351 -1.92170e-08 -1.52802e-07 1.36258e-07
  352 -5.24215e-08 -1.07743e-07 1.63646e-07
  353 1.96202e-08 6.54988e-10 5.12042e-09
  354 1.96263e-08 6.57262e-10 5.12394e-09
  355 -1.39063e-07 -2.41016e-11 1.24226e-07
  356 -1.39063e-07 -2.31921e-11 1.24226e-07
  357 -1.24829e-07 -1.23360e-06 2.52131e-07
  358 -1.24825e-07 -1.23360e-06 2.52130e-07
  359 1.02609e-06 -2.08927e-08 2.41636e-07
  360 1.02609e-06 -2.08915e-08 2.41635e-07
  361 6.17620e-09 -1.75773e-07 2.29492e-08
  362 6.18311e-09 -1.75771e-07 2.29507e-08
  363 -5.17108e-09 3.09107e-09 2.66543e-09
  364 -5.17214e-09 3.09077e-09 2.66550e-09
  365 1.17405e-08 1.26220e-09 3.05045e-09
  366 1.17423e-08 1.26347e-09 3.05066e-09
  367 6.74064e-07 1.61076e-07 -2.74123e-07
  368 6.74063e-07 1.61076e-07 -2.74123e-07
  369 -2.74395e-09 1.21295e-07 -1.95729e-08
  370 -2.74243e-09 1.21294e-07 -1.95738e-08
  371 -2.76450e-09 -5.88880e-09 4.61738e-09
  372 -2.76323e-09 -5.88952e-09 4.61707e-09
  373 1.94814e-10 3.09556e-09 -2.49703e-09
  374 1.95359e-10 3.09392e-09 -2.49868e-09
  375 5.01425e-07 4.68915e-08 -9.60001e-08
  376 5.01425e-07 4.68914e-08 -9.59992e-08
  377 2.33520e-08 -4.26794e-07 1.10287e-07
  378 2.33531e-08 -4.26795e-07 1.10290e-07
  379 1.25901e-06 7.52670e-07 -9.41689e-07
  380 1.25901e-06 7.52669e-07 -9.41688e-07
  381 -2.59246e-07 3.92279e-07 -8.62892e-08
  382 -2.59244e-07 3.92280e-07 -8.62897e-08
  383 -4.88799e-09 -7.84021e-09 7.58758e-09
  384 -4.89017e-09 -7.84130e-09 7.58824e-09
  385 6.55973e-09 1.17916e-09 2.28292e-09
  386 6.55837e-09 1.17977e-09 2.28381e-09
  387 -1.69693e-07 2.98410e-08 2.38850e-08
  388 -1.69690e-07 2.98422e-08 2.38847e-08
  389 1.42791e-10 6.19038e-09 -9.74221e-10
  390 1.39153e-10 6.18911e-09 -9.75661e-10
  391 -2.99724e-09 -6.04743e-08 2.46267e-08
  392 -2.99754e-09 -6.04740e-08 2.46290e-08
  393 2.11965e-07 7.61425e-08 -6.59664e-08
  394 2.11967e-07 7.61440e-08 -6.59663e-08
  395 6.45377e-10 -4.23097e-10 4.73625e-10
  396 6.49743e-10 -4.22006e-10 4.72455e-10
  397 1.21805e-06 3.96639e-07 -7.13831e-07
  398 1.21805e-06 3.96640e-07 -7.13832e-07
</Section>

